ODB Name,Step,Frame,Part Instance Name,    Node Label,X,Y,Z,Section Name,Material Name,Section Point,       S-Mises,S-Max. In-Plane Principal (Abs),S-Max. Principal (Abs)
C:/temp/Job-4.odb,Step-1,Increment      1: Step Time =    1.000,"P-4-1",             1,   95.4845E-03,   111.656E-03,            0.,NA,NA,"",   1.71125E+06,   1.78302E+06,   1.78302E+06
C:/temp/Job-4.odb,Step-1,Increment      1: Step Time =    1.000,"P-4-1",             2,   88.8105E-03,   105.572E-03,            0.,NA,NA,"",   584.312E+03,   164.075E+03,   164.075E+03
C:/temp/Job-4.odb,Step-1,Increment      1: Step Time =    1.000,"P-4-1",             3,   87.5533E-03,   101.153E-03,            0.,NA,NA,"",   413.369E+03,  -361.831E+03,  -361.831E+03
C:/temp/Job-4.odb,Step-1,Increment      1: Step Time =    1.000,"P-4-1",             4,   90.0248E-03,   92.4671E-03,            0.,NA,NA,"",   973.869E+03,   895.347E+03,   895.347E+03
C:/temp/Job-4.odb,Step-1,Increment      1: Step Time =    1.000,"P-4-1",             5,   93.4196E-03,   89.3723E-03,            0.,NA,NA,"",   1.66297E+06,   1.70132E+06,   1.70132E+06
C:/temp/Job-4.odb,Step-1,Increment      1: Step Time =    1.000,"P-4-1",             6,   97.7031E-03,   87.7128E-03,            0.,NA,NA,"",   2.14193E+06,   2.23669E+06,   2.23669E+06
C:/temp/Job-4.odb,Step-1,Increment      1: Step Time =    1.000,"P-4-1",             7,   106.580E-03,   89.3723E-03,            0.,NA,NA,"",   1.58846E+06,   1.61575E+06,   1.61575E+06
C:/temp/Job-4.odb,Step-1,Increment      1: Step Time =    1.000,"P-4-1",             8,   109.975E-03,   92.4671E-03,            0.,NA,NA,"",   926.321E+03,   818.570E+03,   818.570E+03
C:/temp/Job-4.odb,Step-1,Increment      1: Step Time =    1.000,"P-4-1",             9,   112.447E-03,   101.153E-03,            0.,NA,NA,"",   481.787E+03,  -408.245E+03,  -408.245E+03
C:/temp/Job-4.odb,Step-1,Increment      1: Step Time =    1.000,"P-4-1",            10,   111.190E-03,   105.572E-03,            0.,NA,NA,"",   578.956E+03,   124.263E+03,   124.263E+03
C:/temp/Job-4.odb,Step-1,Increment      1: Step Time =    1.000,"P-4-1",            11,   104.516E-03,   111.656E-03,            0.,NA,NA,"",   1.74532E+06,   1.83111E+06,   1.83111E+06
C:/temp/Job-4.odb,Step-1,Increment      1: Step Time =    1.000,"P-4-1",            12,   100.000E-03,   112.500E-03,            0.,NA,NA,"",   2.08478E+06,   2.19449E+06,   2.19449E+06
C:/temp/Job-4.odb,Step-1,Increment      1: Step Time =    1.000,"P-4-1",            13,   190.476E-03,            0.,            0.,NA,NA,"",   999.711E+03,   999.699E+03,   999.699E+03
C:/temp/Job-4.odb,Step-1,Increment      1: Step Time =    1.000,"P-4-1",            14,   180.952E-03,            0.,            0.,NA,NA,"",   999.040E+03,   999.022E+03,   999.022E+03
C:/temp/Job-4.odb,Step-1,Increment      1: Step Time =    1.000,"P-4-1",            15,   171.429E-03,            0.,            0.,NA,NA,"",   997.792E+03,   997.713E+03,   997.713E+03
C:/temp/Job-4.odb,Step-1,Increment      1: Step Time =    1.000,"P-4-1",            16,   161.905E-03,            0.,            0.,NA,NA,"",   994.744E+03,   994.590E+03,   994.590E+03
C:/temp/Job-4.odb,Step-1,Increment      1: Step Time =    1.000,"P-4-1",            17,   147.619E-03,            0.,            0.,NA,NA,"",   984.016E+03,   983.959E+03,   983.959E+03
C:/temp/Job-4.odb,Step-1,Increment      1: Step Time =    1.000,"P-4-1",            18,   138.095E-03,            0.,            0.,NA,NA,"",   972.665E+03,   972.603E+03,   972.603E+03
C:/temp/Job-4.odb,Step-1,Increment      1: Step Time =    1.000,"P-4-1",            19,   128.571E-03,            0.,            0.,NA,NA,"",   958.838E+03,   958.819E+03,   958.819E+03
C:/temp/Job-4.odb,Step-1,Increment      1: Step Time =    1.000,"P-4-1",            20,   119.048E-03,            0.,            0.,NA,NA,"",   945.193E+03,   945.262E+03,   945.262E+03
C:/temp/Job-4.odb,Step-1,Increment      1: Step Time =    1.000,"P-4-1",            21,   109.524E-03,            0.,            0.,NA,NA,"",   934.485E+03,   934.634E+03,   934.634E+03
C:/temp/Job-4.odb,Step-1,Increment      1: Step Time =    1.000,"P-4-1",            22,   100.000E-03,            0.,            0.,NA,NA,"",   928.981E+03,   929.240E+03,   929.240E+03
C:/temp/Job-4.odb,Step-1,Increment      1: Step Time =    1.000,"P-4-1",            23,   90.4762E-03,            0.,            0.,NA,NA,"",   930.208E+03,   930.402E+03,   930.402E+03
C:/temp/Job-4.odb,Step-1,Increment      1: Step Time =    1.000,"P-4-1",            24,   80.9524E-03,            0.,            0.,NA,NA,"",   936.590E+03,   936.764E+03,   936.764E+03
C:/temp/Job-4.odb,Step-1,Increment      1: Step Time =    1.000,"P-4-1",            25,   71.4286E-03,            0.,            0.,NA,NA,"",   946.711E+03,   946.719E+03,   946.719E+03
C:/temp/Job-4.odb,Step-1,Increment      1: Step Time =    1.000,"P-4-1",            26,   61.9048E-03,            0.,            0.,NA,NA,"",   958.666E+03,   958.709E+03,   958.709E+03
C:/temp/Job-4.odb,Step-1,Increment      1: Step Time =    1.000,"P-4-1",            27,   47.6190E-03,            0.,            0.,NA,NA,"",   978.704E+03,   978.724E+03,   978.724E+03
C:/temp/Job-4.odb,Step-1,Increment      1: Step Time =    1.000,"P-4-1",            28,   38.0952E-03,            0.,            0.,NA,NA,"",   996.264E+03,   996.267E+03,   996.267E+03
C:/temp/Job-4.odb,Step-1,Increment      1: Step Time =    1.000,"P-4-1",            29,   28.5714E-03,            0.,            0.,NA,NA,"",   1.02470E+06,   1.02490E+06,   1.02490E+06
C:/temp/Job-4.odb,Step-1,Increment      1: Step Time =    1.000,"P-4-1",            30,   19.0476E-03,            0.,            0.,NA,NA,"",   1.08316E+06,   1.08517E+06,   1.08517E+06
C:/temp/Job-4.odb,Step-1,Increment      1: Step Time =    1.000,"P-4-1",            31,   9.52381E-03,            0.,            0.,NA,NA,"",   1.23396E+06,   1.23757E+06,   1.23757E+06
C:/temp/Job-4.odb,Step-1,Increment      1: Step Time =    1.000,"P-4-1",            32,   200.000E-03,            0.,            0.,NA,NA,"",   999.982E+03,   999.964E+03,   999.964E+03
C:/temp/Job-4.odb,Step-1,Increment      1: Step Time =    1.000,"P-4-1",            33,            0.,            0.,            0.,NA,NA,"",   1.57641E+06,   1.65066E+06,   1.65066E+06
C:/temp/Job-4.odb,Step-1,Increment      1: Step Time =    1.000,"P-4-1",            34,   200.000E-03,   190.476E-03,            0.,NA,NA,"",   1.00014E+06,   999.982E+03,   999.982E+03
C:/temp/Job-4.odb,Step-1,Increment      1: Step Time =    1.000,"P-4-1",            35,   200.000E-03,   180.952E-03,            0.,NA,NA,"",   1.00042E+06,   1.00006E+06,   1.00006E+06
C:/temp/Job-4.odb,Step-1,Increment      1: Step Time =    1.000,"P-4-1",            36,   200.000E-03,   171.429E-03,            0.,NA,NA,"",   1.00021E+06,   1.00020E+06,   1.00020E+06
C:/temp/Job-4.odb,Step-1,Increment      1: Step Time =    1.000,"P-4-1",            37,   200.000E-03,   161.905E-03,            0.,NA,NA,"",   998.740E+03,   1.00042E+06,   1.00042E+06
C:/temp/Job-4.odb,Step-1,Increment      1: Step Time =    1.000,"P-4-1",            38,   200.000E-03,   147.619E-03,            0.,NA,NA,"",   992.158E+03,   1.00011E+06,   1.00011E+06
C:/temp/Job-4.odb,Step-1,Increment      1: Step Time =    1.000,"P-4-1",            39,   200.000E-03,   138.095E-03,            0.,NA,NA,"",   985.532E+03,   1.00025E+06,   1.00025E+06
C:/temp/Job-4.odb,Step-1,Increment      1: Step Time =    1.000,"P-4-1",            40,   200.000E-03,   128.571E-03,            0.,NA,NA,"",   977.911E+03,   1.00006E+06,   1.00006E+06
C:/temp/Job-4.odb,Step-1,Increment      1: Step Time =    1.000,"P-4-1",            41,   200.000E-03,   119.048E-03,            0.,NA,NA,"",   970.403E+03,   999.661E+03,   999.661E+03
C:/temp/Job-4.odb,Step-1,Increment      1: Step Time =    1.000,"P-4-1",            42,   200.000E-03,   109.524E-03,            0.,NA,NA,"",   965.083E+03,   999.456E+03,   999.456E+03
C:/temp/Job-4.odb,Step-1,Increment      1: Step Time =    1.000,"P-4-1",            43,   200.000E-03,   100.000E-03,            0.,NA,NA,"",   963.232E+03,   999.425E+03,   999.425E+03
C:/temp/Job-4.odb,Step-1,Increment      1: Step Time =    1.000,"P-4-1",            44,   200.000E-03,   90.4762E-03,            0.,NA,NA,"",   965.266E+03,   999.581E+03,   999.581E+03
C:/temp/Job-4.odb,Step-1,Increment      1: Step Time =    1.000,"P-4-1",            45,   200.000E-03,   80.9524E-03,            0.,NA,NA,"",   970.505E+03,   999.855E+03,   999.855E+03
C:/temp/Job-4.odb,Step-1,Increment      1: Step Time =    1.000,"P-4-1",            46,   200.000E-03,   71.4286E-03,            0.,NA,NA,"",   977.842E+03,   999.726E+03,   999.726E+03
C:/temp/Job-4.odb,Step-1,Increment      1: Step Time =    1.000,"P-4-1",            47,   200.000E-03,   61.9048E-03,            0.,NA,NA,"",   986.665E+03,   1.00050E+06,   1.00050E+06
C:/temp/Job-4.odb,Step-1,Increment      1: Step Time =    1.000,"P-4-1",            48,   200.000E-03,   47.6190E-03,            0.,NA,NA,"",   995.474E+03,   1.00042E+06,   1.00042E+06
C:/temp/Job-4.odb,Step-1,Increment      1: Step Time =    1.000,"P-4-1",            49,   200.000E-03,   38.0952E-03,            0.,NA,NA,"",   998.691E+03,   1.00012E+06,   1.00012E+06
C:/temp/Job-4.odb,Step-1,Increment      1: Step Time =    1.000,"P-4-1",            50,   200.000E-03,   28.5714E-03,            0.,NA,NA,"",   1.00021E+06,   1.00011E+06,   1.00011E+06
C:/temp/Job-4.odb,Step-1,Increment      1: Step Time =    1.000,"P-4-1",            51,   200.000E-03,   19.0476E-03,            0.,NA,NA,"",   1.00039E+06,   1.00005E+06,   1.00005E+06
C:/temp/Job-4.odb,Step-1,Increment      1: Step Time =    1.000,"P-4-1",            52,   200.000E-03,   9.52381E-03,            0.,NA,NA,"",   1.00013E+06,   999.980E+03,   999.980E+03
C:/temp/Job-4.odb,Step-1,Increment      1: Step Time =    1.000,"P-4-1",            53,   200.000E-03,   200.000E-03,            0.,NA,NA,"",   999.981E+03,   999.963E+03,   999.963E+03
C:/temp/Job-4.odb,Step-1,Increment      1: Step Time =    1.000,"P-4-1",            54,   9.52381E-03,   200.000E-03,            0.,NA,NA,"",   1.23235E+06,   1.23579E+06,   1.23579E+06
C:/temp/Job-4.odb,Step-1,Increment      1: Step Time =    1.000,"P-4-1",            55,   19.0476E-03,   200.000E-03,            0.,NA,NA,"",   1.08209E+06,   1.08365E+06,   1.08365E+06
C:/temp/Job-4.odb,Step-1,Increment      1: Step Time =    1.000,"P-4-1",            56,   28.5714E-03,   200.000E-03,            0.,NA,NA,"",   1.02609E+06,   1.02624E+06,   1.02624E+06
C:/temp/Job-4.odb,Step-1,Increment      1: Step Time =    1.000,"P-4-1",            57,   38.0952E-03,   200.000E-03,            0.,NA,NA,"",   999.742E+03,   999.623E+03,   999.623E+03
C:/temp/Job-4.odb,Step-1,Increment      1: Step Time =    1.000,"P-4-1",            58,   52.3810E-03,   200.000E-03,            0.,NA,NA,"",   971.300E+03,   971.585E+03,   971.585E+03
C:/temp/Job-4.odb,Step-1,Increment      1: Step Time =    1.000,"P-4-1",            59,   61.9048E-03,   200.000E-03,            0.,NA,NA,"",   957.191E+03,   957.245E+03,   957.245E+03
C:/temp/Job-4.odb,Step-1,Increment      1: Step Time =    1.000,"P-4-1",            60,   71.4286E-03,   200.000E-03,            0.,NA,NA,"",   945.587E+03,   945.571E+03,   945.571E+03
C:/temp/Job-4.odb,Step-1,Increment      1: Step Time =    1.000,"P-4-1",            61,   80.9524E-03,   200.000E-03,            0.,NA,NA,"",   935.674E+03,   935.845E+03,   935.845E+03
C:/temp/Job-4.odb,Step-1,Increment      1: Step Time =    1.000,"P-4-1",            62,   90.4762E-03,   200.000E-03,            0.,NA,NA,"",   929.720E+03,   929.875E+03,   929.875E+03
C:/temp/Job-4.odb,Step-1,Increment      1: Step Time =    1.000,"P-4-1",            63,   100.000E-03,   200.000E-03,            0.,NA,NA,"",   928.684E+03,   928.975E+03,   928.975E+03
C:/temp/Job-4.odb,Step-1,Increment      1: Step Time =    1.000,"P-4-1",            64,   109.524E-03,   200.000E-03,            0.,NA,NA,"",   935.084E+03,   935.216E+03,   935.216E+03
C:/temp/Job-4.odb,Step-1,Increment      1: Step Time =    1.000,"P-4-1",            65,   119.048E-03,   200.000E-03,            0.,NA,NA,"",   945.945E+03,   946.099E+03,   946.099E+03
C:/temp/Job-4.odb,Step-1,Increment      1: Step Time =    1.000,"P-4-1",            66,   128.571E-03,   200.000E-03,            0.,NA,NA,"",   960.222E+03,   960.240E+03,   960.240E+03
C:/temp/Job-4.odb,Step-1,Increment      1: Step Time =    1.000,"P-4-1",            67,   138.095E-03,   200.000E-03,            0.,NA,NA,"",   974.908E+03,   974.644E+03,   974.644E+03
C:/temp/Job-4.odb,Step-1,Increment      1: Step Time =    1.000,"P-4-1",            68,   152.381E-03,   200.000E-03,            0.,NA,NA,"",   989.233E+03,   989.072E+03,   989.072E+03
C:/temp/Job-4.odb,Step-1,Increment      1: Step Time =    1.000,"P-4-1",            69,   161.905E-03,   200.000E-03,            0.,NA,NA,"",   994.746E+03,   994.705E+03,   994.705E+03
C:/temp/Job-4.odb,Step-1,Increment      1: Step Time =    1.000,"P-4-1",            70,   171.429E-03,   200.000E-03,            0.,NA,NA,"",   997.700E+03,   997.668E+03,   997.668E+03
C:/temp/Job-4.odb,Step-1,Increment      1: Step Time =    1.000,"P-4-1",            71,   180.952E-03,   200.000E-03,            0.,NA,NA,"",   998.973E+03,   998.962E+03,   998.962E+03
C:/temp/Job-4.odb,Step-1,Increment      1: Step Time =    1.000,"P-4-1",            72,   190.476E-03,   200.000E-03,            0.,NA,NA,"",   999.701E+03,   999.684E+03,   999.684E+03
C:/temp/Job-4.odb,Step-1,Increment      1: Step Time =    1.000,"P-4-1",            73,            0.,   200.000E-03,            0.,NA,NA,"",   1.57742E+06,   1.65149E+06,   1.65149E+06
C:/temp/Job-4.odb,Step-1,Increment      1: Step Time =    1.000,"P-4-1",            74,            0.,   9.52381E-03,            0.,NA,NA,"",   1.14165E+06,   1.24287E+06,   1.24287E+06
C:/temp/Job-4.odb,Step-1,Increment      1: Step Time =    1.000,"P-4-1",            75,            0.,   19.0476E-03,            0.,NA,NA,"",   994.472E+03,   1.09953E+06,   1.09953E+06
C:/temp/Job-4.odb,Step-1,Increment      1: Step Time =    1.000,"P-4-1",            76,            0.,   28.5714E-03,            0.,NA,NA,"",   931.652E+03,   1.03663E+06,   1.03663E+06
C:/temp/Job-4.odb,Step-1,Increment      1: Step Time =    1.000,"P-4-1",            77,            0.,   38.0952E-03,            0.,NA,NA,"",   891.444E+03,   996.026E+03,   996.026E+03
C:/temp/Job-4.odb,Step-1,Increment      1: Step Time =    1.000,"P-4-1",            78,            0.,   52.3810E-03,            0.,NA,NA,"",   848.974E+03,   953.118E+03,   953.118E+03
C:/temp/Job-4.odb,Step-1,Increment      1: Step Time =    1.000,"P-4-1",            79,            0.,   61.9048E-03,            0.,NA,NA,"",   826.592E+03,   929.925E+03,   929.925E+03
C:/temp/Job-4.odb,Step-1,Increment      1: Step Time =    1.000,"P-4-1",            80,            0.,   71.4286E-03,            0.,NA,NA,"",   808.001E+03,   910.129E+03,   910.129E+03
C:/temp/Job-4.odb,Step-1,Increment      1: Step Time =    1.000,"P-4-1",            81,            0.,   80.9524E-03,            0.,NA,NA,"",   792.952E+03,   894.057E+03,   894.057E+03
C:/temp/Job-4.odb,Step-1,Increment      1: Step Time =    1.000,"P-4-1",            82,            0.,   90.4762E-03,            0.,NA,NA,"",   783.086E+03,   883.366E+03,   883.366E+03
C:/temp/Job-4.odb,Step-1,Increment      1: Step Time =    1.000,"P-4-1",            83,            0.,   100.000E-03,            0.,NA,NA,"",   779.574E+03,   879.708E+03,   879.708E+03
C:/temp/Job-4.odb,Step-1,Increment      1: Step Time =    1.000,"P-4-1",            84,            0.,   109.524E-03,            0.,NA,NA,"",   783.499E+03,   883.812E+03,   883.812E+03
C:/temp/Job-4.odb,Step-1,Increment      1: Step Time =    1.000,"P-4-1",            85,            0.,   119.048E-03,            0.,NA,NA,"",   793.341E+03,   894.500E+03,   894.500E+03
C:/temp/Job-4.odb,Step-1,Increment      1: Step Time =    1.000,"P-4-1",            86,            0.,   128.571E-03,            0.,NA,NA,"",   808.625E+03,   910.775E+03,   910.775E+03
C:/temp/Job-4.odb,Step-1,Increment      1: Step Time =    1.000,"P-4-1",            87,            0.,   138.095E-03,            0.,NA,NA,"",   827.879E+03,   931.047E+03,   931.047E+03
C:/temp/Job-4.odb,Step-1,Increment      1: Step Time =    1.000,"P-4-1",            88,            0.,   152.381E-03,            0.,NA,NA,"",   862.753E+03,   967.029E+03,   967.029E+03
C:/temp/Job-4.odb,Step-1,Increment      1: Step Time =    1.000,"P-4-1",            89,            0.,   161.905E-03,            0.,NA,NA,"",   891.943E+03,   996.867E+03,   996.867E+03
C:/temp/Job-4.odb,Step-1,Increment      1: Step Time =    1.000,"P-4-1",            90,            0.,   171.429E-03,            0.,NA,NA,"",   929.914E+03,   1.03561E+06,   1.03561E+06
C:/temp/Job-4.odb,Step-1,Increment      1: Step Time =    1.000,"P-4-1",            91,            0.,   180.952E-03,            0.,NA,NA,"",   994.932E+03,   1.09997E+06,   1.09997E+06
C:/temp/Job-4.odb,Step-1,Increment      1: Step Time =    1.000,"P-4-1",            92,            0.,   190.476E-03,            0.,NA,NA,"",   1.14311E+06,   1.24400E+06,   1.24400E+06
C:/temp/Job-4.odb,Step-1,Increment      1: Step Time =    1.000,"P-4-1",            93,   112.891E-03,   78.2837E-03,            0.,NA,NA,"",   1.30145E+06,   1.28615E+06,   1.28615E+06
C:/temp/Job-4.odb,Step-1,Increment      1: Step Time =    1.000,"P-4-1",            94,   189.930E-03,   122.977E-03,            0.,NA,NA,"",   979.518E+03,   998.803E+03,   998.803E+03
C:/temp/Job-4.odb,Step-1,Increment      1: Step Time =    1.000,"P-4-1",            95,   179.981E-03,   119.583E-03,            0.,NA,NA,"",   980.228E+03,   993.274E+03,   993.274E+03
C:/temp/Job-4.odb,Step-1,Increment      1: Step Time =    1.000,"P-4-1",            96,   169.019E-03,   118.389E-03,            0.,NA,NA,"",   977.128E+03,   983.156E+03,   983.156E+03
C:/temp/Job-4.odb,Step-1,Increment      1: Step Time =    1.000,"P-4-1",            97,   161.343E-03,   119.045E-03,            0.,NA,NA,"",   980.154E+03,   979.943E+03,   979.943E+03
C:/temp/Job-4.odb,Step-1,Increment      1: Step Time =    1.000,"P-4-1",            98,   148.891E-03,   121.853E-03,            0.,NA,NA,"",   1.01074E+06,   994.324E+03,   994.324E+03
C:/temp/Job-4.odb,Step-1,Increment      1: Step Time =    1.000,"P-4-1",            99,   142.587E-03,   122.305E-03,            0.,NA,NA,"",   1.03579E+06,   1.00756E+06,   1.00756E+06
C:/temp/Job-4.odb,Step-1,Increment      1: Step Time =    1.000,"P-4-1",           100,   129.891E-03,   120.593E-03,            0.,NA,NA,"",   1.12455E+06,   1.06128E+06,   1.06128E+06
C:/temp/Job-4.odb,Step-1,Increment      1: Step Time =    1.000,"P-4-1",           101,   119.266E-03,   117.656E-03,            0.,NA,NA,"",   1.26852E+06,   1.16668E+06,   1.16668E+06
C:/temp/Job-4.odb,Step-1,Increment      1: Step Time =    1.000,"P-4-1",           102,   112.570E-03,   123.040E-03,            0.,NA,NA,"",   1.30678E+06,   1.30227E+06,   1.30227E+06
C:/temp/Job-4.odb,Step-1,Increment      1: Step Time =    1.000,"P-4-1",           103,   100.023E-03,   123.338E-03,            0.,NA,NA,"",   1.18955E+06,   1.30855E+06,   1.30855E+06
C:/temp/Job-4.odb,Step-1,Increment      1: Step Time =    1.000,"P-4-1",           104,   86.1907E-03,   125.331E-03,            0.,NA,NA,"",   1.25626E+06,   1.25967E+06,   1.25967E+06
C:/temp/Job-4.odb,Step-1,Increment      1: Step Time =    1.000,"P-4-1",           105,   77.4119E-03,   120.349E-03,            0.,NA,NA,"",   1.19739E+06,   1.13885E+06,   1.13885E+06
C:/temp/Job-4.odb,Step-1,Increment      1: Step Time =    1.000,"P-4-1",           106,   66.3731E-03,   121.103E-03,            0.,NA,NA,"",   1.03624E+06,   1.02200E+06,   1.02200E+06
C:/temp/Job-4.odb,Step-1,Increment      1: Step Time =    1.000,"P-4-1",           107,   59.4346E-03,   120.196E-03,            0.,NA,NA,"",   966.741E+03,   978.006E+03,   978.006E+03
C:/temp/Job-4.odb,Step-1,Increment      1: Step Time =    1.000,"P-4-1",           108,   51.4067E-03,   119.945E-03,            0.,NA,NA,"",   921.417E+03,   954.881E+03,   954.881E+03
C:/temp/Job-4.odb,Step-1,Increment      1: Step Time =    1.000,"P-4-1",           109,   40.1794E-03,   121.955E-03,            0.,NA,NA,"",   894.176E+03,   948.607E+03,   948.607E+03
C:/temp/Job-4.odb,Step-1,Increment      1: Step Time =    1.000,"P-4-1",           110,   29.8866E-03,   120.674E-03,            0.,NA,NA,"",   860.559E+03,   932.293E+03,   932.293E+03
C:/temp/Job-4.odb,Step-1,Increment      1: Step Time =    1.000,"P-4-1",           111,   18.9843E-03,   120.837E-03,            0.,NA,NA,"",   833.685E+03,   919.755E+03,   919.755E+03
C:/temp/Job-4.odb,Step-1,Increment      1: Step Time =    1.000,"P-4-1",           112,   11.3436E-03,   119.584E-03,            0.,NA,NA,"",   813.183E+03,   907.290E+03,   907.290E+03
C:/temp/Job-4.odb,Step-1,Increment      1: Step Time =    1.000,"P-4-1",           113,   9.52838E-03,   109.520E-03,            0.,NA,NA,"",   794.853E+03,   890.985E+03,   890.985E+03
C:/temp/Job-4.odb,Step-1,Increment      1: Step Time =    1.000,"P-4-1",           114,   23.7918E-03,   110.257E-03,            0.,NA,NA,"",   821.641E+03,   904.361E+03,   904.361E+03
C:/temp/Job-4.odb,Step-1,Increment      1: Step Time =    1.000,"P-4-1",           115,   33.0473E-03,   110.058E-03,            0.,NA,NA,"",   833.410E+03,   905.564E+03,   905.564E+03
C:/temp/Job-4.odb,Step-1,Increment      1: Step Time =    1.000,"P-4-1",           116,   42.6281E-03,   109.119E-03,            0.,NA,NA,"",   833.835E+03,   894.584E+03,   894.584E+03
C:/temp/Job-4.odb,Step-1,Increment      1: Step Time =    1.000,"P-4-1",           117,   51.2918E-03,   109.346E-03,            0.,NA,NA,"",   830.564E+03,   879.762E+03,   879.762E+03
C:/temp/Job-4.odb,Step-1,Increment      1: Step Time =    1.000,"P-4-1",           118,   58.3016E-03,   110.770E-03,            0.,NA,NA,"",   841.856E+03,   875.288E+03,   875.288E+03
C:/temp/Job-4.odb,Step-1,Increment      1: Step Time =    1.000,"P-4-1",           119,   69.1675E-03,   108.710E-03,            0.,NA,NA,"",   806.984E+03,   811.216E+03,   811.216E+03
C:/temp/Job-4.odb,Step-1,Increment      1: Step Time =    1.000,"P-4-1",           120,   81.2398E-03,   109.448E-03,            0.,NA,NA,"",   1.01469E+06,   885.589E+03,   885.589E+03
C:/temp/Job-4.odb,Step-1,Increment      1: Step Time =    1.000,"P-4-1",           121,   117.219E-03,   111.934E-03,            0.,NA,NA,"",   1.21933E+06,   1.06686E+06,   1.06686E+06
C:/temp/Job-4.odb,Step-1,Increment      1: Step Time =    1.000,"P-4-1",           122,   130.079E-03,   109.929E-03,            0.,NA,NA,"",   885.309E+03,   847.395E+03,   847.395E+03
C:/temp/Job-4.odb,Step-1,Increment      1: Step Time =    1.000,"P-4-1",           123,   139.704E-03,   108.490E-03,            0.,NA,NA,"",   861.677E+03,   859.681E+03,   859.681E+03
C:/temp/Job-4.odb,Step-1,Increment      1: Step Time =    1.000,"P-4-1",           124,   150.553E-03,   108.671E-03,            0.,NA,NA,"",   910.489E+03,   915.376E+03,   915.376E+03
C:/temp/Job-4.odb,Step-1,Increment      1: Step Time =    1.000,"P-4-1",           125,   161.536E-03,   109.995E-03,            0.,NA,NA,"",   946.558E+03,   954.041E+03,   954.041E+03
C:/temp/Job-4.odb,Step-1,Increment      1: Step Time =    1.000,"P-4-1",           126,   173.417E-03,   109.116E-03,            0.,NA,NA,"",   962.937E+03,   975.947E+03,   975.947E+03
C:/temp/Job-4.odb,Step-1,Increment      1: Step Time =    1.000,"P-4-1",           127,   181.384E-03,   111.964E-03,            0.,NA,NA,"",   972.438E+03,   989.668E+03,   989.668E+03
C:/temp/Job-4.odb,Step-1,Increment      1: Step Time =    1.000,"P-4-1",           128,   189.423E-03,   112.922E-03,            0.,NA,NA,"",   972.358E+03,   995.828E+03,   995.828E+03
C:/temp/Job-4.odb,Step-1,Increment      1: Step Time =    1.000,"P-4-1",           129,   122.271E-03,   99.6876E-03,            0.,NA,NA,"",   438.796E+03,   427.901E+03,   427.901E+03
C:/temp/Job-4.odb,Step-1,Increment      1: Step Time =    1.000,"P-4-1",           130,   131.973E-03,   100.125E-03,            0.,NA,NA,"",   683.021E+03,   696.297E+03,   696.297E+03
C:/temp/Job-4.odb,Step-1,Increment      1: Step Time =    1.000,"P-4-1",           131,   141.565E-03,   98.9714E-03,            0.,NA,NA,"",   818.785E+03,   830.601E+03,   830.601E+03
C:/temp/Job-4.odb,Step-1,Increment      1: Step Time =    1.000,"P-4-1",           132,   149.800E-03,   97.9155E-03,            0.,NA,NA,"",   884.209E+03,   894.464E+03,   894.464E+03
C:/temp/Job-4.odb,Step-1,Increment      1: Step Time =    1.000,"P-4-1",           133,   158.595E-03,   101.401E-03,            0.,NA,NA,"",   920.499E+03,   931.378E+03,   931.378E+03
C:/temp/Job-4.odb,Step-1,Increment      1: Step Time =    1.000,"P-4-1",           134,   168.231E-03,   101.218E-03,            0.,NA,NA,"",   949.270E+03,   961.856E+03,   961.856E+03
C:/temp/Job-4.odb,Step-1,Increment      1: Step Time =    1.000,"P-4-1",           135,   177.323E-03,   102.679E-03,            0.,NA,NA,"",   962.827E+03,   979.344E+03,   979.344E+03
C:/temp/Job-4.odb,Step-1,Increment      1: Step Time =    1.000,"P-4-1",           136,   190.577E-03,   98.9459E-03,            0.,NA,NA,"",   968.280E+03,   995.613E+03,   995.613E+03
C:/temp/Job-4.odb,Step-1,Increment      1: Step Time =    1.000,"P-4-1",           137,   121.487E-03,   92.3342E-03,            0.,NA,NA,"",   858.062E+03,   744.686E+03,   744.686E+03
C:/temp/Job-4.odb,Step-1,Increment      1: Step Time =    1.000,"P-4-1",           138,   131.148E-03,   91.3667E-03,            0.,NA,NA,"",   847.553E+03,   822.456E+03,   822.456E+03
C:/temp/Job-4.odb,Step-1,Increment      1: Step Time =    1.000,"P-4-1",           139,   140.878E-03,   90.7180E-03,            0.,NA,NA,"",   880.879E+03,   877.808E+03,   877.808E+03
C:/temp/Job-4.odb,Step-1,Increment      1: Step Time =    1.000,"P-4-1",           140,   150.199E-03,   90.9593E-03,            0.,NA,NA,"",   914.256E+03,   917.999E+03,   917.999E+03
C:/temp/Job-4.odb,Step-1,Increment      1: Step Time =    1.000,"P-4-1",           141,   161.126E-03,   90.8491E-03,            0.,NA,NA,"",   943.046E+03,   950.941E+03,   950.941E+03
C:/temp/Job-4.odb,Step-1,Increment      1: Step Time =    1.000,"P-4-1",           142,   169.145E-03,   91.2960E-03,            0.,NA,NA,"",   957.041E+03,   968.222E+03,   968.222E+03
C:/temp/Job-4.odb,Step-1,Increment      1: Step Time =    1.000,"P-4-1",           143,   180.014E-03,   91.3050E-03,            0.,NA,NA,"",   968.606E+03,   985.654E+03,   985.654E+03
C:/temp/Job-4.odb,Step-1,Increment      1: Step Time =    1.000,"P-4-1",           144,   189.112E-03,   88.6708E-03,            0.,NA,NA,"",   971.888E+03,   995.643E+03,   995.643E+03
C:/temp/Job-4.odb,Step-1,Increment      1: Step Time =    1.000,"P-4-1",           145,   11.2742E-03,   80.4176E-03,            0.,NA,NA,"",   812.207E+03,   906.418E+03,   906.418E+03
C:/temp/Job-4.odb,Step-1,Increment      1: Step Time =    1.000,"P-4-1",           146,   19.2932E-03,   80.1547E-03,            0.,NA,NA,"",   830.591E+03,   916.741E+03,   916.741E+03
C:/temp/Job-4.odb,Step-1,Increment      1: Step Time =    1.000,"P-4-1",           147,   30.6141E-03,   78.3129E-03,            0.,NA,NA,"",   866.128E+03,   936.117E+03,   936.117E+03
C:/temp/Job-4.odb,Step-1,Increment      1: Step Time =    1.000,"P-4-1",           148,   38.4758E-03,   80.4584E-03,            0.,NA,NA,"",   877.253E+03,   936.415E+03,   936.415E+03
C:/temp/Job-4.odb,Step-1,Increment      1: Step Time =    1.000,"P-4-1",           149,   50.4285E-03,   79.5189E-03,            0.,NA,NA,"",   917.993E+03,   953.599E+03,   953.599E+03
C:/temp/Job-4.odb,Step-1,Increment      1: Step Time =    1.000,"P-4-1",           150,   60.7441E-03,   80.1041E-03,            0.,NA,NA,"",   966.860E+03,   974.649E+03,   974.649E+03
C:/temp/Job-4.odb,Step-1,Increment      1: Step Time =    1.000,"P-4-1",           151,   71.2604E-03,   78.0374E-03,            0.,NA,NA,"",   1.10946E+06,   1.07258E+06,   1.07258E+06
C:/temp/Job-4.odb,Step-1,Increment      1: Step Time =    1.000,"P-4-1",           152,   78.6868E-03,   80.3559E-03,            0.,NA,NA,"",   1.21649E+06,   1.15082E+06,   1.15082E+06
C:/temp/Job-4.odb,Step-1,Increment      1: Step Time =    1.000,"P-4-1",           153,   91.7900E-03,   81.2506E-03,            0.,NA,NA,"",   1.40501E+06,   1.44933E+06,   1.44933E+06
C:/temp/Job-4.odb,Step-1,Increment      1: Step Time =    1.000,"P-4-1",           154,   98.0690E-03,   78.7285E-03,            0.,NA,NA,"",   1.26218E+06,   1.39188E+06,   1.39188E+06
C:/temp/Job-4.odb,Step-1,Increment      1: Step Time =    1.000,"P-4-1",           155,   119.647E-03,   79.9603E-03,            0.,NA,NA,"",   1.28932E+06,   1.20752E+06,   1.20752E+06
C:/temp/Job-4.odb,Step-1,Increment      1: Step Time =    1.000,"P-4-1",           156,   130.974E-03,   82.8924E-03,            0.,NA,NA,"",   1.05733E+06,   998.483E+03,   998.483E+03
C:/temp/Job-4.odb,Step-1,Increment      1: Step Time =    1.000,"P-4-1",           157,   141.934E-03,   80.4342E-03,            0.,NA,NA,"",   1.01304E+06,   986.536E+03,   986.536E+03
C:/temp/Job-4.odb,Step-1,Increment      1: Step Time =    1.000,"P-4-1",           158,   148.758E-03,   79.2831E-03,            0.,NA,NA,"",   1.00190E+06,   986.123E+03,   986.123E+03
C:/temp/Job-4.odb,Step-1,Increment      1: Step Time =    1.000,"P-4-1",           159,   158.953E-03,   79.7925E-03,            0.,NA,NA,"",   983.316E+03,   980.441E+03,   980.441E+03
C:/temp/Job-4.odb,Step-1,Increment      1: Step Time =    1.000,"P-4-1",           160,   168.976E-03,   78.1769E-03,            0.,NA,NA,"",   986.407E+03,   990.158E+03,   990.158E+03
C:/temp/Job-4.odb,Step-1,Increment      1: Step Time =    1.000,"P-4-1",           161,   177.993E-03,   78.1415E-03,            0.,NA,NA,"",   983.780E+03,   994.054E+03,   994.054E+03
C:/temp/Job-4.odb,Step-1,Increment      1: Step Time =    1.000,"P-4-1",           162,   191.377E-03,   79.6719E-03,            0.,NA,NA,"",   976.559E+03,   998.640E+03,   998.640E+03
C:/temp/Job-4.odb,Step-1,Increment      1: Step Time =    1.000,"P-4-1",           163,   79.5668E-03,   90.2211E-03,            0.,NA,NA,"",   960.785E+03,   854.860E+03,   854.860E+03
C:/temp/Job-4.odb,Step-1,Increment      1: Step Time =    1.000,"P-4-1",           164,   70.2946E-03,   88.7289E-03,            0.,NA,NA,"",   884.745E+03,   872.522E+03,   872.522E+03
C:/temp/Job-4.odb,Step-1,Increment      1: Step Time =    1.000,"P-4-1",           165,   62.2181E-03,   91.5506E-03,            0.,NA,NA,"",   802.427E+03,   833.205E+03,   833.205E+03
C:/temp/Job-4.odb,Step-1,Increment      1: Step Time =    1.000,"P-4-1",           166,   51.7843E-03,   88.4559E-03,            0.,NA,NA,"",   848.815E+03,   893.985E+03,   893.985E+03
C:/temp/Job-4.odb,Step-1,Increment      1: Step Time =    1.000,"P-4-1",           167,   37.9079E-03,   91.8313E-03,            0.,NA,NA,"",   830.472E+03,   897.560E+03,   897.560E+03
C:/temp/Job-4.odb,Step-1,Increment      1: Step Time =    1.000,"P-4-1",           168,   28.3030E-03,   89.1183E-03,            0.,NA,NA,"",   828.774E+03,   906.362E+03,   906.362E+03
C:/temp/Job-4.odb,Step-1,Increment      1: Step Time =    1.000,"P-4-1",           169,   22.7193E-03,   90.7866E-03,            0.,NA,NA,"",   817.759E+03,   902.000E+03,   902.000E+03
C:/temp/Job-4.odb,Step-1,Increment      1: Step Time =    1.000,"P-4-1",           170,   9.73919E-03,   89.9513E-03,            0.,NA,NA,"",   795.182E+03,   891.173E+03,   891.173E+03
C:/temp/Job-4.odb,Step-1,Increment      1: Step Time =    1.000,"P-4-1",           171,   80.0749E-03,   101.114E-03,            0.,NA,NA,"",   335.646E+03,   183.744E+03,   183.744E+03
C:/temp/Job-4.odb,Step-1,Increment      1: Step Time =    1.000,"P-4-1",           172,   72.1512E-03,   99.7033E-03,            0.,NA,NA,"",   548.572E+03,   582.624E+03,   582.624E+03
C:/temp/Job-4.odb,Step-1,Increment      1: Step Time =    1.000,"P-4-1",           173,   60.0132E-03,   99.5329E-03,            0.,NA,NA,"",   736.648E+03,   785.315E+03,   785.315E+03
C:/temp/Job-4.odb,Step-1,Increment      1: Step Time =    1.000,"P-4-1",           174,   49.1028E-03,   97.2894E-03,            0.,NA,NA,"",   800.838E+03,   858.325E+03,   858.325E+03
C:/temp/Job-4.odb,Step-1,Increment      1: Step Time =    1.000,"P-4-1",           175,   39.8174E-03,   100.456E-03,            0.,NA,NA,"",   817.912E+03,   885.115E+03,   885.115E+03
C:/temp/Job-4.odb,Step-1,Increment      1: Step Time =    1.000,"P-4-1",           176,   29.5370E-03,   98.6622E-03,            0.,NA,NA,"",   817.698E+03,   895.632E+03,   895.632E+03
C:/temp/Job-4.odb,Step-1,Increment      1: Step Time =    1.000,"P-4-1",           177,   19.4981E-03,   101.091E-03,            0.,NA,NA,"",   805.859E+03,   894.015E+03,   894.015E+03
C:/temp/Job-4.odb,Step-1,Increment      1: Step Time =    1.000,"P-4-1",           178,   11.4744E-03,   99.8586E-03,            0.,NA,NA,"",   793.407E+03,   888.053E+03,   888.053E+03
C:/temp/Job-4.odb,Step-1,Increment      1: Step Time =    1.000,"P-4-1",           179,   190.157E-03,   9.58559E-03,            0.,NA,NA,"",   999.995E+03,   999.923E+03,   999.923E+03
C:/temp/Job-4.odb,Step-1,Increment      1: Step Time =    1.000,"P-4-1",           180,   180.791E-03,   9.38485E-03,            0.,NA,NA,"",   999.918E+03,   999.779E+03,   999.779E+03
C:/temp/Job-4.odb,Step-1,Increment      1: Step Time =    1.000,"P-4-1",           181,   171.893E-03,   9.57045E-03,            0.,NA,NA,"",   999.755E+03,   999.337E+03,   999.337E+03
C:/temp/Job-4.odb,Step-1,Increment      1: Step Time =    1.000,"P-4-1",           182,   157.523E-03,   11.5652E-03,            0.,NA,NA,"",   999.424E+03,   998.200E+03,   998.200E+03
C:/temp/Job-4.odb,Step-1,Increment      1: Step Time =    1.000,"P-4-1",           183,   150.241E-03,   9.26756E-03,            0.,NA,NA,"",   993.700E+03,   992.828E+03,   992.828E+03
C:/temp/Job-4.odb,Step-1,Increment      1: Step Time =    1.000,"P-4-1",           184,   137.505E-03,   7.97684E-03,            0.,NA,NA,"",   981.854E+03,   981.334E+03,   981.334E+03
C:/temp/Job-4.odb,Step-1,Increment      1: Step Time =    1.000,"P-4-1",           185,   128.601E-03,   8.29533E-03,            0.,NA,NA,"",    973.14E+03,   973.029E+03,   973.029E+03
C:/temp/Job-4.odb,Step-1,Increment      1: Step Time =    1.000,"P-4-1",           186,   119.630E-03,   8.99687E-03,            0.,NA,NA,"",   964.963E+03,   965.475E+03,   965.475E+03
C:/temp/Job-4.odb,Step-1,Increment      1: Step Time =    1.000,"P-4-1",           187,   110.415E-03,   9.67877E-03,            0.,NA,NA,"",   959.210E+03,   960.555E+03,   960.555E+03
C:/temp/Job-4.odb,Step-1,Increment      1: Step Time =    1.000,"P-4-1",           188,   100.233E-03,   11.5075E-03,            0.,NA,NA,"",   960.550E+03,   962.954E+03,   962.954E+03
C:/temp/Job-4.odb,Step-1,Increment      1: Step Time =    1.000,"P-4-1",           189,   90.5245E-03,   9.60698E-03,            0.,NA,NA,"",   956.195E+03,   957.600E+03,   957.600E+03
C:/temp/Job-4.odb,Step-1,Increment      1: Step Time =    1.000,"P-4-1",           190,   80.1716E-03,   11.8620E-03,            0.,NA,NA,"",   971.730E+03,   973.230E+03,   973.230E+03
C:/temp/Job-4.odb,Step-1,Increment      1: Step Time =    1.000,"P-4-1",           191,   70.0621E-03,   9.50785E-03,            0.,NA,NA,"",   974.855E+03,   975.164E+03,   975.164E+03
C:/temp/Job-4.odb,Step-1,Increment      1: Step Time =    1.000,"P-4-1",           192,   60.8238E-03,   8.90217E-03,            0.,NA,NA,"",   984.845E+03,   985.071E+03,   985.071E+03
C:/temp/Job-4.odb,Step-1,Increment      1: Step Time =    1.000,"P-4-1",           193,   51.5567E-03,   9.10043E-03,            0.,NA,NA,"",   999.753E+03,   1.00035E+06,   1.00035E+06
C:/temp/Job-4.odb,Step-1,Increment      1: Step Time =    1.000,"P-4-1",           194,   42.2656E-03,   9.21869E-03,            0.,NA,NA,"",   1.01849E+06,   1.02030E+06,   1.02030E+06
C:/temp/Job-4.odb,Step-1,Increment      1: Step Time =    1.000,"P-4-1",           195,   28.7386E-03,   8.82209E-03,            0.,NA,NA,"",   1.06047E+06,   1.06511E+06,   1.06511E+06
C:/temp/Job-4.odb,Step-1,Increment      1: Step Time =    1.000,"P-4-1",           196,   20.3950E-03,   9.60628E-03,            0.,NA,NA,"",   1.10708E+06,   1.12012E+06,   1.12012E+06
C:/temp/Job-4.odb,Step-1,Increment      1: Step Time =    1.000,"P-4-1",           197,   10.6651E-03,   11.6346E-03,            0.,NA,NA,"",   1.15593E+06,   1.20388E+06,   1.20388E+06
C:/temp/Job-4.odb,Step-1,Increment      1: Step Time =    1.000,"P-4-1",           198,   188.727E-03,   20.0613E-03,            0.,NA,NA,"",   1.00095E+06,   1.00085E+06,   1.00085E+06
C:/temp/Job-4.odb,Step-1,Increment      1: Step Time =    1.000,"P-4-1",           199,   180.558E-03,   19.4648E-03,            0.,NA,NA,"",   1.00245E+06,   1.00196E+06,   1.00196E+06
C:/temp/Job-4.odb,Step-1,Increment      1: Step Time =    1.000,"P-4-1",           200,   172.083E-03,   18.0414E-03,            0.,NA,NA,"",   1.00410E+06,   1.00288E+06,   1.00288E+06
C:/temp/Job-4.odb,Step-1,Increment      1: Step Time =    1.000,"P-4-1",           201,   158.984E-03,   20.8105E-03,            0.,NA,NA,"",   1.00958E+06,   1.00653E+06,   1.00653E+06
C:/temp/Job-4.odb,Step-1,Increment      1: Step Time =    1.000,"P-4-1",           202,   149.376E-03,   19.5039E-03,            0.,NA,NA,"",   1.00848E+06,   1.00527E+06,   1.00527E+06
C:/temp/Job-4.odb,Step-1,Increment      1: Step Time =    1.000,"P-4-1",           203,   139.976E-03,   19.6618E-03,            0.,NA,NA,"",   1.00636E+06,   1.00359E+06,   1.00359E+06
C:/temp/Job-4.odb,Step-1,Increment      1: Step Time =    1.000,"P-4-1",           204,   129.342E-03,   16.5481E-03,            0.,NA,NA,"",   992.363E+03,   991.732E+03,   991.732E+03
C:/temp/Job-4.odb,Step-1,Increment      1: Step Time =    1.000,"P-4-1",           205,   120.934E-03,   19.7539E-03,            0.,NA,NA,"",   993.074E+03,   994.780E+03,   994.780E+03
C:/temp/Job-4.odb,Step-1,Increment      1: Step Time =    1.000,"P-4-1",           206,   111.042E-03,   22.6927E-03,            0.,NA,NA,"",   991.850E+03,   997.702E+03,   997.702E+03
C:/temp/Job-4.odb,Step-1,Increment      1: Step Time =    1.000,"P-4-1",           207,   99.0832E-03,   19.5589E-03,            0.,NA,NA,"",   981.390E+03,   987.206E+03,   987.206E+03
C:/temp/Job-4.odb,Step-1,Increment      1: Step Time =    1.000,"P-4-1",           208,   90.3629E-03,   23.3172E-03,            0.,NA,NA,"",   994.250E+03,   1.00195E+06,   1.00195E+06
C:/temp/Job-4.odb,Step-1,Increment      1: Step Time =    1.000,"P-4-1",           209,   79.4182E-03,   19.7314E-03,            0.,NA,NA,"",   996.664E+03,   1.00013E+06,   1.00013E+06
C:/temp/Job-4.odb,Step-1,Increment      1: Step Time =    1.000,"P-4-1",           210,   69.5376E-03,   23.6560E-03,            0.,NA,NA,"",   1.02022E+06,   1.02277E+06,   1.02277E+06
C:/temp/Job-4.odb,Step-1,Increment      1: Step Time =    1.000,"P-4-1",           211,   59.5453E-03,   20.9834E-03,            0.,NA,NA,"",   1.02457E+06,   1.02638E+06,   1.02638E+06
C:/temp/Job-4.odb,Step-1,Increment      1: Step Time =    1.000,"P-4-1",           212,   51.3468E-03,   19.3192E-03,            0.,NA,NA,"",   1.02993E+06,   1.03302E+06,   1.03302E+06
C:/temp/Job-4.odb,Step-1,Increment      1: Step Time =    1.000,"P-4-1",           213,   41.7942E-03,   18.4775E-03,            0.,NA,NA,"",   1.04241E+06,   1.04935E+06,   1.04935E+06
C:/temp/Job-4.odb,Step-1,Increment      1: Step Time =    1.000,"P-4-1",           214,   32.1804E-03,   18.9220E-03,            0.,NA,NA,"",   1.05991E+06,   1.07502E+06,   1.07502E+06
C:/temp/Job-4.odb,Step-1,Increment      1: Step Time =    1.000,"P-4-1",           215,   22.0295E-03,   20.8089E-03,            0.,NA,NA,"",   1.06676E+06,   1.10299E+06,   1.10299E+06
C:/temp/Job-4.odb,Step-1,Increment      1: Step Time =    1.000,"P-4-1",           216,   191.409E-03,   29.5439E-03,            0.,NA,NA,"",   1.00075E+06,   1.00119E+06,   1.00119E+06
C:/temp/Job-4.odb,Step-1,Increment      1: Step Time =    1.000,"P-4-1",           217,   178.991E-03,   31.7576E-03,            0.,NA,NA,"",   1.00726E+06,   1.00626E+06,   1.00626E+06
C:/temp/Job-4.odb,Step-1,Increment      1: Step Time =    1.000,"P-4-1",           218,   169.179E-03,   30.9589E-03,            0.,NA,NA,"",   1.01443E+06,   1.01107E+06,   1.01107E+06
C:/temp/Job-4.odb,Step-1,Increment      1: Step Time =    1.000,"P-4-1",           219,   162.367E-03,   28.6566E-03,            0.,NA,NA,"",   1.01763E+06,   1.01308E+06,   1.01308E+06
C:/temp/Job-4.odb,Step-1,Increment      1: Step Time =    1.000,"P-4-1",           220,   152.455E-03,   27.6195E-03,            0.,NA,NA,"",   1.02150E+06,   1.01589E+06,   1.01589E+06
C:/temp/Job-4.odb,Step-1,Increment      1: Step Time =    1.000,"P-4-1",           221,   141.017E-03,   26.4201E-03,            0.,NA,NA,"",   1.02109E+06,   1.01623E+06,   1.01623E+06
C:/temp/Job-4.odb,Step-1,Increment      1: Step Time =    1.000,"P-4-1",           222,   129.660E-03,   33.4101E-03,            0.,NA,NA,"",   1.03489E+06,   1.03176E+06,   1.03176E+06
C:/temp/Job-4.odb,Step-1,Increment      1: Step Time =    1.000,"P-4-1",           223,   118.360E-03,   30.6896E-03,            0.,NA,NA,"",   1.01507E+06,   1.02066E+06,   1.02066E+06
C:/temp/Job-4.odb,Step-1,Increment      1: Step Time =    1.000,"P-4-1",           224,   109.665E-03,   29.0040E-03,            0.,NA,NA,"",   1.00307E+06,   1.01271E+06,   1.01271E+06
C:/temp/Job-4.odb,Step-1,Increment      1: Step Time =    1.000,"P-4-1",           225,   100.953E-03,   30.0516E-03,            0.,NA,NA,"",   1.00092E+06,   1.01381E+06,   1.01381E+06
C:/temp/Job-4.odb,Step-1,Increment      1: Step Time =    1.000,"P-4-1",           226,   88.7814E-03,   29.1447E-03,            0.,NA,NA,"",   1.00726E+06,   1.01787E+06,   1.01787E+06
C:/temp/Job-4.odb,Step-1,Increment      1: Step Time =    1.000,"P-4-1",           227,   77.7861E-03,   31.1040E-03,            0.,NA,NA,"",   1.02771E+06,   1.03432E+06,   1.03432E+06
C:/temp/Job-4.odb,Step-1,Increment      1: Step Time =    1.000,"P-4-1",           228,   69.2541E-03,   30.1117E-03,            0.,NA,NA,"",   1.03578E+06,   1.03953E+06,   1.03953E+06
C:/temp/Job-4.odb,Step-1,Increment      1: Step Time =    1.000,"P-4-1",           229,   60.4881E-03,   29.6576E-03,            0.,NA,NA,"",   1.04226E+06,   1.04605E+06,   1.04605E+06
C:/temp/Job-4.odb,Step-1,Increment      1: Step Time =    1.000,"P-4-1",           230,   51.3746E-03,   30.0099E-03,            0.,NA,NA,"",   1.04595E+06,   1.05314E+06,   1.05314E+06
C:/temp/Job-4.odb,Step-1,Increment      1: Step Time =    1.000,"P-4-1",           231,   43.7059E-03,   31.7401E-03,            0.,NA,NA,"",   1.04507E+06,   1.06000E+06,   1.06000E+06
C:/temp/Job-4.odb,Step-1,Increment      1: Step Time =    1.000,"P-4-1",           232,   28.4512E-03,   31.4447E-03,            0.,NA,NA,"",   1.02472E+06,   1.06409E+06,   1.06409E+06
C:/temp/Job-4.odb,Step-1,Increment      1: Step Time =    1.000,"P-4-1",           233,   23.2889E-03,   30.5094E-03,            0.,NA,NA,"",   1.01876E+06,   1.06788E+06,   1.06788E+06
C:/temp/Job-4.odb,Step-1,Increment      1: Step Time =    1.000,"P-4-1",           234,   10.0178E-03,   28.6971E-03,            0.,NA,NA,"",   976.969E+03,   1.06092E+06,   1.06092E+06
C:/temp/Job-4.odb,Step-1,Increment      1: Step Time =    1.000,"P-4-1",           235,   188.736E-03,   38.3904E-03,            0.,NA,NA,"",   1.00097E+06,   1.00258E+06,   1.00258E+06
C:/temp/Job-4.odb,Step-1,Increment      1: Step Time =    1.000,"P-4-1",           236,   181.304E-03,   39.8945E-03,            0.,NA,NA,"",   1.00665E+06,   1.00668E+06,   1.00668E+06
C:/temp/Job-4.odb,Step-1,Increment      1: Step Time =    1.000,"P-4-1",           237,   173.260E-03,   40.4914E-03,            0.,NA,NA,"",   1.01548E+06,   1.01260E+06,   1.01260E+06
C:/temp/Job-4.odb,Step-1,Increment      1: Step Time =    1.000,"P-4-1",           238,   160.497E-03,   38.5364E-03,            0.,NA,NA,"",   1.03094E+06,   1.02311E+06,   1.02311E+06
C:/temp/Job-4.odb,Step-1,Increment      1: Step Time =    1.000,"P-4-1",           239,   150.458E-03,   38.5080E-03,            0.,NA,NA,"",   1.04249E+06,   1.03224E+06,   1.03224E+06
C:/temp/Job-4.odb,Step-1,Increment      1: Step Time =    1.000,"P-4-1",           240,   135.578E-03,   39.9562E-03,            0.,NA,NA,"",   1.05479E+06,   1.04579E+06,   1.04579E+06
C:/temp/Job-4.odb,Step-1,Increment      1: Step Time =    1.000,"P-4-1",           241,   128.583E-03,   38.5077E-03,            0.,NA,NA,"",   1.04846E+06,   1.04446E+06,   1.04446E+06
C:/temp/Job-4.odb,Step-1,Increment      1: Step Time =    1.000,"P-4-1",           242,   118.891E-03,   40.5922E-03,            0.,NA,NA,"",   1.04091E+06,   1.04696E+06,   1.04696E+06
C:/temp/Job-4.odb,Step-1,Increment      1: Step Time =    1.000,"P-4-1",           243,   109.868E-03,   36.7828E-03,            0.,NA,NA,"",   1.01626E+06,   1.03091E+06,   1.03091E+06
C:/temp/Job-4.odb,Step-1,Increment      1: Step Time =    1.000,"P-4-1",           244,   99.3972E-03,   39.9173E-03,            0.,NA,NA,"",   1.01415E+06,   1.03684E+06,   1.03684E+06
C:/temp/Job-4.odb,Step-1,Increment      1: Step Time =    1.000,"P-4-1",           245,   76.4159E-03,   39.2230E-03,            0.,NA,NA,"",   1.04825E+06,   1.05620E+06,   1.05620E+06
C:/temp/Job-4.odb,Step-1,Increment      1: Step Time =    1.000,"P-4-1",           246,   70.0259E-03,   43.3979E-03,            0.,NA,NA,"",   1.06545E+06,   1.07004E+06,   1.07004E+06
C:/temp/Job-4.odb,Step-1,Increment      1: Step Time =    1.000,"P-4-1",           247,   58.9727E-03,   39.7516E-03,            0.,NA,NA,"",   1.05628E+06,   1.06242E+06,   1.06242E+06
C:/temp/Job-4.odb,Step-1,Increment      1: Step Time =    1.000,"P-4-1",           248,   49.8969E-03,   39.0285E-03,            0.,NA,NA,"",   1.04719E+06,   1.06003E+06,   1.06003E+06
C:/temp/Job-4.odb,Step-1,Increment      1: Step Time =    1.000,"P-4-1",           249,   40.2557E-03,   42.1684E-03,            0.,NA,NA,"",   1.02282E+06,   1.05096E+06,   1.05096E+06
C:/temp/Job-4.odb,Step-1,Increment      1: Step Time =    1.000,"P-4-1",           250,   20.3146E-03,   39.8116E-03,            0.,NA,NA,"",   968.013E+03,   1.03409E+06,   1.03409E+06
C:/temp/Job-4.odb,Step-1,Increment      1: Step Time =    1.000,"P-4-1",           251,   9.51814E-03,   38.7564E-03,            0.,NA,NA,"",   923.649E+03,   1.01428E+06,   1.01428E+06
C:/temp/Job-4.odb,Step-1,Increment      1: Step Time =    1.000,"P-4-1",           252,   181.486E-03,   49.1475E-03,            0.,NA,NA,"",   1.00593E+06,   1.00749E+06,   1.00749E+06
C:/temp/Job-4.odb,Step-1,Increment      1: Step Time =    1.000,"P-4-1",           253,   168.410E-03,   50.8161E-03,            0.,NA,NA,"",   1.02448E+06,   1.01893E+06,   1.01893E+06
C:/temp/Job-4.odb,Step-1,Increment      1: Step Time =    1.000,"P-4-1",           254,   161.189E-03,   50.1729E-03,            0.,NA,NA,"",   1.03826E+06,   1.02802E+06,   1.02802E+06
C:/temp/Job-4.odb,Step-1,Increment      1: Step Time =    1.000,"P-4-1",           255,   152.886E-03,   49.6588E-03,            0.,NA,NA,"",   1.05481E+06,   1.03998E+06,   1.03998E+06
C:/temp/Job-4.odb,Step-1,Increment      1: Step Time =    1.000,"P-4-1",           256,   139.048E-03,   48.4505E-03,            0.,NA,NA,"",   1.07690E+06,   1.06052E+06,   1.06052E+06
C:/temp/Job-4.odb,Step-1,Increment      1: Step Time =    1.000,"P-4-1",           257,   132.154E-03,   48.8996E-03,            0.,NA,NA,"",   1.08381E+06,   1.07024E+06,   1.07024E+06
C:/temp/Job-4.odb,Step-1,Increment      1: Step Time =    1.000,"P-4-1",           258,   123.314E-03,   49.7532E-03,            0.,NA,NA,"",   1.07865E+06,   1.07623E+06,   1.07623E+06
C:/temp/Job-4.odb,Step-1,Increment      1: Step Time =    1.000,"P-4-1",           259,   111.262E-03,   48.8290E-03,            0.,NA,NA,"",   1.04298E+06,   1.06503E+06,   1.06503E+06
C:/temp/Job-4.odb,Step-1,Increment      1: Step Time =    1.000,"P-4-1",           260,   100.541E-03,   48.2969E-03,            0.,NA,NA,"",   1.02246E+06,   1.05567E+06,   1.05567E+06
C:/temp/Job-4.odb,Step-1,Increment      1: Step Time =    1.000,"P-4-1",           261,   90.4707E-03,   46.9682E-03,            0.,NA,NA,"",   1.03460E+06,   1.06084E+06,   1.06084E+06
C:/temp/Job-4.odb,Step-1,Increment      1: Step Time =    1.000,"P-4-1",           262,   81.1299E-03,   50.8994E-03,            0.,NA,NA,"",   1.07227E+06,   1.08672E+06,   1.08672E+06
C:/temp/Job-4.odb,Step-1,Increment      1: Step Time =    1.000,"P-4-1",           263,   71.2099E-03,   49.4822E-03,            0.,NA,NA,"",   1.08034E+06,   1.08389E+06,   1.08389E+06
C:/temp/Job-4.odb,Step-1,Increment      1: Step Time =    1.000,"P-4-1",           264,   60.9879E-03,   48.9359E-03,            0.,NA,NA,"",   1.06777E+06,   1.07274E+06,   1.07274E+06
C:/temp/Job-4.odb,Step-1,Increment      1: Step Time =    1.000,"P-4-1",           265,   49.9365E-03,   50.1389E-03,            0.,NA,NA,"",   1.03693E+06,   1.05454E+06,   1.05454E+06
C:/temp/Job-4.odb,Step-1,Increment      1: Step Time =    1.000,"P-4-1",           266,   40.6847E-03,   47.7294E-03,            0.,NA,NA,"",   1.01232E+06,   1.04362E+06,   1.04362E+06
C:/temp/Job-4.odb,Step-1,Increment      1: Step Time =    1.000,"P-4-1",           267,   30.1205E-03,   47.4163E-03,            0.,NA,NA,"",   976.383E+03,   1.02776E+06,   1.02776E+06
C:/temp/Job-4.odb,Step-1,Increment      1: Step Time =    1.000,"P-4-1",           268,   19.1083E-03,   49.5069E-03,            0.,NA,NA,"",   925.923E+03,   1.00109E+06,   1.00109E+06
C:/temp/Job-4.odb,Step-1,Increment      1: Step Time =    1.000,"P-4-1",           269,   9.46850E-03,   48.2849E-03,            0.,NA,NA,"",   889.478E+03,   982.532E+03,   982.532E+03
C:/temp/Job-4.odb,Step-1,Increment      1: Step Time =    1.000,"P-4-1",           270,   180.280E-03,   57.7257E-03,            0.,NA,NA,"",   1.00422E+06,   1.00733E+06,   1.00733E+06
C:/temp/Job-4.odb,Step-1,Increment      1: Step Time =    1.000,"P-4-1",           271,   170.373E-03,   60.4387E-03,            0.,NA,NA,"",   1.01647E+06,   1.01350E+06,   1.01350E+06
C:/temp/Job-4.odb,Step-1,Increment      1: Step Time =    1.000,"P-4-1",           272,   158.107E-03,   59.7132E-03,            0.,NA,NA,"",   1.04291E+06,   1.02960E+06,   1.02960E+06
C:/temp/Job-4.odb,Step-1,Increment      1: Step Time =    1.000,"P-4-1",           273,   151.625E-03,   55.1157E-03,            0.,NA,NA,"",   1.06197E+06,   1.04391E+06,   1.04391E+06
C:/temp/Job-4.odb,Step-1,Increment      1: Step Time =    1.000,"P-4-1",           274,   142.248E-03,   59.8844E-03,            0.,NA,NA,"",   1.09243E+06,   1.06601E+06,   1.06601E+06
C:/temp/Job-4.odb,Step-1,Increment      1: Step Time =    1.000,"P-4-1",           275,   131.611E-03,   61.4089E-03,            0.,NA,NA,"",   1.13011E+06,   1.10090E+06,   1.10090E+06
C:/temp/Job-4.odb,Step-1,Increment      1: Step Time =    1.000,"P-4-1",           276,   119.534E-03,   57.5245E-03,            0.,NA,NA,"",   1.10820E+06,   1.10857E+06,   1.10857E+06
C:/temp/Job-4.odb,Step-1,Increment      1: Step Time =    1.000,"P-4-1",           277,   110.898E-03,   56.2620E-03,            0.,NA,NA,"",   1.06389E+06,   1.09321E+06,   1.09321E+06
C:/temp/Job-4.odb,Step-1,Increment      1: Step Time =    1.000,"P-4-1",           278,   98.6267E-03,   57.5878E-03,            0.,NA,NA,"",   1.03552E+06,   1.08650E+06,   1.08650E+06
C:/temp/Job-4.odb,Step-1,Increment      1: Step Time =    1.000,"P-4-1",           279,   89.2547E-03,   58.6901E-03,            0.,NA,NA,"",   1.07184E+06,   1.10763E+06,   1.10763E+06
C:/temp/Job-4.odb,Step-1,Increment      1: Step Time =    1.000,"P-4-1",           280,   78.9256E-03,   61.2409E-03,            0.,NA,NA,"",   1.12667E+06,   1.12939E+06,   1.12939E+06
C:/temp/Job-4.odb,Step-1,Increment      1: Step Time =    1.000,"P-4-1",           281,   70.4152E-03,   57.3163E-03,            0.,NA,NA,"",   1.10304E+06,   1.10092E+06,   1.10092E+06
C:/temp/Job-4.odb,Step-1,Increment      1: Step Time =    1.000,"P-4-1",           282,   62.7299E-03,   58.4312E-03,            0.,NA,NA,"",   1.07961E+06,   1.08034E+06,   1.08034E+06
C:/temp/Job-4.odb,Step-1,Increment      1: Step Time =    1.000,"P-4-1",           283,   50.3821E-03,   58.4882E-03,            0.,NA,NA,"",   1.02594E+06,   1.04505E+06,   1.04505E+06
C:/temp/Job-4.odb,Step-1,Increment      1: Step Time =    1.000,"P-4-1",           284,   39.5688E-03,   57.6081E-03,            0.,NA,NA,"",   979.868E+03,   1.01966E+06,   1.01966E+06
C:/temp/Job-4.odb,Step-1,Increment      1: Step Time =    1.000,"P-4-1",           285,   31.2306E-03,   60.1122E-03,            0.,NA,NA,"",   936.162E+03,   994.179E+03,   994.179E+03
C:/temp/Job-4.odb,Step-1,Increment      1: Step Time =    1.000,"P-4-1",           286,   18.2617E-03,   58.4896E-03,            0.,NA,NA,"",   891.024E+03,   971.994E+03,   971.994E+03
C:/temp/Job-4.odb,Step-1,Increment      1: Step Time =    1.000,"P-4-1",           287,   9.07779E-03,   57.4925E-03,            0.,NA,NA,"",   860.726E+03,   955.740E+03,   955.740E+03
C:/temp/Job-4.odb,Step-1,Increment      1: Step Time =    1.000,"P-4-1",           288,   191.597E-03,   71.5439E-03,            0.,NA,NA,"",   982.421E+03,   999.827E+03,   999.827E+03
C:/temp/Job-4.odb,Step-1,Increment      1: Step Time =    1.000,"P-4-1",           289,   180.345E-03,   71.8191E-03,            0.,NA,NA,"",   990.896E+03,   999.851E+03,   999.851E+03
C:/temp/Job-4.odb,Step-1,Increment      1: Step Time =    1.000,"P-4-1",           290,   171.547E-03,   71.3144E-03,            0.,NA,NA,"",   999.124E+03,   1.00122E+06,   1.00122E+06
C:/temp/Job-4.odb,Step-1,Increment      1: Step Time =    1.000,"P-4-1",           291,   160.997E-03,   70.2276E-03,            0.,NA,NA,"",   1.01670E+06,   1.00872E+06,   1.00872E+06
C:/temp/Job-4.odb,Step-1,Increment      1: Step Time =    1.000,"P-4-1",           292,   149.378E-03,   68.9596E-03,            0.,NA,NA,"",   1.05316E+06,   1.03099E+06,   1.03099E+06
C:/temp/Job-4.odb,Step-1,Increment      1: Step Time =    1.000,"P-4-1",           293,   138.530E-03,   68.4586E-03,            0.,NA,NA,"",   1.10703E+06,   1.07009E+06,   1.07009E+06
C:/temp/Job-4.odb,Step-1,Increment      1: Step Time =    1.000,"P-4-1",           294,   132.371E-03,   70.6570E-03,            0.,NA,NA,"",   1.14431E+06,   1.09785E+06,   1.09785E+06
C:/temp/Job-4.odb,Step-1,Increment      1: Step Time =    1.000,"P-4-1",           295,   118.320E-03,   70.8228E-03,            0.,NA,NA,"",   1.21021E+06,   1.18642E+06,   1.18642E+06
C:/temp/Job-4.odb,Step-1,Increment      1: Step Time =    1.000,"P-4-1",           296,   110.424E-03,   68.7273E-03,            0.,NA,NA,"",   1.15464E+06,   1.19230E+06,   1.19230E+06
C:/temp/Job-4.odb,Step-1,Increment      1: Step Time =    1.000,"P-4-1",           297,   101.235E-03,   67.5214E-03,            0.,NA,NA,"",   1.06871E+06,   1.14861E+06,   1.14861E+06
C:/temp/Job-4.odb,Step-1,Increment      1: Step Time =    1.000,"P-4-1",           298,   90.9587E-03,   68.3816E-03,            0.,NA,NA,"",   1.12954E+06,   1.17860E+06,   1.17860E+06
C:/temp/Job-4.odb,Step-1,Increment      1: Step Time =    1.000,"P-4-1",           299,   82.2586E-03,   70.5191E-03,            0.,NA,NA,"",   1.19780E+06,   1.19184E+06,   1.19184E+06
C:/temp/Job-4.odb,Step-1,Increment      1: Step Time =    1.000,"P-4-1",           300,   68.9271E-03,   69.7833E-03,            0.,NA,NA,"",   1.11520E+06,   1.09791E+06,   1.09791E+06
C:/temp/Job-4.odb,Step-1,Increment      1: Step Time =    1.000,"P-4-1",           301,   57.5667E-03,   68.0145E-03,            0.,NA,NA,"",   1.03598E+06,   1.04313E+06,   1.04313E+06
C:/temp/Job-4.odb,Step-1,Increment      1: Step Time =    1.000,"P-4-1",           302,   47.2086E-03,   65.3358E-03,            0.,NA,NA,"",   986.446E+03,   1.01592E+06,   1.01592E+06
C:/temp/Job-4.odb,Step-1,Increment      1: Step Time =    1.000,"P-4-1",           303,   38.3329E-03,   67.4971E-03,            0.,NA,NA,"",   936.762E+03,   985.987E+03,   985.987E+03
C:/temp/Job-4.odb,Step-1,Increment      1: Step Time =    1.000,"P-4-1",           304,   29.1648E-03,   67.7599E-03,            0.,NA,NA,"",   900.912E+03,   967.399E+03,   967.399E+03
C:/temp/Job-4.odb,Step-1,Increment      1: Step Time =    1.000,"P-4-1",           305,   19.0528E-03,   67.5811E-03,            0.,NA,NA,"",   865.664E+03,   948.624E+03,   948.624E+03
C:/temp/Job-4.odb,Step-1,Increment      1: Step Time =    1.000,"P-4-1",           306,   9.63950E-03,   70.9479E-03,            0.,NA,NA,"",   828.423E+03,   923.691E+03,   923.691E+03
C:/temp/Job-4.odb,Step-1,Increment      1: Step Time =    1.000,"P-4-1",           307,   190.185E-03,   132.560E-03,            0.,NA,NA,"",   986.908E+03,   1.00085E+06,   1.00085E+06
C:/temp/Job-4.odb,Step-1,Increment      1: Step Time =    1.000,"P-4-1",           308,   180.170E-03,   130.061E-03,            0.,NA,NA,"",   992.943E+03,   1.00102E+06,   1.00102E+06
C:/temp/Job-4.odb,Step-1,Increment      1: Step Time =    1.000,"P-4-1",           309,   167.842E-03,   128.048E-03,            0.,NA,NA,"",   1.00240E+06,   1.00149E+06,   1.00149E+06
C:/temp/Job-4.odb,Step-1,Increment      1: Step Time =    1.000,"P-4-1",           310,   160.395E-03,   129.533E-03,            0.,NA,NA,"",   1.01841E+06,   1.00975E+06,   1.00975E+06
C:/temp/Job-4.odb,Step-1,Increment      1: Step Time =    1.000,"P-4-1",           311,   140.451E-03,   131.996E-03,            0.,NA,NA,"",   1.09529E+06,   1.06172E+06,   1.06172E+06
C:/temp/Job-4.odb,Step-1,Increment      1: Step Time =    1.000,"P-4-1",           312,   130.971E-03,   130.381E-03,            0.,NA,NA,"",   1.15114E+06,   1.10415E+06,   1.10415E+06
C:/temp/Job-4.odb,Step-1,Increment      1: Step Time =    1.000,"P-4-1",           313,   124.271E-03,   131.706E-03,            0.,NA,NA,"",   1.19104E+06,   1.15103E+06,   1.15103E+06
C:/temp/Job-4.odb,Step-1,Increment      1: Step Time =    1.000,"P-4-1",           314,   111.998E-03,   132.304E-03,            0.,NA,NA,"",   1.14446E+06,   1.17011E+06,   1.17011E+06
C:/temp/Job-4.odb,Step-1,Increment      1: Step Time =    1.000,"P-4-1",           315,   100.602E-03,   130.594E-03,            0.,NA,NA,"",   1.07930E+06,   1.16550E+06,   1.16550E+06
C:/temp/Job-4.odb,Step-1,Increment      1: Step Time =    1.000,"P-4-1",           316,   88.4686E-03,   130.037E-03,            0.,NA,NA,"",   1.16448E+06,   1.20253E+06,   1.20253E+06
C:/temp/Job-4.odb,Step-1,Increment      1: Step Time =    1.000,"P-4-1",           317,   67.9843E-03,   134.020E-03,            0.,NA,NA,"",   1.11023E+06,   1.09845E+06,   1.09845E+06
C:/temp/Job-4.odb,Step-1,Increment      1: Step Time =    1.000,"P-4-1",           318,   57.6053E-03,   131.443E-03,            0.,NA,NA,"",   1.03245E+06,   1.04024E+06,   1.04024E+06
C:/temp/Job-4.odb,Step-1,Increment      1: Step Time =    1.000,"P-4-1",           319,   49.0495E-03,   130.012E-03,            0.,NA,NA,"",   976.047E+03,   1.00462E+06,   1.00462E+06
C:/temp/Job-4.odb,Step-1,Increment      1: Step Time =    1.000,"P-4-1",           320,   38.9271E-03,   130.075E-03,            0.,NA,NA,"",   928.290E+03,   978.432E+03,   978.432E+03
C:/temp/Job-4.odb,Step-1,Increment      1: Step Time =    1.000,"P-4-1",           321,   29.6880E-03,   127.661E-03,            0.,NA,NA,"",   886.508E+03,   954.551E+03,   954.551E+03
C:/temp/Job-4.odb,Step-1,Increment      1: Step Time =    1.000,"P-4-1",           322,   21.5149E-03,   129.474E-03,            0.,NA,NA,"",   865.567E+03,   945.509E+03,   945.509E+03
C:/temp/Job-4.odb,Step-1,Increment      1: Step Time =    1.000,"P-4-1",           323,   9.08452E-03,   129.204E-03,            0.,NA,NA,"",   827.841E+03,   923.572E+03,   923.572E+03
C:/temp/Job-4.odb,Step-1,Increment      1: Step Time =    1.000,"P-4-1",           324,   191.343E-03,   141.397E-03,            0.,NA,NA,"",   992.324E+03,   1.00174E+06,   1.00174E+06
C:/temp/Job-4.odb,Step-1,Increment      1: Step Time =    1.000,"P-4-1",           325,   176.973E-03,   141.282E-03,            0.,NA,NA,"",   1.00763E+06,   1.00900E+06,   1.00900E+06
C:/temp/Job-4.odb,Step-1,Increment      1: Step Time =    1.000,"P-4-1",           326,   167.550E-03,   144.083E-03,            0.,NA,NA,"",   1.02485E+06,   1.01884E+06,   1.01884E+06
C:/temp/Job-4.odb,Step-1,Increment      1: Step Time =    1.000,"P-4-1",           327,   158.608E-03,   142.520E-03,            0.,NA,NA,"",   1.04316E+06,   1.03009E+06,   1.03009E+06
C:/temp/Job-4.odb,Step-1,Increment      1: Step Time =    1.000,"P-4-1",           328,   150.557E-03,   142.167E-03,            0.,NA,NA,"",   1.06464E+06,   1.04484E+06,   1.04484E+06
C:/temp/Job-4.odb,Step-1,Increment      1: Step Time =    1.000,"P-4-1",           329,   140.127E-03,   142.060E-03,            0.,NA,NA,"",   1.09790E+06,   1.07139E+06,   1.07139E+06
C:/temp/Job-4.odb,Step-1,Increment      1: Step Time =    1.000,"P-4-1",           330,   129.623E-03,   141.203E-03,            0.,NA,NA,"",   1.12405E+06,   1.10055E+06,   1.10055E+06
C:/temp/Job-4.odb,Step-1,Increment      1: Step Time =    1.000,"P-4-1",           331,   124.435E-03,   139.930E-03,            0.,NA,NA,"",   1.13329E+06,   1.11671E+06,   1.11671E+06
C:/temp/Job-4.odb,Step-1,Increment      1: Step Time =    1.000,"P-4-1",           332,   111.994E-03,   138.441E-03,            0.,NA,NA,"",   1.09845E+06,   1.12454E+06,   1.12454E+06
C:/temp/Job-4.odb,Step-1,Increment      1: Step Time =    1.000,"P-4-1",           333,   99.4653E-03,   137.383E-03,            0.,NA,NA,"",   1.04719E+06,   1.11192E+06,   1.11192E+06
C:/temp/Job-4.odb,Step-1,Increment      1: Step Time =    1.000,"P-4-1",           334,   89.2310E-03,   141.267E-03,            0.,NA,NA,"",   1.07227E+06,   1.10752E+06,   1.10752E+06
C:/temp/Job-4.odb,Step-1,Increment      1: Step Time =    1.000,"P-4-1",           335,   79.3355E-03,   141.439E-03,            0.,NA,NA,"",   1.10977E+06,   1.11743E+06,   1.11743E+06
C:/temp/Job-4.odb,Step-1,Increment      1: Step Time =    1.000,"P-4-1",           336,   69.7987E-03,   142.450E-03,            0.,NA,NA,"",   1.10287E+06,   1.10017E+06,   1.10017E+06
C:/temp/Job-4.odb,Step-1,Increment      1: Step Time =    1.000,"P-4-1",           337,   60.9994E-03,   139.403E-03,            0.,NA,NA,"",   1.07160E+06,   1.07310E+06,   1.07310E+06
C:/temp/Job-4.odb,Step-1,Increment      1: Step Time =    1.000,"P-4-1",           338,   47.5970E-03,   142.615E-03,            0.,NA,NA,"",   1.01461E+06,   1.03893E+06,   1.03893E+06
C:/temp/Job-4.odb,Step-1,Increment      1: Step Time =    1.000,"P-4-1",           339,   30.8542E-03,   138.817E-03,            0.,NA,NA,"",   932.699E+03,   991.953E+03,   991.953E+03
C:/temp/Job-4.odb,Step-1,Increment      1: Step Time =    1.000,"P-4-1",           340,   20.0029E-03,   140.612E-03,            0.,NA,NA,"",   897.704E+03,   975.436E+03,   975.436E+03
C:/temp/Job-4.odb,Step-1,Increment      1: Step Time =    1.000,"P-4-1",           341,   9.87440E-03,   138.362E-03,            0.,NA,NA,"",   852.615E+03,   946.795E+03,   946.795E+03
C:/temp/Job-4.odb,Step-1,Increment      1: Step Time =    1.000,"P-4-1",           342,   187.365E-03,   150.071E-03,            0.,NA,NA,"",   998.978E+03,   1.00347E+06,   1.00347E+06
C:/temp/Job-4.odb,Step-1,Increment      1: Step Time =    1.000,"P-4-1",           343,   179.555E-03,   151.321E-03,            0.,NA,NA,"",   1.00799E+06,   1.00860E+06,   1.00860E+06
C:/temp/Job-4.odb,Step-1,Increment      1: Step Time =    1.000,"P-4-1",           344,   168.653E-03,   151.600E-03,            0.,NA,NA,"",   1.02373E+06,   1.01844E+06,   1.01844E+06
C:/temp/Job-4.odb,Step-1,Increment      1: Step Time =    1.000,"P-4-1",           345,   163.329E-03,   152.096E-03,            0.,NA,NA,"",   1.03264E+06,   1.02430E+06,   1.02430E+06
C:/temp/Job-4.odb,Step-1,Increment      1: Step Time =    1.000,"P-4-1",           346,   149.385E-03,   152.320E-03,            0.,NA,NA,"",   1.05880E+06,   1.04357E+06,   1.04357E+06
C:/temp/Job-4.odb,Step-1,Increment      1: Step Time =    1.000,"P-4-1",           347,   138.316E-03,   150.928E-03,            0.,NA,NA,"",   1.07952E+06,   1.06236E+06,   1.06236E+06
C:/temp/Job-4.odb,Step-1,Increment      1: Step Time =    1.000,"P-4-1",           348,   129.991E-03,   149.176E-03,            0.,NA,NA,"",   1.09080E+06,   1.07740E+06,   1.07740E+06
C:/temp/Job-4.odb,Step-1,Increment      1: Step Time =    1.000,"P-4-1",           349,   119.604E-03,   147.826E-03,            0.,NA,NA,"",   1.08018E+06,   1.08445E+06,   1.08445E+06
C:/temp/Job-4.odb,Step-1,Increment      1: Step Time =    1.000,"P-4-1",           350,   110.975E-03,   149.838E-03,            0.,NA,NA,"",   1.04644E+06,   1.06941E+06,   1.06941E+06
C:/temp/Job-4.odb,Step-1,Increment      1: Step Time =    1.000,"P-4-1",           351,   87.9855E-03,   151.662E-03,            0.,NA,NA,"",   1.04362E+06,   1.06843E+06,   1.06843E+06
C:/temp/Job-4.odb,Step-1,Increment      1: Step Time =    1.000,"P-4-1",           352,   79.2631E-03,   151.051E-03,            0.,NA,NA,"",   1.06925E+06,   1.08140E+06,   1.08140E+06
C:/temp/Job-4.odb,Step-1,Increment      1: Step Time =    1.000,"P-4-1",           353,   70.6369E-03,   151.414E-03,            0.,NA,NA,"",   1.07826E+06,   1.08209E+06,   1.08209E+06
C:/temp/Job-4.odb,Step-1,Increment      1: Step Time =    1.000,"P-4-1",           354,   60.5637E-03,   148.395E-03,            0.,NA,NA,"",   1.06962E+06,   1.07423E+06,   1.07423E+06
C:/temp/Job-4.odb,Step-1,Increment      1: Step Time =    1.000,"P-4-1",           355,   49.0801E-03,   149.112E-03,            0.,NA,NA,"",   1.03372E+06,   1.05268E+06,   1.05268E+06
C:/temp/Job-4.odb,Step-1,Increment      1: Step Time =    1.000,"P-4-1",           356,   37.8308E-03,   148.544E-03,            0.,NA,NA,"",   993.901E+03,   1.03290E+06,   1.03290E+06
C:/temp/Job-4.odb,Step-1,Increment      1: Step Time =    1.000,"P-4-1",           357,   31.7747E-03,   150.285E-03,            0.,NA,NA,"",   975.067E+03,   1.02507E+06,   1.02507E+06
C:/temp/Job-4.odb,Step-1,Increment      1: Step Time =    1.000,"P-4-1",           358,   20.8652E-03,   151.545E-03,            0.,NA,NA,"",   936.719E+03,   1.00772E+06,   1.00772E+06
C:/temp/Job-4.odb,Step-1,Increment      1: Step Time =    1.000,"P-4-1",           359,   10.1594E-03,   148.329E-03,            0.,NA,NA,"",   882.201E+03,   974.613E+03,   974.613E+03
C:/temp/Job-4.odb,Step-1,Increment      1: Step Time =    1.000,"P-4-1",           360,   179.734E-03,   159.865E-03,            0.,NA,NA,"",   1.00829E+06,   1.00783E+06,   1.00783E+06
C:/temp/Job-4.odb,Step-1,Increment      1: Step Time =    1.000,"P-4-1",           361,   170.143E-03,   160.215E-03,            0.,NA,NA,"",   1.01902E+06,   1.01492E+06,   1.01492E+06
C:/temp/Job-4.odb,Step-1,Increment      1: Step Time =    1.000,"P-4-1",           362,   160.527E-03,   162.174E-03,            0.,NA,NA,"",   1.02930E+06,   1.02191E+06,   1.02191E+06
C:/temp/Job-4.odb,Step-1,Increment      1: Step Time =    1.000,"P-4-1",           363,   146.865E-03,   162.172E-03,            0.,NA,NA,"",   1.04465E+06,   1.03416E+06,   1.03416E+06
C:/temp/Job-4.odb,Step-1,Increment      1: Step Time =    1.000,"P-4-1",           364,   137.510E-03,   161.424E-03,            0.,NA,NA,"",   1.05161E+06,   1.04194E+06,   1.04194E+06
C:/temp/Job-4.odb,Step-1,Increment      1: Step Time =    1.000,"P-4-1",           365,   128.958E-03,   160.233E-03,            0.,NA,NA,"",   1.05220E+06,   1.04749E+06,   1.04749E+06
C:/temp/Job-4.odb,Step-1,Increment      1: Step Time =    1.000,"P-4-1",           366,   121.102E-03,   161.051E-03,            0.,NA,NA,"",   1.03955E+06,   1.04311E+06,   1.04311E+06
C:/temp/Job-4.odb,Step-1,Increment      1: Step Time =    1.000,"P-4-1",           367,   111.471E-03,   160.429E-03,            0.,NA,NA,"",   1.02416E+06,   1.03866E+06,   1.03866E+06
C:/temp/Job-4.odb,Step-1,Increment      1: Step Time =    1.000,"P-4-1",           368,   99.8652E-03,   160.789E-03,            0.,NA,NA,"",   1.01279E+06,   1.03480E+06,   1.03480E+06
C:/temp/Job-4.odb,Step-1,Increment      1: Step Time =    1.000,"P-4-1",           369,   89.7792E-03,   161.356E-03,            0.,NA,NA,"",   1.02229E+06,   1.04037E+06,   1.04037E+06
C:/temp/Job-4.odb,Step-1,Increment      1: Step Time =    1.000,"P-4-1",           370,   80.5209E-03,   162.183E-03,            0.,NA,NA,"",   1.03682E+06,   1.04804E+06,   1.04804E+06
C:/temp/Job-4.odb,Step-1,Increment      1: Step Time =    1.000,"P-4-1",           371,   71.0084E-03,   160.817E-03,            0.,NA,NA,"",   1.05410E+06,   1.05979E+06,   1.05979E+06
C:/temp/Job-4.odb,Step-1,Increment      1: Step Time =    1.000,"P-4-1",           372,   58.2851E-03,   160.240E-03,            0.,NA,NA,"",   1.05585E+06,   1.06245E+06,   1.06245E+06
C:/temp/Job-4.odb,Step-1,Increment      1: Step Time =    1.000,"P-4-1",           373,   49.7201E-03,   160.421E-03,            0.,NA,NA,"",   1.04669E+06,   1.05958E+06,   1.05958E+06
C:/temp/Job-4.odb,Step-1,Increment      1: Step Time =    1.000,"P-4-1",           374,   39.7845E-03,   160.459E-03,            0.,NA,NA,"",   1.02738E+06,   1.05434E+06,   1.05434E+06
C:/temp/Job-4.odb,Step-1,Increment      1: Step Time =    1.000,"P-4-1",           375,   29.5403E-03,   159.259E-03,            0.,NA,NA,"",   996.797E+03,   1.04344E+06,   1.04344E+06
C:/temp/Job-4.odb,Step-1,Increment      1: Step Time =    1.000,"P-4-1",           376,   19.3657E-03,   160.256E-03,            0.,NA,NA,"",   965.389E+03,   1.03359E+06,   1.03359E+06
C:/temp/Job-4.odb,Step-1,Increment      1: Step Time =    1.000,"P-4-1",           377,   9.42652E-03,   157.894E-03,            0.,NA,NA,"",   910.719E+03,   1.00243E+06,   1.00243E+06
C:/temp/Job-4.odb,Step-1,Increment      1: Step Time =    1.000,"P-4-1",           378,   190.304E-03,   171.389E-03,            0.,NA,NA,"",   1.00093E+06,   1.00134E+06,   1.00134E+06
C:/temp/Job-4.odb,Step-1,Increment      1: Step Time =    1.000,"P-4-1",           379,   180.849E-03,   171.119E-03,            0.,NA,NA,"",   1.00504E+06,   1.00446E+06,   1.00446E+06
C:/temp/Job-4.odb,Step-1,Increment      1: Step Time =    1.000,"P-4-1",           380,   170.777E-03,   170.689E-03,            0.,NA,NA,"",   1.01209E+06,   1.00931E+06,   1.00931E+06
C:/temp/Job-4.odb,Step-1,Increment      1: Step Time =    1.000,"P-4-1",           381,   161.862E-03,   170.873E-03,            0.,NA,NA,"",   1.01876E+06,   1.01395E+06,   1.01395E+06
C:/temp/Job-4.odb,Step-1,Increment      1: Step Time =    1.000,"P-4-1",           382,   148.132E-03,   166.681E-03,            0.,NA,NA,"",   1.03493E+06,   1.02659E+06,   1.02659E+06
C:/temp/Job-4.odb,Step-1,Increment      1: Step Time =    1.000,"P-4-1",           383,   139.787E-03,   169.699E-03,            0.,NA,NA,"",   1.03081E+06,   1.02450E+06,   1.02450E+06
C:/temp/Job-4.odb,Step-1,Increment      1: Step Time =    1.000,"P-4-1",           384,   128.364E-03,   169.729E-03,            0.,NA,NA,"",   1.02515E+06,   1.02353E+06,   1.02353E+06
C:/temp/Job-4.odb,Step-1,Increment      1: Step Time =    1.000,"P-4-1",           385,   119.663E-03,   169.835E-03,            0.,NA,NA,"",   1.01562E+06,   1.01954E+06,   1.01954E+06
C:/temp/Job-4.odb,Step-1,Increment      1: Step Time =    1.000,"P-4-1",           386,   111.561E-03,   166.727E-03,            0.,NA,NA,"",   1.01308E+06,   1.02443E+06,   1.02443E+06
C:/temp/Job-4.odb,Step-1,Increment      1: Step Time =    1.000,"P-4-1",           387,   100.388E-03,   168.023E-03,            0.,NA,NA,"",   1.00352E+06,   1.01836E+06,   1.01836E+06
C:/temp/Job-4.odb,Step-1,Increment      1: Step Time =    1.000,"P-4-1",           388,   87.3711E-03,   169.956E-03,            0.,NA,NA,"",   1.01069E+06,   1.02133E+06,   1.02133E+06
C:/temp/Job-4.odb,Step-1,Increment      1: Step Time =    1.000,"P-4-1",           389,   80.3359E-03,   168.454E-03,            0.,NA,NA,"",   1.02408E+06,   1.03229E+06,   1.03229E+06
C:/temp/Job-4.odb,Step-1,Increment      1: Step Time =    1.000,"P-4-1",           390,   67.7038E-03,   171.641E-03,            0.,NA,NA,"",   1.03303E+06,   1.03644E+06,   1.03644E+06
C:/temp/Job-4.odb,Step-1,Increment      1: Step Time =    1.000,"P-4-1",           391,   61.4023E-03,   168.555E-03,            0.,NA,NA,"",   1.04461E+06,   1.04872E+06,   1.04872E+06
C:/temp/Job-4.odb,Step-1,Increment      1: Step Time =    1.000,"P-4-1",           392,   52.0032E-03,   170.722E-03,            0.,NA,NA,"",   1.04408E+06,   1.05090E+06,   1.05090E+06
C:/temp/Job-4.odb,Step-1,Increment      1: Step Time =    1.000,"P-4-1",           393,   38.4762E-03,   171.076E-03,            0.,NA,NA,"",   1.04424E+06,   1.06320E+06,   1.06320E+06
C:/temp/Job-4.odb,Step-1,Increment      1: Step Time =    1.000,"P-4-1",           394,   29.1436E-03,   169.373E-03,            0.,NA,NA,"",   1.03112E+06,   1.06761E+06,   1.06761E+06
C:/temp/Job-4.odb,Step-1,Increment      1: Step Time =    1.000,"P-4-1",           395,   20.2287E-03,   168.236E-03,            0.,NA,NA,"",   1.00317E+06,   1.06094E+06,   1.06094E+06
C:/temp/Job-4.odb,Step-1,Increment      1: Step Time =    1.000,"P-4-1",           396,   8.04887E-03,   171.634E-03,            0.,NA,NA,"",   966.646E+03,   1.05642E+06,   1.05642E+06
C:/temp/Job-4.odb,Step-1,Increment      1: Step Time =    1.000,"P-4-1",           397,   190.454E-03,   180.614E-03,            0.,NA,NA,"",   1.00067E+06,   1.00060E+06,   1.00060E+06
C:/temp/Job-4.odb,Step-1,Increment      1: Step Time =    1.000,"P-4-1",           398,   180.626E-03,   180.708E-03,            0.,NA,NA,"",   1.00240E+06,   1.00196E+06,   1.00196E+06
C:/temp/Job-4.odb,Step-1,Increment      1: Step Time =    1.000,"P-4-1",           399,   170.338E-03,   178.698E-03,            0.,NA,NA,"",   1.00658E+06,   1.00483E+06,   1.00483E+06
C:/temp/Job-4.odb,Step-1,Increment      1: Step Time =    1.000,"P-4-1",           400,   160.076E-03,   180.144E-03,            0.,NA,NA,"",   1.00804E+06,   1.00539E+06,   1.00539E+06
C:/temp/Job-4.odb,Step-1,Increment      1: Step Time =    1.000,"P-4-1",           401,   150.312E-03,   181.000E-03,            0.,NA,NA,"",   1.00753E+06,   1.00446E+06,   1.00446E+06
C:/temp/Job-4.odb,Step-1,Increment      1: Step Time =    1.000,"P-4-1",           402,   141.881E-03,   180.744E-03,            0.,NA,NA,"",   1.00693E+06,   1.00391E+06,   1.00391E+06
C:/temp/Job-4.odb,Step-1,Increment      1: Step Time =    1.000,"P-4-1",           403,   129.870E-03,   179.034E-03,            0.,NA,NA,"",   1.00384E+06,   1.00284E+06,   1.00284E+06
C:/temp/Job-4.odb,Step-1,Increment      1: Step Time =    1.000,"P-4-1",           404,   120.187E-03,   181.748E-03,            0.,NA,NA,"",   989.400E+03,   990.962E+03,   990.962E+03
C:/temp/Job-4.odb,Step-1,Increment      1: Step Time =    1.000,"P-4-1",           405,   111.712E-03,   176.231E-03,            0.,NA,NA,"",   994.489E+03,   1.00061E+06,   1.00061E+06
C:/temp/Job-4.odb,Step-1,Increment      1: Step Time =    1.000,"P-4-1",           406,   101.750E-03,   179.667E-03,            0.,NA,NA,"",   982.929E+03,   989.255E+03,   989.255E+03
C:/temp/Job-4.odb,Step-1,Increment      1: Step Time =    1.000,"P-4-1",           407,   90.2879E-03,   177.982E-03,            0.,NA,NA,"",   991.187E+03,   997.932E+03,   997.932E+03
C:/temp/Job-4.odb,Step-1,Increment      1: Step Time =    1.000,"P-4-1",           408,   82.0828E-03,   179.444E-03,            0.,NA,NA,"",   995.084E+03,   999.433E+03,   999.433E+03
C:/temp/Job-4.odb,Step-1,Increment      1: Step Time =    1.000,"P-4-1",           409,   70.1956E-03,   181.540E-03,            0.,NA,NA,"",   1.00446E+06,   1.00625E+06,   1.00625E+06
C:/temp/Job-4.odb,Step-1,Increment      1: Step Time =    1.000,"P-4-1",           410,   59.2891E-03,   177.778E-03,            0.,NA,NA,"",   1.02740E+06,   1.02974E+06,   1.02974E+06
C:/temp/Job-4.odb,Step-1,Increment      1: Step Time =    1.000,"P-4-1",           411,   41.1938E-03,   179.379E-03,            0.,NA,NA,"",   1.04561E+06,   1.05423E+06,   1.05423E+06
C:/temp/Job-4.odb,Step-1,Increment      1: Step Time =    1.000,"P-4-1",           412,   27.4198E-03,   178.159E-03,            0.,NA,NA,"",   1.05928E+06,   1.08631E+06,   1.08631E+06
C:/temp/Job-4.odb,Step-1,Increment      1: Step Time =    1.000,"P-4-1",           413,   18.3416E-03,   182.537E-03,            0.,NA,NA,"",   1.08436E+06,   1.12367E+06,   1.12367E+06
C:/temp/Job-4.odb,Step-1,Increment      1: Step Time =    1.000,"P-4-1",           414,   7.54253E-03,   179.856E-03,            0.,NA,NA,"",   1.02931E+06,   1.11392E+06,   1.11392E+06
C:/temp/Job-4.odb,Step-1,Increment      1: Step Time =    1.000,"P-4-1",           415,   190.376E-03,   190.149E-03,            0.,NA,NA,"",   1.00002E+06,   999.940E+03,   999.940E+03
C:/temp/Job-4.odb,Step-1,Increment      1: Step Time =    1.000,"P-4-1",           416,   179.998E-03,   188.832E-03,            0.,NA,NA,"",   1.00041E+06,   1.00019E+06,   1.00019E+06
C:/temp/Job-4.odb,Step-1,Increment      1: Step Time =    1.000,"P-4-1",           417,   170.555E-03,   191.440E-03,            0.,NA,NA,"",   999.325E+03,   998.957E+03,   998.957E+03
C:/temp/Job-4.odb,Step-1,Increment      1: Step Time =    1.000,"P-4-1",           418,   162.065E-03,   188.525E-03,            0.,NA,NA,"",   999.912E+03,   998.941E+03,   998.941E+03
C:/temp/Job-4.odb,Step-1,Increment      1: Step Time =    1.000,"P-4-1",           419,   128.516E-03,   190.742E-03,            0.,NA,NA,"",   975.381E+03,   975.207E+03,   975.207E+03
C:/temp/Job-4.odb,Step-1,Increment      1: Step Time =    1.000,"P-4-1",           420,   119.256E-03,   188.797E-03,            0.,NA,NA,"",   970.761E+03,   971.641E+03,   971.641E+03
C:/temp/Job-4.odb,Step-1,Increment      1: Step Time =    1.000,"P-4-1",           421,   109.576E-03,   190.432E-03,            0.,NA,NA,"",   957.987E+03,    959.16E+03,    959.16E+03
C:/temp/Job-4.odb,Step-1,Increment      1: Step Time =    1.000,"P-4-1",           422,   100.159E-03,   188.283E-03,            0.,NA,NA,"",   961.041E+03,   963.634E+03,   963.634E+03
C:/temp/Job-4.odb,Step-1,Increment      1: Step Time =    1.000,"P-4-1",           423,   90.3223E-03,   190.352E-03,            0.,NA,NA,"",   956.326E+03,   957.741E+03,   957.741E+03
C:/temp/Job-4.odb,Step-1,Increment      1: Step Time =    1.000,"P-4-1",           424,   80.9998E-03,   188.481E-03,            0.,NA,NA,"",   969.575E+03,   970.987E+03,   970.987E+03
C:/temp/Job-4.odb,Step-1,Increment      1: Step Time =    1.000,"P-4-1",           425,   71.2888E-03,   190.631E-03,            0.,NA,NA,"",   972.667E+03,   973.013E+03,   973.013E+03
C:/temp/Job-4.odb,Step-1,Increment      1: Step Time =    1.000,"P-4-1",           426,   59.1425E-03,   186.724E-03,            0.,NA,NA,"",   1.00240E+06,   1.00307E+06,   1.00307E+06
C:/temp/Job-4.odb,Step-1,Increment      1: Step Time =    1.000,"P-4-1",           427,   47.9600E-03,   187.916E-03,            0.,NA,NA,"",   1.01751E+06,   1.01910E+06,   1.01910E+06
C:/temp/Job-4.odb,Step-1,Increment      1: Step Time =    1.000,"P-4-1",           428,   42.5284E-03,   189.043E-03,            0.,NA,NA,"",   1.02447E+06,   1.02660E+06,   1.02660E+06
C:/temp/Job-4.odb,Step-1,Increment      1: Step Time =    1.000,"P-4-1",           429,   28.5684E-03,   190.910E-03,            0.,NA,NA,"",   1.06215E+06,   1.06742E+06,   1.06742E+06
C:/temp/Job-4.odb,Step-1,Increment      1: Step Time =    1.000,"P-4-1",           430,   20.0770E-03,   191.116E-03,            0.,NA,NA,"",   1.10980E+06,   1.12146E+06,   1.12146E+06
C:/temp/Job-4.odb,Step-1,Increment      1: Step Time =    1.000,"P-4-1",           431,   10.5917E-03,   188.941E-03,            0.,NA,NA,"",   1.16652E+06,   1.21103E+06,   1.21103E+06
C:/temp/Job-4.odb,Step-1,Increment      1: Step Time =    1.000,"P-4-1",           432,   91.5788E-03,   109.238E-03,            0.,NA,NA,"",   1.12657E+06,   1.11412E+06,   1.11412E+06
C:/temp/Job-4.odb,Step-1,Increment      1: Step Time =    1.000,"P-4-1",           433,   87.9772E-03,   96.5792E-03,            0.,NA,NA,"",   516.430E+03,  -26.8965E+03,  -26.8965E+03
C:/temp/Job-4.odb,Step-1,Increment      1: Step Time =    1.000,"P-4-1",           434,   102.297E-03,   87.7128E-03,            0.,NA,NA,"",   1.95956E+06,   2.07732E+06,   2.07732E+06
C:/temp/Job-4.odb,Step-1,Increment      1: Step Time =    1.000,"P-4-1",           435,   112.023E-03,   96.5792E-03,            0.,NA,NA,"",   521.870E+03,  -77.7313E+03,  -77.7313E+03
C:/temp/Job-4.odb,Step-1,Increment      1: Step Time =    1.000,"P-4-1",           436,   108.421E-03,   109.238E-03,            0.,NA,NA,"",   1.09437E+06,   1.09227E+06,   1.09227E+06
C:/temp/Job-4.odb,Step-1,Increment      1: Step Time =    1.000,"P-4-1",           437,   195.238E-03,            0.,            0.,NA,NA,"",   999.913E+03,   999.895E+03,   999.895E+03
C:/temp/Job-4.odb,Step-1,Increment      1: Step Time =    1.000,"P-4-1",           438,   185.714E-03,            0.,            0.,NA,NA,"",   999.411E+03,   999.405E+03,   999.405E+03
C:/temp/Job-4.odb,Step-1,Increment      1: Step Time =    1.000,"P-4-1",           439,   176.190E-03,            0.,            0.,NA,NA,"",   998.528E+03,   998.503E+03,   998.503E+03
C:/temp/Job-4.odb,Step-1,Increment      1: Step Time =    1.000,"P-4-1",           440,   166.667E-03,            0.,            0.,NA,NA,"",   996.579E+03,   996.410E+03,   996.410E+03
C:/temp/Job-4.odb,Step-1,Increment      1: Step Time =    1.000,"P-4-1",           441,   157.143E-03,            0.,            0.,NA,NA,"",   992.065E+03,   992.000E+03,   992.000E+03
C:/temp/Job-4.odb,Step-1,Increment      1: Step Time =    1.000,"P-4-1",           442,   152.381E-03,            0.,            0.,NA,NA,"",   988.422E+03,   988.391E+03,   988.391E+03
C:/temp/Job-4.odb,Step-1,Increment      1: Step Time =    1.000,"P-4-1",           443,   142.857E-03,            0.,            0.,NA,NA,"",   978.764E+03,   978.702E+03,   978.702E+03
C:/temp/Job-4.odb,Step-1,Increment      1: Step Time =    1.000,"P-4-1",           444,   133.333E-03,            0.,            0.,NA,NA,"",   965.899E+03,   965.859E+03,   965.859E+03
C:/temp/Job-4.odb,Step-1,Increment      1: Step Time =    1.000,"P-4-1",           445,   123.810E-03,            0.,            0.,NA,NA,"",   951.833E+03,   951.831E+03,   951.831E+03
C:/temp/Job-4.odb,Step-1,Increment      1: Step Time =    1.000,"P-4-1",           446,   114.286E-03,            0.,            0.,NA,NA,"",   939.385E+03,   939.444E+03,   939.444E+03
C:/temp/Job-4.odb,Step-1,Increment      1: Step Time =    1.000,"P-4-1",           447,   104.762E-03,            0.,            0.,NA,NA,"",   930.948E+03,   931.159E+03,   931.159E+03
C:/temp/Job-4.odb,Step-1,Increment      1: Step Time =    1.000,"P-4-1",           448,   95.2381E-03,            0.,            0.,NA,NA,"",   928.716E+03,   928.985E+03,   928.985E+03
C:/temp/Job-4.odb,Step-1,Increment      1: Step Time =    1.000,"P-4-1",           449,   85.7143E-03,            0.,            0.,NA,NA,"",   932.996E+03,   933.140E+03,   933.140E+03
C:/temp/Job-4.odb,Step-1,Increment      1: Step Time =    1.000,"P-4-1",           450,   76.1905E-03,            0.,            0.,NA,NA,"",   941.245E+03,   941.299E+03,   941.299E+03
C:/temp/Job-4.odb,Step-1,Increment      1: Step Time =    1.000,"P-4-1",           451,   66.6667E-03,            0.,            0.,NA,NA,"",   952.657E+03,   952.615E+03,   952.615E+03
C:/temp/Job-4.odb,Step-1,Increment      1: Step Time =    1.000,"P-4-1",           452,   57.1429E-03,            0.,            0.,NA,NA,"",   965.000E+03,   965.006E+03,   965.006E+03
C:/temp/Job-4.odb,Step-1,Increment      1: Step Time =    1.000,"P-4-1",           453,   52.3810E-03,            0.,            0.,NA,NA,"",   971.556E+03,   971.643E+03,   971.643E+03
C:/temp/Job-4.odb,Step-1,Increment      1: Step Time =    1.000,"P-4-1",           454,   42.8571E-03,            0.,            0.,NA,NA,"",   986.423E+03,   986.735E+03,   986.735E+03
C:/temp/Job-4.odb,Step-1,Increment      1: Step Time =    1.000,"P-4-1",           455,   33.3333E-03,            0.,            0.,NA,NA,"",   1.00775E+06,   1.00848E+06,   1.00848E+06
C:/temp/Job-4.odb,Step-1,Increment      1: Step Time =    1.000,"P-4-1",           456,   23.8095E-03,            0.,            0.,NA,NA,"",   1.04717E+06,   1.04883E+06,   1.04883E+06
C:/temp/Job-4.odb,Step-1,Increment      1: Step Time =    1.000,"P-4-1",           457,   14.2857E-03,            0.,            0.,NA,NA,"",   1.13928E+06,   1.14532E+06,   1.14532E+06
C:/temp/Job-4.odb,Step-1,Increment      1: Step Time =    1.000,"P-4-1",           458,   4.76190E-03,            0.,            0.,NA,NA,"",   1.43711E+06,   1.47105E+06,   1.47105E+06
C:/temp/Job-4.odb,Step-1,Increment      1: Step Time =    1.000,"P-4-1",           459,   200.000E-03,   195.238E-03,            0.,NA,NA,"",   1.00002E+06,   999.963E+03,   999.963E+03
C:/temp/Job-4.odb,Step-1,Increment      1: Step Time =    1.000,"P-4-1",           460,   200.000E-03,   185.714E-03,            0.,NA,NA,"",   1.00030E+06,   1.00003E+06,   1.00003E+06
C:/temp/Job-4.odb,Step-1,Increment      1: Step Time =    1.000,"P-4-1",           461,   200.000E-03,   176.190E-03,            0.,NA,NA,"",   1.00042E+06,   1.00012E+06,   1.00012E+06
C:/temp/Job-4.odb,Step-1,Increment      1: Step Time =    1.000,"P-4-1",           462,   200.000E-03,   166.667E-03,            0.,NA,NA,"",   999.725E+03,   1.00036E+06,   1.00036E+06
C:/temp/Job-4.odb,Step-1,Increment      1: Step Time =    1.000,"P-4-1",           463,   200.000E-03,   157.143E-03,            0.,NA,NA,"",   997.041E+03,   1.00034E+06,   1.00034E+06
C:/temp/Job-4.odb,Step-1,Increment      1: Step Time =    1.000,"P-4-1",           464,   200.000E-03,   152.381E-03,            0.,NA,NA,"",   994.910E+03,   1.00027E+06,   1.00027E+06
C:/temp/Job-4.odb,Step-1,Increment      1: Step Time =    1.000,"P-4-1",           465,   200.000E-03,   142.857E-03,            0.,NA,NA,"",   988.900E+03,   1.00009E+06,   1.00009E+06
C:/temp/Job-4.odb,Step-1,Increment      1: Step Time =    1.000,"P-4-1",           466,   200.000E-03,   133.333E-03,            0.,NA,NA,"",   981.704E+03,   1.00011E+06,   1.00011E+06
C:/temp/Job-4.odb,Step-1,Increment      1: Step Time =    1.000,"P-4-1",           467,   200.000E-03,   123.810E-03,            0.,NA,NA,"",   974.131E+03,   999.959E+03,   999.959E+03
C:/temp/Job-4.odb,Step-1,Increment      1: Step Time =    1.000,"P-4-1",           468,   200.000E-03,   114.286E-03,            0.,NA,NA,"",   967.403E+03,   999.563E+03,   999.563E+03
C:/temp/Job-4.odb,Step-1,Increment      1: Step Time =    1.000,"P-4-1",           469,   200.000E-03,   104.762E-03,            0.,NA,NA,"",   963.658E+03,   999.429E+03,   999.429E+03
C:/temp/Job-4.odb,Step-1,Increment      1: Step Time =    1.000,"P-4-1",           470,   200.000E-03,   95.2381E-03,            0.,NA,NA,"",   963.852E+03,   999.508E+03,   999.508E+03
C:/temp/Job-4.odb,Step-1,Increment      1: Step Time =    1.000,"P-4-1",           471,   200.000E-03,   85.7143E-03,            0.,NA,NA,"",   967.521E+03,   999.739E+03,   999.739E+03
C:/temp/Job-4.odb,Step-1,Increment      1: Step Time =    1.000,"P-4-1",           472,   200.000E-03,   76.1905E-03,            0.,NA,NA,"",   974.021E+03,   999.868E+03,   999.868E+03
C:/temp/Job-4.odb,Step-1,Increment      1: Step Time =    1.000,"P-4-1",           473,   200.000E-03,   66.6667E-03,            0.,NA,NA,"",   982.070E+03,   999.760E+03,   999.760E+03
C:/temp/Job-4.odb,Step-1,Increment      1: Step Time =    1.000,"P-4-1",           474,   200.000E-03,   57.1429E-03,            0.,NA,NA,"",   990.198E+03,   1.00057E+06,   1.00057E+06
C:/temp/Job-4.odb,Step-1,Increment      1: Step Time =    1.000,"P-4-1",           475,   200.000E-03,   52.3810E-03,            0.,NA,NA,"",   992.934E+03,   1.00034E+06,   1.00034E+06
C:/temp/Job-4.odb,Step-1,Increment      1: Step Time =    1.000,"P-4-1",           476,   200.000E-03,   42.8571E-03,            0.,NA,NA,"",   997.285E+03,   1.00016E+06,   1.00016E+06
C:/temp/Job-4.odb,Step-1,Increment      1: Step Time =    1.000,"P-4-1",           477,   200.000E-03,   33.3333E-03,            0.,NA,NA,"",   999.677E+03,   1.00014E+06,   1.00014E+06
C:/temp/Job-4.odb,Step-1,Increment      1: Step Time =    1.000,"P-4-1",           478,   200.000E-03,   23.8095E-03,            0.,NA,NA,"",   1.00044E+06,   1.00012E+06,   1.00012E+06
C:/temp/Job-4.odb,Step-1,Increment      1: Step Time =    1.000,"P-4-1",           479,   200.000E-03,   14.2857E-03,            0.,NA,NA,"",   1.00029E+06,   1.00003E+06,   1.00003E+06
C:/temp/Job-4.odb,Step-1,Increment      1: Step Time =    1.000,"P-4-1",           480,   200.000E-03,   4.76190E-03,            0.,NA,NA,"",   1.00002E+06,   999.964E+03,   999.964E+03
C:/temp/Job-4.odb,Step-1,Increment      1: Step Time =    1.000,"P-4-1",           481,   4.76190E-03,   200.000E-03,            0.,NA,NA,"",   1.43726E+06,   1.47085E+06,   1.47085E+06
C:/temp/Job-4.odb,Step-1,Increment      1: Step Time =    1.000,"P-4-1",           482,   14.2857E-03,   200.000E-03,            0.,NA,NA,"",   1.13739E+06,   1.14303E+06,   1.14303E+06
C:/temp/Job-4.odb,Step-1,Increment      1: Step Time =    1.000,"P-4-1",           483,   23.8095E-03,   200.000E-03,            0.,NA,NA,"",   1.04731E+06,   1.04877E+06,   1.04877E+06
C:/temp/Job-4.odb,Step-1,Increment      1: Step Time =    1.000,"P-4-1",           484,   33.3333E-03,   200.000E-03,            0.,NA,NA,"",   1.01054E+06,   1.01101E+06,   1.01101E+06
C:/temp/Job-4.odb,Step-1,Increment      1: Step Time =    1.000,"P-4-1",           485,   42.8571E-03,   200.000E-03,            0.,NA,NA,"",   988.522E+03,   989.130E+03,   989.130E+03
C:/temp/Job-4.odb,Step-1,Increment      1: Step Time =    1.000,"P-4-1",           486,   47.6190E-03,   200.000E-03,            0.,NA,NA,"",   979.722E+03,   979.654E+03,   979.654E+03
C:/temp/Job-4.odb,Step-1,Increment      1: Step Time =    1.000,"P-4-1",           487,   57.1429E-03,   200.000E-03,            0.,NA,NA,"",   963.737E+03,   963.847E+03,   963.847E+03
C:/temp/Job-4.odb,Step-1,Increment      1: Step Time =    1.000,"P-4-1",           488,   66.6667E-03,   200.000E-03,            0.,NA,NA,"",   951.266E+03,   951.251E+03,   951.251E+03
C:/temp/Job-4.odb,Step-1,Increment      1: Step Time =    1.000,"P-4-1",           489,   76.1905E-03,   200.000E-03,            0.,NA,NA,"",   940.223E+03,   940.293E+03,   940.293E+03
C:/temp/Job-4.odb,Step-1,Increment      1: Step Time =    1.000,"P-4-1",           490,   85.7143E-03,   200.000E-03,            0.,NA,NA,"",   932.238E+03,   932.378E+03,   932.378E+03
C:/temp/Job-4.odb,Step-1,Increment      1: Step Time =    1.000,"P-4-1",           491,   95.2381E-03,   200.000E-03,            0.,NA,NA,"",   928.375E+03,   928.626E+03,   928.626E+03
C:/temp/Job-4.odb,Step-1,Increment      1: Step Time =    1.000,"P-4-1",           492,   104.762E-03,   200.000E-03,            0.,NA,NA,"",   930.925E+03,   931.198E+03,   931.198E+03
C:/temp/Job-4.odb,Step-1,Increment      1: Step Time =    1.000,"P-4-1",           493,   114.286E-03,   200.000E-03,            0.,NA,NA,"",   940.265E+03,   940.342E+03,   940.342E+03
C:/temp/Job-4.odb,Step-1,Increment      1: Step Time =    1.000,"P-4-1",           494,   123.810E-03,   200.000E-03,            0.,NA,NA,"",   952.680E+03,   952.741E+03,   952.741E+03
C:/temp/Job-4.odb,Step-1,Increment      1: Step Time =    1.000,"P-4-1",           495,   133.333E-03,   200.000E-03,            0.,NA,NA,"",   967.872E+03,   967.893E+03,   967.893E+03
C:/temp/Job-4.odb,Step-1,Increment      1: Step Time =    1.000,"P-4-1",           496,   142.857E-03,   200.000E-03,            0.,NA,NA,"",   980.686E+03,   980.441E+03,   980.441E+03
C:/temp/Job-4.odb,Step-1,Increment      1: Step Time =    1.000,"P-4-1",           497,   147.619E-03,   200.000E-03,            0.,NA,NA,"",   985.338E+03,    985.21E+03,    985.21E+03
C:/temp/Job-4.odb,Step-1,Increment      1: Step Time =    1.000,"P-4-1",           498,   157.143E-03,   200.000E-03,            0.,NA,NA,"",   992.380E+03,   992.324E+03,   992.324E+03
C:/temp/Job-4.odb,Step-1,Increment      1: Step Time =    1.000,"P-4-1",           499,   166.667E-03,   200.000E-03,            0.,NA,NA,"",   996.517E+03,   996.471E+03,   996.471E+03
C:/temp/Job-4.odb,Step-1,Increment      1: Step Time =    1.000,"P-4-1",           500,   176.190E-03,   200.000E-03,            0.,NA,NA,"",   998.461E+03,   998.438E+03,   998.438E+03
C:/temp/Job-4.odb,Step-1,Increment      1: Step Time =    1.000,"P-4-1",           501,   185.714E-03,   200.000E-03,            0.,NA,NA,"",   999.378E+03,   999.365E+03,   999.365E+03
C:/temp/Job-4.odb,Step-1,Increment      1: Step Time =    1.000,"P-4-1",           502,   195.238E-03,   200.000E-03,            0.,NA,NA,"",   999.909E+03,   999.891E+03,   999.891E+03
C:/temp/Job-4.odb,Step-1,Increment      1: Step Time =    1.000,"P-4-1",           503,            0.,   4.76190E-03,            0.,NA,NA,"",   1.38145E+06,   1.46802E+06,   1.46802E+06
C:/temp/Job-4.odb,Step-1,Increment      1: Step Time =    1.000,"P-4-1",           504,            0.,   14.2857E-03,            0.,NA,NA,"",   1.05517E+06,   1.15892E+06,   1.15892E+06
C:/temp/Job-4.odb,Step-1,Increment      1: Step Time =    1.000,"P-4-1",           505,            0.,   23.8095E-03,            0.,NA,NA,"",   958.980E+03,   1.06441E+06,   1.06441E+06
C:/temp/Job-4.odb,Step-1,Increment      1: Step Time =    1.000,"P-4-1",           506,            0.,   33.3333E-03,            0.,NA,NA,"",   910.367E+03,   1.01526E+06,   1.01526E+06
C:/temp/Job-4.odb,Step-1,Increment      1: Step Time =    1.000,"P-4-1",           507,            0.,   42.8571E-03,            0.,NA,NA,"",   875.472E+03,   980.147E+03,   980.147E+03
C:/temp/Job-4.odb,Step-1,Increment      1: Step Time =    1.000,"P-4-1",           508,            0.,   47.6190E-03,            0.,NA,NA,"",   861.503E+03,    965.99E+03,    965.99E+03
C:/temp/Job-4.odb,Step-1,Increment      1: Step Time =    1.000,"P-4-1",           509,            0.,   57.1429E-03,            0.,NA,NA,"",   837.340E+03,   941.139E+03,   941.139E+03
C:/temp/Job-4.odb,Step-1,Increment      1: Step Time =    1.000,"P-4-1",           510,            0.,   66.6667E-03,            0.,NA,NA,"",   816.889E+03,   919.688E+03,   919.688E+03
C:/temp/Job-4.odb,Step-1,Increment      1: Step Time =    1.000,"P-4-1",           511,            0.,   76.1905E-03,            0.,NA,NA,"",   799.819E+03,   901.380E+03,   901.380E+03
C:/temp/Job-4.odb,Step-1,Increment      1: Step Time =    1.000,"P-4-1",           512,            0.,   85.7143E-03,            0.,NA,NA,"",   787.433E+03,   888.061E+03,   888.061E+03
C:/temp/Job-4.odb,Step-1,Increment      1: Step Time =    1.000,"P-4-1",           513,            0.,   95.2381E-03,            0.,NA,NA,"",   780.424E+03,   880.576E+03,   880.576E+03
C:/temp/Job-4.odb,Step-1,Increment      1: Step Time =    1.000,"P-4-1",           514,            0.,   104.762E-03,            0.,NA,NA,"",   780.546E+03,   880.710E+03,   880.710E+03
C:/temp/Job-4.odb,Step-1,Increment      1: Step Time =    1.000,"P-4-1",           515,            0.,   114.286E-03,            0.,NA,NA,"",   787.936E+03,   888.624E+03,   888.624E+03
C:/temp/Job-4.odb,Step-1,Increment      1: Step Time =    1.000,"P-4-1",           516,            0.,   123.810E-03,            0.,NA,NA,"",   800.209E+03,   901.767E+03,   901.767E+03
C:/temp/Job-4.odb,Step-1,Increment      1: Step Time =    1.000,"P-4-1",           517,            0.,   133.333E-03,            0.,NA,NA,"",   817.871E+03,   920.617E+03,   920.617E+03
C:/temp/Job-4.odb,Step-1,Increment      1: Step Time =    1.000,"P-4-1",           518,            0.,   142.857E-03,            0.,NA,NA,"",    838.56E+03,   942.189E+03,   942.189E+03
C:/temp/Job-4.odb,Step-1,Increment      1: Step Time =    1.000,"P-4-1",           519,            0.,   147.619E-03,            0.,NA,NA,"",   850.149E+03,   954.102E+03,   954.102E+03
C:/temp/Job-4.odb,Step-1,Increment      1: Step Time =    1.000,"P-4-1",           520,            0.,   157.143E-03,            0.,NA,NA,"",   876.438E+03,   981.204E+03,   981.204E+03
C:/temp/Job-4.odb,Step-1,Increment      1: Step Time =    1.000,"P-4-1",           521,            0.,   166.667E-03,            0.,NA,NA,"",   909.623E+03,   1.01512E+06,   1.01512E+06
C:/temp/Job-4.odb,Step-1,Increment      1: Step Time =    1.000,"P-4-1",           522,            0.,   176.190E-03,            0.,NA,NA,"",   957.849E+03,   1.06373E+06,   1.06373E+06
C:/temp/Job-4.odb,Step-1,Increment      1: Step Time =    1.000,"P-4-1",           523,            0.,   185.714E-03,            0.,NA,NA,"",   1.05564E+06,   1.15901E+06,   1.15901E+06
C:/temp/Job-4.odb,Step-1,Increment      1: Step Time =    1.000,"P-4-1",           524,            0.,   195.238E-03,            0.,NA,NA,"",   1.38366E+06,   1.46997E+06,   1.46997E+06
C:/temp/Job-4.odb,Step-1,Increment      1: Step Time =    1.000,"P-4-1",           525,   104.011E-03,   117.368E-03,            0.,NA,NA,"",   1.60070E+06,   1.70926E+06,   1.70926E+06
C:/temp/Job-4.odb,Step-1,Increment      1: Step Time =    1.000,"P-4-1",           526,   109.211E-03,   114.317E-03,            0.,NA,NA,"",   1.47651E+06,   1.48450E+06,   1.48450E+06
C:/temp/Job-4.odb,Step-1,Increment      1: Step Time =    1.000,"P-4-1",           527,   82.8703E-03,   104.140E-03,            0.,NA,NA,"",   514.895E+03,   124.394E+03,   124.394E+03
C:/temp/Job-4.odb,Step-1,Increment      1: Step Time =    1.000,"P-4-1",           528,   106.151E-03,   83.5446E-03,            0.,NA,NA,"",   1.57277E+06,   1.65302E+06,   1.65302E+06
C:/temp/Job-4.odb,Step-1,Increment      1: Step Time =    1.000,"P-4-1",           529,   117.661E-03,   99.9764E-03,            0.,NA,NA,"",   418.937E+03,  -46.0749E+03,  -46.0749E+03
C:/temp/Job-4.odb,Step-1,Increment      1: Step Time =    1.000,"P-4-1",           530,   96.5546E-03,   84.1039E-03,            0.,NA,NA,"",   1.76333E+06,   1.87328E+06,   1.87328E+06
C:/temp/Job-4.odb,Step-1,Increment      1: Step Time =    1.000,"P-4-1",           531,   84.4063E-03,   91.0221E-03,            0.,NA,NA,"",   919.779E+03,   782.341E+03,   782.341E+03
C:/temp/Job-4.odb,Step-1,Increment      1: Step Time =    1.000,"P-4-1",           532,   82.5022E-03,   98.4191E-03,            0.,NA,NA,"",   412.503E+03,   15.9590E+03,   15.9590E+03
C:/temp/Job-4.odb,Step-1,Increment      1: Step Time =    1.000,"P-4-1",           533,   116.461E-03,   92.3003E-03,            0.,NA,NA,"",   844.067E+03,   683.757E+03,   683.757E+03
C:/temp/Job-4.odb,Step-1,Increment      1: Step Time =    1.000,"P-4-1",           534,   116.460E-03,   105.613E-03,            0.,NA,NA,"",   673.138E+03,   185.575E+03,   185.575E+03
C:/temp/Job-4.odb,Step-1,Increment      1: Step Time =    1.000,"P-4-1",           535,   87.3342E-03,   111.674E-03,            0.,NA,NA,"",   1.22889E+06,   1.14579E+06,   1.14579E+06
C:/temp/Job-4.odb,Step-1,Increment      1: Step Time =    1.000,"P-4-1",           536,   112.488E-03,   87.2608E-03,            0.,NA,NA,"",   1.28936E+06,   1.20949E+06,   1.20949E+06
C:/temp/Job-4.odb,Step-1,Increment      1: Step Time =    1.000,"P-4-1",           537,   88.6262E-03,   86.3203E-03,            0.,NA,NA,"",   1.32902E+06,   1.28532E+06,   1.28532E+06
C:/temp/Job-4.odb,Step-1,Increment      1: Step Time =    1.000,"P-4-1",           538,   100.280E-03,   82.4237E-03,            0.,NA,NA,"",   1.62992E+06,   1.77044E+06,   1.77044E+06
C:/temp/Job-4.odb,Step-1,Increment      1: Step Time =    1.000,"P-4-1",           539,   90.4912E-03,   114.015E-03,            0.,NA,NA,"",   1.45629E+06,   1.47142E+06,   1.47142E+06
C:/temp/Job-4.odb,Step-1,Increment      1: Step Time =    1.000,"P-4-1",           540,   111.305E-03,   111.104E-03,            0.,NA,NA,"",   1.23837E+06,   1.16281E+06,   1.16281E+06
C:/temp/Job-4.odb,Step-1,Increment      1: Step Time =    1.000,"P-4-1",           541,   95.1056E-03,   117.642E-03,            0.,NA,NA,"",   1.56135E+06,   1.65918E+06,   1.65918E+06
C:/temp/Job-4.odb,Step-1,Increment      1: Step Time =    1.000,"P-4-1",           542,   142.419E-03,   4.03745E-03,            0.,NA,NA,"",   980.996E+03,   980.782E+03,   980.782E+03
C:/temp/Job-4.odb,Step-1,Increment      1: Step Time =    1.000,"P-4-1",           543,   176.207E-03,   4.73774E-03,            0.,NA,NA,"",   998.871E+03,   998.788E+03,   998.788E+03
C:/temp/Job-4.odb,Step-1,Increment      1: Step Time =    1.000,"P-4-1",           544,   195.582E-03,   142.072E-03,            0.,NA,NA,"",   989.819E+03,   1.00055E+06,   1.00055E+06
C:/temp/Job-4.odb,Step-1,Increment      1: Step Time =    1.000,"P-4-1",           545,   195.186E-03,   176.045E-03,            0.,NA,NA,"",   1.00044E+06,   1.00033E+06,   1.00033E+06
C:/temp/Job-4.odb,Step-1,Increment      1: Step Time =    1.000,"P-4-1",           546,   190.346E-03,   4.78741E-03,            0.,NA,NA,"",   999.782E+03,   999.751E+03,   999.751E+03
C:/temp/Job-4.odb,Step-1,Increment      1: Step Time =    1.000,"P-4-1",           547,   161.161E-03,   6.77363E-03,            0.,NA,NA,"",   996.672E+03,   996.168E+03,   996.168E+03
C:/temp/Job-4.odb,Step-1,Increment      1: Step Time =    1.000,"P-4-1",           548,   156.091E-03,   5.37176E-03,            0.,NA,NA,"",   993.233E+03,   992.922E+03,   992.922E+03
C:/temp/Job-4.odb,Step-1,Increment      1: Step Time =    1.000,"P-4-1",           549,   137.807E-03,   3.95928E-03,            0.,NA,NA,"",   975.574E+03,   975.385E+03,   975.385E+03
C:/temp/Job-4.odb,Step-1,Increment      1: Step Time =    1.000,"P-4-1",           550,   195.179E-03,   190.330E-03,            0.,NA,NA,"",   1.00009E+06,   999.967E+03,   999.967E+03
C:/temp/Job-4.odb,Step-1,Increment      1: Step Time =    1.000,"P-4-1",           551,   193.849E-03,   161.291E-03,            0.,NA,NA,"",   999.141E+03,   1.00110E+06,   1.00110E+06
C:/temp/Job-4.odb,Step-1,Increment      1: Step Time =    1.000,"P-4-1",           552,   194.765E-03,   156.642E-03,            0.,NA,NA,"",   997.489E+03,   1.00083E+06,   1.00083E+06
C:/temp/Job-4.odb,Step-1,Increment      1: Step Time =    1.000,"P-4-1",           553,   195.473E-03,   137.483E-03,            0.,NA,NA,"",   986.658E+03,   1.00051E+06,   1.00051E+06
C:/temp/Job-4.odb,Step-1,Increment      1: Step Time =    1.000,"P-4-1",           554,   105.015E-03,   5.19848E-03,            0.,NA,NA,"",   941.001E+03,   941.666E+03,   941.666E+03
C:/temp/Job-4.odb,Step-1,Increment      1: Step Time =    1.000,"P-4-1",           555,   114.600E-03,   4.63108E-03,            0.,NA,NA,"",   947.060E+03,   947.351E+03,   947.351E+03
C:/temp/Job-4.odb,Step-1,Increment      1: Step Time =    1.000,"P-4-1",           556,   95.3708E-03,   5.07568E-03,            0.,NA,NA,"",   938.742E+03,   939.436E+03,   939.436E+03
C:/temp/Job-4.odb,Step-1,Increment      1: Step Time =    1.000,"P-4-1",           557,   75.7085E-03,   5.23878E-03,            0.,NA,NA,"",   952.163E+03,   952.427E+03,   952.427E+03
C:/temp/Job-4.odb,Step-1,Increment      1: Step Time =    1.000,"P-4-1",           558,   85.5200E-03,   5.29098E-03,            0.,NA,NA,"",   943.405E+03,   943.922E+03,   943.922E+03
C:/temp/Job-4.odb,Step-1,Increment      1: Step Time =    1.000,"P-4-1",           559,   123.885E-03,   4.25695E-03,            0.,NA,NA,"",   957.495E+03,   957.549E+03,   957.549E+03
C:/temp/Job-4.odb,Step-1,Increment      1: Step Time =    1.000,"P-4-1",           560,   33.4876E-03,   194.728E-03,            0.,NA,NA,"",   1.02463E+06,   1.02583E+06,   1.02583E+06
C:/temp/Job-4.odb,Step-1,Increment      1: Step Time =    1.000,"P-4-1",           561,   48.2402E-03,   194.400E-03,            0.,NA,NA,"",   991.125E+03,   991.710E+03,   991.710E+03
C:/temp/Job-4.odb,Step-1,Increment      1: Step Time =    1.000,"P-4-1",           562,   57.7301E-03,   195.605E-03,            0.,NA,NA,"",    971.67E+03,   971.838E+03,   971.838E+03
C:/temp/Job-4.odb,Step-1,Increment      1: Step Time =    1.000,"P-4-1",           563,   66.8690E-03,   195.568E-03,            0.,NA,NA,"",   959.716E+03,   959.755E+03,   959.755E+03
C:/temp/Job-4.odb,Step-1,Increment      1: Step Time =    1.000,"P-4-1",           564,   195.835E-03,   75.8936E-03,            0.,NA,NA,"",   975.849E+03,   999.705E+03,   999.705E+03
C:/temp/Job-4.odb,Step-1,Increment      1: Step Time =    1.000,"P-4-1",           565,   76.2247E-03,   194.967E-03,            0.,NA,NA,"",   950.856E+03,   951.093E+03,   951.093E+03
C:/temp/Job-4.odb,Step-1,Increment      1: Step Time =    1.000,"P-4-1",           566,   195.292E-03,   85.0393E-03,            0.,NA,NA,"",   970.056E+03,   999.111E+03,   999.111E+03
C:/temp/Job-4.odb,Step-1,Increment      1: Step Time =    1.000,"P-4-1",           567,   195.045E-03,   94.5167E-03,            0.,NA,NA,"",   966.219E+03,   998.431E+03,   998.431E+03
C:/temp/Job-4.odb,Step-1,Increment      1: Step Time =    1.000,"P-4-1",           568,   123.786E-03,   195.026E-03,            0.,NA,NA,"",   959.483E+03,   959.597E+03,   959.597E+03
C:/temp/Job-4.odb,Step-1,Increment      1: Step Time =    1.000,"P-4-1",           569,   114.339E-03,   194.922E-03,            0.,NA,NA,"",   948.265E+03,   948.624E+03,   948.624E+03
C:/temp/Job-4.odb,Step-1,Increment      1: Step Time =    1.000,"P-4-1",           570,   104.704E-03,   194.924E-03,            0.,NA,NA,"",   940.659E+03,   941.341E+03,   941.341E+03
C:/temp/Job-4.odb,Step-1,Increment      1: Step Time =    1.000,"P-4-1",           571,   95.2473E-03,   194.784E-03,            0.,NA,NA,"",   938.772E+03,   939.510E+03,   939.510E+03
C:/temp/Job-4.odb,Step-1,Increment      1: Step Time =    1.000,"P-4-1",           572,   85.5924E-03,   194.971E-03,            0.,NA,NA,"",   942.527E+03,   942.986E+03,   942.986E+03
C:/temp/Job-4.odb,Step-1,Increment      1: Step Time =    1.000,"P-4-1",           573,   194.887E-03,   113.646E-03,            0.,NA,NA,"",   969.469E+03,   998.682E+03,   998.682E+03
C:/temp/Job-4.odb,Step-1,Increment      1: Step Time =    1.000,"P-4-1",           574,   195.023E-03,   123.360E-03,            0.,NA,NA,"",   976.093E+03,   999.691E+03,   999.691E+03
C:/temp/Job-4.odb,Step-1,Increment      1: Step Time =    1.000,"P-4-1",           575,   5.13378E-03,   114.404E-03,            0.,NA,NA,"",   792.689E+03,   891.700E+03,   891.700E+03
C:/temp/Job-4.odb,Step-1,Increment      1: Step Time =    1.000,"P-4-1",           576,   4.93851E-03,   124.035E-03,            0.,NA,NA,"",   806.557E+03,   906.106E+03,   906.106E+03
C:/temp/Job-4.odb,Step-1,Increment      1: Step Time =    1.000,"P-4-1",           577,   5.04204E-03,   104.652E-03,            0.,NA,NA,"",   784.528E+03,   883.268E+03,   883.268E+03
C:/temp/Job-4.odb,Step-1,Increment      1: Step Time =    1.000,"P-4-1",           578,   195.280E-03,   104.127E-03,            0.,NA,NA,"",   965.707E+03,   998.437E+03,   998.437E+03
C:/temp/Job-4.odb,Step-1,Increment      1: Step Time =    1.000,"P-4-1",           579,   5.03630E-03,   85.4178E-03,            0.,NA,NA,"",   792.253E+03,   891.214E+03,   891.214E+03
C:/temp/Job-4.odb,Step-1,Increment      1: Step Time =    1.000,"P-4-1",           580,   4.99655E-03,   75.9727E-03,            0.,NA,NA,"",   806.389E+03,   905.852E+03,   905.852E+03
C:/temp/Job-4.odb,Step-1,Increment      1: Step Time =    1.000,"P-4-1",           581,   5.20954E-03,   95.0537E-03,            0.,NA,NA,"",   784.545E+03,   883.238E+03,   883.238E+03
C:/temp/Job-4.odb,Step-1,Increment      1: Step Time =    1.000,"P-4-1",           582,   4.69725E-03,   33.6890E-03,            0.,NA,NA,"",   921.972E+03,   1.02155E+06,   1.02155E+06
C:/temp/Job-4.odb,Step-1,Increment      1: Step Time =    1.000,"P-4-1",           583,   4.68581E-03,   47.9081E-03,            0.,NA,NA,"",   870.844E+03,   971.697E+03,   971.697E+03
C:/temp/Job-4.odb,Step-1,Increment      1: Step Time =    1.000,"P-4-1",           584,   4.52114E-03,   57.2969E-03,            0.,NA,NA,"",   845.185E+03,   946.156E+03,   946.156E+03
C:/temp/Job-4.odb,Step-1,Increment      1: Step Time =    1.000,"P-4-1",           585,   4.60312E-03,   66.6643E-03,            0.,NA,NA,"",   823.682E+03,   924.144E+03,   924.144E+03
C:/temp/Job-4.odb,Step-1,Increment      1: Step Time =    1.000,"P-4-1",           586,   128.531E-03,   4.10547E-03,            0.,NA,NA,"",   963.476E+03,   963.447E+03,   963.447E+03
C:/temp/Job-4.odb,Step-1,Increment      1: Step Time =    1.000,"P-4-1",           587,   119.257E-03,   4.43257E-03,            0.,NA,NA,"",   951.923E+03,   952.102E+03,   952.102E+03
C:/temp/Job-4.odb,Step-1,Increment      1: Step Time =    1.000,"P-4-1",           588,   109.845E-03,   4.89330E-03,            0.,NA,NA,"",   943.317E+03,   943.782E+03,   943.782E+03
C:/temp/Job-4.odb,Step-1,Increment      1: Step Time =    1.000,"P-4-1",           589,   100.216E-03,   5.40746E-03,            0.,NA,NA,"",   939.596E+03,   940.364E+03,   940.364E+03
C:/temp/Job-4.odb,Step-1,Increment      1: Step Time =    1.000,"P-4-1",           590,   90.4325E-03,   5.02869E-03,            0.,NA,NA,"",   939.765E+03,   940.300E+03,   940.300E+03
C:/temp/Job-4.odb,Step-1,Increment      1: Step Time =    1.000,"P-4-1",           591,   80.5617E-03,   5.58915E-03,            0.,NA,NA,"",   948.010E+03,   948.456E+03,   948.456E+03
C:/temp/Job-4.odb,Step-1,Increment      1: Step Time =    1.000,"P-4-1",           592,   195.109E-03,   128.136E-03,            0.,NA,NA,"",   979.708E+03,   1.00006E+06,   1.00006E+06
C:/temp/Job-4.odb,Step-1,Increment      1: Step Time =    1.000,"P-4-1",           593,   194.948E-03,   118.544E-03,            0.,NA,NA,"",   972.506E+03,   999.104E+03,   999.104E+03
C:/temp/Job-4.odb,Step-1,Increment      1: Step Time =    1.000,"P-4-1",           594,   195.120E-03,   108.896E-03,            0.,NA,NA,"",   967.130E+03,   998.489E+03,   998.489E+03
C:/temp/Job-4.odb,Step-1,Increment      1: Step Time =    1.000,"P-4-1",           595,   195.222E-03,   99.3713E-03,            0.,NA,NA,"",   965.403E+03,   998.410E+03,   998.410E+03
C:/temp/Job-4.odb,Step-1,Increment      1: Step Time =    1.000,"P-4-1",           596,   194.903E-03,   89.6530E-03,            0.,NA,NA,"",   967.888E+03,   998.669E+03,   998.669E+03
C:/temp/Job-4.odb,Step-1,Increment      1: Step Time =    1.000,"P-4-1",           597,   195.679E-03,   80.4527E-03,            0.,NA,NA,"",   972.719E+03,   999.521E+03,   999.521E+03
C:/temp/Job-4.odb,Step-1,Increment      1: Step Time =    1.000,"P-4-1",           598,   38.8030E-03,   193.463E-03,            0.,NA,NA,"",   1.01491E+06,   1.01601E+06,   1.01601E+06
C:/temp/Job-4.odb,Step-1,Increment      1: Step Time =    1.000,"P-4-1",           599,   43.4787E-03,   194.938E-03,            0.,NA,NA,"",   996.467E+03,   997.361E+03,   997.361E+03
C:/temp/Job-4.odb,Step-1,Increment      1: Step Time =    1.000,"P-4-1",           600,   53.1346E-03,   195.272E-03,            0.,NA,NA,"",   979.338E+03,   979.702E+03,   979.702E+03
C:/temp/Job-4.odb,Step-1,Increment      1: Step Time =    1.000,"P-4-1",           601,   62.2871E-03,   195.668E-03,            0.,NA,NA,"",   965.234E+03,   965.347E+03,   965.347E+03
C:/temp/Job-4.odb,Step-1,Increment      1: Step Time =    1.000,"P-4-1",           602,   71.5084E-03,   195.318E-03,            0.,NA,NA,"",   954.990E+03,   955.043E+03,   955.043E+03
C:/temp/Job-4.odb,Step-1,Increment      1: Step Time =    1.000,"P-4-1",           603,   80.9072E-03,   194.697E-03,            0.,NA,NA,"",   946.800E+03,   947.251E+03,   947.251E+03
C:/temp/Job-4.odb,Step-1,Increment      1: Step Time =    1.000,"P-4-1",           604,   90.4500E-03,   195.012E-03,            0.,NA,NA,"",   939.453E+03,   939.955E+03,   939.955E+03
C:/temp/Job-4.odb,Step-1,Increment      1: Step Time =    1.000,"P-4-1",           605,   99.9848E-03,   194.576E-03,            0.,NA,NA,"",   939.390E+03,   940.259E+03,   940.259E+03
C:/temp/Job-4.odb,Step-1,Increment      1: Step Time =    1.000,"P-4-1",           606,   109.557E-03,   195.062E-03,            0.,NA,NA,"",   943.474E+03,   943.883E+03,   943.883E+03
C:/temp/Job-4.odb,Step-1,Increment      1: Step Time =    1.000,"P-4-1",           607,   119.092E-03,   194.743E-03,            0.,NA,NA,"",   953.866E+03,   954.192E+03,   954.192E+03
C:/temp/Job-4.odb,Step-1,Increment      1: Step Time =    1.000,"P-4-1",           608,   4.71910E-03,   38.4569E-03,            0.,NA,NA,"",   901.629E+03,   1.00194E+06,   1.00194E+06
C:/temp/Job-4.odb,Step-1,Increment      1: Step Time =    1.000,"P-4-1",           609,   4.73997E-03,   43.1747E-03,            0.,NA,NA,"",   885.473E+03,   986.153E+03,   986.153E+03
C:/temp/Job-4.odb,Step-1,Increment      1: Step Time =    1.000,"P-4-1",           610,   4.59416E-03,   52.6155E-03,            0.,NA,NA,"",   857.348E+03,   958.342E+03,   958.342E+03
C:/temp/Job-4.odb,Step-1,Increment      1: Step Time =    1.000,"P-4-1",           611,   4.51733E-03,   61.9791E-03,            0.,NA,NA,"",   833.965E+03,   934.741E+03,   934.741E+03
C:/temp/Job-4.odb,Step-1,Increment      1: Step Time =    1.000,"P-4-1",           612,   4.76767E-03,   71.2835E-03,            0.,NA,NA,"",   814.589E+03,   914.598E+03,   914.598E+03
C:/temp/Job-4.odb,Step-1,Increment      1: Step Time =    1.000,"P-4-1",           613,   5.25687E-03,   80.6635E-03,            0.,NA,NA,"",   798.966E+03,   898.041E+03,   898.041E+03
C:/temp/Job-4.odb,Step-1,Increment      1: Step Time =    1.000,"P-4-1",           614,   5.00747E-03,   90.2573E-03,            0.,NA,NA,"",   787.185E+03,   886.058E+03,   886.058E+03
C:/temp/Job-4.odb,Step-1,Increment      1: Step Time =    1.000,"P-4-1",           615,   5.38913E-03,   99.8309E-03,            0.,NA,NA,"",   783.697E+03,   882.301E+03,   882.301E+03
C:/temp/Job-4.odb,Step-1,Increment      1: Step Time =    1.000,"P-4-1",           616,   4.94886E-03,   109.560E-03,            0.,NA,NA,"",   787.433E+03,   886.372E+03,   886.372E+03
C:/temp/Job-4.odb,Step-1,Increment      1: Step Time =    1.000,"P-4-1",           617,   5.32247E-03,   119.246E-03,            0.,NA,NA,"",   799.274E+03,   898.411E+03,   898.411E+03
C:/temp/Job-4.odb,Step-1,Increment      1: Step Time =    1.000,"P-4-1",           618,   14.7627E-03,   195.139E-03,            0.,NA,NA,"",   1.14447E+06,   1.15463E+06,   1.15463E+06
C:/temp/Job-4.odb,Step-1,Increment      1: Step Time =    1.000,"P-4-1",           619,   5.04767E-03,   194.898E-03,            0.,NA,NA,"",   1.33835E+06,   1.39035E+06,   1.39035E+06
C:/temp/Job-4.odb,Step-1,Increment      1: Step Time =    1.000,"P-4-1",           620,   4.98401E-03,   10.2018E-03,            0.,NA,NA,"",   1.16199E+06,   1.24288E+06,   1.24288E+06
C:/temp/Job-4.odb,Step-1,Increment      1: Step Time =    1.000,"P-4-1",           621,   24.1268E-03,   195.551E-03,            0.,NA,NA,"",   1.06190E+06,   1.06469E+06,   1.06469E+06
C:/temp/Job-4.odb,Step-1,Increment      1: Step Time =    1.000,"P-4-1",           622,   4.30209E-03,   23.9903E-03,            0.,NA,NA,"",   972.145E+03,   1.07119E+06,   1.07119E+06
C:/temp/Job-4.odb,Step-1,Increment      1: Step Time =    1.000,"P-4-1",           623,   9.97661E-03,   194.750E-03,            0.,NA,NA,"",   1.23213E+06,   1.24838E+06,   1.24838E+06
C:/temp/Job-4.odb,Step-1,Increment      1: Step Time =    1.000,"P-4-1",           624,   19.4774E-03,   195.477E-03,            0.,NA,NA,"",   1.09597E+06,   1.10059E+06,   1.10059E+06
C:/temp/Job-4.odb,Step-1,Increment      1: Step Time =    1.000,"P-4-1",           625,   28.7388E-03,   195.321E-03,            0.,NA,NA,"",   1.04002E+06,   1.04173E+06,   1.04173E+06
C:/temp/Job-4.odb,Step-1,Increment      1: Step Time =    1.000,"P-4-1",           626,   4.21604E-03,   14.7747E-03,            0.,NA,NA,"",   1.06323E+06,   1.15687E+06,   1.15687E+06
C:/temp/Job-4.odb,Step-1,Increment      1: Step Time =    1.000,"P-4-1",           627,   3.93895E-03,   19.3096E-03,            0.,NA,NA,"",   1.01029E+06,   1.10856E+06,   1.10856E+06
C:/temp/Job-4.odb,Step-1,Increment      1: Step Time =    1.000,"P-4-1",           628,   4.75395E-03,   28.7784E-03,            0.,NA,NA,"",   946.268E+03,   1.04522E+06,   1.04522E+06
C:/temp/Job-4.odb,Step-1,Increment      1: Step Time =    1.000,"P-4-1",           629,   14.8914E-03,   5.26827E-03,            0.,NA,NA,"",   1.14523E+06,   1.15624E+06,   1.15624E+06
C:/temp/Job-4.odb,Step-1,Increment      1: Step Time =    1.000,"P-4-1",           630,   4.40787E-03,   185.167E-03,            0.,NA,NA,"",   1.06450E+06,   1.15716E+06,   1.15716E+06
C:/temp/Job-4.odb,Step-1,Increment      1: Step Time =    1.000,"P-4-1",           631,   194.817E-03,   14.5377E-03,            0.,NA,NA,"",   1.00027E+06,   1.00008E+06,   1.00008E+06
C:/temp/Job-4.odb,Step-1,Increment      1: Step Time =    1.000,"P-4-1",           632,   195.149E-03,   24.1622E-03,            0.,NA,NA,"",   1.00048E+06,   1.00035E+06,   1.00035E+06
C:/temp/Job-4.odb,Step-1,Increment      1: Step Time =    1.000,"P-4-1",           633,   195.136E-03,   4.81626E-03,            0.,NA,NA,"",   999.952E+03,   999.906E+03,   999.906E+03
C:/temp/Job-4.odb,Step-1,Increment      1: Step Time =    1.000,"P-4-1",           634,   24.0848E-03,   4.44676E-03,            0.,NA,NA,"",   1.06141E+06,   1.06455E+06,   1.06455E+06
C:/temp/Job-4.odb,Step-1,Increment      1: Step Time =    1.000,"P-4-1",           635,   33.2474E-03,   4.44980E-03,            0.,NA,NA,"",   1.02132E+06,   1.02248E+06,   1.02248E+06
C:/temp/Job-4.odb,Step-1,Increment      1: Step Time =    1.000,"P-4-1",           636,   42.5652E-03,   4.55725E-03,            0.,NA,NA,"",   997.884E+03,   998.464E+03,   998.464E+03
C:/temp/Job-4.odb,Step-1,Increment      1: Step Time =    1.000,"P-4-1",           637,   51.9517E-03,   4.50237E-03,            0.,NA,NA,"",   981.270E+03,   981.426E+03,   981.426E+03
C:/temp/Job-4.odb,Step-1,Increment      1: Step Time =    1.000,"P-4-1",           638,   66.1129E-03,   4.58212E-03,            0.,NA,NA,"",   961.666E+03,   961.688E+03,   961.688E+03
C:/temp/Job-4.odb,Step-1,Increment      1: Step Time =    1.000,"P-4-1",           639,   133.179E-03,   3.99296E-03,            0.,NA,NA,"",   969.652E+03,   969.528E+03,   969.528E+03
C:/temp/Job-4.odb,Step-1,Increment      1: Step Time =    1.000,"P-4-1",           640,   151.539E-03,   4.67824E-03,            0.,NA,NA,"",   989.843E+03,   989.591E+03,   989.591E+03
C:/temp/Job-4.odb,Step-1,Increment      1: Step Time =    1.000,"P-4-1",           641,   166.665E-03,   5.52366E-03,            0.,NA,NA,"",   997.547E+03,   997.239E+03,   997.239E+03
C:/temp/Job-4.odb,Step-1,Increment      1: Step Time =    1.000,"P-4-1",           642,   185.597E-03,   4.72647E-03,            0.,NA,NA,"",   999.548E+03,   999.523E+03,   999.523E+03
C:/temp/Job-4.odb,Step-1,Increment      1: Step Time =    1.000,"P-4-1",           643,   196.051E-03,   33.4882E-03,            0.,NA,NA,"",   999.689E+03,   1.00041E+06,   1.00041E+06
C:/temp/Job-4.odb,Step-1,Increment      1: Step Time =    1.000,"P-4-1",           644,   196.269E-03,   42.5375E-03,            0.,NA,NA,"",   997.444E+03,   1.00046E+06,   1.00046E+06
C:/temp/Job-4.odb,Step-1,Increment      1: Step Time =    1.000,"P-4-1",           645,   194.633E-03,   51.8458E-03,            0.,NA,NA,"",   993.978E+03,   1.00093E+06,   1.00093E+06
C:/temp/Job-4.odb,Step-1,Increment      1: Step Time =    1.000,"P-4-1",           646,   195.041E-03,   66.5860E-03,            0.,NA,NA,"",   983.554E+03,   1.00008E+06,   1.00008E+06
C:/temp/Job-4.odb,Step-1,Increment      1: Step Time =    1.000,"P-4-1",           647,   195.174E-03,   195.132E-03,            0.,NA,NA,"",   999.950E+03,   999.901E+03,   999.901E+03
C:/temp/Job-4.odb,Step-1,Increment      1: Step Time =    1.000,"P-4-1",           648,   185.464E-03,   194.841E-03,            0.,NA,NA,"",   999.578E+03,   999.542E+03,   999.542E+03
C:/temp/Job-4.odb,Step-1,Increment      1: Step Time =    1.000,"P-4-1",           649,   175.856E-03,   195.198E-03,            0.,NA,NA,"",   998.869E+03,   998.778E+03,   998.778E+03
C:/temp/Job-4.odb,Step-1,Increment      1: Step Time =    1.000,"P-4-1",           650,   166.587E-03,   196.060E-03,            0.,NA,NA,"",   997.024E+03,   996.882E+03,   996.882E+03
C:/temp/Job-4.odb,Step-1,Increment      1: Step Time =    1.000,"P-4-1",           651,   157.534E-03,   196.189E-03,            0.,NA,NA,"",   993.243E+03,   993.073E+03,   993.073E+03
C:/temp/Job-4.odb,Step-1,Increment      1: Step Time =    1.000,"P-4-1",           652,   148.209E-03,   194.605E-03,            0.,NA,NA,"",   988.191E+03,   987.810E+03,   987.810E+03
C:/temp/Job-4.odb,Step-1,Increment      1: Step Time =    1.000,"P-4-1",           653,   133.387E-03,   194.863E-03,            0.,NA,NA,"",   972.088E+03,   971.940E+03,   971.940E+03
C:/temp/Job-4.odb,Step-1,Increment      1: Step Time =    1.000,"P-4-1",           654,   195.248E-03,   132.843E-03,            0.,NA,NA,"",   983.241E+03,   1.00031E+06,   1.00031E+06
C:/temp/Job-4.odb,Step-1,Increment      1: Step Time =    1.000,"P-4-1",           655,   4.68987E-03,   133.609E-03,            0.,NA,NA,"",   825.124E+03,   925.454E+03,   925.454E+03
C:/temp/Job-4.odb,Step-1,Increment      1: Step Time =    1.000,"P-4-1",           656,   4.98267E-03,   147.940E-03,            0.,NA,NA,"",   860.362E+03,     960.8E+03,     960.8E+03
C:/temp/Job-4.odb,Step-1,Increment      1: Step Time =    1.000,"P-4-1",           657,   193.948E-03,   151.535E-03,            0.,NA,NA,"",   995.964E+03,   1.00117E+06,   1.00117E+06
C:/temp/Job-4.odb,Step-1,Increment      1: Step Time =    1.000,"P-4-1",           658,   4.69604E-03,   157.444E-03,            0.,NA,NA,"",   887.858E+03,   988.403E+03,   988.403E+03
C:/temp/Job-4.odb,Step-1,Increment      1: Step Time =    1.000,"P-4-1",           659,   194.733E-03,   166.570E-03,            0.,NA,NA,"",   999.928E+03,   1.00074E+06,   1.00074E+06
C:/temp/Job-4.odb,Step-1,Increment      1: Step Time =    1.000,"P-4-1",           660,   4.27959E-03,   166.841E-03,            0.,NA,NA,"",   921.209E+03,   1.02200E+06,   1.02200E+06
C:/temp/Job-4.odb,Step-1,Increment      1: Step Time =    1.000,"P-4-1",           661,   3.77534E-03,   175.923E-03,            0.,NA,NA,"",   968.404E+03,   1.06883E+06,   1.06883E+06
C:/temp/Job-4.odb,Step-1,Increment      1: Step Time =    1.000,"P-4-1",           662,   195.210E-03,   185.548E-03,            0.,NA,NA,"",   1.00028E+06,   1.00008E+06,   1.00008E+06
C:/temp/Job-4.odb,Step-1,Increment      1: Step Time =    1.000,"P-4-1",           663,   180.887E-03,   4.69329E-03,            0.,NA,NA,"",   999.265E+03,   999.220E+03,   999.220E+03
C:/temp/Job-4.odb,Step-1,Increment      1: Step Time =    1.000,"P-4-1",           664,   171.519E-03,   4.95252E-03,            0.,NA,NA,"",   998.307E+03,   998.139E+03,   998.139E+03
C:/temp/Job-4.odb,Step-1,Increment      1: Step Time =    1.000,"P-4-1",           665,   146.999E-03,   4.26482E-03,            0.,NA,NA,"",   985.817E+03,   985.577E+03,   985.577E+03
C:/temp/Job-4.odb,Step-1,Increment      1: Step Time =    1.000,"P-4-1",           666,   70.8834E-03,   4.85039E-03,            0.,NA,NA,"",   956.551E+03,   956.604E+03,   956.604E+03
C:/temp/Job-4.odb,Step-1,Increment      1: Step Time =    1.000,"P-4-1",           667,   61.3675E-03,   4.48201E-03,            0.,NA,NA,"",   967.573E+03,   967.643E+03,   967.643E+03
C:/temp/Job-4.odb,Step-1,Increment      1: Step Time =    1.000,"P-4-1",           668,   56.6396E-03,   4.46957E-03,            0.,NA,NA,"",   974.161E+03,   974.269E+03,   974.269E+03
C:/temp/Job-4.odb,Step-1,Increment      1: Step Time =    1.000,"P-4-1",           669,   47.2704E-03,   4.53894E-03,            0.,NA,NA,"",   989.104E+03,   989.411E+03,   989.411E+03
C:/temp/Job-4.odb,Step-1,Increment      1: Step Time =    1.000,"P-4-1",           670,   37.8776E-03,   4.52362E-03,            0.,NA,NA,"",   1.00852E+06,   1.00933E+06,   1.00933E+06
C:/temp/Job-4.odb,Step-1,Increment      1: Step Time =    1.000,"P-4-1",           671,   28.6803E-03,   4.37243E-03,            0.,NA,NA,"",   1.03802E+06,   1.03965E+06,   1.03965E+06
C:/temp/Job-4.odb,Step-1,Increment      1: Step Time =    1.000,"P-4-1",           672,   19.4983E-03,   4.80046E-03,            0.,NA,NA,"",   1.09740E+06,    1.1028E+06,    1.1028E+06
C:/temp/Job-4.odb,Step-1,Increment      1: Step Time =    1.000,"P-4-1",           673,   10.1132E-03,   5.53723E-03,            0.,NA,NA,"",   1.22946E+06,   1.24681E+06,   1.24681E+06
C:/temp/Job-4.odb,Step-1,Increment      1: Step Time =    1.000,"P-4-1",           674,   195.214E-03,   180.784E-03,            0.,NA,NA,"",   1.00042E+06,   1.00020E+06,   1.00020E+06
C:/temp/Job-4.odb,Step-1,Increment      1: Step Time =    1.000,"P-4-1",           675,   195.073E-03,   171.347E-03,            0.,NA,NA,"",   1.00027E+06,   1.00049E+06,   1.00049E+06
C:/temp/Job-4.odb,Step-1,Increment      1: Step Time =    1.000,"P-4-1",           676,   195.270E-03,   146.680E-03,            0.,NA,NA,"",   992.848E+03,   1.00070E+06,   1.00070E+06
C:/temp/Job-4.odb,Step-1,Increment      1: Step Time =    1.000,"P-4-1",           677,   195.650E-03,   71.3160E-03,            0.,NA,NA,"",   979.383E+03,   999.733E+03,   999.733E+03
C:/temp/Job-4.odb,Step-1,Increment      1: Step Time =    1.000,"P-4-1",           678,   193.936E-03,   61.3544E-03,            0.,NA,NA,"",   988.755E+03,   1.00097E+06,   1.00097E+06
C:/temp/Job-4.odb,Step-1,Increment      1: Step Time =    1.000,"P-4-1",           679,   195.037E-03,   56.7337E-03,            0.,NA,NA,"",   990.902E+03,   1.00083E+06,   1.00083E+06
C:/temp/Job-4.odb,Step-1,Increment      1: Step Time =    1.000,"P-4-1",           680,   195.958E-03,   46.9833E-03,            0.,NA,NA,"",   995.817E+03,   1.00063E+06,   1.00063E+06
C:/temp/Job-4.odb,Step-1,Increment      1: Step Time =    1.000,"P-4-1",           681,   196.266E-03,   38.0404E-03,            0.,NA,NA,"",   998.772E+03,   1.00042E+06,   1.00042E+06
C:/temp/Job-4.odb,Step-1,Increment      1: Step Time =    1.000,"P-4-1",           682,   195.668E-03,   28.8603E-03,            0.,NA,NA,"",   1.00024E+06,   1.00039E+06,   1.00039E+06
C:/temp/Job-4.odb,Step-1,Increment      1: Step Time =    1.000,"P-4-1",           683,   194.698E-03,   19.4503E-03,            0.,NA,NA,"",   1.00043E+06,   1.00023E+06,   1.00023E+06
C:/temp/Job-4.odb,Step-1,Increment      1: Step Time =    1.000,"P-4-1",           684,   195.005E-03,   9.63958E-03,            0.,NA,NA,"",   1.00008E+06,   999.962E+03,   999.962E+03
C:/temp/Job-4.odb,Step-1,Increment      1: Step Time =    1.000,"P-4-1",           685,   128.547E-03,   195.161E-03,            0.,NA,NA,"",   965.424E+03,   965.393E+03,   965.393E+03
C:/temp/Job-4.odb,Step-1,Increment      1: Step Time =    1.000,"P-4-1",           686,   138.669E-03,   193.948E-03,            0.,NA,NA,"",   980.163E+03,   979.699E+03,   979.699E+03
C:/temp/Job-4.odb,Step-1,Increment      1: Step Time =    1.000,"P-4-1",           687,   143.286E-03,   195.047E-03,            0.,NA,NA,"",   982.898E+03,   982.536E+03,   982.536E+03
C:/temp/Job-4.odb,Step-1,Increment      1: Step Time =    1.000,"P-4-1",           688,   153.072E-03,   195.869E-03,            0.,NA,NA,"",   990.645E+03,   990.398E+03,   990.398E+03
C:/temp/Job-4.odb,Step-1,Increment      1: Step Time =    1.000,"P-4-1",           689,   162.045E-03,   196.230E-03,            0.,NA,NA,"",   995.436E+03,   995.287E+03,   995.287E+03
C:/temp/Job-4.odb,Step-1,Increment      1: Step Time =    1.000,"P-4-1",           690,   171.182E-03,   195.701E-03,            0.,NA,NA,"",   998.128E+03,   998.009E+03,   998.009E+03
C:/temp/Job-4.odb,Step-1,Increment      1: Step Time =    1.000,"P-4-1",           691,   180.577E-03,   194.743E-03,            0.,NA,NA,"",   999.311E+03,   999.254E+03,   999.254E+03
C:/temp/Job-4.odb,Step-1,Increment      1: Step Time =    1.000,"P-4-1",           692,   190.354E-03,   195.010E-03,            0.,NA,NA,"",   999.784E+03,   999.748E+03,   999.748E+03
C:/temp/Job-4.odb,Step-1,Increment      1: Step Time =    1.000,"P-4-1",           693,   4.67958E-03,   128.856E-03,            0.,NA,NA,"",   815.202E+03,   915.241E+03,   915.241E+03
C:/temp/Job-4.odb,Step-1,Increment      1: Step Time =    1.000,"P-4-1",           694,   4.84904E-03,   138.318E-03,            0.,NA,NA,"",   835.910E+03,   936.332E+03,   936.332E+03
C:/temp/Job-4.odb,Step-1,Increment      1: Step Time =    1.000,"P-4-1",           695,   4.96189E-03,   143.104E-03,            0.,NA,NA,"",   847.815E+03,   948.220E+03,   948.220E+03
C:/temp/Job-4.odb,Step-1,Increment      1: Step Time =    1.000,"P-4-1",           696,   4.87396E-03,   152.692E-03,            0.,NA,NA,"",   873.527E+03,   974.017E+03,   974.017E+03
C:/temp/Job-4.odb,Step-1,Increment      1: Step Time =    1.000,"P-4-1",           697,   4.50702E-03,   162.177E-03,            0.,NA,NA,"",   903.891E+03,   1.00455E+06,   1.00455E+06
C:/temp/Job-4.odb,Step-1,Increment      1: Step Time =    1.000,"P-4-1",           698,   3.97331E-03,   171.391E-03,            0.,NA,NA,"",   942.414E+03,   1.04320E+06,   1.04320E+06
C:/temp/Job-4.odb,Step-1,Increment      1: Step Time =    1.000,"P-4-1",           699,   3.88578E-03,   180.508E-03,            0.,NA,NA,"",   1.00825E+06,   1.10645E+06,   1.10645E+06
C:/temp/Job-4.odb,Step-1,Increment      1: Step Time =    1.000,"P-4-1",           700,   5.02872E-03,   189.912E-03,            0.,NA,NA,"",   1.16691E+06,   1.24664E+06,   1.24664E+06
C:/temp/Job-4.odb,Step-1,Increment      1: Step Time =    1.000,"P-4-1",           701,   121.833E-03,   95.9872E-03,            0.,NA,NA,"",   606.755E+03,   552.460E+03,   552.460E+03
C:/temp/Job-4.odb,Step-1,Increment      1: Step Time =    1.000,"P-4-1",           702,   79.5250E-03,   93.8750E-03,            0.,NA,NA,"",   728.207E+03,   653.245E+03,   653.245E+03
C:/temp/Job-4.odb,Step-1,Increment      1: Step Time =    1.000,"P-4-1",           703,   185.438E-03,   9.41986E-03,            0.,NA,NA,"",   999.953E+03,   999.878E+03,   999.878E+03
C:/temp/Job-4.odb,Step-1,Increment      1: Step Time =    1.000,"P-4-1",           704,   141.859E-03,   8.12666E-03,            0.,NA,NA,"",   986.124E+03,   985.493E+03,   985.493E+03
C:/temp/Job-4.odb,Step-1,Increment      1: Step Time =    1.000,"P-4-1",           705,   154.081E-03,   10.2272E-03,            0.,NA,NA,"",   996.707E+03,   995.694E+03,   995.694E+03
C:/temp/Job-4.odb,Step-1,Increment      1: Step Time =    1.000,"P-4-1",           706,   191.169E-03,   145.173E-03,            0.,NA,NA,"",   994.683E+03,   1.00207E+06,   1.00207E+06
C:/temp/Job-4.odb,Step-1,Increment      1: Step Time =    1.000,"P-4-1",           707,   190.862E-03,   157.341E-03,            0.,NA,NA,"",   999.165E+03,   1.00209E+06,   1.00209E+06
C:/temp/Job-4.odb,Step-1,Increment      1: Step Time =    1.000,"P-4-1",           708,   190.493E-03,   185.371E-03,            0.,NA,NA,"",   1.00036E+06,   1.00025E+06,   1.00025E+06
C:/temp/Job-4.odb,Step-1,Increment      1: Step Time =    1.000,"P-4-1",           709,   142.676E-03,   191.028E-03,            0.,NA,NA,"",   988.167E+03,   987.365E+03,   987.365E+03
C:/temp/Job-4.odb,Step-1,Increment      1: Step Time =    1.000,"P-4-1",           710,   10.0102E-03,   143.270E-03,            0.,NA,NA,"",   867.226E+03,   960.430E+03,   960.430E+03
C:/temp/Job-4.odb,Step-1,Increment      1: Step Time =    1.000,"P-4-1",           711,   133.082E-03,   8.04679E-03,            0.,NA,NA,"",   977.557E+03,   977.172E+03,   977.172E+03
C:/temp/Job-4.odb,Step-1,Increment      1: Step Time =    1.000,"P-4-1",           712,   190.806E-03,   137.130E-03,            0.,NA,NA,"",   989.830E+03,   1.00141E+06,   1.00141E+06
C:/temp/Job-4.odb,Step-1,Increment      1: Step Time =    1.000,"P-4-1",           713,   45.3778E-03,   191.356E-03,            0.,NA,NA,"",   1.00958E+06,   1.01090E+06,   1.01090E+06
C:/temp/Job-4.odb,Step-1,Increment      1: Step Time =    1.000,"P-4-1",           714,   9.61854E-03,   43.4823E-03,            0.,NA,NA,"",   906.466E+03,   998.184E+03,   998.184E+03
C:/temp/Job-4.odb,Step-1,Increment      1: Step Time =    1.000,"P-4-1",           715,   54.4476E-03,   190.772E-03,            0.,NA,NA,"",   995.146E+03,   995.648E+03,   995.648E+03
C:/temp/Job-4.odb,Step-1,Increment      1: Step Time =    1.000,"P-4-1",           716,   192.286E-03,   45.9619E-03,            0.,NA,NA,"",   997.559E+03,   1.00167E+06,   1.00167E+06
C:/temp/Job-4.odb,Step-1,Increment      1: Step Time =    1.000,"P-4-1",           717,   56.1600E-03,   8.96044E-03,            0.,NA,NA,"",   991.879E+03,   992.239E+03,   992.239E+03
C:/temp/Job-4.odb,Step-1,Increment      1: Step Time =    1.000,"P-4-1",           718,   190.959E-03,   57.3247E-03,            0.,NA,NA,"",   993.136E+03,   1.00188E+06,   1.00188E+06
C:/temp/Job-4.odb,Step-1,Increment      1: Step Time =    1.000,"P-4-1",           719,   154.128E-03,   192.024E-03,            0.,NA,NA,"",   994.447E+03,   993.790E+03,   993.790E+03
C:/temp/Job-4.odb,Step-1,Increment      1: Step Time =    1.000,"P-4-1",           720,   107.606E-03,   123.792E-03,            0.,NA,NA,"",   1.25746E+06,   1.32434E+06,   1.32434E+06
C:/temp/Job-4.odb,Step-1,Increment      1: Step Time =    1.000,"P-4-1",           721,   95.0291E-03,   122.607E-03,            0.,NA,NA,"",   1.23789E+06,   1.33463E+06,   1.33463E+06
C:/temp/Job-4.odb,Step-1,Increment      1: Step Time =    1.000,"P-4-1",           722,   155.567E-03,   14.9004E-03,            0.,NA,NA,"",   1.00212E+06,   1.00029E+06,   1.00029E+06
C:/temp/Job-4.odb,Step-1,Increment      1: Step Time =    1.000,"P-4-1",           723,   14.8895E-03,   153.981E-03,            0.,NA,NA,"",   921.178E+03,   1.00315E+06,   1.00315E+06
C:/temp/Job-4.odb,Step-1,Increment      1: Step Time =    1.000,"P-4-1",           724,   185.654E-03,   154.265E-03,            0.,NA,NA,"",   1.00236E+06,   1.00478E+06,   1.00478E+06
C:/temp/Job-4.odb,Step-1,Increment      1: Step Time =    1.000,"P-4-1",           725,   158.372E-03,   188.581E-03,            0.,NA,NA,"",   999.540E+03,   998.376E+03,   998.376E+03
C:/temp/Job-4.odb,Step-1,Increment      1: Step Time =    1.000,"P-4-1",           726,   55.8116E-03,   13.4163E-03,            0.,NA,NA,"",   1.00759E+06,   1.00849E+06,   1.00849E+06
C:/temp/Job-4.odb,Step-1,Increment      1: Step Time =    1.000,"P-4-1",           727,   14.0168E-03,   53.4375E-03,            0.,NA,NA,"",   890.989E+03,   977.609E+03,   977.609E+03
C:/temp/Job-4.odb,Step-1,Increment      1: Step Time =    1.000,"P-4-1",           728,   14.8036E-03,   143.311E-03,            0.,NA,NA,"",   885.261E+03,   971.137E+03,   971.137E+03
C:/temp/Job-4.odb,Step-1,Increment      1: Step Time =    1.000,"P-4-1",           729,   141.212E-03,   12.1723E-03,            0.,NA,NA,"",   992.328E+03,   991.094E+03,   991.094E+03
C:/temp/Job-4.odb,Step-1,Increment      1: Step Time =    1.000,"P-4-1",           730,   185.481E-03,   53.9240E-03,            0.,NA,NA,"",   1.00017E+06,   1.00482E+06,   1.00482E+06
C:/temp/Job-4.odb,Step-1,Increment      1: Step Time =    1.000,"P-4-1",           731,   55.6300E-03,   186.510E-03,            0.,NA,NA,"",   1.00870E+06,   1.00963E+06,   1.00963E+06
C:/temp/Job-4.odb,Step-1,Increment      1: Step Time =    1.000,"P-4-1",           732,   14.6054E-03,   43.8274E-03,            0.,NA,NA,"",   927.489E+03,   1.00910E+06,   1.00910E+06
C:/temp/Job-4.odb,Step-1,Increment      1: Step Time =    1.000,"P-4-1",           733,   46.6823E-03,   13.9226E-03,            0.,NA,NA,"",   1.02431E+06,   1.02686E+06,   1.02686E+06
C:/temp/Job-4.odb,Step-1,Increment      1: Step Time =    1.000,"P-4-1",           734,   145.907E-03,   185.524E-03,            0.,NA,NA,"",   999.293E+03,   997.338E+03,   997.338E+03
C:/temp/Job-4.odb,Step-1,Increment      1: Step Time =    1.000,"P-4-1",           735,   188.158E-03,   144.194E-03,            0.,NA,NA,"",   996.520E+03,   1.00327E+06,   1.00327E+06
C:/temp/Job-4.odb,Step-1,Increment      1: Step Time =    1.000,"P-4-1",           736,   45.4202E-03,   185.570E-03,            0.,NA,NA,"",   1.02813E+06,   1.03144E+06,   1.03144E+06
C:/temp/Job-4.odb,Step-1,Increment      1: Step Time =    1.000,"P-4-1",           737,   189.016E-03,   41.9760E-03,            0.,NA,NA,"",   1.00044E+06,   1.00280E+06,   1.00280E+06
C:/temp/Job-4.odb,Step-1,Increment      1: Step Time =    1.000,"P-4-1",           738,   133.083E-03,   12.0896E-03,            0.,NA,NA,"",   985.804E+03,   985.071E+03,   985.071E+03
C:/temp/Job-4.odb,Step-1,Increment      1: Step Time =    1.000,"P-4-1",           739,   185.942E-03,   137.533E-03,            0.,NA,NA,"",   994.460E+03,   1.00302E+06,   1.00302E+06
C:/temp/Job-4.odb,Step-1,Increment      1: Step Time =    1.000,"P-4-1",           740,   126.635E-03,   95.9434E-03,            0.,NA,NA,"",   662.047E+03,   649.094E+03,   649.094E+03
C:/temp/Job-4.odb,Step-1,Increment      1: Step Time =    1.000,"P-4-1",           741,   77.4195E-03,   99.3332E-03,            0.,NA,NA,"",   376.836E+03,   391.502E+03,   391.502E+03
C:/temp/Job-4.odb,Step-1,Increment      1: Step Time =    1.000,"P-4-1",           742,   162.116E-03,   192.377E-03,            0.,NA,NA,"",   997.305E+03,   996.827E+03,   996.827E+03
C:/temp/Job-4.odb,Step-1,Increment      1: Step Time =    1.000,"P-4-1",           743,   9.06965E-03,   162.598E-03,            0.,NA,NA,"",   928.130E+03,   1.01905E+06,   1.01905E+06
C:/temp/Job-4.odb,Step-1,Increment      1: Step Time =    1.000,"P-4-1",           744,   62.6394E-03,   191.248E-03,            0.,NA,NA,"",   981.336E+03,   981.598E+03,   981.598E+03
C:/temp/Job-4.odb,Step-1,Increment      1: Step Time =    1.000,"P-4-1",           745,   9.01875E-03,   62.0055E-03,            0.,NA,NA,"",   848.796E+03,   944.184E+03,   944.184E+03
C:/temp/Job-4.odb,Step-1,Increment      1: Step Time =    1.000,"P-4-1",           746,   36.7674E-03,   188.485E-03,            0.,NA,NA,"",   1.04056E+06,   1.04498E+06,   1.04498E+06
C:/temp/Job-4.odb,Step-1,Increment      1: Step Time =    1.000,"P-4-1",           747,   188.894E-03,   63.1460E-03,            0.,NA,NA,"",   991.435E+03,   1.00200E+06,   1.00200E+06
C:/temp/Job-4.odb,Step-1,Increment      1: Step Time =    1.000,"P-4-1",           748,   37.5995E-03,   9.19165E-03,            0.,NA,NA,"",   1.03023E+06,   1.03302E+06,   1.03302E+06
C:/temp/Job-4.odb,Step-1,Increment      1: Step Time =    1.000,"P-4-1",           749,   192.499E-03,   38.1108E-03,            0.,NA,NA,"",   999.425E+03,   1.00126E+06,   1.00126E+06
C:/temp/Job-4.odb,Step-1,Increment      1: Step Time =    1.000,"P-4-1",           750,   137.030E-03,   188.940E-03,            0.,NA,NA,"",   987.675E+03,   986.720E+03,   986.720E+03
C:/temp/Job-4.odb,Step-1,Increment      1: Step Time =    1.000,"P-4-1",           751,   103.721E-03,   127.265E-03,            0.,NA,NA,"",   1.12207E+06,   1.21389E+06,   1.21389E+06
C:/temp/Job-4.odb,Step-1,Increment      1: Step Time =    1.000,"P-4-1",           752,   108.267E-03,   118.517E-03,            0.,NA,NA,"",   1.42985E+06,   1.48010E+06,   1.48010E+06
C:/temp/Job-4.odb,Step-1,Increment      1: Step Time =    1.000,"P-4-1",           753,   97.7533E-03,   127.930E-03,            0.,NA,NA,"",   1.10758E+06,   1.19821E+06,   1.19821E+06
C:/temp/Job-4.odb,Step-1,Increment      1: Step Time =    1.000,"P-4-1",           754,   185.201E-03,   13.9653E-03,            0.,NA,NA,"",   1.00059E+06,   1.00045E+06,   1.00045E+06
C:/temp/Job-4.odb,Step-1,Increment      1: Step Time =    1.000,"P-4-1",           755,   185.991E-03,   185.174E-03,            0.,NA,NA,"",   1.00068E+06,   1.00054E+06,   1.00054E+06
C:/temp/Job-4.odb,Step-1,Increment      1: Step Time =    1.000,"P-4-1",           756,   37.2981E-03,   13.9644E-03,            0.,NA,NA,"",   1.04470E+06,   1.05074E+06,   1.05074E+06
C:/temp/Job-4.odb,Step-1,Increment      1: Step Time =    1.000,"P-4-1",           757,   12.6850E-03,   34.5435E-03,            0.,NA,NA,"",   960.074E+03,   1.04073E+06,   1.04073E+06
C:/temp/Job-4.odb,Step-1,Increment      1: Step Time =    1.000,"P-4-1",           758,   13.9751E-03,   133.337E-03,            0.,NA,NA,"",   851.775E+03,   941.422E+03,   941.422E+03
C:/temp/Job-4.odb,Step-1,Increment      1: Step Time =    1.000,"P-4-1",           759,   13.3440E-03,   62.0133E-03,            0.,NA,NA,"",   862.865E+03,   952.551E+03,   952.551E+03
C:/temp/Job-4.odb,Step-1,Increment      1: Step Time =    1.000,"P-4-1",           760,   64.7114E-03,   13.4105E-03,            0.,NA,NA,"",   994.974E+03,   995.513E+03,   995.513E+03
C:/temp/Job-4.odb,Step-1,Increment      1: Step Time =    1.000,"P-4-1",           761,   188.262E-03,   34.5833E-03,            0.,NA,NA,"",   1.00164E+06,   1.00254E+06,   1.00254E+06
C:/temp/Job-4.odb,Step-1,Increment      1: Step Time =    1.000,"P-4-1",           762,   31.8348E-03,   185.835E-03,            0.,NA,NA,"",   1.06103E+06,   1.07015E+06,   1.07015E+06
C:/temp/Job-4.odb,Step-1,Increment      1: Step Time =    1.000,"P-4-1",           763,   13.4263E-03,   162.958E-03,            0.,NA,NA,"",   951.020E+03,   1.03141E+06,   1.03141E+06
C:/temp/Job-4.odb,Step-1,Increment      1: Step Time =    1.000,"P-4-1",           764,   132.133E-03,   186.599E-03,            0.,NA,NA,"",   988.442E+03,   987.684E+03,   987.684E+03
C:/temp/Job-4.odb,Step-1,Increment      1: Step Time =    1.000,"P-4-1",           765,   62.9082E-03,   186.702E-03,            0.,NA,NA,"",   997.210E+03,   997.736E+03,   997.736E+03
C:/temp/Job-4.odb,Step-1,Increment      1: Step Time =    1.000,"P-4-1",           766,   186.953E-03,   68.5013E-03,            0.,NA,NA,"",   988.750E+03,   1.00097E+06,   1.00097E+06
C:/temp/Job-4.odb,Step-1,Increment      1: Step Time =    1.000,"P-4-1",           767,   165.760E-03,   188.061E-03,            0.,NA,NA,"",   1.00063E+06,   999.758E+03,   999.758E+03
C:/temp/Job-4.odb,Step-1,Increment      1: Step Time =    1.000,"P-4-1",           768,   160.101E-03,   14.6667E-03,            0.,NA,NA,"",   1.00263E+06,   1.00099E+06,   1.00099E+06
C:/temp/Job-4.odb,Step-1,Increment      1: Step Time =    1.000,"P-4-1",           769,   14.1653E-03,   158.601E-03,            0.,NA,NA,"",   935.178E+03,   1.01673E+06,   1.01673E+06
C:/temp/Job-4.odb,Step-1,Increment      1: Step Time =    1.000,"P-4-1",           770,   186.204E-03,   158.746E-03,            0.,NA,NA,"",   1.00250E+06,   1.00417E+06,   1.00417E+06
C:/temp/Job-4.odb,Step-1,Increment      1: Step Time =    1.000,"P-4-1",           771,   156.869E-03,   183.732E-03,            0.,NA,NA,"",   1.00425E+06,   1.00214E+06,   1.00214E+06
C:/temp/Job-4.odb,Step-1,Increment      1: Step Time =    1.000,"P-4-1",           772,   60.3688E-03,   13.2046E-03,            0.,NA,NA,"",   1.00018E+06,   1.00072E+06,   1.00072E+06
C:/temp/Job-4.odb,Step-1,Increment      1: Step Time =    1.000,"P-4-1",           773,   13.6381E-03,   57.7988E-03,            0.,NA,NA,"",   876.141E+03,   964.480E+03,   964.480E+03
C:/temp/Job-4.odb,Step-1,Increment      1: Step Time =    1.000,"P-4-1",           774,   15.7436E-03,   138.037E-03,            0.,NA,NA,"",   872.270E+03,   958.189E+03,   958.189E+03
C:/temp/Job-4.odb,Step-1,Increment      1: Step Time =    1.000,"P-4-1",           775,   140.524E-03,   16.0360E-03,            0.,NA,NA,"",   999.214E+03,   997.256E+03,   997.256E+03
C:/temp/Job-4.odb,Step-1,Increment      1: Step Time =    1.000,"P-4-1",           776,   185.890E-03,   58.6502E-03,            0.,NA,NA,"",   997.229E+03,   1.00398E+06,   1.00398E+06
C:/temp/Job-4.odb,Step-1,Increment      1: Step Time =    1.000,"P-4-1",           777,   59.4809E-03,   182.241E-03,            0.,NA,NA,"",   1.01573E+06,   1.01712E+06,   1.01712E+06
C:/temp/Job-4.odb,Step-1,Increment      1: Step Time =    1.000,"P-4-1",           778,   15.0093E-03,   38.3103E-03,            0.,NA,NA,"",   952.767E+03,   1.03009E+06,   1.03009E+06
C:/temp/Job-4.odb,Step-1,Increment      1: Step Time =    1.000,"P-4-1",           779,   42.0058E-03,   13.9009E-03,            0.,NA,NA,"",   1.03361E+06,   1.03762E+06,   1.03762E+06
C:/temp/Job-4.odb,Step-1,Increment      1: Step Time =    1.000,"P-4-1",           780,   141.311E-03,   186.077E-03,            0.,NA,NA,"",   996.092E+03,   994.396E+03,   994.396E+03
C:/temp/Job-4.odb,Step-1,Increment      1: Step Time =    1.000,"P-4-1",           781,   181.306E-03,   139.220E-03,            0.,NA,NA,"",   1.00054E+06,   1.00555E+06,   1.00555E+06
C:/temp/Job-4.odb,Step-1,Increment      1: Step Time =    1.000,"P-4-1",           782,   40.2275E-03,   185.687E-03,            0.,NA,NA,"",   1.03841E+06,   1.04293E+06,   1.04293E+06
C:/temp/Job-4.odb,Step-1,Increment      1: Step Time =    1.000,"P-4-1",           783,   185.968E-03,   42.5134E-03,            0.,NA,NA,"",   1.00261E+06,   1.00435E+06,   1.00435E+06
C:/temp/Job-4.odb,Step-1,Increment      1: Step Time =    1.000,"P-4-1",           784,   128.830E-03,   12.4909E-03,            0.,NA,NA,"",   983.156E+03,   982.799E+03,   982.799E+03
C:/temp/Job-4.odb,Step-1,Increment      1: Step Time =    1.000,"P-4-1",           785,   184.115E-03,   132.690E-03,            0.,NA,NA,"",   992.150E+03,   1.00189E+06,   1.00189E+06
C:/temp/Job-4.odb,Step-1,Increment      1: Step Time =    1.000,"P-4-1",           786,   126.159E-03,   92.2785E-03,            0.,NA,NA,"",   802.865E+03,   761.082E+03,   761.082E+03
C:/temp/Job-4.odb,Step-1,Increment      1: Step Time =    1.000,"P-4-1",           787,   126.963E-03,   104.066E-03,            0.,NA,NA,"",   625.523E+03,   618.991E+03,   618.991E+03
C:/temp/Job-4.odb,Step-1,Increment      1: Step Time =    1.000,"P-4-1",           788,   76.0812E-03,   102.502E-03,            0.,NA,NA,"",   474.148E+03,   480.198E+03,   480.198E+03
C:/temp/Job-4.odb,Step-1,Increment      1: Step Time =    1.000,"P-4-1",           789,   109.899E-03,   128.569E-03,            0.,NA,NA,"",   1.17520E+06,   1.21647E+06,   1.21647E+06
C:/temp/Job-4.odb,Step-1,Increment      1: Step Time =    1.000,"P-4-1",           790,   94.2589E-03,   126.962E-03,            0.,NA,NA,"",   1.14148E+06,   1.22294E+06,   1.22294E+06
C:/temp/Job-4.odb,Step-1,Increment      1: Step Time =    1.000,"P-4-1",           791,   189.804E-03,   14.4829E-03,            0.,NA,NA,"",   1.00031E+06,   1.00021E+06,   1.00021E+06
C:/temp/Job-4.odb,Step-1,Increment      1: Step Time =    1.000,"P-4-1",           792,   185.509E-03,   189.837E-03,            0.,NA,NA,"",   1.00004E+06,   999.951E+03,   999.951E+03
C:/temp/Job-4.odb,Step-1,Increment      1: Step Time =    1.000,"P-4-1",           793,   74.4605E-03,   90.5262E-03,            0.,NA,NA,"",   849.558E+03,   815.580E+03,   815.580E+03
C:/temp/Job-4.odb,Step-1,Increment      1: Step Time =    1.000,"P-4-1",           794,   17.9017E-03,   166.022E-03,            0.,NA,NA,"",   982.618E+03,   1.04968E+06,   1.04968E+06
C:/temp/Job-4.odb,Step-1,Increment      1: Step Time =    1.000,"P-4-1",           795,   67.5581E-03,   18.4274E-03,            0.,NA,NA,"",   1.00755E+06,   1.00885E+06,   1.00885E+06
C:/temp/Job-4.odb,Step-1,Increment      1: Step Time =    1.000,"P-4-1",           796,   16.6971E-03,   65.4163E-03,            0.,NA,NA,"",   863.643E+03,   949.451E+03,   949.451E+03
C:/temp/Job-4.odb,Step-1,Increment      1: Step Time =    1.000,"P-4-1",           797,   20.3425E-03,   134.988E-03,            0.,NA,NA,"",   879.385E+03,   958.911E+03,   958.911E+03
C:/temp/Job-4.odb,Step-1,Increment      1: Step Time =    1.000,"P-4-1",           798,   17.7615E-03,   33.7959E-03,            0.,NA,NA,"",   984.214E+03,   1.05099E+06,   1.05099E+06
C:/temp/Job-4.odb,Step-1,Increment      1: Step Time =    1.000,"P-4-1",           799,   37.1171E-03,   18.7184E-03,            0.,NA,NA,"",   1.05044E+06,   1.06079E+06,   1.06079E+06
C:/temp/Job-4.odb,Step-1,Increment      1: Step Time =    1.000,"P-4-1",           800,   161.657E-03,   184.571E-03,            0.,NA,NA,"",   1.00337E+06,   1.00171E+06,   1.00171E+06
C:/temp/Job-4.odb,Step-1,Increment      1: Step Time =    1.000,"P-4-1",           801,   181.310E-03,   67.6937E-03,            0.,NA,NA,"",   994.539E+03,   1.00238E+06,   1.00238E+06
C:/temp/Job-4.odb,Step-1,Increment      1: Step Time =    1.000,"P-4-1",           802,   63.0322E-03,   182.029E-03,            0.,NA,NA,"",   1.01151E+06,   1.01266E+06,   1.01266E+06
C:/temp/Job-4.odb,Step-1,Increment      1: Step Time =    1.000,"P-4-1",           803,   133.296E-03,   181.764E-03,            0.,NA,NA,"",   1.00006E+06,   998.521E+03,   998.521E+03
C:/temp/Job-4.odb,Step-1,Increment      1: Step Time =    1.000,"P-4-1",           804,   31.1499E-03,   181.740E-03,            0.,NA,NA,"",   1.06154E+06,   1.07671E+06,   1.07671E+06
C:/temp/Job-4.odb,Step-1,Increment      1: Step Time =    1.000,"P-4-1",           805,   185.125E-03,   39.0625E-03,            0.,NA,NA,"",   1.00340E+06,   1.00440E+06,   1.00440E+06
C:/temp/Job-4.odb,Step-1,Increment      1: Step Time =    1.000,"P-4-1",           806,   74.8648E-03,   96.6931E-03,            0.,NA,NA,"",   581.739E+03,   584.765E+03,   584.765E+03
C:/temp/Job-4.odb,Step-1,Increment      1: Step Time =    1.000,"P-4-1",           807,   131.549E-03,   95.7082E-03,            0.,NA,NA,"",   728.847E+03,   730.094E+03,   730.094E+03
C:/temp/Job-4.odb,Step-1,Increment      1: Step Time =    1.000,"P-4-1",           808,   74.8430E-03,   86.0518E-03,            0.,NA,NA,"",   1.01747E+06,   962.306E+03,   962.306E+03
C:/temp/Job-4.odb,Step-1,Increment      1: Step Time =    1.000,"P-4-1",           809,   125.690E-03,   88.8445E-03,            0.,NA,NA,"",   960.055E+03,   887.572E+03,   887.572E+03
C:/temp/Job-4.odb,Step-1,Increment      1: Step Time =    1.000,"P-4-1",           810,   165.314E-03,   16.0225E-03,            0.,NA,NA,"",   1.00408E+06,   1.00248E+06,   1.00248E+06
C:/temp/Job-4.odb,Step-1,Increment      1: Step Time =    1.000,"P-4-1",           811,   157.194E-03,   17.4067E-03,            0.,NA,NA,"",   1.00522E+06,   1.00290E+06,   1.00290E+06
C:/temp/Job-4.odb,Step-1,Increment      1: Step Time =    1.000,"P-4-1",           812,   19.7746E-03,   155.428E-03,            0.,NA,NA,"",   946.874E+03,   1.01764E+06,   1.01764E+06
C:/temp/Job-4.odb,Step-1,Increment      1: Step Time =    1.000,"P-4-1",           813,   181.517E-03,   157.006E-03,            0.,NA,NA,"",   1.00632E+06,   1.00690E+06,   1.00690E+06
C:/temp/Job-4.odb,Step-1,Increment      1: Step Time =    1.000,"P-4-1",           814,   153.985E-03,   181.921E-03,            0.,NA,NA,"",   1.00634E+06,   1.00367E+06,   1.00367E+06
C:/temp/Job-4.odb,Step-1,Increment      1: Step Time =    1.000,"P-4-1",           815,   185.455E-03,   167.244E-03,            0.,NA,NA,"",   1.00307E+06,   1.00345E+06,   1.00345E+06
C:/temp/Job-4.odb,Step-1,Increment      1: Step Time =    1.000,"P-4-1",           816,   55.9333E-03,   17.5014E-03,            0.,NA,NA,"",   1.01948E+06,   1.02113E+06,   1.02113E+06
C:/temp/Job-4.odb,Step-1,Increment      1: Step Time =    1.000,"P-4-1",           817,   18.9665E-03,   54.1611E-03,            0.,NA,NA,"",   908.266E+03,   986.242E+03,   986.242E+03
C:/temp/Job-4.odb,Step-1,Increment      1: Step Time =    1.000,"P-4-1",           818,   19.9348E-03,   145.993E-03,            0.,NA,NA,"",   913.098E+03,   988.832E+03,   988.832E+03
C:/temp/Job-4.odb,Step-1,Increment      1: Step Time =    1.000,"P-4-1",           819,   143.867E-03,   16.6678E-03,            0.,NA,NA,"",   1.00204E+06,   999.710E+03,   999.710E+03
C:/temp/Job-4.odb,Step-1,Increment      1: Step Time =    1.000,"P-4-1",           820,   181.125E-03,   53.3552E-03,            0.,NA,NA,"",   1.00527E+06,   1.00758E+06,   1.00758E+06
C:/temp/Job-4.odb,Step-1,Increment      1: Step Time =    1.000,"P-4-1",           821,   56.2060E-03,   182.420E-03,            0.,NA,NA,"",   1.01979E+06,   1.02150E+06,   1.02150E+06
C:/temp/Job-4.odb,Step-1,Increment      1: Step Time =    1.000,"P-4-1",           822,   19.4091E-03,   44.6318E-03,            0.,NA,NA,"",   945.998E+03,   1.01746E+06,   1.01746E+06
C:/temp/Job-4.odb,Step-1,Increment      1: Step Time =    1.000,"P-4-1",           823,   46.3396E-03,   18.6124E-03,            0.,NA,NA,"",   1.03559E+06,   1.04022E+06,   1.04022E+06
C:/temp/Job-4.odb,Step-1,Increment      1: Step Time =    1.000,"P-4-1",           824,   146.252E-03,   181.020E-03,            0.,NA,NA,"",   1.00711E+06,   1.00402E+06,   1.00402E+06
C:/temp/Job-4.odb,Step-1,Increment      1: Step Time =    1.000,"P-4-1",           825,   183.430E-03,   143.016E-03,            0.,NA,NA,"",   1.00021E+06,   1.00529E+06,   1.00529E+06
C:/temp/Job-4.odb,Step-1,Increment      1: Step Time =    1.000,"P-4-1",           826,   46.0582E-03,   179.808E-03,            0.,NA,NA,"",   1.03818E+06,   1.04408E+06,   1.04408E+06
C:/temp/Job-4.odb,Step-1,Increment      1: Step Time =    1.000,"P-4-1",           827,   182.269E-03,   44.4881E-03,            0.,NA,NA,"",   1.00564E+06,   1.00663E+06,   1.00663E+06
C:/temp/Job-4.odb,Step-1,Increment      1: Step Time =    1.000,"P-4-1",           828,   124.451E-03,   13.1589E-03,            0.,NA,NA,"",   980.642E+03,   980.989E+03,   980.989E+03
C:/temp/Job-4.odb,Step-1,Increment      1: Step Time =    1.000,"P-4-1",           829,   136.888E-03,   19.7015E-03,            0.,NA,NA,"",   1.00499E+06,   1.00262E+06,   1.00262E+06
C:/temp/Job-4.odb,Step-1,Increment      1: Step Time =    1.000,"P-4-1",           830,   179.001E-03,   135.182E-03,            0.,NA,NA,"",   1.00021E+06,   1.00502E+06,   1.00502E+06
C:/temp/Job-4.odb,Step-1,Increment      1: Step Time =    1.000,"P-4-1",           831,   184.932E-03,   127.544E-03,            0.,NA,NA,"",   986.835E+03,   999.806E+03,   999.806E+03
C:/temp/Job-4.odb,Step-1,Increment      1: Step Time =    1.000,"P-4-1",           832,   78.9703E-03,   106.225E-03,            0.,NA,NA,"",   722.432E+03,   653.688E+03,   653.688E+03
C:/temp/Job-4.odb,Step-1,Increment      1: Step Time =    1.000,"P-4-1",           833,   95.9769E-03,   130.908E-03,            0.,NA,NA,"",   1.08649E+06,   1.16257E+06,   1.16257E+06
C:/temp/Job-4.odb,Step-1,Increment      1: Step Time =    1.000,"P-4-1",           834,   182.326E-03,   184.954E-03,            0.,NA,NA,"",   1.00106E+06,   1.00082E+06,   1.00082E+06
C:/temp/Job-4.odb,Step-1,Increment      1: Step Time =    1.000,"P-4-1",           835,   184.905E-03,   17.7441E-03,            0.,NA,NA,"",   1.00120E+06,   1.00100E+06,   1.00100E+06
C:/temp/Job-4.odb,Step-1,Increment      1: Step Time =    1.000,"P-4-1",           836,   113.630E-03,   126.977E-03,            0.,NA,NA,"",   1.23875E+06,   1.24200E+06,   1.24200E+06
C:/temp/Job-4.odb,Step-1,Increment      1: Step Time =    1.000,"P-4-1",           837,   82.2198E-03,   127.287E-03,            0.,NA,NA,"",   1.22245E+06,   1.20530E+06,   1.20530E+06
C:/temp/Job-4.odb,Step-1,Increment      1: Step Time =    1.000,"P-4-1",           838,   163.580E-03,   11.8665E-03,            0.,NA,NA,"",   1.00078E+06,   999.712E+03,   999.712E+03
C:/temp/Job-4.odb,Step-1,Increment      1: Step Time =    1.000,"P-4-1",           839,   189.023E-03,   162.806E-03,            0.,NA,NA,"",   1.00116E+06,   1.00255E+06,   1.00255E+06
C:/temp/Job-4.odb,Step-1,Increment      1: Step Time =    1.000,"P-4-1",           840,   9.21834E-03,   66.5600E-03,            0.,NA,NA,"",   838.035E+03,   933.404E+03,   933.404E+03
C:/temp/Job-4.odb,Step-1,Increment      1: Step Time =    1.000,"P-4-1",           841,   33.0582E-03,   9.05813E-03,            0.,NA,NA,"",   1.04440E+06,   1.04790E+06,   1.04790E+06
C:/temp/Job-4.odb,Step-1,Increment      1: Step Time =    1.000,"P-4-1",           842,   8.78924E-03,   167.283E-03,            0.,NA,NA,"",   947.613E+03,   1.03771E+06,   1.03771E+06
C:/temp/Job-4.odb,Step-1,Increment      1: Step Time =    1.000,"P-4-1",           843,   66.9067E-03,   191.063E-03,            0.,NA,NA,"",   976.330E+03,   976.611E+03,   976.611E+03
C:/temp/Job-4.odb,Step-1,Increment      1: Step Time =    1.000,"P-4-1",           844,   192.119E-03,   33.9021E-03,            0.,NA,NA,"",   1.00021E+06,   1.00122E+06,   1.00122E+06
C:/temp/Job-4.odb,Step-1,Increment      1: Step Time =    1.000,"P-4-1",           845,   166.293E-03,   192.065E-03,            0.,NA,NA,"",   998.431E+03,   998.011E+03,   998.011E+03
C:/temp/Job-4.odb,Step-1,Increment      1: Step Time =    1.000,"P-4-1",           846,   95.2601E-03,   80.5385E-03,            0.,NA,NA,"",   1.34515E+06,   1.45549E+06,   1.45549E+06
C:/temp/Job-4.odb,Step-1,Increment      1: Step Time =    1.000,"P-4-1",           847,   103.903E-03,   79.5573E-03,            0.,NA,NA,"",   1.37855E+06,   1.49650E+06,   1.49650E+06
C:/temp/Job-4.odb,Step-1,Increment      1: Step Time =    1.000,"P-4-1",           848,   85.1916E-03,   115.394E-03,            0.,NA,NA,"",   1.31311E+06,   1.21956E+06,   1.21956E+06
C:/temp/Job-4.odb,Step-1,Increment      1: Step Time =    1.000,"P-4-1",           849,   84.1734E-03,   86.1928E-03,            0.,NA,NA,"",   1.21473E+06,   1.11612E+06,   1.11612E+06
C:/temp/Job-4.odb,Step-1,Increment      1: Step Time =    1.000,"P-4-1",           850,   89.2307E-03,   118.338E-03,            0.,NA,NA,"",   1.37891E+06,   1.38346E+06,   1.38346E+06
C:/temp/Job-4.odb,Step-1,Increment      1: Step Time =    1.000,"P-4-1",           851,   101.080E-03,   74.3829E-03,            0.,NA,NA,"",   1.15909E+06,   1.26860E+06,   1.26860E+06
C:/temp/Job-4.odb,Step-1,Increment      1: Step Time =    1.000,"P-4-1",           852,   95.1137E-03,   77.2396E-03,            0.,NA,NA,"",   1.24064E+06,   1.33467E+06,   1.33467E+06
C:/temp/Job-4.odb,Step-1,Increment      1: Step Time =    1.000,"P-4-1",           853,   45.4423E-03,   22.9937E-03,            0.,NA,NA,"",   1.04277E+06,   1.05064E+06,   1.05064E+06
C:/temp/Job-4.odb,Step-1,Increment      1: Step Time =    1.000,"P-4-1",           854,   23.7316E-03,   45.3540E-03,            0.,NA,NA,"",   960.478E+03,   1.02316E+06,   1.02316E+06
C:/temp/Job-4.odb,Step-1,Increment      1: Step Time =    1.000,"P-4-1",           855,   177.758E-03,   44.3703E-03,            0.,NA,NA,"",   1.01087E+06,   1.00998E+06,   1.00998E+06
C:/temp/Job-4.odb,Step-1,Increment      1: Step Time =    1.000,"P-4-1",           856,   44.2528E-03,   176.728E-03,            0.,NA,NA,"",   1.04358E+06,   1.05242E+06,   1.05242E+06
C:/temp/Job-4.odb,Step-1,Increment      1: Step Time =    1.000,"P-4-1",           857,   145.181E-03,   21.2997E-03,            0.,NA,NA,"",   1.01109E+06,   1.00742E+06,   1.00742E+06
C:/temp/Job-4.odb,Step-1,Increment      1: Step Time =    1.000,"P-4-1",           858,   25.5276E-03,   145.699E-03,            0.,NA,NA,"",   933.909E+03,   999.261E+03,   999.261E+03
C:/temp/Job-4.odb,Step-1,Increment      1: Step Time =    1.000,"P-4-1",           859,   179.488E-03,   146.119E-03,            0.,NA,NA,"",   1.00644E+06,   1.00828E+06,   1.00828E+06
C:/temp/Job-4.odb,Step-1,Increment      1: Step Time =    1.000,"P-4-1",           860,   143.614E-03,   177.129E-03,            0.,NA,NA,"",   1.01461E+06,   1.01044E+06,   1.01044E+06
C:/temp/Job-4.odb,Step-1,Increment      1: Step Time =    1.000,"P-4-1",           861,   24.6500E-03,   55.0779E-03,            0.,NA,NA,"",   928.600E+03,   995.957E+03,   995.957E+03
C:/temp/Job-4.odb,Step-1,Increment      1: Step Time =    1.000,"P-4-1",           862,   56.7141E-03,   20.3557E-03,            0.,NA,NA,"",   1.02623E+06,   1.02840E+06,   1.02840E+06
C:/temp/Job-4.odb,Step-1,Increment      1: Step Time =    1.000,"P-4-1",           863,   55.9385E-03,   178.438E-03,            0.,NA,NA,"",   1.02968E+06,   1.03249E+06,   1.03249E+06
C:/temp/Job-4.odb,Step-1,Increment      1: Step Time =    1.000,"P-4-1",           864,   175.960E-03,   55.3794E-03,            0.,NA,NA,"",   1.01167E+06,   1.01127E+06,   1.01127E+06
C:/temp/Job-4.odb,Step-1,Increment      1: Step Time =    1.000,"P-4-1",           865,   24.3258E-03,   156.088E-03,            0.,NA,NA,"",   967.471E+03,   1.02807E+06,   1.02807E+06
C:/temp/Job-4.odb,Step-1,Increment      1: Step Time =    1.000,"P-4-1",           866,   155.919E-03,   22.7398E-03,            0.,NA,NA,"",   1.01295E+06,   1.00910E+06,   1.00910E+06
C:/temp/Job-4.odb,Step-1,Increment      1: Step Time =    1.000,"P-4-1",           867,   155.788E-03,   178.148E-03,            0.,NA,NA,"",   1.01167E+06,   1.00807E+06,   1.00807E+06
C:/temp/Job-4.odb,Step-1,Increment      1: Step Time =    1.000,"P-4-1",           868,   177.397E-03,   157.896E-03,            0.,NA,NA,"",   1.01107E+06,   1.00986E+06,   1.00986E+06
C:/temp/Job-4.odb,Step-1,Increment      1: Step Time =    1.000,"P-4-1",           869,   185.735E-03,   180.496E-03,            0.,NA,NA,"",   1.00139E+06,   1.00124E+06,   1.00124E+06
C:/temp/Job-4.odb,Step-1,Increment      1: Step Time =    1.000,"P-4-1",           870,   180.639E-03,   14.1115E-03,            0.,NA,NA,"",   1.00100E+06,   1.00070E+06,   1.00070E+06
C:/temp/Job-4.odb,Step-1,Increment      1: Step Time =    1.000,"P-4-1",           871,   177.037E-03,   184.103E-03,            0.,NA,NA,"",   1.00215E+06,   1.00156E+06,   1.00156E+06
C:/temp/Job-4.odb,Step-1,Increment      1: Step Time =    1.000,"P-4-1",           872,   183.758E-03,   23.2117E-03,            0.,NA,NA,"",   1.00257E+06,   1.00226E+06,   1.00226E+06
C:/temp/Job-4.odb,Step-1,Increment      1: Step Time =    1.000,"P-4-1",           873,   97.3620E-03,   133.690E-03,            0.,NA,NA,"",   1.06733E+06,   1.13934E+06,   1.13934E+06
C:/temp/Job-4.odb,Step-1,Increment      1: Step Time =    1.000,"P-4-1",           874,   75.5167E-03,   108.653E-03,            0.,NA,NA,"",   835.572E+03,   792.364E+03,   792.364E+03
C:/temp/Job-4.odb,Step-1,Increment      1: Step Time =    1.000,"P-4-1",           875,   68.9109E-03,   14.0433E-03,            0.,NA,NA,"",   991.516E+03,   992.322E+03,   992.322E+03
C:/temp/Job-4.odb,Step-1,Increment      1: Step Time =    1.000,"P-4-1",           876,   13.0581E-03,   129.423E-03,            0.,NA,NA,"",   838.616E+03,   930.148E+03,   930.148E+03
C:/temp/Job-4.odb,Step-1,Increment      1: Step Time =    1.000,"P-4-1",           877,   14.1297E-03,   31.5575E-03,            0.,NA,NA,"",   979.883E+03,   1.05461E+06,   1.05461E+06
C:/temp/Job-4.odb,Step-1,Increment      1: Step Time =    1.000,"P-4-1",           878,   187.963E-03,   71.9429E-03,            0.,NA,NA,"",   984.997E+03,   999.870E+03,   999.870E+03
C:/temp/Job-4.odb,Step-1,Increment      1: Step Time =    1.000,"P-4-1",           879,   128.738E-03,   186.796E-03,            0.,NA,NA,"",   984.420E+03,   984.083E+03,   984.083E+03
C:/temp/Job-4.odb,Step-1,Increment      1: Step Time =    1.000,"P-4-1",           880,   28.2241E-03,   186.591E-03,            0.,NA,NA,"",   1.07251E+06,   1.08322E+06,   1.08322E+06
C:/temp/Job-4.odb,Step-1,Increment      1: Step Time =    1.000,"P-4-1",           881,   79.3263E-03,   85.7642E-03,            0.,NA,NA,"",   1.12429E+06,   1.02799E+06,   1.02799E+06
C:/temp/Job-4.odb,Step-1,Increment      1: Step Time =    1.000,"P-4-1",           882,   122.305E-03,   84.7256E-03,            0.,NA,NA,"",   1.17999E+06,   1.06918E+06,   1.06918E+06
C:/temp/Job-4.odb,Step-1,Increment      1: Step Time =    1.000,"P-4-1",           883,   169.376E-03,   17.4598E-03,            0.,NA,NA,"",   1.00443E+06,   1.00301E+06,   1.00301E+06
C:/temp/Job-4.odb,Step-1,Increment      1: Step Time =    1.000,"P-4-1",           884,   152.331E-03,   15.3799E-03,            0.,NA,NA,"",   1.00263E+06,   1.00052E+06,   1.00052E+06
C:/temp/Job-4.odb,Step-1,Increment      1: Step Time =    1.000,"P-4-1",           885,   184.253E-03,   150.896E-03,            0.,NA,NA,"",   1.00221E+06,   1.00526E+06,   1.00526E+06
C:/temp/Job-4.odb,Step-1,Increment      1: Step Time =    1.000,"P-4-1",           886,   154.504E-03,   187.637E-03,            0.,NA,NA,"",   999.567E+03,   998.120E+03,   998.120E+03
C:/temp/Job-4.odb,Step-1,Increment      1: Step Time =    1.000,"P-4-1",           887,   51.2785E-03,   13.8777E-03,            0.,NA,NA,"",   1.01597E+06,   1.01746E+06,   1.01746E+06
C:/temp/Job-4.odb,Step-1,Increment      1: Step Time =    1.000,"P-4-1",           888,   16.0114E-03,   148.786E-03,            0.,NA,NA,"",   907.202E+03,   989.107E+03,   989.107E+03
C:/temp/Job-4.odb,Step-1,Increment      1: Step Time =    1.000,"P-4-1",           889,   148.736E-03,   13.8146E-03,            0.,NA,NA,"",   999.050E+03,   997.298E+03,   997.298E+03
C:/temp/Job-4.odb,Step-1,Increment      1: Step Time =    1.000,"P-4-1",           890,   185.241E-03,   49.8714E-03,            0.,NA,NA,"",   1.00179E+06,   1.00506E+06,   1.00506E+06
C:/temp/Job-4.odb,Step-1,Increment      1: Step Time =    1.000,"P-4-1",           891,   52.5644E-03,   185.921E-03,            0.,NA,NA,"",   1.01538E+06,   1.01675E+06,   1.01675E+06
C:/temp/Job-4.odb,Step-1,Increment      1: Step Time =    1.000,"P-4-1",           892,   14.3031E-03,   48.7937E-03,            0.,NA,NA,"",   907.500E+03,   991.978E+03,   991.978E+03
C:/temp/Job-4.odb,Step-1,Increment      1: Step Time =    1.000,"P-4-1",           893,   149.758E-03,   185.102E-03,            0.,NA,NA,"",   1.00113E+06,   999.091E+03,   999.091E+03
C:/temp/Job-4.odb,Step-1,Increment      1: Step Time =    1.000,"P-4-1",           894,   186.336E-03,   145.909E-03,            0.,NA,NA,"",   998.863E+03,   1.00422E+06,   1.00422E+06
C:/temp/Job-4.odb,Step-1,Increment      1: Step Time =    1.000,"P-4-1",           895,   49.9575E-03,   184.738E-03,            0.,NA,NA,"",   1.02262E+06,   1.02471E+06,   1.02471E+06
C:/temp/Job-4.odb,Step-1,Increment      1: Step Time =    1.000,"P-4-1",           896,   188.317E-03,   45.4578E-03,            0.,NA,NA,"",   1.00051E+06,   1.00347E+06,   1.00347E+06
C:/temp/Job-4.odb,Step-1,Increment      1: Step Time =    1.000,"P-4-1",           897,   125.258E-03,   17.5998E-03,            0.,NA,NA,"",   992.051E+03,   992.213E+03,   992.213E+03
C:/temp/Job-4.odb,Step-1,Increment      1: Step Time =    1.000,"P-4-1",           898,   180.687E-03,   124.106E-03,            0.,NA,NA,"",   986.041E+03,   997.132E+03,   997.132E+03
C:/temp/Job-4.odb,Step-1,Increment      1: Step Time =    1.000,"P-4-1",           899,   88.1136E-03,   81.6245E-03,            0.,NA,NA,"",   1.40362E+06,   1.37867E+06,   1.37867E+06
C:/temp/Job-4.odb,Step-1,Increment      1: Step Time =    1.000,"P-4-1",           900,   116.957E-03,   122.549E-03,            0.,NA,NA,"",   1.30125E+06,   1.24479E+06,   1.24479E+06
C:/temp/Job-4.odb,Step-1,Increment      1: Step Time =    1.000,"P-4-1",           901,   84.1383E-03,   121.448E-03,            0.,NA,NA,"",   1.29916E+06,   1.26089E+06,   1.26089E+06
C:/temp/Job-4.odb,Step-1,Increment      1: Step Time =    1.000,"P-4-1",           902,   136.467E-03,   95.5037E-03,            0.,NA,NA,"",   787.357E+03,   793.400E+03,   793.400E+03
C:/temp/Job-4.odb,Step-1,Increment      1: Step Time =    1.000,"P-4-1",           903,   68.7320E-03,   96.9532E-03,            0.,NA,NA,"",   655.930E+03,   691.384E+03,   691.384E+03
C:/temp/Job-4.odb,Step-1,Increment      1: Step Time =    1.000,"P-4-1",           904,   79.0755E-03,   128.883E-03,            0.,NA,NA,"",   1.19908E+06,   1.17577E+06,   1.17577E+06
C:/temp/Job-4.odb,Step-1,Increment      1: Step Time =    1.000,"P-4-1",           905,   116.061E-03,   130.540E-03,            0.,NA,NA,"",   1.19329E+06,   1.18973E+06,   1.18973E+06
C:/temp/Job-4.odb,Step-1,Increment      1: Step Time =    1.000,"P-4-1",           906,   14.5534E-03,   25.4035E-03,            0.,NA,NA,"",   1.02043E+06,   1.08637E+06,   1.08637E+06
C:/temp/Job-4.odb,Step-1,Increment      1: Step Time =    1.000,"P-4-1",           907,   24.5122E-03,   186.980E-03,            0.,NA,NA,"",   1.08740E+06,   1.10169E+06,   1.10169E+06
C:/temp/Job-4.odb,Step-1,Increment      1: Step Time =    1.000,"P-4-1",           908,   72.9670E-03,   15.1236E-03,            0.,NA,NA,"",   990.382E+03,   991.636E+03,   991.636E+03
C:/temp/Job-4.odb,Step-1,Increment      1: Step Time =    1.000,"P-4-1",           909,   13.5976E-03,   126.151E-03,            0.,NA,NA,"",   832.296E+03,   923.631E+03,   923.631E+03
C:/temp/Job-4.odb,Step-1,Increment      1: Step Time =    1.000,"P-4-1",           910,   187.958E-03,   75.0181E-03,            0.,NA,NA,"",   982.461E+03,   998.965E+03,   998.965E+03
C:/temp/Job-4.odb,Step-1,Increment      1: Step Time =    1.000,"P-4-1",           911,   125.374E-03,   186.045E-03,            0.,NA,NA,"",   983.634E+03,   983.788E+03,   983.788E+03
C:/temp/Job-4.odb,Step-1,Increment      1: Step Time =    1.000,"P-4-1",           912,   9.85957E-03,   153.160E-03,            0.,NA,NA,"",   896.294E+03,   988.329E+03,   988.329E+03
C:/temp/Job-4.odb,Step-1,Increment      1: Step Time =    1.000,"P-4-1",           913,   150.958E-03,   191.660E-03,            0.,NA,NA,"",   993.164E+03,   992.447E+03,   992.447E+03
C:/temp/Job-4.odb,Step-1,Increment      1: Step Time =    1.000,"P-4-1",           914,   9.26496E-03,   52.9393E-03,            0.,NA,NA,"",   874.204E+03,   968.410E+03,   968.410E+03
C:/temp/Job-4.odb,Step-1,Increment      1: Step Time =    1.000,"P-4-1",           915,   146.132E-03,   8.56024E-03,            0.,NA,NA,"",   990.145E+03,   989.397E+03,   989.397E+03
C:/temp/Job-4.odb,Step-1,Increment      1: Step Time =    1.000,"P-4-1",           916,   50.8537E-03,   189.756E-03,            0.,NA,NA,"",   1.00547E+06,   1.00615E+06,   1.00615E+06
C:/temp/Job-4.odb,Step-1,Increment      1: Step Time =    1.000,"P-4-1",           917,   46.9551E-03,   9.17483E-03,            0.,NA,NA,"",   1.00835E+06,   1.00942E+06,   1.00942E+06
C:/temp/Job-4.odb,Step-1,Increment      1: Step Time =    1.000,"P-4-1",           918,   189.668E-03,   148.115E-03,            0.,NA,NA,"",   997.022E+03,   1.00269E+06,   1.00269E+06
C:/temp/Job-4.odb,Step-1,Increment      1: Step Time =    1.000,"P-4-1",           919,   191.832E-03,   49.0968E-03,            0.,NA,NA,"",   996.587E+03,   1.00177E+06,   1.00177E+06
C:/temp/Job-4.odb,Step-1,Increment      1: Step Time =    1.000,"P-4-1",           920,   91.5744E-03,   77.1717E-03,            0.,NA,NA,"",   1.25553E+06,   1.31009E+06,   1.31009E+06
C:/temp/Job-4.odb,Step-1,Increment      1: Step Time =    1.000,"P-4-1",           921,   9.13362E-03,   34.1093E-03,            0.,NA,NA,"",   944.132E+03,   1.03316E+06,   1.03316E+06
C:/temp/Job-4.odb,Step-1,Increment      1: Step Time =    1.000,"P-4-1",           922,   9.38797E-03,   133.750E-03,            0.,NA,NA,"",   839.362E+03,   934.518E+03,   934.518E+03
C:/temp/Job-4.odb,Step-1,Increment      1: Step Time =    1.000,"P-4-1",           923,   65.4526E-03,   9.06871E-03,            0.,NA,NA,"",   979.014E+03,   979.219E+03,   979.219E+03
C:/temp/Job-4.odb,Step-1,Increment      1: Step Time =    1.000,"P-4-1",           924,   32.7248E-03,   190.071E-03,            0.,NA,NA,"",   1.04874E+06,   1.05293E+06,   1.05293E+06
C:/temp/Job-4.odb,Step-1,Increment      1: Step Time =    1.000,"P-4-1",           925,   132.836E-03,   190.363E-03,            0.,NA,NA,"",   980.593E+03,   980.104E+03,   980.104E+03
C:/temp/Job-4.odb,Step-1,Increment      1: Step Time =    1.000,"P-4-1",           926,   190.671E-03,   67.3384E-03,            0.,NA,NA,"",   986.486E+03,   1.00069E+06,   1.00069E+06
C:/temp/Job-4.odb,Step-1,Increment      1: Step Time =    1.000,"P-4-1",           927,   41.8315E-03,   22.7982E-03,            0.,NA,NA,"",   1.04627E+06,   1.05653E+06,   1.05653E+06
C:/temp/Job-4.odb,Step-1,Increment      1: Step Time =    1.000,"P-4-1",           928,   24.7895E-03,   40.8524E-03,            0.,NA,NA,"",   980.717E+03,   1.03777E+06,   1.03777E+06
C:/temp/Job-4.odb,Step-1,Increment      1: Step Time =    1.000,"P-4-1",           929,   177.316E-03,   40.1504E-03,            0.,NA,NA,"",   1.01061E+06,   1.00934E+06,   1.00934E+06
C:/temp/Job-4.odb,Step-1,Increment      1: Step Time =    1.000,"P-4-1",           930,   39.3294E-03,   175.538E-03,            0.,NA,NA,"",   1.04743E+06,   1.06077E+06,   1.06077E+06
C:/temp/Job-4.odb,Step-1,Increment      1: Step Time =    1.000,"P-4-1",           931,   139.919E-03,   23.0601E-03,            0.,NA,NA,"",   1.01344E+06,   1.00979E+06,   1.00979E+06
C:/temp/Job-4.odb,Step-1,Increment      1: Step Time =    1.000,"P-4-1",           932,   26.1815E-03,   140.803E-03,            0.,NA,NA,"",   921.607E+03,   988.389E+03,   988.389E+03
C:/temp/Job-4.odb,Step-1,Increment      1: Step Time =    1.000,"P-4-1",           933,   172.253E-03,   142.892E-03,            0.,NA,NA,"",   1.01561E+06,   1.01337E+06,   1.01337E+06
C:/temp/Job-4.odb,Step-1,Increment      1: Step Time =    1.000,"P-4-1",           934,   141.939E-03,   174.058E-03,            0.,NA,NA,"",   1.02051E+06,   1.01552E+06,   1.01552E+06
C:/temp/Job-4.odb,Step-1,Increment      1: Step Time =    1.000,"P-4-1",           935,   22.6861E-03,   59.8599E-03,            0.,NA,NA,"",   903.102E+03,   977.051E+03,   977.051E+03
C:/temp/Job-4.odb,Step-1,Increment      1: Step Time =    1.000,"P-4-1",           936,   61.6666E-03,   25.6857E-03,            0.,NA,NA,"",   1.03316E+06,   1.03588E+06,   1.03588E+06
C:/temp/Job-4.odb,Step-1,Increment      1: Step Time =    1.000,"P-4-1",           937,   58.4679E-03,   173.488E-03,            0.,NA,NA,"",   1.03718E+06,   1.04070E+06,   1.04070E+06
C:/temp/Job-4.odb,Step-1,Increment      1: Step Time =    1.000,"P-4-1",           938,   173.432E-03,   57.9841E-03,            0.,NA,NA,"",   1.01372E+06,   1.01234E+06,   1.01234E+06
C:/temp/Job-4.odb,Step-1,Increment      1: Step Time =    1.000,"P-4-1",           939,   24.8401E-03,   160.172E-03,            0.,NA,NA,"",   983.880E+03,   1.03982E+06,   1.03982E+06
C:/temp/Job-4.odb,Step-1,Increment      1: Step Time =    1.000,"P-4-1",           940,   160.697E-03,   24.6052E-03,            0.,NA,NA,"",   1.01385E+06,   1.01003E+06,   1.01003E+06
C:/temp/Job-4.odb,Step-1,Increment      1: Step Time =    1.000,"P-4-1",           941,   161.375E-03,   175.315E-03,            0.,NA,NA,"",   1.01357E+06,   1.00985E+06,   1.00985E+06
C:/temp/Job-4.odb,Step-1,Increment      1: Step Time =    1.000,"P-4-1",           942,   174.418E-03,   158.918E-03,            0.,NA,NA,"",   1.01415E+06,   1.01177E+06,   1.01177E+06
C:/temp/Job-4.odb,Step-1,Increment      1: Step Time =    1.000,"P-4-1",           943,   173.373E-03,   186.085E-03,            0.,NA,NA,"",   1.00176E+06,   1.00107E+06,   1.00107E+06
C:/temp/Job-4.odb,Step-1,Increment      1: Step Time =    1.000,"P-4-1",           944,   185.903E-03,   26.8266E-03,            0.,NA,NA,"",   1.00245E+06,   1.00239E+06,   1.00239E+06
C:/temp/Job-4.odb,Step-1,Increment      1: Step Time =    1.000,"P-4-1",           945,   103.085E-03,   134.076E-03,            0.,NA,NA,"",   1.06323E+06,   1.13541E+06,   1.13541E+06
C:/temp/Job-4.odb,Step-1,Increment      1: Step Time =    1.000,"P-4-1",           946,   73.6022E-03,   81.8967E-03,            0.,NA,NA,"",   1.09327E+06,   1.04231E+06,   1.04231E+06
C:/temp/Job-4.odb,Step-1,Increment      1: Step Time =    1.000,"P-4-1",           947,   117.075E-03,   88.1977E-03,            0.,NA,NA,"",   1.14615E+06,   1.01135E+06,   1.01135E+06
C:/temp/Job-4.odb,Step-1,Increment      1: Step Time =    1.000,"P-4-1",           948,   126.199E-03,   85.3227E-03,            0.,NA,NA,"",   1.07677E+06,   991.551E+03,   991.551E+03
C:/temp/Job-4.odb,Step-1,Increment      1: Step Time =    1.000,"P-4-1",           949,   168.580E-03,   14.3906E-03,            0.,NA,NA,"",   1.00255E+06,   1.00144E+06,   1.00144E+06
C:/temp/Job-4.odb,Step-1,Increment      1: Step Time =    1.000,"P-4-1",           950,   120.148E-03,   13.8771E-03,            0.,NA,NA,"",   977.960E+03,   979.053E+03,   979.053E+03
C:/temp/Job-4.odb,Step-1,Increment      1: Step Time =    1.000,"P-4-1",           951,   184.339E-03,   122.480E-03,            0.,NA,NA,"",   982.285E+03,   997.104E+03,   997.104E+03
C:/temp/Job-4.odb,Step-1,Increment      1: Step Time =    1.000,"P-4-1",           952,   112.950E-03,   115.592E-03,            0.,NA,NA,"",   1.36132E+06,   1.27930E+06,   1.27930E+06
C:/temp/Job-4.odb,Step-1,Increment      1: Step Time =    1.000,"P-4-1",           953,   79.8212E-03,   123.889E-03,            0.,NA,NA,"",   1.23535E+06,   1.19238E+06,   1.19238E+06
C:/temp/Job-4.odb,Step-1,Increment      1: Step Time =    1.000,"P-4-1",           954,   83.6508E-03,   131.513E-03,            0.,NA,NA,"",   1.17818E+06,   1.18379E+06,   1.18379E+06
C:/temp/Job-4.odb,Step-1,Increment      1: Step Time =    1.000,"P-4-1",           955,   113.617E-03,   135.258E-03,            0.,NA,NA,"",   1.13187E+06,   1.14964E+06,   1.14964E+06
C:/temp/Job-4.odb,Step-1,Increment      1: Step Time =    1.000,"P-4-1",           956,   121.189E-03,   126.729E-03,            0.,NA,NA,"",   1.23605E+06,   1.18584E+06,   1.18584E+06
C:/temp/Job-4.odb,Step-1,Increment      1: Step Time =    1.000,"P-4-1",           957,   64.9922E-03,   89.2440E-03,            0.,NA,NA,"",   847.951E+03,   863.298E+03,   863.298E+03
C:/temp/Job-4.odb,Step-1,Increment      1: Step Time =    1.000,"P-4-1",           958,   136.332E-03,   91.8274E-03,            0.,NA,NA,"",   844.173E+03,   838.922E+03,   838.922E+03
C:/temp/Job-4.odb,Step-1,Increment      1: Step Time =    1.000,"P-4-1",           959,   65.9377E-03,   99.7638E-03,            0.,NA,NA,"",   665.518E+03,   709.597E+03,   709.597E+03
C:/temp/Job-4.odb,Step-1,Increment      1: Step Time =    1.000,"P-4-1",           960,   136.936E-03,   99.6586E-03,            0.,NA,NA,"",   763.095E+03,   775.957E+03,   775.957E+03
C:/temp/Job-4.odb,Step-1,Increment      1: Step Time =    1.000,"P-4-1",           961,   174.370E-03,   126.052E-03,            0.,NA,NA,"",   992.180E+03,   997.754E+03,   997.754E+03
C:/temp/Job-4.odb,Step-1,Increment      1: Step Time =    1.000,"P-4-1",           962,   125.289E-03,   24.4421E-03,            0.,NA,NA,"",   1.00815E+06,   1.00848E+06,   1.00848E+06
C:/temp/Job-4.odb,Step-1,Increment      1: Step Time =    1.000,"P-4-1",           963,   92.9263E-03,   130.882E-03,            0.,NA,NA,"",   1.10819E+06,   1.17331E+06,   1.17331E+06
C:/temp/Job-4.odb,Step-1,Increment      1: Step Time =    1.000,"P-4-1",           964,   93.2725E-03,   135.474E-03,            0.,NA,NA,"",   1.07820E+06,   1.13493E+06,   1.13493E+06
C:/temp/Job-4.odb,Step-1,Increment      1: Step Time =    1.000,"P-4-1",           965,   172.266E-03,   13.8766E-03,            0.,NA,NA,"",   1.00173E+06,   1.00097E+06,   1.00097E+06
C:/temp/Job-4.odb,Step-1,Increment      1: Step Time =    1.000,"P-4-1",           966,   185.532E-03,   171.306E-03,            0.,NA,NA,"",   1.00270E+06,   1.00279E+06,   1.00279E+06
C:/temp/Job-4.odb,Step-1,Increment      1: Step Time =    1.000,"P-4-1",           967,   84.4771E-03,   77.5205E-03,            0.,NA,NA,"",   1.28394E+06,   1.25490E+06,   1.25490E+06
C:/temp/Job-4.odb,Step-1,Increment      1: Step Time =    1.000,"P-4-1",           968,   115.701E-03,   14.0428E-03,            0.,NA,NA,"",   974.915E+03,   976.679E+03,   976.679E+03
C:/temp/Job-4.odb,Step-1,Increment      1: Step Time =    1.000,"P-4-1",           969,   185.463E-03,   118.127E-03,            0.,NA,NA,"",   977.314E+03,   995.143E+03,   995.143E+03
C:/temp/Job-4.odb,Step-1,Increment      1: Step Time =    1.000,"P-4-1",           970,   174.493E-03,   137.069E-03,            0.,NA,NA,"",   1.00766E+06,   1.00858E+06,   1.00858E+06
C:/temp/Job-4.odb,Step-1,Increment      1: Step Time =    1.000,"P-4-1",           971,   137.139E-03,   23.4836E-03,            0.,NA,NA,"",   1.01351E+06,   1.01017E+06,   1.01017E+06
C:/temp/Job-4.odb,Step-1,Increment      1: Step Time =    1.000,"P-4-1",           972,   8.34816E-03,   23.5784E-03,            0.,NA,NA,"",   1.00453E+06,   1.08986E+06,   1.08986E+06
C:/temp/Job-4.odb,Step-1,Increment      1: Step Time =    1.000,"P-4-1",           973,   24.3334E-03,   191.220E-03,            0.,NA,NA,"",   1.08302E+06,   1.09028E+06,   1.09028E+06
C:/temp/Job-4.odb,Step-1,Increment      1: Step Time =    1.000,"P-4-1",           974,   74.8026E-03,   10.3779E-03,            0.,NA,NA,"",   972.333E+03,   973.028E+03,   973.028E+03
C:/temp/Job-4.odb,Step-1,Increment      1: Step Time =    1.000,"P-4-1",           975,   9.64954E-03,   124.668E-03,            0.,NA,NA,"",   819.307E+03,   914.738E+03,   914.738E+03
C:/temp/Job-4.odb,Step-1,Increment      1: Step Time =    1.000,"P-4-1",           976,   191.799E-03,   75.5737E-03,            0.,NA,NA,"",   979.174E+03,   999.239E+03,   999.239E+03
C:/temp/Job-4.odb,Step-1,Increment      1: Step Time =    1.000,"P-4-1",           977,   124.124E-03,   190.230E-03,            0.,NA,NA,"",   972.023E+03,   972.238E+03,   972.238E+03
C:/temp/Job-4.odb,Step-1,Increment      1: Step Time =    1.000,"P-4-1",           978,   37.4138E-03,   23.5468E-03,            0.,NA,NA,"",   1.04945E+06,   1.06400E+06,   1.06400E+06
C:/temp/Job-4.odb,Step-1,Increment      1: Step Time =    1.000,"P-4-1",           979,   47.7609E-03,   28.1236E-03,            0.,NA,NA,"",   1.04553E+06,   1.05429E+06,   1.05429E+06
C:/temp/Job-4.odb,Step-1,Increment      1: Step Time =    1.000,"P-4-1",           980,   27.3620E-03,   45.8572E-03,            0.,NA,NA,"",   970.880E+03,   1.02697E+06,   1.02697E+06
C:/temp/Job-4.odb,Step-1,Increment      1: Step Time =    1.000,"P-4-1",           981,   21.9092E-03,   35.1393E-03,            0.,NA,NA,"",   992.692E+03,   1.05092E+06,   1.05092E+06
C:/temp/Job-4.odb,Step-1,Increment      1: Step Time =    1.000,"P-4-1",           982,   176.845E-03,   35.5976E-03,            0.,NA,NA,"",   1.00995E+06,   1.00843E+06,   1.00843E+06
C:/temp/Job-4.odb,Step-1,Increment      1: Step Time =    1.000,"P-4-1",           983,   170.439E-03,   47.8193E-03,            0.,NA,NA,"",   1.02149E+06,   1.01699E+06,   1.01699E+06
C:/temp/Job-4.odb,Step-1,Increment      1: Step Time =    1.000,"P-4-1",           984,   35.5334E-03,   177.743E-03,            0.,NA,NA,"",   1.05218E+06,   1.06748E+06,   1.06748E+06
C:/temp/Job-4.odb,Step-1,Increment      1: Step Time =    1.000,"P-4-1",           985,   42.3546E-03,   174.278E-03,            0.,NA,NA,"",   1.04565E+06,   1.05748E+06,   1.05748E+06
C:/temp/Job-4.odb,Step-1,Increment      1: Step Time =    1.000,"P-4-1",           986,   24.1598E-03,   132.460E-03,            0.,NA,NA,"",   883.894E+03,   958.412E+03,   958.412E+03
C:/temp/Job-4.odb,Step-1,Increment      1: Step Time =    1.000,"P-4-1",           987,   143.464E-03,   24.2132E-03,            0.,NA,NA,"",   1.01683E+06,   1.01237E+06,   1.01237E+06
C:/temp/Job-4.odb,Step-1,Increment      1: Step Time =    1.000,"P-4-1",           988,   27.5840E-03,   143.409E-03,            0.,NA,NA,"",   934.832E+03,   997.591E+03,   997.591E+03
C:/temp/Job-4.odb,Step-1,Increment      1: Step Time =    1.000,"P-4-1",           989,   173.519E-03,   147.024E-03,            0.,NA,NA,"",   1.01561E+06,   1.01348E+06,   1.01348E+06
C:/temp/Job-4.odb,Step-1,Increment      1: Step Time =    1.000,"P-4-1",           990,   145.677E-03,   172.454E-03,            0.,NA,NA,"",   1.02420E+06,   1.01829E+06,   1.01829E+06
C:/temp/Job-4.odb,Step-1,Increment      1: Step Time =    1.000,"P-4-1",           991,   133.134E-03,   175.926E-03,            0.,NA,NA,"",   1.01337E+06,   1.01091E+06,   1.01091E+06
C:/temp/Job-4.odb,Step-1,Increment      1: Step Time =    1.000,"P-4-1",           992,   29.4720E-03,   52.8133E-03,            0.,NA,NA,"",   957.374E+03,   1.01349E+06,   1.01349E+06
C:/temp/Job-4.odb,Step-1,Increment      1: Step Time =    1.000,"P-4-1",           993,   21.1219E-03,   63.9411E-03,            0.,NA,NA,"",   883.673E+03,   962.101E+03,   962.101E+03
C:/temp/Job-4.odb,Step-1,Increment      1: Step Time =    1.000,"P-4-1",           994,   66.2192E-03,   22.5420E-03,            0.,NA,NA,"",   1.02094E+06,   1.02276E+06,   1.02276E+06
C:/temp/Job-4.odb,Step-1,Increment      1: Step Time =    1.000,"P-4-1",           995,   56.7062E-03,   28.0546E-03,            0.,NA,NA,"",   1.04133E+06,   1.04561E+06,   1.04561E+06
C:/temp/Job-4.odb,Step-1,Increment      1: Step Time =    1.000,"P-4-1",           996,   175.911E-03,   65.8664E-03,            0.,NA,NA,"",    1.0024E+06,   1.00549E+06,   1.00549E+06
C:/temp/Job-4.odb,Step-1,Increment      1: Step Time =    1.000,"P-4-1",           997,   173.095E-03,   53.7331E-03,            0.,NA,NA,"",   1.01656E+06,   1.01409E+06,   1.01409E+06
C:/temp/Job-4.odb,Step-1,Increment      1: Step Time =    1.000,"P-4-1",           998,   54.8817E-03,   174.580E-03,            0.,NA,NA,"",   1.03785E+06,   1.04198E+06,   1.04198E+06
C:/temp/Job-4.odb,Step-1,Increment      1: Step Time =    1.000,"P-4-1",           999,   62.9858E-03,   177.243E-03,            0.,NA,NA,"",   1.02439E+06,   1.02659E+06,   1.02659E+06
C:/temp/Job-4.odb,Step-1,Increment      1: Step Time =    1.000,"P-4-1",          1000,   156.899E-03,   26.4945E-03,            0.,NA,NA,"",   1.01810E+06,   1.01325E+06,   1.01325E+06
C:/temp/Job-4.odb,Step-1,Increment      1: Step Time =    1.000,"P-4-1",          1001,   164.237E-03,   22.2940E-03,            0.,NA,NA,"",   1.00975E+06,   1.00697E+06,   1.00697E+06
C:/temp/Job-4.odb,Step-1,Increment      1: Step Time =    1.000,"P-4-1",          1002,   28.3878E-03,   155.066E-03,            0.,NA,NA,"",   978.106E+03,   1.03131E+06,   1.03131E+06
C:/temp/Job-4.odb,Step-1,Increment      1: Step Time =    1.000,"P-4-1",          1003,   164.375E-03,   179.952E-03,            0.,NA,NA,"",   1.00749E+06,   1.00521E+06,   1.00521E+06
C:/temp/Job-4.odb,Step-1,Increment      1: Step Time =    1.000,"P-4-1",          1004,   154.974E-03,   172.606E-03,            0.,NA,NA,"",   1.02063E+06,   1.01518E+06,   1.01518E+06
C:/temp/Job-4.odb,Step-1,Increment      1: Step Time =    1.000,"P-4-1",          1005,   175.994E-03,   167.910E-03,            0.,NA,NA,"",   1.00964E+06,   1.00790E+06,   1.00790E+06
C:/temp/Job-4.odb,Step-1,Increment      1: Step Time =    1.000,"P-4-1",          1006,   173.812E-03,   155.020E-03,            0.,NA,NA,"",   1.01559E+06,   1.01305E+06,   1.01305E+06
C:/temp/Job-4.odb,Step-1,Increment      1: Step Time =    1.000,"P-4-1",          1007,   175.026E-03,   190.419E-03,            0.,NA,NA,"",   999.994E+03,   999.686E+03,   999.686E+03
C:/temp/Job-4.odb,Step-1,Increment      1: Step Time =    1.000,"P-4-1",          1008,   171.635E-03,   182.276E-03,            0.,NA,NA,"",   1.00401E+06,   1.00282E+06,   1.00282E+06
C:/temp/Job-4.odb,Step-1,Increment      1: Step Time =    1.000,"P-4-1",          1009,   182.098E-03,   29.0597E-03,            0.,NA,NA,"",   1.00467E+06,   1.00419E+06,   1.00419E+06
C:/temp/Job-4.odb,Step-1,Increment      1: Step Time =    1.000,"P-4-1",          1010,   190.316E-03,   25.0408E-03,            0.,NA,NA,"",   1.00100E+06,   1.00109E+06,   1.00109E+06
C:/temp/Job-4.odb,Step-1,Increment      1: Step Time =    1.000,"P-4-1",          1011,   71.5839E-03,   86.2123E-03,            0.,NA,NA,"",   956.227E+03,   926.698E+03,   926.698E+03
C:/temp/Job-4.odb,Step-1,Increment      1: Step Time =    1.000,"P-4-1",          1012,   189.489E-03,   153.419E-03,            0.,NA,NA,"",   999.059E+03,   1.00281E+06,   1.00281E+06
C:/temp/Job-4.odb,Step-1,Increment      1: Step Time =    1.000,"P-4-1",          1013,   120.504E-03,   131.104E-03,            0.,NA,NA,"",   1.19937E+06,   1.17249E+06,   1.17249E+06
C:/temp/Job-4.odb,Step-1,Increment      1: Step Time =    1.000,"P-4-1",          1014,   108.894E-03,   134.772E-03,            0.,NA,NA,"",   1.10052E+06,   1.14500E+06,   1.14500E+06
C:/temp/Job-4.odb,Step-1,Increment      1: Step Time =    1.000,"P-4-1",          1015,   84.0292E-03,   74.2213E-03,            0.,NA,NA,"",   1.23768E+06,   1.22678E+06,   1.22678E+06
C:/temp/Job-4.odb,Step-1,Increment      1: Step Time =    1.000,"P-4-1",          1016,   69.6446E-03,   83.6365E-03,            0.,NA,NA,"",   990.399E+03,   965.366E+03,   965.366E+03
C:/temp/Job-4.odb,Step-1,Increment      1: Step Time =    1.000,"P-4-1",          1017,   62.7612E-03,   96.9375E-03,            0.,NA,NA,"",   724.400E+03,   768.016E+03,   768.016E+03
C:/temp/Job-4.odb,Step-1,Increment      1: Step Time =    1.000,"P-4-1",          1018,   133.258E-03,   87.5026E-03,            0.,NA,NA,"",   941.423E+03,   907.503E+03,   907.503E+03
C:/temp/Job-4.odb,Step-1,Increment      1: Step Time =    1.000,"P-4-1",          1019,   141.121E-03,   94.9958E-03,            0.,NA,NA,"",   835.908E+03,   842.934E+03,   842.934E+03
C:/temp/Job-4.odb,Step-1,Increment      1: Step Time =    1.000,"P-4-1",          1020,   65.9416E-03,   105.520E-03,            0.,NA,NA,"",   729.251E+03,   761.313E+03,   761.313E+03
C:/temp/Job-4.odb,Step-1,Increment      1: Step Time =    1.000,"P-4-1",          1021,   132.499E-03,   105.328E-03,            0.,NA,NA,"",   757.402E+03,   756.068E+03,   756.068E+03
C:/temp/Job-4.odb,Step-1,Increment      1: Step Time =    1.000,"P-4-1",          1022,   130.120E-03,   24.3152E-03,            0.,NA,NA,"",   1.01208E+06,   1.01058E+06,   1.01058E+06
C:/temp/Job-4.odb,Step-1,Increment      1: Step Time =    1.000,"P-4-1",          1023,   114.205E-03,   83.0124E-03,            0.,NA,NA,"",   1.39896E+06,   1.32415E+06,   1.32415E+06
C:/temp/Job-4.odb,Step-1,Increment      1: Step Time =    1.000,"P-4-1",          1024,   118.257E-03,   84.0205E-03,            0.,NA,NA,"",   1.30136E+06,   1.18900E+06,   1.18900E+06
C:/temp/Job-4.odb,Step-1,Increment      1: Step Time =    1.000,"P-4-1",          1025,   81.5074E-03,   118.053E-03,            0.,NA,NA,"",   1.26222E+06,   1.18409E+06,   1.18409E+06
C:/temp/Job-4.odb,Step-1,Increment      1: Step Time =    1.000,"P-4-1",          1026,   116.180E-03,   118.988E-03,            0.,NA,NA,"",   1.32970E+06,   1.24666E+06,   1.24666E+06
C:/temp/Job-4.odb,Step-1,Increment      1: Step Time =    1.000,"P-4-1",          1027,   79.2587E-03,   132.296E-03,            0.,NA,NA,"",   1.17225E+06,   1.16072E+06,   1.16072E+06
C:/temp/Job-4.odb,Step-1,Increment      1: Step Time =    1.000,"P-4-1",          1028,   121.646E-03,   27.6564E-03,            0.,NA,NA,"",   1.01186E+06,   1.01446E+06,   1.01446E+06
C:/temp/Job-4.odb,Step-1,Increment      1: Step Time =    1.000,"P-4-1",          1029,   174.287E-03,   119.428E-03,            0.,NA,NA,"",   980.812E+03,   989.754E+03,   989.754E+03
C:/temp/Job-4.odb,Step-1,Increment      1: Step Time =    1.000,"P-4-1",          1030,   120.469E-03,   135.236E-03,            0.,NA,NA,"",   1.15880E+06,   1.14600E+06,   1.14600E+06
C:/temp/Job-4.odb,Step-1,Increment      1: Step Time =    1.000,"P-4-1",          1031,   84.1303E-03,   136.314E-03,            0.,NA,NA,"",   1.12898E+06,   1.14633E+06,   1.14633E+06
C:/temp/Job-4.odb,Step-1,Increment      1: Step Time =    1.000,"P-4-1",          1032,   124.608E-03,   135.578E-03,            0.,NA,NA,"",   1.16069E+06,   1.13390E+06,   1.13390E+06
C:/temp/Job-4.odb,Step-1,Increment      1: Step Time =    1.000,"P-4-1",          1033,   79.2330E-03,   136.659E-03,            0.,NA,NA,"",   1.14007E+06,   1.14009E+06,   1.14009E+06
C:/temp/Job-4.odb,Step-1,Increment      1: Step Time =    1.000,"P-4-1",          1034,   113.721E-03,   112.896E-03,            0.,NA,NA,"",   1.35791E+06,   1.21421E+06,   1.21421E+06
C:/temp/Job-4.odb,Step-1,Increment      1: Step Time =    1.000,"P-4-1",          1035,   121.537E-03,   114.645E-03,            0.,NA,NA,"",   1.17695E+06,   1.06691E+06,   1.06691E+06
C:/temp/Job-4.odb,Step-1,Increment      1: Step Time =    1.000,"P-4-1",          1036,   79.1705E-03,   114.710E-03,            0.,NA,NA,"",   1.14146E+06,   1.04953E+06,   1.04953E+06
C:/temp/Job-4.odb,Step-1,Increment      1: Step Time =    1.000,"P-4-1",          1037,   83.0224E-03,   112.664E-03,            0.,NA,NA,"",   1.22886E+06,   1.09094E+06,   1.09094E+06
C:/temp/Job-4.odb,Step-1,Increment      1: Step Time =    1.000,"P-4-1",          1038,   176.310E-03,   9.36203E-03,            0.,NA,NA,"",   999.833E+03,   999.584E+03,   999.584E+03
C:/temp/Job-4.odb,Step-1,Increment      1: Step Time =    1.000,"P-4-1",          1039,   190.414E-03,   175.933E-03,            0.,NA,NA,"",   1.00089E+06,   1.00098E+06,   1.00098E+06
C:/temp/Job-4.odb,Step-1,Increment      1: Step Time =    1.000,"P-4-1",          1040,   115.938E-03,   18.8101E-03,            0.,NA,NA,"",   986.362E+03,   989.261E+03,   989.261E+03
C:/temp/Job-4.odb,Step-1,Increment      1: Step Time =    1.000,"P-4-1",          1041,   181.589E-03,   117.047E-03,            0.,NA,NA,"",   977.010E+03,   992.189E+03,   992.189E+03
C:/temp/Job-4.odb,Step-1,Increment      1: Step Time =    1.000,"P-4-1",          1042,   23.7164E-03,   49.8738E-03,            0.,NA,NA,"",   944.441E+03,   1.01030E+06,   1.01030E+06
C:/temp/Job-4.odb,Step-1,Increment      1: Step Time =    1.000,"P-4-1",          1043,   38.4098E-03,   28.2496E-03,            0.,NA,NA,"",   1.04472E+06,   1.06300E+06,   1.06300E+06
C:/temp/Job-4.odb,Step-1,Increment      1: Step Time =    1.000,"P-4-1",          1044,   49.2789E-03,   24.2147E-03,            0.,NA,NA,"",   1.04078E+06,   1.04679E+06,   1.04679E+06
C:/temp/Job-4.odb,Step-1,Increment      1: Step Time =    1.000,"P-4-1",          1045,   173.184E-03,   51.1430E-03,            0.,NA,NA,"",   1.01700E+06,   1.01432E+06,   1.01432E+06
C:/temp/Job-4.odb,Step-1,Increment      1: Step Time =    1.000,"P-4-1",          1046,   172.930E-03,   36.4580E-03,            0.,NA,NA,"",   1.01417E+06,   1.01136E+06,   1.01136E+06
C:/temp/Job-4.odb,Step-1,Increment      1: Step Time =    1.000,"P-4-1",          1047,   48.9033E-03,   177.202E-03,            0.,NA,NA,"",   1.03858E+06,   1.04395E+06,   1.04395E+06
C:/temp/Job-4.odb,Step-1,Increment      1: Step Time =    1.000,"P-4-1",          1048,   153.365E-03,   23.9121E-03,            0.,NA,NA,"",   1.01530E+06,   1.01094E+06,   1.01094E+06
C:/temp/Job-4.odb,Step-1,Increment      1: Step Time =    1.000,"P-4-1",          1049,   26.3296E-03,   150.306E-03,            0.,NA,NA,"",   955.006E+03,   1.01565E+06,   1.01565E+06
C:/temp/Job-4.odb,Step-1,Increment      1: Step Time =    1.000,"P-4-1",          1050,   173.854E-03,   151.110E-03,            0.,NA,NA,"",   1.01573E+06,   1.01343E+06,   1.01343E+06
C:/temp/Job-4.odb,Step-1,Increment      1: Step Time =    1.000,"P-4-1",          1051,   149.553E-03,   171.069E-03,            0.,NA,NA,"",   1.02603E+06,   1.01951E+06,   1.01951E+06
C:/temp/Job-4.odb,Step-1,Increment      1: Step Time =    1.000,"P-4-1",          1052,   26.5508E-03,   62.0011E-03,            0.,NA,NA,"",   912.323E+03,   979.932E+03,   979.932E+03
C:/temp/Job-4.odb,Step-1,Increment      1: Step Time =    1.000,"P-4-1",          1053,   62.6469E-03,   172.644E-03,            0.,NA,NA,"",   1.03588E+06,   1.03908E+06,   1.03908E+06
C:/temp/Job-4.odb,Step-1,Increment      1: Step Time =    1.000,"P-4-1",          1054,   25.9898E-03,   165.289E-03,            0.,NA,NA,"",   1.00697E+06,   1.05557E+06,   1.05557E+06
C:/temp/Job-4.odb,Step-1,Increment      1: Step Time =    1.000,"P-4-1",          1055,   165.779E-03,   175.840E-03,            0.,NA,NA,"",   1.01072E+06,   1.00788E+06,   1.00788E+06
C:/temp/Job-4.odb,Step-1,Increment      1: Step Time =    1.000,"P-4-1",          1056,   174.573E-03,   180.694E-03,            0.,NA,NA,"",   1.00431E+06,   1.00323E+06,   1.00323E+06
C:/temp/Job-4.odb,Step-1,Increment      1: Step Time =    1.000,"P-4-1",          1057,   179.788E-03,   26.2762E-03,            0.,NA,NA,"",   1.00504E+06,   1.00422E+06,   1.00422E+06
C:/temp/Job-4.odb,Step-1,Increment      1: Step Time =    1.000,"P-4-1",          1058,   106.423E-03,   131.090E-03,            0.,NA,NA,"",   1.10597E+06,   1.17178E+06,   1.17178E+06
C:/temp/Job-4.odb,Step-1,Increment      1: Step Time =    1.000,"P-4-1",          1059,   105.661E-03,   137.526E-03,            0.,NA,NA,"",   1.06228E+06,   1.11650E+06,   1.11650E+06
C:/temp/Job-4.odb,Step-1,Increment      1: Step Time =    1.000,"P-4-1",          1060,   64.0380E-03,   84.4001E-03,            0.,NA,NA,"",   922.833E+03,   928.667E+03,   928.667E+03
C:/temp/Job-4.odb,Step-1,Increment      1: Step Time =    1.000,"P-4-1",          1061,   129.862E-03,   86.0875E-03,            0.,NA,NA,"",   993.874E+03,   938.238E+03,   938.238E+03
C:/temp/Job-4.odb,Step-1,Increment      1: Step Time =    1.000,"P-4-1",          1062,   72.4858E-03,   105.677E-03,            0.,NA,NA,"",   693.002E+03,   696.159E+03,   696.159E+03
C:/temp/Job-4.odb,Step-1,Increment      1: Step Time =    1.000,"P-4-1",          1063,   137.917E-03,   103.978E-03,            0.,NA,NA,"",   790.050E+03,   799.849E+03,   799.849E+03
C:/temp/Job-4.odb,Step-1,Increment      1: Step Time =    1.000,"P-4-1",          1064,   110.060E-03,   81.3784E-03,            0.,NA,NA,"",   1.36411E+06,   1.36621E+06,   1.36621E+06
C:/temp/Job-4.odb,Step-1,Increment      1: Step Time =    1.000,"P-4-1",          1065,   118.498E-03,   24.3444E-03,            0.,NA,NA,"",   1.00165E+06,   1.00516E+06,   1.00516E+06
C:/temp/Job-4.odb,Step-1,Increment      1: Step Time =    1.000,"P-4-1",          1066,   127.531E-03,   29.5022E-03,            0.,NA,NA,"",   1.02281E+06,   1.02169E+06,   1.02169E+06
C:/temp/Job-4.odb,Step-1,Increment      1: Step Time =    1.000,"P-4-1",          1067,   166.642E-03,   123.145E-03,            0.,NA,NA,"",   990.293E+03,   991.495E+03,   991.495E+03
C:/temp/Job-4.odb,Step-1,Increment      1: Step Time =    1.000,"P-4-1",          1068,   176.922E-03,   116.947E-03,            0.,NA,NA,"",   976.882E+03,   988.931E+03,   988.931E+03
C:/temp/Job-4.odb,Step-1,Increment      1: Step Time =    1.000,"P-4-1",          1069,   92.3912E-03,   85.4112E-03,            0.,NA,NA,"",   1.58327E+06,   1.61929E+06,   1.61929E+06
C:/temp/Job-4.odb,Step-1,Increment      1: Step Time =    1.000,"P-4-1",          1070,   59.5713E-03,   105.001E-03,            0.,NA,NA,"",   766.090E+03,   810.429E+03,   810.429E+03
C:/temp/Job-4.odb,Step-1,Increment      1: Step Time =    1.000,"P-4-1",          1071,   138.749E-03,   84.3544E-03,            0.,NA,NA,"",   974.390E+03,   948.876E+03,   948.876E+03
C:/temp/Job-4.odb,Step-1,Increment      1: Step Time =    1.000,"P-4-1",          1072,   122.506E-03,   184.224E-03,            0.,NA,NA,"",   985.462E+03,   986.261E+03,   986.261E+03
C:/temp/Job-4.odb,Step-1,Increment      1: Step Time =    1.000,"P-4-1",          1073,   15.7458E-03,   123.211E-03,            0.,NA,NA,"",   831.451E+03,   920.709E+03,   920.709E+03
C:/temp/Job-4.odb,Step-1,Increment      1: Step Time =    1.000,"P-4-1",          1074,   187.167E-03,   78.3960E-03,            0.,NA,NA,"",   979.957E+03,   997.633E+03,   997.633E+03
C:/temp/Job-4.odb,Step-1,Increment      1: Step Time =    1.000,"P-4-1",          1075,   76.6033E-03,   16.8777E-03,            0.,NA,NA,"",   992.001E+03,   994.166E+03,   994.166E+03
C:/temp/Job-4.odb,Step-1,Increment      1: Step Time =    1.000,"P-4-1",          1076,   20.7483E-03,   186.954E-03,            0.,NA,NA,"",   1.10504E+06,   1.12502E+06,   1.12502E+06
C:/temp/Job-4.odb,Step-1,Increment      1: Step Time =    1.000,"P-4-1",          1077,   11.6854E-03,   21.9636E-03,            0.,NA,NA,"",   1.03904E+06,   1.10832E+06,   1.10832E+06
C:/temp/Job-4.odb,Step-1,Increment      1: Step Time =    1.000,"P-4-1",          1078,   81.2744E-03,   76.2843E-03,            0.,NA,NA,"",   1.25374E+06,   1.21494E+06,   1.21494E+06
C:/temp/Job-4.odb,Step-1,Increment      1: Step Time =    1.000,"P-4-1",          1079,   145.690E-03,   94.7976E-03,            0.,NA,NA,"",   870.740E+03,   878.049E+03,   878.049E+03
C:/temp/Job-4.odb,Step-1,Increment      1: Step Time =    1.000,"P-4-1",          1080,   26.2181E-03,   36.2823E-03,            0.,NA,NA,"",   1.00136E+06,   1.05115E+06,   1.05115E+06
C:/temp/Job-4.odb,Step-1,Increment      1: Step Time =    1.000,"P-4-1",          1081,   27.3431E-03,   135.391E-03,            0.,NA,NA,"",   906.161E+03,   973.780E+03,   973.780E+03
C:/temp/Job-4.odb,Step-1,Increment      1: Step Time =    1.000,"P-4-1",          1082,   64.9729E-03,   26.5260E-03,            0.,NA,NA,"",   1.03149E+06,   1.03417E+06,   1.03417E+06
C:/temp/Job-4.odb,Step-1,Increment      1: Step Time =    1.000,"P-4-1",          1083,   166.689E-03,   26.2630E-03,            0.,NA,NA,"",   1.01241E+06,   1.00924E+06,   1.00924E+06
C:/temp/Job-4.odb,Step-1,Increment      1: Step Time =    1.000,"P-4-1",          1084,   34.3594E-03,   172.485E-03,            0.,NA,NA,"",   1.04497E+06,   1.06828E+06,   1.06828E+06
C:/temp/Job-4.odb,Step-1,Increment      1: Step Time =    1.000,"P-4-1",          1085,   133.449E-03,   169.670E-03,            0.,NA,NA,"",   1.02937E+06,   1.02513E+06,   1.02513E+06
C:/temp/Job-4.odb,Step-1,Increment      1: Step Time =    1.000,"P-4-1",          1086,   173.522E-03,   68.4730E-03,            0.,NA,NA,"",   1.00181E+06,   1.00405E+06,   1.00405E+06
C:/temp/Job-4.odb,Step-1,Increment      1: Step Time =    1.000,"P-4-1",          1087,   171.879E-03,   165.380E-03,            0.,NA,NA,"",   1.01434E+06,   1.01132E+06,   1.01132E+06
C:/temp/Job-4.odb,Step-1,Increment      1: Step Time =    1.000,"P-4-1",          1088,   181.850E-03,   114.604E-03,            0.,NA,NA,"",   974.857E+03,   991.292E+03,   991.292E+03
C:/temp/Job-4.odb,Step-1,Increment      1: Step Time =    1.000,"P-4-1",          1089,   111.775E-03,   18.5811E-03,            0.,NA,NA,"",   982.923E+03,   986.860E+03,   986.860E+03
C:/temp/Job-4.odb,Step-1,Increment      1: Step Time =    1.000,"P-4-1",          1090,   177.126E-03,   23.6735E-03,            0.,NA,NA,"",   1.00518E+06,   1.00412E+06,   1.00412E+06
C:/temp/Job-4.odb,Step-1,Increment      1: Step Time =    1.000,"P-4-1",          1091,   176.736E-03,   178.131E-03,            0.,NA,NA,"",   1.00476E+06,   1.00376E+06,   1.00376E+06
C:/temp/Job-4.odb,Step-1,Increment      1: Step Time =    1.000,"P-4-1",          1092,   24.4861E-03,   182.832E-03,            0.,NA,NA,"",   1.07887E+06,   1.10146E+06,   1.10146E+06
C:/temp/Job-4.odb,Step-1,Increment      1: Step Time =    1.000,"P-4-1",          1093,   19.2105E-03,   25.8425E-03,            0.,NA,NA,"",   1.03339E+06,   1.08598E+06,   1.08598E+06
C:/temp/Job-4.odb,Step-1,Increment      1: Step Time =    1.000,"P-4-1",          1094,   183.205E-03,   76.7028E-03,            0.,NA,NA,"",   983.591E+03,   997.043E+03,   997.043E+03
C:/temp/Job-4.odb,Step-1,Increment      1: Step Time =    1.000,"P-4-1",          1095,   74.0350E-03,   20.9884E-03,            0.,NA,NA,"",   1.00681E+06,   1.00949E+06,   1.00949E+06
C:/temp/Job-4.odb,Step-1,Increment      1: Step Time =    1.000,"P-4-1",          1096,   16.1254E-03,   128.448E-03,            0.,NA,NA,"",   845.406E+03,   933.290E+03,   933.290E+03
C:/temp/Job-4.odb,Step-1,Increment      1: Step Time =    1.000,"P-4-1",          1097,   15.9359E-03,   182.342E-03,            0.,NA,NA,"",   1.08077E+06,   1.12634E+06,   1.12634E+06
C:/temp/Job-4.odb,Step-1,Increment      1: Step Time =    1.000,"P-4-1",          1098,   13.9670E-03,   19.9819E-03,            0.,NA,NA,"",   1.05553E+06,   1.11236E+06,   1.11236E+06
C:/temp/Job-4.odb,Step-1,Increment      1: Step Time =    1.000,"P-4-1",          1099,   182.055E-03,   79.8941E-03,            0.,NA,NA,"",   980.377E+03,   994.421E+03,   994.421E+03
C:/temp/Job-4.odb,Step-1,Increment      1: Step Time =    1.000,"P-4-1",          1100,   83.0213E-03,   16.7947E-03,            0.,NA,NA,"",   984.792E+03,   988.050E+03,   988.050E+03
C:/temp/Job-4.odb,Step-1,Increment      1: Step Time =    1.000,"P-4-1",          1101,   116.869E-03,   184.119E-03,            0.,NA,NA,"",   980.939E+03,   983.054E+03,   983.054E+03
C:/temp/Job-4.odb,Step-1,Increment      1: Step Time =    1.000,"P-4-1",          1102,   16.3771E-03,   117.103E-03,            0.,NA,NA,"",   819.574E+03,   909.047E+03,   909.047E+03
C:/temp/Job-4.odb,Step-1,Increment      1: Step Time =    1.000,"P-4-1",          1103,   62.3102E-03,   108.223E-03,            0.,NA,NA,"",   797.857E+03,   828.894E+03,   828.894E+03
C:/temp/Job-4.odb,Step-1,Increment      1: Step Time =    1.000,"P-4-1",          1104,   135.669E-03,   108.969E-03,            0.,NA,NA,"",   858.944E+03,   847.828E+03,   847.828E+03
C:/temp/Job-4.odb,Step-1,Increment      1: Step Time =    1.000,"P-4-1",          1105,   53.6392E-03,   103.965E-03,            0.,NA,NA,"",   790.149E+03,   842.671E+03,   842.671E+03
C:/temp/Job-4.odb,Step-1,Increment      1: Step Time =    1.000,"P-4-1",          1106,   142.510E-03,   102.989E-03,            0.,NA,NA,"",   831.719E+03,   842.054E+03,   842.054E+03
C:/temp/Job-4.odb,Step-1,Increment      1: Step Time =    1.000,"P-4-1",          1107,   66.1463E-03,   80.2057E-03,            0.,NA,NA,"",   1.01224E+06,   998.850E+03,   998.850E+03
C:/temp/Job-4.odb,Step-1,Increment      1: Step Time =    1.000,"P-4-1",          1108,   135.948E-03,   81.3517E-03,            0.,NA,NA,"",   1.03401E+06,   993.758E+03,   993.758E+03
C:/temp/Job-4.odb,Step-1,Increment      1: Step Time =    1.000,"P-4-1",          1109,   170.819E-03,   22.7460E-03,            0.,NA,NA,"",   1.00748E+06,   1.00557E+06,   1.00557E+06
C:/temp/Job-4.odb,Step-1,Increment      1: Step Time =    1.000,"P-4-1",          1110,   23.7077E-03,   169.728E-03,            0.,NA,NA,"",   1.01982E+06,   1.06758E+06,   1.06758E+06
C:/temp/Job-4.odb,Step-1,Increment      1: Step Time =    1.000,"P-4-1",          1111,   67.8182E-03,   26.8619E-03,            0.,NA,NA,"",   1.02950E+06,   1.03229E+06,   1.03229E+06
C:/temp/Job-4.odb,Step-1,Increment      1: Step Time =    1.000,"P-4-1",          1112,   24.9265E-03,   66.0488E-03,            0.,NA,NA,"",   890.955E+03,   963.918E+03,   963.918E+03
C:/temp/Job-4.odb,Step-1,Increment      1: Step Time =    1.000,"P-4-1",          1113,   27.3511E-03,   129.888E-03,            0.,NA,NA,"",   885.868E+03,   956.526E+03,   956.526E+03
C:/temp/Job-4.odb,Step-1,Increment      1: Step Time =    1.000,"P-4-1",          1114,   32.5799E-03,   24.2966E-03,            0.,NA,NA,"",   1.05058E+06,   1.07271E+06,   1.07271E+06
C:/temp/Job-4.odb,Step-1,Increment      1: Step Time =    1.000,"P-4-1",          1115,   175.862E-03,   172.001E-03,            0.,NA,NA,"",   1.00785E+06,   1.00633E+06,   1.00633E+06
C:/temp/Job-4.odb,Step-1,Increment      1: Step Time =    1.000,"P-4-1",          1116,   177.923E-03,   68.0895E-03,            0.,NA,NA,"",   997.625E+03,   1.00304E+06,   1.00304E+06
C:/temp/Job-4.odb,Step-1,Increment      1: Step Time =    1.000,"P-4-1",          1117,   66.7089E-03,   177.033E-03,            0.,NA,NA,"",   1.02057E+06,   1.02266E+06,   1.02266E+06
C:/temp/Job-4.odb,Step-1,Increment      1: Step Time =    1.000,"P-4-1",          1118,   130.515E-03,   172.613E-03,            0.,NA,NA,"",   1.01986E+06,   1.01778E+06,   1.01778E+06
C:/temp/Job-4.odb,Step-1,Increment      1: Step Time =    1.000,"P-4-1",          1119,   30.5527E-03,   173.494E-03,            0.,NA,NA,"",   1.04592E+06,   1.07380E+06,   1.07380E+06
C:/temp/Job-4.odb,Step-1,Increment      1: Step Time =    1.000,"P-4-1",          1120,   173.670E-03,   32.9242E-03,            0.,NA,NA,"",   1.01179E+06,   1.00944E+06,   1.00944E+06
C:/temp/Job-4.odb,Step-1,Increment      1: Step Time =    1.000,"P-4-1",          1121,   60.3803E-03,   83.8965E-03,            0.,NA,NA,"",   918.589E+03,   934.587E+03,   934.587E+03
C:/temp/Job-4.odb,Step-1,Increment      1: Step Time =    1.000,"P-4-1",          1122,   143.097E-03,   86.5396E-03,            0.,NA,NA,"",   935.693E+03,   925.252E+03,   925.252E+03
C:/temp/Job-4.odb,Step-1,Increment      1: Step Time =    1.000,"P-4-1",          1123,   127.202E-03,   131.884E-03,            0.,NA,NA,"",   1.17757E+06,   1.13317E+06,   1.13317E+06
C:/temp/Job-4.odb,Step-1,Increment      1: Step Time =    1.000,"P-4-1",          1124,   75.3227E-03,   131.973E-03,            0.,NA,NA,"",   1.15489E+06,   1.13751E+06,   1.13751E+06
C:/temp/Job-4.odb,Step-1,Increment      1: Step Time =    1.000,"P-4-1",          1125,   163.829E-03,   32.8031E-03,            0.,NA,NA,"",   1.02093E+06,   1.01573E+06,   1.01573E+06
C:/temp/Job-4.odb,Step-1,Increment      1: Step Time =    1.000,"P-4-1",          1126,   30.9303E-03,   163.561E-03,            0.,NA,NA,"",   1.01483E+06,   1.05456E+06,   1.05456E+06
C:/temp/Job-4.odb,Step-1,Increment      1: Step Time =    1.000,"P-4-1",          1127,   64.4388E-03,   30.6756E-03,            0.,NA,NA,"",   1.04146E+06,   1.04500E+06,   1.04500E+06
C:/temp/Job-4.odb,Step-1,Increment      1: Step Time =    1.000,"P-4-1",          1128,   30.0838E-03,   63.5743E-03,            0.,NA,NA,"",   920.099E+03,   982.188E+03,   982.188E+03
C:/temp/Job-4.odb,Step-1,Increment      1: Step Time =    1.000,"P-4-1",          1129,   34.6296E-03,   134.745E-03,            0.,NA,NA,"",   930.805E+03,   986.051E+03,   986.051E+03
C:/temp/Job-4.odb,Step-1,Increment      1: Step Time =    1.000,"P-4-1",          1130,   30.9630E-03,   37.1405E-03,            0.,NA,NA,"",   1.01192E+06,   1.05265E+06,   1.05265E+06
C:/temp/Job-4.odb,Step-1,Increment      1: Step Time =    1.000,"P-4-1",          1131,   35.4027E-03,   34.5518E-03,            0.,NA,NA,"",   1.02966E+06,   1.05922E+06,   1.05922E+06
C:/temp/Job-4.odb,Step-1,Increment      1: Step Time =    1.000,"P-4-1",          1132,   166.143E-03,   165.866E-03,            0.,NA,NA,"",   1.01987E+06,   1.01509E+06,   1.01509E+06
C:/temp/Job-4.odb,Step-1,Increment      1: Step Time =    1.000,"P-4-1",          1133,   166.149E-03,   170.714E-03,            0.,NA,NA,"",   1.01562E+06,   1.01176E+06,   1.01176E+06
C:/temp/Job-4.odb,Step-1,Increment      1: Step Time =    1.000,"P-4-1",          1134,   170.470E-03,   65.9556E-03,            0.,NA,NA,"",   1.00975E+06,   1.00848E+06,   1.00848E+06
C:/temp/Job-4.odb,Step-1,Increment      1: Step Time =    1.000,"P-4-1",          1135,   64.9485E-03,   166.656E-03,            0.,NA,NA,"",   1.04648E+06,   1.05050E+06,   1.05050E+06
C:/temp/Job-4.odb,Step-1,Increment      1: Step Time =    1.000,"P-4-1",          1136,   134.127E-03,   163.745E-03,            0.,NA,NA,"",   1.04557E+06,   1.03861E+06,   1.03861E+06
C:/temp/Job-4.odb,Step-1,Increment      1: Step Time =    1.000,"P-4-1",          1137,   37.1095E-03,   166.459E-03,            0.,NA,NA,"",   1.03473E+06,   1.06050E+06,   1.06050E+06
C:/temp/Job-4.odb,Step-1,Increment      1: Step Time =    1.000,"P-4-1",          1138,   168.920E-03,   36.3867E-03,            0.,NA,NA,"",   1.01867E+06,   1.01443E+06,   1.01443E+06
C:/temp/Job-4.odb,Step-1,Increment      1: Step Time =    1.000,"P-4-1",          1139,   125.444E-03,   117.654E-03,            0.,NA,NA,"",   1.14703E+06,   1.06317E+06,   1.06317E+06
C:/temp/Job-4.odb,Step-1,Increment      1: Step Time =    1.000,"P-4-1",          1140,   73.1083E-03,   122.708E-03,            0.,NA,NA,"",   1.13831E+06,   1.09909E+06,   1.09909E+06
C:/temp/Job-4.odb,Step-1,Increment      1: Step Time =    1.000,"P-4-1",          1141,   115.351E-03,   27.3957E-03,            0.,NA,NA,"",   1.00508E+06,   1.01092E+06,   1.01092E+06
C:/temp/Job-4.odb,Step-1,Increment      1: Step Time =    1.000,"P-4-1",          1142,   171.833E-03,   116.451E-03,            0.,NA,NA,"",   975.145E+03,   983.795E+03,   983.795E+03
C:/temp/Job-4.odb,Step-1,Increment      1: Step Time =    1.000,"P-4-1",          1143,   86.4274E-03,   69.0577E-03,            0.,NA,NA,"",   1.16709E+06,   1.18805E+06,   1.18805E+06
C:/temp/Job-4.odb,Step-1,Increment      1: Step Time =    1.000,"P-4-1",          1144,   116.447E-03,   138.998E-03,            0.,NA,NA,"",   1.11727E+06,   1.12553E+06,   1.12553E+06
C:/temp/Job-4.odb,Step-1,Increment      1: Step Time =    1.000,"P-4-1",          1145,   84.2475E-03,   141.325E-03,            0.,NA,NA,"",   1.09412E+06,   1.11515E+06,   1.11515E+06
C:/temp/Job-4.odb,Step-1,Increment      1: Step Time =    1.000,"P-4-1",          1146,   185.714E-03,   175.787E-03,            0.,NA,NA,"",   1.00208E+06,   1.00199E+06,   1.00199E+06
C:/temp/Job-4.odb,Step-1,Increment      1: Step Time =    1.000,"P-4-1",          1147,   176.310E-03,   13.9008E-03,            0.,NA,NA,"",   1.00137E+06,   1.00085E+06,   1.00085E+06
C:/temp/Job-4.odb,Step-1,Increment      1: Step Time =    1.000,"P-4-1",          1148,   145.821E-03,   91.4687E-03,            0.,NA,NA,"",    894.29E+03,   896.997E+03,   896.997E+03
C:/temp/Job-4.odb,Step-1,Increment      1: Step Time =    1.000,"P-4-1",          1149,   145.913E-03,   98.3836E-03,            0.,NA,NA,"",   857.479E+03,   868.090E+03,   868.090E+03
C:/temp/Job-4.odb,Step-1,Increment      1: Step Time =    1.000,"P-4-1",          1150,   112.072E-03,   26.4474E-03,            0.,NA,NA,"",   1.00069E+06,   1.00770E+06,   1.00770E+06
C:/temp/Job-4.odb,Step-1,Increment      1: Step Time =    1.000,"P-4-1",          1151,   174.442E-03,   114.011E-03,            0.,NA,NA,"",   972.111E+03,   983.579E+03,   983.579E+03
C:/temp/Job-4.odb,Step-1,Increment      1: Step Time =    1.000,"P-4-1",          1152,   112.569E-03,   31.6986E-03,            0.,NA,NA,"",   1.01089E+06,   1.02037E+06,   1.02037E+06
C:/temp/Job-4.odb,Step-1,Increment      1: Step Time =    1.000,"P-4-1",          1153,   169.278E-03,   113.903E-03,            0.,NA,NA,"",   968.616E+03,   977.103E+03,   977.103E+03
C:/temp/Job-4.odb,Step-1,Increment      1: Step Time =    1.000,"P-4-1",          1154,   175.871E-03,   18.2185E-03,            0.,NA,NA,"",   1.00336E+06,   1.00248E+06,   1.00248E+06
C:/temp/Job-4.odb,Step-1,Increment      1: Step Time =    1.000,"P-4-1",          1155,   181.400E-03,   175.552E-03,            0.,NA,NA,"",   1.00365E+06,   1.00316E+06,   1.00316E+06
C:/temp/Job-4.odb,Step-1,Increment      1: Step Time =    1.000,"P-4-1",          1156,   179.258E-03,   115.024E-03,            0.,NA,NA,"",   975.043E+03,   989.438E+03,   989.438E+03
C:/temp/Job-4.odb,Step-1,Increment      1: Step Time =    1.000,"P-4-1",          1157,   115.176E-03,   23.0003E-03,            0.,NA,NA,"",   995.869E+03,   1.00009E+06,   1.00009E+06
C:/temp/Job-4.odb,Step-1,Increment      1: Step Time =    1.000,"P-4-1",          1158,   88.8223E-03,   135.883E-03,            0.,NA,NA,"",   1.10252E+06,   1.14123E+06,   1.14123E+06
C:/temp/Job-4.odb,Step-1,Increment      1: Step Time =    1.000,"P-4-1",          1159,   176.326E-03,   29.4536E-03,            0.,NA,NA,"",   1.00847E+06,   1.00689E+06,   1.00689E+06
C:/temp/Job-4.odb,Step-1,Increment      1: Step Time =    1.000,"P-4-1",          1160,   172.801E-03,   178.334E-03,            0.,NA,NA,"",   1.00618E+06,   1.00465E+06,   1.00465E+06
C:/temp/Job-4.odb,Step-1,Increment      1: Step Time =    1.000,"P-4-1",          1161,   17.1313E-03,   186.356E-03,            0.,NA,NA,"",   1.11865E+06,   1.14813E+06,   1.14813E+06
C:/temp/Job-4.odb,Step-1,Increment      1: Step Time =    1.000,"P-4-1",          1162,   10.2034E-03,   18.4410E-03,            0.,NA,NA,"",   1.06003E+06,   1.13057E+06,   1.13057E+06
C:/temp/Job-4.odb,Step-1,Increment      1: Step Time =    1.000,"P-4-1",          1163,   186.150E-03,   81.8938E-03,            0.,NA,NA,"",   977.289E+03,   995.702E+03,   995.702E+03
C:/temp/Job-4.odb,Step-1,Increment      1: Step Time =    1.000,"P-4-1",          1164,   87.1296E-03,   14.9841E-03,            0.,NA,NA,"",   975.617E+03,   978.696E+03,   978.696E+03
C:/temp/Job-4.odb,Step-1,Increment      1: Step Time =    1.000,"P-4-1",          1165,   113.084E-03,   185.337E-03,            0.,NA,NA,"",   974.659E+03,   977.069E+03,   977.069E+03
C:/temp/Job-4.odb,Step-1,Increment      1: Step Time =    1.000,"P-4-1",          1166,   14.8370E-03,   113.013E-03,            0.,NA,NA,"",   809.178E+03,   900.744E+03,   900.744E+03
C:/temp/Job-4.odb,Step-1,Increment      1: Step Time =    1.000,"P-4-1",          1167,   54.6918E-03,   98.8693E-03,            0.,NA,NA,"",   776.649E+03,   829.765E+03,   829.765E+03
C:/temp/Job-4.odb,Step-1,Increment      1: Step Time =    1.000,"P-4-1",          1168,   56.1040E-03,   91.4188E-03,            0.,NA,NA,"",   817.304E+03,   859.777E+03,   859.777E+03
C:/temp/Job-4.odb,Step-1,Increment      1: Step Time =    1.000,"P-4-1",          1169,   129.373E-03,   134.899E-03,            0.,NA,NA,"",   1.15150E+06,   1.11465E+06,   1.11465E+06
C:/temp/Job-4.odb,Step-1,Increment      1: Step Time =    1.000,"P-4-1",          1170,   125.064E-03,   127.756E-03,            0.,NA,NA,"",   1.20530E+06,   1.15146E+06,   1.15146E+06
C:/temp/Job-4.odb,Step-1,Increment      1: Step Time =    1.000,"P-4-1",          1171,   75.5217E-03,   127.031E-03,            0.,NA,NA,"",   1.17576E+06,   1.14526E+06,   1.14526E+06
C:/temp/Job-4.odb,Step-1,Increment      1: Step Time =    1.000,"P-4-1",          1172,   74.0776E-03,   136.445E-03,            0.,NA,NA,"",   1.13295E+06,   1.12392E+06,   1.12392E+06
C:/temp/Job-4.odb,Step-1,Increment      1: Step Time =    1.000,"P-4-1",          1173,   159.189E-03,   34.7397E-03,            0.,NA,NA,"",   1.02782E+06,   1.02077E+06,   1.02077E+06
C:/temp/Job-4.odb,Step-1,Increment      1: Step Time =    1.000,"P-4-1",          1174,   33.9668E-03,   158.076E-03,            0.,NA,NA,"",   1.00716E+06,   1.04607E+06,   1.04607E+06
C:/temp/Job-4.odb,Step-1,Increment      1: Step Time =    1.000,"P-4-1",          1175,   58.9343E-03,   33.6301E-03,            0.,NA,NA,"",   1.04902E+06,   1.05398E+06,   1.05398E+06
C:/temp/Job-4.odb,Step-1,Increment      1: Step Time =    1.000,"P-4-1",          1176,   35.9448E-03,   59.5637E-03,            0.,NA,NA,"",   958.150E+03,   1.00666E+06,   1.00666E+06
C:/temp/Job-4.odb,Step-1,Increment      1: Step Time =    1.000,"P-4-1",          1177,   35.0386E-03,   139.973E-03,            0.,NA,NA,"",   952.389E+03,   1.00324E+06,   1.00324E+06
C:/temp/Job-4.odb,Step-1,Increment      1: Step Time =    1.000,"P-4-1",          1178,   34.7333E-03,   41.2580E-03,            0.,NA,NA,"",   1.00986E+06,   1.04698E+06,   1.04698E+06
C:/temp/Job-4.odb,Step-1,Increment      1: Step Time =    1.000,"P-4-1",          1179,   41.3802E-03,   36.8517E-03,            0.,NA,NA,"",   1.03580E+06,   1.05813E+06,   1.05813E+06
C:/temp/Job-4.odb,Step-1,Increment      1: Step Time =    1.000,"P-4-1",          1180,   165.252E-03,   161.210E-03,            0.,NA,NA,"",   1.02450E+06,   1.01859E+06,   1.01859E+06
C:/temp/Job-4.odb,Step-1,Increment      1: Step Time =    1.000,"P-4-1",          1181,   60.1820E-03,   165.355E-03,            0.,NA,NA,"",   1.04996E+06,   1.05492E+06,   1.05492E+06
C:/temp/Job-4.odb,Step-1,Increment      1: Step Time =    1.000,"P-4-1",          1182,   164.257E-03,   60.0087E-03,            0.,NA,NA,"",   1.02835E+06,   1.02033E+06,   1.02033E+06
C:/temp/Job-4.odb,Step-1,Increment      1: Step Time =    1.000,"P-4-1",          1183,   139.345E-03,   165.198E-03,            0.,NA,NA,"",   1.04215E+06,   1.03386E+06,   1.03386E+06
C:/temp/Job-4.odb,Step-1,Increment      1: Step Time =    1.000,"P-4-1",          1184,   41.5459E-03,   164.847E-03,            0.,NA,NA,"",   1.03811E+06,   1.05878E+06,   1.05878E+06
C:/temp/Job-4.odb,Step-1,Increment      1: Step Time =    1.000,"P-4-1",          1185,   169.087E-03,   40.9002E-03,            0.,NA,NA,"",   1.02114E+06,   1.01641E+06,   1.01641E+06
C:/temp/Job-4.odb,Step-1,Increment      1: Step Time =    1.000,"P-4-1",          1186,   127.970E-03,   113.912E-03,            0.,NA,NA,"",   1.03000E+06,   960.640E+03,   960.640E+03
C:/temp/Job-4.odb,Step-1,Increment      1: Step Time =    1.000,"P-4-1",          1187,   72.8850E-03,   112.243E-03,            0.,NA,NA,"",   941.646E+03,   905.929E+03,   905.929E+03
C:/temp/Job-4.odb,Step-1,Increment      1: Step Time =    1.000,"P-4-1",          1188,   119.870E-03,   142.281E-03,            0.,NA,NA,"",   1.10971E+06,   1.10892E+06,   1.10892E+06
C:/temp/Job-4.odb,Step-1,Increment      1: Step Time =    1.000,"P-4-1",          1189,   79.3868E-03,   146.278E-03,            0.,NA,NA,"",   1.08602E+06,   1.09739E+06,   1.09739E+06
C:/temp/Job-4.odb,Step-1,Increment      1: Step Time =    1.000,"P-4-1",          1190,   149.818E-03,   94.6026E-03,            0.,NA,NA,"",   893.908E+03,   901.939E+03,   901.939E+03
C:/temp/Job-4.odb,Step-1,Increment      1: Step Time =    1.000,"P-4-1",          1191,   134.637E-03,   112.518E-03,            0.,NA,NA,"",   931.971E+03,   903.954E+03,   903.954E+03
C:/temp/Job-4.odb,Step-1,Increment      1: Step Time =    1.000,"P-4-1",          1192,   64.8927E-03,   75.4734E-03,            0.,NA,NA,"",   1.05528E+06,   1.04309E+06,   1.04309E+06
C:/temp/Job-4.odb,Step-1,Increment      1: Step Time =    1.000,"P-4-1",          1193,   27.7829E-03,   24.9915E-03,            0.,NA,NA,"",   1.04769E+06,   1.07901E+06,   1.07901E+06
C:/temp/Job-4.odb,Step-1,Increment      1: Step Time =    1.000,"P-4-1",          1194,   22.8404E-03,   70.1518E-03,            0.,NA,NA,"",   870.096E+03,   948.344E+03,   948.344E+03
C:/temp/Job-4.odb,Step-1,Increment      1: Step Time =    1.000,"P-4-1",          1195,   173.354E-03,   26.7513E-03,            0.,NA,NA,"",   1.00886E+06,   1.00690E+06,   1.00690E+06
C:/temp/Job-4.odb,Step-1,Increment      1: Step Time =    1.000,"P-4-1",          1196,   72.7137E-03,   175.199E-03,            0.,NA,NA,"",   1.01811E+06,   1.02157E+06,   1.02157E+06
C:/temp/Job-4.odb,Step-1,Increment      1: Step Time =    1.000,"P-4-1",          1197,   173.797E-03,   175.801E-03,            0.,NA,NA,"",   1.00724E+06,   1.00560E+06,   1.00560E+06
C:/temp/Job-4.odb,Step-1,Increment      1: Step Time =    1.000,"P-4-1",          1198,   37.8243E-03,   38.7200E-03,            0.,NA,NA,"",   1.02436E+06,   1.05399E+06,   1.05399E+06
C:/temp/Job-4.odb,Step-1,Increment      1: Step Time =    1.000,"P-4-1",          1199,   35.4288E-03,   162.122E-03,            0.,NA,NA,"",   1.02155E+06,   1.05419E+06,   1.05419E+06
C:/temp/Job-4.odb,Step-1,Increment      1: Step Time =    1.000,"P-4-1",          1200,   164.678E-03,   37.1708E-03,            0.,NA,NA,"",   1.02415E+06,   1.01825E+06,   1.01825E+06
C:/temp/Job-4.odb,Step-1,Increment      1: Step Time =    1.000,"P-4-1",          1201,   161.484E-03,   166.550E-03,            0.,NA,NA,"",   1.02389E+06,   1.01789E+06,   1.01789E+06
C:/temp/Job-4.odb,Step-1,Increment      1: Step Time =    1.000,"P-4-1",          1202,   87.5286E-03,   73.3430E-03,            0.,NA,NA,"",   1.21416E+06,   1.23361E+06,   1.23361E+06
C:/temp/Job-4.odb,Step-1,Increment      1: Step Time =    1.000,"P-4-1",          1203,   176.784E-03,   70.5444E-03,            0.,NA,NA,"",   995.716E+03,   1.00133E+06,   1.00133E+06
C:/temp/Job-4.odb,Step-1,Increment      1: Step Time =    1.000,"P-4-1",          1204,   126.960E-03,   175.191E-03,            0.,NA,NA,"",   1.01016E+06,   1.00996E+06,   1.00996E+06
C:/temp/Job-4.odb,Step-1,Increment      1: Step Time =    1.000,"P-4-1",          1205,   72.8708E-03,   25.3829E-03,            0.,NA,NA,"",   1.01962E+06,   1.02312E+06,   1.02312E+06
C:/temp/Job-4.odb,Step-1,Increment      1: Step Time =    1.000,"P-4-1",          1206,   24.8183E-03,   127.072E-03,            0.,NA,NA,"",   867.938E+03,   944.116E+03,   944.116E+03
C:/temp/Job-4.odb,Step-1,Increment      1: Step Time =    1.000,"P-4-1",          1207,   147.005E-03,   88.4393E-03,            0.,NA,NA,"",   920.850E+03,   919.140E+03,   919.140E+03
C:/temp/Job-4.odb,Step-1,Increment      1: Step Time =    1.000,"P-4-1",          1208,   95.8532E-03,   68.0403E-03,            0.,NA,NA,"",   1.08724E+06,   1.16086E+06,   1.16086E+06
C:/temp/Job-4.odb,Step-1,Increment      1: Step Time =    1.000,"P-4-1",          1209,   89.9793E-03,   63.5940E-03,            0.,NA,NA,"",   1.09462E+06,   1.13695E+06,   1.13695E+06
C:/temp/Job-4.odb,Step-1,Increment      1: Step Time =    1.000,"P-4-1",          1210,   120.500E-03,   34.3559E-03,            0.,NA,NA,"",   1.02691E+06,   1.03125E+06,   1.03125E+06
C:/temp/Job-4.odb,Step-1,Increment      1: Step Time =    1.000,"P-4-1",          1211,   165.482E-03,   119.115E-03,            0.,NA,NA,"",   978.559E+03,   981.673E+03,   981.673E+03
C:/temp/Job-4.odb,Step-1,Increment      1: Step Time =    1.000,"P-4-1",          1212,   13.9626E-03,   184.946E-03,            0.,NA,NA,"",   1.10977E+06,   1.15458E+06,   1.15458E+06
C:/temp/Job-4.odb,Step-1,Increment      1: Step Time =    1.000,"P-4-1",          1213,   13.3572E-03,   16.5810E-03,            0.,NA,NA,"",   1.09024E+06,   1.14288E+06,   1.14288E+06
C:/temp/Job-4.odb,Step-1,Increment      1: Step Time =    1.000,"P-4-1",          1214,   184.644E-03,   84.9623E-03,            0.,NA,NA,"",   974.869E+03,   993.322E+03,   993.322E+03
C:/temp/Job-4.odb,Step-1,Increment      1: Step Time =    1.000,"P-4-1",          1215,   88.9004E-03,   19.3054E-03,            0.,NA,NA,"",   986.486E+03,   991.785E+03,   991.785E+03
C:/temp/Job-4.odb,Step-1,Increment      1: Step Time =    1.000,"P-4-1",          1216,   112.001E-03,   180.826E-03,            0.,NA,NA,"",   985.178E+03,   989.463E+03,   989.463E+03
C:/temp/Job-4.odb,Step-1,Increment      1: Step Time =    1.000,"P-4-1",          1217,   19.3265E-03,   111.475E-03,            0.,NA,NA,"",   815.718E+03,   902.957E+03,   902.957E+03
C:/temp/Job-4.odb,Step-1,Increment      1: Step Time =    1.000,"P-4-1",          1218,   50.7438E-03,   105.755E-03,            0.,NA,NA,"",   808.091E+03,   861.979E+03,   861.979E+03
C:/temp/Job-4.odb,Step-1,Increment      1: Step Time =    1.000,"P-4-1",          1219,   55.3509E-03,   85.7027E-03,            0.,NA,NA,"",   881.707E+03,   913.954E+03,   913.954E+03
C:/temp/Job-4.odb,Step-1,Increment      1: Step Time =    1.000,"P-4-1",          1220,   59.5208E-03,   94.1159E-03,            0.,NA,NA,"",   776.179E+03,   818.521E+03,   818.521E+03
C:/temp/Job-4.odb,Step-1,Increment      1: Step Time =    1.000,"P-4-1",          1221,   74.4928E-03,   141.721E-03,            0.,NA,NA,"",   1.11179E+06,   1.11127E+06,   1.11127E+06
C:/temp/Job-4.odb,Step-1,Increment      1: Step Time =    1.000,"P-4-1",          1222,   70.6336E-03,   128.551E-03,            0.,NA,NA,"",   1.12739E+06,   1.10493E+06,   1.10493E+06
C:/temp/Job-4.odb,Step-1,Increment      1: Step Time =    1.000,"P-4-1",          1223,   158.003E-03,   30.5887E-03,            0.,NA,NA,"",   1.02333E+06,   1.01734E+06,   1.01734E+06
C:/temp/Job-4.odb,Step-1,Increment      1: Step Time =    1.000,"P-4-1",          1224,   32.7575E-03,   154.267E-03,            0.,NA,NA,"",   991.844E+03,   1.03635E+06,   1.03635E+06
C:/temp/Job-4.odb,Step-1,Increment      1: Step Time =    1.000,"P-4-1",          1225,   63.3353E-03,   36.2267E-03,            0.,NA,NA,"",   1.05213E+06,   1.05650E+06,   1.05650E+06
C:/temp/Job-4.odb,Step-1,Increment      1: Step Time =    1.000,"P-4-1",          1226,   55.1314E-03,   31.6854E-03,            0.,NA,NA,"",   1.04716E+06,   1.05310E+06,   1.05310E+06
C:/temp/Job-4.odb,Step-1,Increment      1: Step Time =    1.000,"P-4-1",          1227,   32.5472E-03,   56.4452E-03,            0.,NA,NA,"",   954.903E+03,   1.00809E+06,   1.00809E+06
C:/temp/Job-4.odb,Step-1,Increment      1: Step Time =    1.000,"P-4-1",          1228,   37.5300E-03,   63.4337E-03,            0.,NA,NA,"",   950.391E+03,   998.225E+03,   998.225E+03
C:/temp/Job-4.odb,Step-1,Increment      1: Step Time =    1.000,"P-4-1",          1229,   31.3315E-03,   144.038E-03,            0.,NA,NA,"",   951.122E+03,   1.00678E+06,   1.00678E+06
C:/temp/Job-4.odb,Step-1,Increment      1: Step Time =    1.000,"P-4-1",          1230,   38.0208E-03,   137.793E-03,            0.,NA,NA,"",   956.695E+03,   1.00324E+06,   1.00324E+06
C:/temp/Job-4.odb,Step-1,Increment      1: Step Time =    1.000,"P-4-1",          1231,   46.8604E-03,   31.2822E-03,            0.,NA,NA,"",   1.04718E+06,   1.05830E+06,   1.05830E+06
C:/temp/Job-4.odb,Step-1,Increment      1: Step Time =    1.000,"P-4-1",          1232,   32.1869E-03,   44.4586E-03,            0.,NA,NA,"",   993.850E+03,   1.03819E+06,   1.03819E+06
C:/temp/Job-4.odb,Step-1,Increment      1: Step Time =    1.000,"P-4-1",          1233,   169.130E-03,   155.748E-03,            0.,NA,NA,"",   1.02206E+06,   1.01722E+06,   1.01722E+06
C:/temp/Job-4.odb,Step-1,Increment      1: Step Time =    1.000,"P-4-1",          1234,   157.271E-03,   167.551E-03,            0.,NA,NA,"",   1.02625E+06,   1.01956E+06,   1.01956E+06
C:/temp/Job-4.odb,Step-1,Increment      1: Step Time =    1.000,"P-4-1",          1235,   57.1601E-03,   164.988E-03,            0.,NA,NA,"",   1.05011E+06,   1.05626E+06,   1.05626E+06
C:/temp/Job-4.odb,Step-1,Increment      1: Step Time =    1.000,"P-4-1",          1236,   64.8205E-03,   159.590E-03,            0.,NA,NA,"",   1.05992E+06,   1.06434E+06,   1.06434E+06
C:/temp/Job-4.odb,Step-1,Increment      1: Step Time =    1.000,"P-4-1",          1237,   164.354E-03,   66.2506E-03,            0.,NA,NA,"",   1.01970E+06,   1.01316E+06,   1.01316E+06
C:/temp/Job-4.odb,Step-1,Increment      1: Step Time =    1.000,"P-4-1",          1238,   167.380E-03,   57.2579E-03,            0.,NA,NA,"",   1.02409E+06,   1.01829E+06,   1.01829E+06
C:/temp/Job-4.odb,Step-1,Increment      1: Step Time =    1.000,"P-4-1",          1239,   132.666E-03,   160.699E-03,            0.,NA,NA,"",   1.05296E+06,   1.04541E+06,   1.04541E+06
C:/temp/Job-4.odb,Step-1,Increment      1: Step Time =    1.000,"P-4-1",          1240,   144.199E-03,   168.120E-03,            0.,NA,NA,"",   1.03365E+06,   1.02605E+06,   1.02605E+06
C:/temp/Job-4.odb,Step-1,Increment      1: Step Time =    1.000,"P-4-1",          1241,   43.5774E-03,   170.028E-03,            0.,NA,NA,"",   1.04414E+06,   1.05812E+06,   1.05812E+06
C:/temp/Job-4.odb,Step-1,Increment      1: Step Time =    1.000,"P-4-1",          1242,   169.444E-03,   44.9305E-03,            0.,NA,NA,"",   1.02190E+06,   1.01714E+06,   1.01714E+06
C:/temp/Job-4.odb,Step-1,Increment      1: Step Time =    1.000,"P-4-1",          1243,   123.769E-03,   111.383E-03,            0.,NA,NA,"",   1.02943E+06,   928.828E+03,   928.828E+03
C:/temp/Job-4.odb,Step-1,Increment      1: Step Time =    1.000,"P-4-1",          1244,   122.685E-03,   144.123E-03,            0.,NA,NA,"",   1.10694E+06,   1.10070E+06,   1.10070E+06
C:/temp/Job-4.odb,Step-1,Increment      1: Step Time =    1.000,"P-4-1",          1245,   116.510E-03,   143.521E-03,            0.,NA,NA,"",   1.09134E+06,   1.10192E+06,   1.10192E+06
C:/temp/Job-4.odb,Step-1,Increment      1: Step Time =    1.000,"P-4-1",          1246,   74.7518E-03,   146.472E-03,            0.,NA,NA,"",   1.09258E+06,   1.09704E+06,   1.09704E+06
C:/temp/Job-4.odb,Step-1,Increment      1: Step Time =    1.000,"P-4-1",          1247,   84.0408E-03,   146.342E-03,            0.,NA,NA,"",   1.07276E+06,   1.09340E+06,   1.09340E+06
C:/temp/Job-4.odb,Step-1,Increment      1: Step Time =    1.000,"P-4-1",          1248,   151.970E-03,   87.9407E-03,            0.,NA,NA,"",   935.445E+03,   936.482E+03,   936.482E+03
C:/temp/Job-4.odb,Step-1,Increment      1: Step Time =    1.000,"P-4-1",          1249,   107.378E-03,   25.2993E-03,            0.,NA,NA,"",   994.423E+03,   1.00291E+06,   1.00291E+06
C:/temp/Job-4.odb,Step-1,Increment      1: Step Time =    1.000,"P-4-1",          1250,   177.747E-03,   111.041E-03,            0.,NA,NA,"",   969.761E+03,   984.646E+03,   984.646E+03
C:/temp/Job-4.odb,Step-1,Increment      1: Step Time =    1.000,"P-4-1",          1251,   145.905E-03,   82.7932E-03,            0.,NA,NA,"",   975.851E+03,   961.541E+03,   961.541E+03
C:/temp/Job-4.odb,Step-1,Increment      1: Step Time =    1.000,"P-4-1",          1252,   94.8625E-03,   141.268E-03,            0.,NA,NA,"",   1.04867E+06,   1.09765E+06,   1.09765E+06
C:/temp/Job-4.odb,Step-1,Increment      1: Step Time =    1.000,"P-4-1",          1253,   185.261E-03,   110.174E-03,            0.,NA,NA,"",   971.116E+03,   991.884E+03,   991.884E+03
C:/temp/Job-4.odb,Step-1,Increment      1: Step Time =    1.000,"P-4-1",          1254,   108.480E-03,   19.3859E-03,            0.,NA,NA,"",   982.818E+03,   987.973E+03,   987.973E+03
C:/temp/Job-4.odb,Step-1,Increment      1: Step Time =    1.000,"P-4-1",          1255,   146.689E-03,   101.942E-03,            0.,NA,NA,"",   862.569E+03,   873.217E+03,   873.217E+03
C:/temp/Job-4.odb,Step-1,Increment      1: Step Time =    1.000,"P-4-1",          1256,   46.4295E-03,   39.1907E-03,            0.,NA,NA,"",   1.04156E+06,   1.05874E+06,   1.05874E+06
C:/temp/Job-4.odb,Step-1,Increment      1: Step Time =    1.000,"P-4-1",          1257,   37.7271E-03,   44.7963E-03,            0.,NA,NA,"",   1.00960E+06,   1.04409E+06,   1.04409E+06
C:/temp/Job-4.odb,Step-1,Increment      1: Step Time =    1.000,"P-4-1",          1258,   36.4676E-03,   153.093E-03,            0.,NA,NA,"",   1.00133E+06,   1.03948E+06,   1.03948E+06
C:/temp/Job-4.odb,Step-1,Increment      1: Step Time =    1.000,"P-4-1",          1259,   154.942E-03,   36.8016E-03,            0.,NA,NA,"",   1.03535E+06,   1.02648E+06,   1.02648E+06
C:/temp/Job-4.odb,Step-1,Increment      1: Step Time =    1.000,"P-4-1",          1260,   165.029E-03,   46.5934E-03,            0.,NA,NA,"",   1.02978E+06,   1.02240E+06,   1.02240E+06
C:/temp/Job-4.odb,Step-1,Increment      1: Step Time =    1.000,"P-4-1",          1261,   45.6966E-03,   162.596E-03,            0.,NA,NA,"",   1.04157E+06,   1.05829E+06,   1.05829E+06
C:/temp/Job-4.odb,Step-1,Increment      1: Step Time =    1.000,"P-4-1",          1262,   164.114E-03,   156.569E-03,            0.,NA,NA,"",   1.02940E+06,   1.02211E+06,   1.02211E+06
C:/temp/Job-4.odb,Step-1,Increment      1: Step Time =    1.000,"P-4-1",          1263,   156.184E-03,   163.547E-03,            0.,NA,NA,"",   1.03289E+06,   1.02455E+06,   1.02455E+06
C:/temp/Job-4.odb,Step-1,Increment      1: Step Time =    1.000,"P-4-1",          1264,   126.895E-03,   124.076E-03,            0.,NA,NA,"",   1.18328E+06,   1.12014E+06,   1.12014E+06
C:/temp/Job-4.odb,Step-1,Increment      1: Step Time =    1.000,"P-4-1",          1265,   141.009E-03,   114.291E-03,            0.,NA,NA,"",   953.122E+03,   935.586E+03,   935.586E+03
C:/temp/Job-4.odb,Step-1,Increment      1: Step Time =    1.000,"P-4-1",          1266,   58.8725E-03,   72.2915E-03,            0.,NA,NA,"",   1.02363E+06,   1.02875E+06,   1.02875E+06
C:/temp/Job-4.odb,Step-1,Increment      1: Step Time =    1.000,"P-4-1",          1267,   26.7550E-03,   174.290E-03,            0.,NA,NA,"",   1.04507E+06,   1.07990E+06,   1.07990E+06
C:/temp/Job-4.odb,Step-1,Increment      1: Step Time =    1.000,"P-4-1",          1268,   28.6981E-03,   124.416E-03,            0.,NA,NA,"",   871.396E+03,   942.813E+03,   942.813E+03
C:/temp/Job-4.odb,Step-1,Increment      1: Step Time =    1.000,"P-4-1",          1269,   73.0258E-03,   31.6099E-03,            0.,NA,NA,"",   1.03452E+06,   1.03969E+06,   1.03969E+06
C:/temp/Job-4.odb,Step-1,Increment      1: Step Time =    1.000,"P-4-1",          1270,   27.9811E-03,   73.1302E-03,            0.,NA,NA,"",   877.028E+03,   948.442E+03,   948.442E+03
C:/temp/Job-4.odb,Step-1,Increment      1: Step Time =    1.000,"P-4-1",          1271,   124.666E-03,   170.621E-03,            0.,NA,NA,"",   1.01949E+06,   1.02005E+06,   1.02005E+06
C:/temp/Job-4.odb,Step-1,Increment      1: Step Time =    1.000,"P-4-1",          1272,   169.602E-03,   74.4024E-03,            0.,NA,NA,"",   995.338E+03,   997.282E+03,   997.282E+03
C:/temp/Job-4.odb,Step-1,Increment      1: Step Time =    1.000,"P-4-1",          1273,   74.9510E-03,   170.450E-03,            0.,NA,NA,"",   1.02729E+06,   1.03258E+06,   1.03258E+06
C:/temp/Job-4.odb,Step-1,Increment      1: Step Time =    1.000,"P-4-1",          1274,   153.597E-03,   95.1311E-03,            0.,NA,NA,"",   907.601E+03,   916.591E+03,   916.591E+03
C:/temp/Job-4.odb,Step-1,Increment      1: Step Time =    1.000,"P-4-1",          1275,   22.1826E-03,   174.402E-03,            0.,NA,NA,"",   1.04011E+06,   1.08449E+06,   1.08449E+06
C:/temp/Job-4.odb,Step-1,Increment      1: Step Time =    1.000,"P-4-1",          1276,   19.6311E-03,   73.7082E-03,            0.,NA,NA,"",   849.804E+03,   933.463E+03,   933.463E+03
C:/temp/Job-4.odb,Step-1,Increment      1: Step Time =    1.000,"P-4-1",          1277,   26.5479E-03,   18.6418E-03,            0.,NA,NA,"",   1.07088E+06,   1.09309E+06,   1.09309E+06
C:/temp/Job-4.odb,Step-1,Increment      1: Step Time =    1.000,"P-4-1",          1278,   73.5075E-03,   180.656E-03,            0.,NA,NA,"",   1.00229E+06,   1.00471E+06,   1.00471E+06
C:/temp/Job-4.odb,Step-1,Increment      1: Step Time =    1.000,"P-4-1",          1279,   132.633E-03,   116.649E-03,            0.,NA,NA,"",   1.03125E+06,   982.065E+03,   982.065E+03
C:/temp/Job-4.odb,Step-1,Increment      1: Step Time =    1.000,"P-4-1",          1280,   69.4398E-03,   74.2151E-03,            0.,NA,NA,"",   1.11003E+06,   1.08495E+06,   1.08495E+06
C:/temp/Job-4.odb,Step-1,Increment      1: Step Time =    1.000,"P-4-1",          1281,   138.294E-03,   78.0618E-03,            0.,NA,NA,"",   1.05845E+06,   1.01960E+06,   1.01960E+06
C:/temp/Job-4.odb,Step-1,Increment      1: Step Time =    1.000,"P-4-1",          1282,   65.2357E-03,   111.544E-03,            0.,NA,NA,"",   867.219E+03,   877.288E+03,   877.288E+03
C:/temp/Job-4.odb,Step-1,Increment      1: Step Time =    1.000,"P-4-1",          1283,   68.1588E-03,   115.047E-03,            0.,NA,NA,"",   961.806E+03,   947.995E+03,   947.995E+03
C:/temp/Job-4.odb,Step-1,Increment      1: Step Time =    1.000,"P-4-1",          1284,   171.589E-03,   132.821E-03,            0.,NA,NA,"",   1.00605E+06,   1.00636E+06,   1.00636E+06
C:/temp/Job-4.odb,Step-1,Increment      1: Step Time =    1.000,"P-4-1",          1285,   131.071E-03,   28.2985E-03,            0.,NA,NA,"",   1.02212E+06,   1.01953E+06,   1.01953E+06
C:/temp/Job-4.odb,Step-1,Increment      1: Step Time =    1.000,"P-4-1",          1286,   84.9891E-03,   64.2907E-03,            0.,NA,NA,"",   1.13046E+06,   1.15038E+06,   1.15038E+06
C:/temp/Job-4.odb,Step-1,Increment      1: Step Time =    1.000,"P-4-1",          1287,   94.8406E-03,   63.0618E-03,            0.,NA,NA,"",   1.06269E+06,   1.12098E+06,   1.12098E+06
C:/temp/Job-4.odb,Step-1,Increment      1: Step Time =    1.000,"P-4-1",          1288,   152.067E-03,   165.153E-03,            0.,NA,NA,"",   1.03483E+06,   1.02618E+06,   1.02618E+06
C:/temp/Job-4.odb,Step-1,Increment      1: Step Time =    1.000,"P-4-1",          1289,   35.1320E-03,   149.939E-03,            0.,NA,NA,"",   988.334E+03,   1.03121E+06,   1.03121E+06
C:/temp/Job-4.odb,Step-1,Increment      1: Step Time =    1.000,"P-4-1",          1290,   49.4216E-03,   34.2213E-03,            0.,NA,NA,"",   1.04753E+06,   1.05829E+06,   1.05829E+06
C:/temp/Job-4.odb,Step-1,Increment      1: Step Time =    1.000,"P-4-1",          1291,   79.7616E-03,   65.9450E-03,            0.,NA,NA,"",   1.15581E+06,   1.15228E+06,   1.15228E+06
C:/temp/Job-4.odb,Step-1,Increment      1: Step Time =    1.000,"P-4-1",          1292,   64.5909E-03,   126.843E-03,            0.,NA,NA,"",   1.06315E+06,   1.05395E+06,   1.05395E+06
C:/temp/Job-4.odb,Step-1,Increment      1: Step Time =    1.000,"P-4-1",          1293,   63.7393E-03,   117.600E-03,            0.,NA,NA,"",   966.439E+03,   966.760E+03,   966.760E+03
C:/temp/Job-4.odb,Step-1,Increment      1: Step Time =    1.000,"P-4-1",          1294,   121.833E-03,   106.103E-03,            0.,NA,NA,"",   706.174E+03,   617.209E+03,   617.209E+03
C:/temp/Job-4.odb,Step-1,Increment      1: Step Time =    1.000,"P-4-1",          1295,   95.9735E-03,   73.0263E-03,            0.,NA,NA,"",   1.13867E+06,   1.22589E+06,   1.22589E+06
C:/temp/Job-4.odb,Step-1,Increment      1: Step Time =    1.000,"P-4-1",          1296,   115.888E-03,   37.4022E-03,            0.,NA,NA,"",   1.02668E+06,   1.03602E+06,   1.03602E+06
C:/temp/Job-4.odb,Step-1,Increment      1: Step Time =    1.000,"P-4-1",          1297,   124.120E-03,   31.6024E-03,            0.,NA,NA,"",   1.02490E+06,   1.02581E+06,   1.02581E+06
C:/temp/Job-4.odb,Step-1,Increment      1: Step Time =    1.000,"P-4-1",          1298,   165.005E-03,   115.455E-03,            0.,NA,NA,"",   967.271E+03,   972.876E+03,   972.876E+03
C:/temp/Job-4.odb,Step-1,Increment      1: Step Time =    1.000,"P-4-1",          1299,   128.265E-03,   129.261E-03,            0.,NA,NA,"",   1.17698E+06,   1.12565E+06,   1.12565E+06
C:/temp/Job-4.odb,Step-1,Increment      1: Step Time =    1.000,"P-4-1",          1300,   12.0129E-03,   182.113E-03,            0.,NA,NA,"",   1.07685E+06,   1.13832E+06,   1.13832E+06
C:/temp/Job-4.odb,Step-1,Increment      1: Step Time =    1.000,"P-4-1",          1301,   18.1379E-03,   16.4426E-03,            0.,NA,NA,"",   1.09447E+06,   1.12939E+06,   1.12939E+06
C:/temp/Job-4.odb,Step-1,Increment      1: Step Time =    1.000,"P-4-1",          1302,   179.314E-03,   88.0361E-03,            0.,NA,NA,"",   971.163E+03,   986.899E+03,   986.899E+03
C:/temp/Job-4.odb,Step-1,Increment      1: Step Time =    1.000,"P-4-1",          1303,   85.1498E-03,   21.0612E-03,            0.,NA,NA,"",   993.879E+03,   999.311E+03,   999.311E+03
C:/temp/Job-4.odb,Step-1,Increment      1: Step Time =    1.000,"P-4-1",          1304,   115.559E-03,   180.152E-03,            0.,NA,NA,"",   989.460E+03,   992.974E+03,   992.974E+03
C:/temp/Job-4.odb,Step-1,Increment      1: Step Time =    1.000,"P-4-1",          1305,   20.6795E-03,   115.346E-03,            0.,NA,NA,"",   825.450E+03,   910.586E+03,   910.586E+03
C:/temp/Job-4.odb,Step-1,Increment      1: Step Time =    1.000,"P-4-1",          1306,   55.8038E-03,   107.348E-03,            0.,NA,NA,"",   804.985E+03,   850.272E+03,   850.272E+03
C:/temp/Job-4.odb,Step-1,Increment      1: Step Time =    1.000,"P-4-1",          1307,   56.5334E-03,   36.8977E-03,            0.,NA,NA,"",   1.05244E+06,   1.05914E+06,   1.05914E+06
C:/temp/Job-4.odb,Step-1,Increment      1: Step Time =    1.000,"P-4-1",          1308,   68.3913E-03,   35.4236E-03,            0.,NA,NA,"",   1.04883E+06,   1.05309E+06,   1.05309E+06
C:/temp/Job-4.odb,Step-1,Increment      1: Step Time =    1.000,"P-4-1",          1309,   35.8892E-03,   143.029E-03,            0.,NA,NA,"",   964.956E+03,   1.01247E+06,   1.01247E+06
C:/temp/Job-4.odb,Step-1,Increment      1: Step Time =    1.000,"P-4-1",          1310,   33.2410E-03,   128.732E-03,            0.,NA,NA,"",   901.857E+03,   963.662E+03,   963.662E+03
C:/temp/Job-4.odb,Step-1,Increment      1: Step Time =    1.000,"P-4-1",          1311,   168.082E-03,   68.8378E-03,            0.,NA,NA,"",   1.00819E+06,   1.00606E+06,   1.00606E+06
C:/temp/Job-4.odb,Step-1,Increment      1: Step Time =    1.000,"P-4-1",          1312,   161.110E-03,   56.6534E-03,            0.,NA,NA,"",   1.03733E+06,   1.02657E+06,   1.02657E+06
C:/temp/Job-4.odb,Step-1,Increment      1: Step Time =    1.000,"P-4-1",          1313,   129.934E-03,   165.827E-03,            0.,NA,NA,"",   1.03675E+06,   1.03330E+06,   1.03330E+06
C:/temp/Job-4.odb,Step-1,Increment      1: Step Time =    1.000,"P-4-1",          1314,   142.979E-03,   163.635E-03,            0.,NA,NA,"",   1.04421E+06,   1.03457E+06,   1.03457E+06
C:/temp/Job-4.odb,Step-1,Increment      1: Step Time =    1.000,"P-4-1",          1315,   74.9562E-03,   150.888E-03,            0.,NA,NA,"",   1.07660E+06,   1.08353E+06,   1.08353E+06
C:/temp/Job-4.odb,Step-1,Increment      1: Step Time =    1.000,"P-4-1",          1316,   88.7512E-03,   146.622E-03,            0.,NA,NA,"",   1.05478E+06,   1.08498E+06,   1.08498E+06
C:/temp/Job-4.odb,Step-1,Increment      1: Step Time =    1.000,"P-4-1",          1317,   132.655E-03,   31.9733E-03,            0.,NA,NA,"",   1.03224E+06,   1.02794E+06,   1.02794E+06
C:/temp/Job-4.odb,Step-1,Increment      1: Step Time =    1.000,"P-4-1",          1318,   166.233E-03,   140.502E-03,            0.,NA,NA,"",   1.02442E+06,   1.01797E+06,   1.01797E+06
C:/temp/Job-4.odb,Step-1,Increment      1: Step Time =    1.000,"P-4-1",          1319,   154.797E-03,   91.8673E-03,            0.,NA,NA,"",   923.622E+03,   930.436E+03,   930.436E+03
C:/temp/Job-4.odb,Step-1,Increment      1: Step Time =    1.000,"P-4-1",          1320,   181.492E-03,   109.606E-03,            0.,NA,NA,"",   969.726E+03,   987.764E+03,   987.764E+03
C:/temp/Job-4.odb,Step-1,Increment      1: Step Time =    1.000,"P-4-1",          1321,   105.094E-03,   21.3596E-03,            0.,NA,NA,"",   985.764E+03,   992.304E+03,   992.304E+03
C:/temp/Job-4.odb,Step-1,Increment      1: Step Time =    1.000,"P-4-1",          1322,   150.596E-03,   100.985E-03,            0.,NA,NA,"",   886.816E+03,   897.197E+03,   897.197E+03
C:/temp/Job-4.odb,Step-1,Increment      1: Step Time =    1.000,"P-4-1",          1323,   170.341E-03,   138.904E-03,            0.,NA,NA,"",   1.01545E+06,   1.01273E+06,   1.01273E+06
C:/temp/Job-4.odb,Step-1,Increment      1: Step Time =    1.000,"P-4-1",          1324,   134.608E-03,   27.5403E-03,            0.,NA,NA,"",   1.02261E+06,   1.01879E+06,   1.01879E+06
C:/temp/Job-4.odb,Step-1,Increment      1: Step Time =    1.000,"P-4-1",          1325,   44.5485E-03,   43.0774E-03,            0.,NA,NA,"",   1.03298E+06,   1.05448E+06,   1.05448E+06
C:/temp/Job-4.odb,Step-1,Increment      1: Step Time =    1.000,"P-4-1",          1326,   42.5860E-03,   44.6458E-03,            0.,NA,NA,"",   1.02401E+06,   1.05000E+06,   1.05000E+06
C:/temp/Job-4.odb,Step-1,Increment      1: Step Time =    1.000,"P-4-1",          1327,   42.0419E-03,   154.588E-03,            0.,NA,NA,"",   1.02146E+06,   1.04897E+06,   1.04897E+06
C:/temp/Job-4.odb,Step-1,Increment      1: Step Time =    1.000,"P-4-1",          1328,   156.919E-03,   41.5863E-03,            0.,NA,NA,"",   1.03938E+06,   1.02926E+06,   1.02926E+06
C:/temp/Job-4.odb,Step-1,Increment      1: Step Time =    1.000,"P-4-1",          1329,   158.103E-03,   46.7063E-03,            0.,NA,NA,"",   1.04174E+06,   1.03069E+06,   1.03069E+06
C:/temp/Job-4.odb,Step-1,Increment      1: Step Time =    1.000,"P-4-1",          1330,   43.9475E-03,   158.402E-03,            0.,NA,NA,"",   1.03335E+06,   1.05523E+06,   1.05523E+06
C:/temp/Job-4.odb,Step-1,Increment      1: Step Time =    1.000,"P-4-1",          1331,   154.837E-03,   159.341E-03,            0.,NA,NA,"",   1.04024E+06,   1.02993E+06,   1.02993E+06
C:/temp/Job-4.odb,Step-1,Increment      1: Step Time =    1.000,"P-4-1",          1332,   159.199E-03,   157.557E-03,            0.,NA,NA,"",   1.03581E+06,   1.02661E+06,   1.02661E+06
C:/temp/Job-4.odb,Step-1,Increment      1: Step Time =    1.000,"P-4-1",          1333,   137.796E-03,   119.517E-03,            0.,NA,NA,"",   1.03483E+06,   998.660E+03,   998.660E+03
C:/temp/Job-4.odb,Step-1,Increment      1: Step Time =    1.000,"P-4-1",          1334,   146.697E-03,   111.457E-03,            0.,NA,NA,"",   920.738E+03,   918.413E+03,   918.413E+03
C:/temp/Job-4.odb,Step-1,Increment      1: Step Time =    1.000,"P-4-1",          1335,   63.6909E-03,   71.1585E-03,            0.,NA,NA,"",   1.06992E+06,   1.06210E+06,   1.06210E+06
C:/temp/Job-4.odb,Step-1,Increment      1: Step Time =    1.000,"P-4-1",          1336,   55.2557E-03,   77.4403E-03,            0.,NA,NA,"",   957.318E+03,   978.114E+03,   978.114E+03
C:/temp/Job-4.odb,Step-1,Increment      1: Step Time =    1.000,"P-4-1",          1337,   33.7112E-03,   124.798E-03,            0.,NA,NA,"",   888.579E+03,   951.379E+03,   951.379E+03
C:/temp/Job-4.odb,Step-1,Increment      1: Step Time =    1.000,"P-4-1",          1338,   24.9541E-03,   121.990E-03,            0.,NA,NA,"",   852.002E+03,   930.231E+03,   930.231E+03
C:/temp/Job-4.odb,Step-1,Increment      1: Step Time =    1.000,"P-4-1",          1339,   78.4803E-03,   25.7744E-03,            0.,NA,NA,"",   1.01353E+06,   1.01853E+06,   1.01853E+06
C:/temp/Job-4.odb,Step-1,Increment      1: Step Time =    1.000,"P-4-1",          1340,   72.3799E-03,   35.4589E-03,            0.,NA,NA,"",   1.04472E+06,   1.05009E+06,   1.05009E+06
C:/temp/Job-4.odb,Step-1,Increment      1: Step Time =    1.000,"P-4-1",          1341,   23.3409E-03,   76.8653E-03,            0.,NA,NA,"",   850.635E+03,   930.492E+03,   930.492E+03
C:/temp/Job-4.odb,Step-1,Increment      1: Step Time =    1.000,"P-4-1",          1342,   34.0698E-03,   72.3284E-03,            0.,NA,NA,"",   899.459E+03,   960.325E+03,   960.325E+03
C:/temp/Job-4.odb,Step-1,Increment      1: Step Time =    1.000,"P-4-1",          1343,   120.677E-03,   177.800E-03,            0.,NA,NA,"",   999.286E+03,   1.00110E+06,   1.00110E+06
C:/temp/Job-4.odb,Step-1,Increment      1: Step Time =    1.000,"P-4-1",          1344,   125.066E-03,   165.697E-03,            0.,NA,NA,"",   1.03301E+06,   1.03317E+06,   1.03317E+06
C:/temp/Job-4.odb,Step-1,Increment      1: Step Time =    1.000,"P-4-1",          1345,   173.961E-03,   76.3948E-03,            0.,NA,NA,"",   988.339E+03,   994.763E+03,   994.763E+03
C:/temp/Job-4.odb,Step-1,Increment      1: Step Time =    1.000,"P-4-1",          1346,   166.114E-03,   74.4608E-03,            0.,NA,NA,"",   998.549E+03,   997.352E+03,   997.352E+03
C:/temp/Job-4.odb,Step-1,Increment      1: Step Time =    1.000,"P-4-1",          1347,   78.9384E-03,   172.482E-03,            0.,NA,NA,"",   1.01668E+06,   1.02260E+06,   1.02260E+06
C:/temp/Job-4.odb,Step-1,Increment      1: Step Time =    1.000,"P-4-1",          1348,   71.2637E-03,   167.576E-03,            0.,NA,NA,"",   1.03823E+06,   1.04313E+06,   1.04313E+06
C:/temp/Job-4.odb,Step-1,Increment      1: Step Time =    1.000,"P-4-1",          1349,   12.0727E-03,   172.524E-03,            0.,NA,NA,"",   995.727E+03,   1.07252E+06,   1.07252E+06
C:/temp/Job-4.odb,Step-1,Increment      1: Step Time =    1.000,"P-4-1",          1350,   23.9169E-03,   178.733E-03,            0.,NA,NA,"",   1.06318E+06,   1.09542E+06,   1.09542E+06
C:/temp/Job-4.odb,Step-1,Increment      1: Step Time =    1.000,"P-4-1",          1351,   15.1817E-03,   70.5987E-03,            0.,NA,NA,"",   844.741E+03,   933.593E+03,   933.593E+03
C:/temp/Job-4.odb,Step-1,Increment      1: Step Time =    1.000,"P-4-1",          1352,   28.3624E-03,   13.4626E-03,            0.,NA,NA,"",   1.07185E+06,   1.08242E+06,   1.08242E+06
C:/temp/Job-4.odb,Step-1,Increment      1: Step Time =    1.000,"P-4-1",          1353,   23.3519E-03,   25.5799E-03,            0.,NA,NA,"",   1.04209E+06,   1.08325E+06,   1.08325E+06
C:/temp/Job-4.odb,Step-1,Increment      1: Step Time =    1.000,"P-4-1",          1354,   70.7623E-03,   186.029E-03,            0.,NA,NA,"",   988.724E+03,   989.732E+03,   989.732E+03
C:/temp/Job-4.odb,Step-1,Increment      1: Step Time =    1.000,"P-4-1",          1355,   75.2960E-03,   75.9504E-03,            0.,NA,NA,"",   1.17927E+06,   1.13549E+06,   1.13549E+06
C:/temp/Job-4.odb,Step-1,Increment      1: Step Time =    1.000,"P-4-1",          1356,   144.567E-03,   76.6842E-03,            0.,NA,NA,"",   1.03452E+06,   1.00879E+06,   1.00879E+06
C:/temp/Job-4.odb,Step-1,Increment      1: Step Time =    1.000,"P-4-1",          1357,   104.130E-03,   27.8436E-03,            0.,NA,NA,"",   997.712E+03,   1.00854E+06,   1.00854E+06
C:/temp/Job-4.odb,Step-1,Increment      1: Step Time =    1.000,"P-4-1",          1358,   169.576E-03,   104.345E-03,            0.,NA,NA,"",   952.937E+03,   965.630E+03,   965.630E+03
C:/temp/Job-4.odb,Step-1,Increment      1: Step Time =    1.000,"P-4-1",          1359,   53.5306E-03,   95.1879E-03,            0.,NA,NA,"",   796.678E+03,   848.141E+03,   848.141E+03
C:/temp/Job-4.odb,Step-1,Increment      1: Step Time =    1.000,"P-4-1",          1360,   37.3851E-03,   52.2477E-03,            0.,NA,NA,"",   989.443E+03,   1.02948E+06,   1.02948E+06
C:/temp/Job-4.odb,Step-1,Increment      1: Step Time =    1.000,"P-4-1",          1361,   123.814E-03,   149.930E-03,            0.,NA,NA,"",   1.08064E+06,   1.07734E+06,   1.07734E+06
C:/temp/Job-4.odb,Step-1,Increment      1: Step Time =    1.000,"P-4-1",          1362,   152.727E-03,   97.5914E-03,            0.,NA,NA,"",   897.808E+03,   908.340E+03,   908.340E+03
C:/temp/Job-4.odb,Step-1,Increment      1: Step Time =    1.000,"P-4-1",          1363,   60.9794E-03,   114.186E-03,            0.,NA,NA,"",   898.778E+03,   916.154E+03,   916.154E+03
C:/temp/Job-4.odb,Step-1,Increment      1: Step Time =    1.000,"P-4-1",          1364,   140.561E-03,   74.3743E-03,            0.,NA,NA,"",   1.07207E+06,   1.03657E+06,   1.03657E+06
C:/temp/Job-4.odb,Step-1,Increment      1: Step Time =    1.000,"P-4-1",          1365,   185.954E-03,   106.895E-03,            0.,NA,NA,"",   969.724E+03,   991.747E+03,   991.747E+03
C:/temp/Job-4.odb,Step-1,Increment      1: Step Time =    1.000,"P-4-1",          1366,   106.915E-03,   15.1704E-03,            0.,NA,NA,"",   972.226E+03,   975.688E+03,   975.688E+03
C:/temp/Job-4.odb,Step-1,Increment      1: Step Time =    1.000,"P-4-1",          1367,   50.0823E-03,   83.9743E-03,            0.,NA,NA,"",   884.235E+03,   926.360E+03,   926.360E+03
C:/temp/Job-4.odb,Step-1,Increment      1: Step Time =    1.000,"P-4-1",          1368,   46.9371E-03,   103.786E-03,            0.,NA,NA,"",   810.952E+03,   869.782E+03,   869.782E+03
C:/temp/Job-4.odb,Step-1,Increment      1: Step Time =    1.000,"P-4-1",          1369,   99.4384E-03,   144.357E-03,            0.,NA,NA,"",   1.03153E+06,   1.07872E+06,   1.07872E+06
C:/temp/Job-4.odb,Step-1,Increment      1: Step Time =    1.000,"P-4-1",          1370,   130.535E-03,   74.4502E-03,            0.,NA,NA,"",   1.15463E+06,   1.09847E+06,   1.09847E+06
C:/temp/Job-4.odb,Step-1,Increment      1: Step Time =    1.000,"P-4-1",          1371,   153.484E-03,   82.4803E-03,            0.,NA,NA,"",   973.171E+03,   967.750E+03,   967.750E+03
C:/temp/Job-4.odb,Step-1,Increment      1: Step Time =    1.000,"P-4-1",          1372,   179.622E-03,   85.3717E-03,            0.,NA,NA,"",   974.017E+03,   988.879E+03,   988.879E+03
C:/temp/Job-4.odb,Step-1,Increment      1: Step Time =    1.000,"P-4-1",          1373,   118.572E-03,   179.116E-03,            0.,NA,NA,"",   994.668E+03,   997.111E+03,   997.111E+03
C:/temp/Job-4.odb,Step-1,Increment      1: Step Time =    1.000,"P-4-1",          1374,   81.7054E-03,   23.2794E-03,            0.,NA,NA,"",   1.00286E+06,   1.00814E+06,   1.00814E+06
C:/temp/Job-4.odb,Step-1,Increment      1: Step Time =    1.000,"P-4-1",          1375,   22.4491E-03,   118.882E-03,            0.,NA,NA,"",   837.303E+03,   919.716E+03,   919.716E+03
C:/temp/Job-4.odb,Step-1,Increment      1: Step Time =    1.000,"P-4-1",          1376,   45.5056E-03,   45.5042E-03,            0.,NA,NA,"",   1.03038E+06,   1.05253E+06,   1.05253E+06
C:/temp/Job-4.odb,Step-1,Increment      1: Step Time =    1.000,"P-4-1",          1377,   126.485E-03,   146.179E-03,            0.,NA,NA,"",   1.10082E+06,   1.08970E+06,   1.08970E+06
C:/temp/Job-4.odb,Step-1,Increment      1: Step Time =    1.000,"P-4-1",          1378,   122.514E-03,   153.311E-03,            0.,NA,NA,"",   1.06583E+06,   1.06631E+06,   1.06631E+06
C:/temp/Job-4.odb,Step-1,Increment      1: Step Time =    1.000,"P-4-1",          1379,   74.9301E-03,   154.867E-03,            0.,NA,NA,"",   1.06560E+06,   1.07333E+06,   1.07333E+06
C:/temp/Job-4.odb,Step-1,Increment      1: Step Time =    1.000,"P-4-1",          1380,   53.5660E-03,   164.760E-03,            0.,NA,NA,"",   1.04919E+06,   1.05746E+06,   1.05746E+06
C:/temp/Job-4.odb,Step-1,Increment      1: Step Time =    1.000,"P-4-1",          1381,   164.458E-03,   53.6599E-03,            0.,NA,NA,"",   1.03157E+06,   1.02328E+06,   1.02328E+06
C:/temp/Job-4.odb,Step-1,Increment      1: Step Time =    1.000,"P-4-1",          1382,   53.6058E-03,   35.1629E-03,            0.,NA,NA,"",   1.04979E+06,   1.05787E+06,   1.05787E+06
C:/temp/Job-4.odb,Step-1,Increment      1: Step Time =    1.000,"P-4-1",          1383,   33.7580E-03,   147.442E-03,            0.,NA,NA,"",   972.843E+03,   1.02117E+06,   1.02117E+06
C:/temp/Job-4.odb,Step-1,Increment      1: Step Time =    1.000,"P-4-1",          1384,   55.3738E-03,   43.2423E-03,            0.,NA,NA,"",   1.05480E+06,   1.06392E+06,   1.06392E+06
C:/temp/Job-4.odb,Step-1,Increment      1: Step Time =    1.000,"P-4-1",          1385,   43.3053E-03,   52.9306E-03,            0.,NA,NA,"",   1.00960E+06,   1.03920E+06,   1.03920E+06
C:/temp/Job-4.odb,Step-1,Increment      1: Step Time =    1.000,"P-4-1",          1386,   39.7115E-03,   146.328E-03,            0.,NA,NA,"",   992.984E+03,   1.03037E+06,   1.03037E+06
C:/temp/Job-4.odb,Step-1,Increment      1: Step Time =    1.000,"P-4-1",          1387,   155.100E-03,   56.7246E-03,            0.,NA,NA,"",   1.05214E+06,   1.03653E+06,   1.03653E+06
C:/temp/Job-4.odb,Step-1,Increment      1: Step Time =    1.000,"P-4-1",          1388,   141.196E-03,   159.029E-03,            0.,NA,NA,"",   1.05561E+06,   1.04381E+06,   1.04381E+06
C:/temp/Job-4.odb,Step-1,Increment      1: Step Time =    1.000,"P-4-1",          1389,   72.7326E-03,   66.5266E-03,            0.,NA,NA,"",   1.13746E+06,   1.12284E+06,   1.12284E+06
C:/temp/Job-4.odb,Step-1,Increment      1: Step Time =    1.000,"P-4-1",          1390,   62.8299E-03,   131.986E-03,            0.,NA,NA,"",   1.07000E+06,   1.06611E+06,   1.06611E+06
C:/temp/Job-4.odb,Step-1,Increment      1: Step Time =    1.000,"P-4-1",          1391,   122.101E-03,   121.680E-03,            0.,NA,NA,"",   1.23808E+06,   1.16133E+06,   1.16133E+06
C:/temp/Job-4.odb,Step-1,Increment      1: Step Time =    1.000,"P-4-1",          1392,   119.268E-03,   103.714E-03,            0.,NA,NA,"",   521.266E+03,   256.924E+03,   256.924E+03
C:/temp/Job-4.odb,Step-1,Increment      1: Step Time =    1.000,"P-4-1",          1393,   142.780E-03,   70.4663E-03,            0.,NA,NA,"",   1.07790E+06,   1.04611E+06,   1.04611E+06
C:/temp/Job-4.odb,Step-1,Increment      1: Step Time =    1.000,"P-4-1",          1394,   54.0020E-03,   113.234E-03,            0.,NA,NA,"",   867.484E+03,   905.351E+03,   905.351E+03
C:/temp/Job-4.odb,Step-1,Increment      1: Step Time =    1.000,"P-4-1",          1395,   131.871E-03,   36.7322E-03,            0.,NA,NA,"",   1.04542E+06,   1.03983E+06,   1.03983E+06
C:/temp/Job-4.odb,Step-1,Increment      1: Step Time =    1.000,"P-4-1",          1396,   164.580E-03,   131.624E-03,            0.,NA,NA,"",   1.01593E+06,   1.01021E+06,   1.01021E+06
C:/temp/Job-4.odb,Step-1,Increment      1: Step Time =    1.000,"P-4-1",          1397,   156.348E-03,   87.6398E-03,            0.,NA,NA,"",   945.503E+03,   948.580E+03,   948.580E+03
C:/temp/Job-4.odb,Step-1,Increment      1: Step Time =    1.000,"P-4-1",          1398,   105.580E-03,   10.3742E-03,            0.,NA,NA,"",   958.576E+03,   960.402E+03,   960.402E+03
C:/temp/Job-4.odb,Step-1,Increment      1: Step Time =    1.000,"P-4-1",          1399,   190.664E-03,   103.521E-03,            0.,NA,NA,"",   968.449E+03,   995.720E+03,   995.720E+03
C:/temp/Job-4.odb,Step-1,Increment      1: Step Time =    1.000,"P-4-1",          1400,   134.822E-03,   124.731E-03,            0.,NA,NA,"",   1.10611E+06,   1.05939E+06,   1.05939E+06
C:/temp/Job-4.odb,Step-1,Increment      1: Step Time =    1.000,"P-4-1",          1401,   144.171E-03,   107.176E-03,            0.,NA,NA,"",   871.554E+03,   875.854E+03,   875.854E+03
C:/temp/Job-4.odb,Step-1,Increment      1: Step Time =    1.000,"P-4-1",          1402,   56.5386E-03,   80.7775E-03,            0.,NA,NA,"",   931.341E+03,   953.574E+03,   953.574E+03
C:/temp/Job-4.odb,Step-1,Increment      1: Step Time =    1.000,"P-4-1",          1403,   18.9143E-03,   126.337E-03,            0.,NA,NA,"",   848.702E+03,   933.310E+03,   933.310E+03
C:/temp/Job-4.odb,Step-1,Increment      1: Step Time =    1.000,"P-4-1",          1404,   34.6399E-03,   120.493E-03,            0.,NA,NA,"",   871.045E+03,   935.992E+03,   935.992E+03
C:/temp/Job-4.odb,Step-1,Increment      1: Step Time =    1.000,"P-4-1",          1405,   75.6152E-03,   32.7219E-03,            0.,NA,NA,"",   1.03336E+06,   1.03977E+06,   1.03977E+06
C:/temp/Job-4.odb,Step-1,Increment      1: Step Time =    1.000,"P-4-1",          1406,   33.8276E-03,   68.0662E-03,            0.,NA,NA,"",   916.344E+03,   974.794E+03,   974.794E+03
C:/temp/Job-4.odb,Step-1,Increment      1: Step Time =    1.000,"P-4-1",          1407,   76.3802E-03,   22.9334E-03,            0.,NA,NA,"",   1.00905E+06,   1.01254E+06,   1.01254E+06
C:/temp/Job-4.odb,Step-1,Increment      1: Step Time =    1.000,"P-4-1",          1408,   120.633E-03,   165.243E-03,            0.,NA,NA,"",   1.02837E+06,   1.03233E+06,   1.03233E+06
C:/temp/Job-4.odb,Step-1,Increment      1: Step Time =    1.000,"P-4-1",          1409,   125.449E-03,   180.098E-03,            0.,NA,NA,"",   998.073E+03,   998.337E+03,   998.337E+03
C:/temp/Job-4.odb,Step-1,Increment      1: Step Time =    1.000,"P-4-1",          1410,   68.0410E-03,   163.788E-03,            0.,NA,NA,"",   1.04996E+06,   1.05447E+06,   1.05447E+06
C:/temp/Job-4.odb,Step-1,Increment      1: Step Time =    1.000,"P-4-1",          1411,   179.212E-03,   75.0755E-03,            0.,NA,NA,"",   987.532E+03,   997.192E+03,   997.192E+03
C:/temp/Job-4.odb,Step-1,Increment      1: Step Time =    1.000,"P-4-1",          1412,   164.147E-03,   79.5099E-03,            0.,NA,NA,"",   983.256E+03,   984.533E+03,   984.533E+03
C:/temp/Job-4.odb,Step-1,Increment      1: Step Time =    1.000,"P-4-1",          1413,   13.2605E-03,   177.438E-03,            0.,NA,NA,"",   1.03471E+06,   1.09987E+06,   1.09987E+06
C:/temp/Job-4.odb,Step-1,Increment      1: Step Time =    1.000,"P-4-1",          1414,   16.1363E-03,   77.1641E-03,            0.,NA,NA,"",   830.519E+03,   919.549E+03,   919.549E+03
C:/temp/Job-4.odb,Step-1,Increment      1: Step Time =    1.000,"P-4-1",          1415,   22.3697E-03,   14.3079E-03,            0.,NA,NA,"",   1.09391E+06,   1.11335E+06,   1.11335E+06
C:/temp/Job-4.odb,Step-1,Increment      1: Step Time =    1.000,"P-4-1",          1416,   76.4397E-03,   180.226E-03,            0.,NA,NA,"",   1.00050E+06,   1.00342E+06,   1.00342E+06
C:/temp/Job-4.odb,Step-1,Increment      1: Step Time =    1.000,"P-4-1",          1417,   72.6576E-03,   72.4116E-03,            0.,NA,NA,"",   1.15021E+06,   1.12124E+06,   1.12124E+06
C:/temp/Job-4.odb,Step-1,Increment      1: Step Time =    1.000,"P-4-1",          1418,   106.522E-03,   32.1145E-03,            0.,NA,NA,"",   1.00569E+06,   1.01884E+06,   1.01884E+06
C:/temp/Job-4.odb,Step-1,Increment      1: Step Time =    1.000,"P-4-1",          1419,   101.708E-03,   23.7113E-03,            0.,NA,NA,"",   990.125E+03,   998.409E+03,   998.409E+03
C:/temp/Job-4.odb,Step-1,Increment      1: Step Time =    1.000,"P-4-1",          1420,   168.383E-03,   109.233E-03,            0.,NA,NA,"",   957.212E+03,   967.779E+03,   967.779E+03
C:/temp/Job-4.odb,Step-1,Increment      1: Step Time =    1.000,"P-4-1",          1421,   173.300E-03,   103.161E-03,            0.,NA,NA,"",   958.565E+03,   972.963E+03,   972.963E+03
C:/temp/Job-4.odb,Step-1,Increment      1: Step Time =    1.000,"P-4-1",          1422,   156.491E-03,   96.7054E-03,            0.,NA,NA,"",   916.856E+03,   926.626E+03,   926.626E+03
C:/temp/Job-4.odb,Step-1,Increment      1: Step Time =    1.000,"P-4-1",          1423,   136.485E-03,   72.3698E-03,            0.,NA,NA,"",   1.11058E+06,   1.06740E+06,   1.06740E+06
C:/temp/Job-4.odb,Step-1,Increment      1: Step Time =    1.000,"P-4-1",          1424,   181.539E-03,   106.345E-03,            0.,NA,NA,"",   967.874E+03,   986.617E+03,   986.617E+03
C:/temp/Job-4.odb,Step-1,Increment      1: Step Time =    1.000,"P-4-1",          1425,   102.860E-03,   16.8868E-03,            0.,NA,NA,"",   975.287E+03,   979.740E+03,   979.740E+03
C:/temp/Job-4.odb,Step-1,Increment      1: Step Time =    1.000,"P-4-1",          1426,   62.2066E-03,   123.517E-03,            0.,NA,NA,"",   1.02000E+06,   1.01876E+06,   1.01876E+06
C:/temp/Job-4.odb,Step-1,Increment      1: Step Time =    1.000,"P-4-1",          1427,   46.3851E-03,   89.0398E-03,            0.,NA,NA,"",   843.535E+03,   898.017E+03,   898.017E+03
C:/temp/Job-4.odb,Step-1,Increment      1: Step Time =    1.000,"P-4-1",          1428,   44.8352E-03,   99.1280E-03,            0.,NA,NA,"",   810.600E+03,   872.552E+03,   872.552E+03
C:/temp/Job-4.odb,Step-1,Increment      1: Step Time =    1.000,"P-4-1",          1429,   93.4821E-03,   147.400E-03,            0.,NA,NA,"",   1.03717E+06,   1.07410E+06,   1.07410E+06
C:/temp/Job-4.odb,Step-1,Increment      1: Step Time =    1.000,"P-4-1",          1430,   102.350E-03,   140.626E-03,            0.,NA,NA,"",   1.03976E+06,   1.09415E+06,   1.09415E+06
C:/temp/Job-4.odb,Step-1,Increment      1: Step Time =    1.000,"P-4-1",          1431,   124.947E-03,   76.9541E-03,            0.,NA,NA,"",   1.21136E+06,   1.14133E+06,   1.14133E+06
C:/temp/Job-4.odb,Step-1,Increment      1: Step Time =    1.000,"P-4-1",          1432,   151.160E-03,   75.5086E-03,            0.,NA,NA,"",   1.01867E+06,   1.00266E+06,   1.00266E+06
C:/temp/Job-4.odb,Step-1,Increment      1: Step Time =    1.000,"P-4-1",          1433,   77.3054E-03,   166.297E-03,            0.,NA,NA,"",   1.03318E+06,   1.04074E+06,   1.04074E+06
C:/temp/Job-4.odb,Step-1,Increment      1: Step Time =    1.000,"P-4-1",          1434,   35.3156E-03,   76.5208E-03,            0.,NA,NA,"",   885.302E+03,   947.138E+03,   947.138E+03
C:/temp/Job-4.odb,Step-1,Increment      1: Step Time =    1.000,"P-4-1",          1435,   52.9087E-03,   68.9952E-03,            0.,NA,NA,"",   1.00118E+06,   1.01999E+06,   1.01999E+06
C:/temp/Job-4.odb,Step-1,Increment      1: Step Time =    1.000,"P-4-1",          1436,   145.673E-03,   118.461E-03,            0.,NA,NA,"",   993.418E+03,   975.807E+03,   975.807E+03
C:/temp/Job-4.odb,Step-1,Increment      1: Step Time =    1.000,"P-4-1",          1437,   56.4909E-03,   116.845E-03,            0.,NA,NA,"",   914.058E+03,   939.068E+03,   939.068E+03
C:/temp/Job-4.odb,Step-1,Increment      1: Step Time =    1.000,"P-4-1",          1438,   62.0965E-03,   66.9024E-03,            0.,NA,NA,"",   1.07088E+06,   1.06827E+06,   1.06827E+06
C:/temp/Job-4.odb,Step-1,Increment      1: Step Time =    1.000,"P-4-1",          1439,   83.0040E-03,   173.891E-03,            0.,NA,NA,"",   1.00795E+06,   1.01483E+06,   1.01483E+06
C:/temp/Job-4.odb,Step-1,Increment      1: Step Time =    1.000,"P-4-1",          1440,   83.5381E-03,   58.5272E-03,            0.,NA,NA,"",   1.09741E+06,   1.11557E+06,   1.11557E+06
C:/temp/Job-4.odb,Step-1,Increment      1: Step Time =    1.000,"P-4-1",          1441,   122.720E-03,   37.7242E-03,            0.,NA,NA,"",   1.03970E+06,   1.04162E+06,   1.04162E+06
C:/temp/Job-4.odb,Step-1,Increment      1: Step Time =    1.000,"P-4-1",          1442,   161.852E-03,   122.946E-03,            0.,NA,NA,"",   994.446E+03,   991.490E+03,   991.490E+03
C:/temp/Job-4.odb,Step-1,Increment      1: Step Time =    1.000,"P-4-1",          1443,   73.1276E-03,   60.4870E-03,            0.,NA,NA,"",   1.11992E+06,   1.11490E+06,   1.11490E+06
C:/temp/Job-4.odb,Step-1,Increment      1: Step Time =    1.000,"P-4-1",          1444,   46.8824E-03,   108.358E-03,            0.,NA,NA,"",   829.171E+03,   885.167E+03,   885.167E+03
C:/temp/Job-4.odb,Step-1,Increment      1: Step Time =    1.000,"P-4-1",          1445,   44.6444E-03,   80.0327E-03,            0.,NA,NA,"",   896.695E+03,   944.448E+03,   944.448E+03
C:/temp/Job-4.odb,Step-1,Increment      1: Step Time =    1.000,"P-4-1",          1446,   138.454E-03,   32.2251E-03,            0.,NA,NA,"",   1.03443E+06,   1.02800E+06,   1.02800E+06
C:/temp/Job-4.odb,Step-1,Increment      1: Step Time =    1.000,"P-4-1",          1447,   162.198E-03,   141.739E-03,            0.,NA,NA,"",   1.03403E+06,   1.02404E+06,   1.02404E+06
C:/temp/Job-4.odb,Step-1,Increment      1: Step Time =    1.000,"P-4-1",          1448,   135.026E-03,   130.434E-03,            0.,NA,NA,"",   1.12390E+06,   1.08268E+06,   1.08268E+06
C:/temp/Job-4.odb,Step-1,Increment      1: Step Time =    1.000,"P-4-1",          1449,   155.734E-03,   106.577E-03,            0.,NA,NA,"",   918.764E+03,   927.327E+03,   927.327E+03
C:/temp/Job-4.odb,Step-1,Increment      1: Step Time =    1.000,"P-4-1",          1450,   145.058E-03,   66.2293E-03,            0.,NA,NA,"",   1.07783E+06,   1.05009E+06,   1.05009E+06
C:/temp/Job-4.odb,Step-1,Increment      1: Step Time =    1.000,"P-4-1",          1451,   47.8731E-03,   166.905E-03,            0.,NA,NA,"",   1.04565E+06,   1.05742E+06,   1.05742E+06
C:/temp/Job-4.odb,Step-1,Increment      1: Step Time =    1.000,"P-4-1",          1452,   35.1333E-03,   47.5980E-03,            0.,NA,NA,"",   994.773E+03,   1.03558E+06,   1.03558E+06
C:/temp/Job-4.odb,Step-1,Increment      1: Step Time =    1.000,"P-4-1",          1453,   126.350E-03,   35.2726E-03,            0.,NA,NA,"",   1.03735E+06,   1.03602E+06,   1.03602E+06
C:/temp/Job-4.odb,Step-1,Increment      1: Step Time =    1.000,"P-4-1",          1454,   161.793E-03,   126.474E-03,            0.,NA,NA,"",   1.00667E+06,   1.00102E+06,   1.00102E+06
C:/temp/Job-4.odb,Step-1,Increment      1: Step Time =    1.000,"P-4-1",          1455,   124.962E-03,   40.7790E-03,            0.,NA,NA,"",   1.05188E+06,   1.05062E+06,   1.05062E+06
C:/temp/Job-4.odb,Step-1,Increment      1: Step Time =    1.000,"P-4-1",          1456,   157.673E-03,   125.639E-03,            0.,NA,NA,"",   1.01102E+06,   1.00190E+06,   1.00190E+06
C:/temp/Job-4.odb,Step-1,Increment      1: Step Time =    1.000,"P-4-1",          1457,   13.8253E-03,   74.4764E-03,            0.,NA,NA,"",   830.684E+03,   921.853E+03,   921.853E+03
C:/temp/Job-4.odb,Step-1,Increment      1: Step Time =    1.000,"P-4-1",          1458,   74.6871E-03,   185.121E-03,            0.,NA,NA,"",   986.987E+03,   988.373E+03,   988.373E+03
C:/temp/Job-4.odb,Step-1,Increment      1: Step Time =    1.000,"P-4-1",          1459,   15.6962E-03,   83.3770E-03,            0.,NA,NA,"",   815.799E+03,   906.364E+03,   906.364E+03
C:/temp/Job-4.odb,Step-1,Increment      1: Step Time =    1.000,"P-4-1",          1460,   84.4389E-03,   184.360E-03,            0.,NA,NA,"",   979.332E+03,   982.153E+03,   982.153E+03
C:/temp/Job-4.odb,Step-1,Increment      1: Step Time =    1.000,"P-4-1",          1461,   37.5498E-03,   125.579E-03,            0.,NA,NA,"",   902.204E+03,   958.525E+03,   958.525E+03
C:/temp/Job-4.odb,Step-1,Increment      1: Step Time =    1.000,"P-4-1",          1462,   125.028E-03,   161.368E-03,            0.,NA,NA,"",   1.04391E+06,   1.04350E+06,   1.04350E+06
C:/temp/Job-4.odb,Step-1,Increment      1: Step Time =    1.000,"P-4-1",          1463,   76.0265E-03,   35.5718E-03,            0.,NA,NA,"",   1.03925E+06,   1.04652E+06,   1.04652E+06
C:/temp/Job-4.odb,Step-1,Increment      1: Step Time =    1.000,"P-4-1",          1464,   163.100E-03,   74.7958E-03,            0.,NA,NA,"",   999.394E+03,   996.204E+03,   996.204E+03
C:/temp/Job-4.odb,Step-1,Increment      1: Step Time =    1.000,"P-4-1",          1465,   74.1825E-03,   163.824E-03,            0.,NA,NA,"",   1.04324E+06,   1.05000E+06,   1.05000E+06
C:/temp/Job-4.odb,Step-1,Increment      1: Step Time =    1.000,"P-4-1",          1466,   150.752E-03,   115.248E-03,            0.,NA,NA,"",   959.319E+03,   953.957E+03,   953.957E+03
C:/temp/Job-4.odb,Step-1,Increment      1: Step Time =    1.000,"P-4-1",          1467,   49.2888E-03,   74.6976E-03,            0.,NA,NA,"",   947.527E+03,   980.155E+03,   980.155E+03
C:/temp/Job-4.odb,Step-1,Increment      1: Step Time =    1.000,"P-4-1",          1468,   116.478E-03,   164.321E-03,            0.,NA,NA,"",   1.02400E+06,   1.03193E+06,   1.03193E+06
C:/temp/Job-4.odb,Step-1,Increment      1: Step Time =    1.000,"P-4-1",          1469,   33.1850E-03,   116.930E-03,            0.,NA,NA,"",   855.076E+03,   924.184E+03,   924.184E+03
C:/temp/Job-4.odb,Step-1,Increment      1: Step Time =    1.000,"P-4-1",          1470,   162.365E-03,   82.2716E-03,            0.,NA,NA,"",   974.449E+03,   976.426E+03,   976.426E+03
C:/temp/Job-4.odb,Step-1,Increment      1: Step Time =    1.000,"P-4-1",          1471,   84.3461E-03,   165.931E-03,            0.,NA,NA,"",   1.02368E+06,   1.03513E+06,   1.03513E+06
C:/temp/Job-4.odb,Step-1,Increment      1: Step Time =    1.000,"P-4-1",          1472,   79.4036E-03,   34.6419E-03,            0.,NA,NA,"",   1.03227E+06,   1.04104E+06,   1.04104E+06
C:/temp/Job-4.odb,Step-1,Increment      1: Step Time =    1.000,"P-4-1",          1473,   32.8923E-03,   82.9351E-03,            0.,NA,NA,"",   854.259E+03,   923.587E+03,   923.587E+03
C:/temp/Job-4.odb,Step-1,Increment      1: Step Time =    1.000,"P-4-1",          1474,   146.695E-03,   124.945E-03,            0.,NA,NA,"",   1.03634E+06,   1.01359E+06,   1.01359E+06
C:/temp/Job-4.odb,Step-1,Increment      1: Step Time =    1.000,"P-4-1",          1475,   175.182E-03,   87.7561E-03,            0.,NA,NA,"",   968.788E+03,   981.767E+03,   981.767E+03
C:/temp/Job-4.odb,Step-1,Increment      1: Step Time =    1.000,"P-4-1",          1476,   115.300E-03,   176.420E-03,            0.,NA,NA,"",   997.123E+03,   1.00178E+06,   1.00178E+06
C:/temp/Job-4.odb,Step-1,Increment      1: Step Time =    1.000,"P-4-1",          1477,   86.8904E-03,   25.0651E-03,            0.,NA,NA,"",   1.00090E+06,   1.00865E+06,   1.00865E+06
C:/temp/Job-4.odb,Step-1,Increment      1: Step Time =    1.000,"P-4-1",          1478,   24.7756E-03,   114.152E-03,            0.,NA,NA,"",   831.224E+03,   911.920E+03,   911.920E+03
C:/temp/Job-4.odb,Step-1,Increment      1: Step Time =    1.000,"P-4-1",          1479,   46.8398E-03,   42.0684E-03,            0.,NA,NA,"",   1.03968E+06,   1.05780E+06,   1.05780E+06
C:/temp/Job-4.odb,Step-1,Increment      1: Step Time =    1.000,"P-4-1",          1480,   45.7747E-03,   152.091E-03,            0.,NA,NA,"",   1.02830E+06,   1.05098E+06,   1.05098E+06
C:/temp/Job-4.odb,Step-1,Increment      1: Step Time =    1.000,"P-4-1",          1481,   149.830E-03,   157.723E-03,            0.,NA,NA,"",   1.04973E+06,   1.03737E+06,   1.03737E+06
C:/temp/Job-4.odb,Step-1,Increment      1: Step Time =    1.000,"P-4-1",          1482,   121.708E-03,   157.201E-03,            0.,NA,NA,"",   1.05233E+06,   1.05475E+06,   1.05475E+06
C:/temp/Job-4.odb,Step-1,Increment      1: Step Time =    1.000,"P-4-1",          1483,   78.6830E-03,   155.717E-03,            0.,NA,NA,"",   1.05668E+06,   1.06794E+06,   1.06794E+06
C:/temp/Job-4.odb,Step-1,Increment      1: Step Time =    1.000,"P-4-1",          1484,   60.3983E-03,   43.3794E-03,            0.,NA,NA,"",   1.06115E+06,   1.06688E+06,   1.06688E+06
C:/temp/Job-4.odb,Step-1,Increment      1: Step Time =    1.000,"P-4-1",          1485,   43.7749E-03,   56.5499E-03,            0.,NA,NA,"",   1.00147E+06,   1.03244E+06,   1.03244E+06
C:/temp/Job-4.odb,Step-1,Increment      1: Step Time =    1.000,"P-4-1",          1486,   40.8358E-03,   142.270E-03,            0.,NA,NA,"",   984.432E+03,   1.02218E+06,   1.02218E+06
C:/temp/Job-4.odb,Step-1,Increment      1: Step Time =    1.000,"P-4-1",          1487,   152.316E-03,   59.1372E-03,            0.,NA,NA,"",   1.05977E+06,   1.04115E+06,   1.04115E+06
C:/temp/Job-4.odb,Step-1,Increment      1: Step Time =    1.000,"P-4-1",          1488,   60.5928E-03,   154.708E-03,            0.,NA,NA,"",   1.06403E+06,   1.06954E+06,   1.06954E+06
C:/temp/Job-4.odb,Step-1,Increment      1: Step Time =    1.000,"P-4-1",          1489,   138.249E-03,   154.631E-03,            0.,NA,NA,"",   1.06900E+06,   1.05498E+06,   1.05498E+06
C:/temp/Job-4.odb,Step-1,Increment      1: Step Time =    1.000,"P-4-1",          1490,   69.2146E-03,   138.007E-03,            0.,NA,NA,"",   1.11224E+06,   1.10462E+06,   1.10462E+06
C:/temp/Job-4.odb,Step-1,Increment      1: Step Time =    1.000,"P-4-1",          1491,   146.956E-03,   72.8647E-03,            0.,NA,NA,"",   1.04729E+06,   1.02292E+06,   1.02292E+06
C:/temp/Job-4.odb,Step-1,Increment      1: Step Time =    1.000,"P-4-1",          1492,   134.729E-03,   35.1036E-03,            0.,NA,NA,"",   1.04197E+06,   1.03552E+06,   1.03552E+06
C:/temp/Job-4.odb,Step-1,Increment      1: Step Time =    1.000,"P-4-1",          1493,   164.446E-03,   137.126E-03,            0.,NA,NA,"",   1.02439E+06,   1.01704E+06,   1.01704E+06
C:/temp/Job-4.odb,Step-1,Increment      1: Step Time =    1.000,"P-4-1",          1494,   166.008E-03,   112.087E-03,            0.,NA,NA,"",    960.15E+03,   968.309E+03,   968.309E+03
C:/temp/Job-4.odb,Step-1,Increment      1: Step Time =    1.000,"P-4-1",          1495,   58.4006E-03,   126.113E-03,            0.,NA,NA,"",   1.00933E+06,   1.01760E+06,   1.01760E+06
C:/temp/Job-4.odb,Step-1,Increment      1: Step Time =    1.000,"P-4-1",          1496,   47.3824E-03,   93.3340E-03,            0.,NA,NA,"",   819.996E+03,   876.659E+03,   876.659E+03
C:/temp/Job-4.odb,Step-1,Increment      1: Step Time =    1.000,"P-4-1",          1497,   41.7370E-03,   104.963E-03,            0.,NA,NA,"",   821.727E+03,   885.829E+03,   885.829E+03
C:/temp/Job-4.odb,Step-1,Increment      1: Step Time =    1.000,"P-4-1",          1498,   108.324E-03,   140.951E-03,            0.,NA,NA,"",   1.06329E+06,   1.10217E+06,   1.10217E+06
C:/temp/Job-4.odb,Step-1,Increment      1: Step Time =    1.000,"P-4-1",          1499,   55.3913E-03,   123.173E-03,            0.,NA,NA,"",   968.265E+03,   987.404E+03,   987.404E+03
C:/temp/Job-4.odb,Step-1,Increment      1: Step Time =    1.000,"P-4-1",          1500,   79.0443E-03,   54.7879E-03,            0.,NA,NA,"",   1.09192E+06,   1.10175E+06,   1.10175E+06
C:/temp/Job-4.odb,Step-1,Increment      1: Step Time =    1.000,"P-4-1",          1501,   73.2382E-03,   54.9180E-03,            0.,NA,NA,"",   1.09755E+06,   1.09917E+06,   1.09917E+06
C:/temp/Job-4.odb,Step-1,Increment      1: Step Time =    1.000,"P-4-1",          1502,   44.8763E-03,   116.754E-03,            0.,NA,NA,"",   879.735E+03,   930.134E+03,   930.134E+03
C:/temp/Job-4.odb,Step-1,Increment      1: Step Time =    1.000,"P-4-1",          1503,   45.2735E-03,   84.5795E-03,            0.,NA,NA,"",   869.589E+03,   920.966E+03,   920.966E+03
C:/temp/Job-4.odb,Step-1,Increment      1: Step Time =    1.000,"P-4-1",          1504,   44.2860E-03,   75.4953E-03,            0.,NA,NA,"",   922.081E+03,   966.161E+03,   966.161E+03
C:/temp/Job-4.odb,Step-1,Increment      1: Step Time =    1.000,"P-4-1",          1505,   143.477E-03,   30.1459E-03,            0.,NA,NA,"",   1.02893E+06,   1.02240E+06,   1.02240E+06
C:/temp/Job-4.odb,Step-1,Increment      1: Step Time =    1.000,"P-4-1",          1506,   163.154E-03,   145.015E-03,            0.,NA,NA,"",   1.03419E+06,   1.02478E+06,   1.02478E+06
C:/temp/Job-4.odb,Step-1,Increment      1: Step Time =    1.000,"P-4-1",          1507,   137.718E-03,   135.103E-03,            0.,NA,NA,"",   1.11212E+06,   1.07812E+06,   1.07812E+06
C:/temp/Job-4.odb,Step-1,Increment      1: Step Time =    1.000,"P-4-1",          1508,   155.106E-03,   103.080E-03,            0.,NA,NA,"",    908.85E+03,   919.448E+03,   919.448E+03
C:/temp/Job-4.odb,Step-1,Increment      1: Step Time =    1.000,"P-4-1",          1509,   154.994E-03,   111.027E-03,            0.,NA,NA,"",   936.027E+03,   939.764E+03,   939.764E+03
C:/temp/Job-4.odb,Step-1,Increment      1: Step Time =    1.000,"P-4-1",          1510,   126.545E-03,   73.0864E-03,            0.,NA,NA,"",   1.18978E+06,   1.13499E+06,   1.13499E+06
C:/temp/Job-4.odb,Step-1,Increment      1: Step Time =    1.000,"P-4-1",          1511,   175.801E-03,   84.3400E-03,            0.,NA,NA,"",   974.371E+03,   986.167E+03,   986.167E+03
C:/temp/Job-4.odb,Step-1,Increment      1: Step Time =    1.000,"P-4-1",          1512,   118.052E-03,   176.359E-03,            0.,NA,NA,"",   999.858E+03,   1.00311E+06,   1.00311E+06
C:/temp/Job-4.odb,Step-1,Increment      1: Step Time =    1.000,"P-4-1",          1513,   80.5539E-03,   29.0754E-03,            0.,NA,NA,"",   1.01886E+06,   1.02602E+06,   1.02602E+06
C:/temp/Job-4.odb,Step-1,Increment      1: Step Time =    1.000,"P-4-1",          1514,   25.8475E-03,   117.531E-03,            0.,NA,NA,"",   842.221E+03,   920.550E+03,   920.550E+03
C:/temp/Job-4.odb,Step-1,Increment      1: Step Time =    1.000,"P-4-1",          1515,   102.740E-03,   34.3632E-03,            0.,NA,NA,"",   1.00713E+06,   1.02344E+06,   1.02344E+06
C:/temp/Job-4.odb,Step-1,Increment      1: Step Time =    1.000,"P-4-1",          1516,   60.8668E-03,   129.021E-03,            0.,NA,NA,"",   1.04353E+06,   1.04416E+06,   1.04416E+06
C:/temp/Job-4.odb,Step-1,Increment      1: Step Time =    1.000,"P-4-1",          1517,   60.5676E-03,   62.7085E-03,            0.,NA,NA,"",   1.06841E+06,   1.07009E+06,   1.07009E+06
C:/temp/Job-4.odb,Step-1,Increment      1: Step Time =    1.000,"P-4-1",          1518,   28.0493E-03,   84.4481E-03,            0.,NA,NA,"",   839.385E+03,   915.922E+03,   915.922E+03
C:/temp/Job-4.odb,Step-1,Increment      1: Step Time =    1.000,"P-4-1",          1519,   83.7910E-03,   169.647E-03,            0.,NA,NA,"",   1.01641E+06,   1.02560E+06,   1.02560E+06
C:/temp/Job-4.odb,Step-1,Increment      1: Step Time =    1.000,"P-4-1",          1520,   18.9154E-03,   87.0399E-03,            0.,NA,NA,"",   816.712E+03,   904.366E+03,   904.366E+03
C:/temp/Job-4.odb,Step-1,Increment      1: Step Time =    1.000,"P-4-1",          1521,   86.9042E-03,   178.440E-03,            0.,NA,NA,"",   992.643E+03,   998.538E+03,   998.538E+03
C:/temp/Job-4.odb,Step-1,Increment      1: Step Time =    1.000,"P-4-1",          1522,   66.3645E-03,   65.3436E-03,            0.,NA,NA,"",   1.09863E+06,   1.09058E+06,   1.09058E+06
C:/temp/Job-4.odb,Step-1,Increment      1: Step Time =    1.000,"P-4-1",          1523,   158.783E-03,   98.1892E-03,            0.,NA,NA,"",   923.398E+03,   933.510E+03,   933.510E+03
C:/temp/Job-4.odb,Step-1,Increment      1: Step Time =    1.000,"P-4-1",          1524,   89.9528E-03,   49.9666E-03,            0.,NA,NA,"",   1.04185E+06,   1.07020E+06,   1.07020E+06
C:/temp/Job-4.odb,Step-1,Increment      1: Step Time =    1.000,"P-4-1",          1525,   157.353E-03,   152.098E-03,            0.,NA,NA,"",   1.04401E+06,   1.03220E+06,   1.03220E+06
C:/temp/Job-4.odb,Step-1,Increment      1: Step Time =    1.000,"P-4-1",          1526,   151.591E-03,   43.6305E-03,            0.,NA,NA,"",   1.05023E+06,   1.03758E+06,   1.03758E+06
C:/temp/Job-4.odb,Step-1,Increment      1: Step Time =    1.000,"P-4-1",          1527,   48.2980E-03,   156.047E-03,            0.,NA,NA,"",   1.04068E+06,   1.05762E+06,   1.05762E+06
C:/temp/Job-4.odb,Step-1,Increment      1: Step Time =    1.000,"P-4-1",          1528,   44.8799E-03,   49.1334E-03,            0.,NA,NA,"",   1.02157E+06,   1.04723E+06,   1.04723E+06
C:/temp/Job-4.odb,Step-1,Increment      1: Step Time =    1.000,"P-4-1",          1529,   112.988E-03,   142.099E-03,            0.,NA,NA,"",   1.08357E+06,   1.10491E+06,   1.10491E+06
C:/temp/Job-4.odb,Step-1,Increment      1: Step Time =    1.000,"P-4-1",          1530,   77.4207E-03,   111.433E-03,            0.,NA,NA,"",   988.092E+03,   912.468E+03,   912.468E+03
C:/temp/Job-4.odb,Step-1,Increment      1: Step Time =    1.000,"P-4-1",          1531,   189.915E-03,   53.3637E-03,            0.,NA,NA,"",   996.005E+03,   1.00252E+06,   1.00252E+06
C:/temp/Job-4.odb,Step-1,Increment      1: Step Time =    1.000,"P-4-1",          1532,   146.597E-03,   189.914E-03,            0.,NA,NA,"",   992.592E+03,   991.540E+03,   991.540E+03
C:/temp/Job-4.odb,Step-1,Increment      1: Step Time =    1.000,"P-4-1",          1533,   167.594E-03,   10.2828E-03,            0.,NA,NA,"",   999.924E+03,   999.246E+03,   999.246E+03
C:/temp/Job-4.odb,Step-1,Increment      1: Step Time =    1.000,"P-4-1",          1534,   190.020E-03,   167.062E-03,            0.,NA,NA,"",   1.00083E+06,   1.00172E+06,   1.00172E+06
C:/temp/Job-4.odb,Step-1,Increment      1: Step Time =    1.000,"P-4-1",          1535,   110.680E-03,   144.187E-03,            0.,NA,NA,"",   1.06362E+06,   1.09091E+06,   1.09091E+06
C:/temp/Job-4.odb,Step-1,Increment      1: Step Time =    1.000,"P-4-1",          1536,   145.915E-03,   156.660E-03,            0.,NA,NA,"",   1.05628E+06,   1.04286E+06,   1.04286E+06
C:/temp/Job-4.odb,Step-1,Increment      1: Step Time =    1.000,"P-4-1",          1537,   159.115E-03,   146.795E-03,            0.,NA,NA,"",   1.04273E+06,   1.03066E+06,   1.03066E+06
C:/temp/Job-4.odb,Step-1,Increment      1: Step Time =    1.000,"P-4-1",          1538,   157.617E-03,   53.2797E-03,            0.,NA,NA,"",   1.04576E+06,   1.03278E+06,   1.03278E+06
C:/temp/Job-4.odb,Step-1,Increment      1: Step Time =    1.000,"P-4-1",          1539,   146.048E-03,   39.4824E-03,            0.,NA,NA,"",   1.04825E+06,   1.03731E+06,   1.03731E+06
C:/temp/Job-4.odb,Step-1,Increment      1: Step Time =    1.000,"P-4-1",          1540,   42.7728E-03,   148.722E-03,            0.,NA,NA,"",   1.01028E+06,   1.04042E+06,   1.04042E+06
C:/temp/Job-4.odb,Step-1,Increment      1: Step Time =    1.000,"P-4-1",          1541,   49.7235E-03,   44.0610E-03,            0.,NA,NA,"",   1.04292E+06,   1.05885E+06,   1.05885E+06
C:/temp/Job-4.odb,Step-1,Increment      1: Step Time =    1.000,"P-4-1",          1542,   28.4620E-03,   110.011E-03,            0.,NA,NA,"",   827.843E+03,   905.505E+03,   905.505E+03
C:/temp/Job-4.odb,Step-1,Increment      1: Step Time =    1.000,"P-4-1",          1543,   91.0432E-03,   26.5281E-03,            0.,NA,NA,"",   999.556E+03,   1.00923E+06,   1.00923E+06
C:/temp/Job-4.odb,Step-1,Increment      1: Step Time =    1.000,"P-4-1",          1544,   113.206E-03,   171.782E-03,            0.,NA,NA,"",   1.00460E+06,   1.01181E+06,   1.01181E+06
C:/temp/Job-4.odb,Step-1,Increment      1: Step Time =    1.000,"P-4-1",          1545,   175.098E-03,   91.4155E-03,            0.,NA,NA,"",   964.390E+03,   978.619E+03,   978.619E+03
C:/temp/Job-4.odb,Step-1,Increment      1: Step Time =    1.000,"P-4-1",          1546,   165.881E-03,   106.591E-03,            0.,NA,NA,"",   948.207E+03,   958.942E+03,   958.942E+03
C:/temp/Job-4.odb,Step-1,Increment      1: Step Time =    1.000,"P-4-1",          1547,   104.330E-03,   39.4091E-03,            0.,NA,NA,"",   1.01440E+06,   1.03539E+06,   1.03539E+06
C:/temp/Job-4.odb,Step-1,Increment      1: Step Time =    1.000,"P-4-1",          1548,   162.867E-03,   99.7988E-03,            0.,NA,NA,"",   935.180E+03,   946.387E+03,   946.387E+03
C:/temp/Job-4.odb,Step-1,Increment      1: Step Time =    1.000,"P-4-1",          1549,   98.5730E-03,   35.6634E-03,            0.,NA,NA,"",   1.00903E+06,   1.02714E+06,   1.02714E+06
C:/temp/Job-4.odb,Step-1,Increment      1: Step Time =    1.000,"P-4-1",          1550,   121.020E-03,   75.9213E-03,            0.,NA,NA,"",   1.24287E+06,   1.18481E+06,   1.18481E+06
C:/temp/Job-4.odb,Step-1,Increment      1: Step Time =    1.000,"P-4-1",          1551,   124.052E-03,   67.9163E-03,            0.,NA,NA,"",   1.18020E+06,   1.14601E+06,   1.14601E+06
C:/temp/Job-4.odb,Step-1,Increment      1: Step Time =    1.000,"P-4-1",          1552,   140.520E-03,   64.3096E-03,            0.,NA,NA,"",   1.10034E+06,   1.06900E+06,   1.06900E+06
C:/temp/Job-4.odb,Step-1,Increment      1: Step Time =    1.000,"P-4-1",          1553,   121.040E-03,   44.3798E-03,            0.,NA,NA,"",   1.05653E+06,   1.05931E+06,   1.05931E+06
C:/temp/Job-4.odb,Step-1,Increment      1: Step Time =    1.000,"P-4-1",          1554,   153.908E-03,   123.123E-03,            0.,NA,NA,"",   1.00911E+06,   997.295E+03,   997.295E+03
C:/temp/Job-4.odb,Step-1,Increment      1: Step Time =    1.000,"P-4-1",          1555,   115.220E-03,   168.113E-03,            0.,NA,NA,"",   1.01475E+06,   1.02224E+06,   1.02224E+06
C:/temp/Job-4.odb,Step-1,Increment      1: Step Time =    1.000,"P-4-1",          1556,   32.9817E-03,   113.527E-03,            0.,NA,NA,"",   843.963E+03,   914.763E+03,   914.763E+03
C:/temp/Job-4.odb,Step-1,Increment      1: Step Time =    1.000,"P-4-1",          1557,   166.176E-03,   84.7433E-03,            0.,NA,NA,"",   969.112E+03,   975.123E+03,   975.123E+03
C:/temp/Job-4.odb,Step-1,Increment      1: Step Time =    1.000,"P-4-1",          1558,   82.3730E-03,   32.6026E-03,            0.,NA,NA,"",   1.02354E+06,   1.03335E+06,   1.03335E+06
C:/temp/Job-4.odb,Step-1,Increment      1: Step Time =    1.000,"P-4-1",          1559,   140.664E-03,   126.778E-03,            0.,NA,NA,"",   1.07304E+06,   1.03893E+06,   1.03893E+06
C:/temp/Job-4.odb,Step-1,Increment      1: Step Time =    1.000,"P-4-1",          1560,   114.675E-03,   151.729E-03,            0.,NA,NA,"",   1.05307E+06,   1.06755E+06,   1.06755E+06
C:/temp/Job-4.odb,Step-1,Increment      1: Step Time =    1.000,"P-4-1",          1561,   125.512E-03,   157.872E-03,            0.,NA,NA,"",   1.05598E+06,   1.05392E+06,   1.05392E+06
C:/temp/Job-4.odb,Step-1,Increment      1: Step Time =    1.000,"P-4-1",          1562,   83.5773E-03,   151.391E-03,            0.,NA,NA,"",   1.05723E+06,   1.07584E+06,   1.07584E+06
C:/temp/Job-4.odb,Step-1,Increment      1: Step Time =    1.000,"P-4-1",          1563,   41.4393E-03,   62.1188E-03,            0.,NA,NA,"",   971.294E+03,   1.01067E+06,   1.01067E+06
C:/temp/Job-4.odb,Step-1,Increment      1: Step Time =    1.000,"P-4-1",          1564,   65.3618E-03,   41.7850E-03,            0.,NA,NA,"",   1.06225E+06,   1.06653E+06,   1.06653E+06
C:/temp/Job-4.odb,Step-1,Increment      1: Step Time =    1.000,"P-4-1",          1565,   46.9687E-03,   54.5612E-03,            0.,NA,NA,"",   1.01980E+06,   1.04361E+06,   1.04361E+06
C:/temp/Job-4.odb,Step-1,Increment      1: Step Time =    1.000,"P-4-1",          1566,   55.5969E-03,   48.9503E-03,            0.,NA,NA,"",   1.05500E+06,   1.06496E+06,   1.06496E+06
C:/temp/Job-4.odb,Step-1,Increment      1: Step Time =    1.000,"P-4-1",          1567,   41.7808E-03,   135.204E-03,            0.,NA,NA,"",   963.667E+03,   1.00418E+06,   1.00418E+06
C:/temp/Job-4.odb,Step-1,Increment      1: Step Time =    1.000,"P-4-1",          1568,   45.1405E-03,   145.650E-03,            0.,NA,NA,"",   1.01204E+06,   1.03938E+06,   1.03938E+06
C:/temp/Job-4.odb,Step-1,Increment      1: Step Time =    1.000,"P-4-1",          1569,   53.6851E-03,   153.373E-03,            0.,NA,NA,"",   1.05096E+06,   1.06247E+06,   1.06247E+06
C:/temp/Job-4.odb,Step-1,Increment      1: Step Time =    1.000,"P-4-1",          1570,   158.331E-03,   65.7845E-03,            0.,NA,NA,"",   1.03424E+06,   1.02165E+06,   1.02165E+06
C:/temp/Job-4.odb,Step-1,Increment      1: Step Time =    1.000,"P-4-1",          1571,   142.906E-03,   152.411E-03,            0.,NA,NA,"",   1.06985E+06,   1.05343E+06,   1.05343E+06
C:/temp/Job-4.odb,Step-1,Increment      1: Step Time =    1.000,"P-4-1",          1572,   134.900E-03,   158.047E-03,            0.,NA,NA,"",   1.06035E+06,   1.05013E+06,   1.05013E+06
C:/temp/Job-4.odb,Step-1,Increment      1: Step Time =    1.000,"P-4-1",          1573,   49.6390E-03,   115.490E-03,            0.,NA,NA,"",   879.311E+03,   922.818E+03,   922.818E+03
C:/temp/Job-4.odb,Step-1,Increment      1: Step Time =    1.000,"P-4-1",          1574,   39.3670E-03,   75.7832E-03,            0.,NA,NA,"",   902.720E+03,   956.334E+03,   956.334E+03
C:/temp/Job-4.odb,Step-1,Increment      1: Step Time =    1.000,"P-4-1",          1575,   147.711E-03,   26.9372E-03,            0.,NA,NA,"",   1.02167E+06,   1.01612E+06,   1.01612E+06
C:/temp/Job-4.odb,Step-1,Increment      1: Step Time =    1.000,"P-4-1",          1576,   168.307E-03,   147.778E-03,            0.,NA,NA,"",   1.02472E+06,   1.01904E+06,   1.01904E+06
C:/temp/Job-4.odb,Step-1,Increment      1: Step Time =    1.000,"P-4-1",          1577,   23.6306E-03,   88.0285E-03,            0.,NA,NA,"",   823.576E+03,   906.377E+03,   906.377E+03
C:/temp/Job-4.odb,Step-1,Increment      1: Step Time =    1.000,"P-4-1",          1578,   87.2177E-03,   174.148E-03,            0.,NA,NA,"",   1.00212E+06,   1.01018E+06,   1.01018E+06
C:/temp/Job-4.odb,Step-1,Increment      1: Step Time =    1.000,"P-4-1",          1579,   64.3224E-03,   61.4754E-03,            0.,NA,NA,"",   1.08675E+06,   1.08427E+06,   1.08427E+06
C:/temp/Job-4.odb,Step-1,Increment      1: Step Time =    1.000,"P-4-1",          1580,   85.1454E-03,   53.0976E-03,            0.,NA,NA,"",   1.06670E+06,   1.08879E+06,   1.08879E+06
C:/temp/Job-4.odb,Step-1,Increment      1: Step Time =    1.000,"P-4-1",          1581,   93.7634E-03,   54.0223E-03,            0.,NA,NA,"",   1.04005E+06,   1.07924E+06,   1.07924E+06
C:/temp/Job-4.odb,Step-1,Increment      1: Step Time =    1.000,"P-4-1",          1582,   75.8661E-03,   189.824E-03,            0.,NA,NA,"",   970.388E+03,   971.064E+03,   971.064E+03
C:/temp/Job-4.odb,Step-1,Increment      1: Step Time =    1.000,"P-4-1",          1583,   9.88567E-03,   75.4346E-03,            0.,NA,NA,"",   819.597E+03,   914.653E+03,   914.653E+03
C:/temp/Job-4.odb,Step-1,Increment      1: Step Time =    1.000,"P-4-1",          1584,   42.8090E-03,   125.566E-03,            0.,NA,NA,"",   923.149E+03,   968.816E+03,   968.816E+03
C:/temp/Job-4.odb,Step-1,Increment      1: Step Time =    1.000,"P-4-1",          1585,   72.5696E-03,   38.9749E-03,            0.,NA,NA,"",   1.05354E+06,   1.05914E+06,   1.05914E+06
C:/temp/Job-4.odb,Step-1,Increment      1: Step Time =    1.000,"P-4-1",          1586,   157.590E-03,   74.2118E-03,            0.,NA,NA,"",   1.01017E+06,   1.00081E+06,   1.00081E+06
C:/temp/Job-4.odb,Step-1,Increment      1: Step Time =    1.000,"P-4-1",          1587,   156.202E-03,   115.169E-03,            0.,NA,NA,"",   961.492E+03,   961.115E+03,   961.115E+03
C:/temp/Job-4.odb,Step-1,Increment      1: Step Time =    1.000,"P-4-1",          1588,   43.6378E-03,   70.9619E-03,            0.,NA,NA,"",   943.800E+03,   984.973E+03,   984.973E+03
C:/temp/Job-4.odb,Step-1,Increment      1: Step Time =    1.000,"P-4-1",          1589,   75.3294E-03,   51.8969E-03,            0.,NA,NA,"",   1.08614E+06,   1.09185E+06,   1.09185E+06
C:/temp/Job-4.odb,Step-1,Increment      1: Step Time =    1.000,"P-4-1",          1590,   43.4030E-03,   94.6698E-03,            0.,NA,NA,"",   820.398E+03,   882.745E+03,   882.745E+03
C:/temp/Job-4.odb,Step-1,Increment      1: Step Time =    1.000,"P-4-1",          1591,   64.2005E-03,   135.276E-03,            0.,NA,NA,"",   1.08586E+06,   1.08082E+06,   1.08082E+06
C:/temp/Job-4.odb,Step-1,Increment      1: Step Time =    1.000,"P-4-1",          1592,   161.363E-03,   96.5447E-03,            0.,NA,NA,"",   932.263E+03,   942.708E+03,   942.708E+03
C:/temp/Job-4.odb,Step-1,Increment      1: Step Time =    1.000,"P-4-1",          1593,   43.7890E-03,   112.904E-03,            0.,NA,NA,"",   854.098E+03,   910.111E+03,   910.111E+03
C:/temp/Job-4.odb,Step-1,Increment      1: Step Time =    1.000,"P-4-1",          1594,   55.0265E-03,   129.064E-03,            0.,NA,NA,"",   1.00400E+06,   1.01916E+06,   1.01916E+06
C:/temp/Job-4.odb,Step-1,Increment      1: Step Time =    1.000,"P-4-1",          1595,   87.3151E-03,   166.158E-03,            0.,NA,NA,"",   1.01856E+06,   1.03188E+06,   1.03188E+06
C:/temp/Job-4.odb,Step-1,Increment      1: Step Time =    1.000,"P-4-1",          1596,   34.3918E-03,   87.9755E-03,            0.,NA,NA,"",   839.269E+03,   908.896E+03,   908.896E+03
C:/temp/Job-4.odb,Step-1,Increment      1: Step Time =    1.000,"P-4-1",          1597,   56.2903E-03,   63.4464E-03,            0.,NA,NA,"",   1.04371E+06,   1.05281E+06,   1.05281E+06
C:/temp/Job-4.odb,Step-1,Increment      1: Step Time =    1.000,"P-4-1",          1598,   159.990E-03,   85.0733E-03,            0.,NA,NA,"",   963.215E+03,   965.613E+03,   965.613E+03
C:/temp/Job-4.odb,Step-1,Increment      1: Step Time =    1.000,"P-4-1",          1599,   69.9201E-03,   63.0421E-03,            0.,NA,NA,"",   1.11535E+06,   1.10653E+06,   1.10653E+06
C:/temp/Job-4.odb,Step-1,Increment      1: Step Time =    1.000,"P-4-1",          1600,   89.7558E-03,   186.198E-03,            0.,NA,NA,"",   970.518E+03,   973.121E+03,   973.121E+03
C:/temp/Job-4.odb,Step-1,Increment      1: Step Time =    1.000,"P-4-1",          1601,   14.2507E-03,   89.1279E-03,            0.,NA,NA,"",   804.532E+03,   896.979E+03,   896.979E+03
C:/temp/Job-4.odb,Step-1,Increment      1: Step Time =    1.000,"P-4-1",          1602,   40.2632E-03,   117.600E-03,            0.,NA,NA,"",   871.902E+03,   929.739E+03,   929.739E+03
C:/temp/Job-4.odb,Step-1,Increment      1: Step Time =    1.000,"P-4-1",          1603,   155.961E-03,   68.4327E-03,            0.,NA,NA,"",   1.03393E+06,   1.01960E+06,   1.01960E+06
C:/temp/Job-4.odb,Step-1,Increment      1: Step Time =    1.000,"P-4-1",          1604,   42.7204E-03,   66.5157E-03,            0.,NA,NA,"",   959.909E+03,   999.609E+03,   999.609E+03
C:/temp/Job-4.odb,Step-1,Increment      1: Step Time =    1.000,"P-4-1",          1605,   39.8352E-03,   113.903E-03,            0.,NA,NA,"",   853.925E+03,   915.010E+03,   915.010E+03
C:/temp/Job-4.odb,Step-1,Increment      1: Step Time =    1.000,"P-4-1",          1606,   161.023E-03,   114.866E-03,            0.,NA,NA,"",   963.334E+03,   966.464E+03,   966.464E+03
C:/temp/Job-4.odb,Step-1,Increment      1: Step Time =    1.000,"P-4-1",          1607,   77.3420E-03,   48.4827E-03,            0.,NA,NA,"",   1.07258E+06,   1.08173E+06,   1.08173E+06
C:/temp/Job-4.odb,Step-1,Increment      1: Step Time =    1.000,"P-4-1",          1608,   39.6090E-03,   95.7964E-03,            0.,NA,NA,"",   821.413E+03,   888.182E+03,   888.182E+03
C:/temp/Job-4.odb,Step-1,Increment      1: Step Time =    1.000,"P-4-1",          1609,   64.9508E-03,   139.001E-03,            0.,NA,NA,"",   1.09103E+06,   1.08736E+06,   1.08736E+06
C:/temp/Job-4.odb,Step-1,Increment      1: Step Time =    1.000,"P-4-1",          1610,   59.8242E-03,   133.700E-03,            0.,NA,NA,"",   1.05442E+06,   1.05739E+06,   1.05739E+06
C:/temp/Job-4.odb,Step-1,Increment      1: Step Time =    1.000,"P-4-1",          1611,   170.518E-03,   86.8241E-03,            0.,NA,NA,"",   967.298E+03,   977.039E+03,   977.039E+03
C:/temp/Job-4.odb,Step-1,Increment      1: Step Time =    1.000,"P-4-1",          1612,   116.483E-03,   172.952E-03,            0.,NA,NA,"",   1.00531E+06,   1.01032E+06,   1.01032E+06
C:/temp/Job-4.odb,Step-1,Increment      1: Step Time =    1.000,"P-4-1",          1613,   83.6422E-03,   26.9478E-03,            0.,NA,NA,"",   1.00910E+06,   1.01677E+06,   1.01677E+06
C:/temp/Job-4.odb,Step-1,Increment      1: Step Time =    1.000,"P-4-1",          1614,   28.9062E-03,   113.628E-03,            0.,NA,NA,"",   837.074E+03,   913.032E+03,   913.032E+03
C:/temp/Job-4.odb,Step-1,Increment      1: Step Time =    1.000,"P-4-1",          1615,   113.190E-03,   163.836E-03,            0.,NA,NA,"",   1.02031E+06,   1.03149E+06,   1.03149E+06
C:/temp/Job-4.odb,Step-1,Increment      1: Step Time =    1.000,"P-4-1",          1616,   88.8829E-03,   33.7106E-03,            0.,NA,NA,"",   1.01535E+06,   1.02899E+06,   1.02899E+06
C:/temp/Job-4.odb,Step-1,Increment      1: Step Time =    1.000,"P-4-1",          1617,   37.9087E-03,   110.443E-03,            0.,NA,NA,"",   838.732E+03,   904.645E+03,   904.645E+03
C:/temp/Job-4.odb,Step-1,Increment      1: Step Time =    1.000,"P-4-1",          1618,   152.413E-03,   148.779E-03,            0.,NA,NA,"",   1.05755E+06,   1.04165E+06,   1.04165E+06
C:/temp/Job-4.odb,Step-1,Increment      1: Step Time =    1.000,"P-4-1",          1619,   144.803E-03,   34.9581E-03,            0.,NA,NA,"",   1.03892E+06,   1.03027E+06,   1.03027E+06
C:/temp/Job-4.odb,Step-1,Increment      1: Step Time =    1.000,"P-4-1",          1620,   146.213E-03,   44.3597E-03,            0.,NA,NA,"",   1.05858E+06,   1.04472E+06,   1.04472E+06
C:/temp/Job-4.odb,Step-1,Increment      1: Step Time =    1.000,"P-4-1",          1621,   22.9873E-03,   105.372E-03,            0.,NA,NA,"",   813.791E+03,   898.151E+03,   898.151E+03
C:/temp/Job-4.odb,Step-1,Increment      1: Step Time =    1.000,"P-4-1",          1622,   95.0221E-03,   22.6497E-03,            0.,NA,NA,"",   989.754E+03,   997.413E+03,   997.413E+03
C:/temp/Job-4.odb,Step-1,Increment      1: Step Time =    1.000,"P-4-1",          1623,   106.777E-03,   176.009E-03,            0.,NA,NA,"",   991.856E+03,   999.590E+03,   999.590E+03
C:/temp/Job-4.odb,Step-1,Increment      1: Step Time =    1.000,"P-4-1",          1624,   176.728E-03,   99.0354E-03,            0.,NA,NA,"",   961.807E+03,   978.052E+03,   978.052E+03
C:/temp/Job-4.odb,Step-1,Increment      1: Step Time =    1.000,"P-4-1",          1625,   166.788E-03,   97.7598E-03,            0.,NA,NA,"",   946.178E+03,   958.180E+03,   958.180E+03
C:/temp/Job-4.odb,Step-1,Increment      1: Step Time =    1.000,"P-4-1",          1626,   96.2413E-03,   28.9293E-03,            0.,NA,NA,"",   1.00049E+06,   1.01243E+06,   1.01243E+06
C:/temp/Job-4.odb,Step-1,Increment      1: Step Time =    1.000,"P-4-1",          1627,   129.942E-03,   65.3194E-03,            0.,NA,NA,"",   1.14874E+06,   1.11313E+06,   1.11313E+06
C:/temp/Job-4.odb,Step-1,Increment      1: Step Time =    1.000,"P-4-1",          1628,   134.216E-03,   66.7798E-03,            0.,NA,NA,"",   1.13198E+06,   1.09329E+06,   1.09329E+06
C:/temp/Job-4.odb,Step-1,Increment      1: Step Time =    1.000,"P-4-1",          1629,   147.661E-03,   61.2818E-03,            0.,NA,NA,"",   1.07233E+06,   1.04936E+06,   1.04936E+06
C:/temp/Job-4.odb,Step-1,Increment      1: Step Time =    1.000,"P-4-1",          1630,   128.577E-03,   47.6987E-03,            0.,NA,NA,"",   1.07696E+06,   1.06819E+06,   1.06819E+06
C:/temp/Job-4.odb,Step-1,Increment      1: Step Time =    1.000,"P-4-1",          1631,   115.137E-03,   42.1083E-03,            0.,NA,NA,"",   1.03693E+06,   1.04870E+06,   1.04870E+06
C:/temp/Job-4.odb,Step-1,Increment      1: Step Time =    1.000,"P-4-1",          1632,   154.647E-03,   126.046E-03,            0.,NA,NA,"",   1.01864E+06,   1.00605E+06,   1.00605E+06
C:/temp/Job-4.odb,Step-1,Increment      1: Step Time =    1.000,"P-4-1",          1633,   144.800E-03,   127.751E-03,            0.,NA,NA,"",   1.05683E+06,   1.02973E+06,   1.02973E+06
C:/temp/Job-4.odb,Step-1,Increment      1: Step Time =    1.000,"P-4-1",          1634,   126.843E-03,   153.268E-03,            0.,NA,NA,"",   1.07298E+06,   1.06705E+06,   1.06705E+06
C:/temp/Job-4.odb,Step-1,Increment      1: Step Time =    1.000,"P-4-1",          1635,   117.468E-03,   156.538E-03,            0.,NA,NA,"",   1.04545E+06,   1.05383E+06,   1.05383E+06
C:/temp/Job-4.odb,Step-1,Increment      1: Step Time =    1.000,"P-4-1",          1636,   71.6448E-03,   155.270E-03,            0.,NA,NA,"",   1.06782E+06,   1.07339E+06,   1.07339E+06
C:/temp/Job-4.odb,Step-1,Increment      1: Step Time =    1.000,"P-4-1",          1637,   45.7188E-03,   60.6561E-03,            0.,NA,NA,"",   995.927E+03,   1.02596E+06,   1.02596E+06
C:/temp/Job-4.odb,Step-1,Increment      1: Step Time =    1.000,"P-4-1",          1638,   66.1188E-03,   152.712E-03,            0.,NA,NA,"",   1.07402E+06,   1.07729E+06,   1.07729E+06
C:/temp/Job-4.odb,Step-1,Increment      1: Step Time =    1.000,"P-4-1",          1639,   93.5374E-03,   49.9172E-03,            0.,NA,NA,"",   1.03244E+06,   1.06546E+06,   1.06546E+06
C:/temp/Job-4.odb,Step-1,Increment      1: Step Time =    1.000,"P-4-1",          1640,   94.1214E-03,   58.3412E-03,            0.,NA,NA,"",   1.04875E+06,   1.09560E+06,   1.09560E+06
C:/temp/Job-4.odb,Step-1,Increment      1: Step Time =    1.000,"P-4-1",          1641,   91.9512E-03,   180.906E-03,            0.,NA,NA,"",   984.167E+03,   989.667E+03,   989.667E+03
C:/temp/Job-4.odb,Step-1,Increment      1: Step Time =    1.000,"P-4-1",          1642,   19.4130E-03,   91.5719E-03,            0.,NA,NA,"",   811.199E+03,   898.773E+03,   898.773E+03
C:/temp/Job-4.odb,Step-1,Increment      1: Step Time =    1.000,"P-4-1",          1643,   70.8209E-03,   52.8093E-03,            0.,NA,NA,"",   1.09001E+06,   1.09161E+06,   1.09161E+06
C:/temp/Job-4.odb,Step-1,Increment      1: Step Time =    1.000,"P-4-1",          1644,   55.5648E-03,   58.6873E-03,            0.,NA,NA,"",   1.04912E+06,   1.05927E+06,   1.05927E+06
C:/temp/Job-4.odb,Step-1,Increment      1: Step Time =    1.000,"P-4-1",          1645,   35.1155E-03,   93.8601E-03,            0.,NA,NA,"",   824.890E+03,   896.324E+03,   896.324E+03
C:/temp/Job-4.odb,Step-1,Increment      1: Step Time =    1.000,"P-4-1",          1646,   90.2374E-03,   165.619E-03,            0.,NA,NA,"",   1.01484E+06,   1.02988E+06,   1.02988E+06
C:/temp/Job-4.odb,Step-1,Increment      1: Step Time =    1.000,"P-4-1",          1647,   84.5556E-03,   162.494E-03,            0.,NA,NA,"",   1.02910E+06,   1.04310E+06,   1.04310E+06
C:/temp/Job-4.odb,Step-1,Increment      1: Step Time =    1.000,"P-4-1",          1648,   39.9722E-03,   85.6509E-03,            0.,NA,NA,"",   855.211E+03,   915.881E+03,   915.881E+03
C:/temp/Job-4.odb,Step-1,Increment      1: Step Time =    1.000,"P-4-1",          1649,   51.6924E-03,   64.1345E-03,            0.,NA,NA,"",   1.01523E+06,   1.03414E+06,   1.03414E+06
C:/temp/Job-4.odb,Step-1,Increment      1: Step Time =    1.000,"P-4-1",          1650,   51.9735E-03,   132.436E-03,            0.,NA,NA,"",   1.00210E+06,   1.02257E+06,   1.02257E+06
C:/temp/Job-4.odb,Step-1,Increment      1: Step Time =    1.000,"P-4-1",          1651,   148.289E-03,   29.7819E-03,            0.,NA,NA,"",   1.02679E+06,   1.02025E+06,   1.02025E+06
C:/temp/Job-4.odb,Step-1,Increment      1: Step Time =    1.000,"P-4-1",          1652,   163.505E-03,   148.190E-03,            0.,NA,NA,"",   1.03394E+06,   1.02497E+06,   1.02497E+06
C:/temp/Job-4.odb,Step-1,Increment      1: Step Time =    1.000,"P-4-1",          1653,   133.628E-03,   152.110E-03,            0.,NA,NA,"",   1.07950E+06,   1.06560E+06,   1.06560E+06
C:/temp/Job-4.odb,Step-1,Increment      1: Step Time =    1.000,"P-4-1",          1654,   151.957E-03,   65.3448E-03,            0.,NA,NA,"",   1.05300E+06,   1.03353E+06,   1.03353E+06
C:/temp/Job-4.odb,Step-1,Increment      1: Step Time =    1.000,"P-4-1",          1655,   44.6167E-03,   139.162E-03,            0.,NA,NA,"",   991.154E+03,   1.02322E+06,   1.02322E+06
C:/temp/Job-4.odb,Step-1,Increment      1: Step Time =    1.000,"P-4-1",          1656,   65.5613E-03,   46.8366E-03,            0.,NA,NA,"",   1.07110E+06,   1.07481E+06,   1.07481E+06
C:/temp/Job-4.odb,Step-1,Increment      1: Step Time =    1.000,"P-4-1",          1657,   83.0328E-03,   156.811E-03,            0.,NA,NA,"",   1.04396E+06,   1.05984E+06,   1.05984E+06
C:/temp/Job-4.odb,Step-1,Increment      1: Step Time =    1.000,"P-4-1",          1658,   164.014E-03,   87.9733E-03,            0.,NA,NA,"",   956.878E+03,   963.893E+03,   963.893E+03
C:/temp/Job-4.odb,Step-1,Increment      1: Step Time =    1.000,"P-4-1",          1659,   38.8820E-03,   71.6363E-03,            0.,NA,NA,"",   920.785E+03,   971.826E+03,   971.826E+03
C:/temp/Job-4.odb,Step-1,Increment      1: Step Time =    1.000,"P-4-1",          1660,   45.5379E-03,   120.328E-03,            0.,NA,NA,"",   903.758E+03,   949.104E+03,   949.104E+03
C:/temp/Job-4.odb,Step-1,Increment      1: Step Time =    1.000,"P-4-1",          1661,   79.3117E-03,   44.4664E-03,            0.,NA,NA,"",   1.05678E+06,   1.06829E+06,   1.06829E+06
C:/temp/Job-4.odb,Step-1,Increment      1: Step Time =    1.000,"P-4-1",          1662,   92.1746E-03,   174.295E-03,            0.,NA,NA,"",   997.229E+03,   1.00638E+06,   1.00638E+06
C:/temp/Job-4.odb,Step-1,Increment      1: Step Time =    1.000,"P-4-1",          1663,   24.7280E-03,   92.8219E-03,            0.,NA,NA,"",   817.836E+03,   900.312E+03,   900.312E+03
C:/temp/Job-4.odb,Step-1,Increment      1: Step Time =    1.000,"P-4-1",          1664,   64.4304E-03,   55.4619E-03,            0.,NA,NA,"",   1.08318E+06,   1.08398E+06,   1.08398E+06
C:/temp/Job-4.odb,Step-1,Increment      1: Step Time =    1.000,"P-4-1",          1665,   43.7556E-03,   130.336E-03,            0.,NA,NA,"",   951.671E+03,   991.429E+03,   991.429E+03
C:/temp/Job-4.odb,Step-1,Increment      1: Step Time =    1.000,"P-4-1",          1666,   73.6550E-03,   46.2269E-03,            0.,NA,NA,"",   1.07029E+06,   1.07634E+06,   1.07634E+06
C:/temp/Job-4.odb,Step-1,Increment      1: Step Time =    1.000,"P-4-1",          1667,   82.9995E-03,   46.6366E-03,            0.,NA,NA,"",   1.05350E+06,   1.07026E+06,   1.07026E+06
C:/temp/Job-4.odb,Step-1,Increment      1: Step Time =    1.000,"P-4-1",          1668,   97.9118E-03,   53.3473E-03,            0.,NA,NA,"",   1.02962E+06,   1.07190E+06,   1.07190E+06
C:/temp/Job-4.odb,Step-1,Increment      1: Step Time =    1.000,"P-4-1",          1669,   154.305E-03,   145.215E-03,            0.,NA,NA,"",   1.05428E+06,   1.03835E+06,   1.03835E+06
C:/temp/Job-4.odb,Step-1,Increment      1: Step Time =    1.000,"P-4-1",          1670,   140.836E-03,   43.3379E-03,            0.,NA,NA,"",   1.06124E+06,   1.04833E+06,   1.04833E+06
C:/temp/Job-4.odb,Step-1,Increment      1: Step Time =    1.000,"P-4-1",          1671,   55.1979E-03,   134.398E-03,            0.,NA,NA,"",   1.02849E+06,   1.04091E+06,   1.04091E+06
C:/temp/Job-4.odb,Step-1,Increment      1: Step Time =    1.000,"P-4-1",          1672,   93.0055E-03,   46.0528E-03,            0.,NA,NA,"",   1.02812E+06,   1.05568E+06,   1.05568E+06
C:/temp/Job-4.odb,Step-1,Increment      1: Step Time =    1.000,"P-4-1",          1673,   148.687E-03,   145.895E-03,            0.,NA,NA,"",   1.06923E+06,   1.04979E+06,   1.04979E+06
C:/temp/Job-4.odb,Step-1,Increment      1: Step Time =    1.000,"P-4-1",          1674,   145.778E-03,   50.2417E-03,            0.,NA,NA,"",   1.06998E+06,    1.0523E+06,    1.0523E+06
C:/temp/Job-4.odb,Step-1,Increment      1: Step Time =    1.000,"P-4-1",          1675,   153.661E-03,   32.2301E-03,            0.,NA,NA,"",   1.02883E+06,   1.02161E+06,   1.02161E+06
C:/temp/Job-4.odb,Step-1,Increment      1: Step Time =    1.000,"P-4-1",          1676,   113.003E-03,   155.622E-03,            0.,NA,NA,"",   1.03825E+06,   1.05362E+06,   1.05362E+06
C:/temp/Job-4.odb,Step-1,Increment      1: Step Time =    1.000,"P-4-1",          1677,   87.3417E-03,   156.114E-03,            0.,NA,NA,"",   1.03610E+06,   1.05682E+06,   1.05682E+06
C:/temp/Job-4.odb,Step-1,Increment      1: Step Time =    1.000,"P-4-1",          1678,   68.2112E-03,   157.130E-03,            0.,NA,NA,"",   1.06476E+06,   1.06931E+06,   1.06931E+06
C:/temp/Job-4.odb,Step-1,Increment      1: Step Time =    1.000,"P-4-1",          1679,   131.138E-03,   155.720E-03,            0.,NA,NA,"",   1.06779E+06,   1.05849E+06,   1.05849E+06
C:/temp/Job-4.odb,Step-1,Increment      1: Step Time =    1.000,"P-4-1",          1680,   116.746E-03,   160.495E-03,            0.,NA,NA,"",   1.03377E+06,   1.04232E+06,   1.04232E+06
C:/temp/Job-4.odb,Step-1,Increment      1: Step Time =    1.000,"P-4-1",          1681,   65.4120E-03,   147.888E-03,            0.,NA,NA,"",   1.08197E+06,   1.08348E+06,   1.08348E+06
C:/temp/Job-4.odb,Step-1,Increment      1: Step Time =    1.000,"P-4-1",          1682,   135.819E-03,   148.991E-03,            0.,NA,NA,"",   1.08797E+06,   1.06977E+06,   1.06977E+06
C:/temp/Job-4.odb,Step-1,Increment      1: Step Time =    1.000,"P-4-1",          1683,   67.1591E-03,   50.4607E-03,            0.,NA,NA,"",   1.07975E+06,   1.08214E+06,   1.08214E+06
C:/temp/Job-4.odb,Step-1,Increment      1: Step Time =    1.000,"P-4-1",          1684,   32.4289E-03,   96.1198E-03,            0.,NA,NA,"",   820.663E+03,   895.540E+03,   895.540E+03
C:/temp/Job-4.odb,Step-1,Increment      1: Step Time =    1.000,"P-4-1",          1685,   17.9925E-03,   107.426E-03,            0.,NA,NA,"",   808.011E+03,   897.111E+03,   897.111E+03
C:/temp/Job-4.odb,Step-1,Increment      1: Step Time =    1.000,"P-4-1",          1686,   28.4100E-03,   106.390E-03,            0.,NA,NA,"",   821.486E+03,   899.964E+03,   899.964E+03
C:/temp/Job-4.odb,Step-1,Increment      1: Step Time =    1.000,"P-4-1",          1687,   93.6247E-03,   27.2066E-03,            0.,NA,NA,"",   999.060E+03,   1.00979E+06,   1.00979E+06
C:/temp/Job-4.odb,Step-1,Increment      1: Step Time =    1.000,"P-4-1",          1688,   92.8811E-03,   17.8537E-03,            0.,NA,NA,"",   980.038E+03,   984.932E+03,   984.932E+03
C:/temp/Job-4.odb,Step-1,Increment      1: Step Time =    1.000,"P-4-1",          1689,   108.084E-03,   181.656E-03,            0.,NA,NA,"",   980.923E+03,   985.439E+03,   985.439E+03
C:/temp/Job-4.odb,Step-1,Increment      1: Step Time =    1.000,"P-4-1",          1690,   109.555E-03,   170.536E-03,            0.,NA,NA,"",   1.00352E+06,   1.01377E+06,   1.01377E+06
C:/temp/Job-4.odb,Step-1,Increment      1: Step Time =    1.000,"P-4-1",          1691,   171.030E-03,   96.0025E-03,            0.,NA,NA,"",   955.130E+03,   968.464E+03,   968.464E+03
C:/temp/Job-4.odb,Step-1,Increment      1: Step Time =    1.000,"P-4-1",          1692,   181.303E-03,   98.7996E-03,            0.,NA,NA,"",   966.250E+03,   985.254E+03,   985.254E+03
C:/temp/Job-4.odb,Step-1,Increment      1: Step Time =    1.000,"P-4-1",          1693,   94.9991E-03,   31.8347E-03,            0.,NA,NA,"",   1.00556E+06,   1.02018E+06,   1.02018E+06
C:/temp/Job-4.odb,Step-1,Increment      1: Step Time =    1.000,"P-4-1",          1694,   125.702E-03,   63.9965E-03,            0.,NA,NA,"",   1.15442E+06,   1.12727E+06,   1.12727E+06
C:/temp/Job-4.odb,Step-1,Increment      1: Step Time =    1.000,"P-4-1",          1695,   116.159E-03,   46.3831E-03,            0.,NA,NA,"",   1.05045E+06,   1.06185E+06,   1.06185E+06
C:/temp/Job-4.odb,Step-1,Increment      1: Step Time =    1.000,"P-4-1",          1696,   127.373E-03,   43.1252E-03,            0.,NA,NA,"",   1.06115E+06,   1.05660E+06,   1.05660E+06
C:/temp/Job-4.odb,Step-1,Increment      1: Step Time =    1.000,"P-4-1",          1697,   156.747E-03,   128.119E-03,            0.,NA,NA,"",   1.02097E+06,   1.00942E+06,   1.00942E+06
C:/temp/Job-4.odb,Step-1,Increment      1: Step Time =    1.000,"P-4-1",          1698,   150.669E-03,   127.757E-03,            0.,NA,NA,"",   1.03321E+06,   1.01536E+06,   1.01536E+06
C:/temp/Job-4.odb,Step-1,Increment      1: Step Time =    1.000,"P-4-1",          1699,   95.3666E-03,   178.425E-03,            0.,NA,NA,"",   987.257E+03,   994.425E+03,   994.425E+03
C:/temp/Job-4.odb,Step-1,Increment      1: Step Time =    1.000,"P-4-1",          1700,   20.9894E-03,   95.1106E-03,            0.,NA,NA,"",   809.703E+03,   896.230E+03,   896.230E+03
C:/temp/Job-4.odb,Step-1,Increment      1: Step Time =    1.000,"P-4-1",          1701,   59.9778E-03,   54.1904E-03,            0.,NA,NA,"",   1.06781E+06,   1.07298E+06,   1.07298E+06
C:/temp/Job-4.odb,Step-1,Increment      1: Step Time =    1.000,"P-4-1",          1702,   30.1538E-03,   92.9785E-03,            0.,NA,NA,"",   823.459E+03,   899.743E+03,   899.743E+03
C:/temp/Job-4.odb,Step-1,Increment      1: Step Time =    1.000,"P-4-1",          1703,   91.0456E-03,   169.561E-03,            0.,NA,NA,"",   1.00728E+06,   1.01944E+06,   1.01944E+06
C:/temp/Job-4.odb,Step-1,Increment      1: Step Time =    1.000,"P-4-1",          1704,   46.0799E-03,   127.620E-03,            0.,NA,NA,"",   950.084E+03,   987.165E+03,   987.165E+03
C:/temp/Job-4.odb,Step-1,Increment      1: Step Time =    1.000,"P-4-1",          1705,   147.292E-03,   55.4893E-03,            0.,NA,NA,"",   1.07210E+06,   1.05184E+06,   1.05184E+06
C:/temp/Job-4.odb,Step-1,Increment      1: Step Time =    1.000,"P-4-1",          1706,   135.987E-03,   62.7679E-03,            0.,NA,NA,"",   1.11883E+06,   1.08666E+06,   1.08666E+06
C:/temp/Job-4.odb,Step-1,Increment      1: Step Time =    1.000,"P-4-1",          1707,   88.3265E-03,   45.0421E-03,            0.,NA,NA,"",   1.03592E+06,   1.05825E+06,   1.05825E+06
C:/temp/Job-4.odb,Step-1,Increment      1: Step Time =    1.000,"P-4-1",          1708,   146.844E-03,   131.877E-03,            0.,NA,NA,"",   1.06228E+06,   1.03737E+06,   1.03737E+06
C:/temp/Job-4.odb,Step-1,Increment      1: Step Time =    1.000,"P-4-1",          1709,   153.623E-03,   71.7819E-03,            0.,NA,NA,"",   1.02933E+06,   1.01378E+06,   1.01378E+06
C:/temp/Job-4.odb,Step-1,Increment      1: Step Time =    1.000,"P-4-1",          1710,   110.626E-03,   42.8058E-03,            0.,NA,NA,"",   1.02852E+06,   1.04740E+06,   1.04740E+06
C:/temp/Job-4.odb,Step-1,Increment      1: Step Time =    1.000,"P-4-1",          1711,   158.406E-03,   132.550E-03,            0.,NA,NA,"",   1.03016E+06,   1.01847E+06,   1.01847E+06
C:/temp/Job-4.odb,Step-1,Increment      1: Step Time =    1.000,"P-4-1",          1712,   130.247E-03,   44.4254E-03,            0.,NA,NA,"",   1.06652E+06,   1.05859E+06,   1.05859E+06
C:/temp/Job-4.odb,Step-1,Increment      1: Step Time =    1.000,"P-4-1",          1713,   117.790E-03,   50.0893E-03,            0.,NA,NA,"",   1.06766E+06,   1.07588E+06,   1.07588E+06
C:/temp/Job-4.odb,Step-1,Increment      1: Step Time =    1.000,"P-4-1",          1714,   140.643E-03,   149.312E-03,            0.,NA,NA,"",   1.08096E+06,   1.06210E+06,   1.06210E+06
C:/temp/Job-4.odb,Step-1,Increment      1: Step Time =    1.000,"P-4-1",          1715,   60.8816E-03,   143.450E-03,            0.,NA,NA,"",   1.07215E+06,   1.07520E+06,   1.07520E+06
C:/temp/Job-4.odb,Step-1,Increment      1: Step Time =    1.000,"P-4-1",          1716,   138.635E-03,   146.865E-03,            0.,NA,NA,"",   1.09084E+06,   1.06968E+06,   1.06968E+06
C:/temp/Job-4.odb,Step-1,Increment      1: Step Time =    1.000,"P-4-1",          1717,   26.1387E-03,   101.336E-03,            0.,NA,NA,"",   814.826E+03,   896.188E+03,   896.188E+03
C:/temp/Job-4.odb,Step-1,Increment      1: Step Time =    1.000,"P-4-1",          1718,   13.8023E-03,   109.025E-03,            0.,NA,NA,"",   801.825E+03,   894.702E+03,   894.702E+03
C:/temp/Job-4.odb,Step-1,Increment      1: Step Time =    1.000,"P-4-1",          1719,   91.1331E-03,   13.8119E-03,            0.,NA,NA,"",   969.301E+03,   972.125E+03,   972.125E+03
C:/temp/Job-4.odb,Step-1,Increment      1: Step Time =    1.000,"P-4-1",          1720,   98.6413E-03,   26.2436E-03,            0.,NA,NA,"",   995.275E+03,   1.00529E+06,   1.00529E+06
C:/temp/Job-4.odb,Step-1,Increment      1: Step Time =    1.000,"P-4-1",          1721,   109.291E-03,   186.086E-03,            0.,NA,NA,"",   970.121E+03,   972.586E+03,   972.586E+03
C:/temp/Job-4.odb,Step-1,Increment      1: Step Time =    1.000,"P-4-1",          1722,   103.194E-03,   171.928E-03,            0.,NA,NA,"",   997.995E+03,   1.00937E+06,   1.00937E+06
C:/temp/Job-4.odb,Step-1,Increment      1: Step Time =    1.000,"P-4-1",          1723,   184.404E-03,   90.5542E-03,            0.,NA,NA,"",   971.024E+03,   991.043E+03,   991.043E+03
C:/temp/Job-4.odb,Step-1,Increment      1: Step Time =    1.000,"P-4-1",          1724,   172.337E-03,   99.8089E-03,            0.,NA,NA,"",   956.001E+03,   970.210E+03,   970.210E+03
C:/temp/Job-4.odb,Step-1,Increment      1: Step Time =    1.000,"P-4-1",          1725,   93.8602E-03,   36.2369E-03,            0.,NA,NA,"",   1.01329E+06,   1.03103E+06,   1.03103E+06
C:/temp/Job-4.odb,Step-1,Increment      1: Step Time =    1.000,"P-4-1",          1726,   119.863E-03,   66.6830E-03,            0.,NA,NA,"",   1.17597E+06,   1.15821E+06,   1.15821E+06
C:/temp/Job-4.odb,Step-1,Increment      1: Step Time =    1.000,"P-4-1",          1727,   97.6929E-03,   182.855E-03,            0.,NA,NA,"",   976.312E+03,   981.185E+03,   981.185E+03
C:/temp/Job-4.odb,Step-1,Increment      1: Step Time =    1.000,"P-4-1",          1728,   16.7695E-03,   97.2566E-03,            0.,NA,NA,"",   802.153E+03,   892.609E+03,   892.609E+03
C:/temp/Job-4.odb,Step-1,Increment      1: Step Time =    1.000,"P-4-1",          1729,   55.8577E-03,   53.9548E-03,            0.,NA,NA,"",   1.05309E+06,   1.06339E+06,   1.06339E+06
C:/temp/Job-4.odb,Step-1,Increment      1: Step Time =    1.000,"P-4-1",          1730,   92.8242E-03,   165.285E-03,            0.,NA,NA,"",   1.01267E+06,   1.02871E+06,   1.02871E+06
C:/temp/Job-4.odb,Step-1,Increment      1: Step Time =    1.000,"P-4-1",          1731,   143.293E-03,   55.0593E-03,            0.,NA,NA,"",   1.08305E+06,   1.06119E+06,   1.06119E+06
C:/temp/Job-4.odb,Step-1,Increment      1: Step Time =    1.000,"P-4-1",          1732,   85.2608E-03,   42.3770E-03,            0.,NA,NA,"",   1.03784E+06,   1.05525E+06,   1.05525E+06
C:/temp/Job-4.odb,Step-1,Increment      1: Step Time =    1.000,"P-4-1",          1733,   102.040E-03,   52.0635E-03,            0.,NA,NA,"",   1.02700E+06,   1.06627E+06,   1.06627E+06
C:/temp/Job-4.odb,Step-1,Increment      1: Step Time =    1.000,"P-4-1",          1734,   142.244E-03,   136.957E-03,            0.,NA,NA,"",   1.09123E+06,   1.06255E+06,   1.06255E+06
C:/temp/Job-4.odb,Step-1,Increment      1: Step Time =    1.000,"P-4-1",          1735,   68.8757E-03,   46.4290E-03,            0.,NA,NA,"",   1.07208E+06,   1.07591E+06,   1.07591E+06
C:/temp/Job-4.odb,Step-1,Increment      1: Step Time =    1.000,"P-4-1",          1736,   52.1542E-03,   126.622E-03,            0.,NA,NA,"",   972.452E+03,   996.953E+03,   996.953E+03
C:/temp/Job-4.odb,Step-1,Increment      1: Step Time =    1.000,"P-4-1",          1737,   157.598E-03,   139.095E-03,            0.,NA,NA,"",   1.04165E+06,   1.02806E+06,   1.02806E+06
C:/temp/Job-4.odb,Step-1,Increment      1: Step Time =    1.000,"P-4-1",          1738,   134.297E-03,   45.3177E-03,            0.,NA,NA,"",   1.07089E+06,   1.05910E+06,   1.05910E+06
C:/temp/Job-4.odb,Step-1,Increment      1: Step Time =    1.000,"P-4-1",          1739,   108.536E-03,   153.644E-03,            0.,NA,NA,"",   1.03155E+06,   1.05530E+06,   1.05530E+06
C:/temp/Job-4.odb,Step-1,Increment      1: Step Time =    1.000,"P-4-1",          1740,   91.3057E-03,   157.126E-03,            0.,NA,NA,"",   1.02658E+06,   1.04984E+06,   1.04984E+06
C:/temp/Job-4.odb,Step-1,Increment      1: Step Time =    1.000,"P-4-1",          1741,   26.8879E-03,   95.6072E-03,            0.,NA,NA,"",   817.672E+03,   898.009E+03,   898.009E+03
C:/temp/Job-4.odb,Step-1,Increment      1: Step Time =    1.000,"P-4-1",          1742,   142.458E-03,   145.994E-03,            0.,NA,NA,"",   1.08488E+06,   1.06311E+06,   1.06311E+06
C:/temp/Job-4.odb,Step-1,Increment      1: Step Time =    1.000,"P-4-1",          1743,   152.359E-03,   135.094E-03,            0.,NA,NA,"",   1.05012E+06,   1.03186E+06,   1.03186E+06
C:/temp/Job-4.odb,Step-1,Increment      1: Step Time =    1.000,"P-4-1",          1744,   57.3819E-03,   139.025E-03,            0.,NA,NA,"",   1.05216E+06,   1.05951E+06,   1.05951E+06
C:/temp/Job-4.odb,Step-1,Increment      1: Step Time =    1.000,"P-4-1",          1745,   128.889E-03,   56.3287E-03,            0.,NA,NA,"",   1.11321E+06,   1.09497E+06,   1.09497E+06
C:/temp/Job-4.odb,Step-1,Increment      1: Step Time =    1.000,"P-4-1",          1746,   49.0281E-03,   136.504E-03,            0.,NA,NA,"",   1.00285E+06,   1.02749E+06,   1.02749E+06
C:/temp/Job-4.odb,Step-1,Increment      1: Step Time =    1.000,"P-4-1",          1747,   93.9687E-03,   162.424E-03,            0.,NA,NA,"",   1.01507E+06,   1.03414E+06,   1.03414E+06
C:/temp/Job-4.odb,Step-1,Increment      1: Step Time =    1.000,"P-4-1",          1748,   52.2214E-03,   54.1347E-03,            0.,NA,NA,"",   1.04102E+06,   1.05589E+06,   1.05589E+06
C:/temp/Job-4.odb,Step-1,Increment      1: Step Time =    1.000,"P-4-1",          1749,   93.6875E-03,   184.886E-03,            0.,NA,NA,"",   972.297E+03,   975.986E+03,   975.986E+03
C:/temp/Job-4.odb,Step-1,Increment      1: Step Time =    1.000,"P-4-1",          1750,   15.2030E-03,   93.1563E-03,            0.,NA,NA,"",   802.231E+03,   893.917E+03,   893.917E+03
C:/temp/Job-4.odb,Step-1,Increment      1: Step Time =    1.000,"P-4-1",          1751,   37.3490E-03,   106.241E-03,            0.,NA,NA,"",   826.172E+03,   894.906E+03,   894.906E+03
C:/temp/Job-4.odb,Step-1,Increment      1: Step Time =    1.000,"P-4-1",          1752,   108.533E-03,   164.762E-03,            0.,NA,NA,"",   1.01223E+06,   1.02716E+06,   1.02716E+06
C:/temp/Job-4.odb,Step-1,Increment      1: Step Time =    1.000,"P-4-1",          1753,   65.2563E-03,   143.217E-03,            0.,NA,NA,"",   1.08864E+06,   1.08758E+06,   1.08758E+06
C:/temp/Job-4.odb,Step-1,Increment      1: Step Time =    1.000,"P-4-1",          1754,   116.958E-03,   75.0461E-03,            0.,NA,NA,"",   1.25196E+06,   1.21849E+06,   1.21849E+06
C:/temp/Job-4.odb,Step-1,Increment      1: Step Time =    1.000,"P-4-1",          1755,   99.2422E-03,   175.404E-03,            0.,NA,NA,"",   991.909E+03,   1.00114E+06,   1.00114E+06
C:/temp/Job-4.odb,Step-1,Increment      1: Step Time =    1.000,"P-4-1",          1756,   96.2767E-03,   45.0108E-03,            0.,NA,NA,"",   1.02208E+06,   1.05021E+06,   1.05021E+06
C:/temp/Job-4.odb,Step-1,Increment      1: Step Time =    1.000,"P-4-1",          1757,   161.091E-03,   138.602E-03,            0.,NA,NA,"",   1.03313E+06,   1.02257E+06,   1.02257E+06
C:/temp/Job-4.odb,Step-1,Increment      1: Step Time =    1.000,"P-4-1",          1758,   130.389E-03,   41.3549E-03,            0.,NA,NA,"",   1.05790E+06,   1.05149E+06,   1.05149E+06
C:/temp/Job-4.odb,Step-1,Increment      1: Step Time =    1.000,"P-4-1",          1759,   115.648E-03,   65.3498E-03,            0.,NA,NA,"",   1.15217E+06,   1.15717E+06,   1.15717E+06
C:/temp/Job-4.odb,Step-1,Increment      1: Step Time =    1.000,"P-4-1",          1760,   124.815E-03,   55.0285E-03,            0.,NA,NA,"",   1.10500E+06,   1.09542E+06,   1.09542E+06
C:/temp/Job-4.odb,Step-1,Increment      1: Step Time =    1.000,"P-4-1",          1761,   55.7328E-03,   147.622E-03,            0.,NA,NA,"",   1.05455E+06,   1.06432E+06,   1.06432E+06
C:/temp/Job-4.odb,Step-1,Increment      1: Step Time =    1.000,"P-4-1",          1762,   136.590E-03,   143.498E-03,            0.,NA,NA,"",   1.10443E+06,   1.07964E+06,   1.07964E+06
C:/temp/Job-4.odb,Step-1,Increment      1: Step Time =    1.000,"P-4-1",          1763,   10.3751E-03,   94.5620E-03,            0.,NA,NA,"",   792.958E+03,   888.504E+03,   888.504E+03
C:/temp/Job-4.odb,Step-1,Increment      1: Step Time =    1.000,"P-4-1",          1764,   94.9560E-03,   189.575E-03,            0.,NA,NA,"",   957.241E+03,   959.199E+03,   959.199E+03
C:/temp/Job-4.odb,Step-1,Increment      1: Step Time =    1.000,"P-4-1",          1765,   137.541E-03,   58.6102E-03,            0.,NA,NA,"",   1.10587E+06,   1.07906E+06,   1.07906E+06
C:/temp/Job-4.odb,Step-1,Increment      1: Step Time =    1.000,"P-4-1",          1766,   106.273E-03,   49.0855E-03,            0.,NA,NA,"",   1.02910E+06,   1.05985E+06,   1.05985E+06
C:/temp/Job-4.odb,Step-1,Increment      1: Step Time =    1.000,"P-4-1",          1767,   146.158E-03,   137.106E-03,            0.,NA,NA,"",   1.07616E+06,   1.05101E+06,   1.05101E+06
C:/temp/Job-4.odb,Step-1,Increment      1: Step Time =    1.000,"P-4-1",          1768,   135.116E-03,   50.3950E-03,            0.,NA,NA,"",   1.08714E+06,   1.07043E+06,   1.07043E+06
C:/temp/Job-4.odb,Step-1,Increment      1: Step Time =    1.000,"P-4-1",          1769,   157.130E-03,   135.665E-03,            0.,NA,NA,"",   1.03786E+06,   1.02452E+06,   1.02452E+06
C:/temp/Job-4.odb,Step-1,Increment      1: Step Time =    1.000,"P-4-1",          1770,   130.460E-03,   52.6112E-03,            0.,NA,NA,"",   1.09760E+06,   1.08213E+06,   1.08213E+06
C:/temp/Job-4.odb,Step-1,Increment      1: Step Time =    1.000,"P-4-1",          1771,   70.1383E-03,   147.068E-03,            0.,NA,NA,"",   1.09068E+06,   1.09183E+06,   1.09183E+06
C:/temp/Job-4.odb,Step-1,Increment      1: Step Time =    1.000,"P-4-1",          1772,   45.7230E-03,   133.139E-03,            0.,NA,NA,"",   972.227E+03,   1.00612E+06,   1.00612E+06
C:/temp/Job-4.odb,Step-1,Increment      1: Step Time =    1.000,"P-4-1",          1773,   185.451E-03,   94.5707E-03,            0.,NA,NA,"",   969.439E+03,   991.212E+03,   991.212E+03
C:/temp/Job-4.odb,Step-1,Increment      1: Step Time =    1.000,"P-4-1",          1774,   106.061E-03,   186.726E-03,            0.,NA,NA,"",   967.082E+03,   969.625E+03,   969.625E+03
C:/temp/Job-4.odb,Step-1,Increment      1: Step Time =    1.000,"P-4-1",          1775,   94.3439E-03,   12.9771E-03,            0.,NA,NA,"",   965.726E+03,   968.456E+03,   968.456E+03
C:/temp/Job-4.odb,Step-1,Increment      1: Step Time =    1.000,"P-4-1",          1776,   12.9967E-03,   105.773E-03,            0.,NA,NA,"",   797.743E+03,   891.341E+03,   891.341E+03
C:/temp/Job-4.odb,Step-1,Increment      1: Step Time =    1.000,"P-4-1",          1777,   32.7356E-03,   101.998E-03,            0.,NA,NA,"",   819.807E+03,   894.302E+03,   894.302E+03
C:/temp/Job-4.odb,Step-1,Increment      1: Step Time =    1.000,"P-4-1",          1778,   106.477E-03,   168.161E-03,            0.,NA,NA,"",   1.00469E+06,   1.01808E+06,   1.01808E+06
C:/temp/Job-4.odb,Step-1,Increment      1: Step Time =    1.000,"P-4-1",          1779,   138.746E-03,   54.0525E-03,            0.,NA,NA,"",   1.09202E+06,   1.07023E+06,   1.07023E+06
C:/temp/Job-4.odb,Step-1,Increment      1: Step Time =    1.000,"P-4-1",          1780,   106.534E-03,   158.292E-03,            0.,NA,NA,"",   1.01975E+06,   1.04142E+06,   1.04142E+06
C:/temp/Job-4.odb,Step-1,Increment      1: Step Time =    1.000,"P-4-1",          1781,   84.6120E-03,   36.0549E-03,            0.,NA,NA,"",   1.02587E+06,   1.03890E+06,   1.03890E+06
C:/temp/Job-4.odb,Step-1,Increment      1: Step Time =    1.000,"P-4-1",          1782,   114.242E-03,   69.7463E-03,            0.,NA,NA,"",   1.19334E+06,   1.19668E+06,   1.19668E+06
C:/temp/Job-4.odb,Step-1,Increment      1: Step Time =    1.000,"P-4-1",          1783,   103.722E-03,   150.505E-03,            0.,NA,NA,"",   1.02702E+06,   1.06101E+06,   1.06101E+06
C:/temp/Job-4.odb,Step-1,Increment      1: Step Time =    1.000,"P-4-1",          1784,   115.934E-03,   79.0874E-03,            0.,NA,NA,"",   1.30701E+06,   1.25908E+06,   1.25908E+06
C:/temp/Job-4.odb,Step-1,Increment      1: Step Time =    1.000,"P-4-1",          1785,   103.741E-03,   56.6211E-03,            0.,NA,NA,"",   1.03778E+06,   1.08452E+06,   1.08452E+06
C:/temp/Job-4.odb,Step-1,Increment      1: Step Time =    1.000,"P-4-1",          1786,   95.5571E-03,   158.562E-03,            0.,NA,NA,"",   1.01826E+06,   1.04209E+06,   1.04209E+06
C:/temp/Job-4.odb,Step-1,Increment      1: Step Time =    1.000,"P-4-1",          1787,   106.497E-03,   43.6992E-03,            0.,NA,NA,"",   1.02194E+06,   1.04621E+06,   1.04621E+06
C:/temp/Job-4.odb,Step-1,Increment      1: Step Time =    1.000,"P-4-1",          1788,   101.842E-03,   155.879E-03,            0.,NA,NA,"",   1.01815E+06,   1.04570E+06,   1.04570E+06
C:/temp/Job-4.odb,Step-1,Increment      1: Step Time =    1.000,"P-4-1",          1789,   92.4424E-03,   152.521E-03,            0.,NA,NA,"",   1.03128E+06,   1.06038E+06,   1.06038E+06
C:/temp/Job-4.odb,Step-1,Increment      1: Step Time =    1.000,"P-4-1",          1790,   111.059E-03,   63.7312E-03,            0.,NA,NA,"",   1.10532E+06,   1.13914E+06,   1.13914E+06
C:/temp/Job-4.odb,Step-1,Increment      1: Step Time =    1.000,"P-4-1",          1791,   103.332E-03,   47.1480E-03,            0.,NA,NA,"",   1.02157E+06,   1.05262E+06,   1.05262E+06
C:/temp/Job-4.odb,Step-1,Increment      1: Step Time =    1.000,"P-4-1",          1792,   116.821E-03,   55.7333E-03,            0.,NA,NA,"",   1.08923E+06,   1.09868E+06,   1.09868E+06
C:/temp/Job-4.odb,Step-1,Increment      1: Step Time =    1.000,"P-4-1",          1793,   126.731E-03,   51.3028E-03,            0.,NA,NA,"",   1.08995E+06,   1.08078E+06,   1.08078E+06
C:/temp/Job-4.odb,Step-1,Increment      1: Step Time =    1.000,"P-4-1",          1794,   132.963E-03,   145.718E-03,            0.,NA,NA,"",   1.10232E+06,   1.08219E+06,   1.08219E+06
C:/temp/Job-4.odb,Step-1,Increment      1: Step Time =    1.000,"P-4-1",          1795,   9.68110E-03,   104.910E-03,            0.,NA,NA,"",   791.999E+03,   887.940E+03,   887.940E+03
C:/temp/Job-4.odb,Step-1,Increment      1: Step Time =    1.000,"P-4-1",          1796,   95.1577E-03,   9.70911E-03,            0.,NA,NA,"",   955.500E+03,   957.188E+03,   957.188E+03
C:/temp/Job-4.odb,Step-1,Increment      1: Step Time =    1.000,"P-4-1",          1797,   190.084E-03,   94.1655E-03,            0.,NA,NA,"",   969.306E+03,   995.601E+03,   995.601E+03
C:/temp/Job-4.odb,Step-1,Increment      1: Step Time =    1.000,"P-4-1",          1798,   105.054E-03,   190.140E-03,            0.,NA,NA,"",   956.958E+03,   958.571E+03,   958.571E+03
C:/temp/Job-4.odb,Step-1,Increment      1: Step Time =    1.000,"P-4-1",          1799,   36.7102E-03,   103.044E-03,            0.,NA,NA,"",   821.048E+03,   891.278E+03,   891.278E+03
C:/temp/Job-4.odb,Step-1,Increment      1: Step Time =    1.000,"P-4-1",          1800,   96.6737E-03,   171.435E-03,            0.,NA,NA,"",   999.623E+03,   1.01167E+06,   1.01167E+06
C:/temp/Job-4.odb,Step-1,Increment      1: Step Time =    1.000,"P-4-1",          1801,   104.267E-03,   163.861E-03,            0.,NA,NA,"",   1.00986E+06,   1.02749E+06,   1.02749E+06
C:/temp/Job-4.odb,Step-1,Increment      1: Step Time =    1.000,"P-4-1",          1802,   112.303E-03,   74.5788E-03,            0.,NA,NA,"",   1.24747E+06,   1.25323E+06,   1.25323E+06
C:/temp/Job-4.odb,Step-1,Increment      1: Step Time =    1.000,"P-4-1",          1803,   108.120E-03,   53.0318E-03,            0.,NA,NA,"",   1.04249E+06,   1.07545E+06,   1.07545E+06
C:/temp/Job-4.odb,Step-1,Increment      1: Step Time =    1.000,"P-4-1",          1804,   107.691E-03,   59.8654E-03,            0.,NA,NA,"",   1.05984E+06,   1.10319E+06,   1.10319E+06
C:/temp/Job-4.odb,Step-1,Increment      1: Step Time =    1.000,"P-4-1",          1805,   103.313E-03,   43.7002E-03,            0.,NA,NA,"",   1.01865E+06,   1.04565E+06,   1.04565E+06
C:/temp/Job-4.odb,Step-1,Increment      1: Step Time =    1.000,"P-4-1",          1806,   134.684E-03,   139.501E-03,            0.,NA,NA,"",   1.11943E+06,   1.08948E+06,   1.08948E+06
C:/temp/Job-4.odb,Step-1,Increment      1: Step Time =    1.000,"P-4-1",          1807,   117.583E-03,   61.2291E-03,            0.,NA,NA,"",   1.12549E+06,   1.12872E+06,   1.12872E+06
C:/temp/Job-4.odb,Step-1,Increment      1: Step Time =    1.000,"P-4-1",          1808,   107.162E-03,   65.2546E-03,            0.,NA,NA,"",   1.08161E+06,   1.13890E+06,   1.13890E+06
C:/temp/Job-4.odb,Step-1,Increment      1: Step Time =    1.000,"P-4-1",          1809,   114.212E-03,   52.6922E-03,            0.,NA,NA,"",   1.06632E+06,   1.08322E+06,   1.08322E+06
C:/temp/Job-4.odb,Step-1,Increment      1: Step Time =    1.000,"P-4-1",          1810,   102.798E-03,   146.074E-03,            0.,NA,NA,"",   1.02958E+06,   1.07216E+06,   1.07216E+06
C:/temp/Job-4.odb,Step-1,Increment      1: Step Time =    1.000,"P-4-1",          1811,   133.179E-03,   57.5405E-03,            0.,NA,NA,"",   1.11269E+06,   1.08874E+06,   1.08874E+06
C:/temp/Job-4.odb,Step-1,Increment      1: Step Time =    1.000,"P-4-1",          1812,   106.118E-03,   73.2440E-03,            0.,NA,NA,"",   1.16424E+06,   1.24089E+06,   1.24089E+06
C:/temp/Job-4.odb,Step-1,Increment      1: Step Time =    1.000,"P-4-1",          1813,   106.220E-03,   68.7495E-03,            0.,NA,NA,"",   1.10458E+06,   1.17436E+06,   1.17436E+06
C:/temp/Job-4.odb,Step-1,Increment      1: Step Time =    1.000,"P-4-1",          1814,   107.838E-03,   77.2840E-03,            0.,NA,NA,"",   1.26327E+06,   1.32282E+06,   1.32282E+06
C:/temp/Job-4.odb,Step-1,Increment      1: Step Time =    1.000,"P-4-1",          1815,   104.735E-03,   63.2913E-03,            0.,NA,NA,"",   1.05566E+06,   1.11595E+06,   1.11595E+06
C:/temp/Job-4.odb,Step-1,Increment      1: Step Time =    1.000,"P-4-1",          1816,   99.1557E-03,   62.1704E-03,            0.,NA,NA,"",   1.04486E+06,   1.10744E+06,   1.10744E+06
C:/temp/Job-4.odb,Step-1,Increment      1: Step Time =    1.000,"P-4-1",          1817,   131.481E-03,   183.745E-03,            0.,NA,NA,"",   994.470E+03,   993.542E+03,   993.542E+03
C:/temp/Job-4.odb,Step-1,Increment      1: Step Time =    1.000,"P-4-1",          1818,   184.301E-03,   69.7571E-03,            0.,NA,NA,"",   989.887E+03,   1.00083E+06,   1.00083E+06
C:/temp/Job-4.odb,Step-1,Increment      1: Step Time =    1.000,"P-4-1",          1819,   18.0275E-03,   131.696E-03,            0.,NA,NA,"",   860.676E+03,   945.026E+03,   945.026E+03
C:/temp/Job-4.odb,Step-1,Increment      1: Step Time =    1.000,"P-4-1",          1820,   27.8105E-03,   182.318E-03,            0.,NA,NA,"",   1.06973E+06,   1.08826E+06,   1.08826E+06
C:/temp/Job-4.odb,Step-1,Increment      1: Step Time =    1.000,"P-4-1",          1821,   71.0454E-03,   19.5951E-03,            0.,NA,NA,"",   1.00647E+06,   1.00851E+06,   1.00851E+06
C:/temp/Job-4.odb,Step-1,Increment      1: Step Time =    1.000,"P-4-1",          1822,   15.8852E-03,   29.0122E-03,            0.,NA,NA,"",   1.00151E+06,   1.06918E+06,   1.06918E+06
C:/temp/Job-4.odb,Step-1,Increment      1: Step Time =    1.000,"P-4-1",          1823,   68.7260E-03,   124.781E-03,            0.,NA,NA,"",   1.09467E+06,   1.07217E+06,   1.07217E+06
C:/temp/Job-4.odb,Step-1,Increment      1: Step Time =    1.000,"P-4-1",          1824,   96.6678E-03,   15.5320E-03,            0.,NA,NA,"",   972.375E+03,   976.337E+03,   976.337E+03
C:/temp/Job-4.odb,Step-1,Increment      1: Step Time =    1.000,"P-4-1",          1825,   185.965E-03,   98.8111E-03,            0.,NA,NA,"",   968.504E+03,   991.247E+03,   991.247E+03
C:/temp/Job-4.odb,Step-1,Increment      1: Step Time =    1.000,"P-4-1",          1826,   51.3794E-03,   145.472E-03,            0.,NA,NA,"",   1.03640E+06,   1.05297E+06,   1.05297E+06
C:/temp/Job-4.odb,Step-1,Increment      1: Step Time =    1.000,"P-4-1",          1827,   68.1746E-03,   54.0073E-03,            0.,NA,NA,"",   1.08972E+06,   1.09010E+06,   1.09010E+06
C:/temp/Job-4.odb,Step-1,Increment      1: Step Time =    1.000,"P-4-1",          1828,   91.3483E-03,   42.3909E-03,            0.,NA,NA,"",   1.02566E+06,   1.04817E+06,   1.04817E+06
C:/temp/Job-4.odb,Step-1,Increment      1: Step Time =    1.000,"P-4-1",          1829,   124.076E-03,   8.64359E-03,            0.,NA,NA,"",   968.778E+03,   969.009E+03,   969.009E+03
C:/temp/Job-4.odb,Step-1,Increment      1: Step Time =    1.000,"P-4-1",          1830,   190.009E-03,   127.828E-03,            0.,NA,NA,"",   983.394E+03,   999.964E+03,   999.964E+03
C:/temp/Job-4.odb,Step-1,Increment      1: Step Time =    1.000,"P-4-1",          1831,   24.5277E-03,   8.73663E-03,            0.,NA,NA,"",   1.08147E+06,   1.08862E+06,   1.08862E+06
C:/temp/Job-4.odb,Step-1,Increment      1: Step Time =    1.000,"P-4-1",          1832,   7.44980E-03,   175.801E-03,            0.,NA,NA,"",   992.338E+03,   1.08120E+06,   1.08120E+06
C:/temp/Job-4.odb,Step-1,Increment      1: Step Time =    1.000,"P-4-1",          1833,   169.552E-03,   187.302E-03,            0.,NA,NA,"",   1.00128E+06,   1.00050E+06,   1.00050E+06
C:/temp/Job-4.odb,Step-1,Increment      1: Step Time =    1.000,"P-4-1",          1834,   187.393E-03,   30.6695E-03,            0.,NA,NA,"",   1.00215E+06,   1.00248E+06,   1.00248E+06
C:/temp/Job-4.odb,Step-1,Increment      1: Step Time =    1.000,"P-4-1",          1835,   86.6464E-03,   186.949E-03,            0.,NA,NA,"",   969.955E+03,   971.932E+03,   971.932E+03
C:/temp/Job-4.odb,Step-1,Increment      1: Step Time =    1.000,"P-4-1",          1836,   13.2569E-03,   85.9984E-03,            0.,NA,NA,"",   806.898E+03,   899.920E+03,   899.920E+03
C:/temp/Job-4.odb,Step-1,Increment      1: Step Time =    1.000,"P-4-1",          1837,   16.0064E-03,   10.6756E-03,            0.,NA,NA,"",   1.13888E+06,   1.16073E+06,   1.16073E+06
C:/temp/Job-4.odb,Step-1,Increment      1: Step Time =    1.000,"P-4-1",          1838,   8.49963E-03,   184.107E-03,            0.,NA,NA,"",   1.07675E+06,   1.15095E+06,   1.15095E+06
C:/temp/Job-4.odb,Step-1,Increment      1: Step Time =    1.000,"P-4-1",          1839,   32.6698E-03,   13.9148E-03,            0.,NA,NA,"",     1.058E+06,   1.06655E+06,   1.06655E+06
C:/temp/Job-4.odb,Step-1,Increment      1: Step Time =    1.000,"P-4-1",          1840,   66.7920E-03,   186.491E-03,            0.,NA,NA,"",   992.534E+03,   993.239E+03,   993.239E+03
C:/temp/Job-4.odb,Step-1,Increment      1: Step Time =    1.000,"P-4-1",          1841,   13.5590E-03,   66.2009E-03,            0.,NA,NA,"",   852.394E+03,   942.430E+03,   942.430E+03
C:/temp/Job-4.odb,Step-1,Increment      1: Step Time =    1.000,"P-4-1",          1842,   13.9246E-03,   168.137E-03,            0.,NA,NA,"",   977.233E+03,   1.05296E+06,   1.05296E+06
C:/temp/Job-4.odb,Step-1,Increment      1: Step Time =    1.000,"P-4-1",          1843,   7.96423E-03,   15.8155E-03,            0.,NA,NA,"",   1.06989E+06,   1.14723E+06,   1.14723E+06
C:/temp/Job-4.odb,Step-1,Increment      1: Step Time =    1.000,"P-4-1",          1844,   10.1691E-03,   114.180E-03,            0.,NA,NA,"",   801.494E+03,   897.014E+03,   897.014E+03
C:/temp/Job-4.odb,Step-1,Increment      1: Step Time =    1.000,"P-4-1",          1845,   115.101E-03,   9.30863E-03,            0.,NA,NA,"",   961.675E+03,   962.560E+03,   962.560E+03
C:/temp/Job-4.odb,Step-1,Increment      1: Step Time =    1.000,"P-4-1",          1846,   85.7924E-03,   10.4017E-03,            0.,NA,NA,"",   961.528E+03,   963.034E+03,   963.034E+03
C:/temp/Job-4.odb,Step-1,Increment      1: Step Time =    1.000,"P-4-1",          1847,   9.77735E-03,   85.4053E-03,            0.,NA,NA,"",   800.881E+03,   896.586E+03,   896.586E+03
C:/temp/Job-4.odb,Step-1,Increment      1: Step Time =    1.000,"P-4-1",          1848,   15.5990E-03,   190.500E-03,            0.,NA,NA,"",   1.14580E+06,   1.16493E+06,   1.16493E+06
C:/temp/Job-4.odb,Step-1,Increment      1: Step Time =    1.000,"P-4-1",          1849,   114.103E-03,   189.940E-03,            0.,NA,NA,"",   962.577E+03,   963.699E+03,   963.699E+03
C:/temp/Job-4.odb,Step-1,Increment      1: Step Time =    1.000,"P-4-1",          1850,   189.995E-03,   118.257E-03,            0.,NA,NA,"",   975.758E+03,   997.532E+03,   997.532E+03
C:/temp/Job-4.odb,Step-1,Increment      1: Step Time =    1.000,"P-4-1",          1851,   190.561E-03,   83.9253E-03,            0.,NA,NA,"",   974.182E+03,   997.554E+03,   997.554E+03
C:/temp/Job-4.odb,Step-1,Increment      1: Step Time =    1.000,"P-4-1",          1852,   85.8166E-03,   190.238E-03,            0.,NA,NA,"",   959.662E+03,   960.864E+03,   960.864E+03
C:/temp/Job-4.odb,Step-1,Increment      1: Step Time =    1.000,"P-4-1",          1853,   23.2969E-03,   98.3438E-03,            0.,NA,NA,"",   811.467E+03,   895.831E+03,   895.831E+03
C:/temp/Job-4.odb,Step-1,Increment      1: Step Time =    1.000,"P-4-1",          1854,   103.960E-03,   183.994E-03,            0.,NA,NA,"",   973.772E+03,   977.794E+03,   977.794E+03
C:/temp/Job-4.odb,Step-1,Increment      1: Step Time =    1.000,"P-4-1",          1855,   15.5714E-03,   103.493E-03,            0.,NA,NA,"",   800.932E+03,   892.367E+03,   892.367E+03
C:/temp/Job-4.odb,Step-1,Increment      1: Step Time =    1.000,"P-4-1",          1856,   78.6245E-03,   73.0693E-03,            0.,NA,NA,"",   1.21053E+06,   1.17927E+06,   1.17927E+06
C:/temp/Job-4.odb,Step-1,Increment      1: Step Time =    1.000,"P-4-1",          1857,   174.779E-03,   21.6200E-03,            0.,NA,NA,"",   1.00516E+06,   1.00393E+06,   1.00393E+06
C:/temp/Job-4.odb,Step-1,Increment      1: Step Time =    1.000,"P-4-1",          1858,   178.114E-03,   175.350E-03,            0.,NA,NA,"",   1.00509E+06,   1.00418E+06,   1.00418E+06
C:/temp/Job-4.odb,Step-1,Increment      1: Step Time =    1.000,"P-4-1",          1859,   134.139E-03,   134.930E-03,            0.,NA,NA,"",   1.12698E+06,   1.09131E+06,   1.09131E+06
C:/temp/Job-4.odb,Step-1,Increment      1: Step Time =    1.000,"P-4-1",          1860,   35.3787E-03,   98.6941E-03,            0.,NA,NA,"",   819.643E+03,   891.582E+03,   891.582E+03
C:/temp/Job-4.odb,Step-1,Increment      1: Step Time =    1.000,"P-4-1",          1861,   25.0559E-03,   12.2671E-03,            0.,NA,NA,"",   1.08475E+06,   1.09696E+06,   1.09696E+06
C:/temp/Job-4.odb,Step-1,Increment      1: Step Time =    1.000,"P-4-1",          1862,   10.7639E-03,   179.093E-03,            0.,NA,NA,"",   1.03707E+06,   1.10965E+06,   1.10965E+06
C:/temp/Job-4.odb,Step-1,Increment      1: Step Time =    1.000,"P-4-1",          1863,   54.7479E-03,   22.6397E-03,            0.,NA,NA,"",   1.03301E+06,   1.03614E+06,   1.03614E+06
C:/temp/Job-4.odb,Step-1,Increment      1: Step Time =    1.000,"P-4-1",          1864,   177.079E-03,   52.1419E-03,            0.,NA,NA,"",   1.01079E+06,   1.01066E+06,   1.01066E+06
C:/temp/Job-4.odb,Step-1,Increment      1: Step Time =    1.000,"P-4-1",          1865,   151.573E-03,   21.8682E-03,            0.,NA,NA,"",   1.01224E+06,   1.00842E+06,   1.00842E+06
C:/temp/Job-4.odb,Step-1,Increment      1: Step Time =    1.000,"P-4-1",          1866,   177.987E-03,   155.230E-03,            0.,NA,NA,"",   1.01050E+06,   1.00974E+06,   1.00974E+06
C:/temp/Job-4.odb,Step-1,Increment      1: Step Time =    1.000,"P-4-1",          1867,   56.7852E-03,   142.912E-03,            0.,NA,NA,"",   1.05447E+06,   1.06303E+06,   1.06303E+06
C:/temp/Job-4.odb,Step-1,Increment      1: Step Time =    1.000,"P-4-1",          1868,   24.8494E-03,   153.107E-03,            0.,NA,NA,"",   958.231E+03,   1.02024E+06,   1.02024E+06
C:/temp/Job-4.odb,Step-1,Increment      1: Step Time =    1.000,"P-4-1",          1869,   151.403E-03,   175.953E-03,            0.,NA,NA,"",   1.01629E+06,   1.01166E+06,   1.01166E+06
C:/temp/Job-4.odb,Step-1,Increment      1: Step Time =    1.000,"P-4-1",          1870,   53.0520E-03,   179.106E-03,            0.,NA,NA,"",   1.03169E+06,   1.03494E+06,   1.03494E+06
C:/temp/Job-4.odb,Step-1,Increment      1: Step Time =    1.000,"P-4-1",          1871,   5.07697E-03,   5.21021E-03,            0.,NA,NA,"",   1.33488E+06,   1.38770E+06,   1.38770E+06
C:/temp/Job-4.odb,Step-1,Increment      1: Step Time =    1.000,"P-4-1",          1872,   99.7112E-03,   117.618E-03,            0.,NA,NA,"",   1.67554E+06,   1.80099E+06,   1.80099E+06
C:/temp/Job-4.odb,Step-1,Increment      1: Step Time =    1.000,"P-4-1",          1873,   114.100E-03,   108.236E-03,            0.,NA,NA,"",   888.267E+03,   566.130E+03,   566.130E+03
C:/temp/Job-4.odb,Step-1,Increment      1: Step Time =    1.000,"P-4-1",          1874,   116.936E-03,   96.1236E-03,            0.,NA,NA,"",   554.769E+03,   212.509E+03,   212.509E+03
C:/temp/Job-4.odb,Step-1,Increment      1: Step Time =    1.000,"P-4-1",          1875,   108.896E-03,   85.6239E-03,            0.,NA,NA,"",   1.50802E+06,   1.50969E+06,   1.50969E+06
C:/temp/Job-4.odb,Step-1,Increment      1: Step Time =    1.000,"P-4-1",          1876,   83.6707E-03,   94.9738E-03,            0.,NA,NA,"",   629.534E+03,   303.135E+03,   303.135E+03
C:/temp/Job-4.odb,Step-1,Increment      1: Step Time =    1.000,"P-4-1",          1877,   85.0835E-03,   107.595E-03,            0.,NA,NA,"",   809.715E+03,   517.247E+03,   517.247E+03
C:/temp/Job-4.odb,Step-1,Increment      1: Step Time =    1.000,"P-4-1",          1878,   7.43471E-03,   19.3848E-03,            0.,NA,NA,"",   1.03362E+06,   1.11831E+06,   1.11831E+06
C:/temp/Job-4.odb,Step-1,Increment      1: Step Time =    1.000,"P-4-1",          1879,   190.396E-03,   108.080E-03,            0.,NA,NA,"",   969.753E+03,   995.861E+03,   995.861E+03
C:/temp/Job-4.odb,Step-1,Increment      1: Step Time =    1.000,"P-4-1",          1880,   58.4637E-03,   191.190E-03,            0.,NA,NA,"",   987.505E+03,   987.819E+03,   987.819E+03
C:/temp/Job-4.odb,Step-1,Increment      1: Step Time =    1.000,"P-4-1",          1881,   192.598E-03,   42.1888E-03,            0.,NA,NA,"",   998.540E+03,   1.00144E+06,   1.00144E+06
C:/temp/Job-4.odb,Step-1,Increment      1: Step Time =    1.000,"P-4-1",          1882,   157.983E-03,   192.350E-03,            0.,NA,NA,"",   995.927E+03,   995.357E+03,   995.357E+03
C:/temp/Job-4.odb,Step-1,Increment      1: Step Time =    1.000,"P-4-1",          1883,   112.405E-03,   119.088E-03,            0.,NA,NA,"",   1.35274E+06,   1.32292E+06,   1.32292E+06
C:/temp/Job-4.odb,Step-1,Increment      1: Step Time =    1.000,"P-4-1",          1884,   122.650E-03,   103.258E-03,            0.,NA,NA,"",   505.035E+03,   464.402E+03,   464.402E+03
C:/temp/Job-4.odb,Step-1,Increment      1: Step Time =    1.000,"P-4-1",          1885,   90.3118E-03,   123.144E-03,            0.,NA,NA,"",   1.27948E+06,   1.32377E+06,   1.32377E+06
C:/temp/Job-4.odb,Step-1,Increment      1: Step Time =    1.000,"P-4-1",          1886,   83.9089E-03,   81.5001E-03,            0.,NA,NA,"",   1.32556E+06,   1.26270E+06,   1.26270E+06
C:/temp/Job-4.odb,Step-1,Increment      1: Step Time =    1.000,"P-4-1",          1887,   103.825E-03,   121.538E-03,            0.,NA,NA,"",   1.27879E+06,   1.39230E+06,   1.39230E+06
C:/temp/Job-4.odb,Step-1,Increment      1: Step Time =    1.000,"P-4-1",          1888,   121.617E-03,   88.6320E-03,            0.,NA,NA,"",   1.05356E+06,   928.023E+03,   928.023E+03
C:/temp/Job-4.odb,Step-1,Increment      1: Step Time =    1.000,"P-4-1",          1889,   78.7826E-03,   96.9133E-03,            0.,NA,NA,"",   498.169E+03,   477.753E+03,   477.753E+03
C:/temp/Job-4.odb,Step-1,Increment      1: Step Time =    1.000,"P-4-1",          1890,   119.809E-03,   108.851E-03,            0.,NA,NA,"",   951.020E+03,   818.901E+03,   818.901E+03
C:/temp/Job-4.odb,Step-1,Increment      1: Step Time =    1.000,"P-4-1",          1891,   109.665E-03,   72.2390E-03,            0.,NA,NA,"",   1.19403E+06,   1.23461E+06,   1.23461E+06
C:/temp/Job-4.odb,Step-1,Increment      1: Step Time =    1.000,"P-4-1",          1892,   123.505E-03,   80.8412E-03,            0.,NA,NA,"",   1.22289E+06,   1.13238E+06,   1.13238E+06
C:/temp/Job-4.odb,Step-1,Increment      1: Step Time =    1.000,"P-4-1",          1893,   91.1315E-03,   126.580E-03,            0.,NA,NA,"",   1.18268E+06,   1.24429E+06,   1.24429E+06
C:/temp/Job-4.odb,Step-1,Increment      1: Step Time =    1.000,"P-4-1",          1894,   35.2650E-03,   184.370E-03,            0.,NA,NA,"",   1.05363E+06,   1.06218E+06,   1.06218E+06
C:/temp/Job-4.odb,Step-1,Increment      1: Step Time =    1.000,"P-4-1",          1895,   38.1891E-03,   181.857E-03,            0.,NA,NA,"",   1.04855E+06,   1.05719E+06,   1.05719E+06
C:/temp/Job-4.odb,Step-1,Increment      1: Step Time =    1.000,"P-4-1",          1896,   188.874E-03,   49.6216E-03,            0.,NA,NA,"",   998.411E+03,   1.00301E+06,   1.00301E+06
C:/temp/Job-4.odb,Step-1,Increment      1: Step Time =    1.000,"P-4-1",          1897,   162.176E-03,   18.4104E-03,            0.,NA,NA,"",   1.00635E+06,   1.00412E+06,   1.00412E+06
C:/temp/Job-4.odb,Step-1,Increment      1: Step Time =    1.000,"P-4-1",          1898,   150.290E-03,   188.658E-03,            0.,NA,NA,"",   996.253E+03,   995.003E+03,   995.003E+03
C:/temp/Job-4.odb,Step-1,Increment      1: Step Time =    1.000,"P-4-1",          1899,   135.363E-03,   185.144E-03,            0.,NA,NA,"",   994.473E+03,   993.071E+03,   993.071E+03
C:/temp/Job-4.odb,Step-1,Increment      1: Step Time =    1.000,"P-4-1",          1900,   138.477E-03,   182.819E-03,            0.,NA,NA,"",   1.00076E+06,   998.602E+03,   998.602E+03
C:/temp/Job-4.odb,Step-1,Increment      1: Step Time =    1.000,"P-4-1",          1901,   184.994E-03,   65.1021E-03,            0.,NA,NA,"",   993.620E+03,   1.00266E+06,   1.00266E+06
C:/temp/Job-4.odb,Step-1,Increment      1: Step Time =    1.000,"P-4-1",          1902,   182.533E-03,   61.5565E-03,            0.,NA,NA,"",   998.673E+03,   1.00476E+06,   1.00476E+06
C:/temp/Job-4.odb,Step-1,Increment      1: Step Time =    1.000,"P-4-1",          1903,   185.800E-03,   164.122E-03,            0.,NA,NA,"",   1.00316E+06,   1.00387E+06,   1.00387E+06
C:/temp/Job-4.odb,Step-1,Increment      1: Step Time =    1.000,"P-4-1",          1904,   182.975E-03,   162.192E-03,            0.,NA,NA,"",   1.00524E+06,   1.00552E+06,   1.00552E+06
C:/temp/Job-4.odb,Step-1,Increment      1: Step Time =    1.000,"P-4-1",          1905,   187.255E-03,   141.422E-03,            0.,NA,NA,"",    995.76E+03,   1.00328E+06,   1.00328E+06
C:/temp/Job-4.odb,Step-1,Increment      1: Step Time =    1.000,"P-4-1",          1906,   185.305E-03,   114.567E-03,            0.,NA,NA,"",   974.390E+03,   993.585E+03,   993.585E+03
C:/temp/Job-4.odb,Step-1,Increment      1: Step Time =    1.000,"P-4-1",          1907,   186.130E-03,   102.975E-03,            0.,NA,NA,"",   968.631E+03,   991.426E+03,   991.426E+03
C:/temp/Job-4.odb,Step-1,Increment      1: Step Time =    1.000,"P-4-1",          1908,   116.337E-03,   115.957E-03,            0.,NA,NA,"",   1.31000E+06,   1.19953E+06,   1.19953E+06
C:/temp/Job-4.odb,Step-1,Increment      1: Step Time =    1.000,"P-4-1",          1909,   117.149E-03,   126.438E-03,            0.,NA,NA,"",   1.25677E+06,   1.22516E+06,   1.22516E+06
C:/temp/Job-4.odb,Step-1,Increment      1: Step Time =    1.000,"P-4-1",          1910,   87.9662E-03,   77.4095E-03,            0.,NA,NA,"",   1.28692E+06,   1.29483E+06,   1.29483E+06
C:/temp/Job-4.odb,Step-1,Increment      1: Step Time =    1.000,"P-4-1",          1911,   78.5528E-03,   183.327E-03,            0.,NA,NA,"",   988.869E+03,   991.228E+03,   991.228E+03
C:/temp/Job-4.odb,Step-1,Increment      1: Step Time =    1.000,"P-4-1",          1912,   127.310E-03,   81.7885E-03,            0.,NA,NA,"",   1.13667E+06,   1.05755E+06,   1.05755E+06
C:/temp/Job-4.odb,Step-1,Increment      1: Step Time =    1.000,"P-4-1",          1913,   127.042E-03,   99.9655E-03,            0.,NA,NA,"",   578.359E+03,   585.081E+03,   585.081E+03
C:/temp/Job-4.odb,Step-1,Increment      1: Step Time =    1.000,"P-4-1",          1914,   75.0107E-03,   116.559E-03,            0.,NA,NA,"",   1.09776E+06,   1.03966E+06,   1.03966E+06
C:/temp/Job-4.odb,Step-1,Increment      1: Step Time =    1.000,"P-4-1",          1915,   125.752E-03,   107.890E-03,            0.,NA,NA,"",   817.413E+03,   759.481E+03,   759.481E+03
C:/temp/Job-4.odb,Step-1,Increment      1: Step Time =    1.000,"P-4-1",          1916,   76.2408E-03,   93.7010E-03,            0.,NA,NA,"",   715.010E+03,   683.664E+03,   683.664E+03
C:/temp/Job-4.odb,Step-1,Increment      1: Step Time =    1.000,"P-4-1",          1917,   69.1907E-03,   102.686E-03,            0.,NA,NA,"",   632.024E+03,   668.076E+03,   668.076E+03
C:/temp/Job-4.odb,Step-1,Increment      1: Step Time =    1.000,"P-4-1",          1918,   184.144E-03,   112.168E-03,            0.,NA,NA,"",   972.760E+03,   992.123E+03,   992.123E+03
C:/temp/Job-4.odb,Step-1,Increment      1: Step Time =    1.000,"P-4-1",          1919,   182.353E-03,   87.1764E-03,            0.,NA,NA,"",   973.020E+03,   990.621E+03,   990.621E+03
C:/temp/Job-4.odb,Step-1,Increment      1: Step Time =    1.000,"P-4-1",          1920,   184.433E-03,   148.147E-03,            0.,NA,NA,"",   1.00111E+06,   1.00508E+06,   1.00508E+06
C:/temp/Job-4.odb,Step-1,Increment      1: Step Time =    1.000,"P-4-1",          1921,   43.2065E-03,   182.685E-03,            0.,NA,NA,"",   1.03817E+06,   1.04343E+06,   1.04343E+06
C:/temp/Job-4.odb,Step-1,Increment      1: Step Time =    1.000,"P-4-1",          1922,   71.4071E-03,   94.0014E-03,            0.,NA,NA,"",   716.585E+03,   725.864E+03,   725.864E+03
C:/temp/Job-4.odb,Step-1,Increment      1: Step Time =    1.000,"P-4-1",          1923,   128.797E-03,   78.1676E-03,            0.,NA,NA,"",   1.15742E+06,   1.08950E+06,   1.08950E+06
C:/temp/Job-4.odb,Step-1,Increment      1: Step Time =    1.000,"P-4-1",          1924,   180.240E-03,   166.220E-03,            0.,NA,NA,"",   1.00702E+06,   1.00627E+06,   1.00627E+06
C:/temp/Job-4.odb,Step-1,Increment      1: Step Time =    1.000,"P-4-1",          1925,   21.2180E-03,   183.027E-03,            0.,NA,NA,"",   1.08596E+06,   1.11540E+06,   1.11540E+06
C:/temp/Job-4.odb,Step-1,Increment      1: Step Time =    1.000,"P-4-1",          1926,   33.8492E-03,   181.381E-03,            0.,NA,NA,"",   1.05722E+06,   1.06981E+06,   1.06981E+06
C:/temp/Job-4.odb,Step-1,Increment      1: Step Time =    1.000,"P-4-1",          1927,   68.0710E-03,   91.5945E-03,            0.,NA,NA,"",   797.963E+03,   809.831E+03,   809.831E+03
C:/temp/Job-4.odb,Step-1,Increment      1: Step Time =    1.000,"P-4-1",          1928,   145.072E-03,   12.7653E-03,            0.,NA,NA,"",   995.704E+03,   994.227E+03,   994.227E+03
C:/temp/Job-4.odb,Step-1,Increment      1: Step Time =    1.000,"P-4-1",          1929,   137.202E-03,   11.9641E-03,            0.,NA,NA,"",   988.941E+03,   987.960E+03,   987.960E+03
C:/temp/Job-4.odb,Step-1,Increment      1: Step Time =    1.000,"P-4-1",          1930,   111.182E-03,   14.3107E-03,            0.,NA,NA,"",   972.371E+03,   974.930E+03,   974.930E+03
C:/temp/Job-4.odb,Step-1,Increment      1: Step Time =    1.000,"P-4-1",          1931,   77.6274E-03,   176.791E-03,            0.,NA,NA,"",   1.00773E+06,   1.01181E+06,   1.01181E+06
C:/temp/Job-4.odb,Step-1,Increment      1: Step Time =    1.000,"P-4-1",          1932,   66.6129E-03,   181.850E-03,            0.,NA,NA,"",   1.00768E+06,   1.00888E+06,   1.00888E+06
C:/temp/Job-4.odb,Step-1,Increment      1: Step Time =    1.000,"P-4-1",          1933,   177.324E-03,   122.223E-03,            0.,NA,NA,"",   984.657E+03,   994.516E+03,   994.516E+03
C:/temp/Job-4.odb,Step-1,Increment      1: Step Time =    1.000,"P-4-1",          1934,   176.197E-03,   131.155E-03,            0.,NA,NA,"",   998.105E+03,   1.00275E+06,   1.00275E+06
C:/temp/Job-4.odb,Step-1,Increment      1: Step Time =    1.000,"P-4-1",          1935,   182.301E-03,   154.413E-03,            0.,NA,NA,"",   1.00526E+06,   1.00655E+06,   1.00655E+06
C:/temp/Job-4.odb,Step-1,Increment      1: Step Time =    1.000,"P-4-1",          1936,   70.6539E-03,   118.798E-03,            0.,NA,NA,"",   1.06156E+06,   1.02834E+06,   1.02834E+06
C:/temp/Job-4.odb,Step-1,Increment      1: Step Time =    1.000,"P-4-1",          1937,   181.573E-03,   102.670E-03,            0.,NA,NA,"",   966.523E+03,   985.695E+03,   985.695E+03
C:/temp/Job-4.odb,Step-1,Increment      1: Step Time =    1.000,"P-4-1",          1938,   180.689E-03,   94.9552E-03,            0.,NA,NA,"",   966.971E+03,   985.192E+03,   985.192E+03
C:/temp/Job-4.odb,Step-1,Increment      1: Step Time =    1.000,"P-4-1",          1939,   180.820E-03,   82.7618E-03,            0.,NA,NA,"",   976.999E+03,   991.471E+03,   991.471E+03
C:/temp/Job-4.odb,Step-1,Increment      1: Step Time =    1.000,"P-4-1",          1940,   91.4951E-03,   72.8870E-03,            0.,NA,NA,"",   1.17801E+06,   1.23098E+06,   1.23098E+06
C:/temp/Job-4.odb,Step-1,Increment      1: Step Time =    1.000,"P-4-1",          1941,   179.076E-03,   63.7904E-03,            0.,NA,NA,"",   1.00086E+06,   1.00547E+06,   1.00547E+06
C:/temp/Job-4.odb,Step-1,Increment      1: Step Time =    1.000,"P-4-1",          1942,   185.332E-03,   46.6532E-03,            0.,NA,NA,"",   1.00250E+06,   1.00495E+06,   1.00495E+06
C:/temp/Job-4.odb,Step-1,Increment      1: Step Time =    1.000,"P-4-1",          1943,   135.970E-03,   179.270E-03,            0.,NA,NA,"",   1.00691E+06,   1.00442E+06,   1.00442E+06
C:/temp/Job-4.odb,Step-1,Increment      1: Step Time =    1.000,"P-4-1",          1944,   152.698E-03,   184.928E-03,            0.,NA,NA,"",   1.00217E+06,   1.00017E+06,   1.00017E+06
C:/temp/Job-4.odb,Step-1,Increment      1: Step Time =    1.000,"P-4-1",          1945,   132.514E-03,   79.5943E-03,            0.,NA,NA,"",   1.09418E+06,   1.03850E+06,   1.03850E+06
C:/temp/Job-4.odb,Step-1,Increment      1: Step Time =    1.000,"P-4-1",          1946,   62.9194E-03,   102.472E-03,            0.,NA,NA,"",   713.689E+03,   758.716E+03,   758.716E+03
C:/temp/Job-4.odb,Step-1,Increment      1: Step Time =    1.000,"P-4-1",          1947,   128.952E-03,   88.7075E-03,            0.,NA,NA,"",   926.991E+03,   878.952E+03,   878.952E+03
C:/temp/Job-4.odb,Step-1,Increment      1: Step Time =    1.000,"P-4-1",          1948,   176.548E-03,   162.596E-03,            0.,NA,NA,"",   1.01115E+06,   1.00944E+06,   1.00944E+06
C:/temp/Job-4.odb,Step-1,Increment      1: Step Time =    1.000,"P-4-1",          1949,   138.882E-03,   176.709E-03,            0.,NA,NA,"",   1.01440E+06,   1.01065E+06,   1.01065E+06
C:/temp/Job-4.odb,Step-1,Increment      1: Step Time =    1.000,"P-4-1",          1950,   176.546E-03,   60.7293E-03,            0.,NA,NA,"",   1.00716E+06,   1.00871E+06,   1.00871E+06
C:/temp/Job-4.odb,Step-1,Increment      1: Step Time =    1.000,"P-4-1",          1951,   88.2201E-03,   182.451E-03,            0.,NA,NA,"",   982.628E+03,   986.677E+03,   986.677E+03
C:/temp/Job-4.odb,Step-1,Increment      1: Step Time =    1.000,"P-4-1",          1952,   47.8708E-03,   182.600E-03,            0.,NA,NA,"",   1.03087E+06,   1.03435E+06,   1.03435E+06
C:/temp/Job-4.odb,Step-1,Increment      1: Step Time =    1.000,"P-4-1",          1953,   75.8720E-03,   69.5126E-03,            0.,NA,NA,"",   1.16707E+06,   1.14531E+06,   1.14531E+06
C:/temp/Job-4.odb,Step-1,Increment      1: Step Time =    1.000,"P-4-1",          1954,   14.9229E-03,   179.921E-03,            0.,NA,NA,"",     1.066E+06,   1.11966E+06,   1.11966E+06
C:/temp/Job-4.odb,Step-1,Increment      1: Step Time =    1.000,"P-4-1",          1955,   102.526E-03,   60.8864E-03,            0.,NA,NA,"",   1.04186E+06,   1.10084E+06,   1.10084E+06
C:/temp/Job-4.odb,Step-1,Increment      1: Step Time =    1.000,"P-4-1",          1956,   10.7682E-03,   176.067E-03,            0.,NA,NA,"",   1.01169E+06,   1.08828E+06,   1.08828E+06
C:/temp/Job-4.odb,Step-1,Increment      1: Step Time =    1.000,"P-4-1",          1957,   19.2436E-03,   22.5064E-03,            0.,NA,NA,"",   1.05233E+06,   1.10009E+06,   1.10009E+06
C:/temp/Job-4.odb,Step-1,Increment      1: Step Time =    1.000,"P-4-1",          1958,   183.832E-03,   32.0506E-03,            0.,NA,NA,"",   1.00423E+06,   1.00416E+06,   1.00416E+06
C:/temp/Job-4.odb,Step-1,Increment      1: Step Time =    1.000,"P-4-1",          1959,   168.399E-03,   183.318E-03,            0.,NA,NA,"",   1.00396E+06,   1.00260E+06,   1.00260E+06
C:/temp/Job-4.odb,Step-1,Increment      1: Step Time =    1.000,"P-4-1",          1960,   65.4553E-03,   94.3082E-03,            0.,NA,NA,"",   739.435E+03,   771.922E+03,   771.922E+03
C:/temp/Job-4.odb,Step-1,Increment      1: Step Time =    1.000,"P-4-1",          1961,   184.481E-03,   73.1286E-03,            0.,NA,NA,"",   986.589E+03,   999.341E+03,   999.341E+03
C:/temp/Job-4.odb,Step-1,Increment      1: Step Time =    1.000,"P-4-1",          1962,   122.475E-03,   71.9044E-03,            0.,NA,NA,"",   1.20980E+06,   1.16550E+06,   1.16550E+06
C:/temp/Job-4.odb,Step-1,Increment      1: Step Time =    1.000,"P-4-1",          1963,   126.788E-03,   183.007E-03,            0.,NA,NA,"",   992.488E+03,   992.438E+03,   992.438E+03
C:/temp/Job-4.odb,Step-1,Increment      1: Step Time =    1.000,"P-4-1",          1964,   122.529E-03,   178.668E-03,            0.,NA,NA,"",   998.915E+03,   1.00013E+06,   1.00013E+06
C:/temp/Job-4.odb,Step-1,Increment      1: Step Time =    1.000,"P-4-1",          1965,   16.5034E-03,   21.0515E-03,            0.,NA,NA,"",   1.05289E+06,   1.10551E+06,   1.10551E+06
C:/temp/Job-4.odb,Step-1,Increment      1: Step Time =    1.000,"P-4-1",          1966,   53.4029E-03,   182.468E-03,            0.,NA,NA,"",   1.02323E+06,   1.02540E+06,   1.02540E+06
C:/temp/Job-4.odb,Step-1,Increment      1: Step Time =    1.000,"P-4-1",          1967,   18.5377E-03,   178.027E-03,            0.,NA,NA,"",   1.05416E+06,   1.10092E+06,   1.10092E+06
C:/temp/Job-4.odb,Step-1,Increment      1: Step Time =    1.000,"P-4-1",          1968,   67.2112E-03,   86.4256E-03,            0.,NA,NA,"",   910.355E+03,   907.873E+03,   907.873E+03
C:/temp/Job-4.odb,Step-1,Increment      1: Step Time =    1.000,"P-4-1",          1969,   167.349E-03,   19.7045E-03,            0.,NA,NA,"",   1.00649E+06,   1.00454E+06,   1.00454E+06
C:/temp/Job-4.odb,Step-1,Increment      1: Step Time =    1.000,"P-4-1",          1970,   154.315E-03,   19.2994E-03,            0.,NA,NA,"",   1.00807E+06,   1.00510E+06,   1.00510E+06
C:/temp/Job-4.odb,Step-1,Increment      1: Step Time =    1.000,"P-4-1",          1971,   180.282E-03,   127.008E-03,            0.,NA,NA,"",   989.579E+03,   999.139E+03,   999.139E+03
C:/temp/Job-4.odb,Step-1,Increment      1: Step Time =    1.000,"P-4-1",          1972,   31.1330E-03,   177.685E-03,            0.,NA,NA,"",   1.05566E+06,   1.07711E+06,   1.07711E+06
C:/temp/Job-4.odb,Step-1,Increment      1: Step Time =    1.000,"P-4-1",          1973,   184.620E-03,   35.4715E-03,            0.,NA,NA,"",   1.00382E+06,   1.00424E+06,   1.00424E+06
C:/temp/Job-4.odb,Step-1,Increment      1: Step Time =    1.000,"P-4-1",          1974,   158.942E-03,   185.530E-03,            0.,NA,NA,"",   1.00253E+06,   1.00086E+06,   1.00086E+06
C:/temp/Job-4.odb,Step-1,Increment      1: Step Time =    1.000,"P-4-1",          1975,   165.031E-03,   183.992E-03,            0.,NA,NA,"",   1.00386E+06,   1.00231E+06,   1.00231E+06
C:/temp/Job-4.odb,Step-1,Increment      1: Step Time =    1.000,"P-4-1",          1976,   134.461E-03,   76.0767E-03,            0.,NA,NA,"",   1.10856E+06,   1.05881E+06,   1.05881E+06
C:/temp/Job-4.odb,Step-1,Increment      1: Step Time =    1.000,"P-4-1",          1977,   21.2969E-03,   179.795E-03,            0.,NA,NA,"",   1.06481E+06,   1.10100E+06,   1.10100E+06
C:/temp/Job-4.odb,Step-1,Increment      1: Step Time =    1.000,"P-4-1",          1978,   146.865E-03,   17.8413E-03,            0.,NA,NA,"",   1.00512E+06,   1.00238E+06,   1.00238E+06
C:/temp/Job-4.odb,Step-1,Increment      1: Step Time =    1.000,"P-4-1",          1979,   136.962E-03,   15.8624E-03,            0.,NA,NA,"",   996.675E+03,   995.089E+03,   995.089E+03
C:/temp/Job-4.odb,Step-1,Increment      1: Step Time =    1.000,"P-4-1",          1980,   133.220E-03,   16.0522E-03,            0.,NA,NA,"",   994.283E+03,   993.165E+03,   993.165E+03
C:/temp/Job-4.odb,Step-1,Increment      1: Step Time =    1.000,"P-4-1",          1981,   60.0187E-03,   76.3165E-03,            0.,NA,NA,"",   1.00158E+06,   1.00628E+06,   1.00628E+06
C:/temp/Job-4.odb,Step-1,Increment      1: Step Time =    1.000,"P-4-1",          1982,   176.833E-03,   81.1681E-03,            0.,NA,NA,"",   979.493E+03,   990.403E+03,   990.403E+03
C:/temp/Job-4.odb,Step-1,Increment      1: Step Time =    1.000,"P-4-1",          1983,   51.3128E-03,   182.444E-03,            0.,NA,NA,"",   1.02638E+06,   1.02899E+06,   1.02899E+06
C:/temp/Job-4.odb,Step-1,Increment      1: Step Time =    1.000,"P-4-1",          1984,   47.1723E-03,   173.640E-03,            0.,NA,NA,"",   1.04327E+06,   1.05173E+06,   1.05173E+06
C:/temp/Job-4.odb,Step-1,Increment      1: Step Time =    1.000,"P-4-1",          1985,   177.661E-03,   106.483E-03,            0.,NA,NA,"",   965.052E+03,   981.225E+03,   981.225E+03
C:/temp/Job-4.odb,Step-1,Increment      1: Step Time =    1.000,"P-4-1",          1986,   175.831E-03,   95.2718E-03,            0.,NA,NA,"",   962.037E+03,   977.448E+03,   977.448E+03
C:/temp/Job-4.odb,Step-1,Increment      1: Step Time =    1.000,"P-4-1",          1987,   136.269E-03,   173.001E-03,            0.,NA,NA,"",   1.02214E+06,   1.01791E+06,   1.01791E+06
C:/temp/Job-4.odb,Step-1,Increment      1: Step Time =    1.000,"P-4-1",          1988,   173.325E-03,   63.2585E-03,            0.,NA,NA,"",   1.00910E+06,   1.00918E+06,   1.00918E+06
C:/temp/Job-4.odb,Step-1,Increment      1: Step Time =    1.000,"P-4-1",          1989,   177.609E-03,   48.4304E-03,            0.,NA,NA,"",   1.01079E+06,   1.01036E+06,   1.01036E+06
C:/temp/Job-4.odb,Step-1,Increment      1: Step Time =    1.000,"P-4-1",          1990,   134.540E-03,   84.1621E-03,            0.,NA,NA,"",   998.026E+03,   959.671E+03,   959.671E+03
C:/temp/Job-4.odb,Step-1,Increment      1: Step Time =    1.000,"P-4-1",          1991,   105.327E-03,   143.737E-03,            0.,NA,NA,"",   1.04069E+06,   1.08335E+06,   1.08335E+06
C:/temp/Job-4.odb,Step-1,Increment      1: Step Time =    1.000,"P-4-1",          1992,   146.766E-03,   176.708E-03,            0.,NA,NA,"",   1.01547E+06,   1.01104E+06,   1.01104E+06
C:/temp/Job-4.odb,Step-1,Increment      1: Step Time =    1.000,"P-4-1",          1993,   181.170E-03,   33.3027E-03,            0.,NA,NA,"",   1.00609E+06,   1.00559E+06,   1.00559E+06
C:/temp/Job-4.odb,Step-1,Increment      1: Step Time =    1.000,"P-4-1",          1994,   171.067E-03,   121.833E-03,            0.,NA,NA,"",   985.513E+03,   990.775E+03,   990.775E+03
C:/temp/Job-4.odb,Step-1,Increment      1: Step Time =    1.000,"P-4-1",          1995,   167.408E-03,   179.511E-03,            0.,NA,NA,"",   1.00697E+06,   1.00499E+06,   1.00499E+06
C:/temp/Job-4.odb,Step-1,Increment      1: Step Time =    1.000,"P-4-1",          1996,   57.0139E-03,   101.865E-03,            0.,NA,NA,"",   763.295E+03,   814.183E+03,   814.183E+03
C:/temp/Job-4.odb,Step-1,Increment      1: Step Time =    1.000,"P-4-1",          1997,   75.8816E-03,   63.5407E-03,            0.,NA,NA,"",   1.13959E+06,   1.13214E+06,   1.13214E+06
C:/temp/Job-4.odb,Step-1,Increment      1: Step Time =    1.000,"P-4-1",          1998,   114.061E-03,   59.2298E-03,            0.,NA,NA,"",   1.09465E+06,   1.11364E+06,   1.11364E+06
C:/temp/Job-4.odb,Step-1,Increment      1: Step Time =    1.000,"P-4-1",          1999,   121.572E-03,   62.6866E-03,            0.,NA,NA,"",   1.14703E+06,   1.13338E+06,   1.13338E+06
C:/temp/Job-4.odb,Step-1,Increment      1: Step Time =    1.000,"P-4-1",          2000,   116.681E-03,   135.068E-03,            0.,NA,NA,"",   1.14686E+06,   1.15065E+06,   1.15065E+06
C:/temp/Job-4.odb,Step-1,Increment      1: Step Time =    1.000,"P-4-1",          2001,   62.8425E-03,   87.2402E-03,            0.,NA,NA,"",   872.593E+03,   889.859E+03,   889.859E+03
C:/temp/Job-4.odb,Step-1,Increment      1: Step Time =    1.000,"P-4-1",          2002,   59.2448E-03,   88.0886E-03,            0.,NA,NA,"",   857.543E+03,   885.785E+03,   885.785E+03
C:/temp/Job-4.odb,Step-1,Increment      1: Step Time =    1.000,"P-4-1",          2003,   167.858E-03,   135.042E-03,            0.,NA,NA,"",   1.01511E+06,   1.01134E+06,   1.01134E+06
C:/temp/Job-4.odb,Step-1,Increment      1: Step Time =    1.000,"P-4-1",          2004,   180.967E-03,   36.1343E-03,            0.,NA,NA,"",   1.00653E+06,   1.00616E+06,   1.00616E+06
C:/temp/Job-4.odb,Step-1,Increment      1: Step Time =    1.000,"P-4-1",          2005,   128.226E-03,   69.2206E-03,            0.,NA,NA,"",   1.16905E+06,   1.12506E+06,   1.12506E+06
C:/temp/Job-4.odb,Step-1,Increment      1: Step Time =    1.000,"P-4-1",          2006,   15.5877E-03,   174.748E-03,            0.,NA,NA,"",   1.02569E+06,   1.08762E+06,   1.08762E+06
C:/temp/Job-4.odb,Step-1,Increment      1: Step Time =    1.000,"P-4-1",          2007,   118.220E-03,   174.175E-03,            0.,NA,NA,"",   1.00464E+06,   1.00845E+06,   1.00845E+06
C:/temp/Job-4.odb,Step-1,Increment      1: Step Time =    1.000,"P-4-1",          2008,   129.177E-03,   183.154E-03,            0.,NA,NA,"",   993.814E+03,   993.284E+03,   993.284E+03
C:/temp/Job-4.odb,Step-1,Increment      1: Step Time =    1.000,"P-4-1",          2009,   69.7403E-03,   177.766E-03,            0.,NA,NA,"",   1.01610E+06,   1.01839E+06,   1.01839E+06
C:/temp/Job-4.odb,Step-1,Increment      1: Step Time =    1.000,"P-4-1",          2010,   71.8376E-03,   132.558E-03,            0.,NA,NA,"",   1.13467E+06,   1.11779E+06,   1.11779E+06
C:/temp/Job-4.odb,Step-1,Increment      1: Step Time =    1.000,"P-4-1",          2011,   50.2746E-03,   180.300E-03,            0.,NA,NA,"",   1.03257E+06,   1.03601E+06,   1.03601E+06
C:/temp/Job-4.odb,Step-1,Increment      1: Step Time =    1.000,"P-4-1",          2012,   57.1797E-03,   96.8492E-03,            0.,NA,NA,"",   769.985E+03,   819.125E+03,   819.125E+03
C:/temp/Job-4.odb,Step-1,Increment      1: Step Time =    1.000,"P-4-1",          2013,   170.126E-03,   175.116E-03,            0.,NA,NA,"",   1.00933E+06,   1.00703E+06,   1.00703E+06
C:/temp/Job-4.odb,Step-1,Increment      1: Step Time =    1.000,"P-4-1",          2014,   51.0525E-03,   100.821E-03,            0.,NA,NA,"",   790.242E+03,   846.609E+03,   846.609E+03
C:/temp/Job-4.odb,Step-1,Increment      1: Step Time =    1.000,"P-4-1",          2015,   137.181E-03,   88.5009E-03,            0.,NA,NA,"",   909.302E+03,   892.731E+03,   892.731E+03
C:/temp/Job-4.odb,Step-1,Increment      1: Step Time =    1.000,"P-4-1",          2016,   175.346E-03,   73.4015E-03,            0.,NA,NA,"",   992.653E+03,   998.550E+03,   998.550E+03
C:/temp/Job-4.odb,Step-1,Increment      1: Step Time =    1.000,"P-4-1",          2017,   172.854E-03,   79.6491E-03,            0.,NA,NA,"",   982.605E+03,   989.931E+03,   989.931E+03
C:/temp/Job-4.odb,Step-1,Increment      1: Step Time =    1.000,"P-4-1",          2018,   17.9774E-03,   171.494E-03,            0.,NA,NA,"",   1.01374E+06,   1.07360E+06,   1.07360E+06
C:/temp/Job-4.odb,Step-1,Increment      1: Step Time =    1.000,"P-4-1",          2019,   63.8697E-03,   17.6444E-03,            0.,NA,NA,"",   1.00956E+06,   1.01055E+06,   1.01055E+06
C:/temp/Job-4.odb,Step-1,Increment      1: Step Time =    1.000,"P-4-1",          2020,   60.0543E-03,   17.2253E-03,            0.,NA,NA,"",   1.01319E+06,   1.01418E+06,   1.01418E+06
C:/temp/Job-4.odb,Step-1,Increment      1: Step Time =    1.000,"P-4-1",          2021,   157.640E-03,   174.490E-03,            0.,NA,NA,"",   1.01654E+06,   1.01204E+06,   1.01204E+06
C:/temp/Job-4.odb,Step-1,Increment      1: Step Time =    1.000,"P-4-1",          2022,   153.379E-03,   169.146E-03,            0.,NA,NA,"",   1.02678E+06,   1.01996E+06,   1.01996E+06
C:/temp/Job-4.odb,Step-1,Increment      1: Step Time =    1.000,"P-4-1",          2023,   173.718E-03,   47.9969E-03,            0.,NA,NA,"",   1.01670E+06,   1.01397E+06,   1.01397E+06
C:/temp/Job-4.odb,Step-1,Increment      1: Step Time =    1.000,"P-4-1",          2024,   173.625E-03,   44.4046E-03,            0.,NA,NA,"",   1.01605E+06,   1.01330E+06,   1.01330E+06
C:/temp/Job-4.odb,Step-1,Increment      1: Step Time =    1.000,"P-4-1",          2025,   167.352E-03,   63.1602E-03,            0.,NA,NA,"",   1.01892E+06,   1.01414E+06,   1.01414E+06
C:/temp/Job-4.odb,Step-1,Increment      1: Step Time =    1.000,"P-4-1",          2026,   133.497E-03,   19.9982E-03,            0.,NA,NA,"",   1.00359E+06,   1.00185E+06,   1.00185E+06
C:/temp/Job-4.odb,Step-1,Increment      1: Step Time =    1.000,"P-4-1",          2027,   129.970E-03,   20.4651E-03,            0.,NA,NA,"",   1.00187E+06,   1.00098E+06,   1.00098E+06
C:/temp/Job-4.odb,Step-1,Increment      1: Step Time =    1.000,"P-4-1",          2028,   142.777E-03,   20.0491E-03,            0.,NA,NA,"",   1.00840E+06,   1.00523E+06,   1.00523E+06
C:/temp/Job-4.odb,Step-1,Increment      1: Step Time =    1.000,"P-4-1",          2029,   147.389E-03,   22.8440E-03,            0.,NA,NA,"",   1.01388E+06,   1.00971E+06,   1.00971E+06
C:/temp/Job-4.odb,Step-1,Increment      1: Step Time =    1.000,"P-4-1",          2030,   19.1138E-03,   29.7305E-03,            0.,NA,NA,"",   1.01018E+06,   1.06926E+06,   1.06926E+06
C:/temp/Job-4.odb,Step-1,Increment      1: Step Time =    1.000,"P-4-1",          2031,   120.286E-03,   139.088E-03,            0.,NA,NA,"",   1.12957E+06,   1.12425E+06,   1.12425E+06
C:/temp/Job-4.odb,Step-1,Increment      1: Step Time =    1.000,"P-4-1",          2032,   107.774E-03,   147.115E-03,            0.,NA,NA,"",   1.04258E+06,   1.07467E+06,   1.07467E+06
C:/temp/Job-4.odb,Step-1,Increment      1: Step Time =    1.000,"P-4-1",          2033,   173.959E-03,   106.353E-03,            0.,NA,NA,"",   960.795E+03,   974.922E+03,   974.922E+03
C:/temp/Job-4.odb,Step-1,Increment      1: Step Time =    1.000,"P-4-1",          2034,   171.705E-03,   83.1010E-03,            0.,NA,NA,"",   975.705E+03,   984.138E+03,   984.138E+03
C:/temp/Job-4.odb,Step-1,Increment      1: Step Time =    1.000,"P-4-1",          2035,   136.401E-03,   167.038E-03,            0.,NA,NA,"",   1.03720E+06,   1.03079E+06,   1.03079E+06
C:/temp/Job-4.odb,Step-1,Increment      1: Step Time =    1.000,"P-4-1",          2036,   94.5480E-03,   167.859E-03,            0.,NA,NA,"",   1.00679E+06,   1.02114E+06,   1.02114E+06
C:/temp/Job-4.odb,Step-1,Increment      1: Step Time =    1.000,"P-4-1",          2037,   97.3887E-03,   164.800E-03,            0.,NA,NA,"",   1.00907E+06,   1.02673E+06,   1.02673E+06
C:/temp/Job-4.odb,Step-1,Increment      1: Step Time =    1.000,"P-4-1",          2038,   97.8330E-03,   31.6914E-03,            0.,NA,NA,"",   1.00422E+06,   1.01844E+06,   1.01844E+06
C:/temp/Job-4.odb,Step-1,Increment      1: Step Time =    1.000,"P-4-1",          2039,   126.857E-03,   20.8056E-03,            0.,NA,NA,"",   1.00017E+06,   1.00005E+06,   1.00005E+06
C:/temp/Job-4.odb,Step-1,Increment      1: Step Time =    1.000,"P-4-1",          2040,   54.0512E-03,   73.4277E-03,            0.,NA,NA,"",   981.516E+03,   1.00096E+06,   1.00096E+06
C:/temp/Job-4.odb,Step-1,Increment      1: Step Time =    1.000,"P-4-1",          2041,   123.300E-03,   58.8038E-03,            0.,NA,NA,"",   1.12377E+06,   1.11274E+06,   1.11274E+06
C:/temp/Job-4.odb,Step-1,Increment      1: Step Time =    1.000,"P-4-1",          2042,   127.375E-03,   60.1214E-03,            0.,NA,NA,"",   1.13193E+06,   1.10995E+06,   1.10995E+06
C:/temp/Job-4.odb,Step-1,Increment      1: Step Time =    1.000,"P-4-1",          2043,   76.1843E-03,   57.8291E-03,            0.,NA,NA,"",   1.11016E+06,   1.11270E+06,   1.11270E+06
C:/temp/Job-4.odb,Step-1,Increment      1: Step Time =    1.000,"P-4-1",          2044,   33.6087E-03,   29.6927E-03,            0.,NA,NA,"",   1.03815E+06,   1.06553E+06,   1.06553E+06
C:/temp/Job-4.odb,Step-1,Increment      1: Step Time =    1.000,"P-4-1",          2045,   66.5006E-03,   130.297E-03,            0.,NA,NA,"",   1.09289E+06,   1.08041E+06,   1.08041E+06
C:/temp/Job-4.odb,Step-1,Increment      1: Step Time =    1.000,"P-4-1",          2046,   32.8144E-03,   167.887E-03,            0.,NA,NA,"",   1.03178E+06,   1.06331E+06,   1.06331E+06
C:/temp/Job-4.odb,Step-1,Increment      1: Step Time =    1.000,"P-4-1",          2047,   22.1841E-03,   83.0631E-03,            0.,NA,NA,"",   830.485E+03,   913.847E+03,   913.847E+03
C:/temp/Job-4.odb,Step-1,Increment      1: Step Time =    1.000,"P-4-1",          2048,   26.1154E-03,   80.4859E-03,            0.,NA,NA,"",   847.034E+03,   924.447E+03,   924.447E+03
C:/temp/Job-4.odb,Step-1,Increment      1: Step Time =    1.000,"P-4-1",          2049,   120.339E-03,   173.466E-03,            0.,NA,NA,"",   1.00739E+06,   1.00991E+06,   1.00991E+06
C:/temp/Job-4.odb,Step-1,Increment      1: Step Time =    1.000,"P-4-1",          2050,   171.405E-03,   111.563E-03,            0.,NA,NA,"",   965.795E+03,   976.701E+03,   976.701E+03
C:/temp/Job-4.odb,Step-1,Increment      1: Step Time =    1.000,"P-4-1",          2051,   149.725E-03,   24.8119E-03,            0.,NA,NA,"",   1.01747E+06,   1.01267E+06,   1.01267E+06
C:/temp/Job-4.odb,Step-1,Increment      1: Step Time =    1.000,"P-4-1",          2052,   57.4305E-03,   83.4309E-03,            0.,NA,NA,"",   910.096E+03,   933.533E+03,   933.533E+03
C:/temp/Job-4.odb,Step-1,Increment      1: Step Time =    1.000,"P-4-1",          2053,   120.478E-03,   175.733E-03,            0.,NA,NA,"",   1.00233E+06,   1.00430E+06,   1.00430E+06
C:/temp/Job-4.odb,Step-1,Increment      1: Step Time =    1.000,"P-4-1",          2054,   161.926E-03,   134.279E-03,            0.,NA,NA,"",   1.02573E+06,   1.01680E+06,   1.01680E+06
C:/temp/Job-4.odb,Step-1,Increment      1: Step Time =    1.000,"P-4-1",          2055,   130.230E-03,   126.910E-03,            0.,NA,NA,"",   1.15626E+06,   1.10233E+06,   1.10233E+06
C:/temp/Job-4.odb,Step-1,Increment      1: Step Time =    1.000,"P-4-1",          2056,   89.4404E-03,   54.0293E-03,            0.,NA,NA,"",   1.05447E+06,   1.08587E+06,   1.08587E+06
C:/temp/Job-4.odb,Step-1,Increment      1: Step Time =    1.000,"P-4-1",          2057,   85.2685E-03,   30.5061E-03,            0.,NA,NA,"",   1.01458E+06,   1.02490E+06,   1.02490E+06
C:/temp/Job-4.odb,Step-1,Increment      1: Step Time =    1.000,"P-4-1",          2058,   52.0238E-03,   175.564E-03,            0.,NA,NA,"",   1.03838E+06,   1.04312E+06,   1.04312E+06
C:/temp/Job-4.odb,Step-1,Increment      1: Step Time =    1.000,"P-4-1",          2059,   92.2848E-03,   30.4969E-03,            0.,NA,NA,"",   1.00626E+06,   1.01946E+06,   1.01946E+06
C:/temp/Job-4.odb,Step-1,Increment      1: Step Time =    1.000,"P-4-1",          2060,   170.491E-03,   55.0579E-03,            0.,NA,NA,"",   1.01989E+06,   1.01600E+06,   1.01600E+06
C:/temp/Job-4.odb,Step-1,Increment      1: Step Time =    1.000,"P-4-1",          2061,   167.806E-03,   115.861E-03,            0.,NA,NA,"",   971.167E+03,   977.954E+03,   977.954E+03
C:/temp/Job-4.odb,Step-1,Increment      1: Step Time =    1.000,"P-4-1",          2062,   16.8342E-03,   163.130E-03,            0.,NA,NA,"",   966.709E+03,   1.03926E+06,   1.03926E+06
C:/temp/Job-4.odb,Step-1,Increment      1: Step Time =    1.000,"P-4-1",          2063,   158.099E-03,   171.173E-03,            0.,NA,NA,"",   1.02107E+06,   1.01561E+06,   1.01561E+06
C:/temp/Job-4.odb,Step-1,Increment      1: Step Time =    1.000,"P-4-1",          2064,   123.082E-03,   174.773E-03,            0.,NA,NA,"",   1.00732E+06,   1.00857E+06,   1.00857E+06
C:/temp/Job-4.odb,Step-1,Increment      1: Step Time =    1.000,"P-4-1",          2065,   18.2110E-03,   143.312E-03,            0.,NA,NA,"",   898.132E+03,   978.292E+03,   978.292E+03
C:/temp/Job-4.odb,Step-1,Increment      1: Step Time =    1.000,"P-4-1",          2066,   23.0632E-03,   148.442E-03,            0.,NA,NA,"",   933.506E+03,   1.00230E+06,   1.00230E+06
C:/temp/Job-4.odb,Step-1,Increment      1: Step Time =    1.000,"P-4-1",          2067,   21.9814E-03,   124.137E-03,            0.,NA,NA,"",    850.86E+03,   932.130E+03,   932.130E+03
C:/temp/Job-4.odb,Step-1,Increment      1: Step Time =    1.000,"P-4-1",          2068,   23.4957E-03,   137.915E-03,            0.,NA,NA,"",   901.233E+03,   974.335E+03,   974.335E+03
C:/temp/Job-4.odb,Step-1,Increment      1: Step Time =    1.000,"P-4-1",          2069,   97.0992E-03,   49.2141E-03,            0.,NA,NA,"",   1.02535E+06,   1.06000E+06,   1.06000E+06
C:/temp/Job-4.odb,Step-1,Increment      1: Step Time =    1.000,"P-4-1",          2070,   157.559E-03,   122.660E-03,            0.,NA,NA,"",   999.624E+03,   992.422E+03,   992.422E+03
C:/temp/Job-4.odb,Step-1,Increment      1: Step Time =    1.000,"P-4-1",          2071,   156.924E-03,   119.050E-03,            0.,NA,NA,"",   982.645E+03,   978.423E+03,   978.423E+03
C:/temp/Job-4.odb,Step-1,Increment      1: Step Time =    1.000,"P-4-1",          2072,   62.8745E-03,   21.7090E-03,            0.,NA,NA,"",   1.02246E+06,   1.02415E+06,   1.02415E+06
C:/temp/Job-4.odb,Step-1,Increment      1: Step Time =    1.000,"P-4-1",          2073,   52.9609E-03,   26.1525E-03,            0.,NA,NA,"",   1.04070E+06,   1.04557E+06,   1.04557E+06
C:/temp/Job-4.odb,Step-1,Increment      1: Step Time =    1.000,"P-4-1",          2074,   81.8259E-03,   165.572E-03,            0.,NA,NA,"",   1.02776E+06,   1.03798E+06,   1.03798E+06
C:/temp/Job-4.odb,Step-1,Increment      1: Step Time =    1.000,"P-4-1",          2075,   76.9102E-03,   160.002E-03,            0.,NA,NA,"",   1.04880E+06,   1.05790E+06,   1.05790E+06
C:/temp/Job-4.odb,Step-1,Increment      1: Step Time =    1.000,"P-4-1",          2076,   97.0442E-03,   153.964E-03,            0.,NA,NA,"",   1.02196E+06,   1.05226E+06,   1.05226E+06
C:/temp/Job-4.odb,Step-1,Increment      1: Step Time =    1.000,"P-4-1",          2077,   24.5131E-03,   85.2391E-03,            0.,NA,NA,"",   830.226E+03,   911.446E+03,   911.446E+03
C:/temp/Job-4.odb,Step-1,Increment      1: Step Time =    1.000,"P-4-1",          2078,   113.546E-03,   146.557E-03,            0.,NA,NA,"",   1.06498E+06,   1.08349E+06,   1.08349E+06
C:/temp/Job-4.odb,Step-1,Increment      1: Step Time =    1.000,"P-4-1",          2079,   47.8174E-03,   111.722E-03,            0.,NA,NA,"",   849.486E+03,   900.728E+03,   900.728E+03
C:/temp/Job-4.odb,Step-1,Increment      1: Step Time =    1.000,"P-4-1",          2080,   120.579E-03,   53.4913E-03,            0.,NA,NA,"",   1.08994E+06,   1.09086E+06,   1.09086E+06
C:/temp/Job-4.odb,Step-1,Increment      1: Step Time =    1.000,"P-4-1",          2081,   28.9712E-03,   103.359E-03,            0.,NA,NA,"",   818.391E+03,   896.906E+03,   896.906E+03
C:/temp/Job-4.odb,Step-1,Increment      1: Step Time =    1.000,"P-4-1",          2082,   57.2617E-03,   169.545E-03,            0.,NA,NA,"",   1.04449E+06,   1.04941E+06,   1.04941E+06
C:/temp/Job-4.odb,Step-1,Increment      1: Step Time =    1.000,"P-4-1",          2083,   48.2945E-03,   70.0315E-03,            0.,NA,NA,"",   970.244E+03,   1.00068E+06,   1.00068E+06
C:/temp/Job-4.odb,Step-1,Increment      1: Step Time =    1.000,"P-4-1",          2084,   67.3851E-03,   59.4037E-03,            0.,NA,NA,"",   1.09885E+06,   1.09512E+06,   1.09512E+06
C:/temp/Job-4.odb,Step-1,Increment      1: Step Time =    1.000,"P-4-1",          2085,   133.880E-03,   23.8413E-03,            0.,NA,NA,"",   1.01321E+06,   1.01054E+06,   1.01054E+06
C:/temp/Job-4.odb,Step-1,Increment      1: Step Time =    1.000,"P-4-1",          2086,   75.4431E-03,   28.3021E-03,            0.,NA,NA,"",   1.02420E+06,   1.02918E+06,   1.02918E+06
C:/temp/Job-4.odb,Step-1,Increment      1: Step Time =    1.000,"P-4-1",          2087,   167.750E-03,   81.4733E-03,            0.,NA,NA,"",   978.361E+03,   983.358E+03,   983.358E+03
C:/temp/Job-4.odb,Step-1,Increment      1: Step Time =    1.000,"P-4-1",          2088,   164.721E-03,   94.1774E-03,            0.,NA,NA,"",   944.264E+03,   954.836E+03,   954.836E+03
C:/temp/Job-4.odb,Step-1,Increment      1: Step Time =    1.000,"P-4-1",          2089,   148.078E-03,   105.410E-03,            0.,NA,NA,"",   883.612E+03,   891.478E+03,   891.478E+03
C:/temp/Job-4.odb,Step-1,Increment      1: Step Time =    1.000,"P-4-1",          2090,   39.6963E-03,   32.7989E-03,            0.,NA,NA,"",   1.03950E+06,   1.06055E+06,   1.06055E+06
C:/temp/Job-4.odb,Step-1,Increment      1: Step Time =    1.000,"P-4-1",          2091,   161.270E-03,   63.0153E-03,            0.,NA,NA,"",   1.03198E+06,   1.02159E+06,   1.02159E+06
C:/temp/Job-4.odb,Step-1,Increment      1: Step Time =    1.000,"P-4-1",          2092,   160.158E-03,   136.187E-03,            0.,NA,NA,"",   1.03186E+06,   1.02104E+06,   1.02104E+06
C:/temp/Job-4.odb,Step-1,Increment      1: Step Time =    1.000,"P-4-1",          2093,   86.4992E-03,   48.7221E-03,            0.,NA,NA,"",   1.04909E+06,   1.07164E+06,   1.07164E+06
C:/temp/Job-4.odb,Step-1,Increment      1: Step Time =    1.000,"P-4-1",          2094,   165.083E-03,   41.4818E-03,            0.,NA,NA,"",   1.02695E+06,   1.02037E+06,   1.02037E+06
C:/temp/Job-4.odb,Step-1,Increment      1: Step Time =    1.000,"P-4-1",          2095,   149.679E-03,   85.3405E-03,            0.,NA,NA,"",   948.737E+03,   944.165E+03,   944.165E+03
C:/temp/Job-4.odb,Step-1,Increment      1: Step Time =    1.000,"P-4-1",          2096,   154.444E-03,   130.980E-03,            0.,NA,NA,"",   1.03442E+06,   1.01938E+06,   1.01938E+06
C:/temp/Job-4.odb,Step-1,Increment      1: Step Time =    1.000,"P-4-1",          2097,   161.186E-03,   41.7506E-03,            0.,NA,NA,"",   1.03308E+06,   1.02467E+06,   1.02467E+06
C:/temp/Job-4.odb,Step-1,Increment      1: Step Time =    1.000,"P-4-1",          2098,   137.911E-03,   27.3746E-03,            0.,NA,NA,"",   1.02271E+06,   1.01809E+06,   1.01809E+06
C:/temp/Job-4.odb,Step-1,Increment      1: Step Time =    1.000,"P-4-1",          2099,   142.007E-03,   22.5450E-03,            0.,NA,NA,"",   1.01316E+06,   1.00939E+06,   1.00939E+06
C:/temp/Job-4.odb,Step-1,Increment      1: Step Time =    1.000,"P-4-1",          2100,   150.818E-03,   161.131E-03,            0.,NA,NA,"",   1.04329E+06,   1.03258E+06,   1.03258E+06
C:/temp/Job-4.odb,Step-1,Increment      1: Step Time =    1.000,"P-4-1",          2101,   29.5027E-03,   117.171E-03,            0.,NA,NA,"",   848.567E+03,   922.177E+03,   922.177E+03
C:/temp/Job-4.odb,Step-1,Increment      1: Step Time =    1.000,"P-4-1",          2102,   43.3293E-03,   26.9539E-03,            0.,NA,NA,"",   1.04632E+06,   1.05826E+06,   1.05826E+06
C:/temp/Job-4.odb,Step-1,Increment      1: Step Time =    1.000,"P-4-1",          2103,   53.2126E-03,   82.5694E-03,            0.,NA,NA,"",   903.176E+03,   936.332E+03,   936.332E+03
C:/temp/Job-4.odb,Step-1,Increment      1: Step Time =    1.000,"P-4-1",          2104,   118.584E-03,   152.466E-03,            0.,NA,NA,"",   1.06035E+06,   1.06717E+06,   1.06717E+06
C:/temp/Job-4.odb,Step-1,Increment      1: Step Time =    1.000,"P-4-1",          2105,   26.5078E-03,   171.074E-03,            0.,NA,NA,"",   1.03124E+06,   1.07137E+06,   1.07137E+06
C:/temp/Job-4.odb,Step-1,Increment      1: Step Time =    1.000,"P-4-1",          2106,   171.092E-03,   107.167E-03,            0.,NA,NA,"",   957.177E+03,   969.707E+03,   969.707E+03
C:/temp/Job-4.odb,Step-1,Increment      1: Step Time =    1.000,"P-4-1",          2107,   98.2230E-03,   149.076E-03,            0.,NA,NA,"",   1.02608E+06,   1.06448E+06,   1.06448E+06
C:/temp/Job-4.odb,Step-1,Increment      1: Step Time =    1.000,"P-4-1",          2108,   22.8958E-03,   143.270E-03,            0.,NA,NA,"",   916.303E+03,   987.801E+03,   987.801E+03
C:/temp/Job-4.odb,Step-1,Increment      1: Step Time =    1.000,"P-4-1",          2109,   32.9500E-03,   106.321E-03,            0.,NA,NA,"",   825.640E+03,   899.055E+03,   899.055E+03
C:/temp/Job-4.odb,Step-1,Increment      1: Step Time =    1.000,"P-4-1",          2110,   152.816E-03,   155.289E-03,            0.,NA,NA,"",   1.04881E+06,   1.03620E+06,   1.03620E+06
C:/temp/Job-4.odb,Step-1,Increment      1: Step Time =    1.000,"P-4-1",          2111,   86.3922E-03,   33.4911E-03,            0.,NA,NA,"",   1.01800E+06,   1.03071E+06,   1.03071E+06
C:/temp/Job-4.odb,Step-1,Increment      1: Step Time =    1.000,"P-4-1",          2112,   81.1540E-03,   39.4287E-03,            0.,NA,NA,"",   1.03977E+06,   1.05167E+06,   1.05167E+06
C:/temp/Job-4.odb,Step-1,Increment      1: Step Time =    1.000,"P-4-1",          2113,   115.447E-03,   33.2159E-03,            0.,NA,NA,"",   1.01661E+06,   1.02507E+06,   1.02507E+06
C:/temp/Job-4.odb,Step-1,Increment      1: Step Time =    1.000,"P-4-1",          2114,   138.712E-03,   138.338E-03,            0.,NA,NA,"",   1.10686E+06,   1.07600E+06,   1.07600E+06
C:/temp/Job-4.odb,Step-1,Increment      1: Step Time =    1.000,"P-4-1",          2115,   120.788E-03,   48.1360E-03,            0.,NA,NA,"",   1.06849E+06,   1.07127E+06,   1.07127E+06
C:/temp/Job-4.odb,Step-1,Increment      1: Step Time =    1.000,"P-4-1",          2116,   134.509E-03,   53.6908E-03,            0.,NA,NA,"",   1.09745E+06,   1.07782E+06,   1.07782E+06
C:/temp/Job-4.odb,Step-1,Increment      1: Step Time =    1.000,"P-4-1",          2117,   99.8336E-03,   44.0813E-03,            0.,NA,NA,"",   1.01873E+06,   1.04660E+06,   1.04660E+06
C:/temp/Job-4.odb,Step-1,Increment      1: Step Time =    1.000,"P-4-1",          2118,   152.585E-03,   119.718E-03,            0.,NA,NA,"",   991.327E+03,   981.567E+03,   981.567E+03
C:/temp/Job-4.odb,Step-1,Increment      1: Step Time =    1.000,"P-4-1",          2119,   151.528E-03,   103.891E-03,            0.,NA,NA,"",   896.905E+03,   906.337E+03,   906.337E+03
C:/temp/Job-4.odb,Step-1,Increment      1: Step Time =    1.000,"P-4-1",          2120,   152.542E-03,   106.378E-03,            0.,NA,NA,"",   908.570E+03,   916.382E+03,   916.382E+03
C:/temp/Job-4.odb,Step-1,Increment      1: Step Time =    1.000,"P-4-1",          2121,   158.534E-03,   93.8293E-03,            0.,NA,NA,"",   929.407E+03,   938.210E+03,   938.210E+03
C:/temp/Job-4.odb,Step-1,Increment      1: Step Time =    1.000,"P-4-1",          2122,   60.9112E-03,   136.174E-03,            0.,NA,NA,"",   1.06677E+06,   1.06787E+06,   1.06787E+06
C:/temp/Job-4.odb,Step-1,Increment      1: Step Time =    1.000,"P-4-1",          2123,   48.9849E-03,   124.453E-03,            0.,NA,NA,"",   942.276E+03,   976.627E+03,   976.627E+03
C:/temp/Job-4.odb,Step-1,Increment      1: Step Time =    1.000,"P-4-1",          2124,   165.621E-03,   76.9459E-03,            0.,NA,NA,"",   990.899E+03,   991.171E+03,   991.171E+03
C:/temp/Job-4.odb,Step-1,Increment      1: Step Time =    1.000,"P-4-1",          2125,   58.2385E-03,   24.4682E-03,            0.,NA,NA,"",   1.03378E+06,   1.03681E+06,   1.03681E+06
C:/temp/Job-4.odb,Step-1,Increment      1: Step Time =    1.000,"P-4-1",          2126,   45.2367E-03,   35.5468E-03,            0.,NA,NA,"",   1.04325E+06,   1.05950E+06,   1.05950E+06
C:/temp/Job-4.odb,Step-1,Increment      1: Step Time =    1.000,"P-4-1",          2127,   50.8706E-03,   92.3073E-03,            0.,NA,NA,"",   820.419E+03,   872.192E+03,   872.192E+03
C:/temp/Job-4.odb,Step-1,Increment      1: Step Time =    1.000,"P-4-1",          2128,   62.1227E-03,   162.803E-03,            0.,NA,NA,"",   1.05422E+06,   1.05905E+06,   1.05905E+06
C:/temp/Job-4.odb,Step-1,Increment      1: Step Time =    1.000,"P-4-1",          2129,   155.064E-03,   62.5091E-03,            0.,NA,NA,"",   1.04878E+06,   1.03242E+06,   1.03242E+06
C:/temp/Job-4.odb,Step-1,Increment      1: Step Time =    1.000,"P-4-1",          2130,   59.6350E-03,   58.4859E-03,            0.,NA,NA,"",   1.06724E+06,   1.07145E+06,   1.07145E+06
C:/temp/Job-4.odb,Step-1,Increment      1: Step Time =    1.000,"P-4-1",          2131,   95.1573E-03,   40.7954E-03,            0.,NA,NA,"",   1.01877E+06,   1.04142E+06,   1.04142E+06
C:/temp/Job-4.odb,Step-1,Increment      1: Step Time =    1.000,"P-4-1",          2132,   17.3953E-03,   62.4001E-03,            0.,NA,NA,"",   874.912E+03,   958.771E+03,   958.771E+03
C:/temp/Job-4.odb,Step-1,Increment      1: Step Time =    1.000,"P-4-1",          2133,   28.6946E-03,   147.595E-03,            0.,NA,NA,"",   953.642E+03,   1.01169E+06,   1.01169E+06
C:/temp/Job-4.odb,Step-1,Increment      1: Step Time =    1.000,"P-4-1",          2134,   38.0654E-03,   156.604E-03,            0.,NA,NA,"",   1.01479E+06,   1.04755E+06,   1.04755E+06
C:/temp/Job-4.odb,Step-1,Increment      1: Step Time =    1.000,"P-4-1",          2135,   50.5453E-03,   164.095E-03,            0.,NA,NA,"",   1.04796E+06,   1.05836E+06,   1.05836E+06
C:/temp/Job-4.odb,Step-1,Increment      1: Step Time =    1.000,"P-4-1",          2136,   28.7404E-03,   42.0267E-03,            0.,NA,NA,"",   989.404E+03,   1.03913E+06,   1.03913E+06
C:/temp/Job-4.odb,Step-1,Increment      1: Step Time =    1.000,"P-4-1",          2137,   155.207E-03,   77.9053E-03,            0.,NA,NA,"",   997.248E+03,   988.426E+03,   988.426E+03
C:/temp/Job-4.odb,Step-1,Increment      1: Step Time =    1.000,"P-4-1",          2138,   73.6692E-03,   157.987E-03,            0.,NA,NA,"",   1.05869E+06,   1.06584E+06,   1.06584E+06
C:/temp/Job-4.odb,Step-1,Increment      1: Step Time =    1.000,"P-4-1",          2139,   45.8479E-03,   123.245E-03,            0.,NA,NA,"",   921.466E+03,   963.380E+03,   963.380E+03
C:/temp/Job-4.odb,Step-1,Increment      1: Step Time =    1.000,"P-4-1",          2140,   91.5096E-03,   33.5178E-03,            0.,NA,NA,"",   1.01212E+06,   1.02687E+06,   1.02687E+06
C:/temp/Job-4.odb,Step-1,Increment      1: Step Time =    1.000,"P-4-1",          2141,   36.7321E-03,   96.1479E-03,            0.,NA,NA,"",   821.737E+03,   891.694E+03,   891.694E+03
C:/temp/Job-4.odb,Step-1,Increment      1: Step Time =    1.000,"P-4-1",          2142,   155.617E-03,   142.625E-03,            0.,NA,NA,"",   1.05016E+06,   1.03479E+06,   1.03479E+06
C:/temp/Job-4.odb,Step-1,Increment      1: Step Time =    1.000,"P-4-1",          2143,   26.7921E-03,   120.095E-03,            0.,NA,NA,"",   851.911E+03,   928.098E+03,   928.098E+03
C:/temp/Job-4.odb,Step-1,Increment      1: Step Time =    1.000,"P-4-1",          2144,   154.011E-03,   139.796E-03,            0.,NA,NA,"",   1.05096E+06,   1.03445E+06,   1.03445E+06
C:/temp/Job-4.odb,Step-1,Increment      1: Step Time =    1.000,"P-4-1",          2145,   88.7520E-03,   38.3649E-03,            0.,NA,NA,"",   1.02372E+06,   1.04084E+06,   1.04084E+06
C:/temp/Job-4.odb,Step-1,Increment      1: Step Time =    1.000,"P-4-1",          2146,   161.392E-03,   44.9654E-03,            0.,NA,NA,"",   1.03468E+06,   1.02576E+06,   1.02576E+06
C:/temp/Job-4.odb,Step-1,Increment      1: Step Time =    1.000,"P-4-1",          2147,   135.141E-03,   30.6030E-03,            0.,NA,NA,"",   1.02980E+06,   1.02495E+06,   1.02495E+06
C:/temp/Job-4.odb,Step-1,Increment      1: Step Time =    1.000,"P-4-1",          2148,   160.003E-03,   105.469E-03,            0.,NA,NA,"",   930.150E+03,   939.746E+03,   939.746E+03
C:/temp/Job-4.odb,Step-1,Increment      1: Step Time =    1.000,"P-4-1",          2149,   36.6509E-03,   113.896E-03,            0.,NA,NA,"",   850.680E+03,   916.331E+03,   916.331E+03
C:/temp/Job-4.odb,Step-1,Increment      1: Step Time =    1.000,"P-4-1",          2150,   36.3367E-03,   117.149E-03,            0.,NA,NA,"",   862.361E+03,   926.605E+03,   926.605E+03
C:/temp/Job-4.odb,Step-1,Increment      1: Step Time =    1.000,"P-4-1",          2151,   151.152E-03,   124.184E-03,            0.,NA,NA,"",   1.01823E+06,   1.00292E+06,   1.00292E+06
C:/temp/Job-4.odb,Step-1,Increment      1: Step Time =    1.000,"P-4-1",          2152,   142.742E-03,   140.564E-03,            0.,NA,NA,"",   1.09002E+06,   1.06395E+06,   1.06395E+06
C:/temp/Job-4.odb,Step-1,Increment      1: Step Time =    1.000,"P-4-1",          2153,   146.016E-03,   142.377E-03,            0.,NA,NA,"",   1.07945E+06,   1.05635E+06,   1.05635E+06
C:/temp/Job-4.odb,Step-1,Increment      1: Step Time =    1.000,"P-4-1",          2154,   33.2177E-03,   91.6306E-03,            0.,NA,NA,"",   827.769E+03,   900.751E+03,   900.751E+03
C:/temp/Job-4.odb,Step-1,Increment      1: Step Time =    1.000,"P-4-1",          2155,   87.1580E-03,   163.313E-03,            0.,NA,NA,"",   1.02328E+06,   1.03845E+06,   1.03845E+06
C:/temp/Job-4.odb,Step-1,Increment      1: Step Time =    1.000,"P-4-1",          2156,   115.863E-03,   148.682E-03,            0.,NA,NA,"",   1.06573E+06,   1.07871E+06,   1.07871E+06
C:/temp/Job-4.odb,Step-1,Increment      1: Step Time =    1.000,"P-4-1",          2157,   149.289E-03,   33.8092E-03,            0.,NA,NA,"",   1.03402E+06,   1.02589E+06,   1.02589E+06
C:/temp/Job-4.odb,Step-1,Increment      1: Step Time =    1.000,"P-4-1",          2158,   75.5972E-03,   42.9751E-03,            0.,NA,NA,"",   1.05904E+06,   1.06666E+06,   1.06666E+06
C:/temp/Job-4.odb,Step-1,Increment      1: Step Time =    1.000,"P-4-1",          2159,   166.351E-03,   71.6823E-03,            0.,NA,NA,"",   1.00475E+06,   1.00253E+06,   1.00253E+06
C:/temp/Job-4.odb,Step-1,Increment      1: Step Time =    1.000,"P-4-1",          2160,   154.630E-03,   99.8825E-03,            0.,NA,NA,"",   905.161E+03,   916.039E+03,   916.039E+03
C:/temp/Job-4.odb,Step-1,Increment      1: Step Time =    1.000,"P-4-1",          2161,   125.125E-03,   46.2456E-03,            0.,NA,NA,"",   1.06845E+06,   1.06475E+06,   1.06475E+06
C:/temp/Job-4.odb,Step-1,Increment      1: Step Time =    1.000,"P-4-1",          2162,   21.0538E-03,   164.816E-03,            0.,NA,NA,"",   990.032E+03,   1.04960E+06,   1.04960E+06
C:/temp/Job-4.odb,Step-1,Increment      1: Step Time =    1.000,"P-4-1",          2163,   30.7678E-03,   132.300E-03,            0.,NA,NA,"",   907.433E+03,   970.859E+03,   970.859E+03
C:/temp/Job-4.odb,Step-1,Increment      1: Step Time =    1.000,"P-4-1",          2164,   149.560E-03,   137.959E-03,            0.,NA,NA,"",   1.06512E+06,   1.04329E+06,   1.04329E+06
C:/temp/Job-4.odb,Step-1,Increment      1: Step Time =    1.000,"P-4-1",          2165,   64.2792E-03,   51.5935E-03,            0.,NA,NA,"",   1.07721E+06,   1.07984E+06,   1.07984E+06
C:/temp/Job-4.odb,Step-1,Increment      1: Step Time =    1.000,"P-4-1",          2166,   145.931E-03,   149.180E-03,            0.,NA,NA,"",   1.07063E+06,   1.05231E+06,   1.05231E+06
C:/temp/Job-4.odb,Step-1,Increment      1: Step Time =    1.000,"P-4-1",          2167,   39.8771E-03,   151.280E-03,            0.,NA,NA,"",   1.00747E+06,   1.04093E+06,   1.04093E+06
C:/temp/Job-4.odb,Step-1,Increment      1: Step Time =    1.000,"P-4-1",          2168,   72.7186E-03,   41.7426E-03,            0.,NA,NA,"",   1.05989E+06,   1.06556E+06,   1.06556E+06
C:/temp/Job-4.odb,Step-1,Increment      1: Step Time =    1.000,"P-4-1",          2169,   41.7988E-03,   90.1659E-03,            0.,NA,NA,"",   836.611E+03,   898.269E+03,   898.269E+03
C:/temp/Job-4.odb,Step-1,Increment      1: Step Time =    1.000,"P-4-1",          2170,   58.1554E-03,   135.915E-03,            0.,NA,NA,"",   1.04978E+06,   1.05612E+06,   1.05612E+06
C:/temp/Job-4.odb,Step-1,Increment      1: Step Time =    1.000,"P-4-1",          2171,   28.8101E-03,   151.912E-03,            0.,NA,NA,"",   970.062E+03,   1.02466E+06,   1.02466E+06
C:/temp/Job-4.odb,Step-1,Increment      1: Step Time =    1.000,"P-4-1",          2172,   43.0542E-03,   40.2810E-03,            0.,NA,NA,"",   1.03371E+06,   1.05605E+06,   1.05605E+06
C:/temp/Job-4.odb,Step-1,Increment      1: Step Time =    1.000,"P-4-1",          2173,   32.7944E-03,   50.1043E-03,            0.,NA,NA,"",   978.591E+03,   1.02605E+06,   1.02605E+06
C:/temp/Job-4.odb,Step-1,Increment      1: Step Time =    1.000,"P-4-1",          2174,   33.8243E-03,   64.1554E-03,            0.,NA,NA,"",   931.913E+03,   987.814E+03,   987.814E+03
C:/temp/Job-4.odb,Step-1,Increment      1: Step Time =    1.000,"P-4-1",          2175,   160.855E-03,   77.0127E-03,            0.,NA,NA,"",   994.217E+03,   990.586E+03,   990.586E+03
C:/temp/Job-4.odb,Step-1,Increment      1: Step Time =    1.000,"P-4-1",          2176,   157.518E-03,   82.3582E-03,            0.,NA,NA,"",   972.110E+03,   970.542E+03,   970.542E+03
C:/temp/Job-4.odb,Step-1,Increment      1: Step Time =    1.000,"P-4-1",          2177,   86.1772E-03,   159.271E-03,            0.,NA,NA,"",   1.03169E+06,   1.04896E+06,   1.04896E+06
C:/temp/Job-4.odb,Step-1,Increment      1: Step Time =    1.000,"P-4-1",          2178,   164.215E-03,   103.340E-03,            0.,NA,NA,"",   940.679E+03,   951.796E+03,   951.796E+03
C:/temp/Job-4.odb,Step-1,Increment      1: Step Time =    1.000,"P-4-1",          2179,   52.9743E-03,   141.594E-03,            0.,NA,NA,"",   1.03469E+06,   1.05004E+06,   1.05004E+06
C:/temp/Job-4.odb,Step-1,Increment      1: Step Time =    1.000,"P-4-1",          2180,   53.7102E-03,   137.873E-03,            0.,NA,NA,"",   1.03026E+06,   1.04492E+06,   1.04492E+06
C:/temp/Job-4.odb,Step-1,Increment      1: Step Time =    1.000,"P-4-1",          2181,   36.6334E-03,   146.184E-03,            0.,NA,NA,"",   979.797E+03,   1.02340E+06,   1.02340E+06
C:/temp/Job-4.odb,Step-1,Increment      1: Step Time =    1.000,"P-4-1",          2182,   53.6308E-03,   38.7481E-03,            0.,NA,NA,"",   1.05158E+06,   1.06091E+06,   1.06091E+06
C:/temp/Job-4.odb,Step-1,Increment      1: Step Time =    1.000,"P-4-1",          2183,   33.6712E-03,   61.2215E-03,            0.,NA,NA,"",   941.490E+03,   996.124E+03,   996.124E+03
C:/temp/Job-4.odb,Step-1,Increment      1: Step Time =    1.000,"P-4-1",          2184,   28.5136E-03,   58.5011E-03,            0.,NA,NA,"",   932.169E+03,   994.023E+03,   994.023E+03
C:/temp/Job-4.odb,Step-1,Increment      1: Step Time =    1.000,"P-4-1",          2185,   69.0587E-03,   39.5998E-03,            0.,NA,NA,"",   1.05752E+06,   1.06200E+06,   1.06200E+06
C:/temp/Job-4.odb,Step-1,Increment      1: Step Time =    1.000,"P-4-1",          2186,   145.489E-03,   26.0127E-03,            0.,NA,NA,"",   1.02015E+06,   1.01496E+06,   1.01496E+06
C:/temp/Job-4.odb,Step-1,Increment      1: Step Time =    1.000,"P-4-1",          2187,   53.9766E-03,   159.556E-03,            0.,NA,NA,"",   1.05229E+06,   1.06166E+06,   1.06166E+06
C:/temp/Job-4.odb,Step-1,Increment      1: Step Time =    1.000,"P-4-1",          2188,   142.375E-03,   39.8697E-03,            0.,NA,NA,"",   1.05174E+06,   1.04081E+06,   1.04081E+06
C:/temp/Job-4.odb,Step-1,Increment      1: Step Time =    1.000,"P-4-1",          2189,   140.329E-03,   36.6789E-03,            0.,NA,NA,"",   1.04531E+06,   1.03627E+06,   1.03627E+06
C:/temp/Job-4.odb,Step-1,Increment      1: Step Time =    1.000,"P-4-1",          2190,   49.8027E-03,   140.335E-03,            0.,NA,NA,"",   1.01796E+06,   1.03945E+06,   1.03945E+06
C:/temp/Job-4.odb,Step-1,Increment      1: Step Time =    1.000,"P-4-1",          2191,   27.5529E-03,   49.2014E-03,            0.,NA,NA,"",   960.480E+03,   1.01852E+06,   1.01852E+06
