ODB Name,Step,Frame,Part Instance Name,    Node Label,X,Y,Z,Section Name,Material Name,Section Point,       S-Mises,S-Max. In-Plane Principal (Abs),S-Max. Principal (Abs)
C:/temp/Job-2.odb,Step-1,Increment      1: Step Time =    1.000,"P-2-1",             1,   92.6527E-03,   110.113E-03,            0.,NA,NA,"",   1.53268E+06,   1.56086E+06,   1.56086E+06
C:/temp/Job-2.odb,Step-1,Increment      1: Step Time =    1.000,"P-2-1",             2,   89.1747E-03,   106.250E-03,            0.,NA,NA,"",   480.195E+03,   169.540E+03,   169.540E+03
C:/temp/Job-2.odb,Step-1,Increment      1: Step Time =    1.000,"P-2-1",             3,   87.5685E-03,   98.6934E-03,            0.,NA,NA,"",   554.608E+03,  -551.734E+03,  -551.734E+03
C:/temp/Job-2.odb,Step-1,Increment      1: Step Time =    1.000,"P-2-1",             4,   89.1747E-03,     93.75E-03,            0.,NA,NA,"",   464.121E+03,   141.291E+03,   141.291E+03
C:/temp/Job-2.odb,Step-1,Increment      1: Step Time =    1.000,"P-2-1",             5,   94.9158E-03,   88.5807E-03,            0.,NA,NA,"",   1.87347E+06,   1.94189E+06,   1.94189E+06
C:/temp/Job-2.odb,Step-1,Increment      1: Step Time =    1.000,"P-2-1",             6,   100.000E-03,   87.5000E-03,            0.,NA,NA,"",   2.24305E+06,   2.35591E+06,   2.35591E+06
C:/temp/Job-2.odb,Step-1,Increment      1: Step Time =    1.000,"P-2-1",             7,   107.347E-03,   89.8873E-03,            0.,NA,NA,"",   1.44844E+06,   1.47468E+06,   1.47468E+06
C:/temp/Job-2.odb,Step-1,Increment      1: Step Time =    1.000,"P-2-1",             8,   110.825E-03,     93.75E-03,            0.,NA,NA,"",   470.026E+03,   161.878E+03,   161.878E+03
C:/temp/Job-2.odb,Step-1,Increment      1: Step Time =    1.000,"P-2-1",             9,   112.432E-03,   101.307E-03,            0.,NA,NA,"",   614.583E+03,  -615.809E+03,  -615.809E+03
C:/temp/Job-2.odb,Step-1,Increment      1: Step Time =    1.000,"P-2-1",            10,   110.825E-03,   106.250E-03,            0.,NA,NA,"",   465.941E+03,   125.221E+03,   125.221E+03
C:/temp/Job-2.odb,Step-1,Increment      1: Step Time =    1.000,"P-2-1",            11,   105.084E-03,   111.419E-03,            0.,NA,NA,"",   1.89041E+06,   1.96049E+06,   1.96049E+06
C:/temp/Job-2.odb,Step-1,Increment      1: Step Time =    1.000,"P-2-1",            12,   100.000E-03,   112.500E-03,            0.,NA,NA,"",   2.27790E+06,   2.38779E+06,   2.38779E+06
C:/temp/Job-2.odb,Step-1,Increment      1: Step Time =    1.000,"P-2-1",            13,   194.805E-03,            0.,            0.,NA,NA,"",   999.896E+03,   999.889E+03,   999.889E+03
C:/temp/Job-2.odb,Step-1,Increment      1: Step Time =    1.000,"P-2-1",            14,   189.610E-03,            0.,            0.,NA,NA,"",   999.620E+03,   999.620E+03,   999.620E+03
C:/temp/Job-2.odb,Step-1,Increment      1: Step Time =    1.000,"P-2-1",            15,   184.416E-03,            0.,            0.,NA,NA,"",   999.264E+03,   999.264E+03,   999.264E+03
C:/temp/Job-2.odb,Step-1,Increment      1: Step Time =    1.000,"P-2-1",            16,   179.221E-03,            0.,            0.,NA,NA,"",   998.865E+03,   998.860E+03,   998.860E+03
C:/temp/Job-2.odb,Step-1,Increment      1: Step Time =    1.000,"P-2-1",            17,   174.026E-03,            0.,            0.,NA,NA,"",   998.248E+03,   998.233E+03,   998.233E+03
C:/temp/Job-2.odb,Step-1,Increment      1: Step Time =    1.000,"P-2-1",            18,   168.831E-03,            0.,            0.,NA,NA,"",   997.255E+03,   997.190E+03,   997.190E+03
C:/temp/Job-2.odb,Step-1,Increment      1: Step Time =    1.000,"P-2-1",            19,   163.636E-03,            0.,            0.,NA,NA,"",   995.457E+03,   995.452E+03,   995.452E+03
C:/temp/Job-2.odb,Step-1,Increment      1: Step Time =    1.000,"P-2-1",            20,   158.442E-03,            0.,            0.,NA,NA,"",   992.828E+03,   992.802E+03,   992.802E+03
C:/temp/Job-2.odb,Step-1,Increment      1: Step Time =    1.000,"P-2-1",            21,   153.247E-03,            0.,            0.,NA,NA,"",   989.216E+03,   989.196E+03,   989.196E+03
C:/temp/Job-2.odb,Step-1,Increment      1: Step Time =    1.000,"P-2-1",            22,   148.052E-03,            0.,            0.,NA,NA,"",   984.432E+03,    984.39E+03,    984.39E+03
C:/temp/Job-2.odb,Step-1,Increment      1: Step Time =    1.000,"P-2-1",            23,   142.857E-03,            0.,            0.,NA,NA,"",   978.466E+03,   978.421E+03,   978.421E+03
C:/temp/Job-2.odb,Step-1,Increment      1: Step Time =    1.000,"P-2-1",            24,   137.662E-03,            0.,            0.,NA,NA,"",   971.497E+03,   971.474E+03,   971.474E+03
C:/temp/Job-2.odb,Step-1,Increment      1: Step Time =    1.000,"P-2-1",            25,   132.468E-03,            0.,            0.,NA,NA,"",   963.590E+03,   963.576E+03,   963.576E+03
C:/temp/Job-2.odb,Step-1,Increment      1: Step Time =    1.000,"P-2-1",            26,   127.273E-03,            0.,            0.,NA,NA,"",   955.113E+03,   955.106E+03,   955.106E+03
C:/temp/Job-2.odb,Step-1,Increment      1: Step Time =    1.000,"P-2-1",            27,   122.078E-03,            0.,            0.,NA,NA,"",   946.673E+03,   946.686E+03,   946.686E+03
C:/temp/Job-2.odb,Step-1,Increment      1: Step Time =    1.000,"P-2-1",            28,   116.883E-03,            0.,            0.,NA,NA,"",   938.718E+03,   938.759E+03,   938.759E+03
C:/temp/Job-2.odb,Step-1,Increment      1: Step Time =    1.000,"P-2-1",            29,   111.688E-03,            0.,            0.,NA,NA,"",   931.901E+03,   931.948E+03,   931.948E+03
C:/temp/Job-2.odb,Step-1,Increment      1: Step Time =    1.000,"P-2-1",            30,   106.494E-03,            0.,            0.,NA,NA,"",   927.079E+03,   927.168E+03,   927.168E+03
C:/temp/Job-2.odb,Step-1,Increment      1: Step Time =    1.000,"P-2-1",            31,   98.7013E-03,            0.,            0.,NA,NA,"",   923.418E+03,   923.493E+03,   923.493E+03
C:/temp/Job-2.odb,Step-1,Increment      1: Step Time =    1.000,"P-2-1",            32,   93.5065E-03,            0.,            0.,NA,NA,"",   922.464E+03,   922.537E+03,   922.537E+03
C:/temp/Job-2.odb,Step-1,Increment      1: Step Time =    1.000,"P-2-1",            33,   88.3117E-03,            0.,            0.,NA,NA,"",   924.471E+03,   924.513E+03,   924.513E+03
C:/temp/Job-2.odb,Step-1,Increment      1: Step Time =    1.000,"P-2-1",            34,   83.1169E-03,            0.,            0.,NA,NA,"",   928.287E+03,   928.330E+03,   928.330E+03
C:/temp/Job-2.odb,Step-1,Increment      1: Step Time =    1.000,"P-2-1",            35,   77.9221E-03,            0.,            0.,NA,NA,"",   933.661E+03,   933.691E+03,   933.691E+03
C:/temp/Job-2.odb,Step-1,Increment      1: Step Time =    1.000,"P-2-1",            36,   72.7273E-03,            0.,            0.,NA,NA,"",   939.930E+03,   939.947E+03,   939.947E+03
C:/temp/Job-2.odb,Step-1,Increment      1: Step Time =    1.000,"P-2-1",            37,   67.5325E-03,            0.,            0.,NA,NA,"",   946.751E+03,   946.757E+03,   946.757E+03
C:/temp/Job-2.odb,Step-1,Increment      1: Step Time =    1.000,"P-2-1",            38,   62.3377E-03,            0.,            0.,NA,NA,"",   953.832E+03,   953.824E+03,   953.824E+03
C:/temp/Job-2.odb,Step-1,Increment      1: Step Time =    1.000,"P-2-1",            39,   57.1429E-03,            0.,            0.,NA,NA,"",   960.919E+03,   960.905E+03,   960.905E+03
C:/temp/Job-2.odb,Step-1,Increment      1: Step Time =    1.000,"P-2-1",            40,   51.9481E-03,            0.,            0.,NA,NA,"",   968.054E+03,   968.043E+03,   968.043E+03
C:/temp/Job-2.odb,Step-1,Increment      1: Step Time =    1.000,"P-2-1",            41,   46.7532E-03,            0.,            0.,NA,NA,"",   975.674E+03,   975.664E+03,   975.664E+03
C:/temp/Job-2.odb,Step-1,Increment      1: Step Time =    1.000,"P-2-1",            42,   41.5584E-03,            0.,            0.,NA,NA,"",   984.460E+03,   984.504E+03,   984.504E+03
C:/temp/Job-2.odb,Step-1,Increment      1: Step Time =    1.000,"P-2-1",            43,   36.3636E-03,            0.,            0.,NA,NA,"",   996.289E+03,   996.585E+03,   996.585E+03
C:/temp/Job-2.odb,Step-1,Increment      1: Step Time =    1.000,"P-2-1",            44,   31.1688E-03,            0.,            0.,NA,NA,"",   1.01389E+06,   1.01371E+06,   1.01371E+06
C:/temp/Job-2.odb,Step-1,Increment      1: Step Time =    1.000,"P-2-1",            45,   25.9740E-03,            0.,            0.,NA,NA,"",   1.03291E+06,   1.03297E+06,   1.03297E+06
C:/temp/Job-2.odb,Step-1,Increment      1: Step Time =    1.000,"P-2-1",            46,   20.7792E-03,            0.,            0.,NA,NA,"",   1.06113E+06,   1.06102E+06,   1.06102E+06
C:/temp/Job-2.odb,Step-1,Increment      1: Step Time =    1.000,"P-2-1",            47,   15.5844E-03,            0.,            0.,NA,NA,"",   1.10690E+06,   1.10696E+06,   1.10696E+06
C:/temp/Job-2.odb,Step-1,Increment      1: Step Time =    1.000,"P-2-1",            48,   10.3896E-03,            0.,            0.,NA,NA,"",   1.19350E+06,   1.19534E+06,   1.19534E+06
C:/temp/Job-2.odb,Step-1,Increment      1: Step Time =    1.000,"P-2-1",            49,   5.19481E-03,            0.,            0.,NA,NA,"",   1.39474E+06,   1.39900E+06,   1.39900E+06
C:/temp/Job-2.odb,Step-1,Increment      1: Step Time =    1.000,"P-2-1",            50,   200.000E-03,            0.,            0.,NA,NA,"",   999.993E+03,   999.985E+03,   999.985E+03
C:/temp/Job-2.odb,Step-1,Increment      1: Step Time =    1.000,"P-2-1",            51,            0.,            0.,            0.,NA,NA,"",   1.81858E+06,   1.89995E+06,   1.89995E+06
C:/temp/Job-2.odb,Step-1,Increment      1: Step Time =    1.000,"P-2-1",            52,   200.000E-03,   194.805E-03,            0.,NA,NA,"",   1.00004E+06,   999.984E+03,   999.984E+03
C:/temp/Job-2.odb,Step-1,Increment      1: Step Time =    1.000,"P-2-1",            53,   200.000E-03,   189.610E-03,            0.,NA,NA,"",   1.00021E+06,  1000.000E+03,  1000.000E+03
C:/temp/Job-2.odb,Step-1,Increment      1: Step Time =    1.000,"P-2-1",            54,   200.000E-03,   184.416E-03,            0.,NA,NA,"",   1.00042E+06,   1.00001E+06,   1.00001E+06
C:/temp/Job-2.odb,Step-1,Increment      1: Step Time =    1.000,"P-2-1",            55,   200.000E-03,   179.221E-03,            0.,NA,NA,"",   1.00054E+06,   1.00001E+06,   1.00001E+06
C:/temp/Job-2.odb,Step-1,Increment      1: Step Time =    1.000,"P-2-1",            56,   200.000E-03,   174.026E-03,            0.,NA,NA,"",   1.00045E+06,   1.00005E+06,   1.00005E+06
C:/temp/Job-2.odb,Step-1,Increment      1: Step Time =    1.000,"P-2-1",            57,   200.000E-03,   168.831E-03,            0.,NA,NA,"",   1.00002E+06,   1.00016E+06,   1.00016E+06
C:/temp/Job-2.odb,Step-1,Increment      1: Step Time =    1.000,"P-2-1",            58,   200.000E-03,   163.636E-03,            0.,NA,NA,"",   998.897E+03,   1.00001E+06,   1.00001E+06
C:/temp/Job-2.odb,Step-1,Increment      1: Step Time =    1.000,"P-2-1",            59,   200.000E-03,   158.442E-03,            0.,NA,NA,"",   997.466E+03,   1.00008E+06,   1.00008E+06
C:/temp/Job-2.odb,Step-1,Increment      1: Step Time =    1.000,"P-2-1",            60,   200.000E-03,   153.247E-03,            0.,NA,NA,"",   995.248E+03,   1.00005E+06,   1.00005E+06
C:/temp/Job-2.odb,Step-1,Increment      1: Step Time =    1.000,"P-2-1",            61,   200.000E-03,   148.052E-03,            0.,NA,NA,"",   992.385E+03,   1.00010E+06,   1.00010E+06
C:/temp/Job-2.odb,Step-1,Increment      1: Step Time =    1.000,"P-2-1",            62,   200.000E-03,   142.857E-03,            0.,NA,NA,"",   988.805E+03,   1.00011E+06,   1.00011E+06
C:/temp/Job-2.odb,Step-1,Increment      1: Step Time =    1.000,"P-2-1",            63,   200.000E-03,   137.662E-03,            0.,NA,NA,"",   984.694E+03,   1.00005E+06,   1.00005E+06
C:/temp/Job-2.odb,Step-1,Increment      1: Step Time =    1.000,"P-2-1",            64,   200.000E-03,   132.468E-03,            0.,NA,NA,"",   980.231E+03,   1.00002E+06,   1.00002E+06
C:/temp/Job-2.odb,Step-1,Increment      1: Step Time =    1.000,"P-2-1",            65,   200.000E-03,   127.273E-03,            0.,NA,NA,"",   975.634E+03,   1.00000E+06,   1.00000E+06
C:/temp/Job-2.odb,Step-1,Increment      1: Step Time =    1.000,"P-2-1",            66,   200.000E-03,   122.078E-03,            0.,NA,NA,"",   971.242E+03,   999.956E+03,   999.956E+03
C:/temp/Job-2.odb,Step-1,Increment      1: Step Time =    1.000,"P-2-1",            67,   200.000E-03,   116.883E-03,            0.,NA,NA,"",   967.267E+03,   999.884E+03,   999.884E+03
C:/temp/Job-2.odb,Step-1,Increment      1: Step Time =    1.000,"P-2-1",            68,   200.000E-03,   111.688E-03,            0.,NA,NA,"",   964.109E+03,   999.878E+03,   999.878E+03
C:/temp/Job-2.odb,Step-1,Increment      1: Step Time =    1.000,"P-2-1",            69,   200.000E-03,   106.494E-03,            0.,NA,NA,"",   962.084E+03,   999.805E+03,   999.805E+03
C:/temp/Job-2.odb,Step-1,Increment      1: Step Time =    1.000,"P-2-1",            70,   200.000E-03,   98.7013E-03,            0.,NA,NA,"",   961.358E+03,   999.841E+03,   999.841E+03
C:/temp/Job-2.odb,Step-1,Increment      1: Step Time =    1.000,"P-2-1",            71,   200.000E-03,   93.5065E-03,            0.,NA,NA,"",   961.949E+03,   999.826E+03,   999.826E+03
C:/temp/Job-2.odb,Step-1,Increment      1: Step Time =    1.000,"P-2-1",            72,   200.000E-03,   88.3117E-03,            0.,NA,NA,"",   964.072E+03,   999.893E+03,   999.893E+03
C:/temp/Job-2.odb,Step-1,Increment      1: Step Time =    1.000,"P-2-1",            73,   200.000E-03,   83.1169E-03,            0.,NA,NA,"",   967.175E+03,   999.904E+03,   999.904E+03
C:/temp/Job-2.odb,Step-1,Increment      1: Step Time =    1.000,"P-2-1",            74,   200.000E-03,   77.9221E-03,            0.,NA,NA,"",   971.128E+03,   999.945E+03,   999.945E+03
C:/temp/Job-2.odb,Step-1,Increment      1: Step Time =    1.000,"P-2-1",            75,   200.000E-03,   72.7273E-03,            0.,NA,NA,"",   975.521E+03,   999.983E+03,   999.983E+03
C:/temp/Job-2.odb,Step-1,Increment      1: Step Time =    1.000,"P-2-1",            76,   200.000E-03,   67.5325E-03,            0.,NA,NA,"",   980.086E+03,   1.00002E+06,   1.00002E+06
C:/temp/Job-2.odb,Step-1,Increment      1: Step Time =    1.000,"P-2-1",            77,   200.000E-03,   62.3377E-03,            0.,NA,NA,"",   984.557E+03,   1.00006E+06,   1.00006E+06
C:/temp/Job-2.odb,Step-1,Increment      1: Step Time =    1.000,"P-2-1",            78,   200.000E-03,   57.1429E-03,            0.,NA,NA,"",   988.666E+03,   1.00009E+06,   1.00009E+06
C:/temp/Job-2.odb,Step-1,Increment      1: Step Time =    1.000,"P-2-1",            79,   200.000E-03,   51.9481E-03,            0.,NA,NA,"",   992.235E+03,   1.00009E+06,   1.00009E+06
C:/temp/Job-2.odb,Step-1,Increment      1: Step Time =    1.000,"P-2-1",            80,   200.000E-03,   46.7532E-03,            0.,NA,NA,"",   995.156E+03,   1.00008E+06,   1.00008E+06
C:/temp/Job-2.odb,Step-1,Increment      1: Step Time =    1.000,"P-2-1",            81,   200.000E-03,   41.5584E-03,            0.,NA,NA,"",   997.360E+03,   1.00006E+06,   1.00006E+06
C:/temp/Job-2.odb,Step-1,Increment      1: Step Time =    1.000,"P-2-1",            82,   200.000E-03,   36.3636E-03,            0.,NA,NA,"",   998.905E+03,   1.00005E+06,   1.00005E+06
C:/temp/Job-2.odb,Step-1,Increment      1: Step Time =    1.000,"P-2-1",            83,   200.000E-03,   31.1688E-03,            0.,NA,NA,"",   999.878E+03,   1.00008E+06,   1.00008E+06
C:/temp/Job-2.odb,Step-1,Increment      1: Step Time =    1.000,"P-2-1",            84,   200.000E-03,   25.9740E-03,            0.,NA,NA,"",   1.00040E+06,   1.00007E+06,   1.00007E+06
C:/temp/Job-2.odb,Step-1,Increment      1: Step Time =    1.000,"P-2-1",            85,   200.000E-03,   20.7792E-03,            0.,NA,NA,"",   1.00049E+06,   1.00002E+06,   1.00002E+06
C:/temp/Job-2.odb,Step-1,Increment      1: Step Time =    1.000,"P-2-1",            86,   200.000E-03,   15.5844E-03,            0.,NA,NA,"",   1.00039E+06,   1.00001E+06,   1.00001E+06
C:/temp/Job-2.odb,Step-1,Increment      1: Step Time =    1.000,"P-2-1",            87,   200.000E-03,   10.3896E-03,            0.,NA,NA,"",   1.00020E+06,  1000.000E+03,  1000.000E+03
C:/temp/Job-2.odb,Step-1,Increment      1: Step Time =    1.000,"P-2-1",            88,   200.000E-03,   5.19481E-03,            0.,NA,NA,"",   1.00004E+06,   999.987E+03,   999.987E+03
C:/temp/Job-2.odb,Step-1,Increment      1: Step Time =    1.000,"P-2-1",            89,   200.000E-03,   200.000E-03,            0.,NA,NA,"",   999.993E+03,   999.986E+03,   999.986E+03
C:/temp/Job-2.odb,Step-1,Increment      1: Step Time =    1.000,"P-2-1",            90,   5.19481E-03,   200.000E-03,            0.,NA,NA,"",   1.39497E+06,   1.39930E+06,   1.39930E+06
C:/temp/Job-2.odb,Step-1,Increment      1: Step Time =    1.000,"P-2-1",            91,   10.3896E-03,   200.000E-03,            0.,NA,NA,"",   1.19592E+06,   1.19758E+06,   1.19758E+06
C:/temp/Job-2.odb,Step-1,Increment      1: Step Time =    1.000,"P-2-1",            92,   15.5844E-03,   200.000E-03,            0.,NA,NA,"",   1.10828E+06,   1.10873E+06,   1.10873E+06
C:/temp/Job-2.odb,Step-1,Increment      1: Step Time =    1.000,"P-2-1",            93,   20.7792E-03,   200.000E-03,            0.,NA,NA,"",   1.06127E+06,   1.06140E+06,   1.06140E+06
C:/temp/Job-2.odb,Step-1,Increment      1: Step Time =    1.000,"P-2-1",            94,   25.9740E-03,   200.000E-03,            0.,NA,NA,"",   1.03239E+06,   1.03231E+06,   1.03231E+06
C:/temp/Job-2.odb,Step-1,Increment      1: Step Time =    1.000,"P-2-1",            95,   31.1688E-03,   200.000E-03,            0.,NA,NA,"",   1.01470E+06,   1.01441E+06,   1.01441E+06
C:/temp/Job-2.odb,Step-1,Increment      1: Step Time =    1.000,"P-2-1",            96,   36.3636E-03,   200.000E-03,            0.,NA,NA,"",   998.594E+03,   998.949E+03,   998.949E+03
C:/temp/Job-2.odb,Step-1,Increment      1: Step Time =    1.000,"P-2-1",            97,   41.5584E-03,   200.000E-03,            0.,NA,NA,"",   985.506E+03,   985.549E+03,   985.549E+03
C:/temp/Job-2.odb,Step-1,Increment      1: Step Time =    1.000,"P-2-1",            98,   46.7532E-03,   200.000E-03,            0.,NA,NA,"",   976.248E+03,   976.279E+03,   976.279E+03
C:/temp/Job-2.odb,Step-1,Increment      1: Step Time =    1.000,"P-2-1",            99,   51.9481E-03,   200.000E-03,            0.,NA,NA,"",   968.320E+03,   968.307E+03,   968.307E+03
C:/temp/Job-2.odb,Step-1,Increment      1: Step Time =    1.000,"P-2-1",           100,   57.1429E-03,   200.000E-03,            0.,NA,NA,"",   961.191E+03,   961.173E+03,   961.173E+03
C:/temp/Job-2.odb,Step-1,Increment      1: Step Time =    1.000,"P-2-1",           101,   62.3377E-03,   200.000E-03,            0.,NA,NA,"",   954.194E+03,   954.202E+03,   954.202E+03
C:/temp/Job-2.odb,Step-1,Increment      1: Step Time =    1.000,"P-2-1",           102,   67.5325E-03,   200.000E-03,            0.,NA,NA,"",   947.123E+03,   947.125E+03,   947.125E+03
C:/temp/Job-2.odb,Step-1,Increment      1: Step Time =    1.000,"P-2-1",           103,   72.7273E-03,   200.000E-03,            0.,NA,NA,"",   940.222E+03,   940.231E+03,   940.231E+03
C:/temp/Job-2.odb,Step-1,Increment      1: Step Time =    1.000,"P-2-1",           104,   77.9221E-03,   200.000E-03,            0.,NA,NA,"",   933.947E+03,   933.979E+03,   933.979E+03
C:/temp/Job-2.odb,Step-1,Increment      1: Step Time =    1.000,"P-2-1",           105,   83.1169E-03,   200.000E-03,            0.,NA,NA,"",   928.533E+03,   928.590E+03,   928.590E+03
C:/temp/Job-2.odb,Step-1,Increment      1: Step Time =    1.000,"P-2-1",           106,   88.3117E-03,   200.000E-03,            0.,NA,NA,"",   924.621E+03,   924.670E+03,   924.670E+03
C:/temp/Job-2.odb,Step-1,Increment      1: Step Time =    1.000,"P-2-1",           107,   93.5065E-03,   200.000E-03,            0.,NA,NA,"",   922.976E+03,   923.083E+03,   923.083E+03
C:/temp/Job-2.odb,Step-1,Increment      1: Step Time =    1.000,"P-2-1",           108,   101.299E-03,   200.000E-03,            0.,NA,NA,"",   924.416E+03,   924.445E+03,   924.445E+03
C:/temp/Job-2.odb,Step-1,Increment      1: Step Time =    1.000,"P-2-1",           109,   106.494E-03,   200.000E-03,            0.,NA,NA,"",   926.665E+03,   926.743E+03,   926.743E+03
C:/temp/Job-2.odb,Step-1,Increment      1: Step Time =    1.000,"P-2-1",           110,   111.688E-03,   200.000E-03,            0.,NA,NA,"",   931.759E+03,   931.793E+03,   931.793E+03
C:/temp/Job-2.odb,Step-1,Increment      1: Step Time =    1.000,"P-2-1",           111,   116.883E-03,   200.000E-03,            0.,NA,NA,"",   938.497E+03,   938.527E+03,   938.527E+03
C:/temp/Job-2.odb,Step-1,Increment      1: Step Time =    1.000,"P-2-1",           112,   122.078E-03,   200.000E-03,            0.,NA,NA,"",   946.470E+03,   946.485E+03,   946.485E+03
C:/temp/Job-2.odb,Step-1,Increment      1: Step Time =    1.000,"P-2-1",           113,   127.273E-03,   200.000E-03,            0.,NA,NA,"",   954.876E+03,   954.877E+03,   954.877E+03
C:/temp/Job-2.odb,Step-1,Increment      1: Step Time =    1.000,"P-2-1",           114,   132.468E-03,   200.000E-03,            0.,NA,NA,"",   963.235E+03,   963.221E+03,   963.221E+03
C:/temp/Job-2.odb,Step-1,Increment      1: Step Time =    1.000,"P-2-1",           115,   137.662E-03,   200.000E-03,            0.,NA,NA,"",   971.117E+03,   971.087E+03,   971.087E+03
C:/temp/Job-2.odb,Step-1,Increment      1: Step Time =    1.000,"P-2-1",           116,   142.857E-03,   200.000E-03,            0.,NA,NA,"",   978.141E+03,   978.102E+03,   978.102E+03
C:/temp/Job-2.odb,Step-1,Increment      1: Step Time =    1.000,"P-2-1",           117,   148.052E-03,   200.000E-03,            0.,NA,NA,"",   984.087E+03,   984.049E+03,   984.049E+03
C:/temp/Job-2.odb,Step-1,Increment      1: Step Time =    1.000,"P-2-1",           118,   153.247E-03,   200.000E-03,            0.,NA,NA,"",   988.892E+03,    988.86E+03,    988.86E+03
C:/temp/Job-2.odb,Step-1,Increment      1: Step Time =    1.000,"P-2-1",           119,   158.442E-03,   200.000E-03,            0.,NA,NA,"",   992.543E+03,   992.523E+03,   992.523E+03
C:/temp/Job-2.odb,Step-1,Increment      1: Step Time =    1.000,"P-2-1",           120,   163.636E-03,   200.000E-03,            0.,NA,NA,"",   995.208E+03,   995.198E+03,   995.198E+03
C:/temp/Job-2.odb,Step-1,Increment      1: Step Time =    1.000,"P-2-1",           121,   168.831E-03,   200.000E-03,            0.,NA,NA,"",   997.058E+03,   997.013E+03,   997.013E+03
C:/temp/Job-2.odb,Step-1,Increment      1: Step Time =    1.000,"P-2-1",           122,   174.026E-03,   200.000E-03,            0.,NA,NA,"",   998.130E+03,   998.114E+03,   998.114E+03
C:/temp/Job-2.odb,Step-1,Increment      1: Step Time =    1.000,"P-2-1",           123,   179.221E-03,   200.000E-03,            0.,NA,NA,"",   998.760E+03,   998.752E+03,   998.752E+03
C:/temp/Job-2.odb,Step-1,Increment      1: Step Time =    1.000,"P-2-1",           124,   184.416E-03,   200.000E-03,            0.,NA,NA,"",   999.221E+03,   999.220E+03,   999.220E+03
C:/temp/Job-2.odb,Step-1,Increment      1: Step Time =    1.000,"P-2-1",           125,   189.610E-03,   200.000E-03,            0.,NA,NA,"",   999.608E+03,   999.608E+03,   999.608E+03
C:/temp/Job-2.odb,Step-1,Increment      1: Step Time =    1.000,"P-2-1",           126,   194.805E-03,   200.000E-03,            0.,NA,NA,"",   999.895E+03,   999.889E+03,   999.889E+03
C:/temp/Job-2.odb,Step-1,Increment      1: Step Time =    1.000,"P-2-1",           127,            0.,   200.000E-03,            0.,NA,NA,"",   1.81798E+06,   1.90000E+06,   1.90000E+06
C:/temp/Job-2.odb,Step-1,Increment      1: Step Time =    1.000,"P-2-1",           128,            0.,   5.19481E-03,            0.,NA,NA,"",   1.29437E+06,   1.40280E+06,   1.40280E+06
C:/temp/Job-2.odb,Step-1,Increment      1: Step Time =    1.000,"P-2-1",           129,            0.,   10.3896E-03,            0.,NA,NA,"",   1.11014E+06,   1.21925E+06,   1.21925E+06
C:/temp/Job-2.odb,Step-1,Increment      1: Step Time =    1.000,"P-2-1",           130,            0.,   15.5844E-03,            0.,NA,NA,"",   1.02675E+06,   1.13587E+06,   1.13587E+06
C:/temp/Job-2.odb,Step-1,Increment      1: Step Time =    1.000,"P-2-1",           131,            0.,   20.7792E-03,            0.,NA,NA,"",   977.699E+03,   1.08622E+06,   1.08622E+06
C:/temp/Job-2.odb,Step-1,Increment      1: Step Time =    1.000,"P-2-1",           132,            0.,   25.9740E-03,            0.,NA,NA,"",   943.157E+03,   1.05070E+06,   1.05070E+06
C:/temp/Job-2.odb,Step-1,Increment      1: Step Time =    1.000,"P-2-1",           133,            0.,   31.1688E-03,            0.,NA,NA,"",   918.870E+03,   1.02482E+06,   1.02482E+06
C:/temp/Job-2.odb,Step-1,Increment      1: Step Time =    1.000,"P-2-1",           134,            0.,   36.3636E-03,            0.,NA,NA,"",   895.533E+03,   1.00132E+06,   1.00132E+06
C:/temp/Job-2.odb,Step-1,Increment      1: Step Time =    1.000,"P-2-1",           135,            0.,   41.5584E-03,            0.,NA,NA,"",   875.556E+03,   981.994E+03,   981.994E+03
C:/temp/Job-2.odb,Step-1,Increment      1: Step Time =    1.000,"P-2-1",           136,            0.,   46.7532E-03,            0.,NA,NA,"",   859.910E+03,   966.069E+03,   966.069E+03
C:/temp/Job-2.odb,Step-1,Increment      1: Step Time =    1.000,"P-2-1",           137,            0.,   51.9481E-03,            0.,NA,NA,"",   846.067E+03,   951.702E+03,   951.702E+03
C:/temp/Job-2.odb,Step-1,Increment      1: Step Time =    1.000,"P-2-1",           138,            0.,   57.1429E-03,            0.,NA,NA,"",   833.591E+03,   938.562E+03,   938.562E+03
C:/temp/Job-2.odb,Step-1,Increment      1: Step Time =    1.000,"P-2-1",           139,            0.,   62.3377E-03,            0.,NA,NA,"",   822.448E+03,   926.709E+03,   926.709E+03
C:/temp/Job-2.odb,Step-1,Increment      1: Step Time =    1.000,"P-2-1",           140,            0.,   67.5325E-03,            0.,NA,NA,"",   811.883E+03,   915.444E+03,   915.444E+03
C:/temp/Job-2.odb,Step-1,Increment      1: Step Time =    1.000,"P-2-1",           141,            0.,   72.7273E-03,            0.,NA,NA,"",   802.357E+03,   905.227E+03,   905.227E+03
C:/temp/Job-2.odb,Step-1,Increment      1: Step Time =    1.000,"P-2-1",           142,            0.,   77.9221E-03,            0.,NA,NA,"",   794.095E+03,   896.299E+03,   896.299E+03
C:/temp/Job-2.odb,Step-1,Increment      1: Step Time =    1.000,"P-2-1",           143,            0.,   83.1169E-03,            0.,NA,NA,"",   787.185E+03,   888.797E+03,   888.797E+03
C:/temp/Job-2.odb,Step-1,Increment      1: Step Time =    1.000,"P-2-1",           144,            0.,   88.3117E-03,            0.,NA,NA,"",   781.715E+03,   882.884E+03,   882.884E+03
C:/temp/Job-2.odb,Step-1,Increment      1: Step Time =    1.000,"P-2-1",           145,            0.,   93.5065E-03,            0.,NA,NA,"",   778.319E+03,   879.143E+03,   879.143E+03
C:/temp/Job-2.odb,Step-1,Increment      1: Step Time =    1.000,"P-2-1",           146,            0.,   101.299E-03,            0.,NA,NA,"",   776.991E+03,   877.554E+03,   877.554E+03
C:/temp/Job-2.odb,Step-1,Increment      1: Step Time =    1.000,"P-2-1",           147,            0.,   106.494E-03,            0.,NA,NA,"",   778.231E+03,   879.050E+03,   879.050E+03
C:/temp/Job-2.odb,Step-1,Increment      1: Step Time =    1.000,"P-2-1",           148,            0.,   111.688E-03,            0.,NA,NA,"",   781.748E+03,   882.865E+03,   882.865E+03
C:/temp/Job-2.odb,Step-1,Increment      1: Step Time =    1.000,"P-2-1",           149,            0.,   116.883E-03,            0.,NA,NA,"",    787.08E+03,   888.666E+03,   888.666E+03
C:/temp/Job-2.odb,Step-1,Increment      1: Step Time =    1.000,"P-2-1",           150,            0.,   122.078E-03,            0.,NA,NA,"",   794.036E+03,   896.217E+03,   896.217E+03
C:/temp/Job-2.odb,Step-1,Increment      1: Step Time =    1.000,"P-2-1",           151,            0.,   127.273E-03,            0.,NA,NA,"",   802.317E+03,   905.157E+03,   905.157E+03
C:/temp/Job-2.odb,Step-1,Increment      1: Step Time =    1.000,"P-2-1",           152,            0.,   132.468E-03,            0.,NA,NA,"",   811.798E+03,   915.336E+03,   915.336E+03
C:/temp/Job-2.odb,Step-1,Increment      1: Step Time =    1.000,"P-2-1",           153,            0.,   137.662E-03,            0.,NA,NA,"",   822.301E+03,   926.552E+03,   926.552E+03
C:/temp/Job-2.odb,Step-1,Increment      1: Step Time =    1.000,"P-2-1",           154,            0.,   142.857E-03,            0.,NA,NA,"",   833.654E+03,   938.604E+03,   938.604E+03
C:/temp/Job-2.odb,Step-1,Increment      1: Step Time =    1.000,"P-2-1",           155,            0.,   148.052E-03,            0.,NA,NA,"",   845.915E+03,   951.517E+03,   951.517E+03
C:/temp/Job-2.odb,Step-1,Increment      1: Step Time =    1.000,"P-2-1",           156,            0.,   153.247E-03,            0.,NA,NA,"",   859.523E+03,   965.668E+03,   965.668E+03
C:/temp/Job-2.odb,Step-1,Increment      1: Step Time =    1.000,"P-2-1",           157,            0.,   158.442E-03,            0.,NA,NA,"",   874.872E+03,   981.453E+03,   981.453E+03
C:/temp/Job-2.odb,Step-1,Increment      1: Step Time =    1.000,"P-2-1",           158,            0.,   163.636E-03,            0.,NA,NA,"",   893.449E+03,   1.00003E+06,   1.00003E+06
C:/temp/Job-2.odb,Step-1,Increment      1: Step Time =    1.000,"P-2-1",           159,            0.,   168.831E-03,            0.,NA,NA,"",   917.742E+03,   1.02354E+06,   1.02354E+06
C:/temp/Job-2.odb,Step-1,Increment      1: Step Time =    1.000,"P-2-1",           160,            0.,   174.026E-03,            0.,NA,NA,"",   943.685E+03,   1.05107E+06,   1.05107E+06
C:/temp/Job-2.odb,Step-1,Increment      1: Step Time =    1.000,"P-2-1",           161,            0.,   179.221E-03,            0.,NA,NA,"",   977.529E+03,   1.08562E+06,   1.08562E+06
C:/temp/Job-2.odb,Step-1,Increment      1: Step Time =    1.000,"P-2-1",           162,            0.,   184.416E-03,            0.,NA,NA,"",   1.02583E+06,   1.13508E+06,   1.13508E+06
C:/temp/Job-2.odb,Step-1,Increment      1: Step Time =    1.000,"P-2-1",           163,            0.,   189.610E-03,            0.,NA,NA,"",   1.10923E+06,   1.21883E+06,   1.21883E+06
C:/temp/Job-2.odb,Step-1,Increment      1: Step Time =    1.000,"P-2-1",           164,            0.,   194.805E-03,            0.,NA,NA,"",   1.29388E+06,   1.40257E+06,   1.40257E+06
C:/temp/Job-2.odb,Step-1,Increment      1: Step Time =    1.000,"P-2-1",           165,   195.048E-03,   85.5746E-03,            0.,NA,NA,"",   969.523E+03,   999.051E+03,   999.051E+03
C:/temp/Job-2.odb,Step-1,Increment      1: Step Time =    1.000,"P-2-1",           166,   195.306E-03,   114.310E-03,            0.,NA,NA,"",   969.291E+03,   999.096E+03,   999.096E+03
C:/temp/Job-2.odb,Step-1,Increment      1: Step Time =    1.000,"P-2-1",           167,   189.099E-03,   112.915E-03,            0.,NA,NA,"",   972.441E+03,   995.959E+03,   995.959E+03
C:/temp/Job-2.odb,Step-1,Increment      1: Step Time =    1.000,"P-2-1",           168,   183.729E-03,   114.098E-03,            0.,NA,NA,"",   973.806E+03,   992.375E+03,   992.375E+03
C:/temp/Job-2.odb,Step-1,Increment      1: Step Time =    1.000,"P-2-1",           169,   177.767E-03,   114.245E-03,            0.,NA,NA,"",   972.758E+03,   986.721E+03,   986.721E+03
C:/temp/Job-2.odb,Step-1,Increment      1: Step Time =    1.000,"P-2-1",           170,   172.034E-03,   113.780E-03,            0.,NA,NA,"",   969.087E+03,   979.607E+03,   979.607E+03
C:/temp/Job-2.odb,Step-1,Increment      1: Step Time =    1.000,"P-2-1",           171,   167.380E-03,   115.029E-03,            0.,NA,NA,"",   968.109E+03,   975.248E+03,   975.248E+03
C:/temp/Job-2.odb,Step-1,Increment      1: Step Time =    1.000,"P-2-1",           172,   162.809E-03,   115.059E-03,            0.,NA,NA,"",   965.448E+03,   969.676E+03,   969.676E+03
C:/temp/Job-2.odb,Step-1,Increment      1: Step Time =    1.000,"P-2-1",           173,   155.808E-03,   113.258E-03,            0.,NA,NA,"",   949.663E+03,   951.232E+03,   951.232E+03
C:/temp/Job-2.odb,Step-1,Increment      1: Step Time =    1.000,"P-2-1",           174,   150.612E-03,   112.585E-03,            0.,NA,NA,"",   938.480E+03,   937.290E+03,   937.290E+03
C:/temp/Job-2.odb,Step-1,Increment      1: Step Time =    1.000,"P-2-1",           175,   147.373E-03,   114.203E-03,            0.,NA,NA,"",   948.785E+03,   941.493E+03,   941.493E+03
C:/temp/Job-2.odb,Step-1,Increment      1: Step Time =    1.000,"P-2-1",           176,   141.402E-03,   114.815E-03,            0.,NA,NA,"",   958.578E+03,   940.719E+03,   940.719E+03
C:/temp/Job-2.odb,Step-1,Increment      1: Step Time =    1.000,"P-2-1",           177,   135.561E-03,   113.216E-03,            0.,NA,NA,"",   949.272E+03,   920.190E+03,   920.190E+03
C:/temp/Job-2.odb,Step-1,Increment      1: Step Time =    1.000,"P-2-1",           178,   128.988E-03,   112.491E-03,            0.,NA,NA,"",   972.791E+03,   915.806E+03,   915.806E+03
C:/temp/Job-2.odb,Step-1,Increment      1: Step Time =    1.000,"P-2-1",           179,   123.718E-03,   113.154E-03,            0.,NA,NA,"",   1.08643E+06,   984.179E+03,   984.179E+03
C:/temp/Job-2.odb,Step-1,Increment      1: Step Time =    1.000,"P-2-1",           180,   117.455E-03,   112.646E-03,            0.,NA,NA,"",   1.24140E+06,   1.09440E+06,   1.09440E+06
C:/temp/Job-2.odb,Step-1,Increment      1: Step Time =    1.000,"P-2-1",           181,   113.677E-03,   114.460E-03,            0.,NA,NA,"",   1.37129E+06,   1.26551E+06,   1.26551E+06
C:/temp/Job-2.odb,Step-1,Increment      1: Step Time =    1.000,"P-2-1",           182,   107.119E-03,   114.238E-03,            0.,NA,NA,"",   1.66207E+06,   1.72013E+06,   1.72013E+06
C:/temp/Job-2.odb,Step-1,Increment      1: Step Time =    1.000,"P-2-1",           183,   91.6085E-03,   112.519E-03,            0.,NA,NA,"",   1.50675E+06,   1.52817E+06,   1.52817E+06
C:/temp/Job-2.odb,Step-1,Increment      1: Step Time =    1.000,"P-2-1",           184,   86.0247E-03,   113.468E-03,            0.,NA,NA,"",   1.30826E+06,   1.20306E+06,   1.20306E+06
C:/temp/Job-2.odb,Step-1,Increment      1: Step Time =    1.000,"P-2-1",           185,   80.5378E-03,   112.833E-03,            0.,NA,NA,"",   1.13294E+06,   1.01995E+06,   1.01995E+06
C:/temp/Job-2.odb,Step-1,Increment      1: Step Time =    1.000,"P-2-1",           186,   75.1759E-03,   114.033E-03,            0.,NA,NA,"",   1.03549E+06,   973.267E+03,   973.267E+03
C:/temp/Job-2.odb,Step-1,Increment      1: Step Time =    1.000,"P-2-1",           187,   71.0007E-03,   114.708E-03,            0.,NA,NA,"",   985.017E+03,   953.199E+03,   953.199E+03
C:/temp/Job-2.odb,Step-1,Increment      1: Step Time =    1.000,"P-2-1",           188,   65.2733E-03,   113.932E-03,            0.,NA,NA,"",   909.316E+03,   912.136E+03,   912.136E+03
C:/temp/Job-2.odb,Step-1,Increment      1: Step Time =    1.000,"P-2-1",           189,   60.7824E-03,   114.062E-03,            0.,NA,NA,"",   888.799E+03,   907.711E+03,   907.711E+03
C:/temp/Job-2.odb,Step-1,Increment      1: Step Time =    1.000,"P-2-1",           190,   52.8476E-03,   112.884E-03,            0.,NA,NA,"",   858.602E+03,   899.697E+03,   899.697E+03
C:/temp/Job-2.odb,Step-1,Increment      1: Step Time =    1.000,"P-2-1",           191,   47.9398E-03,   112.693E-03,            0.,NA,NA,"",   852.596E+03,   902.785E+03,   902.785E+03
C:/temp/Job-2.odb,Step-1,Increment      1: Step Time =    1.000,"P-2-1",           192,   43.2481E-03,   111.618E-03,            0.,NA,NA,"",   844.179E+03,   902.432E+03,   902.432E+03
C:/temp/Job-2.odb,Step-1,Increment      1: Step Time =    1.000,"P-2-1",           193,   36.5261E-03,   112.979E-03,            0.,NA,NA,"",   843.726E+03,   910.241E+03,   910.241E+03
C:/temp/Job-2.odb,Step-1,Increment      1: Step Time =    1.000,"P-2-1",           194,   32.2679E-03,   113.358E-03,            0.,NA,NA,"",   839.439E+03,   911.467E+03,   911.467E+03
C:/temp/Job-2.odb,Step-1,Increment      1: Step Time =    1.000,"P-2-1",           195,   27.3493E-03,   113.423E-03,            0.,NA,NA,"",   831.915E+03,   910.077E+03,   910.077E+03
C:/temp/Job-2.odb,Step-1,Increment      1: Step Time =    1.000,"P-2-1",           196,   22.1288E-03,   114.228E-03,            0.,NA,NA,"",   824.264E+03,   908.207E+03,   908.207E+03
C:/temp/Job-2.odb,Step-1,Increment      1: Step Time =    1.000,"P-2-1",           197,   16.4829E-03,   112.578E-03,            0.,NA,NA,"",   810.510E+03,   900.536E+03,   900.536E+03
C:/temp/Job-2.odb,Step-1,Increment      1: Step Time =    1.000,"P-2-1",           198,   9.76129E-03,   114.742E-03,            0.,NA,NA,"",   800.785E+03,   896.437E+03,   896.437E+03
C:/temp/Job-2.odb,Step-1,Increment      1: Step Time =    1.000,"P-2-1",           199,   4.94765E-03,   114.433E-03,            0.,NA,NA,"",   791.053E+03,   890.174E+03,   890.174E+03
C:/temp/Job-2.odb,Step-1,Increment      1: Step Time =    1.000,"P-2-1",           200,   4.98281E-03,   109.276E-03,            0.,NA,NA,"",   785.771E+03,   884.746E+03,   884.746E+03
C:/temp/Job-2.odb,Step-1,Increment      1: Step Time =    1.000,"P-2-1",           201,   10.2251E-03,   109.532E-03,            0.,NA,NA,"",   795.358E+03,   890.755E+03,   890.755E+03
C:/temp/Job-2.odb,Step-1,Increment      1: Step Time =    1.000,"P-2-1",           202,   17.6056E-03,   108.478E-03,            0.,NA,NA,"",   806.907E+03,   896.291E+03,   896.291E+03
C:/temp/Job-2.odb,Step-1,Increment      1: Step Time =    1.000,"P-2-1",           203,   22.8351E-03,   107.377E-03,            0.,NA,NA,"",   814.073E+03,   898.476E+03,   898.476E+03
C:/temp/Job-2.odb,Step-1,Increment      1: Step Time =    1.000,"P-2-1",           204,   27.8778E-03,   106.899E-03,            0.,NA,NA,"",   819.711E+03,   898.849E+03,   898.849E+03
C:/temp/Job-2.odb,Step-1,Increment      1: Step Time =    1.000,"P-2-1",           205,   31.8539E-03,   108.802E-03,            0.,NA,NA,"",   827.304E+03,   901.631E+03,   901.631E+03
C:/temp/Job-2.odb,Step-1,Increment      1: Step Time =    1.000,"P-2-1",           206,   35.9312E-03,   107.101E-03,            0.,NA,NA,"",   826.606E+03,   896.711E+03,   896.711E+03
C:/temp/Job-2.odb,Step-1,Increment      1: Step Time =    1.000,"P-2-1",           207,   44.0885E-03,   107.051E-03,            0.,NA,NA,"",   824.501E+03,   885.021E+03,   885.021E+03
C:/temp/Job-2.odb,Step-1,Increment      1: Step Time =    1.000,"P-2-1",           208,   48.9776E-03,   106.244E-03,            0.,NA,NA,"",   813.361E+03,   868.842E+03,   868.842E+03
C:/temp/Job-2.odb,Step-1,Increment      1: Step Time =    1.000,"P-2-1",           209,   53.7073E-03,   108.063E-03,            0.,NA,NA,"",   812.585E+03,   859.963E+03,   859.963E+03
C:/temp/Job-2.odb,Step-1,Increment      1: Step Time =    1.000,"P-2-1",           210,   57.3513E-03,   109.415E-03,            0.,NA,NA,"",   820.792E+03,   859.892E+03,   859.892E+03
C:/temp/Job-2.odb,Step-1,Increment      1: Step Time =    1.000,"P-2-1",           211,   63.3204E-03,   106.206E-03,            0.,NA,NA,"",   755.196E+03,   790.875E+03,   790.875E+03
C:/temp/Job-2.odb,Step-1,Increment      1: Step Time =    1.000,"P-2-1",           212,   71.8684E-03,   107.673E-03,            0.,NA,NA,"",   760.129E+03,   756.697E+03,   756.697E+03
C:/temp/Job-2.odb,Step-1,Increment      1: Step Time =    1.000,"P-2-1",           213,   79.5348E-03,   108.123E-03,            0.,NA,NA,"",   848.534E+03,   751.084E+03,   751.084E+03
C:/temp/Job-2.odb,Step-1,Increment      1: Step Time =    1.000,"P-2-1",           214,   86.7224E-03,   107.455E-03,            0.,NA,NA,"",   722.141E+03,   473.980E+03,   473.980E+03
C:/temp/Job-2.odb,Step-1,Increment      1: Step Time =    1.000,"P-2-1",           215,   112.825E-03,   107.360E-03,            0.,NA,NA,"",   683.360E+03,   417.073E+03,   417.073E+03
C:/temp/Job-2.odb,Step-1,Increment      1: Step Time =    1.000,"P-2-1",           216,   118.535E-03,   108.581E-03,            0.,NA,NA,"",   952.684E+03,   792.478E+03,   792.478E+03
C:/temp/Job-2.odb,Step-1,Increment      1: Step Time =    1.000,"P-2-1",           217,   123.490E-03,   108.781E-03,            0.,NA,NA,"",   873.644E+03,   791.252E+03,   791.252E+03
C:/temp/Job-2.odb,Step-1,Increment      1: Step Time =    1.000,"P-2-1",           218,   129.546E-03,   106.957E-03,            0.,NA,NA,"",   776.945E+03,   757.560E+03,   757.560E+03
C:/temp/Job-2.odb,Step-1,Increment      1: Step Time =    1.000,"P-2-1",           219,   135.065E-03,   107.784E-03,            0.,NA,NA,"",   827.718E+03,   820.936E+03,   820.936E+03
C:/temp/Job-2.odb,Step-1,Increment      1: Step Time =    1.000,"P-2-1",           220,   141.248E-03,   107.799E-03,            0.,NA,NA,"",   862.031E+03,   863.283E+03,   863.283E+03
C:/temp/Job-2.odb,Step-1,Increment      1: Step Time =    1.000,"P-2-1",           221,   146.503E-03,   107.592E-03,            0.,NA,NA,"",   887.054E+03,   891.720E+03,   891.720E+03
C:/temp/Job-2.odb,Step-1,Increment      1: Step Time =    1.000,"P-2-1",           222,   150.853E-03,   108.447E-03,            0.,NA,NA,"",   911.002E+03,   916.035E+03,   916.035E+03
C:/temp/Job-2.odb,Step-1,Increment      1: Step Time =    1.000,"P-2-1",           223,   155.144E-03,   107.730E-03,            0.,NA,NA,"",   922.053E+03,   929.164E+03,   929.164E+03
C:/temp/Job-2.odb,Step-1,Increment      1: Step Time =    1.000,"P-2-1",           224,   162.997E-03,   107.405E-03,            0.,NA,NA,"",   942.457E+03,   952.122E+03,   952.122E+03
C:/temp/Job-2.odb,Step-1,Increment      1: Step Time =    1.000,"P-2-1",           225,   166.973E-03,   109.684E-03,            0.,NA,NA,"",   954.466E+03,    964.48E+03,    964.48E+03
C:/temp/Job-2.odb,Step-1,Increment      1: Step Time =    1.000,"P-2-1",           226,   171.898E-03,   108.663E-03,            0.,NA,NA,"",   960.289E+03,   973.011E+03,   973.011E+03
C:/temp/Job-2.odb,Step-1,Increment      1: Step Time =    1.000,"P-2-1",           227,   177.592E-03,   108.469E-03,            0.,NA,NA,"",   966.057E+03,   981.999E+03,   981.999E+03
C:/temp/Job-2.odb,Step-1,Increment      1: Step Time =    1.000,"P-2-1",           228,   183.254E-03,   108.573E-03,            0.,NA,NA,"",   969.555E+03,   989.395E+03,   989.395E+03
C:/temp/Job-2.odb,Step-1,Increment      1: Step Time =    1.000,"P-2-1",           229,   188.843E-03,   108.279E-03,            0.,NA,NA,"",   969.955E+03,   994.859E+03,   994.859E+03
C:/temp/Job-2.odb,Step-1,Increment      1: Step Time =    1.000,"P-2-1",           230,   195.319E-03,   109.374E-03,            0.,NA,NA,"",   966.807E+03,   998.864E+03,   998.864E+03
C:/temp/Job-2.odb,Step-1,Increment      1: Step Time =    1.000,"P-2-1",           231,   119.201E-03,   104.367E-03,            0.,NA,NA,"",   577.797E+03,   466.123E+03,   466.123E+03
C:/temp/Job-2.odb,Step-1,Increment      1: Step Time =    1.000,"P-2-1",           232,   125.022E-03,   102.176E-03,            0.,NA,NA,"",   533.094E+03,   530.481E+03,   530.481E+03
C:/temp/Job-2.odb,Step-1,Increment      1: Step Time =    1.000,"P-2-1",           233,   130.320E-03,   102.764E-03,            0.,NA,NA,"",   667.737E+03,   677.077E+03,   677.077E+03
C:/temp/Job-2.odb,Step-1,Increment      1: Step Time =    1.000,"P-2-1",           234,   135.569E-03,   103.475E-03,            0.,NA,NA,"",   756.394E+03,   766.404E+03,   766.404E+03
C:/temp/Job-2.odb,Step-1,Increment      1: Step Time =    1.000,"P-2-1",           235,   140.673E-03,   103.170E-03,            0.,NA,NA,"",   812.342E+03,   823.283E+03,   823.283E+03
C:/temp/Job-2.odb,Step-1,Increment      1: Step Time =    1.000,"P-2-1",           236,   146.420E-03,   103.232E-03,            0.,NA,NA,"",   860.711E+03,   870.940E+03,   870.940E+03
C:/temp/Job-2.odb,Step-1,Increment      1: Step Time =    1.000,"P-2-1",           237,   151.418E-03,   103.838E-03,            0.,NA,NA,"",   891.620E+03,   901.382E+03,   901.382E+03
C:/temp/Job-2.odb,Step-1,Increment      1: Step Time =    1.000,"P-2-1",           238,   157.055E-03,   101.997E-03,            0.,NA,NA,"",   912.923E+03,   923.920E+03,   923.920E+03
C:/temp/Job-2.odb,Step-1,Increment      1: Step Time =    1.000,"P-2-1",           239,   161.646E-03,   102.779E-03,            0.,NA,NA,"",   930.295E+03,   941.566E+03,   941.566E+03
C:/temp/Job-2.odb,Step-1,Increment      1: Step Time =    1.000,"P-2-1",           240,   167.358E-03,   102.814E-03,            0.,NA,NA,"",   945.581E+03,   958.190E+03,   958.190E+03
C:/temp/Job-2.odb,Step-1,Increment      1: Step Time =    1.000,"P-2-1",           241,   173.193E-03,   102.000E-03,            0.,NA,NA,"",   956.281E+03,   971.202E+03,   971.202E+03
C:/temp/Job-2.odb,Step-1,Increment      1: Step Time =    1.000,"P-2-1",           242,   177.012E-03,   102.580E-03,            0.,NA,NA,"",   961.620E+03,   978.382E+03,   978.382E+03
C:/temp/Job-2.odb,Step-1,Increment      1: Step Time =    1.000,"P-2-1",           243,   183.077E-03,   103.088E-03,            0.,NA,NA,"",   966.976E+03,   987.710E+03,   987.710E+03
C:/temp/Job-2.odb,Step-1,Increment      1: Step Time =    1.000,"P-2-1",           244,   188.409E-03,   103.066E-03,            0.,NA,NA,"",   968.562E+03,   993.974E+03,   993.974E+03
C:/temp/Job-2.odb,Step-1,Increment      1: Step Time =    1.000,"P-2-1",           245,   193.939E-03,   102.702E-03,            0.,NA,NA,"",   966.557E+03,   998.234E+03,   998.234E+03
C:/temp/Job-2.odb,Step-1,Increment      1: Step Time =    1.000,"P-2-1",           246,   119.062E-03,   97.0301E-03,            0.,NA,NA,"",   434.051E+03,   335.861E+03,   335.861E+03
C:/temp/Job-2.odb,Step-1,Increment      1: Step Time =    1.000,"P-2-1",           247,   124.003E-03,   97.9352E-03,            0.,NA,NA,"",   495.586E+03,   488.829E+03,   488.829E+03
C:/temp/Job-2.odb,Step-1,Increment      1: Step Time =    1.000,"P-2-1",           248,   130.937E-03,   97.1783E-03,            0.,NA,NA,"",   667.371E+03,   678.223E+03,   678.223E+03
C:/temp/Job-2.odb,Step-1,Increment      1: Step Time =    1.000,"P-2-1",           249,   136.078E-03,   96.3387E-03,            0.,NA,NA,"",   763.498E+03,   773.540E+03,   773.540E+03
C:/temp/Job-2.odb,Step-1,Increment      1: Step Time =    1.000,"P-2-1",           250,   140.362E-03,   98.8279E-03,            0.,NA,NA,"",   797.641E+03,   811.042E+03,   811.042E+03
C:/temp/Job-2.odb,Step-1,Increment      1: Step Time =    1.000,"P-2-1",           251,   145.652E-03,   98.1377E-03,            0.,NA,NA,"",   848.737E+03,   860.393E+03,   860.393E+03
C:/temp/Job-2.odb,Step-1,Increment      1: Step Time =    1.000,"P-2-1",           252,   151.364E-03,   98.3049E-03,            0.,NA,NA,"",   886.211E+03,   897.162E+03,   897.162E+03
C:/temp/Job-2.odb,Step-1,Increment      1: Step Time =    1.000,"P-2-1",           253,   156.100E-03,   97.1420E-03,            0.,NA,NA,"",   910.658E+03,   921.205E+03,   921.205E+03
C:/temp/Job-2.odb,Step-1,Increment      1: Step Time =    1.000,"P-2-1",           254,   161.327E-03,   97.8137E-03,            0.,NA,NA,"",   929.323E+03,   940.666E+03,   940.666E+03
C:/temp/Job-2.odb,Step-1,Increment      1: Step Time =    1.000,"P-2-1",           255,   166.935E-03,   97.5007E-03,            0.,NA,NA,"",   944.534E+03,   957.068E+03,   957.068E+03
C:/temp/Job-2.odb,Step-1,Increment      1: Step Time =    1.000,"P-2-1",           256,   171.769E-03,   96.8123E-03,            0.,NA,NA,"",   954.632E+03,   968.776E+03,   968.776E+03
C:/temp/Job-2.odb,Step-1,Increment      1: Step Time =    1.000,"P-2-1",           257,   178.449E-03,   96.8919E-03,            0.,NA,NA,"",   963.562E+03,   981.178E+03,   981.178E+03
C:/temp/Job-2.odb,Step-1,Increment      1: Step Time =    1.000,"P-2-1",           258,   184.525E-03,   96.5259E-03,            0.,NA,NA,"",   967.502E+03,   989.282E+03,   989.282E+03
C:/temp/Job-2.odb,Step-1,Increment      1: Step Time =    1.000,"P-2-1",           259,   189.776E-03,   96.5288E-03,            0.,NA,NA,"",   968.282E+03,   995.063E+03,   995.063E+03
C:/temp/Job-2.odb,Step-1,Increment      1: Step Time =    1.000,"P-2-1",           260,   194.780E-03,   95.8281E-03,            0.,NA,NA,"",   965.891E+03,   998.466E+03,   998.466E+03
C:/temp/Job-2.odb,Step-1,Increment      1: Step Time =    1.000,"P-2-1",           261,   112.661E-03,   92.4307E-03,            0.,NA,NA,"",   710.218E+03,   462.753E+03,   462.753E+03
C:/temp/Job-2.odb,Step-1,Increment      1: Step Time =    1.000,"P-2-1",           262,   119.108E-03,   90.8452E-03,            0.,NA,NA,"",   981.944E+03,   832.844E+03,   832.844E+03
C:/temp/Job-2.odb,Step-1,Increment      1: Step Time =    1.000,"P-2-1",           263,   124.748E-03,   91.8945E-03,            0.,NA,NA,"",   836.385E+03,   771.884E+03,   771.884E+03
C:/temp/Job-2.odb,Step-1,Increment      1: Step Time =    1.000,"P-2-1",           264,   130.726E-03,   91.5910E-03,            0.,NA,NA,"",   833.091E+03,   808.339E+03,   808.339E+03
C:/temp/Job-2.odb,Step-1,Increment      1: Step Time =    1.000,"P-2-1",           265,   136.320E-03,   92.9059E-03,            0.,NA,NA,"",   817.835E+03,   816.533E+03,   816.533E+03
C:/temp/Job-2.odb,Step-1,Increment      1: Step Time =    1.000,"P-2-1",           266,   141.720E-03,   91.8211E-03,            0.,NA,NA,"",   867.110E+03,   868.012E+03,   868.012E+03
C:/temp/Job-2.odb,Step-1,Increment      1: Step Time =    1.000,"P-2-1",           267,   145.344E-03,   92.5464E-03,            0.,NA,NA,"",   877.745E+03,   882.456E+03,   882.456E+03
C:/temp/Job-2.odb,Step-1,Increment      1: Step Time =    1.000,"P-2-1",           268,   152.040E-03,   92.0726E-03,            0.,NA,NA,"",   911.269E+03,   917.492E+03,   917.492E+03
C:/temp/Job-2.odb,Step-1,Increment      1: Step Time =    1.000,"P-2-1",           269,   156.981E-03,   92.3368E-03,            0.,NA,NA,"",   926.109E+03,   934.115E+03,   934.115E+03
C:/temp/Job-2.odb,Step-1,Increment      1: Step Time =    1.000,"P-2-1",           270,   162.316E-03,   92.9808E-03,            0.,NA,NA,"",   939.270E+03,   949.071E+03,   949.071E+03
C:/temp/Job-2.odb,Step-1,Increment      1: Step Time =    1.000,"P-2-1",           271,   167.039E-03,   91.7203E-03,            0.,NA,NA,"",   952.270E+03,   963.128E+03,   963.128E+03
C:/temp/Job-2.odb,Step-1,Increment      1: Step Time =    1.000,"P-2-1",           272,   172.868E-03,   92.0896E-03,            0.,NA,NA,"",   960.425E+03,   973.954E+03,   973.954E+03
C:/temp/Job-2.odb,Step-1,Increment      1: Step Time =    1.000,"P-2-1",           273,   179.350E-03,   91.7502E-03,            0.,NA,NA,"",   967.259E+03,   984.501E+03,   984.501E+03
C:/temp/Job-2.odb,Step-1,Increment      1: Step Time =    1.000,"P-2-1",           274,   182.703E-03,   91.7219E-03,            0.,NA,NA,"",   969.078E+03,   988.681E+03,   988.681E+03
C:/temp/Job-2.odb,Step-1,Increment      1: Step Time =    1.000,"P-2-1",           275,   189.781E-03,   90.4549E-03,            0.,NA,NA,"",   970.240E+03,   995.679E+03,   995.679E+03
C:/temp/Job-2.odb,Step-1,Increment      1: Step Time =    1.000,"P-2-1",           276,   195.015E-03,   90.7199E-03,            0.,NA,NA,"",   967.084E+03,   998.828E+03,   998.828E+03
C:/temp/Job-2.odb,Step-1,Increment      1: Step Time =    1.000,"P-2-1",           277,   4.68996E-03,   85.6819E-03,            0.,NA,NA,"",   790.504E+03,   889.791E+03,   889.791E+03
C:/temp/Job-2.odb,Step-1,Increment      1: Step Time =    1.000,"P-2-1",           278,   10.9310E-03,   87.0554E-03,            0.,NA,NA,"",   800.766E+03,   895.514E+03,   895.514E+03
C:/temp/Job-2.odb,Step-1,Increment      1: Step Time =    1.000,"P-2-1",           279,   16.9473E-03,   85.9819E-03,            0.,NA,NA,"",   813.904E+03,   903.302E+03,   903.302E+03
C:/temp/Job-2.odb,Step-1,Increment      1: Step Time =    1.000,"P-2-1",           280,   22.3358E-03,   86.1068E-03,            0.,NA,NA,"",   824.337E+03,   907.984E+03,   907.984E+03
C:/temp/Job-2.odb,Step-1,Increment      1: Step Time =    1.000,"P-2-1",           281,   26.6583E-03,   88.3971E-03,            0.,NA,NA,"",   826.798E+03,   906.188E+03,   906.188E+03
C:/temp/Job-2.odb,Step-1,Increment      1: Step Time =    1.000,"P-2-1",           282,   33.8365E-03,   86.0672E-03,            0.,NA,NA,"",   844.092E+03,   913.638E+03,   913.638E+03
C:/temp/Job-2.odb,Step-1,Increment      1: Step Time =    1.000,"P-2-1",           283,   39.6204E-03,   86.6645E-03,            0.,NA,NA,"",   849.044E+03,   911.381E+03,   911.381E+03
C:/temp/Job-2.odb,Step-1,Increment      1: Step Time =    1.000,"P-2-1",           284,   43.9833E-03,   88.2099E-03,            0.,NA,NA,"",   845.959E+03,   902.867E+03,   902.867E+03
C:/temp/Job-2.odb,Step-1,Increment      1: Step Time =    1.000,"P-2-1",           285,   48.3699E-03,   86.6699E-03,            0.,NA,NA,"",   857.733E+03,   906.389E+03,   906.389E+03
C:/temp/Job-2.odb,Step-1,Increment      1: Step Time =    1.000,"P-2-1",           286,   53.2395E-03,   85.5046E-03,            0.,NA,NA,"",   874.658E+03,   912.084E+03,   912.084E+03
C:/temp/Job-2.odb,Step-1,Increment      1: Step Time =    1.000,"P-2-1",           287,   64.3845E-03,   84.8089E-03,            0.,NA,NA,"",   929.893E+03,   931.933E+03,   931.933E+03
C:/temp/Job-2.odb,Step-1,Increment      1: Step Time =    1.000,"P-2-1",           288,   69.8898E-03,   85.0979E-03,            0.,NA,NA,"",   978.744E+03,   952.829E+03,   952.829E+03
C:/temp/Job-2.odb,Step-1,Increment      1: Step Time =    1.000,"P-2-1",           289,   77.3134E-03,   86.4754E-03,            0.,NA,NA,"",   1.08644E+06,   1.00129E+06,   1.00129E+06
C:/temp/Job-2.odb,Step-1,Increment      1: Step Time =    1.000,"P-2-1",           290,   82.0118E-03,   86.1513E-03,            0.,NA,NA,"",   1.22717E+06,   1.11337E+06,   1.11337E+06
C:/temp/Job-2.odb,Step-1,Increment      1: Step Time =    1.000,"P-2-1",           291,   86.3362E-03,   85.3145E-03,            0.,NA,NA,"",   1.35105E+06,   1.26186E+06,   1.26186E+06
C:/temp/Job-2.odb,Step-1,Increment      1: Step Time =    1.000,"P-2-1",           292,   92.9094E-03,   85.7913E-03,            0.,NA,NA,"",   1.65154E+06,   1.71060E+06,   1.71060E+06
C:/temp/Job-2.odb,Step-1,Increment      1: Step Time =    1.000,"P-2-1",           293,   106.674E-03,   86.8284E-03,            0.,NA,NA,"",   1.76169E+06,   1.81106E+06,   1.81106E+06
C:/temp/Job-2.odb,Step-1,Increment      1: Step Time =    1.000,"P-2-1",           294,   112.409E-03,   85.1830E-03,            0.,NA,NA,"",   1.39630E+06,   1.32037E+06,   1.32037E+06
C:/temp/Job-2.odb,Step-1,Increment      1: Step Time =    1.000,"P-2-1",           295,   118.128E-03,   86.7532E-03,            0.,NA,NA,"",   1.22708E+06,   1.08638E+06,   1.08638E+06
C:/temp/Job-2.odb,Step-1,Increment      1: Step Time =    1.000,"P-2-1",           296,   123.971E-03,   85.9085E-03,            0.,NA,NA,"",   1.11062E+06,   1.01005E+06,   1.01005E+06
C:/temp/Job-2.odb,Step-1,Increment      1: Step Time =    1.000,"P-2-1",           297,   130.171E-03,   86.9867E-03,            0.,NA,NA,"",   977.227E+03,   924.992E+03,   924.992E+03
C:/temp/Job-2.odb,Step-1,Increment      1: Step Time =    1.000,"P-2-1",           298,   134.803E-03,   87.4982E-03,            0.,NA,NA,"",   935.836E+03,   906.563E+03,   906.563E+03
C:/temp/Job-2.odb,Step-1,Increment      1: Step Time =    1.000,"P-2-1",           299,   140.774E-03,   86.5879E-03,            0.,NA,NA,"",   940.542E+03,   924.679E+03,   924.679E+03
C:/temp/Job-2.odb,Step-1,Increment      1: Step Time =    1.000,"P-2-1",           300,   146.416E-03,   85.5944E-03,            0.,NA,NA,"",   949.926E+03,   941.080E+03,   941.080E+03
C:/temp/Job-2.odb,Step-1,Increment      1: Step Time =    1.000,"P-2-1",           301,   153.764E-03,   85.9255E-03,            0.,NA,NA,"",   952.046E+03,   951.238E+03,   951.238E+03
C:/temp/Job-2.odb,Step-1,Increment      1: Step Time =    1.000,"P-2-1",           302,   157.470E-03,   85.9803E-03,            0.,NA,NA,"",   955.480E+03,   957.313E+03,   957.313E+03
C:/temp/Job-2.odb,Step-1,Increment      1: Step Time =    1.000,"P-2-1",           303,   161.187E-03,   86.0152E-03,            0.,NA,NA,"",   959.171E+03,   963.417E+03,   963.417E+03
C:/temp/Job-2.odb,Step-1,Increment      1: Step Time =    1.000,"P-2-1",           304,   167.346E-03,   86.5175E-03,            0.,NA,NA,"",   963.653E+03,   971.809E+03,   971.809E+03
C:/temp/Job-2.odb,Step-1,Increment      1: Step Time =    1.000,"P-2-1",           305,   173.378E-03,   87.0778E-03,            0.,NA,NA,"",   967.698E+03,   979.639E+03,   979.639E+03
C:/temp/Job-2.odb,Step-1,Increment      1: Step Time =    1.000,"P-2-1",           306,   178.811E-03,   88.5040E-03,            0.,NA,NA,"",   969.800E+03,   985.669E+03,   985.669E+03
C:/temp/Job-2.odb,Step-1,Increment      1: Step Time =    1.000,"P-2-1",           307,   183.214E-03,   87.4631E-03,            0.,NA,NA,"",   972.311E+03,   990.985E+03,   990.985E+03
C:/temp/Job-2.odb,Step-1,Increment      1: Step Time =    1.000,"P-2-1",           308,   190.213E-03,   85.2663E-03,            0.,NA,NA,"",   972.975E+03,   997.017E+03,   997.017E+03
C:/temp/Job-2.odb,Step-1,Increment      1: Step Time =    1.000,"P-2-1",           309,   86.9891E-03,   92.5604E-03,            0.,NA,NA,"",   683.005E+03,   434.738E+03,   434.738E+03
C:/temp/Job-2.odb,Step-1,Increment      1: Step Time =    1.000,"P-2-1",           310,   80.8243E-03,   91.0829E-03,            0.,NA,NA,"",   936.063E+03,   812.509E+03,   812.509E+03
C:/temp/Job-2.odb,Step-1,Increment      1: Step Time =    1.000,"P-2-1",           311,   75.8728E-03,   91.4776E-03,            0.,NA,NA,"",   821.820E+03,   774.516E+03,   774.516E+03
C:/temp/Job-2.odb,Step-1,Increment      1: Step Time =    1.000,"P-2-1",           312,   70.2768E-03,   91.0416E-03,            0.,NA,NA,"",   806.255E+03,   804.795E+03,   804.795E+03
C:/temp/Job-2.odb,Step-1,Increment      1: Step Time =    1.000,"P-2-1",           313,   64.6151E-03,   91.9689E-03,            0.,NA,NA,"",   779.645E+03,   806.968E+03,   806.968E+03
C:/temp/Job-2.odb,Step-1,Increment      1: Step Time =    1.000,"P-2-1",           314,   59.2704E-03,   92.2480E-03,            0.,NA,NA,"",   794.978E+03,   833.972E+03,   833.972E+03
C:/temp/Job-2.odb,Step-1,Increment      1: Step Time =    1.000,"P-2-1",           315,   53.8554E-03,   91.7825E-03,            0.,NA,NA,"",   814.935E+03,   862.000E+03,   862.000E+03
C:/temp/Job-2.odb,Step-1,Increment      1: Step Time =    1.000,"P-2-1",           316,   49.0648E-03,   90.3808E-03,            0.,NA,NA,"",   832.717E+03,   884.579E+03,   884.579E+03
C:/temp/Job-2.odb,Step-1,Increment      1: Step Time =    1.000,"P-2-1",           317,   38.1733E-03,   90.9933E-03,            0.,NA,NA,"",   831.952E+03,   898.441E+03,   898.441E+03
C:/temp/Job-2.odb,Step-1,Increment      1: Step Time =    1.000,"P-2-1",           318,   32.3258E-03,   90.7658E-03,            0.,NA,NA,"",   828.773E+03,   902.372E+03,   902.372E+03
C:/temp/Job-2.odb,Step-1,Increment      1: Step Time =    1.000,"P-2-1",           319,   28.8482E-03,   91.5403E-03,            0.,NA,NA,"",   823.611E+03,   901.392E+03,   901.392E+03
C:/temp/Job-2.odb,Step-1,Increment      1: Step Time =    1.000,"P-2-1",           320,   21.6730E-03,   92.7028E-03,            0.,NA,NA,"",   812.088E+03,   897.665E+03,   897.665E+03
C:/temp/Job-2.odb,Step-1,Increment      1: Step Time =    1.000,"P-2-1",           321,   16.1793E-03,   91.5082E-03,            0.,NA,NA,"",   804.778E+03,   895.360E+03,   895.360E+03
C:/temp/Job-2.odb,Step-1,Increment      1: Step Time =    1.000,"P-2-1",           322,   10.9993E-03,   91.6797E-03,            0.,NA,NA,"",   795.382E+03,   890.320E+03,   890.320E+03
C:/temp/Job-2.odb,Step-1,Increment      1: Step Time =    1.000,"P-2-1",           323,   4.66150E-03,   90.6138E-03,            0.,NA,NA,"",   785.405E+03,   884.564E+03,   884.564E+03
C:/temp/Job-2.odb,Step-1,Increment      1: Step Time =    1.000,"P-2-1",           324,   80.2233E-03,   95.5073E-03,            0.,NA,NA,"",   563.065E+03,   490.799E+03,   490.799E+03
C:/temp/Job-2.odb,Step-1,Increment      1: Step Time =    1.000,"P-2-1",           325,   77.0567E-03,   95.9654E-03,            0.,NA,NA,"",   554.870E+03,   540.520E+03,   540.520E+03
C:/temp/Job-2.odb,Step-1,Increment      1: Step Time =    1.000,"P-2-1",           326,   71.0819E-03,   96.9420E-03,            0.,NA,NA,"",   605.564E+03,   636.271E+03,   636.271E+03
C:/temp/Job-2.odb,Step-1,Increment      1: Step Time =    1.000,"P-2-1",           327,   65.3169E-03,   96.7500E-03,            0.,NA,NA,"",   692.563E+03,   733.767E+03,   733.767E+03
C:/temp/Job-2.odb,Step-1,Increment      1: Step Time =    1.000,"P-2-1",           328,   60.2453E-03,   97.3851E-03,            0.,NA,NA,"",   737.846E+03,   785.153E+03,   785.153E+03
C:/temp/Job-2.odb,Step-1,Increment      1: Step Time =    1.000,"P-2-1",           329,   52.7296E-03,   96.3975E-03,            0.,NA,NA,"",   789.223E+03,   842.782E+03,   842.782E+03
C:/temp/Job-2.odb,Step-1,Increment      1: Step Time =    1.000,"P-2-1",           330,   48.4803E-03,   98.5224E-03,            0.,NA,NA,"",   800.610E+03,   858.943E+03,   858.943E+03
C:/temp/Job-2.odb,Step-1,Increment      1: Step Time =    1.000,"P-2-1",           331,   41.9304E-03,   97.1620E-03,            0.,NA,NA,"",   815.815E+03,   880.503E+03,   880.503E+03
C:/temp/Job-2.odb,Step-1,Increment      1: Step Time =    1.000,"P-2-1",           332,   38.5021E-03,   96.5195E-03,            0.,NA,NA,"",   819.343E+03,   887.538E+03,   887.538E+03
C:/temp/Job-2.odb,Step-1,Increment      1: Step Time =    1.000,"P-2-1",           333,   33.2027E-03,   97.8763E-03,            0.,NA,NA,"",   818.447E+03,   892.625E+03,   892.625E+03
C:/temp/Job-2.odb,Step-1,Increment      1: Step Time =    1.000,"P-2-1",           334,   27.7870E-03,   96.7846E-03,            0.,NA,NA,"",   815.681E+03,   895.437E+03,   895.437E+03
C:/temp/Job-2.odb,Step-1,Increment      1: Step Time =    1.000,"P-2-1",           335,   22.0700E-03,   96.0491E-03,            0.,NA,NA,"",   809.544E+03,   895.017E+03,   895.017E+03
C:/temp/Job-2.odb,Step-1,Increment      1: Step Time =    1.000,"P-2-1",           336,   16.5120E-03,   96.6573E-03,            0.,NA,NA,"",   801.079E+03,   891.646E+03,   891.646E+03
C:/temp/Job-2.odb,Step-1,Increment      1: Step Time =    1.000,"P-2-1",           337,   11.4576E-03,   96.8570E-03,            0.,NA,NA,"",   792.805E+03,   887.515E+03,   887.515E+03
C:/temp/Job-2.odb,Step-1,Increment      1: Step Time =    1.000,"P-2-1",           338,   6.03081E-03,   97.2817E-03,            0.,NA,NA,"",   784.032E+03,   882.271E+03,   882.271E+03
C:/temp/Job-2.odb,Step-1,Increment      1: Step Time =    1.000,"P-2-1",           339,   80.3880E-03,   102.640E-03,            0.,NA,NA,"",   388.879E+03,   337.869E+03,   337.869E+03
C:/temp/Job-2.odb,Step-1,Increment      1: Step Time =    1.000,"P-2-1",           340,   76.9591E-03,   101.775E-03,            0.,NA,NA,"",   420.593E+03,   433.255E+03,   433.255E+03
C:/temp/Job-2.odb,Step-1,Increment      1: Step Time =    1.000,"P-2-1",           341,   69.9018E-03,   100.185E-03,            0.,NA,NA,"",   586.770E+03,   627.511E+03,   627.511E+03
C:/temp/Job-2.odb,Step-1,Increment      1: Step Time =    1.000,"P-2-1",           342,   63.7332E-03,   101.760E-03,            0.,NA,NA,"",   698.878E+03,   744.178E+03,   744.178E+03
C:/temp/Job-2.odb,Step-1,Increment      1: Step Time =    1.000,"P-2-1",           343,   58.4733E-03,   102.846E-03,            0.,NA,NA,"",   755.116E+03,   803.624E+03,   803.624E+03
C:/temp/Job-2.odb,Step-1,Increment      1: Step Time =    1.000,"P-2-1",           344,   52.9981E-03,   103.511E-03,            0.,NA,NA,"",   789.451E+03,   842.713E+03,   842.713E+03
C:/temp/Job-2.odb,Step-1,Increment      1: Step Time =    1.000,"P-2-1",           345,   48.3346E-03,   102.855E-03,            0.,NA,NA,"",   803.650E+03,   861.725E+03,   861.725E+03
C:/temp/Job-2.odb,Step-1,Increment      1: Step Time =    1.000,"P-2-1",           346,   43.9836E-03,   103.735E-03,            0.,NA,NA,"",   815.171E+03,   877.299E+03,   877.299E+03
C:/temp/Job-2.odb,Step-1,Increment      1: Step Time =    1.000,"P-2-1",           347,   38.0142E-03,   103.050E-03,            0.,NA,NA,"",   819.457E+03,   888.282E+03,   888.282E+03
C:/temp/Job-2.odb,Step-1,Increment      1: Step Time =    1.000,"P-2-1",           348,   32.1858E-03,   102.569E-03,            0.,NA,NA,"",   818.336E+03,   893.532E+03,   893.532E+03
C:/temp/Job-2.odb,Step-1,Increment      1: Step Time =    1.000,"P-2-1",           349,   27.3118E-03,   102.066E-03,            0.,NA,NA,"",   814.633E+03,   894.966E+03,   894.966E+03
C:/temp/Job-2.odb,Step-1,Increment      1: Step Time =    1.000,"P-2-1",           350,   21.8759E-03,   102.057E-03,            0.,NA,NA,"",   808.313E+03,   894.102E+03,   894.102E+03
C:/temp/Job-2.odb,Step-1,Increment      1: Step Time =    1.000,"P-2-1",           351,   15.7038E-03,   103.385E-03,            0.,NA,NA,"",   799.862E+03,   891.090E+03,   891.090E+03
C:/temp/Job-2.odb,Step-1,Increment      1: Step Time =    1.000,"P-2-1",           352,   10.2663E-03,   103.445E-03,            0.,NA,NA,"",   790.988E+03,   886.517E+03,   886.517E+03
C:/temp/Job-2.odb,Step-1,Increment      1: Step Time =    1.000,"P-2-1",           353,   5.22185E-03,   104.169E-03,            0.,NA,NA,"",   783.363E+03,   882.018E+03,   882.018E+03
C:/temp/Job-2.odb,Step-1,Increment      1: Step Time =    1.000,"P-2-1",           354,   194.018E-03,   6.12724E-03,            0.,NA,NA,"",   999.946E+03,   999.896E+03,   999.896E+03
C:/temp/Job-2.odb,Step-1,Increment      1: Step Time =    1.000,"P-2-1",           355,   188.812E-03,   4.93155E-03,            0.,NA,NA,"",   999.711E+03,   999.698E+03,   999.698E+03
C:/temp/Job-2.odb,Step-1,Increment      1: Step Time =    1.000,"P-2-1",           356,   183.963E-03,   4.47817E-03,            0.,NA,NA,"",   999.456E+03,   999.441E+03,   999.441E+03
C:/temp/Job-2.odb,Step-1,Increment      1: Step Time =    1.000,"P-2-1",           357,   178.726E-03,   6.18030E-03,            0.,NA,NA,"",   999.348E+03,   999.274E+03,   999.274E+03
C:/temp/Job-2.odb,Step-1,Increment      1: Step Time =    1.000,"P-2-1",           358,   172.852E-03,   5.84677E-03,            0.,NA,NA,"",   998.769E+03,   998.620E+03,   998.620E+03
C:/temp/Job-2.odb,Step-1,Increment      1: Step Time =    1.000,"P-2-1",           359,   167.915E-03,   7.42562E-03,            0.,NA,NA,"",   998.648E+03,     998.3E+03,     998.3E+03
C:/temp/Job-2.odb,Step-1,Increment      1: Step Time =    1.000,"P-2-1",           360,   160.509E-03,   5.93288E-03,            0.,NA,NA,"",   995.932E+03,   995.609E+03,   995.609E+03
C:/temp/Job-2.odb,Step-1,Increment      1: Step Time =    1.000,"P-2-1",           361,   155.455E-03,   4.98133E-03,            0.,NA,NA,"",   992.851E+03,   992.578E+03,   992.578E+03
C:/temp/Job-2.odb,Step-1,Increment      1: Step Time =    1.000,"P-2-1",           362,   150.510E-03,   4.64602E-03,            0.,NA,NA,"",   989.328E+03,   989.065E+03,   989.065E+03
C:/temp/Job-2.odb,Step-1,Increment      1: Step Time =    1.000,"P-2-1",           363,   145.492E-03,   4.83069E-03,            0.,NA,NA,"",   985.287E+03,   984.995E+03,   984.995E+03
C:/temp/Job-2.odb,Step-1,Increment      1: Step Time =    1.000,"P-2-1",           364,   140.275E-03,   5.30741E-03,            0.,NA,NA,"",   980.555E+03,    980.25E+03,    980.25E+03
C:/temp/Job-2.odb,Step-1,Increment      1: Step Time =    1.000,"P-2-1",           365,   134.948E-03,   5.08772E-03,            0.,NA,NA,"",   974.099E+03,   973.899E+03,   973.899E+03
C:/temp/Job-2.odb,Step-1,Increment      1: Step Time =    1.000,"P-2-1",           366,   129.803E-03,   4.99803E-03,            0.,NA,NA,"",   967.369E+03,   967.272E+03,   967.272E+03
C:/temp/Job-2.odb,Step-1,Increment      1: Step Time =    1.000,"P-2-1",           367,   124.740E-03,   5.06849E-03,            0.,NA,NA,"",   960.970E+03,   961.000E+03,   961.000E+03
C:/temp/Job-2.odb,Step-1,Increment      1: Step Time =    1.000,"P-2-1",           368,   119.561E-03,   5.20836E-03,            0.,NA,NA,"",   954.681E+03,   954.857E+03,   954.857E+03
C:/temp/Job-2.odb,Step-1,Increment      1: Step Time =    1.000,"P-2-1",           369,   114.354E-03,   4.86412E-03,            0.,NA,NA,"",   947.755E+03,   948.097E+03,   948.097E+03
C:/temp/Job-2.odb,Step-1,Increment      1: Step Time =    1.000,"P-2-1",           370,   109.376E-03,   4.78960E-03,            0.,NA,NA,"",   942.528E+03,   942.979E+03,   942.979E+03
C:/temp/Job-2.odb,Step-1,Increment      1: Step Time =    1.000,"P-2-1",           371,   102.666E-03,   6.08391E-03,            0.,NA,NA,"",   943.584E+03,   944.234E+03,   944.234E+03
C:/temp/Job-2.odb,Step-1,Increment      1: Step Time =    1.000,"P-2-1",           372,   95.8180E-03,   5.21768E-03,            0.,NA,NA,"",   939.351E+03,   939.941E+03,   939.941E+03
C:/temp/Job-2.odb,Step-1,Increment      1: Step Time =    1.000,"P-2-1",           373,   90.7117E-03,   4.97273E-03,            0.,NA,NA,"",   939.180E+03,   939.641E+03,   939.641E+03
C:/temp/Job-2.odb,Step-1,Increment      1: Step Time =    1.000,"P-2-1",           374,   85.5576E-03,   4.94135E-03,            0.,NA,NA,"",   942.148E+03,   942.560E+03,   942.560E+03
C:/temp/Job-2.odb,Step-1,Increment      1: Step Time =    1.000,"P-2-1",           375,   80.3946E-03,   4.99727E-03,            0.,NA,NA,"",   946.651E+03,   946.930E+03,   946.930E+03
C:/temp/Job-2.odb,Step-1,Increment      1: Step Time =    1.000,"P-2-1",           376,   75.2787E-03,   5.10172E-03,            0.,NA,NA,"",   952.336E+03,   952.524E+03,   952.524E+03
C:/temp/Job-2.odb,Step-1,Increment      1: Step Time =    1.000,"P-2-1",           377,   70.1301E-03,   5.16575E-03,            0.,NA,NA,"",   958.754E+03,   958.866E+03,   958.866E+03
C:/temp/Job-2.odb,Step-1,Increment      1: Step Time =    1.000,"P-2-1",           378,   64.9286E-03,   5.17503E-03,            0.,NA,NA,"",   965.654E+03,   965.687E+03,   965.687E+03
C:/temp/Job-2.odb,Step-1,Increment      1: Step Time =    1.000,"P-2-1",           379,   59.7305E-03,   5.12672E-03,            0.,NA,NA,"",   972.750E+03,   972.754E+03,   972.754E+03
C:/temp/Job-2.odb,Step-1,Increment      1: Step Time =    1.000,"P-2-1",           380,   54.5774E-03,   5.01150E-03,            0.,NA,NA,"",   979.986E+03,   980.047E+03,   980.047E+03
C:/temp/Job-2.odb,Step-1,Increment      1: Step Time =    1.000,"P-2-1",           381,   49.5041E-03,   4.87335E-03,            0.,NA,NA,"",   987.721E+03,   987.882E+03,   987.882E+03
C:/temp/Job-2.odb,Step-1,Increment      1: Step Time =    1.000,"P-2-1",           382,   44.5107E-03,   4.83660E-03,            0.,NA,NA,"",   996.776E+03,   997.129E+03,   997.129E+03
C:/temp/Job-2.odb,Step-1,Increment      1: Step Time =    1.000,"P-2-1",           383,   39.5764E-03,   5.00804E-03,            0.,NA,NA,"",   1.00818E+06,   1.00892E+06,   1.00892E+06
C:/temp/Job-2.odb,Step-1,Increment      1: Step Time =    1.000,"P-2-1",           384,   32.9299E-03,   6.82834E-03,            0.,NA,NA,"",   1.03811E+06,   1.04000E+06,   1.04000E+06
C:/temp/Job-2.odb,Step-1,Increment      1: Step Time =    1.000,"P-2-1",           385,   25.6142E-03,   5.66948E-03,            0.,NA,NA,"",   1.06467E+06,   1.06736E+06,   1.06736E+06
C:/temp/Job-2.odb,Step-1,Increment      1: Step Time =    1.000,"P-2-1",           386,   20.6093E-03,   4.77152E-03,            0.,NA,NA,"",   1.09502E+06,   1.09833E+06,   1.09833E+06
C:/temp/Job-2.odb,Step-1,Increment      1: Step Time =    1.000,"P-2-1",           387,   15.8169E-03,   4.46300E-03,            0.,NA,NA,"",   1.14319E+06,   1.14838E+06,   1.14838E+06
C:/temp/Job-2.odb,Step-1,Increment      1: Step Time =    1.000,"P-2-1",           388,   11.2592E-03,   4.46120E-03,            0.,NA,NA,"",   1.21494E+06,   1.22497E+06,   1.22497E+06
C:/temp/Job-2.odb,Step-1,Increment      1: Step Time =    1.000,"P-2-1",           389,   6.13070E-03,   5.98562E-03,            0.,NA,NA,"",   1.30141E+06,   1.34471E+06,   1.34471E+06
C:/temp/Job-2.odb,Step-1,Increment      1: Step Time =    1.000,"P-2-1",           390,   195.542E-03,   11.2580E-03,            0.,NA,NA,"",   1.00015E+06,   999.999E+03,   999.999E+03
C:/temp/Job-2.odb,Step-1,Increment      1: Step Time =    1.000,"P-2-1",           391,   188.455E-03,   10.6083E-03,            0.,NA,NA,"",   1.00008E+06,   1.00002E+06,   1.00002E+06
C:/temp/Job-2.odb,Step-1,Increment      1: Step Time =    1.000,"P-2-1",           392,   183.079E-03,   11.2462E-03,            0.,NA,NA,"",   1.00028E+06,   1.00016E+06,   1.00016E+06
C:/temp/Job-2.odb,Step-1,Increment      1: Step Time =    1.000,"P-2-1",           393,   178.611E-03,   10.9642E-03,            0.,NA,NA,"",   1.00038E+06,   1.00015E+06,   1.00015E+06
C:/temp/Job-2.odb,Step-1,Increment      1: Step Time =    1.000,"P-2-1",           394,   174.111E-03,   11.0248E-03,            0.,NA,NA,"",   1.00057E+06,   1.00015E+06,   1.00015E+06
C:/temp/Job-2.odb,Step-1,Increment      1: Step Time =    1.000,"P-2-1",           395,   167.003E-03,   11.5437E-03,            0.,NA,NA,"",   1.00078E+06,   999.980E+03,   999.980E+03
C:/temp/Job-2.odb,Step-1,Increment      1: Step Time =    1.000,"P-2-1",           396,   161.771E-03,   11.8740E-03,            0.,NA,NA,"",   1.00055E+06,   999.461E+03,   999.461E+03
C:/temp/Job-2.odb,Step-1,Increment      1: Step Time =    1.000,"P-2-1",           397,   155.306E-03,   11.4149E-03,            0.,NA,NA,"",   998.450E+03,   997.261E+03,   997.261E+03
C:/temp/Job-2.odb,Step-1,Increment      1: Step Time =    1.000,"P-2-1",           398,   151.684E-03,   10.9195E-03,            0.,NA,NA,"",   996.878E+03,   995.677E+03,   995.677E+03
C:/temp/Job-2.odb,Step-1,Increment      1: Step Time =    1.000,"P-2-1",           399,   146.637E-03,   11.9673E-03,            0.,NA,NA,"",   995.863E+03,   994.446E+03,   994.446E+03
C:/temp/Job-2.odb,Step-1,Increment      1: Step Time =    1.000,"P-2-1",           400,   140.269E-03,   11.7105E-03,            0.,NA,NA,"",   991.164E+03,   989.986E+03,   989.986E+03
C:/temp/Job-2.odb,Step-1,Increment      1: Step Time =    1.000,"P-2-1",           401,   134.309E-03,   12.3751E-03,            0.,NA,NA,"",   988.077E+03,   987.189E+03,   987.189E+03
C:/temp/Job-2.odb,Step-1,Increment      1: Step Time =    1.000,"P-2-1",           402,   129.750E-03,   10.0651E-03,            0.,NA,NA,"",   978.748E+03,   978.433E+03,   978.433E+03
C:/temp/Job-2.odb,Step-1,Increment      1: Step Time =    1.000,"P-2-1",           403,   124.959E-03,   10.3355E-03,            0.,NA,NA,"",   974.471E+03,   974.567E+03,   974.567E+03
C:/temp/Job-2.odb,Step-1,Increment      1: Step Time =    1.000,"P-2-1",           404,   119.330E-03,   11.2493E-03,            0.,NA,NA,"",   971.079E+03,   971.882E+03,   971.882E+03
C:/temp/Job-2.odb,Step-1,Increment      1: Step Time =    1.000,"P-2-1",           405,   112.701E-03,   11.6197E-03,            0.,NA,NA,"",   966.729E+03,   968.319E+03,   968.319E+03
C:/temp/Job-2.odb,Step-1,Increment      1: Step Time =    1.000,"P-2-1",           406,   108.039E-03,   11.2653E-03,            0.,NA,NA,"",   962.559E+03,   964.508E+03,   964.508E+03
C:/temp/Job-2.odb,Step-1,Increment      1: Step Time =    1.000,"P-2-1",           407,   102.957E-03,   11.5734E-03,            0.,NA,NA,"",   961.432E+03,   963.721E+03,   963.721E+03
C:/temp/Job-2.odb,Step-1,Increment      1: Step Time =    1.000,"P-2-1",           408,   96.4652E-03,   10.2511E-03,            0.,NA,NA,"",   956.993E+03,   958.890E+03,   958.890E+03
C:/temp/Job-2.odb,Step-1,Increment      1: Step Time =    1.000,"P-2-1",           409,   90.4108E-03,   10.1522E-03,            0.,NA,NA,"",   958.781E+03,   960.501E+03,   960.501E+03
C:/temp/Job-2.odb,Step-1,Increment      1: Step Time =    1.000,"P-2-1",           410,   85.2288E-03,   9.73645E-03,            0.,NA,NA,"",   960.507E+03,   961.806E+03,   961.806E+03
C:/temp/Job-2.odb,Step-1,Increment      1: Step Time =    1.000,"P-2-1",           411,   80.2667E-03,   10.0042E-03,            0.,NA,NA,"",   965.634E+03,   966.668E+03,   966.668E+03
C:/temp/Job-2.odb,Step-1,Increment      1: Step Time =    1.000,"P-2-1",           412,   75.2257E-03,   10.3188E-03,            0.,NA,NA,"",   971.862E+03,   972.609E+03,   972.609E+03
C:/temp/Job-2.odb,Step-1,Increment      1: Step Time =    1.000,"P-2-1",           413,   70.0908E-03,   10.3028E-03,            0.,NA,NA,"",   978.233E+03,   978.684E+03,   978.684E+03
C:/temp/Job-2.odb,Step-1,Increment      1: Step Time =    1.000,"P-2-1",           414,   64.8872E-03,   10.2972E-03,            0.,NA,NA,"",   984.988E+03,   985.217E+03,   985.217E+03
C:/temp/Job-2.odb,Step-1,Increment      1: Step Time =    1.000,"P-2-1",           415,   59.6873E-03,   10.2676E-03,            0.,NA,NA,"",   992.139E+03,   992.364E+03,   992.364E+03
C:/temp/Job-2.odb,Step-1,Increment      1: Step Time =    1.000,"P-2-1",           416,   54.5673E-03,   10.1070E-03,            0.,NA,NA,"",   999.511E+03,   999.903E+03,   999.903E+03
C:/temp/Job-2.odb,Step-1,Increment      1: Step Time =    1.000,"P-2-1",           417,   49.5806E-03,   9.91166E-03,            0.,NA,NA,"",   1.00746E+06,   1.00825E+06,   1.00825E+06
C:/temp/Job-2.odb,Step-1,Increment      1: Step Time =    1.000,"P-2-1",           418,   44.8754E-03,   9.69289E-03,            0.,NA,NA,"",   1.01624E+06,   1.01753E+06,   1.01753E+06
C:/temp/Job-2.odb,Step-1,Increment      1: Step Time =    1.000,"P-2-1",           419,   37.8922E-03,   9.92677E-03,            0.,NA,NA,"",   1.03430E+06,   1.03699E+06,   1.03699E+06
C:/temp/Job-2.odb,Step-1,Increment      1: Step Time =    1.000,"P-2-1",           420,   32.4850E-03,   10.8008E-03,            0.,NA,NA,"",   1.05336E+06,   1.05859E+06,   1.05859E+06
C:/temp/Job-2.odb,Step-1,Increment      1: Step Time =    1.000,"P-2-1",           421,   26.9627E-03,   11.6259E-03,            0.,NA,NA,"",   1.07662E+06,   1.08637E+06,   1.08637E+06
C:/temp/Job-2.odb,Step-1,Increment      1: Step Time =    1.000,"P-2-1",           422,   19.4508E-03,   9.85307E-03,            0.,NA,NA,"",   1.12103E+06,   1.13489E+06,   1.13489E+06
C:/temp/Job-2.odb,Step-1,Increment      1: Step Time =    1.000,"P-2-1",           423,   14.4140E-03,   10.7211E-03,            0.,NA,NA,"",   1.14578E+06,   1.17443E+06,   1.17443E+06
C:/temp/Job-2.odb,Step-1,Increment      1: Step Time =    1.000,"P-2-1",           424,   10.6226E-03,   11.5579E-03,            0.,NA,NA,"",   1.15429E+06,   1.20075E+06,   1.20075E+06
C:/temp/Job-2.odb,Step-1,Increment      1: Step Time =    1.000,"P-2-1",           425,   4.93650E-03,   11.1923E-03,            0.,NA,NA,"",   1.14054E+06,   1.22443E+06,   1.22443E+06
C:/temp/Job-2.odb,Step-1,Increment      1: Step Time =    1.000,"P-2-1",           426,   195.539E-03,   15.8154E-03,            0.,NA,NA,"",   1.00028E+06,   1.00008E+06,   1.00008E+06
C:/temp/Job-2.odb,Step-1,Increment      1: Step Time =    1.000,"P-2-1",           427,   189.289E-03,   14.4044E-03,            0.,NA,NA,"",   1.00035E+06,   1.00028E+06,   1.00028E+06
C:/temp/Job-2.odb,Step-1,Increment      1: Step Time =    1.000,"P-2-1",           428,   184.039E-03,   16.0616E-03,            0.,NA,NA,"",   1.00111E+06,   1.00093E+06,   1.00093E+06
C:/temp/Job-2.odb,Step-1,Increment      1: Step Time =    1.000,"P-2-1",           429,   178.466E-03,   15.9271E-03,            0.,NA,NA,"",   1.00201E+06,   1.00151E+06,   1.00151E+06
C:/temp/Job-2.odb,Step-1,Increment      1: Step Time =    1.000,"P-2-1",           430,   173.764E-03,   16.0959E-03,            0.,NA,NA,"",   1.00287E+06,   1.00202E+06,   1.00202E+06
C:/temp/Job-2.odb,Step-1,Increment      1: Step Time =    1.000,"P-2-1",           431,   166.192E-03,   16.0412E-03,            0.,NA,NA,"",   1.00402E+06,   1.00255E+06,   1.00255E+06
C:/temp/Job-2.odb,Step-1,Increment      1: Step Time =    1.000,"P-2-1",           432,   160.663E-03,   15.0266E-03,            0.,NA,NA,"",   1.00320E+06,   1.00153E+06,   1.00153E+06
C:/temp/Job-2.odb,Step-1,Increment      1: Step Time =    1.000,"P-2-1",           433,   156.153E-03,   15.9026E-03,            0.,NA,NA,"",   1.00406E+06,   1.00194E+06,   1.00194E+06
C:/temp/Job-2.odb,Step-1,Increment      1: Step Time =    1.000,"P-2-1",           434,   151.024E-03,   15.0019E-03,            0.,NA,NA,"",   1.00197E+06,   999.898E+03,   999.898E+03
C:/temp/Job-2.odb,Step-1,Increment      1: Step Time =    1.000,"P-2-1",           435,   145.902E-03,   16.4391E-03,            0.,NA,NA,"",   1.00281E+06,   1.00041E+06,   1.00041E+06
C:/temp/Job-2.odb,Step-1,Increment      1: Step Time =    1.000,"P-2-1",           436,   138.439E-03,   16.7085E-03,            0.,NA,NA,"",   999.748E+03,   997.763E+03,   997.763E+03
C:/temp/Job-2.odb,Step-1,Increment      1: Step Time =    1.000,"P-2-1",           437,   134.353E-03,   16.8308E-03,            0.,NA,NA,"",   997.935E+03,   996.397E+03,   996.397E+03
C:/temp/Job-2.odb,Step-1,Increment      1: Step Time =    1.000,"P-2-1",           438,   130.097E-03,   15.1073E-03,            0.,NA,NA,"",   990.523E+03,   989.853E+03,   989.853E+03
C:/temp/Job-2.odb,Step-1,Increment      1: Step Time =    1.000,"P-2-1",           439,   125.740E-03,   16.1450E-03,            0.,NA,NA,"",   989.456E+03,   989.536E+03,   989.536E+03
C:/temp/Job-2.odb,Step-1,Increment      1: Step Time =    1.000,"P-2-1",           440,   117.055E-03,   15.7631E-03,            0.,NA,NA,"",   980.861E+03,   982.826E+03,   982.826E+03
C:/temp/Job-2.odb,Step-1,Increment      1: Step Time =    1.000,"P-2-1",           441,   113.212E-03,   16.2322E-03,            0.,NA,NA,"",   978.821E+03,   981.639E+03,   981.639E+03
C:/temp/Job-2.odb,Step-1,Increment      1: Step Time =    1.000,"P-2-1",           442,   108.214E-03,   16.6742E-03,            0.,NA,NA,"",   977.010E+03,   980.874E+03,   980.874E+03
C:/temp/Job-2.odb,Step-1,Increment      1: Step Time =    1.000,"P-2-1",           443,   103.140E-03,   16.6640E-03,            0.,NA,NA,"",   975.164E+03,   979.662E+03,   979.662E+03
C:/temp/Job-2.odb,Step-1,Increment      1: Step Time =    1.000,"P-2-1",           444,   96.2891E-03,   15.8938E-03,            0.,NA,NA,"",   973.599E+03,   977.894E+03,   977.894E+03
C:/temp/Job-2.odb,Step-1,Increment      1: Step Time =    1.000,"P-2-1",           445,   91.2778E-03,   17.1767E-03,            0.,NA,NA,"",   978.790E+03,   983.348E+03,   983.348E+03
C:/temp/Job-2.odb,Step-1,Increment      1: Step Time =    1.000,"P-2-1",           446,   87.3680E-03,   16.3016E-03,            0.,NA,NA,"",   979.158E+03,   982.816E+03,   982.816E+03
C:/temp/Job-2.odb,Step-1,Increment      1: Step Time =    1.000,"P-2-1",           447,   80.4675E-03,   15.1412E-03,            0.,NA,NA,"",   982.035E+03,   984.369E+03,   984.369E+03
C:/temp/Job-2.odb,Step-1,Increment      1: Step Time =    1.000,"P-2-1",           448,   74.9032E-03,   16.3419E-03,            0.,NA,NA,"",   992.505E+03,   994.305E+03,   994.305E+03
C:/temp/Job-2.odb,Step-1,Increment      1: Step Time =    1.000,"P-2-1",           449,   69.8265E-03,   15.2168E-03,            0.,NA,NA,"",   995.182E+03,   996.095E+03,   996.095E+03
C:/temp/Job-2.odb,Step-1,Increment      1: Step Time =    1.000,"P-2-1",           450,   64.9010E-03,   15.3775E-03,            0.,NA,NA,"",   1.00209E+06,   1.00283E+06,   1.00283E+06
C:/temp/Job-2.odb,Step-1,Increment      1: Step Time =    1.000,"P-2-1",           451,   59.6679E-03,   15.5204E-03,            0.,NA,NA,"",   1.00970E+06,   1.01052E+06,   1.01052E+06
C:/temp/Job-2.odb,Step-1,Increment      1: Step Time =    1.000,"P-2-1",           452,   54.4689E-03,   15.3204E-03,            0.,NA,NA,"",   1.01646E+06,   1.01766E+06,   1.01766E+06
C:/temp/Job-2.odb,Step-1,Increment      1: Step Time =    1.000,"P-2-1",           453,   46.8831E-03,   15.4714E-03,            0.,NA,NA,"",   1.02943E+06,   1.03235E+06,   1.03235E+06
C:/temp/Job-2.odb,Step-1,Increment      1: Step Time =    1.000,"P-2-1",           454,   42.9937E-03,   16.1064E-03,            0.,NA,NA,"",   1.03769E+06,   1.04235E+06,   1.04235E+06
C:/temp/Job-2.odb,Step-1,Increment      1: Step Time =    1.000,"P-2-1",           455,   39.4308E-03,   15.7761E-03,            0.,NA,NA,"",   1.04370E+06,   1.04965E+06,   1.04965E+06
C:/temp/Job-2.odb,Step-1,Increment      1: Step Time =    1.000,"P-2-1",           456,   31.9704E-03,   14.6942E-03,            0.,NA,NA,"",   1.06069E+06,   1.07064E+06,   1.07064E+06
C:/temp/Job-2.odb,Step-1,Increment      1: Step Time =    1.000,"P-2-1",           457,   26.2210E-03,   15.1424E-03,            0.,NA,NA,"",   1.07740E+06,   1.09390E+06,   1.09390E+06
C:/temp/Job-2.odb,Step-1,Increment      1: Step Time =    1.000,"P-2-1",           458,   21.0777E-03,   14.9821E-03,            0.,NA,NA,"",   1.09428E+06,   1.11930E+06,   1.11930E+06
C:/temp/Job-2.odb,Step-1,Increment      1: Step Time =    1.000,"P-2-1",           459,   16.0743E-03,   15.9719E-03,            0.,NA,NA,"",   1.09655E+06,   1.13701E+06,   1.13701E+06
C:/temp/Job-2.odb,Step-1,Increment      1: Step Time =    1.000,"P-2-1",           460,   11.2497E-03,   16.9317E-03,            0.,NA,NA,"",   1.08555E+06,   1.14678E+06,   1.14678E+06
C:/temp/Job-2.odb,Step-1,Increment      1: Step Time =    1.000,"P-2-1",           461,   4.48109E-03,   16.0390E-03,            0.,NA,NA,"",   1.05315E+06,   1.14680E+06,   1.14680E+06
C:/temp/Job-2.odb,Step-1,Increment      1: Step Time =    1.000,"P-2-1",           462,   195.230E-03,   20.6081E-03,            0.,NA,NA,"",   1.00033E+06,   1.00017E+06,   1.00017E+06
C:/temp/Job-2.odb,Step-1,Increment      1: Step Time =    1.000,"P-2-1",           463,   190.151E-03,   19.4465E-03,            0.,NA,NA,"",   1.00062E+06,   1.00061E+06,   1.00061E+06
C:/temp/Job-2.odb,Step-1,Increment      1: Step Time =    1.000,"P-2-1",           464,   185.022E-03,   21.0746E-03,            0.,NA,NA,"",   1.00179E+06,   1.00163E+06,   1.00163E+06
C:/temp/Job-2.odb,Step-1,Increment      1: Step Time =    1.000,"P-2-1",           465,   180.647E-03,   22.4908E-03,            0.,NA,NA,"",   1.00357E+06,   1.00300E+06,   1.00300E+06
C:/temp/Job-2.odb,Step-1,Increment      1: Step Time =    1.000,"P-2-1",           466,   174.182E-03,   21.6230E-03,            0.,NA,NA,"",   1.00562E+06,   1.00432E+06,   1.00432E+06
C:/temp/Job-2.odb,Step-1,Increment      1: Step Time =    1.000,"P-2-1",           467,   166.431E-03,   21.8902E-03,            0.,NA,NA,"",   1.00893E+06,   1.00649E+06,   1.00649E+06
C:/temp/Job-2.odb,Step-1,Increment      1: Step Time =    1.000,"P-2-1",           468,   161.977E-03,   22.9642E-03,            0.,NA,NA,"",   1.01179E+06,   1.00849E+06,   1.00849E+06
C:/temp/Job-2.odb,Step-1,Increment      1: Step Time =    1.000,"P-2-1",           469,   156.223E-03,   20.9921E-03,            0.,NA,NA,"",   1.01102E+06,   1.00758E+06,   1.00758E+06
C:/temp/Job-2.odb,Step-1,Increment      1: Step Time =    1.000,"P-2-1",           470,   152.189E-03,   20.6987E-03,            0.,NA,NA,"",   1.01089E+06,   1.00733E+06,   1.00733E+06
C:/temp/Job-2.odb,Step-1,Increment      1: Step Time =    1.000,"P-2-1",           471,   144.301E-03,   22.7752E-03,            0.,NA,NA,"",   1.01504E+06,   1.01082E+06,   1.01082E+06
C:/temp/Job-2.odb,Step-1,Increment      1: Step Time =    1.000,"P-2-1",           472,   139.757E-03,   22.0537E-03,            0.,NA,NA,"",   1.01232E+06,   1.00881E+06,   1.00881E+06
C:/temp/Job-2.odb,Step-1,Increment      1: Step Time =    1.000,"P-2-1",           473,   135.401E-03,   21.0233E-03,            0.,NA,NA,"",   1.00776E+06,   1.00533E+06,   1.00533E+06
C:/temp/Job-2.odb,Step-1,Increment      1: Step Time =    1.000,"P-2-1",           474,   130.576E-03,   21.6999E-03,            0.,NA,NA,"",   1.00588E+06,   1.00449E+06,   1.00449E+06
C:/temp/Job-2.odb,Step-1,Increment      1: Step Time =    1.000,"P-2-1",           475,   123.907E-03,   21.1224E-03,            0.,NA,NA,"",   999.551E+03,   1.00029E+06,   1.00029E+06
C:/temp/Job-2.odb,Step-1,Increment      1: Step Time =    1.000,"P-2-1",           476,   117.695E-03,   22.4907E-03,            0.,NA,NA,"",   997.028E+03,   1.00038E+06,   1.00038E+06
C:/temp/Job-2.odb,Step-1,Increment      1: Step Time =    1.000,"P-2-1",           477,   114.069E-03,   21.6301E-03,            0.,NA,NA,"",   991.993E+03,   996.400E+03,   996.400E+03
C:/temp/Job-2.odb,Step-1,Increment      1: Step Time =    1.000,"P-2-1",           478,   108.266E-03,   22.1154E-03,            0.,NA,NA,"",   989.136E+03,   995.516E+03,   995.516E+03
C:/temp/Job-2.odb,Step-1,Increment      1: Step Time =    1.000,"P-2-1",           479,   104.906E-03,   21.1156E-03,            0.,NA,NA,"",   985.626E+03,   992.205E+03,   992.205E+03
C:/temp/Job-2.odb,Step-1,Increment      1: Step Time =    1.000,"P-2-1",           480,   97.7726E-03,   23.3997E-03,            0.,NA,NA,"",   990.004E+03,   998.631E+03,   998.631E+03
C:/temp/Job-2.odb,Step-1,Increment      1: Step Time =    1.000,"P-2-1",           481,   93.0951E-03,   21.6440E-03,            0.,NA,NA,"",   988.662E+03,   995.703E+03,   995.703E+03
C:/temp/Job-2.odb,Step-1,Increment      1: Step Time =    1.000,"P-2-1",           482,   85.8409E-03,   21.3034E-03,            0.,NA,NA,"",   993.774E+03,   999.435E+03,   999.435E+03
C:/temp/Job-2.odb,Step-1,Increment      1: Step Time =    1.000,"P-2-1",           483,   79.9771E-03,   20.5370E-03,            0.,NA,NA,"",   998.919E+03,   1.00282E+06,   1.00282E+06
C:/temp/Job-2.odb,Step-1,Increment      1: Step Time =    1.000,"P-2-1",           484,   73.8994E-03,   20.5476E-03,            0.,NA,NA,"",   1.00606E+06,   1.00858E+06,   1.00858E+06
C:/temp/Job-2.odb,Step-1,Increment      1: Step Time =    1.000,"P-2-1",           485,   69.8907E-03,   20.3159E-03,            0.,NA,NA,"",   1.01036E+06,   1.01218E+06,   1.01218E+06
C:/temp/Job-2.odb,Step-1,Increment      1: Step Time =    1.000,"P-2-1",           486,   65.5980E-03,   20.8204E-03,            0.,NA,NA,"",   1.01735E+06,   1.01894E+06,   1.01894E+06
C:/temp/Job-2.odb,Step-1,Increment      1: Step Time =    1.000,"P-2-1",           487,   59.8112E-03,   20.6933E-03,            0.,NA,NA,"",   1.02382E+06,   1.02552E+06,   1.02552E+06
C:/temp/Job-2.odb,Step-1,Increment      1: Step Time =    1.000,"P-2-1",           488,   53.6244E-03,   21.2044E-03,            0.,NA,NA,"",   1.03257E+06,   1.03561E+06,   1.03561E+06
C:/temp/Job-2.odb,Step-1,Increment      1: Step Time =    1.000,"P-2-1",           489,   49.0571E-03,   21.5208E-03,            0.,NA,NA,"",   1.03802E+06,   1.04284E+06,   1.04284E+06
C:/temp/Job-2.odb,Step-1,Increment      1: Step Time =    1.000,"P-2-1",           490,   45.0004E-03,   21.4881E-03,            0.,NA,NA,"",   1.04239E+06,   1.04938E+06,   1.04938E+06
C:/temp/Job-2.odb,Step-1,Increment      1: Step Time =    1.000,"P-2-1",           491,   40.0746E-03,   22.7333E-03,            0.,NA,NA,"",   1.04784E+06,   1.05944E+06,   1.05944E+06
C:/temp/Job-2.odb,Step-1,Increment      1: Step Time =    1.000,"P-2-1",           492,   33.0803E-03,   21.8496E-03,            0.,NA,NA,"",   1.05475E+06,   1.07278E+06,   1.07278E+06
C:/temp/Job-2.odb,Step-1,Increment      1: Step Time =    1.000,"P-2-1",           493,   26.0130E-03,   20.7525E-03,            0.,NA,NA,"",   1.06374E+06,   1.09093E+06,   1.09093E+06
C:/temp/Job-2.odb,Step-1,Increment      1: Step Time =    1.000,"P-2-1",           494,   22.4878E-03,   19.3510E-03,            0.,NA,NA,"",   1.07144E+06,   1.10303E+06,   1.10303E+06
C:/temp/Job-2.odb,Step-1,Increment      1: Step Time =    1.000,"P-2-1",           495,   15.9356E-03,   21.5362E-03,            0.,NA,NA,"",   1.05252E+06,   1.10665E+06,   1.10665E+06
C:/temp/Job-2.odb,Step-1,Increment      1: Step Time =    1.000,"P-2-1",           496,   10.9699E-03,   21.3896E-03,            0.,NA,NA,"",   1.03779E+06,   1.10959E+06,   1.10959E+06
C:/temp/Job-2.odb,Step-1,Increment      1: Step Time =    1.000,"P-2-1",           497,   6.18295E-03,   21.2737E-03,            0.,NA,NA,"",   1.01024E+06,   1.10105E+06,   1.10105E+06
C:/temp/Job-2.odb,Step-1,Increment      1: Step Time =    1.000,"P-2-1",           498,   194.332E-03,   25.6137E-03,            0.,NA,NA,"",   1.00029E+06,   1.00042E+06,   1.00042E+06
C:/temp/Job-2.odb,Step-1,Increment      1: Step Time =    1.000,"P-2-1",           499,   188.373E-03,   26.9729E-03,            0.,NA,NA,"",   1.00147E+06,   1.00170E+06,   1.00170E+06
C:/temp/Job-2.odb,Step-1,Increment      1: Step Time =    1.000,"P-2-1",           500,   184.851E-03,   26.2326E-03,            0.,NA,NA,"",   1.00269E+06,   1.00261E+06,   1.00261E+06
C:/temp/Job-2.odb,Step-1,Increment      1: Step Time =    1.000,"P-2-1",           501,   179.211E-03,   26.0247E-03,            0.,NA,NA,"",   1.00531E+06,   1.00447E+06,   1.00447E+06
C:/temp/Job-2.odb,Step-1,Increment      1: Step Time =    1.000,"P-2-1",           502,   174.287E-03,   27.0940E-03,            0.,NA,NA,"",   1.00862E+06,   1.00683E+06,   1.00683E+06
C:/temp/Job-2.odb,Step-1,Increment      1: Step Time =    1.000,"P-2-1",           503,   169.360E-03,   26.6178E-03,            0.,NA,NA,"",   1.01148E+06,   1.00873E+06,   1.00873E+06
C:/temp/Job-2.odb,Step-1,Increment      1: Step Time =    1.000,"P-2-1",           504,   162.300E-03,   28.2968E-03,            0.,NA,NA,"",   1.01796E+06,   1.01335E+06,   1.01335E+06
C:/temp/Job-2.odb,Step-1,Increment      1: Step Time =    1.000,"P-2-1",           505,   155.449E-03,   27.2412E-03,            0.,NA,NA,"",   1.02058E+06,   1.01517E+06,   1.01517E+06
C:/temp/Job-2.odb,Step-1,Increment      1: Step Time =    1.000,"P-2-1",           506,   150.427E-03,   26.1587E-03,            0.,NA,NA,"",   1.02071E+06,   1.01526E+06,   1.01526E+06
C:/temp/Job-2.odb,Step-1,Increment      1: Step Time =    1.000,"P-2-1",           507,   145.809E-03,   25.5265E-03,            0.,NA,NA,"",   1.02018E+06,   1.01500E+06,   1.01500E+06
C:/temp/Job-2.odb,Step-1,Increment      1: Step Time =    1.000,"P-2-1",           508,   140.098E-03,   26.9100E-03,            0.,NA,NA,"",   1.02297E+06,   1.01793E+06,   1.01793E+06
C:/temp/Job-2.odb,Step-1,Increment      1: Step Time =    1.000,"P-2-1",           509,   134.254E-03,   25.9983E-03,            0.,NA,NA,"",   1.01923E+06,   1.01584E+06,   1.01584E+06
C:/temp/Job-2.odb,Step-1,Increment      1: Step Time =    1.000,"P-2-1",           510,   129.182E-03,   26.5878E-03,            0.,NA,NA,"",   1.01733E+06,   1.01586E+06,   1.01586E+06
C:/temp/Job-2.odb,Step-1,Increment      1: Step Time =    1.000,"P-2-1",           511,   125.272E-03,   27.1255E-03,            0.,NA,NA,"",   1.01544E+06,   1.01573E+06,   1.01573E+06
C:/temp/Job-2.odb,Step-1,Increment      1: Step Time =    1.000,"P-2-1",           512,   120.838E-03,   27.8739E-03,            0.,NA,NA,"",   1.01271E+06,   1.01558E+06,   1.01558E+06
C:/temp/Job-2.odb,Step-1,Increment      1: Step Time =    1.000,"P-2-1",           513,   111.662E-03,   28.4887E-03,            0.,NA,NA,"",   1.00425E+06,   1.01267E+06,   1.01267E+06
C:/temp/Job-2.odb,Step-1,Increment      1: Step Time =    1.000,"P-2-1",           514,   108.303E-03,   27.6284E-03,            0.,NA,NA,"",   999.919E+03,   1.00941E+06,   1.00941E+06
C:/temp/Job-2.odb,Step-1,Increment      1: Step Time =    1.000,"P-2-1",           515,   102.696E-03,   28.4135E-03,            0.,NA,NA,"",   998.747E+03,   1.01055E+06,   1.01055E+06
C:/temp/Job-2.odb,Step-1,Increment      1: Step Time =    1.000,"P-2-1",           516,   97.5176E-03,   28.4224E-03,            0.,NA,NA,"",   999.138E+03,   1.01134E+06,   1.01134E+06
C:/temp/Job-2.odb,Step-1,Increment      1: Step Time =    1.000,"P-2-1",           517,   91.4584E-03,   26.3118E-03,            0.,NA,NA,"",   999.228E+03,   1.00897E+06,   1.00897E+06
C:/temp/Job-2.odb,Step-1,Increment      1: Step Time =    1.000,"P-2-1",           518,   87.3315E-03,   25.6276E-03,            0.,NA,NA,"",   1.00183E+06,   1.01016E+06,   1.01016E+06
C:/temp/Job-2.odb,Step-1,Increment      1: Step Time =    1.000,"P-2-1",           519,   82.3834E-03,   25.1693E-03,            0.,NA,NA,"",   1.00738E+06,   1.01378E+06,   1.01378E+06
C:/temp/Job-2.odb,Step-1,Increment      1: Step Time =    1.000,"P-2-1",           520,   75.0650E-03,   26.1343E-03,            0.,NA,NA,"",   1.01943E+06,   1.02378E+06,   1.02378E+06
C:/temp/Job-2.odb,Step-1,Increment      1: Step Time =    1.000,"P-2-1",           521,   69.9388E-03,   26.8677E-03,            0.,NA,NA,"",   1.02777E+06,   1.03103E+06,   1.03103E+06
C:/temp/Job-2.odb,Step-1,Increment      1: Step Time =    1.000,"P-2-1",           522,   65.4381E-03,   27.9198E-03,            0.,NA,NA,"",   1.03575E+06,   1.03868E+06,   1.03868E+06
C:/temp/Job-2.odb,Step-1,Increment      1: Step Time =    1.000,"P-2-1",           523,   60.0062E-03,   25.9654E-03,            0.,NA,NA,"",   1.03642E+06,   1.03929E+06,   1.03929E+06
C:/temp/Job-2.odb,Step-1,Increment      1: Step Time =    1.000,"P-2-1",           524,   54.7644E-03,   27.4851E-03,            0.,NA,NA,"",   1.04237E+06,   1.04707E+06,   1.04707E+06
C:/temp/Job-2.odb,Step-1,Increment      1: Step Time =    1.000,"P-2-1",           525,   49.6536E-03,   28.8479E-03,            0.,NA,NA,"",   1.04560E+06,   1.05367E+06,   1.05367E+06
C:/temp/Job-2.odb,Step-1,Increment      1: Step Time =    1.000,"P-2-1",           526,   43.9513E-03,   27.3859E-03,            0.,NA,NA,"",   1.04589E+06,   1.05766E+06,   1.05766E+06
C:/temp/Job-2.odb,Step-1,Increment      1: Step Time =    1.000,"P-2-1",           527,   38.0176E-03,   27.0924E-03,            0.,NA,NA,"",   1.04638E+06,   1.06413E+06,   1.06413E+06
C:/temp/Job-2.odb,Step-1,Increment      1: Step Time =    1.000,"P-2-1",           528,   32.3131E-03,   27.8667E-03,            0.,NA,NA,"",   1.04282E+06,   1.06988E+06,   1.06988E+06
C:/temp/Job-2.odb,Step-1,Increment      1: Step Time =    1.000,"P-2-1",           529,   27.1395E-03,   25.5418E-03,            0.,NA,NA,"",   1.04598E+06,   1.07917E+06,   1.07917E+06
C:/temp/Job-2.odb,Step-1,Increment      1: Step Time =    1.000,"P-2-1",           530,   21.6346E-03,   25.8166E-03,            0.,NA,NA,"",   1.03878E+06,   1.08446E+06,   1.08446E+06
C:/temp/Job-2.odb,Step-1,Increment      1: Step Time =    1.000,"P-2-1",           531,   16.1026E-03,   26.2367E-03,            0.,NA,NA,"",   1.02101E+06,   1.08340E+06,   1.08340E+06
C:/temp/Job-2.odb,Step-1,Increment      1: Step Time =    1.000,"P-2-1",           532,   11.0289E-03,   25.8879E-03,            0.,NA,NA,"",   1.00209E+06,   1.07973E+06,   1.07973E+06
C:/temp/Job-2.odb,Step-1,Increment      1: Step Time =    1.000,"P-2-1",           533,   5.84888E-03,   27.1472E-03,            0.,NA,NA,"",   963.588E+03,   1.05885E+06,   1.05885E+06
C:/temp/Job-2.odb,Step-1,Increment      1: Step Time =    1.000,"P-2-1",           534,   193.179E-03,   32.9424E-03,            0.,NA,NA,"",   999.930E+03,   1.00090E+06,   1.00090E+06
C:/temp/Job-2.odb,Step-1,Increment      1: Step Time =    1.000,"P-2-1",           535,   189.200E-03,   32.5311E-03,            0.,NA,NA,"",   1.00120E+06,   1.00201E+06,   1.00201E+06
C:/temp/Job-2.odb,Step-1,Increment      1: Step Time =    1.000,"P-2-1",           536,   185.284E-03,   32.0422E-03,            0.,NA,NA,"",   1.00314E+06,   1.00344E+06,   1.00344E+06
C:/temp/Job-2.odb,Step-1,Increment      1: Step Time =    1.000,"P-2-1",           537,   178.038E-03,   33.1384E-03,            0.,NA,NA,"",   1.00847E+06,   1.00728E+06,   1.00728E+06
C:/temp/Job-2.odb,Step-1,Increment      1: Step Time =    1.000,"P-2-1",           538,   171.657E-03,   32.5427E-03,            0.,NA,NA,"",   1.01375E+06,   1.01081E+06,   1.01081E+06
C:/temp/Job-2.odb,Step-1,Increment      1: Step Time =    1.000,"P-2-1",           539,   166.092E-03,   32.4158E-03,            0.,NA,NA,"",   1.01892E+06,   1.01435E+06,   1.01435E+06
C:/temp/Job-2.odb,Step-1,Increment      1: Step Time =    1.000,"P-2-1",           540,   159.928E-03,   33.9324E-03,            0.,NA,NA,"",   1.02672E+06,   1.02000E+06,   1.02000E+06
C:/temp/Job-2.odb,Step-1,Increment      1: Step Time =    1.000,"P-2-1",           541,   155.845E-03,   34.3257E-03,            0.,NA,NA,"",   1.03100E+06,   1.02320E+06,   1.02320E+06
C:/temp/Job-2.odb,Step-1,Increment      1: Step Time =    1.000,"P-2-1",           542,   151.433E-03,   32.4100E-03,            0.,NA,NA,"",   1.03145E+06,   1.02369E+06,   1.02369E+06
C:/temp/Job-2.odb,Step-1,Increment      1: Step Time =    1.000,"P-2-1",           543,   147.294E-03,   31.9894E-03,            0.,NA,NA,"",   1.03326E+06,   1.02542E+06,   1.02542E+06
C:/temp/Job-2.odb,Step-1,Increment      1: Step Time =    1.000,"P-2-1",           544,   141.223E-03,   31.1828E-03,            0.,NA,NA,"",   1.03324E+06,   1.02626E+06,   1.02626E+06
C:/temp/Job-2.odb,Step-1,Increment      1: Step Time =    1.000,"P-2-1",           545,   136.260E-03,   30.2955E-03,            0.,NA,NA,"",   1.02985E+06,   1.02462E+06,   1.02462E+06
C:/temp/Job-2.odb,Step-1,Increment      1: Step Time =    1.000,"P-2-1",           546,   131.222E-03,   32.0709E-03,            0.,NA,NA,"",   1.03303E+06,   1.02928E+06,   1.02928E+06
C:/temp/Job-2.odb,Step-1,Increment      1: Step Time =    1.000,"P-2-1",           547,   125.712E-03,   32.8299E-03,            0.,NA,NA,"",   1.03041E+06,   1.02996E+06,   1.02996E+06
C:/temp/Job-2.odb,Step-1,Increment      1: Step Time =    1.000,"P-2-1",           548,   120.382E-03,   33.8483E-03,            0.,NA,NA,"",   1.02687E+06,   1.03091E+06,   1.03091E+06
C:/temp/Job-2.odb,Step-1,Increment      1: Step Time =    1.000,"P-2-1",           549,   113.443E-03,   32.8594E-03,            0.,NA,NA,"",   1.01434E+06,   1.02394E+06,   1.02394E+06
C:/temp/Job-2.odb,Step-1,Increment      1: Step Time =    1.000,"P-2-1",           550,   108.595E-03,   32.9037E-03,            0.,NA,NA,"",   1.00915E+06,   1.02202E+06,   1.02202E+06
C:/temp/Job-2.odb,Step-1,Increment      1: Step Time =    1.000,"P-2-1",           551,   100.901E-03,   33.6240E-03,            0.,NA,NA,"",   1.00635E+06,   1.02266E+06,   1.02266E+06
C:/temp/Job-2.odb,Step-1,Increment      1: Step Time =    1.000,"P-2-1",           552,   96.6113E-03,   33.2920E-03,            0.,NA,NA,"",   1.00660E+06,   1.02327E+06,   1.02327E+06
C:/temp/Job-2.odb,Step-1,Increment      1: Step Time =    1.000,"P-2-1",           553,   92.4911E-03,   32.8347E-03,            0.,NA,NA,"",   1.00965E+06,   1.02468E+06,   1.02468E+06
C:/temp/Job-2.odb,Step-1,Increment      1: Step Time =    1.000,"P-2-1",           554,   81.6333E-03,   32.2263E-03,            0.,NA,NA,"",   1.02434E+06,   1.03362E+06,   1.03362E+06
C:/temp/Job-2.odb,Step-1,Increment      1: Step Time =    1.000,"P-2-1",           555,   75.4549E-03,   33.1337E-03,            0.,NA,NA,"",   1.03570E+06,   1.04212E+06,   1.04212E+06
C:/temp/Job-2.odb,Step-1,Increment      1: Step Time =    1.000,"P-2-1",           556,   69.6841E-03,   30.6485E-03,            0.,NA,NA,"",   1.03709E+06,   1.04096E+06,   1.04096E+06
C:/temp/Job-2.odb,Step-1,Increment      1: Step Time =    1.000,"P-2-1",           557,   65.2297E-03,   32.7161E-03,            0.,NA,NA,"",   1.04569E+06,   1.04938E+06,   1.04938E+06
C:/temp/Job-2.odb,Step-1,Increment      1: Step Time =    1.000,"P-2-1",           558,   60.1486E-03,   29.9788E-03,            0.,NA,NA,"",   1.04371E+06,   1.04749E+06,   1.04749E+06
C:/temp/Job-2.odb,Step-1,Increment      1: Step Time =    1.000,"P-2-1",           559,   55.1768E-03,   33.7564E-03,            0.,NA,NA,"",   1.04980E+06,   1.05629E+06,   1.05629E+06
C:/temp/Job-2.odb,Step-1,Increment      1: Step Time =    1.000,"P-2-1",           560,   50.1735E-03,   32.3155E-03,            0.,NA,NA,"",   1.04752E+06,   1.05682E+06,   1.05682E+06
C:/temp/Job-2.odb,Step-1,Increment      1: Step Time =    1.000,"P-2-1",           561,   43.6340E-03,   32.8902E-03,            0.,NA,NA,"",   1.04357E+06,   1.05959E+06,   1.05959E+06
C:/temp/Job-2.odb,Step-1,Increment      1: Step Time =    1.000,"P-2-1",           562,   36.2756E-03,   32.5129E-03,            0.,NA,NA,"",   1.03667E+06,   1.06237E+06,   1.06237E+06
C:/temp/Job-2.odb,Step-1,Increment      1: Step Time =    1.000,"P-2-1",           563,   30.7302E-03,   32.0461E-03,            0.,NA,NA,"",   1.02895E+06,   1.06410E+06,   1.06410E+06
C:/temp/Job-2.odb,Step-1,Increment      1: Step Time =    1.000,"P-2-1",           564,   26.0855E-03,   30.9532E-03,            0.,NA,NA,"",   1.02402E+06,   1.06695E+06,   1.06695E+06
C:/temp/Job-2.odb,Step-1,Increment      1: Step Time =    1.000,"P-2-1",           565,   21.8542E-03,   33.6077E-03,            0.,NA,NA,"",   1.00130E+06,   1.05740E+06,   1.05740E+06
C:/temp/Job-2.odb,Step-1,Increment      1: Step Time =    1.000,"P-2-1",           566,   16.0175E-03,   33.8368E-03,            0.,NA,NA,"",   977.612E+03,   1.04910E+06,   1.04910E+06
C:/temp/Job-2.odb,Step-1,Increment      1: Step Time =    1.000,"P-2-1",           567,   11.5300E-03,   33.0187E-03,            0.,NA,NA,"",   961.034E+03,   1.04371E+06,   1.04371E+06
C:/temp/Job-2.odb,Step-1,Increment      1: Step Time =    1.000,"P-2-1",           568,   7.42275E-03,   32.0977E-03,            0.,NA,NA,"",    944.29E+03,   1.03709E+06,   1.03709E+06
C:/temp/Job-2.odb,Step-1,Increment      1: Step Time =    1.000,"P-2-1",           569,   195.025E-03,   39.5723E-03,            0.,NA,NA,"",   998.296E+03,   1.00066E+06,   1.00066E+06
C:/temp/Job-2.odb,Step-1,Increment      1: Step Time =    1.000,"P-2-1",           570,   190.098E-03,   37.9713E-03,            0.,NA,NA,"",   1.00036E+06,   1.00213E+06,   1.00213E+06
C:/temp/Job-2.odb,Step-1,Increment      1: Step Time =    1.000,"P-2-1",           571,   184.180E-03,   39.7601E-03,            0.,NA,NA,"",   1.00409E+06,   1.00508E+06,   1.00508E+06
C:/temp/Job-2.odb,Step-1,Increment      1: Step Time =    1.000,"P-2-1",           572,   177.068E-03,   40.2035E-03,            0.,NA,NA,"",   1.01139E+06,   1.00996E+06,   1.00996E+06
C:/temp/Job-2.odb,Step-1,Increment      1: Step Time =    1.000,"P-2-1",           573,   173.047E-03,   38.2209E-03,            0.,NA,NA,"",   1.01520E+06,   1.01229E+06,   1.01229E+06
C:/temp/Job-2.odb,Step-1,Increment      1: Step Time =    1.000,"P-2-1",           574,   168.719E-03,   37.4481E-03,            0.,NA,NA,"",   1.02002E+06,   1.01548E+06,   1.01548E+06
C:/temp/Job-2.odb,Step-1,Increment      1: Step Time =    1.000,"P-2-1",           575,   162.893E-03,   36.4003E-03,            0.,NA,NA,"",   1.02573E+06,   1.01936E+06,   1.01936E+06
C:/temp/Job-2.odb,Step-1,Increment      1: Step Time =    1.000,"P-2-1",           576,   156.028E-03,   39.2280E-03,            0.,NA,NA,"",   1.03786E+06,   1.02826E+06,   1.02826E+06
C:/temp/Job-2.odb,Step-1,Increment      1: Step Time =    1.000,"P-2-1",           577,   150.900E-03,   37.1333E-03,            0.,NA,NA,"",   1.04043E+06,   1.03053E+06,   1.03053E+06
C:/temp/Job-2.odb,Step-1,Increment      1: Step Time =    1.000,"P-2-1",           578,   145.190E-03,   38.0461E-03,            0.,NA,NA,"",   1.04737E+06,   1.03663E+06,   1.03663E+06
C:/temp/Job-2.odb,Step-1,Increment      1: Step Time =    1.000,"P-2-1",           579,   140.605E-03,   38.7833E-03,            0.,NA,NA,"",   1.05223E+06,   1.04156E+06,   1.04156E+06
C:/temp/Job-2.odb,Step-1,Increment      1: Step Time =    1.000,"P-2-1",           580,   134.050E-03,   38.9266E-03,            0.,NA,NA,"",   1.05373E+06,   1.04551E+06,   1.04551E+06
C:/temp/Job-2.odb,Step-1,Increment      1: Step Time =    1.000,"P-2-1",           581,   129.666E-03,   37.7274E-03,            0.,NA,NA,"",   1.04770E+06,   1.04302E+06,   1.04302E+06
C:/temp/Job-2.odb,Step-1,Increment      1: Step Time =    1.000,"P-2-1",           582,   123.859E-03,   37.7565E-03,            0.,NA,NA,"",   1.04165E+06,   1.04228E+06,   1.04228E+06
C:/temp/Job-2.odb,Step-1,Increment      1: Step Time =    1.000,"P-2-1",           583,   120.422E-03,   38.6087E-03,            0.,NA,NA,"",   1.03876E+06,   1.04312E+06,   1.04312E+06
C:/temp/Job-2.odb,Step-1,Increment      1: Step Time =    1.000,"P-2-1",           584,   114.615E-03,   37.4728E-03,            0.,NA,NA,"",   1.02563E+06,   1.03632E+06,   1.03632E+06
C:/temp/Job-2.odb,Step-1,Increment      1: Step Time =    1.000,"P-2-1",           585,   109.704E-03,   37.8813E-03,            0.,NA,NA,"",   1.01833E+06,   1.03409E+06,   1.03409E+06
C:/temp/Job-2.odb,Step-1,Increment      1: Step Time =    1.000,"P-2-1",           586,   103.250E-03,   37.9458E-03,            0.,NA,NA,"",   1.01219E+06,   1.03219E+06,   1.03219E+06
C:/temp/Job-2.odb,Step-1,Increment      1: Step Time =    1.000,"P-2-1",           587,   96.4017E-03,   37.4186E-03,            0.,NA,NA,"",   1.01181E+06,   1.03247E+06,   1.03247E+06
C:/temp/Job-2.odb,Step-1,Increment      1: Step Time =    1.000,"P-2-1",           588,   91.9956E-03,   38.0866E-03,            0.,NA,NA,"",   1.01788E+06,   1.03744E+06,   1.03744E+06
C:/temp/Job-2.odb,Step-1,Increment      1: Step Time =    1.000,"P-2-1",           589,   86.9408E-03,   39.1807E-03,            0.,NA,NA,"",   1.02871E+06,   1.04563E+06,   1.04563E+06
C:/temp/Job-2.odb,Step-1,Increment      1: Step Time =    1.000,"P-2-1",           590,   79.9541E-03,   38.9576E-03,            0.,NA,NA,"",   1.04180E+06,   1.05283E+06,   1.05283E+06
C:/temp/Job-2.odb,Step-1,Increment      1: Step Time =    1.000,"P-2-1",           591,   75.1306E-03,   36.8354E-03,            0.,NA,NA,"",   1.04484E+06,   1.05194E+06,   1.05194E+06
C:/temp/Job-2.odb,Step-1,Increment      1: Step Time =    1.000,"P-2-1",           592,   69.2165E-03,   36.8093E-03,            0.,NA,NA,"",   1.05173E+06,   1.05640E+06,   1.05640E+06
C:/temp/Job-2.odb,Step-1,Increment      1: Step Time =    1.000,"P-2-1",           593,   64.4686E-03,   37.7341E-03,            0.,NA,NA,"",   1.05599E+06,   1.06022E+06,   1.06022E+06
C:/temp/Job-2.odb,Step-1,Increment      1: Step Time =    1.000,"P-2-1",           594,   60.3587E-03,   37.9791E-03,            0.,NA,NA,"",   1.05609E+06,   1.06122E+06,   1.06122E+06
C:/temp/Job-2.odb,Step-1,Increment      1: Step Time =    1.000,"P-2-1",           595,   55.2575E-03,   38.3964E-03,            0.,NA,NA,"",   1.05364E+06,   1.06140E+06,   1.06140E+06
C:/temp/Job-2.odb,Step-1,Increment      1: Step Time =    1.000,"P-2-1",           596,   49.7280E-03,   37.7044E-03,            0.,NA,NA,"",   1.04776E+06,   1.05994E+06,   1.05994E+06
C:/temp/Job-2.odb,Step-1,Increment      1: Step Time =    1.000,"P-2-1",           597,   44.2923E-03,   37.7938E-03,            0.,NA,NA,"",   1.04014E+06,   1.05879E+06,   1.05879E+06
C:/temp/Job-2.odb,Step-1,Increment      1: Step Time =    1.000,"P-2-1",           598,   38.2013E-03,   38.1556E-03,            0.,NA,NA,"",   1.02767E+06,   1.05570E+06,   1.05570E+06
C:/temp/Job-2.odb,Step-1,Increment      1: Step Time =    1.000,"P-2-1",           599,   28.0058E-03,   37.7334E-03,            0.,NA,NA,"",   1.00418E+06,   1.05068E+06,   1.05068E+06
C:/temp/Job-2.odb,Step-1,Increment      1: Step Time =    1.000,"P-2-1",           600,   22.9135E-03,   38.0315E-03,            0.,NA,NA,"",   985.768E+03,   1.04415E+06,   1.04415E+06
C:/temp/Job-2.odb,Step-1,Increment      1: Step Time =    1.000,"P-2-1",           601,   14.9787E-03,   39.4457E-03,            0.,NA,NA,"",   946.615E+03,   1.02523E+06,   1.02523E+06
C:/temp/Job-2.odb,Step-1,Increment      1: Step Time =    1.000,"P-2-1",           602,   11.8452E-03,   38.3144E-03,            0.,NA,NA,"",   937.911E+03,   1.02271E+06,   1.02271E+06
C:/temp/Job-2.odb,Step-1,Increment      1: Step Time =    1.000,"P-2-1",           603,   5.92590E-03,   39.5354E-03,            0.,NA,NA,"",   904.907E+03,   1.00309E+06,   1.00309E+06
C:/temp/Job-2.odb,Step-1,Increment      1: Step Time =    1.000,"P-2-1",           604,   195.248E-03,   44.4930E-03,            0.,NA,NA,"",   996.626E+03,   1.00066E+06,   1.00066E+06
C:/temp/Job-2.odb,Step-1,Increment      1: Step Time =    1.000,"P-2-1",           605,   190.601E-03,   44.9131E-03,            0.,NA,NA,"",   998.604E+03,   1.00225E+06,   1.00225E+06
C:/temp/Job-2.odb,Step-1,Increment      1: Step Time =    1.000,"P-2-1",           606,   183.814E-03,   43.5490E-03,            0.,NA,NA,"",   1.00431E+06,   1.00577E+06,   1.00577E+06
C:/temp/Job-2.odb,Step-1,Increment      1: Step Time =    1.000,"P-2-1",           607,   177.118E-03,   43.5436E-03,            0.,NA,NA,"",   1.01171E+06,   1.01052E+06,   1.01052E+06
C:/temp/Job-2.odb,Step-1,Increment      1: Step Time =    1.000,"P-2-1",           608,   172.803E-03,   43.7521E-03,            0.,NA,NA,"",   1.01731E+06,   1.01415E+06,   1.01415E+06
C:/temp/Job-2.odb,Step-1,Increment      1: Step Time =    1.000,"P-2-1",           609,   167.763E-03,   43.8271E-03,            0.,NA,NA,"",   1.02464E+06,   1.01897E+06,   1.01897E+06
C:/temp/Job-2.odb,Step-1,Increment      1: Step Time =    1.000,"P-2-1",           610,   162.228E-03,   43.8020E-03,            0.,NA,NA,"",   1.03311E+06,   1.02472E+06,   1.02472E+06
C:/temp/Job-2.odb,Step-1,Increment      1: Step Time =    1.000,"P-2-1",           611,   156.981E-03,   44.6982E-03,            0.,NA,NA,"",   1.04276E+06,   1.03159E+06,   1.03159E+06
C:/temp/Job-2.odb,Step-1,Increment      1: Step Time =    1.000,"P-2-1",           612,   150.971E-03,   41.7477E-03,            0.,NA,NA,"",   1.04850E+06,   1.03638E+06,   1.03638E+06
C:/temp/Job-2.odb,Step-1,Increment      1: Step Time =    1.000,"P-2-1",           613,   146.194E-03,   42.6633E-03,            0.,NA,NA,"",   1.05632E+06,   1.04295E+06,   1.04295E+06
C:/temp/Job-2.odb,Step-1,Increment      1: Step Time =    1.000,"P-2-1",           614,   138.993E-03,   43.3431E-03,            0.,NA,NA,"",   1.06478E+06,   1.05166E+06,   1.05166E+06
C:/temp/Job-2.odb,Step-1,Increment      1: Step Time =    1.000,"P-2-1",           615,   134.086E-03,   43.1524E-03,            0.,NA,NA,"",   1.06608E+06,   1.05524E+06,   1.05524E+06
C:/temp/Job-2.odb,Step-1,Increment      1: Step Time =    1.000,"P-2-1",           616,   129.333E-03,   42.3102E-03,            0.,NA,NA,"",   1.06183E+06,   1.05522E+06,   1.05522E+06
C:/temp/Job-2.odb,Step-1,Increment      1: Step Time =    1.000,"P-2-1",           617,   125.208E-03,   42.8033E-03,            0.,NA,NA,"",   1.05892E+06,   1.05679E+06,   1.05679E+06
C:/temp/Job-2.odb,Step-1,Increment      1: Step Time =    1.000,"P-2-1",           618,   117.824E-03,   43.5298E-03,            0.,NA,NA,"",   1.04773E+06,   1.05605E+06,   1.05605E+06
C:/temp/Job-2.odb,Step-1,Increment      1: Step Time =    1.000,"P-2-1",           619,   114.740E-03,   42.8027E-03,            0.,NA,NA,"",   1.03827E+06,   1.05121E+06,   1.05121E+06
C:/temp/Job-2.odb,Step-1,Increment      1: Step Time =    1.000,"P-2-1",           620,   110.032E-03,   42.4150E-03,            0.,NA,NA,"",   1.02701E+06,   1.04614E+06,   1.04614E+06
C:/temp/Job-2.odb,Step-1,Increment      1: Step Time =    1.000,"P-2-1",           621,   101.291E-03,   45.0828E-03,            0.,NA,NA,"",   1.01931E+06,   1.04906E+06,   1.04906E+06
C:/temp/Job-2.odb,Step-1,Increment      1: Step Time =    1.000,"P-2-1",           622,   97.4502E-03,   41.5379E-03,            0.,NA,NA,"",   1.01631E+06,   1.04146E+06,   1.04146E+06
C:/temp/Job-2.odb,Step-1,Increment      1: Step Time =    1.000,"P-2-1",           623,   90.7363E-03,   43.2122E-03,            0.,NA,NA,"",   1.02787E+06,   1.05129E+06,   1.05129E+06
C:/temp/Job-2.odb,Step-1,Increment      1: Step Time =    1.000,"P-2-1",           624,   87.2161E-03,   43.7986E-03,            0.,NA,NA,"",   1.03636E+06,   1.05738E+06,   1.05738E+06
C:/temp/Job-2.odb,Step-1,Increment      1: Step Time =    1.000,"P-2-1",           625,   82.8883E-03,   43.5897E-03,            0.,NA,NA,"",   1.04699E+06,   1.06271E+06,   1.06271E+06
C:/temp/Job-2.odb,Step-1,Increment      1: Step Time =    1.000,"P-2-1",           626,   75.5115E-03,   42.1595E-03,            0.,NA,NA,"",   1.05789E+06,   1.06584E+06,   1.06584E+06
C:/temp/Job-2.odb,Step-1,Increment      1: Step Time =    1.000,"P-2-1",           627,   70.3434E-03,   43.4342E-03,            0.,NA,NA,"",   1.06615E+06,   1.07106E+06,   1.07106E+06
C:/temp/Job-2.odb,Step-1,Increment      1: Step Time =    1.000,"P-2-1",           628,   66.4935E-03,   44.0719E-03,            0.,NA,NA,"",   1.06816E+06,   1.07212E+06,   1.07212E+06
C:/temp/Job-2.odb,Step-1,Increment      1: Step Time =    1.000,"P-2-1",           629,   58.4339E-03,   43.1071E-03,            0.,NA,NA,"",   1.06048E+06,   1.06697E+06,   1.06697E+06
C:/temp/Job-2.odb,Step-1,Increment      1: Step Time =    1.000,"P-2-1",           630,   53.4296E-03,   42.2143E-03,            0.,NA,NA,"",   1.05285E+06,   1.06306E+06,   1.06306E+06
C:/temp/Job-2.odb,Step-1,Increment      1: Step Time =    1.000,"P-2-1",           631,   47.8688E-03,   42.4989E-03,            0.,NA,NA,"",   1.04204E+06,   1.05866E+06,   1.05866E+06
C:/temp/Job-2.odb,Step-1,Increment      1: Step Time =    1.000,"P-2-1",           632,   43.0593E-03,   43.1085E-03,            0.,NA,NA,"",   1.02975E+06,   1.05362E+06,   1.05362E+06
C:/temp/Job-2.odb,Step-1,Increment      1: Step Time =    1.000,"P-2-1",           633,   36.9887E-03,   43.4499E-03,            0.,NA,NA,"",   1.01250E+06,   1.04696E+06,   1.04696E+06
C:/temp/Job-2.odb,Step-1,Increment      1: Step Time =    1.000,"P-2-1",           634,   34.6471E-03,   43.4031E-03,            0.,NA,NA,"",   1.00539E+06,   1.04419E+06,   1.04419E+06
C:/temp/Job-2.odb,Step-1,Increment      1: Step Time =    1.000,"P-2-1",           635,   27.2565E-03,   44.5325E-03,            0.,NA,NA,"",   976.415E+03,   1.03129E+06,   1.03129E+06
C:/temp/Job-2.odb,Step-1,Increment      1: Step Time =    1.000,"P-2-1",           636,   21.0258E-03,   43.7535E-03,            0.,NA,NA,"",   955.385E+03,   1.02291E+06,   1.02291E+06
C:/temp/Job-2.odb,Step-1,Increment      1: Step Time =    1.000,"P-2-1",           637,   15.8656E-03,   44.1825E-03,            0.,NA,NA,"",   932.543E+03,   1.01149E+06,   1.01149E+06
C:/temp/Job-2.odb,Step-1,Increment      1: Step Time =    1.000,"P-2-1",           638,   11.2362E-03,   45.1154E-03,            0.,NA,NA,"",   908.349E+03,   997.396E+03,   997.396E+03
C:/temp/Job-2.odb,Step-1,Increment      1: Step Time =    1.000,"P-2-1",           639,   4.98188E-03,   44.6077E-03,            0.,NA,NA,"",   882.006E+03,   982.609E+03,   982.609E+03
C:/temp/Job-2.odb,Step-1,Increment      1: Step Time =    1.000,"P-2-1",           640,   195.215E-03,   49.5008E-03,            0.,NA,NA,"",   994.456E+03,   1.00069E+06,   1.00069E+06
C:/temp/Job-2.odb,Step-1,Increment      1: Step Time =    1.000,"P-2-1",           641,   190.445E-03,   49.5172E-03,            0.,NA,NA,"",   997.030E+03,   1.00233E+06,   1.00233E+06
C:/temp/Job-2.odb,Step-1,Increment      1: Step Time =    1.000,"P-2-1",           642,   183.264E-03,   47.7457E-03,            0.,NA,NA,"",   1.00404E+06,   1.00624E+06,   1.00624E+06
C:/temp/Job-2.odb,Step-1,Increment      1: Step Time =    1.000,"P-2-1",           643,   177.593E-03,   49.0201E-03,            0.,NA,NA,"",   1.01090E+06,   1.01056E+06,   1.01056E+06
C:/temp/Job-2.odb,Step-1,Increment      1: Step Time =    1.000,"P-2-1",           644,   172.162E-03,   48.3930E-03,            0.,NA,NA,"",   1.01836E+06,   1.01512E+06,   1.01512E+06
C:/temp/Job-2.odb,Step-1,Increment      1: Step Time =    1.000,"P-2-1",           645,   166.609E-03,   49.1175E-03,            0.,NA,NA,"",   1.02788E+06,   1.02117E+06,   1.02117E+06
C:/temp/Job-2.odb,Step-1,Increment      1: Step Time =    1.000,"P-2-1",           646,   161.991E-03,   49.6286E-03,            0.,NA,NA,"",   1.03669E+06,   1.02700E+06,   1.02700E+06
C:/temp/Job-2.odb,Step-1,Increment      1: Step Time =    1.000,"P-2-1",           647,   157.488E-03,   48.0185E-03,            0.,NA,NA,"",   1.04478E+06,   1.03278E+06,   1.03278E+06
C:/temp/Job-2.odb,Step-1,Increment      1: Step Time =    1.000,"P-2-1",           648,   152.630E-03,   47.3464E-03,            0.,NA,NA,"",   1.05344E+06,   1.03935E+06,   1.03935E+06
C:/temp/Job-2.odb,Step-1,Increment      1: Step Time =    1.000,"P-2-1",           649,   144.752E-03,   48.6691E-03,            0.,NA,NA,"",   1.07055E+06,   1.05308E+06,   1.05308E+06
C:/temp/Job-2.odb,Step-1,Increment      1: Step Time =    1.000,"P-2-1",           650,   139.112E-03,   47.8583E-03,            0.,NA,NA,"",   1.07686E+06,   1.06026E+06,   1.06026E+06
C:/temp/Job-2.odb,Step-1,Increment      1: Step Time =    1.000,"P-2-1",           651,   134.119E-03,   47.1951E-03,            0.,NA,NA,"",   1.07905E+06,   1.06516E+06,   1.06516E+06
C:/temp/Job-2.odb,Step-1,Increment      1: Step Time =    1.000,"P-2-1",           652,   130.699E-03,   46.6107E-03,            0.,NA,NA,"",   1.07695E+06,   1.06631E+06,   1.06631E+06
C:/temp/Job-2.odb,Step-1,Increment      1: Step Time =    1.000,"P-2-1",           653,   125.352E-03,   47.7936E-03,            0.,NA,NA,"",   1.07729E+06,   1.07232E+06,   1.07232E+06
C:/temp/Job-2.odb,Step-1,Increment      1: Step Time =    1.000,"P-2-1",           654,   120.227E-03,   47.0997E-03,            0.,NA,NA,"",   1.06450E+06,   1.06840E+06,   1.06840E+06
C:/temp/Job-2.odb,Step-1,Increment      1: Step Time =    1.000,"P-2-1",           655,   114.853E-03,   48.5772E-03,            0.,NA,NA,"",   1.05457E+06,   1.06944E+06,   1.06944E+06
C:/temp/Job-2.odb,Step-1,Increment      1: Step Time =    1.000,"P-2-1",           656,   106.935E-03,   48.4590E-03,            0.,NA,NA,"",   1.03086E+06,   1.06009E+06,   1.06009E+06
C:/temp/Job-2.odb,Step-1,Increment      1: Step Time =    1.000,"P-2-1",           657,   102.875E-03,   48.9134E-03,            0.,NA,NA,"",   1.02440E+06,   1.05856E+06,   1.05856E+06
C:/temp/Job-2.odb,Step-1,Increment      1: Step Time =    1.000,"P-2-1",           658,   97.2778E-03,   49.0514E-03,            0.,NA,NA,"",   1.02451E+06,   1.06031E+06,   1.06031E+06
C:/temp/Job-2.odb,Step-1,Increment      1: Step Time =    1.000,"P-2-1",           659,   90.3691E-03,   49.0669E-03,            0.,NA,NA,"",   1.03926E+06,   1.06853E+06,   1.06853E+06
C:/temp/Job-2.odb,Step-1,Increment      1: Step Time =    1.000,"P-2-1",           660,   84.9034E-03,   48.4958E-03,            0.,NA,NA,"",   1.05447E+06,   1.07491E+06,   1.07491E+06
C:/temp/Job-2.odb,Step-1,Increment      1: Step Time =    1.000,"P-2-1",           661,   81.6121E-03,   49.0979E-03,            0.,NA,NA,"",   1.06582E+06,   1.08123E+06,   1.08123E+06
C:/temp/Job-2.odb,Step-1,Increment      1: Step Time =    1.000,"P-2-1",           662,   77.0320E-03,   49.9012E-03,            0.,NA,NA,"",   1.07847E+06,   1.08723E+06,   1.08723E+06
C:/temp/Job-2.odb,Step-1,Increment      1: Step Time =    1.000,"P-2-1",           663,   70.7944E-03,   48.6857E-03,            0.,NA,NA,"",   1.07978E+06,   1.08347E+06,   1.08347E+06
C:/temp/Job-2.odb,Step-1,Increment      1: Step Time =    1.000,"P-2-1",           664,   64.2274E-03,   48.8103E-03,            0.,NA,NA,"",   1.07528E+06,   1.07829E+06,   1.07829E+06
C:/temp/Job-2.odb,Step-1,Increment      1: Step Time =    1.000,"P-2-1",           665,   54.4808E-03,   47.4480E-03,            0.,NA,NA,"",   1.05433E+06,   1.06469E+06,   1.06469E+06
C:/temp/Job-2.odb,Step-1,Increment      1: Step Time =    1.000,"P-2-1",           666,   49.0589E-03,   48.7325E-03,            0.,NA,NA,"",   1.03827E+06,   1.05601E+06,   1.05601E+06
C:/temp/Job-2.odb,Step-1,Increment      1: Step Time =    1.000,"P-2-1",           667,   43.3745E-03,   49.0024E-03,            0.,NA,NA,"",   1.01931E+06,   1.04641E+06,   1.04641E+06
C:/temp/Job-2.odb,Step-1,Increment      1: Step Time =    1.000,"P-2-1",           668,   37.8202E-03,   48.3279E-03,            0.,NA,NA,"",   1.00185E+06,   1.03857E+06,   1.03857E+06
C:/temp/Job-2.odb,Step-1,Increment      1: Step Time =    1.000,"P-2-1",           669,   33.0651E-03,   48.7974E-03,            0.,NA,NA,"",   983.210E+03,   1.02962E+06,   1.02962E+06
C:/temp/Job-2.odb,Step-1,Increment      1: Step Time =    1.000,"P-2-1",           670,   25.2509E-03,   49.6746E-03,            0.,NA,NA,"",   949.892E+03,   1.01287E+06,   1.01287E+06
C:/temp/Job-2.odb,Step-1,Increment      1: Step Time =    1.000,"P-2-1",           671,   20.7805E-03,   47.4806E-03,            0.,NA,NA,"",   940.307E+03,   1.01107E+06,   1.01107E+06
C:/temp/Job-2.odb,Step-1,Increment      1: Step Time =    1.000,"P-2-1",           672,   15.8559E-03,   50.0505E-03,            0.,NA,NA,"",   910.464E+03,   992.203E+03,   992.203E+03
C:/temp/Job-2.odb,Step-1,Increment      1: Step Time =    1.000,"P-2-1",           673,   11.3327E-03,   48.7281E-03,            0.,NA,NA,"",   897.041E+03,   986.763E+03,   986.763E+03
C:/temp/Job-2.odb,Step-1,Increment      1: Step Time =    1.000,"P-2-1",           674,   4.59673E-03,   49.5081E-03,            0.,NA,NA,"",   866.124E+03,   967.277E+03,   967.277E+03
C:/temp/Job-2.odb,Step-1,Increment      1: Step Time =    1.000,"P-2-1",           675,   195.030E-03,   54.5671E-03,            0.,NA,NA,"",   991.752E+03,   1.00070E+06,   1.00070E+06
C:/temp/Job-2.odb,Step-1,Increment      1: Step Time =    1.000,"P-2-1",           676,   190.042E-03,   54.4627E-03,            0.,NA,NA,"",   995.008E+03,   1.00232E+06,   1.00232E+06
C:/temp/Job-2.odb,Step-1,Increment      1: Step Time =    1.000,"P-2-1",           677,   185.053E-03,   54.2176E-03,            0.,NA,NA,"",   999.904E+03,   1.00484E+06,   1.00484E+06
C:/temp/Job-2.odb,Step-1,Increment      1: Step Time =    1.000,"P-2-1",           678,   177.957E-03,   54.2549E-03,            0.,NA,NA,"",   1.00861E+06,   1.00957E+06,   1.00957E+06
C:/temp/Job-2.odb,Step-1,Increment      1: Step Time =    1.000,"P-2-1",           679,   173.141E-03,   54.1944E-03,            0.,NA,NA,"",   1.01612E+06,   1.01386E+06,   1.01386E+06
C:/temp/Job-2.odb,Step-1,Increment      1: Step Time =    1.000,"P-2-1",           680,   167.730E-03,   54.2005E-03,            0.,NA,NA,"",   1.02531E+06,   1.01936E+06,   1.01936E+06
C:/temp/Job-2.odb,Step-1,Increment      1: Step Time =    1.000,"P-2-1",           681,   162.213E-03,   55.1651E-03,            0.,NA,NA,"",   1.03614E+06,   1.02609E+06,   1.02609E+06
C:/temp/Job-2.odb,Step-1,Increment      1: Step Time =    1.000,"P-2-1",           682,   158.656E-03,   56.1756E-03,            0.,NA,NA,"",   1.04415E+06,   1.03118E+06,   1.03118E+06
C:/temp/Job-2.odb,Step-1,Increment      1: Step Time =    1.000,"P-2-1",           683,   150.780E-03,   53.2828E-03,            0.,NA,NA,"",   1.06314E+06,   1.04545E+06,   1.04545E+06
C:/temp/Job-2.odb,Step-1,Increment      1: Step Time =    1.000,"P-2-1",           684,   145.214E-03,   52.5535E-03,            0.,NA,NA,"",   1.07558E+06,   1.05572E+06,   1.05572E+06
C:/temp/Job-2.odb,Step-1,Increment      1: Step Time =    1.000,"P-2-1",           685,   138.585E-03,   53.7344E-03,            0.,NA,NA,"",   1.09297E+06,   1.07107E+06,   1.07107E+06
C:/temp/Job-2.odb,Step-1,Increment      1: Step Time =    1.000,"P-2-1",           686,   133.936E-03,   55.6276E-03,            0.,NA,NA,"",   1.10785E+06,   1.08476E+06,   1.08476E+06
C:/temp/Job-2.odb,Step-1,Increment      1: Step Time =    1.000,"P-2-1",           687,   129.948E-03,   54.3610E-03,            0.,NA,NA,"",   1.10677E+06,   1.08874E+06,   1.08874E+06
C:/temp/Job-2.odb,Step-1,Increment      1: Step Time =    1.000,"P-2-1",           688,   125.557E-03,   53.9154E-03,            0.,NA,NA,"",   1.10438E+06,   1.09337E+06,   1.09337E+06
C:/temp/Job-2.odb,Step-1,Increment      1: Step Time =    1.000,"P-2-1",           689,   120.405E-03,   53.5229E-03,            0.,NA,NA,"",   1.09259E+06,   1.09341E+06,   1.09341E+06
C:/temp/Job-2.odb,Step-1,Increment      1: Step Time =    1.000,"P-2-1",           690,   113.846E-03,   53.1474E-03,            0.,NA,NA,"",   1.06709E+06,   1.08572E+06,   1.08572E+06
C:/temp/Job-2.odb,Step-1,Increment      1: Step Time =    1.000,"P-2-1",           691,   107.511E-03,   54.1750E-03,            0.,NA,NA,"",   1.04371E+06,   1.07982E+06,   1.07982E+06
C:/temp/Job-2.odb,Step-1,Increment      1: Step Time =    1.000,"P-2-1",           692,   102.058E-03,   53.4486E-03,            0.,NA,NA,"",   1.02953E+06,   1.07188E+06,   1.07188E+06
C:/temp/Job-2.odb,Step-1,Increment      1: Step Time =    1.000,"P-2-1",           693,   96.9283E-03,   53.7679E-03,            0.,NA,NA,"",   1.03029E+06,   1.07410E+06,   1.07410E+06
C:/temp/Job-2.odb,Step-1,Increment      1: Step Time =    1.000,"P-2-1",           694,   91.4874E-03,   53.3418E-03,            0.,NA,NA,"",   1.04474E+06,   1.08076E+06,   1.08076E+06
C:/temp/Job-2.odb,Step-1,Increment      1: Step Time =    1.000,"P-2-1",           695,   88.2482E-03,   54.6495E-03,            0.,NA,NA,"",   1.06168E+06,   1.09218E+06,   1.09218E+06
C:/temp/Job-2.odb,Step-1,Increment      1: Step Time =    1.000,"P-2-1",           696,   80.4366E-03,   53.5193E-03,            0.,NA,NA,"",   1.08487E+06,   1.09775E+06,   1.09775E+06
C:/temp/Job-2.odb,Step-1,Increment      1: Step Time =    1.000,"P-2-1",           697,   75.8286E-03,   53.7668E-03,            0.,NA,NA,"",   1.09443E+06,   1.09976E+06,   1.09976E+06
C:/temp/Job-2.odb,Step-1,Increment      1: Step Time =    1.000,"P-2-1",           698,   70.7442E-03,   53.2489E-03,            0.,NA,NA,"",   1.09278E+06,   1.09386E+06,   1.09386E+06
C:/temp/Job-2.odb,Step-1,Increment      1: Step Time =    1.000,"P-2-1",           699,   65.5300E-03,   54.2571E-03,            0.,NA,NA,"",   1.08631E+06,   1.08664E+06,   1.08664E+06
C:/temp/Job-2.odb,Step-1,Increment      1: Step Time =    1.000,"P-2-1",           700,   53.9757E-03,   52.9900E-03,            0.,NA,NA,"",   1.04982E+06,   1.06161E+06,   1.06161E+06
C:/temp/Job-2.odb,Step-1,Increment      1: Step Time =    1.000,"P-2-1",           701,   48.3166E-03,   53.9265E-03,            0.,NA,NA,"",   1.02736E+06,   1.04841E+06,   1.04841E+06
C:/temp/Job-2.odb,Step-1,Increment      1: Step Time =    1.000,"P-2-1",           702,   42.7134E-03,   54.0495E-03,            0.,NA,NA,"",   1.00457E+06,   1.03587E+06,   1.03587E+06
C:/temp/Job-2.odb,Step-1,Increment      1: Step Time =    1.000,"P-2-1",           703,   37.6881E-03,   55.5276E-03,            0.,NA,NA,"",   979.283E+03,   1.02138E+06,   1.02138E+06
C:/temp/Job-2.odb,Step-1,Increment      1: Step Time =    1.000,"P-2-1",           704,   32.0292E-03,   53.3181E-03,            0.,NA,NA,"",   963.814E+03,   1.01574E+06,   1.01574E+06
C:/temp/Job-2.odb,Step-1,Increment      1: Step Time =    1.000,"P-2-1",           705,   27.4861E-03,   53.5270E-03,            0.,NA,NA,"",   945.805E+03,   1.00655E+06,   1.00655E+06
C:/temp/Job-2.odb,Step-1,Increment      1: Step Time =    1.000,"P-2-1",           706,   22.8953E-03,   54.0309E-03,            0.,NA,NA,"",   925.927E+03,   995.964E+03,   995.964E+03
C:/temp/Job-2.odb,Step-1,Increment      1: Step Time =    1.000,"P-2-1",           707,   17.5071E-03,   54.0682E-03,            0.,NA,NA,"",   904.084E+03,   984.375E+03,   984.375E+03
C:/temp/Job-2.odb,Step-1,Increment      1: Step Time =    1.000,"P-2-1",           708,   11.0306E-03,   53.1543E-03,            0.,NA,NA,"",   881.489E+03,   972.733E+03,   972.733E+03
C:/temp/Job-2.odb,Step-1,Increment      1: Step Time =    1.000,"P-2-1",           709,   4.73999E-03,   54.5060E-03,            0.,NA,NA,"",   852.942E+03,   953.797E+03,   953.797E+03
C:/temp/Job-2.odb,Step-1,Increment      1: Step Time =    1.000,"P-2-1",           710,   194.887E-03,   59.7274E-03,            0.,NA,NA,"",   988.508E+03,   1.00062E+06,   1.00062E+06
C:/temp/Job-2.odb,Step-1,Increment      1: Step Time =    1.000,"P-2-1",           711,   189.827E-03,   59.6665E-03,            0.,NA,NA,"",   992.265E+03,   1.00203E+06,   1.00203E+06
C:/temp/Job-2.odb,Step-1,Increment      1: Step Time =    1.000,"P-2-1",           712,   184.847E-03,   59.6078E-03,            0.,NA,NA,"",   997.083E+03,   1.00406E+06,   1.00406E+06
C:/temp/Job-2.odb,Step-1,Increment      1: Step Time =    1.000,"P-2-1",           713,   177.594E-03,   59.4390E-03,            0.,NA,NA,"",   1.00603E+06,   1.00823E+06,   1.00823E+06
C:/temp/Job-2.odb,Step-1,Increment      1: Step Time =    1.000,"P-2-1",           714,   172.528E-03,   59.3918E-03,            0.,NA,NA,"",   1.01378E+06,   1.01221E+06,   1.01221E+06
C:/temp/Job-2.odb,Step-1,Increment      1: Step Time =    1.000,"P-2-1",           715,   167.678E-03,   59.8483E-03,            0.,NA,NA,"",   1.02174E+06,   1.01649E+06,   1.01649E+06
C:/temp/Job-2.odb,Step-1,Increment      1: Step Time =    1.000,"P-2-1",           716,   160.798E-03,   60.6189E-03,            0.,NA,NA,"",   1.03522E+06,   1.02427E+06,   1.02427E+06
C:/temp/Job-2.odb,Step-1,Increment      1: Step Time =    1.000,"P-2-1",           717,   155.737E-03,   60.8266E-03,            0.,NA,NA,"",   1.04871E+06,   1.03279E+06,   1.03279E+06
C:/temp/Job-2.odb,Step-1,Increment      1: Step Time =    1.000,"P-2-1",           718,   150.900E-03,   59.8044E-03,            0.,NA,NA,"",   1.06372E+06,   1.04364E+06,   1.04364E+06
C:/temp/Job-2.odb,Step-1,Increment      1: Step Time =    1.000,"P-2-1",           719,   146.273E-03,   58.0700E-03,            0.,NA,NA,"",   1.07911E+06,   1.05589E+06,   1.05589E+06
C:/temp/Job-2.odb,Step-1,Increment      1: Step Time =    1.000,"P-2-1",           720,   141.852E-03,   59.1306E-03,            0.,NA,NA,"",   1.09356E+06,   1.06701E+06,   1.06701E+06
C:/temp/Job-2.odb,Step-1,Increment      1: Step Time =    1.000,"P-2-1",           721,   134.824E-03,   60.3818E-03,            0.,NA,NA,"",   1.11923E+06,   1.08964E+06,   1.08964E+06
C:/temp/Job-2.odb,Step-1,Increment      1: Step Time =    1.000,"P-2-1",           722,   128.796E-03,   61.0025E-03,            0.,NA,NA,"",   1.13663E+06,   1.10951E+06,   1.10951E+06
C:/temp/Job-2.odb,Step-1,Increment      1: Step Time =    1.000,"P-2-1",           723,   122.394E-03,   59.0491E-03,            0.,NA,NA,"",   1.12723E+06,   1.11648E+06,   1.11648E+06
C:/temp/Job-2.odb,Step-1,Increment      1: Step Time =    1.000,"P-2-1",           724,   120.019E-03,   60.1948E-03,            0.,NA,NA,"",   1.12898E+06,   1.12289E+06,   1.12289E+06
C:/temp/Job-2.odb,Step-1,Increment      1: Step Time =    1.000,"P-2-1",           725,   112.908E-03,   59.2399E-03,            0.,NA,NA,"",   1.09134E+06,   1.11497E+06,   1.11497E+06
C:/temp/Job-2.odb,Step-1,Increment      1: Step Time =    1.000,"P-2-1",           726,   107.968E-03,   59.7382E-03,            0.,NA,NA,"",   1.06280E+06,   1.10604E+06,   1.10604E+06
C:/temp/Job-2.odb,Step-1,Increment      1: Step Time =    1.000,"P-2-1",           727,   102.904E-03,   58.0768E-03,            0.,NA,NA,"",   1.03705E+06,   1.08844E+06,   1.08844E+06
C:/temp/Job-2.odb,Step-1,Increment      1: Step Time =    1.000,"P-2-1",           728,   98.0304E-03,   57.0507E-03,            0.,NA,NA,"",   1.03380E+06,   1.08490E+06,   1.08490E+06
C:/temp/Job-2.odb,Step-1,Increment      1: Step Time =    1.000,"P-2-1",           729,   91.7157E-03,   59.2021E-03,            0.,NA,NA,"",   1.06201E+06,   1.10630E+06,   1.10630E+06
C:/temp/Job-2.odb,Step-1,Increment      1: Step Time =    1.000,"P-2-1",           730,   86.1042E-03,   59.6066E-03,            0.,NA,NA,"",   1.09318E+06,   1.12026E+06,   1.12026E+06
C:/temp/Job-2.odb,Step-1,Increment      1: Step Time =    1.000,"P-2-1",           731,   82.4491E-03,   60.4059E-03,            0.,NA,NA,"",   1.11381E+06,   1.12838E+06,   1.12838E+06
C:/temp/Job-2.odb,Step-1,Increment      1: Step Time =    1.000,"P-2-1",           732,   74.6182E-03,   59.4972E-03,            0.,NA,NA,"",   1.11865E+06,   1.11667E+06,   1.11667E+06
C:/temp/Job-2.odb,Step-1,Increment      1: Step Time =    1.000,"P-2-1",           733,   70.2854E-03,   57.8265E-03,            0.,NA,NA,"",   1.10579E+06,   1.10278E+06,   1.10278E+06
C:/temp/Job-2.odb,Step-1,Increment      1: Step Time =    1.000,"P-2-1",           734,   64.2401E-03,   60.7385E-03,            0.,NA,NA,"",   1.08881E+06,   1.08608E+06,   1.08608E+06
C:/temp/Job-2.odb,Step-1,Increment      1: Step Time =    1.000,"P-2-1",           735,   58.6525E-03,   59.5008E-03,            0.,NA,NA,"",   1.06371E+06,   1.06847E+06,   1.06847E+06
C:/temp/Job-2.odb,Step-1,Increment      1: Step Time =    1.000,"P-2-1",           736,   54.2130E-03,   57.9453E-03,            0.,NA,NA,"",   1.04474E+06,   1.05687E+06,   1.05687E+06
C:/temp/Job-2.odb,Step-1,Increment      1: Step Time =    1.000,"P-2-1",           737,   48.4281E-03,   58.5918E-03,            0.,NA,NA,"",   1.01690E+06,   1.03972E+06,   1.03972E+06
C:/temp/Job-2.odb,Step-1,Increment      1: Step Time =    1.000,"P-2-1",           738,   42.1531E-03,   58.9101E-03,            0.,NA,NA,"",   986.298E+03,   1.02214E+06,   1.02214E+06
C:/temp/Job-2.odb,Step-1,Increment      1: Step Time =    1.000,"P-2-1",           739,   38.1173E-03,   61.1298E-03,            0.,NA,NA,"",   962.651E+03,   1.00737E+06,   1.00737E+06
C:/temp/Job-2.odb,Step-1,Increment      1: Step Time =    1.000,"P-2-1",           740,   31.0394E-03,   58.3042E-03,            0.,NA,NA,"",   942.807E+03,   999.955E+03,   999.955E+03
C:/temp/Job-2.odb,Step-1,Increment      1: Step Time =    1.000,"P-2-1",           741,   25.9678E-03,   58.3826E-03,            0.,NA,NA,"",   922.565E+03,   989.394E+03,   989.394E+03
C:/temp/Job-2.odb,Step-1,Increment      1: Step Time =    1.000,"P-2-1",           742,   21.4024E-03,   60.2815E-03,            0.,NA,NA,"",   898.110E+03,   974.124E+03,   974.124E+03
C:/temp/Job-2.odb,Step-1,Increment      1: Step Time =    1.000,"P-2-1",           743,   16.2348E-03,   61.1281E-03,            0.,NA,NA,"",   875.760E+03,   960.856E+03,   960.856E+03
C:/temp/Job-2.odb,Step-1,Increment      1: Step Time =    1.000,"P-2-1",           744,   11.8270E-03,   59.3354E-03,            0.,NA,NA,"",   865.453E+03,   956.862E+03,   956.862E+03
C:/temp/Job-2.odb,Step-1,Increment      1: Step Time =    1.000,"P-2-1",           745,   5.29642E-03,   59.6836E-03,            0.,NA,NA,"",   841.523E+03,   941.610E+03,   941.610E+03
C:/temp/Job-2.odb,Step-1,Increment      1: Step Time =    1.000,"P-2-1",           746,   194.833E-03,   64.9321E-03,            0.,NA,NA,"",   984.769E+03,   1.00041E+06,   1.00041E+06
C:/temp/Job-2.odb,Step-1,Increment      1: Step Time =    1.000,"P-2-1",           747,   189.747E-03,   64.8888E-03,            0.,NA,NA,"",   988.790E+03,   1.00136E+06,   1.00136E+06
C:/temp/Job-2.odb,Step-1,Increment      1: Step Time =    1.000,"P-2-1",           748,   184.764E-03,   64.7928E-03,            0.,NA,NA,"",   993.470E+03,   1.00272E+06,   1.00272E+06
C:/temp/Job-2.odb,Step-1,Increment      1: Step Time =    1.000,"P-2-1",           749,   179.744E-03,   64.7585E-03,            0.,NA,NA,"",   998.749E+03,   1.00448E+06,   1.00448E+06
C:/temp/Job-2.odb,Step-1,Increment      1: Step Time =    1.000,"P-2-1",           750,   175.090E-03,   63.6599E-03,            0.,NA,NA,"",   1.00598E+06,   1.00763E+06,   1.00763E+06
C:/temp/Job-2.odb,Step-1,Increment      1: Step Time =    1.000,"P-2-1",           751,   168.409E-03,   65.0853E-03,            0.,NA,NA,"",   1.01400E+06,   1.01084E+06,   1.01084E+06
C:/temp/Job-2.odb,Step-1,Increment      1: Step Time =    1.000,"P-2-1",           752,   162.728E-03,   63.6533E-03,            0.,NA,NA,"",   1.02751E+06,   1.01870E+06,   1.01870E+06
C:/temp/Job-2.odb,Step-1,Increment      1: Step Time =    1.000,"P-2-1",           753,   157.315E-03,   66.1396E-03,            0.,NA,NA,"",   1.03590E+06,   1.02228E+06,   1.02228E+06
C:/temp/Job-2.odb,Step-1,Increment      1: Step Time =    1.000,"P-2-1",           754,   152.105E-03,   64.4457E-03,            0.,NA,NA,"",   1.05450E+06,   1.03505E+06,   1.03505E+06
C:/temp/Job-2.odb,Step-1,Increment      1: Step Time =    1.000,"P-2-1",           755,   147.124E-03,   64.0587E-03,            0.,NA,NA,"",   1.07346E+06,   1.04837E+06,   1.04837E+06
C:/temp/Job-2.odb,Step-1,Increment      1: Step Time =    1.000,"P-2-1",           756,   141.750E-03,   64.5522E-03,            0.,NA,NA,"",   1.09541E+06,   1.06449E+06,   1.06449E+06
C:/temp/Job-2.odb,Step-1,Increment      1: Step Time =    1.000,"P-2-1",           757,   135.523E-03,   64.5674E-03,            0.,NA,NA,"",   1.12491E+06,   1.08927E+06,   1.08927E+06
C:/temp/Job-2.odb,Step-1,Increment      1: Step Time =    1.000,"P-2-1",           758,   129.892E-03,   64.9308E-03,            0.,NA,NA,"",   1.14948E+06,   1.11343E+06,   1.11343E+06
C:/temp/Job-2.odb,Step-1,Increment      1: Step Time =    1.000,"P-2-1",           759,   123.629E-03,   66.4925E-03,            0.,NA,NA,"",   1.17601E+06,   1.14509E+06,   1.14509E+06
C:/temp/Job-2.odb,Step-1,Increment      1: Step Time =    1.000,"P-2-1",           760,   118.173E-03,   64.5617E-03,            0.,NA,NA,"",   1.15848E+06,   1.15237E+06,   1.15237E+06
C:/temp/Job-2.odb,Step-1,Increment      1: Step Time =    1.000,"P-2-1",           761,   112.497E-03,   65.5277E-03,            0.,NA,NA,"",   1.13487E+06,   1.15907E+06,   1.15907E+06
C:/temp/Job-2.odb,Step-1,Increment      1: Step Time =    1.000,"P-2-1",           762,   106.995E-03,   65.9661E-03,            0.,NA,NA,"",   1.08918E+06,   1.14753E+06,   1.14753E+06
C:/temp/Job-2.odb,Step-1,Increment      1: Step Time =    1.000,"P-2-1",           763,   104.227E-03,   65.3652E-03,            0.,NA,NA,"",   1.06524E+06,   1.13347E+06,   1.13347E+06
C:/temp/Job-2.odb,Step-1,Increment      1: Step Time =    1.000,"P-2-1",           764,   95.9979E-03,   61.8308E-03,            0.,NA,NA,"",   1.04966E+06,   1.10988E+06,   1.10988E+06
C:/temp/Job-2.odb,Step-1,Increment      1: Step Time =    1.000,"P-2-1",           765,   91.2630E-03,   64.0590E-03,            0.,NA,NA,"",   1.08884E+06,   1.13847E+06,   1.13847E+06
C:/temp/Job-2.odb,Step-1,Increment      1: Step Time =    1.000,"P-2-1",           766,   85.7152E-03,   64.8821E-03,            0.,NA,NA,"",   1.13181E+06,   1.15560E+06,   1.15560E+06
C:/temp/Job-2.odb,Step-1,Increment      1: Step Time =    1.000,"P-2-1",           767,   80.7117E-03,   65.2030E-03,            0.,NA,NA,"",   1.15344E+06,   1.15463E+06,   1.15463E+06
C:/temp/Job-2.odb,Step-1,Increment      1: Step Time =    1.000,"P-2-1",           768,   75.4760E-03,   65.1757E-03,            0.,NA,NA,"",   1.14800E+06,   1.13709E+06,   1.13709E+06
C:/temp/Job-2.odb,Step-1,Increment      1: Step Time =    1.000,"P-2-1",           769,   68.4073E-03,   64.4849E-03,            0.,NA,NA,"",   1.11303E+06,   1.10255E+06,   1.10255E+06
C:/temp/Job-2.odb,Step-1,Increment      1: Step Time =    1.000,"P-2-1",           770,   64.5037E-03,   65.6502E-03,            0.,NA,NA,"",   1.09022E+06,   1.08348E+06,   1.08348E+06
C:/temp/Job-2.odb,Step-1,Increment      1: Step Time =    1.000,"P-2-1",           771,   58.7342E-03,   63.9628E-03,            0.,NA,NA,"",   1.05652E+06,   1.06080E+06,   1.06080E+06
C:/temp/Job-2.odb,Step-1,Increment      1: Step Time =    1.000,"P-2-1",           772,   52.9664E-03,   65.3931E-03,            0.,NA,NA,"",   1.01676E+06,   1.03374E+06,   1.03374E+06
C:/temp/Job-2.odb,Step-1,Increment      1: Step Time =    1.000,"P-2-1",           773,   48.0188E-03,   65.8701E-03,            0.,NA,NA,"",   990.285E+03,   1.01778E+06,   1.01778E+06
C:/temp/Job-2.odb,Step-1,Increment      1: Step Time =    1.000,"P-2-1",           774,   41.8756E-03,   64.9025E-03,            0.,NA,NA,"",   963.409E+03,   1.00350E+06,   1.00350E+06
C:/temp/Job-2.odb,Step-1,Increment      1: Step Time =    1.000,"P-2-1",           775,   36.7621E-03,   63.1284E-03,            0.,NA,NA,"",   949.125E+03,   998.124E+03,   998.124E+03
C:/temp/Job-2.odb,Step-1,Increment      1: Step Time =    1.000,"P-2-1",           776,   31.2574E-03,   63.0904E-03,            0.,NA,NA,"",   925.828E+03,   985.614E+03,   985.614E+03
C:/temp/Job-2.odb,Step-1,Increment      1: Step Time =    1.000,"P-2-1",           777,   26.0577E-03,   65.3624E-03,            0.,NA,NA,"",   897.852E+03,   968.316E+03,   968.316E+03
C:/temp/Job-2.odb,Step-1,Increment      1: Step Time =    1.000,"P-2-1",           778,   20.8227E-03,   64.6063E-03,            0.,NA,NA,"",   881.717E+03,    960.48E+03,    960.48E+03
C:/temp/Job-2.odb,Step-1,Increment      1: Step Time =    1.000,"P-2-1",           779,   16.6562E-03,   65.6638E-03,            0.,NA,NA,"",   864.596E+03,   949.945E+03,   949.945E+03
C:/temp/Job-2.odb,Step-1,Increment      1: Step Time =    1.000,"P-2-1",           780,   12.3543E-03,   65.6307E-03,            0.,NA,NA,"",   850.058E+03,   941.520E+03,   941.520E+03
C:/temp/Job-2.odb,Step-1,Increment      1: Step Time =    1.000,"P-2-1",           781,   5.11129E-03,   65.0268E-03,            0.,NA,NA,"",   828.467E+03,   928.498E+03,   928.498E+03
C:/temp/Job-2.odb,Step-1,Increment      1: Step Time =    1.000,"P-2-1",           782,   194.837E-03,   70.1281E-03,            0.,NA,NA,"",   980.727E+03,   1.00011E+06,   1.00011E+06
C:/temp/Job-2.odb,Step-1,Increment      1: Step Time =    1.000,"P-2-1",           783,   189.698E-03,   70.0846E-03,            0.,NA,NA,"",   984.837E+03,   1.00036E+06,   1.00036E+06
C:/temp/Job-2.odb,Step-1,Increment      1: Step Time =    1.000,"P-2-1",           784,   184.702E-03,   69.8263E-03,            0.,NA,NA,"",   989.123E+03,   1.00082E+06,   1.00082E+06
C:/temp/Job-2.odb,Step-1,Increment      1: Step Time =    1.000,"P-2-1",           785,   180.246E-03,   68.8993E-03,            0.,NA,NA,"",   994.207E+03,   1.00197E+06,   1.00197E+06
C:/temp/Job-2.odb,Step-1,Increment      1: Step Time =    1.000,"P-2-1",           786,   173.338E-03,   69.5932E-03,            0.,NA,NA,"",   1.00020E+06,   1.00302E+06,   1.00302E+06
C:/temp/Job-2.odb,Step-1,Increment      1: Step Time =    1.000,"P-2-1",           787,   168.435E-03,   70.7330E-03,            0.,NA,NA,"",   1.00391E+06,   1.00317E+06,   1.00317E+06
C:/temp/Job-2.odb,Step-1,Increment      1: Step Time =    1.000,"P-2-1",           788,   162.819E-03,   70.2929E-03,            0.,NA,NA,"",   1.01351E+06,   1.00730E+06,   1.00730E+06
C:/temp/Job-2.odb,Step-1,Increment      1: Step Time =    1.000,"P-2-1",           789,   157.131E-03,   69.8424E-03,            0.,NA,NA,"",   1.02634E+06,   1.01387E+06,   1.01387E+06
C:/temp/Job-2.odb,Step-1,Increment      1: Step Time =    1.000,"P-2-1",           790,   152.050E-03,   70.5610E-03,            0.,NA,NA,"",   1.03779E+06,   1.01959E+06,   1.01959E+06
C:/temp/Job-2.odb,Step-1,Increment      1: Step Time =    1.000,"P-2-1",           791,   146.632E-03,   70.2874E-03,            0.,NA,NA,"",   1.05966E+06,   1.03361E+06,   1.03361E+06
C:/temp/Job-2.odb,Step-1,Increment      1: Step Time =    1.000,"P-2-1",           792,   141.113E-03,   70.3599E-03,            0.,NA,NA,"",   1.08824E+06,   1.05336E+06,   1.05336E+06
C:/temp/Job-2.odb,Step-1,Increment      1: Step Time =    1.000,"P-2-1",           793,   136.208E-03,   69.8483E-03,            0.,NA,NA,"",   1.12067E+06,   1.07904E+06,   1.07904E+06
C:/temp/Job-2.odb,Step-1,Increment      1: Step Time =    1.000,"P-2-1",           794,   129.873E-03,   69.8454E-03,            0.,NA,NA,"",   1.16179E+06,   1.11494E+06,   1.11494E+06
C:/temp/Job-2.odb,Step-1,Increment      1: Step Time =    1.000,"P-2-1",           795,   125.318E-03,   70.1948E-03,            0.,NA,NA,"",   1.19135E+06,   1.14546E+06,   1.14546E+06
C:/temp/Job-2.odb,Step-1,Increment      1: Step Time =    1.000,"P-2-1",           796,   117.976E-03,   69.2685E-03,            0.,NA,NA,"",   1.20226E+06,   1.18430E+06,   1.18430E+06
C:/temp/Job-2.odb,Step-1,Increment      1: Step Time =    1.000,"P-2-1",           797,   114.782E-03,   69.1478E-03,            0.,NA,NA,"",   1.18889E+06,   1.19157E+06,   1.19157E+06
C:/temp/Job-2.odb,Step-1,Increment      1: Step Time =    1.000,"P-2-1",           798,   109.099E-03,   70.5846E-03,            0.,NA,NA,"",   1.15999E+06,   1.20815E+06,   1.20815E+06
C:/temp/Job-2.odb,Step-1,Increment      1: Step Time =    1.000,"P-2-1",           799,   102.833E-03,   70.3449E-03,            0.,NA,NA,"",   1.09295E+06,   1.18241E+06,   1.18241E+06
C:/temp/Job-2.odb,Step-1,Increment      1: Step Time =    1.000,"P-2-1",           800,   97.6643E-03,   68.0918E-03,            0.,NA,NA,"",   1.07261E+06,   1.15512E+06,   1.15512E+06
C:/temp/Job-2.odb,Step-1,Increment      1: Step Time =    1.000,"P-2-1",           801,   90.7556E-03,   69.0359E-03,            0.,NA,NA,"",   1.13785E+06,   1.18823E+06,   1.18823E+06
C:/temp/Job-2.odb,Step-1,Increment      1: Step Time =    1.000,"P-2-1",           802,   86.4261E-03,   70.8262E-03,            0.,NA,NA,"",   1.18971E+06,   1.20838E+06,   1.20838E+06
C:/temp/Job-2.odb,Step-1,Increment      1: Step Time =    1.000,"P-2-1",           803,   81.3402E-03,   70.9229E-03,            0.,NA,NA,"",   1.20483E+06,   1.19135E+06,   1.19135E+06
C:/temp/Job-2.odb,Step-1,Increment      1: Step Time =    1.000,"P-2-1",           804,   73.6344E-03,   69.2470E-03,            0.,NA,NA,"",   1.15542E+06,   1.13375E+06,   1.13375E+06
C:/temp/Job-2.odb,Step-1,Increment      1: Step Time =    1.000,"P-2-1",           805,   70.4318E-03,   69.4807E-03,            0.,NA,NA,"",   1.13165E+06,   1.11163E+06,   1.11163E+06
C:/temp/Job-2.odb,Step-1,Increment      1: Step Time =    1.000,"P-2-1",           806,   65.0828E-03,   69.7763E-03,            0.,NA,NA,"",   1.08643E+06,   1.07580E+06,   1.07580E+06
C:/temp/Job-2.odb,Step-1,Increment      1: Step Time =    1.000,"P-2-1",           807,   59.8255E-03,   69.6607E-03,            0.,NA,NA,"",   1.04534E+06,   1.04723E+06,   1.04723E+06
C:/temp/Job-2.odb,Step-1,Increment      1: Step Time =    1.000,"P-2-1",           808,   53.9268E-03,   69.7484E-03,            0.,NA,NA,"",   1.00529E+06,   1.02164E+06,   1.02164E+06
C:/temp/Job-2.odb,Step-1,Increment      1: Step Time =    1.000,"P-2-1",           809,   48.4903E-03,   70.7555E-03,            0.,NA,NA,"",   968.304E+03,   998.519E+03,   998.519E+03
C:/temp/Job-2.odb,Step-1,Increment      1: Step Time =    1.000,"P-2-1",           810,   41.4333E-03,   71.9903E-03,            0.,NA,NA,"",   928.742E+03,   975.348E+03,   975.348E+03
C:/temp/Job-2.odb,Step-1,Increment      1: Step Time =    1.000,"P-2-1",           811,   36.8348E-03,   71.8276E-03,            0.,NA,NA,"",   911.751E+03,   967.164E+03,   967.164E+03
C:/temp/Job-2.odb,Step-1,Increment      1: Step Time =    1.000,"P-2-1",           812,   31.5266E-03,   69.0240E-03,            0.,NA,NA,"",   904.093E+03,   967.189E+03,   967.189E+03
C:/temp/Job-2.odb,Step-1,Increment      1: Step Time =    1.000,"P-2-1",           813,   26.9068E-03,   69.9576E-03,            0.,NA,NA,"",   884.570E+03,   955.881E+03,   955.881E+03
C:/temp/Job-2.odb,Step-1,Increment      1: Step Time =    1.000,"P-2-1",           814,   14.9233E-03,   69.8620E-03,            0.,NA,NA,"",   846.463E+03,   935.318E+03,   935.318E+03
C:/temp/Job-2.odb,Step-1,Increment      1: Step Time =    1.000,"P-2-1",           815,   10.0663E-03,   70.2482E-03,            0.,NA,NA,"",   831.065E+03,   925.794E+03,   925.794E+03
C:/temp/Job-2.odb,Step-1,Increment      1: Step Time =    1.000,"P-2-1",           816,   5.02263E-03,   70.2067E-03,            0.,NA,NA,"",   816.940E+03,    916.83E+03,    916.83E+03
C:/temp/Job-2.odb,Step-1,Increment      1: Step Time =    1.000,"P-2-1",           817,   194.899E-03,   75.2802E-03,            0.,NA,NA,"",   976.698E+03,   999.795E+03,   999.795E+03
C:/temp/Job-2.odb,Step-1,Increment      1: Step Time =    1.000,"P-2-1",           818,   189.695E-03,   75.2472E-03,            0.,NA,NA,"",   980.668E+03,   999.215E+03,   999.215E+03
C:/temp/Job-2.odb,Step-1,Increment      1: Step Time =    1.000,"P-2-1",           819,   183.680E-03,   75.0844E-03,            0.,NA,NA,"",   984.682E+03,   998.210E+03,   998.210E+03
C:/temp/Job-2.odb,Step-1,Increment      1: Step Time =    1.000,"P-2-1",           820,   177.419E-03,   74.3778E-03,            0.,NA,NA,"",   989.408E+03,   997.726E+03,   997.726E+03
C:/temp/Job-2.odb,Step-1,Increment      1: Step Time =    1.000,"P-2-1",           821,   172.671E-03,   75.0958E-03,            0.,NA,NA,"",   991.152E+03,   996.138E+03,   996.138E+03
C:/temp/Job-2.odb,Step-1,Increment      1: Step Time =    1.000,"P-2-1",           822,   167.213E-03,   73.9144E-03,            0.,NA,NA,"",   998.115E+03,   997.978E+03,   997.978E+03
C:/temp/Job-2.odb,Step-1,Increment      1: Step Time =    1.000,"P-2-1",           823,   162.978E-03,   75.5367E-03,            0.,NA,NA,"",   997.846E+03,   994.971E+03,   994.971E+03
C:/temp/Job-2.odb,Step-1,Increment      1: Step Time =    1.000,"P-2-1",           824,   150.346E-03,   75.0633E-03,            0.,NA,NA,"",   1.02346E+06,   1.00585E+06,   1.00585E+06
C:/temp/Job-2.odb,Step-1,Increment      1: Step Time =    1.000,"P-2-1",           825,   145.042E-03,   75.8670E-03,            0.,NA,NA,"",   1.03841E+06,   1.01252E+06,   1.01252E+06
C:/temp/Job-2.odb,Step-1,Increment      1: Step Time =    1.000,"P-2-1",           826,   140.068E-03,   76.8954E-03,            0.,NA,NA,"",   1.05603E+06,   1.02091E+06,   1.02091E+06
C:/temp/Job-2.odb,Step-1,Increment      1: Step Time =    1.000,"P-2-1",           827,   136.570E-03,   76.4568E-03,            0.,NA,NA,"",   1.08539E+06,   1.04106E+06,   1.04106E+06
C:/temp/Job-2.odb,Step-1,Increment      1: Step Time =    1.000,"P-2-1",           828,   130.828E-03,   73.0064E-03,            0.,NA,NA,"",   1.15447E+06,   1.10149E+06,   1.10149E+06
C:/temp/Job-2.odb,Step-1,Increment      1: Step Time =    1.000,"P-2-1",           829,   124.295E-03,   75.6601E-03,            0.,NA,NA,"",   1.21679E+06,   1.15137E+06,   1.15137E+06
C:/temp/Job-2.odb,Step-1,Increment      1: Step Time =    1.000,"P-2-1",           830,   117.367E-03,   75.6370E-03,            0.,NA,NA,"",   1.27748E+06,   1.23210E+06,   1.23210E+06
C:/temp/Job-2.odb,Step-1,Increment      1: Step Time =    1.000,"P-2-1",           831,   113.922E-03,   75.7756E-03,            0.,NA,NA,"",   1.28272E+06,   1.26733E+06,   1.26733E+06
C:/temp/Job-2.odb,Step-1,Increment      1: Step Time =    1.000,"P-2-1",           832,   110.246E-03,   76.3006E-03,            0.,NA,NA,"",   1.26929E+06,   1.29866E+06,   1.29866E+06
C:/temp/Job-2.odb,Step-1,Increment      1: Step Time =    1.000,"P-2-1",           833,   103.375E-03,   75.4494E-03,            0.,NA,NA,"",   1.17886E+06,   1.28617E+06,   1.28617E+06
C:/temp/Job-2.odb,Step-1,Increment      1: Step Time =    1.000,"P-2-1",           834,   97.9128E-03,   73.9891E-03,            0.,NA,NA,"",   1.13663E+06,   1.24429E+06,   1.24429E+06
C:/temp/Job-2.odb,Step-1,Increment      1: Step Time =    1.000,"P-2-1",           835,   90.7404E-03,   75.2471E-03,            0.,NA,NA,"",   1.22959E+06,   1.27800E+06,   1.27800E+06
C:/temp/Job-2.odb,Step-1,Increment      1: Step Time =    1.000,"P-2-1",           836,   85.5281E-03,   75.4380E-03,            0.,NA,NA,"",   1.26336E+06,   1.25752E+06,   1.25752E+06
C:/temp/Job-2.odb,Step-1,Increment      1: Step Time =    1.000,"P-2-1",           837,   79.5179E-03,   75.2844E-03,            0.,NA,NA,"",   1.22776E+06,   1.18821E+06,   1.18821E+06
C:/temp/Job-2.odb,Step-1,Increment      1: Step Time =    1.000,"P-2-1",           838,   76.0302E-03,   76.2691E-03,            0.,NA,NA,"",   1.18872E+06,   1.14426E+06,   1.14426E+06
C:/temp/Job-2.odb,Step-1,Increment      1: Step Time =    1.000,"P-2-1",           839,   68.5927E-03,   75.5936E-03,            0.,NA,NA,"",   1.09257E+06,   1.06870E+06,   1.06870E+06
C:/temp/Job-2.odb,Step-1,Increment      1: Step Time =    1.000,"P-2-1",           840,   65.8189E-03,   76.1253E-03,            0.,NA,NA,"",   1.05939E+06,   1.04434E+06,   1.04434E+06
C:/temp/Job-2.odb,Step-1,Increment      1: Step Time =    1.000,"P-2-1",           841,   58.4213E-03,   76.0415E-03,            0.,NA,NA,"",   994.318E+03,   1.00322E+06,   1.00322E+06
C:/temp/Job-2.odb,Step-1,Increment      1: Step Time =    1.000,"P-2-1",           842,   55.3402E-03,   75.3189E-03,            0.,NA,NA,"",   979.523E+03,   996.463E+03,   996.463E+03
C:/temp/Job-2.odb,Step-1,Increment      1: Step Time =    1.000,"P-2-1",           843,   49.1909E-03,   76.4550E-03,            0.,NA,NA,"",   935.895E+03,   970.179E+03,   970.179E+03
C:/temp/Job-2.odb,Step-1,Increment      1: Step Time =    1.000,"P-2-1",           844,   42.3319E-03,   75.9656E-03,            0.,NA,NA,"",   912.551E+03,   960.625E+03,   960.625E+03
C:/temp/Job-2.odb,Step-1,Increment      1: Step Time =    1.000,"P-2-1",           845,   37.8915E-03,   74.9018E-03,            0.,NA,NA,"",   901.455E+03,   957.186E+03,   957.186E+03
C:/temp/Job-2.odb,Step-1,Increment      1: Step Time =    1.000,"P-2-1",           846,   32.2703E-03,   75.7214E-03,            0.,NA,NA,"",   879.507E+03,   945.612E+03,   945.612E+03
C:/temp/Job-2.odb,Step-1,Increment      1: Step Time =    1.000,"P-2-1",           847,   26.6644E-03,   76.1052E-03,            0.,NA,NA,"",   862.386E+03,   937.150E+03,   937.150E+03
C:/temp/Job-2.odb,Step-1,Increment      1: Step Time =    1.000,"P-2-1",           848,   20.9646E-03,   74.9538E-03,            0.,NA,NA,"",   849.959E+03,   932.285E+03,   932.285E+03
C:/temp/Job-2.odb,Step-1,Increment      1: Step Time =    1.000,"P-2-1",           849,   16.0758E-03,   74.0729E-03,            0.,NA,NA,"",   838.686E+03,   926.860E+03,   926.860E+03
C:/temp/Job-2.odb,Step-1,Increment      1: Step Time =    1.000,"P-2-1",           850,   10.4196E-03,   75.1417E-03,            0.,NA,NA,"",   820.851E+03,   915.517E+03,   915.517E+03
C:/temp/Job-2.odb,Step-1,Increment      1: Step Time =    1.000,"P-2-1",           851,   5.09233E-03,   75.3110E-03,            0.,NA,NA,"",   807.201E+03,   906.745E+03,   906.745E+03
C:/temp/Job-2.odb,Step-1,Increment      1: Step Time =    1.000,"P-2-1",           852,   195.000E-03,   80.4050E-03,            0.,NA,NA,"",   972.896E+03,   999.459E+03,   999.459E+03
C:/temp/Job-2.odb,Step-1,Increment      1: Step Time =    1.000,"P-2-1",           853,   190.002E-03,   80.2853E-03,            0.,NA,NA,"",   976.601E+03,   998.100E+03,   998.100E+03
C:/temp/Job-2.odb,Step-1,Increment      1: Step Time =    1.000,"P-2-1",           854,   184.919E-03,   80.4774E-03,            0.,NA,NA,"",   978.611E+03,   995.808E+03,   995.808E+03
C:/temp/Job-2.odb,Step-1,Increment      1: Step Time =    1.000,"P-2-1",           855,   179.634E-03,   81.6735E-03,            0.,NA,NA,"",   978.233E+03,   991.805E+03,   991.805E+03
C:/temp/Job-2.odb,Step-1,Increment      1: Step Time =    1.000,"P-2-1",           856,   172.104E-03,   81.3937E-03,            0.,NA,NA,"",   978.287E+03,   986.344E+03,   986.344E+03
C:/temp/Job-2.odb,Step-1,Increment      1: Step Time =    1.000,"P-2-1",           857,   167.940E-03,   81.2329E-03,            0.,NA,NA,"",   978.323E+03,   983.277E+03,   983.277E+03
C:/temp/Job-2.odb,Step-1,Increment      1: Step Time =    1.000,"P-2-1",           858,   160.522E-03,   79.5612E-03,            0.,NA,NA,"",   985.097E+03,   983.099E+03,   983.099E+03
C:/temp/Job-2.odb,Step-1,Increment      1: Step Time =    1.000,"P-2-1",           859,   157.421E-03,   79.2285E-03,            0.,NA,NA,"",   988.860E+03,   983.634E+03,   983.634E+03
C:/temp/Job-2.odb,Step-1,Increment      1: Step Time =    1.000,"P-2-1",           860,   152.157E-03,   80.4233E-03,            0.,NA,NA,"",   987.340E+03,   977.721E+03,   977.721E+03
C:/temp/Job-2.odb,Step-1,Increment      1: Step Time =    1.000,"P-2-1",           861,   145.397E-03,   80.5736E-03,            0.,NA,NA,"",   999.766E+03,   980.468E+03,   980.468E+03
C:/temp/Job-2.odb,Step-1,Increment      1: Step Time =    1.000,"P-2-1",           862,   140.399E-03,   81.4782E-03,            0.,NA,NA,"",   1.01024E+06,   981.591E+03,   981.591E+03
C:/temp/Job-2.odb,Step-1,Increment      1: Step Time =    1.000,"P-2-1",           863,   134.899E-03,   81.6559E-03,            0.,NA,NA,"",   1.04213E+06,   997.443E+03,   997.443E+03
C:/temp/Job-2.odb,Step-1,Increment      1: Step Time =    1.000,"P-2-1",           864,   131.409E-03,   79.5580E-03,            0.,NA,NA,"",   1.10853E+06,   1.04833E+06,   1.04833E+06
C:/temp/Job-2.odb,Step-1,Increment      1: Step Time =    1.000,"P-2-1",           865,   124.771E-03,   79.8466E-03,            0.,NA,NA,"",   1.19747E+06,   1.11593E+06,   1.11593E+06
C:/temp/Job-2.odb,Step-1,Increment      1: Step Time =    1.000,"P-2-1",           866,   118.287E-03,   81.8387E-03,            0.,NA,NA,"",   1.29888E+06,   1.20281E+06,   1.20281E+06
C:/temp/Job-2.odb,Step-1,Increment      1: Step Time =    1.000,"P-2-1",           867,   114.756E-03,   81.0043E-03,            0.,NA,NA,"",     1.357E+06,   1.28602E+06,   1.28602E+06
C:/temp/Job-2.odb,Step-1,Increment      1: Step Time =    1.000,"P-2-1",           868,   107.619E-03,   82.0575E-03,            0.,NA,NA,"",   1.42946E+06,   1.49495E+06,   1.49495E+06
C:/temp/Job-2.odb,Step-1,Increment      1: Step Time =    1.000,"P-2-1",           869,   102.538E-03,   80.9085E-03,            0.,NA,NA,"",   1.41483E+06,   1.55704E+06,   1.55704E+06
C:/temp/Job-2.odb,Step-1,Increment      1: Step Time =    1.000,"P-2-1",           870,   96.3898E-03,   79.4604E-03,            0.,NA,NA,"",   1.31024E+06,   1.43456E+06,   1.43456E+06
C:/temp/Job-2.odb,Step-1,Increment      1: Step Time =    1.000,"P-2-1",           871,   90.9354E-03,   81.2570E-03,            0.,NA,NA,"",   1.38833E+06,   1.42901E+06,   1.42901E+06
C:/temp/Job-2.odb,Step-1,Increment      1: Step Time =    1.000,"P-2-1",           872,   85.3919E-03,   80.4297E-03,            0.,NA,NA,"",   1.33445E+06,   1.28852E+06,   1.28852E+06
C:/temp/Job-2.odb,Step-1,Increment      1: Step Time =    1.000,"P-2-1",           873,   80.0984E-03,   81.9452E-03,            0.,NA,NA,"",   1.23678E+06,   1.16029E+06,   1.16029E+06
C:/temp/Job-2.odb,Step-1,Increment      1: Step Time =    1.000,"P-2-1",           874,   77.0485E-03,   81.5254E-03,            0.,NA,NA,"",   1.18192E+06,   1.11422E+06,   1.11422E+06
C:/temp/Job-2.odb,Step-1,Increment      1: Step Time =    1.000,"P-2-1",           875,   70.0893E-03,   81.6643E-03,            0.,NA,NA,"",   1.05135E+06,   1.01903E+06,   1.01903E+06
C:/temp/Job-2.odb,Step-1,Increment      1: Step Time =    1.000,"P-2-1",           876,   65.6209E-03,   79.8602E-03,            0.,NA,NA,"",   1.01964E+06,   1.00720E+06,   1.00720E+06
C:/temp/Job-2.odb,Step-1,Increment      1: Step Time =    1.000,"P-2-1",           877,   58.7016E-03,   81.3785E-03,            0.,NA,NA,"",   942.220E+03,   957.733E+03,   957.733E+03
C:/temp/Job-2.odb,Step-1,Increment      1: Step Time =    1.000,"P-2-1",           878,   54.7331E-03,   82.2072E-03,            0.,NA,NA,"",   911.747E+03,   940.141E+03,   940.141E+03
C:/temp/Job-2.odb,Step-1,Increment      1: Step Time =    1.000,"P-2-1",           879,   48.3952E-03,   81.0589E-03,            0.,NA,NA,"",   899.988E+03,   941.269E+03,   941.269E+03
C:/temp/Job-2.odb,Step-1,Increment      1: Step Time =    1.000,"P-2-1",           880,   42.6476E-03,   82.6132E-03,            0.,NA,NA,"",   874.372E+03,   928.437E+03,   928.437E+03
C:/temp/Job-2.odb,Step-1,Increment      1: Step Time =    1.000,"P-2-1",           881,   38.1659E-03,   80.0364E-03,            0.,NA,NA,"",   877.354E+03,   936.723E+03,   936.723E+03
C:/temp/Job-2.odb,Step-1,Increment      1: Step Time =    1.000,"P-2-1",           882,   32.9927E-03,   80.9502E-03,            0.,NA,NA,"",   860.881E+03,   928.888E+03,   928.888E+03
C:/temp/Job-2.odb,Step-1,Increment      1: Step Time =    1.000,"P-2-1",           883,   27.5684E-03,   79.5748E-03,            0.,NA,NA,"",   852.702E+03,   927.834E+03,   927.834E+03
C:/temp/Job-2.odb,Step-1,Increment      1: Step Time =    1.000,"P-2-1",           884,   22.8460E-03,   81.6328E-03,            0.,NA,NA,"",   835.771E+03,   917.766E+03,   917.766E+03
C:/temp/Job-2.odb,Step-1,Increment      1: Step Time =    1.000,"P-2-1",           885,   17.9768E-03,   81.6868E-03,            0.,NA,NA,"",   824.881E+03,   912.387E+03,   912.387E+03
C:/temp/Job-2.odb,Step-1,Increment      1: Step Time =    1.000,"P-2-1",           886,   11.3161E-03,   81.2374E-03,            0.,NA,NA,"",   810.398E+03,   904.675E+03,   904.675E+03
C:/temp/Job-2.odb,Step-1,Increment      1: Step Time =    1.000,"P-2-1",           887,   5.15664E-03,   80.4856E-03,            0.,NA,NA,"",   798.493E+03,   897.751E+03,   897.751E+03
C:/temp/Job-2.odb,Step-1,Increment      1: Step Time =    1.000,"P-2-1",           888,   194.846E-03,   119.507E-03,            0.,NA,NA,"",   973.045E+03,   999.438E+03,   999.438E+03
C:/temp/Job-2.odb,Step-1,Increment      1: Step Time =    1.000,"P-2-1",           889,   188.629E-03,   118.767E-03,            0.,NA,NA,"",   976.684E+03,   997.400E+03,   997.400E+03
C:/temp/Job-2.odb,Step-1,Increment      1: Step Time =    1.000,"P-2-1",           890,   181.537E-03,   118.247E-03,            0.,NA,NA,"",   978.231E+03,   993.154E+03,   993.154E+03
C:/temp/Job-2.odb,Step-1,Increment      1: Step Time =    1.000,"P-2-1",           891,   176.367E-03,   119.708E-03,            0.,NA,NA,"",   980.666E+03,   991.089E+03,   991.089E+03
C:/temp/Job-2.odb,Step-1,Increment      1: Step Time =    1.000,"P-2-1",           892,   171.336E-03,   120.446E-03,            0.,NA,NA,"",   982.799E+03,   989.109E+03,   989.109E+03
C:/temp/Job-2.odb,Step-1,Increment      1: Step Time =    1.000,"P-2-1",           893,   167.889E-03,   119.708E-03,            0.,NA,NA,"",   981.255E+03,   985.610E+03,   985.610E+03
C:/temp/Job-2.odb,Step-1,Increment      1: Step Time =    1.000,"P-2-1",           894,   162.622E-03,   119.487E-03,            0.,NA,NA,"",   980.478E+03,   981.104E+03,   981.104E+03
C:/temp/Job-2.odb,Step-1,Increment      1: Step Time =    1.000,"P-2-1",           895,   158.310E-03,   117.778E-03,            0.,NA,NA,"",   974.472E+03,   973.074E+03,   973.074E+03
C:/temp/Job-2.odb,Step-1,Increment      1: Step Time =    1.000,"P-2-1",           896,   152.219E-03,   118.582E-03,            0.,NA,NA,"",   981.381E+03,   973.071E+03,   973.071E+03
C:/temp/Job-2.odb,Step-1,Increment      1: Step Time =    1.000,"P-2-1",           897,   148.359E-03,   118.750E-03,            0.,NA,NA,"",   986.684E+03,   973.365E+03,   973.365E+03
C:/temp/Job-2.odb,Step-1,Increment      1: Step Time =    1.000,"P-2-1",           898,   140.564E-03,   119.364E-03,            0.,NA,NA,"",   1.01827E+06,   988.701E+03,   988.701E+03
C:/temp/Job-2.odb,Step-1,Increment      1: Step Time =    1.000,"P-2-1",           899,   135.186E-03,   118.387E-03,            0.,NA,NA,"",   1.04206E+06,   997.979E+03,   997.979E+03
C:/temp/Job-2.odb,Step-1,Increment      1: Step Time =    1.000,"P-2-1",           900,   129.589E-03,   117.970E-03,            0.,NA,NA,"",   1.09691E+06,   1.03075E+06,   1.03075E+06
C:/temp/Job-2.odb,Step-1,Increment      1: Step Time =    1.000,"P-2-1",           901,   123.867E-03,   117.019E-03,            0.,NA,NA,"",   1.18154E+06,   1.08549E+06,   1.08549E+06
C:/temp/Job-2.odb,Step-1,Increment      1: Step Time =    1.000,"P-2-1",           902,   119.849E-03,   119.019E-03,            0.,NA,NA,"",   1.27286E+06,   1.18032E+06,   1.18032E+06
C:/temp/Job-2.odb,Step-1,Increment      1: Step Time =    1.000,"P-2-1",           903,   115.175E-03,   119.592E-03,            0.,NA,NA,"",   1.34882E+06,   1.28255E+06,   1.28255E+06
C:/temp/Job-2.odb,Step-1,Increment      1: Step Time =    1.000,"P-2-1",           904,   109.285E-03,   118.825E-03,            0.,NA,NA,"",   1.39251E+06,   1.42595E+06,   1.42595E+06
C:/temp/Job-2.odb,Step-1,Increment      1: Step Time =    1.000,"P-2-1",           905,   103.724E-03,   120.838E-03,            0.,NA,NA,"",   1.29560E+06,   1.41796E+06,   1.41796E+06
C:/temp/Job-2.odb,Step-1,Increment      1: Step Time =    1.000,"P-2-1",           906,   97.3348E-03,   118.878E-03,            0.,NA,NA,"",   1.43155E+06,   1.57083E+06,   1.57083E+06
C:/temp/Job-2.odb,Step-1,Increment      1: Step Time =    1.000,"P-2-1",           907,   91.9539E-03,   118.492E-03,            0.,NA,NA,"",   1.39052E+06,   1.44513E+06,   1.44513E+06
C:/temp/Job-2.odb,Step-1,Increment      1: Step Time =    1.000,"P-2-1",           908,   86.5021E-03,   119.142E-03,            0.,NA,NA,"",   1.35229E+06,   1.31587E+06,   1.31587E+06
C:/temp/Job-2.odb,Step-1,Increment      1: Step Time =    1.000,"P-2-1",           909,   81.3808E-03,   120.421E-03,            0.,NA,NA,"",   1.27311E+06,   1.21188E+06,   1.21188E+06
C:/temp/Job-2.odb,Step-1,Increment      1: Step Time =    1.000,"P-2-1",           910,   75.6056E-03,   119.244E-03,            0.,NA,NA,"",   1.16342E+06,   1.10096E+06,   1.10096E+06
C:/temp/Job-2.odb,Step-1,Increment      1: Step Time =    1.000,"P-2-1",           911,   70.9407E-03,   118.562E-03,            0.,NA,NA,"",   1.06639E+06,   1.02860E+06,   1.02860E+06
C:/temp/Job-2.odb,Step-1,Increment      1: Step Time =    1.000,"P-2-1",           912,   65.5617E-03,   117.529E-03,            0.,NA,NA,"",   976.516E+03,   968.898E+03,   968.898E+03
C:/temp/Job-2.odb,Step-1,Increment      1: Step Time =    1.000,"P-2-1",           913,   60.6351E-03,   119.181E-03,            0.,NA,NA,"",   960.525E+03,   968.594E+03,   968.594E+03
C:/temp/Job-2.odb,Step-1,Increment      1: Step Time =    1.000,"P-2-1",           914,   54.4854E-03,   119.253E-03,            0.,NA,NA,"",   926.856E+03,   953.284E+03,   953.284E+03
C:/temp/Job-2.odb,Step-1,Increment      1: Step Time =    1.000,"P-2-1",           915,   47.6276E-03,   117.665E-03,            0.,NA,NA,"",   887.814E+03,   932.386E+03,   932.386E+03
C:/temp/Job-2.odb,Step-1,Increment      1: Step Time =    1.000,"P-2-1",           916,   37.8440E-03,   116.964E-03,            0.,NA,NA,"",   862.687E+03,   924.776E+03,   924.776E+03
C:/temp/Job-2.odb,Step-1,Increment      1: Step Time =    1.000,"P-2-1",           917,   30.7220E-03,   118.214E-03,            0.,NA,NA,"",   852.560E+03,   924.365E+03,   924.365E+03
C:/temp/Job-2.odb,Step-1,Increment      1: Step Time =    1.000,"P-2-1",           918,   25.8228E-03,   118.733E-03,            0.,NA,NA,"",   844.049E+03,   922.084E+03,   922.084E+03
C:/temp/Job-2.odb,Step-1,Increment      1: Step Time =    1.000,"P-2-1",           919,   20.5402E-03,   119.888E-03,            0.,NA,NA,"",   834.540E+03,   918.909E+03,   918.909E+03
C:/temp/Job-2.odb,Step-1,Increment      1: Step Time =    1.000,"P-2-1",           920,   15.1209E-03,   119.519E-03,            0.,NA,NA,"",   820.307E+03,   910.794E+03,   910.794E+03
C:/temp/Job-2.odb,Step-1,Increment      1: Step Time =    1.000,"P-2-1",           921,   10.0096E-03,   119.720E-03,            0.,NA,NA,"",   809.422E+03,   904.718E+03,   904.718E+03
C:/temp/Job-2.odb,Step-1,Increment      1: Step Time =    1.000,"P-2-1",           922,   4.99986E-03,   119.602E-03,            0.,NA,NA,"",   798.273E+03,   897.616E+03,   897.616E+03
C:/temp/Job-2.odb,Step-1,Increment      1: Step Time =    1.000,"P-2-1",           923,   194.922E-03,   124.694E-03,            0.,NA,NA,"",   976.784E+03,   999.784E+03,   999.784E+03
C:/temp/Job-2.odb,Step-1,Increment      1: Step Time =    1.000,"P-2-1",           924,   189.694E-03,   124.865E-03,            0.,NA,NA,"",   980.905E+03,   999.289E+03,   999.289E+03
C:/temp/Job-2.odb,Step-1,Increment      1: Step Time =    1.000,"P-2-1",           925,   184.519E-03,   125.902E-03,            0.,NA,NA,"",   985.350E+03,   998.841E+03,   998.841E+03
C:/temp/Job-2.odb,Step-1,Increment      1: Step Time =    1.000,"P-2-1",           926,   178.060E-03,   126.265E-03,            0.,NA,NA,"",   990.021E+03,   998.374E+03,   998.374E+03
C:/temp/Job-2.odb,Step-1,Increment      1: Step Time =    1.000,"P-2-1",           927,   174.008E-03,   124.424E-03,            0.,NA,NA,"",   989.651E+03,   995.932E+03,   995.932E+03
C:/temp/Job-2.odb,Step-1,Increment      1: Step Time =    1.000,"P-2-1",           928,   169.365E-03,   124.730E-03,            0.,NA,NA,"",   992.886E+03,   995.404E+03,   995.404E+03
C:/temp/Job-2.odb,Step-1,Increment      1: Step Time =    1.000,"P-2-1",           929,   164.002E-03,   125.316E-03,            0.,NA,NA,"",   999.795E+03,   997.329E+03,   997.329E+03
C:/temp/Job-2.odb,Step-1,Increment      1: Step Time =    1.000,"P-2-1",           930,   156.857E-03,   122.992E-03,            0.,NA,NA,"",   1.00007E+06,   992.285E+03,   992.285E+03
C:/temp/Job-2.odb,Step-1,Increment      1: Step Time =    1.000,"P-2-1",           931,   153.030E-03,   124.340E-03,            0.,NA,NA,"",   1.01379E+06,   1.00037E+06,   1.00037E+06
C:/temp/Job-2.odb,Step-1,Increment      1: Step Time =    1.000,"P-2-1",           932,   144.979E-03,   125.312E-03,            0.,NA,NA,"",   1.04665E+06,   1.01988E+06,   1.01988E+06
C:/temp/Job-2.odb,Step-1,Increment      1: Step Time =    1.000,"P-2-1",           933,   140.073E-03,   124.277E-03,            0.,NA,NA,"",   1.06700E+06,   1.03084E+06,   1.03084E+06
C:/temp/Job-2.odb,Step-1,Increment      1: Step Time =    1.000,"P-2-1",           934,   135.151E-03,   123.507E-03,            0.,NA,NA,"",   1.09931E+06,   1.05118E+06,   1.05118E+06
C:/temp/Job-2.odb,Step-1,Increment      1: Step Time =    1.000,"P-2-1",           935,   129.929E-03,   123.590E-03,            0.,NA,NA,"",   1.15314E+06,   1.09223E+06,   1.09223E+06
C:/temp/Job-2.odb,Step-1,Increment      1: Step Time =    1.000,"P-2-1",           936,   124.496E-03,   124.048E-03,            0.,NA,NA,"",   1.21799E+06,   1.15049E+06,   1.15049E+06
C:/temp/Job-2.odb,Step-1,Increment      1: Step Time =    1.000,"P-2-1",           937,   119.540E-03,   126.515E-03,            0.,NA,NA,"",   1.24306E+06,   1.19962E+06,   1.19962E+06
C:/temp/Job-2.odb,Step-1,Increment      1: Step Time =    1.000,"P-2-1",           938,   113.851E-03,   125.431E-03,            0.,NA,NA,"",   1.25609E+06,   1.25262E+06,   1.25262E+06
C:/temp/Job-2.odb,Step-1,Increment      1: Step Time =    1.000,"P-2-1",           939,   110.343E-03,   124.791E-03,            0.,NA,NA,"",   1.24016E+06,   1.27020E+06,   1.27020E+06
C:/temp/Job-2.odb,Step-1,Increment      1: Step Time =    1.000,"P-2-1",           940,   101.743E-03,   126.447E-03,            0.,NA,NA,"",   1.12749E+06,   1.23370E+06,   1.23370E+06
C:/temp/Job-2.odb,Step-1,Increment      1: Step Time =    1.000,"P-2-1",           941,   96.7006E-03,   124.669E-03,            0.,NA,NA,"",   1.17917E+06,   1.28744E+06,   1.28744E+06
C:/temp/Job-2.odb,Step-1,Increment      1: Step Time =    1.000,"P-2-1",           942,   91.0244E-03,   124.036E-03,            0.,NA,NA,"",   1.24679E+06,   1.29694E+06,   1.29694E+06
C:/temp/Job-2.odb,Step-1,Increment      1: Step Time =    1.000,"P-2-1",           943,   86.4379E-03,   124.514E-03,            0.,NA,NA,"",   1.26229E+06,   1.26240E+06,   1.26240E+06
C:/temp/Job-2.odb,Step-1,Increment      1: Step Time =    1.000,"P-2-1",           944,   81.6369E-03,   125.647E-03,            0.,NA,NA,"",   1.23674E+06,   1.20996E+06,   1.20996E+06
C:/temp/Job-2.odb,Step-1,Increment      1: Step Time =    1.000,"P-2-1",           945,   75.3248E-03,   123.857E-03,            0.,NA,NA,"",   1.18242E+06,   1.13794E+06,   1.13794E+06
C:/temp/Job-2.odb,Step-1,Increment      1: Step Time =    1.000,"P-2-1",           946,   69.9094E-03,   124.896E-03,            0.,NA,NA,"",   1.11594E+06,   1.08689E+06,   1.08689E+06
C:/temp/Job-2.odb,Step-1,Increment      1: Step Time =    1.000,"P-2-1",           947,   64.6765E-03,   124.613E-03,            0.,NA,NA,"",   1.05298E+06,   1.04129E+06,   1.04129E+06
C:/temp/Job-2.odb,Step-1,Increment      1: Step Time =    1.000,"P-2-1",           948,   59.5682E-03,   124.101E-03,            0.,NA,NA,"",   1.00252E+06,   1.00807E+06,   1.00807E+06
C:/temp/Job-2.odb,Step-1,Increment      1: Step Time =    1.000,"P-2-1",           949,   55.0339E-03,   122.963E-03,            0.,NA,NA,"",   961.890E+03,   982.160E+03,   982.160E+03
C:/temp/Job-2.odb,Step-1,Increment      1: Step Time =    1.000,"P-2-1",           950,   47.9929E-03,   122.660E-03,            0.,NA,NA,"",   924.408E+03,   962.312E+03,   962.312E+03
C:/temp/Job-2.odb,Step-1,Increment      1: Step Time =    1.000,"P-2-1",           951,   43.4733E-03,   125.351E-03,            0.,NA,NA,"",   923.275E+03,   967.863E+03,   967.863E+03
C:/temp/Job-2.odb,Step-1,Increment      1: Step Time =    1.000,"P-2-1",           952,   36.3731E-03,   124.638E-03,            0.,NA,NA,"",   893.233E+03,   952.272E+03,   952.272E+03
C:/temp/Job-2.odb,Step-1,Increment      1: Step Time =    1.000,"P-2-1",           953,   32.3432E-03,   123.789E-03,            0.,NA,NA,"",   877.343E+03,   943.678E+03,   943.678E+03
C:/temp/Job-2.odb,Step-1,Increment      1: Step Time =    1.000,"P-2-1",           954,   25.6975E-03,   124.997E-03,            0.,NA,NA,"",   862.741E+03,   938.436E+03,   938.436E+03
C:/temp/Job-2.odb,Step-1,Increment      1: Step Time =    1.000,"P-2-1",           955,   20.4605E-03,   126.144E-03,            0.,NA,NA,"",   851.064E+03,   933.850E+03,   933.850E+03
C:/temp/Job-2.odb,Step-1,Increment      1: Step Time =    1.000,"P-2-1",           956,   16.2946E-03,   125.104E-03,            0.,NA,NA,"",   836.911E+03,   925.051E+03,   925.051E+03
C:/temp/Job-2.odb,Step-1,Increment      1: Step Time =    1.000,"P-2-1",           957,   10.3153E-03,   124.772E-03,            0.,NA,NA,"",   820.058E+03,   914.866E+03,   914.866E+03
C:/temp/Job-2.odb,Step-1,Increment      1: Step Time =    1.000,"P-2-1",           958,   5.10149E-03,   124.720E-03,            0.,NA,NA,"",   807.092E+03,   906.638E+03,   906.638E+03
C:/temp/Job-2.odb,Step-1,Increment      1: Step Time =    1.000,"P-2-1",           959,   195.002E-03,   129.809E-03,            0.,NA,NA,"",   980.689E+03,   1.00012E+06,   1.00012E+06
C:/temp/Job-2.odb,Step-1,Increment      1: Step Time =    1.000,"P-2-1",           960,   190.028E-03,   129.783E-03,            0.,NA,NA,"",   984.594E+03,   1.00036E+06,   1.00036E+06
C:/temp/Job-2.odb,Step-1,Increment      1: Step Time =    1.000,"P-2-1",           961,   185.219E-03,   130.036E-03,            0.,NA,NA,"",   988.628E+03,   1.00075E+06,   1.00075E+06
C:/temp/Job-2.odb,Step-1,Increment      1: Step Time =    1.000,"P-2-1",           962,   179.906E-03,   129.829E-03,            0.,NA,NA,"",   992.981E+03,   1.00107E+06,   1.00107E+06
C:/temp/Job-2.odb,Step-1,Increment      1: Step Time =    1.000,"P-2-1",           963,   174.814E-03,   129.365E-03,            0.,NA,NA,"",   997.179E+03,   1.00161E+06,   1.00161E+06
C:/temp/Job-2.odb,Step-1,Increment      1: Step Time =    1.000,"P-2-1",           964,   167.311E-03,   129.005E-03,            0.,NA,NA,"",   1.00496E+06,   1.00335E+06,   1.00335E+06
C:/temp/Job-2.odb,Step-1,Increment      1: Step Time =    1.000,"P-2-1",           965,   162.642E-03,   130.289E-03,            0.,NA,NA,"",   1.01558E+06,   1.00885E+06,   1.00885E+06
C:/temp/Job-2.odb,Step-1,Increment      1: Step Time =    1.000,"P-2-1",           966,   150.684E-03,   128.937E-03,            0.,NA,NA,"",   1.04120E+06,   1.02133E+06,   1.02133E+06
C:/temp/Job-2.odb,Step-1,Increment      1: Step Time =    1.000,"P-2-1",           967,   146.736E-03,   130.706E-03,            0.,NA,NA,"",   1.06366E+06,   1.03761E+06,   1.03761E+06
C:/temp/Job-2.odb,Step-1,Increment      1: Step Time =    1.000,"P-2-1",           968,   139.638E-03,   129.413E-03,            0.,NA,NA,"",   1.09656E+06,   1.05947E+06,   1.05947E+06
C:/temp/Job-2.odb,Step-1,Increment      1: Step Time =    1.000,"P-2-1",           969,   134.952E-03,   128.474E-03,            0.,NA,NA,"",   1.12585E+06,   1.08079E+06,   1.08079E+06
C:/temp/Job-2.odb,Step-1,Increment      1: Step Time =    1.000,"P-2-1",           970,   129.911E-03,   129.513E-03,            0.,NA,NA,"",   1.16342E+06,   1.11490E+06,   1.11490E+06
C:/temp/Job-2.odb,Step-1,Increment      1: Step Time =    1.000,"P-2-1",           971,   125.077E-03,   130.635E-03,            0.,NA,NA,"",   1.18800E+06,   1.14589E+06,   1.14589E+06
C:/temp/Job-2.odb,Step-1,Increment      1: Step Time =    1.000,"P-2-1",           972,   117.986E-03,   130.204E-03,            0.,NA,NA,"",   1.20776E+06,   1.18803E+06,   1.18803E+06
C:/temp/Job-2.odb,Step-1,Increment      1: Step Time =    1.000,"P-2-1",           973,   112.913E-03,   131.429E-03,            0.,NA,NA,"",   1.16791E+06,   1.18641E+06,   1.18641E+06
C:/temp/Job-2.odb,Step-1,Increment      1: Step Time =    1.000,"P-2-1",           974,   108.004E-03,   128.955E-03,            0.,NA,NA,"",   1.15175E+06,   1.21164E+06,   1.21164E+06
C:/temp/Job-2.odb,Step-1,Increment      1: Step Time =    1.000,"P-2-1",           975,   101.955E-03,   132.512E-03,            0.,NA,NA,"",   1.06693E+06,   1.14684E+06,   1.14684E+06
C:/temp/Job-2.odb,Step-1,Increment      1: Step Time =    1.000,"P-2-1",           976,   96.6639E-03,   129.914E-03,            0.,NA,NA,"",   1.09412E+06,   1.18202E+06,   1.18202E+06
C:/temp/Job-2.odb,Step-1,Increment      1: Step Time =    1.000,"P-2-1",           977,   91.3426E-03,   128.204E-03,            0.,NA,NA,"",   1.17367E+06,   1.22868E+06,   1.22868E+06
C:/temp/Job-2.odb,Step-1,Increment      1: Step Time =    1.000,"P-2-1",           978,   86.9982E-03,   128.914E-03,            0.,NA,NA,"",   1.19422E+06,   1.21368E+06,   1.21368E+06
C:/temp/Job-2.odb,Step-1,Increment      1: Step Time =    1.000,"P-2-1",           979,   81.2819E-03,   131.052E-03,            0.,NA,NA,"",   1.18362E+06,   1.17714E+06,   1.17714E+06
C:/temp/Job-2.odb,Step-1,Increment      1: Step Time =    1.000,"P-2-1",           980,   75.9878E-03,   129.644E-03,            0.,NA,NA,"",   1.17552E+06,   1.15168E+06,   1.15168E+06
C:/temp/Job-2.odb,Step-1,Increment      1: Step Time =    1.000,"P-2-1",           981,   70.0135E-03,   129.882E-03,            0.,NA,NA,"",   1.12860E+06,   1.10764E+06,   1.10764E+06
C:/temp/Job-2.odb,Step-1,Increment      1: Step Time =    1.000,"P-2-1",           982,   64.6013E-03,   129.480E-03,            0.,NA,NA,"",   1.08237E+06,   1.07137E+06,   1.07137E+06
C:/temp/Job-2.odb,Step-1,Increment      1: Step Time =    1.000,"P-2-1",           983,   61.0962E-03,   130.180E-03,            0.,NA,NA,"",   1.05426E+06,   1.05259E+06,   1.05259E+06
C:/temp/Job-2.odb,Step-1,Increment      1: Step Time =    1.000,"P-2-1",           984,   54.6773E-03,   128.756E-03,            0.,NA,NA,"",   1.00039E+06,   1.01591E+06,   1.01591E+06
C:/temp/Job-2.odb,Step-1,Increment      1: Step Time =    1.000,"P-2-1",           985,   50.7984E-03,   128.732E-03,            0.,NA,NA,"",   976.404E+03,   1.00189E+06,   1.00189E+06
C:/temp/Job-2.odb,Step-1,Increment      1: Step Time =    1.000,"P-2-1",           986,   43.1803E-03,   129.623E-03,            0.,NA,NA,"",   943.645E+03,   985.404E+03,   985.404E+03
C:/temp/Job-2.odb,Step-1,Increment      1: Step Time =    1.000,"P-2-1",           987,   31.2314E-03,   129.518E-03,            0.,NA,NA,"",   897.370E+03,   961.798E+03,   961.798E+03
C:/temp/Job-2.odb,Step-1,Increment      1: Step Time =    1.000,"P-2-1",           988,   27.7873E-03,   130.398E-03,            0.,NA,NA,"",   888.661E+03,   958.449E+03,   958.449E+03
C:/temp/Job-2.odb,Step-1,Increment      1: Step Time =    1.000,"P-2-1",           989,   20.1927E-03,   130.220E-03,            0.,NA,NA,"",   862.614E+03,   944.472E+03,   944.472E+03
C:/temp/Job-2.odb,Step-1,Increment      1: Step Time =    1.000,"P-2-1",           990,   15.1316E-03,   130.200E-03,            0.,NA,NA,"",   846.944E+03,   935.621E+03,   935.621E+03
C:/temp/Job-2.odb,Step-1,Increment      1: Step Time =    1.000,"P-2-1",           991,   10.2730E-03,   129.906E-03,            0.,NA,NA,"",   831.949E+03,   926.393E+03,   926.393E+03
C:/temp/Job-2.odb,Step-1,Increment      1: Step Time =    1.000,"P-2-1",           992,   5.16006E-03,   129.866E-03,            0.,NA,NA,"",   817.298E+03,   917.059E+03,   917.059E+03
C:/temp/Job-2.odb,Step-1,Increment      1: Step Time =    1.000,"P-2-1",           993,   194.909E-03,   134.980E-03,            0.,NA,NA,"",   984.764E+03,   1.00039E+06,   1.00039E+06
C:/temp/Job-2.odb,Step-1,Increment      1: Step Time =    1.000,"P-2-1",           994,   187.675E-03,   134.335E-03,            0.,NA,NA,"",   990.120E+03,   1.00167E+06,   1.00167E+06
C:/temp/Job-2.odb,Step-1,Increment      1: Step Time =    1.000,"P-2-1",           995,   183.302E-03,   134.219E-03,            0.,NA,NA,"",   994.401E+03,   1.00289E+06,   1.00289E+06
C:/temp/Job-2.odb,Step-1,Increment      1: Step Time =    1.000,"P-2-1",           996,   179.195E-03,   135.409E-03,            0.,NA,NA,"",   999.773E+03,   1.00491E+06,   1.00491E+06
C:/temp/Job-2.odb,Step-1,Increment      1: Step Time =    1.000,"P-2-1",           997,   174.267E-03,   134.431E-03,            0.,NA,NA,"",   1.00488E+06,   1.00664E+06,   1.00664E+06
C:/temp/Job-2.odb,Step-1,Increment      1: Step Time =    1.000,"P-2-1",           998,   169.057E-03,   136.166E-03,            0.,NA,NA,"",   1.01493E+06,   1.01183E+06,   1.01183E+06
C:/temp/Job-2.odb,Step-1,Increment      1: Step Time =    1.000,"P-2-1",           999,   161.672E-03,   135.732E-03,            0.,NA,NA,"",   1.02894E+06,   1.01920E+06,   1.01920E+06
C:/temp/Job-2.odb,Step-1,Increment      1: Step Time =    1.000,"P-2-1",          1000,   151.704E-03,   136.329E-03,            0.,NA,NA,"",   1.05720E+06,   1.03736E+06,   1.03736E+06
C:/temp/Job-2.odb,Step-1,Increment      1: Step Time =    1.000,"P-2-1",          1001,   146.645E-03,   135.699E-03,            0.,NA,NA,"",   1.07521E+06,   1.04960E+06,   1.04960E+06
C:/temp/Job-2.odb,Step-1,Increment      1: Step Time =    1.000,"P-2-1",          1002,   141.650E-03,   135.162E-03,            0.,NA,NA,"",   1.09630E+06,   1.06509E+06,   1.06509E+06
C:/temp/Job-2.odb,Step-1,Increment      1: Step Time =    1.000,"P-2-1",          1003,   133.722E-03,   135.912E-03,            0.,NA,NA,"",   1.13205E+06,   1.09690E+06,   1.09690E+06
C:/temp/Job-2.odb,Step-1,Increment      1: Step Time =    1.000,"P-2-1",          1004,   129.021E-03,   134.284E-03,            0.,NA,NA,"",   1.15583E+06,   1.11910E+06,   1.11910E+06
C:/temp/Job-2.odb,Step-1,Increment      1: Step Time =    1.000,"P-2-1",          1005,   124.024E-03,   134.931E-03,            0.,NA,NA,"",   1.16621E+06,   1.13876E+06,   1.13876E+06
C:/temp/Job-2.odb,Step-1,Increment      1: Step Time =    1.000,"P-2-1",          1006,   119.243E-03,   135.537E-03,            0.,NA,NA,"",   1.15962E+06,   1.14979E+06,   1.14979E+06
C:/temp/Job-2.odb,Step-1,Increment      1: Step Time =    1.000,"P-2-1",          1007,   113.402E-03,   136.952E-03,            0.,NA,NA,"",   1.11751E+06,   1.13872E+06,   1.13872E+06
C:/temp/Job-2.odb,Step-1,Increment      1: Step Time =    1.000,"P-2-1",          1008,   108.638E-03,   135.288E-03,            0.,NA,NA,"",   1.09382E+06,   1.14131E+06,   1.14131E+06
C:/temp/Job-2.odb,Step-1,Increment      1: Step Time =    1.000,"P-2-1",          1009,   101.593E-03,   136.186E-03,            0.,NA,NA,"",   1.04899E+06,   1.11806E+06,   1.11806E+06
C:/temp/Job-2.odb,Step-1,Increment      1: Step Time =    1.000,"P-2-1",          1010,   96.8457E-03,   135.165E-03,            0.,NA,NA,"",   1.05767E+06,   1.12745E+06,   1.12745E+06
C:/temp/Job-2.odb,Step-1,Increment      1: Step Time =    1.000,"P-2-1",          1011,   91.6284E-03,   133.793E-03,            0.,NA,NA,"",   1.10181E+06,   1.15531E+06,   1.15531E+06
C:/temp/Job-2.odb,Step-1,Increment      1: Step Time =    1.000,"P-2-1",          1012,   86.5114E-03,   134.583E-03,            0.,NA,NA,"",   1.13353E+06,   1.15903E+06,   1.15903E+06
C:/temp/Job-2.odb,Step-1,Increment      1: Step Time =    1.000,"P-2-1",          1013,   81.5620E-03,   134.461E-03,            0.,NA,NA,"",   1.15340E+06,   1.15666E+06,   1.15666E+06
C:/temp/Job-2.odb,Step-1,Increment      1: Step Time =    1.000,"P-2-1",          1014,   78.0659E-03,   135.156E-03,            0.,NA,NA,"",   1.14972E+06,   1.14414E+06,   1.14414E+06
C:/temp/Job-2.odb,Step-1,Increment      1: Step Time =    1.000,"P-2-1",          1015,   69.4111E-03,   134.866E-03,            0.,NA,NA,"",   1.12011E+06,   1.10811E+06,   1.10811E+06
C:/temp/Job-2.odb,Step-1,Increment      1: Step Time =    1.000,"P-2-1",          1016,   63.8637E-03,   134.800E-03,            0.,NA,NA,"",   1.08662E+06,   1.08098E+06,   1.08098E+06
C:/temp/Job-2.odb,Step-1,Increment      1: Step Time =    1.000,"P-2-1",          1017,   58.2428E-03,   134.350E-03,            0.,NA,NA,"",   1.04945E+06,   1.05451E+06,   1.05451E+06
C:/temp/Job-2.odb,Step-1,Increment      1: Step Time =    1.000,"P-2-1",          1018,   54.5773E-03,   135.045E-03,            0.,NA,NA,"",   1.02952E+06,   1.04223E+06,   1.04223E+06
C:/temp/Job-2.odb,Step-1,Increment      1: Step Time =    1.000,"P-2-1",          1019,   50.2180E-03,   135.893E-03,            0.,NA,NA,"",   1.00787E+06,   1.02965E+06,   1.02965E+06
C:/temp/Job-2.odb,Step-1,Increment      1: Step Time =    1.000,"P-2-1",          1020,   43.8705E-03,   133.135E-03,            0.,NA,NA,"",   964.506E+03,   1.00179E+06,   1.00179E+06
C:/temp/Job-2.odb,Step-1,Increment      1: Step Time =    1.000,"P-2-1",          1021,   36.0603E-03,   134.619E-03,            0.,NA,NA,"",   935.963E+03,   988.219E+03,   988.219E+03
C:/temp/Job-2.odb,Step-1,Increment      1: Step Time =    1.000,"P-2-1",          1022,   31.1157E-03,   135.686E-03,            0.,NA,NA,"",   919.856E+03,   980.981E+03,   980.981E+03
C:/temp/Job-2.odb,Step-1,Increment      1: Step Time =    1.000,"P-2-1",          1023,   26.5110E-03,   134.937E-03,            0.,NA,NA,"",   900.995E+03,   970.388E+03,   970.388E+03
C:/temp/Job-2.odb,Step-1,Increment      1: Step Time =    1.000,"P-2-1",          1024,   20.5287E-03,   134.666E-03,            0.,NA,NA,"",   877.539E+03,   957.322E+03,   957.322E+03
C:/temp/Job-2.odb,Step-1,Increment      1: Step Time =    1.000,"P-2-1",          1025,   15.1624E-03,   135.100E-03,            0.,NA,NA,"",   860.996E+03,   948.528E+03,   948.528E+03
C:/temp/Job-2.odb,Step-1,Increment      1: Step Time =    1.000,"P-2-1",          1026,   10.2258E-03,   135.093E-03,            0.,NA,NA,"",   844.720E+03,   938.850E+03,   938.850E+03
C:/temp/Job-2.odb,Step-1,Increment      1: Step Time =    1.000,"P-2-1",          1027,   5.16454E-03,   135.065E-03,            0.,NA,NA,"",   828.661E+03,   928.665E+03,   928.665E+03
C:/temp/Job-2.odb,Step-1,Increment      1: Step Time =    1.000,"P-2-1",          1028,   194.715E-03,   140.316E-03,            0.,NA,NA,"",   988.752E+03,   1.00066E+06,   1.00066E+06
C:/temp/Job-2.odb,Step-1,Increment      1: Step Time =    1.000,"P-2-1",          1029,   188.190E-03,   140.653E-03,            0.,NA,NA,"",   993.971E+03,   1.00267E+06,   1.00267E+06
C:/temp/Job-2.odb,Step-1,Increment      1: Step Time =    1.000,"P-2-1",          1030,   183.775E-03,   138.847E-03,            0.,NA,NA,"",   997.229E+03,   1.00419E+06,   1.00419E+06
C:/temp/Job-2.odb,Step-1,Increment      1: Step Time =    1.000,"P-2-1",          1031,   178.646E-03,   139.691E-03,            0.,NA,NA,"",   1.00412E+06,   1.00728E+06,   1.00728E+06
C:/temp/Job-2.odb,Step-1,Increment      1: Step Time =    1.000,"P-2-1",          1032,   174.027E-03,   141.415E-03,            0.,NA,NA,"",   1.01206E+06,   1.01141E+06,   1.01141E+06
C:/temp/Job-2.odb,Step-1,Increment      1: Step Time =    1.000,"P-2-1",          1033,   168.700E-03,   141.198E-03,            0.,NA,NA,"",   1.02089E+06,   1.01627E+06,   1.01627E+06
C:/temp/Job-2.odb,Step-1,Increment      1: Step Time =    1.000,"P-2-1",          1034,   162.626E-03,   138.961E-03,            0.,NA,NA,"",   1.03124E+06,   1.02179E+06,   1.02179E+06
C:/temp/Job-2.odb,Step-1,Increment      1: Step Time =    1.000,"P-2-1",          1035,   157.937E-03,   139.333E-03,            0.,NA,NA,"",   1.04257E+06,   1.02889E+06,   1.02889E+06
C:/temp/Job-2.odb,Step-1,Increment      1: Step Time =    1.000,"P-2-1",          1036,   150.586E-03,   141.012E-03,            0.,NA,NA,"",   1.06522E+06,   1.04514E+06,   1.04514E+06
C:/temp/Job-2.odb,Step-1,Increment      1: Step Time =    1.000,"P-2-1",          1037,   146.773E-03,   140.882E-03,            0.,NA,NA,"",   1.07720E+06,   1.05396E+06,   1.05396E+06
C:/temp/Job-2.odb,Step-1,Increment      1: Step Time =    1.000,"P-2-1",          1038,   141.349E-03,   141.367E-03,            0.,NA,NA,"",   1.09496E+06,   1.06879E+06,   1.06879E+06
C:/temp/Job-2.odb,Step-1,Increment      1: Step Time =    1.000,"P-2-1",          1039,   134.649E-03,   142.332E-03,            0.,NA,NA,"",   1.11211E+06,   1.08650E+06,   1.08650E+06
C:/temp/Job-2.odb,Step-1,Increment      1: Step Time =    1.000,"P-2-1",          1040,   129.905E-03,   139.876E-03,            0.,NA,NA,"",   1.13085E+06,   1.10465E+06,   1.10465E+06
C:/temp/Job-2.odb,Step-1,Increment      1: Step Time =    1.000,"P-2-1",          1041,   124.630E-03,   140.461E-03,            0.,NA,NA,"",   1.13282E+06,   1.11594E+06,   1.11594E+06
C:/temp/Job-2.odb,Step-1,Increment      1: Step Time =    1.000,"P-2-1",          1042,   118.816E-03,   141.159E-03,            0.,NA,NA,"",   1.11560E+06,   1.11688E+06,   1.11688E+06
C:/temp/Job-2.odb,Step-1,Increment      1: Step Time =    1.000,"P-2-1",          1043,   114.547E-03,   141.851E-03,            0.,NA,NA,"",   1.09197E+06,   1.10960E+06,   1.10960E+06
C:/temp/Job-2.odb,Step-1,Increment      1: Step Time =    1.000,"P-2-1",          1044,   107.943E-03,   141.187E-03,            0.,NA,NA,"",   1.05904E+06,   1.10063E+06,   1.10063E+06
C:/temp/Job-2.odb,Step-1,Increment      1: Step Time =    1.000,"P-2-1",          1045,   103.012E-03,   140.638E-03,            0.,NA,NA,"",   1.04008E+06,   1.09485E+06,   1.09485E+06
C:/temp/Job-2.odb,Step-1,Increment      1: Step Time =    1.000,"P-2-1",          1046,   97.7636E-03,   140.236E-03,            0.,NA,NA,"",   1.04027E+06,   1.09721E+06,   1.09721E+06
C:/temp/Job-2.odb,Step-1,Increment      1: Step Time =    1.000,"P-2-1",          1047,   92.1758E-03,   139.241E-03,            0.,NA,NA,"",   1.06529E+06,   1.11360E+06,   1.11360E+06
C:/temp/Job-2.odb,Step-1,Increment      1: Step Time =    1.000,"P-2-1",          1048,   86.4680E-03,   141.907E-03,            0.,NA,NA,"",   1.08488E+06,   1.11218E+06,   1.11218E+06
C:/temp/Job-2.odb,Step-1,Increment      1: Step Time =    1.000,"P-2-1",          1049,   80.2428E-03,   141.134E-03,            0.,NA,NA,"",   1.11184E+06,   1.12060E+06,   1.12060E+06
C:/temp/Job-2.odb,Step-1,Increment      1: Step Time =    1.000,"P-2-1",          1050,   75.8874E-03,   140.447E-03,            0.,NA,NA,"",   1.11934E+06,   1.11891E+06,   1.11891E+06
C:/temp/Job-2.odb,Step-1,Increment      1: Step Time =    1.000,"P-2-1",          1051,   70.2346E-03,   140.891E-03,            0.,NA,NA,"",   1.10892E+06,   1.10453E+06,   1.10453E+06
C:/temp/Job-2.odb,Step-1,Increment      1: Step Time =    1.000,"P-2-1",          1052,   65.0103E-03,   141.152E-03,            0.,NA,NA,"",   1.09147E+06,   1.08918E+06,   1.08918E+06
C:/temp/Job-2.odb,Step-1,Increment      1: Step Time =    1.000,"P-2-1",          1053,   60.0142E-03,   140.132E-03,            0.,NA,NA,"",   1.06931E+06,   1.07211E+06,   1.07211E+06
C:/temp/Job-2.odb,Step-1,Increment      1: Step Time =    1.000,"P-2-1",          1054,   54.8754E-03,   140.359E-03,            0.,NA,NA,"",   1.04459E+06,   1.05572E+06,   1.05572E+06
C:/temp/Job-2.odb,Step-1,Increment      1: Step Time =    1.000,"P-2-1",          1055,   49.0802E-03,   142.141E-03,            0.,NA,NA,"",   1.02116E+06,   1.04246E+06,   1.04246E+06
C:/temp/Job-2.odb,Step-1,Increment      1: Step Time =    1.000,"P-2-1",          1056,   44.1122E-03,   139.886E-03,            0.,NA,NA,"",   990.719E+03,   1.02316E+06,   1.02316E+06
C:/temp/Job-2.odb,Step-1,Increment      1: Step Time =    1.000,"P-2-1",          1057,   38.6687E-03,   139.728E-03,            0.,NA,NA,"",   967.529E+03,   1.01079E+06,   1.01079E+06
C:/temp/Job-2.odb,Step-1,Increment      1: Step Time =    1.000,"P-2-1",          1058,   33.6682E-03,   140.225E-03,            0.,NA,NA,"",   948.218E+03,   1.00097E+06,   1.00097E+06
C:/temp/Job-2.odb,Step-1,Increment      1: Step Time =    1.000,"P-2-1",          1059,   28.1265E-03,   140.489E-03,            0.,NA,NA,"",   926.793E+03,   990.138E+03,   990.138E+03
C:/temp/Job-2.odb,Step-1,Increment      1: Step Time =    1.000,"P-2-1",          1060,   22.6837E-03,   139.995E-03,            0.,NA,NA,"",   903.654E+03,   977.414E+03,   977.414E+03
C:/temp/Job-2.odb,Step-1,Increment      1: Step Time =    1.000,"P-2-1",          1061,   15.1800E-03,   140.274E-03,            0.,NA,NA,"",   876.548E+03,   962.784E+03,   962.784E+03
C:/temp/Job-2.odb,Step-1,Increment      1: Step Time =    1.000,"P-2-1",          1062,   10.1734E-03,   140.311E-03,            0.,NA,NA,"",   858.486E+03,   952.181E+03,   952.181E+03
C:/temp/Job-2.odb,Step-1,Increment      1: Step Time =    1.000,"P-2-1",          1063,   5.11261E-03,   140.270E-03,            0.,NA,NA,"",   840.751E+03,   941.034E+03,   941.034E+03
C:/temp/Job-2.odb,Step-1,Increment      1: Step Time =    1.000,"P-2-1",          1064,   195.265E-03,   145.492E-03,            0.,NA,NA,"",   991.878E+03,   1.00068E+06,   1.00068E+06
C:/temp/Job-2.odb,Step-1,Increment      1: Step Time =    1.000,"P-2-1",          1065,   188.974E-03,   146.837E-03,            0.,NA,NA,"",   996.770E+03,   1.00294E+06,   1.00294E+06
C:/temp/Job-2.odb,Step-1,Increment      1: Step Time =    1.000,"P-2-1",          1066,   182.490E-03,   145.911E-03,            0.,NA,NA,"",   1.00293E+06,   1.00641E+06,   1.00641E+06
C:/temp/Job-2.odb,Step-1,Increment      1: Step Time =    1.000,"P-2-1",          1067,   177.057E-03,   145.854E-03,            0.,NA,NA,"",   1.01013E+06,   1.01041E+06,   1.01041E+06
C:/temp/Job-2.odb,Step-1,Increment      1: Step Time =    1.000,"P-2-1",          1068,   172.342E-03,   146.135E-03,            0.,NA,NA,"",   1.01754E+06,   1.01470E+06,   1.01470E+06
C:/temp/Job-2.odb,Step-1,Increment      1: Step Time =    1.000,"P-2-1",          1069,   167.600E-03,   146.787E-03,            0.,NA,NA,"",   1.02582E+06,   1.01977E+06,   1.01977E+06
C:/temp/Job-2.odb,Step-1,Increment      1: Step Time =    1.000,"P-2-1",          1070,   162.643E-03,   145.622E-03,            0.,NA,NA,"",   1.03568E+06,   1.02590E+06,   1.02590E+06
C:/temp/Job-2.odb,Step-1,Increment      1: Step Time =    1.000,"P-2-1",          1071,   157.293E-03,   146.535E-03,            0.,NA,NA,"",   1.04772E+06,   1.03417E+06,   1.03417E+06
C:/temp/Job-2.odb,Step-1,Increment      1: Step Time =    1.000,"P-2-1",          1072,   150.372E-03,   145.742E-03,            0.,NA,NA,"",   1.06523E+06,   1.04670E+06,   1.04670E+06
C:/temp/Job-2.odb,Step-1,Increment      1: Step Time =    1.000,"P-2-1",          1073,   146.267E-03,   147.580E-03,            0.,NA,NA,"",   1.07335E+06,   1.05389E+06,   1.05389E+06
C:/temp/Job-2.odb,Step-1,Increment      1: Step Time =    1.000,"P-2-1",          1074,   140.290E-03,   146.448E-03,            0.,NA,NA,"",   1.08991E+06,   1.06789E+06,   1.06789E+06
C:/temp/Job-2.odb,Step-1,Increment      1: Step Time =    1.000,"P-2-1",          1075,   134.339E-03,   147.506E-03,            0.,NA,NA,"",   1.09601E+06,   1.07683E+06,   1.07683E+06
C:/temp/Job-2.odb,Step-1,Increment      1: Step Time =    1.000,"P-2-1",          1076,   129.324E-03,   146.009E-03,            0.,NA,NA,"",   1.10553E+06,   1.08915E+06,   1.08915E+06
C:/temp/Job-2.odb,Step-1,Increment      1: Step Time =    1.000,"P-2-1",          1077,   123.723E-03,   146.492E-03,            0.,NA,NA,"",   1.09882E+06,   1.09260E+06,   1.09260E+06
C:/temp/Job-2.odb,Step-1,Increment      1: Step Time =    1.000,"P-2-1",          1078,   119.138E-03,   146.396E-03,            0.,NA,NA,"",   1.08757E+06,   1.09242E+06,   1.09242E+06
C:/temp/Job-2.odb,Step-1,Increment      1: Step Time =    1.000,"P-2-1",          1079,   113.658E-03,   146.924E-03,            0.,NA,NA,"",   1.06561E+06,   1.08495E+06,   1.08495E+06
C:/temp/Job-2.odb,Step-1,Increment      1: Step Time =    1.000,"P-2-1",          1080,   109.206E-03,   145.959E-03,            0.,NA,NA,"",   1.04979E+06,   1.08169E+06,   1.08169E+06
C:/temp/Job-2.odb,Step-1,Increment      1: Step Time =    1.000,"P-2-1",          1081,   102.272E-03,   146.252E-03,            0.,NA,NA,"",   1.02946E+06,   1.07262E+06,   1.07262E+06
C:/temp/Job-2.odb,Step-1,Increment      1: Step Time =    1.000,"P-2-1",          1082,   97.0107E-03,   146.133E-03,            0.,NA,NA,"",   1.03102E+06,   1.07458E+06,   1.07458E+06
C:/temp/Job-2.odb,Step-1,Increment      1: Step Time =    1.000,"P-2-1",          1083,   90.8168E-03,   145.228E-03,            0.,NA,NA,"",   1.05124E+06,   1.08776E+06,   1.08776E+06
C:/temp/Job-2.odb,Step-1,Increment      1: Step Time =    1.000,"P-2-1",          1084,   85.5172E-03,   147.117E-03,            0.,NA,NA,"",   1.06667E+06,   1.08989E+06,   1.08989E+06
C:/temp/Job-2.odb,Step-1,Increment      1: Step Time =    1.000,"P-2-1",          1085,   80.4745E-03,   147.185E-03,            0.,NA,NA,"",   1.08218E+06,   1.09507E+06,   1.09507E+06
C:/temp/Job-2.odb,Step-1,Increment      1: Step Time =    1.000,"P-2-1",          1086,   74.8712E-03,   145.619E-03,            0.,NA,NA,"",   1.09777E+06,   1.10112E+06,   1.10112E+06
C:/temp/Job-2.odb,Step-1,Increment      1: Step Time =    1.000,"P-2-1",          1087,   70.3548E-03,   145.603E-03,            0.,NA,NA,"",   1.09517E+06,   1.09524E+06,   1.09524E+06
C:/temp/Job-2.odb,Step-1,Increment      1: Step Time =    1.000,"P-2-1",          1088,   65.1535E-03,   147.262E-03,            0.,NA,NA,"",   1.08336E+06,   1.08462E+06,   1.08462E+06
C:/temp/Job-2.odb,Step-1,Increment      1: Step Time =    1.000,"P-2-1",          1089,   61.0547E-03,   145.077E-03,            0.,NA,NA,"",   1.07428E+06,   1.07729E+06,   1.07729E+06
C:/temp/Job-2.odb,Step-1,Increment      1: Step Time =    1.000,"P-2-1",          1090,   55.3386E-03,   147.326E-03,            0.,NA,NA,"",   1.05393E+06,   1.06410E+06,   1.06410E+06
C:/temp/Job-2.odb,Step-1,Increment      1: Step Time =    1.000,"P-2-1",          1091,   49.0202E-03,   148.170E-03,            0.,NA,NA,"",   1.03382E+06,   1.05265E+06,   1.05265E+06
C:/temp/Job-2.odb,Step-1,Increment      1: Step Time =    1.000,"P-2-1",          1092,   42.0724E-03,   146.616E-03,            0.,NA,NA,"",   1.00319E+06,   1.03541E+06,   1.03541E+06
C:/temp/Job-2.odb,Step-1,Increment      1: Step Time =    1.000,"P-2-1",          1093,   38.5525E-03,   145.886E-03,            0.,NA,NA,"",   986.818E+03,   1.02643E+06,   1.02643E+06
C:/temp/Job-2.odb,Step-1,Increment      1: Step Time =    1.000,"P-2-1",          1094,   32.8661E-03,   146.175E-03,            0.,NA,NA,"",   966.678E+03,   1.01671E+06,   1.01671E+06
C:/temp/Job-2.odb,Step-1,Increment      1: Step Time =    1.000,"P-2-1",          1095,   27.1111E-03,   145.727E-03,            0.,NA,NA,"",   942.129E+03,   1.00393E+06,   1.00393E+06
C:/temp/Job-2.odb,Step-1,Increment      1: Step Time =    1.000,"P-2-1",          1096,   22.1842E-03,   145.579E-03,            0.,NA,NA,"",   921.294E+03,   993.098E+03,   993.098E+03
C:/temp/Job-2.odb,Step-1,Increment      1: Step Time =    1.000,"P-2-1",          1097,   14.9859E-03,   145.725E-03,            0.,NA,NA,"",   892.974E+03,   977.957E+03,   977.957E+03
C:/temp/Job-2.odb,Step-1,Increment      1: Step Time =    1.000,"P-2-1",          1098,   9.96722E-03,   145.523E-03,            0.,NA,NA,"",   872.518E+03,   965.918E+03,   965.918E+03
C:/temp/Job-2.odb,Step-1,Increment      1: Step Time =    1.000,"P-2-1",          1099,   4.97063E-03,   145.431E-03,            0.,NA,NA,"",   853.325E+03,   953.921E+03,   953.921E+03
C:/temp/Job-2.odb,Step-1,Increment      1: Step Time =    1.000,"P-2-1",          1100,   195.404E-03,   150.489E-03,            0.,NA,NA,"",   994.494E+03,   1.00064E+06,   1.00064E+06
C:/temp/Job-2.odb,Step-1,Increment      1: Step Time =    1.000,"P-2-1",          1101,   188.668E-03,   151.264E-03,            0.,NA,NA,"",   998.757E+03,   1.00317E+06,   1.00317E+06
C:/temp/Job-2.odb,Step-1,Increment      1: Step Time =    1.000,"P-2-1",          1102,   184.138E-03,   149.934E-03,            0.,NA,NA,"",   1.00254E+06,   1.00570E+06,   1.00570E+06
C:/temp/Job-2.odb,Step-1,Increment      1: Step Time =    1.000,"P-2-1",          1103,   179.187E-03,   152.476E-03,            0.,NA,NA,"",   1.00894E+06,   1.00918E+06,   1.00918E+06
C:/temp/Job-2.odb,Step-1,Increment      1: Step Time =    1.000,"P-2-1",          1104,   174.606E-03,   150.186E-03,            0.,NA,NA,"",   1.01481E+06,   1.01298E+06,   1.01298E+06
C:/temp/Job-2.odb,Step-1,Increment      1: Step Time =    1.000,"P-2-1",          1105,   167.043E-03,   152.003E-03,            0.,NA,NA,"",   1.02712E+06,   1.02071E+06,   1.02071E+06
C:/temp/Job-2.odb,Step-1,Increment      1: Step Time =    1.000,"P-2-1",          1106,   162.026E-03,   150.916E-03,            0.,NA,NA,"",   1.03654E+06,   1.02696E+06,   1.02696E+06
C:/temp/Job-2.odb,Step-1,Increment      1: Step Time =    1.000,"P-2-1",          1107,   157.268E-03,   150.404E-03,            0.,NA,NA,"",   1.04649E+06,   1.03385E+06,   1.03385E+06
C:/temp/Job-2.odb,Step-1,Increment      1: Step Time =    1.000,"P-2-1",          1108,   151.985E-03,   152.120E-03,            0.,NA,NA,"",   1.05562E+06,   1.04095E+06,   1.04095E+06
C:/temp/Job-2.odb,Step-1,Increment      1: Step Time =    1.000,"P-2-1",          1109,   147.188E-03,   153.353E-03,            0.,NA,NA,"",   1.06231E+06,   1.04680E+06,   1.04680E+06
C:/temp/Job-2.odb,Step-1,Increment      1: Step Time =    1.000,"P-2-1",          1110,   141.259E-03,   150.983E-03,            0.,NA,NA,"",   1.07695E+06,   1.05909E+06,   1.05909E+06
C:/temp/Job-2.odb,Step-1,Increment      1: Step Time =    1.000,"P-2-1",          1111,   135.970E-03,   153.277E-03,            0.,NA,NA,"",   1.07688E+06,   1.06238E+06,   1.06238E+06
C:/temp/Job-2.odb,Step-1,Increment      1: Step Time =    1.000,"P-2-1",          1112,   128.972E-03,   151.940E-03,            0.,NA,NA,"",   1.08121E+06,   1.07165E+06,   1.07165E+06
C:/temp/Job-2.odb,Step-1,Increment      1: Step Time =    1.000,"P-2-1",          1113,   124.158E-03,   152.483E-03,            0.,NA,NA,"",   1.07388E+06,   1.07143E+06,   1.07143E+06
C:/temp/Job-2.odb,Step-1,Increment      1: Step Time =    1.000,"P-2-1",          1114,   119.198E-03,   151.849E-03,            0.,NA,NA,"",   1.06498E+06,   1.07113E+06,   1.07113E+06
C:/temp/Job-2.odb,Step-1,Increment      1: Step Time =    1.000,"P-2-1",          1115,   114.948E-03,   150.848E-03,            0.,NA,NA,"",   1.05697E+06,   1.07160E+06,   1.07160E+06
C:/temp/Job-2.odb,Step-1,Increment      1: Step Time =    1.000,"P-2-1",          1116,   108.609E-03,   151.606E-03,            0.,NA,NA,"",   1.03484E+06,   1.06160E+06,   1.06160E+06
C:/temp/Job-2.odb,Step-1,Increment      1: Step Time =    1.000,"P-2-1",          1117,   101.937E-03,   151.903E-03,            0.,NA,NA,"",   1.02264E+06,   1.05625E+06,   1.05625E+06
C:/temp/Job-2.odb,Step-1,Increment      1: Step Time =    1.000,"P-2-1",          1118,   96.4334E-03,   152.094E-03,            0.,NA,NA,"",   1.02441E+06,   1.05783E+06,   1.05783E+06
C:/temp/Job-2.odb,Step-1,Increment      1: Step Time =    1.000,"P-2-1",          1119,   92.5951E-03,   151.000E-03,            0.,NA,NA,"",   1.03330E+06,   1.06526E+06,   1.06526E+06
C:/temp/Job-2.odb,Step-1,Increment      1: Step Time =    1.000,"P-2-1",          1120,   86.8481E-03,   152.356E-03,            0.,NA,NA,"",   1.04681E+06,   1.06956E+06,   1.06956E+06
C:/temp/Job-2.odb,Step-1,Increment      1: Step Time =    1.000,"P-2-1",          1121,   81.7198E-03,   151.963E-03,            0.,NA,NA,"",   1.06281E+06,   1.07795E+06,   1.07795E+06
C:/temp/Job-2.odb,Step-1,Increment      1: Step Time =    1.000,"P-2-1",          1122,   75.1092E-03,   151.182E-03,            0.,NA,NA,"",   1.07740E+06,   1.08415E+06,   1.08415E+06
C:/temp/Job-2.odb,Step-1,Increment      1: Step Time =    1.000,"P-2-1",          1123,   69.4645E-03,   153.024E-03,            0.,NA,NA,"",   1.07519E+06,   1.07883E+06,   1.07883E+06
C:/temp/Job-2.odb,Step-1,Increment      1: Step Time =    1.000,"P-2-1",          1124,   63.7466E-03,   151.806E-03,            0.,NA,NA,"",   1.07347E+06,   1.07682E+06,   1.07682E+06
C:/temp/Job-2.odb,Step-1,Increment      1: Step Time =    1.000,"P-2-1",          1125,   59.1898E-03,   151.949E-03,            0.,NA,NA,"",   1.06514E+06,   1.07110E+06,   1.07110E+06
C:/temp/Job-2.odb,Step-1,Increment      1: Step Time =    1.000,"P-2-1",          1126,   55.8297E-03,   151.298E-03,            0.,NA,NA,"",   1.05741E+06,   1.06647E+06,   1.06647E+06
C:/temp/Job-2.odb,Step-1,Increment      1: Step Time =    1.000,"P-2-1",          1127,   48.6072E-03,   151.552E-03,            0.,NA,NA,"",   1.03735E+06,   1.05552E+06,   1.05552E+06
C:/temp/Job-2.odb,Step-1,Increment      1: Step Time =    1.000,"P-2-1",          1128,   41.6894E-03,   151.618E-03,            0.,NA,NA,"",   1.01416E+06,   1.04406E+06,   1.04406E+06
C:/temp/Job-2.odb,Step-1,Increment      1: Step Time =    1.000,"P-2-1",          1129,   36.9158E-03,   150.815E-03,            0.,NA,NA,"",   995.632E+03,   1.03484E+06,   1.03484E+06
C:/temp/Job-2.odb,Step-1,Increment      1: Step Time =    1.000,"P-2-1",          1130,   33.1368E-03,   151.397E-03,            0.,NA,NA,"",   983.968E+03,   1.03005E+06,   1.03005E+06
C:/temp/Job-2.odb,Step-1,Increment      1: Step Time =    1.000,"P-2-1",          1131,   27.8582E-03,   151.636E-03,            0.,NA,NA,"",   964.003E+03,   1.02099E+06,   1.02099E+06
C:/temp/Job-2.odb,Step-1,Increment      1: Step Time =    1.000,"P-2-1",          1132,   22.4449E-03,   150.928E-03,            0.,NA,NA,"",   941.695E+03,   1.00960E+06,   1.00960E+06
C:/temp/Job-2.odb,Step-1,Increment      1: Step Time =    1.000,"P-2-1",          1133,   16.7582E-03,   152.237E-03,            0.,NA,NA,"",   922.348E+03,   1.00148E+06,   1.00148E+06
C:/temp/Job-2.odb,Step-1,Increment      1: Step Time =    1.000,"P-2-1",          1134,   9.55986E-03,   150.476E-03,            0.,NA,NA,"",   886.089E+03,   979.307E+03,   979.307E+03
C:/temp/Job-2.odb,Step-1,Increment      1: Step Time =    1.000,"P-2-1",          1135,   4.78555E-03,   150.497E-03,            0.,NA,NA,"",   866.521E+03,   967.396E+03,   967.396E+03
C:/temp/Job-2.odb,Step-1,Increment      1: Step Time =    1.000,"P-2-1",          1136,   195.018E-03,   155.390E-03,            0.,NA,NA,"",   996.690E+03,   1.00068E+06,   1.00068E+06
C:/temp/Job-2.odb,Step-1,Increment      1: Step Time =    1.000,"P-2-1",          1137,   188.763E-03,   154.877E-03,            0.,NA,NA,"",   999.704E+03,   1.00302E+06,   1.00302E+06
C:/temp/Job-2.odb,Step-1,Increment      1: Step Time =    1.000,"P-2-1",          1138,   184.137E-03,   155.799E-03,            0.,NA,NA,"",   1.00397E+06,   1.00561E+06,   1.00561E+06
C:/temp/Job-2.odb,Step-1,Increment      1: Step Time =    1.000,"P-2-1",          1139,   179.009E-03,   156.215E-03,            0.,NA,NA,"",   1.00954E+06,   1.00914E+06,   1.00914E+06
C:/temp/Job-2.odb,Step-1,Increment      1: Step Time =    1.000,"P-2-1",          1140,   172.898E-03,   155.459E-03,            0.,NA,NA,"",   1.01741E+06,   1.01425E+06,   1.01425E+06
C:/temp/Job-2.odb,Step-1,Increment      1: Step Time =    1.000,"P-2-1",          1141,   166.335E-03,   156.940E-03,            0.,NA,NA,"",   1.02642E+06,   1.02014E+06,   1.02014E+06
C:/temp/Job-2.odb,Step-1,Increment      1: Step Time =    1.000,"P-2-1",          1142,   162.323E-03,   157.895E-03,            0.,NA,NA,"",   1.03201E+06,   1.02398E+06,   1.02398E+06
C:/temp/Job-2.odb,Step-1,Increment      1: Step Time =    1.000,"P-2-1",          1143,   156.801E-03,   155.910E-03,            0.,NA,NA,"",   1.04253E+06,   1.03149E+06,   1.03149E+06
C:/temp/Job-2.odb,Step-1,Increment      1: Step Time =    1.000,"P-2-1",          1144,   151.450E-03,   156.991E-03,            0.,NA,NA,"",   1.04993E+06,   1.03735E+06,   1.03735E+06
C:/temp/Job-2.odb,Step-1,Increment      1: Step Time =    1.000,"P-2-1",          1145,   146.813E-03,   157.965E-03,            0.,NA,NA,"",   1.05438E+06,   1.04148E+06,   1.04148E+06
C:/temp/Job-2.odb,Step-1,Increment      1: Step Time =    1.000,"P-2-1",          1146,   140.214E-03,   157.012E-03,            0.,NA,NA,"",   1.06364E+06,   1.05044E+06,   1.05044E+06
C:/temp/Job-2.odb,Step-1,Increment      1: Step Time =    1.000,"P-2-1",          1147,   134.344E-03,   158.760E-03,            0.,NA,NA,"",   1.06031E+06,   1.05080E+06,   1.05080E+06
C:/temp/Job-2.odb,Step-1,Increment      1: Step Time =    1.000,"P-2-1",          1148,   129.698E-03,   156.698E-03,            0.,NA,NA,"",   1.06500E+06,   1.05796E+06,   1.05796E+06
C:/temp/Job-2.odb,Step-1,Increment      1: Step Time =    1.000,"P-2-1",          1149,   124.503E-03,   157.819E-03,            0.,NA,NA,"",   1.05559E+06,   1.05475E+06,   1.05475E+06
C:/temp/Job-2.odb,Step-1,Increment      1: Step Time =    1.000,"P-2-1",          1150,   119.054E-03,   155.573E-03,            0.,NA,NA,"",   1.05298E+06,   1.05962E+06,   1.05962E+06
C:/temp/Job-2.odb,Step-1,Increment      1: Step Time =    1.000,"P-2-1",          1151,   113.196E-03,   157.775E-03,            0.,NA,NA,"",   1.03325E+06,   1.04823E+06,   1.04823E+06
C:/temp/Job-2.odb,Step-1,Increment      1: Step Time =    1.000,"P-2-1",          1152,   108.519E-03,   157.111E-03,            0.,NA,NA,"",   1.02516E+06,   1.04628E+06,   1.04628E+06
C:/temp/Job-2.odb,Step-1,Increment      1: Step Time =    1.000,"P-2-1",          1153,   103.829E-03,   157.086E-03,            0.,NA,NA,"",   1.01838E+06,   1.04370E+06,   1.04370E+06
C:/temp/Job-2.odb,Step-1,Increment      1: Step Time =    1.000,"P-2-1",          1154,   98.4219E-03,   156.629E-03,            0.,NA,NA,"",   1.01781E+06,   1.04537E+06,   1.04537E+06
C:/temp/Job-2.odb,Step-1,Increment      1: Step Time =    1.000,"P-2-1",          1155,   93.0601E-03,   157.110E-03,            0.,NA,NA,"",   1.02343E+06,   1.04855E+06,   1.04855E+06
C:/temp/Job-2.odb,Step-1,Increment      1: Step Time =    1.000,"P-2-1",          1156,   86.5687E-03,   157.123E-03,            0.,NA,NA,"",   1.03674E+06,   1.05594E+06,   1.05594E+06
C:/temp/Job-2.odb,Step-1,Increment      1: Step Time =    1.000,"P-2-1",          1157,   82.1170E-03,   157.628E-03,            0.,NA,NA,"",   1.04584E+06,   1.05967E+06,   1.05967E+06
C:/temp/Job-2.odb,Step-1,Increment      1: Step Time =    1.000,"P-2-1",          1158,   76.3709E-03,   156.390E-03,            0.,NA,NA,"",   1.06025E+06,   1.06892E+06,   1.06892E+06
C:/temp/Job-2.odb,Step-1,Increment      1: Step Time =    1.000,"P-2-1",          1159,   70.5167E-03,   157.920E-03,            0.,NA,NA,"",   1.06303E+06,   1.06797E+06,   1.06797E+06
C:/temp/Job-2.odb,Step-1,Increment      1: Step Time =    1.000,"P-2-1",          1160,   64.4471E-03,   156.890E-03,            0.,NA,NA,"",   1.06580E+06,   1.06981E+06,   1.06981E+06
C:/temp/Job-2.odb,Step-1,Increment      1: Step Time =    1.000,"P-2-1",          1161,   58.6690E-03,   156.386E-03,            0.,NA,NA,"",   1.06113E+06,   1.06740E+06,   1.06740E+06
C:/temp/Job-2.odb,Step-1,Increment      1: Step Time =    1.000,"P-2-1",          1162,   54.2724E-03,   155.131E-03,            0.,NA,NA,"",   1.05423E+06,   1.06429E+06,   1.06429E+06
C:/temp/Job-2.odb,Step-1,Increment      1: Step Time =    1.000,"P-2-1",          1163,   49.1882E-03,   155.085E-03,            0.,NA,NA,"",   1.04295E+06,   1.05881E+06,   1.05881E+06
C:/temp/Job-2.odb,Step-1,Increment      1: Step Time =    1.000,"P-2-1",          1164,   37.7079E-03,   156.105E-03,            0.,NA,NA,"",   1.01334E+06,   1.04686E+06,   1.04686E+06
C:/temp/Job-2.odb,Step-1,Increment      1: Step Time =    1.000,"P-2-1",          1165,   32.1839E-03,   156.219E-03,            0.,NA,NA,"",   995.773E+03,   1.03989E+06,   1.03989E+06
C:/temp/Job-2.odb,Step-1,Increment      1: Step Time =    1.000,"P-2-1",          1166,   27.1787E-03,   156.256E-03,            0.,NA,NA,"",   978.680E+03,   1.03303E+06,   1.03303E+06
C:/temp/Job-2.odb,Step-1,Increment      1: Step Time =    1.000,"P-2-1",          1167,   22.8855E-03,   156.447E-03,            0.,NA,NA,"",   963.785E+03,   1.02701E+06,   1.02701E+06
C:/temp/Job-2.odb,Step-1,Increment      1: Step Time =    1.000,"P-2-1",          1168,   16.1890E-03,   156.446E-03,            0.,NA,NA,"",   936.446E+03,   1.01431E+06,   1.01431E+06
C:/temp/Job-2.odb,Step-1,Increment      1: Step Time =    1.000,"P-2-1",          1169,   9.40042E-03,   155.082E-03,            0.,NA,NA,"",   901.086E+03,   993.626E+03,   993.626E+03
C:/temp/Job-2.odb,Step-1,Increment      1: Step Time =    1.000,"P-2-1",          1170,   4.75171E-03,   155.504E-03,            0.,NA,NA,"",   881.539E+03,   982.376E+03,   982.376E+03
C:/temp/Job-2.odb,Step-1,Increment      1: Step Time =    1.000,"P-2-1",          1171,   194.074E-03,   160.466E-03,            0.,NA,NA,"",   998.612E+03,   1.00088E+06,   1.00088E+06
C:/temp/Job-2.odb,Step-1,Increment      1: Step Time =    1.000,"P-2-1",          1172,   188.160E-03,   161.685E-03,            0.,NA,NA,"",   1.00152E+06,   1.00303E+06,   1.00303E+06
C:/temp/Job-2.odb,Step-1,Increment      1: Step Time =    1.000,"P-2-1",          1173,   185.031E-03,   160.536E-03,            0.,NA,NA,"",   1.00349E+06,   1.00459E+06,   1.00459E+06
C:/temp/Job-2.odb,Step-1,Increment      1: Step Time =    1.000,"P-2-1",          1174,   177.348E-03,   161.905E-03,            0.,NA,NA,"",   1.01052E+06,   1.00914E+06,   1.00914E+06
C:/temp/Job-2.odb,Step-1,Increment      1: Step Time =    1.000,"P-2-1",          1175,   172.263E-03,   162.693E-03,            0.,NA,NA,"",   1.01580E+06,   1.01260E+06,   1.01260E+06
C:/temp/Job-2.odb,Step-1,Increment      1: Step Time =    1.000,"P-2-1",          1176,   167.877E-03,   162.916E-03,            0.,NA,NA,"",   1.02082E+06,   1.01600E+06,   1.01600E+06
C:/temp/Job-2.odb,Step-1,Increment      1: Step Time =    1.000,"P-2-1",          1177,   163.241E-03,   163.024E-03,            0.,NA,NA,"",   1.02599E+06,   1.01958E+06,   1.01958E+06
C:/temp/Job-2.odb,Step-1,Increment      1: Step Time =    1.000,"P-2-1",          1178,   155.606E-03,   161.144E-03,            0.,NA,NA,"",   1.03792E+06,   1.02835E+06,   1.02835E+06
C:/temp/Job-2.odb,Step-1,Increment      1: Step Time =    1.000,"P-2-1",          1179,   150.206E-03,   163.841E-03,            0.,NA,NA,"",   1.03924E+06,   1.02975E+06,   1.02975E+06
C:/temp/Job-2.odb,Step-1,Increment      1: Step Time =    1.000,"P-2-1",          1180,   145.642E-03,   162.643E-03,            0.,NA,NA,"",   1.04562E+06,   1.03527E+06,   1.03527E+06
C:/temp/Job-2.odb,Step-1,Increment      1: Step Time =    1.000,"P-2-1",          1181,   139.789E-03,   163.452E-03,            0.,NA,NA,"",   1.04655E+06,   1.03747E+06,   1.03747E+06
C:/temp/Job-2.odb,Step-1,Increment      1: Step Time =    1.000,"P-2-1",          1182,   133.058E-03,   164.202E-03,            0.,NA,NA,"",   1.04373E+06,   1.03789E+06,   1.03789E+06
C:/temp/Job-2.odb,Step-1,Increment      1: Step Time =    1.000,"P-2-1",          1183,   128.342E-03,   163.693E-03,            0.,NA,NA,"",   1.04178E+06,   1.03900E+06,   1.03900E+06
C:/temp/Job-2.odb,Step-1,Increment      1: Step Time =    1.000,"P-2-1",          1184,   118.788E-03,   162.119E-03,            0.,NA,NA,"",   1.03344E+06,   1.03965E+06,   1.03965E+06
C:/temp/Job-2.odb,Step-1,Increment      1: Step Time =    1.000,"P-2-1",          1185,   114.018E-03,   162.933E-03,            0.,NA,NA,"",   1.02379E+06,   1.03494E+06,   1.03494E+06
C:/temp/Job-2.odb,Step-1,Increment      1: Step Time =    1.000,"P-2-1",          1186,   107.866E-03,   161.047E-03,            0.,NA,NA,"",   1.01734E+06,   1.03556E+06,   1.03556E+06
C:/temp/Job-2.odb,Step-1,Increment      1: Step Time =    1.000,"P-2-1",          1187,   101.752E-03,   163.325E-03,            0.,NA,NA,"",   1.01005E+06,   1.02928E+06,   1.02928E+06
C:/temp/Job-2.odb,Step-1,Increment      1: Step Time =    1.000,"P-2-1",          1188,   97.3194E-03,   161.523E-03,            0.,NA,NA,"",   1.01284E+06,   1.03442E+06,   1.03442E+06
C:/temp/Job-2.odb,Step-1,Increment      1: Step Time =    1.000,"P-2-1",          1189,   92.3180E-03,   162.879E-03,            0.,NA,NA,"",   1.01621E+06,   1.03491E+06,   1.03491E+06
C:/temp/Job-2.odb,Step-1,Increment      1: Step Time =    1.000,"P-2-1",          1190,   86.1301E-03,   163.383E-03,            0.,NA,NA,"",   1.02586E+06,   1.04012E+06,   1.04012E+06
C:/temp/Job-2.odb,Step-1,Increment      1: Step Time =    1.000,"P-2-1",          1191,   82.0478E-03,   163.173E-03,            0.,NA,NA,"",   1.03332E+06,   1.04499E+06,   1.04499E+06
C:/temp/Job-2.odb,Step-1,Increment      1: Step Time =    1.000,"P-2-1",          1192,   75.2619E-03,   161.800E-03,            0.,NA,NA,"",   1.04846E+06,   1.05584E+06,   1.05584E+06
C:/temp/Job-2.odb,Step-1,Increment      1: Step Time =    1.000,"P-2-1",          1193,   71.1742E-03,   162.722E-03,            0.,NA,NA,"",   1.05091E+06,   1.05611E+06,   1.05611E+06
C:/temp/Job-2.odb,Step-1,Increment      1: Step Time =    1.000,"P-2-1",          1194,   63.9277E-03,   163.458E-03,            0.,NA,NA,"",   1.05412E+06,   1.05814E+06,   1.05814E+06
C:/temp/Job-2.odb,Step-1,Increment      1: Step Time =    1.000,"P-2-1",          1195,   59.4201E-03,   164.581E-03,            0.,NA,NA,"",   1.05237E+06,   1.05722E+06,   1.05722E+06
C:/temp/Job-2.odb,Step-1,Increment      1: Step Time =    1.000,"P-2-1",          1196,   54.9599E-03,   162.642E-03,            0.,NA,NA,"",   1.05279E+06,   1.06039E+06,   1.06039E+06
C:/temp/Job-2.odb,Step-1,Increment      1: Step Time =    1.000,"P-2-1",          1197,   48.7247E-03,   161.751E-03,            0.,NA,NA,"",   1.04602E+06,   1.05963E+06,   1.05963E+06
C:/temp/Job-2.odb,Step-1,Increment      1: Step Time =    1.000,"P-2-1",          1198,   42.9758E-03,   161.527E-03,            0.,NA,NA,"",   1.03659E+06,   1.05746E+06,   1.05746E+06
C:/temp/Job-2.odb,Step-1,Increment      1: Step Time =    1.000,"P-2-1",          1199,   37.2199E-03,   163.767E-03,            0.,NA,NA,"",   1.03024E+06,   1.05799E+06,   1.05799E+06
C:/temp/Job-2.odb,Step-1,Increment      1: Step Time =    1.000,"P-2-1",          1200,   31.4114E-03,   162.545E-03,            0.,NA,NA,"",   1.01403E+06,   1.05348E+06,   1.05348E+06
C:/temp/Job-2.odb,Step-1,Increment      1: Step Time =    1.000,"P-2-1",          1201,   26.9779E-03,   161.769E-03,            0.,NA,NA,"",   997.969E+03,   1.04774E+06,   1.04774E+06
C:/temp/Job-2.odb,Step-1,Increment      1: Step Time =    1.000,"P-2-1",          1202,   22.9322E-03,   159.788E-03,            0.,NA,NA,"",   976.945E+03,   1.03719E+06,   1.03719E+06
C:/temp/Job-2.odb,Step-1,Increment      1: Step Time =    1.000,"P-2-1",          1203,   15.8197E-03,   160.236E-03,            0.,NA,NA,"",   949.111E+03,   1.02593E+06,   1.02593E+06
C:/temp/Job-2.odb,Step-1,Increment      1: Step Time =    1.000,"P-2-1",          1204,   9.90105E-03,   162.025E-03,            0.,NA,NA,"",   930.054E+03,   1.01941E+06,   1.01941E+06
C:/temp/Job-2.odb,Step-1,Increment      1: Step Time =    1.000,"P-2-1",          1205,   4.97296E-03,   160.424E-03,            0.,NA,NA,"",   899.216E+03,   999.385E+03,   999.385E+03
C:/temp/Job-2.odb,Step-1,Increment      1: Step Time =    1.000,"P-2-1",          1206,   192.552E-03,   167.923E-03,            0.,NA,NA,"",   1.00024E+06,   1.00104E+06,   1.00104E+06
C:/temp/Job-2.odb,Step-1,Increment      1: Step Time =    1.000,"P-2-1",          1207,   188.418E-03,   167.010E-03,            0.,NA,NA,"",   1.00167E+06,   1.00238E+06,   1.00238E+06
C:/temp/Job-2.odb,Step-1,Increment      1: Step Time =    1.000,"P-2-1",          1208,   183.919E-03,   166.193E-03,            0.,NA,NA,"",   1.00426E+06,   1.00439E+06,   1.00439E+06
C:/temp/Job-2.odb,Step-1,Increment      1: Step Time =    1.000,"P-2-1",          1209,   178.417E-03,   165.998E-03,            0.,NA,NA,"",   1.00852E+06,   1.00736E+06,   1.00736E+06
C:/temp/Job-2.odb,Step-1,Increment      1: Step Time =    1.000,"P-2-1",          1210,   174.400E-03,   167.903E-03,            0.,NA,NA,"",   1.01103E+06,   1.00891E+06,   1.00891E+06
C:/temp/Job-2.odb,Step-1,Increment      1: Step Time =    1.000,"P-2-1",          1211,   167.513E-03,   166.925E-03,            0.,NA,NA,"",   1.01805E+06,   1.01380E+06,   1.01380E+06
C:/temp/Job-2.odb,Step-1,Increment      1: Step Time =    1.000,"P-2-1",          1212,   162.855E-03,   168.326E-03,            0.,NA,NA,"",   1.02118E+06,   1.01588E+06,   1.01588E+06
C:/temp/Job-2.odb,Step-1,Increment      1: Step Time =    1.000,"P-2-1",          1213,   156.427E-03,   166.993E-03,            0.,NA,NA,"",   1.02859E+06,   1.02138E+06,   1.02138E+06
C:/temp/Job-2.odb,Step-1,Increment      1: Step Time =    1.000,"P-2-1",          1214,   150.761E-03,   168.395E-03,            0.,NA,NA,"",   1.03083E+06,   1.02329E+06,   1.02329E+06
C:/temp/Job-2.odb,Step-1,Increment      1: Step Time =    1.000,"P-2-1",          1215,   146.167E-03,   168.680E-03,            0.,NA,NA,"",   1.03222E+06,   1.02475E+06,   1.02475E+06
C:/temp/Job-2.odb,Step-1,Increment      1: Step Time =    1.000,"P-2-1",          1216,   138.612E-03,   168.217E-03,            0.,NA,NA,"",   1.03495E+06,   1.02841E+06,   1.02841E+06
C:/temp/Job-2.odb,Step-1,Increment      1: Step Time =    1.000,"P-2-1",          1217,   134.254E-03,   168.295E-03,            0.,NA,NA,"",   1.03312E+06,   1.02828E+06,   1.02828E+06
C:/temp/Job-2.odb,Step-1,Increment      1: Step Time =    1.000,"P-2-1",          1218,   129.612E-03,   167.892E-03,            0.,NA,NA,"",   1.03135E+06,   1.02872E+06,   1.02872E+06
C:/temp/Job-2.odb,Step-1,Increment      1: Step Time =    1.000,"P-2-1",          1219,   124.036E-03,   167.745E-03,            0.,NA,NA,"",   1.02663E+06,   1.02768E+06,   1.02768E+06
C:/temp/Job-2.odb,Step-1,Increment      1: Step Time =    1.000,"P-2-1",          1220,   119.605E-03,   166.144E-03,            0.,NA,NA,"",   1.02511E+06,   1.02982E+06,   1.02982E+06
C:/temp/Job-2.odb,Step-1,Increment      1: Step Time =    1.000,"P-2-1",          1221,   114.613E-03,   166.907E-03,            0.,NA,NA,"",   1.01646E+06,   1.02546E+06,   1.02546E+06
C:/temp/Job-2.odb,Step-1,Increment      1: Step Time =    1.000,"P-2-1",          1222,   109.566E-03,   168.235E-03,            0.,NA,NA,"",   1.00796E+06,   1.01930E+06,   1.01930E+06
C:/temp/Job-2.odb,Step-1,Increment      1: Step Time =    1.000,"P-2-1",          1223,   104.659E-03,   167.830E-03,            0.,NA,NA,"",   1.00509E+06,   1.01924E+06,   1.01924E+06
C:/temp/Job-2.odb,Step-1,Increment      1: Step Time =    1.000,"P-2-1",          1224,   97.1964E-03,   166.613E-03,            0.,NA,NA,"",   1.00657E+06,   1.02305E+06,   1.02305E+06
C:/temp/Job-2.odb,Step-1,Increment      1: Step Time =    1.000,"P-2-1",          1225,   90.8883E-03,   166.766E-03,            0.,NA,NA,"",   1.01198E+06,   1.02686E+06,   1.02686E+06
C:/temp/Job-2.odb,Step-1,Increment      1: Step Time =    1.000,"P-2-1",          1226,   86.4330E-03,   168.876E-03,            0.,NA,NA,"",   1.01455E+06,   1.02549E+06,   1.02549E+06
C:/temp/Job-2.odb,Step-1,Increment      1: Step Time =    1.000,"P-2-1",          1227,   82.1872E-03,   167.944E-03,            0.,NA,NA,"",   1.02333E+06,   1.03294E+06,   1.03294E+06
C:/temp/Job-2.odb,Step-1,Increment      1: Step Time =    1.000,"P-2-1",          1228,   74.1431E-03,   166.934E-03,            0.,NA,NA,"",   1.03770E+06,   1.04349E+06,   1.04349E+06
C:/temp/Job-2.odb,Step-1,Increment      1: Step Time =    1.000,"P-2-1",          1229,   70.3305E-03,   167.758E-03,            0.,NA,NA,"",   1.04043E+06,   1.04471E+06,   1.04471E+06
C:/temp/Job-2.odb,Step-1,Increment      1: Step Time =    1.000,"P-2-1",          1230,   64.5971E-03,   169.218E-03,            0.,NA,NA,"",   1.04226E+06,   1.04554E+06,   1.04554E+06
C:/temp/Job-2.odb,Step-1,Increment      1: Step Time =    1.000,"P-2-1",          1231,   58.5460E-03,   169.168E-03,            0.,NA,NA,"",   1.04577E+06,   1.04992E+06,   1.04992E+06
C:/temp/Job-2.odb,Step-1,Increment      1: Step Time =    1.000,"P-2-1",          1232,   51.9325E-03,   168.311E-03,            0.,NA,NA,"",   1.04750E+06,   1.05535E+06,   1.05535E+06
C:/temp/Job-2.odb,Step-1,Increment      1: Step Time =    1.000,"P-2-1",          1233,   48.1475E-03,   167.636E-03,            0.,NA,NA,"",   1.04694E+06,   1.05783E+06,   1.05783E+06
C:/temp/Job-2.odb,Step-1,Increment      1: Step Time =    1.000,"P-2-1",          1234,   43.7687E-03,   165.770E-03,            0.,NA,NA,"",   1.04263E+06,   1.05961E+06,   1.05961E+06
C:/temp/Job-2.odb,Step-1,Increment      1: Step Time =    1.000,"P-2-1",          1235,   39.7720E-03,   166.495E-03,            0.,NA,NA,"",   1.03874E+06,   1.06053E+06,   1.06053E+06
C:/temp/Job-2.odb,Step-1,Increment      1: Step Time =    1.000,"P-2-1",          1236,   34.0015E-03,   167.610E-03,            0.,NA,NA,"",   1.03383E+06,   1.06298E+06,   1.06298E+06
C:/temp/Job-2.odb,Step-1,Increment      1: Step Time =    1.000,"P-2-1",          1237,   28.3922E-03,   167.436E-03,            0.,NA,NA,"",   1.02296E+06,   1.06310E+06,   1.06310E+06
C:/temp/Job-2.odb,Step-1,Increment      1: Step Time =    1.000,"P-2-1",          1238,   21.9754E-03,   166.855E-03,            0.,NA,NA,"",   1.00329E+06,   1.05879E+06,   1.05879E+06
C:/temp/Job-2.odb,Step-1,Increment      1: Step Time =    1.000,"P-2-1",          1239,   14.7181E-03,   167.958E-03,            0.,NA,NA,"",   981.076E+03,   1.05438E+06,   1.05438E+06
C:/temp/Job-2.odb,Step-1,Increment      1: Step Time =    1.000,"P-2-1",          1240,   10.7992E-03,   167.469E-03,            0.,NA,NA,"",   959.648E+03,   1.04408E+06,   1.04408E+06
C:/temp/Job-2.odb,Step-1,Increment      1: Step Time =    1.000,"P-2-1",          1241,   6.82101E-03,   167.056E-03,            0.,NA,NA,"",   936.848E+03,   1.03170E+06,   1.03170E+06
C:/temp/Job-2.odb,Step-1,Increment      1: Step Time =    1.000,"P-2-1",          1242,   194.121E-03,   172.868E-03,            0.,NA,NA,"",   1.00031E+06,   1.00051E+06,   1.00051E+06
C:/temp/Job-2.odb,Step-1,Increment      1: Step Time =    1.000,"P-2-1",          1243,   188.832E-03,   174.179E-03,            0.,NA,NA,"",   1.00131E+06,   1.00146E+06,   1.00146E+06
C:/temp/Job-2.odb,Step-1,Increment      1: Step Time =    1.000,"P-2-1",          1244,   183.560E-03,   173.910E-03,            0.,NA,NA,"",   1.00321E+06,   1.00297E+06,   1.00297E+06
C:/temp/Job-2.odb,Step-1,Increment      1: Step Time =    1.000,"P-2-1",          1245,   178.293E-03,   173.950E-03,            0.,NA,NA,"",   1.00577E+06,   1.00477E+06,   1.00477E+06
C:/temp/Job-2.odb,Step-1,Increment      1: Step Time =    1.000,"P-2-1",          1246,   172.930E-03,   173.275E-03,            0.,NA,NA,"",   1.00924E+06,   1.00721E+06,   1.00721E+06
C:/temp/Job-2.odb,Step-1,Increment      1: Step Time =    1.000,"P-2-1",          1247,   167.134E-03,   171.792E-03,            0.,NA,NA,"",   1.01426E+06,   1.01077E+06,   1.01077E+06
C:/temp/Job-2.odb,Step-1,Increment      1: Step Time =    1.000,"P-2-1",          1248,   161.824E-03,   172.969E-03,            0.,NA,NA,"",   1.01651E+06,   1.01219E+06,   1.01219E+06
C:/temp/Job-2.odb,Step-1,Increment      1: Step Time =    1.000,"P-2-1",          1249,   156.296E-03,   172.795E-03,            0.,NA,NA,"",   1.02007E+06,   1.01477E+06,   1.01477E+06
C:/temp/Job-2.odb,Step-1,Increment      1: Step Time =    1.000,"P-2-1",          1250,   151.121E-03,   171.258E-03,            0.,NA,NA,"",   1.02514E+06,   1.01881E+06,   1.01881E+06
C:/temp/Job-2.odb,Step-1,Increment      1: Step Time =    1.000,"P-2-1",          1251,   146.587E-03,   173.473E-03,            0.,NA,NA,"",   1.02220E+06,   1.01664E+06,   1.01664E+06
C:/temp/Job-2.odb,Step-1,Increment      1: Step Time =    1.000,"P-2-1",          1252,   138.922E-03,   173.965E-03,            0.,NA,NA,"",   1.02067E+06,   1.01624E+06,   1.01624E+06
C:/temp/Job-2.odb,Step-1,Increment      1: Step Time =    1.000,"P-2-1",          1253,   134.048E-03,   173.066E-03,            0.,NA,NA,"",   1.02095E+06,   1.01762E+06,   1.01762E+06
C:/temp/Job-2.odb,Step-1,Increment      1: Step Time =    1.000,"P-2-1",          1254,   129.106E-03,   173.207E-03,            0.,NA,NA,"",   1.01737E+06,   1.01591E+06,   1.01591E+06
C:/temp/Job-2.odb,Step-1,Increment      1: Step Time =    1.000,"P-2-1",          1255,   126.008E-03,   172.073E-03,            0.,NA,NA,"",   1.01781E+06,   1.01776E+06,   1.01776E+06
C:/temp/Job-2.odb,Step-1,Increment      1: Step Time =    1.000,"P-2-1",          1256,   119.549E-03,   171.839E-03,            0.,NA,NA,"",   1.01149E+06,   1.01513E+06,   1.01513E+06
C:/temp/Job-2.odb,Step-1,Increment      1: Step Time =    1.000,"P-2-1",          1257,   113.774E-03,   173.444E-03,            0.,NA,NA,"",   1.00202E+06,   1.00857E+06,   1.00857E+06
C:/temp/Job-2.odb,Step-1,Increment      1: Step Time =    1.000,"P-2-1",          1258,   108.032E-03,   174.361E-03,            0.,NA,NA,"",   995.896E+03,   1.00421E+06,   1.00421E+06
C:/temp/Job-2.odb,Step-1,Increment      1: Step Time =    1.000,"P-2-1",          1259,   103.372E-03,   172.785E-03,            0.,NA,NA,"",   996.673E+03,   1.00736E+06,   1.00736E+06
C:/temp/Job-2.odb,Step-1,Increment      1: Step Time =    1.000,"P-2-1",          1260,   96.2579E-03,   173.186E-03,            0.,NA,NA,"",   996.985E+03,   1.00789E+06,   1.00789E+06
C:/temp/Job-2.odb,Step-1,Increment      1: Step Time =    1.000,"P-2-1",          1261,   91.0150E-03,   172.802E-03,            0.,NA,NA,"",   1.00154E+06,   1.01196E+06,   1.01196E+06
C:/temp/Job-2.odb,Step-1,Increment      1: Step Time =    1.000,"P-2-1",          1262,   86.7582E-03,   172.844E-03,            0.,NA,NA,"",   1.00633E+06,   1.01519E+06,   1.01519E+06
C:/temp/Job-2.odb,Step-1,Increment      1: Step Time =    1.000,"P-2-1",          1263,   79.7425E-03,   172.720E-03,            0.,NA,NA,"",   1.01614E+06,   1.02248E+06,   1.02248E+06
C:/temp/Job-2.odb,Step-1,Increment      1: Step Time =    1.000,"P-2-1",          1264,   75.7599E-03,   172.016E-03,            0.,NA,NA,"",   1.02349E+06,   1.02855E+06,   1.02855E+06
C:/temp/Job-2.odb,Step-1,Increment      1: Step Time =    1.000,"P-2-1",          1265,   70.5499E-03,   172.558E-03,            0.,NA,NA,"",   1.02908E+06,   1.03254E+06,   1.03254E+06
C:/temp/Job-2.odb,Step-1,Increment      1: Step Time =    1.000,"P-2-1",          1266,   64.2997E-03,   173.175E-03,            0.,NA,NA,"",   1.03439E+06,   1.03701E+06,   1.03701E+06
C:/temp/Job-2.odb,Step-1,Increment      1: Step Time =    1.000,"P-2-1",          1267,   59.9037E-03,   173.391E-03,            0.,NA,NA,"",   1.03742E+06,   1.04041E+06,   1.04041E+06
C:/temp/Job-2.odb,Step-1,Increment      1: Step Time =    1.000,"P-2-1",          1268,   49.9142E-03,   173.370E-03,            0.,NA,NA,"",   1.04367E+06,   1.05043E+06,   1.05043E+06
C:/temp/Job-2.odb,Step-1,Increment      1: Step Time =    1.000,"P-2-1",          1269,   44.4556E-03,   172.735E-03,            0.,NA,NA,"",   1.04604E+06,   1.05718E+06,   1.05718E+06
C:/temp/Job-2.odb,Step-1,Increment      1: Step Time =    1.000,"P-2-1",          1270,   37.6742E-03,   171.795E-03,            0.,NA,NA,"",   1.04468E+06,   1.06418E+06,   1.06418E+06
C:/temp/Job-2.odb,Step-1,Increment      1: Step Time =    1.000,"P-2-1",          1271,   30.6579E-03,   173.385E-03,            0.,NA,NA,"",   1.04500E+06,   1.07303E+06,   1.07303E+06
C:/temp/Job-2.odb,Step-1,Increment      1: Step Time =    1.000,"P-2-1",          1272,   25.7330E-03,   172.902E-03,            0.,NA,NA,"",   1.03843E+06,   1.07690E+06,   1.07690E+06
C:/temp/Job-2.odb,Step-1,Increment      1: Step Time =    1.000,"P-2-1",          1273,   20.7962E-03,   173.975E-03,            0.,NA,NA,"",   1.03643E+06,   1.08467E+06,   1.08467E+06
C:/temp/Job-2.odb,Step-1,Increment      1: Step Time =    1.000,"P-2-1",          1274,   15.1498E-03,   173.768E-03,            0.,NA,NA,"",   1.01722E+06,   1.08256E+06,   1.08256E+06
C:/temp/Job-2.odb,Step-1,Increment      1: Step Time =    1.000,"P-2-1",          1275,   11.6228E-03,   173.029E-03,            0.,NA,NA,"",   997.217E+03,   1.07438E+06,   1.07438E+06
C:/temp/Job-2.odb,Step-1,Increment      1: Step Time =    1.000,"P-2-1",          1276,   5.66325E-03,   174.386E-03,            0.,NA,NA,"",   971.370E+03,   1.06667E+06,   1.06667E+06
C:/temp/Job-2.odb,Step-1,Increment      1: Step Time =    1.000,"P-2-1",          1277,   193.753E-03,   178.744E-03,            0.,NA,NA,"",   1.00041E+06,   1.00033E+06,   1.00033E+06
C:/temp/Job-2.odb,Step-1,Increment      1: Step Time =    1.000,"P-2-1",          1278,   188.930E-03,   178.570E-03,            0.,NA,NA,"",   1.00097E+06,   1.00096E+06,   1.00096E+06
C:/temp/Job-2.odb,Step-1,Increment      1: Step Time =    1.000,"P-2-1",          1279,   183.766E-03,   178.644E-03,            0.,NA,NA,"",   1.00222E+06,   1.00196E+06,   1.00196E+06
C:/temp/Job-2.odb,Step-1,Increment      1: Step Time =    1.000,"P-2-1",          1280,   177.722E-03,   179.877E-03,            0.,NA,NA,"",   1.00376E+06,   1.00295E+06,   1.00295E+06
C:/temp/Job-2.odb,Step-1,Increment      1: Step Time =    1.000,"P-2-1",          1281,   174.099E-03,   178.758E-03,            0.,NA,NA,"",   1.00549E+06,   1.00418E+06,   1.00418E+06
C:/temp/Job-2.odb,Step-1,Increment      1: Step Time =    1.000,"P-2-1",          1282,   166.916E-03,   177.941E-03,            0.,NA,NA,"",   1.00890E+06,   1.00648E+06,   1.00648E+06
C:/temp/Job-2.odb,Step-1,Increment      1: Step Time =    1.000,"P-2-1",          1283,   160.146E-03,   177.121E-03,            0.,NA,NA,"",   1.01249E+06,   1.00894E+06,   1.00894E+06
C:/temp/Job-2.odb,Step-1,Increment      1: Step Time =    1.000,"P-2-1",          1284,   155.834E-03,   177.700E-03,            0.,NA,NA,"",   1.01285E+06,   1.00903E+06,   1.00903E+06
C:/temp/Job-2.odb,Step-1,Increment      1: Step Time =    1.000,"P-2-1",          1285,   150.746E-03,   177.321E-03,            0.,NA,NA,"",   1.01456E+06,   1.01031E+06,   1.01031E+06
C:/temp/Job-2.odb,Step-1,Increment      1: Step Time =    1.000,"P-2-1",          1286,   145.746E-03,   178.252E-03,            0.,NA,NA,"",   1.01263E+06,   1.00875E+06,   1.00875E+06
C:/temp/Job-2.odb,Step-1,Increment      1: Step Time =    1.000,"P-2-1",          1287,   140.070E-03,   179.135E-03,            0.,NA,NA,"",   1.00936E+06,   1.00624E+06,   1.00624E+06
C:/temp/Job-2.odb,Step-1,Increment      1: Step Time =    1.000,"P-2-1",          1288,   135.028E-03,   179.612E-03,            0.,NA,NA,"",   1.00589E+06,   1.00370E+06,   1.00370E+06
C:/temp/Job-2.odb,Step-1,Increment      1: Step Time =    1.000,"P-2-1",          1289,   130.922E-03,   180.072E-03,            0.,NA,NA,"",   1.00254E+06,   1.00131E+06,   1.00131E+06
C:/temp/Job-2.odb,Step-1,Increment      1: Step Time =    1.000,"P-2-1",          1290,   125.131E-03,   177.587E-03,            0.,NA,NA,"",   1.00362E+06,   1.00403E+06,   1.00403E+06
C:/temp/Job-2.odb,Step-1,Increment      1: Step Time =    1.000,"P-2-1",          1291,   118.376E-03,   180.205E-03,            0.,NA,NA,"",   991.429E+03,   993.900E+03,   993.900E+03
C:/temp/Job-2.odb,Step-1,Increment      1: Step Time =    1.000,"P-2-1",          1292,   114.035E-03,   177.171E-03,            0.,NA,NA,"",   994.346E+03,   999.277E+03,   999.277E+03
C:/temp/Job-2.odb,Step-1,Increment      1: Step Time =    1.000,"P-2-1",          1293,   107.016E-03,   178.763E-03,            0.,NA,NA,"",   986.637E+03,   992.705E+03,   992.705E+03
C:/temp/Job-2.odb,Step-1,Increment      1: Step Time =    1.000,"P-2-1",          1294,   102.612E-03,   176.257E-03,            0.,NA,NA,"",   990.514E+03,   999.058E+03,   999.058E+03
C:/temp/Job-2.odb,Step-1,Increment      1: Step Time =    1.000,"P-2-1",          1295,   97.7529E-03,   178.070E-03,            0.,NA,NA,"",   987.220E+03,   994.815E+03,   994.815E+03
C:/temp/Job-2.odb,Step-1,Increment      1: Step Time =    1.000,"P-2-1",          1296,   90.3297E-03,   178.625E-03,            0.,NA,NA,"",   989.956E+03,   996.527E+03,   996.527E+03
C:/temp/Job-2.odb,Step-1,Increment      1: Step Time =    1.000,"P-2-1",          1297,   87.2197E-03,   177.486E-03,            0.,NA,NA,"",   995.588E+03,   1.00213E+06,   1.00213E+06
C:/temp/Job-2.odb,Step-1,Increment      1: Step Time =    1.000,"P-2-1",          1298,   81.8925E-03,   177.810E-03,            0.,NA,NA,"",   1.00056E+06,   1.00550E+06,   1.00550E+06
C:/temp/Job-2.odb,Step-1,Increment      1: Step Time =    1.000,"P-2-1",          1299,   76.1280E-03,   178.670E-03,            0.,NA,NA,"",   1.00541E+06,   1.00859E+06,   1.00859E+06
C:/temp/Job-2.odb,Step-1,Increment      1: Step Time =    1.000,"P-2-1",          1300,   69.3797E-03,   177.179E-03,            0.,NA,NA,"",   1.01793E+06,   1.02017E+06,   1.02017E+06
C:/temp/Job-2.odb,Step-1,Increment      1: Step Time =    1.000,"P-2-1",          1301,   64.3389E-03,   178.692E-03,            0.,NA,NA,"",   1.02034E+06,   1.02197E+06,   1.02197E+06
C:/temp/Job-2.odb,Step-1,Increment      1: Step Time =    1.000,"P-2-1",          1302,   59.9992E-03,   177.836E-03,            0.,NA,NA,"",   1.02792E+06,   1.02995E+06,   1.02995E+06
C:/temp/Job-2.odb,Step-1,Increment      1: Step Time =    1.000,"P-2-1",          1303,   55.5964E-03,   177.010E-03,            0.,NA,NA,"",   1.03429E+06,   1.03736E+06,   1.03736E+06
C:/temp/Job-2.odb,Step-1,Increment      1: Step Time =    1.000,"P-2-1",          1304,   47.8281E-03,   179.140E-03,            0.,NA,NA,"",   1.03839E+06,   1.04346E+06,   1.04346E+06
C:/temp/Job-2.odb,Step-1,Increment      1: Step Time =    1.000,"P-2-1",          1305,   43.7727E-03,   178.947E-03,            0.,NA,NA,"",   1.04317E+06,   1.05059E+06,   1.05059E+06
C:/temp/Job-2.odb,Step-1,Increment      1: Step Time =    1.000,"P-2-1",          1306,   38.0132E-03,   177.049E-03,            0.,NA,NA,"",   1.04987E+06,   1.06356E+06,   1.06356E+06
C:/temp/Job-2.odb,Step-1,Increment      1: Step Time =    1.000,"P-2-1",          1307,   33.5769E-03,   178.118E-03,            0.,NA,NA,"",   1.05429E+06,   1.07183E+06,   1.07183E+06
C:/temp/Job-2.odb,Step-1,Increment      1: Step Time =    1.000,"P-2-1",          1308,   25.8319E-03,   178.385E-03,            0.,NA,NA,"",   1.06077E+06,   1.08997E+06,   1.08997E+06
C:/temp/Job-2.odb,Step-1,Increment      1: Step Time =    1.000,"P-2-1",          1309,   19.3600E-03,   177.509E-03,            0.,NA,NA,"",   1.05408E+06,   1.09957E+06,   1.09957E+06
C:/temp/Job-2.odb,Step-1,Increment      1: Step Time =    1.000,"P-2-1",          1310,   14.9760E-03,   178.924E-03,            0.,NA,NA,"",   1.05722E+06,   1.11396E+06,   1.11396E+06
C:/temp/Job-2.odb,Step-1,Increment      1: Step Time =    1.000,"P-2-1",          1311,   9.84192E-03,   180.550E-03,            0.,NA,NA,"",   1.05179E+06,   1.12534E+06,   1.12534E+06
C:/temp/Job-2.odb,Step-1,Increment      1: Step Time =    1.000,"P-2-1",          1312,   4.76425E-03,   179.392E-03,            0.,NA,NA,"",   1.00528E+06,   1.10117E+06,   1.10117E+06
C:/temp/Job-2.odb,Step-1,Increment      1: Step Time =    1.000,"P-2-1",          1313,   195.474E-03,   184.008E-03,            0.,NA,NA,"",   1.00030E+06,   1.00008E+06,   1.00008E+06
C:/temp/Job-2.odb,Step-1,Increment      1: Step Time =    1.000,"P-2-1",          1314,   188.353E-03,   183.101E-03,            0.,NA,NA,"",   1.00067E+06,   1.00058E+06,   1.00058E+06
C:/temp/Job-2.odb,Step-1,Increment      1: Step Time =    1.000,"P-2-1",          1315,   183.613E-03,   182.656E-03,            0.,NA,NA,"",   1.00144E+06,   1.00119E+06,   1.00119E+06
C:/temp/Job-2.odb,Step-1,Increment      1: Step Time =    1.000,"P-2-1",          1316,   179.664E-03,   183.842E-03,            0.,NA,NA,"",   1.00177E+06,   1.00135E+06,   1.00135E+06
C:/temp/Job-2.odb,Step-1,Increment      1: Step Time =    1.000,"P-2-1",          1317,   174.134E-03,   184.585E-03,            0.,NA,NA,"",   1.00242E+06,   1.00165E+06,   1.00165E+06
C:/temp/Job-2.odb,Step-1,Increment      1: Step Time =    1.000,"P-2-1",          1318,   168.127E-03,   185.199E-03,            0.,NA,NA,"",   1.00277E+06,   1.00163E+06,   1.00163E+06
C:/temp/Job-2.odb,Step-1,Increment      1: Step Time =    1.000,"P-2-1",          1319,   160.440E-03,   184.021E-03,            0.,NA,NA,"",   1.00413E+06,   1.00224E+06,   1.00224E+06
C:/temp/Job-2.odb,Step-1,Increment      1: Step Time =    1.000,"P-2-1",          1320,   156.654E-03,   183.407E-03,            0.,NA,NA,"",   1.00493E+06,   1.00267E+06,   1.00267E+06
C:/temp/Job-2.odb,Step-1,Increment      1: Step Time =    1.000,"P-2-1",          1321,   152.119E-03,   182.626E-03,            0.,NA,NA,"",   1.00569E+06,   1.00305E+06,   1.00305E+06
C:/temp/Job-2.odb,Step-1,Increment      1: Step Time =    1.000,"P-2-1",          1322,   145.633E-03,   184.522E-03,            0.,NA,NA,"",   1.00087E+06,   998.728E+03,   998.728E+03
C:/temp/Job-2.odb,Step-1,Increment      1: Step Time =    1.000,"P-2-1",          1323,   140.373E-03,   184.460E-03,            0.,NA,NA,"",   998.517E+03,   996.628E+03,   996.628E+03
C:/temp/Job-2.odb,Step-1,Increment      1: Step Time =    1.000,"P-2-1",          1324,   135.169E-03,   184.588E-03,            0.,NA,NA,"",   994.950E+03,   993.580E+03,   993.580E+03
C:/temp/Job-2.odb,Step-1,Increment      1: Step Time =    1.000,"P-2-1",          1325,   130.131E-03,   184.641E-03,            0.,NA,NA,"",   990.832E+03,   990.202E+03,   990.202E+03
C:/temp/Job-2.odb,Step-1,Increment      1: Step Time =    1.000,"P-2-1",          1326,   124.857E-03,   183.773E-03,            0.,NA,NA,"",   988.510E+03,    988.83E+03,    988.83E+03
C:/temp/Job-2.odb,Step-1,Increment      1: Step Time =    1.000,"P-2-1",          1327,   119.527E-03,   185.109E-03,            0.,NA,NA,"",   980.485E+03,   981.764E+03,   981.764E+03
C:/temp/Job-2.odb,Step-1,Increment      1: Step Time =    1.000,"P-2-1",          1328,   112.758E-03,   183.409E-03,            0.,NA,NA,"",   979.369E+03,   982.477E+03,   982.477E+03
C:/temp/Job-2.odb,Step-1,Increment      1: Step Time =    1.000,"P-2-1",          1329,   108.712E-03,   182.790E-03,            0.,NA,NA,"",   978.383E+03,   982.405E+03,   982.405E+03
C:/temp/Job-2.odb,Step-1,Increment      1: Step Time =    1.000,"P-2-1",          1330,   103.730E-03,   184.151E-03,            0.,NA,NA,"",   973.464E+03,   977.499E+03,   977.499E+03
C:/temp/Job-2.odb,Step-1,Increment      1: Step Time =    1.000,"P-2-1",          1331,   96.9647E-03,   183.407E-03,            0.,NA,NA,"",   975.168E+03,   979.826E+03,   979.826E+03
C:/temp/Job-2.odb,Step-1,Increment      1: Step Time =    1.000,"P-2-1",          1332,   92.0191E-03,   183.211E-03,            0.,NA,NA,"",   977.684E+03,   982.118E+03,   982.118E+03
C:/temp/Job-2.odb,Step-1,Increment      1: Step Time =    1.000,"P-2-1",          1333,   86.8987E-03,   183.062E-03,            0.,NA,NA,"",   981.720E+03,   985.606E+03,   985.606E+03
C:/temp/Job-2.odb,Step-1,Increment      1: Step Time =    1.000,"P-2-1",          1334,   83.2401E-03,   184.123E-03,            0.,NA,NA,"",   982.097E+03,   984.852E+03,   984.852E+03
C:/temp/Job-2.odb,Step-1,Increment      1: Step Time =    1.000,"P-2-1",          1335,   74.3111E-03,   183.757E-03,            0.,NA,NA,"",   993.279E+03,   994.943E+03,   994.943E+03
C:/temp/Job-2.odb,Step-1,Increment      1: Step Time =    1.000,"P-2-1",          1336,   69.9551E-03,   184.766E-03,            0.,NA,NA,"",   995.336E+03,   996.311E+03,   996.311E+03
C:/temp/Job-2.odb,Step-1,Increment      1: Step Time =    1.000,"P-2-1",          1337,   65.6009E-03,   183.028E-03,            0.,NA,NA,"",   1.00681E+06,   1.00780E+06,   1.00780E+06
C:/temp/Job-2.odb,Step-1,Increment      1: Step Time =    1.000,"P-2-1",          1338,   61.4971E-03,   183.218E-03,            0.,NA,NA,"",   1.01098E+06,   1.01186E+06,   1.01186E+06
C:/temp/Job-2.odb,Step-1,Increment      1: Step Time =    1.000,"P-2-1",          1339,   54.0987E-03,   183.482E-03,            0.,NA,NA,"",   1.02083E+06,   1.02240E+06,   1.02240E+06
C:/temp/Job-2.odb,Step-1,Increment      1: Step Time =    1.000,"P-2-1",          1340,   48.9711E-03,   184.950E-03,            0.,NA,NA,"",   1.02424E+06,   1.02660E+06,   1.02660E+06
C:/temp/Job-2.odb,Step-1,Increment      1: Step Time =    1.000,"P-2-1",          1341,   43.8503E-03,   184.070E-03,            0.,NA,NA,"",   1.03551E+06,   1.03986E+06,   1.03986E+06
C:/temp/Job-2.odb,Step-1,Increment      1: Step Time =    1.000,"P-2-1",          1342,   39.3384E-03,   184.972E-03,            0.,NA,NA,"",   1.04246E+06,   1.04806E+06,   1.04806E+06
C:/temp/Job-2.odb,Step-1,Increment      1: Step Time =    1.000,"P-2-1",          1343,   33.8146E-03,   183.966E-03,            0.,NA,NA,"",   1.05689E+06,   1.06693E+06,   1.06693E+06
C:/temp/Job-2.odb,Step-1,Increment      1: Step Time =    1.000,"P-2-1",          1344,   26.2454E-03,   183.912E-03,            0.,NA,NA,"",   1.07730E+06,   1.09505E+06,   1.09505E+06
C:/temp/Job-2.odb,Step-1,Increment      1: Step Time =    1.000,"P-2-1",          1345,   21.5385E-03,   184.073E-03,            0.,NA,NA,"",   1.08717E+06,   1.11318E+06,   1.11318E+06
C:/temp/Job-2.odb,Step-1,Increment      1: Step Time =    1.000,"P-2-1",          1346,   15.9664E-03,   183.930E-03,            0.,NA,NA,"",   1.09659E+06,   1.13736E+06,   1.13736E+06
C:/temp/Job-2.odb,Step-1,Increment      1: Step Time =    1.000,"P-2-1",          1347,   10.7147E-03,   185.590E-03,            0.,NA,NA,"",   1.11460E+06,   1.17077E+06,   1.17077E+06
C:/temp/Job-2.odb,Step-1,Increment      1: Step Time =    1.000,"P-2-1",          1348,   4.45833E-03,   184.185E-03,            0.,NA,NA,"",   1.05636E+06,   1.15016E+06,   1.15016E+06
C:/temp/Job-2.odb,Step-1,Increment      1: Step Time =    1.000,"P-2-1",          1349,   195.148E-03,   188.854E-03,            0.,NA,NA,"",   1.00014E+06,   999.996E+03,   999.996E+03
C:/temp/Job-2.odb,Step-1,Increment      1: Step Time =    1.000,"P-2-1",          1350,   189.893E-03,   188.867E-03,            0.,NA,NA,"",   1.00008E+06,   1.00000E+06,   1.00000E+06
C:/temp/Job-2.odb,Step-1,Increment      1: Step Time =    1.000,"P-2-1",          1351,   185.273E-03,   189.313E-03,            0.,NA,NA,"",   1.00011E+06,   1.00002E+06,   1.00002E+06
C:/temp/Job-2.odb,Step-1,Increment      1: Step Time =    1.000,"P-2-1",          1352,   180.615E-03,   189.871E-03,            0.,NA,NA,"",   1.00009E+06,   999.935E+03,   999.935E+03
C:/temp/Job-2.odb,Step-1,Increment      1: Step Time =    1.000,"P-2-1",          1353,   173.432E-03,   188.293E-03,            0.,NA,NA,"",   1.00077E+06,   1.00027E+06,   1.00027E+06
C:/temp/Job-2.odb,Step-1,Increment      1: Step Time =    1.000,"P-2-1",          1354,   167.596E-03,   189.167E-03,            0.,NA,NA,"",   1.00018E+06,   999.509E+03,   999.509E+03
C:/temp/Job-2.odb,Step-1,Increment      1: Step Time =    1.000,"P-2-1",          1355,   162.066E-03,   190.043E-03,            0.,NA,NA,"",   998.879E+03,   998.103E+03,   998.103E+03
C:/temp/Job-2.odb,Step-1,Increment      1: Step Time =    1.000,"P-2-1",          1356,   155.053E-03,   190.480E-03,            0.,NA,NA,"",   996.446E+03,   995.554E+03,   995.554E+03
C:/temp/Job-2.odb,Step-1,Increment      1: Step Time =    1.000,"P-2-1",          1357,   150.405E-03,   190.306E-03,            0.,NA,NA,"",   994.413E+03,   993.443E+03,   993.443E+03
C:/temp/Job-2.odb,Step-1,Increment      1: Step Time =    1.000,"P-2-1",          1358,   145.471E-03,   189.916E-03,            0.,NA,NA,"",   991.910E+03,   990.906E+03,   990.906E+03
C:/temp/Job-2.odb,Step-1,Increment      1: Step Time =    1.000,"P-2-1",          1359,   140.340E-03,   189.721E-03,            0.,NA,NA,"",   988.549E+03,   987.627E+03,   987.627E+03
C:/temp/Job-2.odb,Step-1,Increment      1: Step Time =    1.000,"P-2-1",          1360,   135.128E-03,   189.684E-03,            0.,NA,NA,"",   984.189E+03,   983.505E+03,   983.505E+03
C:/temp/Job-2.odb,Step-1,Increment      1: Step Time =    1.000,"P-2-1",          1361,   129.931E-03,   189.684E-03,            0.,NA,NA,"",   979.242E+03,   978.939E+03,   978.939E+03
C:/temp/Job-2.odb,Step-1,Increment      1: Step Time =    1.000,"P-2-1",          1362,   124.773E-03,   189.717E-03,            0.,NA,NA,"",   973.824E+03,   973.957E+03,   973.957E+03
C:/temp/Job-2.odb,Step-1,Increment      1: Step Time =    1.000,"P-2-1",          1363,   119.739E-03,   190.051E-03,            0.,NA,NA,"",   968.063E+03,   968.644E+03,   968.644E+03
C:/temp/Job-2.odb,Step-1,Increment      1: Step Time =    1.000,"P-2-1",          1364,   114.771E-03,   190.278E-03,            0.,NA,NA,"",   962.928E+03,   963.937E+03,   963.937E+03
C:/temp/Job-2.odb,Step-1,Increment      1: Step Time =    1.000,"P-2-1",          1365,   109.595E-03,   189.830E-03,            0.,NA,NA,"",   960.497E+03,   962.027E+03,   962.027E+03
C:/temp/Job-2.odb,Step-1,Increment      1: Step Time =    1.000,"P-2-1",          1366,   103.526E-03,   189.753E-03,            0.,NA,NA,"",   957.710E+03,   959.508E+03,   959.508E+03
C:/temp/Job-2.odb,Step-1,Increment      1: Step Time =    1.000,"P-2-1",          1367,   97.0271E-03,   188.457E-03,            0.,NA,NA,"",   961.038E+03,   963.405E+03,   963.405E+03
C:/temp/Job-2.odb,Step-1,Increment      1: Step Time =    1.000,"P-2-1",          1368,   91.8801E-03,   188.720E-03,            0.,NA,NA,"",   961.616E+03,   963.777E+03,   963.777E+03
C:/temp/Job-2.odb,Step-1,Increment      1: Step Time =    1.000,"P-2-1",          1369,   86.9146E-03,   188.512E-03,            0.,NA,NA,"",   965.318E+03,   967.187E+03,   967.187E+03
C:/temp/Job-2.odb,Step-1,Increment      1: Step Time =    1.000,"P-2-1",          1370,   81.0365E-03,   188.866E-03,            0.,NA,NA,"",   968.696E+03,   969.961E+03,   969.961E+03
C:/temp/Job-2.odb,Step-1,Increment      1: Step Time =    1.000,"P-2-1",          1371,   75.1167E-03,   189.655E-03,            0.,NA,NA,"",   972.514E+03,   973.226E+03,   973.226E+03
C:/temp/Job-2.odb,Step-1,Increment      1: Step Time =    1.000,"P-2-1",          1372,   70.2798E-03,   189.911E-03,            0.,NA,NA,"",   977.505E+03,   977.903E+03,   977.903E+03
C:/temp/Job-2.odb,Step-1,Increment      1: Step Time =    1.000,"P-2-1",          1373,   65.7001E-03,   187.583E-03,            0.,NA,NA,"",   991.796E+03,   992.239E+03,   992.239E+03
C:/temp/Job-2.odb,Step-1,Increment      1: Step Time =    1.000,"P-2-1",          1374,   59.7226E-03,   188.278E-03,            0.,NA,NA,"",   997.271E+03,   997.522E+03,   997.522E+03
C:/temp/Job-2.odb,Step-1,Increment      1: Step Time =    1.000,"P-2-1",          1375,   53.3603E-03,   188.015E-03,            0.,NA,NA,"",   1.00859E+06,   1.00933E+06,   1.00933E+06
C:/temp/Job-2.odb,Step-1,Increment      1: Step Time =    1.000,"P-2-1",          1376,   48.3073E-03,   189.076E-03,            0.,NA,NA,"",   1.01425E+06,   1.01554E+06,   1.01554E+06
C:/temp/Job-2.odb,Step-1,Increment      1: Step Time =    1.000,"P-2-1",          1377,   44.6912E-03,   188.583E-03,            0.,NA,NA,"",   1.02236E+06,   1.02426E+06,   1.02426E+06
C:/temp/Job-2.odb,Step-1,Increment      1: Step Time =    1.000,"P-2-1",          1378,   38.2294E-03,   188.124E-03,            0.,NA,NA,"",   1.03888E+06,   1.04291E+06,   1.04291E+06
C:/temp/Job-2.odb,Step-1,Increment      1: Step Time =    1.000,"P-2-1",          1379,   32.9975E-03,   188.460E-03,            0.,NA,NA,"",   1.05354E+06,   1.05926E+06,   1.05926E+06
C:/temp/Job-2.odb,Step-1,Increment      1: Step Time =    1.000,"P-2-1",          1380,   25.8896E-03,   188.978E-03,            0.,NA,NA,"",   1.08151E+06,   1.09123E+06,   1.09123E+06
C:/temp/Job-2.odb,Step-1,Increment      1: Step Time =    1.000,"P-2-1",          1381,   21.3894E-03,   189.036E-03,            0.,NA,NA,"",   1.10454E+06,   1.11914E+06,   1.11914E+06
C:/temp/Job-2.odb,Step-1,Increment      1: Step Time =    1.000,"P-2-1",          1382,   16.9283E-03,   188.756E-03,            0.,NA,NA,"",   1.12993E+06,   1.15321E+06,   1.15321E+06
C:/temp/Job-2.odb,Step-1,Increment      1: Step Time =    1.000,"P-2-1",          1383,   11.5534E-03,   189.383E-03,            0.,NA,NA,"",   1.16401E+06,   1.20196E+06,   1.20196E+06
C:/temp/Job-2.odb,Step-1,Increment      1: Step Time =    1.000,"P-2-1",          1384,   4.45822E-03,   188.742E-03,            0.,NA,NA,"",   1.13506E+06,   1.22233E+06,   1.22233E+06
C:/temp/Job-2.odb,Step-1,Increment      1: Step Time =    1.000,"P-2-1",          1385,   193.997E-03,   194.042E-03,            0.,NA,NA,"",   999.933E+03,   999.880E+03,   999.880E+03
C:/temp/Job-2.odb,Step-1,Increment      1: Step Time =    1.000,"P-2-1",          1386,   188.748E-03,   195.421E-03,            0.,NA,NA,"",   999.659E+03,   999.646E+03,   999.646E+03
C:/temp/Job-2.odb,Step-1,Increment      1: Step Time =    1.000,"P-2-1",          1387,   184.017E-03,   195.765E-03,            0.,NA,NA,"",   999.381E+03,   999.366E+03,   999.366E+03
C:/temp/Job-2.odb,Step-1,Increment      1: Step Time =    1.000,"P-2-1",          1388,   179.385E-03,   195.539E-03,            0.,NA,NA,"",   999.066E+03,   999.032E+03,   999.032E+03
C:/temp/Job-2.odb,Step-1,Increment      1: Step Time =    1.000,"P-2-1",          1389,   174.499E-03,   194.397E-03,            0.,NA,NA,"",   998.792E+03,   998.675E+03,   998.675E+03
C:/temp/Job-2.odb,Step-1,Increment      1: Step Time =    1.000,"P-2-1",          1390,   167.117E-03,   193.173E-03,            0.,NA,NA,"",   998.109E+03,   997.801E+03,   997.801E+03
C:/temp/Job-2.odb,Step-1,Increment      1: Step Time =    1.000,"P-2-1",          1391,   160.425E-03,   195.005E-03,            0.,NA,NA,"",   995.189E+03,   994.947E+03,   994.947E+03
C:/temp/Job-2.odb,Step-1,Increment      1: Step Time =    1.000,"P-2-1",          1392,   155.493E-03,   195.219E-03,            0.,NA,NA,"",   992.543E+03,   992.287E+03,   992.287E+03
C:/temp/Job-2.odb,Step-1,Increment      1: Step Time =    1.000,"P-2-1",          1393,   150.476E-03,   195.187E-03,            0.,NA,NA,"",   989.172E+03,   988.890E+03,   988.890E+03
C:/temp/Job-2.odb,Step-1,Increment      1: Step Time =    1.000,"P-2-1",          1394,   145.415E-03,   195.013E-03,            0.,NA,NA,"",   985.029E+03,   984.731E+03,   984.731E+03
C:/temp/Job-2.odb,Step-1,Increment      1: Step Time =    1.000,"P-2-1",          1395,   140.275E-03,   194.875E-03,            0.,NA,NA,"",   980.004E+03,   979.727E+03,   979.727E+03
C:/temp/Job-2.odb,Step-1,Increment      1: Step Time =    1.000,"P-2-1",          1396,   135.079E-03,   194.825E-03,            0.,NA,NA,"",   974.103E+03,   973.896E+03,   973.896E+03
C:/temp/Job-2.odb,Step-1,Increment      1: Step Time =    1.000,"P-2-1",          1397,   129.884E-03,   194.838E-03,            0.,NA,NA,"",   967.532E+03,   967.440E+03,   967.440E+03
C:/temp/Job-2.odb,Step-1,Increment      1: Step Time =    1.000,"P-2-1",          1398,   124.733E-03,   194.904E-03,            0.,NA,NA,"",   960.703E+03,   960.731E+03,   960.731E+03
C:/temp/Job-2.odb,Step-1,Increment      1: Step Time =    1.000,"P-2-1",          1399,   119.611E-03,   195.010E-03,            0.,NA,NA,"",   953.995E+03,   954.156E+03,   954.156E+03
C:/temp/Job-2.odb,Step-1,Increment      1: Step Time =    1.000,"P-2-1",          1400,   114.443E-03,   195.061E-03,            0.,NA,NA,"",   947.935E+03,   948.268E+03,   948.268E+03
C:/temp/Job-2.odb,Step-1,Increment      1: Step Time =    1.000,"P-2-1",          1401,   109.290E-03,   195.025E-03,            0.,NA,NA,"",   943.061E+03,   943.484E+03,   943.484E+03
C:/temp/Job-2.odb,Step-1,Increment      1: Step Time =    1.000,"P-2-1",          1402,   104.178E-03,   194.783E-03,            0.,NA,NA,"",   941.044E+03,   941.607E+03,   941.607E+03
C:/temp/Job-2.odb,Step-1,Increment      1: Step Time =    1.000,"P-2-1",          1403,   97.3206E-03,   193.930E-03,            0.,NA,NA,"",   942.581E+03,   943.254E+03,   943.254E+03
C:/temp/Job-2.odb,Step-1,Increment      1: Step Time =    1.000,"P-2-1",          1404,   90.6345E-03,   195.253E-03,            0.,NA,NA,"",   938.450E+03,   938.930E+03,   938.930E+03
C:/temp/Job-2.odb,Step-1,Increment      1: Step Time =    1.000,"P-2-1",          1405,   85.7116E-03,   195.239E-03,            0.,NA,NA,"",   941.603E+03,   942.014E+03,   942.014E+03
C:/temp/Job-2.odb,Step-1,Increment      1: Step Time =    1.000,"P-2-1",          1406,   80.4911E-03,   194.848E-03,            0.,NA,NA,"",   947.372E+03,   947.660E+03,   947.660E+03
C:/temp/Job-2.odb,Step-1,Increment      1: Step Time =    1.000,"P-2-1",          1407,   75.2880E-03,   194.931E-03,            0.,NA,NA,"",   952.587E+03,   952.782E+03,   952.782E+03
C:/temp/Job-2.odb,Step-1,Increment      1: Step Time =    1.000,"P-2-1",          1408,   70.2096E-03,   194.993E-03,            0.,NA,NA,"",   958.390E+03,   958.482E+03,   958.482E+03
C:/temp/Job-2.odb,Step-1,Increment      1: Step Time =    1.000,"P-2-1",          1409,   65.0543E-03,   194.906E-03,            0.,NA,NA,"",   965.546E+03,   965.588E+03,   965.588E+03
C:/temp/Job-2.odb,Step-1,Increment      1: Step Time =    1.000,"P-2-1",          1410,   59.7213E-03,   194.689E-03,            0.,NA,NA,"",   973.716E+03,   973.710E+03,   973.710E+03
C:/temp/Job-2.odb,Step-1,Increment      1: Step Time =    1.000,"P-2-1",          1411,   54.5038E-03,   195.168E-03,            0.,NA,NA,"",   979.855E+03,   979.909E+03,   979.909E+03
C:/temp/Job-2.odb,Step-1,Increment      1: Step Time =    1.000,"P-2-1",          1412,   49.4844E-03,   195.355E-03,            0.,NA,NA,"",   987.154E+03,   987.365E+03,   987.365E+03
C:/temp/Job-2.odb,Step-1,Increment      1: Step Time =    1.000,"P-2-1",          1413,   44.5422E-03,   195.022E-03,            0.,NA,NA,"",   997.514E+03,   997.856E+03,   997.856E+03
C:/temp/Job-2.odb,Step-1,Increment      1: Step Time =    1.000,"P-2-1",          1414,   39.4900E-03,   194.069E-03,            0.,NA,NA,"",   1.01398E+06,   1.01482E+06,   1.01482E+06
C:/temp/Job-2.odb,Step-1,Increment      1: Step Time =    1.000,"P-2-1",          1415,   32.0855E-03,   192.572E-03,            0.,NA,NA,"",   1.04365E+06,   1.04623E+06,   1.04623E+06
C:/temp/Job-2.odb,Step-1,Increment      1: Step Time =    1.000,"P-2-1",          1416,   27.1472E-03,   194.153E-03,            0.,NA,NA,"",   1.05837E+06,   1.06086E+06,   1.06086E+06
C:/temp/Job-2.odb,Step-1,Increment      1: Step Time =    1.000,"P-2-1",          1417,   21.2736E-03,   193.821E-03,            0.,NA,NA,"",   1.09864E+06,   1.10370E+06,   1.10370E+06
C:/temp/Job-2.odb,Step-1,Increment      1: Step Time =    1.000,"P-2-1",          1418,   16.0381E-03,   195.522E-03,            0.,NA,NA,"",   1.13972E+06,   1.14516E+06,   1.14516E+06
C:/temp/Job-2.odb,Step-1,Increment      1: Step Time =    1.000,"P-2-1",          1419,   11.1904E-03,   195.067E-03,            0.,NA,NA,"",   1.21827E+06,   1.23015E+06,   1.23015E+06
C:/temp/Job-2.odb,Step-1,Increment      1: Step Time =    1.000,"P-2-1",          1420,   5.98369E-03,   193.872E-03,            0.,NA,NA,"",   1.29948E+06,   1.34462E+06,   1.34462E+06
C:/temp/Job-2.odb,Step-1,Increment      1: Step Time =    1.000,"P-2-1",          1421,   97.4011E-03,   112.227E-03,            0.,NA,NA,"",   2.33365E+06,   2.40799E+06,   2.40799E+06
C:/temp/Job-2.odb,Step-1,Increment      1: Step Time =    1.000,"P-2-1",          1422,   94.9158E-03,   111.419E-03,            0.,NA,NA,"",   2.01574E+06,   2.06972E+06,   2.06972E+06
C:/temp/Job-2.odb,Step-1,Increment      1: Step Time =    1.000,"P-2-1",          1423,   90.7107E-03,   108.364E-03,            0.,NA,NA,"",   945.820E+03,   924.909E+03,   924.909E+03
C:/temp/Job-2.odb,Step-1,Increment      1: Step Time =    1.000,"P-2-1",          1424,   88.1118E-03,   103.863E-03,            0.,NA,NA,"",   424.204E+03,  -351.337E+03,  -351.337E+03
C:/temp/Job-2.odb,Step-1,Increment      1: Step Time =    1.000,"P-2-1",          1425,   87.5685E-03,   101.307E-03,            0.,NA,NA,"",   497.451E+03,  -486.674E+03,  -486.674E+03
C:/temp/Job-2.odb,Step-1,Increment      1: Step Time =    1.000,"P-2-1",          1426,   88.1118E-03,   96.1373E-03,            0.,NA,NA,"",   436.431E+03,  -379.582E+03,  -379.582E+03
C:/temp/Job-2.odb,Step-1,Increment      1: Step Time =    1.000,"P-2-1",          1427,   90.7107E-03,   91.6359E-03,            0.,NA,NA,"",   840.667E+03,   825.067E+03,   825.067E+03
C:/temp/Job-2.odb,Step-1,Increment      1: Step Time =    1.000,"P-2-1",          1428,   92.6527E-03,   89.8873E-03,            0.,NA,NA,"",   1.38445E+06,   1.41743E+06,   1.41743E+06
C:/temp/Job-2.odb,Step-1,Increment      1: Step Time =    1.000,"P-2-1",          1429,   97.4011E-03,   87.7732E-03,            0.,NA,NA,"",   2.21242E+06,   2.29540E+06,   2.29540E+06
C:/temp/Job-2.odb,Step-1,Increment      1: Step Time =    1.000,"P-2-1",          1430,   102.599E-03,   87.7732E-03,            0.,NA,NA,"",   2.23731E+06,   2.32642E+06,   2.32642E+06
C:/temp/Job-2.odb,Step-1,Increment      1: Step Time =    1.000,"P-2-1",          1431,   105.084E-03,   88.5807E-03,            0.,NA,NA,"",   1.93183E+06,   1.98494E+06,   1.98494E+06
C:/temp/Job-2.odb,Step-1,Increment      1: Step Time =    1.000,"P-2-1",          1432,   109.289E-03,   91.6359E-03,            0.,NA,NA,"",   879.188E+03,   869.664E+03,   869.664E+03
C:/temp/Job-2.odb,Step-1,Increment      1: Step Time =    1.000,"P-2-1",          1433,   111.888E-03,   96.1373E-03,            0.,NA,NA,"",   440.603E+03,  -380.423E+03,  -380.423E+03
C:/temp/Job-2.odb,Step-1,Increment      1: Step Time =    1.000,"P-2-1",          1434,   112.432E-03,   98.6934E-03,            0.,NA,NA,"",   552.339E+03,  -547.478E+03,  -547.478E+03
C:/temp/Job-2.odb,Step-1,Increment      1: Step Time =    1.000,"P-2-1",          1435,   111.888E-03,   103.863E-03,            0.,NA,NA,"",   468.982E+03,  -421.928E+03,  -421.928E+03
C:/temp/Job-2.odb,Step-1,Increment      1: Step Time =    1.000,"P-2-1",          1436,   109.289E-03,   108.364E-03,            0.,NA,NA,"",   845.401E+03,   829.476E+03,   829.476E+03
C:/temp/Job-2.odb,Step-1,Increment      1: Step Time =    1.000,"P-2-1",          1437,   107.347E-03,   110.113E-03,            0.,NA,NA,"",   1.40126E+06,   1.43522E+06,   1.43522E+06
C:/temp/Job-2.odb,Step-1,Increment      1: Step Time =    1.000,"P-2-1",          1438,   102.599E-03,   112.227E-03,            0.,NA,NA,"",   2.22682E+06,   2.31262E+06,   2.31262E+06
C:/temp/Job-2.odb,Step-1,Increment      1: Step Time =    1.000,"P-2-1",          1439,   197.403E-03,            0.,            0.,NA,NA,"",   999.968E+03,   999.961E+03,   999.961E+03
C:/temp/Job-2.odb,Step-1,Increment      1: Step Time =    1.000,"P-2-1",          1440,   192.208E-03,            0.,            0.,NA,NA,"",   999.777E+03,   999.774E+03,   999.774E+03
C:/temp/Job-2.odb,Step-1,Increment      1: Step Time =    1.000,"P-2-1",          1441,   187.013E-03,            0.,            0.,NA,NA,"",   999.447E+03,   999.447E+03,   999.447E+03
C:/temp/Job-2.odb,Step-1,Increment      1: Step Time =    1.000,"P-2-1",          1442,   181.818E-03,            0.,            0.,NA,NA,"",   999.073E+03,   999.073E+03,   999.073E+03
C:/temp/Job-2.odb,Step-1,Increment      1: Step Time =    1.000,"P-2-1",          1443,   176.623E-03,            0.,            0.,NA,NA,"",   998.593E+03,   998.583E+03,   998.583E+03
C:/temp/Job-2.odb,Step-1,Increment      1: Step Time =    1.000,"P-2-1",          1444,   171.429E-03,            0.,            0.,NA,NA,"",   997.826E+03,   997.792E+03,   997.792E+03
C:/temp/Job-2.odb,Step-1,Increment      1: Step Time =    1.000,"P-2-1",          1445,   166.234E-03,            0.,            0.,NA,NA,"",   996.503E+03,   996.447E+03,   996.447E+03
C:/temp/Job-2.odb,Step-1,Increment      1: Step Time =    1.000,"P-2-1",          1446,   161.039E-03,            0.,            0.,NA,NA,"",   994.198E+03,   994.199E+03,   994.199E+03
C:/temp/Job-2.odb,Step-1,Increment      1: Step Time =    1.000,"P-2-1",          1447,   155.844E-03,            0.,            0.,NA,NA,"",   991.179E+03,   991.151E+03,   991.151E+03
C:/temp/Job-2.odb,Step-1,Increment      1: Step Time =    1.000,"P-2-1",          1448,   150.649E-03,            0.,            0.,NA,NA,"",   986.981E+03,   986.949E+03,   986.949E+03
C:/temp/Job-2.odb,Step-1,Increment      1: Step Time =    1.000,"P-2-1",          1449,   145.455E-03,            0.,            0.,NA,NA,"",   981.562E+03,   981.526E+03,   981.526E+03
C:/temp/Job-2.odb,Step-1,Increment      1: Step Time =    1.000,"P-2-1",          1450,   140.260E-03,            0.,            0.,NA,NA,"",   975.123E+03,   975.079E+03,   975.079E+03
C:/temp/Job-2.odb,Step-1,Increment      1: Step Time =    1.000,"P-2-1",          1451,   135.065E-03,            0.,            0.,NA,NA,"",   967.644E+03,   967.625E+03,   967.625E+03
C:/temp/Job-2.odb,Step-1,Increment      1: Step Time =    1.000,"P-2-1",          1452,   129.870E-03,            0.,            0.,NA,NA,"",   959.388E+03,   959.380E+03,   959.380E+03
C:/temp/Job-2.odb,Step-1,Increment      1: Step Time =    1.000,"P-2-1",          1453,   124.675E-03,            0.,            0.,NA,NA,"",   950.832E+03,   950.841E+03,   950.841E+03
C:/temp/Job-2.odb,Step-1,Increment      1: Step Time =    1.000,"P-2-1",          1454,   119.481E-03,            0.,            0.,NA,NA,"",   942.653E+03,   942.660E+03,   942.660E+03
C:/temp/Job-2.odb,Step-1,Increment      1: Step Time =    1.000,"P-2-1",          1455,   114.286E-03,            0.,            0.,NA,NA,"",   935.064E+03,   935.132E+03,   935.132E+03
C:/temp/Job-2.odb,Step-1,Increment      1: Step Time =    1.000,"P-2-1",          1456,   109.091E-03,            0.,            0.,NA,NA,"",   929.191E+03,   929.246E+03,   929.246E+03
C:/temp/Job-2.odb,Step-1,Increment      1: Step Time =    1.000,"P-2-1",          1457,   103.896E-03,            0.,            0.,NA,NA,"",   925.742E+03,   925.762E+03,   925.762E+03
C:/temp/Job-2.odb,Step-1,Increment      1: Step Time =    1.000,"P-2-1",          1458,   101.299E-03,            0.,            0.,NA,NA,"",   924.755E+03,   924.689E+03,   924.689E+03
C:/temp/Job-2.odb,Step-1,Increment      1: Step Time =    1.000,"P-2-1",          1459,   96.1039E-03,            0.,            0.,NA,NA,"",   922.416E+03,   922.557E+03,   922.557E+03
C:/temp/Job-2.odb,Step-1,Increment      1: Step Time =    1.000,"P-2-1",          1460,   90.9091E-03,            0.,            0.,NA,NA,"",   923.236E+03,   923.285E+03,   923.285E+03
C:/temp/Job-2.odb,Step-1,Increment      1: Step Time =    1.000,"P-2-1",          1461,   85.7143E-03,            0.,            0.,NA,NA,"",   926.115E+03,   926.181E+03,   926.181E+03
C:/temp/Job-2.odb,Step-1,Increment      1: Step Time =    1.000,"P-2-1",          1462,   80.5195E-03,            0.,            0.,NA,NA,"",   930.845E+03,   930.874E+03,   930.874E+03
C:/temp/Job-2.odb,Step-1,Increment      1: Step Time =    1.000,"P-2-1",          1463,   75.3247E-03,            0.,            0.,NA,NA,"",   936.706E+03,   936.729E+03,   936.729E+03
C:/temp/Job-2.odb,Step-1,Increment      1: Step Time =    1.000,"P-2-1",          1464,   70.1299E-03,            0.,            0.,NA,NA,"",   943.285E+03,   943.300E+03,   943.300E+03
C:/temp/Job-2.odb,Step-1,Increment      1: Step Time =    1.000,"P-2-1",          1465,   64.9351E-03,            0.,            0.,NA,NA,"",   950.276E+03,   950.278E+03,   950.278E+03
C:/temp/Job-2.odb,Step-1,Increment      1: Step Time =    1.000,"P-2-1",          1466,   59.7403E-03,            0.,            0.,NA,NA,"",   957.371E+03,   957.369E+03,   957.369E+03
C:/temp/Job-2.odb,Step-1,Increment      1: Step Time =    1.000,"P-2-1",          1467,   54.5455E-03,            0.,            0.,NA,NA,"",   964.444E+03,   964.452E+03,   964.452E+03
C:/temp/Job-2.odb,Step-1,Increment      1: Step Time =    1.000,"P-2-1",          1468,   49.3506E-03,            0.,            0.,NA,NA,"",   971.724E+03,   971.762E+03,   971.762E+03
C:/temp/Job-2.odb,Step-1,Increment      1: Step Time =    1.000,"P-2-1",          1469,   44.1558E-03,            0.,            0.,NA,NA,"",   979.770E+03,   979.853E+03,   979.853E+03
C:/temp/Job-2.odb,Step-1,Increment      1: Step Time =    1.000,"P-2-1",          1470,   38.9610E-03,            0.,            0.,NA,NA,"",   989.732E+03,   989.897E+03,   989.897E+03
C:/temp/Job-2.odb,Step-1,Increment      1: Step Time =    1.000,"P-2-1",          1471,   33.7662E-03,            0.,            0.,NA,NA,"",   1.00442E+06,   1.00494E+06,   1.00494E+06
C:/temp/Job-2.odb,Step-1,Increment      1: Step Time =    1.000,"P-2-1",          1472,   28.5714E-03,            0.,            0.,NA,NA,"",   1.02295E+06,   1.02284E+06,   1.02284E+06
C:/temp/Job-2.odb,Step-1,Increment      1: Step Time =    1.000,"P-2-1",          1473,   23.3766E-03,            0.,            0.,NA,NA,"",   1.04461E+06,   1.04520E+06,   1.04520E+06
C:/temp/Job-2.odb,Step-1,Increment      1: Step Time =    1.000,"P-2-1",          1474,   18.1818E-03,            0.,            0.,NA,NA,"",   1.08045E+06,   1.08126E+06,   1.08126E+06
C:/temp/Job-2.odb,Step-1,Increment      1: Step Time =    1.000,"P-2-1",          1475,   12.9870E-03,            0.,            0.,NA,NA,"",   1.14143E+06,   1.14292E+06,   1.14292E+06
C:/temp/Job-2.odb,Step-1,Increment      1: Step Time =    1.000,"P-2-1",          1476,   7.79221E-03,            0.,            0.,NA,NA,"",   1.27188E+06,   1.27794E+06,   1.27794E+06
C:/temp/Job-2.odb,Step-1,Increment      1: Step Time =    1.000,"P-2-1",          1477,   2.59740E-03,            0.,            0.,NA,NA,"",   1.64680E+06,   1.68406E+06,   1.68406E+06
C:/temp/Job-2.odb,Step-1,Increment      1: Step Time =    1.000,"P-2-1",          1478,   200.000E-03,   197.403E-03,            0.,NA,NA,"",   1.00000E+06,   999.984E+03,   999.984E+03
C:/temp/Job-2.odb,Step-1,Increment      1: Step Time =    1.000,"P-2-1",          1479,   200.000E-03,   192.208E-03,            0.,NA,NA,"",   1.00011E+06,   999.991E+03,   999.991E+03
C:/temp/Job-2.odb,Step-1,Increment      1: Step Time =    1.000,"P-2-1",          1480,   200.000E-03,   187.013E-03,            0.,NA,NA,"",   1.00032E+06,   1.00000E+06,   1.00000E+06
C:/temp/Job-2.odb,Step-1,Increment      1: Step Time =    1.000,"P-2-1",          1481,   200.000E-03,   181.818E-03,            0.,NA,NA,"",   1.00050E+06,   1.00002E+06,   1.00002E+06
C:/temp/Job-2.odb,Step-1,Increment      1: Step Time =    1.000,"P-2-1",          1482,   200.000E-03,   176.623E-03,            0.,NA,NA,"",   1.00053E+06,   1.00003E+06,   1.00003E+06
C:/temp/Job-2.odb,Step-1,Increment      1: Step Time =    1.000,"P-2-1",          1483,   200.000E-03,   171.429E-03,            0.,NA,NA,"",   1.00028E+06,   1.00010E+06,   1.00010E+06
C:/temp/Job-2.odb,Step-1,Increment      1: Step Time =    1.000,"P-2-1",          1484,   200.000E-03,   166.234E-03,            0.,NA,NA,"",   999.542E+03,   1.00010E+06,   1.00010E+06
C:/temp/Job-2.odb,Step-1,Increment      1: Step Time =    1.000,"P-2-1",          1485,   200.000E-03,   161.039E-03,            0.,NA,NA,"",   998.227E+03,   1.00003E+06,   1.00003E+06
C:/temp/Job-2.odb,Step-1,Increment      1: Step Time =    1.000,"P-2-1",          1486,   200.000E-03,   155.844E-03,            0.,NA,NA,"",   996.450E+03,   1.00006E+06,   1.00006E+06
C:/temp/Job-2.odb,Step-1,Increment      1: Step Time =    1.000,"P-2-1",          1487,   200.000E-03,   150.649E-03,            0.,NA,NA,"",   993.922E+03,   1.00008E+06,   1.00008E+06
C:/temp/Job-2.odb,Step-1,Increment      1: Step Time =    1.000,"P-2-1",          1488,   200.000E-03,   145.455E-03,            0.,NA,NA,"",   990.638E+03,   1.00008E+06,   1.00008E+06
C:/temp/Job-2.odb,Step-1,Increment      1: Step Time =    1.000,"P-2-1",          1489,   200.000E-03,   140.260E-03,            0.,NA,NA,"",   986.822E+03,   1.00009E+06,   1.00009E+06
C:/temp/Job-2.odb,Step-1,Increment      1: Step Time =    1.000,"P-2-1",          1490,   200.000E-03,   135.065E-03,            0.,NA,NA,"",   982.514E+03,   1.00004E+06,   1.00004E+06
C:/temp/Job-2.odb,Step-1,Increment      1: Step Time =    1.000,"P-2-1",          1491,   200.000E-03,   129.870E-03,            0.,NA,NA,"",   977.922E+03,   1.00001E+06,   1.00001E+06
C:/temp/Job-2.odb,Step-1,Increment      1: Step Time =    1.000,"P-2-1",          1492,   200.000E-03,   124.675E-03,            0.,NA,NA,"",   973.367E+03,   999.959E+03,   999.959E+03
C:/temp/Job-2.odb,Step-1,Increment      1: Step Time =    1.000,"P-2-1",          1493,   200.000E-03,   119.481E-03,            0.,NA,NA,"",   969.231E+03,   999.953E+03,   999.953E+03
C:/temp/Job-2.odb,Step-1,Increment      1: Step Time =    1.000,"P-2-1",          1494,   200.000E-03,   114.286E-03,            0.,NA,NA,"",   965.519E+03,   999.845E+03,   999.845E+03
C:/temp/Job-2.odb,Step-1,Increment      1: Step Time =    1.000,"P-2-1",          1495,   200.000E-03,   109.091E-03,            0.,NA,NA,"",   962.941E+03,   999.861E+03,   999.861E+03
C:/temp/Job-2.odb,Step-1,Increment      1: Step Time =    1.000,"P-2-1",          1496,   200.000E-03,   103.896E-03,            0.,NA,NA,"",   961.722E+03,   999.876E+03,   999.876E+03
C:/temp/Job-2.odb,Step-1,Increment      1: Step Time =    1.000,"P-2-1",          1497,   200.000E-03,   101.299E-03,            0.,NA,NA,"",   961.646E+03,   1.00001E+06,   1.00001E+06
C:/temp/Job-2.odb,Step-1,Increment      1: Step Time =    1.000,"P-2-1",          1498,   200.000E-03,   96.1039E-03,            0.,NA,NA,"",   961.341E+03,   999.727E+03,   999.727E+03
C:/temp/Job-2.odb,Step-1,Increment      1: Step Time =    1.000,"P-2-1",          1499,   200.000E-03,   90.9091E-03,            0.,NA,NA,"",   962.873E+03,   999.862E+03,   999.862E+03
C:/temp/Job-2.odb,Step-1,Increment      1: Step Time =    1.000,"P-2-1",          1500,   200.000E-03,   85.7143E-03,            0.,NA,NA,"",   965.456E+03,   999.856E+03,   999.856E+03
C:/temp/Job-2.odb,Step-1,Increment      1: Step Time =    1.000,"P-2-1",          1501,   200.000E-03,   80.5195E-03,            0.,NA,NA,"",   969.088E+03,   999.935E+03,   999.935E+03
C:/temp/Job-2.odb,Step-1,Increment      1: Step Time =    1.000,"P-2-1",          1502,   200.000E-03,   75.3247E-03,            0.,NA,NA,"",   973.292E+03,   999.969E+03,   999.969E+03
C:/temp/Job-2.odb,Step-1,Increment      1: Step Time =    1.000,"P-2-1",          1503,   200.000E-03,   70.1299E-03,            0.,NA,NA,"",   977.805E+03,   1.00001E+06,   1.00001E+06
C:/temp/Job-2.odb,Step-1,Increment      1: Step Time =    1.000,"P-2-1",          1504,   200.000E-03,   64.9351E-03,            0.,NA,NA,"",   982.360E+03,   1.00005E+06,   1.00005E+06
C:/temp/Job-2.odb,Step-1,Increment      1: Step Time =    1.000,"P-2-1",          1505,   200.000E-03,   59.7403E-03,            0.,NA,NA,"",   986.676E+03,   1.00008E+06,   1.00008E+06
C:/temp/Job-2.odb,Step-1,Increment      1: Step Time =    1.000,"P-2-1",          1506,   200.000E-03,   54.5455E-03,            0.,NA,NA,"",   990.527E+03,   1.00009E+06,   1.00009E+06
C:/temp/Job-2.odb,Step-1,Increment      1: Step Time =    1.000,"P-2-1",          1507,   200.000E-03,   49.3506E-03,            0.,NA,NA,"",   993.774E+03,   1.00008E+06,   1.00008E+06
C:/temp/Job-2.odb,Step-1,Increment      1: Step Time =    1.000,"P-2-1",          1508,   200.000E-03,   44.1558E-03,            0.,NA,NA,"",   996.356E+03,   1.00008E+06,   1.00008E+06
C:/temp/Job-2.odb,Step-1,Increment      1: Step Time =    1.000,"P-2-1",          1509,   200.000E-03,   38.9610E-03,            0.,NA,NA,"",   998.214E+03,   1.00006E+06,   1.00006E+06
C:/temp/Job-2.odb,Step-1,Increment      1: Step Time =    1.000,"P-2-1",          1510,   200.000E-03,   33.7662E-03,            0.,NA,NA,"",   999.424E+03,   1.00003E+06,   1.00003E+06
C:/temp/Job-2.odb,Step-1,Increment      1: Step Time =    1.000,"P-2-1",          1511,   200.000E-03,   28.5714E-03,            0.,NA,NA,"",   1.00022E+06,   1.00011E+06,   1.00011E+06
C:/temp/Job-2.odb,Step-1,Increment      1: Step Time =    1.000,"P-2-1",          1512,   200.000E-03,   23.3766E-03,            0.,NA,NA,"",   1.00047E+06,   1.00003E+06,   1.00003E+06
C:/temp/Job-2.odb,Step-1,Increment      1: Step Time =    1.000,"P-2-1",          1513,   200.000E-03,   18.1818E-03,            0.,NA,NA,"",   1.00046E+06,   1.00001E+06,   1.00001E+06
C:/temp/Job-2.odb,Step-1,Increment      1: Step Time =    1.000,"P-2-1",          1514,   200.000E-03,   12.9870E-03,            0.,NA,NA,"",   1.00030E+06,   1.00001E+06,   1.00001E+06
C:/temp/Job-2.odb,Step-1,Increment      1: Step Time =    1.000,"P-2-1",          1515,   200.000E-03,   7.79221E-03,            0.,NA,NA,"",   1.00011E+06,   999.993E+03,   999.993E+03
C:/temp/Job-2.odb,Step-1,Increment      1: Step Time =    1.000,"P-2-1",          1516,   200.000E-03,   2.59740E-03,            0.,NA,NA,"",   1.00000E+06,   999.985E+03,   999.985E+03
C:/temp/Job-2.odb,Step-1,Increment      1: Step Time =    1.000,"P-2-1",          1517,   2.59740E-03,   200.000E-03,            0.,NA,NA,"",   1.64697E+06,   1.68440E+06,   1.68440E+06
C:/temp/Job-2.odb,Step-1,Increment      1: Step Time =    1.000,"P-2-1",          1518,   7.79221E-03,   200.000E-03,            0.,NA,NA,"",   1.27228E+06,   1.27873E+06,   1.27873E+06
C:/temp/Job-2.odb,Step-1,Increment      1: Step Time =    1.000,"P-2-1",          1519,   12.9870E-03,   200.000E-03,            0.,NA,NA,"",   1.14353E+06,   1.14551E+06,   1.14551E+06
C:/temp/Job-2.odb,Step-1,Increment      1: Step Time =    1.000,"P-2-1",          1520,   18.1818E-03,   200.000E-03,            0.,NA,NA,"",   1.08143E+06,   1.08215E+06,   1.08215E+06
C:/temp/Job-2.odb,Step-1,Increment      1: Step Time =    1.000,"P-2-1",          1521,   23.3766E-03,   200.000E-03,            0.,NA,NA,"",   1.04471E+06,   1.04499E+06,   1.04499E+06
C:/temp/Job-2.odb,Step-1,Increment      1: Step Time =    1.000,"P-2-1",          1522,   28.5714E-03,   200.000E-03,            0.,NA,NA,"",   1.02266E+06,   1.02280E+06,   1.02280E+06
C:/temp/Job-2.odb,Step-1,Increment      1: Step Time =    1.000,"P-2-1",          1523,   33.7662E-03,   200.000E-03,            0.,NA,NA,"",   1.00679E+06,   1.00681E+06,   1.00681E+06
C:/temp/Job-2.odb,Step-1,Increment      1: Step Time =    1.000,"P-2-1",          1524,   38.9610E-03,   200.000E-03,            0.,NA,NA,"",   990.830E+03,   991.299E+03,   991.299E+03
C:/temp/Job-2.odb,Step-1,Increment      1: Step Time =    1.000,"P-2-1",          1525,   44.1558E-03,   200.000E-03,            0.,NA,NA,"",   980.695E+03,   980.767E+03,   980.767E+03
C:/temp/Job-2.odb,Step-1,Increment      1: Step Time =    1.000,"P-2-1",          1526,   49.3506E-03,   200.000E-03,            0.,NA,NA,"",   972.090E+03,   972.144E+03,   972.144E+03
C:/temp/Job-2.odb,Step-1,Increment      1: Step Time =    1.000,"P-2-1",          1527,   54.5455E-03,   200.000E-03,            0.,NA,NA,"",   964.647E+03,   964.664E+03,   964.664E+03
C:/temp/Job-2.odb,Step-1,Increment      1: Step Time =    1.000,"P-2-1",          1528,   59.7403E-03,   200.000E-03,            0.,NA,NA,"",   957.754E+03,   957.725E+03,   957.725E+03
C:/temp/Job-2.odb,Step-1,Increment      1: Step Time =    1.000,"P-2-1",          1529,   64.9351E-03,   200.000E-03,            0.,NA,NA,"",   950.642E+03,   950.653E+03,   950.653E+03
C:/temp/Job-2.odb,Step-1,Increment      1: Step Time =    1.000,"P-2-1",          1530,   70.1299E-03,   200.000E-03,            0.,NA,NA,"",   943.618E+03,   943.633E+03,   943.633E+03
C:/temp/Job-2.odb,Step-1,Increment      1: Step Time =    1.000,"P-2-1",          1531,   75.3247E-03,   200.000E-03,            0.,NA,NA,"",   936.959E+03,   936.986E+03,   936.986E+03
C:/temp/Job-2.odb,Step-1,Increment      1: Step Time =    1.000,"P-2-1",          1532,   80.5195E-03,   200.000E-03,            0.,NA,NA,"",   931.188E+03,   931.193E+03,   931.193E+03
C:/temp/Job-2.odb,Step-1,Increment      1: Step Time =    1.000,"P-2-1",          1533,   85.7143E-03,   200.000E-03,            0.,NA,NA,"",   926.289E+03,   926.361E+03,   926.361E+03
C:/temp/Job-2.odb,Step-1,Increment      1: Step Time =    1.000,"P-2-1",          1534,   90.9091E-03,   200.000E-03,            0.,NA,NA,"",   923.464E+03,   923.524E+03,   923.524E+03
C:/temp/Job-2.odb,Step-1,Increment      1: Step Time =    1.000,"P-2-1",          1535,   96.1039E-03,   200.000E-03,            0.,NA,NA,"",    923.33E+03,   923.395E+03,   923.395E+03
C:/temp/Job-2.odb,Step-1,Increment      1: Step Time =    1.000,"P-2-1",          1536,   98.7013E-03,   200.000E-03,            0.,NA,NA,"",   924.033E+03,   923.961E+03,   923.961E+03
C:/temp/Job-2.odb,Step-1,Increment      1: Step Time =    1.000,"P-2-1",          1537,   103.896E-03,   200.000E-03,            0.,NA,NA,"",   925.087E+03,   925.212E+03,   925.212E+03
C:/temp/Job-2.odb,Step-1,Increment      1: Step Time =    1.000,"P-2-1",          1538,   109.091E-03,   200.000E-03,            0.,NA,NA,"",   928.986E+03,   929.032E+03,   929.032E+03
C:/temp/Job-2.odb,Step-1,Increment      1: Step Time =    1.000,"P-2-1",          1539,   114.286E-03,   200.000E-03,            0.,NA,NA,"",   934.889E+03,   934.950E+03,   934.950E+03
C:/temp/Job-2.odb,Step-1,Increment      1: Step Time =    1.000,"P-2-1",          1540,   119.481E-03,   200.000E-03,            0.,NA,NA,"",   942.396E+03,   942.417E+03,   942.417E+03
C:/temp/Job-2.odb,Step-1,Increment      1: Step Time =    1.000,"P-2-1",          1541,   124.675E-03,   200.000E-03,            0.,NA,NA,"",   950.651E+03,   950.658E+03,   950.658E+03
C:/temp/Job-2.odb,Step-1,Increment      1: Step Time =    1.000,"P-2-1",          1542,   129.870E-03,   200.000E-03,            0.,NA,NA,"",   959.091E+03,   959.082E+03,   959.082E+03
C:/temp/Job-2.odb,Step-1,Increment      1: Step Time =    1.000,"P-2-1",          1543,   135.065E-03,   200.000E-03,            0.,NA,NA,"",   967.266E+03,   967.240E+03,   967.240E+03
C:/temp/Job-2.odb,Step-1,Increment      1: Step Time =    1.000,"P-2-1",          1544,   140.260E-03,   200.000E-03,            0.,NA,NA,"",   974.755E+03,   974.718E+03,   974.718E+03
C:/temp/Job-2.odb,Step-1,Increment      1: Step Time =    1.000,"P-2-1",          1545,   145.455E-03,   200.000E-03,            0.,NA,NA,"",   981.256E+03,   981.217E+03,   981.217E+03
C:/temp/Job-2.odb,Step-1,Increment      1: Step Time =    1.000,"P-2-1",          1546,   150.649E-03,   200.000E-03,            0.,NA,NA,"",   986.632E+03,   986.598E+03,   986.598E+03
C:/temp/Job-2.odb,Step-1,Increment      1: Step Time =    1.000,"P-2-1",          1547,   155.844E-03,   200.000E-03,            0.,NA,NA,"",   990.860E+03,   990.830E+03,   990.830E+03
C:/temp/Job-2.odb,Step-1,Increment      1: Step Time =    1.000,"P-2-1",          1548,   161.039E-03,   200.000E-03,            0.,NA,NA,"",   993.993E+03,   993.969E+03,   993.969E+03
C:/temp/Job-2.odb,Step-1,Increment      1: Step Time =    1.000,"P-2-1",          1549,   166.234E-03,   200.000E-03,            0.,NA,NA,"",   996.234E+03,   996.227E+03,   996.227E+03
C:/temp/Job-2.odb,Step-1,Increment      1: Step Time =    1.000,"P-2-1",          1550,   171.429E-03,   200.000E-03,            0.,NA,NA,"",   997.679E+03,   997.631E+03,   997.631E+03
C:/temp/Job-2.odb,Step-1,Increment      1: Step Time =    1.000,"P-2-1",          1551,   176.623E-03,   200.000E-03,            0.,NA,NA,"",   998.463E+03,   998.458E+03,   998.458E+03
C:/temp/Job-2.odb,Step-1,Increment      1: Step Time =    1.000,"P-2-1",          1552,   181.818E-03,   200.000E-03,            0.,NA,NA,"",   999.007E+03,   999.003E+03,   999.003E+03
C:/temp/Job-2.odb,Step-1,Increment      1: Step Time =    1.000,"P-2-1",          1553,   187.013E-03,   200.000E-03,            0.,NA,NA,"",   999.421E+03,   999.421E+03,   999.421E+03
C:/temp/Job-2.odb,Step-1,Increment      1: Step Time =    1.000,"P-2-1",          1554,   192.208E-03,   200.000E-03,            0.,NA,NA,"",   999.772E+03,   999.769E+03,   999.769E+03
C:/temp/Job-2.odb,Step-1,Increment      1: Step Time =    1.000,"P-2-1",          1555,   197.403E-03,   200.000E-03,            0.,NA,NA,"",   999.968E+03,   999.961E+03,   999.961E+03
C:/temp/Job-2.odb,Step-1,Increment      1: Step Time =    1.000,"P-2-1",          1556,            0.,   2.59740E-03,            0.,NA,NA,"",   1.58703E+06,   1.68159E+06,   1.68159E+06
C:/temp/Job-2.odb,Step-1,Increment      1: Step Time =    1.000,"P-2-1",          1557,            0.,   7.79221E-03,            0.,NA,NA,"",   1.18495E+06,   1.29378E+06,   1.29378E+06
C:/temp/Job-2.odb,Step-1,Increment      1: Step Time =    1.000,"P-2-1",          1558,            0.,   12.9870E-03,            0.,NA,NA,"",   1.06307E+06,   1.17246E+06,   1.17246E+06
C:/temp/Job-2.odb,Step-1,Increment      1: Step Time =    1.000,"P-2-1",          1559,            0.,   18.1818E-03,            0.,NA,NA,"",   999.505E+03,   1.10838E+06,   1.10838E+06
C:/temp/Job-2.odb,Step-1,Increment      1: Step Time =    1.000,"P-2-1",          1560,            0.,   23.3766E-03,            0.,NA,NA,"",   958.827E+03,   1.06688E+06,   1.06688E+06
C:/temp/Job-2.odb,Step-1,Increment      1: Step Time =    1.000,"P-2-1",          1561,            0.,   28.5714E-03,            0.,NA,NA,"",   930.475E+03,   1.03738E+06,   1.03738E+06
C:/temp/Job-2.odb,Step-1,Increment      1: Step Time =    1.000,"P-2-1",          1562,            0.,   33.7662E-03,            0.,NA,NA,"",   907.335E+03,   1.01273E+06,   1.01273E+06
C:/temp/Job-2.odb,Step-1,Increment      1: Step Time =    1.000,"P-2-1",          1563,            0.,   38.9610E-03,            0.,NA,NA,"",   884.428E+03,   990.854E+03,   990.854E+03
C:/temp/Job-2.odb,Step-1,Increment      1: Step Time =    1.000,"P-2-1",          1564,            0.,   44.1558E-03,            0.,NA,NA,"",   867.521E+03,   973.777E+03,   973.777E+03
C:/temp/Job-2.odb,Step-1,Increment      1: Step Time =    1.000,"P-2-1",          1565,            0.,   49.3506E-03,            0.,NA,NA,"",   852.817E+03,   958.768E+03,   958.768E+03
C:/temp/Job-2.odb,Step-1,Increment      1: Step Time =    1.000,"P-2-1",          1566,            0.,   54.5455E-03,            0.,NA,NA,"",   839.604E+03,   944.926E+03,   944.926E+03
C:/temp/Job-2.odb,Step-1,Increment      1: Step Time =    1.000,"P-2-1",          1567,            0.,   59.7403E-03,            0.,NA,NA,"",   827.952E+03,   932.553E+03,   932.553E+03
C:/temp/Job-2.odb,Step-1,Increment      1: Step Time =    1.000,"P-2-1",          1568,            0.,   64.9351E-03,            0.,NA,NA,"",   817.070E+03,   920.981E+03,   920.981E+03
C:/temp/Job-2.odb,Step-1,Increment      1: Step Time =    1.000,"P-2-1",          1569,            0.,   70.1299E-03,            0.,NA,NA,"",   806.967E+03,   910.188E+03,   910.188E+03
C:/temp/Job-2.odb,Step-1,Increment      1: Step Time =    1.000,"P-2-1",          1570,            0.,   75.3247E-03,            0.,NA,NA,"",   798.044E+03,   900.568E+03,   900.568E+03
C:/temp/Job-2.odb,Step-1,Increment      1: Step Time =    1.000,"P-2-1",          1571,            0.,   80.5195E-03,            0.,NA,NA,"",   790.511E+03,   892.397E+03,   892.397E+03
C:/temp/Job-2.odb,Step-1,Increment      1: Step Time =    1.000,"P-2-1",          1572,            0.,   85.7143E-03,            0.,NA,NA,"",   784.197E+03,   885.572E+03,   885.572E+03
C:/temp/Job-2.odb,Step-1,Increment      1: Step Time =    1.000,"P-2-1",          1573,            0.,   90.9091E-03,            0.,NA,NA,"",   779.746E+03,   880.738E+03,   880.738E+03
C:/temp/Job-2.odb,Step-1,Increment      1: Step Time =    1.000,"P-2-1",          1574,            0.,   96.1039E-03,            0.,NA,NA,"",   777.522E+03,   878.127E+03,   878.127E+03
C:/temp/Job-2.odb,Step-1,Increment      1: Step Time =    1.000,"P-2-1",          1575,            0.,   98.7013E-03,            0.,NA,NA,"",   777.165E+03,   877.621E+03,   877.621E+03
C:/temp/Job-2.odb,Step-1,Increment      1: Step Time =    1.000,"P-2-1",          1576,            0.,   103.896E-03,            0.,NA,NA,"",   777.269E+03,   877.992E+03,   877.992E+03
C:/temp/Job-2.odb,Step-1,Increment      1: Step Time =    1.000,"P-2-1",          1577,            0.,   109.091E-03,            0.,NA,NA,"",   779.763E+03,   880.695E+03,   880.695E+03
C:/temp/Job-2.odb,Step-1,Increment      1: Step Time =    1.000,"P-2-1",          1578,            0.,   114.286E-03,            0.,NA,NA,"",    784.17E+03,   885.510E+03,   885.510E+03
C:/temp/Job-2.odb,Step-1,Increment      1: Step Time =    1.000,"P-2-1",          1579,            0.,   119.481E-03,            0.,NA,NA,"",   790.390E+03,   892.266E+03,   892.266E+03
C:/temp/Job-2.odb,Step-1,Increment      1: Step Time =    1.000,"P-2-1",          1580,            0.,   124.675E-03,            0.,NA,NA,"",   798.017E+03,   900.525E+03,   900.525E+03
C:/temp/Job-2.odb,Step-1,Increment      1: Step Time =    1.000,"P-2-1",          1581,            0.,   129.870E-03,            0.,NA,NA,"",   806.914E+03,   910.104E+03,   910.104E+03
C:/temp/Job-2.odb,Step-1,Increment      1: Step Time =    1.000,"P-2-1",          1582,            0.,   135.065E-03,            0.,NA,NA,"",   816.936E+03,   920.832E+03,   920.832E+03
C:/temp/Job-2.odb,Step-1,Increment      1: Step Time =    1.000,"P-2-1",          1583,            0.,   140.260E-03,            0.,NA,NA,"",   827.881E+03,   932.481E+03,   932.481E+03
C:/temp/Job-2.odb,Step-1,Increment      1: Step Time =    1.000,"P-2-1",          1584,            0.,   145.455E-03,            0.,NA,NA,"",   839.661E+03,   944.938E+03,   944.938E+03
C:/temp/Job-2.odb,Step-1,Increment      1: Step Time =    1.000,"P-2-1",          1585,            0.,   150.649E-03,            0.,NA,NA,"",   852.514E+03,   958.406E+03,   958.406E+03
C:/temp/Job-2.odb,Step-1,Increment      1: Step Time =    1.000,"P-2-1",          1586,            0.,   155.844E-03,            0.,NA,NA,"",   866.947E+03,   973.341E+03,   973.341E+03
C:/temp/Job-2.odb,Step-1,Increment      1: Step Time =    1.000,"P-2-1",          1587,            0.,   161.039E-03,            0.,NA,NA,"",   883.538E+03,   990.200E+03,   990.200E+03
C:/temp/Job-2.odb,Step-1,Increment      1: Step Time =    1.000,"P-2-1",          1588,            0.,   166.234E-03,            0.,NA,NA,"",   905.322E+03,   1.01142E+06,   1.01142E+06
C:/temp/Job-2.odb,Step-1,Increment      1: Step Time =    1.000,"P-2-1",          1589,            0.,   171.429E-03,            0.,NA,NA,"",   930.271E+03,   1.03683E+06,   1.03683E+06
C:/temp/Job-2.odb,Step-1,Increment      1: Step Time =    1.000,"P-2-1",          1590,            0.,   176.623E-03,            0.,NA,NA,"",   958.735E+03,   1.06643E+06,   1.06643E+06
C:/temp/Job-2.odb,Step-1,Increment      1: Step Time =    1.000,"P-2-1",          1591,            0.,   181.818E-03,            0.,NA,NA,"",   999.556E+03,   1.10825E+06,   1.10825E+06
C:/temp/Job-2.odb,Step-1,Increment      1: Step Time =    1.000,"P-2-1",          1592,            0.,   187.013E-03,            0.,NA,NA,"",   1.06135E+06,   1.17124E+06,   1.17124E+06
C:/temp/Job-2.odb,Step-1,Increment      1: Step Time =    1.000,"P-2-1",          1593,            0.,   192.208E-03,            0.,NA,NA,"",   1.18508E+06,   1.29443E+06,   1.29443E+06
C:/temp/Job-2.odb,Step-1,Increment      1: Step Time =    1.000,"P-2-1",          1594,            0.,   197.403E-03,            0.,NA,NA,"",   1.58596E+06,   1.68075E+06,   1.68075E+06
C:/temp/Job-2.odb,Step-1,Increment      1: Step Time =    1.000,"P-2-1",          1595,   2.65876E-03,   8.14862E-03,            0.,NA,NA,"",   1.19163E+06,   1.28742E+06,   1.28742E+06
C:/temp/Job-2.odb,Step-1,Increment      1: Step Time =    1.000,"P-2-1",          1596,   2.82304E-03,   2.80545E-03,            0.,NA,NA,"",   1.52554E+06,   1.58118E+06,   1.58118E+06
C:/temp/Job-2.odb,Step-1,Increment      1: Step Time =    1.000,"P-2-1",          1597,   8.14766E-03,   197.343E-03,            0.,NA,NA,"",   1.27396E+06,   1.28488E+06,   1.28488E+06
C:/temp/Job-2.odb,Step-1,Increment      1: Step Time =    1.000,"P-2-1",          1598,   2.80473E-03,   197.178E-03,            0.,NA,NA,"",   1.52441E+06,   1.58080E+06,   1.58080E+06
C:/temp/Job-2.odb,Step-1,Increment      1: Step Time =    1.000,"P-2-1",          1599,   5.52890E-03,   197.097E-03,            0.,NA,NA,"",   1.38683E+06,   1.40407E+06,   1.40407E+06
C:/temp/Job-2.odb,Step-1,Increment      1: Step Time =    1.000,"P-2-1",          1600,   2.90460E-03,   5.53001E-03,            0.,NA,NA,"",   1.31703E+06,   1.40041E+06,   1.40041E+06
C:/temp/Job-2.odb,Step-1,Increment      1: Step Time =    1.000,"P-2-1",          1601,   197.741E-03,   18.2288E-03,            0.,NA,NA,"",   1.00039E+06,   1.00004E+06,   1.00004E+06
C:/temp/Job-2.odb,Step-1,Increment      1: Step Time =    1.000,"P-2-1",          1602,   2.33073E-03,   13.2384E-03,            0.,NA,NA,"",   1.07282E+06,   1.17599E+06,   1.17599E+06
C:/temp/Job-2.odb,Step-1,Increment      1: Step Time =    1.000,"P-2-1",          1603,   8.19535E-03,   2.56305E-03,            0.,NA,NA,"",   1.27361E+06,   1.28376E+06,   1.28376E+06
C:/temp/Job-2.odb,Step-1,Increment      1: Step Time =    1.000,"P-2-1",          1604,   13.2818E-03,   2.14046E-03,            0.,NA,NA,"",   1.15458E+06,   1.15733E+06,   1.15733E+06
C:/temp/Job-2.odb,Step-1,Increment      1: Step Time =    1.000,"P-2-1",          1605,   2.10741E-03,   18.2779E-03,            0.,NA,NA,"",   1.00694E+06,   1.11195E+06,   1.11195E+06
C:/temp/Job-2.odb,Step-1,Increment      1: Step Time =    1.000,"P-2-1",          1606,   2.54363E-03,   124.703E-03,            0.,NA,NA,"",   801.009E+03,   902.564E+03,   902.564E+03
C:/temp/Job-2.odb,Step-1,Increment      1: Step Time =    1.000,"P-2-1",          1607,   2.50012E-03,   119.543E-03,            0.,NA,NA,"",   792.977E+03,   894.040E+03,   894.040E+03
C:/temp/Job-2.odb,Step-1,Increment      1: Step Time =    1.000,"P-2-1",          1608,   2.57930E-03,   129.871E-03,            0.,NA,NA,"",   810.347E+03,   912.429E+03,   912.429E+03
C:/temp/Job-2.odb,Step-1,Increment      1: Step Time =    1.000,"P-2-1",          1609,   2.58719E-03,   135.063E-03,            0.,NA,NA,"",   820.816E+03,   923.451E+03,   923.451E+03
C:/temp/Job-2.odb,Step-1,Increment      1: Step Time =    1.000,"P-2-1",          1610,   2.48133E-03,   176.722E-03,            0.,NA,NA,"",   968.125E+03,   1.07209E+06,   1.07209E+06
C:/temp/Job-2.odb,Step-1,Increment      1: Step Time =    1.000,"P-2-1",          1611,   197.871E-03,   181.738E-03,            0.,NA,NA,"",   1.00044E+06,   1.00004E+06,   1.00004E+06
C:/temp/Job-2.odb,Step-1,Increment      1: Step Time =    1.000,"P-2-1",          1612,   197.680E-03,   186.770E-03,            0.,NA,NA,"",   1.00028E+06,   1.00001E+06,   1.00001E+06
C:/temp/Job-2.odb,Step-1,Increment      1: Step Time =    1.000,"P-2-1",          1613,   197.396E-03,   191.857E-03,            0.,NA,NA,"",   1.00010E+06,   999.976E+03,   999.976E+03
C:/temp/Job-2.odb,Step-1,Increment      1: Step Time =    1.000,"P-2-1",          1614,   186.726E-03,   197.824E-03,            0.,NA,NA,"",   999.449E+03,   999.446E+03,   999.446E+03
C:/temp/Job-2.odb,Step-1,Increment      1: Step Time =    1.000,"P-2-1",          1615,   181.717E-03,   197.872E-03,            0.,NA,NA,"",   999.067E+03,   999.060E+03,   999.060E+03
C:/temp/Job-2.odb,Step-1,Increment      1: Step Time =    1.000,"P-2-1",          1616,   196.140E-03,   177.227E-03,            0.,NA,NA,"",   1.00036E+06,   1.00015E+06,   1.00015E+06
C:/temp/Job-2.odb,Step-1,Increment      1: Step Time =    1.000,"P-2-1",          1617,   196.980E-03,   172.001E-03,            0.,NA,NA,"",   1.00024E+06,   1.00021E+06,   1.00021E+06
C:/temp/Job-2.odb,Step-1,Increment      1: Step Time =    1.000,"P-2-1",          1618,   197.443E-03,   59.7433E-03,            0.,NA,NA,"",    987.21E+03,   1.00022E+06,   1.00022E+06
C:/temp/Job-2.odb,Step-1,Increment      1: Step Time =    1.000,"P-2-1",          1619,   197.412E-03,   64.9361E-03,            0.,NA,NA,"",   983.112E+03,   1.00014E+06,   1.00014E+06
C:/temp/Job-2.odb,Step-1,Increment      1: Step Time =    1.000,"P-2-1",          1620,   197.522E-03,   54.5736E-03,            0.,NA,NA,"",   990.843E+03,   1.00025E+06,   1.00025E+06
C:/temp/Job-2.odb,Step-1,Increment      1: Step Time =    1.000,"P-2-1",          1621,   197.615E-03,   49.4374E-03,            0.,NA,NA,"",   993.908E+03,   1.00024E+06,   1.00024E+06
C:/temp/Job-2.odb,Step-1,Increment      1: Step Time =    1.000,"P-2-1",          1622,   18.2293E-03,   2.25934E-03,            0.,NA,NA,"",   1.09422E+06,   1.09551E+06,   1.09551E+06
C:/temp/Job-2.odb,Step-1,Increment      1: Step Time =    1.000,"P-2-1",          1623,   23.2783E-03,   2.48509E-03,            0.,NA,NA,"",   1.05704E+06,   1.05806E+06,   1.05806E+06
C:/temp/Job-2.odb,Step-1,Increment      1: Step Time =    1.000,"P-2-1",          1624,   28.3478E-03,   2.84615E-03,            0.,NA,NA,"",   1.03272E+06,   1.03312E+06,   1.03312E+06
C:/temp/Job-2.odb,Step-1,Increment      1: Step Time =    1.000,"P-2-1",          1625,   34.1137E-03,   3.06197E-03,            0.,NA,NA,"",   1.01203E+06,   1.01273E+06,   1.01273E+06
C:/temp/Job-2.odb,Step-1,Increment      1: Step Time =    1.000,"P-2-1",          1626,   39.2440E-03,   2.49961E-03,            0.,NA,NA,"",   996.051E+03,   996.335E+03,   996.335E+03
C:/temp/Job-2.odb,Step-1,Increment      1: Step Time =    1.000,"P-2-1",          1627,   44.3228E-03,   2.40095E-03,            0.,NA,NA,"",   985.649E+03,   985.775E+03,   985.775E+03
C:/temp/Job-2.odb,Step-1,Increment      1: Step Time =    1.000,"P-2-1",          1628,   49.4361E-03,   2.41825E-03,            0.,NA,NA,"",   977.110E+03,   977.164E+03,   977.164E+03
C:/temp/Job-2.odb,Step-1,Increment      1: Step Time =    1.000,"P-2-1",          1629,   54.5735E-03,   2.49587E-03,            0.,NA,NA,"",   969.667E+03,   969.676E+03,   969.676E+03
C:/temp/Job-2.odb,Step-1,Increment      1: Step Time =    1.000,"P-2-1",          1630,   59.7435E-03,   2.56226E-03,            0.,NA,NA,"",   962.538E+03,   962.529E+03,   962.529E+03
C:/temp/Job-2.odb,Step-1,Increment      1: Step Time =    1.000,"P-2-1",          1631,   64.9346E-03,   2.59025E-03,            0.,NA,NA,"",   955.443E+03,   955.449E+03,   955.449E+03
C:/temp/Job-2.odb,Step-1,Increment      1: Step Time =    1.000,"P-2-1",          1632,   70.1271E-03,   2.58140E-03,            0.,NA,NA,"",   948.497E+03,   948.533E+03,   948.533E+03
C:/temp/Job-2.odb,Step-1,Increment      1: Step Time =    1.000,"P-2-1",          1633,   75.2961E-03,   2.54385E-03,            0.,NA,NA,"",   941.991E+03,   942.053E+03,   942.053E+03
C:/temp/Job-2.odb,Step-1,Increment      1: Step Time =    1.000,"P-2-1",          1634,   80.4553E-03,   2.49902E-03,            0.,NA,NA,"",   936.220E+03,   936.312E+03,   936.312E+03
C:/temp/Job-2.odb,Step-1,Increment      1: Step Time =    1.000,"P-2-1",          1635,   85.6426E-03,   2.47589E-03,            0.,NA,NA,"",   931.578E+03,   931.742E+03,   931.742E+03
C:/temp/Job-2.odb,Step-1,Increment      1: Step Time =    1.000,"P-2-1",          1636,   90.8158E-03,   2.47260E-03,            0.,NA,NA,"",   928.727E+03,   928.875E+03,   928.875E+03
C:/temp/Job-2.odb,Step-1,Increment      1: Step Time =    1.000,"P-2-1",          1637,   95.8927E-03,   2.51113E-03,            0.,NA,NA,"",   927.634E+03,   927.874E+03,   927.874E+03
C:/temp/Job-2.odb,Step-1,Increment      1: Step Time =    1.000,"P-2-1",          1638,   101.241E-03,   3.37243E-03,            0.,NA,NA,"",   932.327E+03,   932.509E+03,   932.509E+03
C:/temp/Job-2.odb,Step-1,Increment      1: Step Time =    1.000,"P-2-1",          1639,   109.247E-03,   2.36739E-03,            0.,NA,NA,"",   933.652E+03,   933.818E+03,   933.818E+03
C:/temp/Job-2.odb,Step-1,Increment      1: Step Time =    1.000,"P-2-1",          1640,   114.346E-03,   2.43574E-03,            0.,NA,NA,"",   939.450E+03,   939.593E+03,   939.593E+03
C:/temp/Job-2.odb,Step-1,Increment      1: Step Time =    1.000,"P-2-1",          1641,   119.533E-03,   2.55349E-03,            0.,NA,NA,"",   946.658E+03,   946.705E+03,   946.705E+03
C:/temp/Job-2.odb,Step-1,Increment      1: Step Time =    1.000,"P-2-1",          1642,   124.693E-03,   2.52152E-03,            0.,NA,NA,"",   954.216E+03,   954.232E+03,   954.232E+03
C:/temp/Job-2.odb,Step-1,Increment      1: Step Time =    1.000,"P-2-1",          1643,   129.841E-03,   2.49516E-03,            0.,NA,NA,"",   962.022E+03,   961.987E+03,   961.987E+03
C:/temp/Job-2.odb,Step-1,Increment      1: Step Time =    1.000,"P-2-1",          1644,   135.034E-03,   2.55170E-03,            0.,NA,NA,"",   969.773E+03,   969.705E+03,   969.705E+03
C:/temp/Job-2.odb,Step-1,Increment      1: Step Time =    1.000,"P-2-1",          1645,   140.253E-03,   2.60170E-03,            0.,NA,NA,"",   976.786E+03,   976.678E+03,   976.678E+03
C:/temp/Job-2.odb,Step-1,Increment      1: Step Time =    1.000,"P-2-1",          1646,   145.432E-03,   2.42390E-03,            0.,NA,NA,"",   982.706E+03,   982.605E+03,   982.605E+03
C:/temp/Job-2.odb,Step-1,Increment      1: Step Time =    1.000,"P-2-1",          1647,   150.592E-03,   2.33888E-03,            0.,NA,NA,"",   987.694E+03,   987.601E+03,   987.601E+03
C:/temp/Job-2.odb,Step-1,Increment      1: Step Time =    1.000,"P-2-1",          1648,   155.696E-03,   2.47646E-03,            0.,NA,NA,"",   991.618E+03,   991.531E+03,   991.531E+03
C:/temp/Job-2.odb,Step-1,Increment      1: Step Time =    1.000,"P-2-1",          1649,   160.782E-03,   2.83626E-03,            0.,NA,NA,"",   994.619E+03,   994.538E+03,   994.538E+03
C:/temp/Job-2.odb,Step-1,Increment      1: Step Time =    1.000,"P-2-1",          1650,   166.290E-03,   4.08667E-03,            0.,NA,NA,"",   997.081E+03,   996.927E+03,   996.927E+03
C:/temp/Job-2.odb,Step-1,Increment      1: Step Time =    1.000,"P-2-1",          1651,   171.995E-03,   3.00763E-03,            0.,NA,NA,"",   998.098E+03,   998.033E+03,   998.033E+03
C:/temp/Job-2.odb,Step-1,Increment      1: Step Time =    1.000,"P-2-1",          1652,   177.215E-03,   3.82584E-03,            0.,NA,NA,"",   998.886E+03,   998.851E+03,   998.851E+03
C:/temp/Job-2.odb,Step-1,Increment      1: Step Time =    1.000,"P-2-1",          1653,   181.722E-03,   2.10651E-03,            0.,NA,NA,"",   999.126E+03,   999.122E+03,   999.122E+03
C:/temp/Job-2.odb,Step-1,Increment      1: Step Time =    1.000,"P-2-1",          1654,   186.763E-03,   2.32903E-03,            0.,NA,NA,"",   999.489E+03,   999.486E+03,   999.486E+03
C:/temp/Job-2.odb,Step-1,Increment      1: Step Time =    1.000,"P-2-1",          1655,   191.853E-03,   2.65639E-03,            0.,NA,NA,"",   999.782E+03,   999.773E+03,   999.773E+03
C:/temp/Job-2.odb,Step-1,Increment      1: Step Time =    1.000,"P-2-1",          1656,   197.196E-03,   2.82190E-03,            0.,NA,NA,"",   999.978E+03,   999.956E+03,   999.956E+03
C:/temp/Job-2.odb,Step-1,Increment      1: Step Time =    1.000,"P-2-1",          1657,   197.438E-03,   8.19449E-03,            0.,NA,NA,"",   1.00009E+06,   999.980E+03,   999.980E+03
C:/temp/Job-2.odb,Step-1,Increment      1: Step Time =    1.000,"P-2-1",          1658,   197.861E-03,   13.2815E-03,            0.,NA,NA,"",   1.00027E+06,   1.00001E+06,   1.00001E+06
C:/temp/Job-2.odb,Step-1,Increment      1: Step Time =    1.000,"P-2-1",          1659,   197.516E-03,   23.2775E-03,            0.,NA,NA,"",   1.00039E+06,   1.00009E+06,   1.00009E+06
C:/temp/Job-2.odb,Step-1,Increment      1: Step Time =    1.000,"P-2-1",          1660,   197.156E-03,   28.3472E-03,            0.,NA,NA,"",   1.00015E+06,   1.00020E+06,   1.00020E+06
C:/temp/Job-2.odb,Step-1,Increment      1: Step Time =    1.000,"P-2-1",          1661,   196.945E-03,   34.1128E-03,            0.,NA,NA,"",   999.351E+03,   1.00022E+06,   1.00022E+06
C:/temp/Job-2.odb,Step-1,Increment      1: Step Time =    1.000,"P-2-1",          1662,   197.520E-03,   39.2357E-03,            0.,NA,NA,"",   998.144E+03,   1.00021E+06,   1.00021E+06
C:/temp/Job-2.odb,Step-1,Increment      1: Step Time =    1.000,"P-2-1",          1663,   197.632E-03,   44.3104E-03,            0.,NA,NA,"",   996.365E+03,   1.00023E+06,   1.00023E+06
C:/temp/Job-2.odb,Step-1,Increment      1: Step Time =    1.000,"P-2-1",          1664,   197.420E-03,   70.1266E-03,            0.,NA,NA,"",   978.766E+03,   1.00004E+06,   1.00004E+06
C:/temp/Job-2.odb,Step-1,Increment      1: Step Time =    1.000,"P-2-1",          1665,   197.455E-03,   75.2968E-03,            0.,NA,NA,"",   974.458E+03,   999.927E+03,   999.927E+03
C:/temp/Job-2.odb,Step-1,Increment      1: Step Time =    1.000,"P-2-1",          1666,   197.499E-03,   80.4605E-03,            0.,NA,NA,"",   970.429E+03,   999.813E+03,   999.813E+03
C:/temp/Job-2.odb,Step-1,Increment      1: Step Time =    1.000,"P-2-1",          1667,   197.520E-03,   85.6504E-03,            0.,NA,NA,"",   966.900E+03,   999.634E+03,   999.634E+03
C:/temp/Job-2.odb,Step-1,Increment      1: Step Time =    1.000,"P-2-1",          1668,   197.524E-03,   90.8194E-03,            0.,NA,NA,"",   964.440E+03,   999.611E+03,   999.611E+03
C:/temp/Job-2.odb,Step-1,Increment      1: Step Time =    1.000,"P-2-1",          1669,   197.488E-03,   95.8960E-03,            0.,NA,NA,"",   962.868E+03,   999.446E+03,   999.446E+03
C:/temp/Job-2.odb,Step-1,Increment      1: Step Time =    1.000,"P-2-1",          1670,   196.639E-03,   101.252E-03,            0.,NA,NA,"",   963.797E+03,   999.421E+03,   999.421E+03
C:/temp/Job-2.odb,Step-1,Increment      1: Step Time =    1.000,"P-2-1",          1671,   197.686E-03,   109.238E-03,            0.,NA,NA,"",   964.319E+03,   999.599E+03,   999.599E+03
C:/temp/Job-2.odb,Step-1,Increment      1: Step Time =    1.000,"P-2-1",          1672,   197.630E-03,   114.328E-03,            0.,NA,NA,"",   966.898E+03,   999.640E+03,   999.640E+03
C:/temp/Job-2.odb,Step-1,Increment      1: Step Time =    1.000,"P-2-1",          1673,   197.475E-03,   119.520E-03,            0.,NA,NA,"",   970.563E+03,   999.833E+03,   999.833E+03
C:/temp/Job-2.odb,Step-1,Increment      1: Step Time =    1.000,"P-2-1",          1674,   197.474E-03,   124.675E-03,            0.,NA,NA,"",   974.526E+03,   999.914E+03,   999.914E+03
C:/temp/Job-2.odb,Step-1,Increment      1: Step Time =    1.000,"P-2-1",          1675,   197.499E-03,   129.843E-03,            0.,NA,NA,"",   978.837E+03,   1.00004E+06,   1.00004E+06
C:/temp/Job-2.odb,Step-1,Increment      1: Step Time =    1.000,"P-2-1",          1676,   197.447E-03,   135.046E-03,            0.,NA,NA,"",   983.234E+03,   1.00014E+06,   1.00014E+06
C:/temp/Job-2.odb,Step-1,Increment      1: Step Time =    1.000,"P-2-1",          1677,   197.412E-03,   140.264E-03,            0.,NA,NA,"",   987.355E+03,   1.00023E+06,   1.00023E+06
C:/temp/Job-2.odb,Step-1,Increment      1: Step Time =    1.000,"P-2-1",          1678,   197.611E-03,   145.432E-03,            0.,NA,NA,"",   990.963E+03,   1.00024E+06,   1.00024E+06
C:/temp/Job-2.odb,Step-1,Increment      1: Step Time =    1.000,"P-2-1",          1679,   197.683E-03,   150.587E-03,            0.,NA,NA,"",   994.047E+03,   1.00023E+06,   1.00023E+06
C:/temp/Job-2.odb,Step-1,Increment      1: Step Time =    1.000,"P-2-1",          1680,   197.521E-03,   155.670E-03,            0.,NA,NA,"",   996.420E+03,   1.00022E+06,   1.00022E+06
C:/temp/Job-2.odb,Step-1,Increment      1: Step Time =    1.000,"P-2-1",          1681,   197.159E-03,   160.762E-03,            0.,NA,NA,"",   998.239E+03,   1.00024E+06,   1.00024E+06
C:/temp/Job-2.odb,Step-1,Increment      1: Step Time =    1.000,"P-2-1",          1682,   195.906E-03,   166.290E-03,            0.,NA,NA,"",   999.572E+03,   1.00041E+06,   1.00041E+06
C:/temp/Job-2.odb,Step-1,Increment      1: Step Time =    1.000,"P-2-1",          1683,   197.202E-03,   197.208E-03,            0.,NA,NA,"",   999.976E+03,   999.954E+03,   999.954E+03
C:/temp/Job-2.odb,Step-1,Increment      1: Step Time =    1.000,"P-2-1",          1684,   191.833E-03,   197.415E-03,            0.,NA,NA,"",    999.77E+03,   999.760E+03,   999.760E+03
C:/temp/Job-2.odb,Step-1,Increment      1: Step Time =    1.000,"P-2-1",          1685,   176.704E-03,   197.595E-03,            0.,NA,NA,"",   998.593E+03,   998.573E+03,   998.573E+03
C:/temp/Job-2.odb,Step-1,Increment      1: Step Time =    1.000,"P-2-1",          1686,   171.674E-03,   197.174E-03,            0.,NA,NA,"",   997.902E+03,   997.832E+03,   997.832E+03
C:/temp/Job-2.odb,Step-1,Increment      1: Step Time =    1.000,"P-2-1",          1687,   165.896E-03,   196.941E-03,            0.,NA,NA,"",   996.491E+03,   996.414E+03,   996.414E+03
C:/temp/Job-2.odb,Step-1,Increment      1: Step Time =    1.000,"P-2-1",          1688,   160.761E-03,   197.509E-03,            0.,NA,NA,"",   994.280E+03,   994.205E+03,   994.205E+03
C:/temp/Job-2.odb,Step-1,Increment      1: Step Time =    1.000,"P-2-1",          1689,   155.681E-03,   197.620E-03,            0.,NA,NA,"",   991.341E+03,   991.252E+03,   991.252E+03
C:/temp/Job-2.odb,Step-1,Increment      1: Step Time =    1.000,"P-2-1",          1690,   150.553E-03,   197.605E-03,            0.,NA,NA,"",   987.375E+03,   987.279E+03,   987.279E+03
C:/temp/Job-2.odb,Step-1,Increment      1: Step Time =    1.000,"P-2-1",          1691,   145.419E-03,   197.517E-03,            0.,NA,NA,"",   982.411E+03,   982.305E+03,   982.305E+03
C:/temp/Job-2.odb,Step-1,Increment      1: Step Time =    1.000,"P-2-1",          1692,   140.258E-03,   197.441E-03,            0.,NA,NA,"",   976.419E+03,   976.320E+03,   976.320E+03
C:/temp/Job-2.odb,Step-1,Increment      1: Step Time =    1.000,"P-2-1",          1693,   135.070E-03,   197.411E-03,            0.,NA,NA,"",   969.483E+03,   969.411E+03,   969.411E+03
C:/temp/Job-2.odb,Step-1,Increment      1: Step Time =    1.000,"P-2-1",          1694,   129.880E-03,   197.421E-03,            0.,NA,NA,"",   961.880E+03,   961.849E+03,   961.849E+03
C:/temp/Job-2.odb,Step-1,Increment      1: Step Time =    1.000,"P-2-1",          1695,   124.710E-03,   197.458E-03,            0.,NA,NA,"",   954.022E+03,   954.033E+03,   954.033E+03
C:/temp/Job-2.odb,Step-1,Increment      1: Step Time =    1.000,"P-2-1",          1696,   119.547E-03,   197.503E-03,            0.,NA,NA,"",   946.335E+03,   946.391E+03,   946.391E+03
C:/temp/Job-2.odb,Step-1,Increment      1: Step Time =    1.000,"P-2-1",          1697,   114.358E-03,   197.525E-03,            0.,NA,NA,"",   939.331E+03,   939.470E+03,   939.470E+03
C:/temp/Job-2.odb,Step-1,Increment      1: Step Time =    1.000,"P-2-1",          1698,   109.185E-03,   197.526E-03,            0.,NA,NA,"",   933.851E+03,   933.987E+03,   933.987E+03
C:/temp/Job-2.odb,Step-1,Increment      1: Step Time =    1.000,"P-2-1",          1699,   104.106E-03,   197.489E-03,            0.,NA,NA,"",   929.987E+03,   930.215E+03,   930.215E+03
C:/temp/Job-2.odb,Step-1,Increment      1: Step Time =    1.000,"P-2-1",          1700,   98.7548E-03,   196.634E-03,            0.,NA,NA,"",   931.748E+03,   931.927E+03,   931.927E+03
C:/temp/Job-2.odb,Step-1,Increment      1: Step Time =    1.000,"P-2-1",          1701,   90.7657E-03,   197.658E-03,            0.,NA,NA,"",    928.46E+03,   928.635E+03,   928.635E+03
C:/temp/Job-2.odb,Step-1,Increment      1: Step Time =    1.000,"P-2-1",          1702,   85.6876E-03,   197.604E-03,            0.,NA,NA,"",   931.607E+03,   931.772E+03,   931.772E+03
C:/temp/Job-2.odb,Step-1,Increment      1: Step Time =    1.000,"P-2-1",          1703,   80.4886E-03,   197.464E-03,            0.,NA,NA,"",   936.585E+03,   936.662E+03,   936.662E+03
C:/temp/Job-2.odb,Step-1,Increment      1: Step Time =    1.000,"P-2-1",          1704,   75.3168E-03,   197.478E-03,            0.,NA,NA,"",   942.235E+03,   942.304E+03,   942.304E+03
C:/temp/Job-2.odb,Step-1,Increment      1: Step Time =    1.000,"P-2-1",          1705,   70.1648E-03,   197.499E-03,            0.,NA,NA,"",   948.589E+03,   948.617E+03,   948.617E+03
C:/temp/Job-2.odb,Step-1,Increment      1: Step Time =    1.000,"P-2-1",          1706,   64.9691E-03,   197.442E-03,            0.,NA,NA,"",   955.724E+03,   955.739E+03,   955.739E+03
C:/temp/Job-2.odb,Step-1,Increment      1: Step Time =    1.000,"P-2-1",          1707,   59.7457E-03,   197.396E-03,            0.,NA,NA,"",   962.972E+03,   962.942E+03,   962.942E+03
C:/temp/Job-2.odb,Step-1,Increment      1: Step Time =    1.000,"P-2-1",          1708,   54.5655E-03,   197.575E-03,            0.,NA,NA,"",   969.762E+03,   969.782E+03,   969.782E+03
C:/temp/Job-2.odb,Step-1,Increment      1: Step Time =    1.000,"P-2-1",          1709,   49.4060E-03,   197.662E-03,            0.,NA,NA,"",   977.266E+03,   977.350E+03,   977.350E+03
C:/temp/Job-2.odb,Step-1,Increment      1: Step Time =    1.000,"P-2-1",          1710,   44.3026E-03,   197.526E-03,            0.,NA,NA,"",   986.423E+03,   986.537E+03,   986.537E+03
C:/temp/Job-2.odb,Step-1,Increment      1: Step Time =    1.000,"P-2-1",          1711,   39.2178E-03,   197.165E-03,            0.,NA,NA,"",   998.226E+03,   998.676E+03,   998.676E+03
C:/temp/Job-2.odb,Step-1,Increment      1: Step Time =    1.000,"P-2-1",          1712,   33.7100E-03,   195.913E-03,            0.,NA,NA,"",   1.02043E+06,   1.02109E+06,   1.02109E+06
C:/temp/Job-2.odb,Step-1,Increment      1: Step Time =    1.000,"P-2-1",          1713,   28.0053E-03,   196.992E-03,            0.,NA,NA,"",   1.03565E+06,   1.03629E+06,   1.03629E+06
C:/temp/Job-2.odb,Step-1,Increment      1: Step Time =    1.000,"P-2-1",          1714,   22.7850E-03,   196.175E-03,            0.,NA,NA,"",   1.07269E+06,   1.07451E+06,   1.07451E+06
C:/temp/Job-2.odb,Step-1,Increment      1: Step Time =    1.000,"P-2-1",          1715,   18.2777E-03,   197.894E-03,            0.,NA,NA,"",   1.09259E+06,   1.09394E+06,   1.09394E+06
C:/temp/Job-2.odb,Step-1,Increment      1: Step Time =    1.000,"P-2-1",          1716,   13.2378E-03,   197.671E-03,            0.,NA,NA,"",   1.15801E+06,   1.16121E+06,   1.16121E+06
C:/temp/Job-2.odb,Step-1,Increment      1: Step Time =    1.000,"P-2-1",          1717,   2.56176E-03,   191.806E-03,            0.,NA,NA,"",   1.19056E+06,   1.28759E+06,   1.28759E+06
C:/temp/Job-2.odb,Step-1,Increment      1: Step Time =    1.000,"P-2-1",          1718,   2.13841E-03,   186.719E-03,            0.,NA,NA,"",   1.07022E+06,   1.17429E+06,   1.17429E+06
C:/temp/Job-2.odb,Step-1,Increment      1: Step Time =    1.000,"P-2-1",          1719,   2.25617E-03,   181.772E-03,            0.,NA,NA,"",   1.00864E+06,   1.11318E+06,   1.11318E+06
C:/temp/Job-2.odb,Step-1,Increment      1: Step Time =    1.000,"P-2-1",          1720,   2.84255E-03,   171.652E-03,            0.,NA,NA,"",   938.709E+03,   1.04206E+06,   1.04206E+06
C:/temp/Job-2.odb,Step-1,Increment      1: Step Time =    1.000,"P-2-1",          1721,   3.05243E-03,   165.886E-03,            0.,NA,NA,"",   911.254E+03,   1.01459E+06,   1.01459E+06
C:/temp/Job-2.odb,Step-1,Increment      1: Step Time =    1.000,"P-2-1",          1722,   2.48038E-03,   160.761E-03,            0.,NA,NA,"",   888.585E+03,   993.200E+03,   993.200E+03
C:/temp/Job-2.odb,Step-1,Increment      1: Step Time =    1.000,"P-2-1",          1723,   2.36766E-03,   155.688E-03,            0.,NA,NA,"",   871.838E+03,   976.422E+03,   976.422E+03
C:/temp/Job-2.odb,Step-1,Increment      1: Step Time =    1.000,"P-2-1",          1724,   2.38487E-03,   150.562E-03,            0.,NA,NA,"",   857.133E+03,   961.407E+03,   961.407E+03
C:/temp/Job-2.odb,Step-1,Increment      1: Step Time =    1.000,"P-2-1",          1725,   2.47828E-03,   145.425E-03,            0.,NA,NA,"",   844.159E+03,   947.928E+03,   947.928E+03
C:/temp/Job-2.odb,Step-1,Increment      1: Step Time =    1.000,"P-2-1",          1726,   2.55719E-03,   140.256E-03,            0.,NA,NA,"",   832.138E+03,   935.342E+03,   935.342E+03
C:/temp/Job-2.odb,Step-1,Increment      1: Step Time =    1.000,"P-2-1",          1727,   2.47814E-03,   114.353E-03,            0.,NA,NA,"",   786.410E+03,   887.042E+03,   887.042E+03
C:/temp/Job-2.odb,Step-1,Increment      1: Step Time =    1.000,"P-2-1",          1728,   2.47513E-03,   109.179E-03,            0.,NA,NA,"",   781.730E+03,   882.046E+03,   882.046E+03
C:/temp/Job-2.odb,Step-1,Increment      1: Step Time =    1.000,"P-2-1",          1729,   2.51067E-03,   104.103E-03,            0.,NA,NA,"",   779.084E+03,   879.218E+03,   879.218E+03
C:/temp/Job-2.odb,Step-1,Increment      1: Step Time =    1.000,"P-2-1",          1730,   3.35085E-03,   98.7429E-03,            0.,NA,NA,"",   779.730E+03,   879.357E+03,   879.357E+03
C:/temp/Job-2.odb,Step-1,Increment      1: Step Time =    1.000,"P-2-1",          1731,   2.30627E-03,   90.7550E-03,            0.,NA,NA,"",   781.572E+03,   881.999E+03,   881.999E+03
C:/temp/Job-2.odb,Step-1,Increment      1: Step Time =    1.000,"P-2-1",          1732,   2.36589E-03,   85.6664E-03,            0.,NA,NA,"",   786.325E+03,   887.015E+03,   887.015E+03
C:/temp/Job-2.odb,Step-1,Increment      1: Step Time =    1.000,"P-2-1",          1733,   2.52379E-03,   80.4773E-03,            0.,NA,NA,"",   793.083E+03,   894.155E+03,   894.155E+03
C:/temp/Job-2.odb,Step-1,Increment      1: Step Time =    1.000,"P-2-1",          1734,   2.52925E-03,   75.3272E-03,            0.,NA,NA,"",   801.037E+03,   902.607E+03,   902.607E+03
C:/temp/Job-2.odb,Step-1,Increment      1: Step Time =    1.000,"P-2-1",          1735,   2.51036E-03,   70.1639E-03,            0.,NA,NA,"",   810.276E+03,   912.419E+03,   912.419E+03
C:/temp/Job-2.odb,Step-1,Increment      1: Step Time =    1.000,"P-2-1",          1736,   2.56571E-03,   64.9581E-03,            0.,NA,NA,"",   820.903E+03,   923.548E+03,   923.548E+03
C:/temp/Job-2.odb,Step-1,Increment      1: Step Time =    1.000,"P-2-1",          1737,   2.59469E-03,   59.7367E-03,            0.,NA,NA,"",   832.273E+03,   935.467E+03,   935.467E+03
C:/temp/Job-2.odb,Step-1,Increment      1: Step Time =    1.000,"P-2-1",          1738,   2.39163E-03,   54.5676E-03,            0.,NA,NA,"",   844.042E+03,   947.893E+03,   947.893E+03
C:/temp/Job-2.odb,Step-1,Increment      1: Step Time =    1.000,"P-2-1",          1739,   2.31806E-03,   49.4113E-03,            0.,NA,NA,"",   857.326E+03,   961.692E+03,   961.692E+03
C:/temp/Job-2.odb,Step-1,Increment      1: Step Time =    1.000,"P-2-1",          1740,   2.47913E-03,   44.3288E-03,            0.,NA,NA,"",   872.247E+03,   976.693E+03,   976.693E+03
C:/temp/Job-2.odb,Step-1,Increment      1: Step Time =    1.000,"P-2-1",          1741,   2.83977E-03,   39.2388E-03,            0.,NA,NA,"",   890.492E+03,   994.510E+03,   994.510E+03
C:/temp/Job-2.odb,Step-1,Increment      1: Step Time =    1.000,"P-2-1",          1742,   4.08651E-03,   33.7185E-03,            0.,NA,NA,"",   918.662E+03,   1.01965E+06,   1.01965E+06
C:/temp/Job-2.odb,Step-1,Increment      1: Step Time =    1.000,"P-2-1",          1743,   3.00923E-03,   28.0052E-03,            0.,NA,NA,"",   941.554E+03,   1.04472E+06,   1.04472E+06
C:/temp/Job-2.odb,Step-1,Increment      1: Step Time =    1.000,"P-2-1",          1744,   3.82797E-03,   22.7846E-03,            0.,NA,NA,"",   981.446E+03,   1.08163E+06,   1.08163E+06
C:/temp/Job-2.odb,Step-1,Increment      1: Step Time =    1.000,"P-2-1",          1745,   194.472E-03,   2.90269E-03,            0.,NA,NA,"",   999.902E+03,   999.883E+03,   999.883E+03
C:/temp/Job-2.odb,Step-1,Increment      1: Step Time =    1.000,"P-2-1",          1746,   189.278E-03,   2.46300E-03,            0.,NA,NA,"",   999.639E+03,   999.636E+03,   999.636E+03
C:/temp/Job-2.odb,Step-1,Increment      1: Step Time =    1.000,"P-2-1",          1747,   184.238E-03,   2.20874E-03,            0.,NA,NA,"",   999.319E+03,   999.316E+03,   999.316E+03
C:/temp/Job-2.odb,Step-1,Increment      1: Step Time =    1.000,"P-2-1",          1748,   179.173E-03,   4.12073E-03,            0.,NA,NA,"",   999.076E+03,   999.046E+03,   999.046E+03
C:/temp/Job-2.odb,Step-1,Increment      1: Step Time =    1.000,"P-2-1",          1749,   174.526E-03,   2.57969E-03,            0.,NA,NA,"",   998.439E+03,   998.404E+03,   998.404E+03
C:/temp/Job-2.odb,Step-1,Increment      1: Step Time =    1.000,"P-2-1",          1750,   169.289E-03,   3.44331E-03,            0.,NA,NA,"",   997.661E+03,   997.552E+03,   997.552E+03
C:/temp/Job-2.odb,Step-1,Increment      1: Step Time =    1.000,"P-2-1",          1751,   163.367E-03,   3.03119E-03,            0.,NA,NA,"",   995.778E+03,   995.692E+03,   995.692E+03
C:/temp/Job-2.odb,Step-1,Increment      1: Step Time =    1.000,"P-2-1",          1752,   158.253E-03,   2.61805E-03,            0.,NA,NA,"",   993.260E+03,   993.167E+03,   993.167E+03
C:/temp/Job-2.odb,Step-1,Increment      1: Step Time =    1.000,"P-2-1",          1753,   153.159E-03,   2.38747E-03,            0.,NA,NA,"",   989.792E+03,   989.709E+03,   989.709E+03
C:/temp/Job-2.odb,Step-1,Increment      1: Step Time =    1.000,"P-2-1",          1754,   148.013E-03,   2.35083E-03,            0.,NA,NA,"",   985.324E+03,   985.221E+03,   985.221E+03
C:/temp/Job-2.odb,Step-1,Increment      1: Step Time =    1.000,"P-2-1",          1755,   142.842E-03,   2.52646E-03,            0.,NA,NA,"",   979.851E+03,   979.744E+03,   979.744E+03
C:/temp/Job-2.odb,Step-1,Increment      1: Step Time =    1.000,"P-2-1",          1756,   137.653E-03,   2.59694E-03,            0.,NA,NA,"",   973.439E+03,   973.350E+03,   973.350E+03
C:/temp/Job-2.odb,Step-1,Increment      1: Step Time =    1.000,"P-2-1",          1757,   132.427E-03,   2.51387E-03,            0.,NA,NA,"",   965.921E+03,   965.872E+03,   965.872E+03
C:/temp/Job-2.odb,Step-1,Increment      1: Step Time =    1.000,"P-2-1",          1758,   127.267E-03,   2.49970E-03,            0.,NA,NA,"",   958.119E+03,   958.099E+03,   958.099E+03
C:/temp/Job-2.odb,Step-1,Increment      1: Step Time =    1.000,"P-2-1",          1759,   122.110E-03,   2.55022E-03,            0.,NA,NA,"",   950.377E+03,   950.416E+03,   950.416E+03
C:/temp/Job-2.odb,Step-1,Increment      1: Step Time =    1.000,"P-2-1",          1760,   116.948E-03,   2.50142E-03,            0.,NA,NA,"",   942.998E+03,   943.092E+03,   943.092E+03
C:/temp/Job-2.odb,Step-1,Increment      1: Step Time =    1.000,"P-2-1",          1761,   111.765E-03,   2.39115E-03,            0.,NA,NA,"",   936.274E+03,   936.412E+03,   936.412E+03
C:/temp/Job-2.odb,Step-1,Increment      1: Step Time =    1.000,"P-2-1",          1762,   106.743E-03,   2.42736E-03,            0.,NA,NA,"",   931.781E+03,   931.981E+03,   931.981E+03
C:/temp/Job-2.odb,Step-1,Increment      1: Step Time =    1.000,"P-2-1",          1763,   104.130E-03,   2.74051E-03,            0.,NA,NA,"",   931.089E+03,   931.226E+03,   931.226E+03
C:/temp/Job-2.odb,Step-1,Increment      1: Step Time =    1.000,"P-2-1",          1764,   98.4268E-03,   2.54383E-03,            0.,NA,NA,"",   928.330E+03,   928.524E+03,   928.524E+03
C:/temp/Job-2.odb,Step-1,Increment      1: Step Time =    1.000,"P-2-1",          1765,   93.3726E-03,   2.48563E-03,            0.,NA,NA,"",   928.047E+03,   928.240E+03,   928.240E+03
C:/temp/Job-2.odb,Step-1,Increment      1: Step Time =    1.000,"P-2-1",          1766,   88.2391E-03,   2.47337E-03,            0.,NA,NA,"",   929.882E+03,   930.040E+03,   930.040E+03
C:/temp/Job-2.odb,Step-1,Increment      1: Step Time =    1.000,"P-2-1",          1767,   83.0461E-03,   2.48191E-03,            0.,NA,NA,"",   933.745E+03,   933.860E+03,   933.860E+03
C:/temp/Job-2.odb,Step-1,Increment      1: Step Time =    1.000,"P-2-1",          1768,   77.8745E-03,   2.51885E-03,            0.,NA,NA,"",   938.990E+03,   939.067E+03,   939.067E+03
C:/temp/Job-2.odb,Step-1,Increment      1: Step Time =    1.000,"P-2-1",          1769,   72.7159E-03,   2.56357E-03,            0.,NA,NA,"",   945.168E+03,   945.218E+03,   945.218E+03
C:/temp/Job-2.odb,Step-1,Increment      1: Step Time =    1.000,"P-2-1",          1770,   67.5328E-03,   2.58828E-03,            0.,NA,NA,"",   951.935E+03,   951.957E+03,   951.957E+03
C:/temp/Job-2.odb,Step-1,Increment      1: Step Time =    1.000,"P-2-1",          1771,   62.3377E-03,   2.57896E-03,            0.,NA,NA,"",   958.987E+03,   958.982E+03,   958.982E+03
C:/temp/Job-2.odb,Step-1,Increment      1: Step Time =    1.000,"P-2-1",          1772,   57.1545E-03,   2.53094E-03,            0.,NA,NA,"",   966.088E+03,   966.085E+03,   966.085E+03
C:/temp/Job-2.odb,Step-1,Increment      1: Step Time =    1.000,"P-2-1",          1773,   51.9994E-03,   2.45452E-03,            0.,NA,NA,"",   973.328E+03,   973.352E+03,   973.352E+03
C:/temp/Job-2.odb,Step-1,Increment      1: Step Time =    1.000,"P-2-1",          1774,   46.8791E-03,   2.39808E-03,            0.,NA,NA,"",   981.188E+03,   981.258E+03,   981.258E+03
C:/temp/Job-2.odb,Step-1,Increment      1: Step Time =    1.000,"P-2-1",          1775,   41.7709E-03,   2.43548E-03,            0.,NA,NA,"",   990.571E+03,   990.743E+03,   990.743E+03
C:/temp/Job-2.odb,Step-1,Increment      1: Step Time =    1.000,"P-2-1",          1776,   36.7178E-03,   2.65496E-03,            0.,NA,NA,"",   1.00289E+06,   1.00343E+06,   1.00343E+06
C:/temp/Job-2.odb,Step-1,Increment      1: Step Time =    1.000,"P-2-1",          1777,   31.2246E-03,   3.78880E-03,            0.,NA,NA,"",   1.02695E+06,   1.02763E+06,   1.02763E+06
C:/temp/Job-2.odb,Step-1,Increment      1: Step Time =    1.000,"P-2-1",          1778,   25.7929E-03,   2.69256E-03,            0.,NA,NA,"",   1.04324E+06,   1.04413E+06,   1.04413E+06
C:/temp/Job-2.odb,Step-1,Increment      1: Step Time =    1.000,"P-2-1",          1779,   20.7331E-03,   2.35418E-03,            0.,NA,NA,"",   1.07429E+06,   1.07514E+06,   1.07514E+06
C:/temp/Job-2.odb,Step-1,Increment      1: Step Time =    1.000,"P-2-1",          1780,   15.7421E-03,   2.17677E-03,            0.,NA,NA,"",   1.11970E+06,   1.12141E+06,   1.12141E+06
C:/temp/Job-2.odb,Step-1,Increment      1: Step Time =    1.000,"P-2-1",          1781,   10.7463E-03,   2.27582E-03,            0.,NA,NA,"",   1.20607E+06,   1.21031E+06,   1.21031E+06
C:/temp/Job-2.odb,Step-1,Increment      1: Step Time =    1.000,"P-2-1",          1782,   5.58947E-03,   2.85454E-03,            0.,NA,NA,"",   1.38679E+06,   1.40298E+06,   1.40298E+06
C:/temp/Job-2.odb,Step-1,Increment      1: Step Time =    1.000,"P-2-1",          1783,   197.143E-03,   194.488E-03,            0.,NA,NA,"",   1.00001E+06,   999.954E+03,   999.954E+03
C:/temp/Job-2.odb,Step-1,Increment      1: Step Time =    1.000,"P-2-1",          1784,   197.574E-03,   189.284E-03,            0.,NA,NA,"",   1.00019E+06,   999.997E+03,   999.997E+03
C:/temp/Job-2.odb,Step-1,Increment      1: Step Time =    1.000,"P-2-1",          1785,   197.778E-03,   184.254E-03,            0.,NA,NA,"",   1.00036E+06,   1.00002E+06,   1.00002E+06
C:/temp/Job-2.odb,Step-1,Increment      1: Step Time =    1.000,"P-2-1",          1786,   195.833E-03,   179.194E-03,            0.,NA,NA,"",   1.00037E+06,   1.00014E+06,   1.00014E+06
C:/temp/Job-2.odb,Step-1,Increment      1: Step Time =    1.000,"P-2-1",          1787,   197.404E-03,   174.531E-03,            0.,NA,NA,"",   1.00038E+06,   1.00013E+06,   1.00013E+06
C:/temp/Job-2.odb,Step-1,Increment      1: Step Time =    1.000,"P-2-1",          1788,   196.545E-03,   169.296E-03,            0.,NA,NA,"",   1.00001E+06,   1.00031E+06,   1.00031E+06
C:/temp/Job-2.odb,Step-1,Increment      1: Step Time =    1.000,"P-2-1",          1789,   196.966E-03,   163.358E-03,            0.,NA,NA,"",   998.885E+03,   1.00023E+06,   1.00023E+06
C:/temp/Job-2.odb,Step-1,Increment      1: Step Time =    1.000,"P-2-1",          1790,   197.376E-03,   158.231E-03,            0.,NA,NA,"",   997.434E+03,   1.00026E+06,   1.00026E+06
C:/temp/Job-2.odb,Step-1,Increment      1: Step Time =    1.000,"P-2-1",          1791,   197.622E-03,   153.142E-03,            0.,NA,NA,"",   995.308E+03,   1.00021E+06,   1.00021E+06
C:/temp/Job-2.odb,Step-1,Increment      1: Step Time =    1.000,"P-2-1",          1792,   197.683E-03,   148.015E-03,            0.,NA,NA,"",   992.590E+03,   1.00024E+06,   1.00024E+06
C:/temp/Job-2.odb,Step-1,Increment      1: Step Time =    1.000,"P-2-1",          1793,   197.502E-03,   142.845E-03,            0.,NA,NA,"",   989.208E+03,   1.00024E+06,   1.00024E+06
C:/temp/Job-2.odb,Step-1,Increment      1: Step Time =    1.000,"P-2-1",          1794,   197.408E-03,   137.667E-03,            0.,NA,NA,"",   985.368E+03,   1.00019E+06,   1.00019E+06
C:/temp/Job-2.odb,Step-1,Increment      1: Step Time =    1.000,"P-2-1",          1795,   197.485E-03,   132.437E-03,            0.,NA,NA,"",   981.028E+03,   1.00008E+06,   1.00008E+06
C:/temp/Job-2.odb,Step-1,Increment      1: Step Time =    1.000,"P-2-1",          1796,   197.493E-03,   127.258E-03,            0.,NA,NA,"",   976.674E+03,   999.995E+03,   999.995E+03
C:/temp/Job-2.odb,Step-1,Increment      1: Step Time =    1.000,"P-2-1",          1797,   197.458E-03,   122.089E-03,            0.,NA,NA,"",   972.482E+03,   999.863E+03,   999.863E+03
C:/temp/Job-2.odb,Step-1,Increment      1: Step Time =    1.000,"P-2-1",          1798,   197.552E-03,   116.938E-03,            0.,NA,NA,"",   968.671E+03,   999.734E+03,   999.734E+03
C:/temp/Job-2.odb,Step-1,Increment      1: Step Time =    1.000,"P-2-1",          1799,   197.678E-03,   111.748E-03,            0.,NA,NA,"",   965.460E+03,   999.643E+03,   999.643E+03
C:/temp/Job-2.odb,Step-1,Increment      1: Step Time =    1.000,"P-2-1",          1800,   197.611E-03,   106.741E-03,            0.,NA,NA,"",   963.523E+03,   999.521E+03,   999.521E+03
C:/temp/Job-2.odb,Step-1,Increment      1: Step Time =    1.000,"P-2-1",          1801,   197.284E-03,   104.138E-03,            0.,NA,NA,"",   963.344E+03,   999.569E+03,   999.569E+03
C:/temp/Job-2.odb,Step-1,Increment      1: Step Time =    1.000,"P-2-1",          1802,   197.459E-03,   98.4320E-03,            0.,NA,NA,"",   962.795E+03,   999.521E+03,   999.521E+03
C:/temp/Job-2.odb,Step-1,Increment      1: Step Time =    1.000,"P-2-1",          1803,   197.511E-03,   93.3747E-03,            0.,NA,NA,"",   963.547E+03,   999.521E+03,   999.521E+03
C:/temp/Job-2.odb,Step-1,Increment      1: Step Time =    1.000,"P-2-1",          1804,   197.523E-03,   88.2449E-03,            0.,NA,NA,"",   965.534E+03,   999.626E+03,   999.626E+03
C:/temp/Job-2.odb,Step-1,Increment      1: Step Time =    1.000,"P-2-1",          1805,   197.515E-03,   83.0535E-03,            0.,NA,NA,"",   968.597E+03,   999.743E+03,   999.743E+03
C:/temp/Job-2.odb,Step-1,Increment      1: Step Time =    1.000,"P-2-1",          1806,   197.480E-03,   77.8772E-03,            0.,NA,NA,"",   972.391E+03,   999.870E+03,   999.870E+03
C:/temp/Job-2.odb,Step-1,Increment      1: Step Time =    1.000,"P-2-1",          1807,   197.437E-03,   72.7151E-03,            0.,NA,NA,"",   976.590E+03,   999.981E+03,   999.981E+03
C:/temp/Job-2.odb,Step-1,Increment      1: Step Time =    1.000,"P-2-1",          1808,   197.414E-03,   67.5335E-03,            0.,NA,NA,"",   980.951E+03,   1.00009E+06,   1.00009E+06
C:/temp/Job-2.odb,Step-1,Increment      1: Step Time =    1.000,"P-2-1",          1809,   197.424E-03,   62.3389E-03,            0.,NA,NA,"",   985.207E+03,   1.00019E+06,   1.00019E+06
C:/temp/Job-2.odb,Step-1,Increment      1: Step Time =    1.000,"P-2-1",          1810,   197.479E-03,   57.1539E-03,            0.,NA,NA,"",   989.092E+03,   1.00024E+06,   1.00024E+06
C:/temp/Job-2.odb,Step-1,Increment      1: Step Time =    1.000,"P-2-1",          1811,   197.573E-03,   52.0013E-03,            0.,NA,NA,"",   992.453E+03,   1.00025E+06,   1.00025E+06
C:/temp/Job-2.odb,Step-1,Increment      1: Step Time =    1.000,"P-2-1",          1812,   197.639E-03,   46.8737E-03,            0.,NA,NA,"",   995.210E+03,   1.00023E+06,   1.00023E+06
C:/temp/Job-2.odb,Step-1,Increment      1: Step Time =    1.000,"P-2-1",          1813,   197.592E-03,   41.7579E-03,            0.,NA,NA,"",   997.338E+03,   1.00022E+06,   1.00022E+06
C:/temp/Job-2.odb,Step-1,Increment      1: Step Time =    1.000,"P-2-1",          1814,   197.358E-03,   36.7121E-03,            0.,NA,NA,"",   998.818E+03,   1.00021E+06,   1.00021E+06
C:/temp/Job-2.odb,Step-1,Increment      1: Step Time =    1.000,"P-2-1",          1815,   196.217E-03,   31.2267E-03,            0.,NA,NA,"",   999.838E+03,   1.00031E+06,   1.00031E+06
C:/temp/Job-2.odb,Step-1,Increment      1: Step Time =    1.000,"P-2-1",          1816,   197.308E-03,   25.7923E-03,            0.,NA,NA,"",   1.00031E+06,   1.00014E+06,   1.00014E+06
C:/temp/Job-2.odb,Step-1,Increment      1: Step Time =    1.000,"P-2-1",          1817,   197.646E-03,   20.7325E-03,            0.,NA,NA,"",   1.00041E+06,   1.00006E+06,   1.00006E+06
C:/temp/Job-2.odb,Step-1,Increment      1: Step Time =    1.000,"P-2-1",          1818,   197.824E-03,   15.7416E-03,            0.,NA,NA,"",   1.00034E+06,   1.00003E+06,   1.00003E+06
C:/temp/Job-2.odb,Step-1,Increment      1: Step Time =    1.000,"P-2-1",          1819,   197.726E-03,   10.7458E-03,            0.,NA,NA,"",   1.00018E+06,   999.997E+03,   999.997E+03
C:/temp/Job-2.odb,Step-1,Increment      1: Step Time =    1.000,"P-2-1",          1820,   197.147E-03,   5.58790E-03,            0.,NA,NA,"",   1.00002E+06,   999.961E+03,   999.961E+03
C:/temp/Job-2.odb,Step-1,Increment      1: Step Time =    1.000,"P-2-1",          1821,   10.7226E-03,   197.537E-03,            0.,NA,NA,"",   1.20725E+06,   1.21210E+06,   1.21210E+06
C:/temp/Job-2.odb,Step-1,Increment      1: Step Time =    1.000,"P-2-1",          1822,   15.7624E-03,   197.792E-03,            0.,NA,NA,"",   1.12136E+06,   1.12334E+06,   1.12334E+06
C:/temp/Job-2.odb,Step-1,Increment      1: Step Time =    1.000,"P-2-1",          1823,   20.8269E-03,   195.881E-03,            0.,NA,NA,"",   1.08804E+06,   1.09046E+06,   1.09046E+06
C:/temp/Job-2.odb,Step-1,Increment      1: Step Time =    1.000,"P-2-1",          1824,   25.4737E-03,   197.421E-03,            0.,NA,NA,"",   1.04476E+06,   1.04547E+06,   1.04547E+06
C:/temp/Job-2.odb,Step-1,Increment      1: Step Time =    1.000,"P-2-1",          1825,   30.7108E-03,   196.556E-03,            0.,NA,NA,"",   1.02726E+06,   1.02775E+06,   1.02775E+06
C:/temp/Job-2.odb,Step-1,Increment      1: Step Time =    1.000,"P-2-1",          1826,   36.6330E-03,   196.970E-03,            0.,NA,NA,"",   1.00612E+06,   1.00657E+06,   1.00657E+06
C:/temp/Job-2.odb,Step-1,Increment      1: Step Time =    1.000,"P-2-1",          1827,   41.7463E-03,   197.384E-03,            0.,NA,NA,"",   992.226E+03,   992.456E+03,   992.456E+03
C:/temp/Job-2.odb,Step-1,Increment      1: Step Time =    1.000,"P-2-1",          1828,   46.8386E-03,   197.614E-03,            0.,NA,NA,"",   981.613E+03,   981.722E+03,   981.722E+03
C:/temp/Job-2.odb,Step-1,Increment      1: Step Time =    1.000,"P-2-1",          1829,   51.9848E-03,   197.649E-03,            0.,NA,NA,"",   973.363E+03,   973.385E+03,   973.385E+03
C:/temp/Job-2.odb,Step-1,Increment      1: Step Time =    1.000,"P-2-1",          1830,   57.1559E-03,   197.472E-03,            0.,NA,NA,"",    966.35E+03,   966.348E+03,   966.348E+03
C:/temp/Job-2.odb,Step-1,Increment      1: Step Time =    1.000,"P-2-1",          1831,   62.3469E-03,   197.399E-03,            0.,NA,NA,"",   959.428E+03,   959.430E+03,   959.430E+03
C:/temp/Job-2.odb,Step-1,Increment      1: Step Time =    1.000,"P-2-1",          1832,   67.5763E-03,   197.480E-03,            0.,NA,NA,"",   952.065E+03,   952.079E+03,   952.079E+03
C:/temp/Job-2.odb,Step-1,Increment      1: Step Time =    1.000,"P-2-1",          1833,   72.7412E-03,   197.496E-03,            0.,NA,NA,"",   945.323E+03,   945.362E+03,   945.362E+03
C:/temp/Job-2.odb,Step-1,Increment      1: Step Time =    1.000,"P-2-1",          1834,   77.9052E-03,   197.458E-03,            0.,NA,NA,"",   939.319E+03,   939.403E+03,   939.403E+03
C:/temp/Job-2.odb,Step-1,Increment      1: Step Time =    1.000,"P-2-1",          1835,   83.0795E-03,   197.532E-03,            0.,NA,NA,"",   933.981E+03,   934.109E+03,   934.109E+03
C:/temp/Job-2.odb,Step-1,Increment      1: Step Time =    1.000,"P-2-1",          1836,   88.2593E-03,   197.646E-03,            0.,NA,NA,"",   929.717E+03,   929.865E+03,   929.865E+03
C:/temp/Job-2.odb,Step-1,Increment      1: Step Time =    1.000,"P-2-1",          1837,   93.2620E-03,   197.589E-03,            0.,NA,NA,"",   928.026E+03,   928.250E+03,   928.250E+03
C:/temp/Job-2.odb,Step-1,Increment      1: Step Time =    1.000,"P-2-1",          1838,   95.8678E-03,   197.271E-03,            0.,NA,NA,"",   928.839E+03,   929.009E+03,   929.009E+03
C:/temp/Job-2.odb,Step-1,Increment      1: Step Time =    1.000,"P-2-1",          1839,   101.571E-03,   197.459E-03,            0.,NA,NA,"",   929.273E+03,   929.435E+03,   929.435E+03
C:/temp/Job-2.odb,Step-1,Increment      1: Step Time =    1.000,"P-2-1",          1840,   106.627E-03,   197.513E-03,            0.,NA,NA,"",   931.782E+03,   931.971E+03,   931.971E+03
C:/temp/Job-2.odb,Step-1,Increment      1: Step Time =    1.000,"P-2-1",          1841,   111.762E-03,   197.526E-03,            0.,NA,NA,"",   936.342E+03,   936.480E+03,   936.480E+03
C:/temp/Job-2.odb,Step-1,Increment      1: Step Time =    1.000,"P-2-1",          1842,   116.955E-03,   197.519E-03,            0.,NA,NA,"",   942.726E+03,   942.809E+03,   942.809E+03
C:/temp/Job-2.odb,Step-1,Increment      1: Step Time =    1.000,"P-2-1",          1843,   122.130E-03,   197.483E-03,            0.,NA,NA,"",   950.127E+03,    950.16E+03,    950.16E+03
C:/temp/Job-2.odb,Step-1,Increment      1: Step Time =    1.000,"P-2-1",          1844,   127.291E-03,   197.438E-03,            0.,NA,NA,"",   957.956E+03,   957.946E+03,   957.946E+03
C:/temp/Job-2.odb,Step-1,Increment      1: Step Time =    1.000,"P-2-1",          1845,   132.473E-03,   197.414E-03,            0.,NA,NA,"",   965.741E+03,   965.689E+03,   965.689E+03
C:/temp/Job-2.odb,Step-1,Increment      1: Step Time =    1.000,"P-2-1",          1846,   137.665E-03,   197.423E-03,            0.,NA,NA,"",   973.057E+03,   972.969E+03,   972.969E+03
C:/temp/Job-2.odb,Step-1,Increment      1: Step Time =    1.000,"P-2-1",          1847,   142.843E-03,   197.477E-03,            0.,NA,NA,"",   979.541E+03,   979.436E+03,   979.436E+03
C:/temp/Job-2.odb,Step-1,Increment      1: Step Time =    1.000,"P-2-1",          1848,   147.990E-03,   197.565E-03,            0.,NA,NA,"",   985.023E+03,   984.920E+03,   984.920E+03
C:/temp/Job-2.odb,Step-1,Increment      1: Step Time =    1.000,"P-2-1",          1849,   153.118E-03,   197.626E-03,            0.,NA,NA,"",   989.478E+03,   989.386E+03,   989.386E+03
C:/temp/Job-2.odb,Step-1,Increment      1: Step Time =    1.000,"P-2-1",          1850,   158.236E-03,   197.580E-03,            0.,NA,NA,"",   992.936E+03,   992.855E+03,   992.855E+03
C:/temp/Job-2.odb,Step-1,Increment      1: Step Time =    1.000,"P-2-1",          1851,   163.288E-03,   197.349E-03,            0.,NA,NA,"",   995.452E+03,   995.385E+03,   995.385E+03
C:/temp/Job-2.odb,Step-1,Increment      1: Step Time =    1.000,"P-2-1",          1852,   168.804E-03,   196.217E-03,            0.,NA,NA,"",   997.506E+03,   997.389E+03,   997.389E+03
C:/temp/Job-2.odb,Step-1,Increment      1: Step Time =    1.000,"P-2-1",          1853,   174.230E-03,   197.354E-03,            0.,NA,NA,"",   998.277E+03,   998.241E+03,   998.241E+03
C:/temp/Job-2.odb,Step-1,Increment      1: Step Time =    1.000,"P-2-1",          1854,   179.241E-03,   197.779E-03,            0.,NA,NA,"",   998.853E+03,   998.839E+03,   998.839E+03
C:/temp/Job-2.odb,Step-1,Increment      1: Step Time =    1.000,"P-2-1",          1855,   184.223E-03,   197.893E-03,            0.,NA,NA,"",   999.267E+03,   999.263E+03,   999.263E+03
C:/temp/Job-2.odb,Step-1,Increment      1: Step Time =    1.000,"P-2-1",          1856,   189.256E-03,   197.675E-03,            0.,NA,NA,"",   999.616E+03,   999.613E+03,   999.613E+03
C:/temp/Job-2.odb,Step-1,Increment      1: Step Time =    1.000,"P-2-1",          1857,   194.460E-03,   197.152E-03,            0.,NA,NA,"",   999.895E+03,   999.876E+03,   999.876E+03
C:/temp/Job-2.odb,Step-1,Increment      1: Step Time =    1.000,"P-2-1",          1858,   2.46527E-03,   10.7235E-03,            0.,NA,NA,"",   1.12248E+06,   1.22328E+06,   1.22328E+06
C:/temp/Job-2.odb,Step-1,Increment      1: Step Time =    1.000,"P-2-1",          1859,   2.20996E-03,   15.7628E-03,            0.,NA,NA,"",   1.03642E+06,   1.14057E+06,   1.14057E+06
C:/temp/Job-2.odb,Step-1,Increment      1: Step Time =    1.000,"P-2-1",          1860,   4.12260E-03,   20.8267E-03,            0.,NA,NA,"",   998.049E+03,   1.09664E+06,   1.09664E+06
C:/temp/Job-2.odb,Step-1,Increment      1: Step Time =    1.000,"P-2-1",          1861,   2.58113E-03,   25.4735E-03,            0.,NA,NA,"",   953.584E+03,   1.05765E+06,   1.05765E+06
C:/temp/Job-2.odb,Step-1,Increment      1: Step Time =    1.000,"P-2-1",          1862,   3.44423E-03,   30.7125E-03,            0.,NA,NA,"",   929.690E+03,   1.03195E+06,   1.03195E+06
C:/temp/Job-2.odb,Step-1,Increment      1: Step Time =    1.000,"P-2-1",          1863,   3.03170E-03,   36.6452E-03,            0.,NA,NA,"",   901.320E+03,   1.00469E+06,   1.00469E+06
C:/temp/Job-2.odb,Step-1,Increment      1: Step Time =    1.000,"P-2-1",          1864,   2.62329E-03,   41.7682E-03,            0.,NA,NA,"",   881.132E+03,   985.377E+03,   985.377E+03
C:/temp/Job-2.odb,Step-1,Increment      1: Step Time =    1.000,"P-2-1",          1865,   2.37848E-03,   46.8564E-03,            0.,NA,NA,"",   864.609E+03,   969.086E+03,   969.086E+03
C:/temp/Job-2.odb,Step-1,Increment      1: Step Time =    1.000,"P-2-1",          1866,   2.31823E-03,   51.9838E-03,            0.,NA,NA,"",   850.439E+03,   954.599E+03,   954.599E+03
C:/temp/Job-2.odb,Step-1,Increment      1: Step Time =    1.000,"P-2-1",          1867,   2.50256E-03,   57.1546E-03,            0.,NA,NA,"",   838.002E+03,   941.512E+03,   941.512E+03
C:/temp/Job-2.odb,Step-1,Increment      1: Step Time =    1.000,"P-2-1",          1868,   2.60097E-03,   62.3345E-03,            0.,NA,NA,"",   826.626E+03,   929.529E+03,   929.529E+03
C:/temp/Job-2.odb,Step-1,Increment      1: Step Time =    1.000,"P-2-1",          1869,   2.52938E-03,   67.5698E-03,            0.,NA,NA,"",   815.397E+03,   917.800E+03,   917.800E+03
C:/temp/Job-2.odb,Step-1,Increment      1: Step Time =    1.000,"P-2-1",          1870,   2.51412E-03,   72.7471E-03,            0.,NA,NA,"",   805.499E+03,   907.358E+03,   907.358E+03
C:/temp/Job-2.odb,Step-1,Increment      1: Step Time =    1.000,"P-2-1",          1871,   2.54303E-03,   77.9094E-03,            0.,NA,NA,"",   796.891E+03,   898.195E+03,   898.195E+03
C:/temp/Job-2.odb,Step-1,Increment      1: Step Time =    1.000,"P-2-1",          1872,   2.44750E-03,   83.0569E-03,            0.,NA,NA,"",   789.556E+03,    890.42E+03,    890.42E+03
C:/temp/Job-2.odb,Step-1,Increment      1: Step Time =    1.000,"P-2-1",          1873,   2.31992E-03,   88.2450E-03,            0.,NA,NA,"",   783.625E+03,   884.182E+03,   884.182E+03
C:/temp/Job-2.odb,Step-1,Increment      1: Step Time =    1.000,"P-2-1",          1874,   2.37784E-03,   93.2520E-03,            0.,NA,NA,"",   780.158E+03,   880.412E+03,   880.412E+03
C:/temp/Job-2.odb,Step-1,Increment      1: Step Time =    1.000,"P-2-1",          1875,   2.70194E-03,   95.8543E-03,            0.,NA,NA,"",   779.439E+03,   879.446E+03,   879.446E+03
C:/temp/Job-2.odb,Step-1,Increment      1: Step Time =    1.000,"P-2-1",          1876,   2.53604E-03,   101.567E-03,            0.,NA,NA,"",   778.673E+03,   878.687E+03,   878.687E+03
C:/temp/Job-2.odb,Step-1,Increment      1: Step Time =    1.000,"P-2-1",          1877,   2.48762E-03,   106.624E-03,            0.,NA,NA,"",   780.178E+03,   880.377E+03,   880.377E+03
C:/temp/Job-2.odb,Step-1,Increment      1: Step Time =    1.000,"P-2-1",          1878,   2.47626E-03,   111.756E-03,            0.,NA,NA,"",   783.794E+03,   884.258E+03,   884.258E+03
C:/temp/Job-2.odb,Step-1,Increment      1: Step Time =    1.000,"P-2-1",          1879,   2.48390E-03,   116.951E-03,            0.,NA,NA,"",   789.498E+03,   890.332E+03,   890.332E+03
C:/temp/Job-2.odb,Step-1,Increment      1: Step Time =    1.000,"P-2-1",          1880,   2.51947E-03,   122.124E-03,            0.,NA,NA,"",   796.823E+03,   898.128E+03,   898.128E+03
C:/temp/Job-2.odb,Step-1,Increment      1: Step Time =    1.000,"P-2-1",          1881,   2.56235E-03,   127.283E-03,            0.,NA,NA,"",   805.516E+03,   907.332E+03,   907.332E+03
C:/temp/Job-2.odb,Step-1,Increment      1: Step Time =    1.000,"P-2-1",          1882,   2.58527E-03,   132.465E-03,            0.,NA,NA,"",   815.455E+03,   917.811E+03,   917.811E+03
C:/temp/Job-2.odb,Step-1,Increment      1: Step Time =    1.000,"P-2-1",          1883,   2.57528E-03,   137.661E-03,            0.,NA,NA,"",   826.386E+03,   929.305E+03,   929.305E+03
C:/temp/Job-2.odb,Step-1,Increment      1: Step Time =    1.000,"P-2-1",          1884,   2.52087E-03,   142.845E-03,            0.,NA,NA,"",   838.065E+03,   941.553E+03,   941.553E+03
C:/temp/Job-2.odb,Step-1,Increment      1: Step Time =    1.000,"P-2-1",          1885,   2.42681E-03,   147.998E-03,            0.,NA,NA,"",   850.497E+03,   954.530E+03,   954.530E+03
C:/temp/Job-2.odb,Step-1,Increment      1: Step Time =    1.000,"P-2-1",          1886,   2.36101E-03,   153.125E-03,            0.,NA,NA,"",   864.205E+03,   968.666E+03,   968.666E+03
C:/temp/Job-2.odb,Step-1,Increment      1: Step Time =    1.000,"P-2-1",          1887,   2.40749E-03,   158.240E-03,            0.,NA,NA,"",   879.938E+03,   984.599E+03,   984.599E+03
C:/temp/Job-2.odb,Step-1,Increment      1: Step Time =    1.000,"P-2-1",          1888,   2.64168E-03,   163.285E-03,            0.,NA,NA,"",   898.814E+03,   1.00305E+06,   1.00305E+06
C:/temp/Job-2.odb,Step-1,Increment      1: Step Time =    1.000,"P-2-1",          1889,   3.78197E-03,   168.772E-03,            0.,NA,NA,"",   928.671E+03,   1.03014E+06,   1.03014E+06
C:/temp/Job-2.odb,Step-1,Increment      1: Step Time =    1.000,"P-2-1",          1890,   2.68927E-03,   174.207E-03,            0.,NA,NA,"",   952.470E+03,   1.05627E+06,   1.05627E+06
C:/temp/Job-2.odb,Step-1,Increment      1: Step Time =    1.000,"P-2-1",          1891,   2.35064E-03,   179.268E-03,            0.,NA,NA,"",   987.098E+03,   1.09134E+06,   1.09134E+06
C:/temp/Job-2.odb,Step-1,Increment      1: Step Time =    1.000,"P-2-1",          1892,   2.17427E-03,   184.259E-03,            0.,NA,NA,"",   1.03566E+06,   1.14015E+06,   1.14015E+06
C:/temp/Job-2.odb,Step-1,Increment      1: Step Time =    1.000,"P-2-1",          1893,   2.27423E-03,   189.255E-03,            0.,NA,NA,"",   1.12085E+06,   1.22280E+06,   1.22280E+06
C:/temp/Job-2.odb,Step-1,Increment      1: Step Time =    1.000,"P-2-1",          1894,   2.85352E-03,   194.412E-03,            0.,NA,NA,"",   1.31490E+06,   1.39960E+06,   1.39960E+06
C:/temp/Job-2.odb,Step-1,Increment      1: Step Time =    1.000,"P-2-1",          1895,   101.677E-03,   116.003E-03,            0.,NA,NA,"",   1.84731E+06,   1.98253E+06,   1.98253E+06
C:/temp/Job-2.odb,Step-1,Increment      1: Step Time =    1.000,"P-2-1",          1896,   85.0484E-03,   97.5333E-03,            0.,NA,NA,"",   477.884E+03,  -393.463E+03,  -393.463E+03
C:/temp/Job-2.odb,Step-1,Increment      1: Step Time =    1.000,"P-2-1",          1897,   88.7224E-03,   90.2636E-03,            0.,NA,NA,"",   999.480E+03,   936.449E+03,   936.449E+03
C:/temp/Job-2.odb,Step-1,Increment      1: Step Time =    1.000,"P-2-1",          1898,   89.4530E-03,   111.632E-03,            0.,NA,NA,"",   1.25505E+06,   1.22092E+06,   1.22092E+06
C:/temp/Job-2.odb,Step-1,Increment      1: Step Time =    1.000,"P-2-1",          1899,   85.4604E-03,   105.377E-03,            0.,NA,NA,"",   598.052E+03,   115.827E+03,   115.827E+03
C:/temp/Job-2.odb,Step-1,Increment      1: Step Time =    1.000,"P-2-1",          1900,   102.150E-03,   84.3402E-03,            0.,NA,NA,"",   1.85232E+06,   1.99045E+06,   1.99045E+06
C:/temp/Job-2.odb,Step-1,Increment      1: Step Time =    1.000,"P-2-1",          1901,   85.8843E-03,   95.0713E-03,            0.,NA,NA,"",   544.183E+03,  -117.443E+03,  -117.443E+03
C:/temp/Job-2.odb,Step-1,Increment      1: Step Time =    1.000,"P-2-1",          1902,   113.925E-03,   104.819E-03,            0.,NA,NA,"",   562.198E+03,  -158.420E+03,  -158.420E+03
C:/temp/Job-2.odb,Step-1,Increment      1: Step Time =    1.000,"P-2-1",          1903,   98.4000E-03,   84.0544E-03,            0.,NA,NA,"",   1.85326E+06,   1.98600E+06,   1.98600E+06
C:/temp/Job-2.odb,Step-1,Increment      1: Step Time =    1.000,"P-2-1",          1904,   103.992E-03,   115.107E-03,            0.,NA,NA,"",   1.88235E+06,   1.99050E+06,   1.99050E+06
C:/temp/Job-2.odb,Step-1,Increment      1: Step Time =    1.000,"P-2-1",          1905,   115.592E-03,   100.297E-03,            0.,NA,NA,"",   416.618E+03,  -373.894E+03,  -373.894E+03
C:/temp/Job-2.odb,Step-1,Increment      1: Step Time =    1.000,"P-2-1",          1906,   84.2009E-03,   99.5483E-03,            0.,NA,NA,"",   373.983E+03,  -253.380E+03,  -253.380E+03
C:/temp/Job-2.odb,Step-1,Increment      1: Step Time =    1.000,"P-2-1",          1907,   84.3012E-03,   103.293E-03,            0.,NA,NA,"",   478.366E+03,   -27.737E+03,   -27.737E+03
C:/temp/Job-2.odb,Step-1,Increment      1: Step Time =    1.000,"P-2-1",          1908,   114.764E-03,   102.356E-03,            0.,NA,NA,"",   513.141E+03,  -449.082E+03,  -449.082E+03
C:/temp/Job-2.odb,Step-1,Increment      1: Step Time =    1.000,"P-2-1",          1909,   108.816E-03,   88.4382E-03,            0.,NA,NA,"",   1.42411E+06,   1.42937E+06,   1.42937E+06
C:/temp/Job-2.odb,Step-1,Increment      1: Step Time =    1.000,"P-2-1",          1910,   114.136E-03,   94.6033E-03,            0.,NA,NA,"",   603.528E+03,   81.1610E+03,   81.1610E+03
C:/temp/Job-2.odb,Step-1,Increment      1: Step Time =    1.000,"P-2-1",          1911,   115.392E-03,   96.6210E-03,            0.,NA,NA,"",   521.448E+03,  -61.8001E+03,  -61.8001E+03
C:/temp/Job-2.odb,Step-1,Increment      1: Step Time =    1.000,"P-2-1",          1912,   96.0609E-03,   84.9541E-03,            0.,NA,NA,"",   1.88262E+06,   1.98876E+06,   1.98876E+06
C:/temp/Job-2.odb,Step-1,Increment      1: Step Time =    1.000,"P-2-1",          1913,   104.578E-03,   85.0474E-03,            0.,NA,NA,"",   1.83550E+06,   1.93396E+06,   1.93396E+06
C:/temp/Job-2.odb,Step-1,Increment      1: Step Time =    1.000,"P-2-1",          1914,   111.144E-03,   109.684E-03,            0.,NA,NA,"",   1.00650E+06,   939.548E+03,   939.548E+03
C:/temp/Job-2.odb,Step-1,Increment      1: Step Time =    1.000,"P-2-1",          1915,   98.1343E-03,   115.390E-03,            0.,NA,NA,"",   1.90813E+06,   2.03989E+06,   2.03989E+06
C:/temp/Job-2.odb,Step-1,Increment      1: Step Time =    1.000,"P-2-1",          1916,   83.3830E-03,   93.9548E-03,            0.,NA,NA,"",   700.876E+03,   381.089E+03,   381.089E+03
C:/temp/Job-2.odb,Step-1,Increment      1: Step Time =    1.000,"P-2-1",          1917,   116.422E-03,   92.8144E-03,            0.,NA,NA,"",   852.020E+03,   654.669E+03,   654.669E+03
C:/temp/Job-2.odb,Step-1,Increment      1: Step Time =    1.000,"P-2-1",          1918,   82.7105E-03,   107.027E-03,            0.,NA,NA,"",   809.104E+03,   651.908E+03,   651.908E+03
C:/temp/Job-2.odb,Step-1,Increment      1: Step Time =    1.000,"P-2-1",          1919,   116.198E-03,   105.806E-03,            0.,NA,NA,"",   706.810E+03,   347.953E+03,   347.953E+03
C:/temp/Job-2.odb,Step-1,Increment      1: Step Time =    1.000,"P-2-1",          1920,   107.097E-03,   4.70267E-03,            0.,NA,NA,"",   940.744E+03,   941.199E+03,   941.199E+03
C:/temp/Job-2.odb,Step-1,Increment      1: Step Time =    1.000,"P-2-1",          1921,   92.9030E-03,   195.324E-03,            0.,NA,NA,"",   937.693E+03,   938.183E+03,   938.183E+03
C:/temp/Job-2.odb,Step-1,Increment      1: Step Time =    1.000,"P-2-1",          1922,   4.60151E-03,   92.8798E-03,            0.,NA,NA,"",   783.812E+03,   882.887E+03,   882.887E+03
C:/temp/Job-2.odb,Step-1,Increment      1: Step Time =    1.000,"P-2-1",          1923,   195.371E-03,   107.108E-03,            0.,NA,NA,"",   966.076E+03,   998.820E+03,   998.820E+03
C:/temp/Job-2.odb,Step-1,Increment      1: Step Time =    1.000,"P-2-1",          1924,   157.893E-03,   5.12666E-03,            0.,NA,NA,"",   994.322E+03,   994.042E+03,   994.042E+03
C:/temp/Job-2.odb,Step-1,Increment      1: Step Time =    1.000,"P-2-1",          1925,   153.013E-03,   4.78360E-03,            0.,NA,NA,"",   991.220E+03,   990.954E+03,   990.954E+03
C:/temp/Job-2.odb,Step-1,Increment      1: Step Time =    1.000,"P-2-1",          1926,   148.003E-03,   4.66840E-03,            0.,NA,NA,"",   987.341E+03,   987.066E+03,   987.066E+03
C:/temp/Job-2.odb,Step-1,Increment      1: Step Time =    1.000,"P-2-1",          1927,   142.911E-03,   5.09045E-03,            0.,NA,NA,"",   983.074E+03,   982.767E+03,   982.767E+03
C:/temp/Job-2.odb,Step-1,Increment      1: Step Time =    1.000,"P-2-1",          1928,   137.604E-03,   5.21798E-03,            0.,NA,NA,"",   977.507E+03,   977.246E+03,   977.246E+03
C:/temp/Job-2.odb,Step-1,Increment      1: Step Time =    1.000,"P-2-1",          1929,   132.354E-03,   5.01693E-03,            0.,NA,NA,"",   970.698E+03,   970.553E+03,   970.553E+03
C:/temp/Job-2.odb,Step-1,Increment      1: Step Time =    1.000,"P-2-1",          1930,   127.270E-03,   5.01955E-03,            0.,NA,NA,"",   964.139E+03,   964.089E+03,   964.089E+03
C:/temp/Job-2.odb,Step-1,Increment      1: Step Time =    1.000,"P-2-1",          1931,   122.163E-03,   5.15526E-03,            0.,NA,NA,"",   957.849E+03,   957.961E+03,   957.961E+03
C:/temp/Job-2.odb,Step-1,Increment      1: Step Time =    1.000,"P-2-1",          1932,   116.954E-03,   5.02376E-03,            0.,NA,NA,"",   951.185E+03,   951.442E+03,   951.442E+03
C:/temp/Job-2.odb,Step-1,Increment      1: Step Time =    1.000,"P-2-1",          1933,   111.794E-03,   4.82832E-03,            0.,NA,NA,"",   944.949E+03,   945.337E+03,   945.337E+03
C:/temp/Job-2.odb,Step-1,Increment      1: Step Time =    1.000,"P-2-1",          1934,   93.1920E-03,   4.98044E-03,            0.,NA,NA,"",   938.454E+03,   938.968E+03,   938.968E+03
C:/temp/Job-2.odb,Step-1,Increment      1: Step Time =    1.000,"P-2-1",          1935,   88.1464E-03,   4.95599E-03,            0.,NA,NA,"",   940.444E+03,   940.930E+03,   940.930E+03
C:/temp/Job-2.odb,Step-1,Increment      1: Step Time =    1.000,"P-2-1",          1936,   82.9624E-03,   4.95319E-03,            0.,NA,NA,"",   944.210E+03,   944.549E+03,   944.549E+03
C:/temp/Job-2.odb,Step-1,Increment      1: Step Time =    1.000,"P-2-1",          1937,   77.8311E-03,   5.04807E-03,            0.,NA,NA,"",   949.386E+03,   949.614E+03,   949.614E+03
C:/temp/Job-2.odb,Step-1,Increment      1: Step Time =    1.000,"P-2-1",          1938,   72.7124E-03,   5.13687E-03,            0.,NA,NA,"",   955.472E+03,   955.622E+03,   955.622E+03
C:/temp/Job-2.odb,Step-1,Increment      1: Step Time =    1.000,"P-2-1",          1939,   67.5307E-03,   5.17263E-03,            0.,NA,NA,"",   962.159E+03,   962.231E+03,   962.231E+03
C:/temp/Job-2.odb,Step-1,Increment      1: Step Time =    1.000,"P-2-1",          1940,   62.3267E-03,   5.15439E-03,            0.,NA,NA,"",   969.185E+03,   969.195E+03,   969.195E+03
C:/temp/Job-2.odb,Step-1,Increment      1: Step Time =    1.000,"P-2-1",          1941,   57.1486E-03,   5.07208E-03,            0.,NA,NA,"",   976.341E+03,   976.364E+03,   976.364E+03
C:/temp/Job-2.odb,Step-1,Increment      1: Step Time =    1.000,"P-2-1",          1942,   52.0322E-03,   4.93936E-03,            0.,NA,NA,"",   983.743E+03,   983.852E+03,   983.852E+03
C:/temp/Job-2.odb,Step-1,Increment      1: Step Time =    1.000,"P-2-1",          1943,   47.0066E-03,   4.83401E-03,            0.,NA,NA,"",   991.973E+03,   992.221E+03,   992.221E+03
C:/temp/Job-2.odb,Step-1,Increment      1: Step Time =    1.000,"P-2-1",          1944,   42.0095E-03,   4.91370E-03,            0.,NA,NA,"",   1.00241E+06,   1.00288E+06,   1.00288E+06
C:/temp/Job-2.odb,Step-1,Increment      1: Step Time =    1.000,"P-2-1",          1945,   194.879E-03,   157.845E-03,            0.,NA,NA,"",   997.641E+03,   1.00074E+06,   1.00074E+06
C:/temp/Job-2.odb,Step-1,Increment      1: Step Time =    1.000,"P-2-1",          1946,   195.236E-03,   152.955E-03,            0.,NA,NA,"",   995.664E+03,   1.00066E+06,   1.00066E+06
C:/temp/Job-2.odb,Step-1,Increment      1: Step Time =    1.000,"P-2-1",          1947,   195.428E-03,   148.000E-03,            0.,NA,NA,"",   993.229E+03,   1.00065E+06,   1.00065E+06
C:/temp/Job-2.odb,Step-1,Increment      1: Step Time =    1.000,"P-2-1",          1948,   194.980E-03,   142.929E-03,            0.,NA,NA,"",   990.397E+03,   1.00069E+06,   1.00069E+06
C:/temp/Job-2.odb,Step-1,Increment      1: Step Time =    1.000,"P-2-1",          1949,   194.781E-03,   137.644E-03,            0.,NA,NA,"",   986.847E+03,   1.00054E+06,   1.00054E+06
C:/temp/Job-2.odb,Step-1,Increment      1: Step Time =    1.000,"P-2-1",          1950,   194.984E-03,   132.376E-03,            0.,NA,NA,"",   982.696E+03,   1.00025E+06,   1.00025E+06
C:/temp/Job-2.odb,Step-1,Increment      1: Step Time =    1.000,"P-2-1",          1951,   194.974E-03,   127.253E-03,            0.,NA,NA,"",   978.736E+03,   999.979E+03,   999.979E+03
C:/temp/Job-2.odb,Step-1,Increment      1: Step Time =    1.000,"P-2-1",          1952,   194.852E-03,   122.097E-03,            0.,NA,NA,"",   974.892E+03,   999.600E+03,   999.600E+03
C:/temp/Job-2.odb,Step-1,Increment      1: Step Time =    1.000,"P-2-1",          1953,   195.108E-03,   116.915E-03,            0.,NA,NA,"",   971.104E+03,   999.263E+03,   999.263E+03
C:/temp/Job-2.odb,Step-1,Increment      1: Step Time =    1.000,"P-2-1",          1954,   195.330E-03,   111.763E-03,            0.,NA,NA,"",   967.921E+03,   998.992E+03,   998.992E+03
C:/temp/Job-2.odb,Step-1,Increment      1: Step Time =    1.000,"P-2-1",          1955,   195.010E-03,   93.1996E-03,            0.,NA,NA,"",   966.248E+03,   998.696E+03,   998.696E+03
C:/temp/Job-2.odb,Step-1,Increment      1: Step Time =    1.000,"P-2-1",          1956,   195.030E-03,   88.1603E-03,            0.,NA,NA,"",   968.101E+03,   998.845E+03,   998.845E+03
C:/temp/Job-2.odb,Step-1,Increment      1: Step Time =    1.000,"P-2-1",          1957,   195.039E-03,   82.9784E-03,            0.,NA,NA,"",   971.139E+03,   999.268E+03,   999.268E+03
C:/temp/Job-2.odb,Step-1,Increment      1: Step Time =    1.000,"P-2-1",          1958,   194.952E-03,   77.8366E-03,            0.,NA,NA,"",   974.762E+03,   999.635E+03,   999.635E+03
C:/temp/Job-2.odb,Step-1,Increment      1: Step Time =    1.000,"P-2-1",          1959,   194.864E-03,   72.7101E-03,            0.,NA,NA,"",   978.695E+03,   999.954E+03,   999.954E+03
C:/temp/Job-2.odb,Step-1,Increment      1: Step Time =    1.000,"P-2-1",          1960,   194.834E-03,   67.5323E-03,            0.,NA,NA,"",   982.763E+03,   1.00027E+06,   1.00027E+06
C:/temp/Job-2.odb,Step-1,Increment      1: Step Time =    1.000,"P-2-1",          1961,   194.857E-03,   62.3291E-03,            0.,NA,NA,"",   986.696E+03,   1.00053E+06,   1.00053E+06
C:/temp/Job-2.odb,Step-1,Increment      1: Step Time =    1.000,"P-2-1",          1962,   195.149E-03,   41.9951E-03,            0.,NA,NA,"",   997.531E+03,   1.00066E+06,   1.00066E+06
C:/temp/Job-2.odb,Step-1,Increment      1: Step Time =    1.000,"P-2-1",          1963,   42.1056E-03,   194.876E-03,            0.,NA,NA,"",   1.00383E+06,   1.00442E+06,   1.00442E+06
C:/temp/Job-2.odb,Step-1,Increment      1: Step Time =    1.000,"P-2-1",          1964,   46.9827E-03,   195.219E-03,            0.,NA,NA,"",   992.165E+03,   992.448E+03,   992.448E+03
C:/temp/Job-2.odb,Step-1,Increment      1: Step Time =    1.000,"P-2-1",          1965,   51.9917E-03,   195.331E-03,            0.,NA,NA,"",   983.115E+03,   983.222E+03,   983.222E+03
C:/temp/Job-2.odb,Step-1,Increment      1: Step Time =    1.000,"P-2-1",          1966,   57.0848E-03,   194.907E-03,            0.,NA,NA,"",   976.910E+03,   976.927E+03,   976.927E+03
C:/temp/Job-2.odb,Step-1,Increment      1: Step Time =    1.000,"P-2-1",          1967,   62.3952E-03,   194.776E-03,            0.,NA,NA,"",   969.749E+03,   969.768E+03,   969.768E+03
C:/temp/Job-2.odb,Step-1,Increment      1: Step Time =    1.000,"P-2-1",          1968,   67.6538E-03,   194.974E-03,            0.,NA,NA,"",   961.763E+03,   961.824E+03,   961.824E+03
C:/temp/Job-2.odb,Step-1,Increment      1: Step Time =    1.000,"P-2-1",          1969,   72.7490E-03,   194.973E-03,            0.,NA,NA,"",   955.379E+03,   955.502E+03,   955.502E+03
C:/temp/Job-2.odb,Step-1,Increment      1: Step Time =    1.000,"P-2-1",          1970,   77.8759E-03,   194.866E-03,            0.,NA,NA,"",   950.009E+03,   950.255E+03,   950.255E+03
C:/temp/Job-2.odb,Step-1,Increment      1: Step Time =    1.000,"P-2-1",          1971,   83.1048E-03,   195.073E-03,            0.,NA,NA,"",   944.334E+03,   944.680E+03,   944.680E+03
C:/temp/Job-2.odb,Step-1,Increment      1: Step Time =    1.000,"P-2-1",          1972,   88.2431E-03,   195.252E-03,            0.,NA,NA,"",   939.817E+03,   940.250E+03,   940.250E+03
C:/temp/Job-2.odb,Step-1,Increment      1: Step Time =    1.000,"P-2-1",          1973,   106.807E-03,   195.018E-03,            0.,NA,NA,"",   941.331E+03,   941.815E+03,   941.815E+03
C:/temp/Job-2.odb,Step-1,Increment      1: Step Time =    1.000,"P-2-1",          1974,   111.855E-03,   195.044E-03,            0.,NA,NA,"",   945.300E+03,   945.725E+03,   945.725E+03
C:/temp/Job-2.odb,Step-1,Increment      1: Step Time =    1.000,"P-2-1",          1975,   117.040E-03,   195.052E-03,            0.,NA,NA,"",   950.841E+03,   951.081E+03,   951.081E+03
C:/temp/Job-2.odb,Step-1,Increment      1: Step Time =    1.000,"P-2-1",          1976,   122.178E-03,   194.960E-03,            0.,NA,NA,"",   957.311E+03,   957.402E+03,   957.402E+03
C:/temp/Job-2.odb,Step-1,Increment      1: Step Time =    1.000,"P-2-1",          1977,   127.303E-03,   194.867E-03,            0.,NA,NA,"",   964.126E+03,   964.094E+03,   964.094E+03
C:/temp/Job-2.odb,Step-1,Increment      1: Step Time =    1.000,"P-2-1",          1978,   132.480E-03,   194.829E-03,            0.,NA,NA,"",   970.873E+03,   970.721E+03,   970.721E+03
C:/temp/Job-2.odb,Step-1,Increment      1: Step Time =    1.000,"P-2-1",          1979,   137.680E-03,   194.845E-03,            0.,NA,NA,"",   977.159E+03,   976.908E+03,   976.908E+03
C:/temp/Job-2.odb,Step-1,Increment      1: Step Time =    1.000,"P-2-1",          1980,   142.852E-03,   194.939E-03,            0.,NA,NA,"",   982.632E+03,   982.338E+03,   982.338E+03
C:/temp/Job-2.odb,Step-1,Increment      1: Step Time =    1.000,"P-2-1",          1981,   147.951E-03,   195.106E-03,            0.,NA,NA,"",   987.203E+03,   986.910E+03,   986.910E+03
C:/temp/Job-2.odb,Step-1,Increment      1: Step Time =    1.000,"P-2-1",          1982,   152.986E-03,   195.233E-03,            0.,NA,NA,"",   990.947E+03,   990.679E+03,   990.679E+03
C:/temp/Job-2.odb,Step-1,Increment      1: Step Time =    1.000,"P-2-1",          1983,   157.994E-03,   195.120E-03,            0.,NA,NA,"",   993.985E+03,   993.732E+03,   993.732E+03
C:/temp/Job-2.odb,Step-1,Increment      1: Step Time =    1.000,"P-2-1",          1984,   5.12168E-03,   42.1543E-03,            0.,NA,NA,"",   891.372E+03,   991.327E+03,   991.327E+03
C:/temp/Job-2.odb,Step-1,Increment      1: Step Time =    1.000,"P-2-1",          1985,   4.76433E-03,   47.0418E-03,            0.,NA,NA,"",   874.007E+03,   974.923E+03,   974.923E+03
C:/temp/Job-2.odb,Step-1,Increment      1: Step Time =    1.000,"P-2-1",          1986,   4.57494E-03,   51.9969E-03,            0.,NA,NA,"",   859.097E+03,   960.238E+03,   960.238E+03
C:/temp/Job-2.odb,Step-1,Increment      1: Step Time =    1.000,"P-2-1",          1987,   5.02817E-03,   57.0695E-03,            0.,NA,NA,"",   847.291E+03,   947.707E+03,   947.707E+03
C:/temp/Job-2.odb,Step-1,Increment      1: Step Time =    1.000,"P-2-1",          1988,   5.23515E-03,   62.3585E-03,            0.,NA,NA,"",   835.083E+03,   935.092E+03,   935.092E+03
C:/temp/Job-2.odb,Step-1,Increment      1: Step Time =    1.000,"P-2-1",          1989,   5.04169E-03,   67.6370E-03,            0.,NA,NA,"",   822.442E+03,   922.438E+03,   922.438E+03
C:/temp/Job-2.odb,Step-1,Increment      1: Step Time =    1.000,"P-2-1",          1990,   5.04827E-03,   72.7620E-03,            0.,NA,NA,"",   811.899E+03,   911.631E+03,   911.631E+03
C:/temp/Job-2.odb,Step-1,Increment      1: Step Time =    1.000,"P-2-1",          1991,   5.15776E-03,   77.8985E-03,            0.,NA,NA,"",   802.740E+03,   902.102E+03,   902.102E+03
C:/temp/Job-2.odb,Step-1,Increment      1: Step Time =    1.000,"P-2-1",          1992,   4.89136E-03,   83.0782E-03,            0.,NA,NA,"",   794.281E+03,   893.551E+03,   893.551E+03
C:/temp/Job-2.odb,Step-1,Increment      1: Step Time =    1.000,"P-2-1",          1993,   4.65819E-03,   88.2239E-03,            0.,NA,NA,"",   787.613E+03,   886.840E+03,   886.840E+03
C:/temp/Job-2.odb,Step-1,Increment      1: Step Time =    1.000,"P-2-1",          1994,   4.99056E-03,   106.796E-03,            0.,NA,NA,"",   784.115E+03,   883.016E+03,   883.016E+03
C:/temp/Job-2.odb,Step-1,Increment      1: Step Time =    1.000,"P-2-1",          1995,   4.96598E-03,   111.840E-03,            0.,NA,NA,"",   788.129E+03,   887.152E+03,   887.152E+03
C:/temp/Job-2.odb,Step-1,Increment      1: Step Time =    1.000,"P-2-1",          1996,   4.95805E-03,   117.030E-03,            0.,NA,NA,"",   794.431E+03,   893.669E+03,   893.669E+03
C:/temp/Job-2.odb,Step-1,Increment      1: Step Time =    1.000,"P-2-1",          1997,   5.04968E-03,   122.166E-03,            0.,NA,NA,"",   802.509E+03,   901.954E+03,   901.954E+03
C:/temp/Job-2.odb,Step-1,Increment      1: Step Time =    1.000,"P-2-1",          1998,   5.04726E-03,   142.858E-03,            0.,NA,NA,"",   846.984E+03,   947.420E+03,   947.420E+03
C:/temp/Job-2.odb,Step-1,Increment      1: Step Time =    1.000,"P-2-1",          1999,   4.87000E-03,   147.973E-03,            0.,NA,NA,"",   859.786E+03,   960.542E+03,   960.542E+03
C:/temp/Job-2.odb,Step-1,Increment      1: Step Time =    1.000,"P-2-1",          2000,   4.73415E-03,   153.003E-03,            0.,NA,NA,"",   873.697E+03,   974.625E+03,   974.625E+03
C:/temp/Job-2.odb,Step-1,Increment      1: Step Time =    1.000,"P-2-1",          2001,   4.85048E-03,   158.001E-03,            0.,NA,NA,"",   890.269E+03,   990.820E+03,   990.820E+03
C:/temp/Job-2.odb,Step-1,Increment      1: Step Time =    1.000,"P-2-1",          2002,   194.953E-03,   57.1401E-03,            0.,NA,NA,"",   990.197E+03,   1.00067E+06,   1.00067E+06
C:/temp/Job-2.odb,Step-1,Increment      1: Step Time =    1.000,"P-2-1",          2003,   195.131E-03,   52.0249E-03,            0.,NA,NA,"",   993.169E+03,   1.00070E+06,   1.00070E+06
C:/temp/Job-2.odb,Step-1,Increment      1: Step Time =    1.000,"P-2-1",          2004,   195.266E-03,   46.9941E-03,            0.,NA,NA,"",   995.609E+03,   1.00068E+06,   1.00068E+06
C:/temp/Job-2.odb,Step-1,Increment      1: Step Time =    1.000,"P-2-1",          2005,   5.13389E-03,   127.285E-03,            0.,NA,NA,"",   812.032E+03,   911.681E+03,   911.681E+03
C:/temp/Job-2.odb,Step-1,Increment      1: Step Time =    1.000,"P-2-1",          2006,   5.16310E-03,   132.463E-03,            0.,NA,NA,"",   822.865E+03,   922.742E+03,   922.742E+03
C:/temp/Job-2.odb,Step-1,Increment      1: Step Time =    1.000,"P-2-1",          2007,   5.14131E-03,   137.669E-03,            0.,NA,NA,"",   834.632E+03,   934.771E+03,   934.771E+03
C:/temp/Job-2.odb,Step-1,Increment      1: Step Time =    1.000,"P-2-1",          2008,   88.0044E-03,   108.914E-03,            0.,NA,NA,"",   862.228E+03,   786.747E+03,   786.747E+03
C:/temp/Job-2.odb,Step-1,Increment      1: Step Time =    1.000,"P-2-1",          2009,   96.2176E-03,   114.425E-03,            0.,NA,NA,"",   1.98834E+06,   2.08912E+06,   2.08912E+06
C:/temp/Job-2.odb,Step-1,Increment      1: Step Time =    1.000,"P-2-1",          2010,   110.862E-03,   90.3191E-03,            0.,NA,NA,"",   1.01646E+06,   964.162E+03,   964.162E+03
C:/temp/Job-2.odb,Step-1,Increment      1: Step Time =    1.000,"P-2-1",          2011,   110.593E-03,   86.8472E-03,            0.,NA,NA,"",   1.40340E+06,   1.36289E+06,   1.36289E+06
C:/temp/Job-2.odb,Step-1,Increment      1: Step Time =    1.000,"P-2-1",          2012,   88.4527E-03,   86.5864E-03,            0.,NA,NA,"",   1.37119E+06,   1.31313E+06,   1.31313E+06
C:/temp/Job-2.odb,Step-1,Increment      1: Step Time =    1.000,"P-2-1",          2013,   111.493E-03,   113.314E-03,            0.,NA,NA,"",   1.38880E+06,   1.32213E+06,   1.32213E+06
C:/temp/Job-2.odb,Step-1,Increment      1: Step Time =    1.000,"P-2-1",          2014,   88.4150E-03,   114.223E-03,            0.,NA,NA,"",   1.39325E+06,   1.33982E+06,   1.33982E+06
C:/temp/Job-2.odb,Step-1,Increment      1: Step Time =    1.000,"P-2-1",          2015,   99.5216E-03,   117.512E-03,            0.,NA,NA,"",   1.62433E+06,   1.77413E+06,   1.77413E+06
C:/temp/Job-2.odb,Step-1,Increment      1: Step Time =    1.000,"P-2-1",          2016,   82.5131E-03,   101.284E-03,            0.,NA,NA,"",   311.520E+03,   62.7682E+03,   62.7682E+03
C:/temp/Job-2.odb,Step-1,Increment      1: Step Time =    1.000,"P-2-1",          2017,   117.895E-03,   101.564E-03,            0.,NA,NA,"",   316.750E+03,   49.3886E+03,   49.3886E+03
C:/temp/Job-2.odb,Step-1,Increment      1: Step Time =    1.000,"P-2-1",          2018,   100.570E-03,   82.4020E-03,            0.,NA,NA,"",   1.61733E+06,   1.76920E+06,   1.76920E+06
C:/temp/Job-2.odb,Step-1,Increment      1: Step Time =    1.000,"P-2-1",          2019,   81.8120E-03,   98.1573E-03,            0.,NA,NA,"",   307.705E+03,   152.748E+03,   152.748E+03
C:/temp/Job-2.odb,Step-1,Increment      1: Step Time =    1.000,"P-2-1",          2020,   117.143E-03,   98.4978E-03,            0.,NA,NA,"",   360.914E+03,  -28.4687E+03,  -28.4687E+03
C:/temp/Job-2.odb,Step-1,Increment      1: Step Time =    1.000,"P-2-1",          2021,   175.765E-03,   5.38393E-03,            0.,NA,NA,"",   998.984E+03,   998.897E+03,   998.897E+03
C:/temp/Job-2.odb,Step-1,Increment      1: Step Time =    1.000,"P-2-1",          2022,   4.87105E-03,   176.991E-03,            0.,NA,NA,"",   986.749E+03,   1.08318E+06,   1.08318E+06
C:/temp/Job-2.odb,Step-1,Increment      1: Step Time =    1.000,"P-2-1",          2023,   5.38634E-03,   24.2338E-03,            0.,NA,NA,"",   980.931E+03,   1.07647E+06,   1.07647E+06
C:/temp/Job-2.odb,Step-1,Increment      1: Step Time =    1.000,"P-2-1",          2024,   23.0105E-03,   4.87832E-03,            0.,NA,NA,"",   1.07815E+06,   1.08095E+06,   1.08095E+06
C:/temp/Job-2.odb,Step-1,Increment      1: Step Time =    1.000,"P-2-1",          2025,   194.575E-03,   175.774E-03,            0.,NA,NA,"",   1.00037E+06,   1.00034E+06,   1.00034E+06
C:/temp/Job-2.odb,Step-1,Increment      1: Step Time =    1.000,"P-2-1",          2026,   177.020E-03,   195.297E-03,            0.,NA,NA,"",   998.896E+03,   998.840E+03,   998.840E+03
C:/temp/Job-2.odb,Step-1,Increment      1: Step Time =    1.000,"P-2-1",          2027,   24.2340E-03,   194.617E-03,            0.,NA,NA,"",   1.07259E+06,   1.07580E+06,   1.07580E+06
C:/temp/Job-2.odb,Step-1,Increment      1: Step Time =    1.000,"P-2-1",          2028,   195.123E-03,   23.0093E-03,            0.,NA,NA,"",   1.00031E+06,   1.00025E+06,   1.00025E+06
C:/temp/Job-2.odb,Step-1,Increment      1: Step Time =    1.000,"P-2-1",          2029,   112.642E-03,   88.7696E-03,            0.,NA,NA,"",   1.22765E+06,   1.11145E+06,   1.11145E+06
C:/temp/Job-2.odb,Step-1,Increment      1: Step Time =    1.000,"P-2-1",          2030,   86.9443E-03,   110.998E-03,            0.,NA,NA,"",   1.13063E+06,   1.02606E+06,   1.02606E+06
C:/temp/Job-2.odb,Step-1,Increment      1: Step Time =    1.000,"P-2-1",          2031,   86.5684E-03,   88.7860E-03,            0.,NA,NA,"",   1.21097E+06,   1.08956E+06,   1.08956E+06
C:/temp/Job-2.odb,Step-1,Increment      1: Step Time =    1.000,"P-2-1",          2032,   113.190E-03,   111.057E-03,            0.,NA,NA,"",   1.22507E+06,   1.09105E+06,   1.09105E+06
C:/temp/Job-2.odb,Step-1,Increment      1: Step Time =    1.000,"P-2-1",          2033,   7.25081E-03,   94.1868E-03,            0.,NA,NA,"",   787.141E+03,   884.728E+03,   884.728E+03
C:/temp/Job-2.odb,Step-1,Increment      1: Step Time =    1.000,"P-2-1",          2034,   92.9614E-03,   7.52692E-03,            0.,NA,NA,"",   948.345E+03,   949.439E+03,   949.439E+03
C:/temp/Job-2.odb,Step-1,Increment      1: Step Time =    1.000,"P-2-1",          2035,   94.2576E-03,   192.650E-03,            0.,NA,NA,"",   947.414E+03,   948.367E+03,   948.367E+03
C:/temp/Job-2.odb,Step-1,Increment      1: Step Time =    1.000,"P-2-1",          2036,   192.454E-03,   92.9840E-03,            0.,NA,NA,"",   968.064E+03,   997.238E+03,   997.238E+03
C:/temp/Job-2.odb,Step-1,Increment      1: Step Time =    1.000,"P-2-1",          2037,   105.719E-03,   7.37180E-03,            0.,NA,NA,"",   949.201E+03,   950.102E+03,   950.102E+03
C:/temp/Job-2.odb,Step-1,Increment      1: Step Time =    1.000,"P-2-1",          2038,   7.55825E-03,   107.008E-03,            0.,NA,NA,"",   788.411E+03,   885.713E+03,   885.713E+03
C:/temp/Job-2.odb,Step-1,Increment      1: Step Time =    1.000,"P-2-1",          2039,   192.687E-03,   105.786E-03,            0.,NA,NA,"",   967.892E+03,   997.591E+03,   997.591E+03
C:/temp/Job-2.odb,Step-1,Increment      1: Step Time =    1.000,"P-2-1",          2040,   107.038E-03,   192.469E-03,            0.,NA,NA,"",   950.414E+03,   951.425E+03,   951.425E+03
C:/temp/Job-2.odb,Step-1,Increment      1: Step Time =    1.000,"P-2-1",          2041,   7.25940E-03,   157.704E-03,            0.,NA,NA,"",   900.221E+03,   996.483E+03,   996.483E+03
C:/temp/Job-2.odb,Step-1,Increment      1: Step Time =    1.000,"P-2-1",          2042,   157.378E-03,   7.11099E-03,            0.,NA,NA,"",   995.372E+03,   994.884E+03,   994.884E+03
C:/temp/Job-2.odb,Step-1,Increment      1: Step Time =    1.000,"P-2-1",          2043,   157.697E-03,   192.682E-03,            0.,NA,NA,"",   995.460E+03,   994.946E+03,   994.946E+03
C:/temp/Job-2.odb,Step-1,Increment      1: Step Time =    1.000,"P-2-1",          2044,   192.918E-03,   157.298E-03,            0.,NA,NA,"",   998.063E+03,   1.00126E+06,   1.00126E+06
C:/temp/Job-2.odb,Step-1,Increment      1: Step Time =    1.000,"P-2-1",          2045,   42.2780E-03,   7.37104E-03,            0.,NA,NA,"",   1.01297E+06,   1.01386E+06,   1.01386E+06
C:/temp/Job-2.odb,Step-1,Increment      1: Step Time =    1.000,"P-2-1",          2046,   7.08304E-03,   42.7003E-03,            0.,NA,NA,"",   898.344E+03,   994.950E+03,   994.950E+03
C:/temp/Job-2.odb,Step-1,Increment      1: Step Time =    1.000,"P-2-1",          2047,   192.741E-03,   42.2899E-03,            0.,NA,NA,"",   998.187E+03,   1.00133E+06,   1.00133E+06
C:/temp/Job-2.odb,Step-1,Increment      1: Step Time =    1.000,"P-2-1",          2048,   42.6200E-03,   192.891E-03,            0.,NA,NA,"",   1.01164E+06,   1.01244E+06,   1.01244E+06
C:/temp/Job-2.odb,Step-1,Increment      1: Step Time =    1.000,"P-2-1",          2049,   175.988E-03,   8.27949E-03,            0.,NA,NA,"",   999.677E+03,   999.481E+03,   999.481E+03
C:/temp/Job-2.odb,Step-1,Increment      1: Step Time =    1.000,"P-2-1",          2050,   6.72414E-03,   177.404E-03,            0.,NA,NA,"",   1.00122E+06,   1.09127E+06,   1.09127E+06
C:/temp/Job-2.odb,Step-1,Increment      1: Step Time =    1.000,"P-2-1",          2051,   191.643E-03,   175.997E-03,            0.,NA,NA,"",   1.00065E+06,   1.00074E+06,   1.00074E+06
C:/temp/Job-2.odb,Step-1,Increment      1: Step Time =    1.000,"P-2-1",          2052,   177.596E-03,   193.543E-03,            0.,NA,NA,"",   999.218E+03,   999.124E+03,   999.124E+03
C:/temp/Job-2.odb,Step-1,Increment      1: Step Time =    1.000,"P-2-1",          2053,   8.28343E-03,   24.0103E-03,            0.,NA,NA,"",   1.00094E+06,   1.08608E+06,   1.08608E+06
C:/temp/Job-2.odb,Step-1,Increment      1: Step Time =    1.000,"P-2-1",          2054,   22.5967E-03,   6.73391E-03,            0.,NA,NA,"",   1.08856E+06,   1.09408E+06,   1.09408E+06
C:/temp/Job-2.odb,Step-1,Increment      1: Step Time =    1.000,"P-2-1",          2055,   24.0107E-03,   191.721E-03,            0.,NA,NA,"",   1.08670E+06,   1.09369E+06,   1.09369E+06
C:/temp/Job-2.odb,Step-1,Increment      1: Step Time =    1.000,"P-2-1",          2056,   193.268E-03,   22.5951E-03,            0.,NA,NA,"",   1.00037E+06,   1.00041E+06,   1.00041E+06
C:/temp/Job-2.odb,Step-1,Increment      1: Step Time =    1.000,"P-2-1",          2057,   6.96536E-03,   88.1846E-03,            0.,NA,NA,"",   791.750E+03,   889.527E+03,   889.527E+03
C:/temp/Job-2.odb,Step-1,Increment      1: Step Time =    1.000,"P-2-1",          2058,   88.0020E-03,   7.43682E-03,            0.,NA,NA,"",   950.363E+03,   951.301E+03,   951.301E+03
C:/temp/Job-2.odb,Step-1,Increment      1: Step Time =    1.000,"P-2-1",          2059,   88.1946E-03,   192.857E-03,            0.,NA,NA,"",   949.165E+03,   950.004E+03,   950.004E+03
C:/temp/Job-2.odb,Step-1,Increment      1: Step Time =    1.000,"P-2-1",          2060,   192.528E-03,   88.0280E-03,            0.,NA,NA,"",   970.091E+03,   997.729E+03,   997.729E+03
C:/temp/Job-2.odb,Step-1,Increment      1: Step Time =    1.000,"P-2-1",          2061,   111.819E-03,   7.26995E-03,            0.,NA,NA,"",   953.009E+03,   953.756E+03,   953.756E+03
C:/temp/Job-2.odb,Step-1,Increment      1: Step Time =    1.000,"P-2-1",          2062,   7.46222E-03,   111.971E-03,            0.,NA,NA,"",   792.866E+03,   890.230E+03,   890.230E+03
C:/temp/Job-2.odb,Step-1,Increment      1: Step Time =    1.000,"P-2-1",          2063,   193.008E-03,   111.798E-03,            0.,NA,NA,"",   969.803E+03,   998.056E+03,   998.056E+03
C:/temp/Job-2.odb,Step-1,Increment      1: Step Time =    1.000,"P-2-1",          2064,   111.999E-03,   192.561E-03,            0.,NA,NA,"",   953.756E+03,   954.563E+03,   954.563E+03
C:/temp/Job-2.odb,Step-1,Increment      1: Step Time =    1.000,"P-2-1",          2065,   47.1245E-03,   7.30088E-03,            0.,NA,NA,"",   1.00222E+06,   1.00275E+06,   1.00275E+06
C:/temp/Job-2.odb,Step-1,Increment      1: Step Time =    1.000,"P-2-1",          2066,   7.08526E-03,   47.3812E-03,            0.,NA,NA,"",   882.632E+03,   979.893E+03,   979.893E+03
C:/temp/Job-2.odb,Step-1,Increment      1: Step Time =    1.000,"P-2-1",          2067,   192.911E-03,   47.1028E-03,            0.,NA,NA,"",   996.522E+03,   1.00138E+06,   1.00138E+06
C:/temp/Job-2.odb,Step-1,Increment      1: Step Time =    1.000,"P-2-1",          2068,   47.2481E-03,   192.886E-03,            0.,NA,NA,"",   1.00175E+06,   1.00224E+06,   1.00224E+06
C:/temp/Job-2.odb,Step-1,Increment      1: Step Time =    1.000,"P-2-1",          2069,   7.09024E-03,   152.893E-03,            0.,NA,NA,"",   883.389E+03,   980.477E+03,   980.477E+03
C:/temp/Job-2.odb,Step-1,Increment      1: Step Time =    1.000,"P-2-1",          2070,   152.746E-03,   7.11555E-03,            0.,NA,NA,"",   993.035E+03,   992.494E+03,   992.494E+03
C:/temp/Job-2.odb,Step-1,Increment      1: Step Time =    1.000,"P-2-1",          2071,   152.861E-03,   192.840E-03,            0.,NA,NA,"",   992.966E+03,   992.415E+03,   992.415E+03
C:/temp/Job-2.odb,Step-1,Increment      1: Step Time =    1.000,"P-2-1",          2072,   192.915E-03,   152.615E-03,            0.,NA,NA,"",   996.409E+03,   1.00132E+06,   1.00132E+06
C:/temp/Job-2.odb,Step-1,Increment      1: Step Time =    1.000,"P-2-1",          2073,   84.1412E-03,   90.9926E-03,            0.,NA,NA,"",   989.000E+03,   828.619E+03,   828.619E+03
C:/temp/Job-2.odb,Step-1,Increment      1: Step Time =    1.000,"P-2-1",          2074,   82.5951E-03,   96.3047E-03,            0.,NA,NA,"",   457.155E+03,   94.6321E+03,   94.6321E+03
C:/temp/Job-2.odb,Step-1,Increment      1: Step Time =    1.000,"P-2-1",          2075,   114.648E-03,   90.7800E-03,            0.,NA,NA,"",   1.04658E+06,   865.162E+03,   865.162E+03
C:/temp/Job-2.odb,Step-1,Increment      1: Step Time =    1.000,"P-2-1",          2076,   84.0028E-03,   109.719E-03,            0.,NA,NA,"",   1.03709E+06,   881.485E+03,   881.485E+03
C:/temp/Job-2.odb,Step-1,Increment      1: Step Time =    1.000,"P-2-1",          2077,   115.435E-03,   108.741E-03,            0.,NA,NA,"",   997.043E+03,   811.446E+03,   811.446E+03
C:/temp/Job-2.odb,Step-1,Increment      1: Step Time =    1.000,"P-2-1",          2078,   117.039E-03,   103.492E-03,            0.,NA,NA,"",   464.615E+03,   56.0330E+03,   56.0330E+03
C:/temp/Job-2.odb,Step-1,Increment      1: Step Time =    1.000,"P-2-1",          2079,   116.780E-03,   7.47151E-03,            0.,NA,NA,"",   958.304E+03,   958.807E+03,   958.807E+03
C:/temp/Job-2.odb,Step-1,Increment      1: Step Time =    1.000,"P-2-1",          2080,   7.41249E-03,   117.130E-03,            0.,NA,NA,"",   799.550E+03,   897.011E+03,   897.011E+03
C:/temp/Job-2.odb,Step-1,Increment      1: Step Time =    1.000,"P-2-1",          2081,   192.793E-03,   116.672E-03,            0.,NA,NA,"",   972.764E+03,   998.552E+03,   998.552E+03
C:/temp/Job-2.odb,Step-1,Increment      1: Step Time =    1.000,"P-2-1",          2082,   117.145E-03,   192.613E-03,            0.,NA,NA,"",   958.347E+03,   958.830E+03,   958.830E+03
C:/temp/Job-2.odb,Step-1,Increment      1: Step Time =    1.000,"P-2-1",          2083,   7.19495E-03,   83.3239E-03,            0.,NA,NA,"",   798.437E+03,   896.090E+03,   896.090E+03
C:/temp/Job-2.odb,Step-1,Increment      1: Step Time =    1.000,"P-2-1",          2084,   82.8566E-03,   7.40355E-03,            0.,NA,NA,"",   953.878E+03,   954.571E+03,   954.571E+03
C:/temp/Job-2.odb,Step-1,Increment      1: Step Time =    1.000,"P-2-1",          2085,   83.3114E-03,   192.747E-03,            0.,NA,NA,"",   953.144E+03,   953.829E+03,   953.829E+03
C:/temp/Job-2.odb,Step-1,Increment      1: Step Time =    1.000,"P-2-1",          2086,   192.583E-03,   82.8810E-03,            0.,NA,NA,"",   973.149E+03,   998.526E+03,   998.526E+03
C:/temp/Job-2.odb,Step-1,Increment      1: Step Time =    1.000,"P-2-1",          2087,   7.32033E-03,   147.982E-03,            0.,NA,NA,"",   869.405E+03,   966.577E+03,   966.577E+03
C:/temp/Job-2.odb,Step-1,Increment      1: Step Time =    1.000,"P-2-1",          2088,   148.051E-03,   6.92504E-03,            0.,NA,NA,"",   989.803E+03,   989.264E+03,   989.264E+03
C:/temp/Job-2.odb,Step-1,Increment      1: Step Time =    1.000,"P-2-1",          2089,   147.937E-03,   192.621E-03,            0.,NA,NA,"",   989.972E+03,   989.374E+03,   989.374E+03
C:/temp/Job-2.odb,Step-1,Increment      1: Step Time =    1.000,"P-2-1",          2090,   193.298E-03,   148.010E-03,            0.,NA,NA,"",   994.264E+03,   1.00126E+06,   1.00126E+06
C:/temp/Job-2.odb,Step-1,Increment      1: Step Time =    1.000,"P-2-1",          2091,   52.0522E-03,   7.45623E-03,            0.,NA,NA,"",   993.823E+03,   994.108E+03,   994.108E+03
C:/temp/Job-2.odb,Step-1,Increment      1: Step Time =    1.000,"P-2-1",          2092,   6.70517E-03,   51.9849E-03,            0.,NA,NA,"",   867.568E+03,   965.592E+03,   965.592E+03
C:/temp/Job-2.odb,Step-1,Increment      1: Step Time =    1.000,"P-2-1",          2093,   192.683E-03,   52.0129E-03,            0.,NA,NA,"",   994.411E+03,   1.00142E+06,   1.00142E+06
C:/temp/Job-2.odb,Step-1,Increment      1: Step Time =    1.000,"P-2-1",          2094,   51.9424E-03,   193.074E-03,            0.,NA,NA,"",   992.365E+03,   992.621E+03,   992.621E+03
C:/temp/Job-2.odb,Step-1,Increment      1: Step Time =    1.000,"P-2-1",          2095,   122.317E-03,   7.77453E-03,            0.,NA,NA,"",   965.163E+03,   965.392E+03,   965.392E+03
C:/temp/Job-2.odb,Step-1,Increment      1: Step Time =    1.000,"P-2-1",          2096,   7.60000E-03,   122.208E-03,            0.,NA,NA,"",   808.425E+03,   905.793E+03,   905.793E+03
C:/temp/Job-2.odb,Step-1,Increment      1: Step Time =    1.000,"P-2-1",          2097,   192.206E-03,   122.177E-03,            0.,NA,NA,"",   977.058E+03,   999.163E+03,   999.163E+03
C:/temp/Job-2.odb,Step-1,Increment      1: Step Time =    1.000,"P-2-1",          2098,   122.224E-03,   192.426E-03,            0.,NA,NA,"",   964.237E+03,   964.436E+03,   964.436E+03
C:/temp/Job-2.odb,Step-1,Increment      1: Step Time =    1.000,"P-2-1",          2099,   7.82090E-03,   77.8156E-03,            0.,NA,NA,"",   809.072E+03,   906.237E+03,   906.237E+03
C:/temp/Job-2.odb,Step-1,Increment      1: Step Time =    1.000,"P-2-1",          2100,   77.7874E-03,   7.59731E-03,            0.,NA,NA,"",   959.278E+03,   959.772E+03,   959.772E+03
C:/temp/Job-2.odb,Step-1,Increment      1: Step Time =    1.000,"P-2-1",          2101,   77.7655E-03,   192.261E-03,            0.,NA,NA,"",   960.202E+03,   960.741E+03,   960.741E+03
C:/temp/Job-2.odb,Step-1,Increment      1: Step Time =    1.000,"P-2-1",          2102,   192.408E-03,   77.7971E-03,            0.,NA,NA,"",   976.827E+03,   999.229E+03,   999.229E+03
C:/temp/Job-2.odb,Step-1,Increment      1: Step Time =    1.000,"P-2-1",          2103,   57.1335E-03,   7.62498E-03,            0.,NA,NA,"",   986.300E+03,   986.404E+03,   986.404E+03
C:/temp/Job-2.odb,Step-1,Increment      1: Step Time =    1.000,"P-2-1",          2104,   7.50767E-03,   56.7464E-03,            0.,NA,NA,"",   857.108E+03,   954.270E+03,   954.270E+03
C:/temp/Job-2.odb,Step-1,Increment      1: Step Time =    1.000,"P-2-1",          2105,   7.57221E-03,   142.887E-03,            0.,NA,NA,"",   856.141E+03,   953.255E+03,   953.255E+03
C:/temp/Job-2.odb,Step-1,Increment      1: Step Time =    1.000,"P-2-1",          2106,   143.185E-03,   7.64030E-03,            0.,NA,NA,"",   986.865E+03,   986.256E+03,   986.256E+03
C:/temp/Job-2.odb,Step-1,Increment      1: Step Time =    1.000,"P-2-1",          2107,   192.430E-03,   57.1055E-03,            0.,NA,NA,"",   991.770E+03,   1.00134E+06,   1.00134E+06
C:/temp/Job-2.odb,Step-1,Increment      1: Step Time =    1.000,"P-2-1",          2108,   56.8095E-03,   192.355E-03,            0.,NA,NA,"",   987.266E+03,   987.372E+03,   987.372E+03
C:/temp/Job-2.odb,Step-1,Increment      1: Step Time =    1.000,"P-2-1",          2109,   142.879E-03,   192.383E-03,            0.,NA,NA,"",   986.257E+03,   985.668E+03,   985.668E+03
C:/temp/Job-2.odb,Step-1,Increment      1: Step Time =    1.000,"P-2-1",          2110,   192.503E-03,   143.250E-03,            0.,NA,NA,"",   992.092E+03,   1.00136E+06,   1.00136E+06
C:/temp/Job-2.odb,Step-1,Increment      1: Step Time =    1.000,"P-2-1",          2111,   108.661E-03,   85.2044E-03,            0.,NA,NA,"",   1.51647E+06,   1.54218E+06,   1.54218E+06
C:/temp/Job-2.odb,Step-1,Increment      1: Step Time =    1.000,"P-2-1",          2112,   89.8621E-03,   84.2255E-03,            0.,NA,NA,"",   1.43516E+06,   1.43145E+06,   1.43145E+06
C:/temp/Job-2.odb,Step-1,Increment      1: Step Time =    1.000,"P-2-1",          2113,   110.227E-03,   115.760E-03,            0.,NA,NA,"",   1.44750E+06,   1.43610E+06,   1.43610E+06
C:/temp/Job-2.odb,Step-1,Increment      1: Step Time =    1.000,"P-2-1",          2114,   90.6481E-03,   115.054E-03,            0.,NA,NA,"",   1.46034E+06,   1.46968E+06,   1.46968E+06
C:/temp/Job-2.odb,Step-1,Increment      1: Step Time =    1.000,"P-2-1",          2115,   7.61627E-03,   72.7611E-03,            0.,NA,NA,"",   818.570E+03,   915.941E+03,   915.941E+03
C:/temp/Job-2.odb,Step-1,Increment      1: Step Time =    1.000,"P-2-1",          2116,   72.7085E-03,   7.72155E-03,            0.,NA,NA,"",   965.390E+03,   965.726E+03,   965.726E+03
C:/temp/Job-2.odb,Step-1,Increment      1: Step Time =    1.000,"P-2-1",          2117,   72.7468E-03,   192.412E-03,            0.,NA,NA,"",   965.162E+03,   965.444E+03,   965.444E+03
C:/temp/Job-2.odb,Step-1,Increment      1: Step Time =    1.000,"P-2-1",          2118,   192.281E-03,   72.7057E-03,            0.,NA,NA,"",   980.735E+03,   999.886E+03,   999.886E+03
C:/temp/Job-2.odb,Step-1,Increment      1: Step Time =    1.000,"P-2-1",          2119,   127.286E-03,   7.57709E-03,            0.,NA,NA,"",   970.225E+03,   970.141E+03,   970.141E+03
C:/temp/Job-2.odb,Step-1,Increment      1: Step Time =    1.000,"P-2-1",          2120,   7.71491E-03,   127.289E-03,            0.,NA,NA,"",   818.760E+03,   916.015E+03,   916.015E+03
C:/temp/Job-2.odb,Step-1,Increment      1: Step Time =    1.000,"P-2-1",          2121,   192.438E-03,   127.266E-03,            0.,NA,NA,"",   980.742E+03,   999.933E+03,   999.933E+03
C:/temp/Job-2.odb,Step-1,Increment      1: Step Time =    1.000,"P-2-1",          2122,   127.314E-03,   192.285E-03,            0.,NA,NA,"",   970.316E+03,   970.259E+03,   970.259E+03
C:/temp/Job-2.odb,Step-1,Increment      1: Step Time =    1.000,"P-2-1",          2123,   81.6708E-03,   104.733E-03,            0.,NA,NA,"",   576.738E+03,   463.505E+03,   463.505E+03
C:/temp/Job-2.odb,Step-1,Increment      1: Step Time =    1.000,"P-2-1",          2124,   117.773E-03,   94.9809E-03,            0.,NA,NA,"",   626.242E+03,   469.034E+03,   469.034E+03
C:/temp/Job-2.odb,Step-1,Increment      1: Step Time =    1.000,"P-2-1",          2125,   96.7745E-03,   117.042E-03,            0.,NA,NA,"",   1.53658E+06,   1.67739E+06,   1.67739E+06
C:/temp/Job-2.odb,Step-1,Increment      1: Step Time =    1.000,"P-2-1",          2126,   102.795E-03,   118.720E-03,            0.,NA,NA,"",   1.41249E+06,   1.55208E+06,   1.55208E+06
C:/temp/Job-2.odb,Step-1,Increment      1: Step Time =    1.000,"P-2-1",          2127,   97.2899E-03,   81.4405E-03,            0.,NA,NA,"",   1.42726E+06,   1.56729E+06,   1.56729E+06
C:/temp/Job-2.odb,Step-1,Increment      1: Step Time =    1.000,"P-2-1",          2128,   103.301E-03,   82.4703E-03,            0.,NA,NA,"",   1.48527E+06,   1.62828E+06,   1.62828E+06
C:/temp/Job-2.odb,Step-1,Increment      1: Step Time =    1.000,"P-2-1",          2129,   62.3067E-03,   7.72377E-03,            0.,NA,NA,"",   979.074E+03,   979.145E+03,   979.145E+03
C:/temp/Job-2.odb,Step-1,Increment      1: Step Time =    1.000,"P-2-1",          2130,   7.83488E-03,   62.5244E-03,            0.,NA,NA,"",   843.095E+03,   940.041E+03,   940.041E+03
C:/temp/Job-2.odb,Step-1,Increment      1: Step Time =    1.000,"P-2-1",          2131,   192.308E-03,   62.3095E-03,            0.,NA,NA,"",   988.515E+03,   1.00106E+06,   1.00106E+06
C:/temp/Job-2.odb,Step-1,Increment      1: Step Time =    1.000,"P-2-1",          2132,   62.6140E-03,   192.206E-03,            0.,NA,NA,"",   979.245E+03,   979.319E+03,   979.319E+03
C:/temp/Job-2.odb,Step-1,Increment      1: Step Time =    1.000,"P-2-1",          2133,   7.68645E-03,   137.683E-03,            0.,NA,NA,"",   843.020E+03,   940.153E+03,   940.153E+03
C:/temp/Job-2.odb,Step-1,Increment      1: Step Time =    1.000,"P-2-1",          2134,   137.386E-03,   7.78613E-03,            0.,NA,NA,"",   981.700E+03,   981.194E+03,   981.194E+03
C:/temp/Job-2.odb,Step-1,Increment      1: Step Time =    1.000,"P-2-1",          2135,   137.705E-03,   192.270E-03,            0.,NA,NA,"",   981.654E+03,   981.156E+03,   981.156E+03
C:/temp/Job-2.odb,Step-1,Increment      1: Step Time =    1.000,"P-2-1",          2136,   192.188E-03,   137.474E-03,            0.,NA,NA,"",   988.530E+03,   1.00106E+06,   1.00106E+06
C:/temp/Job-2.odb,Step-1,Increment      1: Step Time =    1.000,"P-2-1",          2137,   7.72003E-03,   132.471E-03,            0.,NA,NA,"",   830.471E+03,   927.653E+03,   927.653E+03
C:/temp/Job-2.odb,Step-1,Increment      1: Step Time =    1.000,"P-2-1",          2138,   132.251E-03,   7.49711E-03,            0.,NA,NA,"",   975.697E+03,   975.407E+03,   975.407E+03
C:/temp/Job-2.odb,Step-1,Increment      1: Step Time =    1.000,"P-2-1",          2139,   132.497E-03,   192.251E-03,            0.,NA,NA,"",   976.249E+03,   975.941E+03,   975.941E+03
C:/temp/Job-2.odb,Step-1,Increment      1: Step Time =    1.000,"P-2-1",          2140,   192.521E-03,   132.287E-03,            0.,NA,NA,"",   984.503E+03,   1.00050E+06,   1.00050E+06
C:/temp/Job-2.odb,Step-1,Increment      1: Step Time =    1.000,"P-2-1",          2141,   67.5182E-03,   7.74398E-03,            0.,NA,NA,"",   972.078E+03,   972.245E+03,   972.245E+03
C:/temp/Job-2.odb,Step-1,Increment      1: Step Time =    1.000,"P-2-1",          2142,   7.52298E-03,   67.7301E-03,            0.,NA,NA,"",   829.519E+03,   926.939E+03,   926.939E+03
C:/temp/Job-2.odb,Step-1,Increment      1: Step Time =    1.000,"P-2-1",          2143,   192.267E-03,   67.5204E-03,            0.,NA,NA,"",   984.749E+03,   1.00054E+06,   1.00054E+06
C:/temp/Job-2.odb,Step-1,Increment      1: Step Time =    1.000,"P-2-1",          2144,   67.7616E-03,   192.490E-03,            0.,NA,NA,"",   971.126E+03,   971.281E+03,   971.281E+03
C:/temp/Job-2.odb,Step-1,Increment      1: Step Time =    1.000,"P-2-1",          2145,   105.039E-03,   117.888E-03,            0.,NA,NA,"",   1.45219E+06,   1.56749E+06,   1.56749E+06
C:/temp/Job-2.odb,Step-1,Increment      1: Step Time =    1.000,"P-2-1",          2146,   105.094E-03,   82.3568E-03,            0.,NA,NA,"",   1.45903E+06,   1.57426E+06,   1.57426E+06
C:/temp/Job-2.odb,Step-1,Increment      1: Step Time =    1.000,"P-2-1",          2147,   95.0630E-03,   116.723E-03,            0.,NA,NA,"",   1.53558E+06,   1.65413E+06,   1.65413E+06
C:/temp/Job-2.odb,Step-1,Increment      1: Step Time =    1.000,"P-2-1",          2148,   95.0742E-03,   82.2700E-03,            0.,NA,NA,"",   1.46375E+06,   1.58002E+06,   1.58002E+06
C:/temp/Job-2.odb,Step-1,Increment      1: Step Time =    1.000,"P-2-1",          2149,   114.423E-03,   87.0930E-03,            0.,NA,NA,"",   1.31561E+06,   1.18004E+06,   1.18004E+06
C:/temp/Job-2.odb,Step-1,Increment      1: Step Time =    1.000,"P-2-1",          2150,   118.975E-03,   100.058E-03,            0.,NA,NA,"",   293.230E+03,   153.127E+03,   153.127E+03
C:/temp/Job-2.odb,Step-1,Increment      1: Step Time =    1.000,"P-2-1",          2151,   80.6774E-03,   99.5369E-03,            0.,NA,NA,"",   274.787E+03,   242.177E+03,   242.177E+03
C:/temp/Job-2.odb,Step-1,Increment      1: Step Time =    1.000,"P-2-1",          2152,   7.38251E-03,   90.7776E-03,            0.,NA,NA,"",   789.820E+03,   887.302E+03,   887.302E+03
C:/temp/Job-2.odb,Step-1,Increment      1: Step Time =    1.000,"P-2-1",          2153,   90.5721E-03,   7.55276E-03,            0.,NA,NA,"",   949.357E+03,   950.387E+03,   950.387E+03
C:/temp/Job-2.odb,Step-1,Increment      1: Step Time =    1.000,"P-2-1",          2154,   90.8203E-03,   192.447E-03,            0.,NA,NA,"",   949.193E+03,   950.189E+03,   950.189E+03
C:/temp/Job-2.odb,Step-1,Increment      1: Step Time =    1.000,"P-2-1",          2155,   192.415E-03,   90.5951E-03,            0.,NA,NA,"",   968.952E+03,   997.414E+03,   997.414E+03
C:/temp/Job-2.odb,Step-1,Increment      1: Step Time =    1.000,"P-2-1",          2156,   109.154E-03,   7.59729E-03,            0.,NA,NA,"",   951.865E+03,   952.784E+03,   952.784E+03
C:/temp/Job-2.odb,Step-1,Increment      1: Step Time =    1.000,"P-2-1",          2157,   7.58876E-03,   109.393E-03,            0.,NA,NA,"",    790.38E+03,   887.664E+03,   887.664E+03
C:/temp/Job-2.odb,Step-1,Increment      1: Step Time =    1.000,"P-2-1",          2158,   192.562E-03,   109.204E-03,            0.,NA,NA,"",   968.872E+03,   997.588E+03,   997.588E+03
C:/temp/Job-2.odb,Step-1,Increment      1: Step Time =    1.000,"P-2-1",          2159,   109.431E-03,   192.441E-03,            0.,NA,NA,"",   952.058E+03,   952.987E+03,   952.987E+03
C:/temp/Job-2.odb,Step-1,Increment      1: Step Time =    1.000,"P-2-1",          2160,   155.286E-03,   7.81690E-03,            0.,NA,NA,"",   995.019E+03,   994.404E+03,   994.404E+03
C:/temp/Job-2.odb,Step-1,Increment      1: Step Time =    1.000,"P-2-1",          2161,   7.10202E-03,   155.294E-03,            0.,NA,NA,"",   891.257E+03,   988.088E+03,   988.088E+03
C:/temp/Job-2.odb,Step-1,Increment      1: Step Time =    1.000,"P-2-1",          2162,   155.274E-03,   192.828E-03,            0.,NA,NA,"",    994.26E+03,   993.733E+03,   993.733E+03
C:/temp/Job-2.odb,Step-1,Increment      1: Step Time =    1.000,"P-2-1",          2163,   192.234E-03,   155.149E-03,            0.,NA,NA,"",   997.683E+03,   1.00154E+06,   1.00154E+06
C:/temp/Job-2.odb,Step-1,Increment      1: Step Time =    1.000,"P-2-1",          2164,   44.7108E-03,   7.28139E-03,            0.,NA,NA,"",   1.00696E+06,   1.00769E+06,   1.00769E+06
C:/temp/Job-2.odb,Step-1,Increment      1: Step Time =    1.000,"P-2-1",          2165,   7.76608E-03,   44.8473E-03,            0.,NA,NA,"",   894.070E+03,   989.733E+03,   989.733E+03
C:/temp/Job-2.odb,Step-1,Increment      1: Step Time =    1.000,"P-2-1",          2166,   192.899E-03,   44.7011E-03,            0.,NA,NA,"",   997.407E+03,   1.00135E+06,   1.00135E+06
C:/temp/Job-2.odb,Step-1,Increment      1: Step Time =    1.000,"P-2-1",          2167,   44.7102E-03,   192.185E-03,            0.,NA,NA,"",   1.01001E+06,   1.01080E+06,   1.01080E+06
C:/temp/Job-2.odb,Step-1,Increment      1: Step Time =    1.000,"P-2-1",          2168,   178.559E-03,   8.48419E-03,            0.,NA,NA,"",   999.785E+03,   999.641E+03,   999.641E+03
C:/temp/Job-2.odb,Step-1,Increment      1: Step Time =    1.000,"P-2-1",          2169,   7.46693E-03,   179.396E-03,            0.,NA,NA,"",   1.02363E+06,   1.10901E+06,   1.10901E+06
C:/temp/Job-2.odb,Step-1,Increment      1: Step Time =    1.000,"P-2-1",          2170,   191.417E-03,   178.557E-03,            0.,NA,NA,"",   1.00061E+06,   1.00060E+06,   1.00060E+06
C:/temp/Job-2.odb,Step-1,Increment      1: Step Time =    1.000,"P-2-1",          2171,   179.628E-03,   193.127E-03,            0.,NA,NA,"",   999.427E+03,   999.346E+03,   999.346E+03
C:/temp/Job-2.odb,Step-1,Increment      1: Step Time =    1.000,"P-2-1",          2172,   8.48813E-03,   21.4421E-03,            0.,NA,NA,"",   1.02383E+06,   1.10564E+06,   1.10564E+06
C:/temp/Job-2.odb,Step-1,Increment      1: Step Time =    1.000,"P-2-1",          2173,   20.6047E-03,   7.47694E-03,            0.,NA,NA,"",   1.10592E+06,   1.11362E+06,   1.11362E+06
C:/temp/Job-2.odb,Step-1,Increment      1: Step Time =    1.000,"P-2-1",          2174,   21.4416E-03,   191.517E-03,            0.,NA,NA,"",   1.10389E+06,   1.11309E+06,   1.11309E+06
C:/temp/Job-2.odb,Step-1,Increment      1: Step Time =    1.000,"P-2-1",          2175,   192.525E-03,   20.6025E-03,            0.,NA,NA,"",   1.00042E+06,   1.00041E+06,   1.00041E+06
C:/temp/Job-2.odb,Step-1,Increment      1: Step Time =    1.000,"P-2-1",          2176,   6.85153E-03,   85.7694E-03,            0.,NA,NA,"",   794.422E+03,   892.294E+03,   892.294E+03
C:/temp/Job-2.odb,Step-1,Increment      1: Step Time =    1.000,"P-2-1",          2177,   85.4020E-03,   7.37650E-03,            0.,NA,NA,"",   951.840E+03,   952.625E+03,   952.625E+03
C:/temp/Job-2.odb,Step-1,Increment      1: Step Time =    1.000,"P-2-1",          2178,   85.7759E-03,   193.005E-03,            0.,NA,NA,"",   950.276E+03,   951.023E+03,   951.023E+03
C:/temp/Job-2.odb,Step-1,Increment      1: Step Time =    1.000,"P-2-1",          2179,   192.596E-03,   85.4327E-03,            0.,NA,NA,"",   971.549E+03,   998.173E+03,   998.173E+03
C:/temp/Job-2.odb,Step-1,Increment      1: Step Time =    1.000,"P-2-1",          2180,   114.310E-03,   7.20203E-03,            0.,NA,NA,"",   955.081E+03,   955.701E+03,   955.701E+03
C:/temp/Job-2.odb,Step-1,Increment      1: Step Time =    1.000,"P-2-1",          2181,   7.39381E-03,   114.576E-03,            0.,NA,NA,"",   795.901E+03,   893.347E+03,   893.347E+03
C:/temp/Job-2.odb,Step-1,Increment      1: Step Time =    1.000,"P-2-1",          2182,   193.135E-03,   114.224E-03,            0.,NA,NA,"",   971.029E+03,   998.366E+03,   998.366E+03
C:/temp/Job-2.odb,Step-1,Increment      1: Step Time =    1.000,"P-2-1",          2183,   114.596E-03,   192.631E-03,            0.,NA,NA,"",   955.835E+03,   956.456E+03,   956.456E+03
C:/temp/Job-2.odb,Step-1,Increment      1: Step Time =    1.000,"P-2-1",          2184,   49.5654E-03,   7.37095E-03,            0.,NA,NA,"",   997.847E+03,   998.242E+03,   998.242E+03
C:/temp/Job-2.odb,Step-1,Increment      1: Step Time =    1.000,"P-2-1",          2185,   6.75549E-03,   49.6925E-03,            0.,NA,NA,"",   874.410E+03,   972.306E+03,   972.306E+03
C:/temp/Job-2.odb,Step-1,Increment      1: Step Time =    1.000,"P-2-1",          2186,   192.825E-03,   49.5437E-03,            0.,NA,NA,"",   995.522E+03,   1.00140E+06,   1.00140E+06
C:/temp/Job-2.odb,Step-1,Increment      1: Step Time =    1.000,"P-2-1",          2187,   49.6084E-03,   193.133E-03,            0.,NA,NA,"",   996.061E+03,   996.475E+03,   996.475E+03
C:/temp/Job-2.odb,Step-1,Increment      1: Step Time =    1.000,"P-2-1",          2188,   7.17795E-03,   150.452E-03,            0.,NA,NA,"",   876.166E+03,   973.354E+03,   973.354E+03
C:/temp/Job-2.odb,Step-1,Increment      1: Step Time =    1.000,"P-2-1",          2189,   150.385E-03,   6.86697E-03,            0.,NA,NA,"",   991.346E+03,   990.827E+03,   990.827E+03
C:/temp/Job-2.odb,Step-1,Increment      1: Step Time =    1.000,"P-2-1",          2190,   193.246E-03,   150.303E-03,            0.,NA,NA,"",   995.331E+03,   1.00125E+06,   1.00125E+06
C:/temp/Job-2.odb,Step-1,Increment      1: Step Time =    1.000,"P-2-1",          2191,   150.409E-03,   192.750E-03,            0.,NA,NA,"",   991.537E+03,   990.960E+03,   990.960E+03
C:/temp/Job-2.odb,Step-1,Increment      1: Step Time =    1.000,"P-2-1",          2192,   7.49832E-03,   119.682E-03,            0.,NA,NA,"",   803.764E+03,   901.193E+03,   901.193E+03
C:/temp/Job-2.odb,Step-1,Increment      1: Step Time =    1.000,"P-2-1",          2193,   119.515E-03,   8.18247E-03,            0.,NA,NA,"",   963.259E+03,   963.701E+03,   963.701E+03
C:/temp/Job-2.odb,Step-1,Increment      1: Step Time =    1.000,"P-2-1",          2194,   191.860E-03,   119.348E-03,            0.,NA,NA,"",   975.222E+03,   998.645E+03,   998.645E+03
C:/temp/Job-2.odb,Step-1,Increment      1: Step Time =    1.000,"P-2-1",          2195,   119.697E-03,   192.532E-03,            0.,NA,NA,"",   961.215E+03,   961.552E+03,   961.552E+03
C:/temp/Job-2.odb,Step-1,Increment      1: Step Time =    1.000,"P-2-1",          2196,   8.13082E-03,   80.6427E-03,            0.,NA,NA,"",   804.687E+03,   901.596E+03,   901.596E+03
C:/temp/Job-2.odb,Step-1,Increment      1: Step Time =    1.000,"P-2-1",          2197,   80.3089E-03,   7.49276E-03,            0.,NA,NA,"",   956.419E+03,   957.011E+03,   957.011E+03
C:/temp/Job-2.odb,Step-1,Increment      1: Step Time =    1.000,"P-2-1",          2198,   80.6103E-03,   191.940E-03,            0.,NA,NA,"",   958.655E+03,   959.347E+03,   959.347E+03
C:/temp/Job-2.odb,Step-1,Increment      1: Step Time =    1.000,"P-2-1",          2199,   192.505E-03,   80.3260E-03,            0.,NA,NA,"",   974.943E+03,   998.887E+03,   998.887E+03
C:/temp/Job-2.odb,Step-1,Increment      1: Step Time =    1.000,"P-2-1",          2200,   145.681E-03,   7.20281E-03,            0.,NA,NA,"",   988.318E+03,   987.746E+03,   987.746E+03
C:/temp/Job-2.odb,Step-1,Increment      1: Step Time =    1.000,"P-2-1",          2201,   7.45561E-03,   145.452E-03,            0.,NA,NA,"",   862.767E+03,   959.907E+03,   959.907E+03
C:/temp/Job-2.odb,Step-1,Increment      1: Step Time =    1.000,"P-2-1",          2202,   193.034E-03,   145.676E-03,            0.,NA,NA,"",   993.179E+03,   1.00130E+06,   1.00130E+06
C:/temp/Job-2.odb,Step-1,Increment      1: Step Time =    1.000,"P-2-1",          2203,   145.421E-03,   192.492E-03,            0.,NA,NA,"",   988.221E+03,   987.617E+03,   987.617E+03
C:/temp/Job-2.odb,Step-1,Increment      1: Step Time =    1.000,"P-2-1",          2204,   54.5843E-03,   7.54350E-03,            0.,NA,NA,"",   990.009E+03,   990.190E+03,   990.190E+03
C:/temp/Job-2.odb,Step-1,Increment      1: Step Time =    1.000,"P-2-1",          2205,   6.97209E-03,   54.3195E-03,            0.,NA,NA,"",   861.867E+03,   959.640E+03,   959.640E+03
C:/temp/Job-2.odb,Step-1,Increment      1: Step Time =    1.000,"P-2-1",          2206,   192.548E-03,   54.5402E-03,            0.,NA,NA,"",   993.161E+03,   1.00139E+06,   1.00139E+06
C:/temp/Job-2.odb,Step-1,Increment      1: Step Time =    1.000,"P-2-1",          2207,   54.3141E-03,   192.794E-03,            0.,NA,NA,"",   989.508E+03,   989.658E+03,   989.658E+03
C:/temp/Job-2.odb,Step-1,Increment      1: Step Time =    1.000,"P-2-1",          2208,   124.831E-03,   7.65208E-03,            0.,NA,NA,"",   967.596E+03,   967.653E+03,   967.653E+03
C:/temp/Job-2.odb,Step-1,Increment      1: Step Time =    1.000,"P-2-1",          2209,   7.67354E-03,   124.750E-03,            0.,NA,NA,"",   813.433E+03,   910.737E+03,   910.737E+03
C:/temp/Job-2.odb,Step-1,Increment      1: Step Time =    1.000,"P-2-1",          2210,   192.340E-03,   124.749E-03,            0.,NA,NA,"",   978.888E+03,   999.572E+03,   999.572E+03
C:/temp/Job-2.odb,Step-1,Increment      1: Step Time =    1.000,"P-2-1",          2211,   124.765E-03,   192.342E-03,            0.,NA,NA,"",   967.297E+03,   967.363E+03,   967.363E+03
C:/temp/Job-2.odb,Step-1,Increment      1: Step Time =    1.000,"P-2-1",          2212,   75.2472E-03,   7.67492E-03,            0.,NA,NA,"",   962.292E+03,   962.699E+03,   962.699E+03
C:/temp/Job-2.odb,Step-1,Increment      1: Step Time =    1.000,"P-2-1",          2213,   7.70687E-03,   75.2574E-03,            0.,NA,NA,"",   813.713E+03,   911.005E+03,   911.005E+03
C:/temp/Job-2.odb,Step-1,Increment      1: Step Time =    1.000,"P-2-1",          2214,   75.2212E-03,   192.349E-03,            0.,NA,NA,"",   962.515E+03,   962.922E+03,   962.922E+03
C:/temp/Job-2.odb,Step-1,Increment      1: Step Time =    1.000,"P-2-1",          2215,   192.330E-03,   75.2545E-03,            0.,NA,NA,"",   978.769E+03,   999.563E+03,   999.563E+03
C:/temp/Job-2.odb,Step-1,Increment      1: Step Time =    1.000,"P-2-1",          2216,   59.7140E-03,   7.68316E-03,            0.,NA,NA,"",   982.646E+03,   982.722E+03,   982.722E+03
C:/temp/Job-2.odb,Step-1,Increment      1: Step Time =    1.000,"P-2-1",          2217,   8.37108E-03,   59.5526E-03,            0.,NA,NA,"",   852.825E+03,   948.910E+03,   948.910E+03
C:/temp/Job-2.odb,Step-1,Increment      1: Step Time =    1.000,"P-2-1",          2218,   7.63783E-03,   140.287E-03,            0.,NA,NA,"",   849.526E+03,   946.640E+03,   946.640E+03
C:/temp/Job-2.odb,Step-1,Increment      1: Step Time =    1.000,"P-2-1",          2219,   140.307E-03,   8.36377E-03,            0.,NA,NA,"",   985.555E+03,   984.887E+03,   984.887E+03
C:/temp/Job-2.odb,Step-1,Increment      1: Step Time =    1.000,"P-2-1",          2220,   192.361E-03,   59.7029E-03,            0.,NA,NA,"",   990.219E+03,   1.00123E+06,   1.00123E+06
C:/temp/Job-2.odb,Step-1,Increment      1: Step Time =    1.000,"P-2-1",          2221,   59.6887E-03,   191.629E-03,            0.,NA,NA,"",   985.787E+03,   985.881E+03,   985.881E+03
C:/temp/Job-2.odb,Step-1,Increment      1: Step Time =    1.000,"P-2-1",          2222,   191.645E-03,   140.443E-03,            0.,NA,NA,"",   990.988E+03,   1.00147E+06,   1.00147E+06
C:/temp/Job-2.odb,Step-1,Increment      1: Step Time =    1.000,"P-2-1",          2223,   140.301E-03,   192.315E-03,            0.,NA,NA,"",   984.070E+03,   983.515E+03,   983.515E+03
C:/temp/Job-2.odb,Step-1,Increment      1: Step Time =    1.000,"P-2-1",          2224,   107.091E-03,   84.0755E-03,            0.,NA,NA,"",   1.54136E+06,   1.61140E+06,   1.61140E+06
C:/temp/Job-2.odb,Step-1,Increment      1: Step Time =    1.000,"P-2-1",          2225,   87.3225E-03,   83.1990E-03,            0.,NA,NA,"",   1.37819E+06,   1.32973E+06,   1.32973E+06
C:/temp/Job-2.odb,Step-1,Increment      1: Step Time =    1.000,"P-2-1",          2226,   112.848E-03,   116.698E-03,            0.,NA,NA,"",   1.39501E+06,   1.33269E+06,   1.33269E+06
C:/temp/Job-2.odb,Step-1,Increment      1: Step Time =    1.000,"P-2-1",          2227,   92.9180E-03,   115.957E-03,            0.,NA,NA,"",   1.51638E+06,   1.58707E+06,   1.58707E+06
C:/temp/Job-2.odb,Step-1,Increment      1: Step Time =    1.000,"P-2-1",          2228,   87.4546E-03,   116.711E-03,            0.,NA,NA,"",   1.38518E+06,   1.33842E+06,   1.33842E+06
C:/temp/Job-2.odb,Step-1,Increment      1: Step Time =    1.000,"P-2-1",          2229,   7.54652E-03,   70.2518E-03,            0.,NA,NA,"",   823.821E+03,   921.240E+03,   921.240E+03
C:/temp/Job-2.odb,Step-1,Increment      1: Step Time =    1.000,"P-2-1",          2230,   70.2645E-03,   192.466E-03,            0.,NA,NA,"",   968.000E+03,   968.221E+03,   968.221E+03
C:/temp/Job-2.odb,Step-1,Increment      1: Step Time =    1.000,"P-2-1",          2231,   129.757E-03,   7.51945E-03,            0.,NA,NA,"",   972.933E+03,   972.745E+03,   972.745E+03
C:/temp/Job-2.odb,Step-1,Increment      1: Step Time =    1.000,"P-2-1",          2232,   192.508E-03,   129.775E-03,            0.,NA,NA,"",   982.594E+03,   1.00021E+06,   1.00021E+06
C:/temp/Job-2.odb,Step-1,Increment      1: Step Time =    1.000,"P-2-1",          2233,   64.9085E-03,   7.73531E-03,            0.,NA,NA,"",   975.556E+03,   975.656E+03,   975.656E+03
C:/temp/Job-2.odb,Step-1,Increment      1: Step Time =    1.000,"P-2-1",          2234,   7.60132E-03,   65.1782E-03,            0.,NA,NA,"",   835.736E+03,   933.039E+03,   933.039E+03
C:/temp/Job-2.odb,Step-1,Increment      1: Step Time =    1.000,"P-2-1",          2235,   65.2367E-03,   192.426E-03,            0.,NA,NA,"",   974.693E+03,   974.792E+03,   974.792E+03
C:/temp/Job-2.odb,Step-1,Increment      1: Step Time =    1.000,"P-2-1",          2236,   192.288E-03,   64.9142E-03,            0.,NA,NA,"",   986.691E+03,   1.00083E+06,   1.00083E+06
C:/temp/Job-2.odb,Step-1,Increment      1: Step Time =    1.000,"P-2-1",          2237,   7.70007E-03,   135.077E-03,            0.,NA,NA,"",   836.663E+03,   933.820E+03,   933.820E+03
C:/temp/Job-2.odb,Step-1,Increment      1: Step Time =    1.000,"P-2-1",          2238,   134.769E-03,   7.56183E-03,            0.,NA,NA,"",   978.548E+03,   978.156E+03,   978.156E+03
C:/temp/Job-2.odb,Step-1,Increment      1: Step Time =    1.000,"P-2-1",          2239,   135.103E-03,   192.258E-03,            0.,NA,NA,"",   979.043E+03,   978.625E+03,   978.625E+03
C:/temp/Job-2.odb,Step-1,Increment      1: Step Time =    1.000,"P-2-1",          2240,   192.431E-03,   134.827E-03,            0.,NA,NA,"",   986.444E+03,   1.00076E+06,   1.00076E+06
C:/temp/Job-2.odb,Step-1,Increment      1: Step Time =    1.000,"P-2-1",          2241,   7.71801E-03,   129.878E-03,            0.,NA,NA,"",   824.469E+03,   921.682E+03,   921.682E+03
C:/temp/Job-2.odb,Step-1,Increment      1: Step Time =    1.000,"P-2-1",          2242,   129.904E-03,   192.264E-03,            0.,NA,NA,"",   973.306E+03,   973.127E+03,   973.127E+03
C:/temp/Job-2.odb,Step-1,Increment      1: Step Time =    1.000,"P-2-1",          2243,   70.1157E-03,   7.73470E-03,            0.,NA,NA,"",   968.654E+03,   968.911E+03,   968.911E+03
C:/temp/Job-2.odb,Step-1,Increment      1: Step Time =    1.000,"P-2-1",          2244,   192.270E-03,   70.1133E-03,            0.,NA,NA,"",   982.733E+03,   1.00021E+06,   1.00021E+06
C:/temp/Job-2.odb,Step-1,Increment      1: Step Time =    1.000,"P-2-1",          2245,   83.4006E-03,   112.852E-03,            0.,NA,NA,"",   1.21486E+06,   1.08902E+06,   1.08902E+06
C:/temp/Job-2.odb,Step-1,Increment      1: Step Time =    1.000,"P-2-1",          2246,   120.030E-03,   93.7892E-03,            0.,NA,NA,"",   740.127E+03,   624.176E+03,   624.176E+03
C:/temp/Job-2.odb,Step-1,Increment      1: Step Time =    1.000,"P-2-1",          2247,   79.2337E-03,   105.604E-03,            0.,NA,NA,"",   664.287E+03,   591.620E+03,   591.620E+03
C:/temp/Job-2.odb,Step-1,Increment      1: Step Time =    1.000,"P-2-1",          2248,   10.3046E-03,   127.319E-03,            0.,NA,NA,"",   825.814E+03,   920.419E+03,   920.419E+03
C:/temp/Job-2.odb,Step-1,Increment      1: Step Time =    1.000,"P-2-1",          2249,   127.318E-03,   10.2339E-03,            0.,NA,NA,"",   976.664E+03,   976.527E+03,   976.527E+03
C:/temp/Job-2.odb,Step-1,Increment      1: Step Time =    1.000,"P-2-1",          2250,   72.6807E-03,   10.3208E-03,            0.,NA,NA,"",   974.962E+03,   975.585E+03,   975.585E+03
C:/temp/Job-2.odb,Step-1,Increment      1: Step Time =    1.000,"P-2-1",          2251,   10.2621E-03,   72.7220E-03,            0.,NA,NA,"",   825.819E+03,   920.502E+03,   920.502E+03
C:/temp/Job-2.odb,Step-1,Increment      1: Step Time =    1.000,"P-2-1",          2252,   127.336E-03,   189.686E-03,            0.,NA,NA,"",   976.548E+03,   976.475E+03,   976.475E+03
C:/temp/Job-2.odb,Step-1,Increment      1: Step Time =    1.000,"P-2-1",          2253,   189.861E-03,   127.317E-03,            0.,NA,NA,"",   982.764E+03,   999.859E+03,   999.859E+03
C:/temp/Job-2.odb,Step-1,Increment      1: Step Time =    1.000,"P-2-1",          2254,   189.682E-03,   72.6830E-03,            0.,NA,NA,"",   982.710E+03,   999.759E+03,   999.759E+03
C:/temp/Job-2.odb,Step-1,Increment      1: Step Time =    1.000,"P-2-1",          2255,   72.7291E-03,   189.746E-03,            0.,NA,NA,"",   975.055E+03,   975.578E+03,   975.578E+03
C:/temp/Job-2.odb,Step-1,Increment      1: Step Time =    1.000,"P-2-1",          2256,   10.2338E-03,   132.502E-03,            0.,NA,NA,"",   838.249E+03,   932.548E+03,   932.548E+03
C:/temp/Job-2.odb,Step-1,Increment      1: Step Time =    1.000,"P-2-1",          2257,   132.150E-03,   9.96492E-03,            0.,NA,NA,"",   980.890E+03,   980.414E+03,   980.414E+03
C:/temp/Job-2.odb,Step-1,Increment      1: Step Time =    1.000,"P-2-1",          2258,   67.4851E-03,   10.2867E-03,            0.,NA,NA,"",   981.583E+03,   981.880E+03,   981.880E+03
C:/temp/Job-2.odb,Step-1,Increment      1: Step Time =    1.000,"P-2-1",          2259,   9.97121E-03,   67.8200E-03,            0.,NA,NA,"",   836.650E+03,   931.339E+03,   931.339E+03
C:/temp/Job-2.odb,Step-1,Increment      1: Step Time =    1.000,"P-2-1",          2260,   190.093E-03,   132.189E-03,            0.,NA,NA,"",   986.400E+03,   1.00080E+06,   1.00080E+06
C:/temp/Job-2.odb,Step-1,Increment      1: Step Time =    1.000,"P-2-1",          2261,   132.530E-03,   189.690E-03,            0.,NA,NA,"",   981.789E+03,   981.270E+03,   981.270E+03
C:/temp/Job-2.odb,Step-1,Increment      1: Step Time =    1.000,"P-2-1",          2262,   189.729E-03,   67.4842E-03,            0.,NA,NA,"",   986.886E+03,   1.00091E+06,   1.00091E+06
C:/temp/Job-2.odb,Step-1,Increment      1: Step Time =    1.000,"P-2-1",          2263,   67.8694E-03,   190.009E-03,            0.,NA,NA,"",   980.186E+03,   980.487E+03,   980.487E+03
C:/temp/Job-2.odb,Step-1,Increment      1: Step Time =    1.000,"P-2-1",          2264,   121.900E-03,   93.0300E-03,            0.,NA,NA,"",   788.258E+03,   697.078E+03,   697.078E+03
C:/temp/Job-2.odb,Step-1,Increment      1: Step Time =    1.000,"P-2-1",          2265,   77.2630E-03,   106.056E-03,            0.,NA,NA,"",   696.182E+03,   654.390E+03,   654.390E+03
C:/temp/Job-2.odb,Step-1,Increment      1: Step Time =    1.000,"P-2-1",          2266,   94.5132E-03,   119.696E-03,            0.,NA,NA,"",   1.35598E+06,   1.45716E+06,   1.45716E+06
C:/temp/Job-2.odb,Step-1,Increment      1: Step Time =    1.000,"P-2-1",          2267,   93.9342E-03,   79.3724E-03,            0.,NA,NA,"",   1.31597E+06,   1.41048E+06,   1.41048E+06
C:/temp/Job-2.odb,Step-1,Increment      1: Step Time =    1.000,"P-2-1",          2268,   106.280E-03,   120.974E-03,            0.,NA,NA,"",   1.30581E+06,   1.39587E+06,   1.39587E+06
C:/temp/Job-2.odb,Step-1,Increment      1: Step Time =    1.000,"P-2-1",          2269,   104.929E-03,   79.9081E-03,            0.,NA,NA,"",   1.34175E+06,   1.45106E+06,   1.45106E+06
C:/temp/Job-2.odb,Step-1,Increment      1: Step Time =    1.000,"P-2-1",          2270,   80.4654E-03,   110.410E-03,            0.,NA,NA,"",   1.01244E+06,   896.653E+03,   896.653E+03
C:/temp/Job-2.odb,Step-1,Increment      1: Step Time =    1.000,"P-2-1",          2271,   82.8171E-03,   115.501E-03,            0.,NA,NA,"",   1.28070E+06,   1.18010E+06,   1.18010E+06
C:/temp/Job-2.odb,Step-1,Increment      1: Step Time =    1.000,"P-2-1",          2272,   78.8947E-03,   100.708E-03,            0.,NA,NA,"",   323.254E+03,   319.917E+03,   319.917E+03
C:/temp/Job-2.odb,Step-1,Increment      1: Step Time =    1.000,"P-2-1",          2273,   120.431E-03,   102.092E-03,            0.,NA,NA,"",   406.768E+03,   357.689E+03,   357.689E+03
C:/temp/Job-2.odb,Step-1,Increment      1: Step Time =    1.000,"P-2-1",          2274,   9.03746E-03,   92.8913E-03,            0.,NA,NA,"",   791.039E+03,   887.397E+03,   887.397E+03
C:/temp/Job-2.odb,Step-1,Increment      1: Step Time =    1.000,"P-2-1",          2275,   93.0069E-03,   190.794E-03,            0.,NA,NA,"",   954.458E+03,   955.976E+03,   955.976E+03
C:/temp/Job-2.odb,Step-1,Increment      1: Step Time =    1.000,"P-2-1",          2276,   106.947E-03,   9.22296E-03,            0.,NA,NA,"",   955.979E+03,   957.392E+03,   957.392E+03
C:/temp/Job-2.odb,Step-1,Increment      1: Step Time =    1.000,"P-2-1",          2277,   190.855E-03,   107.069E-03,            0.,NA,NA,"",   969.029E+03,   996.284E+03,   996.284E+03
C:/temp/Job-2.odb,Step-1,Increment      1: Step Time =    1.000,"P-2-1",          2278,   156.981E-03,   10.0769E-03,            0.,NA,NA,"",   997.681E+03,   996.760E+03,   996.760E+03
C:/temp/Job-2.odb,Step-1,Increment      1: Step Time =    1.000,"P-2-1",          2279,   9.71980E-03,   159.118E-03,            0.,NA,NA,"",   917.443E+03,   1.00826E+06,   1.00826E+06
C:/temp/Job-2.odb,Step-1,Increment      1: Step Time =    1.000,"P-2-1",          2280,   159.129E-03,   190.196E-03,            0.,NA,NA,"",   998.060E+03,   997.219E+03,   997.219E+03
C:/temp/Job-2.odb,Step-1,Increment      1: Step Time =    1.000,"P-2-1",          2281,   190.032E-03,   156.754E-03,            0.,NA,NA,"",   999.380E+03,   1.00241E+06,   1.00241E+06
C:/temp/Job-2.odb,Step-1,Increment      1: Step Time =    1.000,"P-2-1",          2282,   9.96779E-03,   43.2417E-03,            0.,NA,NA,"",   909.749E+03,   1.00059E+06,   1.00059E+06
C:/temp/Job-2.odb,Step-1,Increment      1: Step Time =    1.000,"P-2-1",          2283,   40.7690E-03,   9.78439E-03,            0.,NA,NA,"",   1.02607E+06,   1.02811E+06,   1.02811E+06
C:/temp/Job-2.odb,Step-1,Increment      1: Step Time =    1.000,"P-2-1",          2284,   43.0163E-03,   189.922E-03,            0.,NA,NA,"",   1.02170E+06,   1.02345E+06,   1.02345E+06
C:/temp/Job-2.odb,Step-1,Increment      1: Step Time =    1.000,"P-2-1",          2285,   190.279E-03,   40.8780E-03,            0.,NA,NA,"",   999.758E+03,   1.00221E+06,   1.00221E+06
C:/temp/Job-2.odb,Step-1,Increment      1: Step Time =    1.000,"P-2-1",          2286,   9.35476E-03,   177.626E-03,            0.,NA,NA,"",   1.02084E+06,   1.10014E+06,   1.10014E+06
C:/temp/Job-2.odb,Step-1,Increment      1: Step Time =    1.000,"P-2-1",          2287,   181.234E-03,   6.48493E-03,            0.,NA,NA,"",   999.540E+03,   999.483E+03,   999.483E+03
C:/temp/Job-2.odb,Step-1,Increment      1: Step Time =    1.000,"P-2-1",          2288,   176.302E-03,   10.8350E-03,            0.,NA,NA,"",   1.00044E+06,   1.00013E+06,   1.00013E+06
C:/temp/Job-2.odb,Step-1,Increment      1: Step Time =    1.000,"P-2-1",          2289,   6.98278E-03,   181.927E-03,            0.,NA,NA,"",   1.04755E+06,   1.13124E+06,   1.13124E+06
C:/temp/Job-2.odb,Step-1,Increment      1: Step Time =    1.000,"P-2-1",          2290,   189.030E-03,   176.328E-03,            0.,NA,NA,"",   1.00112E+06,   1.00118E+06,   1.00118E+06
C:/temp/Job-2.odb,Step-1,Increment      1: Step Time =    1.000,"P-2-1",          2291,   193.405E-03,   181.281E-03,            0.,NA,NA,"",   1.00039E+06,   1.00026E+06,   1.00026E+06
C:/temp/Job-2.odb,Step-1,Increment      1: Step Time =    1.000,"P-2-1",          2292,   178.434E-03,   190.906E-03,            0.,NA,NA,"",   999.881E+03,   999.703E+03,   999.703E+03
C:/temp/Job-2.odb,Step-1,Increment      1: Step Time =    1.000,"P-2-1",          2293,   181.707E-03,   193.721E-03,            0.,NA,NA,"",   999.440E+03,   999.392E+03,   999.392E+03
C:/temp/Job-2.odb,Step-1,Increment      1: Step Time =    1.000,"P-2-1",          2294,   10.8402E-03,   23.6969E-03,            0.,NA,NA,"",   1.01761E+06,   1.09311E+06,   1.09311E+06
C:/temp/Job-2.odb,Step-1,Increment      1: Step Time =    1.000,"P-2-1",          2295,   6.48812E-03,   18.7683E-03,            0.,NA,NA,"",   1.03727E+06,   1.12429E+06,   1.12429E+06
C:/temp/Job-2.odb,Step-1,Increment      1: Step Time =    1.000,"P-2-1",          2296,   18.0738E-03,   6.99117E-03,            0.,NA,NA,"",   1.12644E+06,   1.13579E+06,   1.13579E+06
C:/temp/Job-2.odb,Step-1,Increment      1: Step Time =    1.000,"P-2-1",          2297,   22.3756E-03,   9.36512E-03,            0.,NA,NA,"",   1.09987E+06,   1.10966E+06,   1.10966E+06
C:/temp/Job-2.odb,Step-1,Increment      1: Step Time =    1.000,"P-2-1",          2298,   18.7675E-03,   193.516E-03,            0.,NA,NA,"",   1.12061E+06,   1.12806E+06,   1.12806E+06
C:/temp/Job-2.odb,Step-1,Increment      1: Step Time =    1.000,"P-2-1",          2299,   23.6979E-03,   189.166E-03,            0.,NA,NA,"",   1.09198E+06,   1.10366E+06,   1.10366E+06
C:/temp/Job-2.odb,Step-1,Increment      1: Step Time =    1.000,"P-2-1",          2300,   190.637E-03,   22.3735E-03,            0.,NA,NA,"",   1.00072E+06,   1.00079E+06,   1.00079E+06
C:/temp/Job-2.odb,Step-1,Increment      1: Step Time =    1.000,"P-2-1",          2301,   193.012E-03,   18.0714E-03,            0.,NA,NA,"",   1.00035E+06,   1.00027E+06,   1.00027E+06
C:/temp/Job-2.odb,Step-1,Increment      1: Step Time =    1.000,"P-2-1",          2302,   87.7735E-03,   190.612E-03,            0.,NA,NA,"",   957.592E+03,   958.941E+03,   958.941E+03
C:/temp/Job-2.odb,Step-1,Increment      1: Step Time =    1.000,"P-2-1",          2303,   112.131E-03,   9.55483E-03,            0.,NA,NA,"",   960.229E+03,   961.391E+03,   961.391E+03
C:/temp/Job-2.odb,Step-1,Increment      1: Step Time =    1.000,"P-2-1",          2304,   9.87811E-03,   112.208E-03,            0.,NA,NA,"",   797.656E+03,   893.274E+03,   893.274E+03
C:/temp/Job-2.odb,Step-1,Increment      1: Step Time =    1.000,"P-2-1",          2305,   87.7475E-03,   9.82871E-03,            0.,NA,NA,"",   959.139E+03,   960.603E+03,   960.603E+03
C:/temp/Job-2.odb,Step-1,Increment      1: Step Time =    1.000,"P-2-1",          2306,   9.07689E-03,   87.8084E-03,            0.,NA,NA,"",   796.076E+03,   892.342E+03,   892.342E+03
C:/temp/Job-2.odb,Step-1,Increment      1: Step Time =    1.000,"P-2-1",          2307,   190.097E-03,   87.7903E-03,            0.,NA,NA,"",   971.518E+03,   996.430E+03,   996.430E+03
C:/temp/Job-2.odb,Step-1,Increment      1: Step Time =    1.000,"P-2-1",          2308,   112.254E-03,   190.161E-03,            0.,NA,NA,"",   961.280E+03,   962.522E+03,   962.522E+03
C:/temp/Job-2.odb,Step-1,Increment      1: Step Time =    1.000,"P-2-1",          2309,   190.900E-03,   112.174E-03,            0.,NA,NA,"",   971.215E+03,   996.963E+03,   996.963E+03
C:/temp/Job-2.odb,Step-1,Increment      1: Step Time =    1.000,"P-2-1",          2310,   47.1950E-03,   9.81445E-03,            0.,NA,NA,"",   1.01164E+06,   1.01262E+06,   1.01262E+06
C:/temp/Job-2.odb,Step-1,Increment      1: Step Time =    1.000,"P-2-1",          2311,   9.87936E-03,   46.2858E-03,            0.,NA,NA,"",   898.687E+03,   990.637E+03,   990.637E+03
C:/temp/Job-2.odb,Step-1,Increment      1: Step Time =    1.000,"P-2-1",          2312,   190.605E-03,   47.1715E-03,            0.,NA,NA,"",   997.858E+03,   1.00229E+06,   1.00229E+06
C:/temp/Job-2.odb,Step-1,Increment      1: Step Time =    1.000,"P-2-1",          2313,   46.0464E-03,   190.071E-03,            0.,NA,NA,"",   1.01529E+06,   1.01649E+06,   1.01649E+06
C:/temp/Job-2.odb,Step-1,Increment      1: Step Time =    1.000,"P-2-1",          2314,   153.948E-03,   9.92973E-03,            0.,NA,NA,"",   996.516E+03,   995.547E+03,   995.547E+03
C:/temp/Job-2.odb,Step-1,Increment      1: Step Time =    1.000,"P-2-1",          2315,   9.39815E-03,   152.823E-03,            0.,NA,NA,"",   893.229E+03,   986.242E+03,   986.242E+03
C:/temp/Job-2.odb,Step-1,Increment      1: Step Time =    1.000,"P-2-1",          2316,   190.120E-03,   153.708E-03,            0.,NA,NA,"",   998.432E+03,   1.00242E+06,   1.00242E+06
C:/temp/Job-2.odb,Step-1,Increment      1: Step Time =    1.000,"P-2-1",          2317,   152.773E-03,   190.464E-03,            0.,NA,NA,"",   995.451E+03,   994.528E+03,   994.528E+03
C:/temp/Job-2.odb,Step-1,Increment      1: Step Time =    1.000,"P-2-1",          2318,   118.095E-03,   10.3273E-03,            0.,NA,NA,"",   967.766E+03,   968.599E+03,   968.599E+03
C:/temp/Job-2.odb,Step-1,Increment      1: Step Time =    1.000,"P-2-1",          2319,   9.83839E-03,   117.242E-03,            0.,NA,NA,"",   804.747E+03,   900.276E+03,   900.276E+03
C:/temp/Job-2.odb,Step-1,Increment      1: Step Time =    1.000,"P-2-1",          2320,   189.895E-03,   117.674E-03,            0.,NA,NA,"",   975.087E+03,   997.408E+03,   997.408E+03
C:/temp/Job-2.odb,Step-1,Increment      1: Step Time =    1.000,"P-2-1",          2321,   117.263E-03,   190.217E-03,            0.,NA,NA,"",   965.287E+03,   966.073E+03,   966.073E+03
C:/temp/Job-2.odb,Step-1,Increment      1: Step Time =    1.000,"P-2-1",          2322,   82.7376E-03,   9.82550E-03,            0.,NA,NA,"",   962.777E+03,   963.929E+03,   963.929E+03
C:/temp/Job-2.odb,Step-1,Increment      1: Step Time =    1.000,"P-2-1",          2323,   10.0428E-03,   82.3081E-03,            0.,NA,NA,"",   806.033E+03,   901.325E+03,   901.325E+03
C:/temp/Job-2.odb,Step-1,Increment      1: Step Time =    1.000,"P-2-1",          2324,   190.155E-03,   82.7671E-03,            0.,NA,NA,"",   974.703E+03,   997.576E+03,   997.576E+03
C:/temp/Job-2.odb,Step-1,Increment      1: Step Time =    1.000,"P-2-1",          2325,   82.1995E-03,   189.961E-03,            0.,NA,NA,"",   964.401E+03,   965.629E+03,   965.629E+03
C:/temp/Job-2.odb,Step-1,Increment      1: Step Time =    1.000,"P-2-1",          2326,   148.206E-03,   9.13851E-03,            0.,NA,NA,"",   992.672E+03,   991.789E+03,   991.789E+03
C:/temp/Job-2.odb,Step-1,Increment      1: Step Time =    1.000,"P-2-1",          2327,   191.356E-03,   148.059E-03,            0.,NA,NA,"",   995.542E+03,   1.00198E+06,   1.00198E+06
C:/temp/Job-2.odb,Step-1,Increment      1: Step Time =    1.000,"P-2-1",          2328,   8.64783E-03,   51.9346E-03,            0.,NA,NA,"",   875.729E+03,   970.645E+03,   970.645E+03
C:/temp/Job-2.odb,Step-1,Increment      1: Step Time =    1.000,"P-2-1",          2329,   51.7878E-03,   190.857E-03,            0.,NA,NA,"",   1.00117E+06,   1.00165E+06,   1.00165E+06
C:/temp/Job-2.odb,Step-1,Increment      1: Step Time =    1.000,"P-2-1",          2330,   122.710E-03,   10.3249E-03,            0.,NA,NA,"",   972.363E+03,   972.741E+03,   972.741E+03
C:/temp/Job-2.odb,Step-1,Increment      1: Step Time =    1.000,"P-2-1",          2331,   10.1972E-03,   122.247E-03,            0.,NA,NA,"",   814.627E+03,   909.667E+03,   909.667E+03
C:/temp/Job-2.odb,Step-1,Increment      1: Step Time =    1.000,"P-2-1",          2332,   122.259E-03,   189.860E-03,            0.,NA,NA,"",   970.999E+03,   971.353E+03,   971.353E+03
C:/temp/Job-2.odb,Step-1,Increment      1: Step Time =    1.000,"P-2-1",          2333,   189.619E-03,   122.513E-03,            0.,NA,NA,"",   978.998E+03,   998.559E+03,   998.559E+03
C:/temp/Job-2.odb,Step-1,Increment      1: Step Time =    1.000,"P-2-1",          2334,   77.7441E-03,   10.1962E-03,            0.,NA,NA,"",   968.766E+03,   969.652E+03,   969.652E+03
C:/temp/Job-2.odb,Step-1,Increment      1: Step Time =    1.000,"P-2-1",          2335,   10.4530E-03,   77.4813E-03,            0.,NA,NA,"",   816.068E+03,   910.704E+03,   910.704E+03
C:/temp/Job-2.odb,Step-1,Increment      1: Step Time =    1.000,"P-2-1",          2336,   77.4253E-03,   189.697E-03,            0.,NA,NA,"",   970.085E+03,   971.045E+03,   971.045E+03
C:/temp/Job-2.odb,Step-1,Increment      1: Step Time =    1.000,"P-2-1",          2337,   189.821E-03,   77.7616E-03,            0.,NA,NA,"",   978.638E+03,   998.661E+03,   998.661E+03
C:/temp/Job-2.odb,Step-1,Increment      1: Step Time =    1.000,"P-2-1",          2338,   10.8084E-03,   57.8648E-03,            0.,NA,NA,"",   866.109E+03,   958.590E+03,   958.590E+03
C:/temp/Job-2.odb,Step-1,Increment      1: Step Time =    1.000,"P-2-1",          2339,   141.794E-03,   10.8595E-03,            0.,NA,NA,"",   990.984E+03,   989.887E+03,   989.887E+03
C:/temp/Job-2.odb,Step-1,Increment      1: Step Time =    1.000,"P-2-1",          2340,   58.1995E-03,   189.130E-03,            0.,NA,NA,"",   997.031E+03,   997.300E+03,   997.300E+03
C:/temp/Job-2.odb,Step-1,Increment      1: Step Time =    1.000,"P-2-1",          2341,   189.206E-03,   142.126E-03,            0.,NA,NA,"",   994.006E+03,   1.00247E+06,   1.00247E+06
C:/temp/Job-2.odb,Step-1,Increment      1: Step Time =    1.000,"P-2-1",          2342,   110.445E-03,   82.8885E-03,            0.,NA,NA,"",   1.41099E+06,   1.40310E+06,   1.40310E+06
C:/temp/Job-2.odb,Step-1,Increment      1: Step Time =    1.000,"P-2-1",          2343,   87.8728E-03,   80.8524E-03,            0.,NA,NA,"",   1.36147E+06,   1.34304E+06,   1.34304E+06
C:/temp/Job-2.odb,Step-1,Increment      1: Step Time =    1.000,"P-2-1",          2344,   112.500E-03,   119.166E-03,            0.,NA,NA,"",   1.37336E+06,   1.34279E+06,   1.34279E+06
C:/temp/Job-2.odb,Step-1,Increment      1: Step Time =    1.000,"P-2-1",          2345,   89.6636E-03,   117.532E-03,            0.,NA,NA,"",   1.40591E+06,   1.40871E+06,   1.40871E+06
C:/temp/Job-2.odb,Step-1,Increment      1: Step Time =    1.000,"P-2-1",          2346,   10.2872E-03,   63.0474E-03,            0.,NA,NA,"",   850.254E+03,   944.046E+03,   944.046E+03
C:/temp/Job-2.odb,Step-1,Increment      1: Step Time =    1.000,"P-2-1",          2347,   63.1818E-03,   189.782E-03,            0.,NA,NA,"",   987.586E+03,   987.792E+03,   987.792E+03
C:/temp/Job-2.odb,Step-1,Increment      1: Step Time =    1.000,"P-2-1",          2348,   136.818E-03,   10.2023E-03,            0.,NA,NA,"",   985.834E+03,   985.050E+03,   985.050E+03
C:/temp/Job-2.odb,Step-1,Increment      1: Step Time =    1.000,"P-2-1",          2349,   189.739E-03,   136.941E-03,            0.,NA,NA,"",   990.242E+03,   1.00165E+06,   1.00165E+06
C:/temp/Job-2.odb,Step-1,Increment      1: Step Time =    1.000,"P-2-1",          2350,   116.036E-03,   85.3629E-03,            0.,NA,NA,"",   1.32088E+06,   1.19548E+06,   1.19548E+06
C:/temp/Job-2.odb,Step-1,Increment      1: Step Time =    1.000,"P-2-1",          2351,   120.498E-03,   98.5293E-03,            0.,NA,NA,"",   355.715E+03,   313.074E+03,   313.074E+03
C:/temp/Job-2.odb,Step-1,Increment      1: Step Time =    1.000,"P-2-1",          2352,   79.3547E-03,   97.5529E-03,            0.,NA,NA,"",   404.834E+03,   380.402E+03,   380.402E+03
C:/temp/Job-2.odb,Step-1,Increment      1: Step Time =    1.000,"P-2-1",          2353,   84.8880E-03,   87.1532E-03,            0.,NA,NA,"",   1.26908E+06,   1.14473E+06,   1.14473E+06
C:/temp/Job-2.odb,Step-1,Increment      1: Step Time =    1.000,"P-2-1",          2354,   114.948E-03,   112.562E-03,            0.,NA,NA,"",   1.29030E+06,   1.14483E+06,   1.14483E+06
C:/temp/Job-2.odb,Step-1,Increment      1: Step Time =    1.000,"P-2-1",          2355,   115.227E-03,   117.305E-03,            0.,NA,NA,"",    1.3585E+06,   1.26824E+06,   1.26824E+06
C:/temp/Job-2.odb,Step-1,Increment      1: Step Time =    1.000,"P-2-1",          2356,   85.1767E-03,   116.021E-03,            0.,NA,NA,"",   1.34179E+06,   1.25849E+06,   1.25849E+06
C:/temp/Job-2.odb,Step-1,Increment      1: Step Time =    1.000,"P-2-1",          2357,   84.9358E-03,   82.4131E-03,            0.,NA,NA,"",   1.33303E+06,   1.26341E+06,   1.26341E+06
C:/temp/Job-2.odb,Step-1,Increment      1: Step Time =    1.000,"P-2-1",          2358,   187.474E-03,   136.470E-03,            0.,NA,NA,"",   991.841E+03,   1.00218E+06,   1.00218E+06
C:/temp/Job-2.odb,Step-1,Increment      1: Step Time =    1.000,"P-2-1",          2359,   137.759E-03,   187.107E-03,            0.,NA,NA,"",   991.557E+03,   990.347E+03,   990.347E+03
C:/temp/Job-2.odb,Step-1,Increment      1: Step Time =    1.000,"P-2-1",          2360,   63.6170E-03,   187.462E-03,            0.,NA,NA,"",   994.911E+03,   995.350E+03,   995.350E+03
C:/temp/Job-2.odb,Step-1,Increment      1: Step Time =    1.000,"P-2-1",          2361,   187.274E-03,   62.2545E-03,            0.,NA,NA,"",   992.895E+03,   1.00254E+06,   1.00254E+06
C:/temp/Job-2.odb,Step-1,Increment      1: Step Time =    1.000,"P-2-1",          2362,   136.378E-03,   12.5054E-03,            0.,NA,NA,"",   989.953E+03,   988.890E+03,   988.890E+03
C:/temp/Job-2.odb,Step-1,Increment      1: Step Time =    1.000,"P-2-1",          2363,   12.7054E-03,   137.686E-03,            0.,NA,NA,"",   860.061E+03,   950.556E+03,   950.556E+03
C:/temp/Job-2.odb,Step-1,Increment      1: Step Time =    1.000,"P-2-1",          2364,   12.5441E-03,   63.5003E-03,            0.,NA,NA,"",   856.412E+03,   947.289E+03,   947.289E+03
C:/temp/Job-2.odb,Step-1,Increment      1: Step Time =    1.000,"P-2-1",          2365,   62.2788E-03,   12.8786E-03,            0.,NA,NA,"",   997.513E+03,   997.939E+03,   997.939E+03
C:/temp/Job-2.odb,Step-1,Increment      1: Step Time =    1.000,"P-2-1",          2366,   82.1404E-03,   118.008E-03,            0.,NA,NA,"",   1.28611E+06,   1.20750E+06,   1.20750E+06
C:/temp/Job-2.odb,Step-1,Increment      1: Step Time =    1.000,"P-2-1",          2367,   186.896E-03,   143.048E-03,            0.,NA,NA,"",   996.647E+03,   1.00354E+06,   1.00354E+06
C:/temp/Job-2.odb,Step-1,Increment      1: Step Time =    1.000,"P-2-1",          2368,   142.975E-03,   187.150E-03,            0.,NA,NA,"",   994.926E+03,   993.453E+03,   993.453E+03
C:/temp/Job-2.odb,Step-1,Increment      1: Step Time =    1.000,"P-2-1",          2369,   187.404E-03,   56.9910E-03,            0.,NA,NA,"",   996.060E+03,   1.00330E+06,   1.00330E+06
C:/temp/Job-2.odb,Step-1,Increment      1: Step Time =    1.000,"P-2-1",          2370,   57.6117E-03,   186.763E-03,            0.,NA,NA,"",   1.00575E+06,   1.00633E+06,   1.00633E+06
C:/temp/Job-2.odb,Step-1,Increment      1: Step Time =    1.000,"P-2-1",          2371,   142.382E-03,   13.2174E-03,            0.,NA,NA,"",   995.485E+03,   993.944E+03,   993.944E+03
C:/temp/Job-2.odb,Step-1,Increment      1: Step Time =    1.000,"P-2-1",          2372,   12.6154E-03,   142.966E-03,            0.,NA,NA,"",   875.111E+03,   964.757E+03,   964.757E+03
C:/temp/Job-2.odb,Step-1,Increment      1: Step Time =    1.000,"P-2-1",          2373,   13.1167E-03,   56.9403E-03,            0.,NA,NA,"",   877.388E+03,   966.241E+03,   966.241E+03
C:/temp/Job-2.odb,Step-1,Increment      1: Step Time =    1.000,"P-2-1",          2374,   57.0787E-03,   12.8149E-03,            0.,NA,NA,"",   1.00474E+06,   1.00532E+06,   1.00532E+06
C:/temp/Job-2.odb,Step-1,Increment      1: Step Time =    1.000,"P-2-1",          2375,   187.135E-03,   77.7762E-03,            0.,NA,NA,"",   980.168E+03,   997.870E+03,   997.870E+03
C:/temp/Job-2.odb,Step-1,Increment      1: Step Time =    1.000,"P-2-1",          2376,   79.2776E-03,   186.485E-03,            0.,NA,NA,"",   978.621E+03,   980.263E+03,   980.263E+03
C:/temp/Job-2.odb,Step-1,Increment      1: Step Time =    1.000,"P-2-1",          2377,   77.7456E-03,   12.8890E-03,            0.,NA,NA,"",   978.009E+03,   979.448E+03,   979.448E+03
C:/temp/Job-2.odb,Step-1,Increment      1: Step Time =    1.000,"P-2-1",          2378,   13.8543E-03,   79.3484E-03,            0.,NA,NA,"",   820.197E+03,   911.808E+03,   911.808E+03
C:/temp/Job-2.odb,Step-1,Increment      1: Step Time =    1.000,"P-2-1",          2379,   186.171E-03,   120.665E-03,            0.,NA,NA,"",   979.358E+03,   996.968E+03,   996.968E+03
C:/temp/Job-2.odb,Step-1,Increment      1: Step Time =    1.000,"P-2-1",          2380,   122.230E-03,   187.216E-03,            0.,NA,NA,"",   977.723E+03,   978.299E+03,   978.299E+03
C:/temp/Job-2.odb,Step-1,Increment      1: Step Time =    1.000,"P-2-1",          2381,   12.8799E-03,   122.241E-03,            0.,NA,NA,"",   821.128E+03,   913.500E+03,   913.500E+03
C:/temp/Job-2.odb,Step-1,Increment      1: Step Time =    1.000,"P-2-1",          2382,   120.967E-03,   13.5240E-03,            0.,NA,NA,"",   978.346E+03,   979.156E+03,   979.156E+03
C:/temp/Job-2.odb,Step-1,Increment      1: Step Time =    1.000,"P-2-1",          2383,   51.4126E-03,   188.666E-03,            0.,NA,NA,"",   1.01000E+06,   1.01080E+06,   1.01080E+06
C:/temp/Job-2.odb,Step-1,Increment      1: Step Time =    1.000,"P-2-1",          2384,   187.762E-03,   51.7766E-03,            0.,NA,NA,"",   998.158E+03,   1.00347E+06,   1.00347E+06
C:/temp/Job-2.odb,Step-1,Increment      1: Step Time =    1.000,"P-2-1",          2385,   10.1815E-03,   51.8600E-03,            0.,NA,NA,"",   882.232E+03,   974.601E+03,   974.601E+03
C:/temp/Job-2.odb,Step-1,Increment      1: Step Time =    1.000,"P-2-1",          2386,   52.0572E-03,   12.5624E-03,            0.,NA,NA,"",   1.01196E+06,   1.01297E+06,   1.01297E+06
C:/temp/Job-2.odb,Step-1,Increment      1: Step Time =    1.000,"P-2-1",          2387,   189.822E-03,   148.132E-03,            0.,NA,NA,"",   996.702E+03,   1.00262E+06,   1.00262E+06
C:/temp/Job-2.odb,Step-1,Increment      1: Step Time =    1.000,"P-2-1",          2388,   148.083E-03,   187.495E-03,            0.,NA,NA,"",   996.986E+03,   995.495E+03,   995.495E+03
C:/temp/Job-2.odb,Step-1,Increment      1: Step Time =    1.000,"P-2-1",          2389,   148.584E-03,   11.3201E-03,            0.,NA,NA,"",   995.940E+03,   994.637E+03,   994.637E+03
C:/temp/Job-2.odb,Step-1,Increment      1: Step Time =    1.000,"P-2-1",          2390,   12.2538E-03,   148.205E-03,            0.,NA,NA,"",   889.736E+03,   978.943E+03,   978.943E+03
C:/temp/Job-2.odb,Step-1,Increment      1: Step Time =    1.000,"P-2-1",          2391,   187.758E-03,   82.6969E-03,            0.,NA,NA,"",   975.792E+03,   996.414E+03,   996.414E+03
C:/temp/Job-2.odb,Step-1,Increment      1: Step Time =    1.000,"P-2-1",          2392,   84.4795E-03,   188.820E-03,            0.,NA,NA,"",   966.017E+03,   967.690E+03,   967.690E+03
C:/temp/Job-2.odb,Step-1,Increment      1: Step Time =    1.000,"P-2-1",          2393,   82.6731E-03,   12.2136E-03,            0.,NA,NA,"",   970.853E+03,   972.585E+03,   972.585E+03
C:/temp/Job-2.odb,Step-1,Increment      1: Step Time =    1.000,"P-2-1",          2394,   10.8202E-03,   84.6990E-03,            0.,NA,NA,"",   803.766E+03,   898.594E+03,   898.594E+03
C:/temp/Job-2.odb,Step-1,Increment      1: Step Time =    1.000,"P-2-1",          2395,   117.335E-03,   187.868E-03,            0.,NA,NA,"",   971.629E+03,   972.784E+03,   972.784E+03
C:/temp/Job-2.odb,Step-1,Increment      1: Step Time =    1.000,"P-2-1",          2396,   189.198E-03,   115.258E-03,            0.,NA,NA,"",   973.817E+03,   996.688E+03,   996.688E+03
C:/temp/Job-2.odb,Step-1,Increment      1: Step Time =    1.000,"P-2-1",          2397,   12.2261E-03,   117.303E-03,            0.,NA,NA,"",   809.855E+03,   903.324E+03,   903.324E+03
C:/temp/Job-2.odb,Step-1,Increment      1: Step Time =    1.000,"P-2-1",          2398,   115.554E-03,   12.1138E-03,            0.,NA,NA,"",   970.116E+03,   971.487E+03,   971.487E+03
C:/temp/Job-2.odb,Step-1,Increment      1: Step Time =    1.000,"P-2-1",          2399,   187.219E-03,   67.4186E-03,            0.,NA,NA,"",   989.068E+03,   1.00133E+06,   1.00133E+06
C:/temp/Job-2.odb,Step-1,Increment      1: Step Time =    1.000,"P-2-1",          2400,   132.576E-03,   187.146E-03,            0.,NA,NA,"",   987.320E+03,   986.567E+03,   986.567E+03
C:/temp/Job-2.odb,Step-1,Increment      1: Step Time =    1.000,"P-2-1",          2401,   67.4360E-03,   12.7924E-03,            0.,NA,NA,"",   990.347E+03,   990.855E+03,   990.855E+03
C:/temp/Job-2.odb,Step-1,Increment      1: Step Time =    1.000,"P-2-1",          2402,   12.6996E-03,   132.559E-03,            0.,NA,NA,"",   845.931E+03,   937.243E+03,   937.243E+03
C:/temp/Job-2.odb,Step-1,Increment      1: Step Time =    1.000,"P-2-1",          2403,   154.894E-03,   188.103E-03,            0.,NA,NA,"",   998.963E+03,   997.643E+03,   997.643E+03
C:/temp/Job-2.odb,Step-1,Increment      1: Step Time =    1.000,"P-2-1",          2404,   11.6814E-03,   154.921E-03,            0.,NA,NA,"",   910.680E+03,   998.808E+03,   998.808E+03
C:/temp/Job-2.odb,Step-1,Increment      1: Step Time =    1.000,"P-2-1",          2405,   188.321E-03,   45.0736E-03,            0.,NA,NA,"",   1.00012E+06,   1.00330E+06,   1.00330E+06
C:/temp/Job-2.odb,Step-1,Increment      1: Step Time =    1.000,"P-2-1",          2406,   44.8282E-03,   12.0622E-03,            0.,NA,NA,"",   1.02418E+06,   1.02627E+06,   1.02627E+06
C:/temp/Job-2.odb,Step-1,Increment      1: Step Time =    1.000,"P-2-1",          2407,   187.332E-03,   127.486E-03,            0.,NA,NA,"",   984.765E+03,   999.803E+03,   999.803E+03
C:/temp/Job-2.odb,Step-1,Increment      1: Step Time =    1.000,"P-2-1",          2408,   72.6178E-03,   187.003E-03,            0.,NA,NA,"",   984.668E+03,   985.508E+03,   985.508E+03
C:/temp/Job-2.odb,Step-1,Increment      1: Step Time =    1.000,"P-2-1",          2409,   127.442E-03,   12.9548E-03,            0.,NA,NA,"",   983.167E+03,   982.954E+03,   982.954E+03
C:/temp/Job-2.odb,Step-1,Increment      1: Step Time =    1.000,"P-2-1",          2410,   12.9163E-03,   72.5487E-03,            0.,NA,NA,"",   833.529E+03,   925.317E+03,   925.317E+03
C:/temp/Job-2.odb,Step-1,Increment      1: Step Time =    1.000,"P-2-1",          2411,   186.685E-03,   109.502E-03,            0.,NA,NA,"",   970.723E+03,   993.240E+03,   993.240E+03
C:/temp/Job-2.odb,Step-1,Increment      1: Step Time =    1.000,"P-2-1",          2412,   13.1150E-03,   90.4884E-03,            0.,NA,NA,"",   800.444E+03,   893.658E+03,   893.658E+03
C:/temp/Job-2.odb,Step-1,Increment      1: Step Time =    1.000,"P-2-1",          2413,   110.930E-03,   12.4179E-03,            0.,NA,NA,"",   967.741E+03,   969.779E+03,   969.779E+03
C:/temp/Job-2.odb,Step-1,Increment      1: Step Time =    1.000,"P-2-1",          2414,   88.7800E-03,   187.501E-03,            0.,NA,NA,"",   967.268E+03,   969.623E+03,   969.623E+03
C:/temp/Job-2.odb,Step-1,Increment      1: Step Time =    1.000,"P-2-1",          2415,   188.814E-03,   23.6307E-03,            0.,NA,NA,"",   1.00117E+06,   1.00124E+06,   1.00124E+06
C:/temp/Job-2.odb,Step-1,Increment      1: Step Time =    1.000,"P-2-1",          2416,   23.4778E-03,   186.839E-03,            0.,NA,NA,"",   1.09065E+06,   1.10708E+06,   1.10708E+06
C:/temp/Job-2.odb,Step-1,Increment      1: Step Time =    1.000,"P-2-1",          2417,   23.6303E-03,   11.1882E-03,            0.,NA,NA,"",   1.09254E+06,   1.10455E+06,   1.10455E+06
C:/temp/Job-2.odb,Step-1,Increment      1: Step Time =    1.000,"P-2-1",          2418,   13.1693E-03,   23.4751E-03,            0.,NA,NA,"",   1.02946E+06,   1.09651E+06,   1.09651E+06
C:/temp/Job-2.odb,Step-1,Increment      1: Step Time =    1.000,"P-2-1",          2419,   177.192E-03,   188.841E-03,            0.,NA,NA,"",   1.00047E+06,   1.00016E+06,   1.00016E+06
C:/temp/Job-2.odb,Step-1,Increment      1: Step Time =    1.000,"P-2-1",          2420,   186.591E-03,   176.618E-03,            0.,NA,NA,"",   1.00171E+06,   1.00166E+06,   1.00166E+06
C:/temp/Job-2.odb,Step-1,Increment      1: Step Time =    1.000,"P-2-1",          2421,   11.1804E-03,   176.369E-03,            0.,NA,NA,"",   1.01870E+06,   1.09309E+06,   1.09309E+06
C:/temp/Job-2.odb,Step-1,Increment      1: Step Time =    1.000,"P-2-1",          2422,   176.524E-03,   13.1626E-03,            0.,NA,NA,"",   1.00124E+06,   1.00080E+06,   1.00080E+06
C:/temp/Job-2.odb,Step-1,Increment      1: Step Time =    1.000,"P-2-1",          2423,   41.6435E-03,   187.625E-03,            0.,NA,NA,"",   1.03204E+06,   1.03528E+06,   1.03528E+06
C:/temp/Job-2.odb,Step-1,Increment      1: Step Time =    1.000,"P-2-1",          2424,   12.2952E-03,   41.8617E-03,            0.,NA,NA,"",   926.134E+03,   1.01148E+06,   1.01148E+06
C:/temp/Job-2.odb,Step-1,Increment      1: Step Time =    1.000,"P-2-1",          2425,   187.708E-03,   158.130E-03,            0.,NA,NA,"",   1.00135E+06,   1.00348E+06,   1.00348E+06
C:/temp/Job-2.odb,Step-1,Increment      1: Step Time =    1.000,"P-2-1",          2426,   158.358E-03,   12.3722E-03,            0.,NA,NA,"",   1.00044E+06,   999.142E+03,   999.142E+03
C:/temp/Job-2.odb,Step-1,Increment      1: Step Time =    1.000,"P-2-1",          2427,   77.4449E-03,   98.8905E-03,            0.,NA,NA,"",   389.016E+03,   401.725E+03,   401.725E+03
C:/temp/Job-2.odb,Step-1,Increment      1: Step Time =    1.000,"P-2-1",          2428,   122.508E-03,   100.154E-03,            0.,NA,NA,"",   398.801E+03,   390.532E+03,   390.532E+03
C:/temp/Job-2.odb,Step-1,Increment      1: Step Time =    1.000,"P-2-1",          2429,   106.439E-03,   189.287E-03,            0.,NA,NA,"",   960.188E+03,   962.062E+03,   962.062E+03
C:/temp/Job-2.odb,Step-1,Increment      1: Step Time =    1.000,"P-2-1",          2430,   187.560E-03,   106.260E-03,            0.,NA,NA,"",   969.176E+03,   993.293E+03,   993.293E+03
C:/temp/Job-2.odb,Step-1,Increment      1: Step Time =    1.000,"P-2-1",          2431,   10.7865E-03,   106.349E-03,            0.,NA,NA,"",   793.428E+03,   888.501E+03,   888.501E+03
C:/temp/Job-2.odb,Step-1,Increment      1: Step Time =    1.000,"P-2-1",          2432,   106.048E-03,   12.4187E-03,            0.,NA,NA,"",   964.877E+03,   967.377E+03,   967.377E+03
C:/temp/Job-2.odb,Step-1,Increment      1: Step Time =    1.000,"P-2-1",          2433,   189.285E-03,   93.6308E-03,            0.,NA,NA,"",   968.994E+03,   994.801E+03,   994.801E+03
C:/temp/Job-2.odb,Step-1,Increment      1: Step Time =    1.000,"P-2-1",          2434,   93.9308E-03,   187.582E-03,            0.,NA,NA,"",   964.444E+03,   967.141E+03,   967.141E+03
C:/temp/Job-2.odb,Step-1,Increment      1: Step Time =    1.000,"P-2-1",          2435,   93.5623E-03,   10.7089E-03,            0.,NA,NA,"",   959.077E+03,   961.123E+03,   961.123E+03
C:/temp/Job-2.odb,Step-1,Increment      1: Step Time =    1.000,"P-2-1",          2436,   12.1979E-03,   93.6701E-03,            0.,NA,NA,"",   795.804E+03,   889.854E+03,   889.854E+03
C:/temp/Job-2.odb,Step-1,Increment      1: Step Time =    1.000,"P-2-1",          2437,   116.668E-03,   111.144E-03,            0.,NA,NA,"",   1.19189E+06,   1.02760E+06,   1.02760E+06
C:/temp/Job-2.odb,Step-1,Increment      1: Step Time =    1.000,"P-2-1",          2438,   82.8386E-03,   88.3288E-03,            0.,NA,NA,"",   1.17137E+06,   1.03403E+06,   1.03403E+06
C:/temp/Job-2.odb,Step-1,Increment      1: Step Time =    1.000,"P-2-1",          2439,   90.0111E-03,   78.3366E-03,            0.,NA,NA,"",   1.30979E+06,   1.34510E+06,   1.34510E+06
C:/temp/Job-2.odb,Step-1,Increment      1: Step Time =    1.000,"P-2-1",          2440,   110.328E-03,   121.716E-03,            0.,NA,NA,"",   1.31975E+06,   1.34485E+06,   1.34485E+06
C:/temp/Job-2.odb,Step-1,Increment      1: Step Time =    1.000,"P-2-1",          2441,   122.232E-03,   91.0437E-03,            0.,NA,NA,"",   910.362E+03,   807.600E+03,   807.600E+03
C:/temp/Job-2.odb,Step-1,Increment      1: Step Time =    1.000,"P-2-1",          2442,   77.0972E-03,   109.550E-03,            0.,NA,NA,"",   899.930E+03,   829.000E+03,   829.000E+03
C:/temp/Job-2.odb,Step-1,Increment      1: Step Time =    1.000,"P-2-1",          2443,   95.9013E-03,   122.248E-03,            0.,NA,NA,"",   1.25012E+06,   1.36079E+06,   1.36079E+06
C:/temp/Job-2.odb,Step-1,Increment      1: Step Time =    1.000,"P-2-1",          2444,   97.9872E-03,   77.2787E-03,            0.,NA,NA,"",   1.22416E+06,   1.34856E+06,   1.34856E+06
C:/temp/Job-2.odb,Step-1,Increment      1: Step Time =    1.000,"P-2-1",          2445,   101.992E-03,   123.063E-03,            0.,NA,NA,"",   1.20973E+06,   1.33261E+06,   1.33261E+06
C:/temp/Job-2.odb,Step-1,Increment      1: Step Time =    1.000,"P-2-1",          2446,   104.145E-03,   77.7423E-03,            0.,NA,NA,"",   1.24900E+06,   1.35956E+06,   1.35956E+06
C:/temp/Job-2.odb,Step-1,Increment      1: Step Time =    1.000,"P-2-1",          2447,   78.2362E-03,   103.608E-03,            0.,NA,NA,"",   509.119E+03,   482.350E+03,   482.350E+03
C:/temp/Job-2.odb,Step-1,Increment      1: Step Time =    1.000,"P-2-1",          2448,   122.685E-03,   103.934E-03,            0.,NA,NA,"",   581.481E+03,   539.931E+03,   539.931E+03
C:/temp/Job-2.odb,Step-1,Increment      1: Step Time =    1.000,"P-2-1",          2449,   96.1667E-03,   191.653E-03,            0.,NA,NA,"",   950.813E+03,   952.099E+03,   952.099E+03
C:/temp/Job-2.odb,Step-1,Increment      1: Step Time =    1.000,"P-2-1",          2450,   103.808E-03,   8.36611E-03,            0.,NA,NA,"",   951.885E+03,   953.114E+03,   953.114E+03
C:/temp/Job-2.odb,Step-1,Increment      1: Step Time =    1.000,"P-2-1",          2451,   7.26480E-03,   105.224E-03,            0.,NA,NA,"",   787.000E+03,   884.451E+03,   884.451E+03
C:/temp/Job-2.odb,Step-1,Increment      1: Step Time =    1.000,"P-2-1",          2452,   94.7485E-03,   7.24271E-03,            0.,NA,NA,"",   947.225E+03,   948.247E+03,   948.247E+03
C:/temp/Job-2.odb,Step-1,Increment      1: Step Time =    1.000,"P-2-1",          2453,   8.27063E-03,   96.0771E-03,            0.,NA,NA,"",   787.986E+03,   884.872E+03,   884.872E+03
C:/temp/Job-2.odb,Step-1,Increment      1: Step Time =    1.000,"P-2-1",          2454,   192.750E-03,   94.7720E-03,            0.,NA,NA,"",   967.576E+03,   997.373E+03,   997.373E+03
C:/temp/Job-2.odb,Step-1,Increment      1: Step Time =    1.000,"P-2-1",          2455,   105.246E-03,   192.756E-03,            0.,NA,NA,"",   948.855E+03,   949.809E+03,   949.809E+03
C:/temp/Job-2.odb,Step-1,Increment      1: Step Time =    1.000,"P-2-1",          2456,   191.660E-03,   103.883E-03,            0.,NA,NA,"",   968.012E+03,   996.754E+03,   996.754E+03
C:/temp/Job-2.odb,Step-1,Increment      1: Step Time =    1.000,"P-2-1",          2457,   158.800E-03,   8.36942E-03,            0.,NA,NA,"",   996.833E+03,   996.203E+03,   996.203E+03
C:/temp/Job-2.odb,Step-1,Increment      1: Step Time =    1.000,"P-2-1",          2458,   7.78382E-03,   160.318E-03,            0.,NA,NA,"",   912.875E+03,   1.00737E+06,   1.00737E+06
C:/temp/Job-2.odb,Step-1,Increment      1: Step Time =    1.000,"P-2-1",          2459,   191.671E-03,   158.684E-03,            0.,NA,NA,"",   998.952E+03,   1.00167E+06,   1.00167E+06
C:/temp/Job-2.odb,Step-1,Increment      1: Step Time =    1.000,"P-2-1",          2460,   160.328E-03,   192.166E-03,            0.,NA,NA,"",   996.911E+03,   996.363E+03,   996.363E+03
C:/temp/Job-2.odb,Step-1,Increment      1: Step Time =    1.000,"P-2-1",          2461,   8.32923E-03,   41.3152E-03,            0.,NA,NA,"",   908.981E+03,   1.00275E+06,   1.00275E+06
C:/temp/Job-2.odb,Step-1,Increment      1: Step Time =    1.000,"P-2-1",          2462,   39.6430E-03,   7.83061E-03,            0.,NA,NA,"",   1.02165E+06,   1.02313E+06,   1.02313E+06
C:/temp/Job-2.odb,Step-1,Increment      1: Step Time =    1.000,"P-2-1",          2463,   192.217E-03,   39.6764E-03,            0.,NA,NA,"",   999.124E+03,   1.00147E+06,   1.00147E+06
C:/temp/Job-2.odb,Step-1,Increment      1: Step Time =    1.000,"P-2-1",          2464,   41.1975E-03,   191.632E-03,            0.,NA,NA,"",   1.01975E+06,   1.02113E+06,   1.02113E+06
C:/temp/Job-2.odb,Step-1,Increment      1: Step Time =    1.000,"P-2-1",          2465,   181.533E-03,   4.29378E-03,            0.,NA,NA,"",   999.286E+03,   999.264E+03,   999.264E+03
C:/temp/Job-2.odb,Step-1,Increment      1: Step Time =    1.000,"P-2-1",          2466,   180.994E-03,   8.74275E-03,            0.,NA,NA,"",   999.880E+03,   999.773E+03,   999.773E+03
C:/temp/Job-2.odb,Step-1,Increment      1: Step Time =    1.000,"P-2-1",          2467,   9.78394E-03,   183.562E-03,            0.,NA,NA,"",   1.08212E+06,   1.14940E+06,   1.14940E+06
C:/temp/Job-2.odb,Step-1,Increment      1: Step Time =    1.000,"P-2-1",          2468,   7.88043E-03,   175.970E-03,            0.,NA,NA,"",   997.723E+03,   1.08457E+06,   1.08457E+06
C:/temp/Job-2.odb,Step-1,Increment      1: Step Time =    1.000,"P-2-1",          2469,   173.533E-03,   8.54484E-03,            0.,NA,NA,"",   999.637E+03,   999.362E+03,   999.362E+03
C:/temp/Job-2.odb,Step-1,Increment      1: Step Time =    1.000,"P-2-1",          2470,   195.647E-03,   181.569E-03,            0.,NA,NA,"",   1.00035E+06,   1.00012E+06,   1.00012E+06
C:/temp/Job-2.odb,Step-1,Increment      1: Step Time =    1.000,"P-2-1",          2471,   176.348E-03,   192.247E-03,            0.,NA,NA,"",   999.466E+03,   999.298E+03,   999.298E+03
C:/temp/Job-2.odb,Step-1,Increment      1: Step Time =    1.000,"P-2-1",          2472,   191.088E-03,   181.021E-03,            0.,NA,NA,"",   1.00054E+06,   1.00048E+06,   1.00048E+06
C:/temp/Job-2.odb,Step-1,Increment      1: Step Time =    1.000,"P-2-1",          2473,   181.421E-03,   191.992E-03,            0.,NA,NA,"",   999.689E+03,   999.603E+03,   999.603E+03
C:/temp/Job-2.odb,Step-1,Increment      1: Step Time =    1.000,"P-2-1",          2474,   191.379E-03,   173.565E-03,            0.,NA,NA,"",   1.00070E+06,   1.00094E+06,   1.00094E+06
C:/temp/Job-2.odb,Step-1,Increment      1: Step Time =    1.000,"P-2-1",          2475,   4.29584E-03,   18.4680E-03,            0.,NA,NA,"",   1.02283E+06,   1.11921E+06,   1.11921E+06
C:/temp/Job-2.odb,Step-1,Increment      1: Step Time =    1.000,"P-2-1",          2476,   8.74698E-03,   19.0103E-03,            0.,NA,NA,"",   1.04979E+06,   1.12712E+06,   1.12712E+06
C:/temp/Job-2.odb,Step-1,Increment      1: Step Time =    1.000,"P-2-1",          2477,   8.54754E-03,   26.4663E-03,            0.,NA,NA,"",   984.394E+03,   1.07086E+06,   1.07086E+06
C:/temp/Job-2.odb,Step-1,Increment      1: Step Time =    1.000,"P-2-1",          2478,   24.0306E-03,   7.88887E-03,            0.,NA,NA,"",   1.08527E+06,   1.09125E+06,   1.09125E+06
C:/temp/Job-2.odb,Step-1,Increment      1: Step Time =    1.000,"P-2-1",          2479,   16.4399E-03,   9.79248E-03,            0.,NA,NA,"",   1.13960E+06,   1.15842E+06,   1.15842E+06
C:/temp/Job-2.odb,Step-1,Increment      1: Step Time =    1.000,"P-2-1",          2480,   26.4664E-03,   191.456E-03,            0.,NA,NA,"",   1.07359E+06,   1.07933E+06,   1.07933E+06
C:/temp/Job-2.odb,Step-1,Increment      1: Step Time =    1.000,"P-2-1",          2481,   18.4676E-03,   195.707E-03,            0.,NA,NA,"",   1.11096E+06,   1.11469E+06,   1.11469E+06
C:/temp/Job-2.odb,Step-1,Increment      1: Step Time =    1.000,"P-2-1",          2482,   19.0088E-03,   191.258E-03,            0.,NA,NA,"",   1.12312E+06,   1.13521E+06,   1.13521E+06
C:/temp/Job-2.odb,Step-1,Increment      1: Step Time =    1.000,"P-2-1",          2483,   192.113E-03,   24.0300E-03,            0.,NA,NA,"",   1.00054E+06,   1.00066E+06,   1.00066E+06
C:/temp/Job-2.odb,Step-1,Increment      1: Step Time =    1.000,"P-2-1",          2484,   190.215E-03,   16.4343E-03,            0.,NA,NA,"",   1.00045E+06,   1.00039E+06,   1.00039E+06
C:/temp/Job-2.odb,Step-1,Increment      1: Step Time =    1.000,"P-2-1",          2485,   114.263E-03,   83.7749E-03,            0.,NA,NA,"",   1.37017E+06,   1.28003E+06,   1.28003E+06
C:/temp/Job-2.odb,Step-1,Increment      1: Step Time =    1.000,"P-2-1",          2486,   90.6398E-03,   120.849E-03,            0.,NA,NA,"",   1.32533E+06,   1.36426E+06,   1.36426E+06
C:/temp/Job-2.odb,Step-1,Increment      1: Step Time =    1.000,"P-2-1",          2487,   110.764E-03,   79.9265E-03,            0.,NA,NA,"",   1.36451E+06,   1.36620E+06,   1.36620E+06
C:/temp/Job-2.odb,Step-1,Increment      1: Step Time =    1.000,"P-2-1",          2488,   121.516E-03,   96.2880E-03,            0.,NA,NA,"",   532.466E+03,   476.029E+03,   476.029E+03
C:/temp/Job-2.odb,Step-1,Increment      1: Step Time =    1.000,"P-2-1",          2489,   78.1016E-03,   94.6061E-03,            0.,NA,NA,"",   646.130E+03,   601.586E+03,   601.586E+03
C:/temp/Job-2.odb,Step-1,Increment      1: Step Time =    1.000,"P-2-1",          2490,   115.710E-03,   115.367E-03,            0.,NA,NA,"",   1.33692E+06,   1.22172E+06,   1.22172E+06
C:/temp/Job-2.odb,Step-1,Increment      1: Step Time =    1.000,"P-2-1",          2491,   84.2228E-03,   84.2944E-03,            0.,NA,NA,"",   1.31125E+06,   1.21609E+06,   1.21609E+06
C:/temp/Job-2.odb,Step-1,Increment      1: Step Time =    1.000,"P-2-1",          2492,   77.8078E-03,   111.038E-03,            0.,NA,NA,"",   989.708E+03,   903.211E+03,   903.211E+03
C:/temp/Job-2.odb,Step-1,Increment      1: Step Time =    1.000,"P-2-1",          2493,   190.237E-03,   51.9485E-03,            0.,NA,NA,"",   996.078E+03,   1.00234E+06,   1.00234E+06
C:/temp/Job-2.odb,Step-1,Increment      1: Step Time =    1.000,"P-2-1",          2494,   147.961E-03,   190.095E-03,            0.,NA,NA,"",   993.246E+03,   992.244E+03,   992.244E+03
C:/temp/Job-2.odb,Step-1,Increment      1: Step Time =    1.000,"P-2-1",          2495,   52.0645E-03,   10.0063E-03,            0.,NA,NA,"",   1.00339E+06,   1.00398E+06,   1.00398E+06
C:/temp/Job-2.odb,Step-1,Increment      1: Step Time =    1.000,"P-2-1",          2496,   9.77197E-03,   148.040E-03,            0.,NA,NA,"",   879.329E+03,   972.654E+03,   972.654E+03
C:/temp/Job-2.odb,Step-1,Increment      1: Step Time =    1.000,"P-2-1",          2497,   189.060E-03,   120.371E-03,            0.,NA,NA,"",   977.607E+03,   997.966E+03,   997.966E+03
C:/temp/Job-2.odb,Step-1,Increment      1: Step Time =    1.000,"P-2-1",          2498,   79.5219E-03,   189.284E-03,            0.,NA,NA,"",   968.856E+03,   969.951E+03,   969.951E+03
C:/temp/Job-2.odb,Step-1,Increment      1: Step Time =    1.000,"P-2-1",          2499,   120.704E-03,   10.7654E-03,            0.,NA,NA,"",   971.211E+03,   971.811E+03,   971.811E+03
C:/temp/Job-2.odb,Step-1,Increment      1: Step Time =    1.000,"P-2-1",          2500,   10.9378E-03,   79.6195E-03,            0.,NA,NA,"",   812.445E+03,   906.945E+03,   906.945E+03
C:/temp/Job-2.odb,Step-1,Increment      1: Step Time =    1.000,"P-2-1",          2501,   142.919E-03,   189.796E-03,            0.,NA,NA,"",   990.366E+03,   989.384E+03,   989.384E+03
C:/temp/Job-2.odb,Step-1,Increment      1: Step Time =    1.000,"P-2-1",          2502,   189.920E-03,   57.0555E-03,            0.,NA,NA,"",   993.747E+03,   1.00223E+06,   1.00223E+06
C:/temp/Job-2.odb,Step-1,Increment      1: Step Time =    1.000,"P-2-1",          2503,   10.0886E-03,   142.922E-03,            0.,NA,NA,"",   865.515E+03,   959.035E+03,   959.035E+03
C:/temp/Job-2.odb,Step-1,Increment      1: Step Time =    1.000,"P-2-1",          2504,   57.1173E-03,   10.1989E-03,            0.,NA,NA,"",   995.782E+03,   996.063E+03,   996.063E+03
C:/temp/Job-2.odb,Step-1,Increment      1: Step Time =    1.000,"P-2-1",          2505,   115.852E-03,   82.3947E-03,            0.,NA,NA,"",   1.34113E+06,   1.25067E+06,   1.25067E+06
C:/temp/Job-2.odb,Step-1,Increment      1: Step Time =    1.000,"P-2-1",          2506,   76.1631E-03,   111.748E-03,            0.,NA,NA,"",   984.358E+03,   916.083E+03,   916.083E+03
C:/temp/Job-2.odb,Step-1,Increment      1: Step Time =    1.000,"P-2-1",          2507,   117.413E-03,   117.477E-03,            0.,NA,NA,"",   1.31671E+06,   1.21534E+06,   1.21534E+06
C:/temp/Job-2.odb,Step-1,Increment      1: Step Time =    1.000,"P-2-1",          2508,   81.7648E-03,   83.7205E-03,            0.,NA,NA,"",   1.25473E+06,   1.16328E+06,   1.16328E+06
C:/temp/Job-2.odb,Step-1,Increment      1: Step Time =    1.000,"P-2-1",          2509,   185.414E-03,   134.185E-03,            0.,NA,NA,"",   992.133E+03,   1.00219E+06,   1.00219E+06
C:/temp/Job-2.odb,Step-1,Increment      1: Step Time =    1.000,"P-2-1",          2510,   135.162E-03,   187.134E-03,            0.,NA,NA,"",   989.512E+03,   988.513E+03,   988.513E+03
C:/temp/Job-2.odb,Step-1,Increment      1: Step Time =    1.000,"P-2-1",          2511,   187.256E-03,   64.8400E-03,            0.,NA,NA,"",   991.042E+03,   1.00198E+06,   1.00198E+06
C:/temp/Job-2.odb,Step-1,Increment      1: Step Time =    1.000,"P-2-1",          2512,   65.7388E-03,   185.247E-03,            0.,NA,NA,"",   999.536E+03,   1.00027E+06,   1.00027E+06
C:/temp/Job-2.odb,Step-1,Increment      1: Step Time =    1.000,"P-2-1",          2513,   12.6889E-03,   135.112E-03,            0.,NA,NA,"",   852.797E+03,   943.722E+03,   943.722E+03
C:/temp/Job-2.odb,Step-1,Increment      1: Step Time =    1.000,"P-2-1",          2514,   134.255E-03,   14.6660E-03,            0.,NA,NA,"",   993.012E+03,   991.832E+03,   991.832E+03
C:/temp/Job-2.odb,Step-1,Increment      1: Step Time =    1.000,"P-2-1",          2515,   64.8663E-03,   12.8302E-03,            0.,NA,NA,"",   993.819E+03,   994.268E+03,   994.268E+03
C:/temp/Job-2.odb,Step-1,Increment      1: Step Time =    1.000,"P-2-1",          2516,   14.5829E-03,   65.7327E-03,            0.,NA,NA,"",   857.275E+03,   945.653E+03,   945.653E+03
C:/temp/Job-2.odb,Step-1,Increment      1: Step Time =    1.000,"P-2-1",          2517,   84.3341E-03,   118.512E-03,            0.,NA,NA,"",   1.32744E+06,   1.26413E+06,   1.26413E+06
C:/temp/Job-2.odb,Step-1,Increment      1: Step Time =    1.000,"P-2-1",          2518,   185.916E-03,   140.646E-03,            0.,NA,NA,"",   996.107E+03,   1.00360E+06,   1.00360E+06
C:/temp/Job-2.odb,Step-1,Increment      1: Step Time =    1.000,"P-2-1",          2519,   140.372E-03,   187.110E-03,            0.,NA,NA,"",   993.365E+03,   991.999E+03,   991.999E+03
C:/temp/Job-2.odb,Step-1,Increment      1: Step Time =    1.000,"P-2-1",          2520,   187.334E-03,   59.6312E-03,            0.,NA,NA,"",   994.570E+03,   1.00298E+06,   1.00298E+06
C:/temp/Job-2.odb,Step-1,Increment      1: Step Time =    1.000,"P-2-1",          2521,   59.9250E-03,   186.208E-03,            0.,NA,NA,"",   1.00368E+06,   1.00414E+06,   1.00414E+06
C:/temp/Job-2.odb,Step-1,Increment      1: Step Time =    1.000,"P-2-1",          2522,   140.061E-03,   13.7699E-03,            0.,NA,NA,"",   994.717E+03,   993.190E+03,   993.190E+03
C:/temp/Job-2.odb,Step-1,Increment      1: Step Time =    1.000,"P-2-1",          2523,   12.6742E-03,   140.308E-03,            0.,NA,NA,"",   867.491E+03,   957.558E+03,   957.558E+03
C:/temp/Job-2.odb,Step-1,Increment      1: Step Time =    1.000,"P-2-1",          2524,   14.0985E-03,   59.3369E-03,            0.,NA,NA,"",   873.401E+03,   961.443E+03,   961.443E+03
C:/temp/Job-2.odb,Step-1,Increment      1: Step Time =    1.000,"P-2-1",          2525,   59.6719E-03,   12.8727E-03,            0.,NA,NA,"",   1.00115E+06,   1.00163E+06,   1.00163E+06
C:/temp/Job-2.odb,Step-1,Increment      1: Step Time =    1.000,"P-2-1",          2526,   186.917E-03,   75.2023E-03,            0.,NA,NA,"",   982.538E+03,   998.754E+03,   998.754E+03
C:/temp/Job-2.odb,Step-1,Increment      1: Step Time =    1.000,"P-2-1",          2527,   75.3345E-03,   186.481E-03,            0.,NA,NA,"",   983.071E+03,   984.314E+03,   984.314E+03
C:/temp/Job-2.odb,Step-1,Increment      1: Step Time =    1.000,"P-2-1",          2528,   75.1292E-03,   13.1006E-03,            0.,NA,NA,"",   981.592E+03,   982.805E+03,   982.805E+03
C:/temp/Job-2.odb,Step-1,Increment      1: Step Time =    1.000,"P-2-1",          2529,   13.5806E-03,   75.2689E-03,            0.,NA,NA,"",   828.659E+03,   920.013E+03,   920.013E+03
C:/temp/Job-2.odb,Step-1,Increment      1: Step Time =    1.000,"P-2-1",          2530,   124.799E-03,   186.965E-03,            0.,NA,NA,"",   980.651E+03,   980.875E+03,   980.875E+03
C:/temp/Job-2.odb,Step-1,Increment      1: Step Time =    1.000,"P-2-1",          2531,   186.699E-03,   124.741E-03,            0.,NA,NA,"",   982.704E+03,   998.702E+03,   998.702E+03
C:/temp/Job-2.odb,Step-1,Increment      1: Step Time =    1.000,"P-2-1",          2532,   13.0830E-03,   124.871E-03,            0.,NA,NA,"",   827.492E+03,   919.367E+03,   919.367E+03
C:/temp/Job-2.odb,Step-1,Increment      1: Step Time =    1.000,"P-2-1",          2533,   124.758E-03,   13.4944E-03,            0.,NA,NA,"",   981.931E+03,   982.153E+03,   982.153E+03
C:/temp/Job-2.odb,Step-1,Increment      1: Step Time =    1.000,"P-2-1",          2534,   54.9050E-03,   185.194E-03,            0.,NA,NA,"",   1.01473E+06,   1.01579E+06,   1.01579E+06
C:/temp/Job-2.odb,Step-1,Increment      1: Step Time =    1.000,"P-2-1",          2535,   187.547E-03,   54.3546E-03,            0.,NA,NA,"",   997.285E+03,   1.00348E+06,   1.00348E+06
C:/temp/Job-2.odb,Step-1,Increment      1: Step Time =    1.000,"P-2-1",          2536,   13.8213E-03,   53.8411E-03,            0.,NA,NA,"",   890.587E+03,    977.26E+03,    977.26E+03
C:/temp/Job-2.odb,Step-1,Increment      1: Step Time =    1.000,"P-2-1",          2537,   54.5534E-03,   12.6932E-03,            0.,NA,NA,"",   1.00829E+06,   1.00902E+06,   1.00902E+06
C:/temp/Job-2.odb,Step-1,Increment      1: Step Time =    1.000,"P-2-1",          2538,   186.183E-03,   146.148E-03,            0.,NA,NA,"",   999.081E+03,   1.00430E+06,   1.00430E+06
C:/temp/Job-2.odb,Step-1,Increment      1: Step Time =    1.000,"P-2-1",          2539,   145.539E-03,   187.268E-03,            0.,NA,NA,"",   996.150E+03,   994.635E+03,   994.635E+03
C:/temp/Job-2.odb,Step-1,Increment      1: Step Time =    1.000,"P-2-1",          2540,   145.095E-03,   14.7556E-03,            0.,NA,NA,"",   999.563E+03,   997.595E+03,   997.595E+03
C:/temp/Job-2.odb,Step-1,Increment      1: Step Time =    1.000,"P-2-1",          2541,   12.4751E-03,   145.611E-03,            0.,NA,NA,"",   882.658E+03,   971.997E+03,   971.997E+03
C:/temp/Job-2.odb,Step-1,Increment      1: Step Time =    1.000,"P-2-1",          2542,   76.2868E-03,   104.431E-03,            0.,NA,NA,"",   589.072E+03,   577.837E+03,   577.837E+03
C:/temp/Job-2.odb,Step-1,Increment      1: Step Time =    1.000,"P-2-1",          2543,   187.466E-03,   80.2800E-03,            0.,NA,NA,"",   977.845E+03,   997.087E+03,   997.087E+03
C:/temp/Job-2.odb,Step-1,Increment      1: Step Time =    1.000,"P-2-1",          2544,   81.5616E-03,   187.221E-03,            0.,NA,NA,"",   973.406E+03,   975.077E+03,   975.077E+03
C:/temp/Job-2.odb,Step-1,Increment      1: Step Time =    1.000,"P-2-1",          2545,   80.2604E-03,   12.5472E-03,            0.,NA,NA,"",   974.180E+03,    975.78E+03,    975.78E+03
C:/temp/Job-2.odb,Step-1,Increment      1: Step Time =    1.000,"P-2-1",          2546,   13.1710E-03,   82.0516E-03,            0.,NA,NA,"",   812.587E+03,   905.277E+03,   905.277E+03
C:/temp/Job-2.odb,Step-1,Increment      1: Step Time =    1.000,"P-2-1",          2547,   119.736E-03,   187.571E-03,            0.,NA,NA,"",   974.516E+03,   975.405E+03,   975.405E+03
C:/temp/Job-2.odb,Step-1,Increment      1: Step Time =    1.000,"P-2-1",          2548,   186.632E-03,   117.955E-03,            0.,NA,NA,"",   976.734E+03,   996.143E+03,   996.143E+03
C:/temp/Job-2.odb,Step-1,Increment      1: Step Time =    1.000,"P-2-1",          2549,   12.5456E-03,   119.722E-03,            0.,NA,NA,"",   815.005E+03,   907.984E+03,   907.984E+03
C:/temp/Job-2.odb,Step-1,Increment      1: Step Time =    1.000,"P-2-1",          2550,   119.007E-03,   12.8023E-03,            0.,NA,NA,"",   974.363E+03,   975.384E+03,   975.384E+03
C:/temp/Job-2.odb,Step-1,Increment      1: Step Time =    1.000,"P-2-1",          2551,   187.335E-03,   21.3363E-03,            0.,NA,NA,"",   1.00128E+06,   1.00125E+06,   1.00125E+06
C:/temp/Job-2.odb,Step-1,Increment      1: Step Time =    1.000,"P-2-1",          2552,   21.3000E-03,   186.562E-03,            0.,NA,NA,"",   1.09854E+06,   1.11918E+06,   1.11918E+06
C:/temp/Job-2.odb,Step-1,Increment      1: Step Time =    1.000,"P-2-1",          2553,   21.3387E-03,   12.6690E-03,            0.,NA,NA,"",   1.10049E+06,   1.11951E+06,   1.11951E+06
C:/temp/Job-2.odb,Step-1,Increment      1: Step Time =    1.000,"P-2-1",          2554,   13.4449E-03,   21.2995E-03,            0.,NA,NA,"",   1.04812E+06,   1.11026E+06,   1.11026E+06
C:/temp/Job-2.odb,Step-1,Increment      1: Step Time =    1.000,"P-2-1",          2555,   179.796E-03,   187.339E-03,            0.,NA,NA,"",   1.00078E+06,   1.00050E+06,   1.00050E+06
C:/temp/Job-2.odb,Step-1,Increment      1: Step Time =    1.000,"P-2-1",          2556,   186.415E-03,   178.650E-03,            0.,NA,NA,"",   1.00149E+06,   1.00139E+06,   1.00139E+06
C:/temp/Job-2.odb,Step-1,Increment      1: Step Time =    1.000,"P-2-1",          2557,   12.6606E-03,   178.662E-03,            0.,NA,NA,"",   1.04669E+06,   1.11207E+06,   1.11207E+06
C:/temp/Job-2.odb,Step-1,Increment      1: Step Time =    1.000,"P-2-1",          2558,   178.702E-03,   13.4373E-03,            0.,NA,NA,"",   1.00111E+06,   1.00077E+06,   1.00077E+06
C:/temp/Job-2.odb,Step-1,Increment      1: Step Time =    1.000,"P-2-1",          2559,   44.0277E-03,   186.549E-03,            0.,NA,NA,"",   1.02935E+06,   1.03237E+06,   1.03237E+06
C:/temp/Job-2.odb,Step-1,Increment      1: Step Time =    1.000,"P-2-1",          2560,   186.538E-03,   43.1616E-03,            0.,NA,NA,"",   1.00172E+06,   1.00402E+06,   1.00402E+06
C:/temp/Job-2.odb,Step-1,Increment      1: Step Time =    1.000,"P-2-1",          2561,   13.3416E-03,   44.5103E-03,            0.,NA,NA,"",   919.996E+03,   1.00444E+06,   1.00444E+06
C:/temp/Job-2.odb,Step-1,Increment      1: Step Time =    1.000,"P-2-1",          2562,   42.6735E-03,   13.4725E-03,            0.,NA,NA,"",   1.03259E+06,   1.03584E+06,   1.03584E+06
C:/temp/Job-2.odb,Step-1,Increment      1: Step Time =    1.000,"P-2-1",          2563,   156.874E-03,   186.283E-03,            0.,NA,NA,"",   1.00127E+06,   999.682E+03,   999.682E+03
C:/temp/Job-2.odb,Step-1,Increment      1: Step Time =    1.000,"P-2-1",          2564,   186.660E-03,   155.477E-03,            0.,NA,NA,"",   1.00160E+06,   1.00415E+06,   1.00415E+06
C:/temp/Job-2.odb,Step-1,Increment      1: Step Time =    1.000,"P-2-1",          2565,   155.974E-03,   13.4403E-03,            0.,NA,NA,"",   1.00104E+06,   999.454E+03,   999.454E+03
C:/temp/Job-2.odb,Step-1,Increment      1: Step Time =    1.000,"P-2-1",          2566,   13.4636E-03,   156.834E-03,            0.,NA,NA,"",   925.107E+03,   1.00914E+06,   1.00914E+06
C:/temp/Job-2.odb,Step-1,Increment      1: Step Time =    1.000,"P-2-1",          2567,   185.406E-03,   107.426E-03,            0.,NA,NA,"",   969.484E+03,   991.404E+03,   991.404E+03
C:/temp/Job-2.odb,Step-1,Increment      1: Step Time =    1.000,"P-2-1",          2568,   108.487E-03,   186.340E-03,            0.,NA,NA,"",   969.491E+03,   972.258E+03,   972.258E+03
C:/temp/Job-2.odb,Step-1,Increment      1: Step Time =    1.000,"P-2-1",          2569,   13.7834E-03,   108.317E-03,            0.,NA,NA,"",   800.336E+03,   892.962E+03,   892.962E+03
C:/temp/Job-2.odb,Step-1,Increment      1: Step Time =    1.000,"P-2-1",          2570,   107.122E-03,   14.5358E-03,            0.,NA,NA,"",   971.077E+03,   974.232E+03,   974.232E+03
C:/temp/Job-2.odb,Step-1,Increment      1: Step Time =    1.000,"P-2-1",          2571,   186.295E-03,   91.6927E-03,            0.,NA,NA,"",   969.856E+03,   992.327E+03,   992.327E+03
C:/temp/Job-2.odb,Step-1,Increment      1: Step Time =    1.000,"P-2-1",          2572,   92.9287E-03,   185.412E-03,            0.,NA,NA,"",   971.200E+03,   974.691E+03,   974.691E+03
C:/temp/Job-2.odb,Step-1,Increment      1: Step Time =    1.000,"P-2-1",          2573,   14.2076E-03,   92.5322E-03,            0.,NA,NA,"",   800.282E+03,   892.653E+03,   892.653E+03
C:/temp/Job-2.odb,Step-1,Increment      1: Step Time =    1.000,"P-2-1",          2574,   91.5220E-03,   13.6202E-03,            0.,NA,NA,"",   968.912E+03,   972.016E+03,   972.016E+03
C:/temp/Job-2.odb,Step-1,Increment      1: Step Time =    1.000,"P-2-1",          2575,   92.0522E-03,   77.2226E-03,            0.,NA,NA,"",   1.26525E+06,   1.33015E+06,   1.33015E+06
C:/temp/Job-2.odb,Step-1,Increment      1: Step Time =    1.000,"P-2-1",          2576,   87.8060E-03,   78.4472E-03,            0.,NA,NA,"",   1.32365E+06,   1.32438E+06,   1.32438E+06
C:/temp/Job-2.odb,Step-1,Increment      1: Step Time =    1.000,"P-2-1",          2577,   112.556E-03,   121.680E-03,            0.,NA,NA,"",   1.33389E+06,   1.32514E+06,   1.32514E+06
C:/temp/Job-2.odb,Step-1,Increment      1: Step Time =    1.000,"P-2-1",          2578,   108.502E-03,   123.142E-03,            0.,NA,NA,"",   1.26415E+06,   1.31777E+06,   1.31777E+06
C:/temp/Job-2.odb,Step-1,Increment      1: Step Time =    1.000,"P-2-1",          2579,   93.9281E-03,   123.681E-03,            0.,NA,NA,"",   1.22835E+06,   1.31476E+06,   1.31476E+06
C:/temp/Job-2.odb,Step-1,Increment      1: Step Time =    1.000,"P-2-1",          2580,   98.2490E-03,   121.248E-03,            0.,NA,NA,"",   1.28916E+06,   1.42337E+06,   1.42337E+06
C:/temp/Job-2.odb,Step-1,Increment      1: Step Time =    1.000,"P-2-1",          2581,   95.3176E-03,   76.6513E-03,            0.,NA,NA,"",   1.21551E+06,   1.31751E+06,   1.31751E+06
C:/temp/Job-2.odb,Step-1,Increment      1: Step Time =    1.000,"P-2-1",          2582,   101.662E-03,   78.7765E-03,            0.,NA,NA,"",   1.28968E+06,   1.42597E+06,   1.42597E+06
C:/temp/Job-2.odb,Step-1,Increment      1: Step Time =    1.000,"P-2-1",          2583,   104.825E-03,   124.007E-03,            0.,NA,NA,"",   1.19732E+06,   1.29539E+06,   1.29539E+06
C:/temp/Job-2.odb,Step-1,Increment      1: Step Time =    1.000,"P-2-1",          2584,   106.584E-03,   76.5224E-03,            0.,NA,NA,"",   1.23566E+06,   1.31580E+06,   1.31580E+06
C:/temp/Job-2.odb,Step-1,Increment      1: Step Time =    1.000,"P-2-1",          2585,   118.584E-03,   106.288E-03,            0.,NA,NA,"",   765.456E+03,   617.199E+03,   617.199E+03
C:/temp/Job-2.odb,Step-1,Increment      1: Step Time =    1.000,"P-2-1",          2586,   183.239E-03,   8.94591E-03,            0.,NA,NA,"",   999.937E+03,   999.857E+03,   999.857E+03
C:/temp/Job-2.odb,Step-1,Increment      1: Step Time =    1.000,"P-2-1",          2587,   7.11005E-03,   184.524E-03,            0.,NA,NA,"",   1.08272E+06,   1.16162E+06,   1.16162E+06
C:/temp/Job-2.odb,Step-1,Increment      1: Step Time =    1.000,"P-2-1",          2588,   190.777E-03,   183.370E-03,            0.,NA,NA,"",   1.00044E+06,   1.00035E+06,   1.00035E+06
C:/temp/Job-2.odb,Step-1,Increment      1: Step Time =    1.000,"P-2-1",          2589,   183.802E-03,   193.670E-03,            0.,NA,NA,"",   999.541E+03,   999.505E+03,   999.505E+03
C:/temp/Job-2.odb,Step-1,Increment      1: Step Time =    1.000,"P-2-1",          2590,   8.95165E-03,   16.7683E-03,            0.,NA,NA,"",   1.07724E+06,   1.14917E+06,   1.14917E+06
C:/temp/Job-2.odb,Step-1,Increment      1: Step Time =    1.000,"P-2-1",          2591,   15.4781E-03,   7.11595E-03,            0.,NA,NA,"",   1.15619E+06,   1.16853E+06,   1.16853E+06
C:/temp/Job-2.odb,Step-1,Increment      1: Step Time =    1.000,"P-2-1",          2592,   16.7659E-03,   191.054E-03,            0.,NA,NA,"",   1.14138E+06,   1.15721E+06,   1.15721E+06
C:/temp/Job-2.odb,Step-1,Increment      1: Step Time =    1.000,"P-2-1",          2593,   192.888E-03,   15.4748E-03,            0.,NA,NA,"",   1.00026E+06,   1.00015E+06,   1.00015E+06
C:/temp/Job-2.odb,Step-1,Increment      1: Step Time =    1.000,"P-2-1",          2594,   92.4878E-03,   122.053E-03,            0.,NA,NA,"",   1.28496E+06,   1.35343E+06,   1.35343E+06
C:/temp/Job-2.odb,Step-1,Increment      1: Step Time =    1.000,"P-2-1",          2595,   108.050E-03,   78.9439E-03,            0.,NA,NA,"",   1.31982E+06,   1.37843E+06,   1.37843E+06
C:/temp/Job-2.odb,Step-1,Increment      1: Step Time =    1.000,"P-2-1",          2596,   80.7820E-03,   93.3592E-03,            0.,NA,NA,"",   756.956E+03,   648.354E+03,   648.354E+03
C:/temp/Job-2.odb,Step-1,Increment      1: Step Time =    1.000,"P-2-1",          2597,   123.488E-03,   94.2438E-03,            0.,NA,NA,"",   705.095E+03,   647.833E+03,   647.833E+03
C:/temp/Job-2.odb,Step-1,Increment      1: Step Time =    1.000,"P-2-1",          2598,   190.746E-03,   171.274E-03,            0.,NA,NA,"",   1.00084E+06,   1.00126E+06,   1.00126E+06
C:/temp/Job-2.odb,Step-1,Increment      1: Step Time =    1.000,"P-2-1",          2599,   28.7672E-03,   190.818E-03,            0.,NA,NA,"",   1.06442E+06,   1.06962E+06,   1.06962E+06
C:/temp/Job-2.odb,Step-1,Increment      1: Step Time =    1.000,"P-2-1",          2600,   171.233E-03,   9.18335E-03,            0.,NA,NA,"",   999.748E+03,   999.356E+03,   999.356E+03
C:/temp/Job-2.odb,Step-1,Increment      1: Step Time =    1.000,"P-2-1",          2601,   9.18334E-03,   28.7703E-03,            0.,NA,NA,"",   972.852E+03,   1.05909E+06,   1.05909E+06
C:/temp/Job-2.odb,Step-1,Increment      1: Step Time =    1.000,"P-2-1",          2602,   163.767E-03,   191.918E-03,            0.,NA,NA,"",   997.952E+03,   997.464E+03,   997.464E+03
C:/temp/Job-2.odb,Step-1,Increment      1: Step Time =    1.000,"P-2-1",          2603,   191.943E-03,   36.2675E-03,            0.,NA,NA,"",   999.798E+03,   1.00137E+06,   1.00137E+06
C:/temp/Job-2.odb,Step-1,Increment      1: Step Time =    1.000,"P-2-1",          2604,   8.05655E-03,   163.729E-03,            0.,NA,NA,"",   927.715E+03,   1.02087E+06,   1.02087E+06
C:/temp/Job-2.odb,Step-1,Increment      1: Step Time =    1.000,"P-2-1",          2605,   36.2344E-03,   8.07427E-03,            0.,NA,NA,"",   1.03239E+06,   1.03430E+06,   1.03430E+06
C:/temp/Job-2.odb,Step-1,Increment      1: Step Time =    1.000,"P-2-1",          2606,   126.227E-03,   99.4178E-03,            0.,NA,NA,"",   527.918E+03,   538.872E+03,   538.872E+03
C:/temp/Job-2.odb,Step-1,Increment      1: Step Time =    1.000,"P-2-1",          2607,   75.5995E-03,   99.9711E-03,            0.,NA,NA,"",   429.084E+03,   457.509E+03,   457.509E+03
C:/temp/Job-2.odb,Step-1,Increment      1: Step Time =    1.000,"P-2-1",          2608,   99.3453E-03,   192.504E-03,            0.,NA,NA,"",   947.743E+03,   948.791E+03,   948.791E+03
C:/temp/Job-2.odb,Step-1,Increment      1: Step Time =    1.000,"P-2-1",          2609,   192.512E-03,   100.684E-03,            0.,NA,NA,"",   967.197E+03,   997.270E+03,   997.270E+03
C:/temp/Job-2.odb,Step-1,Increment      1: Step Time =    1.000,"P-2-1",          2610,   7.47123E-03,   99.2935E-03,            0.,NA,NA,"",   785.909E+03,   883.292E+03,   883.292E+03
C:/temp/Job-2.odb,Step-1,Increment      1: Step Time =    1.000,"P-2-1",          2611,   100.639E-03,   7.50865E-03,            0.,NA,NA,"",   947.928E+03,   948.969E+03,   948.969E+03
C:/temp/Job-2.odb,Step-1,Increment      1: Step Time =    1.000,"P-2-1",          2612,   49.5622E-03,   12.4829E-03,            0.,NA,NA,"",   1.01618E+06,   1.01759E+06,   1.01759E+06
C:/temp/Job-2.odb,Step-1,Increment      1: Step Time =    1.000,"P-2-1",          2613,   11.9058E-03,   150.607E-03,            0.,NA,NA,"",   896.046E+03,   985.196E+03,   985.196E+03
C:/temp/Job-2.odb,Step-1,Increment      1: Step Time =    1.000,"P-2-1",          2614,   188.105E-03,   49.3821E-03,            0.,NA,NA,"",   998.825E+03,   1.00339E+06,   1.00339E+06
C:/temp/Job-2.odb,Step-1,Increment      1: Step Time =    1.000,"P-2-1",          2615,   150.498E-03,   187.839E-03,            0.,NA,NA,"",   997.626E+03,   996.193E+03,   996.193E+03
C:/temp/Job-2.odb,Step-1,Increment      1: Step Time =    1.000,"P-2-1",          2616,   113.639E-03,   13.3039E-03,            0.,NA,NA,"",   972.019E+03,   974.011E+03,   974.011E+03
C:/temp/Job-2.odb,Step-1,Increment      1: Step Time =    1.000,"P-2-1",          2617,   85.0635E-03,   186.602E-03,            0.,NA,NA,"",   972.568E+03,   974.916E+03,   974.916E+03
C:/temp/Job-2.odb,Step-1,Increment      1: Step Time =    1.000,"P-2-1",          2618,   14.2632E-03,   87.0366E-03,            0.,NA,NA,"",   806.963E+03,   898.961E+03,   898.961E+03
C:/temp/Job-2.odb,Step-1,Increment      1: Step Time =    1.000,"P-2-1",          2619,   185.942E-03,   113.026E-03,            0.,NA,NA,"",   972.819E+03,   993.542E+03,   993.542E+03
C:/temp/Job-2.odb,Step-1,Increment      1: Step Time =    1.000,"P-2-1",          2620,   189.789E-03,   62.2807E-03,            0.,NA,NA,"",   990.595E+03,   1.00173E+06,   1.00173E+06
C:/temp/Job-2.odb,Step-1,Increment      1: Step Time =    1.000,"P-2-1",          2621,   137.738E-03,   189.697E-03,            0.,NA,NA,"",   986.469E+03,   985.650E+03,   985.650E+03
C:/temp/Job-2.odb,Step-1,Increment      1: Step Time =    1.000,"P-2-1",          2622,   62.2848E-03,   10.2894E-03,            0.,NA,NA,"",   988.513E+03,   988.727E+03,   988.727E+03
C:/temp/Job-2.odb,Step-1,Increment      1: Step Time =    1.000,"P-2-1",          2623,   10.1972E-03,   137.694E-03,            0.,NA,NA,"",   851.493E+03,   945.409E+03,   945.409E+03
C:/temp/Job-2.odb,Step-1,Increment      1: Step Time =    1.000,"P-2-1",          2624,   12.7468E-03,   130.017E-03,            0.,NA,NA,"",   839.649E+03,   931.190E+03,   931.190E+03
C:/temp/Job-2.odb,Step-1,Increment      1: Step Time =    1.000,"P-2-1",          2625,   69.9887E-03,   12.8056E-03,            0.,NA,NA,"",   987.293E+03,   987.948E+03,   987.948E+03
C:/temp/Job-2.odb,Step-1,Increment      1: Step Time =    1.000,"P-2-1",          2626,   130.013E-03,   187.143E-03,            0.,NA,NA,"",   985.153E+03,   984.686E+03,   984.686E+03
C:/temp/Job-2.odb,Step-1,Increment      1: Step Time =    1.000,"P-2-1",          2627,   187.178E-03,   69.9826E-03,            0.,NA,NA,"",   987.025E+03,   1.00059E+06,   1.00059E+06
C:/temp/Job-2.odb,Step-1,Increment      1: Step Time =    1.000,"P-2-1",          2628,   12.5470E-03,   70.1347E-03,            0.,NA,NA,"",   838.559E+03,   930.445E+03,   930.445E+03
C:/temp/Job-2.odb,Step-1,Increment      1: Step Time =    1.000,"P-2-1",          2629,   129.840E-03,   12.6159E-03,            0.,NA,NA,"",   984.609E+03,   984.139E+03,   984.139E+03
C:/temp/Job-2.odb,Step-1,Increment      1: Step Time =    1.000,"P-2-1",          2630,   70.2035E-03,   187.328E-03,            0.,NA,NA,"",   986.588E+03,   987.238E+03,   987.238E+03
C:/temp/Job-2.odb,Step-1,Increment      1: Step Time =    1.000,"P-2-1",          2631,   187.602E-03,   129.867E-03,            0.,NA,NA,"",   986.602E+03,   1.00054E+06,   1.00054E+06
C:/temp/Job-2.odb,Step-1,Increment      1: Step Time =    1.000,"P-2-1",          2632,   88.5835E-03,   119.913E-03,            0.,NA,NA,"",   1.34950E+06,   1.34996E+06,   1.34996E+06
C:/temp/Job-2.odb,Step-1,Increment      1: Step Time =    1.000,"P-2-1",          2633,   112.589E-03,   80.4049E-03,            0.,NA,NA,"",   1.37105E+06,   1.33806E+06,   1.33806E+06
C:/temp/Job-2.odb,Step-1,Increment      1: Step Time =    1.000,"P-2-1",          2634,   191.062E-03,   98.6478E-03,            0.,NA,NA,"",   967.713E+03,   996.023E+03,   996.023E+03
C:/temp/Job-2.odb,Step-1,Increment      1: Step Time =    1.000,"P-2-1",          2635,   98.5935E-03,   8.96939E-03,            0.,NA,NA,"",   952.757E+03,   954.308E+03,   954.308E+03
C:/temp/Job-2.odb,Step-1,Increment      1: Step Time =    1.000,"P-2-1",          2636,   101.391E-03,   191.041E-03,            0.,NA,NA,"",   953.144E+03,   954.657E+03,   954.657E+03
C:/temp/Job-2.odb,Step-1,Increment      1: Step Time =    1.000,"P-2-1",          2637,   8.94860E-03,   101.326E-03,            0.,NA,NA,"",   788.397E+03,   884.799E+03,   884.799E+03
C:/temp/Job-2.odb,Step-1,Increment      1: Step Time =    1.000,"P-2-1",          2638,   80.3049E-03,   88.7381E-03,            0.,NA,NA,"",   1.07760E+06,   957.136E+03,   957.136E+03
C:/temp/Job-2.odb,Step-1,Increment      1: Step Time =    1.000,"P-2-1",          2639,   118.897E-03,   110.786E-03,            0.,NA,NA,"",   1.10886E+06,   952.818E+03,   952.818E+03
C:/temp/Job-2.odb,Step-1,Increment      1: Step Time =    1.000,"P-2-1",          2640,   77.5618E-03,   113.083E-03,            0.,NA,NA,"",   1.06254E+06,   976.049E+03,   976.049E+03
C:/temp/Job-2.odb,Step-1,Increment      1: Step Time =    1.000,"P-2-1",          2641,   191.718E-03,   162.148E-03,            0.,NA,NA,"",   999.647E+03,   1.00152E+06,   1.00152E+06
C:/temp/Job-2.odb,Step-1,Increment      1: Step Time =    1.000,"P-2-1",          2642,   162.206E-03,   8.29933E-03,            0.,NA,NA,"",   997.824E+03,   997.278E+03,   997.278E+03
C:/temp/Job-2.odb,Step-1,Increment      1: Step Time =    1.000,"P-2-1",          2643,   37.7932E-03,   191.702E-03,            0.,NA,NA,"",   1.02847E+06,   1.03056E+06,   1.03056E+06
C:/temp/Job-2.odb,Step-1,Increment      1: Step Time =    1.000,"P-2-1",          2644,   8.28223E-03,   37.8578E-03,            0.,NA,NA,"",   922.686E+03,   1.01545E+06,   1.01545E+06
C:/temp/Job-2.odb,Step-1,Increment      1: Step Time =    1.000,"P-2-1",          2645,   188.678E-03,   180.854E-03,            0.,NA,NA,"",   1.00084E+06,   1.00077E+06,   1.00077E+06
C:/temp/Job-2.odb,Step-1,Increment      1: Step Time =    1.000,"P-2-1",          2646,   182.795E-03,   187.213E-03,            0.,NA,NA,"",   1.00056E+06,   1.00038E+06,   1.00038E+06
C:/temp/Job-2.odb,Step-1,Increment      1: Step Time =    1.000,"P-2-1",          2647,   19.0730E-03,   188.832E-03,            0.,NA,NA,"",   1.11798E+06,   1.13648E+06,   1.13648E+06
C:/temp/Job-2.odb,Step-1,Increment      1: Step Time =    1.000,"P-2-1",          2648,   187.708E-03,   18.1407E-03,            0.,NA,NA,"",   1.00088E+06,   1.00081E+06,   1.00081E+06
C:/temp/Job-2.odb,Step-1,Increment      1: Step Time =    1.000,"P-2-1",          2649,   12.2910E-03,   181.854E-03,            0.,NA,NA,"",   1.07344E+06,   1.13346E+06,   1.13346E+06
C:/temp/Job-2.odb,Step-1,Increment      1: Step Time =    1.000,"P-2-1",          2650,   180.930E-03,   11.1686E-03,            0.,NA,NA,"",   1.00034E+06,   1.00017E+06,   1.00017E+06
C:/temp/Job-2.odb,Step-1,Increment      1: Step Time =    1.000,"P-2-1",          2651,   11.1734E-03,   19.0750E-03,            0.,NA,NA,"",   1.06156E+06,   1.12822E+06,   1.12822E+06
C:/temp/Job-2.odb,Step-1,Increment      1: Step Time =    1.000,"P-2-1",          2652,   18.1479E-03,   12.2993E-03,            0.,NA,NA,"",   1.11772E+06,   1.14118E+06,   1.14118E+06
C:/temp/Job-2.odb,Step-1,Increment      1: Step Time =    1.000,"P-2-1",          2653,   172.856E-03,   192.037E-03,            0.,NA,NA,"",   999.336E+03,   999.069E+03,   999.069E+03
C:/temp/Job-2.odb,Step-1,Increment      1: Step Time =    1.000,"P-2-1",          2654,   7.97544E-03,   172.627E-03,            0.,NA,NA,"",   974.996E+03,   1.06393E+06,   1.06393E+06
C:/temp/Job-2.odb,Step-1,Increment      1: Step Time =    1.000,"P-2-1",          2655,   192.020E-03,   27.3738E-03,            0.,NA,NA,"",   1.00054E+06,   1.00089E+06,   1.00089E+06
C:/temp/Job-2.odb,Step-1,Increment      1: Step Time =    1.000,"P-2-1",          2656,   27.3685E-03,   7.98069E-03,            0.,NA,NA,"",   1.06748E+06,   1.07209E+06,   1.07209E+06
C:/temp/Job-2.odb,Step-1,Increment      1: Step Time =    1.000,"P-2-1",          2657,   117.633E-03,   119.457E-03,            0.,NA,NA,"",   1.31312E+06,   1.22894E+06,   1.22894E+06
C:/temp/Job-2.odb,Step-1,Increment      1: Step Time =    1.000,"P-2-1",          2658,   83.5153E-03,   79.7771E-03,            0.,NA,NA,"",   1.30340E+06,   1.24874E+06,   1.24874E+06
C:/temp/Job-2.odb,Step-1,Increment      1: Step Time =    1.000,"P-2-1",          2659,   76.7619E-03,   93.3894E-03,            0.,NA,NA,"",   724.787E+03,   685.901E+03,   685.901E+03
C:/temp/Job-2.odb,Step-1,Increment      1: Step Time =    1.000,"P-2-1",          2660,   88.4276E-03,   76.1182E-03,            0.,NA,NA,"",   1.26719E+06,   1.28821E+06,   1.28821E+06
C:/temp/Job-2.odb,Step-1,Increment      1: Step Time =    1.000,"P-2-1",          2661,   111.775E-03,   123.444E-03,            0.,NA,NA,"",   1.28492E+06,   1.29530E+06,   1.29530E+06
C:/temp/Job-2.odb,Step-1,Increment      1: Step Time =    1.000,"P-2-1",          2662,   112.204E-03,   77.7014E-03,            0.,NA,NA,"",   1.31603E+06,   1.31195E+06,   1.31195E+06
C:/temp/Job-2.odb,Step-1,Increment      1: Step Time =    1.000,"P-2-1",          2663,   89.3397E-03,   123.049E-03,            0.,NA,NA,"",   1.28025E+06,   1.30703E+06,   1.30703E+06
C:/temp/Job-2.odb,Step-1,Increment      1: Step Time =    1.000,"P-2-1",          2664,   114.165E-03,   79.1263E-03,            0.,NA,NA,"",   1.34688E+06,    1.3003E+06,    1.3003E+06
C:/temp/Job-2.odb,Step-1,Increment      1: Step Time =    1.000,"P-2-1",          2665,   85.5130E-03,   121.534E-03,            0.,NA,NA,"",   1.30849E+06,   1.28183E+06,   1.28183E+06
C:/temp/Job-2.odb,Step-1,Increment      1: Step Time =    1.000,"P-2-1",          2666,   84.8978E-03,   78.0409E-03,            0.,NA,NA,"",   1.30491E+06,   1.27437E+06,   1.27437E+06
C:/temp/Job-2.odb,Step-1,Increment      1: Step Time =    1.000,"P-2-1",          2667,   115.474E-03,   122.646E-03,            0.,NA,NA,"",   1.30908E+06,   1.26826E+06,   1.26826E+06
C:/temp/Job-2.odb,Step-1,Increment      1: Step Time =    1.000,"P-2-1",          2668,   105.434E-03,   74.8923E-03,            0.,NA,NA,"",   1.18540E+06,   1.27529E+06,   1.27529E+06
C:/temp/Job-2.odb,Step-1,Increment      1: Step Time =    1.000,"P-2-1",          2669,   94.9152E-03,   125.138E-03,            0.,NA,NA,"",   1.18480E+06,   1.27878E+06,   1.27878E+06
C:/temp/Job-2.odb,Step-1,Increment      1: Step Time =    1.000,"P-2-1",          2670,   188.347E-03,   153.105E-03,            0.,NA,NA,"",   999.531E+03,   1.00328E+06,   1.00328E+06
C:/temp/Job-2.odb,Step-1,Increment      1: Step Time =    1.000,"P-2-1",          2671,   152.964E-03,   11.5762E-03,            0.,NA,NA,"",   998.032E+03,   996.743E+03,   996.743E+03
C:/temp/Job-2.odb,Step-1,Increment      1: Step Time =    1.000,"P-2-1",          2672,   47.0285E-03,   188.420E-03,            0.,NA,NA,"",   1.01881E+06,   1.02044E+06,   1.02044E+06
C:/temp/Job-2.odb,Step-1,Increment      1: Step Time =    1.000,"P-2-1",          2673,   11.6526E-03,   46.8858E-03,            0.,NA,NA,"",   904.231E+03,   992.890E+03,   992.890E+03
C:/temp/Job-2.odb,Step-1,Increment      1: Step Time =    1.000,"P-2-1",          2674,   13.6536E-03,   5.93100E-03,            0.,NA,NA,"",   1.18017E+06,   1.19089E+06,   1.19089E+06
C:/temp/Job-2.odb,Step-1,Increment      1: Step Time =    1.000,"P-2-1",          2675,   194.073E-03,   13.6515E-03,            0.,NA,NA,"",   1.00019E+06,   1.00006E+06,   1.00006E+06
C:/temp/Job-2.odb,Step-1,Increment      1: Step Time =    1.000,"P-2-1",          2676,   5.92638E-03,   186.348E-03,            0.,NA,NA,"",   1.10297E+06,   1.18525E+06,   1.18525E+06
C:/temp/Job-2.odb,Step-1,Increment      1: Step Time =    1.000,"P-2-1",          2677,   185.964E-03,   193.531E-03,            0.,NA,NA,"",   999.652E+03,   999.624E+03,   999.624E+03
C:/temp/Job-2.odb,Step-1,Increment      1: Step Time =    1.000,"P-2-1",          2678,   110.458E-03,   187.326E-03,            0.,NA,NA,"",   967.927E+03,   970.111E+03,   970.111E+03
C:/temp/Job-2.odb,Step-1,Increment      1: Step Time =    1.000,"P-2-1",          2679,   187.250E-03,   89.6491E-03,            0.,NA,NA,"",   971.018E+03,   993.815E+03,   993.815E+03
C:/temp/Job-2.odb,Step-1,Increment      1: Step Time =    1.000,"P-2-1",          2680,   89.5614E-03,   12.6152E-03,            0.,NA,NA,"",   966.955E+03,   969.438E+03,   969.438E+03
C:/temp/Job-2.odb,Step-1,Increment      1: Step Time =    1.000,"P-2-1",          2681,   12.7240E-03,   110.349E-03,            0.,NA,NA,"",   800.551E+03,   894.006E+03,   894.006E+03
C:/temp/Job-2.odb,Step-1,Increment      1: Step Time =    1.000,"P-2-1",          2682,   189.114E-03,   139.095E-03,            0.,NA,NA,"",   992.304E+03,   1.00217E+06,   1.00217E+06
C:/temp/Job-2.odb,Step-1,Increment      1: Step Time =    1.000,"P-2-1",          2683,   61.1407E-03,   189.217E-03,            0.,NA,NA,"",   992.524E+03,   992.783E+03,   992.783E+03
C:/temp/Job-2.odb,Step-1,Increment      1: Step Time =    1.000,"P-2-1",          2684,   138.855E-03,   10.7698E-03,            0.,NA,NA,"",   988.658E+03,   987.688E+03,   987.688E+03
C:/temp/Job-2.odb,Step-1,Increment      1: Step Time =    1.000,"P-2-1",          2685,   10.9054E-03,   60.8928E-03,            0.,NA,NA,"",   858.497E+03,   951.132E+03,   951.132E+03
C:/temp/Job-2.odb,Step-1,Increment      1: Step Time =    1.000,"P-2-1",          2686,   190.186E-03,   144.069E-03,            0.,NA,NA,"",   994.270E+03,   1.00223E+06,   1.00223E+06
C:/temp/Job-2.odb,Step-1,Increment      1: Step Time =    1.000,"P-2-1",          2687,   56.1234E-03,   189.882E-03,            0.,NA,NA,"",   997.529E+03,   997.860E+03,   997.860E+03
C:/temp/Job-2.odb,Step-1,Increment      1: Step Time =    1.000,"P-2-1",          2688,   143.871E-03,   10.1087E-03,            0.,NA,NA,"",   991.185E+03,   990.179E+03,   990.179E+03
C:/temp/Job-2.odb,Step-1,Increment      1: Step Time =    1.000,"P-2-1",          2689,   9.82394E-03,   55.9232E-03,            0.,NA,NA,"",   868.031E+03,   961.691E+03,   961.691E+03
C:/temp/Job-2.odb,Step-1,Increment      1: Step Time =    1.000,"P-2-1",          2690,   7.06926E-03,   14.0290E-03,            0.,NA,NA,"",   1.10490E+06,   1.18027E+06,   1.18027E+06
C:/temp/Job-2.odb,Step-1,Increment      1: Step Time =    1.000,"P-2-1",          2691,   14.0268E-03,   192.936E-03,            0.,NA,NA,"",   1.17266E+06,   1.18772E+06,   1.18772E+06
C:/temp/Job-2.odb,Step-1,Increment      1: Step Time =    1.000,"P-2-1",          2692,   185.977E-03,   7.06178E-03,            0.,NA,NA,"",   999.756E+03,   999.726E+03,   999.726E+03
C:/temp/Job-2.odb,Step-1,Increment      1: Step Time =    1.000,"P-2-1",          2693,   192.891E-03,   186.086E-03,            0.,NA,NA,"",   1.00022E+06,   1.00010E+06,   1.00010E+06
C:/temp/Job-2.odb,Step-1,Increment      1: Step Time =    1.000,"P-2-1",          2694,   185.393E-03,   136.197E-03,            0.,NA,NA,"",   993.825E+03,   1.00288E+06,   1.00288E+06
C:/temp/Job-2.odb,Step-1,Increment      1: Step Time =    1.000,"P-2-1",          2695,   137.756E-03,   184.526E-03,            0.,NA,NA,"",   996.817E+03,   995.161E+03,   995.161E+03
C:/temp/Job-2.odb,Step-1,Increment      1: Step Time =    1.000,"P-2-1",          2696,   63.7104E-03,   185.313E-03,            0.,NA,NA,"",   1.00202E+06,   1.00269E+06,   1.00269E+06
C:/temp/Job-2.odb,Step-1,Increment      1: Step Time =    1.000,"P-2-1",          2697,   184.800E-03,   62.2244E-03,            0.,NA,NA,"",   995.363E+03,   1.00345E+06,   1.00345E+06
C:/temp/Job-2.odb,Step-1,Increment      1: Step Time =    1.000,"P-2-1",          2698,   136.264E-03,   14.6242E-03,            0.,NA,NA,"",   994.358E+03,   992.956E+03,   992.956E+03
C:/temp/Job-2.odb,Step-1,Increment      1: Step Time =    1.000,"P-2-1",          2699,   15.1848E-03,   137.634E-03,            0.,NA,NA,"",   868.598E+03,   955.491E+03,   955.491E+03
C:/temp/Job-2.odb,Step-1,Increment      1: Step Time =    1.000,"P-2-1",          2700,   62.3183E-03,   15.4776E-03,            0.,NA,NA,"",   1.00595E+06,   1.00665E+06,   1.00665E+06
C:/temp/Job-2.odb,Step-1,Increment      1: Step Time =    1.000,"P-2-1",          2701,   14.6084E-03,   63.7539E-03,            0.,NA,NA,"",   863.057E+03,   951.054E+03,   951.054E+03
C:/temp/Job-2.odb,Step-1,Increment      1: Step Time =    1.000,"P-2-1",          2702,   183.323E-03,   141.551E-03,            0.,NA,NA,"",   999.621E+03,   1.00512E+06,   1.00512E+06
C:/temp/Job-2.odb,Step-1,Increment      1: Step Time =    1.000,"P-2-1",          2703,   143.006E-03,   184.443E-03,            0.,NA,NA,"",   999.886E+03,   997.828E+03,   997.828E+03
C:/temp/Job-2.odb,Step-1,Increment      1: Step Time =    1.000,"P-2-1",          2704,   184.940E-03,   56.9387E-03,            0.,NA,NA,"",   998.621E+03,   1.00453E+06,   1.00453E+06
C:/temp/Job-2.odb,Step-1,Increment      1: Step Time =    1.000,"P-2-1",          2705,   59.3129E-03,   183.594E-03,            0.,NA,NA,"",   1.01277E+06,   1.01367E+06,   1.01367E+06
C:/temp/Job-2.odb,Step-1,Increment      1: Step Time =    1.000,"P-2-1",          2706,   140.646E-03,   16.3596E-03,            0.,NA,NA,"",   1.00019E+06,   998.094E+03,   998.094E+03
C:/temp/Job-2.odb,Step-1,Increment      1: Step Time =    1.000,"P-2-1",          2707,   15.1041E-03,   142.970E-03,            0.,NA,NA,"",   884.625E+03,   970.236E+03,   970.236E+03
C:/temp/Job-2.odb,Step-1,Increment      1: Step Time =    1.000,"P-2-1",          2708,   16.6934E-03,   58.4323E-03,            0.,NA,NA,"",   886.472E+03,   969.860E+03,   969.860E+03
C:/temp/Job-2.odb,Step-1,Increment      1: Step Time =    1.000,"P-2-1",          2709,   57.0246E-03,   15.4768E-03,            0.,NA,NA,"",   1.01327E+06,   1.01426E+06,   1.01426E+06
C:/temp/Job-2.odb,Step-1,Increment      1: Step Time =    1.000,"P-2-1",          2710,   80.7815E-03,   184.378E-03,            0.,NA,NA,"",   984.055E+03,   986.406E+03,   986.406E+03
C:/temp/Job-2.odb,Step-1,Increment      1: Step Time =    1.000,"P-2-1",          2711,   184.349E-03,   77.9668E-03,            0.,NA,NA,"",   981.245E+03,   996.803E+03,   996.803E+03
C:/temp/Job-2.odb,Step-1,Increment      1: Step Time =    1.000,"P-2-1",          2712,   77.9031E-03,   15.6158E-03,            0.,NA,NA,"",   986.563E+03,   988.668E+03,   988.668E+03
C:/temp/Job-2.odb,Step-1,Increment      1: Step Time =    1.000,"P-2-1",          2713,   16.3351E-03,   80.6435E-03,            0.,NA,NA,"",   823.314E+03,   912.363E+03,   912.363E+03
C:/temp/Job-2.odb,Step-1,Increment      1: Step Time =    1.000,"P-2-1",          2714,   122.004E-03,   184.514E-03,            0.,NA,NA,"",   984.068E+03,   984.951E+03,   984.951E+03
C:/temp/Job-2.odb,Step-1,Increment      1: Step Time =    1.000,"P-2-1",          2715,   183.506E-03,   119.348E-03,            0.,NA,NA,"",   978.873E+03,   994.822E+03,   994.822E+03
C:/temp/Job-2.odb,Step-1,Increment      1: Step Time =    1.000,"P-2-1",          2716,   15.5807E-03,   122.079E-03,            0.,NA,NA,"",   827.348E+03,   916.875E+03,   916.875E+03
C:/temp/Job-2.odb,Step-1,Increment      1: Step Time =    1.000,"P-2-1",          2717,   119.371E-03,   15.5533E-03,            0.,NA,NA,"",   982.379E+03,   983.775E+03,   983.775E+03
C:/temp/Job-2.odb,Step-1,Increment      1: Step Time =    1.000,"P-2-1",          2718,   185.267E-03,   51.4817E-03,            0.,NA,NA,"",   1.00074E+06,   1.00487E+06,   1.00487E+06
C:/temp/Job-2.odb,Step-1,Increment      1: Step Time =    1.000,"P-2-1",          2719,   52.6291E-03,   185.338E-03,            0.,NA,NA,"",   1.01780E+06,   1.01915E+06,   1.01915E+06
C:/temp/Job-2.odb,Step-1,Increment      1: Step Time =    1.000,"P-2-1",          2720,   12.8332E-03,   51.7607E-03,            0.,NA,NA,"",   893.351E+03,   981.113E+03,   981.113E+03
C:/temp/Job-2.odb,Step-1,Increment      1: Step Time =    1.000,"P-2-1",          2721,   52.0366E-03,   15.0373E-03,            0.,NA,NA,"",   1.01937E+06,   1.02092E+06,   1.02092E+06
C:/temp/Job-2.odb,Step-1,Increment      1: Step Time =    1.000,"P-2-1",          2722,   148.323E-03,   184.784E-03,            0.,NA,NA,"",   1.00138E+06,   999.269E+03,   999.269E+03
C:/temp/Job-2.odb,Step-1,Increment      1: Step Time =    1.000,"P-2-1",          2723,   187.168E-03,   148.230E-03,            0.,NA,NA,"",   999.019E+03,   1.00392E+06,   1.00392E+06
C:/temp/Job-2.odb,Step-1,Increment      1: Step Time =    1.000,"P-2-1",          2724,   147.371E-03,   14.6062E-03,            0.,NA,NA,"",   1.00026E+06,   998.265E+03,   998.265E+03
C:/temp/Job-2.odb,Step-1,Increment      1: Step Time =    1.000,"P-2-1",          2725,   14.7621E-03,   148.484E-03,            0.,NA,NA,"",   901.181E+03,   985.785E+03,   985.785E+03
C:/temp/Job-2.odb,Step-1,Increment      1: Step Time =    1.000,"P-2-1",          2726,   85.1087E-03,   15.9404E-03,            0.,NA,NA,"",   979.993E+03,   983.154E+03,   983.154E+03
C:/temp/Job-2.odb,Step-1,Increment      1: Step Time =    1.000,"P-2-1",          2727,   14.9164E-03,   84.7944E-03,            0.,NA,NA,"",   811.626E+03,   902.948E+03,   902.948E+03
C:/temp/Job-2.odb,Step-1,Increment      1: Step Time =    1.000,"P-2-1",          2728,   185.559E-03,   115.586E-03,            0.,NA,NA,"",   974.987E+03,   994.434E+03,   994.434E+03
C:/temp/Job-2.odb,Step-1,Increment      1: Step Time =    1.000,"P-2-1",          2729,   16.0299E-03,   114.890E-03,            0.,NA,NA,"",   813.293E+03,   903.496E+03,   903.496E+03
C:/temp/Job-2.odb,Step-1,Increment      1: Step Time =    1.000,"P-2-1",          2730,   115.977E-03,   14.1371E-03,            0.,NA,NA,"",   975.653E+03,   977.285E+03,   977.285E+03
C:/temp/Job-2.odb,Step-1,Increment      1: Step Time =    1.000,"P-2-1",          2731,   185.682E-03,   22.9632E-03,            0.,NA,NA,"",   1.00191E+06,   1.00182E+06,   1.00182E+06
C:/temp/Job-2.odb,Step-1,Increment      1: Step Time =    1.000,"P-2-1",          2732,   23.5900E-03,   184.717E-03,            0.,NA,NA,"",   1.08543E+06,   1.10566E+06,   1.10566E+06
C:/temp/Job-2.odb,Step-1,Increment      1: Step Time =    1.000,"P-2-1",          2733,   22.9620E-03,   14.3197E-03,            0.,NA,NA,"",   1.08997E+06,   1.10994E+06,   1.10994E+06
C:/temp/Job-2.odb,Step-1,Increment      1: Step Time =    1.000,"P-2-1",          2734,   15.2945E-03,   23.5852E-03,            0.,NA,NA,"",   1.03542E+06,   1.09601E+06,   1.09601E+06
C:/temp/Job-2.odb,Step-1,Increment      1: Step Time =    1.000,"P-2-1",          2735,   184.238E-03,   176.651E-03,            0.,NA,NA,"",   1.00246E+06,   1.00225E+06,   1.00225E+06
C:/temp/Job-2.odb,Step-1,Increment      1: Step Time =    1.000,"P-2-1",          2736,   177.785E-03,   185.278E-03,            0.,NA,NA,"",   1.00162E+06,   1.00115E+06,   1.00115E+06
C:/temp/Job-2.odb,Step-1,Increment      1: Step Time =    1.000,"P-2-1",          2737,   14.3153E-03,   177.037E-03,            0.,NA,NA,"",   1.03946E+06,   1.10233E+06,   1.10233E+06
C:/temp/Job-2.odb,Step-1,Increment      1: Step Time =    1.000,"P-2-1",          2738,   176.416E-03,   15.2872E-03,            0.,NA,NA,"",   1.00210E+06,   1.00150E+06,   1.00150E+06
C:/temp/Job-2.odb,Step-1,Increment      1: Step Time =    1.000,"P-2-1",          2739,   41.5143E-03,   184.602E-03,            0.,NA,NA,"",   1.03881E+06,   1.04373E+06,   1.04373E+06
C:/temp/Job-2.odb,Step-1,Increment      1: Step Time =    1.000,"P-2-1",          2740,   185.575E-03,   41.6440E-03,            0.,NA,NA,"",   1.00271E+06,   1.00445E+06,   1.00445E+06
C:/temp/Job-2.odb,Step-1,Increment      1: Step Time =    1.000,"P-2-1",          2741,   15.3194E-03,   41.7143E-03,            0.,NA,NA,"",   939.413E+03,   1.01835E+06,   1.01835E+06
C:/temp/Job-2.odb,Step-1,Increment      1: Step Time =    1.000,"P-2-1",          2742,   41.2142E-03,   14.3738E-03,            0.,NA,NA,"",   1.03740E+06,   1.04161E+06,   1.04161E+06
C:/temp/Job-2.odb,Step-1,Increment      1: Step Time =    1.000,"P-2-1",          2743,   158.475E-03,   185.344E-03,            0.,NA,NA,"",   1.00248E+06,   1.00077E+06,   1.00077E+06
C:/temp/Job-2.odb,Step-1,Increment      1: Step Time =    1.000,"P-2-1",          2744,   184.692E-03,   158.265E-03,            0.,NA,NA,"",   1.00366E+06,   1.00504E+06,   1.00504E+06
C:/temp/Job-2.odb,Step-1,Increment      1: Step Time =    1.000,"P-2-1",          2745,   158.488E-03,   15.3855E-03,            0.,NA,NA,"",   1.00356E+06,   1.00168E+06,   1.00168E+06
C:/temp/Job-2.odb,Step-1,Increment      1: Step Time =    1.000,"P-2-1",          2746,   14.4251E-03,   158.352E-03,            0.,NA,NA,"",   934.815E+03,   1.01607E+06,   1.01607E+06
C:/temp/Job-2.odb,Step-1,Increment      1: Step Time =    1.000,"P-2-1",          2747,   106.990E-03,   184.716E-03,            0.,NA,NA,"",   972.831E+03,   976.276E+03,   976.276E+03
C:/temp/Job-2.odb,Step-1,Increment      1: Step Time =    1.000,"P-2-1",          2748,   184.175E-03,   105.280E-03,            0.,NA,NA,"",   968.107E+03,   989.392E+03,   989.392E+03
C:/temp/Job-2.odb,Step-1,Increment      1: Step Time =    1.000,"P-2-1",          2749,   15.5883E-03,   106.674E-03,            0.,NA,NA,"",   801.707E+03,   892.958E+03,   892.958E+03
C:/temp/Job-2.odb,Step-1,Increment      1: Step Time =    1.000,"P-2-1",          2750,   105.136E-03,   15.6405E-03,            0.,NA,NA,"",   973.187E+03,   977.051E+03,   977.051E+03
C:/temp/Job-2.odb,Step-1,Increment      1: Step Time =    1.000,"P-2-1",          2751,   184.725E-03,   93.3408E-03,            0.,NA,NA,"",   968.830E+03,   990.410E+03,   990.410E+03
C:/temp/Job-2.odb,Step-1,Increment      1: Step Time =    1.000,"P-2-1",          2752,   94.9680E-03,   184.378E-03,            0.,NA,NA,"",   973.284E+03,   977.396E+03,   977.396E+03
C:/temp/Job-2.odb,Step-1,Increment      1: Step Time =    1.000,"P-2-1",          2753,   15.3517E-03,   94.6032E-03,            0.,NA,NA,"",   800.504E+03,   891.957E+03,   891.957E+03
C:/temp/Job-2.odb,Step-1,Increment      1: Step Time =    1.000,"P-2-1",          2754,   93.0078E-03,   15.3097E-03,            0.,NA,NA,"",   972.813E+03,   976.642E+03,   976.642E+03
C:/temp/Job-2.odb,Step-1,Increment      1: Step Time =    1.000,"P-2-1",          2755,   116.602E-03,   88.9075E-03,            0.,NA,NA,"",   1.17382E+06,   1.01052E+06,   1.01052E+06
C:/temp/Job-2.odb,Step-1,Increment      1: Step Time =    1.000,"P-2-1",          2756,   120.446E-03,   87.8763E-03,            0.,NA,NA,"",   1.12467E+06,   991.948E+03,   991.948E+03
C:/temp/Job-2.odb,Step-1,Increment      1: Step Time =    1.000,"P-2-1",          2757,   100.841E-03,   76.2845E-03,            0.,NA,NA,"",   1.18371E+06,   1.30734E+06,   1.30734E+06
C:/temp/Job-2.odb,Step-1,Increment      1: Step Time =    1.000,"P-2-1",          2758,   120.939E-03,   106.018E-03,            0.,NA,NA,"",   725.370E+03,   628.312E+03,   628.312E+03
C:/temp/Job-2.odb,Step-1,Increment      1: Step Time =    1.000,"P-2-1",          2759,   78.4923E-03,   93.0372E-03,            0.,NA,NA,"",   756.504E+03,   689.373E+03,   689.373E+03
C:/temp/Job-2.odb,Step-1,Increment      1: Step Time =    1.000,"P-2-1",          2760,   127.936E-03,   102.474E-03,            0.,NA,NA,"",   610.567E+03,   617.473E+03,   617.473E+03
C:/temp/Job-2.odb,Step-1,Increment      1: Step Time =    1.000,"P-2-1",          2761,   73.5800E-03,   100.977E-03,            0.,NA,NA,"",   498.765E+03,   532.059E+03,   532.059E+03
C:/temp/Job-2.odb,Step-1,Increment      1: Step Time =    1.000,"P-2-1",          2762,   44.3590E-03,   14.3122E-03,            0.,NA,NA,"",   1.03126E+06,   1.03441E+06,   1.03441E+06
C:/temp/Job-2.odb,Step-1,Increment      1: Step Time =    1.000,"P-2-1",          2763,   14.3877E-03,   154.677E-03,            0.,NA,NA,"",   921.092E+03,   1.00408E+06,   1.00408E+06
C:/temp/Job-2.odb,Step-1,Increment      1: Step Time =    1.000,"P-2-1",          2764,   185.618E-03,   45.3168E-03,            0.,NA,NA,"",   1.00219E+06,   1.00469E+06,   1.00469E+06
C:/temp/Job-2.odb,Step-1,Increment      1: Step Time =    1.000,"P-2-1",          2765,   154.683E-03,   185.238E-03,            0.,NA,NA,"",   1.00220E+06,   1.00031E+06,   1.00031E+06
C:/temp/Job-2.odb,Step-1,Increment      1: Step Time =    1.000,"P-2-1",          2766,   110.164E-03,   15.5282E-03,            0.,NA,NA,"",   975.189E+03,   978.312E+03,   978.312E+03
C:/temp/Job-2.odb,Step-1,Increment      1: Step Time =    1.000,"P-2-1",          2767,   89.8981E-03,   184.251E-03,            0.,NA,NA,"",   976.143E+03,   979.909E+03,   979.909E+03
C:/temp/Job-2.odb,Step-1,Increment      1: Step Time =    1.000,"P-2-1",          2768,   15.2711E-03,   89.3352E-03,            0.,NA,NA,"",   805.729E+03,   897.006E+03,   897.006E+03
C:/temp/Job-2.odb,Step-1,Increment      1: Step Time =    1.000,"P-2-1",          2769,   184.554E-03,   110.785E-03,            0.,NA,NA,"",   971.327E+03,   991.636E+03,   991.636E+03
C:/temp/Job-2.odb,Step-1,Increment      1: Step Time =    1.000,"P-2-1",          2770,   15.0929E-03,   132.624E-03,            0.,NA,NA,"",   853.565E+03,   941.715E+03,   941.715E+03
C:/temp/Job-2.odb,Step-1,Increment      1: Step Time =    1.000,"P-2-1",          2771,   12.8934E-03,   127.427E-03,            0.,NA,NA,"",   833.566E+03,   925.221E+03,   925.221E+03
C:/temp/Job-2.odb,Step-1,Increment      1: Step Time =    1.000,"P-2-1",          2772,   67.3977E-03,   15.2346E-03,            0.,NA,NA,"",   998.321E+03,   999.174E+03,   999.174E+03
C:/temp/Job-2.odb,Step-1,Increment      1: Step Time =    1.000,"P-2-1",          2773,   72.5820E-03,   12.9289E-03,            0.,NA,NA,"",   984.497E+03,   985.434E+03,   985.434E+03
C:/temp/Job-2.odb,Step-1,Increment      1: Step Time =    1.000,"P-2-1",          2774,   127.404E-03,   187.080E-03,            0.,NA,NA,"",   983.010E+03,   982.885E+03,   982.885E+03
C:/temp/Job-2.odb,Step-1,Increment      1: Step Time =    1.000,"P-2-1",          2775,   132.625E-03,   184.635E-03,            0.,NA,NA,"",   992.948E+03,   991.926E+03,   991.926E+03
C:/temp/Job-2.odb,Step-1,Increment      1: Step Time =    1.000,"P-2-1",          2776,   187.074E-03,   72.5997E-03,            0.,NA,NA,"",   984.823E+03,   999.688E+03,   999.688E+03
C:/temp/Job-2.odb,Step-1,Increment      1: Step Time =    1.000,"P-2-1",          2777,   184.751E-03,   67.3221E-03,            0.,NA,NA,"",   991.359E+03,   1.00182E+06,   1.00182E+06
C:/temp/Job-2.odb,Step-1,Increment      1: Step Time =    1.000,"P-2-1",          2778,   12.3643E-03,   67.8486E-03,            0.,NA,NA,"",   844.003E+03,   935.788E+03,   935.788E+03
C:/temp/Job-2.odb,Step-1,Increment      1: Step Time =    1.000,"P-2-1",          2779,   15.3309E-03,   72.0040E-03,            0.,NA,NA,"",   841.820E+03,   930.533E+03,   930.533E+03
C:/temp/Job-2.odb,Step-1,Increment      1: Step Time =    1.000,"P-2-1",          2780,   132.115E-03,   12.4222E-03,            0.,NA,NA,"",    986.26E+03,   985.564E+03,   985.564E+03
C:/temp/Job-2.odb,Step-1,Increment      1: Step Time =    1.000,"P-2-1",          2781,   127.896E-03,   15.5089E-03,            0.,NA,NA,"",   989.643E+03,   989.322E+03,   989.322E+03
C:/temp/Job-2.odb,Step-1,Increment      1: Step Time =    1.000,"P-2-1",          2782,   72.1627E-03,   184.371E-03,            0.,NA,NA,"",   993.786E+03,   995.060E+03,   995.060E+03
C:/temp/Job-2.odb,Step-1,Increment      1: Step Time =    1.000,"P-2-1",          2783,   67.9121E-03,   187.521E-03,            0.,NA,NA,"",   988.976E+03,   989.482E+03,   989.482E+03
C:/temp/Job-2.odb,Step-1,Increment      1: Step Time =    1.000,"P-2-1",          2784,   185.082E-03,   127.935E-03,            0.,NA,NA,"",   986.823E+03,   999.848E+03,   999.848E+03
C:/temp/Job-2.odb,Step-1,Increment      1: Step Time =    1.000,"P-2-1",          2785,   187.704E-03,   132.122E-03,            0.,NA,NA,"",   988.360E+03,   1.00113E+06,   1.00113E+06
C:/temp/Job-2.odb,Step-1,Increment      1: Step Time =    1.000,"P-2-1",          2786,   75.4223E-03,   115.795E-03,            0.,NA,NA,"",   1.09231E+06,   1.02635E+06,   1.02635E+06
C:/temp/Job-2.odb,Step-1,Increment      1: Step Time =    1.000,"P-2-1",          2787,   77.7906E-03,   115.360E-03,            0.,NA,NA,"",   1.14445E+06,   1.05838E+06,   1.05838E+06
C:/temp/Job-2.odb,Step-1,Increment      1: Step Time =    1.000,"P-2-1",          2788,   75.2480E-03,   94.4373E-03,            0.,NA,NA,"",   667.427E+03,   653.494E+03,   653.494E+03
C:/temp/Job-2.odb,Step-1,Increment      1: Step Time =    1.000,"P-2-1",          2789,   74.4892E-03,   105.344E-03,            0.,NA,NA,"",   650.104E+03,   646.657E+03,   646.657E+03
C:/temp/Job-2.odb,Step-1,Increment      1: Step Time =    1.000,"P-2-1",          2790,   125.643E-03,   95.5822E-03,            0.,NA,NA,"",   639.532E+03,   618.788E+03,   618.788E+03
C:/temp/Job-2.odb,Step-1,Increment      1: Step Time =    1.000,"P-2-1",          2791,   118.242E-03,   121.625E-03,            0.,NA,NA,"",   1.29626E+06,   1.22660E+06,   1.22660E+06
C:/temp/Job-2.odb,Step-1,Increment      1: Step Time =    1.000,"P-2-1",          2792,   99.0772E-03,   123.938E-03,            0.,NA,NA,"",   1.17880E+06,   1.30090E+06,   1.30090E+06
C:/temp/Job-2.odb,Step-1,Increment      1: Step Time =    1.000,"P-2-1",          2793,   15.3389E-03,   13.2572E-03,            0.,NA,NA,"",   1.12047E+06,   1.15527E+06,   1.15527E+06
C:/temp/Job-2.odb,Step-1,Increment      1: Step Time =    1.000,"P-2-1",          2794,   13.5153E-03,   16.5192E-03,            0.,NA,NA,"",   1.09218E+06,   1.14294E+06,   1.14294E+06
C:/temp/Job-2.odb,Step-1,Increment      1: Step Time =    1.000,"P-2-1",          2795,   183.493E-03,   13.5034E-03,            0.,NA,NA,"",   1.00068E+06,   1.00052E+06,   1.00052E+06
C:/temp/Job-2.odb,Step-1,Increment      1: Step Time =    1.000,"P-2-1",          2796,   13.2507E-03,   184.665E-03,            0.,NA,NA,"",   1.10480E+06,   1.15301E+06,   1.15301E+06
C:/temp/Job-2.odb,Step-1,Increment      1: Step Time =    1.000,"P-2-1",          2797,   186.756E-03,   15.3266E-03,            0.,NA,NA,"",   1.00065E+06,   1.00055E+06,   1.00055E+06
C:/temp/Job-2.odb,Step-1,Increment      1: Step Time =    1.000,"P-2-1",          2798,   16.5149E-03,   186.490E-03,            0.,NA,NA,"",   1.11519E+06,   1.14689E+06,   1.14689E+06
C:/temp/Job-2.odb,Step-1,Increment      1: Step Time =    1.000,"P-2-1",          2799,   185.348E-03,   187.244E-03,            0.,NA,NA,"",   1.00040E+06,   1.00028E+06,   1.00028E+06
C:/temp/Job-2.odb,Step-1,Increment      1: Step Time =    1.000,"P-2-1",          2800,   185.932E-03,   182.893E-03,            0.,NA,NA,"",   1.00103E+06,   1.00088E+06,   1.00088E+06
C:/temp/Job-2.odb,Step-1,Increment      1: Step Time =    1.000,"P-2-1",          2801,   189.910E-03,   28.9561E-03,            0.,NA,NA,"",   1.00104E+06,   1.00149E+06,   1.00149E+06
C:/temp/Job-2.odb,Step-1,Increment      1: Step Time =    1.000,"P-2-1",          2802,   29.8152E-03,   187.496E-03,            0.,NA,NA,"",   1.06663E+06,   1.07530E+06,   1.07530E+06
C:/temp/Job-2.odb,Step-1,Increment      1: Step Time =    1.000,"P-2-1",          2803,   28.9397E-03,   10.0894E-03,            0.,NA,NA,"",   1.06600E+06,   1.07228E+06,   1.07228E+06
C:/temp/Job-2.odb,Step-1,Increment      1: Step Time =    1.000,"P-2-1",          2804,   12.5059E-03,   29.8196E-03,            0.,NA,NA,"",    983.63E+03,   1.06105E+06,   1.06105E+06
C:/temp/Job-2.odb,Step-1,Increment      1: Step Time =    1.000,"P-2-1",          2805,   171.292E-03,   189.882E-03,            0.,NA,NA,"",   1.00007E+06,   999.603E+03,   999.603E+03
C:/temp/Job-2.odb,Step-1,Increment      1: Step Time =    1.000,"P-2-1",          2806,   187.370E-03,   170.248E-03,            0.,NA,NA,"",   1.00204E+06,   1.00235E+06,   1.00235E+06
C:/temp/Job-2.odb,Step-1,Increment      1: Step Time =    1.000,"P-2-1",          2807,   10.0874E-03,   171.045E-03,            0.,NA,NA,"",   976.708E+03,   1.06048E+06,   1.06048E+06
C:/temp/Job-2.odb,Step-1,Increment      1: Step Time =    1.000,"P-2-1",          2808,   170.188E-03,   12.5081E-03,            0.,NA,NA,"",   1.00133E+06,   1.00060E+06,   1.00060E+06
C:/temp/Job-2.odb,Step-1,Increment      1: Step Time =    1.000,"P-2-1",          2809,   36.3370E-03,   189.478E-03,            0.,NA,NA,"",   1.03953E+06,   1.04323E+06,   1.04323E+06
C:/temp/Job-2.odb,Step-1,Increment      1: Step Time =    1.000,"P-2-1",          2810,   188.469E-03,   36.1688E-03,            0.,NA,NA,"",   1.00140E+06,   1.00266E+06,   1.00266E+06
C:/temp/Job-2.odb,Step-1,Increment      1: Step Time =    1.000,"P-2-1",          2811,   10.4981E-03,   36.3948E-03,            0.,NA,NA,"",   939.042E+03,   1.02631E+06,   1.02631E+06
C:/temp/Job-2.odb,Step-1,Increment      1: Step Time =    1.000,"P-2-1",          2812,   36.0645E-03,   11.5402E-03,            0.,NA,NA,"",   1.04392E+06,   1.04833E+06,   1.04833E+06
C:/temp/Job-2.odb,Step-1,Increment      1: Step Time =    1.000,"P-2-1",          2813,   189.498E-03,   163.618E-03,            0.,NA,NA,"",   1.00087E+06,   1.00225E+06,   1.00225E+06
C:/temp/Job-2.odb,Step-1,Increment      1: Step Time =    1.000,"P-2-1",          2814,   163.911E-03,   188.418E-03,            0.,NA,NA,"",   1.00038E+06,   999.443E+03,   999.443E+03
C:/temp/Job-2.odb,Step-1,Increment      1: Step Time =    1.000,"P-2-1",          2815,   163.663E-03,   10.5220E-03,            0.,NA,NA,"",   999.661E+03,   998.865E+03,   998.865E+03
C:/temp/Job-2.odb,Step-1,Increment      1: Step Time =    1.000,"P-2-1",          2816,   11.5308E-03,   163.829E-03,            0.,NA,NA,"",   945.603E+03,   1.03028E+06,   1.03028E+06
C:/temp/Job-2.odb,Step-1,Increment      1: Step Time =    1.000,"P-2-1",          2817,   75.0266E-03,   110.490E-03,            0.,NA,NA,"",   909.845E+03,   859.908E+03,   859.908E+03
C:/temp/Job-2.odb,Step-1,Increment      1: Step Time =    1.000,"P-2-1",          2818,   121.351E-03,   112.999E-03,            0.,NA,NA,"",   1.14549E+06,   1.02054E+06,   1.02054E+06
C:/temp/Job-2.odb,Step-1,Increment      1: Step Time =    1.000,"P-2-1",          2819,   79.8295E-03,   86.4972E-03,            0.,NA,NA,"",   1.15964E+06,   1.05356E+06,   1.05356E+06
C:/temp/Job-2.odb,Step-1,Increment      1: Step Time =    1.000,"P-2-1",          2820,   100.278E-03,   189.040E-03,            0.,NA,NA,"",   959.231E+03,   961.316E+03,   961.316E+03
C:/temp/Job-2.odb,Step-1,Increment      1: Step Time =    1.000,"P-2-1",          2821,   189.079E-03,   99.7877E-03,            0.,NA,NA,"",   968.292E+03,   994.546E+03,   994.546E+03
C:/temp/Job-2.odb,Step-1,Increment      1: Step Time =    1.000,"P-2-1",          2822,   10.9143E-03,   100.156E-03,            0.,NA,NA,"",   791.396E+03,   886.509E+03,   886.509E+03
C:/temp/Job-2.odb,Step-1,Increment      1: Step Time =    1.000,"P-2-1",          2823,   99.7056E-03,   10.9853E-03,            0.,NA,NA,"",   959.199E+03,   961.302E+03,   961.302E+03
C:/temp/Job-2.odb,Step-1,Increment      1: Step Time =    1.000,"P-2-1",          2824,   186.210E-03,   180.737E-03,            0.,NA,NA,"",   1.00128E+06,   1.00115E+06,   1.00115E+06
C:/temp/Job-2.odb,Step-1,Increment      1: Step Time =    1.000,"P-2-1",          2825,   182.904E-03,   184.765E-03,            0.,NA,NA,"",   1.00110E+06,   1.00086E+06,   1.00086E+06
C:/temp/Job-2.odb,Step-1,Increment      1: Step Time =    1.000,"P-2-1",          2826,   184.725E-03,   18.5696E-03,            0.,NA,NA,"",   1.00151E+06,   1.00132E+06,   1.00132E+06
C:/temp/Job-2.odb,Step-1,Increment      1: Step Time =    1.000,"P-2-1",          2827,   18.9523E-03,   186.285E-03,            0.,NA,NA,"",   1.10587E+06,   1.13210E+06,   1.13210E+06
C:/temp/Job-2.odb,Step-1,Increment      1: Step Time =    1.000,"P-2-1",          2828,   15.2764E-03,   181.425E-03,            0.,NA,NA,"",   1.07446E+06,   1.12434E+06,   1.12434E+06
C:/temp/Job-2.odb,Step-1,Increment      1: Step Time =    1.000,"P-2-1",          2829,   181.050E-03,   13.7115E-03,            0.,NA,NA,"",   1.00094E+06,   1.00069E+06,   1.00069E+06
C:/temp/Job-2.odb,Step-1,Increment      1: Step Time =    1.000,"P-2-1",          2830,   13.7202E-03,   18.9544E-03,            0.,NA,NA,"",   1.07042E+06,   1.12658E+06,   1.12658E+06
C:/temp/Job-2.odb,Step-1,Increment      1: Step Time =    1.000,"P-2-1",          2831,   18.5779E-03,   15.2820E-03,            0.,NA,NA,"",   1.09813E+06,   1.12908E+06,   1.12908E+06
C:/temp/Job-2.odb,Step-1,Increment      1: Step Time =    1.000,"P-2-1",          2832,   193.689E-03,   29.3230E-03,            0.,NA,NA,"",   1.00017E+06,   1.00064E+06,   1.00064E+06
C:/temp/Job-2.odb,Step-1,Increment      1: Step Time =    1.000,"P-2-1",          2833,   29.7363E-03,   193.513E-03,            0.,NA,NA,"",   1.04893E+06,   1.05134E+06,   1.05134E+06
C:/temp/Job-2.odb,Step-1,Increment      1: Step Time =    1.000,"P-2-1",          2834,   29.3177E-03,   6.31482E-03,            0.,NA,NA,"",   1.05070E+06,   1.05318E+06,   1.05318E+06
C:/temp/Job-2.odb,Step-1,Increment      1: Step Time =    1.000,"P-2-1",          2835,   6.48516E-03,   29.7405E-03,            0.,NA,NA,"",   951.533E+03,   1.04600E+06,   1.04600E+06
C:/temp/Job-2.odb,Step-1,Increment      1: Step Time =    1.000,"P-2-1",          2836,   193.482E-03,   170.282E-03,            0.,NA,NA,"",   1.00023E+06,   1.00072E+06,   1.00072E+06
C:/temp/Job-2.odb,Step-1,Increment      1: Step Time =    1.000,"P-2-1",          2837,   170.781E-03,   193.691E-03,            0.,NA,NA,"",   998.546E+03,   998.340E+03,   998.340E+03
C:/temp/Job-2.odb,Step-1,Increment      1: Step Time =    1.000,"P-2-1",          2838,   170.264E-03,   6.48588E-03,            0.,NA,NA,"",   998.618E+03,   998.388E+03,   998.388E+03
C:/temp/Job-2.odb,Step-1,Increment      1: Step Time =    1.000,"P-2-1",          2839,   6.30841E-03,   170.676E-03,            0.,NA,NA,"",   953.490E+03,   1.04840E+06,   1.04840E+06
C:/temp/Job-2.odb,Step-1,Increment      1: Step Time =    1.000,"P-2-1",          2840,   35.7590E-03,   193.359E-03,            0.,NA,NA,"",   1.02702E+06,   1.02864E+06,   1.02864E+06
C:/temp/Job-2.odb,Step-1,Increment      1: Step Time =    1.000,"P-2-1",          2841,   194.258E-03,   35.0308E-03,            0.,NA,NA,"",   999.425E+03,   1.00071E+06,   1.00071E+06
C:/temp/Job-2.odb,Step-1,Increment      1: Step Time =    1.000,"P-2-1",          2842,   6.63587E-03,   35.7881E-03,            0.,NA,NA,"",   922.400E+03,   1.01844E+06,   1.01844E+06
C:/temp/Job-2.odb,Step-1,Increment      1: Step Time =    1.000,"P-2-1",          2843,   35.0215E-03,   5.75437E-03,            0.,NA,NA,"",   1.02529E+06,   1.02646E+06,   1.02646E+06
C:/temp/Job-2.odb,Step-1,Increment      1: Step Time =    1.000,"P-2-1",          2844,   164.995E-03,   194.249E-03,            0.,NA,NA,"",   997.145E+03,   996.893E+03,   996.893E+03
C:/temp/Job-2.odb,Step-1,Increment      1: Step Time =    1.000,"P-2-1",          2845,   193.360E-03,   164.221E-03,            0.,NA,NA,"",   999.487E+03,   1.00095E+06,   1.00095E+06
C:/temp/Job-2.odb,Step-1,Increment      1: Step Time =    1.000,"P-2-1",          2846,   164.241E-03,   6.64154E-03,            0.,NA,NA,"",   997.412E+03,   997.075E+03,   997.075E+03
C:/temp/Job-2.odb,Step-1,Increment      1: Step Time =    1.000,"P-2-1",          2847,   5.73933E-03,   164.968E-03,            0.,NA,NA,"",   921.545E+03,   1.01948E+06,   1.01948E+06
C:/temp/Job-2.odb,Step-1,Increment      1: Step Time =    1.000,"P-2-1",          2848,   194.336E-03,   99.3386E-03,            0.,NA,NA,"",   965.942E+03,   998.303E+03,   998.303E+03
C:/temp/Job-2.odb,Step-1,Increment      1: Step Time =    1.000,"P-2-1",          2849,   100.675E-03,   194.332E-03,            0.,NA,NA,"",   941.360E+03,   942.002E+03,   942.002E+03
C:/temp/Job-2.odb,Step-1,Increment      1: Step Time =    1.000,"P-2-1",          2850,   5.65865E-03,   100.651E-03,            0.,NA,NA,"",   783.089E+03,   881.529E+03,   881.529E+03
C:/temp/Job-2.odb,Step-1,Increment      1: Step Time =    1.000,"P-2-1",          2851,   99.3154E-03,   5.67372E-03,            0.,NA,NA,"",   941.013E+03,   941.674E+03,   941.674E+03
C:/temp/Job-2.odb,Step-1,Increment      1: Step Time =    1.000,"P-2-1",          2852,   78.2025E-03,   91.0812E-03,            0.,NA,NA,"",   875.341E+03,   795.398E+03,   795.398E+03
C:/temp/Job-2.odb,Step-1,Increment      1: Step Time =    1.000,"P-2-1",          2853,   186.452E-03,   150.626E-03,            0.,NA,NA,"",   1.00043E+06,   1.00433E+06,   1.00433E+06
C:/temp/Job-2.odb,Step-1,Increment      1: Step Time =    1.000,"P-2-1",          2854,   152.198E-03,   13.2319E-03,            0.,NA,NA,"",   999.888E+03,   998.234E+03,   998.234E+03
C:/temp/Job-2.odb,Step-1,Increment      1: Step Time =    1.000,"P-2-1",          2855,   47.7907E-03,   186.750E-03,            0.,NA,NA,"",   1.02185E+06,   1.02393E+06,   1.02393E+06
C:/temp/Job-2.odb,Step-1,Increment      1: Step Time =    1.000,"P-2-1",          2856,   13.5472E-03,   49.3631E-03,            0.,NA,NA,"",   903.729E+03,   989.548E+03,   989.548E+03
C:/temp/Job-2.odb,Step-1,Increment      1: Step Time =    1.000,"P-2-1",          2857,   13.3113E-03,   8.45715E-03,            0.,NA,NA,"",   1.17586E+06,   1.19792E+06,   1.19792E+06
C:/temp/Job-2.odb,Step-1,Increment      1: Step Time =    1.000,"P-2-1",          2858,   191.549E-03,   13.3051E-03,            0.,NA,NA,"",   1.00018E+06,   1.00011E+06,   1.00011E+06
C:/temp/Job-2.odb,Step-1,Increment      1: Step Time =    1.000,"P-2-1",          2859,   8.45242E-03,   186.692E-03,            0.,NA,NA,"",   1.12650E+06,   1.19117E+06,   1.19117E+06
C:/temp/Job-2.odb,Step-1,Increment      1: Step Time =    1.000,"P-2-1",          2860,   187.557E-03,   191.256E-03,            0.,NA,NA,"",   999.899E+03,   999.849E+03,   999.849E+03
C:/temp/Job-2.odb,Step-1,Increment      1: Step Time =    1.000,"P-2-1",          2861,   14.1372E-03,   113.113E-03,            0.,NA,NA,"",   806.926E+03,   898.975E+03,   898.975E+03
C:/temp/Job-2.odb,Step-1,Increment      1: Step Time =    1.000,"P-2-1",          2862,   113.237E-03,   185.844E-03,            0.,NA,NA,"",   973.862E+03,   976.132E+03,   976.132E+03
C:/temp/Job-2.odb,Step-1,Increment      1: Step Time =    1.000,"P-2-1",          2863,   185.703E-03,   86.8622E-03,            0.,NA,NA,"",   972.922E+03,   993.361E+03,   993.361E+03
C:/temp/Job-2.odb,Step-1,Increment      1: Step Time =    1.000,"P-2-1",          2864,   86.8336E-03,   14.0571E-03,            0.,NA,NA,"",   973.384E+03,   976.095E+03,   976.095E+03
C:/temp/Job-2.odb,Step-1,Increment      1: Step Time =    1.000,"P-2-1",          2865,   4.69924E-03,   13.5852E-03,            0.,NA,NA,"",   1.09210E+06,   1.18163E+06,   1.18163E+06
C:/temp/Job-2.odb,Step-1,Increment      1: Step Time =    1.000,"P-2-1",          2866,   13.5838E-03,   195.304E-03,            0.,NA,NA,"",   1.17633E+06,   1.18408E+06,   1.18408E+06
C:/temp/Job-2.odb,Step-1,Increment      1: Step Time =    1.000,"P-2-1",          2867,   186.418E-03,   4.69512E-03,            0.,NA,NA,"",   999.596E+03,   999.584E+03,   999.584E+03
C:/temp/Job-2.odb,Step-1,Increment      1: Step Time =    1.000,"P-2-1",          2868,   195.309E-03,   186.457E-03,            0.,NA,NA,"",   1.00022E+06,   1.00004E+06,   1.00004E+06
C:/temp/Job-2.odb,Step-1,Increment      1: Step Time =    1.000,"P-2-1",          2869,   186.959E-03,   24.9484E-03,            0.,NA,NA,"",   1.00178E+06,   1.00183E+06,   1.00183E+06
C:/temp/Job-2.odb,Step-1,Increment      1: Step Time =    1.000,"P-2-1",          2870,   24.9421E-03,   13.0405E-03,            0.,NA,NA,"",   1.08491E+06,   1.09915E+06,   1.09915E+06
C:/temp/Job-2.odb,Step-1,Increment      1: Step Time =    1.000,"P-2-1",          2871,   175.666E-03,   186.765E-03,            0.,NA,NA,"",   1.00129E+06,   1.00079E+06,   1.00079E+06
C:/temp/Job-2.odb,Step-1,Increment      1: Step Time =    1.000,"P-2-1",          2872,   13.0382E-03,   175.052E-03,            0.,NA,NA,"",   1.01761E+06,   1.08765E+06,   1.08765E+06
C:/temp/Job-2.odb,Step-1,Increment      1: Step Time =    1.000,"P-2-1",          2873,   39.7564E-03,   186.936E-03,            0.,NA,NA,"",   1.03845E+06,   1.04258E+06,   1.04258E+06
C:/temp/Job-2.odb,Step-1,Increment      1: Step Time =    1.000,"P-2-1",          2874,   13.0248E-03,   39.8787E-03,            0.,NA,NA,"",   937.168E+03,   1.02017E+06,   1.02017E+06
C:/temp/Job-2.odb,Step-1,Increment      1: Step Time =    1.000,"P-2-1",          2875,   186.978E-03,   160.111E-03,            0.,NA,NA,"",   1.00210E+06,   1.00367E+06,   1.00367E+06
C:/temp/Job-2.odb,Step-1,Increment      1: Step Time =    1.000,"P-2-1",          2876,   160.245E-03,   13.0619E-03,            0.,NA,NA,"",   1.00136E+06,   1.00002E+06,   1.00002E+06
C:/temp/Job-2.odb,Step-1,Increment      1: Step Time =    1.000,"P-2-1",          2877,   104.867E-03,   186.452E-03,            0.,NA,NA,"",   967.735E+03,   970.676E+03,   970.676E+03
C:/temp/Job-2.odb,Step-1,Increment      1: Step Time =    1.000,"P-2-1",          2878,   13.6293E-03,   104.667E-03,            0.,NA,NA,"",   797.170E+03,   890.065E+03,   890.065E+03
C:/temp/Job-2.odb,Step-1,Increment      1: Step Time =    1.000,"P-2-1",          2879,   186.564E-03,   95.2992E-03,            0.,NA,NA,"",   968.459E+03,   991.867E+03,   991.867E+03
C:/temp/Job-2.odb,Step-1,Increment      1: Step Time =    1.000,"P-2-1",          2880,   95.1377E-03,   13.5747E-03,            0.,NA,NA,"",   967.425E+03,   970.589E+03,   970.589E+03
C:/temp/Job-2.odb,Step-1,Increment      1: Step Time =    1.000,"P-2-1",          2881,   126.147E-03,   105.043E-03,            0.,NA,NA,"",   680.386E+03,   657.979E+03,   657.979E+03
C:/temp/Job-2.odb,Step-1,Increment      1: Step Time =    1.000,"P-2-1",          2882,   128.272E-03,   100.428E-03,            0.,NA,NA,"",   586.224E+03,   600.810E+03,   600.810E+03
C:/temp/Job-2.odb,Step-1,Increment      1: Step Time =    1.000,"P-2-1",          2883,   72.2188E-03,   99.0444E-03,            0.,NA,NA,"",   533.371E+03,   569.653E+03,   569.653E+03
C:/temp/Job-2.odb,Step-1,Increment      1: Step Time =    1.000,"P-2-1",          2884,   73.2143E-03,   116.242E-03,            0.,NA,NA,"",   1.05810E+06,   1.00868E+06,   1.00868E+06
C:/temp/Job-2.odb,Step-1,Increment      1: Step Time =    1.000,"P-2-1",          2885,   112.216E-03,   74.2357E-03,            0.,NA,NA,"",   1.24690E+06,   1.25776E+06,   1.25776E+06
C:/temp/Job-2.odb,Step-1,Increment      1: Step Time =    1.000,"P-2-1",          2886,   88.2487E-03,   125.157E-03,            0.,NA,NA,"",   1.24423E+06,   1.26531E+06,   1.26531E+06
C:/temp/Job-2.odb,Step-1,Increment      1: Step Time =    1.000,"P-2-1",          2887,   74.2982E-03,   98.1428E-03,            0.,NA,NA,"",   499.686E+03,   526.640E+03,   526.640E+03
C:/temp/Job-2.odb,Step-1,Increment      1: Step Time =    1.000,"P-2-1",          2888,   119.481E-03,   123.608E-03,            0.,NA,NA,"",   1.27301E+06,   1.21256E+06,   1.21256E+06
C:/temp/Job-2.odb,Step-1,Increment      1: Step Time =    1.000,"P-2-1",          2889,   80.9638E-03,   78.8525E-03,            0.,NA,NA,"",   1.26218E+06,   1.20395E+06,   1.20395E+06
C:/temp/Job-2.odb,Step-1,Increment      1: Step Time =    1.000,"P-2-1",          2890,   111.828E-03,   126.110E-03,            0.,NA,NA,"",   1.23158E+06,   1.25081E+06,   1.25081E+06
C:/temp/Job-2.odb,Step-1,Increment      1: Step Time =    1.000,"P-2-1",          2891,   88.2373E-03,   73.4827E-03,            0.,NA,NA,"",   1.21847E+06,   1.24560E+06,   1.24560E+06
C:/temp/Job-2.odb,Step-1,Increment      1: Step Time =    1.000,"P-2-1",          2892,   72.9677E-03,   106.391E-03,            0.,NA,NA,"",   705.992E+03,   703.707E+03,   703.707E+03
C:/temp/Job-2.odb,Step-1,Increment      1: Step Time =    1.000,"P-2-1",          2893,   77.6722E-03,   88.8218E-03,            0.,NA,NA,"",   992.169E+03,   906.798E+03,   906.798E+03
C:/temp/Job-2.odb,Step-1,Increment      1: Step Time =    1.000,"P-2-1",          2894,   98.8064E-03,   14.8783E-03,            0.,NA,NA,"",   970.499E+03,   974.278E+03,   974.278E+03
C:/temp/Job-2.odb,Step-1,Increment      1: Step Time =    1.000,"P-2-1",          2895,   12.7972E-03,   98.8996E-03,            0.,NA,NA,"",   794.497E+03,   888.239E+03,   888.239E+03
C:/temp/Job-2.odb,Step-1,Increment      1: Step Time =    1.000,"P-2-1",          2896,   185.384E-03,   98.9068E-03,            0.,NA,NA,"",   967.751E+03,   990.442E+03,   990.442E+03
C:/temp/Job-2.odb,Step-1,Increment      1: Step Time =    1.000,"P-2-1",          2897,   99.0875E-03,   187.121E-03,            0.,NA,NA,"",   964.834E+03,   967.689E+03,   967.689E+03
C:/temp/Job-2.odb,Step-1,Increment      1: Step Time =    1.000,"P-2-1",          2898,   137.690E-03,   181.955E-03,            0.,NA,NA,"",   1.00221E+06,   1.00007E+06,   1.00007E+06
C:/temp/Job-2.odb,Step-1,Increment      1: Step Time =    1.000,"P-2-1",          2899,   182.323E-03,   62.1994E-03,            0.,NA,NA,"",   998.010E+03,   1.00448E+06,   1.00448E+06
C:/temp/Job-2.odb,Step-1,Increment      1: Step Time =    1.000,"P-2-1",          2900,   17.6962E-03,   137.516E-03,            0.,NA,NA,"",   877.376E+03,   960.417E+03,   960.417E+03
C:/temp/Job-2.odb,Step-1,Increment      1: Step Time =    1.000,"P-2-1",          2901,   62.4301E-03,   18.1002E-03,            0.,NA,NA,"",   1.01371E+06,   1.01476E+06,   1.01476E+06
C:/temp/Job-2.odb,Step-1,Increment      1: Step Time =    1.000,"P-2-1",          2902,   12.5956E-03,   13.9065E-03,            0.,NA,NA,"",   1.11937E+06,   1.16641E+06,   1.16641E+06
C:/temp/Job-2.odb,Step-1,Increment      1: Step Time =    1.000,"P-2-1",          2903,   11.0679E-03,   15.2134E-03,            0.,NA,NA,"",   1.10441E+06,   1.16192E+06,   1.16192E+06
C:/temp/Job-2.odb,Step-1,Increment      1: Step Time =    1.000,"P-2-1",          2904,   184.798E-03,   11.0638E-03,            0.,NA,NA,"",   1.00021E+06,   1.00012E+06,   1.00012E+06
C:/temp/Job-2.odb,Step-1,Increment      1: Step Time =    1.000,"P-2-1",          2905,   13.9016E-03,   187.410E-03,            0.,NA,NA,"",   1.13248E+06,   1.16893E+06,   1.16893E+06
C:/temp/Job-2.odb,Step-1,Increment      1: Step Time =    1.000,"P-2-1",          2906,   186.115E-03,   12.5742E-03,            0.,NA,NA,"",   1.00035E+06,   1.00026E+06,   1.00026E+06
C:/temp/Job-2.odb,Step-1,Increment      1: Step Time =    1.000,"P-2-1",          2907,   15.2096E-03,   188.938E-03,            0.,NA,NA,"",   1.14005E+06,   1.16735E+06,   1.16735E+06
C:/temp/Job-2.odb,Step-1,Increment      1: Step Time =    1.000,"P-2-1",          2908,   187.875E-03,   187.589E-03,            0.,NA,NA,"",   1.00024E+06,   1.00015E+06,   1.00015E+06
C:/temp/Job-2.odb,Step-1,Increment      1: Step Time =    1.000,"P-2-1",          2909,   188.063E-03,   185.332E-03,            0.,NA,NA,"",   1.00046E+06,   1.00037E+06,   1.00037E+06
C:/temp/Job-2.odb,Step-1,Increment      1: Step Time =    1.000,"P-2-1",          2910,   186.185E-03,   28.3981E-03,            0.,NA,NA,"",   1.00238E+06,   1.00253E+06,   1.00253E+06
C:/temp/Job-2.odb,Step-1,Increment      1: Step Time =    1.000,"P-2-1",          2911,   191.560E-03,   30.9549E-03,            0.,NA,NA,"",   1.00049E+06,   1.00118E+06,   1.00118E+06
C:/temp/Job-2.odb,Step-1,Increment      1: Step Time =    1.000,"P-2-1",          2912,   27.1152E-03,   186.238E-03,            0.,NA,NA,"",   1.07608E+06,   1.08913E+06,   1.08913E+06
C:/temp/Job-2.odb,Step-1,Increment      1: Step Time =    1.000,"P-2-1",          2913,   30.9050E-03,   189.830E-03,            0.,NA,NA,"",   1.05798E+06,   1.06339E+06,   1.06339E+06
C:/temp/Job-2.odb,Step-1,Increment      1: Step Time =    1.000,"P-2-1",          2914,   28.3724E-03,   13.8053E-03,            0.,NA,NA,"",   1.07183E+06,   1.08364E+06,   1.08364E+06
C:/temp/Job-2.odb,Step-1,Increment      1: Step Time =    1.000,"P-2-1",          2915,   30.9353E-03,   8.44434E-03,            0.,NA,NA,"",   1.05228E+06,   1.05596E+06,   1.05596E+06
C:/temp/Job-2.odb,Step-1,Increment      1: Step Time =    1.000,"P-2-1",          2916,   13.7709E-03,   27.1116E-03,            0.,NA,NA,"",   1.00647E+06,   1.07703E+06,   1.07703E+06
C:/temp/Job-2.odb,Step-1,Increment      1: Step Time =    1.000,"P-2-1",          2917,   10.1657E-03,   30.9161E-03,            0.,NA,NA,"",   965.565E+03,   1.05045E+06,   1.05045E+06
C:/temp/Job-2.odb,Step-1,Increment      1: Step Time =    1.000,"P-2-1",          2918,   171.906E-03,   186.048E-03,            0.,NA,NA,"",   1.00193E+06,   1.00115E+06,   1.00115E+06
C:/temp/Job-2.odb,Step-1,Increment      1: Step Time =    1.000,"P-2-1",          2919,   169.183E-03,   191.546E-03,            0.,NA,NA,"",   999.135E+03,   998.746E+03,   998.746E+03
C:/temp/Job-2.odb,Step-1,Increment      1: Step Time =    1.000,"P-2-1",          2920,   186.011E-03,   173.014E-03,            0.,NA,NA,"",   1.00234E+06,   1.00238E+06,   1.00238E+06
C:/temp/Job-2.odb,Step-1,Increment      1: Step Time =    1.000,"P-2-1",          2921,   189.765E-03,   169.125E-03,            0.,NA,NA,"",   1.00114E+06,   1.00172E+06,   1.00172E+06
C:/temp/Job-2.odb,Step-1,Increment      1: Step Time =    1.000,"P-2-1",          2922,   8.43917E-03,   169.045E-03,            0.,NA,NA,"",   956.032E+03,   1.04594E+06,   1.04594E+06
C:/temp/Job-2.odb,Step-1,Increment      1: Step Time =    1.000,"P-2-1",          2923,   169.096E-03,   10.1710E-03,            0.,NA,NA,"",   1.00009E+06,   999.538E+03,   999.538E+03
C:/temp/Job-2.odb,Step-1,Increment      1: Step Time =    1.000,"P-2-1",          2924,   13.8152E-03,   171.603E-03,            0.,NA,NA,"",   998.051E+03,   1.07016E+06,   1.07016E+06
C:/temp/Job-2.odb,Step-1,Increment      1: Step Time =    1.000,"P-2-1",          2925,   172.890E-03,   13.7670E-03,            0.,NA,NA,"",   1.00181E+06,   1.00111E+06,   1.00111E+06
C:/temp/Job-2.odb,Step-1,Increment      1: Step Time =    1.000,"P-2-1",          2926,   132.671E-03,   182.179E-03,            0.,NA,NA,"",   998.564E+03,   997.219E+03,   997.219E+03
C:/temp/Job-2.odb,Step-1,Increment      1: Step Time =    1.000,"P-2-1",          2927,   182.338E-03,   67.2020E-03,            0.,NA,NA,"",   993.802E+03,   1.00244E+06,   1.00244E+06
C:/temp/Job-2.odb,Step-1,Increment      1: Step Time =    1.000,"P-2-1",          2928,   17.4224E-03,   132.626E-03,            0.,NA,NA,"",   861.342E+03,   946.094E+03,   946.094E+03
C:/temp/Job-2.odb,Step-1,Increment      1: Step Time =    1.000,"P-2-1",          2929,   67.4525E-03,   17.6010E-03,            0.,NA,NA,"",   1.00586E+06,   1.00711E+06,   1.00711E+06
C:/temp/Job-2.odb,Step-1,Increment      1: Step Time =    1.000,"P-2-1",          2930,   34.2674E-03,   191.016E-03,            0.,NA,NA,"",   1.04101E+06,   1.04409E+06,   1.04409E+06
C:/temp/Job-2.odb,Step-1,Increment      1: Step Time =    1.000,"P-2-1",          2931,   37.1935E-03,   185.799E-03,            0.,NA,NA,"",   1.04641E+06,   1.05253E+06,   1.05253E+06
C:/temp/Job-2.odb,Step-1,Increment      1: Step Time =    1.000,"P-2-1",          2932,   186.360E-03,   37.9862E-03,            0.,NA,NA,"",   1.00256E+06,   1.00376E+06,   1.00376E+06
C:/temp/Job-2.odb,Step-1,Increment      1: Step Time =    1.000,"P-2-1",          2933,   190.672E-03,   34.4800E-03,            0.,NA,NA,"",   1.00049E+06,   1.00169E+06,   1.00169E+06
C:/temp/Job-2.odb,Step-1,Increment      1: Step Time =    1.000,"P-2-1",          2934,   14.1633E-03,   37.2588E-03,            0.,NA,NA,"",   953.036E+03,   1.03193E+06,   1.03193E+06
C:/temp/Job-2.odb,Step-1,Increment      1: Step Time =    1.000,"P-2-1",          2935,   8.96944E-03,   34.3009E-03,            0.,NA,NA,"",   940.662E+03,   1.03083E+06,   1.03083E+06
C:/temp/Job-2.odb,Step-1,Increment      1: Step Time =    1.000,"P-2-1",          2936,   34.4317E-03,   9.33603E-03,            0.,NA,NA,"",   1.04240E+06,   1.04575E+06,   1.04575E+06
C:/temp/Job-2.odb,Step-1,Increment      1: Step Time =    1.000,"P-2-1",          2937,   37.7735E-03,   13.6358E-03,            0.,NA,NA,"",   1.04410E+06,   1.04933E+06,   1.04933E+06
C:/temp/Job-2.odb,Step-1,Increment      1: Step Time =    1.000,"P-2-1",          2938,   165.597E-03,   190.646E-03,            0.,NA,NA,"",   999.077E+03,   998.495E+03,   998.495E+03
C:/temp/Job-2.odb,Step-1,Increment      1: Step Time =    1.000,"P-2-1",          2939,   185.839E-03,   162.741E-03,            0.,NA,NA,"",   1.00309E+06,   1.00398E+06,   1.00398E+06
C:/temp/Job-2.odb,Step-1,Increment      1: Step Time =    1.000,"P-2-1",          2940,   162.130E-03,   186.265E-03,            0.,NA,NA,"",   1.00199E+06,   1.00063E+06,   1.00063E+06
C:/temp/Job-2.odb,Step-1,Increment      1: Step Time =    1.000,"P-2-1",          2941,   191.011E-03,   165.718E-03,            0.,NA,NA,"",   1.00044E+06,   1.00157E+06,   1.00157E+06
C:/temp/Job-2.odb,Step-1,Increment      1: Step Time =    1.000,"P-2-1",          2942,   162.810E-03,   14.2008E-03,            0.,NA,NA,"",   1.00260E+06,   1.00119E+06,   1.00119E+06
C:/temp/Job-2.odb,Step-1,Increment      1: Step Time =    1.000,"P-2-1",          2943,   165.732E-03,   8.98455E-03,            0.,NA,NA,"",   999.001E+03,   998.460E+03,   998.460E+03
C:/temp/Job-2.odb,Step-1,Increment      1: Step Time =    1.000,"P-2-1",          2944,   9.32758E-03,   165.518E-03,            0.,NA,NA,"",   942.439E+03,   1.03171E+06,   1.03171E+06
C:/temp/Job-2.odb,Step-1,Increment      1: Step Time =    1.000,"P-2-1",          2945,   13.6395E-03,   162.011E-03,            0.,NA,NA,"",   947.465E+03,   1.02815E+06,   1.02815E+06
C:/temp/Job-2.odb,Step-1,Increment      1: Step Time =    1.000,"P-2-1",          2946,   118.811E-03,   114.944E-03,            0.,NA,NA,"",   1.26082E+06,   1.13810E+06,   1.13810E+06
C:/temp/Job-2.odb,Step-1,Increment      1: Step Time =    1.000,"P-2-1",          2947,   123.487E-03,   111.038E-03,            0.,NA,NA,"",   996.757E+03,   899.190E+03,   899.190E+03
C:/temp/Job-2.odb,Step-1,Increment      1: Step Time =    1.000,"P-2-1",          2948,   79.5509E-03,   84.5282E-03,            0.,NA,NA,"",   1.18962E+06,   1.09811E+06,   1.09811E+06
C:/temp/Job-2.odb,Step-1,Increment      1: Step Time =    1.000,"P-2-1",          2949,   101.218E-03,   185.169E-03,            0.,NA,NA,"",   970.456E+03,   974.152E+03,   974.152E+03
C:/temp/Job-2.odb,Step-1,Increment      1: Step Time =    1.000,"P-2-1",          2950,   187.118E-03,   101.002E-03,            0.,NA,NA,"",   968.365E+03,   992.673E+03,   992.673E+03
C:/temp/Job-2.odb,Step-1,Increment      1: Step Time =    1.000,"P-2-1",          2951,   14.6464E-03,   100.956E-03,            0.,NA,NA,"",   797.552E+03,   889.764E+03,   889.764E+03
C:/temp/Job-2.odb,Step-1,Increment      1: Step Time =    1.000,"P-2-1",          2952,   100.913E-03,   12.9227E-03,            0.,NA,NA,"",   964.947E+03,   967.784E+03,   967.784E+03
C:/temp/Job-2.odb,Step-1,Increment      1: Step Time =    1.000,"P-2-1",          2953,   72.2670E-03,   15.4098E-03,            0.,NA,NA,"",   993.158E+03,   994.368E+03,   994.368E+03
C:/temp/Job-2.odb,Step-1,Increment      1: Step Time =    1.000,"P-2-1",          2954,   15.3465E-03,   127.756E-03,            0.,NA,NA,"",   841.564E+03,   930.282E+03,   930.282E+03
C:/temp/Job-2.odb,Step-1,Increment      1: Step Time =    1.000,"P-2-1",          2955,   184.618E-03,   72.3163E-03,            0.,NA,NA,"",   986.881E+03,   999.705E+03,   999.705E+03
C:/temp/Job-2.odb,Step-1,Increment      1: Step Time =    1.000,"P-2-1",          2956,   127.645E-03,   184.617E-03,            0.,NA,NA,"",   989.056E+03,   988.840E+03,   988.840E+03
C:/temp/Job-2.odb,Step-1,Increment      1: Step Time =    1.000,"P-2-1",          2957,   132.205E-03,   14.8362E-03,            0.,NA,NA,"",   991.690E+03,   990.745E+03,   990.745E+03
C:/temp/Job-2.odb,Step-1,Increment      1: Step Time =    1.000,"P-2-1",          2958,   14.6971E-03,   67.7729E-03,            0.,NA,NA,"",   851.630E+03,   940.347E+03,   940.347E+03
C:/temp/Job-2.odb,Step-1,Increment      1: Step Time =    1.000,"P-2-1",          2959,   185.327E-03,   132.112E-03,            0.,NA,NA,"",   990.366E+03,   1.00148E+06,   1.00148E+06
C:/temp/Job-2.odb,Step-1,Increment      1: Step Time =    1.000,"P-2-1",          2960,   67.8185E-03,   185.046E-03,            0.,NA,NA,"",   997.290E+03,   998.091E+03,   998.091E+03
C:/temp/Job-2.odb,Step-1,Increment      1: Step Time =    1.000,"P-2-1",          2961,   142.976E-03,   181.648E-03,            0.,NA,NA,"",   1.00533E+06,   1.00258E+06,   1.00258E+06
C:/temp/Job-2.odb,Step-1,Increment      1: Step Time =    1.000,"P-2-1",          2962,   182.530E-03,   56.9014E-03,            0.,NA,NA,"",   1.00136E+06,   1.00589E+06,   1.00589E+06
C:/temp/Job-2.odb,Step-1,Increment      1: Step Time =    1.000,"P-2-1",          2963,   17.5562E-03,   142.940E-03,            0.,NA,NA,"",   893.827E+03,   975.326E+03,   975.326E+03
C:/temp/Job-2.odb,Step-1,Increment      1: Step Time =    1.000,"P-2-1",          2964,   56.9431E-03,   18.1934E-03,            0.,NA,NA,"",   1.02120E+06,   1.02275E+06,   1.02275E+06
C:/temp/Job-2.odb,Step-1,Increment      1: Step Time =    1.000,"P-2-1",          2965,   79.3456E-03,   182.739E-03,            0.,NA,NA,"",   990.134E+03,   992.827E+03,   992.827E+03
C:/temp/Job-2.odb,Step-1,Increment      1: Step Time =    1.000,"P-2-1",          2966,   182.177E-03,   121.192E-03,            0.,NA,NA,"",   981.451E+03,   995.542E+03,   995.542E+03
C:/temp/Job-2.odb,Step-1,Increment      1: Step Time =    1.000,"P-2-1",          2967,   17.8836E-03,   78.9763E-03,            0.,NA,NA,"",   830.799E+03,   917.923E+03,   917.923E+03
C:/temp/Job-2.odb,Step-1,Increment      1: Step Time =    1.000,"P-2-1",          2968,   120.658E-03,   17.2423E-03,            0.,NA,NA,"",   987.493E+03,   988.882E+03,   988.882E+03
C:/temp/Job-2.odb,Step-1,Increment      1: Step Time =    1.000,"P-2-1",          2969,   71.6972E-03,   181.823E-03,            0.,NA,NA,"",   1.00241E+06,   1.00418E+06,   1.00418E+06
C:/temp/Job-2.odb,Step-1,Increment      1: Step Time =    1.000,"P-2-1",          2970,   183.090E-03,   126.643E-03,            0.,NA,NA,"",   986.940E+03,   999.015E+03,   999.015E+03
C:/temp/Job-2.odb,Step-1,Increment      1: Step Time =    1.000,"P-2-1",          2971,   17.5774E-03,   71.4260E-03,            0.,NA,NA,"",   850.324E+03,   935.862E+03,   935.862E+03
C:/temp/Job-2.odb,Step-1,Increment      1: Step Time =    1.000,"P-2-1",          2972,   128.358E-03,   17.9337E-03,            0.,NA,NA,"",   995.957E+03,   995.452E+03,   995.452E+03
C:/temp/Job-2.odb,Step-1,Increment      1: Step Time =    1.000,"P-2-1",          2973,   182.835E-03,   51.1504E-03,            0.,NA,NA,"",   1.00360E+06,   1.00646E+06,   1.00646E+06
C:/temp/Job-2.odb,Step-1,Increment      1: Step Time =    1.000,"P-2-1",          2974,   50.8219E-03,   183.250E-03,            0.,NA,NA,"",   1.02581E+06,   1.02822E+06,   1.02822E+06
C:/temp/Job-2.odb,Step-1,Increment      1: Step Time =    1.000,"P-2-1",          2975,   148.608E-03,   182.119E-03,            0.,NA,NA,"",   1.00613E+06,   1.00330E+06,   1.00330E+06
C:/temp/Job-2.odb,Step-1,Increment      1: Step Time =    1.000,"P-2-1",          2976,   181.812E-03,   148.734E-03,            0.,NA,NA,"",   1.00490E+06,   1.00719E+06,   1.00719E+06
C:/temp/Job-2.odb,Step-1,Increment      1: Step Time =    1.000,"P-2-1",          2977,   18.1715E-03,   51.2349E-03,            0.,NA,NA,"",   916.679E+03,   994.429E+03,   994.429E+03
C:/temp/Job-2.odb,Step-1,Increment      1: Step Time =    1.000,"P-2-1",          2978,   49.9369E-03,   16.7909E-03,            0.,NA,NA,"",   1.02795E+06,   1.03046E+06,   1.03046E+06
C:/temp/Job-2.odb,Step-1,Increment      1: Step Time =    1.000,"P-2-1",          2979,   149.181E-03,   16.6571E-03,            0.,NA,NA,"",   1.00406E+06,   1.00157E+06,   1.00157E+06
C:/temp/Job-2.odb,Step-1,Increment      1: Step Time =    1.000,"P-2-1",          2980,   17.2090E-03,   148.792E-03,            0.,NA,NA,"",   912.556E+03,   992.275E+03,   992.275E+03
C:/temp/Job-2.odb,Step-1,Increment      1: Step Time =    1.000,"P-2-1",          2981,   183.031E-03,   83.1103E-03,            0.,NA,NA,"",   976.338E+03,   993.167E+03,   993.167E+03
C:/temp/Job-2.odb,Step-1,Increment      1: Step Time =    1.000,"P-2-1",          2982,   84.0592E-03,   181.764E-03,            0.,NA,NA,"",   988.017E+03,   991.891E+03,   991.891E+03
C:/temp/Job-2.odb,Step-1,Increment      1: Step Time =    1.000,"P-2-1",          2983,   116.966E-03,   183.334E-03,            0.,NA,NA,"",   982.780E+03,   984.950E+03,   984.950E+03
C:/temp/Job-2.odb,Step-1,Increment      1: Step Time =    1.000,"P-2-1",          2984,   181.634E-03,   115.886E-03,            0.,NA,NA,"",   975.725E+03,   991.781E+03,   991.781E+03
C:/temp/Job-2.odb,Step-1,Increment      1: Step Time =    1.000,"P-2-1",          2985,   83.2415E-03,   16.7298E-03,            0.,NA,NA,"",   983.963E+03,   987.157E+03,   987.157E+03
C:/temp/Job-2.odb,Step-1,Increment      1: Step Time =    1.000,"P-2-1",          2986,   17.6551E-03,   83.5034E-03,            0.,NA,NA,"",   820.537E+03,   908.730E+03,   908.730E+03
C:/temp/Job-2.odb,Step-1,Increment      1: Step Time =    1.000,"P-2-1",          2987,   16.7538E-03,   116.782E-03,            0.,NA,NA,"",   818.339E+03,   907.613E+03,   907.613E+03
C:/temp/Job-2.odb,Step-1,Increment      1: Step Time =    1.000,"P-2-1",          2988,   115.703E-03,   15.7082E-03,            0.,NA,NA,"",   979.673E+03,   981.720E+03,   981.720E+03
C:/temp/Job-2.odb,Step-1,Increment      1: Step Time =    1.000,"P-2-1",          2989,   103.166E-03,   72.9155E-03,            0.,NA,NA,"",   1.12790E+06,   1.22674E+06,   1.22674E+06
C:/temp/Job-2.odb,Step-1,Increment      1: Step Time =    1.000,"P-2-1",          2990,   96.7024E-03,   127.224E-03,            0.,NA,NA,"",   1.12717E+06,   1.22588E+06,   1.22588E+06
C:/temp/Job-2.odb,Step-1,Increment      1: Step Time =    1.000,"P-2-1",          2991,   154.900E-03,   181.189E-03,            0.,NA,NA,"",   1.00785E+06,   1.00496E+06,   1.00496E+06
C:/temp/Job-2.odb,Step-1,Increment      1: Step Time =    1.000,"P-2-1",          2992,   181.923E-03,   45.4803E-03,            0.,NA,NA,"",   1.00595E+06,   1.00709E+06,   1.00709E+06
C:/temp/Job-2.odb,Step-1,Increment      1: Step Time =    1.000,"P-2-1",          2993,   18.0903E-03,   154.505E-03,            0.,NA,NA,"",   936.839E+03,   1.01190E+06,   1.01190E+06
C:/temp/Job-2.odb,Step-1,Increment      1: Step Time =    1.000,"P-2-1",          2994,   44.9671E-03,   17.7130E-03,            0.,NA,NA,"",   1.03730E+06,   1.04210E+06,   1.04210E+06
C:/temp/Job-2.odb,Step-1,Increment      1: Step Time =    1.000,"P-2-1",          2995,   17.8261E-03,   180.772E-03,            0.,NA,NA,"",   1.07286E+06,   1.11634E+06,   1.11634E+06
C:/temp/Job-2.odb,Step-1,Increment      1: Step Time =    1.000,"P-2-1",          2996,   19.2307E-03,   17.8272E-03,            0.,NA,NA,"",   1.08326E+06,   1.11942E+06,   1.11942E+06
C:/temp/Job-2.odb,Step-1,Increment      1: Step Time =    1.000,"P-2-1",          2997,   181.729E-03,   182.904E-03,            0.,NA,NA,"",   1.00172E+06,   1.00138E+06,   1.00138E+06
C:/temp/Job-2.odb,Step-1,Increment      1: Step Time =    1.000,"P-2-1",          2998,   182.177E-03,   19.2243E-03,            0.,NA,NA,"",   1.00219E+06,   1.00184E+06,   1.00184E+06
C:/temp/Job-2.odb,Step-1,Increment      1: Step Time =    1.000,"P-2-1",          2999,   182.394E-03,   111.984E-03,            0.,NA,NA,"",   971.935E+03,   990.058E+03,   990.058E+03
C:/temp/Job-2.odb,Step-1,Increment      1: Step Time =    1.000,"P-2-1",          3000,   17.5264E-03,   88.5474E-03,            0.,NA,NA,"",   810.871E+03,   899.991E+03,   899.991E+03
C:/temp/Job-2.odb,Step-1,Increment      1: Step Time =    1.000,"P-2-1",          3001,   89.0359E-03,   182.004E-03,            0.,NA,NA,"",   982.770E+03,   987.408E+03,   987.408E+03
C:/temp/Job-2.odb,Step-1,Increment      1: Step Time =    1.000,"P-2-1",          3002,   111.421E-03,   17.5583E-03,            0.,NA,NA,"",   980.886E+03,   984.497E+03,   984.497E+03
C:/temp/Job-2.odb,Step-1,Increment      1: Step Time =    1.000,"P-2-1",          3003,   183.687E-03,   24.0016E-03,            0.,NA,NA,"",   1.00276E+06,   1.00251E+06,   1.00251E+06
C:/temp/Job-2.odb,Step-1,Increment      1: Step Time =    1.000,"P-2-1",          3004,   22.4391E-03,   181.897E-03,            0.,NA,NA,"",   1.07803E+06,   1.10701E+06,   1.10701E+06
C:/temp/Job-2.odb,Step-1,Increment      1: Step Time =    1.000,"P-2-1",          3005,   182.099E-03,   176.010E-03,            0.,NA,NA,"",   1.00338E+06,   1.00295E+06,   1.00295E+06
C:/temp/Job-2.odb,Step-1,Increment      1: Step Time =    1.000,"P-2-1",          3006,   176.380E-03,   183.196E-03,            0.,NA,NA,"",   1.00268E+06,   1.00197E+06,   1.00197E+06
C:/temp/Job-2.odb,Step-1,Increment      1: Step Time =    1.000,"P-2-1",          3007,   23.9969E-03,   16.3103E-03,            0.,NA,NA,"",   1.08151E+06,   1.10314E+06,   1.10314E+06
C:/temp/Job-2.odb,Step-1,Increment      1: Step Time =    1.000,"P-2-1",          3008,   18.1135E-03,   22.4345E-03,            0.,NA,NA,"",   1.05201E+06,   1.10120E+06,   1.10120E+06
C:/temp/Job-2.odb,Step-1,Increment      1: Step Time =    1.000,"P-2-1",          3009,   16.3146E-03,   175.998E-03,            0.,NA,NA,"",   1.03560E+06,   1.09395E+06,   1.09395E+06
C:/temp/Job-2.odb,Step-1,Increment      1: Step Time =    1.000,"P-2-1",          3010,   177.569E-03,   18.1075E-03,            0.,NA,NA,"",   1.00298E+06,   1.00230E+06,   1.00230E+06
C:/temp/Job-2.odb,Step-1,Increment      1: Step Time =    1.000,"P-2-1",          3011,   41.1936E-03,   181.987E-03,            0.,NA,NA,"",   1.04325E+06,   1.05005E+06,   1.05005E+06
C:/temp/Job-2.odb,Step-1,Increment      1: Step Time =    1.000,"P-2-1",          3012,   182.232E-03,   41.6543E-03,            0.,NA,NA,"",   1.00591E+06,   1.00655E+06,   1.00655E+06
C:/temp/Job-2.odb,Step-1,Increment      1: Step Time =    1.000,"P-2-1",          3013,   182.089E-03,   158.654E-03,            0.,NA,NA,"",   1.00606E+06,   1.00659E+06,   1.00659E+06
C:/temp/Job-2.odb,Step-1,Increment      1: Step Time =    1.000,"P-2-1",          3014,   158.722E-03,   181.947E-03,            0.,NA,NA,"",   1.00671E+06,   1.00423E+06,   1.00423E+06
C:/temp/Job-2.odb,Step-1,Increment      1: Step Time =    1.000,"P-2-1",          3015,   17.9452E-03,   41.3081E-03,            0.,NA,NA,"",   951.744E+03,   1.02465E+06,   1.02465E+06
C:/temp/Job-2.odb,Step-1,Increment      1: Step Time =    1.000,"P-2-1",          3016,   41.2504E-03,   17.7150E-03,            0.,NA,NA,"",   1.04325E+06,   1.04977E+06,   1.04977E+06
C:/temp/Job-2.odb,Step-1,Increment      1: Step Time =    1.000,"P-2-1",          3017,   158.807E-03,   17.9918E-03,            0.,NA,NA,"",   1.00656E+06,   1.00412E+06,   1.00412E+06
C:/temp/Job-2.odb,Step-1,Increment      1: Step Time =    1.000,"P-2-1",          3018,   17.7680E-03,   158.340E-03,            0.,NA,NA,"",   950.218E+03,   1.02359E+06,   1.02359E+06
C:/temp/Job-2.odb,Step-1,Increment      1: Step Time =    1.000,"P-2-1",          3019,   123.085E-03,   88.5509E-03,            0.,NA,NA,"",   1.02798E+06,   922.237E+03,   922.237E+03
C:/temp/Job-2.odb,Step-1,Increment      1: Step Time =    1.000,"P-2-1",          3020,   73.8171E-03,   108.938E-03,            0.,NA,NA,"",   820.379E+03,   791.790E+03,   791.790E+03
C:/temp/Job-2.odb,Step-1,Increment      1: Step Time =    1.000,"P-2-1",          3021,   73.0653E-03,   114.314E-03,            0.,NA,NA,"",   1.00874E+06,   963.092E+03,   963.092E+03
C:/temp/Job-2.odb,Step-1,Increment      1: Step Time =    1.000,"P-2-1",          3022,   181.967E-03,   106.282E-03,            0.,NA,NA,"",   967.611E+03,   987.027E+03,   987.027E+03
C:/temp/Job-2.odb,Step-1,Increment      1: Step Time =    1.000,"P-2-1",          3023,   105.804E-03,   182.993E-03,            0.,NA,NA,"",   976.694E+03,   980.986E+03,   980.986E+03
C:/temp/Job-2.odb,Step-1,Increment      1: Step Time =    1.000,"P-2-1",          3024,   183.042E-03,   94.7963E-03,            0.,NA,NA,"",   967.643E+03,   988.150E+03,   988.150E+03
C:/temp/Job-2.odb,Step-1,Increment      1: Step Time =    1.000,"P-2-1",          3025,   94.1284E-03,   182.193E-03,            0.,NA,NA,"",   979.122E+03,   984.245E+03,   984.245E+03
C:/temp/Job-2.odb,Step-1,Increment      1: Step Time =    1.000,"P-2-1",          3026,   94.2083E-03,   17.1002E-03,            0.,NA,NA,"",   977.210E+03,   981.942E+03,   981.942E+03
C:/temp/Job-2.odb,Step-1,Increment      1: Step Time =    1.000,"P-2-1",          3027,   17.2364E-03,   93.6344E-03,            0.,NA,NA,"",   804.335E+03,   894.127E+03,   894.127E+03
C:/temp/Job-2.odb,Step-1,Increment      1: Step Time =    1.000,"P-2-1",          3028,   17.4744E-03,   105.159E-03,            0.,NA,NA,"",   803.473E+03,   893.225E+03,   893.225E+03
C:/temp/Job-2.odb,Step-1,Increment      1: Step Time =    1.000,"P-2-1",          3029,   106.142E-03,   17.7970E-03,            0.,NA,NA,"",   978.705E+03,   983.409E+03,   983.409E+03
C:/temp/Job-2.odb,Step-1,Increment      1: Step Time =    1.000,"P-2-1",          3030,   127.053E-03,   92.9838E-03,            0.,NA,NA,"",   775.197E+03,   739.833E+03,   739.833E+03
C:/temp/Job-2.odb,Step-1,Increment      1: Step Time =    1.000,"P-2-1",          3031,   190.492E-03,   185.603E-03,            0.,NA,NA,"",   1.00030E+06,   1.00021E+06,   1.00021E+06
C:/temp/Job-2.odb,Step-1,Increment      1: Step Time =    1.000,"P-2-1",          3032,   14.6756E-03,   190.724E-03,            0.,NA,NA,"",   1.15443E+06,   1.17680E+06,   1.17680E+06
C:/temp/Job-2.odb,Step-1,Increment      1: Step Time =    1.000,"P-2-1",          3033,   185.330E-03,   9.27246E-03,            0.,NA,NA,"",   999.989E+03,   999.930E+03,   999.930E+03
C:/temp/Job-2.odb,Step-1,Increment      1: Step Time =    1.000,"P-2-1",          3034,   9.28175E-03,   14.6787E-03,            0.,NA,NA,"",   1.10636E+06,   1.17041E+06,   1.17041E+06
C:/temp/Job-2.odb,Step-1,Increment      1: Step Time =    1.000,"P-2-1",          3035,   82.0563E-03,   76.6242E-03,            0.,NA,NA,"",   1.26562E+06,   1.22575E+06,   1.22575E+06
C:/temp/Job-2.odb,Step-1,Increment      1: Step Time =    1.000,"P-2-1",          3036,   117.676E-03,   124.937E-03,            0.,NA,NA,"",   1.26967E+06,   1.22734E+06,   1.22734E+06
C:/temp/Job-2.odb,Step-1,Increment      1: Step Time =    1.000,"P-2-1",          3037,   121.017E-03,   108.603E-03,            0.,NA,NA,"",   904.327E+03,   786.732E+03,   786.732E+03
C:/temp/Job-2.odb,Step-1,Increment      1: Step Time =    1.000,"P-2-1",          3038,   128.101E-03,   96.9802E-03,            0.,NA,NA,"",   620.052E+03,   624.722E+03,   624.722E+03
C:/temp/Job-2.odb,Step-1,Increment      1: Step Time =    1.000,"P-2-1",          3039,   89.9071E-03,   125.870E-03,            0.,NA,NA,"",   1.22182E+06,   1.26296E+06,   1.26296E+06
C:/temp/Job-2.odb,Step-1,Increment      1: Step Time =    1.000,"P-2-1",          3040,   110.593E-03,   72.5141E-03,            0.,NA,NA,"",   1.20373E+06,   1.23638E+06,   1.23638E+06
C:/temp/Job-2.odb,Step-1,Increment      1: Step Time =    1.000,"P-2-1",          3041,   115.673E-03,   77.2323E-03,            0.,NA,NA,"",   1.30623E+06,   1.26244E+06,   1.26244E+06
C:/temp/Job-2.odb,Step-1,Increment      1: Step Time =    1.000,"P-2-1",          3042,   84.5379E-03,   123.907E-03,            0.,NA,NA,"",   1.27074E+06,   1.25135E+06,   1.25135E+06
C:/temp/Job-2.odb,Step-1,Increment      1: Step Time =    1.000,"P-2-1",          3043,   100.468E-03,   73.5333E-03,            0.,NA,NA,"",   1.12295E+06,   1.23250E+06,   1.23250E+06
C:/temp/Job-2.odb,Step-1,Increment      1: Step Time =    1.000,"P-2-1",          3044,   18.1858E-03,   4.62594E-03,            0.,NA,NA,"",   1.11702E+06,   1.12111E+06,   1.12111E+06
C:/temp/Job-2.odb,Step-1,Increment      1: Step Time =    1.000,"P-2-1",          3045,   195.376E-03,   18.1845E-03,            0.,NA,NA,"",   1.00032E+06,   1.00013E+06,   1.00013E+06
C:/temp/Job-2.odb,Step-1,Increment      1: Step Time =    1.000,"P-2-1",          3046,   4.62010E-03,   181.816E-03,            0.,NA,NA,"",   1.02891E+06,   1.12365E+06,   1.12365E+06
C:/temp/Job-2.odb,Step-1,Increment      1: Step Time =    1.000,"P-2-1",          3047,   181.671E-03,   195.752E-03,            0.,NA,NA,"",   999.231E+03,   999.207E+03,   999.207E+03
C:/temp/Job-2.odb,Step-1,Increment      1: Step Time =    1.000,"P-2-1",          3048,   115.900E-03,   79.9451E-03,            0.,NA,NA,"",   1.33781E+06,   1.26522E+06,   1.26522E+06
C:/temp/Job-2.odb,Step-1,Increment      1: Step Time =    1.000,"P-2-1",          3049,   99.2629E-03,   126.780E-03,            0.,NA,NA,"",   1.11944E+06,   1.22707E+06,   1.22707E+06
C:/temp/Job-2.odb,Step-1,Increment      1: Step Time =    1.000,"P-2-1",          3050,   93.0522E-03,   83.0799E-03,            0.,NA,NA,"",   1.47950E+06,   1.56085E+06,   1.56085E+06
C:/temp/Job-2.odb,Step-1,Increment      1: Step Time =    1.000,"P-2-1",          3051,   107.058E-03,   117.025E-03,            0.,NA,NA,"",   1.47738E+06,   1.55630E+06,   1.55630E+06
C:/temp/Job-2.odb,Step-1,Increment      1: Step Time =    1.000,"P-2-1",          3052,   192.553E-03,   188.568E-03,            0.,NA,NA,"",   1.00010E+06,   1.00001E+06,   1.00001E+06
C:/temp/Job-2.odb,Step-1,Increment      1: Step Time =    1.000,"P-2-1",          3053,   188.416E-03,   7.62417E-03,            0.,NA,NA,"",   999.858E+03,   999.825E+03,   999.825E+03
C:/temp/Job-2.odb,Step-1,Increment      1: Step Time =    1.000,"P-2-1",          3054,   11.5894E-03,   192.372E-03,            0.,NA,NA,"",   1.20033E+06,   1.22432E+06,   1.22432E+06
C:/temp/Job-2.odb,Step-1,Increment      1: Step Time =    1.000,"P-2-1",          3055,   7.63312E-03,   11.5923E-03,            0.,NA,NA,"",   1.15249E+06,   1.21608E+06,   1.21608E+06
C:/temp/Job-2.odb,Step-1,Increment      1: Step Time =    1.000,"P-2-1",          3056,   189.308E-03,   190.850E-03,            0.,NA,NA,"",   999.947E+03,   999.893E+03,   999.893E+03
C:/temp/Job-2.odb,Step-1,Increment      1: Step Time =    1.000,"P-2-1",          3057,   9.27550E-03,   188.666E-03,            0.,NA,NA,"",   1.15740E+06,   1.21006E+06,   1.21006E+06
C:/temp/Job-2.odb,Step-1,Increment      1: Step Time =    1.000,"P-2-1",          3058,   190.729E-03,   11.3281E-03,            0.,NA,NA,"",   1.00010E+06,   1.00004E+06,   1.00004E+06
C:/temp/Job-2.odb,Step-1,Increment      1: Step Time =    1.000,"P-2-1",          3059,   11.3377E-03,   9.27970E-03,            0.,NA,NA,"",   1.18140E+06,   1.21415E+06,   1.21415E+06
C:/temp/Job-2.odb,Step-1,Increment      1: Step Time =    1.000,"P-2-1",          3060,   130.322E-03,   100.917E-03,            0.,NA,NA,"",   637.927E+03,   653.297E+03,   653.297E+03
C:/temp/Job-2.odb,Step-1,Increment      1: Step Time =    1.000,"P-2-1",          3061,   68.7070E-03,   98.0168E-03,            0.,NA,NA,"",   627.740E+03,   667.270E+03,   667.270E+03
C:/temp/Job-2.odb,Step-1,Increment      1: Step Time =    1.000,"P-2-1",          3062,   15.4908E-03,   99.0888E-03,            0.,NA,NA,"",   798.777E+03,   890.367E+03,   890.367E+03
C:/temp/Job-2.odb,Step-1,Increment      1: Step Time =    1.000,"P-2-1",          3063,   100.705E-03,   15.6465E-03,            0.,NA,NA,"",   972.544E+03,   976.643E+03,   976.643E+03
C:/temp/Job-2.odb,Step-1,Increment      1: Step Time =    1.000,"P-2-1",          3064,   99.3470E-03,   184.409E-03,            0.,NA,NA,"",   972.396E+03,   976.527E+03,   976.527E+03
C:/temp/Job-2.odb,Step-1,Increment      1: Step Time =    1.000,"P-2-1",          3065,   184.396E-03,   100.704E-03,            0.,NA,NA,"",   967.611E+03,   989.517E+03,   989.517E+03
C:/temp/Job-2.odb,Step-1,Increment      1: Step Time =    1.000,"P-2-1",          3066,   49.7387E-03,   191.053E-03,            0.,NA,NA,"",   1.00449E+06,   1.00513E+06,   1.00513E+06
C:/temp/Job-2.odb,Step-1,Increment      1: Step Time =    1.000,"P-2-1",          3067,   8.80373E-03,   49.9914E-03,            0.,NA,NA,"",   882.188E+03,   976.761E+03,   976.761E+03
C:/temp/Job-2.odb,Step-1,Increment      1: Step Time =    1.000,"P-2-1",          3068,   191.198E-03,   150.002E-03,            0.,NA,NA,"",   996.453E+03,   1.00202E+06,   1.00202E+06
C:/temp/Job-2.odb,Step-1,Increment      1: Step Time =    1.000,"P-2-1",          3069,   150.254E-03,   8.94505E-03,            0.,NA,NA,"",   993.730E+03,   992.876E+03,   992.876E+03
C:/temp/Job-2.odb,Step-1,Increment      1: Step Time =    1.000,"P-2-1",          3070,   186.143E-03,   153.016E-03,            0.,NA,NA,"",   1.00135E+06,   1.00445E+06,   1.00445E+06
C:/temp/Job-2.odb,Step-1,Increment      1: Step Time =    1.000,"P-2-1",          3071,   153.918E-03,   13.8753E-03,            0.,NA,NA,"",   1.00096E+06,   999.236E+03,   999.236E+03
C:/temp/Job-2.odb,Step-1,Increment      1: Step Time =    1.000,"P-2-1",          3072,   46.0778E-03,   186.107E-03,            0.,NA,NA,"",   1.02617E+06,   1.02872E+06,   1.02872E+06
C:/temp/Job-2.odb,Step-1,Increment      1: Step Time =    1.000,"P-2-1",          3073,   13.8555E-03,   46.9701E-03,            0.,NA,NA,"",   912.815E+03,   997.364E+03,   997.364E+03
C:/temp/Job-2.odb,Step-1,Increment      1: Step Time =    1.000,"P-2-1",          3074,   15.9752E-03,   109.883E-03,            0.,NA,NA,"",   805.884E+03,   896.585E+03,   896.585E+03
C:/temp/Job-2.odb,Step-1,Increment      1: Step Time =    1.000,"P-2-1",          3075,   110.064E-03,   184.121E-03,            0.,NA,NA,"",   975.997E+03,   979.340E+03,   979.340E+03
C:/temp/Job-2.odb,Step-1,Increment      1: Step Time =    1.000,"P-2-1",          3076,   184.007E-03,   90.2155E-03,            0.,NA,NA,"",   970.362E+03,   990.518E+03,   990.518E+03
C:/temp/Job-2.odb,Step-1,Increment      1: Step Time =    1.000,"P-2-1",          3077,   89.9644E-03,   15.7360E-03,            0.,NA,NA,"",   975.822E+03,   979.619E+03,   979.619E+03
C:/temp/Job-2.odb,Step-1,Increment      1: Step Time =    1.000,"P-2-1",          3078,   128.274E-03,   104.710E-03,            0.,NA,NA,"",   681.616E+03,   674.449E+03,   674.449E+03
C:/temp/Job-2.odb,Step-1,Increment      1: Step Time =    1.000,"P-2-1",          3079,   129.016E-03,   98.8497E-03,            0.,NA,NA,"",   596.898E+03,   612.517E+03,   612.517E+03
C:/temp/Job-2.odb,Step-1,Increment      1: Step Time =    1.000,"P-2-1",          3080,   114.178E-03,   72.4438E-03,            0.,NA,NA,"",   1.22990E+06,   1.22734E+06,   1.22734E+06
C:/temp/Job-2.odb,Step-1,Increment      1: Step Time =    1.000,"P-2-1",          3081,   85.5402E-03,   126.856E-03,            0.,NA,NA,"",   1.22858E+06,   1.23108E+06,   1.23108E+06
C:/temp/Job-2.odb,Step-1,Increment      1: Step Time =    1.000,"P-2-1",          3082,   121.849E-03,   118.624E-03,            0.,NA,NA,"",   1.23554E+06,   1.14146E+06,   1.14146E+06
C:/temp/Job-2.odb,Step-1,Increment      1: Step Time =    1.000,"P-2-1",          3083,   113.420E-03,   128.641E-03,            0.,NA,NA,"",   1.20555E+06,   1.21563E+06,   1.21563E+06
C:/temp/Job-2.odb,Step-1,Increment      1: Step Time =    1.000,"P-2-1",          3084,   85.9504E-03,   72.9833E-03,            0.,NA,NA,"",   1.22262E+06,   1.23177E+06,   1.23177E+06
C:/temp/Job-2.odb,Step-1,Increment      1: Step Time =    1.000,"P-2-1",          3085,   13.3756E-03,   95.6818E-03,            0.,NA,NA,"",   796.499E+03,   889.660E+03,   889.660E+03
C:/temp/Job-2.odb,Step-1,Increment      1: Step Time =    1.000,"P-2-1",          3086,   95.9425E-03,   186.483E-03,            0.,NA,NA,"",   967.133E+03,   970.341E+03,   970.341E+03
C:/temp/Job-2.odb,Step-1,Increment      1: Step Time =    1.000,"P-2-1",          3087,   185.577E-03,   185.085E-03,            0.,NA,NA,"",   1.00071E+06,   1.00057E+06,   1.00057E+06
C:/temp/Job-2.odb,Step-1,Increment      1: Step Time =    1.000,"P-2-1",          3088,   187.654E-03,   30.4939E-03,            0.,NA,NA,"",   1.00186E+06,   1.00231E+06,   1.00231E+06
C:/temp/Job-2.odb,Step-1,Increment      1: Step Time =    1.000,"P-2-1",          3089,   25.4199E-03,   186.792E-03,            0.,NA,NA,"",   1.08287E+06,   1.09700E+06,   1.09700E+06
C:/temp/Job-2.odb,Step-1,Increment      1: Step Time =    1.000,"P-2-1",          3090,   30.4528E-03,   12.3386E-03,            0.,NA,NA,"",   1.06349E+06,   1.07159E+06,   1.07159E+06
C:/temp/Job-2.odb,Step-1,Increment      1: Step Time =    1.000,"P-2-1",          3091,   13.2178E-03,   25.4164E-03,            0.,NA,NA,"",   1.01614E+06,   1.08586E+06,   1.08586E+06
C:/temp/Job-2.odb,Step-1,Increment      1: Step Time =    1.000,"P-2-1",          3092,   186.530E-03,   174.707E-03,            0.,NA,NA,"",   1.00199E+06,   1.00199E+06,   1.00199E+06
C:/temp/Job-2.odb,Step-1,Increment      1: Step Time =    1.000,"P-2-1",          3093,   169.727E-03,   187.584E-03,            0.,NA,NA,"",   1.00117E+06,   1.00042E+06,   1.00042E+06
C:/temp/Job-2.odb,Step-1,Increment      1: Step Time =    1.000,"P-2-1",          3094,   174.583E-03,   13.2126E-03,            0.,NA,NA,"",   1.00146E+06,   1.00090E+06,   1.00090E+06
C:/temp/Job-2.odb,Step-1,Increment      1: Step Time =    1.000,"P-2-1",          3095,   12.3465E-03,   169.507E-03,            0.,NA,NA,"",   978.818E+03,   1.05739E+06,   1.05739E+06
C:/temp/Job-2.odb,Step-1,Increment      1: Step Time =    1.000,"P-2-1",          3096,   35.1000E-03,   186.920E-03,            0.,NA,NA,"",   1.05002E+06,   1.05603E+06,   1.05603E+06
C:/temp/Job-2.odb,Step-1,Increment      1: Step Time =    1.000,"P-2-1",          3097,   13.0532E-03,   35.1420E-03,            0.,NA,NA,"",   957.316E+03,   1.03769E+06,   1.03769E+06
C:/temp/Job-2.odb,Step-1,Increment      1: Step Time =    1.000,"P-2-1",          3098,   186.926E-03,   164.883E-03,            0.,NA,NA,"",   1.00239E+06,   1.00320E+06,   1.00320E+06
C:/temp/Job-2.odb,Step-1,Increment      1: Step Time =    1.000,"P-2-1",          3099,   164.902E-03,   13.0818E-03,            0.,NA,NA,"",   1.00171E+06,   1.00061E+06,   1.00061E+06
C:/temp/Job-2.odb,Step-1,Increment      1: Step Time =    1.000,"P-2-1",          3100,   123.920E-03,   115.184E-03,            0.,NA,NA,"",   1.14449E+06,   1.04411E+06,   1.04411E+06
C:/temp/Job-2.odb,Step-1,Increment      1: Step Time =    1.000,"P-2-1",          3101,   77.6419E-03,   84.4268E-03,            0.,NA,NA,"",   1.14734E+06,   1.06515E+06,   1.06515E+06
C:/temp/Job-2.odb,Step-1,Increment      1: Step Time =    1.000,"P-2-1",          3102,   186.355E-03,   104.216E-03,            0.,NA,NA,"",   968.430E+03,   991.765E+03,   991.765E+03
C:/temp/Job-2.odb,Step-1,Increment      1: Step Time =    1.000,"P-2-1",          3103,   104.079E-03,   13.5426E-03,            0.,NA,NA,"",   967.331E+03,   970.391E+03,   970.391E+03
C:/temp/Job-2.odb,Step-1,Increment      1: Step Time =    1.000,"P-2-1",          3104,   52.7935E-03,   181.645E-03,            0.,NA,NA,"",   1.02687E+06,   1.02927E+06,   1.02927E+06
C:/temp/Job-2.odb,Step-1,Increment      1: Step Time =    1.000,"P-2-1",          3105,   179.525E-03,   145.903E-03,            0.,NA,NA,"",   1.00683E+06,   1.00855E+06,   1.00855E+06
C:/temp/Job-2.odb,Step-1,Increment      1: Step Time =    1.000,"P-2-1",          3106,   20.4528E-03,   54.0384E-03,            0.,NA,NA,"",   916.393E+03,   991.014E+03,   991.014E+03
C:/temp/Job-2.odb,Step-1,Increment      1: Step Time =    1.000,"P-2-1",          3107,   147.211E-03,   18.2182E-03,            0.,NA,NA,"",   1.00624E+06,   1.00335E+06,   1.00335E+06
C:/temp/Job-2.odb,Step-1,Increment      1: Step Time =    1.000,"P-2-1",          3108,   182.317E-03,   80.9331E-03,            0.,NA,NA,"",   978.839E+03,   994.147E+03,   994.147E+03
C:/temp/Job-2.odb,Step-1,Increment      1: Step Time =    1.000,"P-2-1",          3109,   119.078E-03,   182.663E-03,            0.,NA,NA,"",   986.147E+03,   987.936E+03,   987.936E+03
C:/temp/Job-2.odb,Step-1,Increment      1: Step Time =    1.000,"P-2-1",          3110,   80.9469E-03,   17.9973E-03,            0.,NA,NA,"",   990.210E+03,   993.521E+03,   993.521E+03
C:/temp/Job-2.odb,Step-1,Increment      1: Step Time =    1.000,"P-2-1",          3111,   17.9485E-03,   119.073E-03,            0.,NA,NA,"",   826.018E+03,   913.534E+03,   913.534E+03
C:/temp/Job-2.odb,Step-1,Increment      1: Step Time =    1.000,"P-2-1",          3112,   182.827E-03,   21.7020E-03,            0.,NA,NA,"",   1.00255E+06,   1.00222E+06,   1.00222E+06
C:/temp/Job-2.odb,Step-1,Increment      1: Step Time =    1.000,"P-2-1",          3113,   20.3173E-03,   180.374E-03,            0.,NA,NA,"",   1.07089E+06,   1.10840E+06,   1.10840E+06
C:/temp/Job-2.odb,Step-1,Increment      1: Step Time =    1.000,"P-2-1",          3114,   178.676E-03,   181.908E-03,            0.,NA,NA,"",   1.00267E+06,   1.00208E+06,   1.00208E+06
C:/temp/Job-2.odb,Step-1,Increment      1: Step Time =    1.000,"P-2-1",          3115,   180.672E-03,   178.472E-03,            0.,NA,NA,"",   1.00328E+06,   1.00272E+06,   1.00272E+06
C:/temp/Job-2.odb,Step-1,Increment      1: Step Time =    1.000,"P-2-1",          3116,   21.7022E-03,   17.1744E-03,            0.,NA,NA,"",   1.08446E+06,   1.11278E+06,   1.11278E+06
C:/temp/Job-2.odb,Step-1,Increment      1: Step Time =    1.000,"P-2-1",          3117,   19.6295E-03,   20.3122E-03,            0.,NA,NA,"",   1.06740E+06,   1.10831E+06,   1.10831E+06
C:/temp/Job-2.odb,Step-1,Increment      1: Step Time =    1.000,"P-2-1",          3118,   179.689E-03,   19.6256E-03,            0.,NA,NA,"",   1.00299E+06,   1.00241E+06,   1.00241E+06
C:/temp/Job-2.odb,Step-1,Increment      1: Step Time =    1.000,"P-2-1",          3119,   17.1755E-03,   178.296E-03,            0.,NA,NA,"",   1.05640E+06,   1.10703E+06,   1.10703E+06
C:/temp/Job-2.odb,Step-1,Increment      1: Step Time =    1.000,"P-2-1",          3120,   43.4860E-03,   181.615E-03,            0.,NA,NA,"",   1.04033E+06,   1.04618E+06,   1.04618E+06
C:/temp/Job-2.odb,Step-1,Increment      1: Step Time =    1.000,"P-2-1",          3121,   180.369E-03,   43.6002E-03,            0.,NA,NA,"",   1.00775E+06,   1.00798E+06,   1.00798E+06
C:/temp/Job-2.odb,Step-1,Increment      1: Step Time =    1.000,"P-2-1",          3122,   157.104E-03,   179.855E-03,            0.,NA,NA,"",   1.00957E+06,   1.00646E+06,   1.00646E+06
C:/temp/Job-2.odb,Step-1,Increment      1: Step Time =    1.000,"P-2-1",          3123,   181.675E-03,   156.336E-03,            0.,NA,NA,"",   1.00657E+06,   1.00722E+06,   1.00722E+06
C:/temp/Job-2.odb,Step-1,Increment      1: Step Time =    1.000,"P-2-1",          3124,   18.3454E-03,   43.6360E-03,            0.,NA,NA,"",   944.940E+03,   1.01819E+06,   1.01819E+06
C:/temp/Job-2.odb,Step-1,Increment      1: Step Time =    1.000,"P-2-1",          3125,   43.1477E-03,   19.5410E-03,            0.,NA,NA,"",   1.04280E+06,   1.04968E+06,   1.04968E+06
C:/temp/Job-2.odb,Step-1,Increment      1: Step Time =    1.000,"P-2-1",          3126,   156.510E-03,   18.3384E-03,            0.,NA,NA,"",   1.00724E+06,   1.00455E+06,   1.00455E+06
C:/temp/Job-2.odb,Step-1,Increment      1: Step Time =    1.000,"P-2-1",          3127,   19.6361E-03,   156.386E-03,            0.,NA,NA,"",    950.38E+03,   1.02098E+06,   1.02098E+06
C:/temp/Job-2.odb,Step-1,Increment      1: Step Time =    1.000,"P-2-1",          3128,   34.0681E-03,   13.1185E-03,            0.,NA,NA,"",   1.05277E+06,   1.05961E+06,   1.05961E+06
C:/temp/Job-2.odb,Step-1,Increment      1: Step Time =    1.000,"P-2-1",          3129,   186.873E-03,   34.1721E-03,            0.,NA,NA,"",   1.00237E+06,   1.00311E+06,   1.00311E+06
C:/temp/Job-2.odb,Step-1,Increment      1: Step Time =    1.000,"P-2-1",          3130,   13.1279E-03,   165.827E-03,            0.,NA,NA,"",   962.679E+03,   1.04202E+06,   1.04202E+06
C:/temp/Job-2.odb,Step-1,Increment      1: Step Time =    1.000,"P-2-1",          3131,   165.962E-03,   186.817E-03,            0.,NA,NA,"",   1.00170E+06,   1.00064E+06,   1.00064E+06
C:/temp/Job-2.odb,Step-1,Increment      1: Step Time =    1.000,"P-2-1",          3132,   72.9989E-03,   112.121E-03,            0.,NA,NA,"",   940.938E+03,   901.018E+03,   901.018E+03
C:/temp/Job-2.odb,Step-1,Increment      1: Step Time =    1.000,"P-2-1",          3133,   75.0201E-03,   89.0712E-03,            0.,NA,NA,"",   924.106E+03,   871.482E+03,   871.482E+03
C:/temp/Job-2.odb,Step-1,Increment      1: Step Time =    1.000,"P-2-1",          3134,   107.320E-03,   181.173E-03,            0.,NA,NA,"",   981.534E+03,   986.446E+03,   986.446E+03
C:/temp/Job-2.odb,Step-1,Increment      1: Step Time =    1.000,"P-2-1",          3135,   181.083E-03,   109.691E-03,            0.,NA,NA,"",   969.461E+03,   987.358E+03,   987.358E+03
C:/temp/Job-2.odb,Step-1,Increment      1: Step Time =    1.000,"P-2-1",          3136,   181.259E-03,   93.2912E-03,            0.,NA,NA,"",   967.526E+03,   986.455E+03,   986.455E+03
C:/temp/Job-2.odb,Step-1,Increment      1: Step Time =    1.000,"P-2-1",          3137,   91.1791E-03,   180.945E-03,            0.,NA,NA,"",   983.829E+03,   989.308E+03,   989.308E+03
C:/temp/Job-2.odb,Step-1,Increment      1: Step Time =    1.000,"P-2-1",          3138,   92.6688E-03,   19.0379E-03,            0.,NA,NA,"",   982.739E+03,   988.325E+03,   988.325E+03
C:/temp/Job-2.odb,Step-1,Increment      1: Step Time =    1.000,"P-2-1",          3139,   20.2206E-03,   91.9052E-03,            0.,NA,NA,"",   810.777E+03,   897.718E+03,   897.718E+03
C:/temp/Job-2.odb,Step-1,Increment      1: Step Time =    1.000,"P-2-1",          3140,   19.8796E-03,   106.969E-03,            0.,NA,NA,"",   808.951E+03,   896.342E+03,   896.342E+03
C:/temp/Job-2.odb,Step-1,Increment      1: Step Time =    1.000,"P-2-1",          3141,   109.362E-03,   18.7917E-03,            0.,NA,NA,"",   982.535E+03,   987.099E+03,   987.099E+03
C:/temp/Job-2.odb,Step-1,Increment      1: Step Time =    1.000,"P-2-1",          3142,   13.9253E-03,   31.7505E-03,            0.,NA,NA,"",   979.127E+03,   1.05438E+06,   1.05438E+06
C:/temp/Job-2.odb,Step-1,Increment      1: Step Time =    1.000,"P-2-1",          3143,   31.7361E-03,   186.068E-03,            0.,NA,NA,"",   1.06115E+06,   1.07027E+06,   1.07027E+06
C:/temp/Job-2.odb,Step-1,Increment      1: Step Time =    1.000,"P-2-1",          3144,   168.268E-03,   13.9370E-03,            0.,NA,NA,"",   1.00229E+06,   1.00127E+06,   1.00127E+06
C:/temp/Job-2.odb,Step-1,Increment      1: Step Time =    1.000,"P-2-1",          3145,   185.953E-03,   168.301E-03,            0.,NA,NA,"",   1.00284E+06,   1.00314E+06,   1.00314E+06
C:/temp/Job-2.odb,Step-1,Increment      1: Step Time =    1.000,"P-2-1",          3146,   129.306E-03,   94.1126E-03,            0.,NA,NA,"",   738.247E+03,   725.074E+03,   725.074E+03
C:/temp/Job-2.odb,Step-1,Increment      1: Step Time =    1.000,"P-2-1",          3147,   125.837E-03,   89.2778E-03,            0.,NA,NA,"",   945.437E+03,   872.850E+03,   872.850E+03
C:/temp/Job-2.odb,Step-1,Increment      1: Step Time =    1.000,"P-2-1",          3148,   82.9117E-03,   74.3716E-03,            0.,NA,NA,"",   1.24703E+06,   1.22553E+06,   1.22553E+06
C:/temp/Job-2.odb,Step-1,Increment      1: Step Time =    1.000,"P-2-1",          3149,   116.433E-03,   126.866E-03,            0.,NA,NA,"",   1.24623E+06,   1.22297E+06,   1.22297E+06
C:/temp/Job-2.odb,Step-1,Increment      1: Step Time =    1.000,"P-2-1",          3150,   93.9252E-03,   127.384E-03,            0.,NA,NA,"",   1.15837E+06,   1.23762E+06,   1.23762E+06
C:/temp/Job-2.odb,Step-1,Increment      1: Step Time =    1.000,"P-2-1",          3151,   106.339E-03,   72.4600E-03,            0.,NA,NA,"",   1.15654E+06,   1.23203E+06,   1.23203E+06
C:/temp/Job-2.odb,Step-1,Increment      1: Step Time =    1.000,"P-2-1",          3152,   115.731E-03,   74.0484E-03,            0.,NA,NA,"",   1.25850E+06,   1.23506E+06,   1.23506E+06
C:/temp/Job-2.odb,Step-1,Increment      1: Step Time =    1.000,"P-2-1",          3153,   83.4609E-03,   120.939E-03,            0.,NA,NA,"",   1.29870E+06,   1.25081E+06,   1.25081E+06
C:/temp/Job-2.odb,Step-1,Increment      1: Step Time =    1.000,"P-2-1",          3154,   83.6079E-03,   126.312E-03,            0.,NA,NA,"",   1.23598E+06,   1.22307E+06,   1.22307E+06
C:/temp/Job-2.odb,Step-1,Increment      1: Step Time =    1.000,"P-2-1",          3155,   124.251E-03,   105.838E-03,            0.,NA,NA,"",   717.662E+03,   670.018E+03,   670.018E+03
C:/temp/Job-2.odb,Step-1,Increment      1: Step Time =    1.000,"P-2-1",          3156,   182.312E-03,   64.7326E-03,            0.,NA,NA,"",   995.996E+03,   1.00354E+06,   1.00354E+06
C:/temp/Job-2.odb,Step-1,Increment      1: Step Time =    1.000,"P-2-1",          3157,   135.146E-03,   182.098E-03,            0.,NA,NA,"",   1.00036E+06,   998.589E+03,   998.589E+03
C:/temp/Job-2.odb,Step-1,Increment      1: Step Time =    1.000,"P-2-1",          3158,   65.0492E-03,   17.9458E-03,            0.,NA,NA,"",   1.00987E+06,   1.01097E+06,   1.01097E+06
C:/temp/Job-2.odb,Step-1,Increment      1: Step Time =    1.000,"P-2-1",          3159,   17.6594E-03,   135.024E-03,            0.,NA,NA,"",   869.409E+03,   953.233E+03,   953.233E+03
C:/temp/Job-2.odb,Step-1,Increment      1: Step Time =    1.000,"P-2-1",          3160,   182.421E-03,   59.5758E-03,            0.,NA,NA,"",   999.839E+03,   1.00529E+06,   1.00529E+06
C:/temp/Job-2.odb,Step-1,Increment      1: Step Time =    1.000,"P-2-1",          3161,   59.7112E-03,   18.1474E-03,            0.,NA,NA,"",   1.01741E+06,   1.01865E+06,   1.01865E+06
C:/temp/Job-2.odb,Step-1,Increment      1: Step Time =    1.000,"P-2-1",          3162,   140.299E-03,   181.799E-03,            0.,NA,NA,"",   1.00393E+06,   1.00144E+06,   1.00144E+06
C:/temp/Job-2.odb,Step-1,Increment      1: Step Time =    1.000,"P-2-1",          3163,   17.6574E-03,   140.196E-03,            0.,NA,NA,"",   885.411E+03,   967.727E+03,   967.727E+03
C:/temp/Job-2.odb,Step-1,Increment      1: Step Time =    1.000,"P-2-1",          3164,   73.6817E-03,   181.352E-03,            0.,NA,NA,"",   1.00109E+06,   1.00325E+06,   1.00325E+06
C:/temp/Job-2.odb,Step-1,Increment      1: Step Time =    1.000,"P-2-1",          3165,   181.835E-03,   125.850E-03,            0.,NA,NA,"",   986.894E+03,   998.467E+03,   998.467E+03
C:/temp/Job-2.odb,Step-1,Increment      1: Step Time =    1.000,"P-2-1",          3166,   18.1920E-03,   73.1983E-03,            0.,NA,NA,"",   846.738E+03,   932.097E+03,   932.097E+03
C:/temp/Job-2.odb,Step-1,Increment      1: Step Time =    1.000,"P-2-1",          3167,   126.360E-03,   18.4482E-03,            0.,NA,NA,"",   995.343E+03,   995.336E+03,   995.336E+03
C:/temp/Job-2.odb,Step-1,Increment      1: Step Time =    1.000,"P-2-1",          3168,   145.685E-03,   181.650E-03,            0.,NA,NA,"",   1.00610E+06,   1.00322E+06,   1.00322E+06
C:/temp/Job-2.odb,Step-1,Increment      1: Step Time =    1.000,"P-2-1",          3169,   17.4028E-03,   145.771E-03,            0.,NA,NA,"",   902.781E+03,   983.385E+03,   983.385E+03
C:/temp/Job-2.odb,Step-1,Increment      1: Step Time =    1.000,"P-2-1",          3170,   182.669E-03,   54.1235E-03,            0.,NA,NA,"",   1.00264E+06,   1.00630E+06,   1.00630E+06
C:/temp/Job-2.odb,Step-1,Increment      1: Step Time =    1.000,"P-2-1",          3171,   54.2145E-03,   18.0624E-03,            0.,NA,NA,"",   1.02444E+06,   1.02636E+06,   1.02636E+06
C:/temp/Job-2.odb,Step-1,Increment      1: Step Time =    1.000,"P-2-1",          3172,   179.474E-03,   119.574E-03,            0.,NA,NA,"",   980.101E+03,   992.970E+03,   992.970E+03
C:/temp/Job-2.odb,Step-1,Increment      1: Step Time =    1.000,"P-2-1",          3173,   118.658E-03,   18.8804E-03,            0.,NA,NA,"",   989.452E+03,   991.629E+03,   991.629E+03
C:/temp/Job-2.odb,Step-1,Increment      1: Step Time =    1.000,"P-2-1",          3174,   81.0937E-03,   181.155E-03,            0.,NA,NA,"",   992.594E+03,   996.044E+03,   996.044E+03
C:/temp/Job-2.odb,Step-1,Increment      1: Step Time =    1.000,"P-2-1",          3175,   20.0804E-03,   80.8441E-03,            0.,NA,NA,"",   831.189E+03,   916.304E+03,   916.304E+03
C:/temp/Job-2.odb,Step-1,Increment      1: Step Time =    1.000,"P-2-1",          3176,   97.8181E-03,   70.9963E-03,            0.,NA,NA,"",   1.09583E+06,   1.18990E+06,   1.18990E+06
C:/temp/Job-2.odb,Step-1,Increment      1: Step Time =    1.000,"P-2-1",          3177,   73.5675E-03,   95.9244E-03,            0.,NA,NA,"",   599.854E+03,   613.409E+03,   613.409E+03
C:/temp/Job-2.odb,Step-1,Increment      1: Step Time =    1.000,"P-2-1",          3178,   181.090E-03,   16.7645E-03,            0.,NA,NA,"",   1.00180E+06,   1.00143E+06,   1.00143E+06
C:/temp/Job-2.odb,Step-1,Increment      1: Step Time =    1.000,"P-2-1",          3179,   16.7733E-03,   18.9139E-03,            0.,NA,NA,"",   1.07438E+06,   1.12021E+06,   1.12021E+06
C:/temp/Job-2.odb,Step-1,Increment      1: Step Time =    1.000,"P-2-1",          3180,   183.665E-03,   180.663E-03,            0.,NA,NA,"",   1.00184E+06,   1.00158E+06,   1.00158E+06
C:/temp/Job-2.odb,Step-1,Increment      1: Step Time =    1.000,"P-2-1",          3181,   18.9132E-03,   183.232E-03,            0.,NA,NA,"",   1.08740E+06,   1.12189E+06,   1.12189E+06
C:/temp/Job-2.odb,Step-1,Increment      1: Step Time =    1.000,"P-2-1",          3182,   86.0408E-03,   180.788E-03,            0.,NA,NA,"",   988.638E+03,   993.362E+03,   993.362E+03
C:/temp/Job-2.odb,Step-1,Increment      1: Step Time =    1.000,"P-2-1",          3183,   112.800E-03,   19.5243E-03,            0.,NA,NA,"",   986.403E+03,   990.437E+03,   990.437E+03
C:/temp/Job-2.odb,Step-1,Increment      1: Step Time =    1.000,"P-2-1",          3184,   180.178E-03,   113.237E-03,            0.,NA,NA,"",   972.373E+03,   988.384E+03,   988.384E+03
C:/temp/Job-2.odb,Step-1,Increment      1: Step Time =    1.000,"P-2-1",          3185,   19.8282E-03,   86.0015E-03,            0.,NA,NA,"",   819.706E+03,   906.028E+03,   906.028E+03
C:/temp/Job-2.odb,Step-1,Increment      1: Step Time =    1.000,"P-2-1",          3186,   180.225E-03,   47.7947E-03,            0.,NA,NA,"",   1.00758E+06,   1.00841E+06,   1.00841E+06
C:/temp/Job-2.odb,Step-1,Increment      1: Step Time =    1.000,"P-2-1",          3187,   48.5749E-03,   17.9388E-03,            0.,NA,NA,"",   1.03230E+06,   1.03566E+06,   1.03566E+06
C:/temp/Job-2.odb,Step-1,Increment      1: Step Time =    1.000,"P-2-1",          3188,   151.413E-03,   179.599E-03,            0.,NA,NA,"",   1.01045E+06,   1.00694E+06,   1.00694E+06
C:/temp/Job-2.odb,Step-1,Increment      1: Step Time =    1.000,"P-2-1",          3189,   19.8061E-03,   152.167E-03,            0.,NA,NA,"",   935.083E+03,   1.00786E+06,   1.00786E+06
C:/temp/Job-2.odb,Step-1,Increment      1: Step Time =    1.000,"P-2-1",          3190,   130.103E-03,   182.021E-03,            0.,NA,NA,"",   997.203E+03,   996.413E+03,   996.413E+03
C:/temp/Job-2.odb,Step-1,Increment      1: Step Time =    1.000,"P-2-1",          3191,   17.4719E-03,   130.387E-03,            0.,NA,NA,"",   854.035E+03,   939.650E+03,   939.650E+03
C:/temp/Job-2.odb,Step-1,Increment      1: Step Time =    1.000,"P-2-1",          3192,   182.130E-03,   69.7723E-03,            0.,NA,NA,"",   991.367E+03,   1.00102E+06,   1.00102E+06
C:/temp/Job-2.odb,Step-1,Increment      1: Step Time =    1.000,"P-2-1",          3193,   69.6726E-03,   17.5800E-03,            0.,NA,NA,"",   1.00240E+06,   1.00369E+06,   1.00369E+06
C:/temp/Job-2.odb,Step-1,Increment      1: Step Time =    1.000,"P-2-1",          3194,   69.5892E-03,   182.184E-03,            0.,NA,NA,"",   1.00404E+06,   1.00538E+06,   1.00538E+06
C:/temp/Job-2.odb,Step-1,Increment      1: Step Time =    1.000,"P-2-1",          3195,   17.2388E-03,   69.5068E-03,            0.,NA,NA,"",   855.008E+03,   940.540E+03,   940.540E+03
C:/temp/Job-2.odb,Step-1,Increment      1: Step Time =    1.000,"P-2-1",          3196,   182.736E-03,   130.123E-03,            0.,NA,NA,"",   990.842E+03,   1.00099E+06,   1.00099E+06
C:/temp/Job-2.odb,Step-1,Increment      1: Step Time =    1.000,"P-2-1",          3197,   130.457E-03,   17.5527E-03,            0.,NA,NA,"",   996.690E+03,   995.738E+03,   995.738E+03
C:/temp/Job-2.odb,Step-1,Increment      1: Step Time =    1.000,"P-2-1",          3198,   18.5554E-03,   95.7551E-03,            0.,NA,NA,"",   804.667E+03,   893.440E+03,   893.440E+03
C:/temp/Job-2.odb,Step-1,Increment      1: Step Time =    1.000,"P-2-1",          3199,   96.9404E-03,   18.3119E-03,            0.,NA,NA,"",   979.292E+03,   984.853E+03,   984.853E+03
C:/temp/Job-2.odb,Step-1,Increment      1: Step Time =    1.000,"P-2-1",          3200,   96.2471E-03,   181.237E-03,            0.,NA,NA,"",   980.517E+03,   986.241E+03,   986.241E+03
C:/temp/Job-2.odb,Step-1,Increment      1: Step Time =    1.000,"P-2-1",          3201,   182.940E-03,   97.2532E-03,            0.,NA,NA,"",   966.602E+03,   987.308E+03,   987.308E+03
C:/temp/Job-2.odb,Step-1,Increment      1: Step Time =    1.000,"P-2-1",          3202,   17.2527E-03,   102.518E-03,            0.,NA,NA,"",   801.774E+03,   891.784E+03,   891.784E+03
C:/temp/Job-2.odb,Step-1,Increment      1: Step Time =    1.000,"P-2-1",          3203,   103.993E-03,   18.8508E-03,            0.,NA,NA,"",   980.328E+03,   985.834E+03,   985.834E+03
C:/temp/Job-2.odb,Step-1,Increment      1: Step Time =    1.000,"P-2-1",          3204,   180.711E-03,   103.836E-03,            0.,NA,NA,"",   965.738E+03,   984.704E+03,   984.704E+03
C:/temp/Job-2.odb,Step-1,Increment      1: Step Time =    1.000,"P-2-1",          3205,   103.156E-03,   181.726E-03,            0.,NA,NA,"",   978.921E+03,   984.191E+03,   984.191E+03
C:/temp/Job-2.odb,Step-1,Increment      1: Step Time =    1.000,"P-2-1",          3206,   19.4472E-03,   160.269E-03,            0.,NA,NA,"",   964.897E+03,   1.03308E+06,   1.03308E+06
C:/temp/Job-2.odb,Step-1,Increment      1: Step Time =    1.000,"P-2-1",          3207,   160.672E-03,   180.421E-03,            0.,NA,NA,"",   1.00824E+06,   1.00557E+06,   1.00557E+06
C:/temp/Job-2.odb,Step-1,Increment      1: Step Time =    1.000,"P-2-1",          3208,   39.4153E-03,   19.3799E-03,            0.,NA,NA,"",   1.04773E+06,   1.05671E+06,   1.05671E+06
C:/temp/Job-2.odb,Step-1,Increment      1: Step Time =    1.000,"P-2-1",          3209,   180.553E-03,   39.7251E-03,            0.,NA,NA,"",   1.00746E+06,   1.00732E+06,   1.00732E+06
C:/temp/Job-2.odb,Step-1,Increment      1: Step Time =    1.000,"P-2-1",          3210,   173.120E-03,   18.8369E-03,            0.,NA,NA,"",   1.00439E+06,   1.00325E+06,   1.00325E+06
C:/temp/Job-2.odb,Step-1,Increment      1: Step Time =    1.000,"P-2-1",          3211,   17.4300E-03,   172.512E-03,            0.,NA,NA,"",   1.01736E+06,   1.07773E+06,   1.07773E+06
C:/temp/Job-2.odb,Step-1,Increment      1: Step Time =    1.000,"P-2-1",          3212,   181.350E-03,   173.142E-03,            0.,NA,NA,"",   1.00442E+06,   1.00388E+06,   1.00388E+06
C:/temp/Job-2.odb,Step-1,Increment      1: Step Time =    1.000,"P-2-1",          3213,   172.728E-03,   182.284E-03,            0.,NA,NA,"",   1.00389E+06,   1.00278E+06,   1.00278E+06
C:/temp/Job-2.odb,Step-1,Increment      1: Step Time =    1.000,"P-2-1",          3214,   18.8423E-03,   26.8845E-03,            0.,NA,NA,"",   1.02761E+06,   1.08250E+06,   1.08250E+06
C:/temp/Job-2.odb,Step-1,Increment      1: Step Time =    1.000,"P-2-1",          3215,   27.4670E-03,   17.4027E-03,            0.,NA,NA,"",   1.07033E+06,   1.08903E+06,   1.08903E+06
C:/temp/Job-2.odb,Step-1,Increment      1: Step Time =    1.000,"P-2-1",          3216,   26.8923E-03,   181.173E-03,            0.,NA,NA,"",   1.06966E+06,   1.09191E+06,   1.09191E+06
C:/temp/Job-2.odb,Step-1,Increment      1: Step Time =    1.000,"P-2-1",          3217,   182.574E-03,   27.4882E-03,            0.,NA,NA,"",   1.00393E+06,   1.00362E+06,   1.00362E+06
C:/temp/Job-2.odb,Step-1,Increment      1: Step Time =    1.000,"P-2-1",          3218,   99.2556E-03,   129.601E-03,            0.,NA,NA,"",   1.08515E+06,   1.17918E+06,   1.17918E+06
C:/temp/Job-2.odb,Step-1,Increment      1: Step Time =    1.000,"P-2-1",          3219,   17.6700E-03,   114.182E-03,            0.,NA,NA,"",   815.520E+03,   904.134E+03,   904.134E+03
C:/temp/Job-2.odb,Step-1,Increment      1: Step Time =    1.000,"P-2-1",          3220,   114.403E-03,   182.144E-03,            0.,NA,NA,"",   983.578E+03,   986.771E+03,   986.771E+03
C:/temp/Job-2.odb,Step-1,Increment      1: Step Time =    1.000,"P-2-1",          3221,   85.8498E-03,   17.4174E-03,            0.,NA,NA,"",   983.596E+03,   987.511E+03,   987.511E+03
C:/temp/Job-2.odb,Step-1,Increment      1: Step Time =    1.000,"P-2-1",          3222,   181.860E-03,   85.8446E-03,            0.,NA,NA,"",   973.390E+03,   990.447E+03,   990.447E+03
C:/temp/Job-2.odb,Step-1,Increment      1: Step Time =    1.000,"P-2-1",          3223,   117.377E-03,   83.5918E-03,            0.,NA,NA,"",   1.30742E+06,   1.19645E+06,   1.19645E+06
C:/temp/Job-2.odb,Step-1,Increment      1: Step Time =    1.000,"P-2-1",          3224,   148.507E-03,   20.2618E-03,            0.,NA,NA,"",   1.01015E+06,   1.00664E+06,   1.00664E+06
C:/temp/Job-2.odb,Step-1,Increment      1: Step Time =    1.000,"P-2-1",          3225,   179.269E-03,   149.759E-03,            0.,NA,NA,"",   1.00827E+06,   1.00907E+06,   1.00907E+06
C:/temp/Job-2.odb,Step-1,Increment      1: Step Time =    1.000,"P-2-1",          3226,   20.6875E-03,   50.1807E-03,            0.,NA,NA,"",   930.002E+03,   1.00250E+06,   1.00250E+06
C:/temp/Job-2.odb,Step-1,Increment      1: Step Time =    1.000,"P-2-1",          3227,   51.5137E-03,   179.519E-03,            0.,NA,NA,"",   1.03323E+06,   1.03671E+06,   1.03671E+06
C:/temp/Job-2.odb,Step-1,Increment      1: Step Time =    1.000,"P-2-1",          3228,   89.9549E-03,   73.5204E-03,            0.,NA,NA,"",   1.21048E+06,   1.25208E+06,   1.25208E+06
C:/temp/Job-2.odb,Step-1,Increment      1: Step Time =    1.000,"P-2-1",          3229,   109.174E-03,   126.820E-03,            0.,NA,NA,"",   1.19747E+06,   1.24516E+06,   1.24516E+06
C:/temp/Job-2.odb,Step-1,Increment      1: Step Time =    1.000,"P-2-1",          3230,   101.664E-03,   129.415E-03,            0.,NA,NA,"",   1.08881E+06,   1.18153E+06,   1.18153E+06
C:/temp/Job-2.odb,Step-1,Increment      1: Step Time =    1.000,"P-2-1",          3231,   73.8201E-03,   92.3412E-03,            0.,NA,NA,"",   766.026E+03,   747.856E+03,   747.856E+03
C:/temp/Job-2.odb,Step-1,Increment      1: Step Time =    1.000,"P-2-1",          3232,   71.8287E-03,   93.4716E-03,            0.,NA,NA,"",   718.463E+03,   723.189E+03,   723.189E+03
C:/temp/Job-2.odb,Step-1,Increment      1: Step Time =    1.000,"P-2-1",          3233,   16.0406E-03,   27.8677E-03,            0.,NA,NA,"",   1.01066E+06,   1.07534E+06,   1.07534E+06
C:/temp/Job-2.odb,Step-1,Increment      1: Step Time =    1.000,"P-2-1",          3234,   27.8723E-03,   183.971E-03,            0.,NA,NA,"",   1.07273E+06,   1.08836E+06,   1.08836E+06
C:/temp/Job-2.odb,Step-1,Increment      1: Step Time =    1.000,"P-2-1",          3235,   172.137E-03,   16.0371E-03,            0.,NA,NA,"",   1.00316E+06,   1.00217E+06,   1.00217E+06
C:/temp/Job-2.odb,Step-1,Increment      1: Step Time =    1.000,"P-2-1",          3236,   183.715E-03,   172.255E-03,            0.,NA,NA,"",   1.00345E+06,   1.00326E+06,   1.00326E+06
C:/temp/Job-2.odb,Step-1,Increment      1: Step Time =    1.000,"P-2-1",          3237,   35.7260E-03,   15.3485E-03,            0.,NA,NA,"",   1.05133E+06,   1.05927E+06,   1.05927E+06
C:/temp/Job-2.odb,Step-1,Increment      1: Step Time =    1.000,"P-2-1",          3238,   184.626E-03,   35.9027E-03,            0.,NA,NA,"",   1.00384E+06,   1.00439E+06,   1.00439E+06
C:/temp/Job-2.odb,Step-1,Increment      1: Step Time =    1.000,"P-2-1",          3239,   15.3753E-03,   164.096E-03,            0.,NA,NA,"",   964.533E+03,   1.03947E+06,   1.03947E+06
C:/temp/Job-2.odb,Step-1,Increment      1: Step Time =    1.000,"P-2-1",          3240,   164.262E-03,   184.549E-03,            0.,NA,NA,"",   1.00359E+06,   1.00206E+06,   1.00206E+06
C:/temp/Job-2.odb,Step-1,Increment      1: Step Time =    1.000,"P-2-1",          3241,   78.6038E-03,   83.0284E-03,            0.,NA,NA,"",   1.19409E+06,   1.11439E+06,   1.11439E+06
C:/temp/Job-2.odb,Step-1,Increment      1: Step Time =    1.000,"P-2-1",          3242,   121.575E-03,   116.854E-03,            0.,NA,NA,"",   1.22446E+06,   1.11988E+06,   1.11988E+06
C:/temp/Job-2.odb,Step-1,Increment      1: Step Time =    1.000,"P-2-1",          3243,   188.656E-03,   189.226E-03,            0.,NA,NA,"",   1.00007E+06,   1.00000E+06,   1.00000E+06
C:/temp/Job-2.odb,Step-1,Increment      1: Step Time =    1.000,"P-2-1",          3244,   11.3451E-03,   187.691E-03,            0.,NA,NA,"",   1.14138E+06,   1.18739E+06,   1.18739E+06
C:/temp/Job-2.odb,Step-1,Increment      1: Step Time =    1.000,"P-2-1",          3245,   188.662E-03,   12.2990E-03,            0.,NA,NA,"",   1.00020E+06,   1.00014E+06,   1.00014E+06
C:/temp/Job-2.odb,Step-1,Increment      1: Step Time =    1.000,"P-2-1",          3246,   12.3135E-03,   11.3500E-03,            0.,NA,NA,"",   1.15083E+06,   1.18905E+06,   1.18905E+06
C:/temp/Job-2.odb,Step-1,Increment      1: Step Time =    1.000,"P-2-1",          3247,   75.5577E-03,   83.3428E-03,            0.,NA,NA,"",   1.12463E+06,   1.05781E+06,   1.05781E+06
C:/temp/Job-2.odb,Step-1,Increment      1: Step Time =    1.000,"P-2-1",          3248,   126.527E-03,   115.445E-03,            0.,NA,NA,"",   1.09253E+06,   1.01088E+06,   1.01088E+06
C:/temp/Job-2.odb,Step-1,Increment      1: Step Time =    1.000,"P-2-1",          3249,   133.000E-03,   102.677E-03,            0.,NA,NA,"",   708.175E+03,   719.603E+03,   719.603E+03
C:/temp/Job-2.odb,Step-1,Increment      1: Step Time =    1.000,"P-2-1",          3250,   82.6553E-03,   128.743E-03,            0.,NA,NA,"",   1.20791E+06,   1.19922E+06,   1.19922E+06
C:/temp/Job-2.odb,Step-1,Increment      1: Step Time =    1.000,"P-2-1",          3251,   116.105E-03,   70.8202E-03,            0.,NA,NA,"",   1.21598E+06,   1.20393E+06,   1.20393E+06
C:/temp/Job-2.odb,Step-1,Increment      1: Step Time =    1.000,"P-2-1",          3252,   181.171E-03,   180.915E-03,            0.,NA,NA,"",   1.00237E+06,   1.00194E+06,   1.00194E+06
C:/temp/Job-2.odb,Step-1,Increment      1: Step Time =    1.000,"P-2-1",          3253,   112.732E-03,   70.7445E-03,            0.,NA,NA,"",   1.19612E+06,   1.21135E+06,   1.21135E+06
C:/temp/Job-2.odb,Step-1,Increment      1: Step Time =    1.000,"P-2-1",          3254,   89.2842E-03,   127.827E-03,            0.,NA,NA,"",   1.19447E+06,   1.23086E+06,   1.23086E+06
C:/temp/Job-2.odb,Step-1,Increment      1: Step Time =    1.000,"P-2-1",          3255,   121.512E-03,   122.748E-03,            0.,NA,NA,"",   1.25590E+06,   1.18393E+06,   1.18393E+06
C:/temp/Job-2.odb,Step-1,Increment      1: Step Time =    1.000,"P-2-1",          3256,   78.5049E-03,   77.2296E-03,            0.,NA,NA,"",   1.22383E+06,   1.17305E+06,   1.17305E+06
C:/temp/Job-2.odb,Step-1,Increment      1: Step Time =    1.000,"P-2-1",          3257,   56.1968E-03,   182.179E-03,            0.,NA,NA,"",   1.02139E+06,   1.02300E+06,   1.02300E+06
C:/temp/Job-2.odb,Step-1,Increment      1: Step Time =    1.000,"P-2-1",          3258,   53.7280E-03,   178.207E-03,            0.,NA,NA,"",   1.03372E+06,   1.03696E+06,   1.03696E+06
C:/temp/Job-2.odb,Step-1,Increment      1: Step Time =    1.000,"P-2-1",          3259,   179.512E-03,   148.040E-03,            0.,NA,NA,"",   1.00761E+06,   1.00884E+06,   1.00884E+06
C:/temp/Job-2.odb,Step-1,Increment      1: Step Time =    1.000,"P-2-1",          3260,   180.304E-03,   141.682E-03,            0.,NA,NA,"",   1.00324E+06,   1.00689E+06,   1.00689E+06
C:/temp/Job-2.odb,Step-1,Increment      1: Step Time =    1.000,"P-2-1",          3261,   19.7239E-03,   58.2909E-03,            0.,NA,NA,"",   898.157E+03,   976.465E+03,   976.465E+03
C:/temp/Job-2.odb,Step-1,Increment      1: Step Time =    1.000,"P-2-1",          3262,   20.4521E-03,   51.8962E-03,            0.,NA,NA,"",   923.743E+03,   997.344E+03,   997.344E+03
C:/temp/Job-2.odb,Step-1,Increment      1: Step Time =    1.000,"P-2-1",          3263,   146.261E-03,   21.4863E-03,            0.,NA,NA,"",   1.01255E+06,   1.00866E+06,   1.00866E+06
C:/temp/Job-2.odb,Step-1,Increment      1: Step Time =    1.000,"P-2-1",          3264,   143.784E-03,   17.7343E-03,            0.,NA,NA,"",   1.00450E+06,   1.00185E+06,   1.00185E+06
C:/temp/Job-2.odb,Step-1,Increment      1: Step Time =    1.000,"P-2-1",          3265,   181.598E-03,   78.5889E-03,            0.,NA,NA,"",   981.708E+03,   995.323E+03,   995.323E+03
C:/temp/Job-2.odb,Step-1,Increment      1: Step Time =    1.000,"P-2-1",          3266,   180.694E-03,   83.8914E-03,            0.,NA,NA,"",   975.381E+03,   990.737E+03,   990.737E+03
C:/temp/Job-2.odb,Step-1,Increment      1: Step Time =    1.000,"P-2-1",          3267,   121.330E-03,   181.907E-03,            0.,NA,NA,"",   989.919E+03,   991.257E+03,   991.257E+03
C:/temp/Job-2.odb,Step-1,Increment      1: Step Time =    1.000,"P-2-1",          3268,   116.309E-03,   181.125E-03,            0.,NA,NA,"",   987.565E+03,   990.478E+03,   990.478E+03
C:/temp/Job-2.odb,Step-1,Increment      1: Step Time =    1.000,"P-2-1",          3269,   82.6143E-03,   19.7472E-03,            0.,NA,NA,"",   993.055E+03,   997.411E+03,   997.411E+03
C:/temp/Job-2.odb,Step-1,Increment      1: Step Time =    1.000,"P-2-1",          3270,   78.3567E-03,   18.0372E-03,            0.,NA,NA,"",   993.677E+03,   996.464E+03,   996.464E+03
C:/temp/Job-2.odb,Step-1,Increment      1: Step Time =    1.000,"P-2-1",          3271,   17.9897E-03,   121.614E-03,            0.,NA,NA,"",   832.632E+03,   919.484E+03,   919.484E+03
C:/temp/Job-2.odb,Step-1,Increment      1: Step Time =    1.000,"P-2-1",          3272,   19.3991E-03,   117.563E-03,            0.,NA,NA,"",   826.072E+03,   912.271E+03,   912.271E+03
C:/temp/Job-2.odb,Step-1,Increment      1: Step Time =    1.000,"P-2-1",          3273,   181.532E-03,   25.0313E-03,            0.,NA,NA,"",   1.00390E+06,   1.00341E+06,   1.00341E+06
C:/temp/Job-2.odb,Step-1,Increment      1: Step Time =    1.000,"P-2-1",          3274,   175.181E-03,   181.046E-03,            0.,NA,NA,"",   1.00397E+06,   1.00298E+06,   1.00298E+06
C:/temp/Job-2.odb,Step-1,Increment      1: Step Time =    1.000,"P-2-1",          3275,   25.0207E-03,   18.4527E-03,            0.,NA,NA,"",   1.07309E+06,   1.09742E+06,   1.09742E+06
C:/temp/Job-2.odb,Step-1,Increment      1: Step Time =    1.000,"P-2-1",          3276,   18.4732E-03,   174.968E-03,            0.,NA,NA,"",   1.03605E+06,   1.08939E+06,   1.08939E+06
C:/temp/Job-2.odb,Step-1,Increment      1: Step Time =    1.000,"P-2-1",          3277,   46.6899E-03,   183.407E-03,            0.,NA,NA,"",   1.03171E+06,   1.03532E+06,   1.03532E+06
C:/temp/Job-2.odb,Step-1,Increment      1: Step Time =    1.000,"P-2-1",          3278,   40.9503E-03,   179.350E-03,            0.,NA,NA,"",   1.04633E+06,   1.05535E+06,   1.05535E+06
C:/temp/Job-2.odb,Step-1,Increment      1: Step Time =    1.000,"P-2-1",          3279,   183.266E-03,   152.839E-03,            0.,NA,NA,"",   1.00440E+06,   1.00636E+06,   1.00636E+06
C:/temp/Job-2.odb,Step-1,Increment      1: Step Time =    1.000,"P-2-1",          3280,   179.485E-03,   158.962E-03,            0.,NA,NA,"",   1.00878E+06,   1.00832E+06,   1.00832E+06
C:/temp/Job-2.odb,Step-1,Increment      1: Step Time =    1.000,"P-2-1",          3281,   16.7268E-03,   47.1403E-03,            0.,NA,NA,"",   924.977E+03,   1.00358E+06,   1.00358E+06
C:/temp/Job-2.odb,Step-1,Increment      1: Step Time =    1.000,"P-2-1",          3282,   20.6024E-03,   40.9951E-03,            0.,NA,NA,"",   964.418E+03,   1.03086E+06,   1.03086E+06
C:/temp/Job-2.odb,Step-1,Increment      1: Step Time =    1.000,"P-2-1",          3283,   159.043E-03,   20.6258E-03,            0.,NA,NA,"",   1.00986E+06,   1.00679E+06,   1.00679E+06
C:/temp/Job-2.odb,Step-1,Increment      1: Step Time =    1.000,"P-2-1",          3284,   153.309E-03,   16.5315E-03,            0.,NA,NA,"",   1.00463E+06,   1.00224E+06,   1.00224E+06
C:/temp/Job-2.odb,Step-1,Increment      1: Step Time =    1.000,"P-2-1",          3285,   105.049E-03,   178.873E-03,            0.,NA,NA,"",   985.588E+03,   992.030E+03,   992.030E+03
C:/temp/Job-2.odb,Step-1,Increment      1: Step Time =    1.000,"P-2-1",          3286,   110.482E-03,   180.964E-03,            0.,NA,NA,"",   983.613E+03,   988.101E+03,   988.101E+03
C:/temp/Job-2.odb,Step-1,Increment      1: Step Time =    1.000,"P-2-1",          3287,   179.812E-03,   94.9897E-03,            0.,NA,NA,"",   965.633E+03,   983.894E+03,   983.894E+03
C:/temp/Job-2.odb,Step-1,Increment      1: Step Time =    1.000,"P-2-1",          3288,   180.725E-03,   90.1714E-03,            0.,NA,NA,"",   969.236E+03,   986.976E+03,   986.976E+03
C:/temp/Job-2.odb,Step-1,Increment      1: Step Time =    1.000,"P-2-1",          3289,   95.2081E-03,   21.2690E-03,            0.,NA,NA,"",   986.472E+03,   993.523E+03,   993.523E+03
C:/temp/Job-2.odb,Step-1,Increment      1: Step Time =    1.000,"P-2-1",          3290,   89.4661E-03,   18.7613E-03,            0.,NA,NA,"",   984.232E+03,   989.339E+03,   989.339E+03
C:/temp/Job-2.odb,Step-1,Increment      1: Step Time =    1.000,"P-2-1",          3291,   20.9586E-03,   104.456E-03,            0.,NA,NA,"",   808.251E+03,   894.849E+03,   894.849E+03
C:/temp/Job-2.odb,Step-1,Increment      1: Step Time =    1.000,"P-2-1",          3292,   19.2053E-03,   110.437E-03,            0.,NA,NA,"",   812.409E+03,   899.981E+03,   899.981E+03
C:/temp/Job-2.odb,Step-1,Increment      1: Step Time =    1.000,"P-2-1",          3293,   80.5037E-03,   122.748E-03,            0.,NA,NA,"",   1.25084E+06,   1.20326E+06,   1.20326E+06
C:/temp/Job-2.odb,Step-1,Increment      1: Step Time =    1.000,"P-2-1",          3294,   179.840E-03,   62.1623E-03,            0.,NA,NA,"",   1.00101E+06,   1.00572E+06,   1.00572E+06
C:/temp/Job-2.odb,Step-1,Increment      1: Step Time =    1.000,"P-2-1",          3295,   137.524E-03,   179.423E-03,            0.,NA,NA,"",   1.00766E+06,   1.00499E+06,   1.00499E+06
C:/temp/Job-2.odb,Step-1,Increment      1: Step Time =    1.000,"P-2-1",          3296,   62.5427E-03,   20.6441E-03,            0.,NA,NA,"",   1.02049E+06,   1.02197E+06,   1.02197E+06
C:/temp/Job-2.odb,Step-1,Increment      1: Step Time =    1.000,"P-2-1",          3297,   20.1783E-03,   137.376E-03,            0.,NA,NA,"",   885.627E+03,   964.846E+03,   964.846E+03
C:/temp/Job-2.odb,Step-1,Increment      1: Step Time =    1.000,"P-2-1",          3298,   180.166E-03,   56.8751E-03,            0.,NA,NA,"",   1.00427E+06,   1.00736E+06,   1.00736E+06
C:/temp/Job-2.odb,Step-1,Increment      1: Step Time =    1.000,"P-2-1",          3299,   56.9890E-03,   20.8108E-03,            0.,NA,NA,"",   1.02775E+06,   1.02992E+06,   1.02992E+06
C:/temp/Job-2.odb,Step-1,Increment      1: Step Time =    1.000,"P-2-1",          3300,   142.736E-03,   178.760E-03,            0.,NA,NA,"",   1.01103E+06,   1.00752E+06,   1.00752E+06
C:/temp/Job-2.odb,Step-1,Increment      1: Step Time =    1.000,"P-2-1",          3301,   19.9884E-03,   142.885E-03,            0.,NA,NA,"",   903.103E+03,   980.326E+03,   980.326E+03
C:/temp/Job-2.odb,Step-1,Increment      1: Step Time =    1.000,"P-2-1",          3302,   79.8225E-03,   179.182E-03,            0.,NA,NA,"",   999.404E+03,   1.00328E+06,   1.00328E+06
C:/temp/Job-2.odb,Step-1,Increment      1: Step Time =    1.000,"P-2-1",          3303,   178.791E-03,   122.209E-03,            0.,NA,NA,"",   984.077E+03,   995.049E+03,   995.049E+03
C:/temp/Job-2.odb,Step-1,Increment      1: Step Time =    1.000,"P-2-1",          3304,   21.5847E-03,   78.5073E-03,            0.,NA,NA,"",   841.417E+03,   923.957E+03,   923.957E+03
C:/temp/Job-2.odb,Step-1,Increment      1: Step Time =    1.000,"P-2-1",          3305,   119.976E-03,   20.9273E-03,            0.,NA,NA,"",   995.456E+03,   997.626E+03,   997.626E+03
C:/temp/Job-2.odb,Step-1,Increment      1: Step Time =    1.000,"P-2-1",          3306,   148.698E-03,   179.525E-03,            0.,NA,NA,"",   1.01051E+06,   1.00695E+06,   1.00695E+06
C:/temp/Job-2.odb,Step-1,Increment      1: Step Time =    1.000,"P-2-1",          3307,   19.6423E-03,   148.724E-03,            0.,NA,NA,"",   922.501E+03,   997.403E+03,   997.403E+03
C:/temp/Job-2.odb,Step-1,Increment      1: Step Time =    1.000,"P-2-1",          3308,   180.421E-03,   51.1889E-03,            0.,NA,NA,"",   1.00656E+06,   1.00817E+06,   1.00817E+06
C:/temp/Job-2.odb,Step-1,Increment      1: Step Time =    1.000,"P-2-1",          3309,   50.7652E-03,   19.5984E-03,            0.,NA,NA,"",   1.03284E+06,   1.03620E+06,   1.03620E+06
C:/temp/Job-2.odb,Step-1,Increment      1: Step Time =    1.000,"P-2-1",          3310,   178.681E-03,   116.742E-03,            0.,NA,NA,"",   976.298E+03,   989.799E+03,   989.799E+03
C:/temp/Job-2.odb,Step-1,Increment      1: Step Time =    1.000,"P-2-1",          3311,   116.362E-03,   20.2442E-03,            0.,NA,NA,"",   990.805E+03,   994.032E+03,   994.032E+03
C:/temp/Job-2.odb,Step-1,Increment      1: Step Time =    1.000,"P-2-1",          3312,   83.0259E-03,   179.832E-03,            0.,NA,NA,"",   994.095E+03,   998.488E+03,   998.488E+03
C:/temp/Job-2.odb,Step-1,Increment      1: Step Time =    1.000,"P-2-1",          3313,   20.0223E-03,   83.6179E-03,            0.,NA,NA,"",   824.938E+03,   910.660E+03,   910.660E+03
C:/temp/Job-2.odb,Step-1,Increment      1: Step Time =    1.000,"P-2-1",          3314,   121.498E-03,   85.3156E-03,            0.,NA,NA,"",   1.18403E+06,   1.06886E+06,   1.06886E+06
C:/temp/Job-2.odb,Step-1,Increment      1: Step Time =    1.000,"P-2-1",          3315,   95.4275E-03,   73.9874E-03,            0.,NA,NA,"",   1.15898E+06,   1.25422E+06,   1.25422E+06
C:/temp/Job-2.odb,Step-1,Increment      1: Step Time =    1.000,"P-2-1",          3316,   88.1573E-03,   179.710E-03,            0.,NA,NA,"",   989.293E+03,   994.901E+03,   994.901E+03
C:/temp/Job-2.odb,Step-1,Increment      1: Step Time =    1.000,"P-2-1",          3317,   110.553E-03,   20.8669E-03,            0.,NA,NA,"",   987.830E+03,   993.022E+03,   993.022E+03
C:/temp/Job-2.odb,Step-1,Increment      1: Step Time =    1.000,"P-2-1",          3318,   178.885E-03,   110.815E-03,            0.,NA,NA,"",   969.284E+03,   985.312E+03,   985.312E+03
C:/temp/Job-2.odb,Step-1,Increment      1: Step Time =    1.000,"P-2-1",          3319,   20.1471E-03,   90.3413E-03,            0.,NA,NA,"",   812.625E+03,   899.490E+03,   899.490E+03
C:/temp/Job-2.odb,Step-1,Increment      1: Step Time =    1.000,"P-2-1",          3320,   178.525E-03,   45.4436E-03,            0.,NA,NA,"",   1.00993E+06,   1.00959E+06,   1.00959E+06
C:/temp/Job-2.odb,Step-1,Increment      1: Step Time =    1.000,"P-2-1",          3321,   46.9006E-03,   19.6295E-03,            0.,NA,NA,"",   1.03750E+06,   1.04232E+06,   1.04232E+06
C:/temp/Job-2.odb,Step-1,Increment      1: Step Time =    1.000,"P-2-1",          3322,   153.723E-03,   178.750E-03,            0.,NA,NA,"",   1.01153E+06,   1.00789E+06,   1.00789E+06
C:/temp/Job-2.odb,Step-1,Increment      1: Step Time =    1.000,"P-2-1",          3323,   21.4883E-03,   154.532E-03,            0.,NA,NA,"",   951.313E+03,   1.01897E+06,   1.01897E+06
C:/temp/Job-2.odb,Step-1,Increment      1: Step Time =    1.000,"P-2-1",          3324,   132.696E-03,   179.799E-03,            0.,NA,NA,"",   1.00407E+06,   1.00241E+06,   1.00241E+06
C:/temp/Job-2.odb,Step-1,Increment      1: Step Time =    1.000,"P-2-1",          3325,   128.107E-03,   182.770E-03,            0.,NA,NA,"",   993.503E+03,   993.203E+03,   993.203E+03
C:/temp/Job-2.odb,Step-1,Increment      1: Step Time =    1.000,"P-2-1",          3326,   19.3345E-03,   132.515E-03,            0.,NA,NA,"",   867.038E+03,   949.239E+03,   949.239E+03
C:/temp/Job-2.odb,Step-1,Increment      1: Step Time =    1.000,"P-2-1",          3327,   17.2136E-03,   128.478E-03,            0.,NA,NA,"",   848.398E+03,   934.744E+03,   934.744E+03
C:/temp/Job-2.odb,Step-1,Increment      1: Step Time =    1.000,"P-2-1",          3328,   180.014E-03,   67.1059E-03,            0.,NA,NA,"",   996.202E+03,   1.00307E+06,   1.00307E+06
C:/temp/Job-2.odb,Step-1,Increment      1: Step Time =    1.000,"P-2-1",          3329,   182.804E-03,   71.7933E-03,            0.,NA,NA,"",   988.471E+03,   999.768E+03,   999.768E+03
C:/temp/Job-2.odb,Step-1,Increment      1: Step Time =    1.000,"P-2-1",          3330,   67.6414E-03,   19.5462E-03,            0.,NA,NA,"",   1.01129E+06,   1.01281E+06,   1.01281E+06
C:/temp/Job-2.odb,Step-1,Increment      1: Step Time =    1.000,"P-2-1",          3331,   71.5635E-03,   17.2963E-03,            0.,NA,NA,"",   999.559E+03,   1.00098E+06,   1.00098E+06
C:/temp/Job-2.odb,Step-1,Increment      1: Step Time =    1.000,"P-2-1",          3332,   71.4234E-03,   179.475E-03,            0.,NA,NA,"",   1.00974E+06,   1.01189E+06,   1.01189E+06
C:/temp/Job-2.odb,Step-1,Increment      1: Step Time =    1.000,"P-2-1",          3333,   67.5406E-03,   182.545E-03,            0.,NA,NA,"",   1.00544E+06,   1.00657E+06,   1.00657E+06
C:/temp/Job-2.odb,Step-1,Increment      1: Step Time =    1.000,"P-2-1",          3334,   17.0386E-03,   67.5597E-03,            0.,NA,NA,"",   859.877E+03,   945.309E+03,   945.309E+03
C:/temp/Job-2.odb,Step-1,Increment      1: Step Time =    1.000,"P-2-1",          3335,   19.5608E-03,   70.9747E-03,            0.,NA,NA,"",   856.995E+03,   940.041E+03,   940.041E+03
C:/temp/Job-2.odb,Step-1,Increment      1: Step Time =    1.000,"P-2-1",          3336,   179.514E-03,   126.684E-03,            0.,NA,NA,"",   989.713E+03,   998.877E+03,   998.877E+03
C:/temp/Job-2.odb,Step-1,Increment      1: Step Time =    1.000,"P-2-1",          3337,   182.876E-03,   132.214E-03,            0.,NA,NA,"",   992.791E+03,   1.00202E+06,   1.00202E+06
C:/temp/Job-2.odb,Step-1,Increment      1: Step Time =    1.000,"P-2-1",          3338,   132.448E-03,   17.2534E-03,            0.,NA,NA,"",   997.338E+03,   996.066E+03,   996.066E+03
C:/temp/Job-2.odb,Step-1,Increment      1: Step Time =    1.000,"P-2-1",          3339,   128.657E-03,   20.1070E-03,            0.,NA,NA,"",   1.00112E+06,   1.00039E+06,   1.00039E+06
C:/temp/Job-2.odb,Step-1,Increment      1: Step Time =    1.000,"P-2-1",          3340,   115.698E-03,   129.339E-03,            0.,NA,NA,"",   1.21114E+06,   1.20400E+06,   1.20400E+06
C:/temp/Job-2.odb,Step-1,Increment      1: Step Time =    1.000,"P-2-1",          3341,   83.6305E-03,   72.0458E-03,            0.,NA,NA,"",   1.21799E+06,   1.21262E+06,   1.21262E+06
C:/temp/Job-2.odb,Step-1,Increment      1: Step Time =    1.000,"P-2-1",          3342,   128.457E-03,   90.2157E-03,            0.,NA,NA,"",   884.915E+03,   838.681E+03,   838.681E+03
C:/temp/Job-2.odb,Step-1,Increment      1: Step Time =    1.000,"P-2-1",          3343,   103.782E-03,   129.178E-03,            0.,NA,NA,"",   1.10352E+06,   1.19056E+06,   1.19056E+06
C:/temp/Job-2.odb,Step-1,Increment      1: Step Time =    1.000,"P-2-1",          3344,   20.3014E-03,   94.4187E-03,            0.,NA,NA,"",   808.246E+03,   895.302E+03,   895.302E+03
C:/temp/Job-2.odb,Step-1,Increment      1: Step Time =    1.000,"P-2-1",          3345,   99.0453E-03,   17.8121E-03,            0.,NA,NA,"",   977.808E+03,   983.010E+03,   983.010E+03
C:/temp/Job-2.odb,Step-1,Increment      1: Step Time =    1.000,"P-2-1",          3346,   93.3364E-03,   179.931E-03,            0.,NA,NA,"",   984.867E+03,   991.136E+03,   991.136E+03
C:/temp/Job-2.odb,Step-1,Increment      1: Step Time =    1.000,"P-2-1",          3347,   182.747E-03,   98.8429E-03,            0.,NA,NA,"",   966.349E+03,   986.947E+03,   986.947E+03
C:/temp/Job-2.odb,Step-1,Increment      1: Step Time =    1.000,"P-2-1",          3348,   17.2861E-03,   100.831E-03,            0.,NA,NA,"",   801.604E+03,   891.562E+03,   891.562E+03
C:/temp/Job-2.odb,Step-1,Increment      1: Step Time =    1.000,"P-2-1",          3349,   107.185E-03,   19.9778E-03,            0.,NA,NA,"",   984.045E+03,   989.596E+03,   989.596E+03
C:/temp/Job-2.odb,Step-1,Increment      1: Step Time =    1.000,"P-2-1",          3350,   178.449E-03,   104.940E-03,            0.,NA,NA,"",   964.266E+03,   981.570E+03,   981.570E+03
C:/temp/Job-2.odb,Step-1,Increment      1: Step Time =    1.000,"P-2-1",          3351,   101.047E-03,   182.241E-03,            0.,NA,NA,"",   977.597E+03,   982.726E+03,   982.726E+03
C:/temp/Job-2.odb,Step-1,Increment      1: Step Time =    1.000,"P-2-1",          3352,   17.5189E-03,   162.255E-03,            0.,NA,NA,"",   965.227E+03,   1.03652E+06,   1.03652E+06
C:/temp/Job-2.odb,Step-1,Increment      1: Step Time =    1.000,"P-2-1",          3353,   163.547E-03,   16.8156E-03,            0.,NA,NA,"",   1.00493E+06,   1.00311E+06,   1.00311E+06
C:/temp/Job-2.odb,Step-1,Increment      1: Step Time =    1.000,"P-2-1",          3354,   21.2175E-03,   158.254E-03,            0.,NA,NA,"",   964.043E+03,   1.02959E+06,   1.02959E+06
C:/temp/Job-2.odb,Step-1,Increment      1: Step Time =    1.000,"P-2-1",          3355,   162.503E-03,   182.381E-03,            0.,NA,NA,"",   1.00577E+06,   1.00370E+06,   1.00370E+06
C:/temp/Job-2.odb,Step-1,Increment      1: Step Time =    1.000,"P-2-1",          3356,   158.905E-03,   178.570E-03,            0.,NA,NA,"",   1.01103E+06,   1.00772E+06,   1.00772E+06
C:/temp/Job-2.odb,Step-1,Increment      1: Step Time =    1.000,"P-2-1",          3357,   183.249E-03,   163.465E-03,            0.,NA,NA,"",   1.00493E+06,   1.00519E+06,   1.00519E+06
C:/temp/Job-2.odb,Step-1,Increment      1: Step Time =    1.000,"P-2-1",          3358,   41.3516E-03,   21.1345E-03,            0.,NA,NA,"",   1.04633E+06,   1.05549E+06,   1.05549E+06
C:/temp/Job-2.odb,Step-1,Increment      1: Step Time =    1.000,"P-2-1",          3359,   37.4895E-03,   17.4653E-03,            0.,NA,NA,"",   1.04955E+06,   1.05817E+06,   1.05817E+06
C:/temp/Job-2.odb,Step-1,Increment      1: Step Time =    1.000,"P-2-1",          3360,   16.7784E-03,   36.5048E-03,            0.,NA,NA,"",   967.514E+03,   1.03961E+06,   1.03961E+06
C:/temp/Job-2.odb,Step-1,Increment      1: Step Time =    1.000,"P-2-1",          3361,   182.483E-03,   37.7418E-03,            0.,NA,NA,"",   1.00552E+06,   1.00578E+06,   1.00578E+06
C:/temp/Job-2.odb,Step-1,Increment      1: Step Time =    1.000,"P-2-1",          3362,   36.4578E-03,   183.186E-03,            0.,NA,NA,"",   1.05103E+06,   1.05982E+06,   1.05982E+06
C:/temp/Job-2.odb,Step-1,Increment      1: Step Time =    1.000,"P-2-1",          3363,   178.784E-03,   41.7360E-03,            0.,NA,NA,"",   1.00958E+06,   1.00895E+06,   1.00895E+06
C:/temp/Job-2.odb,Step-1,Increment      1: Step Time =    1.000,"P-2-1",          3364,   176.092E-03,   19.9350E-03,            0.,NA,NA,"",   1.00410E+06,   1.00316E+06,   1.00316E+06
C:/temp/Job-2.odb,Step-1,Increment      1: Step Time =    1.000,"P-2-1",          3365,   171.263E-03,   17.3550E-03,            0.,NA,NA,"",   1.00400E+06,   1.00282E+06,   1.00282E+06
C:/temp/Job-2.odb,Step-1,Increment      1: Step Time =    1.000,"P-2-1",          3366,   16.1835E-03,   170.160E-03,            0.,NA,NA,"",   999.452E+03,   1.06643E+06,   1.06643E+06
C:/temp/Job-2.odb,Step-1,Increment      1: Step Time =    1.000,"P-2-1",          3367,   178.834E-03,   176.753E-03,            0.,NA,NA,"",   1.00462E+06,   1.00378E+06,   1.00378E+06
C:/temp/Job-2.odb,Step-1,Increment      1: Step Time =    1.000,"P-2-1",          3368,   182.431E-03,   171.404E-03,            0.,NA,NA,"",   1.00428E+06,   1.00392E+06,   1.00392E+06
C:/temp/Job-2.odb,Step-1,Increment      1: Step Time =    1.000,"P-2-1",          3369,   170.373E-03,   183.654E-03,            0.,NA,NA,"",   1.00349E+06,   1.00234E+06,   1.00234E+06
C:/temp/Job-2.odb,Step-1,Increment      1: Step Time =    1.000,"P-2-1",          3370,   19.9403E-03,   23.9090E-03,            0.,NA,NA,"",   1.04630E+06,   1.09349E+06,   1.09349E+06
C:/temp/Job-2.odb,Step-1,Increment      1: Step Time =    1.000,"P-2-1",          3371,   17.3549E-03,   28.7437E-03,            0.,NA,NA,"",   1.01143E+06,   1.07350E+06,   1.07350E+06
C:/temp/Job-2.odb,Step-1,Increment      1: Step Time =    1.000,"P-2-1",          3372,   29.7937E-03,   16.1500E-03,            0.,NA,NA,"",   1.06662E+06,   1.08052E+06,   1.08052E+06
C:/temp/Job-2.odb,Step-1,Increment      1: Step Time =    1.000,"P-2-1",          3373,   23.9181E-03,   180.072E-03,            0.,NA,NA,"",   1.07002E+06,   1.09952E+06,   1.09952E+06
C:/temp/Job-2.odb,Step-1,Increment      1: Step Time =    1.000,"P-2-1",          3374,   28.7475E-03,   182.654E-03,            0.,NA,NA,"",   1.06970E+06,   1.08664E+06,   1.08664E+06
C:/temp/Job-2.odb,Step-1,Increment      1: Step Time =    1.000,"P-2-1",          3375,   183.820E-03,   29.8400E-03,            0.,NA,NA,"",   1.00367E+06,   1.00362E+06,   1.00362E+06
C:/temp/Job-2.odb,Step-1,Increment      1: Step Time =    1.000,"P-2-1",          3376,   120.138E-03,   82.2445E-03,            0.,NA,NA,"",   1.26223E+06,   1.15990E+06,   1.15990E+06
C:/temp/Job-2.odb,Step-1,Increment      1: Step Time =    1.000,"P-2-1",          3377,   88.5842E-03,   71.3088E-03,            0.,NA,NA,"",   1.18409E+06,   1.21690E+06,   1.21690E+06
C:/temp/Job-2.odb,Step-1,Increment      1: Step Time =    1.000,"P-2-1",          3378,   106.133E-03,   127.424E-03,            0.,NA,NA,"",   1.14928E+06,   1.22794E+06,   1.22794E+06
C:/temp/Job-2.odb,Step-1,Increment      1: Step Time =    1.000,"P-2-1",          3379,   111.228E-03,   128.186E-03,            0.,NA,NA,"",   1.19915E+06,   1.22703E+06,   1.22703E+06
C:/temp/Job-2.odb,Step-1,Increment      1: Step Time =    1.000,"P-2-1",          3380,   131.628E-03,   95.0630E-03,            0.,NA,NA,"",   728.826E+03,   729.914E+03,   729.914E+03
C:/temp/Job-2.odb,Step-1,Increment      1: Step Time =    1.000,"P-2-1",          3381,   100.244E-03,   70.7543E-03,            0.,NA,NA,"",   1.08820E+06,   1.18428E+06,   1.18428E+06
C:/temp/Job-2.odb,Step-1,Increment      1: Step Time =    1.000,"P-2-1",          3382,   67.1338E-03,   101.714E-03,            0.,NA,NA,"",   651.137E+03,   692.832E+03,   692.832E+03
C:/temp/Job-2.odb,Step-1,Increment      1: Step Time =    1.000,"P-2-1",          3383,   105.521E-03,   69.6177E-03,            0.,NA,NA,"",   1.10676E+06,   1.18127E+06,   1.18127E+06
C:/temp/Job-2.odb,Step-1,Increment      1: Step Time =    1.000,"P-2-1",          3384,   93.9105E-03,   130.377E-03,            0.,NA,NA,"",   1.11365E+06,   1.18673E+06,   1.18673E+06
C:/temp/Job-2.odb,Step-1,Increment      1: Step Time =    1.000,"P-2-1",          3385,   70.4998E-03,   113.044E-03,            0.,NA,NA,"",   935.905E+03,   912.176E+03,   912.176E+03
C:/temp/Job-2.odb,Step-1,Increment      1: Step Time =    1.000,"P-2-1",          3386,   74.1812E-03,   85.9966E-03,            0.,NA,NA,"",   1.02362E+06,   968.184E+03,   968.184E+03
C:/temp/Job-2.odb,Step-1,Increment      1: Step Time =    1.000,"P-2-1",          3387,   127.129E-03,   107.307E-03,            0.,NA,NA,"",   794.729E+03,   756.610E+03,   756.610E+03
C:/temp/Job-2.odb,Step-1,Increment      1: Step Time =    1.000,"P-2-1",          3388,   71.0204E-03,   116.567E-03,            0.,NA,NA,"",   1.02968E+06,   993.481E+03,   993.481E+03
C:/temp/Job-2.odb,Step-1,Increment      1: Step Time =    1.000,"P-2-1",          3389,   67.5694E-03,   95.7729E-03,            0.,NA,NA,"",   683.102E+03,   717.413E+03,   717.413E+03
C:/temp/Job-2.odb,Step-1,Increment      1: Step Time =    1.000,"P-2-1",          3390,   73.3600E-03,   118.253E-03,            0.,NA,NA,"",   1.10105E+06,   1.04970E+06,   1.04970E+06
C:/temp/Job-2.odb,Step-1,Increment      1: Step Time =    1.000,"P-2-1",          3391,   69.6497E-03,   103.520E-03,            0.,NA,NA,"",   638.494E+03,   670.923E+03,   670.923E+03
C:/temp/Job-2.odb,Step-1,Increment      1: Step Time =    1.000,"P-2-1",          3392,   125.604E-03,   111.188E-03,            0.,NA,NA,"",   963.398E+03,   888.156E+03,   888.156E+03
C:/temp/Job-2.odb,Step-1,Increment      1: Step Time =    1.000,"P-2-1",          3393,   116.694E-03,   67.7102E-03,            0.,NA,NA,"",   1.18172E+06,   1.17557E+06,   1.17557E+06
C:/temp/Job-2.odb,Step-1,Increment      1: Step Time =    1.000,"P-2-1",          3394,   84.9547E-03,   129.642E-03,            0.,NA,NA,"",   1.19353E+06,   1.20171E+06,   1.20171E+06
C:/temp/Job-2.odb,Step-1,Increment      1: Step Time =    1.000,"P-2-1",          3395,   77.4859E-03,   124.450E-03,            0.,NA,NA,"",   1.20935E+06,   1.16625E+06,   1.16625E+06
C:/temp/Job-2.odb,Step-1,Increment      1: Step Time =    1.000,"P-2-1",          3396,   84.3848E-03,   69.7629E-03,            0.,NA,NA,"",   1.18788E+06,   1.19523E+06,   1.19523E+06
C:/temp/Job-2.odb,Step-1,Increment      1: Step Time =    1.000,"P-2-1",          3397,   115.271E-03,   131.854E-03,            0.,NA,NA,"",   1.17814E+06,   1.18133E+06,   1.18133E+06
C:/temp/Job-2.odb,Step-1,Increment      1: Step Time =    1.000,"P-2-1",          3398,   104.017E-03,   126.691E-03,            0.,NA,NA,"",   1.13941E+06,   1.23487E+06,   1.23487E+06
C:/temp/Job-2.odb,Step-1,Increment      1: Step Time =    1.000,"P-2-1",          3399,   126.768E-03,   86.4448E-03,            0.,NA,NA,"",   1.04016E+06,   961.838E+03,   961.838E+03
C:/temp/Job-2.odb,Step-1,Increment      1: Step Time =    1.000,"P-2-1",          3400,   132.528E-03,   89.2763E-03,            0.,NA,NA,"",   897.805E+03,   868.170E+03,   868.170E+03
C:/temp/Job-2.odb,Step-1,Increment      1: Step Time =    1.000,"P-2-1",          3401,   122.225E-03,   82.8474E-03,            0.,NA,NA,"",   1.21369E+06,   1.11340E+06,   1.11340E+06
C:/temp/Job-2.odb,Step-1,Increment      1: Step Time =    1.000,"P-2-1",          3402,   126.156E-03,   113.179E-03,            0.,NA,NA,"",   1.03421E+06,   954.025E+03,   954.025E+03
C:/temp/Job-2.odb,Step-1,Increment      1: Step Time =    1.000,"P-2-1",          3403,   132.618E-03,   99.6280E-03,            0.,NA,NA,"",   676.475E+03,   693.083E+03,   693.083E+03
C:/temp/Job-2.odb,Step-1,Increment      1: Step Time =    1.000,"P-2-1",          3404,   132.713E-03,   105.164E-03,            0.,NA,NA,"",   748.722E+03,   750.039E+03,   750.039E+03
C:/temp/Job-2.odb,Step-1,Increment      1: Step Time =    1.000,"P-2-1",          3405,   80.6792E-03,   127.886E-03,            0.,NA,NA,"",   1.21203E+06,   1.19143E+06,   1.19143E+06
C:/temp/Job-2.odb,Step-1,Increment      1: Step Time =    1.000,"P-2-1",          3406,   117.540E-03,   72.4412E-03,            0.,NA,NA,"",   1.23804E+06,   1.20968E+06,   1.20968E+06
C:/temp/Job-2.odb,Step-1,Increment      1: Step Time =    1.000,"P-2-1",          3407,   122.580E-03,   120.319E-03,            0.,NA,NA,"",   1.23680E+06,   1.15170E+06,   1.15170E+06
C:/temp/Job-2.odb,Step-1,Increment      1: Step Time =    1.000,"P-2-1",          3408,   56.8947E-03,   178.775E-03,            0.,NA,NA,"",   1.02933E+06,   1.03169E+06,   1.03169E+06
C:/temp/Job-2.odb,Step-1,Increment      1: Step Time =    1.000,"P-2-1",          3409,   179.024E-03,   143.697E-03,            0.,NA,NA,"",   1.00621E+06,   1.00833E+06,   1.00833E+06
C:/temp/Job-2.odb,Step-1,Increment      1: Step Time =    1.000,"P-2-1",          3410,   20.9751E-03,   56.2429E-03,            0.,NA,NA,"",   910.440E+03,   985.477E+03,   985.477E+03
C:/temp/Job-2.odb,Step-1,Increment      1: Step Time =    1.000,"P-2-1",          3411,   142.971E-03,   21.1250E-03,            0.,NA,NA,"",   1.01135E+06,   1.00776E+06,   1.00776E+06
C:/temp/Job-2.odb,Step-1,Increment      1: Step Time =    1.000,"P-2-1",          3412,   178.900E-03,   79.2455E-03,            0.,NA,NA,"",   981.630E+03,   993.431E+03,   993.431E+03
C:/temp/Job-2.odb,Step-1,Increment      1: Step Time =    1.000,"P-2-1",          3413,   120.564E-03,   179.373E-03,            0.,NA,NA,"",   995.296E+03,   997.273E+03,   997.273E+03
C:/temp/Job-2.odb,Step-1,Increment      1: Step Time =    1.000,"P-2-1",          3414,   77.1274E-03,   20.9509E-03,            0.,NA,NA,"",   1.00314E+06,   1.00652E+06,   1.00652E+06
C:/temp/Job-2.odb,Step-1,Increment      1: Step Time =    1.000,"P-2-1",          3415,   20.8589E-03,   122.873E-03,            0.,NA,NA,"",   842.519E+03,   925.778E+03,   925.778E+03
C:/temp/Job-2.odb,Step-1,Increment      1: Step Time =    1.000,"P-2-1",          3416,   45.5423E-03,   180.874E-03,            0.,NA,NA,"",   1.03860E+06,   1.04391E+06,   1.04391E+06
C:/temp/Job-2.odb,Step-1,Increment      1: Step Time =    1.000,"P-2-1",          3417,   180.852E-03,   154.364E-03,            0.,NA,NA,"",   1.00739E+06,   1.00799E+06,   1.00799E+06
C:/temp/Job-2.odb,Step-1,Increment      1: Step Time =    1.000,"P-2-1",          3418,   19.1562E-03,   45.6093E-03,            0.,NA,NA,"",   941.153E+03,   1.01380E+06,   1.01380E+06
C:/temp/Job-2.odb,Step-1,Increment      1: Step Time =    1.000,"P-2-1",          3419,   154.450E-03,   19.0423E-03,            0.,NA,NA,"",   1.00842E+06,   1.00541E+06,   1.00541E+06
C:/temp/Job-2.odb,Step-1,Increment      1: Step Time =    1.000,"P-2-1",          3420,   112.209E-03,   179.131E-03,            0.,NA,NA,"",   988.761E+03,   993.558E+03,   993.558E+03
C:/temp/Job-2.odb,Step-1,Increment      1: Step Time =    1.000,"P-2-1",          3421,   87.6377E-03,   20.0862E-03,            0.,NA,NA,"",   989.205E+03,   994.636E+03,   994.636E+03
C:/temp/Job-2.odb,Step-1,Increment      1: Step Time =    1.000,"P-2-1",          3422,   22.2699E-03,   111.430E-03,            0.,NA,NA,"",   819.426E+03,   903.772E+03,   903.772E+03
C:/temp/Job-2.odb,Step-1,Increment      1: Step Time =    1.000,"P-2-1",          3423,   118.643E-03,   128.187E-03,            0.,NA,NA,"",   1.22880E+06,   1.19716E+06,   1.19716E+06
C:/temp/Job-2.odb,Step-1,Increment      1: Step Time =    1.000,"P-2-1",          3424,   80.4471E-03,   73.1493E-03,            0.,NA,NA,"",   1.22160E+06,   1.19487E+06,   1.19487E+06
C:/temp/Job-2.odb,Step-1,Increment      1: Step Time =    1.000,"P-2-1",          3425,   72.5989E-03,   89.9144E-03,            0.,NA,NA,"",   861.406E+03,   836.188E+03,   836.188E+03
C:/temp/Job-2.odb,Step-1,Increment      1: Step Time =    1.000,"P-2-1",          3426,   21.3570E-03,   162.095E-03,            0.,NA,NA,"",   980.439E+03,   1.04236E+06,   1.04236E+06
C:/temp/Job-2.odb,Step-1,Increment      1: Step Time =    1.000,"P-2-1",          3427,   162.366E-03,   178.617E-03,            0.,NA,NA,"",   1.00993E+06,   1.00702E+06,   1.00702E+06
C:/temp/Job-2.odb,Step-1,Increment      1: Step Time =    1.000,"P-2-1",          3428,   37.7318E-03,   21.2512E-03,            0.,NA,NA,"",   1.05045E+06,   1.06276E+06,   1.06276E+06
C:/temp/Job-2.odb,Step-1,Increment      1: Step Time =    1.000,"P-2-1",          3429,   178.647E-03,   37.8976E-03,            0.,NA,NA,"",   1.00915E+06,   1.00823E+06,   1.00823E+06
C:/temp/Job-2.odb,Step-1,Increment      1: Step Time =    1.000,"P-2-1",          3430,   171.495E-03,   20.0948E-03,            0.,NA,NA,"",   1.00560E+06,   1.00415E+06,   1.00415E+06
C:/temp/Job-2.odb,Step-1,Increment      1: Step Time =    1.000,"P-2-1",          3431,   179.274E-03,   172.114E-03,            0.,NA,NA,"",   1.00581E+06,   1.00493E+06,   1.00493E+06
C:/temp/Job-2.odb,Step-1,Increment      1: Step Time =    1.000,"P-2-1",          3432,   20.0961E-03,   28.5147E-03,            0.,NA,NA,"",   1.02263E+06,   1.07612E+06,   1.07612E+06
C:/temp/Job-2.odb,Step-1,Increment      1: Step Time =    1.000,"P-2-1",          3433,   28.5193E-03,   179.914E-03,            0.,NA,NA,"",   1.06296E+06,   1.08552E+06,   1.08552E+06
C:/temp/Job-2.odb,Step-1,Increment      1: Step Time =    1.000,"P-2-1",          3434,   120.599E-03,   79.5432E-03,            0.,NA,NA,"",   1.26338E+06,   1.17879E+06,   1.17879E+06
C:/temp/Job-2.odb,Step-1,Increment      1: Step Time =    1.000,"P-2-1",          3435,   66.1674E-03,   99.0162E-03,            0.,NA,NA,"",   660.966E+03,   704.858E+03,   704.858E+03
C:/temp/Job-2.odb,Step-1,Increment      1: Step Time =    1.000,"P-2-1",          3436,   119.018E-03,   77.3389E-03,            0.,NA,NA,"",   1.27982E+06,   1.21446E+06,   1.21446E+06
C:/temp/Job-2.odb,Step-1,Increment      1: Step Time =    1.000,"P-2-1",          3437,   189.861E-03,   9.49475E-03,            0.,NA,NA,"",   999.999E+03,   999.952E+03,   999.952E+03
C:/temp/Job-2.odb,Step-1,Increment      1: Step Time =    1.000,"P-2-1",          3438,   190.943E-03,   190.040E-03,            0.,NA,NA,"",   1.00001E+06,   999.943E+03,   999.943E+03
C:/temp/Job-2.odb,Step-1,Increment      1: Step Time =    1.000,"P-2-1",          3439,   9.50475E-03,   10.1479E-03,            0.,NA,NA,"",   1.17665E+06,   1.22204E+06,   1.22204E+06
C:/temp/Job-2.odb,Step-1,Increment      1: Step Time =    1.000,"P-2-1",          3440,   10.1442E-03,   190.500E-03,            0.,NA,NA,"",   1.18397E+06,   1.22392E+06,   1.22392E+06
C:/temp/Job-2.odb,Step-1,Increment      1: Step Time =    1.000,"P-2-1",          3441,   19.1770E-03,   113.304E-03,            0.,NA,NA,"",   816.941E+03,   904.140E+03,   904.140E+03
C:/temp/Job-2.odb,Step-1,Increment      1: Step Time =    1.000,"P-2-1",          3442,   113.395E-03,   180.564E-03,            0.,NA,NA,"",   986.495E+03,   990.469E+03,   990.469E+03
C:/temp/Job-2.odb,Step-1,Increment      1: Step Time =    1.000,"P-2-1",          3443,   86.7693E-03,   18.7410E-03,            0.,NA,NA,"",   986.563E+03,   991.228E+03,   991.228E+03
C:/temp/Job-2.odb,Step-1,Increment      1: Step Time =    1.000,"P-2-1",          3444,   71.3852E-03,   87.4070E-03,            0.,NA,NA,"",   933.439E+03,   905.649E+03,   905.649E+03
C:/temp/Job-2.odb,Step-1,Increment      1: Step Time =    1.000,"P-2-1",          3445,   150.797E-03,   18.6071E-03,            0.,NA,NA,"",   1.00757E+06,   1.00456E+06,   1.00456E+06
C:/temp/Job-2.odb,Step-1,Increment      1: Step Time =    1.000,"P-2-1",          3446,   180.872E-03,   150.976E-03,            0.,NA,NA,"",   1.00671E+06,   1.00801E+06,   1.00801E+06
C:/temp/Job-2.odb,Step-1,Increment      1: Step Time =    1.000,"P-2-1",          3447,   19.0998E-03,   48.9848E-03,            0.,NA,NA,"",   927.964E+03,   1.00280E+06,   1.00280E+06
C:/temp/Job-2.odb,Step-1,Increment      1: Step Time =    1.000,"P-2-1",          3448,   49.2124E-03,   181.256E-03,            0.,NA,NA,"",   1.03256E+06,   1.03616E+06,   1.03616E+06
C:/temp/Job-2.odb,Step-1,Increment      1: Step Time =    1.000,"P-2-1",          3449,   180.330E-03,   71.2545E-03,            0.,NA,NA,"",   991.229E+03,   1.00017E+06,   1.00017E+06
C:/temp/Job-2.odb,Step-1,Increment      1: Step Time =    1.000,"P-2-1",          3450,   128.523E-03,   180.247E-03,            0.,NA,NA,"",   1.00027E+06,   999.767E+03,   999.767E+03
C:/temp/Job-2.odb,Step-1,Increment      1: Step Time =    1.000,"P-2-1",          3451,   133.070E-03,   19.9930E-03,            0.,NA,NA,"",   1.00380E+06,   1.00205E+06,   1.00205E+06
C:/temp/Job-2.odb,Step-1,Increment      1: Step Time =    1.000,"P-2-1",          3452,   19.7993E-03,   67.0139E-03,            0.,NA,NA,"",   870.134E+03,   951.551E+03,   951.551E+03
C:/temp/Job-2.odb,Step-1,Increment      1: Step Time =    1.000,"P-2-1",          3453,   180.082E-03,   132.810E-03,            0.,NA,NA,"",   996.236E+03,   1.00313E+06,   1.00313E+06
C:/temp/Job-2.odb,Step-1,Increment      1: Step Time =    1.000,"P-2-1",          3454,   66.7959E-03,   179.766E-03,            0.,NA,NA,"",   1.01424E+06,   1.01577E+06,   1.01577E+06
C:/temp/Job-2.odb,Step-1,Increment      1: Step Time =    1.000,"P-2-1",          3455,   73.8588E-03,   120.643E-03,            0.,NA,NA,"",   1.14295E+06,   1.09211E+06,   1.09211E+06
C:/temp/Job-2.odb,Step-1,Increment      1: Step Time =    1.000,"P-2-1",          3456,   17.3666E-03,   98.7723E-03,            0.,NA,NA,"",   801.543E+03,   891.588E+03,   891.588E+03
C:/temp/Job-2.odb,Step-1,Increment      1: Step Time =    1.000,"P-2-1",          3457,   98.9934E-03,   182.592E-03,            0.,NA,NA,"",   976.562E+03,   981.535E+03,   981.535E+03
C:/temp/Job-2.odb,Step-1,Increment      1: Step Time =    1.000,"P-2-1",          3458,   33.5926E-03,   17.1032E-03,            0.,NA,NA,"",   1.05710E+06,   1.06866E+06,   1.06866E+06
C:/temp/Job-2.odb,Step-1,Increment      1: Step Time =    1.000,"P-2-1",          3459,   182.848E-03,   33.7151E-03,            0.,NA,NA,"",   1.00492E+06,   1.00489E+06,   1.00489E+06
C:/temp/Job-2.odb,Step-1,Increment      1: Step Time =    1.000,"P-2-1",          3460,   17.1563E-03,   166.284E-03,            0.,NA,NA,"",   982.756E+03,   1.05115E+06,   1.05115E+06
C:/temp/Job-2.odb,Step-1,Increment      1: Step Time =    1.000,"P-2-1",          3461,   166.458E-03,   182.759E-03,            0.,NA,NA,"",   1.00490E+06,   1.00324E+06,   1.00324E+06
C:/temp/Job-2.odb,Step-1,Increment      1: Step Time =    1.000,"P-2-1",          3462,   17.3705E-03,   31.5560E-03,            0.,NA,NA,"",   995.468E+03,   1.06075E+06,   1.06075E+06
C:/temp/Job-2.odb,Step-1,Increment      1: Step Time =    1.000,"P-2-1",          3463,   31.5527E-03,   182.623E-03,            0.,NA,NA,"",   1.06248E+06,   1.07648E+06,   1.07648E+06
C:/temp/Job-2.odb,Step-1,Increment      1: Step Time =    1.000,"P-2-1",          3464,   168.457E-03,   17.3836E-03,            0.,NA,NA,"",   1.00472E+06,   1.00325E+06,   1.00325E+06
C:/temp/Job-2.odb,Step-1,Increment      1: Step Time =    1.000,"P-2-1",          3465,   182.349E-03,   168.555E-03,            0.,NA,NA,"",   1.00497E+06,   1.00466E+06,   1.00466E+06
C:/temp/Job-2.odb,Step-1,Increment      1: Step Time =    1.000,"P-2-1",          3466,   95.5737E-03,   71.0463E-03,            0.,NA,NA,"",   1.11111E+06,   1.19834E+06,   1.19834E+06
C:/temp/Job-2.odb,Step-1,Increment      1: Step Time =    1.000,"P-2-1",          3467,   99.5638E-03,   20.3698E-03,            0.,NA,NA,"",   983.509E+03,   990.138E+03,   990.138E+03
C:/temp/Job-2.odb,Step-1,Increment      1: Step Time =    1.000,"P-2-1",          3468,   20.1351E-03,   98.3064E-03,            0.,NA,NA,"",   805.870E+03,   893.298E+03,   893.298E+03
C:/temp/Job-2.odb,Step-1,Increment      1: Step Time =    1.000,"P-2-1",          3469,   19.6145E-03,   101.144E-03,            0.,NA,NA,"",   805.047E+03,   892.934E+03,   892.934E+03
C:/temp/Job-2.odb,Step-1,Increment      1: Step Time =    1.000,"P-2-1",          3470,   101.770E-03,   19.7520E-03,            0.,NA,NA,"",   982.041E+03,   988.161E+03,   988.161E+03
C:/temp/Job-2.odb,Step-1,Increment      1: Step Time =    1.000,"P-2-1",          3471,   180.481E-03,   98.2394E-03,            0.,NA,NA,"",   964.933E+03,   983.936E+03,   983.936E+03
C:/temp/Job-2.odb,Step-1,Increment      1: Step Time =    1.000,"P-2-1",          3472,   98.4220E-03,   180.377E-03,            0.,NA,NA,"",   981.989E+03,   988.201E+03,   988.201E+03
C:/temp/Job-2.odb,Step-1,Increment      1: Step Time =    1.000,"P-2-1",          3473,   100.618E-03,   179.684E-03,            0.,NA,NA,"",   983.362E+03,   989.978E+03,   989.978E+03
C:/temp/Job-2.odb,Step-1,Increment      1: Step Time =    1.000,"P-2-1",          3474,   179.486E-03,   100.893E-03,            0.,NA,NA,"",   964.019E+03,   982.419E+03,   982.419E+03
C:/temp/Job-2.odb,Step-1,Increment      1: Step Time =    1.000,"P-2-1",          3475,   163.883E-03,   19.6551E-03,            0.,NA,NA,"",   1.00758E+06,   1.00526E+06,   1.00526E+06
C:/temp/Job-2.odb,Step-1,Increment      1: Step Time =    1.000,"P-2-1",          3476,   19.6221E-03,   36.1523E-03,            0.,NA,NA,"",   981.245E+03,   1.04592E+06,   1.04592E+06
C:/temp/Job-2.odb,Step-1,Increment      1: Step Time =    1.000,"P-2-1",          3477,   180.522E-03,   163.739E-03,            0.,NA,NA,"",   1.00715E+06,   1.00667E+06,   1.00667E+06
C:/temp/Job-2.odb,Step-1,Increment      1: Step Time =    1.000,"P-2-1",          3478,   36.1192E-03,   180.349E-03,            0.,NA,NA,"",   1.05312E+06,   1.06504E+06,   1.06504E+06
C:/temp/Job-2.odb,Step-1,Increment      1: Step Time =    1.000,"P-2-1",          3479,   19.9370E-03,   171.297E-03,            0.,NA,NA,"",   1.01892E+06,   1.07386E+06,   1.07386E+06
C:/temp/Job-2.odb,Step-1,Increment      1: Step Time =    1.000,"P-2-1",          3480,   28.6724E-03,   19.8707E-03,            0.,NA,NA,"",   1.06330E+06,   1.08449E+06,   1.08449E+06
C:/temp/Job-2.odb,Step-1,Increment      1: Step Time =    1.000,"P-2-1",          3481,   171.422E-03,   179.776E-03,            0.,NA,NA,"",   1.00582E+06,   1.00428E+06,   1.00428E+06
C:/temp/Job-2.odb,Step-1,Increment      1: Step Time =    1.000,"P-2-1",          3482,   180.071E-03,   28.7010E-03,            0.,NA,NA,"",   1.00567E+06,   1.00494E+06,   1.00494E+06
C:/temp/Job-2.odb,Step-1,Increment      1: Step Time =    1.000,"P-2-1",          3483,   93.3820E-03,   71.1134E-03,            0.,NA,NA,"",   1.13578E+06,   1.20942E+06,   1.20942E+06
C:/temp/Job-2.odb,Step-1,Increment      1: Step Time =    1.000,"P-2-1",          3484,   96.7020E-03,   132.580E-03,            0.,NA,NA,"",   1.07225E+06,   1.15042E+06,   1.15042E+06
C:/temp/Job-2.odb,Step-1,Increment      1: Step Time =    1.000,"P-2-1",          3485,   102.484E-03,   67.7901E-03,            0.,NA,NA,"",   1.07043E+06,   1.15107E+06,   1.15107E+06
C:/temp/Job-2.odb,Step-1,Increment      1: Step Time =    1.000,"P-2-1",          3486,   22.3794E-03,   132.306E-03,            0.,NA,NA,"",   876.865E+03,   954.488E+03,   954.488E+03
C:/temp/Job-2.odb,Step-1,Increment      1: Step Time =    1.000,"P-2-1",          3487,   67.8508E-03,   22.6217E-03,            0.,NA,NA,"",   1.01947E+06,   1.02156E+06,   1.02156E+06
C:/temp/Job-2.odb,Step-1,Increment      1: Step Time =    1.000,"P-2-1",          3488,   132.057E-03,   177.261E-03,            0.,NA,NA,"",   1.00983E+06,   1.00793E+06,   1.00793E+06
C:/temp/Job-2.odb,Step-1,Increment      1: Step Time =    1.000,"P-2-1",          3489,   177.740E-03,   67.6852E-03,            0.,NA,NA,"",   997.896E+03,   1.00332E+06,   1.00332E+06
C:/temp/Job-2.odb,Step-1,Increment      1: Step Time =    1.000,"P-2-1",          3490,   69.1669E-03,   107.649E-03,            0.,NA,NA,"",   760.520E+03,   773.124E+03,   773.124E+03
C:/temp/Job-2.odb,Step-1,Increment      1: Step Time =    1.000,"P-2-1",          3491,   68.5404E-03,   114.006E-03,            0.,NA,NA,"",   941.223E+03,   926.355E+03,   926.355E+03
C:/temp/Job-2.odb,Step-1,Increment      1: Step Time =    1.000,"P-2-1",          3492,   132.843E-03,   93.0204E-03,            0.,NA,NA,"",   794.766E+03,   786.973E+03,   786.973E+03
C:/temp/Job-2.odb,Step-1,Increment      1: Step Time =    1.000,"P-2-1",          3493,   90.7956E-03,   131.043E-03,            0.,NA,NA,"",   1.13958E+06,   1.18960E+06,   1.18960E+06
C:/temp/Job-2.odb,Step-1,Increment      1: Step Time =    1.000,"P-2-1",          3494,   107.987E-03,   68.3515E-03,            0.,NA,NA,"",   1.12048E+06,   1.17656E+06,   1.17656E+06
C:/temp/Job-2.odb,Step-1,Increment      1: Step Time =    1.000,"P-2-1",          3495,   23.0663E-03,   73.2730E-03,            0.,NA,NA,"",   861.490E+03,   940.164E+03,   940.164E+03
C:/temp/Job-2.odb,Step-1,Increment      1: Step Time =    1.000,"P-2-1",          3496,   73.0078E-03,   176.944E-03,            0.,NA,NA,"",   1.01438E+06,   1.01733E+06,   1.01733E+06
C:/temp/Job-2.odb,Step-1,Increment      1: Step Time =    1.000,"P-2-1",          3497,   127.062E-03,   22.5377E-03,            0.,NA,NA,"",   1.00582E+06,   1.00544E+06,   1.00544E+06
C:/temp/Job-2.odb,Step-1,Increment      1: Step Time =    1.000,"P-2-1",          3498,   176.741E-03,   128.403E-03,            0.,NA,NA,"",   993.815E+03,   1.00031E+06,   1.00031E+06
C:/temp/Job-2.odb,Step-1,Increment      1: Step Time =    1.000,"P-2-1",          3499,   71.9226E-03,   83.5835E-03,            0.,NA,NA,"",   1.04338E+06,   1.00164E+06,   1.00164E+06
C:/temp/Job-2.odb,Step-1,Increment      1: Step Time =    1.000,"P-2-1",          3500,   110.152E-03,   131.148E-03,            0.,NA,NA,"",   1.14796E+06,   1.18791E+06,   1.18791E+06
C:/temp/Job-2.odb,Step-1,Increment      1: Step Time =    1.000,"P-2-1",          3501,   88.5952E-03,   69.1332E-03,            0.,NA,NA,"",   1.15839E+06,   1.19338E+06,   1.19338E+06
C:/temp/Job-2.odb,Step-1,Increment      1: Step Time =    1.000,"P-2-1",          3502,   133.198E-03,   97.8263E-03,            0.,NA,NA,"",   702.707E+03,   716.315E+03,   716.315E+03
C:/temp/Job-2.odb,Step-1,Increment      1: Step Time =    1.000,"P-2-1",          3503,   175.983E-03,   22.4500E-03,            0.,NA,NA,"",   1.00542E+06,   1.00427E+06,   1.00427E+06
C:/temp/Job-2.odb,Step-1,Increment      1: Step Time =    1.000,"P-2-1",          3504,   22.4530E-03,   24.0045E-03,            0.,NA,NA,"",   1.04861E+06,   1.08904E+06,   1.08904E+06
C:/temp/Job-2.odb,Step-1,Increment      1: Step Time =    1.000,"P-2-1",          3505,   177.689E-03,   175.470E-03,            0.,NA,NA,"",   1.00559E+06,   1.00454E+06,   1.00454E+06
C:/temp/Job-2.odb,Step-1,Increment      1: Step Time =    1.000,"P-2-1",          3506,   24.0298E-03,   177.555E-03,            0.,NA,NA,"",   1.05599E+06,   1.09062E+06,   1.09062E+06
C:/temp/Job-2.odb,Step-1,Increment      1: Step Time =    1.000,"P-2-1",          3507,   24.3101E-03,   157.633E-03,            0.,NA,NA,"",   973.413E+03,   1.03267E+06,   1.03267E+06
C:/temp/Job-2.odb,Step-1,Increment      1: Step Time =    1.000,"P-2-1",          3508,   42.7936E-03,   23.4189E-03,            0.,NA,NA,"",   1.04569E+06,   1.05560E+06,   1.05560E+06
C:/temp/Job-2.odb,Step-1,Increment      1: Step Time =    1.000,"P-2-1",          3509,   157.706E-03,   176.316E-03,            0.,NA,NA,"",   1.01424E+06,   1.01022E+06,   1.01022E+06
C:/temp/Job-2.odb,Step-1,Increment      1: Step Time =    1.000,"P-2-1",          3510,   175.689E-03,   42.3597E-03,            0.,NA,NA,"",   1.01331E+06,   1.01143E+06,   1.01143E+06
C:/temp/Job-2.odb,Step-1,Increment      1: Step Time =    1.000,"P-2-1",          3511,   23.6335E-03,   93.8443E-03,            0.,NA,NA,"",   813.566E+03,   897.301E+03,   897.301E+03
C:/temp/Job-2.odb,Step-1,Increment      1: Step Time =    1.000,"P-2-1",          3512,   176.207E-03,   106.185E-03,            0.,NA,NA,"",   962.669E+03,   978.396E+03,   978.396E+03
C:/temp/Job-2.odb,Step-1,Increment      1: Step Time =    1.000,"P-2-1",          3513,   94.7771E-03,   176.613E-03,            0.,NA,NA,"",   991.293E+03,   999.717E+03,   999.717E+03
C:/temp/Job-2.odb,Step-1,Increment      1: Step Time =    1.000,"P-2-1",          3514,   66.2101E-03,   104.299E-03,            0.,NA,NA,"",   699.573E+03,   736.035E+03,   736.035E+03
C:/temp/Job-2.odb,Step-1,Increment      1: Step Time =    1.000,"P-2-1",          3515,   23.5319E-03,   153.148E-03,            0.,NA,NA,"",   953.790E+03,   1.01817E+06,   1.01817E+06
C:/temp/Job-2.odb,Step-1,Increment      1: Step Time =    1.000,"P-2-1",          3516,   47.1478E-03,   23.4012E-03,            0.,NA,NA,"",   1.04231E+06,   1.04914E+06,   1.04914E+06
C:/temp/Job-2.odb,Step-1,Increment      1: Step Time =    1.000,"P-2-1",          3517,   152.733E-03,   176.413E-03,            0.,NA,NA,"",   1.01572E+06,   1.01125E+06,   1.01125E+06
C:/temp/Job-2.odb,Step-1,Increment      1: Step Time =    1.000,"P-2-1",          3518,   176.484E-03,   46.8265E-03,            0.,NA,NA,"",   1.01250E+06,   1.01135E+06,   1.01135E+06
C:/temp/Job-2.odb,Step-1,Increment      1: Step Time =    1.000,"P-2-1",          3519,   176.637E-03,   111.880E-03,            0.,NA,NA,"",   969.136E+03,   983.328E+03,   983.328E+03
C:/temp/Job-2.odb,Step-1,Increment      1: Step Time =    1.000,"P-2-1",          3520,   22.3332E-03,   90.6663E-03,            0.,NA,NA,"",   815.897E+03,   900.532E+03,   900.532E+03
C:/temp/Job-2.odb,Step-1,Increment      1: Step Time =    1.000,"P-2-1",          3521,   111.742E-03,   22.9600E-03,            0.,NA,NA,"",   993.090E+03,   998.826E+03,   998.826E+03
C:/temp/Job-2.odb,Step-1,Increment      1: Step Time =    1.000,"P-2-1",          3522,   89.4488E-03,   176.235E-03,            0.,NA,NA,"",   996.058E+03,   1.00379E+06,   1.00379E+06
C:/temp/Job-2.odb,Step-1,Increment      1: Step Time =    1.000,"P-2-1",          3523,   22.8428E-03,   99.6786E-03,            0.,NA,NA,"",   809.253E+03,   894.094E+03,   894.094E+03
C:/temp/Job-2.odb,Step-1,Increment      1: Step Time =    1.000,"P-2-1",          3524,   100.058E-03,   177.184E-03,            0.,NA,NA,"",   988.512E+03,   996.662E+03,   996.662E+03
C:/temp/Job-2.odb,Step-1,Increment      1: Step Time =    1.000,"P-2-1",          3525,   181.200E-03,   31.3676E-03,            0.,NA,NA,"",   1.00557E+06,   1.00511E+06,   1.00511E+06
C:/temp/Job-2.odb,Step-1,Increment      1: Step Time =    1.000,"P-2-1",          3526,   31.3029E-03,   18.7325E-03,            0.,NA,NA,"",   1.06102E+06,   1.07696E+06,   1.07696E+06
C:/temp/Job-2.odb,Step-1,Increment      1: Step Time =    1.000,"P-2-1",          3527,   168.783E-03,   181.038E-03,            0.,NA,NA,"",   1.00568E+06,   1.00401E+06,   1.00401E+06
C:/temp/Job-2.odb,Step-1,Increment      1: Step Time =    1.000,"P-2-1",          3528,   18.8074E-03,   168.631E-03,            0.,NA,NA,"",   1.00111E+06,   1.06269E+06,   1.06269E+06
C:/temp/Job-2.odb,Step-1,Increment      1: Step Time =    1.000,"P-2-1",          3529,   34.0255E-03,   180.706E-03,            0.,NA,NA,"",   1.05657E+06,   1.07019E+06,   1.07019E+06
C:/temp/Job-2.odb,Step-1,Increment      1: Step Time =    1.000,"P-2-1",          3530,   19.2707E-03,   34.0498E-03,            0.,NA,NA,"",   989.846E+03,   1.05309E+06,   1.05309E+06
C:/temp/Job-2.odb,Step-1,Increment      1: Step Time =    1.000,"P-2-1",          3531,   180.763E-03,   165.837E-03,            0.,NA,NA,"",   1.00657E+06,   1.00603E+06,   1.00603E+06
C:/temp/Job-2.odb,Step-1,Increment      1: Step Time =    1.000,"P-2-1",          3532,   165.981E-03,   19.3001E-03,            0.,NA,NA,"",   1.00677E+06,   1.00474E+06,   1.00474E+06
C:/temp/Job-2.odb,Step-1,Increment      1: Step Time =    1.000,"P-2-1",          3533,   21.3116E-03,   29.5625E-03,            0.,NA,NA,"",   1.01916E+06,   1.07144E+06,   1.07144E+06
C:/temp/Job-2.odb,Step-1,Increment      1: Step Time =    1.000,"P-2-1",          3534,   29.6222E-03,   22.5141E-03,            0.,NA,NA,"",   1.05610E+06,   1.08014E+06,   1.08014E+06
C:/temp/Job-2.odb,Step-1,Increment      1: Step Time =    1.000,"P-2-1",          3535,   177.354E-03,   29.6476E-03,            0.,NA,NA,"",   1.00773E+06,   1.00644E+06,   1.00644E+06
C:/temp/Job-2.odb,Step-1,Increment      1: Step Time =    1.000,"P-2-1",          3536,   29.5561E-03,   178.682E-03,            0.,NA,NA,"",   1.05833E+06,   1.08105E+06,   1.08105E+06
C:/temp/Job-2.odb,Step-1,Increment      1: Step Time =    1.000,"P-2-1",          3537,   170.458E-03,   21.3250E-03,            0.,NA,NA,"",   1.00681E+06,   1.00506E+06,   1.00506E+06
C:/temp/Job-2.odb,Step-1,Increment      1: Step Time =    1.000,"P-2-1",          3538,   22.6609E-03,   170.346E-03,            0.,NA,NA,"",   1.02214E+06,   1.07125E+06,   1.07125E+06
C:/temp/Job-2.odb,Step-1,Increment      1: Step Time =    1.000,"P-2-1",          3539,   176.866E-03,   170.754E-03,            0.,NA,NA,"",   1.00784E+06,   1.00647E+06,   1.00647E+06
C:/temp/Job-2.odb,Step-1,Increment      1: Step Time =    1.000,"P-2-1",          3540,   170.371E-03,   177.049E-03,            0.,NA,NA,"",   1.00806E+06,   1.00604E+06,   1.00604E+06
C:/temp/Job-2.odb,Step-1,Increment      1: Step Time =    1.000,"P-2-1",          3541,   36.3261E-03,   23.4615E-03,            0.,NA,NA,"",   1.05048E+06,   1.06649E+06,   1.06649E+06
C:/temp/Job-2.odb,Step-1,Increment      1: Step Time =    1.000,"P-2-1",          3542,   22.5089E-03,   35.6708E-03,            0.,NA,NA,"",   994.300E+03,   1.05125E+06,   1.05125E+06
C:/temp/Job-2.odb,Step-1,Increment      1: Step Time =    1.000,"P-2-1",          3543,   176.456E-03,   36.4006E-03,            0.,NA,NA,"",   1.01098E+06,   1.00930E+06,   1.00930E+06
C:/temp/Job-2.odb,Step-1,Increment      1: Step Time =    1.000,"P-2-1",          3544,   35.6389E-03,   177.463E-03,            0.,NA,NA,"",   1.05215E+06,   1.06798E+06,   1.06798E+06
C:/temp/Job-2.odb,Step-1,Increment      1: Step Time =    1.000,"P-2-1",          3545,   164.359E-03,   22.5501E-03,            0.,NA,NA,"",   1.01031E+06,   1.00746E+06,   1.00746E+06
C:/temp/Job-2.odb,Step-1,Increment      1: Step Time =    1.000,"P-2-1",          3546,   23.5562E-03,   163.588E-03,            0.,NA,NA,"",   994.213E+03,   1.04957E+06,   1.04957E+06
C:/temp/Job-2.odb,Step-1,Increment      1: Step Time =    1.000,"P-2-1",          3547,   163.677E-03,   176.442E-03,            0.,NA,NA,"",   1.01174E+06,   1.00854E+06,   1.00854E+06
C:/temp/Job-2.odb,Step-1,Increment      1: Step Time =    1.000,"P-2-1",          3548,   177.881E-03,   164.121E-03,            0.,NA,NA,"",   1.00948E+06,   1.00821E+06,   1.00821E+06
C:/temp/Job-2.odb,Step-1,Increment      1: Step Time =    1.000,"P-2-1",          3549,   124.553E-03,   119.575E-03,            0.,NA,NA,"",   1.20096E+06,   1.11562E+06,   1.11562E+06
C:/temp/Job-2.odb,Step-1,Increment      1: Step Time =    1.000,"P-2-1",          3550,   75.3358E-03,   79.1664E-03,            0.,NA,NA,"",   1.16975E+06,   1.11582E+06,   1.11582E+06
C:/temp/Job-2.odb,Step-1,Increment      1: Step Time =    1.000,"P-2-1",          3551,   100.140E-03,   23.0368E-03,            0.,NA,NA,"",   988.801E+03,   997.064E+03,   997.064E+03
C:/temp/Job-2.odb,Step-1,Increment      1: Step Time =    1.000,"P-2-1",          3552,   177.039E-03,   98.8323E-03,            0.,NA,NA,"",   961.406E+03,   978.300E+03,   978.300E+03
C:/temp/Job-2.odb,Step-1,Increment      1: Step Time =    1.000,"P-2-1",          3553,   95.3149E-03,   68.1574E-03,            0.,NA,NA,"",   1.08593E+06,   1.16238E+06,   1.16238E+06
C:/temp/Job-2.odb,Step-1,Increment      1: Step Time =    1.000,"P-2-1",          3554,   22.6650E-03,   109.076E-03,            0.,NA,NA,"",   815.917E+03,   900.312E+03,   900.312E+03
C:/temp/Job-2.odb,Step-1,Increment      1: Step Time =    1.000,"P-2-1",          3555,   88.4088E-03,   21.4856E-03,            0.,NA,NA,"",   991.841E+03,   998.174E+03,   998.174E+03
C:/temp/Job-2.odb,Step-1,Increment      1: Step Time =    1.000,"P-2-1",          3556,   177.417E-03,   90.1647E-03,            0.,NA,NA,"",   967.259E+03,   982.745E+03,   982.745E+03
C:/temp/Job-2.odb,Step-1,Increment      1: Step Time =    1.000,"P-2-1",          3557,   110.873E-03,   177.921E-03,            0.,NA,NA,"",   990.321E+03,   995.973E+03,   995.973E+03
C:/temp/Job-2.odb,Step-1,Increment      1: Step Time =    1.000,"P-2-1",          3558,   153.667E-03,   22.6313E-03,            0.,NA,NA,"",   1.01406E+06,   1.00994E+06,   1.00994E+06
C:/temp/Job-2.odb,Step-1,Increment      1: Step Time =    1.000,"P-2-1",          3559,   22.6365E-03,   46.1235E-03,            0.,NA,NA,"",   953.055E+03,   1.01888E+06,   1.01888E+06
C:/temp/Job-2.odb,Step-1,Increment      1: Step Time =    1.000,"P-2-1",          3560,   177.351E-03,   153.820E-03,            0.,NA,NA,"",   1.01152E+06,   1.01064E+06,   1.01064E+06
C:/temp/Job-2.odb,Step-1,Increment      1: Step Time =    1.000,"P-2-1",          3561,   46.3652E-03,   177.194E-03,            0.,NA,NA,"",   1.04260E+06,   1.04956E+06,   1.04956E+06
C:/temp/Job-2.odb,Step-1,Increment      1: Step Time =    1.000,"P-2-1",          3562,   18.8559E-03,   123.967E-03,            0.,NA,NA,"",   840.485E+03,   925.871E+03,   925.871E+03
C:/temp/Job-2.odb,Step-1,Increment      1: Step Time =    1.000,"P-2-1",          3563,   76.0339E-03,   18.9306E-03,            0.,NA,NA,"",   998.814E+03,   1.00138E+06,   1.00138E+06
C:/temp/Job-2.odb,Step-1,Increment      1: Step Time =    1.000,"P-2-1",          3564,   123.592E-03,   180.982E-03,            0.,NA,NA,"",   994.185E+03,   994.998E+03,   994.998E+03
C:/temp/Job-2.odb,Step-1,Increment      1: Step Time =    1.000,"P-2-1",          3565,   180.758E-03,   76.2247E-03,            0.,NA,NA,"",   985.006E+03,   996.756E+03,   996.756E+03
C:/temp/Job-2.odb,Step-1,Increment      1: Step Time =    1.000,"P-2-1",          3566,   141.107E-03,   19.2682E-03,            0.,NA,NA,"",   1.00668E+06,   1.00380E+06,   1.00380E+06
C:/temp/Job-2.odb,Step-1,Increment      1: Step Time =    1.000,"P-2-1",          3567,   19.1260E-03,   59.7233E-03,            0.,NA,NA,"",   891.618E+03,   971.299E+03,   971.299E+03
C:/temp/Job-2.odb,Step-1,Increment      1: Step Time =    1.000,"P-2-1",          3568,   180.907E-03,   140.260E-03,            0.,NA,NA,"",   1.00170E+06,   1.00616E+06,   1.00616E+06
C:/temp/Job-2.odb,Step-1,Increment      1: Step Time =    1.000,"P-2-1",          3569,   58.7978E-03,   180.650E-03,            0.,NA,NA,"",   1.02208E+06,   1.02365E+06,   1.02365E+06
C:/temp/Job-2.odb,Step-1,Increment      1: Step Time =    1.000,"P-2-1",          3570,   22.3738E-03,   121.435E-03,            0.,NA,NA,"",   842.728E+03,   924.366E+03,   924.366E+03
C:/temp/Job-2.odb,Step-1,Increment      1: Step Time =    1.000,"P-2-1",          3571,   78.6015E-03,   22.4631E-03,            0.,NA,NA,"",   1.00565E+06,   1.00988E+06,   1.00988E+06
C:/temp/Job-2.odb,Step-1,Increment      1: Step Time =    1.000,"P-2-1",          3572,   119.832E-03,   176.901E-03,            0.,NA,NA,"",   1.00036E+06,   1.00310E+06,   1.00310E+06
C:/temp/Job-2.odb,Step-1,Increment      1: Step Time =    1.000,"P-2-1",          3573,   176.335E-03,   79.7007E-03,            0.,NA,NA,"",   981.517E+03,   991.631E+03,   991.631E+03
C:/temp/Job-2.odb,Step-1,Increment      1: Step Time =    1.000,"P-2-1",          3574,   141.447E-03,   23.0130E-03,            0.,NA,NA,"",   1.01473E+06,   1.01073E+06,   1.01073E+06
C:/temp/Job-2.odb,Step-1,Increment      1: Step Time =    1.000,"P-2-1",          3575,   23.2914E-03,   56.1640E-03,            0.,NA,NA,"",   920.072E+03,   990.650E+03,   990.650E+03
C:/temp/Job-2.odb,Step-1,Increment      1: Step Time =    1.000,"P-2-1",          3576,   176.687E-03,   143.712E-03,            0.,NA,NA,"",   1.00954E+06,   1.01013E+06,   1.01013E+06
C:/temp/Job-2.odb,Step-1,Increment      1: Step Time =    1.000,"P-2-1",          3577,   58.3033E-03,   177.003E-03,            0.,NA,NA,"",   1.03163E+06,   1.03407E+06,   1.03407E+06
C:/temp/Job-2.odb,Step-1,Increment      1: Step Time =    1.000,"P-2-1",          3578,   134.582E-03,   18.5776E-03,            0.,NA,NA,"",   1.00154E+06,   999.710E+03,   999.710E+03
C:/temp/Job-2.odb,Step-1,Increment      1: Step Time =    1.000,"P-2-1",          3579,   18.3637E-03,   65.4524E-03,            0.,NA,NA,"",   870.129E+03,   953.197E+03,   953.197E+03
C:/temp/Job-2.odb,Step-1,Increment      1: Step Time =    1.000,"P-2-1",          3580,   181.604E-03,   134.433E-03,            0.,NA,NA,"",   996.199E+03,   1.00350E+06,   1.00350E+06
C:/temp/Job-2.odb,Step-1,Increment      1: Step Time =    1.000,"P-2-1",          3581,   65.3107E-03,   181.223E-03,            0.,NA,NA,"",   1.01196E+06,   1.01319E+06,   1.01319E+06
C:/temp/Job-2.odb,Step-1,Increment      1: Step Time =    1.000,"P-2-1",          3582,   132.005E-03,   23.1069E-03,            0.,NA,NA,"",   1.01048E+06,   1.00853E+06,   1.00853E+06
C:/temp/Job-2.odb,Step-1,Increment      1: Step Time =    1.000,"P-2-1",          3583,   22.9985E-03,   68.1941E-03,            0.,NA,NA,"",   877.206E+03,   954.017E+03,   954.017E+03
C:/temp/Job-2.odb,Step-1,Increment      1: Step Time =    1.000,"P-2-1",          3584,   177.110E-03,   132.443E-03,            0.,NA,NA,"",   998.916E+03,   1.00373E+06,   1.00373E+06
C:/temp/Job-2.odb,Step-1,Increment      1: Step Time =    1.000,"P-2-1",          3585,   67.2915E-03,   176.886E-03,            0.,NA,NA,"",   1.02150E+06,   1.02361E+06,   1.02361E+06
C:/temp/Job-2.odb,Step-1,Increment      1: Step Time =    1.000,"P-2-1",          3586,   72.6180E-03,   18.6917E-03,            0.,NA,NA,"",   1.00233E+06,   1.00421E+06,   1.00421E+06
C:/temp/Job-2.odb,Step-1,Increment      1: Step Time =    1.000,"P-2-1",          3587,   18.6126E-03,   127.434E-03,            0.,NA,NA,"",   849.546E+03,   934.379E+03,   934.379E+03
C:/temp/Job-2.odb,Step-1,Increment      1: Step Time =    1.000,"P-2-1",          3588,   181.615E-03,   73.0510E-03,            0.,NA,NA,"",   988.225E+03,   999.123E+03,   999.123E+03
C:/temp/Job-2.odb,Step-1,Increment      1: Step Time =    1.000,"P-2-1",          3589,   126.788E-03,   181.631E-03,            0.,NA,NA,"",   995.272E+03,   995.183E+03,   995.183E+03
C:/temp/Job-2.odb,Step-1,Increment      1: Step Time =    1.000,"P-2-1",          3590,   71.6838E-03,   22.2914E-03,            0.,NA,NA,"",   1.01399E+06,   1.01650E+06,   1.01650E+06
C:/temp/Job-2.odb,Step-1,Increment      1: Step Time =    1.000,"P-2-1",          3591,   22.2151E-03,   128.367E-03,            0.,NA,NA,"",   863.566E+03,   942.924E+03,   942.924E+03
C:/temp/Job-2.odb,Step-1,Increment      1: Step Time =    1.000,"P-2-1",          3592,   176.937E-03,   71.5323E-03,            0.,NA,NA,"",   993.731E+03,   1.00036E+06,   1.00036E+06
C:/temp/Job-2.odb,Step-1,Increment      1: Step Time =    1.000,"P-2-1",          3593,   127.884E-03,   176.894E-03,            0.,NA,NA,"",   1.00733E+06,   1.00673E+06,   1.00673E+06
C:/temp/Job-2.odb,Step-1,Increment      1: Step Time =    1.000,"P-2-1",          3594,   122.619E-03,   77.6691E-03,            0.,NA,NA,"",   1.23753E+06,   1.16341E+06,   1.16341E+06
C:/temp/Job-2.odb,Step-1,Increment      1: Step Time =    1.000,"P-2-1",          3595,   113.598E-03,   67.3708E-03,            0.,NA,NA,"",   1.16129E+06,   1.17621E+06,   1.17621E+06
C:/temp/Job-2.odb,Step-1,Increment      1: Step Time =    1.000,"P-2-1",          3596,   86.7134E-03,   131.504E-03,            0.,NA,NA,"",   1.16431E+06,   1.18745E+06,   1.18745E+06
C:/temp/Job-2.odb,Step-1,Increment      1: Step Time =    1.000,"P-2-1",          3597,   76.5962E-03,   126.803E-03,            0.,NA,NA,"",   1.19164E+06,   1.15814E+06,   1.15814E+06
C:/temp/Job-2.odb,Step-1,Increment      1: Step Time =    1.000,"P-2-1",          3598,   86.8978E-03,   69.2081E-03,            0.,NA,NA,"",   1.16958E+06,   1.19375E+06,   1.19375E+06
C:/temp/Job-2.odb,Step-1,Increment      1: Step Time =    1.000,"P-2-1",          3599,   112.992E-03,   134.269E-03,            0.,NA,NA,"",   1.13920E+06,   1.16083E+06,   1.16083E+06
C:/temp/Job-2.odb,Step-1,Increment      1: Step Time =    1.000,"P-2-1",          3600,   120.793E-03,   72.4794E-03,            0.,NA,NA,"",   1.22985E+06,   1.18527E+06,   1.18527E+06
C:/temp/Job-2.odb,Step-1,Increment      1: Step Time =    1.000,"P-2-1",          3601,   78.7033E-03,   127.154E-03,            0.,NA,NA,"",   1.20592E+06,   1.17724E+06,   1.17724E+06
C:/temp/Job-2.odb,Step-1,Increment      1: Step Time =    1.000,"P-2-1",          3602,   129.377E-03,   115.340E-03,            0.,NA,NA,"",   1.04846E+06,   984.314E+03,   984.314E+03
C:/temp/Job-2.odb,Step-1,Increment      1: Step Time =    1.000,"P-2-1",          3603,   135.102E-03,   105.525E-03,            0.,NA,NA,"",   782.151E+03,   784.881E+03,   784.881E+03
C:/temp/Job-2.odb,Step-1,Increment      1: Step Time =    1.000,"P-2-1",          3604,   120.787E-03,   75.8151E-03,            0.,NA,NA,"",   1.25386E+06,   1.19217E+06,   1.19217E+06
C:/temp/Job-2.odb,Step-1,Increment      1: Step Time =    1.000,"P-2-1",          3605,   68.3941E-03,   83.0519E-03,            0.,NA,NA,"",   1.00478E+06,   983.030E+03,   983.030E+03
C:/temp/Job-2.odb,Step-1,Increment      1: Step Time =    1.000,"P-2-1",          3606,   190.576E-03,   7.01817E-03,            0.,NA,NA,"",   999.867E+03,   999.835E+03,   999.835E+03
C:/temp/Job-2.odb,Step-1,Increment      1: Step Time =    1.000,"P-2-1",          3607,   193.201E-03,   190.667E-03,            0.,NA,NA,"",   1.00002E+06,   999.938E+03,   999.938E+03
C:/temp/Job-2.odb,Step-1,Increment      1: Step Time =    1.000,"P-2-1",          3608,   7.02582E-03,   9.42994E-03,            0.,NA,NA,"",   1.19973E+06,   1.25872E+06,   1.25872E+06
C:/temp/Job-2.odb,Step-1,Increment      1: Step Time =    1.000,"P-2-1",          3609,   9.42748E-03,   192.978E-03,            0.,NA,NA,"",   1.24118E+06,   1.26848E+06,   1.26848E+06
C:/temp/Job-2.odb,Step-1,Increment      1: Step Time =    1.000,"P-2-1",          3610,   76.2414E-03,   121.655E-03,            0.,NA,NA,"",   1.19120E+06,   1.13671E+06,   1.13671E+06
C:/temp/Job-2.odb,Step-1,Increment      1: Step Time =    1.000,"P-2-1",          3611,   99.1932E-03,   132.299E-03,            0.,NA,NA,"",   1.06574E+06,   1.14876E+06,   1.14876E+06
C:/temp/Job-2.odb,Step-1,Increment      1: Step Time =    1.000,"P-2-1",          3612,   100.085E-03,   68.0020E-03,            0.,NA,NA,"",   1.06730E+06,   1.15160E+06,   1.15160E+06
C:/temp/Job-2.odb,Step-1,Increment      1: Step Time =    1.000,"P-2-1",          3613,   67.5146E-03,   112.607E-03,            0.,NA,NA,"",   899.072E+03,   894.692E+03,   894.692E+03
C:/temp/Job-2.odb,Step-1,Increment      1: Step Time =    1.000,"P-2-1",          3614,   68.8310E-03,   116.479E-03,            0.,NA,NA,"",   995.537E+03,   972.752E+03,   972.752E+03
C:/temp/Job-2.odb,Step-1,Increment      1: Step Time =    1.000,"P-2-1",          3615,   94.1526E-03,   133.092E-03,            0.,NA,NA,"",   1.08634E+06,   1.15352E+06,   1.15352E+06
C:/temp/Job-2.odb,Step-1,Increment      1: Step Time =    1.000,"P-2-1",          3616,   88.4284E-03,   129.873E-03,            0.,NA,NA,"",   1.17536E+06,   1.20639E+06,   1.20639E+06
C:/temp/Job-2.odb,Step-1,Increment      1: Step Time =    1.000,"P-2-1",          3617,   111.428E-03,   68.9204E-03,            0.,NA,NA,"",   1.16183E+06,   1.19058E+06,   1.19058E+06
C:/temp/Job-2.odb,Step-1,Increment      1: Step Time =    1.000,"P-2-1",          3618,   104.863E-03,   67.1825E-03,            0.,NA,NA,"",   1.07925E+06,   1.15039E+06,   1.15039E+06
C:/temp/Job-2.odb,Step-1,Increment      1: Step Time =    1.000,"P-2-1",          3619,   101.108E-03,   17.4899E-03,            0.,NA,NA,"",   976.696E+03,   981.585E+03,   981.585E+03
C:/temp/Job-2.odb,Step-1,Increment      1: Step Time =    1.000,"P-2-1",          3620,   182.428E-03,   100.858E-03,            0.,NA,NA,"",   966.480E+03,   986.971E+03,   986.971E+03
C:/temp/Job-2.odb,Step-1,Increment      1: Step Time =    1.000,"P-2-1",          3621,   134.733E-03,   94.4360E-03,            0.,NA,NA,"",   776.759E+03,   779.615E+03,   779.615E+03
C:/temp/Job-2.odb,Step-1,Increment      1: Step Time =    1.000,"P-2-1",          3622,   66.2858E-03,   93.6669E-03,            0.,NA,NA,"",   738.920E+03,   767.930E+03,   767.930E+03
C:/temp/Job-2.odb,Step-1,Increment      1: Step Time =    1.000,"P-2-1",          3623,   63.3453E-03,   99.4906E-03,            0.,NA,NA,"",   696.622E+03,   743.058E+03,   743.058E+03
C:/temp/Job-2.odb,Step-1,Increment      1: Step Time =    1.000,"P-2-1",          3624,   176.627E-03,   177.877E-03,            0.,NA,NA,"",   1.00501E+06,   1.00395E+06,   1.00395E+06
C:/temp/Job-2.odb,Step-1,Increment      1: Step Time =    1.000,"P-2-1",          3625,   178.476E-03,   23.5406E-03,            0.,NA,NA,"",   1.00478E+06,   1.00392E+06,   1.00392E+06
C:/temp/Job-2.odb,Step-1,Increment      1: Step Time =    1.000,"P-2-1",          3626,   21.5330E-03,   176.461E-03,            0.,NA,NA,"",   1.05058E+06,   1.09249E+06,   1.09249E+06
C:/temp/Job-2.odb,Step-1,Increment      1: Step Time =    1.000,"P-2-1",          3627,   23.5337E-03,   21.5078E-03,            0.,NA,NA,"",   1.06143E+06,   1.09509E+06,   1.09509E+06
C:/temp/Job-2.odb,Step-1,Increment      1: Step Time =    1.000,"P-2-1",          3628,   155.015E-03,   175.144E-03,            0.,NA,NA,"",   1.01698E+06,   1.01231E+06,   1.01231E+06
C:/temp/Job-2.odb,Step-1,Increment      1: Step Time =    1.000,"P-2-1",          3629,   25.0263E-03,   155.269E-03,            0.,NA,NA,"",   967.157E+03,   1.02690E+06,   1.02690E+06
C:/temp/Job-2.odb,Step-1,Increment      1: Step Time =    1.000,"P-2-1",          3630,   174.971E-03,   44.7244E-03,            0.,NA,NA,"",   1.01447E+06,   1.01240E+06,   1.01240E+06
C:/temp/Job-2.odb,Step-1,Increment      1: Step Time =    1.000,"P-2-1",          3631,   45.3788E-03,   25.3260E-03,            0.,NA,NA,"",   1.04487E+06,   1.05407E+06,   1.05407E+06
C:/temp/Job-2.odb,Step-1,Increment      1: Step Time =    1.000,"P-2-1",          3632,   91.7451E-03,   175.187E-03,            0.,NA,NA,"",   996.232E+03,   1.00517E+06,   1.00517E+06
C:/temp/Job-2.odb,Step-1,Increment      1: Step Time =    1.000,"P-2-1",          3633,   24.9937E-03,   91.3373E-03,            0.,NA,NA,"",   819.040E+03,   900.889E+03,   900.889E+03
C:/temp/Job-2.odb,Step-1,Increment      1: Step Time =    1.000,"P-2-1",          3634,   175.387E-03,   109.613E-03,            0.,NA,NA,"",   965.347E+03,   979.603E+03,   979.603E+03
C:/temp/Job-2.odb,Step-1,Increment      1: Step Time =    1.000,"P-2-1",          3635,   109.410E-03,   24.2352E-03,            0.,NA,NA,"",   994.098E+03,   1.00125E+06,   1.00125E+06
C:/temp/Job-2.odb,Step-1,Increment      1: Step Time =    1.000,"P-2-1",          3636,   124.575E-03,   83.1234E-03,            0.,NA,NA,"",   1.15914E+06,   1.06727E+06,   1.06727E+06
C:/temp/Job-2.odb,Step-1,Increment      1: Step Time =    1.000,"P-2-1",          3637,   90.2212E-03,   66.7870E-03,            0.,NA,NA,"",   1.11784E+06,   1.16477E+06,   1.16477E+06
C:/temp/Job-2.odb,Step-1,Increment      1: Step Time =    1.000,"P-2-1",          3638,   107.691E-03,   132.684E-03,            0.,NA,NA,"",   1.10494E+06,   1.16213E+06,   1.16213E+06
C:/temp/Job-2.odb,Step-1,Increment      1: Step Time =    1.000,"P-2-1",          3639,   97.0191E-03,   175.665E-03,            0.,NA,NA,"",   992.189E+03,   1.00134E+06,   1.00134E+06
C:/temp/Job-2.odb,Step-1,Increment      1: Step Time =    1.000,"P-2-1",          3640,   25.7020E-03,   95.3061E-03,            0.,NA,NA,"",   814.705E+03,   896.492E+03,   896.492E+03
C:/temp/Job-2.odb,Step-1,Increment      1: Step Time =    1.000,"P-2-1",          3641,   174.741E-03,   104.022E-03,            0.,NA,NA,"",   959.381E+03,   974.767E+03,   974.767E+03
C:/temp/Job-2.odb,Step-1,Increment      1: Step Time =    1.000,"P-2-1",          3642,   105.935E-03,   23.3565E-03,            0.,NA,NA,"",   990.540E+03,   998.158E+03,   998.158E+03
C:/temp/Job-2.odb,Step-1,Increment      1: Step Time =    1.000,"P-2-1",          3643,   161.040E-03,   175.144E-03,            0.,NA,NA,"",   1.01432E+06,   1.01043E+06,   1.01043E+06
C:/temp/Job-2.odb,Step-1,Increment      1: Step Time =    1.000,"P-2-1",          3644,   24.8785E-03,   160.939E-03,            0.,NA,NA,"",   988.057E+03,   1.04310E+06,   1.04310E+06
C:/temp/Job-2.odb,Step-1,Increment      1: Step Time =    1.000,"P-2-1",          3645,   175.129E-03,   39.0519E-03,            0.,NA,NA,"",   1.01320E+06,   1.01104E+06,   1.01104E+06
C:/temp/Job-2.odb,Step-1,Increment      1: Step Time =    1.000,"P-2-1",          3646,   39.0356E-03,   24.8080E-03,            0.,NA,NA,"",   1.04784E+06,   1.06224E+06,   1.06224E+06
C:/temp/Job-2.odb,Step-1,Increment      1: Step Time =    1.000,"P-2-1",          3647,   175.934E-03,   173.395E-03,            0.,NA,NA,"",   1.00729E+06,   1.00586E+06,   1.00586E+06
C:/temp/Job-2.odb,Step-1,Increment      1: Step Time =    1.000,"P-2-1",          3648,   174.003E-03,   24.4965E-03,            0.,NA,NA,"",   1.00730E+06,   1.00570E+06,   1.00570E+06
C:/temp/Job-2.odb,Step-1,Increment      1: Step Time =    1.000,"P-2-1",          3649,   26.0140E-03,   175.506E-03,            0.,NA,NA,"",   1.04920E+06,   1.08303E+06,   1.08303E+06
C:/temp/Job-2.odb,Step-1,Increment      1: Step Time =    1.000,"P-2-1",          3650,   24.5087E-03,   25.9606E-03,            0.,NA,NA,"",   1.04221E+06,   1.08146E+06,   1.08146E+06
C:/temp/Job-2.odb,Step-1,Increment      1: Step Time =    1.000,"P-2-1",          3651,   86.2043E-03,   175.464E-03,            0.,NA,NA,"",   1.00133E+06,   1.00864E+06,   1.00864E+06
C:/temp/Job-2.odb,Step-1,Increment      1: Step Time =    1.000,"P-2-1",          3652,   112.927E-03,   25.1227E-03,            0.,NA,NA,"",   998.590E+03,   1.00481E+06,   1.00481E+06
C:/temp/Job-2.odb,Step-1,Increment      1: Step Time =    1.000,"P-2-1",          3653,   175.254E-03,   115.093E-03,            0.,NA,NA,"",   973.070E+03,   984.983E+03,   984.983E+03
C:/temp/Job-2.odb,Step-1,Increment      1: Step Time =    1.000,"P-2-1",          3654,   24.6651E-03,   86.2795E-03,            0.,NA,NA,"",   828.366E+03,   909.469E+03,   909.469E+03
C:/temp/Job-2.odb,Step-1,Increment      1: Step Time =    1.000,"P-2-1",          3655,   174.616E-03,   48.1791E-03,            0.,NA,NA,"",   1.01491E+06,   1.01295E+06,   1.01295E+06
C:/temp/Job-2.odb,Step-1,Increment      1: Step Time =    1.000,"P-2-1",          3656,   49.2768E-03,   25.2443E-03,            0.,NA,NA,"",   1.04272E+06,   1.04930E+06,   1.04930E+06
C:/temp/Job-2.odb,Step-1,Increment      1: Step Time =    1.000,"P-2-1",          3657,   149.599E-03,   175.439E-03,            0.,NA,NA,"",   1.01837E+06,   1.01342E+06,   1.01342E+06
C:/temp/Job-2.odb,Step-1,Increment      1: Step Time =    1.000,"P-2-1",          3658,   25.4083E-03,   151.808E-03,            0.,NA,NA,"",   956.276E+03,   1.01779E+06,   1.01779E+06
C:/temp/Job-2.odb,Step-1,Increment      1: Step Time =    1.000,"P-2-1",          3659,   69.8983E-03,   174.868E-03,            0.,NA,NA,"",   1.02361E+06,   1.02648E+06,   1.02648E+06
C:/temp/Job-2.odb,Step-1,Increment      1: Step Time =    1.000,"P-2-1",          3660,   24.3387E-03,   71.1416E-03,            0.,NA,NA,"",   871.892E+03,   947.851E+03,   947.851E+03
C:/temp/Job-2.odb,Step-1,Increment      1: Step Time =    1.000,"P-2-1",          3661,   177.203E-03,   130.198E-03,            0.,NA,NA,"",   996.081E+03,   1.00192E+06,   1.00192E+06
C:/temp/Job-2.odb,Step-1,Increment      1: Step Time =    1.000,"P-2-1",          3662,   129.483E-03,   24.0154E-03,            0.,NA,NA,"",   1.01094E+06,   1.00963E+06,   1.00963E+06
C:/temp/Job-2.odb,Step-1,Increment      1: Step Time =    1.000,"P-2-1",          3663,   130.207E-03,   175.282E-03,            0.,NA,NA,"",   1.01318E+06,   1.01156E+06,   1.01156E+06
C:/temp/Job-2.odb,Step-1,Increment      1: Step Time =    1.000,"P-2-1",          3664,   24.0874E-03,   130.248E-03,            0.,NA,NA,"",   876.021E+03,   951.715E+03,   951.715E+03
C:/temp/Job-2.odb,Step-1,Increment      1: Step Time =    1.000,"P-2-1",          3665,   175.609E-03,   68.7517E-03,            0.,NA,NA,"",   998.928E+03,   1.00315E+06,   1.00315E+06
C:/temp/Job-2.odb,Step-1,Increment      1: Step Time =    1.000,"P-2-1",          3666,   69.7637E-03,   24.1209E-03,            0.,NA,NA,"",   1.02110E+06,   1.02372E+06,   1.02372E+06
C:/temp/Job-2.odb,Step-1,Increment      1: Step Time =    1.000,"P-2-1",          3667,   134.518E-03,   91.1430E-03,            0.,NA,NA,"",   848.384E+03,   835.168E+03,   835.168E+03
C:/temp/Job-2.odb,Step-1,Increment      1: Step Time =    1.000,"P-2-1",          3668,   74.9599E-03,   175.793E-03,            0.,NA,NA,"",   1.01481E+06,   1.01846E+06,   1.01846E+06
C:/temp/Job-2.odb,Step-1,Increment      1: Step Time =    1.000,"P-2-1",          3669,   24.6891E-03,   74.6912E-03,            0.,NA,NA,"",   861.330E+03,   938.430E+03,   938.430E+03
C:/temp/Job-2.odb,Step-1,Increment      1: Step Time =    1.000,"P-2-1",          3670,   176.206E-03,   124.268E-03,            0.,NA,NA,"",   988.252E+03,   996.250E+03,   996.250E+03
C:/temp/Job-2.odb,Step-1,Increment      1: Step Time =    1.000,"P-2-1",          3671,   125.134E-03,   23.5727E-03,            0.,NA,NA,"",   1.00669E+06,   1.00703E+06,   1.00703E+06
C:/temp/Job-2.odb,Step-1,Increment      1: Step Time =    1.000,"P-2-1",          3672,   134.821E-03,   177.283E-03,            0.,NA,NA,"",   1.01123E+06,   1.00863E+06,   1.00863E+06
C:/temp/Job-2.odb,Step-1,Increment      1: Step Time =    1.000,"P-2-1",          3673,   24.3484E-03,   133.956E-03,            0.,NA,NA,"",   889.220E+03,   962.878E+03,   962.878E+03
C:/temp/Job-2.odb,Step-1,Increment      1: Step Time =    1.000,"P-2-1",          3674,   176.943E-03,   64.9379E-03,            0.,NA,NA,"",   1.00211E+06,   1.00568E+06,   1.00568E+06
C:/temp/Job-2.odb,Step-1,Increment      1: Step Time =    1.000,"P-2-1",          3675,   65.8482E-03,   25.0213E-03,            0.,NA,NA,"",   1.02799E+06,   1.03040E+06,   1.03040E+06
C:/temp/Job-2.odb,Step-1,Increment      1: Step Time =    1.000,"P-2-1",          3676,   127.322E-03,   110.948E-03,            0.,NA,NA,"",   940.653E+03,   879.664E+03,   879.664E+03
C:/temp/Job-2.odb,Step-1,Increment      1: Step Time =    1.000,"P-2-1",          3677,   68.8157E-03,   88.6225E-03,            0.,NA,NA,"",   872.881E+03,   867.018E+03,   867.018E+03
C:/temp/Job-2.odb,Step-1,Increment      1: Step Time =    1.000,"P-2-1",          3678,   121.769E-03,   126.438E-03,            0.,NA,NA,"",   1.23227E+06,   1.18041E+06,   1.18041E+06
C:/temp/Job-2.odb,Step-1,Increment      1: Step Time =    1.000,"P-2-1",          3679,   77.0436E-03,   74.0593E-03,            0.,NA,NA,"",   1.19635E+06,   1.16041E+06,   1.16041E+06
C:/temp/Job-2.odb,Step-1,Increment      1: Step Time =    1.000,"P-2-1",          3680,   190.215E-03,   192.756E-03,            0.,NA,NA,"",   999.854E+03,   999.814E+03,   999.814E+03
C:/temp/Job-2.odb,Step-1,Increment      1: Step Time =    1.000,"P-2-1",          3681,   7.28481E-03,   189.903E-03,            0.,NA,NA,"",   1.18070E+06,   1.24148E+06,   1.24148E+06
C:/temp/Job-2.odb,Step-1,Increment      1: Step Time =    1.000,"P-2-1",          3682,   192.718E-03,   10.0940E-03,            0.,NA,NA,"",   1.00005E+06,   999.978E+03,   999.978E+03
C:/temp/Job-2.odb,Step-1,Increment      1: Step Time =    1.000,"P-2-1",          3683,   10.0995E-03,   7.28834E-03,            0.,NA,NA,"",   1.22316E+06,   1.24955E+06,   1.24955E+06
C:/temp/Job-2.odb,Step-1,Increment      1: Step Time =    1.000,"P-2-1",          3684,   78.1159E-03,   128.941E-03,            0.,NA,NA,"",   1.19253E+06,   1.16895E+06,   1.16895E+06
C:/temp/Job-2.odb,Step-1,Increment      1: Step Time =    1.000,"P-2-1",          3685,   123.975E-03,   72.1905E-03,            0.,NA,NA,"",   1.20918E+06,   1.15794E+06,   1.15794E+06
C:/temp/Job-2.odb,Step-1,Increment      1: Step Time =    1.000,"P-2-1",          3686,   26.7760E-03,   23.1376E-03,            0.,NA,NA,"",   1.05493E+06,   1.08507E+06,   1.08507E+06
C:/temp/Job-2.odb,Step-1,Increment      1: Step Time =    1.000,"P-2-1",          3687,   176.776E-03,   26.7825E-03,            0.,NA,NA,"",   1.00691E+06,   1.00563E+06,   1.00563E+06
C:/temp/Job-2.odb,Step-1,Increment      1: Step Time =    1.000,"P-2-1",          3688,   23.2390E-03,   173.215E-03,            0.,NA,NA,"",   1.03708E+06,   1.08039E+06,   1.08039E+06
C:/temp/Job-2.odb,Step-1,Increment      1: Step Time =    1.000,"P-2-1",          3689,   173.302E-03,   176.205E-03,            0.,NA,NA,"",   1.00721E+06,   1.00555E+06,   1.00555E+06
C:/temp/Job-2.odb,Step-1,Increment      1: Step Time =    1.000,"P-2-1",          3690,   25.6271E-03,   37.6765E-03,            0.,NA,NA,"",   996.291E+03,   1.04814E+06,   1.04814E+06
C:/temp/Job-2.odb,Step-1,Increment      1: Step Time =    1.000,"P-2-1",          3691,   37.6418E-03,   174.287E-03,            0.,NA,NA,"",   1.04768E+06,   1.06461E+06,   1.06461E+06
C:/temp/Job-2.odb,Step-1,Increment      1: Step Time =    1.000,"P-2-1",          3692,   162.339E-03,   25.7567E-03,            0.,NA,NA,"",   1.01500E+06,   1.01104E+06,   1.01104E+06
C:/temp/Job-2.odb,Step-1,Increment      1: Step Time =    1.000,"P-2-1",          3693,   174.737E-03,   162.446E-03,            0.,NA,NA,"",   1.01317E+06,   1.01086E+06,   1.01086E+06
C:/temp/Job-2.odb,Step-1,Increment      1: Step Time =    1.000,"P-2-1",          3694,   126.537E-03,   118.069E-03,            0.,NA,NA,"",   1.14658E+06,   1.06575E+06,   1.06575E+06
C:/temp/Job-2.odb,Step-1,Increment      1: Step Time =    1.000,"P-2-1",          3695,   73.5766E-03,   81.5431E-03,            0.,NA,NA,"",   1.10986E+06,   1.05789E+06,   1.05789E+06
C:/temp/Job-2.odb,Step-1,Increment      1: Step Time =    1.000,"P-2-1",          3696,   97.9184E-03,   25.9743E-03,            0.,NA,NA,"",   994.950E+03,   1.00530E+06,   1.00530E+06
C:/temp/Job-2.odb,Step-1,Increment      1: Step Time =    1.000,"P-2-1",          3697,   175.074E-03,   97.0026E-03,            0.,NA,NA,"",   959.470E+03,   975.163E+03,   975.163E+03
C:/temp/Job-2.odb,Step-1,Increment      1: Step Time =    1.000,"P-2-1",          3698,   97.6669E-03,   65.1954E-03,            0.,NA,NA,"",   1.05627E+06,   1.12909E+06,   1.12909E+06
C:/temp/Job-2.odb,Step-1,Increment      1: Step Time =    1.000,"P-2-1",          3699,   129.684E-03,   109.699E-03,            0.,NA,NA,"",   881.039E+03,   842.538E+03,   842.538E+03
C:/temp/Job-2.odb,Step-1,Increment      1: Step Time =    1.000,"P-2-1",          3700,   78.0697E-03,   71.9072E-03,            0.,NA,NA,"",   1.19689E+06,   1.17003E+06,   1.17003E+06
C:/temp/Job-2.odb,Step-1,Increment      1: Step Time =    1.000,"P-2-1",          3701,   121.296E-03,   127.642E-03,            0.,NA,NA,"",   1.22578E+06,   1.18055E+06,   1.18055E+06
C:/temp/Job-2.odb,Step-1,Increment      1: Step Time =    1.000,"P-2-1",          3702,   23.8591E-03,   119.905E-03,            0.,NA,NA,"",   842.393E+03,   922.571E+03,   922.571E+03
C:/temp/Job-2.odb,Step-1,Increment      1: Step Time =    1.000,"P-2-1",          3703,   80.3518E-03,   23.8092E-03,            0.,NA,NA,"",   1.00681E+06,   1.01194E+06,   1.01194E+06
C:/temp/Job-2.odb,Step-1,Increment      1: Step Time =    1.000,"P-2-1",          3704,   119.308E-03,   174.447E-03,            0.,NA,NA,"",   1.00553E+06,   1.00891E+06,   1.00891E+06
C:/temp/Job-2.odb,Step-1,Increment      1: Step Time =    1.000,"P-2-1",          3705,   173.846E-03,   81.9338E-03,            0.,NA,NA,"",   977.515E+03,   986.975E+03,   986.975E+03
C:/temp/Job-2.odb,Step-1,Increment      1: Step Time =    1.000,"P-2-1",          3706,   145.213E-03,   24.3106E-03,            0.,NA,NA,"",   1.01807E+06,   1.01330E+06,   1.01330E+06
C:/temp/Job-2.odb,Step-1,Increment      1: Step Time =    1.000,"P-2-1",          3707,   25.1831E-03,   53.9108E-03,            0.,NA,NA,"",   935.368E+03,   1.00096E+06,   1.00096E+06
C:/temp/Job-2.odb,Step-1,Increment      1: Step Time =    1.000,"P-2-1",          3708,   174.721E-03,   145.880E-03,            0.,NA,NA,"",   1.01359E+06,   1.01239E+06,   1.01239E+06
C:/temp/Job-2.odb,Step-1,Increment      1: Step Time =    1.000,"P-2-1",          3709,   54.7848E-03,   175.077E-03,            0.,NA,NA,"",   1.03819E+06,   1.04198E+06,   1.04198E+06
C:/temp/Job-2.odb,Step-1,Increment      1: Step Time =    1.000,"P-2-1",          3710,   115.727E-03,   65.9010E-03,            0.,NA,NA,"",   1.15977E+06,   1.16358E+06,   1.16358E+06
C:/temp/Job-2.odb,Step-1,Increment      1: Step Time =    1.000,"P-2-1",          3711,   84.9385E-03,   133.426E-03,            0.,NA,NA,"",   1.15294E+06,   1.16914E+06,   1.16914E+06
C:/temp/Job-2.odb,Step-1,Increment      1: Step Time =    1.000,"P-2-1",          3712,   82.9927E-03,   66.3455E-03,            0.,NA,NA,"",   1.15807E+06,   1.16614E+06,   1.16614E+06
C:/temp/Job-2.odb,Step-1,Increment      1: Step Time =    1.000,"P-2-1",          3713,   115.131E-03,   134.330E-03,            0.,NA,NA,"",   1.15321E+06,   1.16189E+06,   1.16189E+06
C:/temp/Job-2.odb,Step-1,Increment      1: Step Time =    1.000,"P-2-1",          3714,   67.6162E-03,   86.2703E-03,            0.,NA,NA,"",   924.667E+03,   916.026E+03,   916.026E+03
C:/temp/Job-2.odb,Step-1,Increment      1: Step Time =    1.000,"P-2-1",          3715,   78.3920E-03,   122.228E-03,            0.,NA,NA,"",   1.22567E+06,   1.17196E+06,   1.17196E+06
C:/temp/Job-2.odb,Step-1,Increment      1: Step Time =    1.000,"P-2-1",          3716,   88.3232E-03,   132.953E-03,            0.,NA,NA,"",   1.13803E+06,   1.17242E+06,   1.17242E+06
C:/temp/Job-2.odb,Step-1,Increment      1: Step Time =    1.000,"P-2-1",          3717,   110.276E-03,   66.9395E-03,            0.,NA,NA,"",   1.12988E+06,   1.16834E+06,   1.16834E+06
C:/temp/Job-2.odb,Step-1,Increment      1: Step Time =    1.000,"P-2-1",          3718,   137.911E-03,   94.6178E-03,            0.,NA,NA,"",   803.445E+03,   809.894E+03,   809.894E+03
C:/temp/Job-2.odb,Step-1,Increment      1: Step Time =    1.000,"P-2-1",          3719,   136.492E-03,   89.4872E-03,            0.,NA,NA,"",   888.679E+03,   873.061E+03,   873.061E+03
C:/temp/Job-2.odb,Step-1,Increment      1: Step Time =    1.000,"P-2-1",          3720,   62.4821E-03,   95.3310E-03,            0.,NA,NA,"",   736.479E+03,   778.130E+03,   778.130E+03
C:/temp/Job-2.odb,Step-1,Increment      1: Step Time =    1.000,"P-2-1",          3721,   12.9484E-03,   190.007E-03,            0.,NA,NA,"",   1.16253E+06,   1.19233E+06,   1.19233E+06
C:/temp/Job-2.odb,Step-1,Increment      1: Step Time =    1.000,"P-2-1",          3722,   190.215E-03,   187.572E-03,            0.,NA,NA,"",   1.00017E+06,   1.00009E+06,   1.00009E+06
C:/temp/Job-2.odb,Step-1,Increment      1: Step Time =    1.000,"P-2-1",          3723,   9.99868E-03,   12.9523E-03,            0.,NA,NA,"",   1.13173E+06,   1.18675E+06,   1.18675E+06
C:/temp/Job-2.odb,Step-1,Increment      1: Step Time =    1.000,"P-2-1",          3724,   187.060E-03,   9.98513E-03,            0.,NA,NA,"",   1.00004E+06,   999.991E+03,   999.991E+03
C:/temp/Job-2.odb,Step-1,Increment      1: Step Time =    1.000,"P-2-1",          3725,   88.0314E-03,   67.0824E-03,            0.,NA,NA,"",   1.13836E+06,   1.17269E+06,   1.17269E+06
C:/temp/Job-2.odb,Step-1,Increment      1: Step Time =    1.000,"P-2-1",          3726,   106.423E-03,   130.571E-03,            0.,NA,NA,"",   1.11229E+06,   1.18158E+06,   1.18158E+06
C:/temp/Job-2.odb,Step-1,Increment      1: Step Time =    1.000,"P-2-1",          3727,   110.812E-03,   134.528E-03,            0.,NA,NA,"",   1.11861E+06,   1.15391E+06,   1.15391E+06
C:/temp/Job-2.odb,Step-1,Increment      1: Step Time =    1.000,"P-2-1",          3728,   94.0238E-03,   174.167E-03,            0.,NA,NA,"",   996.447E+03,   1.00648E+06,   1.00648E+06
C:/temp/Job-2.odb,Step-1,Increment      1: Step Time =    1.000,"P-2-1",          3729,   27.2303E-03,   93.3014E-03,            0.,NA,NA,"",   818.715E+03,   898.579E+03,   898.579E+03
C:/temp/Job-2.odb,Step-1,Increment      1: Step Time =    1.000,"P-2-1",          3730,   174.002E-03,   107.436E-03,            0.,NA,NA,"",   961.284E+03,   975.495E+03,   975.495E+03
C:/temp/Job-2.odb,Step-1,Increment      1: Step Time =    1.000,"P-2-1",          3731,   107.096E-03,   25.5184E-03,            0.,NA,NA,"",   995.237E+03,   1.00384E+06,   1.00384E+06
C:/temp/Job-2.odb,Step-1,Increment      1: Step Time =    1.000,"P-2-1",          3732,   158.571E-03,   174.014E-03,            0.,NA,NA,"",   1.01700E+06,   1.01243E+06,   1.01243E+06
C:/temp/Job-2.odb,Step-1,Increment      1: Step Time =    1.000,"P-2-1",          3733,   26.0957E-03,   158.525E-03,            0.,NA,NA,"",   982.953E+03,   1.03771E+06,   1.03771E+06
C:/temp/Job-2.odb,Step-1,Increment      1: Step Time =    1.000,"P-2-1",          3734,   173.902E-03,   41.4710E-03,            0.,NA,NA,"",   1.01526E+06,   1.01262E+06,   1.01262E+06
C:/temp/Job-2.odb,Step-1,Increment      1: Step Time =    1.000,"P-2-1",          3735,   41.5689E-03,   25.9553E-03,            0.,NA,NA,"",   1.04646E+06,   1.05940E+06,   1.05940E+06
C:/temp/Job-2.odb,Step-1,Increment      1: Step Time =    1.000,"P-2-1",          3736,   175.849E-03,   175.743E-03,            0.,NA,NA,"",   1.00631E+06,   1.00500E+06,   1.00500E+06
C:/temp/Job-2.odb,Step-1,Increment      1: Step Time =    1.000,"P-2-1",          3737,   176.280E-03,   24.3382E-03,            0.,NA,NA,"",   1.00606E+06,   1.00485E+06,   1.00485E+06
C:/temp/Job-2.odb,Step-1,Increment      1: Step Time =    1.000,"P-2-1",          3738,   23.7341E-03,   175.663E-03,            0.,NA,NA,"",   1.04866E+06,   1.08694E+06,   1.08694E+06
C:/temp/Job-2.odb,Step-1,Increment      1: Step Time =    1.000,"P-2-1",          3739,   24.3340E-03,   23.6860E-03,            0.,NA,NA,"",   1.05205E+06,   1.08808E+06,   1.08808E+06
C:/temp/Job-2.odb,Step-1,Increment      1: Step Time =    1.000,"P-2-1",          3740,   88.4440E-03,   173.725E-03,            0.,NA,NA,"",   1.00269E+06,   1.01165E+06,   1.01165E+06
C:/temp/Job-2.odb,Step-1,Increment      1: Step Time =    1.000,"P-2-1",          3741,   84.0378E-03,   176.641E-03,            0.,NA,NA,"",   1.00097E+06,   1.00704E+06,   1.00704E+06
C:/temp/Job-2.odb,Step-1,Increment      1: Step Time =    1.000,"P-2-1",          3742,   115.339E-03,   23.8576E-03,            0.,NA,NA,"",   997.948E+03,   1.00265E+06,   1.00265E+06
C:/temp/Job-2.odb,Step-1,Increment      1: Step Time =    1.000,"P-2-1",          3743,   110.572E-03,   26.3634E-03,            0.,NA,NA,"",   999.156E+03,   1.00698E+06,   1.00698E+06
C:/temp/Job-2.odb,Step-1,Increment      1: Step Time =    1.000,"P-2-1",          3744,   175.952E-03,   117.382E-03,            0.,NA,NA,"",   976.858E+03,   988.148E+03,   988.148E+03
C:/temp/Job-2.odb,Step-1,Increment      1: Step Time =    1.000,"P-2-1",          3745,   174.336E-03,   112.882E-03,            0.,NA,NA,"",   969.102E+03,   981.447E+03,   981.447E+03
C:/temp/Job-2.odb,Step-1,Increment      1: Step Time =    1.000,"P-2-1",          3746,   27.2074E-03,   90.1072E-03,            0.,NA,NA,"",   824.275E+03,   903.434E+03,   903.434E+03
C:/temp/Job-2.odb,Step-1,Increment      1: Step Time =    1.000,"P-2-1",          3747,   22.4875E-03,   83.8489E-03,            0.,NA,NA,"",   829.629E+03,   912.645E+03,   912.645E+03
C:/temp/Job-2.odb,Step-1,Increment      1: Step Time =    1.000,"P-2-1",          3748,   175.522E-03,   49.9131E-03,            0.,NA,NA,"",   1.01372E+06,   1.01233E+06,   1.01233E+06
C:/temp/Job-2.odb,Step-1,Increment      1: Step Time =    1.000,"P-2-1",          3749,   173.251E-03,   46.7756E-03,            0.,NA,NA,"",   1.01691E+06,   1.01412E+06,   1.01412E+06
C:/temp/Job-2.odb,Step-1,Increment      1: Step Time =    1.000,"P-2-1",          3750,   51.2334E-03,   23.3583E-03,            0.,NA,NA,"",   1.03893E+06,   1.04368E+06,   1.04368E+06
C:/temp/Job-2.odb,Step-1,Increment      1: Step Time =    1.000,"P-2-1",          3751,   47.6098E-03,   27.0928E-03,            0.,NA,NA,"",   1.04493E+06,   1.05354E+06,   1.05354E+06
C:/temp/Job-2.odb,Step-1,Increment      1: Step Time =    1.000,"P-2-1",          3752,   152.929E-03,   173.011E-03,            0.,NA,NA,"",   1.02130E+06,   1.01573E+06,   1.01573E+06
C:/temp/Job-2.odb,Step-1,Increment      1: Step Time =    1.000,"P-2-1",          3753,   149.053E-03,   177.798E-03,            0.,NA,NA,"",   1.01370E+06,   1.00961E+06,   1.00961E+06
C:/temp/Job-2.odb,Step-1,Increment      1: Step Time =    1.000,"P-2-1",          3754,   26.7487E-03,   153.233E-03,            0.,NA,NA,"",   965.380E+03,   1.02335E+06,   1.02335E+06
C:/temp/Job-2.odb,Step-1,Increment      1: Step Time =    1.000,"P-2-1",          3755,   24.5298E-03,   150.040E-03,            0.,NA,NA,"",   947.377E+03,   1.01147E+06,   1.01147E+06
C:/temp/Job-2.odb,Step-1,Increment      1: Step Time =    1.000,"P-2-1",          3756,   78.4606E-03,   176.945E-03,            0.,NA,NA,"",   1.00710E+06,   1.01143E+06,   1.01143E+06
C:/temp/Job-2.odb,Step-1,Increment      1: Step Time =    1.000,"P-2-1",          3757,   71.7725E-03,   175.474E-03,            0.,NA,NA,"",   1.01950E+06,   1.02251E+06,   1.02251E+06
C:/temp/Job-2.odb,Step-1,Increment      1: Step Time =    1.000,"P-2-1",          3758,   26.1215E-03,   73.0348E-03,            0.,NA,NA,"",   871.109E+03,   945.241E+03,   945.241E+03
C:/temp/Job-2.odb,Step-1,Increment      1: Step Time =    1.000,"P-2-1",          3759,   23.0917E-03,   76.5001E-03,            0.,NA,NA,"",   851.309E+03,   931.225E+03,   931.225E+03
C:/temp/Job-2.odb,Step-1,Increment      1: Step Time =    1.000,"P-2-1",          3760,   176.328E-03,   122.027E-03,            0.,NA,NA,"",   984.576E+03,   993.826E+03,   993.826E+03
C:/temp/Job-2.odb,Step-1,Increment      1: Step Time =    1.000,"P-2-1",          3761,   174.225E-03,   126.762E-03,            0.,NA,NA,"",   993.483E+03,   998.755E+03,   998.755E+03
C:/temp/Job-2.odb,Step-1,Increment      1: Step Time =    1.000,"P-2-1",          3762,   126.789E-03,   25.3633E-03,            0.,NA,NA,"",   1.01223E+06,   1.01188E+06,   1.01188E+06
C:/temp/Job-2.odb,Step-1,Increment      1: Step Time =    1.000,"P-2-1",          3763,   121.509E-03,   23.1244E-03,            0.,NA,NA,"",   1.00220E+06,   1.00411E+06,   1.00411E+06
C:/temp/Job-2.odb,Step-1,Increment      1: Step Time =    1.000,"P-2-1",          3764,   137.227E-03,   176.975E-03,            0.,NA,NA,"",   1.01303E+06,   1.00982E+06,   1.00982E+06
C:/temp/Job-2.odb,Step-1,Increment      1: Step Time =    1.000,"P-2-1",          3765,   132.931E-03,   175.403E-03,            0.,NA,NA,"",   1.01477E+06,   1.01231E+06,   1.01231E+06
C:/temp/Job-2.odb,Step-1,Increment      1: Step Time =    1.000,"P-2-1",          3766,   25.7811E-03,   131.827E-03,            0.,NA,NA,"",   886.887E+03,   959.172E+03,   959.172E+03
C:/temp/Job-2.odb,Step-1,Increment      1: Step Time =    1.000,"P-2-1",          3767,   22.7835E-03,   136.752E-03,            0.,NA,NA,"",   892.972E+03,   968.020E+03,   968.020E+03
C:/temp/Job-2.odb,Step-1,Increment      1: Step Time =    1.000,"P-2-1",          3768,   174.569E-03,   66.3877E-03,            0.,NA,NA,"",   1.00321E+06,   1.00558E+06,   1.00558E+06
C:/temp/Job-2.odb,Step-1,Increment      1: Step Time =    1.000,"P-2-1",          3769,   177.439E-03,   62.0250E-03,            0.,NA,NA,"",   1.00423E+06,   1.00715E+06,   1.00715E+06
C:/temp/Job-2.odb,Step-1,Increment      1: Step Time =    1.000,"P-2-1",          3770,   62.4918E-03,   23.1189E-03,            0.,NA,NA,"",   1.02685E+06,   1.02884E+06,   1.02884E+06
C:/temp/Job-2.odb,Step-1,Increment      1: Step Time =    1.000,"P-2-1",          3771,   68.2703E-03,   26.0443E-03,            0.,NA,NA,"",   1.02781E+06,   1.03066E+06,   1.03066E+06
C:/temp/Job-2.odb,Step-1,Increment      1: Step Time =    1.000,"P-2-1",          3772,   127.500E-03,   109.342E-03,            0.,NA,NA,"",   881.662E+03,   830.503E+03,   830.503E+03
C:/temp/Job-2.odb,Step-1,Increment      1: Step Time =    1.000,"P-2-1",          3773,   137.229E-03,   105.959E-03,            0.,NA,NA,"",   812.122E+03,   815.156E+03,   815.156E+03
C:/temp/Job-2.odb,Step-1,Increment      1: Step Time =    1.000,"P-2-1",          3774,   123.230E-03,   126.319E-03,            0.,NA,NA,"",   1.22415E+06,   1.16847E+06,   1.16847E+06
C:/temp/Job-2.odb,Step-1,Increment      1: Step Time =    1.000,"P-2-1",          3775,   74.6272E-03,   72.7256E-03,            0.,NA,NA,"",   1.17071E+06,   1.13970E+06,   1.13970E+06
C:/temp/Job-2.odb,Step-1,Increment      1: Step Time =    1.000,"P-2-1",          3776,   18.8020E-03,   61.7083E-03,            0.,NA,NA,"",   883.461E+03,   964.500E+03,   964.500E+03
C:/temp/Job-2.odb,Step-1,Increment      1: Step Time =    1.000,"P-2-1",          3777,   138.369E-03,   19.1115E-03,            0.,NA,NA,"",   1.00491E+06,   1.00241E+06,   1.00241E+06
C:/temp/Job-2.odb,Step-1,Increment      1: Step Time =    1.000,"P-2-1",          3778,   61.4952E-03,   180.734E-03,            0.,NA,NA,"",   1.01808E+06,   1.01936E+06,   1.01936E+06
C:/temp/Job-2.odb,Step-1,Increment      1: Step Time =    1.000,"P-2-1",          3779,   181.227E-03,   138.277E-03,            0.,NA,NA,"",   999.750E+03,   1.00522E+06,   1.00522E+06
C:/temp/Job-2.odb,Step-1,Increment      1: Step Time =    1.000,"P-2-1",          3780,   192.039E-03,   191.856E-03,            0.,NA,NA,"",   999.952E+03,   999.889E+03,   999.889E+03
C:/temp/Job-2.odb,Step-1,Increment      1: Step Time =    1.000,"P-2-1",          3781,   8.23754E-03,   191.750E-03,            0.,NA,NA,"",   1.22647E+06,   1.26870E+06,   1.26870E+06
C:/temp/Job-2.odb,Step-1,Increment      1: Step Time =    1.000,"P-2-1",          3782,   191.766E-03,   8.24708E-03,            0.,NA,NA,"",   999.951E+03,   999.901E+03,   999.901E+03
C:/temp/Job-2.odb,Step-1,Increment      1: Step Time =    1.000,"P-2-1",          3783,   8.25415E-03,   8.24055E-03,            0.,NA,NA,"",   1.22423E+06,   1.26740E+06,   1.26740E+06
C:/temp/Job-2.odb,Step-1,Increment      1: Step Time =    1.000,"P-2-1",          3784,   102.392E-03,   65.3202E-03,            0.,NA,NA,"",   1.05807E+06,   1.13007E+06,   1.13007E+06
C:/temp/Job-2.odb,Step-1,Increment      1: Step Time =    1.000,"P-2-1",          3785,   100.827E-03,   134.503E-03,            0.,NA,NA,"",   1.05338E+06,   1.12804E+06,   1.12804E+06
C:/temp/Job-2.odb,Step-1,Increment      1: Step Time =    1.000,"P-2-1",          3786,   176.060E-03,   91.9094E-03,            0.,NA,NA,"",   964.362E+03,   979.537E+03,   979.537E+03
C:/temp/Job-2.odb,Step-1,Increment      1: Step Time =    1.000,"P-2-1",          3787,   107.399E-03,   176.608E-03,            0.,NA,NA,"",   991.145E+03,   998.295E+03,   998.295E+03
C:/temp/Job-2.odb,Step-1,Increment      1: Step Time =    1.000,"P-2-1",          3788,   25.1538E-03,   108.251E-03,            0.,NA,NA,"",   818.470E+03,   900.245E+03,   900.245E+03
C:/temp/Job-2.odb,Step-1,Increment      1: Step Time =    1.000,"P-2-1",          3789,   93.3721E-03,   23.9628E-03,            0.,NA,NA,"",    993.36E+03,   1.00188E+06,   1.00188E+06
C:/temp/Job-2.odb,Step-1,Increment      1: Step Time =    1.000,"P-2-1",          3790,   42.9335E-03,   176.051E-03,            0.,NA,NA,"",   1.04601E+06,   1.05608E+06,   1.05608E+06
C:/temp/Job-2.odb,Step-1,Increment      1: Step Time =    1.000,"P-2-1",          3791,   23.9310E-03,   42.9007E-03,            0.,NA,NA,"",   970.084E+03,   1.03059E+06,   1.03059E+06
C:/temp/Job-2.odb,Step-1,Increment      1: Step Time =    1.000,"P-2-1",          3792,   176.178E-03,   157.084E-03,            0.,NA,NA,"",   1.01294E+06,   1.01123E+06,   1.01123E+06
C:/temp/Job-2.odb,Step-1,Increment      1: Step Time =    1.000,"P-2-1",          3793,   157.056E-03,   23.9299E-03,            0.,NA,NA,"",   1.01512E+06,   1.01090E+06,   1.01090E+06
C:/temp/Job-2.odb,Step-1,Increment      1: Step Time =    1.000,"P-2-1",          3794,   126.374E-03,   77.1262E-03,            0.,NA,NA,"",   1.19180E+06,   1.12261E+06,   1.12261E+06
C:/temp/Job-2.odb,Step-1,Increment      1: Step Time =    1.000,"P-2-1",          3795,   127.126E-03,   83.5328E-03,            0.,NA,NA,"",   1.10689E+06,   1.02820E+06,   1.02820E+06
C:/temp/Job-2.odb,Step-1,Increment      1: Step Time =    1.000,"P-2-1",          3796,   73.0676E-03,   123.237E-03,            0.,NA,NA,"",   1.14821E+06,   1.10710E+06,   1.10710E+06
C:/temp/Job-2.odb,Step-1,Increment      1: Step Time =    1.000,"P-2-1",          3797,   122.385E-03,   70.8367E-03,            0.,NA,NA,"",   1.21034E+06,   1.16789E+06,   1.16789E+06
C:/temp/Job-2.odb,Step-1,Increment      1: Step Time =    1.000,"P-2-1",          3798,   79.4691E-03,   129.961E-03,            0.,NA,NA,"",   1.19100E+06,   1.17391E+06,   1.17391E+06
C:/temp/Job-2.odb,Step-1,Increment      1: Step Time =    1.000,"P-2-1",          3799,   60.9540E-03,   101.921E-03,            0.,NA,NA,"",   729.409E+03,   776.917E+03,   776.917E+03
C:/temp/Job-2.odb,Step-1,Increment      1: Step Time =    1.000,"P-2-1",          3800,   132.360E-03,   115.458E-03,            0.,NA,NA,"",   1.01683E+06,   967.622E+03,   967.622E+03
C:/temp/Job-2.odb,Step-1,Increment      1: Step Time =    1.000,"P-2-1",          3801,   101.367E-03,   173.806E-03,            0.,NA,NA,"",   994.807E+03,   1.00513E+06,   1.00513E+06
C:/temp/Job-2.odb,Step-1,Increment      1: Step Time =    1.000,"P-2-1",          3802,   25.1588E-03,   100.905E-03,            0.,NA,NA,"",   812.047E+03,   894.607E+03,   894.607E+03
C:/temp/Job-2.odb,Step-1,Increment      1: Step Time =    1.000,"P-2-1",          3803,   62.8520E-03,   97.3108E-03,            0.,NA,NA,"",   712.103E+03,   756.932E+03,   756.932E+03
C:/temp/Job-2.odb,Step-1,Increment      1: Step Time =    1.000,"P-2-1",          3804,   68.1210E-03,   92.2802E-03,            0.,NA,NA,"",   765.735E+03,   781.858E+03,   781.858E+03
C:/temp/Job-2.odb,Step-1,Increment      1: Step Time =    1.000,"P-2-1",          3805,   105.626E-03,   63.3514E-03,            0.,NA,NA,"",   1.06492E+06,   1.12323E+06,   1.12323E+06
C:/temp/Job-2.odb,Step-1,Increment      1: Step Time =    1.000,"P-2-1",          3806,   94.4307E-03,   135.813E-03,            0.,NA,NA,"",   1.06757E+06,   1.12925E+06,   1.12925E+06
C:/temp/Job-2.odb,Step-1,Increment      1: Step Time =    1.000,"P-2-1",          3807,   25.8604E-03,   128.494E-03,            0.,NA,NA,"",   875.405E+03,   949.210E+03,   949.210E+03
C:/temp/Job-2.odb,Step-1,Increment      1: Step Time =    1.000,"P-2-1",          3808,   71.5137E-03,   25.8453E-03,            0.,NA,NA,"",   1.02349E+06,   1.02679E+06,   1.02679E+06
C:/temp/Job-2.odb,Step-1,Increment      1: Step Time =    1.000,"P-2-1",          3809,   126.886E-03,   174.390E-03,            0.,NA,NA,"",   1.01289E+06,   1.01254E+06,   1.01254E+06
C:/temp/Job-2.odb,Step-1,Increment      1: Step Time =    1.000,"P-2-1",          3810,   174.310E-03,   72.1088E-03,            0.,NA,NA,"",   995.263E+03,   999.994E+03,   999.994E+03
C:/temp/Job-2.odb,Step-1,Increment      1: Step Time =    1.000,"P-2-1",          3811,   48.4379E-03,   175.405E-03,            0.,NA,NA,"",   1.04275E+06,   1.04943E+06,   1.04943E+06
C:/temp/Job-2.odb,Step-1,Increment      1: Step Time =    1.000,"P-2-1",          3812,   24.0232E-03,   48.0922E-03,            0.,NA,NA,"",   950.999E+03,   1.01544E+06,   1.01544E+06
C:/temp/Job-2.odb,Step-1,Increment      1: Step Time =    1.000,"P-2-1",          3813,   175.904E-03,   151.814E-03,            0.,NA,NA,"",   1.01322E+06,   1.01189E+06,   1.01189E+06
C:/temp/Job-2.odb,Step-1,Increment      1: Step Time =    1.000,"P-2-1",          3814,   151.650E-03,   24.2462E-03,            0.,NA,NA,"",   1.01713E+06,   1.01238E+06,   1.01238E+06
C:/temp/Job-2.odb,Step-1,Increment      1: Step Time =    1.000,"P-2-1",          3815,   112.312E-03,   175.843E-03,            0.,NA,NA,"",   995.804E+03,   1.00190E+06,   1.00190E+06
C:/temp/Job-2.odb,Step-1,Increment      1: Step Time =    1.000,"P-2-1",          3816,   175.448E-03,   88.5818E-03,            0.,NA,NA,"",   967.467E+03,   981.165E+03,   981.165E+03
C:/temp/Job-2.odb,Step-1,Increment      1: Step Time =    1.000,"P-2-1",          3817,   87.1045E-03,   23.8103E-03,            0.,NA,NA,"",   998.568E+03,   1.00594E+06,   1.00594E+06
C:/temp/Job-2.odb,Step-1,Increment      1: Step Time =    1.000,"P-2-1",          3818,   24.4963E-03,   110.609E-03,            0.,NA,NA,"",   821.305E+03,   903.446E+03,   903.446E+03
C:/temp/Job-2.odb,Step-1,Increment      1: Step Time =    1.000,"P-2-1",          3819,   62.9726E-03,   111.140E-03,            0.,NA,NA,"",   847.447E+03,   867.105E+03,   867.105E+03
C:/temp/Job-2.odb,Step-1,Increment      1: Step Time =    1.000,"P-2-1",          3820,   26.2019E-03,   67.7186E-03,            0.,NA,NA,"",   890.291E+03,   961.524E+03,   961.524E+03
C:/temp/Job-2.odb,Step-1,Increment      1: Step Time =    1.000,"P-2-1",          3821,   131.909E-03,   26.0983E-03,            0.,NA,NA,"",   1.01820E+06,   1.01567E+06,   1.01567E+06
C:/temp/Job-2.odb,Step-1,Increment      1: Step Time =    1.000,"P-2-1",          3822,   67.8855E-03,   174.425E-03,            0.,NA,NA,"",   1.02746E+06,   1.03012E+06,   1.03012E+06
C:/temp/Job-2.odb,Step-1,Increment      1: Step Time =    1.000,"P-2-1",          3823,   174.519E-03,   131.994E-03,            0.,NA,NA,"",   1.00137E+06,   1.00430E+06,   1.00430E+06
C:/temp/Job-2.odb,Step-1,Increment      1: Step Time =    1.000,"P-2-1",          3824,   63.6656E-03,   180.892E-03,            0.,NA,NA,"",   1.01461E+06,   1.01584E+06,   1.01584E+06
C:/temp/Job-2.odb,Step-1,Increment      1: Step Time =    1.000,"P-2-1",          3825,   136.174E-03,   18.9214E-03,            0.,NA,NA,"",   1.00307E+06,   1.00095E+06,   1.00095E+06
C:/temp/Job-2.odb,Step-1,Increment      1: Step Time =    1.000,"P-2-1",          3826,   175.234E-03,   100.494E-03,            0.,NA,NA,"",   959.050E+03,   975.030E+03,   975.030E+03
C:/temp/Job-2.odb,Step-1,Increment      1: Step Time =    1.000,"P-2-1",          3827,   103.499E-03,   24.6598E-03,            0.,NA,NA,"",   992.256E+03,   1.00118E+06,   1.00118E+06
C:/temp/Job-2.odb,Step-1,Increment      1: Step Time =    1.000,"P-2-1",          3828,   129.830E-03,   83.6232E-03,            0.,NA,NA,"",   1.06746E+06,   1.00320E+06,   1.00320E+06
C:/temp/Job-2.odb,Step-1,Increment      1: Step Time =    1.000,"P-2-1",          3829,   70.7577E-03,   122.840E-03,            0.,NA,NA,"",   1.11207E+06,   1.07769E+06,   1.07769E+06
C:/temp/Job-2.odb,Step-1,Increment      1: Step Time =    1.000,"P-2-1",          3830,   72.1863E-03,   125.568E-03,            0.,NA,NA,"",   1.14535E+06,   1.11201E+06,   1.11201E+06
C:/temp/Job-2.odb,Step-1,Increment      1: Step Time =    1.000,"P-2-1",          3831,   127.520E-03,   80.6986E-03,            0.,NA,NA,"",   1.14431E+06,   1.06993E+06,   1.06993E+06
C:/temp/Job-2.odb,Step-1,Increment      1: Step Time =    1.000,"P-2-1",          3832,   89.6618E-03,   137.006E-03,            0.,NA,NA,"",   1.09383E+06,   1.13534E+06,   1.13534E+06
C:/temp/Job-2.odb,Step-1,Increment      1: Step Time =    1.000,"P-2-1",          3833,   109.224E-03,   64.7635E-03,            0.,NA,NA,"",   1.10069E+06,   1.14481E+06,   1.14481E+06
C:/temp/Job-2.odb,Step-1,Increment      1: Step Time =    1.000,"P-2-1",          3834,   68.0760E-03,   118.652E-03,            0.,NA,NA,"",   1.02439E+06,   1.00247E+06,   1.00247E+06
C:/temp/Job-2.odb,Step-1,Increment      1: Step Time =    1.000,"P-2-1",          3835,   77.6771E-03,   117.518E-03,            0.,NA,NA,"",   1.18596E+06,   1.10826E+06,   1.10826E+06
C:/temp/Job-2.odb,Step-1,Increment      1: Step Time =    1.000,"P-2-1",          3836,   64.3371E-03,   115.790E-03,            0.,NA,NA,"",   936.357E+03,   938.509E+03,   938.509E+03
C:/temp/Job-2.odb,Step-1,Increment      1: Step Time =    1.000,"P-2-1",          3837,   100.116E-03,   65.3258E-03,            0.,NA,NA,"",   1.05367E+06,   1.12817E+06,   1.12817E+06
C:/temp/Job-2.odb,Step-1,Increment      1: Step Time =    1.000,"P-2-1",          3838,   100.422E-03,   62.8539E-03,            0.,NA,NA,"",   1.04461E+06,   1.11104E+06,   1.11104E+06
C:/temp/Job-2.odb,Step-1,Increment      1: Step Time =    1.000,"P-2-1",          3839,   99.4597E-03,   137.042E-03,            0.,NA,NA,"",   1.04528E+06,   1.11197E+06,   1.11197E+06
C:/temp/Job-2.odb,Step-1,Increment      1: Step Time =    1.000,"P-2-1",          3840,   29.8896E-03,   25.1568E-03,            0.,NA,NA,"",   1.04874E+06,   1.07609E+06,   1.07609E+06
C:/temp/Job-2.odb,Step-1,Increment      1: Step Time =    1.000,"P-2-1",          3841,   174.540E-03,   29.8986E-03,            0.,NA,NA,"",   1.00986E+06,   1.00793E+06,   1.00793E+06
C:/temp/Job-2.odb,Step-1,Increment      1: Step Time =    1.000,"P-2-1",          3842,   25.4839E-03,   170.087E-03,            0.,NA,NA,"",   1.02675E+06,   1.06988E+06,   1.06988E+06
C:/temp/Job-2.odb,Step-1,Increment      1: Step Time =    1.000,"P-2-1",          3843,   169.862E-03,   174.319E-03,            0.,NA,NA,"",   1.01035E+06,   1.00785E+06,   1.00785E+06
C:/temp/Job-2.odb,Step-1,Increment      1: Step Time =    1.000,"P-2-1",          3844,   25.6517E-03,   34.8361E-03,            0.,NA,NA,"",   1.00758E+06,   1.05620E+06,   1.05620E+06
C:/temp/Job-2.odb,Step-1,Increment      1: Step Time =    1.000,"P-2-1",          3845,   23.3418E-03,   40.5164E-03,            0.,NA,NA,"",   977.008E+03,   1.03680E+06,   1.03680E+06
C:/temp/Job-2.odb,Step-1,Increment      1: Step Time =    1.000,"P-2-1",          3846,   34.8031E-03,   174.338E-03,            0.,NA,NA,"",   1.04778E+06,   1.06860E+06,   1.06860E+06
C:/temp/Job-2.odb,Step-1,Increment      1: Step Time =    1.000,"P-2-1",          3847,   40.5069E-03,   176.622E-03,            0.,NA,NA,"",   1.04772E+06,   1.05932E+06,   1.05932E+06
C:/temp/Job-2.odb,Step-1,Increment      1: Step Time =    1.000,"P-2-1",          3848,   159.478E-03,   23.3822E-03,            0.,NA,NA,"",   1.01338E+06,   1.00961E+06,   1.00961E+06
C:/temp/Job-2.odb,Step-1,Increment      1: Step Time =    1.000,"P-2-1",          3849,   165.192E-03,   25.6886E-03,            0.,NA,NA,"",   1.01315E+06,   1.00977E+06,   1.00977E+06
C:/temp/Job-2.odb,Step-1,Increment      1: Step Time =    1.000,"P-2-1",          3850,   176.828E-03,   159.477E-03,            0.,NA,NA,"",   1.01169E+06,   1.01017E+06,   1.01017E+06
C:/temp/Job-2.odb,Step-1,Increment      1: Step Time =    1.000,"P-2-1",          3851,   175.146E-03,   165.162E-03,            0.,NA,NA,"",   1.01159E+06,   1.00954E+06,   1.00954E+06
C:/temp/Job-2.odb,Step-1,Increment      1: Step Time =    1.000,"P-2-1",          3852,   95.5003E-03,   23.6876E-03,            0.,NA,NA,"",   991.602E+03,   1.00022E+06,   1.00022E+06
C:/temp/Job-2.odb,Step-1,Increment      1: Step Time =    1.000,"P-2-1",          3853,   176.538E-03,   95.2742E-03,            0.,NA,NA,"",   962.236E+03,   978.466E+03,   978.466E+03
C:/temp/Job-2.odb,Step-1,Increment      1: Step Time =    1.000,"P-2-1",          3854,   94.8647E-03,   64.8005E-03,            0.,NA,NA,"",   1.06840E+06,   1.13324E+06,   1.13324E+06
C:/temp/Job-2.odb,Step-1,Increment      1: Step Time =    1.000,"P-2-1",          3855,   132.373E-03,   112.812E-03,            0.,NA,NA,"",   955.933E+03,   915.825E+03,   915.825E+03
C:/temp/Job-2.odb,Step-1,Increment      1: Step Time =    1.000,"P-2-1",          3856,   75.7852E-03,   70.6214E-03,            0.,NA,NA,"",   1.17491E+06,   1.15013E+06,   1.15013E+06
C:/temp/Job-2.odb,Step-1,Increment      1: Step Time =    1.000,"P-2-1",          3857,   122.895E-03,   130.034E-03,            0.,NA,NA,"",   1.20082E+06,   1.16089E+06,   1.16089E+06
C:/temp/Job-2.odb,Step-1,Increment      1: Step Time =    1.000,"P-2-1",          3858,   23.9815E-03,   123.255E-03,            0.,NA,NA,"",   852.349E+03,   931.123E+03,   931.123E+03
C:/temp/Job-2.odb,Step-1,Increment      1: Step Time =    1.000,"P-2-1",          3859,   76.9310E-03,   24.2490E-03,            0.,NA,NA,"",   1.01216E+06,   1.01653E+06,   1.01653E+06
C:/temp/Job-2.odb,Step-1,Increment      1: Step Time =    1.000,"P-2-1",          3860,   83.8169E-03,   20.7076E-03,            0.,NA,NA,"",   994.300E+03,   999.322E+03,   999.322E+03
C:/temp/Job-2.odb,Step-1,Increment      1: Step Time =    1.000,"P-2-1",          3861,   121.714E-03,   173.947E-03,            0.,NA,NA,"",   1.00928E+06,   1.01152E+06,   1.01152E+06
C:/temp/Job-2.odb,Step-1,Increment      1: Step Time =    1.000,"P-2-1",          3862,   117.506E-03,   177.706E-03,            0.,NA,NA,"",   996.262E+03,   999.673E+03,   999.673E+03
C:/temp/Job-2.odb,Step-1,Increment      1: Step Time =    1.000,"P-2-1",          3863,   176.667E-03,   82.7085E-03,            0.,NA,NA,"",   976.503E+03,   988.377E+03,   988.377E+03
C:/temp/Job-2.odb,Step-1,Increment      1: Step Time =    1.000,"P-2-1",          3864,   173.890E-03,   79.7205E-03,            0.,NA,NA,"",   981.633E+03,   990.081E+03,   990.081E+03
C:/temp/Job-2.odb,Step-1,Increment      1: Step Time =    1.000,"P-2-1",          3865,   142.821E-03,   24.2335E-03,            0.,NA,NA,"",   1.01770E+06,   1.01315E+06,   1.01315E+06
C:/temp/Job-2.odb,Step-1,Increment      1: Step Time =    1.000,"P-2-1",          3866,   149.679E-03,   22.7565E-03,            0.,NA,NA,"",   1.01480E+06,   1.01049E+06,   1.01049E+06
C:/temp/Job-2.odb,Step-1,Increment      1: Step Time =    1.000,"P-2-1",          3867,   25.6455E-03,   56.1064E-03,            0.,NA,NA,"",   929.506E+03,   995.530E+03,   995.530E+03
C:/temp/Job-2.odb,Step-1,Increment      1: Step Time =    1.000,"P-2-1",          3868,   22.4327E-03,   49.5935E-03,            0.,NA,NA,"",   939.229E+03,   1.00778E+06,   1.00778E+06
C:/temp/Job-2.odb,Step-1,Increment      1: Step Time =    1.000,"P-2-1",          3869,   174.293E-03,   143.670E-03,            0.,NA,NA,"",   1.01315E+06,   1.01212E+06,   1.01212E+06
C:/temp/Job-2.odb,Step-1,Increment      1: Step Time =    1.000,"P-2-1",          3870,   177.498E-03,   150.326E-03,            0.,NA,NA,"",   1.01083E+06,   1.01056E+06,   1.01056E+06
C:/temp/Job-2.odb,Step-1,Increment      1: Step Time =    1.000,"P-2-1",          3871,   57.1137E-03,   175.679E-03,            0.,NA,NA,"",   1.03552E+06,   1.03854E+06,   1.03854E+06
C:/temp/Job-2.odb,Step-1,Increment      1: Step Time =    1.000,"P-2-1",          3872,   50.3587E-03,   177.004E-03,            0.,NA,NA,"",   1.03913E+06,   1.04414E+06,   1.04414E+06
C:/temp/Job-2.odb,Step-1,Increment      1: Step Time =    1.000,"P-2-1",          3873,   82.1743E-03,   68.6282E-03,            0.,NA,NA,"",   1.18178E+06,   1.18037E+06,   1.18037E+06
C:/temp/Job-2.odb,Step-1,Increment      1: Step Time =    1.000,"P-2-1",          3874,   117.554E-03,   132.476E-03,            0.,NA,NA,"",   1.18227E+06,   1.17296E+06,   1.17296E+06
C:/temp/Job-2.odb,Step-1,Increment      1: Step Time =    1.000,"P-2-1",          3875,   65.3616E-03,   82.2625E-03,            0.,NA,NA,"",   985.428E+03,   976.825E+03,   976.825E+03
C:/temp/Job-2.odb,Step-1,Increment      1: Step Time =    1.000,"P-2-1",          3876,   171.970E-03,   131.699E-03,            0.,NA,NA,"",   1.00401E+06,   1.00505E+06,   1.00505E+06
C:/temp/Job-2.odb,Step-1,Increment      1: Step Time =    1.000,"P-2-1",          3877,   68.3699E-03,   172.116E-03,            0.,NA,NA,"",   1.03277E+06,   1.03594E+06,   1.03594E+06
C:/temp/Job-2.odb,Step-1,Increment      1: Step Time =    1.000,"P-2-1",          3878,   132.169E-03,   28.6392E-03,            0.,NA,NA,"",   1.02502E+06,   1.02175E+06,   1.02175E+06
C:/temp/Job-2.odb,Step-1,Increment      1: Step Time =    1.000,"P-2-1",          3879,   28.9002E-03,   67.3459E-03,            0.,NA,NA,"",   901.270E+03,   967.764E+03,   967.764E+03
C:/temp/Job-2.odb,Step-1,Increment      1: Step Time =    1.000,"P-2-1",          3880,   138.257E-03,   97.7332E-03,            0.,NA,NA,"",   778.279E+03,   791.129E+03,   791.129E+03
C:/temp/Job-2.odb,Step-1,Increment      1: Step Time =    1.000,"P-2-1",          3881,   171.820E-03,   72.6539E-03,            0.,NA,NA,"",   996.519E+03,   999.522E+03,   999.522E+03
C:/temp/Job-2.odb,Step-1,Increment      1: Step Time =    1.000,"P-2-1",          3882,   128.210E-03,   171.043E-03,            0.,NA,NA,"",   1.02206E+06,   1.02076E+06,   1.02076E+06
C:/temp/Job-2.odb,Step-1,Increment      1: Step Time =    1.000,"P-2-1",          3883,   72.8243E-03,   28.2642E-03,            0.,NA,NA,"",   1.02772E+06,   1.03192E+06,   1.03192E+06
C:/temp/Job-2.odb,Step-1,Increment      1: Step Time =    1.000,"P-2-1",          3884,   27.4820E-03,   126.681E-03,            0.,NA,NA,"",   873.993E+03,   946.154E+03,   946.154E+03
C:/temp/Job-2.odb,Step-1,Increment      1: Step Time =    1.000,"P-2-1",          3885,   138.174E-03,   91.3597E-03,            0.,NA,NA,"",   856.809E+03,   852.240E+03,   852.240E+03
C:/temp/Job-2.odb,Step-1,Increment      1: Step Time =    1.000,"P-2-1",          3886,   105.480E-03,   133.894E-03,            0.,NA,NA,"",   1.07725E+06,   1.14298E+06,   1.14298E+06
C:/temp/Job-2.odb,Step-1,Increment      1: Step Time =    1.000,"P-2-1",          3887,   77.1832E-03,   174.421E-03,            0.,NA,NA,"",   1.01539E+06,   1.02012E+06,   1.02012E+06
C:/temp/Job-2.odb,Step-1,Increment      1: Step Time =    1.000,"P-2-1",          3888,   25.2667E-03,   77.8616E-03,            0.,NA,NA,"",   852.665E+03,   930.203E+03,   930.203E+03
C:/temp/Job-2.odb,Step-1,Increment      1: Step Time =    1.000,"P-2-1",          3889,   173.912E-03,   122.204E-03,            0.,NA,NA,"",   985.684E+03,   992.992E+03,   992.992E+03
C:/temp/Job-2.odb,Step-1,Increment      1: Step Time =    1.000,"P-2-1",          3890,   123.149E-03,   25.3710E-03,            0.,NA,NA,"",   1.00901E+06,   1.01030E+06,   1.01030E+06
C:/temp/Job-2.odb,Step-1,Increment      1: Step Time =    1.000,"P-2-1",          3891,   104.374E-03,   131.614E-03,            0.,NA,NA,"",   1.08490E+06,   1.16140E+06,   1.16140E+06
C:/temp/Job-2.odb,Step-1,Increment      1: Step Time =    1.000,"P-2-1",          3892,   136.766E-03,   174.605E-03,            0.,NA,NA,"",   1.01844E+06,   1.01472E+06,   1.01472E+06
C:/temp/Job-2.odb,Step-1,Increment      1: Step Time =    1.000,"P-2-1",          3893,   25.7234E-03,   137.464E-03,            0.,NA,NA,"",   907.078E+03,   976.449E+03,   976.449E+03
C:/temp/Job-2.odb,Step-1,Increment      1: Step Time =    1.000,"P-2-1",          3894,   175.125E-03,   61.7327E-03,            0.,NA,NA,"",   1.00768E+06,   1.00877E+06,   1.00877E+06
C:/temp/Job-2.odb,Step-1,Increment      1: Step Time =    1.000,"P-2-1",          3895,   62.8384E-03,   25.4997E-03,            0.,NA,NA,"",   1.03262E+06,   1.03508E+06,   1.03508E+06
C:/temp/Job-2.odb,Step-1,Increment      1: Step Time =    1.000,"P-2-1",          3896,   138.588E-03,   102.347E-03,            0.,NA,NA,"",   784.848E+03,   797.188E+03,   797.188E+03
C:/temp/Job-2.odb,Step-1,Increment      1: Step Time =    1.000,"P-2-1",          3897,   125.275E-03,   126.189E-03,            0.,NA,NA,"",   1.20730E+06,   1.14881E+06,   1.14881E+06
C:/temp/Job-2.odb,Step-1,Increment      1: Step Time =    1.000,"P-2-1",          3898,   73.1994E-03,   74.9398E-03,            0.,NA,NA,"",   1.15370E+06,   1.11767E+06,   1.11767E+06
C:/temp/Job-2.odb,Step-1,Increment      1: Step Time =    1.000,"P-2-1",          3899,   105.231E-03,   176.547E-03,            0.,NA,NA,"",   990.470E+03,   998.255E+03,   998.255E+03
C:/temp/Job-2.odb,Step-1,Increment      1: Step Time =    1.000,"P-2-1",          3900,   23.3738E-03,   105.293E-03,            0.,NA,NA,"",   812.471E+03,   896.579E+03,   896.579E+03
C:/temp/Job-2.odb,Step-1,Increment      1: Step Time =    1.000,"P-2-1",          3901,   120.997E-03,   69.3840E-03,            0.,NA,NA,"",   1.20323E+06,   1.17100E+06,   1.17100E+06
C:/temp/Job-2.odb,Step-1,Increment      1: Step Time =    1.000,"P-2-1",          3902,   79.7050E-03,   133.137E-03,            0.,NA,NA,"",   1.16471E+06,   1.15887E+06,   1.15887E+06
C:/temp/Job-2.odb,Step-1,Increment      1: Step Time =    1.000,"P-2-1",          3903,   63.5687E-03,   103.989E-03,            0.,NA,NA,"",   720.248E+03,   761.744E+03,   761.744E+03
C:/temp/Job-2.odb,Step-1,Increment      1: Step Time =    1.000,"P-2-1",          3904,   99.2448E-03,   174.747E-03,            0.,NA,NA,"",   993.286E+03,   1.00310E+06,   1.00310E+06
C:/temp/Job-2.odb,Step-1,Increment      1: Step Time =    1.000,"P-2-1",          3905,   103.935E-03,   174.398E-03,            0.,NA,NA,"",   994.129E+03,   1.00373E+06,   1.00373E+06
C:/temp/Job-2.odb,Step-1,Increment      1: Step Time =    1.000,"P-2-1",          3906,   24.1752E-03,   103.075E-03,            0.,NA,NA,"",   811.761E+03,   895.239E+03,   895.239E+03
C:/temp/Job-2.odb,Step-1,Increment      1: Step Time =    1.000,"P-2-1",          3907,   26.3757E-03,   98.8149E-03,            0.,NA,NA,"",   813.389E+03,   894.725E+03,   894.725E+03
C:/temp/Job-2.odb,Step-1,Increment      1: Step Time =    1.000,"P-2-1",          3908,   60.5068E-03,   99.7147E-03,            0.,NA,NA,"",   729.017E+03,   777.423E+03,   777.423E+03
C:/temp/Job-2.odb,Step-1,Increment      1: Step Time =    1.000,"P-2-1",          3909,   66.0492E-03,   89.8212E-03,            0.,NA,NA,"",   829.589E+03,   842.876E+03,   842.876E+03
C:/temp/Job-2.odb,Step-1,Increment      1: Step Time =    1.000,"P-2-1",          3910,   114.655E-03,   64.0700E-03,            0.,NA,NA,"",   1.13641E+06,   1.14907E+06,   1.14907E+06
C:/temp/Job-2.odb,Step-1,Increment      1: Step Time =    1.000,"P-2-1",          3911,   83.4101E-03,   135.654E-03,            0.,NA,NA,"",   1.13942E+06,   1.15175E+06,   1.15175E+06
C:/temp/Job-2.odb,Step-1,Increment      1: Step Time =    1.000,"P-2-1",          3912,   24.0241E-03,   126.672E-03,            0.,NA,NA,"",   863.421E+03,   940.811E+03,   940.811E+03
C:/temp/Job-2.odb,Step-1,Increment      1: Step Time =    1.000,"P-2-1",          3913,   73.3895E-03,   24.2219E-03,            0.,NA,NA,"",   1.01701E+06,   1.02035E+06,   1.02035E+06
C:/temp/Job-2.odb,Step-1,Increment      1: Step Time =    1.000,"P-2-1",          3914,   124.552E-03,   175.309E-03,            0.,NA,NA,"",   1.00860E+06,   1.00930E+06,   1.00930E+06
C:/temp/Job-2.odb,Step-1,Increment      1: Step Time =    1.000,"P-2-1",          3915,   175.060E-03,   74.6783E-03,            0.,NA,NA,"",   990.359E+03,   997.019E+03,   997.019E+03
C:/temp/Job-2.odb,Step-1,Increment      1: Step Time =    1.000,"P-2-1",          3916,   47.1717E-03,   173.791E-03,            0.,NA,NA,"",   1.04475E+06,   1.05307E+06,   1.05307E+06
C:/temp/Job-2.odb,Step-1,Increment      1: Step Time =    1.000,"P-2-1",          3917,   25.8336E-03,   47.2267E-03,            0.,NA,NA,"",   961.129E+03,    1.0212E+06,    1.0212E+06
C:/temp/Job-2.odb,Step-1,Increment      1: Step Time =    1.000,"P-2-1",          3918,   174.114E-03,   152.696E-03,            0.,NA,NA,"",   1.01589E+06,   1.01349E+06,   1.01349E+06
C:/temp/Job-2.odb,Step-1,Increment      1: Step Time =    1.000,"P-2-1",          3919,   152.916E-03,   25.8992E-03,            0.,NA,NA,"",   1.01952E+06,   1.01430E+06,   1.01430E+06
C:/temp/Job-2.odb,Step-1,Increment      1: Step Time =    1.000,"P-2-1",          3920,   110.276E-03,   174.877E-03,            0.,NA,NA,"",   996.312E+03,   1.00359E+06,   1.00359E+06
C:/temp/Job-2.odb,Step-1,Increment      1: Step Time =    1.000,"P-2-1",          3921,   174.134E-03,   90.3733E-03,            0.,NA,NA,"",   964.080E+03,   977.681E+03,   977.681E+03
C:/temp/Job-2.odb,Step-1,Increment      1: Step Time =    1.000,"P-2-1",          3922,   89.3283E-03,   24.8580E-03,            0.,NA,NA,"",   998.228E+03,   1.00664E+06,   1.00664E+06
C:/temp/Job-2.odb,Step-1,Increment      1: Step Time =    1.000,"P-2-1",          3923,   27.2384E-03,   111.027E-03,            0.,NA,NA,"",   826.343E+03,   905.285E+03,   905.285E+03
C:/temp/Job-2.odb,Step-1,Increment      1: Step Time =    1.000,"P-2-1",          3924,   23.3423E-03,   65.2670E-03,            0.,NA,NA,"",   888.753E+03,   963.679E+03,   963.679E+03
C:/temp/Job-2.odb,Step-1,Increment      1: Step Time =    1.000,"P-2-1",          3925,   134.602E-03,   23.4781E-03,            0.,NA,NA,"",   1.01325E+06,   1.01042E+06,   1.01042E+06
C:/temp/Job-2.odb,Step-1,Increment      1: Step Time =    1.000,"P-2-1",          3926,   65.0829E-03,   176.216E-03,            0.,NA,NA,"",   1.02592E+06,   1.02798E+06,   1.02798E+06
C:/temp/Job-2.odb,Step-1,Increment      1: Step Time =    1.000,"P-2-1",          3927,   176.791E-03,   134.840E-03,            0.,NA,NA,"",   1.00209E+06,   1.00566E+06,   1.00566E+06
C:/temp/Job-2.odb,Step-1,Increment      1: Step Time =    1.000,"P-2-1",          3928,   123.776E-03,   69.1423E-03,            0.,NA,NA,"",   1.19254E+06,   1.15312E+06,   1.15312E+06
C:/temp/Job-2.odb,Step-1,Increment      1: Step Time =    1.000,"P-2-1",          3929,   77.8414E-03,   131.663E-03,            0.,NA,NA,"",   1.17195E+06,   1.15714E+06,   1.15714E+06
C:/temp/Job-2.odb,Step-1,Increment      1: Step Time =    1.000,"P-2-1",          3930,   149.785E-03,   172.556E-03,            0.,NA,NA,"",   1.02294E+06,   1.01710E+06,   1.01710E+06
C:/temp/Job-2.odb,Step-1,Increment      1: Step Time =    1.000,"P-2-1",          3931,   174.001E-03,   50.4674E-03,            0.,NA,NA,"",   1.01593E+06,   1.01370E+06,   1.01370E+06
C:/temp/Job-2.odb,Step-1,Increment      1: Step Time =    1.000,"P-2-1",          3932,   26.0747E-03,   149.509E-03,            0.,NA,NA,"",   951.647E+03,   1.01295E+06,   1.01295E+06
C:/temp/Job-2.odb,Step-1,Increment      1: Step Time =    1.000,"P-2-1",          3933,   51.2460E-03,   27.1127E-03,            0.,NA,NA,"",   1.04361E+06,   1.04989E+06,   1.04989E+06
C:/temp/Job-2.odb,Step-1,Increment      1: Step Time =    1.000,"P-2-1",          3934,   172.729E-03,   115.856E-03,            0.,NA,NA,"",   973.355E+03,   983.272E+03,   983.272E+03
C:/temp/Job-2.odb,Step-1,Increment      1: Step Time =    1.000,"P-2-1",          3935,   85.1937E-03,   173.665E-03,            0.,NA,NA,"",   1.00650E+06,   1.01453E+06,   1.01453E+06
C:/temp/Job-2.odb,Step-1,Increment      1: Step Time =    1.000,"P-2-1",          3936,   24.8970E-03,   84.1479E-03,            0.,NA,NA,"",   833.985E+03,   914.166E+03,   914.166E+03
C:/temp/Job-2.odb,Step-1,Increment      1: Step Time =    1.000,"P-2-1",          3937,   114.037E-03,   27.3603E-03,            0.,NA,NA,"",   1.00426E+06,   1.01094E+06,   1.01094E+06
C:/temp/Job-2.odb,Step-1,Increment      1: Step Time =    1.000,"P-2-1",          3938,   83.6399E-03,   64.0166E-03,            0.,NA,NA,"",   1.13542E+06,   1.15046E+06,   1.15046E+06
C:/temp/Job-2.odb,Step-1,Increment      1: Step Time =    1.000,"P-2-1",          3939,   115.346E-03,   136.734E-03,            0.,NA,NA,"",   1.13293E+06,   1.14358E+06,   1.14358E+06
C:/temp/Job-2.odb,Step-1,Increment      1: Step Time =    1.000,"P-2-1",          3940,   28.6226E-03,   175.431E-03,            0.,NA,NA,"",   1.05056E+06,   1.07919E+06,   1.07919E+06
C:/temp/Job-2.odb,Step-1,Increment      1: Step Time =    1.000,"P-2-1",          3941,   174.036E-03,   170.401E-03,            0.,NA,NA,"",   1.01009E+06,   1.00803E+06,   1.00803E+06
C:/temp/Job-2.odb,Step-1,Increment      1: Step Time =    1.000,"P-2-1",          3942,   24.6039E-03,   28.6388E-03,            0.,NA,NA,"",   1.03040E+06,   1.07377E+06,   1.07377E+06
C:/temp/Job-2.odb,Step-1,Increment      1: Step Time =    1.000,"P-2-1",          3943,   171.394E-03,   24.5726E-03,            0.,NA,NA,"",   1.00864E+06,   1.00660E+06,   1.00660E+06
C:/temp/Job-2.odb,Step-1,Increment      1: Step Time =    1.000,"P-2-1",          3944,   173.932E-03,   35.5878E-03,            0.,NA,NA,"",   1.01312E+06,   1.01066E+06,   1.01066E+06
C:/temp/Job-2.odb,Step-1,Increment      1: Step Time =    1.000,"P-2-1",          3945,   164.358E-03,   173.919E-03,            0.,NA,NA,"",   1.01387E+06,   1.01027E+06,   1.01027E+06
C:/temp/Job-2.odb,Step-1,Increment      1: Step Time =    1.000,"P-2-1",          3946,   35.4440E-03,   26.0147E-03,            0.,NA,NA,"",   1.04788E+06,   1.06777E+06,   1.06777E+06
C:/temp/Job-2.odb,Step-1,Increment      1: Step Time =    1.000,"P-2-1",          3947,   26.0979E-03,   164.395E-03,            0.,NA,NA,"",   1.00560E+06,   1.05441E+06,   1.05441E+06
C:/temp/Job-2.odb,Step-1,Increment      1: Step Time =    1.000,"P-2-1",          3948,   5.02421E-03,   191.124E-03,            0.,NA,NA,"",   1.19489E+06,   1.27056E+06,   1.27056E+06
C:/temp/Job-2.odb,Step-1,Increment      1: Step Time =    1.000,"P-2-1",          3949,   191.225E-03,   194.962E-03,            0.,NA,NA,"",   999.790E+03,   999.765E+03,   999.765E+03
C:/temp/Job-2.odb,Step-1,Increment      1: Step Time =    1.000,"P-2-1",          3950,   8.87820E-03,   5.02671E-03,            0.,NA,NA,"",   1.26217E+06,   1.28030E+06,   1.28030E+06
C:/temp/Job-2.odb,Step-1,Increment      1: Step Time =    1.000,"P-2-1",          3951,   194.977E-03,   8.87589E-03,            0.,NA,NA,"",   1.00006E+06,   999.961E+03,   999.961E+03
C:/temp/Job-2.odb,Step-1,Increment      1: Step Time =    1.000,"P-2-1",          3952,   74.4128E-03,   126.251E-03,            0.,NA,NA,"",   1.17105E+06,   1.13612E+06,   1.13612E+06
C:/temp/Job-2.odb,Step-1,Increment      1: Step Time =    1.000,"P-2-1",          3953,   133.337E-03,   85.2898E-03,            0.,NA,NA,"",   991.020E+03,   948.618E+03,   948.618E+03
C:/temp/Job-2.odb,Step-1,Increment      1: Step Time =    1.000,"P-2-1",          3954,   71.5442E-03,   79.9192E-03,            0.,NA,NA,"",   1.09799E+06,   1.05840E+06,   1.05840E+06
C:/temp/Job-2.odb,Step-1,Increment      1: Step Time =    1.000,"P-2-1",          3955,   97.1954E-03,   137.765E-03,            0.,NA,NA,"",   1.04749E+06,   1.11018E+06,   1.11018E+06
C:/temp/Job-2.odb,Step-1,Increment      1: Step Time =    1.000,"P-2-1",          3956,   103.011E-03,   60.4570E-03,            0.,NA,NA,"",   1.04322E+06,   1.10051E+06,   1.10051E+06
C:/temp/Job-2.odb,Step-1,Increment      1: Step Time =    1.000,"P-2-1",          3957,   61.6451E-03,   108.969E-03,            0.,NA,NA,"",   805.611E+03,   836.639E+03,   836.639E+03
C:/temp/Job-2.odb,Step-1,Increment      1: Step Time =    1.000,"P-2-1",          3958,   62.8440E-03,   113.643E-03,            0.,NA,NA,"",    891.11E+03,   904.203E+03,   904.203E+03
C:/temp/Job-2.odb,Step-1,Increment      1: Step Time =    1.000,"P-2-1",          3959,   91.9977E-03,   136.479E-03,            0.,NA,NA,"",   1.08015E+06,   1.13209E+06,   1.13209E+06
C:/temp/Job-2.odb,Step-1,Increment      1: Step Time =    1.000,"P-2-1",          3960,   108.341E-03,   62.3725E-03,            0.,NA,NA,"",   1.07823E+06,   1.12351E+06,   1.12351E+06
C:/temp/Job-2.odb,Step-1,Increment      1: Step Time =    1.000,"P-2-1",          3961,   111.394E-03,   137.345E-03,            0.,NA,NA,"",   1.10045E+06,   1.13181E+06,   1.13181E+06
C:/temp/Job-2.odb,Step-1,Increment      1: Step Time =    1.000,"P-2-1",          3962,   89.9012E-03,   62.5871E-03,            0.,NA,NA,"",   1.08917E+06,   1.13102E+06,   1.13102E+06
C:/temp/Job-2.odb,Step-1,Increment      1: Step Time =    1.000,"P-2-1",          3963,   125.756E-03,   73.4839E-03,            0.,NA,NA,"",   1.19898E+06,   1.14161E+06,   1.14161E+06
C:/temp/Job-2.odb,Step-1,Increment      1: Step Time =    1.000,"P-2-1",          3964,   137.659E-03,   21.5059E-03,            0.,NA,NA,"",   1.01023E+06,   1.00722E+06,   1.00722E+06
C:/temp/Job-2.odb,Step-1,Increment      1: Step Time =    1.000,"P-2-1",          3965,   21.1738E-03,   62.3496E-03,            0.,NA,NA,"",   890.781E+03,   967.896E+03,   967.896E+03
C:/temp/Job-2.odb,Step-1,Increment      1: Step Time =    1.000,"P-2-1",          3966,   178.880E-03,   137.647E-03,            0.,NA,NA,"",   1.00229E+06,   1.00626E+06,   1.00626E+06
C:/temp/Job-2.odb,Step-1,Increment      1: Step Time =    1.000,"P-2-1",          3967,   62.1031E-03,   178.168E-03,            0.,NA,NA,"",   1.02457E+06,   1.02632E+06,   1.02632E+06
C:/temp/Job-2.odb,Step-1,Increment      1: Step Time =    1.000,"P-2-1",          3968,   5.12623E-03,   8.71389E-03,            0.,NA,NA,"",   1.20095E+06,   1.27430E+06,   1.27430E+06
C:/temp/Job-2.odb,Step-1,Increment      1: Step Time =    1.000,"P-2-1",          3969,   191.290E-03,   5.12157E-03,            0.,NA,NA,"",   999.818E+03,   999.796E+03,   999.796E+03
C:/temp/Job-2.odb,Step-1,Increment      1: Step Time =    1.000,"P-2-1",          3970,   8.71214E-03,   194.877E-03,            0.,NA,NA,"",   1.26644E+06,   1.28573E+06,   1.28573E+06
C:/temp/Job-2.odb,Step-1,Increment      1: Step Time =    1.000,"P-2-1",          3971,   195.006E-03,   191.317E-03,            0.,NA,NA,"",   1.00005E+06,    999.95E+03,    999.95E+03
C:/temp/Job-2.odb,Step-1,Increment      1: Step Time =    1.000,"P-2-1",          3972,   127.540E-03,   120.655E-03,            0.,NA,NA,"",   1.16255E+06,   1.09017E+06,   1.09017E+06
C:/temp/Job-2.odb,Step-1,Increment      1: Step Time =    1.000,"P-2-1",          3973,   63.6406E-03,   93.3670E-03,            0.,NA,NA,"",   757.022E+03,   791.532E+03,   791.532E+03
C:/temp/Job-2.odb,Step-1,Increment      1: Step Time =    1.000,"P-2-1",          3974,   127.709E-03,   74.6494E-03,            0.,NA,NA,"",   1.18128E+06,   1.12107E+06,   1.12107E+06
C:/temp/Job-2.odb,Step-1,Increment      1: Step Time =    1.000,"P-2-1",          3975,   131.181E-03,   172.072E-03,            0.,NA,NA,"",   1.02162E+06,   1.01908E+06,   1.01908E+06
C:/temp/Job-2.odb,Step-1,Increment      1: Step Time =    1.000,"P-2-1",          3976,   172.443E-03,   67.2578E-03,            0.,NA,NA,"",   1.00455E+06,   1.00569E+06,   1.00569E+06
C:/temp/Job-2.odb,Step-1,Increment      1: Step Time =    1.000,"P-2-1",          3977,   27.3944E-03,   132.728E-03,            0.,NA,NA,"",   895.967E+03,   965.080E+03,   965.080E+03
C:/temp/Job-2.odb,Step-1,Increment      1: Step Time =    1.000,"P-2-1",          3978,   67.6876E-03,   28.2512E-03,            0.,NA,NA,"",   1.03405E+06,   1.03714E+06,   1.03714E+06
C:/temp/Job-2.odb,Step-1,Increment      1: Step Time =    1.000,"P-2-1",          3979,   72.7596E-03,   170.035E-03,            0.,NA,NA,"",   1.03229E+06,   1.03686E+06,   1.03686E+06
C:/temp/Job-2.odb,Step-1,Increment      1: Step Time =    1.000,"P-2-1",          3980,   171.910E-03,   126.919E-03,            0.,NA,NA,"",   995.633E+03,   998.973E+03,   998.973E+03
C:/temp/Job-2.odb,Step-1,Increment      1: Step Time =    1.000,"P-2-1",          3981,   27.8253E-03,   74.4324E-03,            0.,NA,NA,"",   871.696E+03,   943.859E+03,   943.859E+03
C:/temp/Job-2.odb,Step-1,Increment      1: Step Time =    1.000,"P-2-1",          3982,   127.443E-03,   28.4576E-03,            0.,NA,NA,"",   1.02070E+06,   1.01976E+06,   1.01976E+06
C:/temp/Job-2.odb,Step-1,Increment      1: Step Time =    1.000,"P-2-1",          3983,   132.415E-03,   118.100E-03,            0.,NA,NA,"",   1.06471E+06,   1.01047E+06,   1.01047E+06
C:/temp/Job-2.odb,Step-1,Increment      1: Step Time =    1.000,"P-2-1",          3984,   128.725E-03,   78.2355E-03,            0.,NA,NA,"",   1.15666E+06,   1.08931E+06,   1.08931E+06
C:/temp/Job-2.odb,Step-1,Increment      1: Step Time =    1.000,"P-2-1",          3985,   16.5546E-03,   63.6186E-03,            0.,NA,NA,"",   869.913E+03,   955.015E+03,   955.015E+03
C:/temp/Job-2.odb,Step-1,Increment      1: Step Time =    1.000,"P-2-1",          3986,   63.5883E-03,   183.126E-03,            0.,NA,NA,"",   1.00874E+06,   1.00964E+06,   1.00964E+06
C:/temp/Job-2.odb,Step-1,Increment      1: Step Time =    1.000,"P-2-1",          3987,   136.333E-03,   16.7609E-03,            0.,NA,NA,"",   998.804E+03,   997.024E+03,   997.024E+03
C:/temp/Job-2.odb,Step-1,Increment      1: Step Time =    1.000,"P-2-1",          3988,   183.435E-03,   136.322E-03,            0.,NA,NA,"",   995.904E+03,   1.00364E+06,   1.00364E+06
C:/temp/Job-2.odb,Step-1,Increment      1: Step Time =    1.000,"P-2-1",          3989,   67.0051E-03,   81.2973E-03,            0.,NA,NA,"",   1.01682E+06,   999.524E+03,   999.524E+03
C:/temp/Job-2.odb,Step-1,Increment      1: Step Time =    1.000,"P-2-1",          3990,   26.4006E-03,   104.069E-03,            0.,NA,NA,"",   815.097E+03,   896.192E+03,   896.192E+03
C:/temp/Job-2.odb,Step-1,Increment      1: Step Time =    1.000,"P-2-1",          3991,   105.742E-03,   174.379E-03,            0.,NA,NA,"",   994.788E+03,   1.00397E+06,   1.00397E+06
C:/temp/Job-2.odb,Step-1,Increment      1: Step Time =    1.000,"P-2-1",          3992,   126.465E-03,   123.495E-03,            0.,NA,NA,"",   1.19273E+06,   1.12440E+06,   1.12440E+06
C:/temp/Job-2.odb,Step-1,Increment      1: Step Time =    1.000,"P-2-1",          3993,   72.7119E-03,   77.7963E-03,            0.,NA,NA,"",   1.13543E+06,   1.09409E+06,   1.09409E+06
C:/temp/Job-2.odb,Step-1,Increment      1: Step Time =    1.000,"P-2-1",          3994,   129.917E-03,   120.622E-03,            0.,NA,NA,"",   1.12831E+06,   1.06380E+06,   1.06380E+06
C:/temp/Job-2.odb,Step-1,Increment      1: Step Time =    1.000,"P-2-1",          3995,   68.3820E-03,   80.0235E-03,            0.,NA,NA,"",   1.05122E+06,   1.02667E+06,   1.02667E+06
C:/temp/Job-2.odb,Step-1,Increment      1: Step Time =    1.000,"P-2-1",          3996,   71.2011E-03,   127.778E-03,            0.,NA,NA,"",   1.13768E+06,   1.11096E+06,   1.11096E+06
C:/temp/Job-2.odb,Step-1,Increment      1: Step Time =    1.000,"P-2-1",          3997,   106.465E-03,   136.305E-03,            0.,NA,NA,"",   1.07067E+06,   1.12667E+06,   1.12667E+06
C:/temp/Job-2.odb,Step-1,Increment      1: Step Time =    1.000,"P-2-1",          3998,   83.0943E-03,   174.531E-03,            0.,NA,NA,"",   1.00719E+06,   1.01401E+06,   1.01401E+06
C:/temp/Job-2.odb,Step-1,Increment      1: Step Time =    1.000,"P-2-1",          3999,   116.583E-03,   26.2245E-03,            0.,NA,NA,"",   1.00433E+06,   1.00925E+06,   1.00925E+06
C:/temp/Job-2.odb,Step-1,Increment      1: Step Time =    1.000,"P-2-1",          4000,   173.299E-03,   117.942E-03,            0.,NA,NA,"",   977.363E+03,   986.568E+03,   986.568E+03
C:/temp/Job-2.odb,Step-1,Increment      1: Step Time =    1.000,"P-2-1",          4001,   25.2282E-03,   82.1439E-03,            0.,NA,NA,"",   840.130E+03,   919.247E+03,   919.247E+03
C:/temp/Job-2.odb,Step-1,Increment      1: Step Time =    1.000,"P-2-1",          4002,   147.677E-03,   176.323E-03,            0.,NA,NA,"",   1.01659E+06,   1.01200E+06,   1.01200E+06
C:/temp/Job-2.odb,Step-1,Increment      1: Step Time =    1.000,"P-2-1",          4003,   175.736E-03,   51.9946E-03,            0.,NA,NA,"",   1.01289E+06,   1.01193E+06,   1.01193E+06
C:/temp/Job-2.odb,Step-1,Increment      1: Step Time =    1.000,"P-2-1",          4004,   24.3688E-03,   147.920E-03,            0.,NA,NA,"",   938.943E+03,   1.00480E+06,   1.00480E+06
C:/temp/Job-2.odb,Step-1,Increment      1: Step Time =    1.000,"P-2-1",          4005,   84.6786E-03,   171.589E-03,            0.,NA,NA,"",   1.01137E+06,   1.02019E+06,   1.02019E+06
C:/temp/Job-2.odb,Step-1,Increment      1: Step Time =    1.000,"P-2-1",          4006,   114.966E-03,   29.6652E-03,            0.,NA,NA,"",   1.00984E+06,   1.01697E+06,   1.01697E+06
C:/temp/Job-2.odb,Step-1,Increment      1: Step Time =    1.000,"P-2-1",          4007,   170.190E-03,   116.575E-03,            0.,NA,NA,"",   973.717E+03,   981.600E+03,   981.600E+03
C:/temp/Job-2.odb,Step-1,Increment      1: Step Time =    1.000,"P-2-1",          4008,   27.1910E-03,   84.3900E-03,            0.,NA,NA,"",   837.596E+03,   915.048E+03,   915.048E+03
C:/temp/Job-2.odb,Step-1,Increment      1: Step Time =    1.000,"P-2-1",          4009,   149.473E-03,   169.698E-03,            0.,NA,NA,"",   1.02900E+06,   1.02194E+06,   1.02194E+06
C:/temp/Job-2.odb,Step-1,Increment      1: Step Time =    1.000,"P-2-1",          4010,   171.454E-03,   51.2007E-03,            0.,NA,NA,"",   1.01951E+06,   1.01592E+06,   1.01592E+06
C:/temp/Job-2.odb,Step-1,Increment      1: Step Time =    1.000,"P-2-1",          4011,   28.7026E-03,   148.856E-03,            0.,NA,NA,"",   958.493E+03,   1.01538E+06,   1.01538E+06
C:/temp/Job-2.odb,Step-1,Increment      1: Step Time =    1.000,"P-2-1",          4012,   53.1003E-03,   28.9694E-03,            0.,NA,NA,"",   1.04509E+06,   1.05106E+06,   1.05106E+06
C:/temp/Job-2.odb,Step-1,Increment      1: Step Time =    1.000,"P-2-1",          4013,   121.558E-03,   67.1084E-03,            0.,NA,NA,"",   1.18403E+06,   1.15706E+06,   1.15706E+06
C:/temp/Job-2.odb,Step-1,Increment      1: Step Time =    1.000,"P-2-1",          4014,   173.723E-03,   120.040E-03,            0.,NA,NA,"",   981.433E+03,   989.757E+03,   989.757E+03
C:/temp/Job-2.odb,Step-1,Increment      1: Step Time =    1.000,"P-2-1",          4015,   80.7736E-03,   175.507E-03,            0.,NA,NA,"",   1.00768E+06,   1.01324E+06,   1.01324E+06
C:/temp/Job-2.odb,Step-1,Increment      1: Step Time =    1.000,"P-2-1",          4016,   119.149E-03,   24.9301E-03,            0.,NA,NA,"",   1.00385E+06,   1.00714E+06,   1.00714E+06
C:/temp/Job-2.odb,Step-1,Increment      1: Step Time =    1.000,"P-2-1",          4017,   25.4806E-03,   80.4946E-03,            0.,NA,NA,"",   844.987E+03,   923.293E+03,   923.293E+03
C:/temp/Job-2.odb,Step-1,Increment      1: Step Time =    1.000,"P-2-1",          4018,   175.138E-03,   59.3435E-03,            0.,NA,NA,"",   1.00963E+06,   1.01004E+06,   1.01004E+06
C:/temp/Job-2.odb,Step-1,Increment      1: Step Time =    1.000,"P-2-1",          4019,   139.597E-03,   176.529E-03,            0.,NA,NA,"",   1.01486E+06,   1.01110E+06,   1.01110E+06
C:/temp/Job-2.odb,Step-1,Increment      1: Step Time =    1.000,"P-2-1",          4020,   59.9869E-03,   23.1887E-03,            0.,NA,NA,"",   1.02996E+06,   1.03215E+06,   1.03215E+06
C:/temp/Job-2.odb,Step-1,Increment      1: Step Time =    1.000,"P-2-1",          4021,   25.3326E-03,   140.195E-03,            0.,NA,NA,"",   914.676E+03,   983.487E+03,   983.487E+03
C:/temp/Job-2.odb,Step-1,Increment      1: Step Time =    1.000,"P-2-1",          4022,   171.594E-03,   122.492E-03,            0.,NA,NA,"",   987.112E+03,   992.568E+03,   992.568E+03
C:/temp/Job-2.odb,Step-1,Increment      1: Step Time =    1.000,"P-2-1",          4023,   77.8068E-03,   170.692E-03,            0.,NA,NA,"",   1.02378E+06,   1.02998E+06,   1.02998E+06
C:/temp/Job-2.odb,Step-1,Increment      1: Step Time =    1.000,"P-2-1",          4024,   123.882E-03,   29.3318E-03,            0.,NA,NA,"",   1.01970E+06,   1.02071E+06,   1.02071E+06
C:/temp/Job-2.odb,Step-1,Increment      1: Step Time =    1.000,"P-2-1",          4025,   28.8961E-03,   77.2696E-03,            0.,NA,NA,"",   864.562E+03,   936.550E+03,   936.550E+03
C:/temp/Job-2.odb,Step-1,Increment      1: Step Time =    1.000,"P-2-1",          4026,   172.726E-03,   61.9772E-03,            0.,NA,NA,"",   1.01117E+06,   1.01043E+06,   1.01043E+06
C:/temp/Job-2.odb,Step-1,Increment      1: Step Time =    1.000,"P-2-1",          4027,   136.049E-03,   172.343E-03,            0.,NA,NA,"",   1.02365E+06,   1.01948E+06,   1.01948E+06
C:/temp/Job-2.odb,Step-1,Increment      1: Step Time =    1.000,"P-2-1",          4028,   63.0965E-03,   27.9259E-03,            0.,NA,NA,"",   1.03775E+06,   1.04072E+06,   1.04072E+06
C:/temp/Job-2.odb,Step-1,Increment      1: Step Time =    1.000,"P-2-1",          4029,   28.4076E-03,   137.890E-03,            0.,NA,NA,"",   918.423E+03,   982.825E+03,   982.825E+03
C:/temp/Job-2.odb,Step-1,Increment      1: Step Time =    1.000,"P-2-1",          4030,   118.264E-03,   66.6131E-03,            0.,NA,NA,"",   1.17604E+06,   1.16504E+06,   1.16504E+06
C:/temp/Job-2.odb,Step-1,Increment      1: Step Time =    1.000,"P-2-1",          4031,   83.1797E-03,   132.162E-03,            0.,NA,NA,"",   1.17082E+06,   1.17581E+06,   1.17581E+06
C:/temp/Job-2.odb,Step-1,Increment      1: Step Time =    1.000,"P-2-1",          4032,   24.1896E-03,   32.4942E-03,            0.,NA,NA,"",   1.01297E+06,   1.06236E+06,   1.06236E+06
C:/temp/Job-2.odb,Step-1,Increment      1: Step Time =    1.000,"P-2-1",          4033,   25.9699E-03,   40.0919E-03,            0.,NA,NA,"",   988.038E+03,   1.04165E+06,   1.04165E+06
C:/temp/Job-2.odb,Step-1,Increment      1: Step Time =    1.000,"P-2-1",          4034,   32.4055E-03,   175.713E-03,            0.,NA,NA,"",   1.05121E+06,   1.07334E+06,   1.07334E+06
C:/temp/Job-2.odb,Step-1,Increment      1: Step Time =    1.000,"P-2-1",          4035,   40.0946E-03,   173.954E-03,            0.,NA,NA,"",   1.04719E+06,   1.06150E+06,   1.06150E+06
C:/temp/Job-2.odb,Step-1,Increment      1: Step Time =    1.000,"P-2-1",          4036,   167.604E-03,   24.2973E-03,            0.,NA,NA,"",   1.01039E+06,   1.00773E+06,   1.00773E+06
C:/temp/Job-2.odb,Step-1,Increment      1: Step Time =    1.000,"P-2-1",          4037,   159.872E-03,   26.0929E-03,            0.,NA,NA,"",   1.01675E+06,   1.01229E+06,   1.01229E+06
C:/temp/Job-2.odb,Step-1,Increment      1: Step Time =    1.000,"P-2-1",          4038,   174.274E-03,   159.996E-03,            0.,NA,NA,"",   1.01457E+06,   1.01202E+06,   1.01202E+06
C:/temp/Job-2.odb,Step-1,Increment      1: Step Time =    1.000,"P-2-1",          4039,   176.666E-03,   166.476E-03,            0.,NA,NA,"",   1.00974E+06,   1.00817E+06,   1.00817E+06
C:/temp/Job-2.odb,Step-1,Increment      1: Step Time =    1.000,"P-2-1",          4040,   95.5761E-03,   26.0622E-03,            0.,NA,NA,"",   995.952E+03,   1.00616E+06,   1.00616E+06
C:/temp/Job-2.odb,Step-1,Increment      1: Step Time =    1.000,"P-2-1",          4041,   173.280E-03,   95.2938E-03,            0.,NA,NA,"",   957.889E+03,   972.455E+03,   972.455E+03
C:/temp/Job-2.odb,Step-1,Increment      1: Step Time =    1.000,"P-2-1",          4042,   93.0136E-03,   68.5680E-03,            0.,NA,NA,"",   1.11015E+06,   1.17555E+06,   1.17555E+06
C:/temp/Job-2.odb,Step-1,Increment      1: Step Time =    1.000,"P-2-1",          4043,   132.548E-03,   110.193E-03,            0.,NA,NA,"",   884.846E+03,   857.515E+03,   857.515E+03
C:/temp/Job-2.odb,Step-1,Increment      1: Step Time =    1.000,"P-2-1",          4044,   22.3128E-03,   124.755E-03,            0.,NA,NA,"",   852.176E+03,   932.796E+03,   932.796E+03
C:/temp/Job-2.odb,Step-1,Increment      1: Step Time =    1.000,"P-2-1",          4045,   75.3131E-03,   22.4834E-03,            0.,NA,NA,"",   1.00973E+06,   1.01308E+06,   1.01308E+06
C:/temp/Job-2.odb,Step-1,Increment      1: Step Time =    1.000,"P-2-1",          4046,   122.224E-03,   176.162E-03,            0.,NA,NA,"",   1.00445E+06,   1.00623E+06,   1.00623E+06
C:/temp/Job-2.odb,Step-1,Increment      1: Step Time =    1.000,"P-2-1",          4047,   175.756E-03,   77.1600E-03,            0.,NA,NA,"",   985.849E+03,   994.296E+03,   994.296E+03
C:/temp/Job-2.odb,Step-1,Increment      1: Step Time =    1.000,"P-2-1",          4048,   169.598E-03,   129.178E-03,            0.,NA,NA,"",   1.00256E+06,   1.00276E+06,   1.00276E+06
C:/temp/Job-2.odb,Step-1,Increment      1: Step Time =    1.000,"P-2-1",          4049,   70.6528E-03,   170.118E-03,            0.,NA,NA,"",   1.03452E+06,   1.03846E+06,   1.03846E+06
C:/temp/Job-2.odb,Step-1,Increment      1: Step Time =    1.000,"P-2-1",          4050,   129.778E-03,   29.4847E-03,            0.,NA,NA,"",   1.02532E+06,   1.02304E+06,   1.02304E+06
C:/temp/Job-2.odb,Step-1,Increment      1: Step Time =    1.000,"P-2-1",          4051,   29.3196E-03,   69.3609E-03,            0.,NA,NA,"",   895.528E+03,   962.413E+03,   962.413E+03
C:/temp/Job-2.odb,Step-1,Increment      1: Step Time =    1.000,"P-2-1",          4052,   139.508E-03,   96.1474E-03,            0.,NA,NA,"",   802.878E+03,   813.291E+03,   813.291E+03
C:/temp/Job-2.odb,Step-1,Increment      1: Step Time =    1.000,"P-2-1",          4053,   170.883E-03,   70.1992E-03,            0.,NA,NA,"",   1.00206E+06,   1.00311E+06,   1.00311E+06
C:/temp/Job-2.odb,Step-1,Increment      1: Step Time =    1.000,"P-2-1",          4054,   130.350E-03,   170.035E-03,            0.,NA,NA,"",   1.02627E+06,   1.02370E+06,   1.02370E+06
C:/temp/Job-2.odb,Step-1,Increment      1: Step Time =    1.000,"P-2-1",          4055,   140.182E-03,   89.9114E-03,            0.,NA,NA,"",   888.062E+03,   881.479E+03,   881.479E+03
C:/temp/Job-2.odb,Step-1,Increment      1: Step Time =    1.000,"P-2-1",          4056,   137.329E-03,   99.5473E-03,            0.,NA,NA,"",   759.638E+03,   774.186E+03,   774.186E+03
C:/temp/Job-2.odb,Step-1,Increment      1: Step Time =    1.000,"P-2-1",          4057,   140.010E-03,   104.996E-03,            0.,NA,NA,"",   821.821E+03,   829.329E+03,   829.329E+03
C:/temp/Job-2.odb,Step-1,Increment      1: Step Time =    1.000,"P-2-1",          4058,   68.5689E-03,   120.868E-03,            0.,NA,NA,"",   1.06366E+06,   1.03737E+06,   1.03737E+06
C:/temp/Job-2.odb,Step-1,Increment      1: Step Time =    1.000,"P-2-1",          4059,   113.518E-03,   62.2743E-03,            0.,NA,NA,"",   1.11420E+06,   1.13456E+06,   1.13456E+06
C:/temp/Job-2.odb,Step-1,Increment      1: Step Time =    1.000,"P-2-1",          4060,   87.4133E-03,   137.179E-03,            0.,NA,NA,"",   1.10897E+06,   1.13986E+06,   1.13986E+06
C:/temp/Job-2.odb,Step-1,Increment      1: Step Time =    1.000,"P-2-1",          4061,   126.421E-03,   68.0973E-03,            0.,NA,NA,"",   1.17620E+06,   1.13544E+06,   1.13544E+06
C:/temp/Job-2.odb,Step-1,Increment      1: Step Time =    1.000,"P-2-1",          4062,   74.2521E-03,   132.073E-03,            0.,NA,NA,"",   1.15412E+06,   1.13606E+06,   1.13606E+06
C:/temp/Job-2.odb,Step-1,Increment      1: Step Time =    1.000,"P-2-1",          4063,   164.758E-03,   171.351E-03,            0.,NA,NA,"",   1.01635E+06,   1.01225E+06,   1.01225E+06
C:/temp/Job-2.odb,Step-1,Increment      1: Step Time =    1.000,"P-2-1",          4064,   171.363E-03,   35.1712E-03,            0.,NA,NA,"",   1.01555E+06,   1.01226E+06,   1.01226E+06
C:/temp/Job-2.odb,Step-1,Increment      1: Step Time =    1.000,"P-2-1",          4065,   28.7005E-03,   164.807E-03,            0.,NA,NA,"",   1.01465E+06,   1.05720E+06,   1.05720E+06
C:/temp/Job-2.odb,Step-1,Increment      1: Step Time =    1.000,"P-2-1",          4066,   34.7123E-03,   28.6199E-03,            0.,NA,NA,"",   1.04306E+06,   1.06711E+06,   1.06711E+06
C:/temp/Job-2.odb,Step-1,Increment      1: Step Time =    1.000,"P-2-1",          4067,   171.820E-03,   169.765E-03,            0.,NA,NA,"",   1.01217E+06,   1.00950E+06,   1.00950E+06
C:/temp/Job-2.odb,Step-1,Increment      1: Step Time =    1.000,"P-2-1",          4068,   27.9644E-03,   29.8088E-03,            0.,NA,NA,"",   1.03224E+06,   1.06965E+06,   1.06965E+06
C:/temp/Job-2.odb,Step-1,Increment      1: Step Time =    1.000,"P-2-1",          4069,   87.7874E-03,   63.3621E-03,            0.,NA,NA,"",   1.10757E+06,   1.14165E+06,   1.14165E+06
C:/temp/Job-2.odb,Step-1,Increment      1: Step Time =    1.000,"P-2-1",          4070,   113.987E-03,   139.440E-03,            0.,NA,NA,"",   1.10294E+06,   1.12240E+06,   1.12240E+06
C:/temp/Job-2.odb,Step-1,Increment      1: Step Time =    1.000,"P-2-1",          4071,   135.892E-03,   83.9416E-03,            0.,NA,NA,"",   999.651E+03,   963.090E+03,   963.090E+03
C:/temp/Job-2.odb,Step-1,Increment      1: Step Time =    1.000,"P-2-1",          4072,   120.203E-03,   131.145E-03,            0.,NA,NA,"",   1.19859E+06,   1.17148E+06,   1.17148E+06
C:/temp/Job-2.odb,Step-1,Increment      1: Step Time =    1.000,"P-2-1",          4073,   79.9029E-03,   67.4800E-03,            0.,NA,NA,"",   1.17207E+06,   1.16486E+06,   1.16486E+06
C:/temp/Job-2.odb,Step-1,Increment      1: Step Time =    1.000,"P-2-1",          4074,   60.3139E-03,   112.031E-03,            0.,NA,NA,"",   856.885E+03,   882.656E+03,   882.656E+03
C:/temp/Job-2.odb,Step-1,Increment      1: Step Time =    1.000,"P-2-1",          4075,   94.7505E-03,   138.544E-03,            0.,NA,NA,"",   1.05450E+06,   1.11082E+06,   1.11082E+06
C:/temp/Job-2.odb,Step-1,Increment      1: Step Time =    1.000,"P-2-1",          4076,   105.477E-03,   60.2579E-03,            0.,NA,NA,"",   1.05152E+06,   1.10307E+06,   1.10307E+06
C:/temp/Job-2.odb,Step-1,Increment      1: Step Time =    1.000,"P-2-1",          4077,   138.827E-03,   24.3752E-03,            0.,NA,NA,"",   1.01721E+06,   1.01317E+06,   1.01317E+06
C:/temp/Job-2.odb,Step-1,Increment      1: Step Time =    1.000,"P-2-1",          4078,   23.6893E-03,   60.5485E-03,            0.,NA,NA,"",   905.913E+03,   978.102E+03,   978.102E+03
C:/temp/Job-2.odb,Step-1,Increment      1: Step Time =    1.000,"P-2-1",          4079,   176.369E-03,   139.371E-03,            0.,NA,NA,"",   1.00698E+06,   1.00863E+06,   1.00863E+06
C:/temp/Job-2.odb,Step-1,Increment      1: Step Time =    1.000,"P-2-1",          4080,   60.4889E-03,   175.478E-03,            0.,NA,NA,"",   1.03270E+06,   1.03519E+06,   1.03519E+06
C:/temp/Job-2.odb,Step-1,Increment      1: Step Time =    1.000,"P-2-1",          4081,   60.5339E-03,   95.2592E-03,            0.,NA,NA,"",   752.674E+03,   796.618E+03,   796.618E+03
C:/temp/Job-2.odb,Step-1,Increment      1: Step Time =    1.000,"P-2-1",          4082,   63.1448E-03,   89.3603E-03,            0.,NA,NA,"",   837.035E+03,   858.879E+03,   858.879E+03
C:/temp/Job-2.odb,Step-1,Increment      1: Step Time =    1.000,"P-2-1",          4083,   129.829E-03,   75.6220E-03,            0.,NA,NA,"",   1.15757E+06,   1.09777E+06,   1.09777E+06
C:/temp/Job-2.odb,Step-1,Increment      1: Step Time =    1.000,"P-2-1",          4084,   135.314E-03,   115.816E-03,            0.,NA,NA,"",   999.561E+03,   961.504E+03,   961.504E+03
C:/temp/Job-2.odb,Step-1,Increment      1: Step Time =    1.000,"P-2-1",          4085,   167.065E-03,   174.520E-03,            0.,NA,NA,"",   1.01184E+06,   1.00884E+06,   1.00884E+06
C:/temp/Job-2.odb,Step-1,Increment      1: Step Time =    1.000,"P-2-1",          4086,   25.4735E-03,   167.211E-03,            0.,NA,NA,"",   1.01530E+06,   1.06196E+06,   1.06196E+06
C:/temp/Job-2.odb,Step-1,Increment      1: Step Time =    1.000,"P-2-1",          4087,   174.556E-03,   32.7724E-03,            0.,NA,NA,"",   1.01132E+06,   1.00918E+06,   1.00918E+06
C:/temp/Job-2.odb,Step-1,Increment      1: Step Time =    1.000,"P-2-1",          4088,   32.7018E-03,   25.1996E-03,            0.,NA,NA,"",   1.04899E+06,   1.07197E+06,   1.07197E+06
C:/temp/Job-2.odb,Step-1,Increment      1: Step Time =    1.000,"P-2-1",          4089,   176.517E-03,   168.246E-03,            0.,NA,NA,"",   1.00915E+06,   1.00761E+06,   1.00761E+06
C:/temp/Job-2.odb,Step-1,Increment      1: Step Time =    1.000,"P-2-1",          4090,   169.350E-03,   22.9472E-03,            0.,NA,NA,"",   1.00841E+06,   1.00626E+06,   1.00626E+06
C:/temp/Job-2.odb,Step-1,Increment      1: Step Time =    1.000,"P-2-1",          4091,   30.6638E-03,   177.059E-03,            0.,NA,NA,"",   1.05444E+06,   1.07719E+06,   1.07719E+06
C:/temp/Job-2.odb,Step-1,Increment      1: Step Time =    1.000,"P-2-1",          4092,   22.8864E-03,   30.6861E-03,            0.,NA,NA,"",   1.01676E+06,   1.06732E+06,   1.06732E+06
C:/temp/Job-2.odb,Step-1,Increment      1: Step Time =    1.000,"P-2-1",          4093,   60.9395E-03,   103.895E-03,            0.,NA,NA,"",   741.842E+03,   787.065E+03,   787.065E+03
C:/temp/Job-2.odb,Step-1,Increment      1: Step Time =    1.000,"P-2-1",          4094,   103.452E-03,   135.007E-03,            0.,NA,NA,"",   1.05951E+06,   1.12867E+06,   1.12867E+06
C:/temp/Job-2.odb,Step-1,Increment      1: Step Time =    1.000,"P-2-1",          4095,   50.9664E-03,   174.541E-03,            0.,NA,NA,"",   1.04191E+06,   1.04768E+06,   1.04768E+06
C:/temp/Job-2.odb,Step-1,Increment      1: Step Time =    1.000,"P-2-1",          4096,   175.691E-03,   149.463E-03,            0.,NA,NA,"",   1.01331E+06,   1.01211E+06,   1.01211E+06
C:/temp/Job-2.odb,Step-1,Increment      1: Step Time =    1.000,"P-2-1",          4097,   24.1854E-03,   50.4029E-03,            0.,NA,NA,"",   943.733E+03,   1.00908E+06,   1.00908E+06
C:/temp/Job-2.odb,Step-1,Increment      1: Step Time =    1.000,"P-2-1",          4098,   148.876E-03,   25.6293E-03,            0.,NA,NA,"",   1.02023E+06,   1.01492E+06,   1.01492E+06
C:/temp/Job-2.odb,Step-1,Increment      1: Step Time =    1.000,"P-2-1",          4099,   116.368E-03,   174.823E-03,            0.,NA,NA,"",   1.00156E+06,   1.00631E+06,   1.00631E+06
C:/temp/Job-2.odb,Step-1,Increment      1: Step Time =    1.000,"P-2-1",          4100,   174.900E-03,   85.1229E-03,            0.,NA,NA,"",   971.811E+03,   983.722E+03,   983.722E+03
C:/temp/Job-2.odb,Step-1,Increment      1: Step Time =    1.000,"P-2-1",          4101,   85.3808E-03,   23.8445E-03,            0.,NA,NA,"",   1.00026E+06,   1.00715E+06,   1.00715E+06
C:/temp/Job-2.odb,Step-1,Increment      1: Step Time =    1.000,"P-2-1",          4102,   24.9113E-03,   113.278E-03,            0.,NA,NA,"",   827.508E+03,   908.522E+03,   908.522E+03
C:/temp/Job-2.odb,Step-1,Increment      1: Step Time =    1.000,"P-2-1",          4103,   176.518E-03,   137.161E-03,            0.,NA,NA,"",   1.00486E+06,   1.00734E+06,   1.00734E+06
C:/temp/Job-2.odb,Step-1,Increment      1: Step Time =    1.000,"P-2-1",          4104,   136.874E-03,   23.8785E-03,            0.,NA,NA,"",   1.01543E+06,   1.01192E+06,   1.01192E+06
C:/temp/Job-2.odb,Step-1,Increment      1: Step Time =    1.000,"P-2-1",          4105,   62.7320E-03,   175.210E-03,            0.,NA,NA,"",   1.03119E+06,   1.03354E+06,   1.03354E+06
C:/temp/Job-2.odb,Step-1,Increment      1: Step Time =    1.000,"P-2-1",          4106,   23.5801E-03,   62.8049E-03,            0.,NA,NA,"",   897.991E+03,   971.368E+03,   971.368E+03
C:/temp/Job-2.odb,Step-1,Increment      1: Step Time =    1.000,"P-2-1",          4107,   76.7891E-03,   68.5026E-03,            0.,NA,NA,"",   1.17061E+06,   1.15308E+06,   1.15308E+06
C:/temp/Job-2.odb,Step-1,Increment      1: Step Time =    1.000,"P-2-1",          4108,   122.407E-03,   132.005E-03,            0.,NA,NA,"",   1.18847E+06,   1.15670E+06,   1.15670E+06
C:/temp/Job-2.odb,Step-1,Increment      1: Step Time =    1.000,"P-2-1",          4109,   66.7037E-03,   78.6224E-03,            0.,NA,NA,"",   1.04713E+06,   1.02928E+06,   1.02928E+06
C:/temp/Job-2.odb,Step-1,Increment      1: Step Time =    1.000,"P-2-1",          4110,   132.408E-03,   82.6280E-03,            0.,NA,NA,"",   1.04969E+06,   996.631E+03,   996.631E+03
C:/temp/Job-2.odb,Step-1,Increment      1: Step Time =    1.000,"P-2-1",          4111,   170.155E-03,   95.1211E-03,            0.,NA,NA,"",   952.863E+03,   966.050E+03,   966.050E+03
C:/temp/Job-2.odb,Step-1,Increment      1: Step Time =    1.000,"P-2-1",          4112,   95.3985E-03,   28.4062E-03,            0.,NA,NA,"",   1.00005E+06,   1.01203E+06,   1.01203E+06
C:/temp/Job-2.odb,Step-1,Increment      1: Step Time =    1.000,"P-2-1",          4113,   141.219E-03,   94.9375E-03,            0.,NA,NA,"",    829.17E+03,   837.369E+03,   837.369E+03
C:/temp/Job-2.odb,Step-1,Increment      1: Step Time =    1.000,"P-2-1",          4114,   174.067E-03,   136.806E-03,            0.,NA,NA,"",   1.00789E+06,   1.00864E+06,   1.00864E+06
C:/temp/Job-2.odb,Step-1,Increment      1: Step Time =    1.000,"P-2-1",          4115,   136.395E-03,   26.1576E-03,            0.,NA,NA,"",   1.02050E+06,   1.01645E+06,   1.01645E+06
C:/temp/Job-2.odb,Step-1,Increment      1: Step Time =    1.000,"P-2-1",          4116,   61.6658E-03,   172.724E-03,            0.,NA,NA,"",   1.03761E+06,   1.04061E+06,   1.04061E+06
C:/temp/Job-2.odb,Step-1,Increment      1: Step Time =    1.000,"P-2-1",          4117,   26.0816E-03,   62.9939E-03,            0.,NA,NA,"",   906.412E+03,   975.629E+03,   975.629E+03
C:/temp/Job-2.odb,Step-1,Increment      1: Step Time =    1.000,"P-2-1",          4118,   39.8332E-03,   171.424E-03,            0.,NA,NA,"",   1.04534E+06,   1.06232E+06,   1.06232E+06
C:/temp/Job-2.odb,Step-1,Increment      1: Step Time =    1.000,"P-2-1",          4119,   171.885E-03,   160.380E-03,            0.,NA,NA,"",   1.01730E+06,   1.01381E+06,   1.01381E+06
C:/temp/Job-2.odb,Step-1,Increment      1: Step Time =    1.000,"P-2-1",          4120,   28.4199E-03,   39.7624E-03,            0.,NA,NA,"",   997.725E+03,   1.04567E+06,   1.04567E+06
C:/temp/Job-2.odb,Step-1,Increment      1: Step Time =    1.000,"P-2-1",          4121,   160.100E-03,   28.6874E-03,            0.,NA,NA,"",   1.01983E+06,   1.01471E+06,   1.01471E+06
C:/temp/Job-2.odb,Step-1,Increment      1: Step Time =    1.000,"P-2-1",          4122,   57.8893E-03,   105.377E-03,            0.,NA,NA,"",   775.264E+03,   821.473E+03,   821.473E+03
C:/temp/Job-2.odb,Step-1,Increment      1: Step Time =    1.000,"P-2-1",          4123,   60.4614E-03,   106.465E-03,            0.,NA,NA,"",   773.063E+03,   813.567E+03,   813.567E+03
C:/temp/Job-2.odb,Step-1,Increment      1: Step Time =    1.000,"P-2-1",          4124,   73.4519E-03,   128.668E-03,            0.,NA,NA,"",   1.15872E+06,   1.13151E+06,   1.13151E+06
C:/temp/Job-2.odb,Step-1,Increment      1: Step Time =    1.000,"P-2-1",          4125,   109.347E-03,   137.954E-03,            0.,NA,NA,"",   1.08233E+06,   1.12281E+06,   1.12281E+06
C:/temp/Job-2.odb,Step-1,Increment      1: Step Time =    1.000,"P-2-1",          4126,   86.6304E-03,   171.078E-03,            0.,NA,NA,"",   1.00972E+06,   1.01945E+06,   1.01945E+06
C:/temp/Job-2.odb,Step-1,Increment      1: Step Time =    1.000,"P-2-1",          4127,   112.641E-03,   30.6457E-03,            0.,NA,NA,"",   1.00927E+06,   1.01825E+06,   1.01825E+06
C:/temp/Job-2.odb,Step-1,Increment      1: Step Time =    1.000,"P-2-1",          4128,   169.718E-03,   114.549E-03,            0.,NA,NA,"",   968.883E+03,   977.637E+03,   977.637E+03
C:/temp/Job-2.odb,Step-1,Increment      1: Step Time =    1.000,"P-2-1",          4129,   28.9193E-03,   86.8758E-03,            0.,NA,NA,"",   833.846E+03,   910.080E+03,   910.080E+03
C:/temp/Job-2.odb,Step-1,Increment      1: Step Time =    1.000,"P-2-1",          4130,   152.386E-03,   169.732E-03,            0.,NA,NA,"",   1.02734E+06,   1.02049E+06,   1.02049E+06
C:/temp/Job-2.odb,Step-1,Increment      1: Step Time =    1.000,"P-2-1",          4131,   170.196E-03,   48.6127E-03,            0.,NA,NA,"",   1.02152E+06,   1.01710E+06,   1.01710E+06
C:/temp/Job-2.odb,Step-1,Increment      1: Step Time =    1.000,"P-2-1",          4132,   29.8067E-03,   151.484E-03,            0.,NA,NA,"",   970.774E+03,   1.02389E+06,   1.02389E+06
C:/temp/Job-2.odb,Step-1,Increment      1: Step Time =    1.000,"P-2-1",          4133,   48.2314E-03,   30.6483E-03,            0.,NA,NA,"",   1.04640E+06,   1.05649E+06,   1.05649E+06
C:/temp/Job-2.odb,Step-1,Increment      1: Step Time =    1.000,"P-2-1",          4134,   171.745E-03,   124.628E-03,            0.,NA,NA,"",   991.221E+03,   995.678E+03,   995.678E+03
C:/temp/Job-2.odb,Step-1,Increment      1: Step Time =    1.000,"P-2-1",          4135,   74.7949E-03,   169.417E-03,            0.,NA,NA,"",   1.03095E+06,   1.03637E+06,   1.03637E+06
C:/temp/Job-2.odb,Step-1,Increment      1: Step Time =    1.000,"P-2-1",          4136,   126.330E-03,   30.4871E-03,            0.,NA,NA,"",   1.02500E+06,   1.02436E+06,   1.02436E+06
C:/temp/Job-2.odb,Step-1,Increment      1: Step Time =    1.000,"P-2-1",          4137,   29.9074E-03,   75.2023E-03,            0.,NA,NA,"",   874.873E+03,   944.295E+03,   944.295E+03
C:/temp/Job-2.odb,Step-1,Increment      1: Step Time =    1.000,"P-2-1",          4138,   171.522E-03,   65.0523E-03,            0.,NA,NA,"",   1.00911E+06,   1.00853E+06,   1.00853E+06
C:/temp/Job-2.odb,Step-1,Increment      1: Step Time =    1.000,"P-2-1",          4139,   133.225E-03,   171.119E-03,            0.,NA,NA,"",   1.02529E+06,   1.02173E+06,   1.02173E+06
C:/temp/Job-2.odb,Step-1,Increment      1: Step Time =    1.000,"P-2-1",          4140,   65.2100E-03,   30.3813E-03,            0.,NA,NA,"",   1.04133E+06,   1.04472E+06,   1.04472E+06
C:/temp/Job-2.odb,Step-1,Increment      1: Step Time =    1.000,"P-2-1",          4141,   28.7867E-03,   135.513E-03,            0.,NA,NA,"",   911.353E+03,   976.551E+03,   976.551E+03
C:/temp/Job-2.odb,Step-1,Increment      1: Step Time =    1.000,"P-2-1",          4142,   132.501E-03,   107.594E-03,            0.,NA,NA,"",   810.185E+03,   797.763E+03,   797.763E+03
C:/temp/Job-2.odb,Step-1,Increment      1: Step Time =    1.000,"P-2-1",          4143,   169.526E-03,   131.438E-03,            0.,NA,NA,"",   1.00678E+06,   1.00591E+06,   1.00591E+06
C:/temp/Job-2.odb,Step-1,Increment      1: Step Time =    1.000,"P-2-1",          4144,   68.5649E-03,   169.924E-03,            0.,NA,NA,"",   1.03748E+06,   1.04110E+06,   1.04110E+06
C:/temp/Job-2.odb,Step-1,Increment      1: Step Time =    1.000,"P-2-1",          4145,   132.963E-03,   30.7754E-03,            0.,NA,NA,"",   1.03091E+06,   1.02665E+06,   1.02665E+06
C:/temp/Job-2.odb,Step-1,Increment      1: Step Time =    1.000,"P-2-1",          4146,   31.3237E-03,   67.1265E-03,            0.,NA,NA,"",   910.724E+03,   972.894E+03,   972.894E+03
C:/temp/Job-2.odb,Step-1,Increment      1: Step Time =    1.000,"P-2-1",          4147,   139.763E-03,   93.1581E-03,            0.,NA,NA,"",   838.259E+03,   841.431E+03,   841.431E+03
C:/temp/Job-2.odb,Step-1,Increment      1: Step Time =    1.000,"P-2-1",          4148,   169.457E-03,   73.2260E-03,            0.,NA,NA,"",   997.492E+03,   998.881E+03,   998.881E+03
C:/temp/Job-2.odb,Step-1,Increment      1: Step Time =    1.000,"P-2-1",          4149,   127.405E-03,   168.847E-03,            0.,NA,NA,"",   1.02694E+06,   1.02580E+06,   1.02580E+06
C:/temp/Job-2.odb,Step-1,Increment      1: Step Time =    1.000,"P-2-1",          4150,   71.9232E-03,   30.9447E-03,            0.,NA,NA,"",   1.03541E+06,   1.03994E+06,   1.03994E+06
C:/temp/Job-2.odb,Step-1,Increment      1: Step Time =    1.000,"P-2-1",          4151,   29.3305E-03,   128.198E-03,            0.,NA,NA,"",   885.754E+03,   954.097E+03,   954.097E+03
C:/temp/Job-2.odb,Step-1,Increment      1: Step Time =    1.000,"P-2-1",          4152,   117.990E-03,   59.9163E-03,            0.,NA,NA,"",   1.12174E+06,   1.12330E+06,   1.12330E+06
C:/temp/Job-2.odb,Step-1,Increment      1: Step Time =    1.000,"P-2-1",          4153,   84.3613E-03,   138.990E-03,            0.,NA,NA,"",   1.11199E+06,   1.13120E+06,   1.13120E+06
C:/temp/Job-2.odb,Step-1,Increment      1: Step Time =    1.000,"P-2-1",          4154,   127.026E-03,   71.2467E-03,            0.,NA,NA,"",   1.18405E+06,   1.13360E+06,   1.13360E+06
C:/temp/Job-2.odb,Step-1,Increment      1: Step Time =    1.000,"P-2-1",          4155,   162.461E-03,   170.683E-03,            0.,NA,NA,"",   1.01870E+06,   1.01394E+06,   1.01394E+06
C:/temp/Job-2.odb,Step-1,Increment      1: Step Time =    1.000,"P-2-1",          4156,   170.868E-03,   37.6887E-03,            0.,NA,NA,"",   1.01752E+06,   1.01381E+06,   1.01381E+06
C:/temp/Job-2.odb,Step-1,Increment      1: Step Time =    1.000,"P-2-1",          4157,   29.1967E-03,   162.304E-03,            0.,NA,NA,"",   1.00682E+06,   1.05122E+06,   1.05122E+06
C:/temp/Job-2.odb,Step-1,Increment      1: Step Time =    1.000,"P-2-1",          4158,   37.0879E-03,   29.5829E-03,            0.,NA,NA,"",   1.04294E+06,   1.06446E+06,   1.06446E+06
C:/temp/Job-2.odb,Step-1,Increment      1: Step Time =    1.000,"P-2-1",          4159,   169.457E-03,   171.889E-03,            0.,NA,NA,"",   1.01253E+06,   1.00958E+06,   1.00958E+06
C:/temp/Job-2.odb,Step-1,Increment      1: Step Time =    1.000,"P-2-1",          4160,   28.2527E-03,   170.139E-03,            0.,NA,NA,"",   1.03210E+06,   1.06922E+06,   1.06922E+06
C:/temp/Job-2.odb,Step-1,Increment      1: Step Time =    1.000,"P-2-1",          4161,   171.782E-03,   29.8473E-03,            0.,NA,NA,"",   1.01197E+06,   1.00936E+06,   1.00936E+06
C:/temp/Job-2.odb,Step-1,Increment      1: Step Time =    1.000,"P-2-1",          4162,   29.8782E-03,   27.5583E-03,            0.,NA,NA,"",   1.04164E+06,   1.07232E+06,   1.07232E+06
C:/temp/Job-2.odb,Step-1,Increment      1: Step Time =    1.000,"P-2-1",          4163,   84.4845E-03,   61.7537E-03,            0.,NA,NA,"",   1.11390E+06,   1.13471E+06,   1.13471E+06
C:/temp/Job-2.odb,Step-1,Increment      1: Step Time =    1.000,"P-2-1",          4164,   116.073E-03,   138.992E-03,            0.,NA,NA,"",   1.11762E+06,   1.12780E+06,   1.12780E+06
C:/temp/Job-2.odb,Step-1,Increment      1: Step Time =    1.000,"P-2-1",          4165,   140.468E-03,   24.9606E-03,            0.,NA,NA,"",   1.01874E+06,   1.01425E+06,   1.01425E+06
C:/temp/Job-2.odb,Step-1,Increment      1: Step Time =    1.000,"P-2-1",          4166,   23.5999E-03,   58.3303E-03,            0.,NA,NA,"",   913.311E+03,   984.585E+03,   984.585E+03
C:/temp/Job-2.odb,Step-1,Increment      1: Step Time =    1.000,"P-2-1",          4167,   176.416E-03,   141.556E-03,            0.,NA,NA,"",   1.00853E+06,   1.00956E+06,   1.00956E+06
C:/temp/Job-2.odb,Step-1,Increment      1: Step Time =    1.000,"P-2-1",          4168,   59.0861E-03,   175.555E-03,            0.,NA,NA,"",   1.03377E+06,   1.03635E+06,   1.03635E+06
C:/temp/Job-2.odb,Step-1,Increment      1: Step Time =    1.000,"P-2-1",          4169,   173.121E-03,   148.603E-03,            0.,NA,NA,"",   1.01699E+06,   1.01437E+06,   1.01437E+06
C:/temp/Job-2.odb,Step-1,Increment      1: Step Time =    1.000,"P-2-1",          4170,   26.6402E-03,   51.1826E-03,            0.,NA,NA,"",    950.91E+03,   1.01174E+06,   1.01174E+06
C:/temp/Job-2.odb,Step-1,Increment      1: Step Time =    1.000,"P-2-1",          4171,   148.232E-03,   27.8736E-03,            0.,NA,NA,"",   1.02479E+06,   1.01863E+06,   1.01863E+06
C:/temp/Job-2.odb,Step-1,Increment      1: Step Time =    1.000,"P-2-1",          4172,   117.286E-03,   171.462E-03,            0.,NA,NA,"",   1.01002E+06,   1.01523E+06,   1.01523E+06
C:/temp/Job-2.odb,Step-1,Increment      1: Step Time =    1.000,"P-2-1",          4173,   172.683E-03,   83.8514E-03,            0.,NA,NA,"",   973.420E+03,   983.217E+03,   983.217E+03
C:/temp/Job-2.odb,Step-1,Increment      1: Step Time =    1.000,"P-2-1",          4174,   84.7235E-03,   26.5907E-03,            0.,NA,NA,"",   1.00706E+06,   1.01503E+06,   1.01503E+06
C:/temp/Job-2.odb,Step-1,Increment      1: Step Time =    1.000,"P-2-1",          4175,   27.5780E-03,   115.890E-03,            0.,NA,NA,"",   839.097E+03,   915.970E+03,   915.970E+03
C:/temp/Job-2.odb,Step-1,Increment      1: Step Time =    1.000,"P-2-1",          4176,   72.5541E-03,   66.0518E-03,            0.,NA,NA,"",   1.13940E+06,   1.12472E+06,   1.12472E+06
C:/temp/Job-2.odb,Step-1,Increment      1: Step Time =    1.000,"P-2-1",          4177,   124.600E-03,   132.785E-03,            0.,NA,NA,"",   1.17806E+06,   1.14335E+06,   1.14335E+06
C:/temp/Job-2.odb,Step-1,Increment      1: Step Time =    1.000,"P-2-1",          4178,   65.0451E-03,   77.5329E-03,            0.,NA,NA,"",   1.04069E+06,   1.02846E+06,   1.02846E+06
C:/temp/Job-2.odb,Step-1,Increment      1: Step Time =    1.000,"P-2-1",          4179,   175.285E-03,   56.8318E-03,            0.,NA,NA,"",   1.01115E+06,   1.01099E+06,   1.01099E+06
C:/temp/Job-2.odb,Step-1,Increment      1: Step Time =    1.000,"P-2-1",          4180,   141.003E-03,   173.298E-03,            0.,NA,NA,"",   1.02266E+06,   1.01760E+06,   1.01760E+06
C:/temp/Job-2.odb,Step-1,Increment      1: Step Time =    1.000,"P-2-1",          4181,   57.9260E-03,   25.1322E-03,            0.,NA,NA,"",   1.03657E+06,   1.03964E+06,   1.03964E+06
C:/temp/Job-2.odb,Step-1,Increment      1: Step Time =    1.000,"P-2-1",          4182,   25.0066E-03,   142.910E-03,            0.,NA,NA,"",   923.011E+03,   990.961E+03,   990.961E+03
C:/temp/Job-2.odb,Step-1,Increment      1: Step Time =    1.000,"P-2-1",          4183,   65.8247E-03,   119.732E-03,            0.,NA,NA,"",   1.01312E+06,   1.00079E+06,   1.00079E+06
C:/temp/Job-2.odb,Step-1,Increment      1: Step Time =    1.000,"P-2-1",          4184,   134.278E-03,   79.1361E-03,            0.,NA,NA,"",   1.08007E+06,   1.03033E+06,   1.03033E+06
C:/temp/Job-2.odb,Step-1,Increment      1: Step Time =    1.000,"P-2-1",          4185,   137.157E-03,   86.0117E-03,            0.,NA,NA,"",   958.029E+03,   931.256E+03,   931.256E+03
C:/temp/Job-2.odb,Step-1,Increment      1: Step Time =    1.000,"P-2-1",          4186,   127.888E-03,   125.924E-03,            0.,NA,NA,"",   1.18132E+06,   1.12260E+06,   1.12260E+06
C:/temp/Job-2.odb,Step-1,Increment      1: Step Time =    1.000,"P-2-1",          4187,   110.636E-03,   61.5904E-03,            0.,NA,NA,"",   1.09070E+06,   1.12447E+06,   1.12447E+06
C:/temp/Job-2.odb,Step-1,Increment      1: Step Time =    1.000,"P-2-1",          4188,   71.1544E-03,   75.3313E-03,            0.,NA,NA,"",   1.12608E+06,   1.09433E+06,   1.09433E+06
C:/temp/Job-2.odb,Step-1,Increment      1: Step Time =    1.000,"P-2-1",          4189,   139.480E-03,   100.557E-03,            0.,NA,NA,"",   788.308E+03,   802.004E+03,   802.004E+03
C:/temp/Job-2.odb,Step-1,Increment      1: Step Time =    1.000,"P-2-1",          4190,   136.034E-03,   110.445E-03,            0.,NA,NA,"",   888.421E+03,   872.081E+03,   872.081E+03
C:/temp/Job-2.odb,Step-1,Increment      1: Step Time =    1.000,"P-2-1",          4191,   58.1856E-03,   94.4116E-03,            0.,NA,NA,"",   774.752E+03,   820.044E+03,   820.044E+03
C:/temp/Job-2.odb,Step-1,Increment      1: Step Time =    1.000,"P-2-1",          4192,   52.5976E-03,   173.741E-03,            0.,NA,NA,"",   1.04205E+06,   1.04738E+06,   1.04738E+06
C:/temp/Job-2.odb,Step-1,Increment      1: Step Time =    1.000,"P-2-1",          4193,   175.273E-03,   147.917E-03,            0.,NA,NA,"",   1.01363E+06,   1.01237E+06,   1.01237E+06
C:/temp/Job-2.odb,Step-1,Increment      1: Step Time =    1.000,"P-2-1",          4194,   24.6004E-03,   51.9144E-03,            0.,NA,NA,"",   940.437E+03,   1.00578E+06,   1.00578E+06
C:/temp/Job-2.odb,Step-1,Increment      1: Step Time =    1.000,"P-2-1",          4195,   147.150E-03,   25.5270E-03,            0.,NA,NA,"",   1.02010E+06,   1.01487E+06,   1.01487E+06
C:/temp/Job-2.odb,Step-1,Increment      1: Step Time =    1.000,"P-2-1",          4196,   83.7710E-03,   22.6140E-03,            0.,NA,NA,"",   999.034E+03,   1.00487E+06,   1.00487E+06
C:/temp/Job-2.odb,Step-1,Increment      1: Step Time =    1.000,"P-2-1",          4197,   24.4791E-03,   116.064E-03,            0.,NA,NA,"",   833.376E+03,   914.010E+03,   914.010E+03
C:/temp/Job-2.odb,Step-1,Increment      1: Step Time =    1.000,"P-2-1",          4198,   138.231E-03,   82.7152E-03,            0.,NA,NA,"",   1.00531E+06,   973.206E+03,   973.206E+03
C:/temp/Job-2.odb,Step-1,Increment      1: Step Time =    1.000,"P-2-1",          4199,   79.9576E-03,   136.721E-03,            0.,NA,NA,"",   1.13894E+06,   1.14121E+06,   1.14121E+06
C:/temp/Job-2.odb,Step-1,Increment      1: Step Time =    1.000,"P-2-1",          4200,   119.946E-03,   62.3528E-03,            0.,NA,NA,"",   1.14437E+06,   1.13541E+06,   1.13541E+06
C:/temp/Job-2.odb,Step-1,Increment      1: Step Time =    1.000,"P-2-1",          4201,   173.448E-03,   98.5919E-03,            0.,NA,NA,"",   956.627E+03,   971.696E+03,   971.696E+03
C:/temp/Job-2.odb,Step-1,Increment      1: Step Time =    1.000,"P-2-1",          4202,   100.742E-03,   26.1672E-03,            0.,NA,NA,"",   994.783E+03,   1.00520E+06,   1.00520E+06
C:/temp/Job-2.odb,Step-1,Increment      1: Step Time =    1.000,"P-2-1",          4203,   138.162E-03,   116.377E-03,            0.,NA,NA,"",   991.504E+03,   961.457E+03,   961.457E+03
C:/temp/Job-2.odb,Step-1,Increment      1: Step Time =    1.000,"P-2-1",          4204,   90.8017E-03,   61.1088E-03,            0.,NA,NA,"",   1.07513E+06,   1.11881E+06,   1.11881E+06
C:/temp/Job-2.odb,Step-1,Increment      1: Step Time =    1.000,"P-2-1",          4205,   67.3776E-03,   124.008E-03,            0.,NA,NA,"",   1.07981E+06,   1.05800E+06,   1.05800E+06
C:/temp/Job-2.odb,Step-1,Increment      1: Step Time =    1.000,"P-2-1",          4206,   100.660E-03,   171.441E-03,            0.,NA,NA,"",   998.627E+03,   1.01081E+06,   1.01081E+06
C:/temp/Job-2.odb,Step-1,Increment      1: Step Time =    1.000,"P-2-1",          4207,   28.4576E-03,   100.101E-03,            0.,NA,NA,"",   815.148E+03,   894.356E+03,   894.356E+03
C:/temp/Job-2.odb,Step-1,Increment      1: Step Time =    1.000,"P-2-1",          4208,   72.4024E-03,   71.0705E-03,            0.,NA,NA,"",   1.14879E+06,   1.12340E+06,   1.12340E+06
C:/temp/Job-2.odb,Step-1,Increment      1: Step Time =    1.000,"P-2-1",          4209,   125.360E-03,   128.442E-03,            0.,NA,NA,"",   1.19743E+06,   1.14735E+06,   1.14735E+06
C:/temp/Job-2.odb,Step-1,Increment      1: Step Time =    1.000,"P-2-1",          4210,   29.0325E-03,   31.1087E-03,            0.,NA,NA,"",   1.02940E+06,   1.06648E+06,   1.06648E+06
C:/temp/Job-2.odb,Step-1,Increment      1: Step Time =    1.000,"P-2-1",          4211,   172.154E-03,   167.484E-03,            0.,NA,NA,"",   1.01324E+06,   1.01044E+06,   1.01044E+06
C:/temp/Job-2.odb,Step-1,Increment      1: Step Time =    1.000,"P-2-1",          4212,   31.7032E-03,   30.1292E-03,            0.,NA,NA,"",   1.03643E+06,   1.06734E+06,   1.06734E+06
C:/temp/Job-2.odb,Step-1,Increment      1: Step Time =    1.000,"P-2-1",          4213,   168.951E-03,   32.4189E-03,            0.,NA,NA,"",   1.01613E+06,   1.01242E+06,   1.01242E+06
C:/temp/Job-2.odb,Step-1,Increment      1: Step Time =    1.000,"P-2-1",          4214,   31.1258E-03,   167.567E-03,            0.,NA,NA,"",   1.02870E+06,   1.06337E+06,   1.06337E+06
C:/temp/Job-2.odb,Step-1,Increment      1: Step Time =    1.000,"P-2-1",          4215,   167.298E-03,   169.235E-03,            0.,NA,NA,"",   1.01639E+06,   1.01247E+06,   1.01247E+06
C:/temp/Job-2.odb,Step-1,Increment      1: Step Time =    1.000,"P-2-1",          4216,   172.099E-03,   88.9327E-03,            0.,NA,NA,"",   963.899E+03,   975.897E+03,   975.897E+03
C:/temp/Job-2.odb,Step-1,Increment      1: Step Time =    1.000,"P-2-1",          4217,   111.381E-03,   172.460E-03,            0.,NA,NA,"",   1.00194E+06,   1.01004E+06,   1.01004E+06
C:/temp/Job-2.odb,Step-1,Increment      1: Step Time =    1.000,"P-2-1",          4218,   89.4333E-03,   27.9895E-03,            0.,NA,NA,"",   1.00453E+06,   1.01484E+06,   1.01484E+06
C:/temp/Job-2.odb,Step-1,Increment      1: Step Time =    1.000,"P-2-1",          4219,   29.7339E-03,   111.220E-03,            0.,NA,NA,"",   830.193E+03,   906.224E+03,   906.224E+03
C:/temp/Job-2.odb,Step-1,Increment      1: Step Time =    1.000,"P-2-1",          4220,   142.127E-03,   105.756E-03,            0.,NA,NA,"",   846.146E+03,   852.547E+03,   852.547E+03
C:/temp/Job-2.odb,Step-1,Increment      1: Step Time =    1.000,"P-2-1",          4221,   46.3093E-03,   171.993E-03,            0.,NA,NA,"",   1.04588E+06,   1.05586E+06,   1.05586E+06
C:/temp/Job-2.odb,Step-1,Increment      1: Step Time =    1.000,"P-2-1",          4222,   172.046E-03,   153.280E-03,            0.,NA,NA,"",   1.01886E+06,   1.01533E+06,   1.01533E+06
C:/temp/Job-2.odb,Step-1,Increment      1: Step Time =    1.000,"P-2-1",          4223,   27.9727E-03,   46.7146E-03,            0.,NA,NA,"",   971.083E+03,   1.02633E+06,   1.02633E+06
C:/temp/Job-2.odb,Step-1,Increment      1: Step Time =    1.000,"P-2-1",          4224,   153.458E-03,   27.8908E-03,            0.,NA,NA,"",   1.02248E+06,   1.01665E+06,   1.01665E+06
C:/temp/Job-2.odb,Step-1,Increment      1: Step Time =    1.000,"P-2-1",          4225,   57.7335E-03,   100.086E-03,            0.,NA,NA,"",   753.537E+03,   803.950E+03,   803.950E+03
C:/temp/Job-2.odb,Step-1,Increment      1: Step Time =    1.000,"P-2-1",          4226,   62.8869E-03,   87.3455E-03,            0.,NA,NA,"",   872.612E+03,   888.504E+03,   888.504E+03
C:/temp/Job-2.odb,Step-1,Increment      1: Step Time =    1.000,"P-2-1",          4227,   132.667E-03,   123.317E-03,            0.,NA,NA,"",   1.12262E+06,   1.06761E+06,   1.06761E+06
C:/temp/Job-2.odb,Step-1,Increment      1: Step Time =    1.000,"P-2-1",          4228,   118.412E-03,   138.185E-03,            0.,NA,NA,"",   1.13567E+06,   1.13459E+06,   1.13459E+06
C:/temp/Job-2.odb,Step-1,Increment      1: Step Time =    1.000,"P-2-1",          4229,   81.4913E-03,   62.8278E-03,            0.,NA,NA,"",   1.13397E+06,   1.14227E+06,   1.14227E+06
C:/temp/Job-2.odb,Step-1,Increment      1: Step Time =    1.000,"P-2-1",          4230,   105.273E-03,   57.5048E-03,            0.,NA,NA,"",   1.04309E+06,   1.08949E+06,   1.08949E+06
C:/temp/Job-2.odb,Step-1,Increment      1: Step Time =    1.000,"P-2-1",          4231,   95.2564E-03,   141.215E-03,            0.,NA,NA,"",   1.04494E+06,   1.09651E+06,   1.09651E+06
C:/temp/Job-2.odb,Step-1,Increment      1: Step Time =    1.000,"P-2-1",          4232,   57.5864E-03,   110.836E-03,            0.,NA,NA,"",   836.880E+03,   872.689E+03,   872.689E+03
C:/temp/Job-2.odb,Step-1,Increment      1: Step Time =    1.000,"P-2-1",          4233,   67.6866E-03,   77.2002E-03,            0.,NA,NA,"",   1.07127E+06,   1.04968E+06,   1.04968E+06
C:/temp/Job-2.odb,Step-1,Increment      1: Step Time =    1.000,"P-2-1",          4234,   130.349E-03,   127.237E-03,            0.,NA,NA,"",   1.15853E+06,   1.10565E+06,   1.10565E+06
C:/temp/Job-2.odb,Step-1,Increment      1: Step Time =    1.000,"P-2-1",          4235,   69.5586E-03,   73.9348E-03,            0.,NA,NA,"",   1.11480E+06,   1.08882E+06,   1.08882E+06
C:/temp/Job-2.odb,Step-1,Increment      1: Step Time =    1.000,"P-2-1",          4236,   62.2204E-03,   85.2668E-03,            0.,NA,NA,"",   906.626E+03,   918.491E+03,   918.491E+03
C:/temp/Job-2.odb,Step-1,Increment      1: Step Time =    1.000,"P-2-1",          4237,   61.2337E-03,   89.1219E-03,            0.,NA,NA,"",   839.570E+03,   866.187E+03,   866.187E+03
C:/temp/Job-2.odb,Step-1,Increment      1: Step Time =    1.000,"P-2-1",          4238,   168.669E-03,   96.3953E-03,            0.,NA,NA,"",   949.208E+03,   962.130E+03,   962.130E+03
C:/temp/Job-2.odb,Step-1,Increment      1: Step Time =    1.000,"P-2-1",          4239,   97.5484E-03,   30.8073E-03,            0.,NA,NA,"",   1.00284E+06,   1.01713E+06,   1.01713E+06
C:/temp/Job-2.odb,Step-1,Increment      1: Step Time =    1.000,"P-2-1",          4240,   142.452E-03,   96.8977E-03,            0.,NA,NA,"",   824.997E+03,   836.268E+03,   836.268E+03
C:/temp/Job-2.odb,Step-1,Increment      1: Step Time =    1.000,"P-2-1",          4241,   37.7164E-03,   169.948E-03,            0.,NA,NA,"",   1.04227E+06,   1.06341E+06,   1.06341E+06
C:/temp/Job-2.odb,Step-1,Increment      1: Step Time =    1.000,"P-2-1",          4242,   169.952E-03,   162.829E-03,            0.,NA,NA,"",   1.01841E+06,   1.01436E+06,   1.01436E+06
C:/temp/Job-2.odb,Step-1,Increment      1: Step Time =    1.000,"P-2-1",          4243,   29.7256E-03,   37.7108E-03,            0.,NA,NA,"",   1.00886E+06,   1.05191E+06,   1.05191E+06
C:/temp/Job-2.odb,Step-1,Increment      1: Step Time =    1.000,"P-2-1",          4244,   162.264E-03,   30.2118E-03,            0.,NA,NA,"",   1.02000E+06,   1.01494E+06,   1.01494E+06
C:/temp/Job-2.odb,Step-1,Increment      1: Step Time =    1.000,"P-2-1",          4245,   89.2790E-03,   142.101E-03,            0.,NA,NA,"",   1.06952E+06,   1.10530E+06,   1.10530E+06
C:/temp/Job-2.odb,Step-1,Increment      1: Step Time =    1.000,"P-2-1",          4246,   110.446E-03,   59.2644E-03,            0.,NA,NA,"",   1.07615E+06,   1.10955E+06,   1.10955E+06
C:/temp/Job-2.odb,Step-1,Increment      1: Step Time =    1.000,"P-2-1",          4247,   55.4585E-03,   103.032E-03,            0.,NA,NA,"",   775.700E+03,   826.846E+03,   826.846E+03
C:/temp/Job-2.odb,Step-1,Increment      1: Step Time =    1.000,"P-2-1",          4248,   105.159E-03,   139.669E-03,            0.,NA,NA,"",   1.04999E+06,   1.10279E+06,   1.10279E+06
C:/temp/Job-2.odb,Step-1,Increment      1: Step Time =    1.000,"P-2-1",          4249,   84.4372E-03,   169.392E-03,            0.,NA,NA,"",   1.01636E+06,   1.02619E+06,   1.02619E+06
C:/temp/Job-2.odb,Step-1,Increment      1: Step Time =    1.000,"P-2-1",          4250,   88.4751E-03,   170.970E-03,            0.,NA,NA,"",   1.00780E+06,   1.01840E+06,   1.01840E+06
C:/temp/Job-2.odb,Step-1,Increment      1: Step Time =    1.000,"P-2-1",          4251,   115.655E-03,   32.0707E-03,            0.,NA,NA,"",   1.01559E+06,   1.02319E+06,   1.02319E+06
C:/temp/Job-2.odb,Step-1,Increment      1: Step Time =    1.000,"P-2-1",          4252,   171.147E-03,   111.774E-03,            0.,NA,NA,"",   964.544E+03,   975.543E+03,   975.543E+03
C:/temp/Job-2.odb,Step-1,Increment      1: Step Time =    1.000,"P-2-1",          4253,   167.611E-03,   117.190E-03,            0.,NA,NA,"",   973.934E+03,   979.828E+03,   979.828E+03
C:/temp/Job-2.odb,Step-1,Increment      1: Step Time =    1.000,"P-2-1",          4254,   31.6787E-03,   85.4066E-03,            0.,NA,NA,"",   842.658E+03,   914.794E+03,   914.794E+03
C:/temp/Job-2.odb,Step-1,Increment      1: Step Time =    1.000,"P-2-1",          4255,   28.3292E-03,   88.7184E-03,            0.,NA,NA,"",   828.642E+03,   906.134E+03,   906.134E+03
C:/temp/Job-2.odb,Step-1,Increment      1: Step Time =    1.000,"P-2-1",          4256,   148.190E-03,   167.855E-03,            0.,NA,NA,"",   1.03308E+06,   1.02521E+06,   1.02521E+06
C:/temp/Job-2.odb,Step-1,Increment      1: Step Time =    1.000,"P-2-1",          4257,   154.243E-03,   171.250E-03,            0.,NA,NA,"",   1.02359E+06,   1.01752E+06,   1.01752E+06
C:/temp/Job-2.odb,Step-1,Increment      1: Step Time =    1.000,"P-2-1",          4258,   171.465E-03,   45.9417E-03,            0.,NA,NA,"",   1.01953E+06,   1.01573E+06,   1.01573E+06
C:/temp/Job-2.odb,Step-1,Increment      1: Step Time =    1.000,"P-2-1",          4259,   168.056E-03,   50.6261E-03,            0.,NA,NA,"",   1.02540E+06,   1.01957E+06,   1.01957E+06
C:/temp/Job-2.odb,Step-1,Increment      1: Step Time =    1.000,"P-2-1",          4260,   32.0390E-03,   149.726E-03,            0.,NA,NA,"",   974.157E+03,   1.02370E+06,   1.02370E+06
C:/temp/Job-2.odb,Step-1,Increment      1: Step Time =    1.000,"P-2-1",          4261,   28.5049E-03,   154.095E-03,            0.,NA,NA,"",   975.262E+03,   1.02885E+06,   1.02885E+06
C:/temp/Job-2.odb,Step-1,Increment      1: Step Time =    1.000,"P-2-1",          4262,   46.1553E-03,   28.9879E-03,            0.,NA,NA,"",   1.04583E+06,   1.05669E+06,   1.05669E+06
C:/temp/Job-2.odb,Step-1,Increment      1: Step Time =    1.000,"P-2-1",          4263,   53.4025E-03,   32.2415E-03,            0.,NA,NA,"",   1.04825E+06,   1.05528E+06,   1.05528E+06
C:/temp/Job-2.odb,Step-1,Increment      1: Step Time =    1.000,"P-2-1",          4264,   169.302E-03,   122.675E-03,            0.,NA,NA,"",   988.090E+03,   991.832E+03,   991.832E+03
C:/temp/Job-2.odb,Step-1,Increment      1: Step Time =    1.000,"P-2-1",          4265,   78.4774E-03,   167.561E-03,            0.,NA,NA,"",   1.02966E+06,   1.03710E+06,   1.03710E+06
C:/temp/Job-2.odb,Step-1,Increment      1: Step Time =    1.000,"P-2-1",          4266,   123.157E-03,   31.8786E-03,            0.,NA,NA,"",   1.02518E+06,   1.02673E+06,   1.02673E+06
C:/temp/Job-2.odb,Step-1,Increment      1: Step Time =    1.000,"P-2-1",          4267,   31.3435E-03,   78.0375E-03,            0.,NA,NA,"",   867.857E+03,   936.723E+03,   936.723E+03
C:/temp/Job-2.odb,Step-1,Increment      1: Step Time =    1.000,"P-2-1",          4268,   170.071E-03,   62.6833E-03,            0.,NA,NA,"",   1.01465E+06,   1.01203E+06,   1.01203E+06
C:/temp/Job-2.odb,Step-1,Increment      1: Step Time =    1.000,"P-2-1",          4269,   136.981E-03,   169.344E-03,            0.,NA,NA,"",   1.03157E+06,   1.02605E+06,   1.02605E+06
C:/temp/Job-2.odb,Step-1,Increment      1: Step Time =    1.000,"P-2-1",          4270,   62.9226E-03,   30.3871E-03,            0.,NA,NA,"",   1.04290E+06,   1.04641E+06,   1.04641E+06
C:/temp/Job-2.odb,Step-1,Increment      1: Step Time =    1.000,"P-2-1",          4271,   31.0324E-03,   137.986E-03,            0.,NA,NA,"",   928.443E+03,   988.075E+03,   988.075E+03
C:/temp/Job-2.odb,Step-1,Increment      1: Step Time =    1.000,"P-2-1",          4272,   170.078E-03,   98.2060E-03,            0.,NA,NA,"",   950.973E+03,   964.629E+03,   964.629E+03
C:/temp/Job-2.odb,Step-1,Increment      1: Step Time =    1.000,"P-2-1",          4273,   99.3104E-03,   28.9462E-03,            0.,NA,NA,"",   999.548E+03,   1.01219E+06,   1.01219E+06
C:/temp/Job-2.odb,Step-1,Increment      1: Step Time =    1.000,"P-2-1",          4274,   171.776E-03,   134.098E-03,            0.,NA,NA,"",   1.00787E+06,   1.00776E+06,   1.00776E+06
C:/temp/Job-2.odb,Step-1,Increment      1: Step Time =    1.000,"P-2-1",          4275,   66.4407E-03,   171.681E-03,            0.,NA,NA,"",   1.03568E+06,   1.03871E+06,   1.03871E+06
C:/temp/Job-2.odb,Step-1,Increment      1: Step Time =    1.000,"P-2-1",          4276,   134.264E-03,   28.2822E-03,            0.,NA,NA,"",   1.02489E+06,   1.02083E+06,   1.02083E+06
C:/temp/Job-2.odb,Step-1,Increment      1: Step Time =    1.000,"P-2-1",          4277,   28.7092E-03,   65.2417E-03,            0.,NA,NA,"",   908.153E+03,   973.836E+03,   973.836E+03
C:/temp/Job-2.odb,Step-1,Increment      1: Step Time =    1.000,"P-2-1",          4278,   170.358E-03,   75.5853E-03,            0.,NA,NA,"",   991.635E+03,   995.034E+03,   995.034E+03
C:/temp/Job-2.odb,Step-1,Increment      1: Step Time =    1.000,"P-2-1",          4279,   125.184E-03,   169.825E-03,            0.,NA,NA,"",   1.02241E+06,   1.02274E+06,   1.02274E+06
C:/temp/Job-2.odb,Step-1,Increment      1: Step Time =    1.000,"P-2-1",          4280,   75.2171E-03,   29.7721E-03,            0.,NA,NA,"",   1.02820E+06,   1.03368E+06,   1.03368E+06
C:/temp/Job-2.odb,Step-1,Increment      1: Step Time =    1.000,"P-2-1",          4281,   28.9301E-03,   124.895E-03,            0.,NA,NA,"",   871.509E+03,   942.392E+03,   942.392E+03
C:/temp/Job-2.odb,Step-1,Increment      1: Step Time =    1.000,"P-2-1",          4282,   128.106E-03,   69.0188E-03,            0.,NA,NA,"",   1.17060E+06,   1.12603E+06,   1.12603E+06
C:/temp/Job-2.odb,Step-1,Increment      1: Step Time =    1.000,"P-2-1",          4283,   160.296E-03,   169.720E-03,            0.,NA,NA,"",   1.02160E+06,   1.01609E+06,   1.01609E+06
C:/temp/Job-2.odb,Step-1,Increment      1: Step Time =    1.000,"P-2-1",          4284,   170.160E-03,   39.9674E-03,            0.,NA,NA,"",   1.01947E+06,   1.01529E+06,   1.01529E+06
C:/temp/Job-2.odb,Step-1,Increment      1: Step Time =    1.000,"P-2-1",          4285,   29.8875E-03,   160.035E-03,            0.,NA,NA,"",   1.00094E+06,   1.04629E+06,   1.04629E+06
C:/temp/Job-2.odb,Step-1,Increment      1: Step Time =    1.000,"P-2-1",          4286,   39.4003E-03,   30.4545E-03,            0.,NA,NA,"",   1.04265E+06,   1.06212E+06,   1.06212E+06
C:/temp/Job-2.odb,Step-1,Increment      1: Step Time =    1.000,"P-2-1",          4287,   47.6693E-03,   171.403E-03,            0.,NA,NA,"",   1.04592E+06,   1.05522E+06,   1.05522E+06
C:/temp/Job-2.odb,Step-1,Increment      1: Step Time =    1.000,"P-2-1",          4288,   171.248E-03,   151.086E-03,            0.,NA,NA,"",   1.02010E+06,   1.01622E+06,   1.01622E+06
C:/temp/Job-2.odb,Step-1,Increment      1: Step Time =    1.000,"P-2-1",          4289,   28.5246E-03,   48.8671E-03,            0.,NA,NA,"",   965.259E+03,   1.02118E+06,   1.02118E+06
C:/temp/Job-2.odb,Step-1,Increment      1: Step Time =    1.000,"P-2-1",          4290,   151.634E-03,   28.2885E-03,            0.,NA,NA,"",   1.02392E+06,   1.01779E+06,   1.01779E+06
C:/temp/Job-2.odb,Step-1,Increment      1: Step Time =    1.000,"P-2-1",          4291,   115.007E-03,   170.652E-03,            0.,NA,NA,"",   1.00903E+06,   1.01599E+06,   1.01599E+06
C:/temp/Job-2.odb,Step-1,Increment      1: Step Time =    1.000,"P-2-1",          4292,   171.121E-03,   85.6645E-03,            0.,NA,NA,"",   968.746E+03,   978.642E+03,   978.642E+03
C:/temp/Job-2.odb,Step-1,Increment      1: Step Time =    1.000,"P-2-1",          4293,   86.5524E-03,   28.6564E-03,            0.,NA,NA,"",   1.00927E+06,   1.01906E+06,   1.01906E+06
C:/temp/Job-2.odb,Step-1,Increment      1: Step Time =    1.000,"P-2-1",          4294,   29.8768E-03,   113.445E-03,            0.,NA,NA,"",   836.153E+03,   911.149E+03,   911.149E+03
C:/temp/Job-2.odb,Step-1,Increment      1: Step Time =    1.000,"P-2-1",          4295,   62.8296E-03,   80.3995E-03,            0.,NA,NA,"",   987.500E+03,   986.180E+03,   986.180E+03
C:/temp/Job-2.odb,Step-1,Increment      1: Step Time =    1.000,"P-2-1",          4296,   64.1245E-03,   122.566E-03,            0.,NA,NA,"",   1.02929E+06,   1.02057E+06,   1.02057E+06
C:/temp/Job-2.odb,Step-1,Increment      1: Step Time =    1.000,"P-2-1",          4297,   138.578E-03,   114.012E-03,            0.,NA,NA,"",   952.298E+03,   929.974E+03,   929.974E+03
C:/temp/Job-2.odb,Step-1,Increment      1: Step Time =    1.000,"P-2-1",          4298,   139.406E-03,   79.6797E-03,            0.,NA,NA,"",   1.03569E+06,   1.00153E+06,   1.00153E+06
C:/temp/Job-2.odb,Step-1,Increment      1: Step Time =    1.000,"P-2-1",          4299,   81.9678E-03,   138.120E-03,            0.,NA,NA,"",   1.12630E+06,   1.13663E+06,   1.13663E+06
C:/temp/Job-2.odb,Step-1,Increment      1: Step Time =    1.000,"P-2-1",          4300,   116.625E-03,   62.6724E-03,            0.,NA,NA,"",   1.13575E+06,   1.14007E+06,   1.14007E+06
C:/temp/Job-2.odb,Step-1,Increment      1: Step Time =    1.000,"P-2-1",          4301,   88.7184E-03,   60.0426E-03,            0.,NA,NA,"",   1.08188E+06,   1.11752E+06,   1.11752E+06
C:/temp/Job-2.odb,Step-1,Increment      1: Step Time =    1.000,"P-2-1",          4302,   92.7251E-03,   62.6481E-03,            0.,NA,NA,"",   1.07074E+06,   1.12361E+06,   1.12361E+06
C:/temp/Job-2.odb,Step-1,Increment      1: Step Time =    1.000,"P-2-1",          4303,   69.0578E-03,   126.932E-03,            0.,NA,NA,"",   1.11339E+06,   1.08968E+06,   1.08968E+06
C:/temp/Job-2.odb,Step-1,Increment      1: Step Time =    1.000,"P-2-1",          4304,   97.8073E-03,   169.630E-03,            0.,NA,NA,"",   1.00194E+06,   1.01571E+06,   1.01571E+06
C:/temp/Job-2.odb,Step-1,Increment      1: Step Time =    1.000,"P-2-1",          4305,   31.7028E-03,   99.6053E-03,            0.,NA,NA,"",   817.249E+03,   893.088E+03,   893.088E+03
C:/temp/Job-2.odb,Step-1,Increment      1: Step Time =    1.000,"P-2-1",          4306,   144.305E-03,   175.030E-03,            0.,NA,NA,"",   1.01914E+06,   1.01428E+06,   1.01428E+06
C:/temp/Job-2.odb,Step-1,Increment      1: Step Time =    1.000,"P-2-1",          4307,   175.564E-03,   54.3406E-03,            0.,NA,NA,"",   1.01215E+06,   1.01157E+06,   1.01157E+06
C:/temp/Job-2.odb,Step-1,Increment      1: Step Time =    1.000,"P-2-1",          4308,   24.6290E-03,   145.507E-03,            0.,NA,NA,"",   931.114E+03,   998.103E+03,   998.103E+03
C:/temp/Job-2.odb,Step-1,Increment      1: Step Time =    1.000,"P-2-1",          4309,   55.0649E-03,   24.0103E-03,            0.,NA,NA,"",   1.03664E+06,   1.04013E+06,   1.04013E+06
C:/temp/Job-2.odb,Step-1,Increment      1: Step Time =    1.000,"P-2-1",          4310,   27.5447E-03,   32.6737E-03,            0.,NA,NA,"",   1.02055E+06,   1.06246E+06,   1.06246E+06
C:/temp/Job-2.odb,Step-1,Increment      1: Step Time =    1.000,"P-2-1",          4311,   32.8597E-03,   172.745E-03,            0.,NA,NA,"",   1.04443E+06,   1.06975E+06,   1.06975E+06
C:/temp/Job-2.odb,Step-1,Increment      1: Step Time =    1.000,"P-2-1",          4312,   167.149E-03,   27.2724E-03,            0.,NA,NA,"",   1.01342E+06,   1.01011E+06,   1.01011E+06
C:/temp/Job-2.odb,Step-1,Increment      1: Step Time =    1.000,"P-2-1",          4313,   169.999E-03,   165.005E-03,            0.,NA,NA,"",   1.01697E+06,   1.01321E+06,   1.01321E+06
C:/temp/Job-2.odb,Step-1,Increment      1: Step Time =    1.000,"P-2-1",          4314,   33.8356E-03,   31.0582E-03,            0.,NA,NA,"",   1.03662E+06,   1.06493E+06,   1.06493E+06
C:/temp/Job-2.odb,Step-1,Increment      1: Step Time =    1.000,"P-2-1",          4315,   168.902E-03,   35.0490E-03,            0.,NA,NA,"",   1.01809E+06,   1.01398E+06,   1.01398E+06
C:/temp/Job-2.odb,Step-1,Increment      1: Step Time =    1.000,"P-2-1",          4316,   31.2145E-03,   164.932E-03,            0.,NA,NA,"",   1.02107E+06,   1.05837E+06,   1.05837E+06
C:/temp/Job-2.odb,Step-1,Increment      1: Step Time =    1.000,"P-2-1",          4317,   165.020E-03,   168.808E-03,            0.,NA,NA,"",   1.01881E+06,   1.01418E+06,   1.01418E+06
C:/temp/Job-2.odb,Step-1,Increment      1: Step Time =    1.000,"P-2-1",          4318,   142.957E-03,   103.417E-03,            0.,NA,NA,"",   834.876E+03,   845.171E+03,   845.171E+03
C:/temp/Job-2.odb,Step-1,Increment      1: Step Time =    1.000,"P-2-1",          4319,   131.068E-03,   125.566E-03,            0.,NA,NA,"",   1.15077E+06,   1.09547E+06,   1.09547E+06
C:/temp/Job-2.odb,Step-1,Increment      1: Step Time =    1.000,"P-2-1",          4320,   132.513E-03,   120.734E-03,            0.,NA,NA,"",   1.09906E+06,   1.04328E+06,   1.04328E+06
C:/temp/Job-2.odb,Step-1,Increment      1: Step Time =    1.000,"P-2-1",          4321,   121.283E-03,   136.302E-03,            0.,NA,NA,"",   1.15664E+06,   1.14092E+06,   1.14092E+06
C:/temp/Job-2.odb,Step-1,Increment      1: Step Time =    1.000,"P-2-1",          4322,   78.4676E-03,   64.0429E-03,            0.,NA,NA,"",   1.14621E+06,   1.14329E+06,   1.14329E+06
C:/temp/Job-2.odb,Step-1,Increment      1: Step Time =    1.000,"P-2-1",          4323,   132.058E-03,   76.3313E-03,            0.,NA,NA,"",   1.13126E+06,   1.07492E+06,   1.07492E+06
C:/temp/Job-2.odb,Step-1,Increment      1: Step Time =    1.000,"P-2-1",          4324,   56.9872E-03,   97.0904E-03,            0.,NA,NA,"",   764.877E+03,   814.789E+03,   814.789E+03
C:/temp/Job-2.odb,Step-1,Increment      1: Step Time =    1.000,"P-2-1",          4325,   60.9333E-03,   170.684E-03,            0.,NA,NA,"",   1.04234E+06,   1.04585E+06,   1.04585E+06
C:/temp/Job-2.odb,Step-1,Increment      1: Step Time =    1.000,"P-2-1",          4326,   28.6105E-03,   60.7416E-03,            0.,NA,NA,"",   924.297E+03,   987.609E+03,   987.609E+03
C:/temp/Job-2.odb,Step-1,Increment      1: Step Time =    1.000,"P-2-1",          4327,   171.427E-03,   138.916E-03,            0.,NA,NA,"",   1.01413E+06,   1.01217E+06,   1.01217E+06
C:/temp/Job-2.odb,Step-1,Increment      1: Step Time =    1.000,"P-2-1",          4328,   138.019E-03,   28.4587E-03,            0.,NA,NA,"",   1.02637E+06,   1.02124E+06,   1.02124E+06
C:/temp/Job-2.odb,Step-1,Increment      1: Step Time =    1.000,"P-2-1",          4329,   66.5545E-03,   74.5041E-03,            0.,NA,NA,"",   1.07855E+06,   1.06139E+06,   1.06139E+06
C:/temp/Job-2.odb,Step-1,Increment      1: Step Time =    1.000,"P-2-1",          4330,   30.4083E-03,   101.341E-03,            0.,NA,NA,"",   816.771E+03,   893.906E+03,   893.906E+03
C:/temp/Job-2.odb,Step-1,Increment      1: Step Time =    1.000,"P-2-1",          4331,   102.870E-03,   170.690E-03,            0.,NA,NA,"",   1.00009E+06,   1.01243E+06,   1.01243E+06
C:/temp/Job-2.odb,Step-1,Increment      1: Step Time =    1.000,"P-2-1",          4332,   111.979E-03,   139.914E-03,            0.,NA,NA,"",   1.08836E+06,   1.11621E+06,   1.11621E+06
C:/temp/Job-2.odb,Step-1,Increment      1: Step Time =    1.000,"P-2-1",          4333,   30.1921E-03,   131.425E-03,            0.,NA,NA,"",   900.790E+03,   966.004E+03,   966.004E+03
C:/temp/Job-2.odb,Step-1,Increment      1: Step Time =    1.000,"P-2-1",          4334,   67.4284E-03,   30.4690E-03,            0.,NA,NA,"",   1.03933E+06,   1.04277E+06,   1.04277E+06
C:/temp/Job-2.odb,Step-1,Increment      1: Step Time =    1.000,"P-2-1",          4335,   132.391E-03,   169.124E-03,            0.,NA,NA,"",   1.02998E+06,   1.02621E+06,   1.02621E+06
C:/temp/Job-2.odb,Step-1,Increment      1: Step Time =    1.000,"P-2-1",          4336,   170.144E-03,   67.8328E-03,            0.,NA,NA,"",   1.00697E+06,   1.00641E+06,   1.00641E+06
C:/temp/Job-2.odb,Step-1,Increment      1: Step Time =    1.000,"P-2-1",          4337,   29.9401E-03,   71.3303E-03,            0.,NA,NA,"",   889.897E+03,   956.975E+03,   956.975E+03
C:/temp/Job-2.odb,Step-1,Increment      1: Step Time =    1.000,"P-2-1",          4338,   128.272E-03,   31.1789E-03,            0.,NA,NA,"",   1.02831E+06,   1.02645E+06,   1.02645E+06
C:/temp/Job-2.odb,Step-1,Increment      1: Step Time =    1.000,"P-2-1",          4339,   72.2297E-03,   167.406E-03,            0.,NA,NA,"",   1.03915E+06,   1.04412E+06,   1.04412E+06
C:/temp/Job-2.odb,Step-1,Increment      1: Step Time =    1.000,"P-2-1",          4340,   169.545E-03,   126.908E-03,            0.,NA,NA,"",   997.893E+03,   999.215E+03,   999.215E+03
C:/temp/Job-2.odb,Step-1,Increment      1: Step Time =    1.000,"P-2-1",          4341,   132.667E-03,   127.971E-03,            0.,NA,NA,"",   1.14129E+06,   1.09274E+06,   1.09274E+06
C:/temp/Job-2.odb,Step-1,Increment      1: Step Time =    1.000,"P-2-1",          4342,   67.1132E-03,   72.2600E-03,            0.,NA,NA,"",   1.09566E+06,   1.07836E+06,   1.07836E+06
C:/temp/Job-2.odb,Step-1,Increment      1: Step Time =    1.000,"P-2-1",          4343,   134.357E-03,   76.5192E-03,            0.,NA,NA,"",   1.10593E+06,   1.05538E+06,   1.05538E+06
C:/temp/Job-2.odb,Step-1,Increment      1: Step Time =    1.000,"P-2-1",          4344,   168.137E-03,   99.4799E-03,            0.,NA,NA,"",   946.431E+03,   959.519E+03,   959.519E+03
C:/temp/Job-2.odb,Step-1,Increment      1: Step Time =    1.000,"P-2-1",          4345,   99.3813E-03,   32.1293E-03,            0.,NA,NA,"",   1.00443E+06,   1.01969E+06,   1.01969E+06
C:/temp/Job-2.odb,Step-1,Increment      1: Step Time =    1.000,"P-2-1",          4346,   136.206E-03,   28.2586E-03,            0.,NA,NA,"",   1.02528E+06,   1.02067E+06,   1.02067E+06
C:/temp/Job-2.odb,Step-1,Increment      1: Step Time =    1.000,"P-2-1",          4347,   28.6466E-03,   63.0304E-03,            0.,NA,NA,"",   916.049E+03,   980.606E+03,   980.606E+03
C:/temp/Job-2.odb,Step-1,Increment      1: Step Time =    1.000,"P-2-1",          4348,   171.572E-03,   136.506E-03,            0.,NA,NA,"",   1.01132E+06,   1.01018E+06,   1.01018E+06
C:/temp/Job-2.odb,Step-1,Increment      1: Step Time =    1.000,"P-2-1",          4349,   63.2902E-03,   171.751E-03,            0.,NA,NA,"",   1.03809E+06,   1.04098E+06,   1.04098E+06
C:/temp/Job-2.odb,Step-1,Increment      1: Step Time =    1.000,"P-2-1",          4350,   77.0432E-03,   27.7837E-03,            0.,NA,NA,"",   1.02091E+06,   1.02649E+06,   1.02649E+06
C:/temp/Job-2.odb,Step-1,Increment      1: Step Time =    1.000,"P-2-1",          4351,   27.1999E-03,   123.303E-03,            0.,NA,NA,"",   861.305E+03,   935.617E+03,   935.617E+03
C:/temp/Job-2.odb,Step-1,Increment      1: Step Time =    1.000,"P-2-1",          4352,   171.130E-03,   77.8177E-03,            0.,NA,NA,"",   986.118E+03,   991.432E+03,   991.432E+03
C:/temp/Job-2.odb,Step-1,Increment      1: Step Time =    1.000,"P-2-1",          4353,   122.888E-03,   170.446E-03,            0.,NA,NA,"",   1.01833E+06,   1.02018E+06,   1.02018E+06
C:/temp/Job-2.odb,Step-1,Increment      1: Step Time =    1.000,"P-2-1",          4354,   60.2614E-03,   90.3947E-03,            0.,NA,NA,"",   820.151E+03,   852.246E+03,   852.246E+03
C:/temp/Job-2.odb,Step-1,Increment      1: Step Time =    1.000,"P-2-1",          4355,   141.524E-03,   101.561E-03,            0.,NA,NA,"",   813.261E+03,   825.748E+03,   825.748E+03
C:/temp/Job-2.odb,Step-1,Increment      1: Step Time =    1.000,"P-2-1",          4356,   168.547E-03,   93.4878E-03,            0.,NA,NA,"",   951.630E+03,   963.731E+03,   963.731E+03
C:/temp/Job-2.odb,Step-1,Increment      1: Step Time =    1.000,"P-2-1",          4357,   95.1393E-03,   30.6870E-03,            0.,NA,NA,"",   1.00404E+06,   1.01793E+06,   1.01793E+06
C:/temp/Job-2.odb,Step-1,Increment      1: Step Time =    1.000,"P-2-1",          4358,   144.519E-03,   95.9257E-03,            0.,NA,NA,"",   847.378E+03,   857.360E+03,   857.360E+03
C:/temp/Job-2.odb,Step-1,Increment      1: Step Time =    1.000,"P-2-1",          4359,   39.3872E-03,   168.865E-03,            0.,NA,NA,"",   1.04194E+06,   1.06208E+06,   1.06208E+06
C:/temp/Job-2.odb,Step-1,Increment      1: Step Time =    1.000,"P-2-1",          4360,   169.626E-03,   160.691E-03,            0.,NA,NA,"",   1.01997E+06,   1.01557E+06,   1.01557E+06
C:/temp/Job-2.odb,Step-1,Increment      1: Step Time =    1.000,"P-2-1",          4361,   30.8376E-03,   39.0902E-03,            0.,NA,NA,"",   1.00792E+06,   1.04999E+06,   1.04999E+06
C:/temp/Job-2.odb,Step-1,Increment      1: Step Time =    1.000,"P-2-1",          4362,   160.520E-03,   31.3868E-03,            0.,NA,NA,"",   1.02274E+06,   1.01699E+06,   1.01699E+06
C:/temp/Job-2.odb,Step-1,Increment      1: Step Time =    1.000,"P-2-1",          4363,   92.2987E-03,   142.423E-03,            0.,NA,NA,"",   1.05332E+06,   1.09678E+06,   1.09678E+06
C:/temp/Job-2.odb,Step-1,Increment      1: Step Time =    1.000,"P-2-1",          4364,   107.782E-03,   56.9879E-03,            0.,NA,NA,"",   1.05187E+06,   1.09156E+06,   1.09156E+06
C:/temp/Job-2.odb,Step-1,Increment      1: Step Time =    1.000,"P-2-1",          4365,   55.4557E-03,   105.165E-03,            0.,NA,NA,"",   785.249E+03,   834.408E+03,   834.408E+03
C:/temp/Job-2.odb,Step-1,Increment      1: Step Time =    1.000,"P-2-1",          4366,   82.4303E-03,   169.981E-03,            0.,NA,NA,"",   1.01838E+06,   1.02706E+06,   1.02706E+06
C:/temp/Job-2.odb,Step-1,Increment      1: Step Time =    1.000,"P-2-1",          4367,   88.2802E-03,   168.683E-03,            0.,NA,NA,"",   1.01225E+06,   1.02438E+06,   1.02438E+06
C:/temp/Job-2.odb,Step-1,Increment      1: Step Time =    1.000,"P-2-1",          4368,   110.533E-03,   31.7028E-03,            0.,NA,NA,"",   1.00902E+06,   1.01991E+06,   1.01991E+06
C:/temp/Job-2.odb,Step-1,Increment      1: Step Time =    1.000,"P-2-1",          4369,   118.047E-03,   31.4594E-03,            0.,NA,NA,"",   1.01755E+06,   1.02308E+06,   1.02308E+06
C:/temp/Job-2.odb,Step-1,Increment      1: Step Time =    1.000,"P-2-1",          4370,   170.717E-03,   118.582E-03,            0.,NA,NA,"",   978.321E+03,   985.388E+03,   985.388E+03
C:/temp/Job-2.odb,Step-1,Increment      1: Step Time =    1.000,"P-2-1",          4371,   169.157E-03,   112.657E-03,            0.,NA,NA,"",   964.309E+03,   973.776E+03,   973.776E+03
C:/temp/Job-2.odb,Step-1,Increment      1: Step Time =    1.000,"P-2-1",          4372,   31.0010E-03,   87.6094E-03,            0.,NA,NA,"",   834.992E+03,   908.969E+03,   908.969E+03
C:/temp/Job-2.odb,Step-1,Increment      1: Step Time =    1.000,"P-2-1",          4373,   29.9474E-03,   82.5769E-03,            0.,NA,NA,"",   848.432E+03,   921.609E+03,   921.609E+03
C:/temp/Job-2.odb,Step-1,Increment      1: Step Time =    1.000,"P-2-1",          4374,   148.017E-03,   171.060E-03,            0.,NA,NA,"",   1.02665E+06,   1.02014E+06,   1.02014E+06
C:/temp/Job-2.odb,Step-1,Increment      1: Step Time =    1.000,"P-2-1",          4375,   153.467E-03,   167.877E-03,            0.,NA,NA,"",   1.02969E+06,   1.02227E+06,   1.02227E+06
C:/temp/Job-2.odb,Step-1,Increment      1: Step Time =    1.000,"P-2-1",          4376,   168.222E-03,   47.1671E-03,            0.,NA,NA,"",   1.02488E+06,   1.01922E+06,   1.01922E+06
C:/temp/Job-2.odb,Step-1,Increment      1: Step Time =    1.000,"P-2-1",          4377,   170.988E-03,   53.6559E-03,            0.,NA,NA,"",   1.01965E+06,   1.01596E+06,   1.01596E+06
C:/temp/Job-2.odb,Step-1,Increment      1: Step Time =    1.000,"P-2-1",          4378,   31.6388E-03,   153.032E-03,            0.,NA,NA,"",   983.594E+03,   1.03145E+06,   1.03145E+06
C:/temp/Job-2.odb,Step-1,Increment      1: Step Time =    1.000,"P-2-1",          4379,   29.3834E-03,   146.409E-03,            0.,NA,NA,"",   952.934E+03,   1.01007E+06,   1.01007E+06
C:/temp/Job-2.odb,Step-1,Increment      1: Step Time =    1.000,"P-2-1",          4380,   54.8366E-03,   30.7070E-03,            0.,NA,NA,"",   1.04680E+06,   1.05253E+06,   1.05253E+06
C:/temp/Job-2.odb,Step-1,Increment      1: Step Time =    1.000,"P-2-1",          4381,   46.9192E-03,   32.4841E-03,            0.,NA,NA,"",   1.04605E+06,   1.05837E+06,   1.05837E+06
C:/temp/Job-2.odb,Step-1,Increment      1: Step Time =    1.000,"P-2-1",          4382,   127.240E-03,   66.0536E-03,            0.,NA,NA,"",   1.16286E+06,   1.12661E+06,   1.12661E+06
C:/temp/Job-2.odb,Step-1,Increment      1: Step Time =    1.000,"P-2-1",          4383,   49.6840E-03,   170.276E-03,            0.,NA,NA,"",   1.04617E+06,   1.05465E+06,   1.05465E+06
C:/temp/Job-2.odb,Step-1,Increment      1: Step Time =    1.000,"P-2-1",          4384,   168.406E-03,   149.205E-03,            0.,NA,NA,"",   1.02485E+06,   1.01924E+06,   1.01924E+06
C:/temp/Job-2.odb,Step-1,Increment      1: Step Time =    1.000,"P-2-1",          4385,   30.7292E-03,   50.9378E-03,            0.,NA,NA,"",   967.334E+03,   1.01999E+06,   1.01999E+06
C:/temp/Job-2.odb,Step-1,Increment      1: Step Time =    1.000,"P-2-1",          4386,   149.604E-03,   30.2031E-03,            0.,NA,NA,"",   1.02853E+06,   1.02151E+06,   1.02151E+06
C:/temp/Job-2.odb,Step-1,Increment      1: Step Time =    1.000,"P-2-1",          4387,   118.417E-03,   168.726E-03,            0.,NA,NA,"",   1.01772E+06,   1.02288E+06,   1.02288E+06
C:/temp/Job-2.odb,Step-1,Increment      1: Step Time =    1.000,"P-2-1",          4388,   30.1853E-03,   115.770E-03,            0.,NA,NA,"",   843.576E+03,   917.193E+03,   917.193E+03
C:/temp/Job-2.odb,Step-1,Increment      1: Step Time =    1.000,"P-2-1",          4389,   61.5998E-03,   78.2891E-03,            0.,NA,NA,"",   1.00073E+06,   1.00142E+06,   1.00142E+06
C:/temp/Job-2.odb,Step-1,Increment      1: Step Time =    1.000,"P-2-1",          4390,   61.4684E-03,   83.1232E-03,            0.,NA,NA,"",   937.135E+03,   946.360E+03,   946.360E+03
C:/temp/Job-2.odb,Step-1,Increment      1: Step Time =    1.000,"P-2-1",          4391,   61.2714E-03,   121.240E-03,            0.,NA,NA,"",   989.025E+03,   991.915E+03,   991.915E+03
C:/temp/Job-2.odb,Step-1,Increment      1: Step Time =    1.000,"P-2-1",          4392,   139.227E-03,   111.829E-03,            0.,NA,NA,"",   915.807E+03,   901.883E+03,   901.883E+03
C:/temp/Job-2.odb,Step-1,Increment      1: Step Time =    1.000,"P-2-1",          4393,   93.8720E-03,   60.5492E-03,            0.,NA,NA,"",   1.05541E+06,   1.10815E+06,   1.10815E+06
C:/temp/Job-2.odb,Step-1,Increment      1: Step Time =    1.000,"P-2-1",          4394,   95.5009E-03,   170.608E-03,            0.,NA,NA,"",   1.00168E+06,   1.01450E+06,   1.01450E+06
C:/temp/Job-2.odb,Step-1,Increment      1: Step Time =    1.000,"P-2-1",          4395,   31.3434E-03,   96.3143E-03,            0.,NA,NA,"",   818.723E+03,   894.727E+03,   894.727E+03
C:/temp/Job-2.odb,Step-1,Increment      1: Step Time =    1.000,"P-2-1",          4396,   142.079E-03,   170.770E-03,            0.,NA,NA,"",   1.02841E+06,   1.02221E+06,   1.02221E+06
C:/temp/Job-2.odb,Step-1,Increment      1: Step Time =    1.000,"P-2-1",          4397,   172.640E-03,   56.7176E-03,            0.,NA,NA,"",   1.01543E+06,   1.01337E+06,   1.01337E+06
C:/temp/Job-2.odb,Step-1,Increment      1: Step Time =    1.000,"P-2-1",          4398,   27.7961E-03,   143.167E-03,            0.,NA,NA,"",   934.970E+03,   997.383E+03,   997.383E+03
C:/temp/Job-2.odb,Step-1,Increment      1: Step Time =    1.000,"P-2-1",          4399,   56.4781E-03,   26.1835E-03,            0.,NA,NA,"",   1.03924E+06,   1.04296E+06,   1.04296E+06
C:/temp/Job-2.odb,Step-1,Increment      1: Step Time =    1.000,"P-2-1",          4400,   67.2546E-03,   32.7043E-03,            0.,NA,NA,"",   1.04431E+06,   1.04811E+06,   1.04811E+06
C:/temp/Job-2.odb,Step-1,Increment      1: Step Time =    1.000,"P-2-1",          4401,   32.6270E-03,   132.685E-03,            0.,NA,NA,"",   914.396E+03,   974.570E+03,   974.570E+03
C:/temp/Job-2.odb,Step-1,Increment      1: Step Time =    1.000,"P-2-1",          4402,   167.331E-03,   67.7655E-03,            0.,NA,NA,"",   1.01121E+06,   1.00817E+06,   1.00817E+06
C:/temp/Job-2.odb,Step-1,Increment      1: Step Time =    1.000,"P-2-1",          4403,   131.654E-03,   167.028E-03,            0.,NA,NA,"",   1.03507E+06,   1.03104E+06,   1.03104E+06
C:/temp/Job-2.odb,Step-1,Increment      1: Step Time =    1.000,"P-2-1",          4404,   128.770E-03,   33.6437E-03,            0.,NA,NA,"",   1.03525E+06,   1.03256E+06,   1.03256E+06
C:/temp/Job-2.odb,Step-1,Increment      1: Step Time =    1.000,"P-2-1",          4405,   33.0493E-03,   73.1165E-03,            0.,NA,NA,"",   892.984E+03,   956.068E+03,   956.068E+03
C:/temp/Job-2.odb,Step-1,Increment      1: Step Time =    1.000,"P-2-1",          4406,   167.309E-03,   126.857E-03,            0.,NA,NA,"",   1.00037E+06,   999.729E+03,   999.729E+03
C:/temp/Job-2.odb,Step-1,Increment      1: Step Time =    1.000,"P-2-1",          4407,   71.6553E-03,   165.046E-03,            0.,NA,NA,"",   1.04523E+06,   1.05038E+06,   1.05038E+06
C:/temp/Job-2.odb,Step-1,Increment      1: Step Time =    1.000,"P-2-1",          4408,   144.277E-03,   106.707E-03,            0.,NA,NA,"",   867.687E+03,   873.114E+03,   873.114E+03
C:/temp/Job-2.odb,Step-1,Increment      1: Step Time =    1.000,"P-2-1",          4409,   121.862E-03,   134.093E-03,            0.,NA,NA,"",   1.17388E+06,   1.15018E+06,   1.15018E+06
C:/temp/Job-2.odb,Step-1,Increment      1: Step Time =    1.000,"P-2-1",          4410,   77.6623E-03,   66.3085E-03,            0.,NA,NA,"",   1.16028E+06,   1.15027E+06,   1.15027E+06
C:/temp/Job-2.odb,Step-1,Increment      1: Step Time =    1.000,"P-2-1",          4411,   132.831E-03,   73.6254E-03,            0.,NA,NA,"",   1.13663E+06,   1.08534E+06,   1.08534E+06
C:/temp/Job-2.odb,Step-1,Increment      1: Step Time =    1.000,"P-2-1",          4412,   54.6386E-03,   94.9753E-03,            0.,NA,NA,"",   788.846E+03,   839.195E+03,   839.195E+03
C:/temp/Job-2.odb,Step-1,Increment      1: Step Time =    1.000,"P-2-1",          4413,   59.0494E-03,   171.445E-03,            0.,NA,NA,"",   1.04191E+06,   1.04546E+06,   1.04546E+06
C:/temp/Job-2.odb,Step-1,Increment      1: Step Time =    1.000,"P-2-1",          4414,   28.4382E-03,   58.3611E-03,            0.,NA,NA,"",   932.165E+03,   994.352E+03,   994.352E+03
C:/temp/Job-2.odb,Step-1,Increment      1: Step Time =    1.000,"P-2-1",          4415,   171.479E-03,   141.296E-03,            0.,NA,NA,"",   1.01606E+06,   1.01357E+06,   1.01357E+06
C:/temp/Job-2.odb,Step-1,Increment      1: Step Time =    1.000,"P-2-1",          4416,   141.493E-03,   29.1389E-03,            0.,NA,NA,"",   1.02855E+06,   1.02239E+06,   1.02239E+06
C:/temp/Job-2.odb,Step-1,Increment      1: Step Time =    1.000,"P-2-1",          4417,   29.3294E-03,   103.152E-03,            0.,NA,NA,"",   817.035E+03,   895.168E+03,   895.168E+03
C:/temp/Job-2.odb,Step-1,Increment      1: Step Time =    1.000,"P-2-1",          4418,   105.209E-03,   170.021E-03,            0.,NA,NA,"",   1.00195E+06,   1.01423E+06,   1.01423E+06
C:/temp/Job-2.odb,Step-1,Increment      1: Step Time =    1.000,"P-2-1",          4419,   110.567E-03,   142.916E-03,            0.,NA,NA,"",   1.06630E+06,   1.09740E+06,   1.09740E+06
C:/temp/Job-2.odb,Step-1,Increment      1: Step Time =    1.000,"P-2-1",          4420,   67.0391E-03,   126.240E-03,            0.,NA,NA,"",   1.09028E+06,   1.07131E+06,   1.07131E+06
C:/temp/Job-2.odb,Step-1,Increment      1: Step Time =    1.000,"P-2-1",          4421,   135.147E-03,   120.961E-03,            0.,NA,NA,"",   1.07516E+06,   1.02797E+06,   1.02797E+06
C:/temp/Job-2.odb,Step-1,Increment      1: Step Time =    1.000,"P-2-1",          4422,   61.7955E-03,   123.363E-03,            0.,NA,NA,"",   1.01547E+06,   1.01410E+06,   1.01410E+06
C:/temp/Job-2.odb,Step-1,Increment      1: Step Time =    1.000,"P-2-1",          4423,   121.572E-03,   60.3082E-03,            0.,NA,NA,"",   1.13268E+06,   1.12233E+06,   1.12233E+06
C:/temp/Job-2.odb,Step-1,Increment      1: Step Time =    1.000,"P-2-1",          4424,   78.1459E-03,   138.850E-03,            0.,NA,NA,"",   1.12764E+06,   1.12869E+06,   1.12869E+06
C:/temp/Job-2.odb,Step-1,Increment      1: Step Time =    1.000,"P-2-1",          4425,   128.873E-03,   72.2043E-03,            0.,NA,NA,"",   1.17119E+06,   1.11832E+06,   1.11832E+06
C:/temp/Job-2.odb,Step-1,Increment      1: Step Time =    1.000,"P-2-1",          4426,   79.2517E-03,   61.6087E-03,            0.,NA,NA,"",   1.12991E+06,   1.13342E+06,   1.13342E+06
C:/temp/Job-2.odb,Step-1,Increment      1: Step Time =    1.000,"P-2-1",          4427,   120.741E-03,   138.616E-03,            0.,NA,NA,"",   1.13935E+06,   1.13012E+06,   1.13012E+06
C:/temp/Job-2.odb,Step-1,Increment      1: Step Time =    1.000,"P-2-1",          4428,   169.224E-03,   29.6672E-03,            0.,NA,NA,"",   1.01389E+06,   1.01065E+06,   1.01065E+06
C:/temp/Job-2.odb,Step-1,Increment      1: Step Time =    1.000,"P-2-1",          4429,   29.7421E-03,   29.5660E-03,            0.,NA,NA,"",   1.03588E+06,   1.06950E+06,   1.06950E+06
C:/temp/Job-2.odb,Step-1,Increment      1: Step Time =    1.000,"P-2-1",          4430,   169.560E-03,   169.485E-03,            0.,NA,NA,"",   1.01426E+06,   1.01098E+06,   1.01098E+06
C:/temp/Job-2.odb,Step-1,Increment      1: Step Time =    1.000,"P-2-1",          4431,   30.8160E-03,   170.329E-03,            0.,NA,NA,"",   1.03664E+06,   1.06837E+06,   1.06837E+06
C:/temp/Job-2.odb,Step-1,Increment      1: Step Time =    1.000,"P-2-1",          4432,   29.6799E-03,   109.207E-03,            0.,NA,NA,"",   825.767E+03,   902.429E+03,   902.429E+03
C:/temp/Job-2.odb,Step-1,Increment      1: Step Time =    1.000,"P-2-1",          4433,   90.7588E-03,   30.3338E-03,            0.,NA,NA,"",   1.00747E+06,   1.01996E+06,   1.01996E+06
C:/temp/Job-2.odb,Step-1,Increment      1: Step Time =    1.000,"P-2-1",          4434,   168.576E-03,   91.1244E-03,            0.,NA,NA,"",   955.586E+03,   966.752E+03,   966.752E+03
C:/temp/Job-2.odb,Step-1,Increment      1: Step Time =    1.000,"P-2-1",          4435,   108.630E-03,   171.659E-03,            0.,NA,NA,"",   1.00149E+06,   1.01136E+06,   1.01136E+06
C:/temp/Job-2.odb,Step-1,Increment      1: Step Time =    1.000,"P-2-1",          4436,   31.6301E-03,   41.3175E-03,            0.,NA,NA,"",   1.00243E+06,   1.04534E+06,   1.04534E+06
C:/temp/Job-2.odb,Step-1,Increment      1: Step Time =    1.000,"P-2-1",          4437,   41.7239E-03,   168.537E-03,            0.,NA,NA,"",   1.04353E+06,   1.06079E+06,   1.06079E+06
C:/temp/Job-2.odb,Step-1,Increment      1: Step Time =    1.000,"P-2-1",          4438,   158.080E-03,   31.6136E-03,            0.,NA,NA,"",   1.02525E+06,   1.01884E+06,   1.01884E+06
C:/temp/Job-2.odb,Step-1,Increment      1: Step Time =    1.000,"P-2-1",          4439,   169.109E-03,   158.585E-03,            0.,NA,NA,"",   1.02165E+06,   1.01684E+06,   1.01684E+06
C:/temp/Job-2.odb,Step-1,Increment      1: Step Time =    1.000,"P-2-1",          4440,   96.1462E-03,   143.676E-03,            0.,NA,NA,"",   1.03722E+06,   1.08466E+06,   1.08466E+06
C:/temp/Job-2.odb,Step-1,Increment      1: Step Time =    1.000,"P-2-1",          4441,   102.772E-03,   56.1065E-03,            0.,NA,NA,"",   1.03362E+06,   1.08117E+06,   1.08117E+06
C:/temp/Job-2.odb,Step-1,Increment      1: Step Time =    1.000,"P-2-1",          4442,   31.8402E-03,   160.494E-03,            0.,NA,NA,"",   1.00800E+06,   1.04898E+06,   1.04898E+06
C:/temp/Job-2.odb,Step-1,Increment      1: Step Time =    1.000,"P-2-1",          4443,   38.5760E-03,   32.3675E-03,            0.,NA,NA,"",   1.03966E+06,   1.06180E+06,   1.06180E+06
C:/temp/Job-2.odb,Step-1,Increment      1: Step Time =    1.000,"P-2-1",          4444,   161.102E-03,   168.060E-03,            0.,NA,NA,"",   1.02292E+06,   1.01714E+06,   1.01714E+06
C:/temp/Job-2.odb,Step-1,Increment      1: Step Time =    1.000,"P-2-1",          4445,   168.265E-03,   39.5062E-03,            0.,NA,NA,"",   1.02186E+06,   1.01688E+06,   1.01688E+06
C:/temp/Job-2.odb,Step-1,Increment      1: Step Time =    1.000,"P-2-1",          4446,   55.8391E-03,   108.964E-03,            0.,NA,NA,"",   817.998E+03,   860.352E+03,   860.352E+03
C:/temp/Job-2.odb,Step-1,Increment      1: Step Time =    1.000,"P-2-1",          4447,   55.2919E-03,   112.952E-03,            0.,NA,NA,"",   861.274E+03,   897.324E+03,   897.324E+03
C:/temp/Job-2.odb,Step-1,Increment      1: Step Time =    1.000,"P-2-1",          4448,   55.9588E-03,   93.0821E-03,            0.,NA,NA,"",   797.261E+03,   843.396E+03,   843.396E+03
C:/temp/Job-2.odb,Step-1,Increment      1: Step Time =    1.000,"P-2-1",          4449,   137.904E-03,   118.831E-03,            0.,NA,NA,"",   1.02737E+06,   991.431E+03,   991.431E+03
C:/temp/Job-2.odb,Step-1,Increment      1: Step Time =    1.000,"P-2-1",          4450,   89.4607E-03,   58.0150E-03,            0.,NA,NA,"",   1.06907E+06,   1.10544E+06,   1.10544E+06
C:/temp/Job-2.odb,Step-1,Increment      1: Step Time =    1.000,"P-2-1",          4451,   59.9758E-03,   85.6780E-03,            0.,NA,NA,"",   888.723E+03,   909.635E+03,   909.635E+03
C:/temp/Job-2.odb,Step-1,Increment      1: Step Time =    1.000,"P-2-1",          4452,   72.1470E-03,   130.905E-03,            0.,NA,NA,"",   1.14495E+06,   1.12395E+06,   1.12395E+06
C:/temp/Job-2.odb,Step-1,Increment      1: Step Time =    1.000,"P-2-1",          4453,   143.495E-03,   108.704E-03,            0.,NA,NA,"",   883.250E+03,   883.971E+03,   883.971E+03
C:/temp/Job-2.odb,Step-1,Increment      1: Step Time =    1.000,"P-2-1",          4454,   22.4429E-03,   142.841E-03,            0.,NA,NA,"",   912.657E+03,   985.446E+03,   985.446E+03
C:/temp/Job-2.odb,Step-1,Increment      1: Step Time =    1.000,"P-2-1",          4455,   177.782E-03,   56.8567E-03,            0.,NA,NA,"",   1.00747E+06,   1.00902E+06,   1.00902E+06
C:/temp/Job-2.odb,Step-1,Increment      1: Step Time =    1.000,"P-2-1",          4456,   141.969E-03,   175.938E-03,            0.,NA,NA,"",   1.01677E+06,   1.01249E+06,   1.01249E+06
C:/temp/Job-2.odb,Step-1,Increment      1: Step Time =    1.000,"P-2-1",          4457,   76.2190E-03,   62.9273E-03,            0.,NA,NA,"",   1.13772E+06,   1.13246E+06,   1.13246E+06
C:/temp/Job-2.odb,Step-1,Increment      1: Step Time =    1.000,"P-2-1",          4458,   122.576E-03,   139.297E-03,            0.,NA,NA,"",   1.13740E+06,   1.12368E+06,   1.12368E+06
C:/temp/Job-2.odb,Step-1,Increment      1: Step Time =    1.000,"P-2-1",          4459,   80.1366E-03,   59.0342E-03,            0.,NA,NA,"",   1.11264E+06,   1.12170E+06,   1.12170E+06
C:/temp/Job-2.odb,Step-1,Increment      1: Step Time =    1.000,"P-2-1",          4460,   121.197E-03,   141.134E-03,            0.,NA,NA,"",   1.12342E+06,   1.11688E+06,   1.11688E+06
C:/temp/Job-2.odb,Step-1,Increment      1: Step Time =    1.000,"P-2-1",          4461,   96.9659E-03,   59.3016E-03,            0.,NA,NA,"",   1.04003E+06,   1.09563E+06,   1.09563E+06
C:/temp/Job-2.odb,Step-1,Increment      1: Step Time =    1.000,"P-2-1",          4462,   41.4960E-03,   31.7346E-03,            0.,NA,NA,"",   1.04281E+06,   1.06050E+06,   1.06050E+06
C:/temp/Job-2.odb,Step-1,Increment      1: Step Time =    1.000,"P-2-1",          4463,   30.8476E-03,   157.961E-03,            0.,NA,NA,"",   997.491E+03,   1.04262E+06,   1.04262E+06
C:/temp/Job-2.odb,Step-1,Increment      1: Step Time =    1.000,"P-2-1",          4464,   169.164E-03,   42.0574E-03,            0.,NA,NA,"",   1.02181E+06,   1.01699E+06,   1.01699E+06
C:/temp/Job-2.odb,Step-1,Increment      1: Step Time =    1.000,"P-2-1",          4465,   158.438E-03,   168.304E-03,            0.,NA,NA,"",   1.02499E+06,   1.01865E+06,   1.01865E+06
C:/temp/Job-2.odb,Step-1,Increment      1: Step Time =    1.000,"P-2-1",          4466,   94.8778E-03,   58.2128E-03,            0.,NA,NA,"",   1.04390E+06,   1.09416E+06,   1.09416E+06
C:/temp/Job-2.odb,Step-1,Increment      1: Step Time =    1.000,"P-2-1",          4467,   40.1011E-03,   34.2487E-03,            0.,NA,NA,"",    1.0383E+06,   1.06005E+06,   1.06005E+06
C:/temp/Job-2.odb,Step-1,Increment      1: Step Time =    1.000,"P-2-1",          4468,   33.7589E-03,   160.585E-03,            0.,NA,NA,"",   1.01426E+06,   1.05125E+06,   1.05125E+06
C:/temp/Job-2.odb,Step-1,Increment      1: Step Time =    1.000,"P-2-1",          4469,   166.413E-03,   39.3866E-03,            0.,NA,NA,"",   1.02415E+06,   1.01841E+06,   1.01841E+06
C:/temp/Job-2.odb,Step-1,Increment      1: Step Time =    1.000,"P-2-1",          4470,   160.006E-03,   165.879E-03,            0.,NA,NA,"",   1.02653E+06,   1.01986E+06,   1.01986E+06
C:/temp/Job-2.odb,Step-1,Increment      1: Step Time =    1.000,"P-2-1",          4471,   57.0248E-03,   90.9835E-03,            0.,NA,NA,"",   815.804E+03,   856.313E+03,   856.313E+03
C:/temp/Job-2.odb,Step-1,Increment      1: Step Time =    1.000,"P-2-1",          4472,   138.988E-03,   31.3988E-03,            0.,NA,NA,"",   1.03353E+06,   1.02707E+06,   1.02707E+06
C:/temp/Job-2.odb,Step-1,Increment      1: Step Time =    1.000,"P-2-1",          4473,   31.1686E-03,   60.7752E-03,            0.,NA,NA,"",   934.525E+03,   992.854E+03,   992.854E+03
C:/temp/Job-2.odb,Step-1,Increment      1: Step Time =    1.000,"P-2-1",          4474,   168.792E-03,   138.664E-03,            0.,NA,NA,"",   1.01847E+06,   1.01442E+06,   1.01442E+06
C:/temp/Job-2.odb,Step-1,Increment      1: Step Time =    1.000,"P-2-1",          4475,   60.2639E-03,   169.049E-03,            0.,NA,NA,"",   1.04541E+06,   1.04926E+06,   1.04926E+06
C:/temp/Job-2.odb,Step-1,Increment      1: Step Time =    1.000,"P-2-1",          4476,   136.648E-03,   78.6290E-03,            0.,NA,NA,"",   1.06401E+06,   1.02156E+06,   1.02156E+06
C:/temp/Job-2.odb,Step-1,Increment      1: Step Time =    1.000,"P-2-1",          4477,   98.2069E-03,   33.9963E-03,            0.,NA,NA,"",   1.00694E+06,   1.02413E+06,   1.02413E+06
C:/temp/Job-2.odb,Step-1,Increment      1: Step Time =    1.000,"P-2-1",          4478,   166.008E-03,   100.613E-03,            0.,NA,NA,"",   941.255E+03,   953.731E+03,   953.731E+03
C:/temp/Job-2.odb,Step-1,Increment      1: Step Time =    1.000,"P-2-1",          4479,   67.9690E-03,   128.882E-03,            0.,NA,NA,"",   1.10849E+06,   1.08990E+06,   1.08990E+06
C:/temp/Job-2.odb,Step-1,Increment      1: Step Time =    1.000,"P-2-1",          4480,   76.3676E-03,   137.035E-03,            0.,NA,NA,"",   1.13714E+06,   1.13196E+06,   1.13196E+06
C:/temp/Job-2.odb,Step-1,Increment      1: Step Time =    1.000,"P-2-1",          4481,   123.268E-03,   63.5087E-03,            0.,NA,NA,"",   1.15686E+06,   1.13505E+06,   1.13505E+06
C:/temp/Job-2.odb,Step-1,Increment      1: Step Time =    1.000,"P-2-1",          4482,   65.0708E-03,   126.498E-03,            0.,NA,NA,"",   1.07182E+06,   1.05867E+06,   1.05867E+06
C:/temp/Job-2.odb,Step-1,Increment      1: Step Time =    1.000,"P-2-1",          4483,   77.0380E-03,   142.522E-03,            0.,NA,NA,"",   1.10932E+06,   1.11293E+06,   1.11293E+06
C:/temp/Job-2.odb,Step-1,Increment      1: Step Time =    1.000,"P-2-1",          4484,   120.514E-03,   58.3034E-03,            0.,NA,NA,"",   1.11890E+06,   1.11430E+06,   1.11430E+06
C:/temp/Job-2.odb,Step-1,Increment      1: Step Time =    1.000,"P-2-1",          4485,   125.202E-03,   65.1467E-03,            0.,NA,NA,"",   1.16487E+06,   1.13399E+06,   1.13399E+06
C:/temp/Job-2.odb,Step-1,Increment      1: Step Time =    1.000,"P-2-1",          4486,   135.134E-03,   125.985E-03,            0.,NA,NA,"",   1.11623E+06,   1.06885E+06,   1.06885E+06
C:/temp/Job-2.odb,Step-1,Increment      1: Step Time =    1.000,"P-2-1",          4487,   109.473E-03,   29.6920E-03,            0.,NA,NA,"",   1.00447E+06,   1.01472E+06,   1.01472E+06
C:/temp/Job-2.odb,Step-1,Increment      1: Step Time =    1.000,"P-2-1",          4488,   30.1447E-03,   89.6764E-03,            0.,NA,NA,"",   828.986E+03,   904.758E+03,   904.758E+03
C:/temp/Job-2.odb,Step-1,Increment      1: Step Time =    1.000,"P-2-1",          4489,   90.4609E-03,   170.435E-03,            0.,NA,NA,"",   1.00648E+06,   1.01838E+06,   1.01838E+06
C:/temp/Job-2.odb,Step-1,Increment      1: Step Time =    1.000,"P-2-1",          4490,   169.961E-03,   109.874E-03,            0.,NA,NA,"",   959.599E+03,    970.91E+03,    970.91E+03
C:/temp/Job-2.odb,Step-1,Increment      1: Step Time =    1.000,"P-2-1",          4491,   64.5775E-03,   73.8844E-03,            0.,NA,NA,"",   1.06260E+06,   1.05199E+06,   1.05199E+06
C:/temp/Job-2.odb,Step-1,Increment      1: Step Time =    1.000,"P-2-1",          4492,   44.8328E-03,   30.9301E-03,            0.,NA,NA,"",   1.04546E+06,   1.05878E+06,   1.05878E+06
C:/temp/Job-2.odb,Step-1,Increment      1: Step Time =    1.000,"P-2-1",          4493,   30.3088E-03,   155.070E-03,            0.,NA,NA,"",   985.375E+03,   1.03432E+06,   1.03432E+06
C:/temp/Job-2.odb,Step-1,Increment      1: Step Time =    1.000,"P-2-1",          4494,   169.624E-03,   44.9945E-03,            0.,NA,NA,"",   1.02221E+06,   1.01742E+06,   1.01742E+06
C:/temp/Job-2.odb,Step-1,Increment      1: Step Time =    1.000,"P-2-1",          4495,   155.390E-03,   169.192E-03,            0.,NA,NA,"",   1.02610E+06,   1.01947E+06,   1.01947E+06
C:/temp/Job-2.odb,Step-1,Increment      1: Step Time =    1.000,"P-2-1",          4496,   63.4822E-03,   82.7194E-03,            0.,NA,NA,"",   959.124E+03,   959.564E+03,   959.564E+03
C:/temp/Job-2.odb,Step-1,Increment      1: Step Time =    1.000,"P-2-1",          4497,   120.587E-03,   31.2557E-03,            0.,NA,NA,"",   1.02063E+06,   1.02418E+06,   1.02418E+06
C:/temp/Job-2.odb,Step-1,Increment      1: Step Time =    1.000,"P-2-1",          4498,   80.6266E-03,   170.120E-03,            0.,NA,NA,"",   1.02091E+06,   1.02871E+06,   1.02871E+06
C:/temp/Job-2.odb,Step-1,Increment      1: Step Time =    1.000,"P-2-1",          4499,   30.4907E-03,   80.2935E-03,            0.,NA,NA,"",   857.528E+03,   928.783E+03,   928.783E+03
C:/temp/Job-2.odb,Step-1,Increment      1: Step Time =    1.000,"P-2-1",          4500,   169.470E-03,   120.979E-03,            0.,NA,NA,"",   984.331E+03,   989.091E+03,   989.091E+03
C:/temp/Job-2.odb,Step-1,Increment      1: Step Time =    1.000,"P-2-1",          4501,   31.0148E-03,   143.758E-03,            0.,NA,NA,"",   950.208E+03,   1.00582E+06,   1.00582E+06
C:/temp/Job-2.odb,Step-1,Increment      1: Step Time =    1.000,"P-2-1",          4502,   56.4700E-03,   29.2712E-03,            0.,NA,NA,"",   1.04445E+06,   1.04912E+06,   1.04912E+06
C:/temp/Job-2.odb,Step-1,Increment      1: Step Time =    1.000,"P-2-1",          4503,   144.715E-03,   171.055E-03,            0.,NA,NA,"",   1.02747E+06,   1.02110E+06,   1.02110E+06
C:/temp/Job-2.odb,Step-1,Increment      1: Step Time =    1.000,"P-2-1",          4504,   169.675E-03,   56.3584E-03,            0.,NA,NA,"",   1.02074E+06,   1.01644E+06,   1.01644E+06
C:/temp/Job-2.odb,Step-1,Increment      1: Step Time =    1.000,"P-2-1",          4505,   111.457E-03,   33.7029E-03,            0.,NA,NA,"",   1.01353E+06,   1.02497E+06,   1.02497E+06
C:/temp/Job-2.odb,Step-1,Increment      1: Step Time =    1.000,"P-2-1",          4506,   35.8073E-03,   86.6740E-03,            0.,NA,NA,"",   845.317E+03,   912.597E+03,   912.597E+03
C:/temp/Job-2.odb,Step-1,Increment      1: Step Time =    1.000,"P-2-1",          4507,   88.5020E-03,   166.467E-03,            0.,NA,NA,"",   1.01602E+06,   1.02993E+06,   1.02993E+06
C:/temp/Job-2.odb,Step-1,Increment      1: Step Time =    1.000,"P-2-1",          4508,   167.174E-03,   113.186E-03,            0.,NA,NA,"",   963.384E+03,   971.535E+03,   971.535E+03
C:/temp/Job-2.odb,Step-1,Increment      1: Step Time =    1.000,"P-2-1",          4509,   45.6994E-03,   34.1854E-03,            0.,NA,NA,"",   1.04462E+06,   1.05915E+06,   1.05915E+06
C:/temp/Job-2.odb,Step-1,Increment      1: Step Time =    1.000,"P-2-1",          4510,   33.4685E-03,   154.292E-03,            0.,NA,NA,"",   994.439E+03,   1.03747E+06,   1.03747E+06
C:/temp/Job-2.odb,Step-1,Increment      1: Step Time =    1.000,"P-2-1",          4511,   166.329E-03,   45.9076E-03,            0.,NA,NA,"",   1.02776E+06,   1.02109E+06,   1.02109E+06
C:/temp/Job-2.odb,Step-1,Increment      1: Step Time =    1.000,"P-2-1",          4512,   154.352E-03,   165.785E-03,            0.,NA,NA,"",   1.03232E+06,   1.02425E+06,   1.02425E+06
C:/temp/Job-2.odb,Step-1,Increment      1: Step Time =    1.000,"P-2-1",          4513,   169.549E-03,   101.467E-03,            0.,NA,NA,"",   949.610E+03,   963.137E+03,   963.137E+03
C:/temp/Job-2.odb,Step-1,Increment      1: Step Time =    1.000,"P-2-1",          4514,   100.937E-03,   30.3307E-03,            0.,NA,NA,"",   1.00159E+06,   1.01505E+06,   1.01505E+06
C:/temp/Job-2.odb,Step-1,Increment      1: Step Time =    1.000,"P-2-1",          4515,   132.277E-03,   130.268E-03,            0.,NA,NA,"",   1.14578E+06,   1.10048E+06,   1.10048E+06
C:/temp/Job-2.odb,Step-1,Increment      1: Step Time =    1.000,"P-2-1",          4516,   169.926E-03,   92.2483E-03,            0.,NA,NA,"",   955.830E+03,   968.002E+03,   968.002E+03
C:/temp/Job-2.odb,Step-1,Increment      1: Step Time =    1.000,"P-2-1",          4517,   93.2726E-03,   28.3865E-03,            0.,NA,NA,"",   1.00152E+06,   1.01320E+06,   1.01320E+06
C:/temp/Job-2.odb,Step-1,Increment      1: Step Time =    1.000,"P-2-1",          4518,   143.202E-03,   93.7893E-03,            0.,NA,NA,"",   853.825E+03,   860.188E+03,   860.188E+03
C:/temp/Job-2.odb,Step-1,Increment      1: Step Time =    1.000,"P-2-1",          4519,   88.5655E-03,   144.759E-03,            0.,NA,NA,"",   1.06254E+06,   1.09426E+06,   1.09426E+06
C:/temp/Job-2.odb,Step-1,Increment      1: Step Time =    1.000,"P-2-1",          4520,   110.499E-03,   56.5961E-03,            0.,NA,NA,"",   1.06463E+06,   1.09564E+06,   1.09564E+06
C:/temp/Job-2.odb,Step-1,Increment      1: Step Time =    1.000,"P-2-1",          4521,   59.7240E-03,   78.6957E-03,            0.,NA,NA,"",   980.862E+03,   988.374E+03,   988.374E+03
C:/temp/Job-2.odb,Step-1,Increment      1: Step Time =    1.000,"P-2-1",          4522,   138.040E-03,   108.682E-03,            0.,NA,NA,"",   859.640E+03,   854.616E+03,   854.616E+03
C:/temp/Job-2.odb,Step-1,Increment      1: Step Time =    1.000,"P-2-1",          4523,   131.755E-03,   70.5202E-03,            0.,NA,NA,"",   1.14942E+06,   1.10211E+06,   1.10211E+06
C:/temp/Job-2.odb,Step-1,Increment      1: Step Time =    1.000,"P-2-1",          4524,   93.2670E-03,   171.718E-03,            0.,NA,NA,"",   1.00137E+06,   1.01305E+06,   1.01305E+06
C:/temp/Job-2.odb,Step-1,Increment      1: Step Time =    1.000,"P-2-1",          4525,   29.3355E-03,   94.8359E-03,            0.,NA,NA,"",   818.749E+03,   896.650E+03,   896.650E+03
C:/temp/Job-2.odb,Step-1,Increment      1: Step Time =    1.000,"P-2-1",          4526,   56.8701E-03,   172.525E-03,            0.,NA,NA,"",   1.04109E+06,   1.04492E+06,   1.04492E+06
C:/temp/Job-2.odb,Step-1,Increment      1: Step Time =    1.000,"P-2-1",          4527,   28.0563E-03,   55.9374E-03,            0.,NA,NA,"",   939.453E+03,   1.00074E+06,   1.00074E+06
C:/temp/Job-2.odb,Step-1,Increment      1: Step Time =    1.000,"P-2-1",          4528,   171.795E-03,   143.704E-03,            0.,NA,NA,"",   1.01719E+06,   1.01441E+06,   1.01441E+06
C:/temp/Job-2.odb,Step-1,Increment      1: Step Time =    1.000,"P-2-1",          4529,   144.923E-03,   26.9109E-03,            0.,NA,NA,"",   1.02309E+06,   1.01745E+06,   1.01745E+06
C:/temp/Job-2.odb,Step-1,Increment      1: Step Time =    1.000,"P-2-1",          4530,   68.8191E-03,   67.9943E-03,            0.,NA,NA,"",   1.12000E+06,   1.10402E+06,   1.10402E+06
C:/temp/Job-2.odb,Step-1,Increment      1: Step Time =    1.000,"P-2-1",          4531,   68.6850E-03,   131.869E-03,            0.,NA,NA,"",   1.11880E+06,   1.10287E+06,   1.10287E+06
C:/temp/Job-2.odb,Step-1,Increment      1: Step Time =    1.000,"P-2-1",          4532,   72.7348E-03,   134.086E-03,            0.,NA,NA,"",   1.13873E+06,   1.12470E+06,   1.12470E+06
C:/temp/Job-2.odb,Step-1,Increment      1: Step Time =    1.000,"P-2-1",          4533,   28.5179E-03,   104.999E-03,            0.,NA,NA,"",   818.043E+03,   896.847E+03,   896.847E+03
C:/temp/Job-2.odb,Step-1,Increment      1: Step Time =    1.000,"P-2-1",          4534,   32.0283E-03,   111.141E-03,            0.,NA,NA,"",   832.964E+03,   906.221E+03,   906.221E+03
C:/temp/Job-2.odb,Step-1,Increment      1: Step Time =    1.000,"P-2-1",          4535,   87.7064E-03,   31.9695E-03,            0.,NA,NA,"",   1.01407E+06,   1.02657E+06,   1.02657E+06
C:/temp/Job-2.odb,Step-1,Increment      1: Step Time =    1.000,"P-2-1",          4536,   168.901E-03,   89.5622E-03,            0.,NA,NA,"",   958.755E+03,   969.446E+03,   969.446E+03
C:/temp/Job-2.odb,Step-1,Increment      1: Step Time =    1.000,"P-2-1",          4537,   112.629E-03,   169.583E-03,            0.,NA,NA,"",   1.00862E+06,   1.01766E+06,   1.01766E+06
C:/temp/Job-2.odb,Step-1,Increment      1: Step Time =    1.000,"P-2-1",          4538,   105.733E-03,   172.155E-03,            0.,NA,NA,"",   998.661E+03,   1.00932E+06,   1.00932E+06
C:/temp/Job-2.odb,Step-1,Increment      1: Step Time =    1.000,"P-2-1",          4539,   30.2646E-03,   46.4060E-03,            0.,NA,NA,"",   980.927E+03,   1.03105E+06,   1.03105E+06
C:/temp/Job-2.odb,Step-1,Increment      1: Step Time =    1.000,"P-2-1",          4540,   46.0622E-03,   169.949E-03,            0.,NA,NA,"",   1.04630E+06,   1.05778E+06,   1.05778E+06
C:/temp/Job-2.odb,Step-1,Increment      1: Step Time =    1.000,"P-2-1",          4541,   153.634E-03,   30.0187E-03,            0.,NA,NA,"",   1.02592E+06,   1.01934E+06,   1.01934E+06
C:/temp/Job-2.odb,Step-1,Increment      1: Step Time =    1.000,"P-2-1",          4542,   169.917E-03,   153.768E-03,            0.,NA,NA,"",   1.02203E+06,   1.01735E+06,   1.01735E+06
C:/temp/Job-2.odb,Step-1,Increment      1: Step Time =    1.000,"P-2-1",          4543,   93.9587E-03,   144.803E-03,            0.,NA,NA,"",   1.04068E+06,   1.08332E+06,   1.08332E+06
C:/temp/Job-2.odb,Step-1,Increment      1: Step Time =    1.000,"P-2-1",          4544,   98.4721E-03,   142.633E-03,            0.,NA,NA,"",   1.03442E+06,   1.08620E+06,   1.08620E+06
C:/temp/Job-2.odb,Step-1,Increment      1: Step Time =    1.000,"P-2-1",          4545,   104.594E-03,   54.5499E-03,            0.,NA,NA,"",    1.0353E+06,   1.07740E+06,   1.07740E+06
C:/temp/Job-2.odb,Step-1,Increment      1: Step Time =    1.000,"P-2-1",          4546,   100.287E-03,   58.1677E-03,            0.,NA,NA,"",   1.03505E+06,   1.08911E+06,   1.08911E+06
C:/temp/Job-2.odb,Step-1,Increment      1: Step Time =    1.000,"P-2-1",          4547,   55.4038E-03,   110.885E-03,            0.,NA,NA,"",   838.822E+03,   878.473E+03,   878.473E+03
C:/temp/Job-2.odb,Step-1,Increment      1: Step Time =    1.000,"P-2-1",          4548,   58.0451E-03,   115.269E-03,            0.,NA,NA,"",   895.379E+03,   919.658E+03,   919.658E+03
C:/temp/Job-2.odb,Step-1,Increment      1: Step Time =    1.000,"P-2-1",          4549,   140.928E-03,   117.041E-03,            0.,NA,NA,"",   988.562E+03,   964.430E+03,   964.430E+03
C:/temp/Job-2.odb,Step-1,Increment      1: Step Time =    1.000,"P-2-1",          4550,   59.3737E-03,   83.5322E-03,            0.,NA,NA,"",   918.146E+03,   935.775E+03,   935.775E+03
C:/temp/Job-2.odb,Step-1,Increment      1: Step Time =    1.000,"P-2-1",          4551,   142.722E-03,   110.724E-03,            0.,NA,NA,"",   905.200E+03,   900.037E+03,   900.037E+03
C:/temp/Job-2.odb,Step-1,Increment      1: Step Time =    1.000,"P-2-1",          4552,   133.953E-03,   70.9870E-03,            0.,NA,NA,"",   1.13278E+06,   1.08699E+06,   1.08699E+06
C:/temp/Job-2.odb,Step-1,Increment      1: Step Time =    1.000,"P-2-1",          4553,   87.1789E-03,   57.0563E-03,            0.,NA,NA,"",   1.07556E+06,   1.10488E+06,   1.10488E+06
C:/temp/Job-2.odb,Step-1,Increment      1: Step Time =    1.000,"P-2-1",          4554,   58.2090E-03,   27.8818E-03,            0.,NA,NA,"",   1.04128E+06,   1.04505E+06,   1.04505E+06
C:/temp/Job-2.odb,Step-1,Increment      1: Step Time =    1.000,"P-2-1",          4555,   170.025E-03,   59.5638E-03,            0.,NA,NA,"",   1.01784E+06,   1.01438E+06,   1.01438E+06
C:/temp/Job-2.odb,Step-1,Increment      1: Step Time =    1.000,"P-2-1",          4556,   30.9520E-03,   140.617E-03,            0.,NA,NA,"",   938.172E+03,   996.093E+03,   996.093E+03
C:/temp/Job-2.odb,Step-1,Increment      1: Step Time =    1.000,"P-2-1",          4557,   140.174E-03,   170.464E-03,            0.,NA,NA,"",   1.02949E+06,   1.02347E+06,   1.02347E+06
C:/temp/Job-2.odb,Step-1,Increment      1: Step Time =    1.000,"P-2-1",          4558,   113.082E-03,   144.680E-03,            0.,NA,NA,"",   1.07153E+06,   1.09359E+06,   1.09359E+06
C:/temp/Job-2.odb,Step-1,Increment      1: Step Time =    1.000,"P-2-1",          4559,   167.200E-03,   94.6705E-03,            0.,NA,NA,"",   947.612E+03,   959.620E+03,   959.620E+03
C:/temp/Job-2.odb,Step-1,Increment      1: Step Time =    1.000,"P-2-1",          4560,   94.6579E-03,   32.9975E-03,            0.,NA,NA,"",   1.00771E+06,   1.02362E+06,   1.02362E+06
C:/temp/Job-2.odb,Step-1,Increment      1: Step Time =    1.000,"P-2-1",          4561,   33.5510E-03,   68.8537E-03,            0.,NA,NA,"",   910.992E+03,   970.663E+03,   970.663E+03
C:/temp/Job-2.odb,Step-1,Increment      1: Step Time =    1.000,"P-2-1",          4562,   69.5468E-03,   165.594E-03,            0.,NA,NA,"",   1.04621E+06,   1.05063E+06,   1.05063E+06
C:/temp/Job-2.odb,Step-1,Increment      1: Step Time =    1.000,"P-2-1",          4563,   131.013E-03,   35.6488E-03,            0.,NA,NA,"",   1.04278E+06,   1.03795E+06,   1.03795E+06
C:/temp/Job-2.odb,Step-1,Increment      1: Step Time =    1.000,"P-2-1",          4564,   165.110E-03,   128.697E-03,            0.,NA,NA,"",   1.00673E+06,   1.00340E+06,   1.00340E+06
C:/temp/Job-2.odb,Step-1,Increment      1: Step Time =    1.000,"P-2-1",          4565,   144.851E-03,   101.552E-03,            0.,NA,NA,"",   843.555E+03,   855.219E+03,   855.219E+03
C:/temp/Job-2.odb,Step-1,Increment      1: Step Time =    1.000,"P-2-1",          4566,   146.770E-03,   94.7320E-03,            0.,NA,NA,"",   870.049E+03,   878.569E+03,   878.569E+03
C:/temp/Job-2.odb,Step-1,Increment      1: Step Time =    1.000,"P-2-1",          4567,   34.3236E-03,   129.733E-03,            0.,NA,NA,"",   908.433E+03,   967.541E+03,   967.541E+03
C:/temp/Job-2.odb,Step-1,Increment      1: Step Time =    1.000,"P-2-1",          4568,   128.945E-03,   165.789E-03,            0.,NA,NA,"",   1.03653E+06,   1.03384E+06,   1.03384E+06
C:/temp/Job-2.odb,Step-1,Increment      1: Step Time =    1.000,"P-2-1",          4569,   70.8667E-03,   34.9097E-03,            0.,NA,NA,"",   1.04619E+06,   1.05117E+06,   1.05117E+06
C:/temp/Job-2.odb,Step-1,Increment      1: Step Time =    1.000,"P-2-1",          4570,   164.971E-03,   69.2241E-03,            0.,NA,NA,"",   1.01219E+06,   1.00759E+06,   1.00759E+06
C:/temp/Job-2.odb,Step-1,Increment      1: Step Time =    1.000,"P-2-1",          4571,   59.1432E-03,   121.991E-03,            0.,NA,NA,"",   979.334E+03,   988.579E+03,   988.579E+03
C:/temp/Job-2.odb,Step-1,Increment      1: Step Time =    1.000,"P-2-1",          4572,   55.0141E-03,   100.733E-03,            0.,NA,NA,"",   772.379E+03,   824.952E+03,   824.952E+03
C:/temp/Job-2.odb,Step-1,Increment      1: Step Time =    1.000,"P-2-1",          4573,   162.530E-03,   32.6736E-03,            0.,NA,NA,"",   1.02248E+06,   1.01688E+06,   1.01688E+06
C:/temp/Job-2.odb,Step-1,Increment      1: Step Time =    1.000,"P-2-1",          4574,   31.7640E-03,   37.3524E-03,            0.,NA,NA,"",   1.01506E+06,   1.05397E+06,   1.05397E+06
C:/temp/Job-2.odb,Step-1,Increment      1: Step Time =    1.000,"P-2-1",          4575,   167.777E-03,   164.857E-03,            0.,NA,NA,"",   1.01937E+06,   1.01486E+06,   1.01486E+06
C:/temp/Job-2.odb,Step-1,Increment      1: Step Time =    1.000,"P-2-1",          4576,   37.4758E-03,   167.634E-03,            0.,NA,NA,"",   1.03772E+06,   1.06187E+06,   1.06187E+06
C:/temp/Job-2.odb,Step-1,Increment      1: Step Time =    1.000,"P-2-1",          4577,   92.6873E-03,   56.9718E-03,            0.,NA,NA,"",   1.04964E+06,   1.09322E+06,   1.09322E+06
C:/temp/Job-2.odb,Step-1,Increment      1: Step Time =    1.000,"P-2-1",          4578,   28.2411E-03,   118.433E-03,            0.,NA,NA,"",   848.018E+03,   923.061E+03,   923.061E+03
C:/temp/Job-2.odb,Step-1,Increment      1: Step Time =    1.000,"P-2-1",          4579,   82.4939E-03,   29.3901E-03,            0.,NA,NA,"",   1.01684E+06,   1.02529E+06,   1.02529E+06
C:/temp/Job-2.odb,Step-1,Increment      1: Step Time =    1.000,"P-2-1",          4580,   170.810E-03,   82.4643E-03,            0.,NA,NA,"",   975.889E+03,   983.668E+03,   983.668E+03
C:/temp/Job-2.odb,Step-1,Increment      1: Step Time =    1.000,"P-2-1",          4581,   145.759E-03,   29.5359E-03,            0.,NA,NA,"",   1.02867E+06,   1.02192E+06,   1.02192E+06
C:/temp/Job-2.odb,Step-1,Increment      1: Step Time =    1.000,"P-2-1",          4582,   169.916E-03,   146.387E-03,            0.,NA,NA,"",   1.02171E+06,   1.01722E+06,   1.01722E+06
C:/temp/Job-2.odb,Step-1,Increment      1: Step Time =    1.000,"P-2-1",          4583,   29.8679E-03,   52.9886E-03,            0.,NA,NA,"",   957.519E+03,   1.01307E+06,   1.01307E+06
C:/temp/Job-2.odb,Step-1,Increment      1: Step Time =    1.000,"P-2-1",          4584,   54.1269E-03,   170.490E-03,            0.,NA,NA,"",   1.04540E+06,   1.05106E+06,   1.05106E+06
C:/temp/Job-2.odb,Step-1,Increment      1: Step Time =    1.000,"P-2-1",          4585,   108.572E-03,   143.594E-03,            0.,NA,NA,"",   1.05412E+06,   1.09052E+06,   1.09052E+06
C:/temp/Job-2.odb,Step-1,Increment      1: Step Time =    1.000,"P-2-1",          4586,   127.594E-03,   128.781E-03,            0.,NA,NA,"",   1.18131E+06,   1.13090E+06,   1.13090E+06
C:/temp/Job-2.odb,Step-1,Increment      1: Step Time =    1.000,"P-2-1",          4587,   70.9957E-03,   72.6229E-03,            0.,NA,NA,"",   1.13485E+06,   1.10793E+06,   1.10793E+06
C:/temp/Job-2.odb,Step-1,Increment      1: Step Time =    1.000,"P-2-1",          4588,   73.6440E-03,   164.552E-03,            0.,NA,NA,"",   1.04387E+06,   1.04994E+06,   1.04994E+06
C:/temp/Job-2.odb,Step-1,Increment      1: Step Time =    1.000,"P-2-1",          4589,   34.6422E-03,   76.3960E-03,            0.,NA,NA,"",   883.985E+03,   946.595E+03,   946.595E+03
C:/temp/Job-2.odb,Step-1,Increment      1: Step Time =    1.000,"P-2-1",          4590,   166.977E-03,   124.766E-03,            0.,NA,NA,"",   995.287E+03,   995.668E+03,   995.668E+03
C:/temp/Job-2.odb,Step-1,Increment      1: Step Time =    1.000,"P-2-1",          4591,   124.918E-03,   35.2651E-03,            0.,NA,NA,"",   1.03602E+06,   1.03593E+06,   1.03593E+06
C:/temp/Job-2.odb,Step-1,Increment      1: Step Time =    1.000,"P-2-1",          4592,   133.467E-03,   166.338E-03,            0.,NA,NA,"",   1.03794E+06,   1.03273E+06,   1.03273E+06
C:/temp/Job-2.odb,Step-1,Increment      1: Step Time =    1.000,"P-2-1",          4593,   33.4009E-03,   135.228E-03,            0.,NA,NA,"",   927.506E+03,   984.491E+03,   984.491E+03
C:/temp/Job-2.odb,Step-1,Increment      1: Step Time =    1.000,"P-2-1",          4594,   164.921E-03,   65.6040E-03,            0.,NA,NA,"",   1.01928E+06,   1.01323E+06,   1.01323E+06
C:/temp/Job-2.odb,Step-1,Increment      1: Step Time =    1.000,"P-2-1",          4595,   65.0623E-03,   34.7559E-03,            0.,NA,NA,"",   1.05020E+06,   1.05415E+06,   1.05415E+06
C:/temp/Job-2.odb,Step-1,Increment      1: Step Time =    1.000,"P-2-1",          4596,   135.905E-03,   167.459E-03,            0.,NA,NA,"",   1.03621E+06,   1.03035E+06,   1.03035E+06
C:/temp/Job-2.odb,Step-1,Increment      1: Step Time =    1.000,"P-2-1",          4597,   167.530E-03,   62.0384E-03,            0.,NA,NA,"",   1.01966E+06,   1.01486E+06,   1.01486E+06
C:/temp/Job-2.odb,Step-1,Increment      1: Step Time =    1.000,"P-2-1",          4598,   33.5877E-03,   137.694E-03,            0.,NA,NA,"",   937.818E+03,   992.698E+03,   992.698E+03
C:/temp/Job-2.odb,Step-1,Increment      1: Step Time =    1.000,"P-2-1",          4599,   63.0472E-03,   33.3027E-03,            0.,NA,NA,"",   1.04833E+06,   1.05227E+06,   1.05227E+06
C:/temp/Job-2.odb,Step-1,Increment      1: Step Time =    1.000,"P-2-1",          4600,   77.9885E-03,   165.635E-03,            0.,NA,NA,"",   1.03479E+06,   1.04267E+06,   1.04267E+06
C:/temp/Job-2.odb,Step-1,Increment      1: Step Time =    1.000,"P-2-1",          4601,   167.064E-03,   122.437E-03,            0.,NA,NA,"",   988.982E+03,   990.893E+03,   990.893E+03
C:/temp/Job-2.odb,Step-1,Increment      1: Step Time =    1.000,"P-2-1",          4602,   33.7655E-03,   78.6856E-03,            0.,NA,NA,"",   871.655E+03,   937.168E+03,   937.168E+03
C:/temp/Job-2.odb,Step-1,Increment      1: Step Time =    1.000,"P-2-1",          4603,   122.606E-03,   34.3687E-03,            0.,NA,NA,"",   1.03088E+06,   1.03290E+06,   1.03290E+06
C:/temp/Job-2.odb,Step-1,Increment      1: Step Time =    1.000,"P-2-1",          4604,   33.4706E-03,   101.057E-03,            0.,NA,NA,"",   818.050E+03,   892.020E+03,   892.020E+03
C:/temp/Job-2.odb,Step-1,Increment      1: Step Time =    1.000,"P-2-1",          4605,   99.8898E-03,   166.612E-03,            0.,NA,NA,"",   1.00592E+06,   1.02238E+06,   1.02238E+06
C:/temp/Job-2.odb,Step-1,Increment      1: Step Time =    1.000,"P-2-1",          4606,   168.144E-03,   76.1983E-03,            0.,NA,NA,"",   991.620E+03,   993.602E+03,   993.602E+03
C:/temp/Job-2.odb,Step-1,Increment      1: Step Time =    1.000,"P-2-1",          4607,   77.0356E-03,   31.2921E-03,            0.,NA,NA,"",   1.02899E+06,   1.03565E+06,   1.03565E+06
C:/temp/Job-2.odb,Step-1,Increment      1: Step Time =    1.000,"P-2-1",          4608,   30.0224E-03,   123.378E-03,            0.,NA,NA,"",   869.160E+03,   939.301E+03,   939.301E+03
C:/temp/Job-2.odb,Step-1,Increment      1: Step Time =    1.000,"P-2-1",          4609,   85.9675E-03,   144.481E-03,            0.,NA,NA,"",   1.07510E+06,   1.10039E+06,   1.10039E+06
C:/temp/Job-2.odb,Step-1,Increment      1: Step Time =    1.000,"P-2-1",          4610,   113.315E-03,   56.5645E-03,            0.,NA,NA,"",   1.07982E+06,   1.10126E+06,   1.10126E+06
C:/temp/Job-2.odb,Step-1,Increment      1: Step Time =    1.000,"P-2-1",          4611,   139.419E-03,   84.6575E-03,            0.,NA,NA,"",   972.013E+03,   947.763E+03,   947.763E+03
C:/temp/Job-2.odb,Step-1,Increment      1: Step Time =    1.000,"P-2-1",          4612,   100.714E-03,   60.5144E-03,            0.,NA,NA,"",   1.03947E+06,   1.09929E+06,   1.09929E+06
C:/temp/Job-2.odb,Step-1,Increment      1: Step Time =    1.000,"P-2-1",          4613,   62.1028E-03,   115.884E-03,            0.,NA,NA,"",   923.995E+03,   933.626E+03,   933.626E+03
C:/temp/Job-2.odb,Step-1,Increment      1: Step Time =    1.000,"P-2-1",          4614,   107.513E-03,   169.275E-03,            0.,NA,NA,"",   1.00438E+06,   1.01638E+06,   1.01638E+06
C:/temp/Job-2.odb,Step-1,Increment      1: Step Time =    1.000,"P-2-1",          4615,   30.5885E-03,   105.874E-03,            0.,NA,NA,"",   820.966E+03,   897.432E+03,   897.432E+03
C:/temp/Job-2.odb,Step-1,Increment      1: Step Time =    1.000,"P-2-1",          4616,   138.631E-03,   78.0416E-03,            0.,NA,NA,"",   1.05506E+06,   1.01744E+06,   1.01744E+06
C:/temp/Job-2.odb,Step-1,Increment      1: Step Time =    1.000,"P-2-1",          4617,   92.3989E-03,   169.273E-03,            0.,NA,NA,"",   1.00624E+06,   1.01958E+06,   1.01958E+06
C:/temp/Job-2.odb,Step-1,Increment      1: Step Time =    1.000,"P-2-1",          4618,   30.9362E-03,   92.8846E-03,            0.,NA,NA,"",   823.119E+03,   898.882E+03,   898.882E+03
C:/temp/Job-2.odb,Step-1,Increment      1: Step Time =    1.000,"P-2-1",          4619,   28.7990E-03,   121.246E-03,            0.,NA,NA,"",   858.855E+03,   931.869E+03,   931.869E+03
C:/temp/Job-2.odb,Step-1,Increment      1: Step Time =    1.000,"P-2-1",          4620,   120.581E-03,   169.463E-03,            0.,NA,NA,"",   1.01844E+06,   1.02189E+06,   1.02189E+06
C:/temp/Job-2.odb,Step-1,Increment      1: Step Time =    1.000,"P-2-1",          4621,   79.2776E-03,   29.4870E-03,            0.,NA,NA,"",   1.02183E+06,   1.02893E+06,   1.02893E+06
C:/temp/Job-2.odb,Step-1,Increment      1: Step Time =    1.000,"P-2-1",          4622,   168.983E-03,   78.3995E-03,            0.,NA,NA,"",   985.618E+03,   989.569E+03,   989.569E+03
C:/temp/Job-2.odb,Step-1,Increment      1: Step Time =    1.000,"P-2-1",          4623,   31.4273E-03,   120.817E-03,            0.,NA,NA,"",   863.389E+03,   932.822E+03,   932.822E+03
C:/temp/Job-2.odb,Step-1,Increment      1: Step Time =    1.000,"P-2-1",          4624,   121.636E-03,   167.059E-03,            0.,NA,NA,"",   1.02557E+06,   1.02852E+06,   1.02852E+06
C:/temp/Job-2.odb,Step-1,Increment      1: Step Time =    1.000,"P-2-1",          4625,   79.8110E-03,   31.4902E-03,            0.,NA,NA,"",   1.02519E+06,   1.03318E+06,   1.03318E+06
C:/temp/Job-2.odb,Step-1,Increment      1: Step Time =    1.000,"P-2-1",          4626,   166.040E-03,   76.9081E-03,            0.,NA,NA,"",   991.047E+03,   991.767E+03,   991.767E+03
C:/temp/Job-2.odb,Step-1,Increment      1: Step Time =    1.000,"P-2-1",          4627,   57.9618E-03,   79.3313E-03,            0.,NA,NA,"",   960.761E+03,   975.317E+03,   975.317E+03
C:/temp/Job-2.odb,Step-1,Increment      1: Step Time =    1.000,"P-2-1",          4628,   81.2008E-03,   56.2001E-03,            0.,NA,NA,"",   1.09460E+06,   1.10820E+06,   1.10820E+06
C:/temp/Job-2.odb,Step-1,Increment      1: Step Time =    1.000,"P-2-1",          4629,   119.072E-03,   143.786E-03,            0.,NA,NA,"",   1.10034E+06,   1.10341E+06,   1.10341E+06
C:/temp/Job-2.odb,Step-1,Increment      1: Step Time =    1.000,"P-2-1",          4630,   40.4301E-03,   28.2342E-03,            0.,NA,NA,"",   1.04539E+06,   1.06151E+06,   1.06151E+06
C:/temp/Job-2.odb,Step-1,Increment      1: Step Time =    1.000,"P-2-1",          4631,   27.9787E-03,   159.353E-03,            0.,NA,NA,"",   992.477E+03,   1.04240E+06,   1.04240E+06
C:/temp/Job-2.odb,Step-1,Increment      1: Step Time =    1.000,"P-2-1",          4632,   172.033E-03,   40.6479E-03,            0.,NA,NA,"",   1.01739E+06,   1.01396E+06,   1.01396E+06
C:/temp/Job-2.odb,Step-1,Increment      1: Step Time =    1.000,"P-2-1",          4633,   159.461E-03,   171.816E-03,            0.,NA,NA,"",   1.01957E+06,   1.01448E+06,   1.01448E+06
C:/temp/Job-2.odb,Step-1,Increment      1: Step Time =    1.000,"P-2-1",          4634,   37.5339E-03,   35.2786E-03,            0.,NA,NA,"",   1.03258E+06,   1.05919E+06,   1.05919E+06
C:/temp/Job-2.odb,Step-1,Increment      1: Step Time =    1.000,"P-2-1",          4635,   33.4797E-03,   162.464E-03,            0.,NA,NA,"",   1.01904E+06,   1.05466E+06,   1.05466E+06
C:/temp/Job-2.odb,Step-1,Increment      1: Step Time =    1.000,"P-2-1",          4636,   166.745E-03,   37.5255E-03,            0.,NA,NA,"",   1.02235E+06,   1.01707E+06,   1.01707E+06
C:/temp/Job-2.odb,Step-1,Increment      1: Step Time =    1.000,"P-2-1",          4637,   162.819E-03,   165.878E-03,            0.,NA,NA,"",   1.02376E+06,   1.01787E+06,   1.01787E+06
C:/temp/Job-2.odb,Step-1,Increment      1: Step Time =    1.000,"P-2-1",          4638,   136.769E-03,   107.469E-03,            0.,NA,NA,"",   834.714E+03,   831.660E+03,   831.660E+03
C:/temp/Job-2.odb,Step-1,Increment      1: Step Time =    1.000,"P-2-1",          4639,   96.0979E-03,   35.3955E-03,            0.,NA,NA,"",   1.00940E+06,   1.02824E+06,   1.02824E+06
C:/temp/Job-2.odb,Step-1,Increment      1: Step Time =    1.000,"P-2-1",          4640,   164.617E-03,   98.1443E-03,            0.,NA,NA,"",   938.084E+03,   950.081E+03,   950.081E+03
C:/temp/Job-2.odb,Step-1,Increment      1: Step Time =    1.000,"P-2-1",          4641,   80.3846E-03,   144.421E-03,            0.,NA,NA,"",   1.09436E+06,   1.10596E+06,   1.10596E+06
C:/temp/Job-2.odb,Step-1,Increment      1: Step Time =    1.000,"P-2-1",          4642,   119.191E-03,   55.5640E-03,            0.,NA,NA,"",   1.09966E+06,   1.10199E+06,   1.10199E+06
C:/temp/Job-2.odb,Step-1,Increment      1: Step Time =    1.000,"P-2-1",          4643,   114.078E-03,   35.1856E-03,            0.,NA,NA,"",   1.01975E+06,   1.03007E+06,   1.03007E+06
C:/temp/Job-2.odb,Step-1,Increment      1: Step Time =    1.000,"P-2-1",          4644,   86.3309E-03,   166.420E-03,            0.,NA,NA,"",   1.01950E+06,   1.03191E+06,   1.03191E+06
C:/temp/Job-2.odb,Step-1,Increment      1: Step Time =    1.000,"P-2-1",          4645,   165.073E-03,   115.132E-03,            0.,NA,NA,"",   966.741E+03,   972.434E+03,   972.434E+03
C:/temp/Job-2.odb,Step-1,Increment      1: Step Time =    1.000,"P-2-1",          4646,   50.8710E-03,   35.7263E-03,            0.,NA,NA,"",   1.04883E+06,   1.05911E+06,   1.05911E+06
C:/temp/Job-2.odb,Step-1,Increment      1: Step Time =    1.000,"P-2-1",          4647,   34.5218E-03,   152.438E-03,            0.,NA,NA,"",   992.496E+03,   1.03495E+06,   1.03495E+06
C:/temp/Job-2.odb,Step-1,Increment      1: Step Time =    1.000,"P-2-1",          4648,   165.049E-03,   48.0655E-03,            0.,NA,NA,"",   1.03061E+06,   1.02298E+06,   1.02298E+06
C:/temp/Job-2.odb,Step-1,Increment      1: Step Time =    1.000,"P-2-1",          4649,   149.806E-03,   165.826E-03,            0.,NA,NA,"",   1.03583E+06,   1.02720E+06,   1.02720E+06
C:/temp/Job-2.odb,Step-1,Increment      1: Step Time =    1.000,"P-2-1",          4650,   129.509E-03,   131.907E-03,            0.,NA,NA,"",   1.16156E+06,   1.11889E+06,   1.11889E+06
C:/temp/Job-2.odb,Step-1,Increment      1: Step Time =    1.000,"P-2-1",          4651,   134.056E-03,   68.5598E-03,            0.,NA,NA,"",   1.13405E+06,   1.09207E+06,   1.09207E+06
C:/temp/Job-2.odb,Step-1,Increment      1: Step Time =    1.000,"P-2-1",          4652,   69.9233E-03,   66.6815E-03,            0.,NA,NA,"",   1.12506E+06,   1.11016E+06,   1.11016E+06
C:/temp/Job-2.odb,Step-1,Increment      1: Step Time =    1.000,"P-2-1",          4653,   73.9586E-03,   61.8936E-03,            0.,NA,NA,"",   1.12856E+06,   1.12224E+06,   1.12224E+06
C:/temp/Job-2.odb,Step-1,Increment      1: Step Time =    1.000,"P-2-1",          4654,   125.485E-03,   138.063E-03,            0.,NA,NA,"",   1.14607E+06,   1.12267E+06,   1.12267E+06
C:/temp/Job-2.odb,Step-1,Increment      1: Step Time =    1.000,"P-2-1",          4655,   100.074E-03,   139.330E-03,            0.,NA,NA,"",   1.03952E+06,   1.09996E+06,   1.09996E+06
C:/temp/Job-2.odb,Step-1,Increment      1: Step Time =    1.000,"P-2-1",          4656,   145.886E-03,   109.506E-03,            0.,NA,NA,"",   901.303E+03,   901.980E+03,   901.980E+03
C:/temp/Job-2.odb,Step-1,Increment      1: Step Time =    1.000,"P-2-1",          4657,   56.3726E-03,   169.845E-03,            0.,NA,NA,"",   1.04568E+06,   1.05044E+06,   1.05044E+06
C:/temp/Job-2.odb,Step-1,Increment      1: Step Time =    1.000,"P-2-1",          4658,   169.199E-03,   143.818E-03,            0.,NA,NA,"",   1.02189E+06,   1.01716E+06,   1.01716E+06
C:/temp/Job-2.odb,Step-1,Increment      1: Step Time =    1.000,"P-2-1",          4659,   30.4642E-03,   55.7172E-03,            0.,NA,NA,"",   949.698E+03,   1.00619E+06,   1.00619E+06
C:/temp/Job-2.odb,Step-1,Increment      1: Step Time =    1.000,"P-2-1",          4660,   143.296E-03,   31.2375E-03,            0.,NA,NA,"",   1.03284E+06,   1.02557E+06,   1.02557E+06
C:/temp/Job-2.odb,Step-1,Increment      1: Step Time =    1.000,"P-2-1",          4661,   52.5077E-03,   101.440E-03,            0.,NA,NA,"",   786.671E+03,   841.293E+03,   841.293E+03
C:/temp/Job-2.odb,Step-1,Increment      1: Step Time =    1.000,"P-2-1",          4662,   98.8958E-03,   60.1586E-03,            0.,NA,NA,"",   1.03891E+06,   1.09785E+06,   1.09785E+06
C:/temp/Job-2.odb,Step-1,Increment      1: Step Time =    1.000,"P-2-1",          4663,   137.495E-03,   71.6315E-03,            0.,NA,NA,"",   1.10754E+06,   1.06600E+06,   1.06600E+06
C:/temp/Job-2.odb,Step-1,Increment      1: Step Time =    1.000,"P-2-1",          4664,   61.1181E-03,   27.9684E-03,            0.,NA,NA,"",   1.03944E+06,   1.04258E+06,   1.04258E+06
C:/temp/Job-2.odb,Step-1,Increment      1: Step Time =    1.000,"P-2-1",          4665,   138.069E-03,   171.519E-03,            0.,NA,NA,"",   1.02638E+06,   1.02132E+06,   1.02132E+06
C:/temp/Job-2.odb,Step-1,Increment      1: Step Time =    1.000,"P-2-1",          4666,   116.633E-03,   141.452E-03,            0.,NA,NA,"",   1.10464E+06,   1.11426E+06,   1.11426E+06
C:/temp/Job-2.odb,Step-1,Increment      1: Step Time =    1.000,"P-2-1",          4667,   54.6591E-03,   89.9512E-03,            0.,NA,NA,"",   830.485E+03,   873.180E+03,   873.180E+03
C:/temp/Job-2.odb,Step-1,Increment      1: Step Time =    1.000,"P-2-1",          4668,   33.8895E-03,   65.3037E-03,            0.,NA,NA,"",   928.038E+03,   984.211E+03,   984.211E+03
C:/temp/Job-2.odb,Step-1,Increment      1: Step Time =    1.000,"P-2-1",          4669,   67.0877E-03,   166.628E-03,            0.,NA,NA,"",   1.04582E+06,   1.04969E+06,   1.04969E+06
C:/temp/Job-2.odb,Step-1,Increment      1: Step Time =    1.000,"P-2-1",          4670,   133.450E-03,   34.2604E-03,            0.,NA,NA,"",   1.03992E+06,   1.03431E+06,   1.03431E+06
C:/temp/Job-2.odb,Step-1,Increment      1: Step Time =    1.000,"P-2-1",          4671,   167.001E-03,   133.326E-03,            0.,NA,NA,"",   1.01393E+06,   1.01007E+06,   1.01007E+06
C:/temp/Job-2.odb,Step-1,Increment      1: Step Time =    1.000,"P-2-1",          4672,   147.987E-03,   96.9619E-03,            0.,NA,NA,"",   868.743E+03,    879.33E+03,    879.33E+03
C:/temp/Job-2.odb,Step-1,Increment      1: Step Time =    1.000,"P-2-1",          4673,   32.7243E-03,   127.792E-03,            0.,NA,NA,"",   894.962E+03,   958.055E+03,   958.055E+03
C:/temp/Job-2.odb,Step-1,Increment      1: Step Time =    1.000,"P-2-1",          4674,   126.681E-03,   166.755E-03,            0.,NA,NA,"",   1.03194E+06,   1.03094E+06,   1.03094E+06
C:/temp/Job-2.odb,Step-1,Increment      1: Step Time =    1.000,"P-2-1",          4675,   72.8083E-03,   33.6327E-03,            0.,NA,NA,"",   1.04033E+06,   1.04565E+06,   1.04565E+06
C:/temp/Job-2.odb,Step-1,Increment      1: Step Time =    1.000,"P-2-1",          4676,   166.175E-03,   71.5469E-03,            0.,NA,NA,"",   1.00519E+06,   1.00281E+06,   1.00281E+06
C:/temp/Job-2.odb,Step-1,Increment      1: Step Time =    1.000,"P-2-1",          4677,   163.856E-03,   30.9962E-03,            0.,NA,NA,"",   1.01959E+06,   1.01471E+06,   1.01471E+06
C:/temp/Job-2.odb,Step-1,Increment      1: Step Time =    1.000,"P-2-1",          4678,   30.3170E-03,   36.3892E-03,            0.,NA,NA,"",   1.01402E+06,   1.05477E+06,   1.05477E+06
C:/temp/Job-2.odb,Step-1,Increment      1: Step Time =    1.000,"P-2-1",          4679,   36.1622E-03,   169.140E-03,            0.,NA,NA,"",   1.03957E+06,   1.06360E+06,   1.06360E+06
C:/temp/Job-2.odb,Step-1,Increment      1: Step Time =    1.000,"P-2-1",          4680,   90.4406E-03,   55.7340E-03,            0.,NA,NA,"",   1.05606E+06,   1.09266E+06,   1.09266E+06
C:/temp/Job-2.odb,Step-1,Increment      1: Step Time =    1.000,"P-2-1",          4681,   73.0547E-03,   137.115E-03,            0.,NA,NA,"",   1.12920E+06,   1.12080E+06,   1.12080E+06
C:/temp/Job-2.odb,Step-1,Increment      1: Step Time =    1.000,"P-2-1",          4682,   62.9146E-03,   118.307E-03,            0.,NA,NA,"",   967.131E+03,   968.480E+03,   968.480E+03
C:/temp/Job-2.odb,Step-1,Increment      1: Step Time =    1.000,"P-2-1",          4683,   143.821E-03,   90.4804E-03,            0.,NA,NA,"",   892.254E+03,   891.455E+03,   891.455E+03
C:/temp/Job-2.odb,Step-1,Increment      1: Step Time =    1.000,"P-2-1",          4684,   111.152E-03,   145.287E-03,            0.,NA,NA,"",   1.06051E+06,   1.08783E+06,   1.08783E+06
C:/temp/Job-2.odb,Step-1,Increment      1: Step Time =    1.000,"P-2-1",          4685,   105.859E-03,   142.020E-03,            0.,NA,NA,"",   1.04647E+06,   1.09257E+06,   1.09257E+06
C:/temp/Job-2.odb,Step-1,Increment      1: Step Time =    1.000,"P-2-1",          4686,   127.253E-03,   131.218E-03,            0.,NA,NA,"",   1.17507E+06,   1.13210E+06,   1.13210E+06
C:/temp/Job-2.odb,Step-1,Increment      1: Step Time =    1.000,"P-2-1",          4687,   71.6410E-03,   67.8679E-03,            0.,NA,NA,"",   1.13854E+06,   1.12041E+06,   1.12041E+06
C:/temp/Job-2.odb,Step-1,Increment      1: Step Time =    1.000,"P-2-1",          4688,   73.2443E-03,   162.274E-03,            0.,NA,NA,"",   1.04995E+06,   1.05609E+06,   1.05609E+06
C:/temp/Job-2.odb,Step-1,Increment      1: Step Time =    1.000,"P-2-1",          4689,   35.5857E-03,   74.1073E-03,            0.,NA,NA,"",   897.018E+03,   956.365E+03,   956.365E+03
C:/temp/Job-2.odb,Step-1,Increment      1: Step Time =    1.000,"P-2-1",          4690,   165.494E-03,   126.998E-03,            0.,NA,NA,"",   1.00239E+06,   1.00027E+06,   1.00027E+06
C:/temp/Job-2.odb,Step-1,Increment      1: Step Time =    1.000,"P-2-1",          4691,   127.377E-03,   36.3497E-03,            0.,NA,NA,"",   1.04197E+06,   1.03962E+06,   1.03962E+06
C:/temp/Job-2.odb,Step-1,Increment      1: Step Time =    1.000,"P-2-1",          4692,   131.070E-03,   164.875E-03,            0.,NA,NA,"",   1.04079E+06,   1.03640E+06,   1.03640E+06
C:/temp/Job-2.odb,Step-1,Increment      1: Step Time =    1.000,"P-2-1",          4693,   35.2968E-03,   132.029E-03,            0.,NA,NA,"",   922.522E+03,   977.940E+03,   977.940E+03
C:/temp/Job-2.odb,Step-1,Increment      1: Step Time =    1.000,"P-2-1",          4694,   163.381E-03,   67.2753E-03,            0.,NA,NA,"",   1.01928E+06,   1.01226E+06,   1.01226E+06
C:/temp/Job-2.odb,Step-1,Increment      1: Step Time =    1.000,"P-2-1",          4695,   67.2107E-03,   37.1863E-03,            0.,NA,NA,"",   1.05405E+06,   1.05840E+06,   1.05840E+06
C:/temp/Job-2.odb,Step-1,Increment      1: Step Time =    1.000,"P-2-1",          4696,   35.0769E-03,   102.622E-03,            0.,NA,NA,"",   819.328E+03,   891.430E+03,   891.430E+03
C:/temp/Job-2.odb,Step-1,Increment      1: Step Time =    1.000,"P-2-1",          4697,   102.130E-03,   166.034E-03,            0.,NA,NA,"",   1.00670E+06,   1.02311E+06,   1.02311E+06
C:/temp/Job-2.odb,Step-1,Increment      1: Step Time =    1.000,"P-2-1",          4698,   33.6319E-03,   60.9165E-03,            0.,NA,NA,"",   944.381E+03,   997.891E+03,   997.891E+03
C:/temp/Job-2.odb,Step-1,Increment      1: Step Time =    1.000,"P-2-1",          4699,   61.4869E-03,   167.247E-03,            0.,NA,NA,"",   1.04799E+06,   1.05193E+06,   1.05193E+06
C:/temp/Job-2.odb,Step-1,Increment      1: Step Time =    1.000,"P-2-1",          4700,   139.864E-03,   34.0806E-03,            0.,NA,NA,"",   1.04029E+06,   1.03233E+06,   1.03233E+06
C:/temp/Job-2.odb,Step-1,Increment      1: Step Time =    1.000,"P-2-1",          4701,   166.154E-03,   138.185E-03,            0.,NA,NA,"",   1.02265E+06,   1.01655E+06,   1.01655E+06
C:/temp/Job-2.odb,Step-1,Increment      1: Step Time =    1.000,"P-2-1",          4702,   66.6310E-03,   130.761E-03,            0.,NA,NA,"",   1.10195E+06,   1.08800E+06,   1.08800E+06
C:/temp/Job-2.odb,Step-1,Increment      1: Step Time =    1.000,"P-2-1",          4703,   115.919E-03,   57.1898E-03,            0.,NA,NA,"",   1.09564E+06,   1.10745E+06,   1.10745E+06
C:/temp/Job-2.odb,Step-1,Increment      1: Step Time =    1.000,"P-2-1",          4704,   141.568E-03,   83.3255E-03,            0.,NA,NA,"",   982.991E+03,   960.817E+03,   960.817E+03
C:/temp/Job-2.odb,Step-1,Increment      1: Step Time =    1.000,"P-2-1",          4705,   58.6154E-03,   120.110E-03,            0.,NA,NA,"",   955.832E+03,   969.394E+03,   969.394E+03
C:/temp/Job-2.odb,Step-1,Increment      1: Step Time =    1.000,"P-2-1",          4706,   55.1247E-03,   115.062E-03,            0.,NA,NA,"",   883.994E+03,   916.446E+03,   916.446E+03
C:/temp/Job-2.odb,Step-1,Increment      1: Step Time =    1.000,"P-2-1",          4707,   101.031E-03,   55.5657E-03,            0.,NA,NA,"",   1.03155E+06,   1.07907E+06,   1.07907E+06
C:/temp/Job-2.odb,Step-1,Increment      1: Step Time =    1.000,"P-2-1",          4708,   99.2581E-03,   145.019E-03,            0.,NA,NA,"",   1.02992E+06,   1.07670E+06,   1.07670E+06
C:/temp/Job-2.odb,Step-1,Increment      1: Step Time =    1.000,"P-2-1",          4709,   107.442E-03,   31.0084E-03,            0.,NA,NA,"",   1.00508E+06,   1.01721E+06,   1.01721E+06
C:/temp/Job-2.odb,Step-1,Increment      1: Step Time =    1.000,"P-2-1",          4710,   170.340E-03,   106.714E-03,            0.,NA,NA,"",   955.398E+03,   968.084E+03,   968.084E+03
C:/temp/Job-2.odb,Step-1,Increment      1: Step Time =    1.000,"P-2-1",          4711,   137.736E-03,   121.325E-03,            0.,NA,NA,"",   1.05759E+06,   1.01773E+06,   1.01773E+06
C:/temp/Job-2.odb,Step-1,Increment      1: Step Time =    1.000,"P-2-1",          4712,   137.475E-03,   126.383E-03,            0.,NA,NA,"",   1.09895E+06,   1.05678E+06,   1.05678E+06
C:/temp/Job-2.odb,Step-1,Increment      1: Step Time =    1.000,"P-2-1",          4713,   145.287E-03,   111.491E-03,            0.,NA,NA,"",   919.636E+03,   915.521E+03,   915.521E+03
C:/temp/Job-2.odb,Step-1,Increment      1: Step Time =    1.000,"P-2-1",          4714,   55.2502E-03,   88.0117E-03,            0.,NA,NA,"",   851.103E+03,   888.993E+03,   888.993E+03
C:/temp/Job-2.odb,Step-1,Increment      1: Step Time =    1.000,"P-2-1",          4715,   52.2823E-03,   89.0672E-03,            0.,NA,NA,"",   840.453E+03,   885.994E+03,   885.994E+03
C:/temp/Job-2.odb,Step-1,Increment      1: Step Time =    1.000,"P-2-1",          4716,   101.503E-03,   143.958E-03,            0.,NA,NA,"",   1.03184E+06,   1.08035E+06,   1.08035E+06
C:/temp/Job-2.odb,Step-1,Increment      1: Step Time =    1.000,"P-2-1",          4717,   99.0075E-03,   54.7781E-03,            0.,NA,NA,"",   1.02983E+06,   1.07625E+06,   1.07625E+06
C:/temp/Job-2.odb,Step-1,Increment      1: Step Time =    1.000,"P-2-1",          4718,   56.7057E-03,   117.478E-03,            0.,NA,NA,"",   917.276E+03,   940.983E+03,   940.983E+03
C:/temp/Job-2.odb,Step-1,Increment      1: Step Time =    1.000,"P-2-1",          4719,   100.070E-03,   147.351E-03,            0.,NA,NA,"",   1.02684E+06,   1.06894E+06,   1.06894E+06
C:/temp/Job-2.odb,Step-1,Increment      1: Step Time =    1.000,"P-2-1",          4720,   99.9278E-03,   52.6755E-03,            0.,NA,NA,"",   1.02718E+06,   1.06913E+06,   1.06913E+06
C:/temp/Job-2.odb,Step-1,Increment      1: Step Time =    1.000,"P-2-1",          4721,   52.6081E-03,   115.073E-03,            0.,NA,NA,"",   878.183E+03,   916.308E+03,   916.308E+03
C:/temp/Job-2.odb,Step-1,Increment      1: Step Time =    1.000,"P-2-1",          4722,   26.6362E-03,   120.639E-03,            0.,NA,NA,"",   851.448E+03,   927.672E+03,   927.672E+03
C:/temp/Job-2.odb,Step-1,Increment      1: Step Time =    1.000,"P-2-1",          4723,   80.7038E-03,   27.3455E-03,            0.,NA,NA,"",   1.01462E+06,   1.02141E+06,   1.02141E+06
C:/temp/Job-2.odb,Step-1,Increment      1: Step Time =    1.000,"P-2-1",          4724,   171.732E-03,   79.8414E-03,            0.,NA,NA,"",   981.323E+03,   988.312E+03,   988.312E+03
C:/temp/Job-2.odb,Step-1,Increment      1: Step Time =    1.000,"P-2-1",          4725,   34.7055E-03,   122.646E-03,            0.,NA,NA,"",   878.977E+03,   942.176E+03,   942.176E+03
C:/temp/Job-2.odb,Step-1,Increment      1: Step Time =    1.000,"P-2-1",          4726,   122.436E-03,   164.803E-03,            0.,NA,NA,"",   1.03221E+06,   1.03456E+06,   1.03456E+06
C:/temp/Job-2.odb,Step-1,Increment      1: Step Time =    1.000,"P-2-1",          4727,   78.4245E-03,   35.6795E-03,            0.,NA,NA,"",   1.03711E+06,   1.04596E+06,   1.04596E+06
C:/temp/Job-2.odb,Step-1,Increment      1: Step Time =    1.000,"P-2-1",          4728,   164.044E-03,   77.6449E-03,            0.,NA,NA,"",   990.128E+03,   989.689E+03,   989.689E+03
C:/temp/Job-2.odb,Step-1,Increment      1: Step Time =    1.000,"P-2-1",          4729,   56.6798E-03,   81.7815E-03,            0.,NA,NA,"",   925.494E+03,   948.002E+03,   948.002E+03
C:/temp/Job-2.odb,Step-1,Increment      1: Step Time =    1.000,"P-2-1",          4730,   67.3320E-03,   133.853E-03,            0.,NA,NA,"",   1.10912E+06,   1.09759E+06,   1.09759E+06
C:/temp/Job-2.odb,Step-1,Increment      1: Step Time =    1.000,"P-2-1",          4731,   78.8804E-03,   53.8374E-03,            0.,NA,NA,"",   1.08968E+06,   1.09986E+06,   1.09986E+06
C:/temp/Job-2.odb,Step-1,Increment      1: Step Time =    1.000,"P-2-1",          4732,   121.206E-03,   143.738E-03,            0.,NA,NA,"",   1.10699E+06,   1.10422E+06,   1.10422E+06
C:/temp/Job-2.odb,Step-1,Increment      1: Step Time =    1.000,"P-2-1",          4733,   40.4380E-03,   36.8486E-03,            0.,NA,NA,"",   1.03482E+06,   1.05824E+06,   1.05824E+06
C:/temp/Job-2.odb,Step-1,Increment      1: Step Time =    1.000,"P-2-1",          4734,   34.3235E-03,   34.3395E-03,            0.,NA,NA,"",   1.02847E+06,   1.05970E+06,   1.05970E+06
C:/temp/Job-2.odb,Step-1,Increment      1: Step Time =    1.000,"P-2-1",          4735,   36.6213E-03,   158.701E-03,            0.,NA,NA,"",   1.01723E+06,   1.05041E+06,   1.05041E+06
C:/temp/Job-2.odb,Step-1,Increment      1: Step Time =    1.000,"P-2-1",          4736,   163.516E-03,   41.2089E-03,            0.,NA,NA,"",   1.02933E+06,   1.02206E+06,   1.02206E+06
C:/temp/Job-2.odb,Step-1,Increment      1: Step Time =    1.000,"P-2-1",          4737,   160.432E-03,   162.812E-03,            0.,NA,NA,"",   1.02981E+06,   1.02233E+06,   1.02233E+06
C:/temp/Job-2.odb,Step-1,Increment      1: Step Time =    1.000,"P-2-1",          4738,   165.182E-03,   166.443E-03,            0.,NA,NA,"",   1.02082E+06,   1.01576E+06,   1.01576E+06
C:/temp/Job-2.odb,Step-1,Increment      1: Step Time =    1.000,"P-2-1",          4739,   99.5606E-03,   34.9700E-03,            0.,NA,NA,"",   1.00810E+06,   1.02582E+06,   1.02582E+06
C:/temp/Job-2.odb,Step-1,Increment      1: Step Time =    1.000,"P-2-1",          4740,   162.583E-03,   99.6476E-03,            0.,NA,NA,"",   931.617E+03,   943.410E+03,   943.410E+03
C:/temp/Job-2.odb,Step-1,Increment      1: Step Time =    1.000,"P-2-1",          4741,   77.5162E-03,   145.083E-03,            0.,NA,NA,"",   1.09748E+06,   1.10411E+06,   1.10411E+06
C:/temp/Job-2.odb,Step-1,Increment      1: Step Time =    1.000,"P-2-1",          4742,   122.441E-03,   54.6108E-03,            0.,NA,NA,"",   1.10313E+06,   1.09795E+06,   1.09795E+06
C:/temp/Job-2.odb,Step-1,Increment      1: Step Time =    1.000,"P-2-1",          4743,   112.136E-03,   35.8649E-03,            0.,NA,NA,"",   1.01806E+06,   1.03041E+06,   1.03041E+06
C:/temp/Job-2.odb,Step-1,Increment      1: Step Time =    1.000,"P-2-1",          4744,   116.164E-03,   34.4955E-03,            0.,NA,NA,"",   1.02180E+06,   1.02985E+06,   1.02985E+06
C:/temp/Job-2.odb,Step-1,Increment      1: Step Time =    1.000,"P-2-1",          4745,   34.6301E-03,   83.8543E-03,            0.,NA,NA,"",   853.426E+03,   920.761E+03,   920.761E+03
C:/temp/Job-2.odb,Step-1,Increment      1: Step Time =    1.000,"P-2-1",          4746,   37.5429E-03,   86.7966E-03,            0.,NA,NA,"",   847.098E+03,   912.165E+03,   912.165E+03
C:/temp/Job-2.odb,Step-1,Increment      1: Step Time =    1.000,"P-2-1",          4747,   84.1356E-03,   167.125E-03,            0.,NA,NA,"",   1.02173E+06,   1.03269E+06,   1.03269E+06
C:/temp/Job-2.odb,Step-1,Increment      1: Step Time =    1.000,"P-2-1",          4748,   89.3723E-03,   164.067E-03,            0.,NA,NA,"",   1.01878E+06,   1.03503E+06,   1.03503E+06
C:/temp/Job-2.odb,Step-1,Increment      1: Step Time =    1.000,"P-2-1",          4749,   165.110E-03,   117.334E-03,            0.,NA,NA,"",   973.694E+03,   977.764E+03,   977.764E+03
C:/temp/Job-2.odb,Step-1,Increment      1: Step Time =    1.000,"P-2-1",          4750,   165.120E-03,   113.070E-03,            0.,NA,NA,"",   960.938E+03,   968.081E+03,   968.081E+03
C:/temp/Job-2.odb,Step-1,Increment      1: Step Time =    1.000,"P-2-1",          4751,   52.0996E-03,   33.9140E-03,            0.,NA,NA,"",   1.04896E+06,   1.05750E+06,   1.05750E+06
C:/temp/Job-2.odb,Step-1,Increment      1: Step Time =    1.000,"P-2-1",          4752,   47.2534E-03,   36.1895E-03,            0.,NA,NA,"",   1.04528E+06,   1.05930E+06,   1.05930E+06
C:/temp/Job-2.odb,Step-1,Increment      1: Step Time =    1.000,"P-2-1",          4753,   34.4658E-03,   148.407E-03,            0.,NA,NA,"",   980.073E+03,   1.02539E+06,   1.02539E+06
C:/temp/Job-2.odb,Step-1,Increment      1: Step Time =    1.000,"P-2-1",          4754,   36.4539E-03,   153.057E-03,            0.,NA,NA,"",   1.00064E+06,   1.03907E+06,   1.03907E+06
C:/temp/Job-2.odb,Step-1,Increment      1: Step Time =    1.000,"P-2-1",          4755,   166.159E-03,   52.3086E-03,            0.,NA,NA,"",   1.02883E+06,   1.02168E+06,   1.02168E+06
C:/temp/Job-2.odb,Step-1,Increment      1: Step Time =    1.000,"P-2-1",          4756,   163.029E-03,   47.2276E-03,            0.,NA,NA,"",   1.03382E+06,   1.02517E+06,   1.02517E+06
C:/temp/Job-2.odb,Step-1,Increment      1: Step Time =    1.000,"P-2-1",          4757,   152.865E-03,   162.570E-03,            0.,NA,NA,"",   1.03896E+06,   1.02930E+06,   1.02930E+06
C:/temp/Job-2.odb,Step-1,Increment      1: Step Time =    1.000,"P-2-1",          4758,   131.845E-03,   132.662E-03,            0.,NA,NA,"",   1.14714E+06,   1.10594E+06,   1.10594E+06
C:/temp/Job-2.odb,Step-1,Increment      1: Step Time =    1.000,"P-2-1",          4759,   132.411E-03,   68.2063E-03,            0.,NA,NA,"",   1.14361E+06,   1.10113E+06,   1.10113E+06
C:/temp/Job-2.odb,Step-1,Increment      1: Step Time =    1.000,"P-2-1",          4760,   68.5987E-03,   65.9114E-03,            0.,NA,NA,"",   1.11634E+06,   1.10354E+06,   1.10354E+06
C:/temp/Job-2.odb,Step-1,Increment      1: Step Time =    1.000,"P-2-1",          4761,   72.3774E-03,   58.6087E-03,            0.,NA,NA,"",   1.11206E+06,   1.10919E+06,   1.10919E+06
C:/temp/Job-2.odb,Step-1,Increment      1: Step Time =    1.000,"P-2-1",          4762,   126.821E-03,   141.284E-03,            0.,NA,NA,"",   1.12798E+06,   1.10845E+06,   1.10845E+06
C:/temp/Job-2.odb,Step-1,Increment      1: Step Time =    1.000,"P-2-1",          4763,   50.8246E-03,   104.037E-03,            0.,NA,NA,"",   799.337E+03,   854.433E+03,   854.433E+03
C:/temp/Job-2.odb,Step-1,Increment      1: Step Time =    1.000,"P-2-1",          4764,   146.946E-03,   100.212E-03,            0.,NA,NA,"",   856.669E+03,   868.466E+03,   868.466E+03
C:/temp/Job-2.odb,Step-1,Increment      1: Step Time =    1.000,"P-2-1",          4765,   150.358E-03,   95.9129E-03,            0.,NA,NA,"",   886.461E+03,   896.179E+03,   896.179E+03
C:/temp/Job-2.odb,Step-1,Increment      1: Step Time =    1.000,"P-2-1",          4766,   72.4888E-03,   140.007E-03,            0.,NA,NA,"",   1.11723E+06,   1.11268E+06,   1.11268E+06
C:/temp/Job-2.odb,Step-1,Increment      1: Step Time =    1.000,"P-2-1",          4767,   106.536E-03,   144.370E-03,            0.,NA,NA,"",   1.04339E+06,   1.08371E+06,   1.08371E+06
C:/temp/Job-2.odb,Step-1,Increment      1: Step Time =    1.000,"P-2-1",          4768,   34.9526E-03,   99.5215E-03,            0.,NA,NA,"",   818.205E+03,   890.574E+03,   890.574E+03
C:/temp/Job-2.odb,Step-1,Increment      1: Step Time =    1.000,"P-2-1",          4769,   33.7265E-03,   103.886E-03,            0.,NA,NA,"",   820.171E+03,   893.616E+03,   893.616E+03
C:/temp/Job-2.odb,Step-1,Increment      1: Step Time =    1.000,"P-2-1",          4770,   99.9620E-03,   164.625E-03,            0.,NA,NA,"",   1.00847E+06,   1.02679E+06,   1.02679E+06
C:/temp/Job-2.odb,Step-1,Increment      1: Step Time =    1.000,"P-2-1",          4771,   104.250E-03,   165.601E-03,            0.,NA,NA,"",   1.00808E+06,   1.02427E+06,   1.02427E+06
C:/temp/Job-2.odb,Step-1,Increment      1: Step Time =    1.000,"P-2-1",          4772,   65.2481E-03,   132.718E-03,            0.,NA,NA,"",   1.09445E+06,   1.08471E+06,   1.08471E+06
C:/temp/Job-2.odb,Step-1,Increment      1: Step Time =    1.000,"P-2-1",          4773,   142.371E-03,   80.1616E-03,            0.,NA,NA,"",   1.01501E+06,   988.922E+03,   988.922E+03
C:/temp/Job-2.odb,Step-1,Increment      1: Step Time =    1.000,"P-2-1",          4774,   105.587E-03,   32.4602E-03,            0.,NA,NA,"",   1.00601E+06,   1.02013E+06,   1.02013E+06
C:/temp/Job-2.odb,Step-1,Increment      1: Step Time =    1.000,"P-2-1",          4775,   168.713E-03,   104.832E-03,            0.,NA,NA,"",   950.414E+03,   963.040E+03,   963.040E+03
C:/temp/Job-2.odb,Step-1,Increment      1: Step Time =    1.000,"P-2-1",          4776,   137.276E-03,   128.945E-03,            0.,NA,NA,"",   1.11056E+06,   1.06941E+06,   1.06941E+06
C:/temp/Job-2.odb,Step-1,Increment      1: Step Time =    1.000,"P-2-1",          4777,   104.234E-03,   30.4826E-03,            0.,NA,NA,"",   1.00231E+06,   1.01538E+06,   1.01538E+06
C:/temp/Job-2.odb,Step-1,Increment      1: Step Time =    1.000,"P-2-1",          4778,   171.009E-03,   103.407E-03,            0.,NA,NA,"",   953.304E+03,   967.138E+03,   967.138E+03
C:/temp/Job-2.odb,Step-1,Increment      1: Step Time =    1.000,"P-2-1",          4779,   140.305E-03,   121.784E-03,            0.,NA,NA,"",   1.04472E+06,   1.01114E+06,   1.01114E+06
C:/temp/Job-2.odb,Step-1,Increment      1: Step Time =    1.000,"P-2-1",          4780,   71.3605E-03,   135.874E-03,            0.,NA,NA,"",   1.12702E+06,   1.11614E+06,   1.11614E+06
C:/temp/Job-2.odb,Step-1,Increment      1: Step Time =    1.000,"P-2-1",          4781,   72.4331E-03,   35.2452E-03,            0.,NA,NA,"",   1.04465E+06,   1.05017E+06,   1.05017E+06
C:/temp/Job-2.odb,Step-1,Increment      1: Step Time =    1.000,"P-2-1",          4782,   36.1561E-03,   128.433E-03,            0.,NA,NA,"",   909.688E+03,   966.345E+03,   966.345E+03
C:/temp/Job-2.odb,Step-1,Increment      1: Step Time =    1.000,"P-2-1",          4783,   163.958E-03,   72.4650E-03,            0.,NA,NA,"",   1.00592E+06,   1.00197E+06,   1.00197E+06
C:/temp/Job-2.odb,Step-1,Increment      1: Step Time =    1.000,"P-2-1",          4784,   126.181E-03,   164.530E-03,            0.,NA,NA,"",   1.03717E+06,   1.03631E+06,   1.03631E+06
C:/temp/Job-2.odb,Step-1,Increment      1: Step Time =    1.000,"P-2-1",          4785,   132.284E-03,   37.0198E-03,            0.,NA,NA,"",   1.04734E+06,   1.04112E+06,   1.04112E+06
C:/temp/Job-2.odb,Step-1,Increment      1: Step Time =    1.000,"P-2-1",          4786,   35.5833E-03,   69.0899E-03,            0.,NA,NA,"",   918.702E+03,   974.567E+03,   974.567E+03
C:/temp/Job-2.odb,Step-1,Increment      1: Step Time =    1.000,"P-2-1",          4787,   164.948E-03,   130.705E-03,            0.,NA,NA,"",   1.01221E+06,   1.00754E+06,   1.00754E+06
C:/temp/Job-2.odb,Step-1,Increment      1: Step Time =    1.000,"P-2-1",          4788,   68.9964E-03,   163.250E-03,            0.,NA,NA,"",   1.05160E+06,   1.05609E+06,   1.05609E+06
C:/temp/Job-2.odb,Step-1,Increment      1: Step Time =    1.000,"P-2-1",          4789,   115.014E-03,   144.182E-03,            0.,NA,NA,"",   1.08223E+06,   1.09836E+06,   1.09836E+06
C:/temp/Job-2.odb,Step-1,Increment      1: Step Time =    1.000,"P-2-1",          4790,   134.722E-03,   66.5363E-03,            0.,NA,NA,"",   1.13081E+06,   1.09204E+06,   1.09204E+06
C:/temp/Job-2.odb,Step-1,Increment      1: Step Time =    1.000,"P-2-1",          4791,   142.898E-03,   85.1949E-03,            0.,NA,NA,"",   956.682E+03,   941.433E+03,   941.433E+03
C:/temp/Job-2.odb,Step-1,Increment      1: Step Time =    1.000,"P-2-1",          4792,   63.8590E-03,   75.2945E-03,            0.,NA,NA,"",   1.04679E+06,   1.03800E+06,   1.03800E+06
C:/temp/Job-2.odb,Step-1,Increment      1: Step Time =    1.000,"P-2-1",          4793,   85.0527E-03,   55.9134E-03,            0.,NA,NA,"",   1.07961E+06,   1.10299E+06,   1.10299E+06
C:/temp/Job-2.odb,Step-1,Increment      1: Step Time =    1.000,"P-2-1",          4794,   93.7182E-03,   54.6838E-03,            0.,NA,NA,"",   1.03976E+06,   1.08163E+06,   1.08163E+06
C:/temp/Job-2.odb,Step-1,Increment      1: Step Time =    1.000,"P-2-1",          4795,   120.271E-03,   35.7882E-03,            0.,NA,NA,"",   1.03112E+06,   1.03547E+06,   1.03547E+06
C:/temp/Job-2.odb,Step-1,Increment      1: Step Time =    1.000,"P-2-1",          4796,   36.0828E-03,   79.3419E-03,            0.,NA,NA,"",   874.895E+03,   937.136E+03,   937.136E+03
C:/temp/Job-2.odb,Step-1,Increment      1: Step Time =    1.000,"P-2-1",          4797,   164.998E-03,   119.708E-03,            0.,NA,NA,"",   981.154E+03,   983.358E+03,   983.358E+03
C:/temp/Job-2.odb,Step-1,Increment      1: Step Time =    1.000,"P-2-1",          4798,   80.1220E-03,   166.903E-03,            0.,NA,NA,"",   1.02849E+06,   1.03725E+06,   1.03725E+06
C:/temp/Job-2.odb,Step-1,Increment      1: Step Time =    1.000,"P-2-1",          4799,   143.601E-03,   117.715E-03,            0.,NA,NA,"",   988.135E+03,   968.449E+03,   968.449E+03
C:/temp/Job-2.odb,Step-1,Increment      1: Step Time =    1.000,"P-2-1",          4800,   92.1196E-03,   35.2694E-03,            0.,NA,NA,"",   1.01361E+06,   1.03065E+06,   1.03065E+06
C:/temp/Job-2.odb,Step-1,Increment      1: Step Time =    1.000,"P-2-1",          4801,   165.053E-03,   93.0212E-03,            0.,NA,NA,"",   945.934E+03,   956.558E+03,   956.558E+03
C:/temp/Job-2.odb,Step-1,Increment      1: Step Time =    1.000,"P-2-1",          4802,   60.5069E-03,   32.6301E-03,            0.,NA,NA,"",   1.04823E+06,   1.05249E+06,   1.05249E+06
C:/temp/Job-2.odb,Step-1,Increment      1: Step Time =    1.000,"P-2-1",          4803,   165.978E-03,   60.1493E-03,            0.,NA,NA,"",   1.02474E+06,   1.01811E+06,   1.01811E+06
C:/temp/Job-2.odb,Step-1,Increment      1: Step Time =    1.000,"P-2-1",          4804,   36.2017E-03,   139.781E-03,            0.,NA,NA,"",   957.482E+03,   1.00541E+06,   1.00541E+06
C:/temp/Job-2.odb,Step-1,Increment      1: Step Time =    1.000,"P-2-1",          4805,   138.619E-03,   165.007E-03,            0.,NA,NA,"",   1.04281E+06,   1.03484E+06,   1.03484E+06
C:/temp/Job-2.odb,Step-1,Increment      1: Step Time =    1.000,"P-2-1",          4806,   33.9585E-03,   58.1589E-03,            0.,NA,NA,"",   955.502E+03,   1.00670E+06,   1.00670E+06
C:/temp/Job-2.odb,Step-1,Increment      1: Step Time =    1.000,"P-2-1",          4807,   58.6020E-03,   166.672E-03,            0.,NA,NA,"",   1.04972E+06,   1.05453E+06,   1.05453E+06
C:/temp/Job-2.odb,Step-1,Increment      1: Step Time =    1.000,"P-2-1",          4808,   142.381E-03,   34.8482E-03,            0.,NA,NA,"",   1.04159E+06,   1.03277E+06,   1.03277E+06
C:/temp/Job-2.odb,Step-1,Increment      1: Step Time =    1.000,"P-2-1",          4809,   165.385E-03,   141.131E-03,            0.,NA,NA,"",   1.02731E+06,   1.02000E+06,   1.02000E+06
C:/temp/Job-2.odb,Step-1,Increment      1: Step Time =    1.000,"P-2-1",          4810,   162.794E-03,   97.0908E-03,            0.,NA,NA,"",   934.103E+03,   945.558E+03,   945.558E+03
C:/temp/Job-2.odb,Step-1,Increment      1: Step Time =    1.000,"P-2-1",          4811,   94.2978E-03,   35.3058E-03,            0.,NA,NA,"",   1.01121E+06,   1.02929E+06,   1.02929E+06
C:/temp/Job-2.odb,Step-1,Increment      1: Step Time =    1.000,"P-2-1",          4812,   37.6515E-03,   130.916E-03,            0.,NA,NA,"",   926.524E+03,   978.374E+03,   978.374E+03
C:/temp/Job-2.odb,Step-1,Increment      1: Step Time =    1.000,"P-2-1",          4813,   68.1395E-03,   39.1867E-03,            0.,NA,NA,"",   1.05776E+06,   1.06233E+06,   1.06233E+06
C:/temp/Job-2.odb,Step-1,Increment      1: Step Time =    1.000,"P-2-1",          4814,   131.161E-03,   159.772E-03,            0.,NA,NA,"",   1.05620E+06,   1.04958E+06,   1.04958E+06
C:/temp/Job-2.odb,Step-1,Increment      1: Step Time =    1.000,"P-2-1",          4815,   161.839E-03,   68.2739E-03,            0.,NA,NA,"",   1.01988E+06,   1.01182E+06,   1.01182E+06
C:/temp/Job-2.odb,Step-1,Increment      1: Step Time =    1.000,"P-2-1",          4816,   38.8627E-03,   72.7464E-03,            0.,NA,NA,"",   915.382E+03,   967.576E+03,   967.576E+03
C:/temp/Job-2.odb,Step-1,Increment      1: Step Time =    1.000,"P-2-1",          4817,   126.232E-03,   38.7347E-03,            0.,NA,NA,"",   1.04786E+06,   1.04595E+06,   1.04595E+06
C:/temp/Job-2.odb,Step-1,Increment      1: Step Time =    1.000,"P-2-1",          4818,   72.9537E-03,   160.027E-03,            0.,NA,NA,"",   1.05566E+06,   1.06182E+06,   1.06182E+06
C:/temp/Job-2.odb,Step-1,Increment      1: Step Time =    1.000,"P-2-1",          4819,   160.520E-03,   128.248E-03,            0.,NA,NA,"",   1.01410E+06,   1.00635E+06,   1.00635E+06
C:/temp/Job-2.odb,Step-1,Increment      1: Step Time =    1.000,"P-2-1",          4820,   126.782E-03,   133.525E-03,            0.,NA,NA,"",   1.16728E+06,   1.13099E+06,   1.13099E+06
C:/temp/Job-2.odb,Step-1,Increment      1: Step Time =    1.000,"P-2-1",          4821,   120.740E-03,   163.758E-03,            0.,NA,NA,"",   1.03241E+06,   1.03639E+06,   1.03639E+06
C:/temp/Job-2.odb,Step-1,Increment      1: Step Time =    1.000,"P-2-1",          4822,   33.7291E-03,   120.249E-03,            0.,NA,NA,"",   867.077E+03,   933.404E+03,   933.404E+03
C:/temp/Job-2.odb,Step-1,Increment      1: Step Time =    1.000,"P-2-1",          4823,   164.847E-03,   80.0605E-03,            0.,NA,NA,"",   981.841E+03,   983.825E+03,   983.825E+03
C:/temp/Job-2.odb,Step-1,Increment      1: Step Time =    1.000,"P-2-1",          4824,   79.4166E-03,   36.9931E-03,            0.,NA,NA,"",   1.03838E+06,   1.04840E+06,   1.04840E+06
C:/temp/Job-2.odb,Step-1,Increment      1: Step Time =    1.000,"P-2-1",          4825,   64.3087E-03,   166.616E-03,            0.,NA,NA,"",   1.04779E+06,   1.05145E+06,   1.05145E+06
C:/temp/Job-2.odb,Step-1,Increment      1: Step Time =    1.000,"P-2-1",          4826,   33.8758E-03,   63.2029E-03,            0.,NA,NA,"",   935.960E+03,   990.823E+03,   990.823E+03
C:/temp/Job-2.odb,Step-1,Increment      1: Step Time =    1.000,"P-2-1",          4827,   166.676E-03,   135.682E-03,            0.,NA,NA,"",   1.01837E+06,   1.01339E+06,   1.01339E+06
C:/temp/Job-2.odb,Step-1,Increment      1: Step Time =    1.000,"P-2-1",          4828,   136.887E-03,   34.7589E-03,            0.,NA,NA,"",   1.04221E+06,   1.03489E+06,   1.03489E+06
C:/temp/Job-2.odb,Step-1,Increment      1: Step Time =    1.000,"P-2-1",          4829,   125.297E-03,   61.6298E-03,            0.,NA,NA,"",   1.14415E+06,   1.12139E+06,   1.12139E+06
C:/temp/Job-2.odb,Step-1,Increment      1: Step Time =    1.000,"P-2-1",          4830,   149.204E-03,   93.4680E-03,            0.,NA,NA,"",   890.833E+03,   898.064E+03,   898.064E+03
C:/temp/Job-2.odb,Step-1,Increment      1: Step Time =    1.000,"P-2-1",          4831,   128.250E-03,   64.1278E-03,            0.,NA,NA,"",   1.15168E+06,   1.11874E+06,   1.11874E+06
C:/temp/Job-2.odb,Step-1,Increment      1: Step Time =    1.000,"P-2-1",          4832,   70.5132E-03,   64.9956E-03,            0.,NA,NA,"",   1.12544E+06,   1.11300E+06,   1.11300E+06
C:/temp/Job-2.odb,Step-1,Increment      1: Step Time =    1.000,"P-2-1",          4833,   111.783E-03,   147.591E-03,            0.,NA,NA,"",   1.05551E+06,   1.07936E+06,   1.07936E+06
C:/temp/Job-2.odb,Step-1,Increment      1: Step Time =    1.000,"P-2-1",          4834,   32.8107E-03,   55.3625E-03,            0.,NA,NA,"",   960.505E+03,   1.01220E+06,   1.01220E+06
C:/temp/Job-2.odb,Step-1,Increment      1: Step Time =    1.000,"P-2-1",          4835,   56.0256E-03,   167.404E-03,            0.,NA,NA,"",   1.04889E+06,   1.05456E+06,   1.05456E+06
C:/temp/Job-2.odb,Step-1,Increment      1: Step Time =    1.000,"P-2-1",          4836,   142.963E-03,   33.2137E-03,            0.,NA,NA,"",   1.03755E+06,   1.02946E+06,   1.02946E+06
C:/temp/Job-2.odb,Step-1,Increment      1: Step Time =    1.000,"P-2-1",          4837,   166.638E-03,   144.161E-03,            0.,NA,NA,"",   1.02675E+06,   1.02013E+06,   1.02013E+06
C:/temp/Job-2.odb,Step-1,Increment      1: Step Time =    1.000,"P-2-1",          4838,   63.2976E-03,   76.6683E-03,            0.,NA,NA,"",   1.03076E+06,   1.02418E+06,   1.02418E+06
C:/temp/Job-2.odb,Step-1,Increment      1: Step Time =    1.000,"P-2-1",          4839,   53.1642E-03,   110.606E-03,            0.,NA,NA,"",   837.267E+03,   881.427E+03,   881.427E+03
C:/temp/Job-2.odb,Step-1,Increment      1: Step Time =    1.000,"P-2-1",          4840,   142.011E-03,   112.743E-03,            0.,NA,NA,"",   930.743E+03,   919.259E+03,   919.259E+03
C:/temp/Job-2.odb,Step-1,Increment      1: Step Time =    1.000,"P-2-1",          4841,   73.2728E-03,   64.0430E-03,            0.,NA,NA,"",   1.13577E+06,   1.12514E+06,   1.12514E+06
C:/temp/Job-2.odb,Step-1,Increment      1: Step Time =    1.000,"P-2-1",          4842,   126.188E-03,   135.782E-03,            0.,NA,NA,"",   1.15739E+06,   1.12767E+06,   1.12767E+06
C:/temp/Job-2.odb,Step-1,Increment      1: Step Time =    1.000,"P-2-1",          4843,   36.5602E-03,   101.252E-03,            0.,NA,NA,"",   818.376E+03,   888.977E+03,   888.977E+03
C:/temp/Job-2.odb,Step-1,Increment      1: Step Time =    1.000,"P-2-1",          4844,   125.211E-03,   58.5310E-03,            0.,NA,NA,"",   1.12728E+06,   1.11046E+06,   1.11046E+06
C:/temp/Job-2.odb,Step-1,Increment      1: Step Time =    1.000,"P-2-1",          4845,   144.937E-03,   83.7533E-03,            0.,NA,NA,"",   969.974E+03,   955.272E+03,   955.272E+03
C:/temp/Job-2.odb,Step-1,Increment      1: Step Time =    1.000,"P-2-1",          4846,   95.6089E-03,   164.219E-03,            0.,NA,NA,"",   1.01069E+06,   1.02931E+06,   1.02931E+06
C:/temp/Job-2.odb,Step-1,Increment      1: Step Time =    1.000,"P-2-1",          4847,   34.9415E-03,   96.1042E-03,            0.,NA,NA,"",   820.492E+03,   892.513E+03,   892.513E+03
C:/temp/Job-2.odb,Step-1,Increment      1: Step Time =    1.000,"P-2-1",          4848,   144.371E-03,   87.0909E-03,            0.,NA,NA,"",   933.284E+03,   924.875E+03,   924.875E+03
C:/temp/Job-2.odb,Step-1,Increment      1: Step Time =    1.000,"P-2-1",          4849,   130.667E-03,   63.0756E-03,            0.,NA,NA,"",   1.14095E+06,   1.10836E+06,   1.10836E+06
C:/temp/Job-2.odb,Step-1,Increment      1: Step Time =    1.000,"P-2-1",          4850,   103.713E-03,   142.953E-03,            0.,NA,NA,"",   1.03720E+06,   1.08559E+06,   1.08559E+06
C:/temp/Job-2.odb,Step-1,Increment      1: Step Time =    1.000,"P-2-1",          4851,   105.177E-03,   147.524E-03,            0.,NA,NA,"",   1.03310E+06,   1.07060E+06,   1.07060E+06
C:/temp/Job-2.odb,Step-1,Increment      1: Step Time =    1.000,"P-2-1",          4852,   83.2074E-03,   54.4253E-03,            0.,NA,NA,"",   1.07970E+06,   1.09859E+06,   1.09859E+06
C:/temp/Job-2.odb,Step-1,Increment      1: Step Time =    1.000,"P-2-1",          4853,   84.5305E-03,   53.0637E-03,            0.,NA,NA,"",   1.06992E+06,   1.09169E+06,   1.09169E+06
C:/temp/Job-2.odb,Step-1,Increment      1: Step Time =    1.000,"P-2-1",          4854,   133.135E-03,   66.0746E-03,            0.,NA,NA,"",   1.13770E+06,   1.09923E+06,   1.09923E+06
C:/temp/Job-2.odb,Step-1,Increment      1: Step Time =    1.000,"P-2-1",          4855,   70.2393E-03,   137.508E-03,            0.,NA,NA,"",   1.11804E+06,   1.10952E+06,   1.10952E+06
C:/temp/Job-2.odb,Step-1,Increment      1: Step Time =    1.000,"P-2-1",          4856,   116.979E-03,   143.883E-03,            0.,NA,NA,"",   1.09217E+06,   1.10174E+06,   1.10174E+06
C:/temp/Job-2.odb,Step-1,Increment      1: Step Time =    1.000,"P-2-1",          4857,   115.452E-03,   146.331E-03,            0.,NA,NA,"",   1.07479E+06,   1.08941E+06,   1.08941E+06
C:/temp/Job-2.odb,Step-1,Increment      1: Step Time =    1.000,"P-2-1",          4858,   134.007E-03,   36.7347E-03,            0.,NA,NA,"",   1.04760E+06,   1.04053E+06,   1.04053E+06
C:/temp/Job-2.odb,Step-1,Increment      1: Step Time =    1.000,"P-2-1",          4859,   164.843E-03,   132.799E-03,            0.,NA,NA,"",   1.01692E+06,   1.01125E+06,   1.01125E+06
C:/temp/Job-2.odb,Step-1,Increment      1: Step Time =    1.000,"P-2-1",          4860,   66.6145E-03,   163.703E-03,            0.,NA,NA,"",   1.05265E+06,   1.05672E+06,   1.05672E+06
C:/temp/Job-2.odb,Step-1,Increment      1: Step Time =    1.000,"P-2-1",          4861,   76.8765E-03,   34.5649E-03,            0.,NA,NA,"",   1.03664E+06,   1.04424E+06,   1.04424E+06
C:/temp/Job-2.odb,Step-1,Increment      1: Step Time =    1.000,"P-2-1",          4862,   34.4212E-03,   126.161E-03,            0.,NA,NA,"",   894.006E+03,   955.261E+03,   955.261E+03
C:/temp/Job-2.odb,Step-1,Increment      1: Step Time =    1.000,"P-2-1",          4863,   165.046E-03,   74.6864E-03,            0.,NA,NA,"",   998.317E+03,   996.732E+03,   996.732E+03
C:/temp/Job-2.odb,Step-1,Increment      1: Step Time =    1.000,"P-2-1",          4864,   124.124E-03,   165.125E-03,            0.,NA,NA,"",   1.03354E+06,   1.03440E+06,   1.03440E+06
C:/temp/Job-2.odb,Step-1,Increment      1: Step Time =    1.000,"P-2-1",          4865,   131.833E-03,   38.6463E-03,            0.,NA,NA,"",   1.05183E+06,   1.04511E+06,   1.04511E+06
C:/temp/Job-2.odb,Step-1,Increment      1: Step Time =    1.000,"P-2-1",          4866,   36.8682E-03,   66.0516E-03,            0.,NA,NA,"",   936.933E+03,   987.953E+03,   987.953E+03
C:/temp/Job-2.odb,Step-1,Increment      1: Step Time =    1.000,"P-2-1",          4867,   162.953E-03,   132.331E-03,            0.,NA,NA,"",   1.01924E+06,   1.01212E+06,   1.01212E+06
C:/temp/Job-2.odb,Step-1,Increment      1: Step Time =    1.000,"P-2-1",          4868,   68.5999E-03,   160.863E-03,            0.,NA,NA,"",   1.05728E+06,   1.06174E+06,   1.06174E+06
C:/temp/Job-2.odb,Step-1,Increment      1: Step Time =    1.000,"P-2-1",          4869,   72.1959E-03,   37.5550E-03,            0.,NA,NA,"",   1.05045E+06,   1.05608E+06,   1.05608E+06
C:/temp/Job-2.odb,Step-1,Increment      1: Step Time =    1.000,"P-2-1",          4870,   38.0942E-03,   126.873E-03,            0.,NA,NA,"",   909.797E+03,   963.976E+03,   963.976E+03
C:/temp/Job-2.odb,Step-1,Increment      1: Step Time =    1.000,"P-2-1",          4871,   161.802E-03,   73.3969E-03,            0.,NA,NA,"",   1.00606E+06,   1.00066E+06,   1.00066E+06
C:/temp/Job-2.odb,Step-1,Increment      1: Step Time =    1.000,"P-2-1",          4872,   125.582E-03,   162.381E-03,            0.,NA,NA,"",   1.04276E+06,   1.04212E+06,   1.04212E+06
C:/temp/Job-2.odb,Step-1,Increment      1: Step Time =    1.000,"P-2-1",          4873,   172.511E-03,   105.373E-03,            0.,NA,NA,"",   957.158E+03,   971.226E+03,   971.226E+03
C:/temp/Job-2.odb,Step-1,Increment      1: Step Time =    1.000,"P-2-1",          4874,   106.175E-03,   29.0012E-03,            0.,NA,NA,"",   1.00093E+06,   1.01220E+06,   1.01220E+06
C:/temp/Job-2.odb,Step-1,Increment      1: Step Time =    1.000,"P-2-1",          4875,   148.718E-03,   108.140E-03,            0.,NA,NA,"",   901.532E+03,   906.088E+03,   906.088E+03
C:/temp/Job-2.odb,Step-1,Increment      1: Step Time =    1.000,"P-2-1",          4876,   57.3096E-03,   83.8725E-03,            0.,NA,NA,"",   903.856E+03,   928.583E+03,   928.583E+03
C:/temp/Job-2.odb,Step-1,Increment      1: Step Time =    1.000,"P-2-1",          4877,   51.7016E-03,   90.8027E-03,            0.,NA,NA,"",   825.979E+03,   874.840E+03,   874.840E+03
C:/temp/Job-2.odb,Step-1,Increment      1: Step Time =    1.000,"P-2-1",          4878,   97.8270E-03,   148.519E-03,            0.,NA,NA,"",   1.02683E+06,   1.06666E+06,   1.06666E+06
C:/temp/Job-2.odb,Step-1,Increment      1: Step Time =    1.000,"P-2-1",          4879,   102.687E-03,   51.1857E-03,            0.,NA,NA,"",   1.02725E+06,   1.06523E+06,   1.06523E+06
C:/temp/Job-2.odb,Step-1,Increment      1: Step Time =    1.000,"P-2-1",          4880,   50.4213E-03,   112.811E-03,            0.,NA,NA,"",   855.617E+03,   901.282E+03,   901.282E+03
C:/temp/Job-2.odb,Step-1,Increment      1: Step Time =    1.000,"P-2-1",          4881,   78.3365E-03,   55.4963E-03,            0.,NA,NA,"",   1.09800E+06,   1.10622E+06,   1.10622E+06
C:/temp/Job-2.odb,Step-1,Increment      1: Step Time =    1.000,"P-2-1",          4882,   123.497E-03,   143.149E-03,            0.,NA,NA,"",   1.11584E+06,   1.10616E+06,   1.10616E+06
C:/temp/Job-2.odb,Step-1,Increment      1: Step Time =    1.000,"P-2-1",          4883,   42.7371E-03,   34.9150E-03,            0.,NA,NA,"",   1.04090E+06,   1.05950E+06,   1.05950E+06
C:/temp/Job-2.odb,Step-1,Increment      1: Step Time =    1.000,"P-2-1",          4884,   32.9046E-03,   38.5306E-03,            0.,NA,NA,"",   1.01461E+06,   1.05245E+06,   1.05245E+06
C:/temp/Job-2.odb,Step-1,Increment      1: Step Time =    1.000,"P-2-1",          4885,   34.1620E-03,   157.927E-03,            0.,NA,NA,"",   1.00738E+06,   1.04623E+06,   1.04623E+06
C:/temp/Job-2.odb,Step-1,Increment      1: Step Time =    1.000,"P-2-1",          4886,   38.3882E-03,   166.427E-03,            0.,NA,NA,"",   1.03677E+06,   1.06060E+06,   1.06060E+06
C:/temp/Job-2.odb,Step-1,Increment      1: Step Time =    1.000,"P-2-1",          4887,   165.867E-03,   42.0675E-03,            0.,NA,NA,"",   1.02634E+06,   1.02003E+06,   1.02003E+06
C:/temp/Job-2.odb,Step-1,Increment      1: Step Time =    1.000,"P-2-1",          4888,   161.563E-03,   34.4880E-03,            0.,NA,NA,"",   1.02535E+06,   1.01902E+06,   1.01902E+06
C:/temp/Job-2.odb,Step-1,Increment      1: Step Time =    1.000,"P-2-1",          4889,   157.379E-03,   164.627E-03,            0.,NA,NA,"",   1.03112E+06,   1.02329E+06,   1.02329E+06
C:/temp/Job-2.odb,Step-1,Increment      1: Step Time =    1.000,"P-2-1",          4890,   102.114E-03,   35.5021E-03,            0.,NA,NA,"",   1.00871E+06,   1.02661E+06,   1.02661E+06
C:/temp/Job-2.odb,Step-1,Increment      1: Step Time =    1.000,"P-2-1",          4891,   163.830E-03,   101.799E-03,            0.,NA,NA,"",   935.816E+03,   947.685E+03,   947.685E+03
C:/temp/Job-2.odb,Step-1,Increment      1: Step Time =    1.000,"P-2-1",          4892,   134.231E-03,   133.401E-03,            0.,NA,NA,"",   1.13301E+06,   1.09407E+06,   1.09407E+06
C:/temp/Job-2.odb,Step-1,Increment      1: Step Time =    1.000,"P-2-1",          4893,   67.6366E-03,   66.5829E-03,            0.,NA,NA,"",   1.11104E+06,   1.09844E+06,   1.09844E+06
C:/temp/Job-2.odb,Step-1,Increment      1: Step Time =    1.000,"P-2-1",          4894,   75.2130E-03,   56.8394E-03,            0.,NA,NA,"",   1.10727E+06,   1.10913E+06,   1.10913E+06
C:/temp/Job-2.odb,Step-1,Increment      1: Step Time =    1.000,"P-2-1",          4895,   71.6551E-03,   60.9156E-03,            0.,NA,NA,"",   1.11870E+06,   1.11245E+06,   1.11245E+06
C:/temp/Job-2.odb,Step-1,Increment      1: Step Time =    1.000,"P-2-1",          4896,   126.160E-03,   143.755E-03,            0.,NA,NA,"",   1.11525E+06,   1.10046E+06,   1.10046E+06
C:/temp/Job-2.odb,Step-1,Increment      1: Step Time =    1.000,"P-2-1",          4897,   127.648E-03,   138.945E-03,            0.,NA,NA,"",   1.13891E+06,   1.11377E+06,   1.11377E+06
C:/temp/Job-2.odb,Step-1,Increment      1: Step Time =    1.000,"P-2-1",          4898,   53.2566E-03,   105.670E-03,            0.,NA,NA,"",   797.360E+03,   848.577E+03,   848.577E+03
C:/temp/Job-2.odb,Step-1,Increment      1: Step Time =    1.000,"P-2-1",          4899,   50.2924E-03,   102.142E-03,            0.,NA,NA,"",   796.441E+03,   852.879E+03,   852.879E+03
C:/temp/Job-2.odb,Step-1,Increment      1: Step Time =    1.000,"P-2-1",          4900,   149.114E-03,   99.1726E-03,            0.,NA,NA,"",   871.648E+03,   883.045E+03,   883.045E+03
C:/temp/Job-2.odb,Step-1,Increment      1: Step Time =    1.000,"P-2-1",          4901,   72.6736E-03,   144.128E-03,            0.,NA,NA,"",   1.10234E+06,   1.10250E+06,   1.10250E+06
C:/temp/Job-2.odb,Step-1,Increment      1: Step Time =    1.000,"P-2-1",          4902,   63.1454E-03,   131.446E-03,            0.,NA,NA,"",   1.07552E+06,   1.06909E+06,   1.06909E+06
C:/temp/Job-2.odb,Step-1,Increment      1: Step Time =    1.000,"P-2-1",          4903,   141.254E-03,   78.3672E-03,            0.,NA,NA,"",   1.03784E+06,   1.00670E+06,   1.00670E+06
C:/temp/Job-2.odb,Step-1,Increment      1: Step Time =    1.000,"P-2-1",          4904,   106.854E-03,   34.3049E-03,            0.,NA,NA,"",   1.00974E+06,   1.02463E+06,   1.02463E+06
C:/temp/Job-2.odb,Step-1,Increment      1: Step Time =    1.000,"P-2-1",          4905,   166.051E-03,   106.590E-03,            0.,NA,NA,"",   947.723E+03,   958.805E+03,   958.805E+03
C:/temp/Job-2.odb,Step-1,Increment      1: Step Time =    1.000,"P-2-1",          4906,   139.860E-03,   126.829E-03,            0.,NA,NA,"",   1.08440E+06,   1.04711E+06,   1.04711E+06
C:/temp/Job-2.odb,Step-1,Increment      1: Step Time =    1.000,"P-2-1",          4907,   137.010E-03,   131.501E-03,            0.,NA,NA,"",   1.11707E+06,   1.07796E+06,   1.07796E+06
C:/temp/Job-2.odb,Step-1,Increment      1: Step Time =    1.000,"P-2-1",          4908,   94.8422E-03,   52.5092E-03,            0.,NA,NA,"",   1.03268E+06,   1.07250E+06,   1.07250E+06
C:/temp/Job-2.odb,Step-1,Increment      1: Step Time =    1.000,"P-2-1",          4909,   144.121E-03,   115.558E-03,            0.,NA,NA,"",   963.424E+03,   948.984E+03,   948.984E+03
C:/temp/Job-2.odb,Step-1,Increment      1: Step Time =    1.000,"P-2-1",          4910,   143.227E-03,   119.963E-03,            0.,NA,NA,"",   1.01249E+06,   988.062E+03,   988.062E+03
C:/temp/Job-2.odb,Step-1,Increment      1: Step Time =    1.000,"P-2-1",          4911,   135.474E-03,   68.5738E-03,            0.,NA,NA,"",   1.12668E+06,   1.08561E+06,   1.08561E+06
C:/temp/Job-2.odb,Step-1,Increment      1: Step Time =    1.000,"P-2-1",          4912,   164.017E-03,   33.9946E-03,            0.,NA,NA,"",   1.02242E+06,   1.01691E+06,   1.01691E+06
C:/temp/Job-2.odb,Step-1,Increment      1: Step Time =    1.000,"P-2-1",          4913,   32.8999E-03,   35.8859E-03,            0.,NA,NA,"",   1.02115E+06,   1.05679E+06,   1.05679E+06
C:/temp/Job-2.odb,Step-1,Increment      1: Step Time =    1.000,"P-2-1",          4914,   165.576E-03,   164.374E-03,            0.,NA,NA,"",   1.02209E+06,   1.01678E+06,   1.01678E+06
C:/temp/Job-2.odb,Step-1,Increment      1: Step Time =    1.000,"P-2-1",          4915,   36.1882E-03,   166.105E-03,            0.,NA,NA,"",   1.03340E+06,   1.06075E+06,   1.06075E+06
C:/temp/Job-2.odb,Step-1,Increment      1: Step Time =    1.000,"P-2-1",          4916,   62.2735E-03,   69.2281E-03,            0.,NA,NA,"",   1.06601E+06,   1.06188E+06,   1.06188E+06
C:/temp/Job-2.odb,Step-1,Increment      1: Step Time =    1.000,"P-2-1",          4917,   121.820E-03,   36.6850E-03,            0.,NA,NA,"",   1.03567E+06,   1.03852E+06,   1.03852E+06
C:/temp/Job-2.odb,Step-1,Increment      1: Step Time =    1.000,"P-2-1",          4918,   37.0110E-03,   77.1585E-03,            0.,NA,NA,"",   887.788E+03,   946.833E+03,   946.833E+03
C:/temp/Job-2.odb,Step-1,Increment      1: Step Time =    1.000,"P-2-1",          4919,   164.459E-03,   122.317E-03,            0.,NA,NA,"",   989.919E+03,   989.812E+03,   989.812E+03
C:/temp/Job-2.odb,Step-1,Increment      1: Step Time =    1.000,"P-2-1",          4920,   77.5836E-03,   163.529E-03,            0.,NA,NA,"",   1.04022E+06,   1.04867E+06,   1.04867E+06
C:/temp/Job-2.odb,Step-1,Increment      1: Step Time =    1.000,"P-2-1",          4921,   95.8980E-03,   55.9295E-03,            0.,NA,NA,"",   1.03597E+06,   1.08298E+06,   1.08298E+06
C:/temp/Job-2.odb,Step-1,Increment      1: Step Time =    1.000,"P-2-1",          4922,   89.7123E-03,   34.9018E-03,            0.,NA,NA,"",   1.01629E+06,   1.03191E+06,   1.03191E+06
C:/temp/Job-2.odb,Step-1,Increment      1: Step Time =    1.000,"P-2-1",          4923,   166.134E-03,   89.1297E-03,            0.,NA,NA,"",   955.421E+03,   964.615E+03,   964.615E+03
C:/temp/Job-2.odb,Step-1,Increment      1: Step Time =    1.000,"P-2-1",          4924,   57.7367E-03,   86.0846E-03,            0.,NA,NA,"",   877.294E+03,   905.540E+03,   905.540E+03
C:/temp/Job-2.odb,Step-1,Increment      1: Step Time =    1.000,"P-2-1",          4925,   61.9303E-03,   35.9874E-03,            0.,NA,NA,"",   1.05334E+06,   1.05781E+06,   1.05781E+06
C:/temp/Job-2.odb,Step-1,Increment      1: Step Time =    1.000,"P-2-1",          4926,   56.9622E-03,   35.0949E-03,            0.,NA,NA,"",   1.05149E+06,   1.05740E+06,   1.05740E+06
C:/temp/Job-2.odb,Step-1,Increment      1: Step Time =    1.000,"P-2-1",          4927,   165.043E-03,   58.7689E-03,            0.,NA,NA,"",   1.02786E+06,   1.02024E+06,   1.02024E+06
C:/temp/Job-2.odb,Step-1,Increment      1: Step Time =    1.000,"P-2-1",          4928,   165.207E-03,   61.9987E-03,            0.,NA,NA,"",   1.02427E+06,   1.01739E+06,   1.01739E+06
C:/temp/Job-2.odb,Step-1,Increment      1: Step Time =    1.000,"P-2-1",          4929,   36.2129E-03,   137.303E-03,            0.,NA,NA,"",   947.779E+03,   997.606E+03,   997.606E+03
C:/temp/Job-2.odb,Step-1,Increment      1: Step Time =    1.000,"P-2-1",          4930,   36.4476E-03,   141.940E-03,            0.,NA,NA,"",   966.592E+03,   1.01236E+06,   1.01236E+06
C:/temp/Job-2.odb,Step-1,Increment      1: Step Time =    1.000,"P-2-1",          4931,   136.097E-03,   164.920E-03,            0.,NA,NA,"",   1.04313E+06,   1.03605E+06,   1.03605E+06
C:/temp/Job-2.odb,Step-1,Increment      1: Step Time =    1.000,"P-2-1",          4932,   142.402E-03,   167.076E-03,            0.,NA,NA,"",   1.03750E+06,   1.02959E+06,   1.02959E+06
C:/temp/Job-2.odb,Step-1,Increment      1: Step Time =    1.000,"P-2-1",          4933,   35.6014E-03,   61.1679E-03,            0.,NA,NA,"",   951.479E+03,   1.00146E+06,   1.00146E+06
C:/temp/Job-2.odb,Step-1,Increment      1: Step Time =    1.000,"P-2-1",          4934,   61.2965E-03,   164.621E-03,            0.,NA,NA,"",   1.05248E+06,   1.05689E+06,   1.05689E+06
C:/temp/Job-2.odb,Step-1,Increment      1: Step Time =    1.000,"P-2-1",          4935,   138.048E-03,   36.8348E-03,            0.,NA,NA,"",   1.04769E+06,   1.03883E+06,   1.03883E+06
C:/temp/Job-2.odb,Step-1,Increment      1: Step Time =    1.000,"P-2-1",          4936,   163.721E-03,   137.069E-03,            0.,NA,NA,"",   1.02627E+06,   1.01825E+06,   1.01825E+06
C:/temp/Job-2.odb,Step-1,Increment      1: Step Time =    1.000,"P-2-1",          4937,   117.823E-03,   165.242E-03,            0.,NA,NA,"",   1.02479E+06,   1.03126E+06,   1.03126E+06
C:/temp/Job-2.odb,Step-1,Increment      1: Step Time =    1.000,"P-2-1",          4938,   35.4721E-03,   117.465E-03,            0.,NA,NA,"",   860.326E+03,   925.633E+03,   925.633E+03
C:/temp/Job-2.odb,Step-1,Increment      1: Step Time =    1.000,"P-2-1",          4939,   163.776E-03,   82.2568E-03,            0.,NA,NA,"",   974.454E+03,   977.303E+03,   977.303E+03
C:/temp/Job-2.odb,Step-1,Increment      1: Step Time =    1.000,"P-2-1",          4940,   81.4295E-03,   35.8015E-03,            0.,NA,NA,"",   1.03241E+06,   1.04331E+06,   1.04331E+06
C:/temp/Job-2.odb,Step-1,Increment      1: Step Time =    1.000,"P-2-1",          4941,   147.627E-03,   91.1800E-03,            0.,NA,NA,"",   899.951E+03,   903.186E+03,   903.186E+03
C:/temp/Job-2.odb,Step-1,Increment      1: Step Time =    1.000,"P-2-1",          4942,   61.6253E-03,   74.4771E-03,            0.,NA,NA,"",   1.03243E+06,   1.03043E+06,   1.03043E+06
C:/temp/Job-2.odb,Step-1,Increment      1: Step Time =    1.000,"P-2-1",          4943,   100.634E-03,   38.4620E-03,            0.,NA,NA,"",   1.01203E+06,   1.03338E+06,   1.03338E+06
C:/temp/Job-2.odb,Step-1,Increment      1: Step Time =    1.000,"P-2-1",          4944,   159.338E-03,   98.6448E-03,            0.,NA,NA,"",   921.898E+03,   933.111E+03,   933.111E+03
C:/temp/Job-2.odb,Step-1,Increment      1: Step Time =    1.000,"P-2-1",          4945,   32.5928E-03,   104.859E-03,            0.,NA,NA,"",   820.685E+03,   895.109E+03,   895.109E+03
C:/temp/Job-2.odb,Step-1,Increment      1: Step Time =    1.000,"P-2-1",          4946,   106.866E-03,   167.172E-03,            0.,NA,NA,"",   1.00735E+06,   1.02116E+06,   1.02116E+06
C:/temp/Job-2.odb,Step-1,Increment      1: Step Time =    1.000,"P-2-1",          4947,   61.7278E-03,   133.544E-03,            0.,NA,NA,"",   1.06990E+06,   1.06759E+06,   1.06759E+06
C:/temp/Job-2.odb,Step-1,Increment      1: Step Time =    1.000,"P-2-1",          4948,   105.151E-03,   35.9239E-03,            0.,NA,NA,"",   1.01068E+06,   1.02791E+06,   1.02791E+06
C:/temp/Job-2.odb,Step-1,Increment      1: Step Time =    1.000,"P-2-1",          4949,   164.954E-03,   104.124E-03,            0.,NA,NA,"",   941.113E+03,   952.742E+03,   952.742E+03
C:/temp/Job-2.odb,Step-1,Increment      1: Step Time =    1.000,"P-2-1",          4950,   116.789E-03,   54.5430E-03,            0.,NA,NA,"",   1.08566E+06,   1.09555E+06,   1.09555E+06
C:/temp/Job-2.odb,Step-1,Increment      1: Step Time =    1.000,"P-2-1",          4951,   83.2041E-03,   144.323E-03,            0.,NA,NA,"",   1.08676E+06,   1.10478E+06,   1.10478E+06
C:/temp/Job-2.odb,Step-1,Increment      1: Step Time =    1.000,"P-2-1",          4952,   36.0296E-03,   56.6214E-03,            0.,NA,NA,"",   969.509E+03,   1.01545E+06,   1.01545E+06
C:/temp/Job-2.odb,Step-1,Increment      1: Step Time =    1.000,"P-2-1",          4953,   164.537E-03,   145.022E-03,            0.,NA,NA,"",   1.03132E+06,   1.02303E+06,   1.02303E+06
C:/temp/Job-2.odb,Step-1,Increment      1: Step Time =    1.000,"P-2-1",          4954,   144.849E-03,   33.6499E-03,            0.,NA,NA,"",   1.03799E+06,   1.02947E+06,   1.02947E+06
C:/temp/Job-2.odb,Step-1,Increment      1: Step Time =    1.000,"P-2-1",          4955,   36.9598E-03,   148.672E-03,            0.,NA,NA,"",   989.848E+03,   1.03035E+06,   1.03035E+06
C:/temp/Job-2.odb,Step-1,Increment      1: Step Time =    1.000,"P-2-1",          4956,   53.0150E-03,   37.1321E-03,            0.,NA,NA,"",   1.05102E+06,   1.06007E+06,   1.06007E+06
C:/temp/Job-2.odb,Step-1,Increment      1: Step Time =    1.000,"P-2-1",          4957,   147.866E-03,   165.561E-03,            0.,NA,NA,"",   1.03777E+06,   1.02889E+06,   1.02889E+06
C:/temp/Job-2.odb,Step-1,Increment      1: Step Time =    1.000,"P-2-1",          4958,   162.958E-03,   52.7782E-03,            0.,NA,NA,"",   1.03507E+06,   1.02565E+06,   1.02565E+06
C:/temp/Job-2.odb,Step-1,Increment      1: Step Time =    1.000,"P-2-1",          4959,   37.0345E-03,   84.6839E-03,            0.,NA,NA,"",   854.248E+03,   918.755E+03,   918.755E+03
C:/temp/Job-2.odb,Step-1,Increment      1: Step Time =    1.000,"P-2-1",          4960,   116.568E-03,   36.7605E-03,            0.,NA,NA,"",   1.02736E+06,   1.03569E+06,   1.03569E+06
C:/temp/Job-2.odb,Step-1,Increment      1: Step Time =    1.000,"P-2-1",          4961,   162.806E-03,   117.264E-03,            0.,NA,NA,"",   972.959E+03,   975.486E+03,   975.486E+03
C:/temp/Job-2.odb,Step-1,Increment      1: Step Time =    1.000,"P-2-1",          4962,   83.4335E-03,   164.952E-03,            0.,NA,NA,"",   1.02713E+06,   1.03876E+06,   1.03876E+06
C:/temp/Job-2.odb,Step-1,Increment      1: Step Time =    1.000,"P-2-1",          4963,   131.329E-03,   135.091E-03,            0.,NA,NA,"",   1.14400E+06,   1.10770E+06,   1.10770E+06
C:/temp/Job-2.odb,Step-1,Increment      1: Step Time =    1.000,"P-2-1",          4964,   114.337E-03,   148.943E-03,            0.,NA,NA,"",   1.06086E+06,    1.0777E+06,    1.0777E+06
C:/temp/Job-2.odb,Step-1,Increment      1: Step Time =    1.000,"P-2-1",          4965,   66.3852E-03,   65.1784E-03,            0.,NA,NA,"",   1.10122E+06,   1.09225E+06,   1.09225E+06
C:/temp/Job-2.odb,Step-1,Increment      1: Step Time =    1.000,"P-2-1",          4966,   70.8089E-03,   160.309E-03,            0.,NA,NA,"",   1.05690E+06,   1.06204E+06,   1.06204E+06
C:/temp/Job-2.odb,Step-1,Increment      1: Step Time =    1.000,"P-2-1",          4967,   40.1636E-03,   70.7941E-03,            0.,NA,NA,"",   929.124E+03,   977.255E+03,   977.255E+03
C:/temp/Job-2.odb,Step-1,Increment      1: Step Time =    1.000,"P-2-1",          4968,   159.626E-03,   130.835E-03,            0.,NA,NA,"",   1.02323E+06,   1.01323E+06,   1.01323E+06
C:/temp/Job-2.odb,Step-1,Increment      1: Step Time =    1.000,"P-2-1",          4969,   128.766E-03,   40.2018E-03,            0.,NA,NA,"",   1.05505E+06,   1.05005E+06,   1.05005E+06
C:/temp/Job-2.odb,Step-1,Increment      1: Step Time =    1.000,"P-2-1",          4970,   127.714E-03,   161.642E-03,            0.,NA,NA,"",   1.04742E+06,   1.04447E+06,   1.04447E+06
C:/temp/Job-2.odb,Step-1,Increment      1: Step Time =    1.000,"P-2-1",          4971,   39.7783E-03,   129.241E-03,            0.,NA,NA,"",   927.729E+03,   976.633E+03,   976.633E+03
C:/temp/Job-2.odb,Step-1,Increment      1: Step Time =    1.000,"P-2-1",          4972,   160.610E-03,   71.1383E-03,            0.,NA,NA,"",   1.01485E+06,   1.00696E+06,   1.00696E+06
C:/temp/Job-2.odb,Step-1,Increment      1: Step Time =    1.000,"P-2-1",          4973,   69.9674E-03,   40.6667E-03,            0.,NA,NA,"",   1.05979E+06,   1.06476E+06,   1.06476E+06
C:/temp/Job-2.odb,Step-1,Increment      1: Step Time =    1.000,"P-2-1",          4974,   107.908E-03,   149.085E-03,            0.,NA,NA,"",   1.03780E+06,   1.06877E+06,   1.06877E+06
C:/temp/Job-2.odb,Step-1,Increment      1: Step Time =    1.000,"P-2-1",          4975,   160.520E-03,   95.7241E-03,            0.,NA,NA,"",   929.465E+03,   940.022E+03,   940.022E+03
C:/temp/Job-2.odb,Step-1,Increment      1: Step Time =    1.000,"P-2-1",          4976,   94.4051E-03,   37.4324E-03,            0.,NA,NA,"",   1.01375E+06,   1.03381E+06,   1.03381E+06
C:/temp/Job-2.odb,Step-1,Increment      1: Step Time =    1.000,"P-2-1",          4977,   51.0972E-03,   108.206E-03,            0.,NA,NA,"",   819.540E+03,   870.528E+03,   870.528E+03
C:/temp/Job-2.odb,Step-1,Increment      1: Step Time =    1.000,"P-2-1",          4978,   74.7883E-03,   159.613E-03,            0.,NA,NA,"",   1.05440E+06,   1.06172E+06,   1.06172E+06
C:/temp/Job-2.odb,Step-1,Increment      1: Step Time =    1.000,"P-2-1",          4979,   40.1578E-03,   75.5974E-03,            0.,NA,NA,"",   906.596E+03,   958.466E+03,   958.466E+03
C:/temp/Job-2.odb,Step-1,Increment      1: Step Time =    1.000,"P-2-1",          4980,   160.631E-03,   124.679E-03,            0.,NA,NA,"",   1.00172E+06,   996.301E+03,   996.301E+03
C:/temp/Job-2.odb,Step-1,Increment      1: Step Time =    1.000,"P-2-1",          4981,   125.178E-03,   40.8626E-03,            0.,NA,NA,"",   1.05312E+06,   1.05157E+06,   1.05157E+06
C:/temp/Job-2.odb,Step-1,Increment      1: Step Time =    1.000,"P-2-1",          4982,   132.917E-03,   161.476E-03,            0.,NA,NA,"",   1.05164E+06,   1.04462E+06,   1.04462E+06
C:/temp/Job-2.odb,Step-1,Increment      1: Step Time =    1.000,"P-2-1",          4983,   39.2986E-03,   133.893E-03,            0.,NA,NA,"",   947.107E+03,   993.178E+03,   993.178E+03
C:/temp/Job-2.odb,Step-1,Increment      1: Step Time =    1.000,"P-2-1",          4984,   161.220E-03,   66.2707E-03,            0.,NA,NA,"",   1.02597E+06,   1.01643E+06,   1.01643E+06
C:/temp/Job-2.odb,Step-1,Increment      1: Step Time =    1.000,"P-2-1",          4985,   66.2500E-03,   40.4250E-03,            0.,NA,NA,"",   1.06095E+06,   1.06520E+06,   1.06520E+06
C:/temp/Job-2.odb,Step-1,Increment      1: Step Time =    1.000,"P-2-1",          4986,   142.885E-03,   122.301E-03,            0.,NA,NA,"",   1.03511E+06,   1.00684E+06,   1.00684E+06
C:/temp/Job-2.odb,Step-1,Increment      1: Step Time =    1.000,"P-2-1",          4987,   121.884E-03,   51.5537E-03,            0.,NA,NA,"",   1.08686E+06,   1.08569E+06,   1.08569E+06
C:/temp/Job-2.odb,Step-1,Increment      1: Step Time =    1.000,"P-2-1",          4988,   77.6454E-03,   147.799E-03,            0.,NA,NA,"",   1.08620E+06,   1.09478E+06,   1.09478E+06
C:/temp/Job-2.odb,Step-1,Increment      1: Step Time =    1.000,"P-2-1",          4989,   137.613E-03,   123.849E-03,            0.,NA,NA,"",   1.08149E+06,   1.03963E+06,   1.03963E+06
C:/temp/Job-2.odb,Step-1,Increment      1: Step Time =    1.000,"P-2-1",          4990,   38.7166E-03,   153.658E-03,            0.,NA,NA,"",   1.00960E+06,   1.04342E+06,   1.04342E+06
C:/temp/Job-2.odb,Step-1,Increment      1: Step Time =    1.000,"P-2-1",          4991,   46.4276E-03,   38.8616E-03,            0.,NA,NA,"",   1.04255E+06,   1.05903E+06,   1.05903E+06
C:/temp/Job-2.odb,Step-1,Increment      1: Step Time =    1.000,"P-2-1",          4992,   153.343E-03,   160.231E-03,            0.,NA,NA,"",   1.04211E+06,   1.03156E+06,   1.03156E+06
C:/temp/Job-2.odb,Step-1,Increment      1: Step Time =    1.000,"P-2-1",          4993,   160.924E-03,   46.3591E-03,            0.,NA,NA,"",   1.03717E+06,   1.02751E+06,   1.02751E+06
C:/temp/Job-2.odb,Step-1,Increment      1: Step Time =    1.000,"P-2-1",          4994,   40.7809E-03,   89.6576E-03,            0.,NA,NA,"",   838.000E+03,   900.408E+03,   900.408E+03
C:/temp/Job-2.odb,Step-1,Increment      1: Step Time =    1.000,"P-2-1",          4995,   112.341E-03,   38.3883E-03,            0.,NA,NA,"",   1.02352E+06,   1.03725E+06,   1.03725E+06
C:/temp/Job-2.odb,Step-1,Increment      1: Step Time =    1.000,"P-2-1",          4996,   160.316E-03,   110.419E-03,            0.,NA,NA,"",   945.628E+03,   952.250E+03,   952.250E+03
C:/temp/Job-2.odb,Step-1,Increment      1: Step Time =    1.000,"P-2-1",          4997,   89.4561E-03,   161.415E-03,            0.,NA,NA,"",   1.02304E+06,   1.04136E+06,   1.04136E+06
C:/temp/Job-2.odb,Step-1,Increment      1: Step Time =    1.000,"P-2-1",          4998,   155.069E-03,   163.531E-03,            0.,NA,NA,"",   1.03512E+06,   1.02632E+06,   1.02632E+06
C:/temp/Job-2.odb,Step-1,Increment      1: Step Time =    1.000,"P-2-1",          4999,   164.323E-03,   44.7412E-03,            0.,NA,NA,"",   1.03044E+06,   1.02289E+06,   1.02289E+06
C:/temp/Job-2.odb,Step-1,Increment      1: Step Time =    1.000,"P-2-1",          5000,   35.4953E-03,   155.360E-03,            0.,NA,NA,"",   1.00428E+06,   1.04256E+06,   1.04256E+06
C:/temp/Job-2.odb,Step-1,Increment      1: Step Time =    1.000,"P-2-1",          5001,   44.9110E-03,   35.8171E-03,            0.,NA,NA,"",   1.04281E+06,   1.05926E+06,   1.05926E+06
C:/temp/Job-2.odb,Step-1,Increment      1: Step Time =    1.000,"P-2-1",          5002,   148.201E-03,   102.180E-03,            0.,NA,NA,"",   868.020E+03,   879.015E+03,   879.015E+03
C:/temp/Job-2.odb,Step-1,Increment      1: Step Time =    1.000,"P-2-1",          5003,   35.6649E-03,   38.0324E-03,            0.,NA,NA,"",   1.02263E+06,   1.05477E+06,   1.05477E+06
C:/temp/Job-2.odb,Step-1,Increment      1: Step Time =    1.000,"P-2-1",          5004,   159.686E-03,   35.8085E-03,            0.,NA,NA,"",   1.02940E+06,   1.02199E+06,   1.02199E+06
C:/temp/Job-2.odb,Step-1,Increment      1: Step Time =    1.000,"P-2-1",          5005,   39.4226E-03,   164.396E-03,            0.,NA,NA,"",   1.03467E+06,   1.05861E+06,   1.05861E+06
C:/temp/Job-2.odb,Step-1,Increment      1: Step Time =    1.000,"P-2-1",          5006,   166.243E-03,   162.988E-03,            0.,NA,NA,"",   1.02264E+06,   1.01725E+06,   1.01725E+06
C:/temp/Job-2.odb,Step-1,Increment      1: Step Time =    1.000,"P-2-1",          5007,   152.213E-03,   100.531E-03,            0.,NA,NA,"",   890.071E+03,   901.127E+03,   901.127E+03
C:/temp/Job-2.odb,Step-1,Increment      1: Step Time =    1.000,"P-2-1",          5008,   146.000E-03,   165.564E-03,            0.,NA,NA,"",   1.03910E+06,   1.03017E+06,   1.03017E+06
C:/temp/Job-2.odb,Step-1,Increment      1: Step Time =    1.000,"P-2-1",          5009,   164.402E-03,   53.9834E-03,            0.,NA,NA,"",   1.03190E+06,   1.02349E+06,   1.02349E+06
C:/temp/Job-2.odb,Step-1,Increment      1: Step Time =    1.000,"P-2-1",          5010,   36.3293E-03,   146.869E-03,            0.,NA,NA,"",   982.172E+03,   1.02508E+06,   1.02508E+06
C:/temp/Job-2.odb,Step-1,Increment      1: Step Time =    1.000,"P-2-1",          5011,   54.0370E-03,   35.3747E-03,            0.,NA,NA,"",   1.05073E+06,   1.05845E+06,   1.05845E+06
C:/temp/Job-2.odb,Step-1,Increment      1: Step Time =    1.000,"P-2-1",          5012,   126.778E-03,   62.9696E-03,            0.,NA,NA,"",   1.14977E+06,   1.12149E+06,   1.12149E+06
C:/temp/Job-2.odb,Step-1,Increment      1: Step Time =    1.000,"P-2-1",          5013,   123.358E-03,   57.4247E-03,            0.,NA,NA,"",   1.11975E+06,   1.10883E+06,   1.10883E+06
C:/temp/Job-2.odb,Step-1,Increment      1: Step Time =    1.000,"P-2-1",          5014,   94.5872E-03,   167.986E-03,            0.,NA,NA,"",   1.00638E+06,   1.02115E+06,   1.02115E+06
C:/temp/Job-2.odb,Step-1,Increment      1: Step Time =    1.000,"P-2-1",          5015,   33.0951E-03,   94.3249E-03,            0.,NA,NA,"",   822.167E+03,   895.926E+03,   895.926E+03
C:/temp/Job-2.odb,Step-1,Increment      1: Step Time =    1.000,"P-2-1",          5016,   142.279E-03,   88.5109E-03,            0.,NA,NA,"",   913.255E+03,   905.481E+03,   905.481E+03
C:/temp/Job-2.odb,Step-1,Increment      1: Step Time =    1.000,"P-2-1",          5017,   117.304E-03,   38.4368E-03,            0.,NA,NA,"",   1.03278E+06,   1.04076E+06,   1.04076E+06
C:/temp/Job-2.odb,Step-1,Increment      1: Step Time =    1.000,"P-2-1",          5018,   83.9080E-03,   161.635E-03,            0.,NA,NA,"",   1.03356E+06,   1.04740E+06,   1.04740E+06
C:/temp/Job-2.odb,Step-1,Increment      1: Step Time =    1.000,"P-2-1",          5019,   39.6397E-03,   84.5936E-03,            0.,NA,NA,"",   858.747E+03,   919.267E+03,   919.267E+03
C:/temp/Job-2.odb,Step-1,Increment      1: Step Time =    1.000,"P-2-1",          5020,   160.552E-03,   117.287E-03,            0.,NA,NA,"",   973.057E+03,   973.883E+03,   973.883E+03
C:/temp/Job-2.odb,Step-1,Increment      1: Step Time =    1.000,"P-2-1",          5021,   39.7138E-03,   148.308E-03,            0.,NA,NA,"",   999.173E+03,   1.03466E+06,   1.03466E+06
C:/temp/Job-2.odb,Step-1,Increment      1: Step Time =    1.000,"P-2-1",          5022,   52.0508E-03,   39.0284E-03,            0.,NA,NA,"",   1.05052E+06,   1.06103E+06,   1.06103E+06
C:/temp/Job-2.odb,Step-1,Increment      1: Step Time =    1.000,"P-2-1",          5023,   148.438E-03,   160.933E-03,            0.,NA,NA,"",   1.04659E+06,   1.03548E+06,   1.03548E+06
C:/temp/Job-2.odb,Step-1,Increment      1: Step Time =    1.000,"P-2-1",          5024,   160.918E-03,   51.9487E-03,            0.,NA,NA,"",   1.03907E+06,   1.02842E+06,   1.02842E+06
C:/temp/Job-2.odb,Step-1,Increment      1: Step Time =    1.000,"P-2-1",          5025,   83.7134E-03,   58.0464E-03,            0.,NA,NA,"",   1.09534E+06,   1.11500E+06,   1.11500E+06
C:/temp/Job-2.odb,Step-1,Increment      1: Step Time =    1.000,"P-2-1",          5026,   86.8105E-03,   51.3417E-03,            0.,NA,NA,"",   1.05635E+06,   1.08180E+06,   1.08180E+06
C:/temp/Job-2.odb,Step-1,Increment      1: Step Time =    1.000,"P-2-1",          5027,   147.080E-03,   105.812E-03,            0.,NA,NA,"",   877.500E+03,   885.048E+03,   885.048E+03
C:/temp/Job-2.odb,Step-1,Increment      1: Step Time =    1.000,"P-2-1",          5028,   148.333E-03,   110.105E-03,            0.,NA,NA,"",   914.605E+03,   915.799E+03,   915.799E+03
C:/temp/Job-2.odb,Step-1,Increment      1: Step Time =    1.000,"P-2-1",          5029,   52.8067E-03,   93.3964E-03,            0.,NA,NA,"",   806.422E+03,   857.015E+03,   857.015E+03
C:/temp/Job-2.odb,Step-1,Increment      1: Step Time =    1.000,"P-2-1",          5030,   50.0868E-03,   88.2789E-03,            0.,NA,NA,"",   847.225E+03,   895.137E+03,   895.137E+03
C:/temp/Job-2.odb,Step-1,Increment      1: Step Time =    1.000,"P-2-1",          5031,   94.7476E-03,   147.254E-03,            0.,NA,NA,"",   1.03397E+06,   1.07384E+06,   1.07384E+06
C:/temp/Job-2.odb,Step-1,Increment      1: Step Time =    1.000,"P-2-1",          5032,   98.7471E-03,   150.830E-03,            0.,NA,NA,"",   1.02352E+06,   1.05968E+06,   1.05968E+06
C:/temp/Job-2.odb,Step-1,Increment      1: Step Time =    1.000,"P-2-1",          5033,   104.905E-03,   51.4801E-03,            0.,NA,NA,"",   1.03102E+06,   1.06727E+06,   1.06727E+06
C:/temp/Job-2.odb,Step-1,Increment      1: Step Time =    1.000,"P-2-1",          5034,   100.652E-03,   50.6775E-03,            0.,NA,NA,"",   1.02521E+06,   1.06333E+06,   1.06333E+06
C:/temp/Job-2.odb,Step-1,Increment      1: Step Time =    1.000,"P-2-1",          5035,   50.1514E-03,   115.120E-03,            0.,NA,NA,"",   873.961E+03,   916.886E+03,   916.886E+03
C:/temp/Job-2.odb,Step-1,Increment      1: Step Time =    1.000,"P-2-1",          5036,   74.4924E-03,   143.430E-03,            0.,NA,NA,"",   1.10546E+06,   1.10662E+06,   1.10662E+06
C:/temp/Job-2.odb,Step-1,Increment      1: Step Time =    1.000,"P-2-1",          5037,   109.651E-03,   34.6793E-03,            0.,NA,NA,"",   1.01321E+06,   1.02666E+06,   1.02666E+06
C:/temp/Job-2.odb,Step-1,Increment      1: Step Time =    1.000,"P-2-1",          5038,   165.581E-03,   108.709E-03,            0.,NA,NA,"",   950.550E+03,   960.479E+03,   960.479E+03
C:/temp/Job-2.odb,Step-1,Increment      1: Step Time =    1.000,"P-2-1",          5039,   70.5407E-03,   55.5888E-03,            0.,NA,NA,"",   1.09962E+06,   1.09881E+06,   1.09881E+06
C:/temp/Job-2.odb,Step-1,Increment      1: Step Time =    1.000,"P-2-1",          5040,   129.010E-03,   142.124E-03,            0.,NA,NA,"",   1.12183E+06,   1.10061E+06,   1.10061E+06
C:/temp/Job-2.odb,Step-1,Increment      1: Step Time =    1.000,"P-2-1",          5041,   70.8702E-03,   143.086E-03,            0.,NA,NA,"",   1.10302E+06,   1.10129E+06,   1.10129E+06
C:/temp/Job-2.odb,Step-1,Increment      1: Step Time =    1.000,"P-2-1",          5042,   144.163E-03,   78.8655E-03,            0.,NA,NA,"",   1.01957E+06,   995.339E+03,   995.339E+03
C:/temp/Job-2.odb,Step-1,Increment      1: Step Time =    1.000,"P-2-1",          5043,   139.410E-03,   132.021E-03,            0.,NA,NA,"",   1.10409E+06,   1.06821E+06,   1.06821E+06
C:/temp/Job-2.odb,Step-1,Increment      1: Step Time =    1.000,"P-2-1",          5044,   92.7374E-03,   50.9717E-03,            0.,NA,NA,"",   1.03576E+06,   1.07072E+06,   1.07072E+06
C:/temp/Job-2.odb,Step-1,Increment      1: Step Time =    1.000,"P-2-1",          5045,   146.764E-03,   116.246E-03,            0.,NA,NA,"",   967.398E+03,   955.710E+03,   955.710E+03
C:/temp/Job-2.odb,Step-1,Increment      1: Step Time =    1.000,"P-2-1",          5046,   139.285E-03,   69.2336E-03,            0.,NA,NA,"",   1.10229E+06,   1.06524E+06,   1.06524E+06
C:/temp/Job-2.odb,Step-1,Increment      1: Step Time =    1.000,"P-2-1",          5047,   39.6439E-03,   101.684E-03,            0.,NA,NA,"",   817.322E+03,   884.532E+03,   884.532E+03
C:/temp/Job-2.odb,Step-1,Increment      1: Step Time =    1.000,"P-2-1",          5048,   99.8146E-03,   161.503E-03,            0.,NA,NA,"",   1.01199E+06,   1.03364E+06,   1.03364E+06
C:/temp/Job-2.odb,Step-1,Increment      1: Step Time =    1.000,"P-2-1",          5049,   148.401E-03,   83.9596E-03,            0.,NA,NA,"",   964.592E+03,   955.295E+03,   955.295E+03
C:/temp/Job-2.odb,Step-1,Increment      1: Step Time =    1.000,"P-2-1",          5050,   89.3307E-03,   37.2823E-03,            0.,NA,NA,"",   1.02104E+06,   1.03819E+06,   1.03819E+06
C:/temp/Job-2.odb,Step-1,Increment      1: Step Time =    1.000,"P-2-1",          5051,   164.340E-03,   90.7152E-03,            0.,NA,NA,"",   948.917E+03,   958.186E+03,   958.186E+03
C:/temp/Job-2.odb,Step-1,Increment      1: Step Time =    1.000,"P-2-1",          5052,   57.6608E-03,   37.4690E-03,            0.,NA,NA,"",   1.05436E+06,   1.06048E+06,   1.06048E+06
C:/temp/Job-2.odb,Step-1,Increment      1: Step Time =    1.000,"P-2-1",          5053,   163.655E-03,   60.2690E-03,            0.,NA,NA,"",   1.02981E+06,   1.02107E+06,   1.02107E+06
C:/temp/Job-2.odb,Step-1,Increment      1: Step Time =    1.000,"P-2-1",          5054,   38.2407E-03,   141.433E-03,            0.,NA,NA,"",   971.777E+03,   1.01460E+06,   1.01460E+06
C:/temp/Job-2.odb,Step-1,Increment      1: Step Time =    1.000,"P-2-1",          5055,   141.767E-03,   165.048E-03,            0.,NA,NA,"",   1.04198E+06,   1.03330E+06,   1.03330E+06
C:/temp/Job-2.odb,Step-1,Increment      1: Step Time =    1.000,"P-2-1",          5056,   116.419E-03,   167.892E-03,            0.,NA,NA,"",   1.01696E+06,   1.02396E+06,   1.02396E+06
C:/temp/Job-2.odb,Step-1,Increment      1: Step Time =    1.000,"P-2-1",          5057,   32.6070E-03,   115.584E-03,            0.,NA,NA,"",    847.38E+03,   917.851E+03,   917.851E+03
C:/temp/Job-2.odb,Step-1,Increment      1: Step Time =    1.000,"P-2-1",          5058,   168.643E-03,   83.9422E-03,            0.,NA,NA,"",   971.585E+03,   978.814E+03,   978.814E+03
C:/temp/Job-2.odb,Step-1,Increment      1: Step Time =    1.000,"P-2-1",          5059,   83.9680E-03,   34.0442E-03,            0.,NA,NA,"",   1.02429E+06,   1.03587E+06,   1.03587E+06
C:/temp/Job-2.odb,Step-1,Increment      1: Step Time =    1.000,"P-2-1",          5060,   145.974E-03,   89.0661E-03,            0.,NA,NA,"",   914.148E+03,   912.017E+03,   912.017E+03
C:/temp/Job-2.odb,Step-1,Increment      1: Step Time =    1.000,"P-2-1",          5061,   98.3613E-03,   38.4801E-03,            0.,NA,NA,"",   1.01230E+06,   1.03380E+06,   1.03380E+06
C:/temp/Job-2.odb,Step-1,Increment      1: Step Time =    1.000,"P-2-1",          5062,   158.363E-03,   96.4366E-03,            0.,NA,NA,"",   920.999E+03,   931.490E+03,   931.490E+03
C:/temp/Job-2.odb,Step-1,Increment      1: Step Time =    1.000,"P-2-1",          5063,   34.2380E-03,   109.210E-03,            0.,NA,NA,"",   830.195E+03,   901.532E+03,   901.532E+03
C:/temp/Job-2.odb,Step-1,Increment      1: Step Time =    1.000,"P-2-1",          5064,   109.009E-03,   166.387E-03,            0.,NA,NA,"",   1.01075E+06,   1.02391E+06,   1.02391E+06
C:/temp/Job-2.odb,Step-1,Increment      1: Step Time =    1.000,"P-2-1",          5065,   62.4742E-03,   136.794E-03,            0.,NA,NA,"",   1.07951E+06,   1.07744E+06,   1.07744E+06
C:/temp/Job-2.odb,Step-1,Increment      1: Step Time =    1.000,"P-2-1",          5066,   51.9649E-03,   166.336E-03,            0.,NA,NA,"",   1.04882E+06,   1.05738E+06,   1.05738E+06
C:/temp/Job-2.odb,Step-1,Increment      1: Step Time =    1.000,"P-2-1",          5067,   34.7360E-03,   54.3403E-03,            0.,NA,NA,"",   971.486E+03,   1.01854E+06,   1.01854E+06
C:/temp/Job-2.odb,Step-1,Increment      1: Step Time =    1.000,"P-2-1",          5068,   165.461E-03,   147.371E-03,            0.,NA,NA,"",   1.03000E+06,   1.02243E+06,   1.02243E+06
C:/temp/Job-2.odb,Step-1,Increment      1: Step Time =    1.000,"P-2-1",          5069,   146.885E-03,   33.9760E-03,            0.,NA,NA,"",   1.03789E+06,   1.02908E+06,   1.02908E+06
C:/temp/Job-2.odb,Step-1,Increment      1: Step Time =    1.000,"P-2-1",          5070,   110.651E-03,   150.702E-03,            0.,NA,NA,"",   1.04277E+06,   1.06667E+06,   1.06667E+06
C:/temp/Job-2.odb,Step-1,Increment      1: Step Time =    1.000,"P-2-1",          5071,   50.7880E-03,   110.486E-03,            0.,NA,NA,"",   836.690E+03,   885.087E+03,   885.087E+03
C:/temp/Job-2.odb,Step-1,Increment      1: Step Time =    1.000,"P-2-1",          5072,   73.4552E-03,   157.576E-03,            0.,NA,NA,"",   1.06100E+06,   1.06749E+06,   1.06749E+06
C:/temp/Job-2.odb,Step-1,Increment      1: Step Time =    1.000,"P-2-1",          5073,   77.5044E-03,   161.268E-03,            0.,NA,NA,"",   1.04606E+06,   1.05501E+06,   1.05501E+06
C:/temp/Job-2.odb,Step-1,Increment      1: Step Time =    1.000,"P-2-1",          5074,   40.9422E-03,   73.5959E-03,            0.,NA,NA,"",   919.829E+03,   968.543E+03,   968.543E+03
C:/temp/Job-2.odb,Step-1,Increment      1: Step Time =    1.000,"P-2-1",          5075,   39.4913E-03,   78.1034E-03,            0.,NA,NA,"",   890.629E+03,   946.059E+03,   946.059E+03
C:/temp/Job-2.odb,Step-1,Increment      1: Step Time =    1.000,"P-2-1",          5076,   157.576E-03,   125.313E-03,            0.,NA,NA,"",   1.00969E+06,   1.00052E+06,   1.00052E+06
C:/temp/Job-2.odb,Step-1,Increment      1: Step Time =    1.000,"P-2-1",          5077,   161.875E-03,   121.795E-03,            0.,NA,NA,"",   989.457E+03,   987.598E+03,   987.598E+03
C:/temp/Job-2.odb,Step-1,Increment      1: Step Time =    1.000,"P-2-1",          5078,   126.853E-03,   41.8495E-03,            0.,NA,NA,"",   1.05793E+06,   1.05419E+06,   1.05419E+06
C:/temp/Job-2.odb,Step-1,Increment      1: Step Time =    1.000,"P-2-1",          5079,   122.483E-03,   40.5005E-03,            0.,NA,NA,"",   1.04782E+06,   1.04954E+06,   1.04954E+06
C:/temp/Job-2.odb,Step-1,Increment      1: Step Time =    1.000,"P-2-1",          5080,   132.124E-03,   157.638E-03,            0.,NA,NA,"",   1.06316E+06,   1.05457E+06,   1.05457E+06
C:/temp/Job-2.odb,Step-1,Increment      1: Step Time =    1.000,"P-2-1",          5081,   135.294E-03,   162.213E-03,            0.,NA,NA,"",   1.05008E+06,   1.04206E+06,   1.04206E+06
C:/temp/Job-2.odb,Step-1,Increment      1: Step Time =    1.000,"P-2-1",          5082,   38.9233E-03,   137.214E-03,            0.,NA,NA,"",   959.459E+03,   1.00384E+06,   1.00384E+06
C:/temp/Job-2.odb,Step-1,Increment      1: Step Time =    1.000,"P-2-1",          5083,   41.5350E-03,   131.454E-03,            0.,NA,NA,"",   945.808E+03,    989.17E+03,    989.17E+03
C:/temp/Job-2.odb,Step-1,Increment      1: Step Time =    1.000,"P-2-1",          5084,   160.057E-03,   62.6328E-03,            0.,NA,NA,"",   1.03470E+06,   1.02326E+06,   1.02326E+06
C:/temp/Job-2.odb,Step-1,Increment      1: Step Time =    1.000,"P-2-1",          5085,   159.536E-03,   68.4693E-03,            0.,NA,NA,"",   1.02448E+06,   1.01416E+06,   1.01416E+06
C:/temp/Job-2.odb,Step-1,Increment      1: Step Time =    1.000,"P-2-1",          5086,   68.0793E-03,   42.1832E-03,            0.,NA,NA,"",   1.06421E+06,   1.06859E+06,   1.06859E+06
C:/temp/Job-2.odb,Step-1,Increment      1: Step Time =    1.000,"P-2-1",          5087,   62.3252E-03,   40.0107E-03,            0.,NA,NA,"",   1.05980E+06,   1.06447E+06,   1.06447E+06
C:/temp/Job-2.odb,Step-1,Increment      1: Step Time =    1.000,"P-2-1",          5088,   142.552E-03,   124.770E-03,            0.,NA,NA,"",   1.05546E+06,   1.02436E+06,   1.02436E+06
C:/temp/Job-2.odb,Step-1,Increment      1: Step Time =    1.000,"P-2-1",          5089,   120.082E-03,   50.2587E-03,            0.,NA,NA,"",   1.07657E+06,   1.07992E+06,   1.07992E+06
C:/temp/Job-2.odb,Step-1,Increment      1: Step Time =    1.000,"P-2-1",          5090,   80.6922E-03,   149.637E-03,            0.,NA,NA,"",   1.07288E+06,   1.08658E+06,   1.08658E+06
C:/temp/Job-2.odb,Step-1,Increment      1: Step Time =    1.000,"P-2-1",          5091,   37.7213E-03,   58.2870E-03,            0.,NA,NA,"",   970.136E+03,   1.01416E+06,   1.01416E+06
C:/temp/Job-2.odb,Step-1,Increment      1: Step Time =    1.000,"P-2-1",          5092,   144.352E-03,   35.8008E-03,            0.,NA,NA,"",   1.04283E+06,   1.03331E+06,   1.03331E+06
C:/temp/Job-2.odb,Step-1,Increment      1: Step Time =    1.000,"P-2-1",          5093,   55.4473E-03,   165.023E-03,            0.,NA,NA,"",   1.05118E+06,   1.05788E+06,   1.05788E+06
C:/temp/Job-2.odb,Step-1,Increment      1: Step Time =    1.000,"P-2-1",          5094,   162.736E-03,   143.029E-03,            0.,NA,NA,"",   1.03453E+06,   1.02480E+06,   1.02480E+06
C:/temp/Job-2.odb,Step-1,Increment      1: Step Time =    1.000,"P-2-1",          5095,   39.2470E-03,   151.148E-03,            0.,NA,NA,"",   1.00496E+06,   1.03951E+06,   1.03951E+06
C:/temp/Job-2.odb,Step-1,Increment      1: Step Time =    1.000,"P-2-1",          5096,   48.7606E-03,   40.0265E-03,            0.,NA,NA,"",   1.04554E+06,   1.05987E+06,   1.05987E+06
C:/temp/Job-2.odb,Step-1,Increment      1: Step Time =    1.000,"P-2-1",          5097,   151.084E-03,   159.390E-03,            0.,NA,NA,"",   1.04638E+06,   1.03491E+06,   1.03491E+06
C:/temp/Job-2.odb,Step-1,Increment      1: Step Time =    1.000,"P-2-1",          5098,   159.669E-03,   48.8380E-03,            0.,NA,NA,"",   1.04105E+06,   1.03006E+06,   1.03006E+06
C:/temp/Job-2.odb,Step-1,Increment      1: Step Time =    1.000,"P-2-1",          5099,   41.9221E-03,   87.0222E-03,            0.,NA,NA,"",   850.866E+03,   909.780E+03,   909.780E+03
C:/temp/Job-2.odb,Step-1,Increment      1: Step Time =    1.000,"P-2-1",          5100,   113.710E-03,   40.6460E-03,            0.,NA,NA,"",   1.03099E+06,   1.04428E+06,   1.04428E+06
C:/temp/Job-2.odb,Step-1,Increment      1: Step Time =    1.000,"P-2-1",          5101,   157.883E-03,   113.209E-03,            0.,NA,NA,"",   952.923E+03,   955.838E+03,   955.838E+03
C:/temp/Job-2.odb,Step-1,Increment      1: Step Time =    1.000,"P-2-1",          5102,   87.6204E-03,   159.834E-03,            0.,NA,NA,"",   1.02996E+06,   1.04813E+06,   1.04813E+06
C:/temp/Job-2.odb,Step-1,Increment      1: Step Time =    1.000,"P-2-1",          5103,   138.538E-03,   76.4136E-03,            0.,NA,NA,"",   1.07011E+06,   1.03102E+06,   1.03102E+06
C:/temp/Job-2.odb,Step-1,Increment      1: Step Time =    1.000,"P-2-1",          5104,   62.0697E-03,   67.0142E-03,            0.,NA,NA,"",   1.07103E+06,   1.06799E+06,   1.06799E+06
C:/temp/Job-2.odb,Step-1,Increment      1: Step Time =    1.000,"P-2-1",          5105,   36.4542E-03,   104.309E-03,            0.,NA,NA,"",   821.181E+03,   891.488E+03,   891.488E+03
C:/temp/Job-2.odb,Step-1,Increment      1: Step Time =    1.000,"P-2-1",          5106,   106.400E-03,   165.149E-03,            0.,NA,NA,"",   1.01027E+06,   1.02585E+06,   1.02585E+06
C:/temp/Job-2.odb,Step-1,Increment      1: Step Time =    1.000,"P-2-1",          5107,   48.9246E-03,   104.474E-03,            0.,NA,NA,"",   806.548E+03,   863.368E+03,   863.368E+03
C:/temp/Job-2.odb,Step-1,Increment      1: Step Time =    1.000,"P-2-1",          5108,   39.6057E-03,   61.9873E-03,            0.,NA,NA,"",   965.141E+03,   1.00773E+06,   1.00773E+06
C:/temp/Job-2.odb,Step-1,Increment      1: Step Time =    1.000,"P-2-1",          5109,   138.429E-03,   38.9750E-03,            0.,NA,NA,"",   1.05340E+06,   1.04322E+06,   1.04322E+06
C:/temp/Job-2.odb,Step-1,Increment      1: Step Time =    1.000,"P-2-1",          5110,   62.2354E-03,   161.970E-03,            0.,NA,NA,"",   1.05707E+06,   1.06147E+06,   1.06147E+06
C:/temp/Job-2.odb,Step-1,Increment      1: Step Time =    1.000,"P-2-1",          5111,   160.547E-03,   137.092E-03,            0.,NA,NA,"",   1.03379E+06,   1.02268E+06,   1.02268E+06
C:/temp/Job-2.odb,Step-1,Increment      1: Step Time =    1.000,"P-2-1",          5112,   149.871E-03,   89.6425E-03,            0.,NA,NA,"",   919.573E+03,   921.401E+03,   921.401E+03
C:/temp/Job-2.odb,Step-1,Increment      1: Step Time =    1.000,"P-2-1",          5113,   55.9590E-03,   79.7413E-03,            0.,NA,NA,"",   943.076E+03,   964.219E+03,   964.219E+03
C:/temp/Job-2.odb,Step-1,Increment      1: Step Time =    1.000,"P-2-1",          5114,   36.3710E-03,   121.617E-03,            0.,NA,NA,"",   879.338E+03,   940.603E+03,   940.603E+03
C:/temp/Job-2.odb,Step-1,Increment      1: Step Time =    1.000,"P-2-1",          5115,   162.991E-03,   79.8737E-03,            0.,NA,NA,"",   983.003E+03,   983.333E+03,   983.333E+03
C:/temp/Job-2.odb,Step-1,Increment      1: Step Time =    1.000,"P-2-1",          5116,   123.589E-03,   163.285E-03,            0.,NA,NA,"",   1.03772E+06,   1.03900E+06,   1.03900E+06
C:/temp/Job-2.odb,Step-1,Increment      1: Step Time =    1.000,"P-2-1",          5117,   159.912E-03,   93.5254E-03,            0.,NA,NA,"",   931.904E+03,   941.307E+03,   941.307E+03
C:/temp/Job-2.odb,Step-1,Increment      1: Step Time =    1.000,"P-2-1",          5118,   90.5545E-03,   40.3194E-03,            0.,NA,NA,"",   1.02427E+06,   1.04483E+06,   1.04483E+06
C:/temp/Job-2.odb,Step-1,Increment      1: Step Time =    1.000,"P-2-1",          5119,   59.6839E-03,   132.403E-03,            0.,NA,NA,"",   1.05202E+06,   1.05401E+06,   1.05401E+06
C:/temp/Job-2.odb,Step-1,Increment      1: Step Time =    1.000,"P-2-1",          5120,   96.0739E-03,   50.6047E-03,            0.,NA,NA,"",   1.02757E+06,   1.06537E+06,   1.06537E+06
C:/temp/Job-2.odb,Step-1,Increment      1: Step Time =    1.000,"P-2-1",          5121,   130.687E-03,   137.510E-03,            0.,NA,NA,"",   1.13842E+06,   1.10715E+06,   1.10715E+06
C:/temp/Job-2.odb,Step-1,Increment      1: Step Time =    1.000,"P-2-1",          5122,   68.0779E-03,   62.0385E-03,            0.,NA,NA,"",   1.10811E+06,   1.10092E+06,   1.10092E+06
C:/temp/Job-2.odb,Step-1,Increment      1: Step Time =    1.000,"P-2-1",          5123,   91.4656E-03,   160.466E-03,            0.,NA,NA,"",   1.02124E+06,   1.04165E+06,   1.04165E+06
C:/temp/Job-2.odb,Step-1,Increment      1: Step Time =    1.000,"P-2-1",          5124,   160.219E-03,   108.013E-03,            0.,NA,NA,"",   937.312E+03,   945.685E+03,   945.685E+03
C:/temp/Job-2.odb,Step-1,Increment      1: Step Time =    1.000,"P-2-1",          5125,   109.622E-03,   40.2431E-03,            0.,NA,NA,"",   1.02257E+06,   1.04023E+06,   1.04023E+06
C:/temp/Job-2.odb,Step-1,Increment      1: Step Time =    1.000,"P-2-1",          5126,   41.5956E-03,   92.0362E-03,            0.,NA,NA,"",   828.711E+03,   891.735E+03,   891.735E+03
C:/temp/Job-2.odb,Step-1,Increment      1: Step Time =    1.000,"P-2-1",          5127,   160.098E-03,   42.9081E-03,            0.,NA,NA,"",   1.03582E+06,   1.02665E+06,   1.02665E+06
C:/temp/Job-2.odb,Step-1,Increment      1: Step Time =    1.000,"P-2-1",          5128,   43.3184E-03,   39.4788E-03,            0.,NA,NA,"",   1.03570E+06,   1.05707E+06,   1.05707E+06
C:/temp/Job-2.odb,Step-1,Increment      1: Step Time =    1.000,"P-2-1",          5129,   156.075E-03,   158.640E-03,            0.,NA,NA,"",   1.04054E+06,   1.03019E+06,   1.03019E+06
C:/temp/Job-2.odb,Step-1,Increment      1: Step Time =    1.000,"P-2-1",          5130,   39.8874E-03,   156.885E-03,            0.,NA,NA,"",   1.02153E+06,   1.05062E+06,   1.05062E+06
C:/temp/Job-2.odb,Step-1,Increment      1: Step Time =    1.000,"P-2-1",          5131,   52.8661E-03,   82.8799E-03,            0.,NA,NA,"",   898.005E+03,   931.871E+03,   931.871E+03
C:/temp/Job-2.odb,Step-1,Increment      1: Step Time =    1.000,"P-2-1",          5132,   74.3906E-03,   148.451E-03,            0.,NA,NA,"",   1.08799E+06,   1.09266E+06,   1.09266E+06
C:/temp/Job-2.odb,Step-1,Increment      1: Step Time =    1.000,"P-2-1",          5133,   125.230E-03,   50.9608E-03,            0.,NA,NA,"",   1.09027E+06,   1.08298E+06,   1.08298E+06
C:/temp/Job-2.odb,Step-1,Increment      1: Step Time =    1.000,"P-2-1",          5134,   106.651E-03,   37.4290E-03,            0.,NA,NA,"",   1.01429E+06,   1.03202E+06,   1.03202E+06
C:/temp/Job-2.odb,Step-1,Increment      1: Step Time =    1.000,"P-2-1",          5135,   162.441E-03,   105.069E-03,            0.,NA,NA,"",   935.856E+03,   946.538E+03,   946.538E+03
C:/temp/Job-2.odb,Step-1,Increment      1: Step Time =    1.000,"P-2-1",          5136,   87.0601E-03,   34.4384E-03,            0.,NA,NA,"",   1.01965E+06,   1.03343E+06,   1.03343E+06
C:/temp/Job-2.odb,Step-1,Increment      1: Step Time =    1.000,"P-2-1",          5137,   136.291E-03,   67.1001E-03,            0.,NA,NA,"",   1.12297E+06,   1.08421E+06,   1.08421E+06
C:/temp/Job-2.odb,Step-1,Increment      1: Step Time =    1.000,"P-2-1",          5138,   65.3155E-03,   62.9767E-03,            0.,NA,NA,"",   1.09467E+06,   1.08913E+06,   1.08913E+06
C:/temp/Job-2.odb,Step-1,Increment      1: Step Time =    1.000,"P-2-1",          5139,   133.062E-03,   138.456E-03,            0.,NA,NA,"",   1.12809E+06,   1.09721E+06,   1.09721E+06
C:/temp/Job-2.odb,Step-1,Increment      1: Step Time =    1.000,"P-2-1",          5140,   58.8045E-03,   73.2555E-03,            0.,NA,NA,"",   1.01911E+06,   1.02464E+06,   1.02464E+06
C:/temp/Job-2.odb,Step-1,Increment      1: Step Time =    1.000,"P-2-1",          5141,   47.4710E-03,   101.263E-03,            0.,NA,NA,"",   803.753E+03,   863.016E+03,   863.016E+03
C:/temp/Job-2.odb,Step-1,Increment      1: Step Time =    1.000,"P-2-1",          5142,   158.726E-03,   101.476E-03,            0.,NA,NA,"",   919.462E+03,   930.656E+03,   930.656E+03
C:/temp/Job-2.odb,Step-1,Increment      1: Step Time =    1.000,"P-2-1",          5143,   102.926E-03,   40.7940E-03,            0.,NA,NA,"",   1.01552E+06,   1.03854E+06,   1.03854E+06
C:/temp/Job-2.odb,Step-1,Increment      1: Step Time =    1.000,"P-2-1",          5144,   50.6075E-03,   86.5526E-03,            0.,NA,NA,"",   861.455E+03,   906.032E+03,   906.032E+03
C:/temp/Job-2.odb,Step-1,Increment      1: Step Time =    1.000,"P-2-1",          5145,   166.937E-03,   159.052E-03,            0.,NA,NA,"",   1.02429E+06,   1.01860E+06,   1.01860E+06
C:/temp/Job-2.odb,Step-1,Increment      1: Step Time =    1.000,"P-2-1",          5146,   41.6275E-03,   166.233E-03,            0.,NA,NA,"",   1.04074E+06,   1.06015E+06,   1.06015E+06
C:/temp/Job-2.odb,Step-1,Increment      1: Step Time =    1.000,"P-2-1",          5147,   157.974E-03,   34.0212E-03,            0.,NA,NA,"",   1.02865E+06,   1.02141E+06,   1.02141E+06
C:/temp/Job-2.odb,Step-1,Increment      1: Step Time =    1.000,"P-2-1",          5148,   34.4429E-03,   40.5004E-03,            0.,NA,NA,"",   1.01338E+06,   1.04988E+06,   1.04988E+06
C:/temp/Job-2.odb,Step-1,Increment      1: Step Time =    1.000,"P-2-1",          5149,   36.9327E-03,   94.4239E-03,            0.,NA,NA,"",   823.114E+03,   892.502E+03,   892.502E+03
C:/temp/Job-2.odb,Step-1,Increment      1: Step Time =    1.000,"P-2-1",          5150,   95.0461E-03,   161.507E-03,            0.,NA,NA,"",   1.01476E+06,   1.03595E+06,   1.03595E+06
C:/temp/Job-2.odb,Step-1,Increment      1: Step Time =    1.000,"P-2-1",          5151,   51.7119E-03,   99.4434E-03,            0.,NA,NA,"",   788.499E+03,   844.060E+03,   844.060E+03
C:/temp/Job-2.odb,Step-1,Increment      1: Step Time =    1.000,"P-2-1",          5152,   32.2241E-03,   180.595E-03,            0.,NA,NA,"",   1.05972E+06,   1.07544E+06,   1.07544E+06
C:/temp/Job-2.odb,Step-1,Increment      1: Step Time =    1.000,"P-2-1",          5153,   19.3863E-03,   32.2289E-03,            0.,NA,NA,"",   999.656E+03,   1.06041E+06,   1.06041E+06
C:/temp/Job-2.odb,Step-1,Increment      1: Step Time =    1.000,"P-2-1",          5154,   180.373E-03,   167.743E-03,            0.,NA,NA,"",   1.00625E+06,   1.00563E+06,   1.00563E+06
C:/temp/Job-2.odb,Step-1,Increment      1: Step Time =    1.000,"P-2-1",          5155,   167.787E-03,   19.4111E-03,            0.,NA,NA,"",   1.00633E+06,   1.00450E+06,   1.00450E+06
C:/temp/Job-2.odb,Step-1,Increment      1: Step Time =    1.000,"P-2-1",          5156,   66.0037E-03,   136.006E-03,            0.,NA,NA,"",   1.10053E+06,   1.09282E+06,   1.09282E+06
C:/temp/Job-2.odb,Step-1,Increment      1: Step Time =    1.000,"P-2-1",          5157,   180.512E-03,   35.6037E-03,            0.,NA,NA,"",   1.00696E+06,   1.00651E+06,   1.00651E+06
C:/temp/Job-2.odb,Step-1,Increment      1: Step Time =    1.000,"P-2-1",          5158,   35.4464E-03,   19.4134E-03,            0.,NA,NA,"",   1.05355E+06,   1.06591E+06,   1.06591E+06
C:/temp/Job-2.odb,Step-1,Increment      1: Step Time =    1.000,"P-2-1",          5159,   164.595E-03,   180.435E-03,            0.,NA,NA,"",   1.00732E+06,   1.00507E+06,   1.00507E+06
C:/temp/Job-2.odb,Step-1,Increment      1: Step Time =    1.000,"P-2-1",          5160,   19.4943E-03,   164.391E-03,            0.,NA,NA,"",   982.774E+03,   1.04727E+06,   1.04727E+06
C:/temp/Job-2.odb,Step-1,Increment      1: Step Time =    1.000,"P-2-1",          5161,   139.143E-03,   134.697E-03,            0.,NA,NA,"",   1.10772E+06,   1.07385E+06,   1.07385E+06
C:/temp/Job-2.odb,Step-1,Increment      1: Step Time =    1.000,"P-2-1",          5162,   152.810E-03,   95.1241E-03,            0.,NA,NA,"",   901.101E+03,   910.400E+03,   910.400E+03
C:/temp/Job-2.odb,Step-1,Increment      1: Step Time =    1.000,"P-2-1",          5163,   104.378E-03,   137.344E-03,            0.,NA,NA,"",   1.05430E+06,   1.11468E+06,   1.11468E+06
C:/temp/Job-2.odb,Step-1,Increment      1: Step Time =    1.000,"P-2-1",          5164,   43.8480E-03,   128.044E-03,            0.,NA,NA,"",   939.441E+03,   980.753E+03,   980.753E+03
C:/temp/Job-2.odb,Step-1,Increment      1: Step Time =    1.000,"P-2-1",          5165,   72.6330E-03,   40.1196E-03,            0.,NA,NA,"",   1.05627E+06,   1.06233E+06,   1.06233E+06
C:/temp/Job-2.odb,Step-1,Increment      1: Step Time =    1.000,"P-2-1",          5166,   127.262E-03,   159.533E-03,            0.,NA,NA,"",   1.05380E+06,   1.05043E+06,   1.05043E+06
C:/temp/Job-2.odb,Step-1,Increment      1: Step Time =    1.000,"P-2-1",          5167,   158.350E-03,   72.2563E-03,            0.,NA,NA,"",   1.01546E+06,   1.00586E+06,   1.00586E+06
C:/temp/Job-2.odb,Step-1,Increment      1: Step Time =    1.000,"P-2-1",          5168,   147.906E-03,   112.120E-03,            0.,NA,NA,"",   930.502E+03,   927.718E+03,   927.718E+03
C:/temp/Job-2.odb,Step-1,Increment      1: Step Time =    1.000,"P-2-1",          5169,   40.7230E-03,   67.6501E-03,            0.,NA,NA,"",   947.642E+03,   991.783E+03,   991.783E+03
C:/temp/Job-2.odb,Step-1,Increment      1: Step Time =    1.000,"P-2-1",          5170,   131.515E-03,   40.7476E-03,            0.,NA,NA,"",   1.05806E+06,   1.05047E+06,   1.05047E+06
C:/temp/Job-2.odb,Step-1,Increment      1: Step Time =    1.000,"P-2-1",          5171,   67.8538E-03,   158.645E-03,            0.,NA,NA,"",   1.06274E+06,   1.06700E+06,   1.06700E+06
C:/temp/Job-2.odb,Step-1,Increment      1: Step Time =    1.000,"P-2-1",          5172,   159.448E-03,   132.854E-03,            0.,NA,NA,"",   1.02827E+06,   1.01727E+06,   1.01727E+06
C:/temp/Job-2.odb,Step-1,Increment      1: Step Time =    1.000,"P-2-1",          5173,   82.1648E-03,   52.4829E-03,            0.,NA,NA,"",   1.07643E+06,   1.09260E+06,   1.09260E+06
C:/temp/Job-2.odb,Step-1,Increment      1: Step Time =    1.000,"P-2-1",          5174,   103.046E-03,   148.505E-03,            0.,NA,NA,"",   1.02784E+06,   1.06604E+06,   1.06604E+06
C:/temp/Job-2.odb,Step-1,Increment      1: Step Time =    1.000,"P-2-1",          5175,   118.346E-03,   57.7162E-03,            0.,NA,NA,"",   1.10920E+06,   1.11198E+06,   1.11198E+06
C:/temp/Job-2.odb,Step-1,Increment      1: Step Time =    1.000,"P-2-1",          5176,   83.5407E-03,   141.622E-03,            0.,NA,NA,"",   1.09924E+06,   1.11750E+06,   1.11750E+06
C:/temp/Job-2.odb,Step-1,Increment      1: Step Time =    1.000,"P-2-1",          5177,   84.5212E-03,   37.1537E-03,            0.,NA,NA,"",   1.02945E+06,   1.04326E+06,   1.04326E+06
C:/temp/Job-2.odb,Step-1,Increment      1: Step Time =    1.000,"P-2-1",          5178,   164.853E-03,   85.4311E-03,            0.,NA,NA,"",   964.854E+03,   970.769E+03,   970.769E+03
C:/temp/Job-2.odb,Step-1,Increment      1: Step Time =    1.000,"P-2-1",          5179,   151.849E-03,   87.7855E-03,            0.,NA,NA,"",   937.160E+03,   937.546E+03,   937.546E+03
C:/temp/Job-2.odb,Step-1,Increment      1: Step Time =    1.000,"P-2-1",          5180,   67.6023E-03,   138.943E-03,            0.,NA,NA,"",   1.10504E+06,   1.09916E+06,   1.09916E+06
C:/temp/Job-2.odb,Step-1,Increment      1: Step Time =    1.000,"P-2-1",          5181,   153.790E-03,   89.5560E-03,            0.,NA,NA,"",   930.455E+03,   934.358E+03,   934.358E+03
C:/temp/Job-2.odb,Step-1,Increment      1: Step Time =    1.000,"P-2-1",          5182,   37.3583E-03,   143.883E-03,            0.,NA,NA,"",   976.270E+03,   1.01926E+06,   1.01926E+06
C:/temp/Job-2.odb,Step-1,Increment      1: Step Time =    1.000,"P-2-1",          5183,   144.072E-03,   165.451E-03,            0.,NA,NA,"",   1.04049E+06,   1.03161E+06,   1.03161E+06
C:/temp/Job-2.odb,Step-1,Increment      1: Step Time =    1.000,"P-2-1",          5184,   55.9611E-03,   36.6376E-03,            0.,NA,NA,"",   1.05277E+06,   1.05957E+06,   1.05957E+06
C:/temp/Job-2.odb,Step-1,Increment      1: Step Time =    1.000,"P-2-1",          5185,   163.750E-03,   57.0913E-03,            0.,NA,NA,"",   1.03200E+06,   1.02314E+06,   1.02314E+06
C:/temp/Job-2.odb,Step-1,Increment      1: Step Time =    1.000,"P-2-1",          5186,   39.4600E-03,   142.676E-03,            0.,NA,NA,"",   980.203E+03,   1.02017E+06,   1.02017E+06
C:/temp/Job-2.odb,Step-1,Increment      1: Step Time =    1.000,"P-2-1",          5187,   142.521E-03,   162.785E-03,            0.,NA,NA,"",   1.04706E+06,   1.03706E+06,   1.03706E+06
C:/temp/Job-2.odb,Step-1,Increment      1: Step Time =    1.000,"P-2-1",          5188,   58.0537E-03,   39.4696E-03,            0.,NA,NA,"",   1.05661E+06,   1.06291E+06,   1.06291E+06
C:/temp/Job-2.odb,Step-1,Increment      1: Step Time =    1.000,"P-2-1",          5189,   162.097E-03,   58.7786E-03,            0.,NA,NA,"",   1.03454E+06,   1.02437E+06,   1.02437E+06
C:/temp/Job-2.odb,Step-1,Increment      1: Step Time =    1.000,"P-2-1",          5190,   55.3710E-03,   77.5852E-03,            0.,NA,NA,"",   960.620E+03,   979.943E+03,   979.943E+03
C:/temp/Job-2.odb,Step-1,Increment      1: Step Time =    1.000,"P-2-1",          5191,   139.674E-03,   72.6099E-03,            0.,NA,NA,"",   1.08682E+06,   1.04933E+06,   1.04933E+06
C:/temp/Job-2.odb,Step-1,Increment      1: Step Time =    1.000,"P-2-1",          5192,   53.0385E-03,   78.0475E-03,            0.,NA,NA,"",   943.616E+03,   969.979E+03,   969.979E+03
C:/temp/Job-2.odb,Step-1,Increment      1: Step Time =    1.000,"P-2-1",          5193,   142.252E-03,   127.309E-03,            0.,NA,NA,"",   1.07211E+06,   1.03935E+06,   1.03935E+06
C:/temp/Job-2.odb,Step-1,Increment      1: Step Time =    1.000,"P-2-1",          5194,   88.6985E-03,   39.4191E-03,            0.,NA,NA,"",   1.02583E+06,   1.04428E+06,   1.04428E+06
C:/temp/Job-2.odb,Step-1,Increment      1: Step Time =    1.000,"P-2-1",          5195,   161.751E-03,   90.0568E-03,            0.,NA,NA,"",   945.643E+03,   953.535E+03,   953.535E+03
C:/temp/Job-2.odb,Step-1,Increment      1: Step Time =    1.000,"P-2-1",          5196,   73.1717E-03,   53.5491E-03,            0.,NA,NA,"",   1.09475E+06,   1.09723E+06,   1.09723E+06
C:/temp/Job-2.odb,Step-1,Increment      1: Step Time =    1.000,"P-2-1",          5197,   128.124E-03,   143.941E-03,            0.,NA,NA,"",   1.11456E+06,   1.09700E+06,   1.09700E+06
C:/temp/Job-2.odb,Step-1,Increment      1: Step Time =    1.000,"P-2-1",          5198,   158.060E-03,   36.4475E-03,            0.,NA,NA,"",   1.03156E+06,   1.02359E+06,   1.02359E+06
C:/temp/Job-2.odb,Step-1,Increment      1: Step Time =    1.000,"P-2-1",          5199,   37.2379E-03,   40.9461E-03,            0.,NA,NA,"",   1.01931E+06,   1.05121E+06,   1.05121E+06
C:/temp/Job-2.odb,Step-1,Increment      1: Step Time =    1.000,"P-2-1",          5200,   164.261E-03,   157.458E-03,            0.,NA,NA,"",   1.02934E+06,   1.02212E+06,   1.02212E+06
C:/temp/Job-2.odb,Step-1,Increment      1: Step Time =    1.000,"P-2-1",          5201,   41.3057E-03,   163.965E-03,            0.,NA,NA,"",   1.03700E+06,   1.05864E+06,   1.05864E+06
C:/temp/Job-2.odb,Step-1,Increment      1: Step Time =    1.000,"P-2-1",          5202,   67.6586E-03,   58.5210E-03,            0.,NA,NA,"",   1.10052E+06,   1.09695E+06,   1.09695E+06
C:/temp/Job-2.odb,Step-1,Increment      1: Step Time =    1.000,"P-2-1",          5203,   47.4991E-03,   104.764E-03,            0.,NA,NA,"",   810.821E+03,   868.912E+03,   868.912E+03
C:/temp/Job-2.odb,Step-1,Increment      1: Step Time =    1.000,"P-2-1",          5204,   153.700E-03,   97.6709E-03,            0.,NA,NA,"",   899.226E+03,   909.904E+03,   909.904E+03
C:/temp/Job-2.odb,Step-1,Increment      1: Step Time =    1.000,"P-2-1",          5205,   146.181E-03,   118.344E-03,            0.,NA,NA,"",   987.601E+03,   971.625E+03,   971.625E+03
C:/temp/Job-2.odb,Step-1,Increment      1: Step Time =    1.000,"P-2-1",          5206,   126.344E-03,   56.7320E-03,            0.,NA,NA,"",   1.11847E+06,   1.10230E+06,   1.10230E+06
C:/temp/Job-2.odb,Step-1,Increment      1: Step Time =    1.000,"P-2-1",          5207,   157.625E-03,   133.231E-03,            0.,NA,NA,"",   1.03328E+06,   1.02040E+06,   1.02040E+06
C:/temp/Job-2.odb,Step-1,Increment      1: Step Time =    1.000,"P-2-1",          5208,   67.2316E-03,   156.200E-03,            0.,NA,NA,"",   1.06783E+06,   1.07172E+06,   1.07172E+06
C:/temp/Job-2.odb,Step-1,Increment      1: Step Time =    1.000,"P-2-1",          5209,   131.395E-03,   43.2646E-03,            0.,NA,NA,"",   1.06608E+06,    1.0572E+06,    1.0572E+06
C:/temp/Job-2.odb,Step-1,Increment      1: Step Time =    1.000,"P-2-1",          5210,   44.9289E-03,   68.2025E-03,            0.,NA,NA,"",   963.370E+03,   999.576E+03,   999.576E+03
C:/temp/Job-2.odb,Step-1,Increment      1: Step Time =    1.000,"P-2-1",          5211,   155.874E-03,   73.6486E-03,            0.,NA,NA,"",   1.01525E+06,   1.00374E+06,   1.00374E+06
C:/temp/Job-2.odb,Step-1,Increment      1: Step Time =    1.000,"P-2-1",          5212,   127.015E-03,   157.207E-03,            0.,NA,NA,"",   1.06077E+06,   1.05677E+06,   1.05677E+06
C:/temp/Job-2.odb,Step-1,Increment      1: Step Time =    1.000,"P-2-1",          5213,   73.0613E-03,   42.6769E-03,            0.,NA,NA,"",   1.06228E+06,   1.06860E+06,   1.06860E+06
C:/temp/Job-2.odb,Step-1,Increment      1: Step Time =    1.000,"P-2-1",          5214,   44.7736E-03,   126.674E-03,            0.,NA,NA,"",   935.855E+03,   976.489E+03,   976.489E+03
C:/temp/Job-2.odb,Step-1,Increment      1: Step Time =    1.000,"P-2-1",          5215,   89.2351E-03,   52.1032E-03,            0.,NA,NA,"",   1.05011E+06,   1.08063E+06,   1.08063E+06
C:/temp/Job-2.odb,Step-1,Increment      1: Step Time =    1.000,"P-2-1",          5216,   84.0854E-03,   50.8814E-03,            0.,NA,NA,"",   1.06456E+06,   1.08459E+06,   1.08459E+06
C:/temp/Job-2.odb,Step-1,Increment      1: Step Time =    1.000,"P-2-1",          5217,   95.4282E-03,   149.747E-03,            0.,NA,NA,"",   1.02880E+06,   1.06541E+06,   1.06541E+06
C:/temp/Job-2.odb,Step-1,Increment      1: Step Time =    1.000,"P-2-1",          5218,   104.811E-03,   48.7558E-03,            0.,NA,NA,"",   1.02706E+06,   1.05927E+06,   1.05927E+06
C:/temp/Job-2.odb,Step-1,Increment      1: Step Time =    1.000,"P-2-1",          5219,   50.0493E-03,   117.450E-03,            0.,NA,NA,"",   892.648E+03,   932.580E+03,   932.580E+03
C:/temp/Job-2.odb,Step-1,Increment      1: Step Time =    1.000,"P-2-1",          5220,   72.6428E-03,   145.655E-03,            0.,NA,NA,"",   1.09711E+06,   1.09839E+06,   1.09839E+06
C:/temp/Job-2.odb,Step-1,Increment      1: Step Time =    1.000,"P-2-1",          5221,   143.000E-03,   76.9318E-03,            0.,NA,NA,"",   1.03961E+06,   1.01092E+06,   1.01092E+06
C:/temp/Job-2.odb,Step-1,Increment      1: Step Time =    1.000,"P-2-1",          5222,   150.118E-03,   114.892E-03,            0.,NA,NA,"",   956.181E+03,   950.727E+03,   950.727E+03
C:/temp/Job-2.odb,Step-1,Increment      1: Step Time =    1.000,"P-2-1",          5223,   140.636E-03,   66.9140E-03,            0.,NA,NA,"",   1.09848E+06,   1.06475E+06,   1.06475E+06
C:/temp/Job-2.odb,Step-1,Increment      1: Step Time =    1.000,"P-2-1",          5224,   39.9814E-03,   98.4712E-03,            0.,NA,NA,"",   816.615E+03,   883.532E+03,   883.532E+03
C:/temp/Job-2.odb,Step-1,Increment      1: Step Time =    1.000,"P-2-1",          5225,   99.2306E-03,   158.924E-03,            0.,NA,NA,"",   1.01512E+06,   1.03976E+06,   1.03976E+06
C:/temp/Job-2.odb,Step-1,Increment      1: Step Time =    1.000,"P-2-1",          5226,   150.062E-03,   85.8458E-03,            0.,NA,NA,"",   949.064E+03,   944.880E+03,   944.880E+03
C:/temp/Job-2.odb,Step-1,Increment      1: Step Time =    1.000,"P-2-1",          5227,   77.6109E-03,   39.4386E-03,            0.,NA,NA,"",   1.04733E+06,   1.05655E+06,   1.05655E+06
C:/temp/Job-2.odb,Step-1,Increment      1: Step Time =    1.000,"P-2-1",          5228,   38.4736E-03,   122.515E-03,            0.,NA,NA,"",   889.489E+03,   946.565E+03,   946.565E+03
C:/temp/Job-2.odb,Step-1,Increment      1: Step Time =    1.000,"P-2-1",          5229,   162.171E-03,   78.3727E-03,            0.,NA,NA,"",   988.461E+03,   987.025E+03,   987.025E+03
C:/temp/Job-2.odb,Step-1,Increment      1: Step Time =    1.000,"P-2-1",          5230,   122.058E-03,   161.386E-03,            0.,NA,NA,"",   1.04084E+06,   1.04357E+06,   1.04357E+06
C:/temp/Job-2.odb,Step-1,Increment      1: Step Time =    1.000,"P-2-1",          5231,   100.597E-03,   40.8104E-03,            0.,NA,NA,"",   1.01491E+06,   1.03890E+06,   1.03890E+06
C:/temp/Job-2.odb,Step-1,Increment      1: Step Time =    1.000,"P-2-1",          5232,   157.084E-03,   99.7624E-03,            0.,NA,NA,"",   912.860E+03,   923.967E+03,   923.967E+03
C:/temp/Job-2.odb,Step-1,Increment      1: Step Time =    1.000,"P-2-1",          5233,   64.6561E-03,   138.560E-03,            0.,NA,NA,"",   1.09168E+06,   1.08786E+06,   1.08786E+06
C:/temp/Job-2.odb,Step-1,Increment      1: Step Time =    1.000,"P-2-1",          5234,   50.0608E-03,   167.961E-03,            0.,NA,NA,"",   1.04727E+06,   1.05655E+06,   1.05655E+06
C:/temp/Job-2.odb,Step-1,Increment      1: Step Time =    1.000,"P-2-1",          5235,   33.3389E-03,   51.6745E-03,            0.,NA,NA,"",   974.221E+03,   1.02247E+06,   1.02247E+06
C:/temp/Job-2.odb,Step-1,Increment      1: Step Time =    1.000,"P-2-1",          5236,   166.270E-03,   149.713E-03,            0.,NA,NA,"",   1.02873E+06,   1.02173E+06,   1.02173E+06
C:/temp/Job-2.odb,Step-1,Increment      1: Step Time =    1.000,"P-2-1",          5237,   149.319E-03,   32.2964E-03,            0.,NA,NA,"",   1.03267E+06,   1.02477E+06,   1.02477E+06
C:/temp/Job-2.odb,Step-1,Increment      1: Step Time =    1.000,"P-2-1",          5238,   77.0910E-03,   158.835E-03,            0.,NA,NA,"",   1.05262E+06,   1.06165E+06,   1.06165E+06
C:/temp/Job-2.odb,Step-1,Increment      1: Step Time =    1.000,"P-2-1",          5239,   42.1433E-03,   78.0177E-03,            0.,NA,NA,"",   900.297E+03,   950.610E+03,   950.610E+03
C:/temp/Job-2.odb,Step-1,Increment      1: Step Time =    1.000,"P-2-1",          5240,   158.842E-03,   122.621E-03,            0.,NA,NA,"",   995.763E+03,   990.253E+03,   990.253E+03
C:/temp/Job-2.odb,Step-1,Increment      1: Step Time =    1.000,"P-2-1",          5241,   136.681E-03,   160.053E-03,            0.,NA,NA,"",   1.05629E+06,   1.04637E+06,   1.04637E+06
C:/temp/Job-2.odb,Step-1,Increment      1: Step Time =    1.000,"P-2-1",          5242,   42.2880E-03,   135.295E-03,            0.,NA,NA,"",   966.546E+03,   1.00547E+06,   1.00547E+06
C:/temp/Job-2.odb,Step-1,Increment      1: Step Time =    1.000,"P-2-1",          5243,   158.967E-03,   64.6181E-03,            0.,NA,NA,"",   1.03477E+06,   1.02250E+06,   1.02250E+06
C:/temp/Job-2.odb,Step-1,Increment      1: Step Time =    1.000,"P-2-1",          5244,   64.3199E-03,   42.3035E-03,            0.,NA,NA,"",   1.06412E+06,   1.06835E+06,   1.06835E+06
C:/temp/Job-2.odb,Step-1,Increment      1: Step Time =    1.000,"P-2-1",          5245,   118.328E-03,   52.2606E-03,            0.,NA,NA,"",   1.08019E+06,   1.08695E+06,   1.08695E+06
C:/temp/Job-2.odb,Step-1,Increment      1: Step Time =    1.000,"P-2-1",          5246,   82.9991E-03,   146.985E-03,            0.,NA,NA,"",   1.07561E+06,   1.09350E+06,   1.09350E+06
C:/temp/Job-2.odb,Step-1,Increment      1: Step Time =    1.000,"P-2-1",          5247,   59.1380E-03,   67.1022E-03,            0.,NA,NA,"",   1.05075E+06,   1.05386E+06,   1.05386E+06
C:/temp/Job-2.odb,Step-1,Increment      1: Step Time =    1.000,"P-2-1",          5248,   157.627E-03,   94.2644E-03,            0.,NA,NA,"",   923.230E+03,   932.505E+03,   932.505E+03
C:/temp/Job-2.odb,Step-1,Increment      1: Step Time =    1.000,"P-2-1",          5249,   94.9439E-03,   41.7960E-03,            0.,NA,NA,"",   1.01887E+06,   1.04410E+06,   1.04410E+06
C:/temp/Job-2.odb,Step-1,Increment      1: Step Time =    1.000,"P-2-1",          5250,   132.170E-03,   140.963E-03,            0.,NA,NA,"",   1.12203E+06,   1.09563E+06,   1.09563E+06
C:/temp/Job-2.odb,Step-1,Increment      1: Step Time =    1.000,"P-2-1",          5251,   66.2634E-03,   59.8114E-03,            0.,NA,NA,"",   1.09684E+06,   1.09302E+06,   1.09302E+06
C:/temp/Job-2.odb,Step-1,Increment      1: Step Time =    1.000,"P-2-1",          5252,   90.3227E-03,   158.310E-03,            0.,NA,NA,"",   1.02749E+06,   1.04933E+06,   1.04933E+06
C:/temp/Job-2.odb,Step-1,Increment      1: Step Time =    1.000,"P-2-1",          5253,   157.048E-03,   110.959E-03,            0.,NA,NA,"",   941.093E+03,   945.778E+03,   945.778E+03
C:/temp/Job-2.odb,Step-1,Increment      1: Step Time =    1.000,"P-2-1",          5254,   111.258E-03,   40.1466E-03,            0.,NA,NA,"",   1.02499E+06,   1.04097E+06,   1.04097E+06
C:/temp/Job-2.odb,Step-1,Increment      1: Step Time =    1.000,"P-2-1",          5255,   39.2688E-03,   93.1238E-03,            0.,NA,NA,"",   825.882E+03,   892.167E+03,   892.167E+03
C:/temp/Job-2.odb,Step-1,Increment      1: Step Time =    1.000,"P-2-1",          5256,   42.8402E-03,   89.6942E-03,            0.,NA,NA,"",   838.338E+03,   897.972E+03,   897.972E+03
C:/temp/Job-2.odb,Step-1,Increment      1: Step Time =    1.000,"P-2-1",          5257,   158.881E-03,   45.4936E-03,            0.,NA,NA,"",   1.04013E+06,   1.02964E+06,   1.02964E+06
C:/temp/Job-2.odb,Step-1,Increment      1: Step Time =    1.000,"P-2-1",          5258,   161.284E-03,   40.3105E-03,            0.,NA,NA,"",   1.03168E+06,   1.02371E+06,   1.02371E+06
C:/temp/Job-2.odb,Step-1,Increment      1: Step Time =    1.000,"P-2-1",          5259,   41.5727E-03,   38.3077E-03,            0.,NA,NA,"",   1.03420E+06,   1.05729E+06,   1.05729E+06
C:/temp/Job-2.odb,Step-1,Increment      1: Step Time =    1.000,"P-2-1",          5260,   45.2573E-03,   41.3401E-03,            0.,NA,NA,"",   1.03724E+06,   1.05699E+06,   1.05699E+06
C:/temp/Job-2.odb,Step-1,Increment      1: Step Time =    1.000,"P-2-1",          5261,   158.307E-03,   159.635E-03,            0.,NA,NA,"",   1.03613E+06,   1.02693E+06,   1.02693E+06
C:/temp/Job-2.odb,Step-1,Increment      1: Step Time =    1.000,"P-2-1",          5262,   153.770E-03,   157.780E-03,            0.,NA,NA,"",   1.04518E+06,   1.03369E+06,   1.03369E+06
C:/temp/Job-2.odb,Step-1,Increment      1: Step Time =    1.000,"P-2-1",          5263,   38.8829E-03,   159.343E-03,            0.,NA,NA,"",   1.02428E+06,   1.05310E+06,   1.05310E+06
C:/temp/Job-2.odb,Step-1,Increment      1: Step Time =    1.000,"P-2-1",          5264,   41.4208E-03,   154.431E-03,            0.,NA,NA,"",   1.02050E+06,   1.04868E+06,   1.04868E+06
C:/temp/Job-2.odb,Step-1,Increment      1: Step Time =    1.000,"P-2-1",          5265,   78.0252E-03,   150.384E-03,            0.,NA,NA,"",   1.07587E+06,   1.08586E+06,   1.08586E+06
C:/temp/Job-2.odb,Step-1,Increment      1: Step Time =    1.000,"P-2-1",          5266,   72.5780E-03,   147.264E-03,            0.,NA,NA,"",   1.09224E+06,   1.09445E+06,   1.09445E+06
C:/temp/Job-2.odb,Step-1,Increment      1: Step Time =    1.000,"P-2-1",          5267,   126.877E-03,   52.2291E-03,            0.,NA,NA,"",   1.09767E+06,   1.08635E+06,   1.08635E+06
C:/temp/Job-2.odb,Step-1,Increment      1: Step Time =    1.000,"P-2-1",          5268,   121.877E-03,   48.3304E-03,            0.,NA,NA,"",   1.07300E+06,   1.07362E+06,   1.07362E+06
C:/temp/Job-2.odb,Step-1,Increment      1: Step Time =    1.000,"P-2-1",          5269,   138.032E-03,   62.9396E-03,            0.,NA,NA,"",   1.11232E+06,   1.07978E+06,   1.07978E+06
C:/temp/Job-2.odb,Step-1,Increment      1: Step Time =    1.000,"P-2-1",          5270,   147.534E-03,   104.431E-03,            0.,NA,NA,"",   872.399E+03,   881.585E+03,   881.585E+03
C:/temp/Job-2.odb,Step-1,Increment      1: Step Time =    1.000,"P-2-1",          5271,   62.4969E-03,   64.2152E-03,            0.,NA,NA,"",   1.07881E+06,   1.07617E+06,   1.07617E+06
C:/temp/Job-2.odb,Step-1,Increment      1: Step Time =    1.000,"P-2-1",          5272,   136.189E-03,   136.718E-03,            0.,NA,NA,"",   1.12022E+06,   1.08680E+06,   1.08680E+06
C:/temp/Job-2.odb,Step-1,Increment      1: Step Time =    1.000,"P-2-1",          5273,   46.6608E-03,   103.763E-03,            0.,NA,NA,"",   809.863E+03,   869.183E+03,   869.183E+03
C:/temp/Job-2.odb,Step-1,Increment      1: Step Time =    1.000,"P-2-1",          5274,   159.540E-03,   103.486E-03,            0.,NA,NA,"",   924.160E+03,   934.926E+03,   934.926E+03
C:/temp/Job-2.odb,Step-1,Increment      1: Step Time =    1.000,"P-2-1",          5275,   105.510E-03,   39.2199E-03,            0.,NA,NA,"",   1.01550E+06,   1.03571E+06,   1.03571E+06
C:/temp/Job-2.odb,Step-1,Increment      1: Step Time =    1.000,"P-2-1",          5276,   35.1577E-03,   91.9553E-03,            0.,NA,NA,"",   828.071E+03,   898.685E+03,   898.685E+03
C:/temp/Job-2.odb,Step-1,Increment      1: Step Time =    1.000,"P-2-1",          5277,   93.3228E-03,   165.410E-03,            0.,NA,NA,"",   1.01127E+06,   1.02808E+06,   1.02808E+06
C:/temp/Job-2.odb,Step-1,Increment      1: Step Time =    1.000,"P-2-1",          5278,   40.0929E-03,   125.172E-03,            0.,NA,NA,"",   909.168E+03,   960.803E+03,   960.803E+03
C:/temp/Job-2.odb,Step-1,Increment      1: Step Time =    1.000,"P-2-1",          5279,   75.1928E-03,   39.6470E-03,            0.,NA,NA,"",   1.05198E+06,   1.05950E+06,   1.05950E+06
C:/temp/Job-2.odb,Step-1,Increment      1: Step Time =    1.000,"P-2-1",          5280,   124.859E-03,   160.246E-03,            0.,NA,NA,"",   1.04869E+06,   1.04813E+06,   1.04813E+06
C:/temp/Job-2.odb,Step-1,Increment      1: Step Time =    1.000,"P-2-1",          5281,   161.009E-03,   76.5252E-03,            0.,NA,NA,"",   996.280E+03,   992.337E+03,   992.337E+03
C:/temp/Job-2.odb,Step-1,Increment      1: Step Time =    1.000,"P-2-1",          5282,   39.7006E-03,   65.5451E-03,            0.,NA,NA,"",   952.067E+03,   996.777E+03,   996.777E+03
C:/temp/Job-2.odb,Step-1,Increment      1: Step Time =    1.000,"P-2-1",          5283,   134.006E-03,   41.0257E-03,            0.,NA,NA,"",   1.05967E+06,   1.05027E+06,   1.05027E+06
C:/temp/Job-2.odb,Step-1,Increment      1: Step Time =    1.000,"P-2-1",          5284,   65.0786E-03,   159.994E-03,            0.,NA,NA,"",   1.06024E+06,   1.06433E+06,   1.06433E+06
C:/temp/Job-2.odb,Step-1,Increment      1: Step Time =    1.000,"P-2-1",          5285,   158.817E-03,   135.275E-03,            0.,NA,NA,"",   1.03481E+06,   1.02244E+06,   1.02244E+06
C:/temp/Job-2.odb,Step-1,Increment      1: Step Time =    1.000,"P-2-1",          5286,   79.5673E-03,   51.4784E-03,            0.,NA,NA,"",   1.07828E+06,   1.09059E+06,   1.09059E+06
C:/temp/Job-2.odb,Step-1,Increment      1: Step Time =    1.000,"P-2-1",          5287,   116.154E-03,   164.245E-03,            0.,NA,NA,"",   1.02451E+06,   1.03289E+06,   1.03289E+06
C:/temp/Job-2.odb,Step-1,Increment      1: Step Time =    1.000,"P-2-1",          5288,   34.9150E-03,   115.311E-03,            0.,NA,NA,"",   850.577E+03,   917.953E+03,   917.953E+03
C:/temp/Job-2.odb,Step-1,Increment      1: Step Time =    1.000,"P-2-1",          5289,   57.8059E-03,   131.387E-03,            0.,NA,NA,"",   1.03507E+06,   1.04150E+06,   1.04150E+06
C:/temp/Job-2.odb,Step-1,Increment      1: Step Time =    1.000,"P-2-1",          5290,   105.900E-03,   149.785E-03,            0.,NA,NA,"",   1.03119E+06,   1.06433E+06,   1.06433E+06
C:/temp/Job-2.odb,Step-1,Increment      1: Step Time =    1.000,"P-2-1",          5291,   36.4930E-03,   111.029E-03,            0.,NA,NA,"",   836.995E+03,   904.700E+03,   904.700E+03
C:/temp/Job-2.odb,Step-1,Increment      1: Step Time =    1.000,"P-2-1",          5292,   110.898E-03,   163.335E-03,            0.,NA,NA,"",   1.01784E+06,   1.03190E+06,   1.03190E+06
C:/temp/Job-2.odb,Step-1,Increment      1: Step Time =    1.000,"P-2-1",          5293,   161.083E-03,   36.7905E-03,            0.,NA,NA,"",   1.02858E+06,   1.02142E+06,   1.02142E+06
C:/temp/Job-2.odb,Step-1,Increment      1: Step Time =    1.000,"P-2-1",          5294,   39.4518E-03,   41.6164E-03,            0.,NA,NA,"",   1.02345E+06,   1.05208E+06,   1.05208E+06
C:/temp/Job-2.odb,Step-1,Increment      1: Step Time =    1.000,"P-2-1",          5295,   162.685E-03,   160.203E-03,            0.,NA,NA,"",   1.02938E+06,   1.02208E+06,   1.02208E+06
C:/temp/Job-2.odb,Step-1,Increment      1: Step Time =    1.000,"P-2-1",          5296,   40.8623E-03,   161.855E-03,            0.,NA,NA,"",   1.03314E+06,   1.05681E+06,   1.05681E+06
C:/temp/Job-2.odb,Step-1,Increment      1: Step Time =    1.000,"P-2-1",          5297,   35.3269E-03,   81.6057E-03,            0.,NA,NA,"",   863.441E+03,   928.451E+03,   928.451E+03
C:/temp/Job-2.odb,Step-1,Increment      1: Step Time =    1.000,"P-2-1",          5298,   118.603E-03,   36.7266E-03,            0.,NA,NA,"",   1.03080E+06,   1.03694E+06,   1.03694E+06
C:/temp/Job-2.odb,Step-1,Increment      1: Step Time =    1.000,"P-2-1",          5299,   81.5468E-03,   166.239E-03,            0.,NA,NA,"",   1.02766E+06,   1.03772E+06,   1.03772E+06
C:/temp/Job-2.odb,Step-1,Increment      1: Step Time =    1.000,"P-2-1",          5300,   154.987E-03,   92.6226E-03,            0.,NA,NA,"",   918.925E+03,   926.582E+03,   926.582E+03
C:/temp/Job-2.odb,Step-1,Increment      1: Step Time =    1.000,"P-2-1",          5301,   149.072E-03,   106.151E-03,            0.,NA,NA,"",   890.401E+03,   897.753E+03,   897.753E+03
C:/temp/Job-2.odb,Step-1,Increment      1: Step Time =    1.000,"P-2-1",          5302,   146.416E-03,   35.6057E-03,            0.,NA,NA,"",   1.04139E+06,   1.03184E+06,   1.03184E+06
C:/temp/Job-2.odb,Step-1,Increment      1: Step Time =    1.000,"P-2-1",          5303,   36.6817E-03,   53.4873E-03,            0.,NA,NA,"",   982.013E+03,   1.02457E+06,   1.02457E+06
C:/temp/Job-2.odb,Step-1,Increment      1: Step Time =    1.000,"P-2-1",          5304,   163.331E-03,   147.955E-03,            0.,NA,NA,"",   1.03452E+06,   1.02540E+06,   1.02540E+06
C:/temp/Job-2.odb,Step-1,Increment      1: Step Time =    1.000,"P-2-1",          5305,   53.3961E-03,   165.562E-03,            0.,NA,NA,"",   1.04992E+06,   1.05768E+06,   1.05768E+06
C:/temp/Job-2.odb,Step-1,Increment      1: Step Time =    1.000,"P-2-1",          5306,   144.375E-03,   130.316E-03,            0.,NA,NA,"",   1.07330E+06,   1.04381E+06,   1.04381E+06
C:/temp/Job-2.odb,Step-1,Increment      1: Step Time =    1.000,"P-2-1",          5307,   141.511E-03,   74.4420E-03,            0.,NA,NA,"",   1.06413E+06,   1.03083E+06,   1.03083E+06
C:/temp/Job-2.odb,Step-1,Increment      1: Step Time =    1.000,"P-2-1",          5308,   164.139E-03,   150.275E-03,            0.,NA,NA,"",   1.03273E+06,   1.02437E+06,   1.02437E+06
C:/temp/Job-2.odb,Step-1,Increment      1: Step Time =    1.000,"P-2-1",          5309,   50.5251E-03,   165.506E-03,            0.,NA,NA,"",   1.04833E+06,   1.05829E+06,   1.05829E+06
C:/temp/Job-2.odb,Step-1,Increment      1: Step Time =    1.000,"P-2-1",          5310,   148.892E-03,   34.5263E-03,            0.,NA,NA,"",   1.03731E+06,   1.02838E+06,   1.02838E+06
C:/temp/Job-2.odb,Step-1,Increment      1: Step Time =    1.000,"P-2-1",          5311,   35.9756E-03,   51.1450E-03,            0.,NA,NA,"",   986.717E+03,   1.02901E+06,   1.02901E+06
C:/temp/Job-2.odb,Step-1,Increment      1: Step Time =    1.000,"P-2-1",          5312,   161.071E-03,   148.541E-03,            0.,NA,NA,"",   1.03911E+06,   1.02852E+06,   1.02852E+06
C:/temp/Job-2.odb,Step-1,Increment      1: Step Time =    1.000,"P-2-1",          5313,   147.933E-03,   37.1027E-03,            0.,NA,NA,"",   1.04307E+06,   1.03289E+06,   1.03289E+06
C:/temp/Job-2.odb,Step-1,Increment      1: Step Time =    1.000,"P-2-1",          5314,   51.9961E-03,   162.925E-03,            0.,NA,NA,"",   1.05011E+06,   1.05986E+06,   1.05986E+06
C:/temp/Job-2.odb,Step-1,Increment      1: Step Time =    1.000,"P-2-1",          5315,   38.6761E-03,   50.8612E-03,            0.,NA,NA,"",   997.856E+03,   1.03472E+06,   1.03472E+06
C:/temp/Job-2.odb,Step-1,Increment      1: Step Time =    1.000,"P-2-1",          5316,   159.227E-03,   120.401E-03,            0.,NA,NA,"",   985.800E+03,   982.692E+03,   982.692E+03
C:/temp/Job-2.odb,Step-1,Increment      1: Step Time =    1.000,"P-2-1",          5317,   79.6385E-03,   158.250E-03,            0.,NA,NA,"",   1.04957E+06,   1.06096E+06,   1.06096E+06
C:/temp/Job-2.odb,Step-1,Increment      1: Step Time =    1.000,"P-2-1",          5318,   119.958E-03,   42.0712E-03,            0.,NA,NA,"",   1.04805E+06,   1.05305E+06,   1.05305E+06
C:/temp/Job-2.odb,Step-1,Increment      1: Step Time =    1.000,"P-2-1",          5319,   40.0570E-03,   80.3173E-03,            0.,NA,NA,"",   880.938E+03,   937.247E+03,   937.247E+03
C:/temp/Job-2.odb,Step-1,Increment      1: Step Time =    1.000,"P-2-1",          5320,   157.946E-03,   61.4792E-03,            0.,NA,NA,"",   1.04170E+06,   1.02797E+06,   1.02797E+06
C:/temp/Job-2.odb,Step-1,Increment      1: Step Time =    1.000,"P-2-1",          5321,   138.808E-03,   160.584E-03,            0.,NA,NA,"",   1.05462E+06,   1.04414E+06,   1.04414E+06
C:/temp/Job-2.odb,Step-1,Increment      1: Step Time =    1.000,"P-2-1",          5322,   60.2937E-03,   41.8127E-03,            0.,NA,NA,"",   1.06105E+06,   1.06648E+06,   1.06648E+06
C:/temp/Job-2.odb,Step-1,Increment      1: Step Time =    1.000,"P-2-1",          5323,   41.4368E-03,   137.785E-03,            0.,NA,NA,"",   972.110E+03,   1.01106E+06,   1.01106E+06
C:/temp/Job-2.odb,Step-1,Increment      1: Step Time =    1.000,"P-2-1",          5324,   156.275E-03,   120.626E-03,            0.,NA,NA,"",   988.961E+03,   982.716E+03,   982.716E+03
C:/temp/Job-2.odb,Step-1,Increment      1: Step Time =    1.000,"P-2-1",          5325,   79.1367E-03,   155.556E-03,            0.,NA,NA,"",   1.05766E+06,   1.06907E+06,   1.06907E+06
C:/temp/Job-2.odb,Step-1,Increment      1: Step Time =    1.000,"P-2-1",          5326,   120.923E-03,   44.0694E-03,            0.,NA,NA,"",   1.05644E+06,   1.05974E+06,   1.05974E+06
C:/temp/Job-2.odb,Step-1,Increment      1: Step Time =    1.000,"P-2-1",          5327,   44.2647E-03,   77.7547E-03,            0.,NA,NA,"",   909.858E+03,   955.376E+03,   955.376E+03
C:/temp/Job-2.odb,Step-1,Increment      1: Step Time =    1.000,"P-2-1",          5328,   155.324E-03,   63.7135E-03,            0.,NA,NA,"",   1.04580E+06,   1.02971E+06,   1.02971E+06
C:/temp/Job-2.odb,Step-1,Increment      1: Step Time =    1.000,"P-2-1",          5329,   137.924E-03,   157.121E-03,            0.,NA,NA,"",   1.06445E+06,   1.05204E+06,   1.05204E+06
C:/temp/Job-2.odb,Step-1,Increment      1: Step Time =    1.000,"P-2-1",          5330,   62.2294E-03,   44.7582E-03,            0.,NA,NA,"",   1.06661E+06,   1.07114E+06,   1.07114E+06
C:/temp/Job-2.odb,Step-1,Increment      1: Step Time =    1.000,"P-2-1",          5331,   44.6137E-03,   136.670E-03,            0.,NA,NA,"",   982.368E+03,   1.01577E+06,   1.01577E+06
C:/temp/Job-2.odb,Step-1,Increment      1: Step Time =    1.000,"P-2-1",          5332,   144.608E-03,   127.825E-03,            0.,NA,NA,"",   1.06197E+06,   1.03326E+06,   1.03326E+06
C:/temp/Job-2.odb,Step-1,Increment      1: Step Time =    1.000,"P-2-1",          5333,   92.4972E-03,   148.014E-03,            0.,NA,NA,"",   1.03905E+06,   1.07514E+06,   1.07514E+06
C:/temp/Job-2.odb,Step-1,Increment      1: Step Time =    1.000,"P-2-1",          5334,   107.303E-03,   51.3182E-03,            0.,NA,NA,"",   1.03670E+06,   1.06930E+06,   1.06930E+06
C:/temp/Job-2.odb,Step-1,Increment      1: Step Time =    1.000,"P-2-1",          5335,   52.5906E-03,   121.710E-03,            0.,NA,NA,"",   938.773E+03,   966.840E+03,   966.840E+03
C:/temp/Job-2.odb,Step-1,Increment      1: Step Time =    1.000,"P-2-1",          5336,   67.6385E-03,   141.086E-03,            0.,NA,NA,"",   1.10038E+06,   1.09667E+06,   1.09667E+06
C:/temp/Job-2.odb,Step-1,Increment      1: Step Time =    1.000,"P-2-1",          5337,   94.1813E-03,   153.484E-03,            0.,NA,NA,"",   1.02607E+06,   1.05615E+06,   1.05615E+06
C:/temp/Job-2.odb,Step-1,Increment      1: Step Time =    1.000,"P-2-1",          5338,   104.265E-03,   46.1193E-03,            0.,NA,NA,"",   1.02294E+06,   1.05202E+06,   1.05202E+06
C:/temp/Job-2.odb,Step-1,Increment      1: Step Time =    1.000,"P-2-1",          5339,   51.9463E-03,   81.0268E-03,            0.,NA,NA,"",   910.864E+03,   944.501E+03,   944.501E+03
C:/temp/Job-2.odb,Step-1,Increment      1: Step Time =    1.000,"P-2-1",          5340,   37.0799E-03,   114.889E-03,            0.,NA,NA,"",   852.212E+03,   916.784E+03,   916.784E+03
C:/temp/Job-2.odb,Step-1,Increment      1: Step Time =    1.000,"P-2-1",          5341,   112.999E-03,   165.830E-03,            0.,NA,NA,"",   1.01601E+06,   1.02680E+06,   1.02680E+06
C:/temp/Job-2.odb,Step-1,Increment      1: Step Time =    1.000,"P-2-1",          5342,   34.4948E-03,   113.192E-03,            0.,NA,NA,"",   841.939E+03,   911.089E+03,   911.089E+03
C:/temp/Job-2.odb,Step-1,Increment      1: Step Time =    1.000,"P-2-1",          5343,   154.462E-03,   100.100E-03,            0.,NA,NA,"",   901.424E+03,   912.430E+03,   912.430E+03
C:/temp/Job-2.odb,Step-1,Increment      1: Step Time =    1.000,"P-2-1",          5344,   154.913E-03,   131.131E-03,            0.,NA,NA,"",   1.03500E+06,   1.01976E+06,   1.01976E+06
C:/temp/Job-2.odb,Step-1,Increment      1: Step Time =    1.000,"P-2-1",          5345,   70.0399E-03,   155.463E-03,            0.,NA,NA,"",   1.06916E+06,   1.07360E+06,   1.07360E+06
C:/temp/Job-2.odb,Step-1,Increment      1: Step Time =    1.000,"P-2-1",          5346,   129.355E-03,   44.9395E-03,            0.,NA,NA,"",   1.07057E+06,   1.06246E+06,   1.06246E+06
C:/temp/Job-2.odb,Step-1,Increment      1: Step Time =    1.000,"P-2-1",          5347,   45.7344E-03,   71.0207E-03,            0.,NA,NA,"",   952.244E+03,   989.123E+03,   989.123E+03
C:/temp/Job-2.odb,Step-1,Increment      1: Step Time =    1.000,"P-2-1",          5348,   153.488E-03,   71.6314E-03,            0.,NA,NA,"",   1.02949E+06,   1.01364E+06,   1.01364E+06
C:/temp/Job-2.odb,Step-1,Increment      1: Step Time =    1.000,"P-2-1",          5349,   128.978E-03,   154.418E-03,            0.,NA,NA,"",   1.07231E+06,   1.06455E+06,   1.06455E+06
C:/temp/Job-2.odb,Step-1,Increment      1: Step Time =    1.000,"P-2-1",          5350,   71.7465E-03,   45.9369E-03,            0.,NA,NA,"",   1.07193E+06,   1.07702E+06,   1.07702E+06
C:/temp/Job-2.odb,Step-1,Increment      1: Step Time =    1.000,"P-2-1",          5351,   45.5205E-03,   128.330E-03,            0.,NA,NA,"",   947.114E+03,   984.921E+03,   984.921E+03
C:/temp/Job-2.odb,Step-1,Increment      1: Step Time =    1.000,"P-2-1",          5352,   87.3425E-03,   48.8395E-03,            0.,NA,NA,"",   1.04806E+06,   1.07257E+06,   1.07257E+06
C:/temp/Job-2.odb,Step-1,Increment      1: Step Time =    1.000,"P-2-1",          5353,   41.3716E-03,   100.327E-03,            0.,NA,NA,"",   814.923E+03,   880.421E+03,   880.421E+03
C:/temp/Job-2.odb,Step-1,Increment      1: Step Time =    1.000,"P-2-1",          5354,   101.527E-03,   157.947E-03,            0.,NA,NA,"",   1.01614E+06,   1.04152E+06,   1.04152E+06
C:/temp/Job-2.odb,Step-1,Increment      1: Step Time =    1.000,"P-2-1",          5355,   152.003E-03,   84.0746E-03,            0.,NA,NA,"",   962.967E+03,   958.067E+03,   958.067E+03
C:/temp/Job-2.odb,Step-1,Increment      1: Step Time =    1.000,"P-2-1",          5356,   34.2821E-03,   111.108E-03,            0.,NA,NA,"",   835.090E+03,   905.595E+03,   905.595E+03
C:/temp/Job-2.odb,Step-1,Increment      1: Step Time =    1.000,"P-2-1",          5357,   111.091E-03,   165.683E-03,            0.,NA,NA,"",   1.01422E+06,   1.02641E+06,   1.02641E+06
C:/temp/Job-2.odb,Step-1,Increment      1: Step Time =    1.000,"P-2-1",          5358,   57.5357E-03,   70.6860E-03,            0.,NA,NA,"",   1.02475E+06,   1.03247E+06,   1.03247E+06
C:/temp/Job-2.odb,Step-1,Increment      1: Step Time =    1.000,"P-2-1",          5359,   93.9140E-03,   159.210E-03,            0.,NA,NA,"",   1.01930E+06,   1.04237E+06,   1.04237E+06
C:/temp/Job-2.odb,Step-1,Increment      1: Step Time =    1.000,"P-2-1",          5360,   157.978E-03,   42.1183E-03,            0.,NA,NA,"",   1.03847E+06,   1.02859E+06,   1.02859E+06
C:/temp/Job-2.odb,Step-1,Increment      1: Step Time =    1.000,"P-2-1",          5361,   43.5132E-03,   41.7954E-03,            0.,NA,NA,"",   1.03233E+06,   1.05511E+06,   1.05511E+06
C:/temp/Job-2.odb,Step-1,Increment      1: Step Time =    1.000,"P-2-1",          5362,   158.876E-03,   157.596E-03,            0.,NA,NA,"",   1.03738E+06,   1.02780E+06,   1.02780E+06
C:/temp/Job-2.odb,Step-1,Increment      1: Step Time =    1.000,"P-2-1",          5363,   41.7033E-03,   157.905E-03,            0.,NA,NA,"",   1.02814E+06,   1.05353E+06,   1.05353E+06
C:/temp/Job-2.odb,Step-1,Increment      1: Step Time =    1.000,"P-2-1",          5364,   128.431E-03,   50.7139E-03,            0.,NA,NA,"",   1.09203E+06,   1.08014E+06,   1.08014E+06
C:/temp/Job-2.odb,Step-1,Increment      1: Step Time =    1.000,"P-2-1",          5365,   134.492E-03,   62.1822E-03,            0.,NA,NA,"",   1.12420E+06,   1.09210E+06,   1.09210E+06
C:/temp/Job-2.odb,Step-1,Increment      1: Step Time =    1.000,"P-2-1",          5366,   44.4736E-03,   100.772E-03,            0.,NA,NA,"",   810.353E+03,   872.636E+03,   872.636E+03
C:/temp/Job-2.odb,Step-1,Increment      1: Step Time =    1.000,"P-2-1",          5367,   59.0371E-03,   129.222E-03,            0.,NA,NA,"",   1.03384E+06,   1.03760E+06,   1.03760E+06
C:/temp/Job-2.odb,Step-1,Increment      1: Step Time =    1.000,"P-2-1",          5368,   38.5618E-03,   111.235E-03,            0.,NA,NA,"",   839.881E+03,   904.876E+03,   904.876E+03
C:/temp/Job-2.odb,Step-1,Increment      1: Step Time =    1.000,"P-2-1",          5369,   109.516E-03,   161.048E-03,            0.,NA,NA,"",   1.01950E+06,   1.03613E+06,   1.03613E+06
C:/temp/Job-2.odb,Step-1,Increment      1: Step Time =    1.000,"P-2-1",          5370,   155.899E-03,   36.7887E-03,            0.,NA,NA,"",   1.03444E+06,   1.02576E+06,   1.02576E+06
C:/temp/Job-2.odb,Step-1,Increment      1: Step Time =    1.000,"P-2-1",          5371,   37.2290E-03,   45.9356E-03,            0.,NA,NA,"",   1.00658E+06,   1.04258E+06,   1.04258E+06
C:/temp/Job-2.odb,Step-1,Increment      1: Step Time =    1.000,"P-2-1",          5372,   163.650E-03,   155.295E-03,            0.,NA,NA,"",   1.03167E+06,   1.02375E+06,   1.02375E+06
C:/temp/Job-2.odb,Step-1,Increment      1: Step Time =    1.000,"P-2-1",          5373,   43.4621E-03,   163.504E-03,            0.,NA,NA,"",   1.03985E+06,   1.05882E+06,   1.05882E+06
C:/temp/Job-2.odb,Step-1,Increment      1: Step Time =    1.000,"P-2-1",          5374,   138.789E-03,   137.466E-03,            0.,NA,NA,"",   1.10850E+06,   1.07718E+06,   1.07718E+06
C:/temp/Job-2.odb,Step-1,Increment      1: Step Time =    1.000,"P-2-1",          5375,   104.639E-03,   152.301E-03,            0.,NA,NA,"",   1.02517E+06,   1.05618E+06,   1.05618E+06
C:/temp/Job-2.odb,Step-1,Increment      1: Step Time =    1.000,"P-2-1",          5376,   96.9544E-03,   159.797E-03,            0.,NA,NA,"",   1.01514E+06,   1.03862E+06,   1.03862E+06
C:/temp/Job-2.odb,Step-1,Increment      1: Step Time =    1.000,"P-2-1",          5377,   72.9939E-03,   50.8476E-03,            0.,NA,NA,"",   1.08587E+06,   1.08993E+06,   1.08993E+06
C:/temp/Job-2.odb,Step-1,Increment      1: Step Time =    1.000,"P-2-1",          5378,   126.451E-03,   149.285E-03,            0.,NA,NA,"",   1.09010E+06,   1.08154E+06,   1.08154E+06
C:/temp/Job-2.odb,Step-1,Increment      1: Step Time =    1.000,"P-2-1",          5379,   107.924E-03,   38.5895E-03,            0.,NA,NA,"",   1.01723E+06,   1.03498E+06,   1.03498E+06
C:/temp/Job-2.odb,Step-1,Increment      1: Step Time =    1.000,"P-2-1",          5380,   160.000E-03,   105.691E-03,            0.,NA,NA,"",   930.056E+03,   939.865E+03,   939.865E+03
C:/temp/Job-2.odb,Step-1,Increment      1: Step Time =    1.000,"P-2-1",          5381,   160.561E-03,   158.121E-03,            0.,NA,NA,"",   1.03431E+06,   1.02560E+06,   1.02560E+06
C:/temp/Job-2.odb,Step-1,Increment      1: Step Time =    1.000,"P-2-1",          5382,   158.891E-03,   39.0657E-03,            0.,NA,NA,"",   1.03377E+06,   1.02521E+06,   1.02521E+06
C:/temp/Job-2.odb,Step-1,Increment      1: Step Time =    1.000,"P-2-1",          5383,   40.9387E-03,   159.760E-03,            0.,NA,NA,"",   1.02995E+06,   1.05499E+06,   1.05499E+06
C:/temp/Job-2.odb,Step-1,Increment      1: Step Time =    1.000,"P-2-1",          5384,   42.1623E-03,   40.7973E-03,            0.,NA,NA,"",   1.03091E+06,   1.05491E+06,   1.05491E+06
C:/temp/Job-2.odb,Step-1,Increment      1: Step Time =    1.000,"P-2-1",          5385,   62.0469E-03,   139.877E-03,            0.,NA,NA,"",   1.07868E+06,   1.07868E+06,   1.07868E+06
C:/temp/Job-2.odb,Step-1,Increment      1: Step Time =    1.000,"P-2-1",          5386,   51.0743E-03,   106.068E-03,            0.,NA,NA,"",   806.816E+03,   860.088E+03,   860.088E+03
C:/temp/Job-2.odb,Step-1,Increment      1: Step Time =    1.000,"P-2-1",          5387,   149.427E-03,   117.091E-03,            0.,NA,NA,"",   973.426E+03,   963.567E+03,   963.567E+03
C:/temp/Job-2.odb,Step-1,Increment      1: Step Time =    1.000,"P-2-1",          5388,   61.9555E-03,   61.4349E-03,            0.,NA,NA,"",   1.07734E+06,   1.07716E+06,   1.07716E+06
C:/temp/Job-2.odb,Step-1,Increment      1: Step Time =    1.000,"P-2-1",          5389,   135.542E-03,   139.416E-03,            0.,NA,NA,"",   1.11776E+06,   1.08783E+06,   1.08783E+06
C:/temp/Job-2.odb,Step-1,Increment      1: Step Time =    1.000,"P-2-1",          5390,   82.7645E-03,   149.485E-03,            0.,NA,NA,"",   1.06782E+06,   1.08506E+06,   1.08506E+06
C:/temp/Job-2.odb,Step-1,Increment      1: Step Time =    1.000,"P-2-1",          5391,   118.417E-03,   48.7744E-03,            0.,NA,NA,"",   1.06610E+06,   1.07320E+06,   1.07320E+06
C:/temp/Job-2.odb,Step-1,Increment      1: Step Time =    1.000,"P-2-1",          5392,   157.642E-03,   103.867E-03,            0.,NA,NA,"",   917.787E+03,   928.118E+03,   928.118E+03
C:/temp/Job-2.odb,Step-1,Increment      1: Step Time =    1.000,"P-2-1",          5393,   103.112E-03,   43.4678E-03,            0.,NA,NA,"",   1.01893E+06,   1.04531E+06,   1.04531E+06
C:/temp/Job-2.odb,Step-1,Increment      1: Step Time =    1.000,"P-2-1",          5394,   157.382E-03,   136.352E-03,            0.,NA,NA,"",   1.04007E+06,   1.02619E+06,   1.02619E+06
C:/temp/Job-2.odb,Step-1,Increment      1: Step Time =    1.000,"P-2-1",          5395,   136.423E-03,   41.1377E-03,            0.,NA,NA,"",   1.05988E+06,   1.04917E+06,   1.04917E+06
C:/temp/Job-2.odb,Step-1,Increment      1: Step Time =    1.000,"P-2-1",          5396,   62.4899E-03,   159.952E-03,            0.,NA,NA,"",   1.05986E+06,   1.06433E+06,   1.06433E+06
C:/temp/Job-2.odb,Step-1,Increment      1: Step Time =    1.000,"P-2-1",          5397,   39.4529E-03,   63.5047E-03,            0.,NA,NA,"",   958.559E+03,   1.00253E+06,   1.00253E+06
C:/temp/Job-2.odb,Step-1,Increment      1: Step Time =    1.000,"P-2-1",          5398,   65.1808E-03,   57.9207E-03,            0.,NA,NA,"",   1.09042E+06,   1.08870E+06,   1.08870E+06
C:/temp/Job-2.odb,Step-1,Increment      1: Step Time =    1.000,"P-2-1",          5399,   157.744E-03,   105.922E-03,            0.,NA,NA,"",   924.128E+03,   933.266E+03,   933.266E+03
C:/temp/Job-2.odb,Step-1,Increment      1: Step Time =    1.000,"P-2-1",          5400,   107.447E-03,   40.6210E-03,            0.,NA,NA,"",   1.01982E+06,   1.03967E+06,   1.03967E+06
C:/temp/Job-2.odb,Step-1,Increment      1: Step Time =    1.000,"P-2-1",          5401,   49.8989E-03,   92.7609E-03,            0.,NA,NA,"",   816.784E+03,   870.039E+03,   870.039E+03
C:/temp/Job-2.odb,Step-1,Increment      1: Step Time =    1.000,"P-2-1",          5402,   50.9613E-03,   84.2228E-03,            0.,NA,NA,"",   881.868E+03,   921.984E+03,   921.984E+03
C:/temp/Job-2.odb,Step-1,Increment      1: Step Time =    1.000,"P-2-1",          5403,   58.9702E-03,   160.682E-03,            0.,NA,NA,"",   1.05748E+06,   1.06312E+06,   1.06312E+06
C:/temp/Job-2.odb,Step-1,Increment      1: Step Time =    1.000,"P-2-1",          5404,   159.265E-03,   138.268E-03,            0.,NA,NA,"",   1.03807E+06,   1.02572E+06,   1.02572E+06
C:/temp/Job-2.odb,Step-1,Increment      1: Step Time =    1.000,"P-2-1",          5405,   39.3636E-03,   59.7604E-03,            0.,NA,NA,"",   972.757E+03,   1.01426E+06,   1.01426E+06
C:/temp/Job-2.odb,Step-1,Increment      1: Step Time =    1.000,"P-2-1",          5406,   141.026E-03,   41.0104E-03,            0.,NA,NA,"",   1.05740E+06,   1.04534E+06,   1.04534E+06
C:/temp/Job-2.odb,Step-1,Increment      1: Step Time =    1.000,"P-2-1",          5407,   145.502E-03,   122.865E-03,            0.,NA,NA,"",   1.02786E+06,   1.00419E+06,   1.00419E+06
C:/temp/Job-2.odb,Step-1,Increment      1: Step Time =    1.000,"P-2-1",          5408,   94.4266E-03,   49.0202E-03,            0.,NA,NA,"",   1.02865E+06,   1.06261E+06,   1.06261E+06
C:/temp/Job-2.odb,Step-1,Increment      1: Step Time =    1.000,"P-2-1",          5409,   155.316E-03,   94.7711E-03,            0.,NA,NA,"",   913.031E+03,   922.263E+03,   922.263E+03
C:/temp/Job-2.odb,Step-1,Increment      1: Step Time =    1.000,"P-2-1",          5410,   95.7499E-03,   45.0920E-03,            0.,NA,NA,"",   1.02183E+06,   1.05120E+06,   1.05120E+06
C:/temp/Job-2.odb,Step-1,Increment      1: Step Time =    1.000,"P-2-1",          5411,   45.2459E-03,   97.7992E-03,            0.,NA,NA,"",   809.741E+03,   871.125E+03,   871.125E+03
C:/temp/Job-2.odb,Step-1,Increment      1: Step Time =    1.000,"P-2-1",          5412,   48.3815E-03,   110.337E-03,            0.,NA,NA,"",   836.459E+03,   888.779E+03,   888.779E+03
C:/temp/Job-2.odb,Step-1,Increment      1: Step Time =    1.000,"P-2-1",          5413,   70.6552E-03,   147.851E-03,            0.,NA,NA,"",   1.08961E+06,   1.09133E+06,   1.09133E+06
C:/temp/Job-2.odb,Step-1,Increment      1: Step Time =    1.000,"P-2-1",          5414,   49.3332E-03,   95.6313E-03,            0.,NA,NA,"",   803.878E+03,   860.271E+03,   860.271E+03
C:/temp/Job-2.odb,Step-1,Increment      1: Step Time =    1.000,"P-2-1",          5415,   35.3905E-03,   89.0248E-03,            0.,NA,NA,"",   836.813E+03,   905.809E+03,   905.809E+03
C:/temp/Job-2.odb,Step-1,Increment      1: Step Time =    1.000,"P-2-1",          5416,   77.9227E-03,   41.7577E-03,            0.,NA,NA,"",   1.05289E+06,   1.06272E+06,   1.06272E+06
C:/temp/Job-2.odb,Step-1,Increment      1: Step Time =    1.000,"P-2-1",          5417,   157.707E-03,   75.8122E-03,            0.,NA,NA,"",   1.00315E+06,   995.397E+03,   995.397E+03
C:/temp/Job-2.odb,Step-1,Increment      1: Step Time =    1.000,"P-2-1",          5418,   42.0315E-03,   123.730E-03,            0.,NA,NA,"",   908.135E+03,   957.220E+03,   957.220E+03
C:/temp/Job-2.odb,Step-1,Increment      1: Step Time =    1.000,"P-2-1",          5419,   121.861E-03,   158.410E-03,            0.,NA,NA,"",   1.04945E+06,   1.05218E+06,   1.05218E+06
C:/temp/Job-2.odb,Step-1,Increment      1: Step Time =    1.000,"P-2-1",          5420,   132.820E-03,   61.8098E-03,            0.,NA,NA,"",   1.12903E+06,   1.09785E+06,   1.09785E+06
C:/temp/Job-2.odb,Step-1,Increment      1: Step Time =    1.000,"P-2-1",          5421,   123.635E-03,   46.0224E-03,            0.,NA,NA,"",   1.06760E+06,   1.06639E+06,   1.06639E+06
C:/temp/Job-2.odb,Step-1,Increment      1: Step Time =    1.000,"P-2-1",          5422,   78.6296E-03,   152.915E-03,            0.,NA,NA,"",   1.06614E+06,   1.07715E+06,   1.07715E+06
C:/temp/Job-2.odb,Step-1,Increment      1: Step Time =    1.000,"P-2-1",          5423,   128.265E-03,   57.7489E-03,            0.,NA,NA,"",   1.12258E+06,   1.10183E+06,   1.10183E+06
C:/temp/Job-2.odb,Step-1,Increment      1: Step Time =    1.000,"P-2-1",          5424,   44.6735E-03,   44.1306E-03,            0.,NA,NA,"",   1.03179E+06,   1.05401E+06,   1.05401E+06
C:/temp/Job-2.odb,Step-1,Increment      1: Step Time =    1.000,"P-2-1",          5425,   43.8808E-03,   153.839E-03,            0.,NA,NA,"",   1.02630E+06,   1.05094E+06,   1.05094E+06
C:/temp/Job-2.odb,Step-1,Increment      1: Step Time =    1.000,"P-2-1",          5426,   155.703E-03,   46.9746E-03,            0.,NA,NA,"",   1.04745E+06,   1.03485E+06,   1.03485E+06
C:/temp/Job-2.odb,Step-1,Increment      1: Step Time =    1.000,"P-2-1",          5427,   154.112E-03,   155.311E-03,            0.,NA,NA,"",   1.04807E+06,   1.03560E+06,   1.03560E+06
C:/temp/Job-2.odb,Step-1,Increment      1: Step Time =    1.000,"P-2-1",          5428,   45.4880E-03,   90.0113E-03,            0.,NA,NA,"",    836.15E+03,   892.570E+03,   892.570E+03
C:/temp/Job-2.odb,Step-1,Increment      1: Step Time =    1.000,"P-2-1",          5429,   153.841E-03,   110.166E-03,            0.,NA,NA,"",   929.271E+03,   933.367E+03,   933.367E+03
C:/temp/Job-2.odb,Step-1,Increment      1: Step Time =    1.000,"P-2-1",          5430,   111.969E-03,   41.7624E-03,            0.,NA,NA,"",   1.02943E+06,   1.04563E+06,   1.04563E+06
C:/temp/Job-2.odb,Step-1,Increment      1: Step Time =    1.000,"P-2-1",          5431,   88.3314E-03,   154.842E-03,            0.,NA,NA,"",   1.03677E+06,   1.05957E+06,   1.05957E+06
C:/temp/Job-2.odb,Step-1,Increment      1: Step Time =    1.000,"P-2-1",          5432,   146.966E-03,   79.1183E-03,            0.,NA,NA,"",   1.00699E+06,   988.409E+03,   988.409E+03
C:/temp/Job-2.odb,Step-1,Increment      1: Step Time =    1.000,"P-2-1",          5433,   154.177E-03,   137.020E-03,            0.,NA,NA,"",   1.05027E+06,   1.03310E+06,   1.03310E+06
C:/temp/Job-2.odb,Step-1,Increment      1: Step Time =    1.000,"P-2-1",          5434,   45.6743E-03,   65.5511E-03,            0.,NA,NA,"",   979.481E+03,   1.01194E+06,   1.01194E+06
C:/temp/Job-2.odb,Step-1,Increment      1: Step Time =    1.000,"P-2-1",          5435,   64.0869E-03,   154.247E-03,            0.,NA,NA,"",   1.07001E+06,   1.07376E+06,   1.07376E+06
C:/temp/Job-2.odb,Step-1,Increment      1: Step Time =    1.000,"P-2-1",          5436,   75.9902E-03,   44.6904E-03,            0.,NA,NA,"",   1.06402E+06,   1.07234E+06,   1.07234E+06
C:/temp/Job-2.odb,Step-1,Increment      1: Step Time =    1.000,"P-2-1",          5437,   154.489E-03,   75.9096E-03,            0.,NA,NA,"",   1.00814E+06,   996.868E+03,   996.868E+03
C:/temp/Job-2.odb,Step-1,Increment      1: Step Time =    1.000,"P-2-1",          5438,   45.4600E-03,   123.354E-03,            0.,NA,NA,"",   918.217E+03,   961.041E+03,   961.041E+03
C:/temp/Job-2.odb,Step-1,Increment      1: Step Time =    1.000,"P-2-1",          5439,   124.303E-03,   155.207E-03,            0.,NA,NA,"",   1.06391E+06,   1.06244E+06,   1.06244E+06
C:/temp/Job-2.odb,Step-1,Increment      1: Step Time =    1.000,"P-2-1",          5440,   39.4182E-03,   104.881E-03,            0.,NA,NA,"",   821.807E+03,   888.545E+03,   888.545E+03
C:/temp/Job-2.odb,Step-1,Increment      1: Step Time =    1.000,"P-2-1",          5441,   104.228E-03,   161.108E-03,            0.,NA,NA,"",   1.01426E+06,   1.03471E+06,   1.03471E+06
C:/temp/Job-2.odb,Step-1,Increment      1: Step Time =    1.000,"P-2-1",          5442,   41.6900E-03,   149.558E-03,            0.,NA,NA,"",   1.00976E+06,   1.04076E+06,   1.04076E+06
C:/temp/Job-2.odb,Step-1,Increment      1: Step Time =    1.000,"P-2-1",          5443,   51.1300E-03,   41.1727E-03,            0.,NA,NA,"",   1.04908E+06,   1.06125E+06,   1.06125E+06
C:/temp/Job-2.odb,Step-1,Increment      1: Step Time =    1.000,"P-2-1",          5444,   148.884E-03,   158.639E-03,            0.,NA,NA,"",   1.05051E+06,   1.03825E+06,   1.03825E+06
C:/temp/Job-2.odb,Step-1,Increment      1: Step Time =    1.000,"P-2-1",          5445,   158.556E-03,   51.2189E-03,            0.,NA,NA,"",   1.04420E+06,   1.03201E+06,   1.03201E+06
C:/temp/Job-2.odb,Step-1,Increment      1: Step Time =    1.000,"P-2-1",          5446,   41.8545E-03,   84.7390E-03,            0.,NA,NA,"",   862.446E+03,   919.539E+03,   919.539E+03
C:/temp/Job-2.odb,Step-1,Increment      1: Step Time =    1.000,"P-2-1",          5447,   116.697E-03,   41.5714E-03,            0.,NA,NA,"",   1.03964E+06,   1.04935E+06,   1.04935E+06
C:/temp/Job-2.odb,Step-1,Increment      1: Step Time =    1.000,"P-2-1",          5448,   158.033E-03,   115.464E-03,            0.,NA,NA,"",   963.620E+03,   964.353E+03,   964.353E+03
C:/temp/Job-2.odb,Step-1,Increment      1: Step Time =    1.000,"P-2-1",          5449,   84.7344E-03,   159.636E-03,            0.,NA,NA,"",   1.03569E+06,   1.05119E+06,   1.05119E+06
C:/temp/Job-2.odb,Step-1,Increment      1: Step Time =    1.000,"P-2-1",          5450,   42.4941E-03,   160.000E-03,            0.,NA,NA,"",   1.03387E+06,   1.05623E+06,   1.05623E+06
C:/temp/Job-2.odb,Step-1,Increment      1: Step Time =    1.000,"P-2-1",          5451,   160.068E-03,   156.475E-03,            0.,NA,NA,"",   1.03677E+06,   1.02733E+06,   1.02733E+06
C:/temp/Job-2.odb,Step-1,Increment      1: Step Time =    1.000,"P-2-1",          5452,   41.3883E-03,   42.3610E-03,            0.,NA,NA,"",   1.02678E+06,   1.05286E+06,   1.05286E+06
C:/temp/Job-2.odb,Step-1,Increment      1: Step Time =    1.000,"P-2-1",          5453,   155.715E-03,   41.7081E-03,            0.,NA,NA,"",   1.04140E+06,   1.03079E+06,   1.03079E+06
C:/temp/Job-2.odb,Step-1,Increment      1: Step Time =    1.000,"P-2-1",          5454,   136.595E-03,   43.2540E-03,            0.,NA,NA,"",   1.06576E+06,   1.05358E+06,   1.05358E+06
C:/temp/Job-2.odb,Step-1,Increment      1: Step Time =    1.000,"P-2-1",          5455,   156.314E-03,   137.771E-03,            0.,NA,NA,"",   1.04496E+06,   1.02981E+06,   1.02981E+06
C:/temp/Job-2.odb,Step-1,Increment      1: Step Time =    1.000,"P-2-1",          5456,   41.3463E-03,   61.0935E-03,            0.,NA,NA,"",   975.738E+03,   1.01429E+06,   1.01429E+06
C:/temp/Job-2.odb,Step-1,Increment      1: Step Time =    1.000,"P-2-1",          5457,   61.4570E-03,   157.298E-03,            0.,NA,NA,"",   1.06302E+06,   1.06783E+06,   1.06783E+06
C:/temp/Job-2.odb,Step-1,Increment      1: Step Time =    1.000,"P-2-1",          5458,   59.8416E-03,   61.6703E-03,            0.,NA,NA,"",   1.06754E+06,   1.06997E+06,   1.06997E+06
C:/temp/Job-2.odb,Step-1,Increment      1: Step Time =    1.000,"P-2-1",          5459,   129.793E-03,   52.0496E-03,            0.,NA,NA,"",   1.09756E+06,   1.08255E+06,   1.08255E+06
C:/temp/Job-2.odb,Step-1,Increment      1: Step Time =    1.000,"P-2-1",          5460,   141.487E-03,   138.058E-03,            0.,NA,NA,"",   1.09733E+06,   1.06823E+06,   1.06823E+06
C:/temp/Job-2.odb,Step-1,Increment      1: Step Time =    1.000,"P-2-1",          5461,   61.2005E-03,   58.8844E-03,            0.,NA,NA,"",   1.07571E+06,   1.07728E+06,   1.07728E+06
C:/temp/Job-2.odb,Step-1,Increment      1: Step Time =    1.000,"P-2-1",          5462,   72.2471E-03,   152.188E-03,            0.,NA,NA,"",   1.07693E+06,   1.08165E+06,   1.08165E+06
C:/temp/Job-2.odb,Step-1,Increment      1: Step Time =    1.000,"P-2-1",          5463,   128.791E-03,   47.8749E-03,            0.,NA,NA,"",   1.08098E+06,   1.07131E+06,   1.07131E+06
C:/temp/Job-2.odb,Step-1,Increment      1: Step Time =    1.000,"P-2-1",          5464,   95.2253E-03,   155.720E-03,            0.,NA,NA,"",   1.02174E+06,   1.04955E+06,   1.04955E+06
C:/temp/Job-2.odb,Step-1,Increment      1: Step Time =    1.000,"P-2-1",          5465,   42.7314E-03,   94.0316E-03,            0.,NA,NA,"",   821.692E+03,   884.436E+03,   884.436E+03
C:/temp/Job-2.odb,Step-1,Increment      1: Step Time =    1.000,"P-2-1",          5466,   121.824E-03,   155.589E-03,            0.,NA,NA,"",   1.05853E+06,   1.06080E+06,   1.06080E+06
C:/temp/Job-2.odb,Step-1,Increment      1: Step Time =    1.000,"P-2-1",          5467,   155.950E-03,   77.4525E-03,            0.,NA,NA,"",   999.299E+03,   990.833E+03,   990.833E+03
C:/temp/Job-2.odb,Step-1,Increment      1: Step Time =    1.000,"P-2-1",          5468,   43.6149E-03,   122.616E-03,            0.,NA,NA,"",   907.204E+03,   954.381E+03,   954.381E+03
C:/temp/Job-2.odb,Step-1,Increment      1: Step Time =    1.000,"P-2-1",          5469,   80.6048E-03,   43.8260E-03,            0.,NA,NA,"",   1.05301E+06,   1.06599E+06,   1.06599E+06
C:/temp/Job-2.odb,Step-1,Increment      1: Step Time =    1.000,"P-2-1",          5470,   156.089E-03,   104.094E-03,            0.,NA,NA,"",   913.161E+03,   923.173E+03,   923.173E+03
C:/temp/Job-2.odb,Step-1,Increment      1: Step Time =    1.000,"P-2-1",          5471,   105.850E-03,   42.7697E-03,            0.,NA,NA,"",   1.02082E+06,   1.04412E+06,   1.04412E+06
C:/temp/Job-2.odb,Step-1,Increment      1: Step Time =    1.000,"P-2-1",          5472,   68.8404E-03,   150.705E-03,            0.,NA,NA,"",   1.08067E+06,   1.08334E+06,   1.08334E+06
C:/temp/Job-2.odb,Step-1,Increment      1: Step Time =    1.000,"P-2-1",          5473,   137.416E-03,   142.829E-03,            0.,NA,NA,"",   1.10388E+06,   1.07841E+06,   1.07841E+06
C:/temp/Job-2.odb,Step-1,Increment      1: Step Time =    1.000,"P-2-1",          5474,   119.336E-03,   158.669E-03,            0.,NA,NA,"",   1.04362E+06,   1.04975E+06,   1.04975E+06
C:/temp/Job-2.odb,Step-1,Increment      1: Step Time =    1.000,"P-2-1",          5475,   41.0508E-03,   121.511E-03,            0.,NA,NA,"",   892.748E+03,   945.842E+03,   945.842E+03
C:/temp/Job-2.odb,Step-1,Increment      1: Step Time =    1.000,"P-2-1",          5476,   159.159E-03,   77.7715E-03,            0.,NA,NA,"",   993.396E+03,   988.663E+03,   988.663E+03
C:/temp/Job-2.odb,Step-1,Increment      1: Step Time =    1.000,"P-2-1",          5477,   80.3961E-03,   41.2888E-03,            0.,NA,NA,"",   1.04686E+06,   1.05890E+06,   1.05890E+06
C:/temp/Job-2.odb,Step-1,Increment      1: Step Time =    1.000,"P-2-1",          5478,   67.7774E-03,   143.256E-03,            0.,NA,NA,"",   1.09597E+06,   1.09419E+06,   1.09419E+06
C:/temp/Job-2.odb,Step-1,Increment      1: Step Time =    1.000,"P-2-1",          5479,   85.0217E-03,   149.718E-03,            0.,NA,NA,"",   1.06007E+06,   1.08116E+06,   1.08116E+06
C:/temp/Job-2.odb,Step-1,Increment      1: Step Time =    1.000,"P-2-1",          5480,   116.364E-03,   50.6899E-03,            0.,NA,NA,"",   1.06710E+06,   1.07879E+06,   1.07879E+06
C:/temp/Job-2.odb,Step-1,Increment      1: Step Time =    1.000,"P-2-1",          5481,   84.2905E-03,   154.751E-03,            0.,NA,NA,"",   1.04794E+06,   1.06572E+06,   1.06572E+06
C:/temp/Job-2.odb,Step-1,Increment      1: Step Time =    1.000,"P-2-1",          5482,   116.996E-03,   46.9582E-03,            0.,NA,NA,"",   1.05596E+06,   1.06602E+06,   1.06602E+06
C:/temp/Job-2.odb,Step-1,Increment      1: Step Time =    1.000,"P-2-1",          5483,   48.3824E-03,   84.0139E-03,            0.,NA,NA,"",   877.035E+03,   922.478E+03,   922.478E+03
C:/temp/Job-2.odb,Step-1,Increment      1: Step Time =    1.000,"P-2-1",          5484,   89.6338E-03,   46.1120E-03,            0.,NA,NA,"",   1.03525E+06,   1.06058E+06,   1.06058E+06
C:/temp/Job-2.odb,Step-1,Increment      1: Step Time =    1.000,"P-2-1",          5485,   149.259E-03,   120.885E-03,            0.,NA,NA,"",   1.00156E+06,   986.416E+03,   986.416E+03
C:/temp/Job-2.odb,Step-1,Increment      1: Step Time =    1.000,"P-2-1",          5486,   41.3380E-03,   140.660E-03,            0.,NA,NA,"",   981.543E+03,   1.01903E+06,   1.01903E+06
C:/temp/Job-2.odb,Step-1,Increment      1: Step Time =    1.000,"P-2-1",          5487,   141.456E-03,   159.836E-03,            0.,NA,NA,"",   1.05516E+06,   1.04360E+06,   1.04360E+06
C:/temp/Job-2.odb,Step-1,Increment      1: Step Time =    1.000,"P-2-1",          5488,   158.877E-03,   59.4184E-03,            0.,NA,NA,"",   1.04143E+06,   1.02852E+06,   1.02852E+06
C:/temp/Job-2.odb,Step-1,Increment      1: Step Time =    1.000,"P-2-1",          5489,   160.225E-03,   146.021E-03,            0.,NA,NA,"",   1.04074E+06,   1.02933E+06,   1.02933E+06
C:/temp/Job-2.odb,Step-1,Increment      1: Step Time =    1.000,"P-2-1",          5490,   145.753E-03,   40.2765E-03,            0.,NA,NA,"",   1.05180E+06,   1.03980E+06,   1.03980E+06
C:/temp/Job-2.odb,Step-1,Increment      1: Step Time =    1.000,"P-2-1",          5491,   55.0907E-03,   160.261E-03,            0.,NA,NA,"",   1.05438E+06,   1.06245E+06,   1.06245E+06
C:/temp/Job-2.odb,Step-1,Increment      1: Step Time =    1.000,"P-2-1",          5492,   40.2015E-03,   52.5837E-03,            0.,NA,NA,"",   999.081E+03,   1.03414E+06,   1.03414E+06
C:/temp/Job-2.odb,Step-1,Increment      1: Step Time =    1.000,"P-2-1",          5493,   154.755E-03,   123.436E-03,            0.,NA,NA,"",   1.00644E+06,   995.739E+03,   995.739E+03
C:/temp/Job-2.odb,Step-1,Increment      1: Step Time =    1.000,"P-2-1",          5494,   75.7311E-03,   153.811E-03,            0.,NA,NA,"",   1.06852E+06,   1.07645E+06,   1.07645E+06
C:/temp/Job-2.odb,Step-1,Increment      1: Step Time =    1.000,"P-2-1",          5495,   126.068E-03,   44.6664E-03,            0.,NA,NA,"",   1.06614E+06,   1.06211E+06,   1.06211E+06
C:/temp/Job-2.odb,Step-1,Increment      1: Step Time =    1.000,"P-2-1",          5496,   45.9971E-03,   77.3637E-03,            0.,NA,NA,"",   917.927E+03,   959.768E+03,   959.768E+03
C:/temp/Job-2.odb,Step-1,Increment      1: Step Time =    1.000,"P-2-1",          5497,   153.658E-03,   65.7788E-03,            0.,NA,NA,"",   1.04759E+06,   1.02979E+06,   1.02979E+06
C:/temp/Job-2.odb,Step-1,Increment      1: Step Time =    1.000,"P-2-1",          5498,   135.352E-03,   156.120E-03,            0.,NA,NA,"",   1.06849E+06,   1.05657E+06,   1.05657E+06
C:/temp/Job-2.odb,Step-1,Increment      1: Step Time =    1.000,"P-2-1",          5499,   65.0600E-03,   46.2556E-03,            0.,NA,NA,"",   1.07197E+06,   1.07548E+06,   1.07548E+06
C:/temp/Job-2.odb,Step-1,Increment      1: Step Time =    1.000,"P-2-1",          5500,   46.0782E-03,   134.855E-03,            0.,NA,NA,"",   983.470E+03,   1.01455E+06,   1.01455E+06
C:/temp/Job-2.odb,Step-1,Increment      1: Step Time =    1.000,"P-2-1",          5501,   56.6884E-03,   120.765E-03,            0.,NA,NA,"",   950.819E+03,   969.454E+03,   969.454E+03
C:/temp/Job-2.odb,Step-1,Increment      1: Step Time =    1.000,"P-2-1",          5502,   97.4776E-03,   154.402E-03,            0.,NA,NA,"",   1.02072E+06,   1.05107E+06,   1.05107E+06
C:/temp/Job-2.odb,Step-1,Increment      1: Step Time =    1.000,"P-2-1",          5503,   102.487E-03,   46.8089E-03,            0.,NA,NA,"",   1.02163E+06,   1.05301E+06,   1.05301E+06
C:/temp/Job-2.odb,Step-1,Increment      1: Step Time =    1.000,"P-2-1",          5504,   50.6625E-03,   79.0573E-03,            0.,NA,NA,"",   923.913E+03,   957.574E+03,   957.574E+03
C:/temp/Job-2.odb,Step-1,Increment      1: Step Time =    1.000,"P-2-1",          5505,   155.442E-03,   125.365E-03,            0.,NA,NA,"",   1.01421E+06,   1.00253E+06,   1.00253E+06
C:/temp/Job-2.odb,Step-1,Increment      1: Step Time =    1.000,"P-2-1",          5506,   155.156E-03,   134.182E-03,            0.,NA,NA,"",   1.04217E+06,   1.02634E+06,   1.02634E+06
C:/temp/Job-2.odb,Step-1,Increment      1: Step Time =    1.000,"P-2-1",          5507,   66.7441E-03,   153.731E-03,            0.,NA,NA,"",   1.07282E+06,   1.07619E+06,   1.07619E+06
C:/temp/Job-2.odb,Step-1,Increment      1: Step Time =    1.000,"P-2-1",          5508,   72.8775E-03,   154.738E-03,            0.,NA,NA,"",   1.06937E+06,   1.07516E+06,   1.07516E+06
C:/temp/Job-2.odb,Step-1,Increment      1: Step Time =    1.000,"P-2-1",          5509,   132.489E-03,   45.5527E-03,            0.,NA,NA,"",   1.07394E+06,   1.06251E+06,   1.06251E+06
C:/temp/Job-2.odb,Step-1,Increment      1: Step Time =    1.000,"P-2-1",          5510,   127.940E-03,   43.4405E-03,            0.,NA,NA,"",   1.06387E+06,   1.05810E+06,   1.05810E+06
C:/temp/Job-2.odb,Step-1,Increment      1: Step Time =    1.000,"P-2-1",          5511,   48.0620E-03,   68.2434E-03,            0.,NA,NA,"",   979.650E+03,   1.00866E+06,   1.00866E+06
C:/temp/Job-2.odb,Step-1,Increment      1: Step Time =    1.000,"P-2-1",          5512,   43.4103E-03,   74.0345E-03,            0.,NA,NA,"",   926.356E+03,   970.774E+03,   970.774E+03
C:/temp/Job-2.odb,Step-1,Increment      1: Step Time =    1.000,"P-2-1",          5513,   153.238E-03,   73.3160E-03,            0.,NA,NA,"",   1.02360E+06,   1.00842E+06,   1.00842E+06
C:/temp/Job-2.odb,Step-1,Increment      1: Step Time =    1.000,"P-2-1",          5514,   155.458E-03,   67.6321E-03,            0.,NA,NA,"",   1.03755E+06,   1.02223E+06,   1.02223E+06
C:/temp/Job-2.odb,Step-1,Increment      1: Step Time =    1.000,"P-2-1",          5515,   126.714E-03,   154.775E-03,            0.,NA,NA,"",   1.06898E+06,   1.06405E+06,   1.06405E+06
C:/temp/Job-2.odb,Step-1,Increment      1: Step Time =    1.000,"P-2-1",          5516,   132.994E-03,   155.270E-03,            0.,NA,NA,"",   1.07140E+06,   1.06043E+06,   1.06043E+06
C:/temp/Job-2.odb,Step-1,Increment      1: Step Time =    1.000,"P-2-1",          5517,   73.7887E-03,   45.2239E-03,            0.,NA,NA,"",   1.06836E+06,   1.07487E+06,   1.07487E+06
C:/temp/Job-2.odb,Step-1,Increment      1: Step Time =    1.000,"P-2-1",          5518,   68.5119E-03,   45.4651E-03,            0.,NA,NA,"",   1.07173E+06,   1.07564E+06,   1.07564E+06
C:/temp/Job-2.odb,Step-1,Increment      1: Step Time =    1.000,"P-2-1",          5519,   45.7859E-03,   130.894E-03,            0.,NA,NA,"",   961.714E+03,   996.809E+03,   996.809E+03
C:/temp/Job-2.odb,Step-1,Increment      1: Step Time =    1.000,"P-2-1",          5520,   46.4845E-03,   125.568E-03,            0.,NA,NA,"",   936.551E+03,   974.958E+03,   974.958E+03
C:/temp/Job-2.odb,Step-1,Increment      1: Step Time =    1.000,"P-2-1",          5521,   148.649E-03,   80.4078E-03,            0.,NA,NA,"",   992.876E+03,   978.458E+03,   978.458E+03
C:/temp/Job-2.odb,Step-1,Increment      1: Step Time =    1.000,"P-2-1",          5522,   56.0248E-03,   67.9536E-03,            0.,NA,NA,"",   1.02622E+06,   1.03693E+06,   1.03693E+06
C:/temp/Job-2.odb,Step-1,Increment      1: Step Time =    1.000,"P-2-1",          5523,   84.4524E-03,   157.322E-03,            0.,NA,NA,"",   1.04124E+06,   1.05784E+06,   1.05784E+06
C:/temp/Job-2.odb,Step-1,Increment      1: Step Time =    1.000,"P-2-1",          5524,   155.549E-03,   115.672E-03,            0.,NA,NA,"",   962.801E+03,   961.349E+03,   961.349E+03
C:/temp/Job-2.odb,Step-1,Increment      1: Step Time =    1.000,"P-2-1",          5525,   115.802E-03,   44.9178E-03,            0.,NA,NA,"",   1.04649E+06,   1.05852E+06,   1.05852E+06
C:/temp/Job-2.odb,Step-1,Increment      1: Step Time =    1.000,"P-2-1",          5526,   43.6441E-03,   84.4910E-03,            0.,NA,NA,"",   866.535E+03,   920.517E+03,   920.517E+03
C:/temp/Job-2.odb,Step-1,Increment      1: Step Time =    1.000,"P-2-1",          5527,   132.238E-03,   63.6070E-03,            0.,NA,NA,"",   1.13634E+06,   1.10225E+06,   1.10225E+06
C:/temp/Job-2.odb,Step-1,Increment      1: Step Time =    1.000,"P-2-1",          5528,   155.750E-03,   50.6434E-03,            0.,NA,NA,"",   1.05041E+06,   1.03651E+06,   1.03651E+06
C:/temp/Job-2.odb,Step-1,Increment      1: Step Time =    1.000,"P-2-1",          5529,   149.221E-03,   156.267E-03,            0.,NA,NA,"",   1.05430E+06,   1.04085E+06,   1.04085E+06
C:/temp/Job-2.odb,Step-1,Increment      1: Step Time =    1.000,"P-2-1",          5530,   50.3114E-03,   43.5353E-03,            0.,NA,NA,"",   1.04661E+06,   1.06057E+06,   1.06057E+06
C:/temp/Job-2.odb,Step-1,Increment      1: Step Time =    1.000,"P-2-1",          5531,   43.5054E-03,   148.705E-03,            0.,NA,NA,"",   1.01386E+06,   1.04234E+06,   1.04234E+06
C:/temp/Job-2.odb,Step-1,Increment      1: Step Time =    1.000,"P-2-1",          5532,   136.894E-03,   145.382E-03,            0.,NA,NA,"",   1.09850E+06,   1.07606E+06,   1.07606E+06
C:/temp/Job-2.odb,Step-1,Increment      1: Step Time =    1.000,"P-2-1",          5533,   63.3407E-03,   58.4208E-03,            0.,NA,NA,"",   1.08404E+06,   1.08362E+06,   1.08362E+06
C:/temp/Job-2.odb,Step-1,Increment      1: Step Time =    1.000,"P-2-1",          5534,   60.0435E-03,   126.589E-03,            0.,NA,NA,"",   1.02602E+06,   1.02805E+06,   1.02805E+06
C:/temp/Job-2.odb,Step-1,Increment      1: Step Time =    1.000,"P-2-1",          5535,   56.4094E-03,   130.496E-03,            0.,NA,NA,"",   1.02214E+06,   1.03204E+06,   1.03204E+06
C:/temp/Job-2.odb,Step-1,Increment      1: Step Time =    1.000,"P-2-1",          5536,   60.9037E-03,   138.471E-03,            0.,NA,NA,"",   1.07310E+06,   1.07393E+06,   1.07393E+06
C:/temp/Job-2.odb,Step-1,Increment      1: Step Time =    1.000,"P-2-1",          5537,   40.8763E-03,   106.544E-03,            0.,NA,NA,"",   825.225E+03,   889.603E+03,   889.603E+03
C:/temp/Job-2.odb,Step-1,Increment      1: Step Time =    1.000,"P-2-1",          5538,   108.028E-03,   159.217E-03,            0.,NA,NA,"",   1.02070E+06,   1.04036E+06,   1.04036E+06
C:/temp/Job-2.odb,Step-1,Increment      1: Step Time =    1.000,"P-2-1",          5539,   62.4479E-03,   141.810E-03,            0.,NA,NA,"",   1.08100E+06,   1.08123E+06,   1.08123E+06
C:/temp/Job-2.odb,Step-1,Increment      1: Step Time =    1.000,"P-2-1",          5540,   160.526E-03,   160.233E-03,            0.,NA,NA,"",   1.03228E+06,   1.02414E+06,   1.02414E+06
C:/temp/Job-2.odb,Step-1,Increment      1: Step Time =    1.000,"P-2-1",          5541,   162.594E-03,   38.0453E-03,            0.,NA,NA,"",   1.02817E+06,   1.02116E+06,   1.02116E+06
C:/temp/Job-2.odb,Step-1,Increment      1: Step Time =    1.000,"P-2-1",          5542,   38.3682E-03,   162.085E-03,            0.,NA,NA,"",   1.02901E+06,   1.05628E+06,   1.05628E+06
C:/temp/Job-2.odb,Step-1,Increment      1: Step Time =    1.000,"P-2-1",          5543,   40.3171E-03,   39.7201E-03,            0.,NA,NA,"",   1.02899E+06,   1.05487E+06,   1.05487E+06
C:/temp/Job-2.odb,Step-1,Increment      1: Step Time =    1.000,"P-2-1",          5544,   151.179E-03,   34.7186E-03,            0.,NA,NA,"",   1.03587E+06,   1.02709E+06,   1.02709E+06
C:/temp/Job-2.odb,Step-1,Increment      1: Step Time =    1.000,"P-2-1",          5545,   164.939E-03,   152.541E-03,            0.,NA,NA,"",   1.03067E+06,   1.02306E+06,   1.02306E+06
C:/temp/Job-2.odb,Step-1,Increment      1: Step Time =    1.000,"P-2-1",          5546,   35.4474E-03,   48.6282E-03,            0.,NA,NA,"",   992.395E+03,   1.03396E+06,   1.03396E+06
C:/temp/Job-2.odb,Step-1,Increment      1: Step Time =    1.000,"P-2-1",          5547,   48.4212E-03,   165.031E-03,            0.,NA,NA,"",   1.04691E+06,   1.05893E+06,   1.05893E+06
C:/temp/Job-2.odb,Step-1,Increment      1: Step Time =    1.000,"P-2-1",          5548,   55.4022E-03,   72.4944E-03,            0.,NA,NA,"",   999.403E+03,   1.01383E+06,   1.01383E+06
C:/temp/Job-2.odb,Step-1,Increment      1: Step Time =    1.000,"P-2-1",          5549,   82.6409E-03,   159.953E-03,            0.,NA,NA,"",   1.03946E+06,   1.05305E+06,   1.05305E+06
C:/temp/Job-2.odb,Step-1,Increment      1: Step Time =    1.000,"P-2-1",          5550,   160.805E-03,   119.044E-03,            0.,NA,NA,"",   979.612E+03,   979.170E+03,   979.170E+03
C:/temp/Job-2.odb,Step-1,Increment      1: Step Time =    1.000,"P-2-1",          5551,   118.663E-03,   40.1864E-03,            0.,NA,NA,"",   1.03992E+06,   1.04662E+06,   1.04662E+06
C:/temp/Job-2.odb,Step-1,Increment      1: Step Time =    1.000,"P-2-1",          5552,   39.9307E-03,   82.4393E-03,            0.,NA,NA,"",   869.923E+03,   928.250E+03,   928.250E+03
C:/temp/Job-2.odb,Step-1,Increment      1: Step Time =    1.000,"P-2-1",          5553,   160.005E-03,   54.1253E-03,            0.,NA,NA,"",   1.04123E+06,   1.02959E+06,   1.02959E+06
C:/temp/Job-2.odb,Step-1,Increment      1: Step Time =    1.000,"P-2-1",          5554,   146.309E-03,   160.200E-03,            0.,NA,NA,"",   1.05036E+06,   1.03867E+06,   1.03867E+06
C:/temp/Job-2.odb,Step-1,Increment      1: Step Time =    1.000,"P-2-1",          5555,   54.3691E-03,   40.2173E-03,            0.,NA,NA,"",   1.05370E+06,   1.06257E+06,   1.06257E+06
C:/temp/Job-2.odb,Step-1,Increment      1: Step Time =    1.000,"P-2-1",          5556,   132.962E-03,   144.410E-03,            0.,NA,NA,"",   1.10862E+06,   1.08659E+06,   1.08659E+06
C:/temp/Job-2.odb,Step-1,Increment      1: Step Time =    1.000,"P-2-1",          5557,   67.9431E-03,   55.2915E-03,            0.,NA,NA,"",   1.09444E+06,   1.09335E+06,   1.09335E+06
C:/temp/Job-2.odb,Step-1,Increment      1: Step Time =    1.000,"P-2-1",          5558,   57.3236E-03,   160.540E-03,            0.,NA,NA,"",   1.05643E+06,   1.06288E+06,   1.06288E+06
C:/temp/Job-2.odb,Step-1,Increment      1: Step Time =    1.000,"P-2-1",          5559,   159.905E-03,   143.602E-03,            0.,NA,NA,"",   1.04129E+06,   1.02929E+06,   1.02929E+06
C:/temp/Job-2.odb,Step-1,Increment      1: Step Time =    1.000,"P-2-1",          5560,   39.3481E-03,   56.9031E-03,            0.,NA,NA,"",   981.414E+03,   1.02126E+06,   1.02126E+06
C:/temp/Job-2.odb,Step-1,Increment      1: Step Time =    1.000,"P-2-1",          5561,   143.350E-03,   40.7312E-03,            0.,NA,NA,"",   1.05498E+06,   1.04279E+06,   1.04279E+06
C:/temp/Job-2.odb,Step-1,Increment      1: Step Time =    1.000,"P-2-1",          5562,   148.054E-03,   123.559E-03,            0.,NA,NA,"",   1.02364E+06,   1.00345E+06,   1.00345E+06
C:/temp/Job-2.odb,Step-1,Increment      1: Step Time =    1.000,"P-2-1",          5563,   96.2482E-03,   47.6646E-03,            0.,NA,NA,"",   1.02407E+06,   1.05737E+06,   1.05737E+06
C:/temp/Job-2.odb,Step-1,Increment      1: Step Time =    1.000,"P-2-1",          5564,   46.0483E-03,   94.7937E-03,            0.,NA,NA,"",   814.995E+03,   874.384E+03,   874.384E+03
C:/temp/Job-2.odb,Step-1,Increment      1: Step Time =    1.000,"P-2-1",          5565,   147.790E-03,   77.2851E-03,            0.,NA,NA,"",   1.01811E+06,   998.510E+03,   998.510E+03
C:/temp/Job-2.odb,Step-1,Increment      1: Step Time =    1.000,"P-2-1",          5566,   130.127E-03,   58.6475E-03,            0.,NA,NA,"",   1.12428E+06,   1.09990E+06,   1.09990E+06
C:/temp/Job-2.odb,Step-1,Increment      1: Step Time =    1.000,"P-2-1",          5567,   109.376E-03,   154.474E-03,            0.,NA,NA,"",   1.03126E+06,   1.05378E+06,   1.05378E+06
C:/temp/Job-2.odb,Step-1,Increment      1: Step Time =    1.000,"P-2-1",          5568,   134.369E-03,   45.2197E-03,            0.,NA,NA,"",   1.07260E+06,   1.06014E+06,   1.06014E+06
C:/temp/Job-2.odb,Step-1,Increment      1: Step Time =    1.000,"P-2-1",          5569,   155.377E-03,   138.884E-03,            0.,NA,NA,"",   1.04897E+06,   1.03289E+06,   1.03289E+06
C:/temp/Job-2.odb,Step-1,Increment      1: Step Time =    1.000,"P-2-1",          5570,   43.5992E-03,   64.7989E-03,            0.,NA,NA,"",   971.255E+03,   1.00781E+06,   1.00781E+06
C:/temp/Job-2.odb,Step-1,Increment      1: Step Time =    1.000,"P-2-1",          5571,   77.7823E-03,   52.2629E-03,            0.,NA,NA,"",   1.08535E+06,   1.09458E+06,   1.09458E+06
C:/temp/Job-2.odb,Step-1,Increment      1: Step Time =    1.000,"P-2-1",          5572,   39.2585E-03,   45.7518E-03,            0.,NA,NA,"",   1.01398E+06,   1.04594E+06,   1.04594E+06
C:/temp/Job-2.odb,Step-1,Increment      1: Step Time =    1.000,"P-2-1",          5573,   153.486E-03,   36.9915E-03,            0.,NA,NA,"",   1.03754E+06,   1.02817E+06,   1.02817E+06
C:/temp/Job-2.odb,Step-1,Increment      1: Step Time =    1.000,"P-2-1",          5574,   45.8080E-03,   162.791E-03,            0.,NA,NA,"",   1.04266E+06,   1.05905E+06,   1.05905E+06
C:/temp/Job-2.odb,Step-1,Increment      1: Step Time =    1.000,"P-2-1",          5575,   160.935E-03,   153.822E-03,            0.,NA,NA,"",   1.03702E+06,   1.02742E+06,   1.02742E+06
C:/temp/Job-2.odb,Step-1,Increment      1: Step Time =    1.000,"P-2-1",          5576,   90.2320E-03,   147.823E-03,            0.,NA,NA,"",   1.04708E+06,   1.07915E+06,   1.07915E+06
C:/temp/Job-2.odb,Step-1,Increment      1: Step Time =    1.000,"P-2-1",          5577,   109.884E-03,   50.8439E-03,            0.,NA,NA,"",   1.04422E+06,   1.07109E+06,   1.07109E+06
C:/temp/Job-2.odb,Step-1,Increment      1: Step Time =    1.000,"P-2-1",          5578,   54.3711E-03,   131.361E-03,            0.,NA,NA,"",   1.01237E+06,   1.02700E+06,   1.02700E+06
C:/temp/Job-2.odb,Step-1,Increment      1: Step Time =    1.000,"P-2-1",          5579,   60.5819E-03,   56.0961E-03,            0.,NA,NA,"",   1.07242E+06,   1.07580E+06,   1.07580E+06
C:/temp/Job-2.odb,Step-1,Increment      1: Step Time =    1.000,"P-2-1",          5580,   139.719E-03,   143.759E-03,            0.,NA,NA,"",   1.09623E+06,   1.07180E+06,   1.07180E+06
C:/temp/Job-2.odb,Step-1,Increment      1: Step Time =    1.000,"P-2-1",          5581,   56.6239E-03,   41.4063E-03,            0.,NA,NA,"",   1.05704E+06,   1.06452E+06,   1.06452E+06
C:/temp/Job-2.odb,Step-1,Increment      1: Step Time =    1.000,"P-2-1",          5582,   40.7623E-03,   144.568E-03,            0.,NA,NA,"",   991.619E+03,   1.02778E+06,   1.02778E+06
C:/temp/Job-2.odb,Step-1,Increment      1: Step Time =    1.000,"P-2-1",          5583,   160.406E-03,   57.4093E-03,            0.,NA,NA,"",   1.03947E+06,   1.02782E+06,   1.02782E+06
C:/temp/Job-2.odb,Step-1,Increment      1: Step Time =    1.000,"P-2-1",          5584,   143.438E-03,   161.032E-03,            0.,NA,NA,"",   1.05108E+06,   1.03991E+06,   1.03991E+06
C:/temp/Job-2.odb,Step-1,Increment      1: Step Time =    1.000,"P-2-1",          5585,   48.0505E-03,   93.7036E-03,            0.,NA,NA,"",   815.611E+03,   871.917E+03,   871.917E+03
C:/temp/Job-2.odb,Step-1,Increment      1: Step Time =    1.000,"P-2-1",          5586,   151.501E-03,   122.716E-03,            0.,NA,NA,"",   1.00815E+06,   994.261E+03,   994.261E+03
C:/temp/Job-2.odb,Step-1,Increment      1: Step Time =    1.000,"P-2-1",          5587,   53.3244E-03,   67.6729E-03,            0.,NA,NA,"",   1.01096E+06,   1.02795E+06,   1.02795E+06
C:/temp/Job-2.odb,Step-1,Increment      1: Step Time =    1.000,"P-2-1",          5588,   144.135E-03,   135.476E-03,            0.,NA,NA,"",   1.08549E+06,   1.05704E+06,   1.05704E+06
C:/temp/Job-2.odb,Step-1,Increment      1: Step Time =    1.000,"P-2-1",          5589,   90.9085E-03,   153.494E-03,            0.,NA,NA,"",   1.03295E+06,   1.06008E+06,   1.06008E+06
C:/temp/Job-2.odb,Step-1,Increment      1: Step Time =    1.000,"P-2-1",          5590,   44.8217E-03,   92.9459E-03,            0.,NA,NA,"",   823.625E+03,   883.257E+03,   883.257E+03
C:/temp/Job-2.odb,Step-1,Increment      1: Step Time =    1.000,"P-2-1",          5591,   154.828E-03,   102.645E-03,            0.,NA,NA,"",   905.051E+03,   915.607E+03,   915.607E+03
C:/temp/Job-2.odb,Step-1,Increment      1: Step Time =    1.000,"P-2-1",          5592,   71.4962E-03,   149.916E-03,            0.,NA,NA,"",   1.08379E+06,   1.08710E+06,   1.08710E+06
C:/temp/Job-2.odb,Step-1,Increment      1: Step Time =    1.000,"P-2-1",          5593,   68.1830E-03,   148.396E-03,            0.,NA,NA,"",   1.08567E+06,   1.08717E+06,   1.08717E+06
C:/temp/Job-2.odb,Step-1,Increment      1: Step Time =    1.000,"P-2-1",          5594,   81.8246E-03,   154.946E-03,            0.,NA,NA,"",   1.05358E+06,   1.06807E+06,   1.06807E+06
C:/temp/Job-2.odb,Step-1,Increment      1: Step Time =    1.000,"P-2-1",          5595,   118.954E-03,   45.4066E-03,            0.,NA,NA,"",   1.05602E+06,   1.06250E+06,   1.06250E+06
C:/temp/Job-2.odb,Step-1,Increment      1: Step Time =    1.000,"P-2-1",          5596,   45.9863E-03,   86.1184E-03,            0.,NA,NA,"",   859.399E+03,   911.432E+03,   911.432E+03
C:/temp/Job-2.odb,Step-1,Increment      1: Step Time =    1.000,"P-2-1",          5597,   75.0511E-03,   50.5468E-03,            0.,NA,NA,"",   1.08336E+06,   1.08950E+06,   1.08950E+06
C:/temp/Job-2.odb,Step-1,Increment      1: Step Time =    1.000,"P-2-1",          5598,   158.948E-03,   149.311E-03,            0.,NA,NA,"",   1.04322E+06,   1.03144E+06,   1.03144E+06
C:/temp/Job-2.odb,Step-1,Increment      1: Step Time =    1.000,"P-2-1",          5599,   148.281E-03,   39.7266E-03,            0.,NA,NA,"",   1.04826E+06,   1.03668E+06,   1.03668E+06
C:/temp/Job-2.odb,Step-1,Increment      1: Step Time =    1.000,"P-2-1",          5600,   51.3160E-03,   156.392E-03,            0.,NA,NA,"",   1.04857E+06,   1.06136E+06,   1.06136E+06
C:/temp/Job-2.odb,Step-1,Increment      1: Step Time =    1.000,"P-2-1",          5601,   41.9561E-03,   51.8631E-03,            0.,NA,NA,"",   1.00721E+06,   1.03865E+06,   1.03865E+06
C:/temp/Job-2.odb,Step-1,Increment      1: Step Time =    1.000,"P-2-1",          5602,   153.647E-03,   121.276E-03,            0.,NA,NA,"",   996.476E+03,   986.607E+03,   986.607E+03
C:/temp/Job-2.odb,Step-1,Increment      1: Step Time =    1.000,"P-2-1",          5603,   47.1522E-03,   78.6815E-03,            0.,NA,NA,"",   912.538E+03,   953.772E+03,   953.772E+03
C:/temp/Job-2.odb,Step-1,Increment      1: Step Time =    1.000,"P-2-1",          5604,   152.700E-03,   62.6282E-03,            0.,NA,NA,"",   1.05533E+06,   1.03646E+06,   1.03646E+06
C:/temp/Job-2.odb,Step-1,Increment      1: Step Time =    1.000,"P-2-1",          5605,   138.413E-03,   153.851E-03,            0.,NA,NA,"",   1.07337E+06,   1.05831E+06,   1.05831E+06
C:/temp/Job-2.odb,Step-1,Increment      1: Step Time =    1.000,"P-2-1",          5606,   61.8286E-03,   48.0841E-03,            0.,NA,NA,"",   1.07048E+06,   1.07467E+06,   1.07467E+06
C:/temp/Job-2.odb,Step-1,Increment      1: Step Time =    1.000,"P-2-1",          5607,   47.6634E-03,   136.470E-03,            0.,NA,NA,"",   997.190E+03,   1.02391E+06,   1.02391E+06
C:/temp/Job-2.odb,Step-1,Increment      1: Step Time =    1.000,"P-2-1",          5608,   99.7736E-03,   153.157E-03,            0.,NA,NA,"",   1.02085E+06,   1.05328E+06,   1.05328E+06
C:/temp/Job-2.odb,Step-1,Increment      1: Step Time =    1.000,"P-2-1",          5609,   99.4563E-03,   48.2092E-03,            0.,NA,NA,"",   1.02226E+06,   1.05661E+06,   1.05661E+06
C:/temp/Job-2.odb,Step-1,Increment      1: Step Time =    1.000,"P-2-1",          5610,   153.527E-03,   126.757E-03,            0.,NA,NA,"",   1.02249E+06,   1.00810E+06,   1.00810E+06
C:/temp/Job-2.odb,Step-1,Increment      1: Step Time =    1.000,"P-2-1",          5611,   46.2229E-03,   73.5465E-03,            0.,NA,NA,"",   940.116E+03,   978.297E+03,   978.297E+03
C:/temp/Job-2.odb,Step-1,Increment      1: Step Time =    1.000,"P-2-1",          5612,   153.607E-03,   69.0453E-03,            0.,NA,NA,"",   1.03876E+06,   1.02177E+06,   1.02177E+06
C:/temp/Job-2.odb,Step-1,Increment      1: Step Time =    1.000,"P-2-1",          5613,   131.242E-03,   152.146E-03,            0.,NA,NA,"",   1.08157E+06,   1.06960E+06,   1.06960E+06
C:/temp/Job-2.odb,Step-1,Increment      1: Step Time =    1.000,"P-2-1",          5614,   69.1506E-03,   48.4446E-03,            0.,NA,NA,"",   1.07903E+06,   1.08212E+06,   1.08212E+06
C:/temp/Job-2.odb,Step-1,Increment      1: Step Time =    1.000,"P-2-1",          5615,   48.1287E-03,   129.642E-03,            0.,NA,NA,"",   967.664E+03,   998.363E+03,   998.363E+03
C:/temp/Job-2.odb,Step-1,Increment      1: Step Time =    1.000,"P-2-1",          5616,   55.5985E-03,   64.9610E-03,            0.,NA,NA,"",   1.03401E+06,   1.04504E+06,   1.04504E+06
C:/temp/Job-2.odb,Step-1,Increment      1: Step Time =    1.000,"P-2-1",          5617,   86.4871E-03,   154.708E-03,            0.,NA,NA,"",   1.04202E+06,   1.06268E+06,   1.06268E+06
C:/temp/Job-2.odb,Step-1,Increment      1: Step Time =    1.000,"P-2-1",          5618,   153.318E-03,   112.845E-03,            0.,NA,NA,"",   944.687E+03,   945.026E+03,   945.026E+03
C:/temp/Job-2.odb,Step-1,Increment      1: Step Time =    1.000,"P-2-1",          5619,   113.692E-03,   46.2116E-03,            0.,NA,NA,"",   1.04399E+06,   1.06028E+06,   1.06028E+06
C:/temp/Job-2.odb,Step-1,Increment      1: Step Time =    1.000,"P-2-1",          5620,   154.025E-03,   48.8454E-03,            0.,NA,NA,"",   1.05248E+06,   1.03837E+06,   1.03837E+06
C:/temp/Job-2.odb,Step-1,Increment      1: Step Time =    1.000,"P-2-1",          5621,   151.734E-03,   154.554E-03,            0.,NA,NA,"",   1.05308E+06,   1.03942E+06,   1.03942E+06
C:/temp/Job-2.odb,Step-1,Increment      1: Step Time =    1.000,"P-2-1",          5622,   47.1320E-03,   45.1535E-03,            0.,NA,NA,"",   1.03736E+06,   1.05627E+06,   1.05627E+06
C:/temp/Job-2.odb,Step-1,Increment      1: Step Time =    1.000,"P-2-1",          5623,   44.6484E-03,   151.469E-03,            0.,NA,NA,"",   1.02433E+06,   1.04900E+06,   1.04900E+06
C:/temp/Job-2.odb,Step-1,Increment      1: Step Time =    1.000,"P-2-1",          5624,   54.9668E-03,   126.558E-03,            0.,NA,NA,"",   987.958E+03,   1.00469E+06,   1.00469E+06
C:/temp/Job-2.odb,Step-1,Increment      1: Step Time =    1.000,"P-2-1",          5625,   56.2277E-03,   133.101E-03,            0.,NA,NA,"",   1.03208E+06,   1.04182E+06,   1.04182E+06
C:/temp/Job-2.odb,Step-1,Increment      1: Step Time =    1.000,"P-2-1",          5626,   62.6476E-03,   127.720E-03,            0.,NA,NA,"",   1.05528E+06,   1.04925E+06,   1.04925E+06
C:/temp/Job-2.odb,Step-1,Increment      1: Step Time =    1.000,"P-2-1",          5627,   41.2068E-03,   110.635E-03,            0.,NA,NA,"",   838.953E+03,   900.779E+03,   900.779E+03
C:/temp/Job-2.odb,Step-1,Increment      1: Step Time =    1.000,"P-2-1",          5628,   110.478E-03,   158.016E-03,            0.,NA,NA,"",   1.02732E+06,   1.04554E+06,   1.04554E+06
C:/temp/Job-2.odb,Step-1,Increment      1: Step Time =    1.000,"P-2-1",          5629,   51.9592E-03,   73.0482E-03,            0.,NA,NA,"",   973.420E+03,   997.508E+03,   997.508E+03
C:/temp/Job-2.odb,Step-1,Increment      1: Step Time =    1.000,"P-2-1",          5630,   56.7498E-03,   61.3492E-03,            0.,NA,NA,"",   1.05046E+06,   1.05859E+06,   1.05859E+06
C:/temp/Job-2.odb,Step-1,Increment      1: Step Time =    1.000,"P-2-1",          5631,   150.165E-03,   124.641E-03,            0.,NA,NA,"",   1.02255E+06,   1.00479E+06,   1.00479E+06
C:/temp/Job-2.odb,Step-1,Increment      1: Step Time =    1.000,"P-2-1",          5632,   93.0478E-03,   47.0906E-03,            0.,NA,NA,"",   1.02893E+06,   1.05902E+06,   1.05902E+06
C:/temp/Job-2.odb,Step-1,Increment      1: Step Time =    1.000,"P-2-1",          5633,   131.434E-03,   50.9542E-03,            0.,NA,NA,"",   1.09292E+06,   1.07755E+06,   1.07755E+06
C:/temp/Job-2.odb,Step-1,Increment      1: Step Time =    1.000,"P-2-1",          5634,   147.507E-03,   74.4587E-03,            0.,NA,NA,"",   1.03574E+06,   1.01333E+06,   1.01333E+06
C:/temp/Job-2.odb,Step-1,Increment      1: Step Time =    1.000,"P-2-1",          5635,   113.495E-03,   151.829E-03,            0.,NA,NA,"",   1.04912E+06,   1.06651E+06,   1.06651E+06
C:/temp/Job-2.odb,Step-1,Increment      1: Step Time =    1.000,"P-2-1",          5636,   106.240E-03,   156.867E-03,            0.,NA,NA,"",   1.02170E+06,   1.04547E+06,   1.04547E+06
C:/temp/Job-2.odb,Step-1,Increment      1: Step Time =    1.000,"P-2-1",          5637,   89.8035E-03,   150.357E-03,            0.,NA,NA,"",   1.04272E+06,   1.07150E+06,   1.07150E+06
C:/temp/Job-2.odb,Step-1,Increment      1: Step Time =    1.000,"P-2-1",          5638,   109.198E-03,   47.9987E-03,            0.,NA,NA,"",   1.03564E+06,   1.06084E+06,   1.06084E+06
C:/temp/Job-2.odb,Step-1,Increment      1: Step Time =    1.000,"P-2-1",          5639,   131.556E-03,   56.5624E-03,            0.,NA,NA,"",   1.11397E+06,   1.09150E+06,   1.09150E+06
C:/temp/Job-2.odb,Step-1,Increment      1: Step Time =    1.000,"P-2-1",          5640,   87.3897E-03,   149.967E-03,            0.,NA,NA,"",   1.05152E+06,   1.07660E+06,   1.07660E+06
C:/temp/Job-2.odb,Step-1,Increment      1: Step Time =    1.000,"P-2-1",          5641,   112.485E-03,   50.0081E-03,            0.,NA,NA,"",   1.05082E+06,   1.07141E+06,   1.07141E+06
C:/temp/Job-2.odb,Step-1,Increment      1: Step Time =    1.000,"P-2-1",          5642,   159.173E-03,   141.255E-03,            0.,NA,NA,"",   1.04162E+06,   1.02895E+06,   1.02895E+06
C:/temp/Job-2.odb,Step-1,Increment      1: Step Time =    1.000,"P-2-1",          5643,   57.8741E-03,   158.433E-03,            0.,NA,NA,"",   1.05860E+06,   1.06512E+06,   1.06512E+06
C:/temp/Job-2.odb,Step-1,Increment      1: Step Time =    1.000,"P-2-1",          5644,   41.6363E-03,   56.7001E-03,            0.,NA,NA,"",   992.608E+03,   1.02752E+06,   1.02752E+06
C:/temp/Job-2.odb,Step-1,Increment      1: Step Time =    1.000,"P-2-1",          5645,   152.817E-03,   115.516E-03,            0.,NA,NA,"",   960.977E+03,   957.419E+03,   957.419E+03
C:/temp/Job-2.odb,Step-1,Increment      1: Step Time =    1.000,"P-2-1",          5646,   51.2949E-03,   70.4317E-03,            0.,NA,NA,"",   986.113E+03,   1.00921E+06,   1.00921E+06
C:/temp/Job-2.odb,Step-1,Increment      1: Step Time =    1.000,"P-2-1",          5647,   87.3417E-03,   46.2683E-03,            0.,NA,NA,"",   1.04147E+06,   1.06435E+06,   1.06435E+06
C:/temp/Job-2.odb,Step-1,Increment      1: Step Time =    1.000,"P-2-1",          5648,   100.070E-03,   46.5130E-03,            0.,NA,NA,"",   1.02005E+06,   1.05216E+06,   1.05216E+06
C:/temp/Job-2.odb,Step-1,Increment      1: Step Time =    1.000,"P-2-1",          5649,   100.797E-03,   155.491E-03,            0.,NA,NA,"",   1.01864E+06,   1.04746E+06,   1.04746E+06
C:/temp/Job-2.odb,Step-1,Increment      1: Step Time =    1.000,"P-2-1",          5650,   57.9674E-03,   139.331E-03,            0.,NA,NA,"",   1.05908E+06,   1.06472E+06,   1.06472E+06
C:/temp/Job-2.odb,Step-1,Increment      1: Step Time =    1.000,"P-2-1",          5651,   39.0209E-03,   114.034E-03,            0.,NA,NA,"",   850.761E+03,   913.413E+03,   913.413E+03
C:/temp/Job-2.odb,Step-1,Increment      1: Step Time =    1.000,"P-2-1",          5652,   133.075E-03,   57.9851E-03,            0.,NA,NA,"",   1.11655E+06,   1.09090E+06,   1.09090E+06
C:/temp/Job-2.odb,Step-1,Increment      1: Step Time =    1.000,"P-2-1",          5653,   91.8470E-03,   45.0843E-03,            0.,NA,NA,"",   1.02838E+06,   1.05487E+06,   1.05487E+06
C:/temp/Job-2.odb,Step-1,Increment      1: Step Time =    1.000,"P-2-1",          5654,   72.5650E-03,   48.2960E-03,            0.,NA,NA,"",   1.07810E+06,   1.08299E+06,   1.08299E+06
C:/temp/Job-2.odb,Step-1,Increment      1: Step Time =    1.000,"P-2-1",          5655,   131.501E-03,   54.6454E-03,            0.,NA,NA,"",   1.10664E+06,   1.08684E+06,   1.08684E+06
C:/temp/Job-2.odb,Step-1,Increment      1: Step Time =    1.000,"P-2-1",          5656,   103.491E-03,   154.309E-03,            0.,NA,NA,"",   1.02165E+06,   1.05084E+06,   1.05084E+06
C:/temp/Job-2.odb,Step-1,Increment      1: Step Time =    1.000,"P-2-1",          5657,   48.9782E-03,   73.4383E-03,            0.,NA,NA,"",   954.993E+03,   986.582E+03,   986.582E+03
C:/temp/Job-2.odb,Step-1,Increment      1: Step Time =    1.000,"P-2-1",          5658,   151.949E-03,   125.801E-03,            0.,NA,NA,"",   1.02295E+06,   1.00702E+06,   1.00702E+06
C:/temp/Job-2.odb,Step-1,Increment      1: Step Time =    1.000,"P-2-1",          5659,   50.3391E-03,   131.312E-03,            0.,NA,NA,"",   987.970E+03,   1.01232E+06,   1.01232E+06
C:/temp/Job-2.odb,Step-1,Increment      1: Step Time =    1.000,"P-2-1",          5660,   68.7133E-03,   50.4830E-03,            0.,NA,NA,"",   1.08369E+06,   1.08577E+06,   1.08577E+06
C:/temp/Job-2.odb,Step-1,Increment      1: Step Time =    1.000,"P-2-1",          5661,   131.544E-03,   149.547E-03,            0.,NA,NA,"",   1.09126E+06,   1.07641E+06,   1.07641E+06
C:/temp/Job-2.odb,Step-1,Increment      1: Step Time =    1.000,"P-2-1",          5662,   150.169E-03,   69.2457E-03,            0.,NA,NA,"",   1.04917E+06,   1.02800E+06,   1.02800E+06
C:/temp/Job-2.odb,Step-1,Increment      1: Step Time =    1.000,"P-2-1",          5663,   55.6700E-03,   157.930E-03,            0.,NA,NA,"",   1.05623E+06,   1.06444E+06,   1.06444E+06
C:/temp/Job-2.odb,Step-1,Increment      1: Step Time =    1.000,"P-2-1",          5664,   40.9860E-03,   54.5844E-03,            0.,NA,NA,"",   996.670E+03,   1.03148E+06,   1.03148E+06
C:/temp/Job-2.odb,Step-1,Increment      1: Step Time =    1.000,"P-2-1",          5665,   151.122E-03,   106.313E-03,            0.,NA,NA,"",   900.501E+03,   907.989E+03,   907.989E+03
C:/temp/Job-2.odb,Step-1,Increment      1: Step Time =    1.000,"P-2-1",          5666,   157.427E-03,   141.711E-03,            0.,NA,NA,"",   1.04657E+06,   1.03229E+06,   1.03229E+06
C:/temp/Job-2.odb,Step-1,Increment      1: Step Time =    1.000,"P-2-1",          5667,   56.3629E-03,   155.808E-03,            0.,NA,NA,"",   1.05798E+06,   1.06605E+06,   1.06605E+06
C:/temp/Job-2.odb,Step-1,Increment      1: Step Time =    1.000,"P-2-1",          5668,   143.800E-03,   43.0874E-03,            0.,NA,NA,"",   1.05982E+06,   1.04618E+06,   1.04618E+06
C:/temp/Job-2.odb,Step-1,Increment      1: Step Time =    1.000,"P-2-1",          5669,   43.5202E-03,   56.2871E-03,            0.,NA,NA,"",   1.00229E+06,   1.03312E+06,   1.03312E+06
C:/temp/Job-2.odb,Step-1,Increment      1: Step Time =    1.000,"P-2-1",          5670,   52.7112E-03,   128.628E-03,            0.,NA,NA,"",   987.783E+03,   1.00855E+06,   1.00855E+06
C:/temp/Job-2.odb,Step-1,Increment      1: Step Time =    1.000,"P-2-1",          5671,   138.236E-03,   140.260E-03,            0.,NA,NA,"",   1.10709E+06,   1.07864E+06,   1.07864E+06
C:/temp/Job-2.odb,Step-1,Increment      1: Step Time =    1.000,"P-2-1",          5672,   55.4859E-03,   43.1669E-03,            0.,NA,NA,"",   1.05645E+06,   1.06505E+06,   1.06505E+06
C:/temp/Job-2.odb,Step-1,Increment      1: Step Time =    1.000,"P-2-1",          5673,   42.8799E-03,   143.136E-03,            0.,NA,NA,"",   996.514E+03,   1.02924E+06,   1.02924E+06
C:/temp/Job-2.odb,Step-1,Increment      1: Step Time =    1.000,"P-2-1",          5674,   156.508E-03,   58.0349E-03,            0.,NA,NA,"",   1.04882E+06,   1.03384E+06,   1.03384E+06
C:/temp/Job-2.odb,Step-1,Increment      1: Step Time =    1.000,"P-2-1",          5675,   142.150E-03,   158.009E-03,            0.,NA,NA,"",   1.05943E+06,   1.04651E+06,   1.04651E+06
C:/temp/Job-2.odb,Step-1,Increment      1: Step Time =    1.000,"P-2-1",          5676,   65.3199E-03,   143.166E-03,            0.,NA,NA,"",   1.08895E+06,   1.08804E+06,   1.08804E+06
C:/temp/Job-2.odb,Step-1,Increment      1: Step Time =    1.000,"P-2-1",          5677,   110.430E-03,   53.6963E-03,            0.,NA,NA,"",   1.05406E+06,   1.08267E+06,   1.08267E+06
C:/temp/Job-2.odb,Step-1,Increment      1: Step Time =    1.000,"P-2-1",          5678,   87.9271E-03,   147.428E-03,            0.,NA,NA,"",   1.05666E+06,   1.08461E+06,   1.08461E+06
C:/temp/Job-2.odb,Step-1,Increment      1: Step Time =    1.000,"P-2-1",          5679,   146.879E-03,   128.354E-03,            0.,NA,NA,"",   1.05354E+06,   1.02840E+06,   1.02840E+06
C:/temp/Job-2.odb,Step-1,Increment      1: Step Time =    1.000,"P-2-1",          5680,   141.820E-03,   132.475E-03,            0.,NA,NA,"",   1.09204E+06,   1.05945E+06,   1.05945E+06
C:/temp/Job-2.odb,Step-1,Increment      1: Step Time =    1.000,"P-2-1",          5681,   144.098E-03,   138.220E-03,            0.,NA,NA,"",   1.08691E+06,   1.06004E+06,   1.06004E+06
C:/temp/Job-2.odb,Step-1,Increment      1: Step Time =    1.000,"P-2-1",          5682,   65.7632E-03,   149.148E-03,            0.,NA,NA,"",   1.08094E+06,   1.08288E+06,   1.08288E+06
C:/temp/Job-2.odb,Step-1,Increment      1: Step Time =    1.000,"P-2-1",          5683,   117.394E-03,   158.668E-03,            0.,NA,NA,"",   1.03970E+06,   1.04828E+06,   1.04828E+06
C:/temp/Job-2.odb,Step-1,Increment      1: Step Time =    1.000,"P-2-1",          5684,   40.4929E-03,   116.037E-03,            0.,NA,NA,"",   863.197E+03,   921.823E+03,   921.823E+03
C:/temp/Job-2.odb,Step-1,Increment      1: Step Time =    1.000,"P-2-1",          5685,   47.1600E-03,   88.6992E-03,            0.,NA,NA,"",   844.235E+03,   897.135E+03,   897.135E+03
C:/temp/Job-2.odb,Step-1,Increment      1: Step Time =    1.000,"P-2-1",          5686,   160.052E-03,   151.671E-03,            0.,NA,NA,"",   1.03977E+06,   1.02924E+06,   1.02924E+06
C:/temp/Job-2.odb,Step-1,Increment      1: Step Time =    1.000,"P-2-1",          5687,   150.880E-03,   39.4505E-03,            0.,NA,NA,"",   1.04472E+06,   1.03369E+06,   1.03369E+06
C:/temp/Job-2.odb,Step-1,Increment      1: Step Time =    1.000,"P-2-1",          5688,   50.2353E-03,   158.851E-03,            0.,NA,NA,"",   1.04748E+06,   1.06058E+06,   1.06058E+06
C:/temp/Job-2.odb,Step-1,Increment      1: Step Time =    1.000,"P-2-1",          5689,   41.0083E-03,   49.8272E-03,            0.,NA,NA,"",   1.00921E+06,   1.04101E+06,   1.04101E+06
C:/temp/Job-2.odb,Step-1,Increment      1: Step Time =    1.000,"P-2-1",          5690,   152.811E-03,   102.328E-03,            0.,NA,NA,"",   894.929E+03,   905.582E+03,   905.582E+03
C:/temp/Job-2.odb,Step-1,Increment      1: Step Time =    1.000,"P-2-1",          5691,   152.889E-03,   51.8051E-03,            0.,NA,NA,"",   1.05775E+06,   1.04172E+06,   1.04172E+06
C:/temp/Job-2.odb,Step-1,Increment      1: Step Time =    1.000,"P-2-1",          5692,   149.421E-03,   153.830E-03,            0.,NA,NA,"",   1.05800E+06,   1.04328E+06,   1.04328E+06
C:/temp/Job-2.odb,Step-1,Increment      1: Step Time =    1.000,"P-2-1",          5693,   49.6161E-03,   46.0811E-03,            0.,NA,NA,"",   1.04291E+06,   1.05878E+06,   1.05878E+06
C:/temp/Job-2.odb,Step-1,Increment      1: Step Time =    1.000,"P-2-1",          5694,   46.9425E-03,   149.679E-03,            0.,NA,NA,"",   1.02897E+06,   1.05059E+06,   1.05059E+06
C:/temp/Job-2.odb,Step-1,Increment      1: Step Time =    1.000,"P-2-1",          5695,   63.0821E-03,   143.618E-03,            0.,NA,NA,"",   1.08178E+06,   1.08251E+06,   1.08251E+06
C:/temp/Job-2.odb,Step-1,Increment      1: Step Time =    1.000,"P-2-1",          5696,   52.3654E-03,   75.6450E-03,            0.,NA,NA,"",   959.343E+03,   984.556E+03,   984.556E+03
C:/temp/Job-2.odb,Step-1,Increment      1: Step Time =    1.000,"P-2-1",          5697,   56.5130E-03,   57.9935E-03,            0.,NA,NA,"",   1.05521E+06,   1.06344E+06,   1.06344E+06
C:/temp/Job-2.odb,Step-1,Increment      1: Step Time =    1.000,"P-2-1",          5698,   132.072E-03,   48.2939E-03,            0.,NA,NA,"",   1.08311E+06,   1.06978E+06,   1.06978E+06
C:/temp/Job-2.odb,Step-1,Increment      1: Step Time =    1.000,"P-2-1",          5699,   145.222E-03,   72.5774E-03,            0.,NA,NA,"",   1.05553E+06,   1.02804E+06,   1.02804E+06
C:/temp/Job-2.odb,Step-1,Increment      1: Step Time =    1.000,"P-2-1",          5700,   108.535E-03,   45.3044E-03,            0.,NA,NA,"",   1.02916E+06,   1.05246E+06,   1.05246E+06
C:/temp/Job-2.odb,Step-1,Increment      1: Step Time =    1.000,"P-2-1",          5701,   89.1535E-03,   43.8555E-03,            0.,NA,NA,"",   1.03207E+06,   1.05477E+06,   1.05477E+06
C:/temp/Job-2.odb,Step-1,Increment      1: Step Time =    1.000,"P-2-1",          5702,   83.1493E-03,   47.9081E-03,            0.,NA,NA,"",   1.05795E+06,   1.07562E+06,   1.07562E+06
C:/temp/Job-2.odb,Step-1,Increment      1: Step Time =    1.000,"P-2-1",          5703,   38.0249E-03,   112.750E-03,            0.,NA,NA,"",   844.749E+03,   909.550E+03,   909.550E+03
C:/temp/Job-2.odb,Step-1,Increment      1: Step Time =    1.000,"P-2-1",          5704,   112.001E-03,   159.156E-03,            0.,NA,NA,"",   1.02821E+06,   1.04382E+06,   1.04382E+06
C:/temp/Job-2.odb,Step-1,Increment      1: Step Time =    1.000,"P-2-1",          5705,   54.5733E-03,   62.4208E-03,            0.,NA,NA,"",   1.03666E+06,   1.04897E+06,   1.04897E+06
C:/temp/Job-2.odb,Step-1,Increment      1: Step Time =    1.000,"P-2-1",          5706,   78.6913E-03,   46.8153E-03,            0.,NA,NA,"",   1.06558E+06,   1.07669E+06,   1.07669E+06
C:/temp/Job-2.odb,Step-1,Increment      1: Step Time =    1.000,"P-2-1",          5707,   68.3538E-03,   52.7798E-03,            0.,NA,NA,"",   1.08895E+06,   1.08968E+06,   1.08968E+06
C:/temp/Job-2.odb,Step-1,Increment      1: Step Time =    1.000,"P-2-1",          5708,   132.019E-03,   146.904E-03,            0.,NA,NA,"",   1.10067E+06,   1.08240E+06,   1.08240E+06
C:/temp/Job-2.odb,Step-1,Increment      1: Step Time =    1.000,"P-2-1",          5709,   45.4755E-03,   112.364E-03,            0.,NA,NA,"",   848.821E+03,    903.26E+03,    903.26E+03
C:/temp/Job-2.odb,Step-1,Increment      1: Step Time =    1.000,"P-2-1",          5710,   111.559E-03,   156.266E-03,            0.,NA,NA,"",   1.03250E+06,   1.05065E+06,   1.05065E+06
C:/temp/Job-2.odb,Step-1,Increment      1: Step Time =    1.000,"P-2-1",          5711,   110.669E-03,   44.7405E-03,            0.,NA,NA,"",   1.03267E+06,   1.05276E+06,   1.05276E+06
C:/temp/Job-2.odb,Step-1,Increment      1: Step Time =    1.000,"P-2-1",          5712,   150.860E-03,   110.422E-03,            0.,NA,NA,"",   923.661E+03,   925.885E+03,   925.885E+03
C:/temp/Job-2.odb,Step-1,Increment      1: Step Time =    1.000,"P-2-1",          5713,   89.0085E-03,   152.714E-03,            0.,NA,NA,"",   1.03958E+06,   1.06510E+06,   1.06510E+06
C:/temp/Job-2.odb,Step-1,Increment      1: Step Time =    1.000,"P-2-1",          5714,   152.637E-03,   108.462E-03,            0.,NA,NA,"",   916.426E+03,   922.031E+03,   922.031E+03
C:/temp/Job-2.odb,Step-1,Increment      1: Step Time =    1.000,"P-2-1",          5715,   44.3483E-03,   46.2884E-03,            0.,NA,NA,"",   1.02810E+06,   1.05179E+06,   1.05179E+06
C:/temp/Job-2.odb,Step-1,Increment      1: Step Time =    1.000,"P-2-1",          5716,   155.118E-03,   43.9917E-03,            0.,NA,NA,"",   1.04518E+06,   1.03346E+06,   1.03346E+06
C:/temp/Job-2.odb,Step-1,Increment      1: Step Time =    1.000,"P-2-1",          5717,   45.4999E-03,   155.748E-03,            0.,NA,NA,"",   1.03368E+06,   1.05488E+06,   1.05488E+06
C:/temp/Job-2.odb,Step-1,Increment      1: Step Time =    1.000,"P-2-1",          5718,   136.245E-03,   62.4858E-03,            0.,NA,NA,"",   1.11869E+06,   1.08611E+06,   1.08611E+06
C:/temp/Job-2.odb,Step-1,Increment      1: Step Time =    1.000,"P-2-1",          5719,   152.885E-03,   77.1711E-03,            0.,NA,NA,"",   1.00548E+06,   993.269E+03,   993.269E+03
C:/temp/Job-2.odb,Step-1,Increment      1: Step Time =    1.000,"P-2-1",          5720,   121.906E-03,   152.947E-03,            0.,NA,NA,"",   1.06790E+06,   1.06953E+06,   1.06953E+06
C:/temp/Job-2.odb,Step-1,Increment      1: Step Time =    1.000,"P-2-1",          5721,   43.8471E-03,   109.518E-03,            0.,NA,NA,"",   834.279E+03,   893.370E+03,   893.370E+03
C:/temp/Job-2.odb,Step-1,Increment      1: Step Time =    1.000,"P-2-1",          5722,   46.4719E-03,   107.845E-03,            0.,NA,NA,"",   824.812E+03,   881.900E+03,   881.900E+03
C:/temp/Job-2.odb,Step-1,Increment      1: Step Time =    1.000,"P-2-1",          5723,   102.307E-03,   160.485E-03,            0.,NA,NA,"",   1.01362E+06,   1.03579E+06,   1.03579E+06
C:/temp/Job-2.odb,Step-1,Increment      1: Step Time =    1.000,"P-2-1",          5724,   41.0456E-03,   103.453E-03,            0.,NA,NA,"",   818.092E+03,   883.452E+03,   883.452E+03
C:/temp/Job-2.odb,Step-1,Increment      1: Step Time =    1.000,"P-2-1",          5725,   131.873E-03,   59.4893E-03,            0.,NA,NA,"",   1.12433E+06,   1.09707E+06,   1.09707E+06
C:/temp/Job-2.odb,Step-1,Increment      1: Step Time =    1.000,"P-2-1",          5726,   70.8556E-03,   50.8584E-03,            0.,NA,NA,"",   1.08589E+06,   1.08853E+06,   1.08853E+06
C:/temp/Job-2.odb,Step-1,Increment      1: Step Time =    1.000,"P-2-1",          5727,   129.057E-03,   149.196E-03,            0.,NA,NA,"",   1.09221E+06,   1.07987E+06,   1.07987E+06
C:/temp/Job-2.odb,Step-1,Increment      1: Step Time =    1.000,"P-2-1",          5728,   57.3020E-03,   124.467E-03,            0.,NA,NA,"",   989.047E+03,   1.00115E+06,   1.00115E+06
C:/temp/Job-2.odb,Step-1,Increment      1: Step Time =    1.000,"P-2-1",          5729,   62.9793E-03,   56.0846E-03,            0.,NA,NA,"",   1.08130E+06,   1.08229E+06,   1.08229E+06
C:/temp/Job-2.odb,Step-1,Increment      1: Step Time =    1.000,"P-2-1",          5730,   138.830E-03,   145.948E-03,            0.,NA,NA,"",   1.09373E+06,   1.07137E+06,   1.07137E+06
C:/temp/Job-2.odb,Step-1,Increment      1: Step Time =    1.000,"P-2-1",          5731,   150.992E-03,   72.6492E-03,            0.,NA,NA,"",   1.03314E+06,   1.01456E+06,   1.01456E+06
C:/temp/Job-2.odb,Step-1,Increment      1: Step Time =    1.000,"P-2-1",          5732,   45.5081E-03,   120.538E-03,            0.,NA,NA,"",   901.285E+03,   946.643E+03,   946.643E+03
C:/temp/Job-2.odb,Step-1,Increment      1: Step Time =    1.000,"P-2-1",          5733,   80.8999E-03,   46.3925E-03,            0.,NA,NA,"",   1.05968E+06,   1.07355E+06,   1.07355E+06
C:/temp/Job-2.odb,Step-1,Increment      1: Step Time =    1.000,"P-2-1",          5734,   120.137E-03,   153.343E-03,            0.,NA,NA,"",   1.06268E+06,   1.06732E+06,   1.06732E+06
C:/temp/Job-2.odb,Step-1,Increment      1: Step Time =    1.000,"P-2-1",          5735,   154.117E-03,   78.9811E-03,            0.,NA,NA,"",   994.107E+03,   984.968E+03,   984.968E+03
C:/temp/Job-2.odb,Step-1,Increment      1: Step Time =    1.000,"P-2-1",          5736,   45.4759E-03,   81.8210E-03,            0.,NA,NA,"",   885.381E+03,   933.736E+03,   933.736E+03
C:/temp/Job-2.odb,Step-1,Increment      1: Step Time =    1.000,"P-2-1",          5737,   45.5888E-03,   147.459E-03,            0.,NA,NA,"",   1.01913E+06,   1.04440E+06,   1.04440E+06
C:/temp/Job-2.odb,Step-1,Increment      1: Step Time =    1.000,"P-2-1",          5738,   147.146E-03,   155.719E-03,            0.,NA,NA,"",   1.05820E+06,   1.04406E+06,   1.04406E+06
C:/temp/Job-2.odb,Step-1,Increment      1: Step Time =    1.000,"P-2-1",          5739,   52.6596E-03,   44.4483E-03,            0.,NA,NA,"",   1.05111E+06,   1.06275E+06,   1.06275E+06
C:/temp/Job-2.odb,Step-1,Increment      1: Step Time =    1.000,"P-2-1",          5740,   153.229E-03,   53.5759E-03,            0.,NA,NA,"",   1.05770E+06,   1.04126E+06,   1.04126E+06
C:/temp/Job-2.odb,Step-1,Increment      1: Step Time =    1.000,"P-2-1",          5741,   42.4893E-03,   105.136E-03,            0.,NA,NA,"",   820.157E+03,   883.429E+03,   883.429E+03
C:/temp/Job-2.odb,Step-1,Increment      1: Step Time =    1.000,"P-2-1",          5742,   104.207E-03,   159.324E-03,            0.,NA,NA,"",   1.01634E+06,   1.03892E+06,   1.03892E+06
C:/temp/Job-2.odb,Step-1,Increment      1: Step Time =    1.000,"P-2-1",          5743,   155.640E-03,   118.169E-03,            0.,NA,NA,"",   976.621E+03,   972.447E+03,   972.447E+03
C:/temp/Job-2.odb,Step-1,Increment      1: Step Time =    1.000,"P-2-1",          5744,   123.840E-03,   149.544E-03,            0.,NA,NA,"",   1.08520E+06,   1.08134E+06,   1.08134E+06
C:/temp/Job-2.odb,Step-1,Increment      1: Step Time =    1.000,"P-2-1",          5745,   50.1130E-03,   119.823E-03,            0.,NA,NA,"",   912.294E+03,   948.804E+03,   948.804E+03
C:/temp/Job-2.odb,Step-1,Increment      1: Step Time =    1.000,"P-2-1",          5746,   146.696E-03,   133.166E-03,            0.,NA,NA,"",   1.07064E+06,   1.04450E+06,   1.04450E+06
C:/temp/Job-2.odb,Step-1,Increment      1: Step Time =    1.000,"P-2-1",          5747,   50.3510E-03,   122.150E-03,            0.,NA,NA,"",   931.464E+03,   964.447E+03,   964.447E+03
C:/temp/Job-2.odb,Step-1,Increment      1: Step Time =    1.000,"P-2-1",          5748,   63.6914E-03,   51.3172E-03,            0.,NA,NA,"",   1.07779E+06,   1.08028E+06,   1.08028E+06
C:/temp/Job-2.odb,Step-1,Increment      1: Step Time =    1.000,"P-2-1",          5749,   136.313E-03,   150.561E-03,            0.,NA,NA,"",   1.08471E+06,   1.06764E+06,   1.06764E+06
C:/temp/Job-2.odb,Step-1,Increment      1: Step Time =    1.000,"P-2-1",          5750,   57.0725E-03,   45.6357E-03,            0.,NA,NA,"",   1.05969E+06,   1.06737E+06,   1.06737E+06
C:/temp/Job-2.odb,Step-1,Increment      1: Step Time =    1.000,"P-2-1",          5751,   45.1054E-03,   141.957E-03,            0.,NA,NA,"",   1.00266E+06,   1.03160E+06,   1.03160E+06
C:/temp/Job-2.odb,Step-1,Increment      1: Step Time =    1.000,"P-2-1",          5752,   142.900E-03,   156.190E-03,            0.,NA,NA,"",   1.06282E+06,   1.04867E+06,   1.04867E+06
C:/temp/Job-2.odb,Step-1,Increment      1: Step Time =    1.000,"P-2-1",          5753,   50.7823E-03,   68.0418E-03,            0.,NA,NA,"",   995.790E+03,   1.01839E+06,   1.01839E+06
C:/temp/Job-2.odb,Step-1,Increment      1: Step Time =    1.000,"P-2-1",          5754,   113.209E-03,   154.856E-03,            0.,NA,NA,"",   1.03920E+06,   1.05571E+06,   1.05571E+06
C:/temp/Job-2.odb,Step-1,Increment      1: Step Time =    1.000,"P-2-1",          5755,   140.767E-03,   61.2945E-03,            0.,NA,NA,"",   1.09931E+06,   1.07032E+06,   1.07032E+06
C:/temp/Job-2.odb,Step-1,Increment      1: Step Time =    1.000,"P-2-1",          5756,   136.685E-03,   60.1799E-03,            0.,NA,NA,"",   1.11297E+06,   1.08350E+06,   1.08350E+06
C:/temp/Job-2.odb,Step-1,Increment      1: Step Time =    1.000,"P-2-1",          5757,   158.991E-03,   154.667E-03,            0.,NA,NA,"",   1.03979E+06,   1.02941E+06,   1.02941E+06
C:/temp/Job-2.odb,Step-1,Increment      1: Step Time =    1.000,"P-2-1",          5758,   46.7772E-03,   159.371E-03,            0.,NA,NA,"",   1.04101E+06,   1.05835E+06,   1.05835E+06
C:/temp/Job-2.odb,Step-1,Increment      1: Step Time =    1.000,"P-2-1",          5759,   153.450E-03,   39.3029E-03,            0.,NA,NA,"",   1.04129E+06,   1.03091E+06,   1.03091E+06
C:/temp/Job-2.odb,Step-1,Increment      1: Step Time =    1.000,"P-2-1",          5760,   40.7866E-03,   45.4360E-03,            0.,NA,NA,"",   1.01914E+06,   1.04827E+06,   1.04827E+06
C:/temp/Job-2.odb,Step-1,Increment      1: Step Time =    1.000,"P-2-1",          5761,   149.174E-03,   131.000E-03,            0.,NA,NA,"",   1.05435E+06,   1.03167E+06,   1.03167E+06
C:/temp/Job-2.odb,Step-1,Increment      1: Step Time =    1.000,"P-2-1",          5762,   148.797E-03,   71.6572E-03,            0.,NA,NA,"",   1.04507E+06,   1.02289E+06,   1.02289E+06
C:/temp/Job-2.odb,Step-1,Increment      1: Step Time =    1.000,"P-2-1",          5763,   155.830E-03,   141.293E-03,            0.,NA,NA,"",   1.05031E+06,   1.03467E+06,   1.03467E+06
C:/temp/Job-2.odb,Step-1,Increment      1: Step Time =    1.000,"P-2-1",          5764,   59.1010E-03,   154.208E-03,            0.,NA,NA,"",   1.06357E+06,   1.06958E+06,   1.06958E+06
C:/temp/Job-2.odb,Step-1,Increment      1: Step Time =    1.000,"P-2-1",          5765,   139.165E-03,   45.5960E-03,            0.,NA,NA,"",   1.07081E+06,   1.05596E+06,   1.05596E+06
C:/temp/Job-2.odb,Step-1,Increment      1: Step Time =    1.000,"P-2-1",          5766,   45.2264E-03,   59.0641E-03,            0.,NA,NA,"",   1.00068E+06,   1.03002E+06,   1.03002E+06
C:/temp/Job-2.odb,Step-1,Increment      1: Step Time =    1.000,"P-2-1",          5767,   52.9073E-03,   126.427E-03,            0.,NA,NA,"",   974.559E+03,   996.848E+03,   996.848E+03
C:/temp/Job-2.odb,Step-1,Increment      1: Step Time =    1.000,"P-2-1",          5768,   66.2731E-03,   151.364E-03,            0.,NA,NA,"",   1.07736E+06,   1.08006E+06,   1.08006E+06
C:/temp/Job-2.odb,Step-1,Increment      1: Step Time =    1.000,"P-2-1",          5769,   44.8151E-03,   79.7000E-03,            0.,NA,NA,"",   897.892E+03,   944.835E+03,   944.835E+03
C:/temp/Job-2.odb,Step-1,Increment      1: Step Time =    1.000,"P-2-1",          5770,   116.188E-03,   156.685E-03,            0.,NA,NA,"",   1.04207E+06,   1.05301E+06,   1.05301E+06
C:/temp/Job-2.odb,Step-1,Increment      1: Step Time =    1.000,"P-2-1",          5771,   42.6825E-03,   116.637E-03,            0.,NA,NA,"",   870.476E+03,   925.060E+03,   925.060E+03
C:/temp/Job-2.odb,Step-1,Increment      1: Step Time =    1.000,"P-2-1",          5772,   58.8915E-03,   57.2704E-03,            0.,NA,NA,"",   1.06637E+06,   1.07118E+06,   1.07118E+06
C:/temp/Job-2.odb,Step-1,Increment      1: Step Time =    1.000,"P-2-1",          5773,   106.373E-03,   45.6527E-03,            0.,NA,NA,"",   1.02566E+06,   1.05194E+06,   1.05194E+06
C:/temp/Job-2.odb,Step-1,Increment      1: Step Time =    1.000,"P-2-1",          5774,   53.4957E-03,   60.1899E-03,            0.,NA,NA,"",   1.03683E+06,   1.05071E+06,   1.05071E+06
C:/temp/Job-2.odb,Step-1,Increment      1: Step Time =    1.000,"P-2-1",          5775,   134.378E-03,   58.9851E-03,            0.,NA,NA,"",   1.11735E+06,   1.08959E+06,   1.08959E+06
C:/temp/Job-2.odb,Step-1,Increment      1: Step Time =    1.000,"P-2-1",          5776,   45.3715E-03,   105.165E-03,            0.,NA,NA,"",   816.391E+03,   876.453E+03,   876.453E+03
C:/temp/Job-2.odb,Step-1,Increment      1: Step Time =    1.000,"P-2-1",          5777,   47.5843E-03,   115.147E-03,            0.,NA,NA,"",   869.856E+03,   917.487E+03,   917.487E+03
C:/temp/Job-2.odb,Step-1,Increment      1: Step Time =    1.000,"P-2-1",          5778,   46.1150E-03,   48.0470E-03,            0.,NA,NA,"",   1.02990E+06,   1.05198E+06,   1.05198E+06
C:/temp/Job-2.odb,Step-1,Increment      1: Step Time =    1.000,"P-2-1",          5779,   154.157E-03,   45.9278E-03,            0.,NA,NA,"",   1.04917E+06,   1.03628E+06,   1.03628E+06
C:/temp/Job-2.odb,Step-1,Increment      1: Step Time =    1.000,"P-2-1",          5780,   47.0123E-03,   153.470E-03,            0.,NA,NA,"",   1.03527E+06,   1.05492E+06,   1.05492E+06
C:/temp/Job-2.odb,Step-1,Increment      1: Step Time =    1.000,"P-2-1",          5781,   154.223E-03,   152.862E-03,            0.,NA,NA,"",   1.05060E+06,   1.03719E+06,   1.03719E+06
C:/temp/Job-2.odb,Step-1,Increment      1: Step Time =    1.000,"P-2-1",          5782,   121.131E-03,   149.889E-03,            0.,NA,NA,"",   1.07785E+06,   1.07959E+06,   1.07959E+06
C:/temp/Job-2.odb,Step-1,Increment      1: Step Time =    1.000,"P-2-1",          5783,   126.551E-03,   152.119E-03,            0.,NA,NA,"",   1.07866E+06,   1.07229E+06,   1.07229E+06
C:/temp/Job-2.odb,Step-1,Increment      1: Step Time =    1.000,"P-2-1",          5784,   45.2639E-03,   117.987E-03,            0.,NA,NA,"",   884.382E+03,   932.907E+03,   932.907E+03
C:/temp/Job-2.odb,Step-1,Increment      1: Step Time =    1.000,"P-2-1",          5785,   82.9679E-03,   46.0095E-03,            0.,NA,NA,"",   1.05341E+06,   1.07022E+06,   1.07022E+06
C:/temp/Job-2.odb,Step-1,Increment      1: Step Time =    1.000,"P-2-1",          5786,   116.917E-03,   151.767E-03,            0.,NA,NA,"",   1.05845E+06,   1.06954E+06,   1.06954E+06
C:/temp/Job-2.odb,Step-1,Increment      1: Step Time =    1.000,"P-2-1",          5787,   155.651E-03,   80.7889E-03,            0.,NA,NA,"",   982.250E+03,   976.836E+03,   976.836E+03
C:/temp/Job-2.odb,Step-1,Increment      1: Step Time =    1.000,"P-2-1",          5788,   44.2546E-03,   145.290E-03,            0.,NA,NA,"",   1.00852E+06,   1.03737E+06,   1.03737E+06
C:/temp/Job-2.odb,Step-1,Increment      1: Step Time =    1.000,"P-2-1",          5789,   145.269E-03,   155.344E-03,            0.,NA,NA,"",   1.06185E+06,   1.04717E+06,   1.04717E+06
C:/temp/Job-2.odb,Step-1,Increment      1: Step Time =    1.000,"P-2-1",          5790,   54.8677E-03,   45.1952E-03,            0.,NA,NA,"",   1.05552E+06,   1.06508E+06,   1.06508E+06
C:/temp/Job-2.odb,Step-1,Increment      1: Step Time =    1.000,"P-2-1",          5791,   155.704E-03,   55.5068E-03,            0.,NA,NA,"",   1.05139E+06,   1.03626E+06,   1.03626E+06
C:/temp/Job-2.odb,Step-1,Increment      1: Step Time =    1.000,"P-2-1",          5792,   121.374E-03,   146.602E-03,            0.,NA,NA,"",   1.09345E+06,   1.09271E+06,   1.09271E+06
C:/temp/Job-2.odb,Step-1,Increment      1: Step Time =    1.000,"P-2-1",          5793,   149.275E-03,   133.430E-03,            0.,NA,NA,"",   1.06064E+06,   1.03778E+06,   1.03778E+06
C:/temp/Job-2.odb,Step-1,Increment      1: Step Time =    1.000,"P-2-1",          5794,   85.0975E-03,   43.7111E-03,            0.,NA,NA,"",   1.04133E+06,   1.05988E+06,   1.05988E+06
C:/temp/Job-2.odb,Step-1,Increment      1: Step Time =    1.000,"P-2-1",          5795,   67.4504E-03,   145.834E-03,            0.,NA,NA,"",   1.08999E+06,   1.09007E+06,   1.09007E+06
C:/temp/Job-2.odb,Step-1,Increment      1: Step Time =    1.000,"P-2-1",          5796,   44.6550E-03,   115.127E-03,            0.,NA,NA,"",   865.286E+03,   918.092E+03,   918.092E+03
C:/temp/Job-2.odb,Step-1,Increment      1: Step Time =    1.000,"P-2-1",          5797,   50.8666E-03,   126.522E-03,            0.,NA,NA,"",   964.228E+03,   991.335E+03,   991.335E+03
C:/temp/Job-2.odb,Step-1,Increment      1: Step Time =    1.000,"P-2-1",          5798,   134.232E-03,   51.7375E-03,            0.,NA,NA,"",   1.09435E+06,   1.07590E+06,   1.07590E+06
C:/temp/Job-2.odb,Step-1,Increment      1: Step Time =    1.000,"P-2-1",          5799,   63.0412E-03,   147.631E-03,            0.,NA,NA,"",   1.07816E+06,   1.08051E+06,   1.08051E+06
C:/temp/Job-2.odb,Step-1,Increment      1: Step Time =    1.000,"P-2-1",          5800,   50.4514E-03,   82.0560E-03,            0.,NA,NA,"",   898.295E+03,   936.563E+03,   936.563E+03
C:/temp/Job-2.odb,Step-1,Increment      1: Step Time =    1.000,"P-2-1",          5801,   89.4362E-03,   42.0585E-03,            0.,NA,NA,"",   1.02900E+06,   1.05025E+06,   1.05025E+06
C:/temp/Job-2.odb,Step-1,Increment      1: Step Time =    1.000,"P-2-1",          5802,   52.3422E-03,   133.474E-03,            0.,NA,NA,"",   1.01027E+06,   1.02855E+06,   1.02855E+06
C:/temp/Job-2.odb,Step-1,Increment      1: Step Time =    1.000,"P-2-1",          5803,   56.9130E-03,   47.7948E-03,            0.,NA,NA,"",   1.06000E+06,   1.06793E+06,   1.06793E+06
C:/temp/Job-2.odb,Step-1,Increment      1: Step Time =    1.000,"P-2-1",          5804,   46.5271E-03,   143.933E-03,            0.,NA,NA,"",   1.01475E+06,   1.03997E+06,   1.03997E+06
C:/temp/Job-2.odb,Step-1,Increment      1: Step Time =    1.000,"P-2-1",          5805,   153.654E-03,   57.9848E-03,            0.,NA,NA,"",   1.05685E+06,   1.03938E+06,   1.03938E+06
C:/temp/Job-2.odb,Step-1,Increment      1: Step Time =    1.000,"P-2-1",          5806,   143.206E-03,   153.639E-03,            0.,NA,NA,"",   1.06815E+06,   1.05220E+06,   1.05220E+06
C:/temp/Job-2.odb,Step-1,Increment      1: Step Time =    1.000,"P-2-1",          5807,   136.380E-03,   57.5785E-03,            0.,NA,NA,"",   1.10861E+06,   1.08241E+06,   1.08241E+06
C:/temp/Job-2.odb,Step-1,Increment      1: Step Time =    1.000,"P-2-1",          5808,   61.0874E-03,   53.3018E-03,            0.,NA,NA,"",   1.07307E+06,   1.07672E+06,   1.07672E+06
C:/temp/Job-2.odb,Step-1,Increment      1: Step Time =    1.000,"P-2-1",          5809,   138.656E-03,   148.315E-03,            0.,NA,NA,"",   1.08791E+06,   1.06798E+06,   1.06798E+06
C:/temp/Job-2.odb,Step-1,Increment      1: Step Time =    1.000,"P-2-1",          5810,   59.3684E-03,   45.4011E-03,            0.,NA,NA,"",   1.06346E+06,   1.06943E+06,   1.06943E+06
C:/temp/Job-2.odb,Step-1,Increment      1: Step Time =    1.000,"P-2-1",          5811,   46.9675E-03,   140.885E-03,            0.,NA,NA,"",   1.00828E+06,   1.03404E+06,   1.03404E+06
C:/temp/Job-2.odb,Step-1,Increment      1: Step Time =    1.000,"P-2-1",          5812,   153.311E-03,   60.3472E-03,            0.,NA,NA,"",   1.05609E+06,   1.03797E+06,   1.03797E+06
C:/temp/Job-2.odb,Step-1,Increment      1: Step Time =    1.000,"P-2-1",          5813,   140.991E-03,   154.326E-03,            0.,NA,NA,"",   1.06922E+06,   1.05397E+06,   1.05397E+06
C:/temp/Job-2.odb,Step-1,Increment      1: Step Time =    1.000,"P-2-1",          5814,   148.107E-03,   67.7912E-03,            0.,NA,NA,"",   1.06149E+06,   1.03727E+06,   1.03727E+06
C:/temp/Job-2.odb,Step-1,Increment      1: Step Time =    1.000,"P-2-1",          5815,   151.608E-03,   143.268E-03,            0.,NA,NA,"",   1.06271E+06,   1.04401E+06,   1.04401E+06
C:/temp/Job-2.odb,Step-1,Increment      1: Step Time =    1.000,"P-2-1",          5816,   57.3091E-03,   151.854E-03,            0.,NA,NA,"",   1.06155E+06,   1.06890E+06,   1.06890E+06
C:/temp/Job-2.odb,Step-1,Increment      1: Step Time =    1.000,"P-2-1",          5817,   141.667E-03,   45.7461E-03,            0.,NA,NA,"",   1.06843E+06,   1.05307E+06,   1.05307E+06
C:/temp/Job-2.odb,Step-1,Increment      1: Step Time =    1.000,"P-2-1",          5818,   46.2395E-03,   56.0020E-03,            0.,NA,NA,"",   1.01410E+06,   1.03977E+06,   1.03977E+06
C:/temp/Job-2.odb,Step-1,Increment      1: Step Time =    1.000,"P-2-1",          5819,   54.8318E-03,   56.5824E-03,            0.,NA,NA,"",   1.04945E+06,   1.06033E+06,   1.06033E+06
C:/temp/Job-2.odb,Step-1,Increment      1: Step Time =    1.000,"P-2-1",          5820,   50.0141E-03,   63.3948E-03,            0.,NA,NA,"",   1.00837E+06,   1.03063E+06,   1.03063E+06
C:/temp/Job-2.odb,Step-1,Increment      1: Step Time =    1.000,"P-2-1",          5821,   115.233E-03,   153.818E-03,            0.,NA,NA,"",   1.04847E+06,   1.06180E+06,   1.06180E+06
C:/temp/Job-2.odb,Step-1,Increment      1: Step Time =    1.000,"P-2-1",          5822,   152.040E-03,   133.663E-03,            0.,NA,NA,"",   1.05123E+06,   1.03173E+06,   1.03173E+06
C:/temp/Job-2.odb,Step-1,Increment      1: Step Time =    1.000,"P-2-1",          5823,   157.316E-03,   82.5684E-03,            0.,NA,NA,"",   972.390E+03,   970.478E+03,   970.478E+03
C:/temp/Job-2.odb,Step-1,Increment      1: Step Time =    1.000,"P-2-1",          5824,   142.743E-03,   62.2529E-03,            0.,NA,NA,"",   1.09167E+06,   1.06328E+06,   1.06328E+06
C:/temp/Job-2.odb,Step-1,Increment      1: Step Time =    1.000,"P-2-1",          5825,   136.719E-03,   48.8986E-03,            0.,NA,NA,"",   1.08258E+06,   1.06579E+06,   1.06579E+06
C:/temp/Job-2.odb,Step-1,Increment      1: Step Time =    1.000,"P-2-1",          5826,   63.3849E-03,   149.597E-03,            0.,NA,NA,"",   1.07599E+06,   1.07890E+06,   1.07890E+06
C:/temp/Job-2.odb,Step-1,Increment      1: Step Time =    1.000,"P-2-1",          5827,   87.4639E-03,   41.2722E-03,            0.,NA,NA,"",   1.03139E+06,   1.05048E+06,   1.05048E+06
C:/temp/Job-2.odb,Step-1,Increment      1: Step Time =    1.000,"P-2-1",          5828,   136.069E-03,   55.1499E-03,            0.,NA,NA,"",   1.10154E+06,   1.07842E+06,   1.07842E+06
C:/temp/Job-2.odb,Step-1,Increment      1: Step Time =    1.000,"P-2-1",          5829,   40.2959E-03,   112.389E-03,            0.,NA,NA,"",   845.507E+03,   907.402E+03,   907.402E+03
C:/temp/Job-2.odb,Step-1,Increment      1: Step Time =    1.000,"P-2-1",          5830,   53.1899E-03,   137.220E-03,            0.,NA,NA,"",   1.02881E+06,   1.04367E+06,   1.04367E+06
C:/temp/Job-2.odb,Step-1,Increment      1: Step Time =    1.000,"P-2-1",          5831,   53.1502E-03,   123.991E-03,            0.,NA,NA,"",   959.431E+03,   983.411E+03,   983.411E+03
C:/temp/Job-2.odb,Step-1,Increment      1: Step Time =    1.000,"P-2-1",          5832,   61.4492E-03,   50.7709E-03,            0.,NA,NA,"",   1.07247E+06,   1.07636E+06,   1.07636E+06
C:/temp/Job-2.odb,Step-1,Increment      1: Step Time =    1.000,"P-2-1",          5833,   138.684E-03,   150.941E-03,            0.,NA,NA,"",   1.08104E+06,   1.06350E+06,   1.06350E+06
C:/temp/Job-2.odb,Step-1,Increment      1: Step Time =    1.000,"P-2-1",          5834,   140.647E-03,   148.304E-03,            0.,NA,NA,"",   1.08484E+06,   1.06452E+06,   1.06452E+06
C:/temp/Job-2.odb,Step-1,Increment      1: Step Time =    1.000,"P-2-1",          5835,   50.4513E-03,   65.7271E-03,            0.,NA,NA,"",   1.00266E+06,   1.02502E+06,   1.02502E+06
C:/temp/Job-2.odb,Step-1,Increment      1: Step Time =    1.000,"P-2-1",          5836,   61.1445E-03,   149.720E-03,            0.,NA,NA,"",   1.07119E+06,   1.07539E+06,   1.07539E+06
C:/temp/Job-2.odb,Step-1,Increment      1: Step Time =    1.000,"P-2-1",          5837,   154.240E-03,   145.014E-03,            0.,NA,NA,"",   1.05554E+06,   1.03934E+06,   1.03934E+06
C:/temp/Job-2.odb,Step-1,Increment      1: Step Time =    1.000,"P-2-1",          5838,   55.0553E-03,   153.151E-03,            0.,NA,NA,"",   1.05555E+06,   1.06527E+06,   1.06527E+06
C:/temp/Job-2.odb,Step-1,Increment      1: Step Time =    1.000,"P-2-1",          5839,   144.237E-03,   45.6529E-03,            0.,NA,NA,"",   1.06497E+06,   1.04963E+06,   1.04963E+06
C:/temp/Job-2.odb,Step-1,Increment      1: Step Time =    1.000,"P-2-1",          5840,   44.7588E-03,   55.3849E-03,            0.,NA,NA,"",   1.00925E+06,   1.03737E+06,   1.03737E+06
C:/temp/Job-2.odb,Step-1,Increment      1: Step Time =    1.000,"P-2-1",          5841,   58.4697E-03,   54.7642E-03,            0.,NA,NA,"",   1.06501E+06,   1.07102E+06,   1.07102E+06
C:/temp/Job-2.odb,Step-1,Increment      1: Step Time =    1.000,"P-2-1",          5842,   51.4504E-03,   60.6523E-03,            0.,NA,NA,"",   1.02552E+06,   1.04341E+06,   1.04341E+06
C:/temp/Job-2.odb,Step-1,Increment      1: Step Time =    1.000,"P-2-1",          5843,   158.954E-03,   80.9999E-03,            0.,NA,NA,"",   979.652E+03,   977.573E+03,   977.573E+03
C:/temp/Job-2.odb,Step-1,Increment      1: Step Time =    1.000,"P-2-1",          5844,   155.599E-03,   84.2047E-03,            0.,NA,NA,"",   963.388E+03,   961.866E+03,   961.866E+03
C:/temp/Job-2.odb,Step-1,Increment      1: Step Time =    1.000,"P-2-1",          5845,   136.781E-03,   47.3017E-03,            0.,NA,NA,"",   1.07814E+06,   1.06267E+06,   1.06267E+06
C:/temp/Job-2.odb,Step-1,Increment      1: Step Time =    1.000,"P-2-1",          5846,   85.2513E-03,   41.3855E-03,            0.,NA,NA,"",   1.03629E+06,   1.05346E+06,   1.05346E+06
C:/temp/Job-2.odb,Step-1,Increment      1: Step Time =    1.000,"P-2-1",          5847,   136.583E-03,   52.6961E-03,            0.,NA,NA,"",   1.09355E+06,   1.07321E+06,   1.07321E+06
C:/temp/Job-2.odb,Step-1,Increment      1: Step Time =    1.000,"P-2-1",          5848,   55.7138E-03,   138.313E-03,            0.,NA,NA,"",   1.04539E+06,   1.05504E+06,   1.05504E+06
C:/temp/Job-2.odb,Step-1,Increment      1: Step Time =    1.000,"P-2-1",          5849,   47.7733E-03,   120.191E-03,            0.,NA,NA,"",   906.557E+03,   947.749E+03,   947.749E+03
C:/temp/Job-2.odb,Step-1,Increment      1: Step Time =    1.000,"P-2-1",          5850,   59.1674E-03,   50.3949E-03,            0.,NA,NA,"",   1.06681E+06,   1.07247E+06,   1.07247E+06
C:/temp/Job-2.odb,Step-1,Increment      1: Step Time =    1.000,"P-2-1",          5851,   150.164E-03,   56.1545E-03,            0.,NA,NA,"",   1.06595E+06,   1.04660E+06,   1.04660E+06
C:/temp/Job-2.odb,Step-1,Increment      1: Step Time =    1.000,"P-2-1",          5852,   50.0510E-03,   144.868E-03,            0.,NA,NA,"",   1.03164E+06,   1.05009E+06,   1.05009E+06
C:/temp/Job-2.odb,Step-1,Increment      1: Step Time =    1.000,"P-2-1",          5853,   143.042E-03,   152.002E-03,            0.,NA,NA,"",   1.07143E+06,   1.05451E+06,   1.05451E+06
C:/temp/Job-2.odb,Step-1,Increment      1: Step Time =    1.000,"P-2-1",          5854,   85.0297E-03,   39.5101E-03,            0.,NA,NA,"",   1.03288E+06,   1.04856E+06,   1.04856E+06
C:/temp/Job-2.odb,Step-1,Increment      1: Step Time =    1.000,"P-2-1",          5855,   114.705E-03,   159.028E-03,            0.,NA,NA,"",   1.03328E+06,   1.04551E+06,   1.04551E+06
C:/temp/Job-2.odb,Step-1,Increment      1: Step Time =    1.000,"P-2-1",          5856,   47.2283E-03,   61.7114E-03,            0.,NA,NA,"",   1.00124E+06,   1.02799E+06,   1.02799E+06
C:/temp/Job-2.odb,Step-1,Increment      1: Step Time =    1.000,"P-2-1",          5857,   61.4004E-03,   151.982E-03,            0.,NA,NA,"",   1.06932E+06,   1.07383E+06,   1.07383E+06
C:/temp/Job-2.odb,Step-1,Increment      1: Step Time =    1.000,"P-2-1",          5858,   151.495E-03,   139.172E-03,            0.,NA,NA,"",   1.06111E+06,   1.04145E+06,   1.04145E+06
C:/temp/Job-2.odb,Step-1,Increment      1: Step Time =    1.000,"P-2-1",          5859,   139.716E-03,   57.1669E-03,            0.,NA,NA,"",   1.09813E+06,   1.07251E+06,   1.07251E+06
C:/temp/Job-2.odb,Step-1,Increment      1: Step Time =    1.000,"P-2-1",          5860,   42.2902E-03,   46.6873E-03,            0.,NA,NA,"",   1.02141E+06,   1.04864E+06,   1.04864E+06
C:/temp/Job-2.odb,Step-1,Increment      1: Step Time =    1.000,"P-2-1",          5861,   43.5896E-03,   158.649E-03,            0.,NA,NA,"",   1.03413E+06,   1.05594E+06,   1.05594E+06
C:/temp/Job-2.odb,Step-1,Increment      1: Step Time =    1.000,"P-2-1",          5862,   153.341E-03,   41.5597E-03,            0.,NA,NA,"",   1.04480E+06,   1.03343E+06,   1.03343E+06
C:/temp/Job-2.odb,Step-1,Increment      1: Step Time =    1.000,"P-2-1",          5863,   156.302E-03,   153.158E-03,            0.,NA,NA,"",   1.04637E+06,   1.03405E+06,   1.03405E+06
C:/temp/Job-2.odb,Step-1,Increment      1: Step Time =    1.000,"P-2-1",          5864,   143.594E-03,   60.1152E-03,            0.,NA,NA,"",   1.08838E+06,   1.06199E+06,   1.06199E+06
C:/temp/Job-2.odb,Step-1,Increment      1: Step Time =    1.000,"P-2-1",          5865,   46.3517E-03,   51.0497E-03,            0.,NA,NA,"",   1.02533E+06,   1.04849E+06,   1.04849E+06
C:/temp/Job-2.odb,Step-1,Increment      1: Step Time =    1.000,"P-2-1",          5866,   50.4260E-03,   153.092E-03,            0.,NA,NA,"",   1.04427E+06,   1.05931E+06,   1.05931E+06
C:/temp/Job-2.odb,Step-1,Increment      1: Step Time =    1.000,"P-2-1",          5867,   149.005E-03,   44.4247E-03,            0.,NA,NA,"",   1.05562E+06,   1.04169E+06,   1.04169E+06
C:/temp/Job-2.odb,Step-1,Increment      1: Step Time =    1.000,"P-2-1",          5868,   152.427E-03,   149.603E-03,            0.,NA,NA,"",   1.05732E+06,   1.04173E+06,   1.04173E+06
C:/temp/Job-2.odb,Step-1,Increment      1: Step Time =    1.000,"P-2-1",          5869,   58.9341E-03,   149.747E-03,            0.,NA,NA,"",   1.06555E+06,   1.07161E+06,   1.07161E+06
C:/temp/Job-2.odb,Step-1,Increment      1: Step Time =    1.000,"P-2-1",          5870,   149.346E-03,   143.277E-03,            0.,NA,NA,"",   1.06928E+06,   1.04893E+06,   1.04893E+06
C:/temp/Job-2.odb,Step-1,Increment      1: Step Time =    1.000,"P-2-1",          5871,   48.1847E-03,   56.0392E-03,            0.,NA,NA,"",   1.02185E+06,   1.04412E+06,   1.04412E+06
C:/temp/Job-2.odb,Step-1,Increment      1: Step Time =    1.000,"P-2-1",          5872,   141.686E-03,   48.2388E-03,            0.,NA,NA,"",   1.07460E+06,   1.05733E+06,   1.05733E+06
C:/temp/Job-2.odb,Step-1,Increment      1: Step Time =    1.000,"P-2-1",          5873,   150.341E-03,   78.0503E-03,            0.,NA,NA,"",   1.00612E+06,   991.275E+03,   991.275E+03
C:/temp/Job-2.odb,Step-1,Increment      1: Step Time =    1.000,"P-2-1",          5874,   143.776E-03,   65.5305E-03,            0.,NA,NA,"",   1.08529E+06,   1.05596E+06,   1.05596E+06
C:/temp/Job-2.odb,Step-1,Increment      1: Step Time =    1.000,"P-2-1",          5875,   60.9700E-03,   147.571E-03,            0.,NA,NA,"",   1.07303E+06,   1.07669E+06,   1.07669E+06
C:/temp/Job-2.odb,Step-1,Increment      1: Step Time =    1.000,"P-2-1",          5876,   153.849E-03,   82.3781E-03,            0.,NA,NA,"",   973.774E+03,   968.470E+03,   968.470E+03
C:/temp/Job-2.odb,Step-1,Increment      1: Step Time =    1.000,"P-2-1",          5877,   138.505E-03,   50.4115E-03,            0.,NA,NA,"",   1.08462E+06,   1.06595E+06,   1.06595E+06
C:/temp/Job-2.odb,Step-1,Increment      1: Step Time =    1.000,"P-2-1",          5878,   155.651E-03,   87.6730E-03,            0.,NA,NA,"",   944.616E+03,   947.193E+03,   947.193E+03
C:/temp/Job-2.odb,Step-1,Increment      1: Step Time =    1.000,"P-2-1",          5879,   83.0590E-03,   40.7516E-03,            0.,NA,NA,"",   1.03959E+06,   1.05426E+06,   1.05426E+06
C:/temp/Job-2.odb,Step-1,Increment      1: Step Time =    1.000,"P-2-1",          5880,   145.149E-03,   148.555E-03,            0.,NA,NA,"",   1.07448E+06,   1.05523E+06,   1.05523E+06
C:/temp/Job-2.odb,Step-1,Increment      1: Step Time =    1.000,"P-2-1",          5881,   58.9392E-03,   52.7300E-03,            0.,NA,NA,"",   1.06669E+06,   1.07238E+06,   1.07238E+06
C:/temp/Job-2.odb,Step-1,Increment      1: Step Time =    1.000,"P-2-1",          5882,   50.7425E-03,   58.1635E-03,            0.,NA,NA,"",   1.02877E+06,   1.04697E+06,   1.04697E+06
C:/temp/Job-2.odb,Step-1,Increment      1: Step Time =    1.000,"P-2-1",          5883,   46.3812E-03,   53.5916E-03,            0.,NA,NA,"",   1.02099E+06,   1.04500E+06,   1.04500E+06
C:/temp/Job-2.odb,Step-1,Increment      1: Step Time =    1.000,"P-2-1",          5884,   146.678E-03,   45.0844E-03,            0.,NA,NA,"",   1.06048E+06,   1.04568E+06,   1.04568E+06
C:/temp/Job-2.odb,Step-1,Increment      1: Step Time =    1.000,"P-2-1",          5885,   53.3394E-03,   152.325E-03,            0.,NA,NA,"",   1.05134E+06,   1.06303E+06,   1.06303E+06
C:/temp/Job-2.odb,Step-1,Increment      1: Step Time =    1.000,"P-2-1",          5886,   153.216E-03,   147.144E-03,            0.,NA,NA,"",   1.05732E+06,   1.04117E+06,   1.04117E+06
C:/temp/Job-2.odb,Step-1,Increment      1: Step Time =    1.000,"P-2-1",          5887,   49.2519E-03,   61.0580E-03,            0.,NA,NA,"",   1.01291E+06,   1.03548E+06,   1.03548E+06
C:/temp/Job-2.odb,Step-1,Increment      1: Step Time =    1.000,"P-2-1",          5888,   159.148E-03,   84.3178E-03,            0.,NA,NA,"",   964.562E+03,   965.872E+03,   965.872E+03
C:/temp/Job-2.odb,Step-1,Increment      1: Step Time =    1.000,"P-2-1",          5889,   52.3698E-03,   139.630E-03,            0.,NA,NA,"",   1.03070E+06,   1.04655E+06,   1.04655E+06
C:/temp/Job-2.odb,Step-1,Increment      1: Step Time =    1.000,"P-2-1",          5890,   148.742E-03,   58.8417E-03,            0.,NA,NA,"",   1.07114E+06,   1.04948E+06,   1.04948E+06
C:/temp/Job-2.odb,Step-1,Increment      1: Step Time =    1.000,"P-2-1",          5891,   82.2703E-03,   38.1086E-03,            0.,NA,NA,"",   1.03544E+06,   1.04802E+06,   1.04802E+06
C:/temp/Job-2.odb,Step-1,Increment      1: Step Time =    1.000,"P-2-1",          5892,   149.029E-03,   138.529E-03,            0.,NA,NA,"",   1.06891E+06,   1.04664E+06,   1.04664E+06
C:/temp/Job-2.odb,Step-1,Increment      1: Step Time =    1.000,"P-2-1",          5893,   148.920E-03,   140.925E-03,            0.,NA,NA,"",   1.07019E+06,   1.04871E+06,   1.04871E+06
C:/temp/Job-2.odb,Step-1,Increment      1: Step Time =    1.000,"P-2-1",          5894,   142.532E-03,   67.9566E-03,            0.,NA,NA,"",   1.08690E+06,   1.05506E+06,   1.05506E+06
C:/temp/Job-2.odb,Step-1,Increment      1: Step Time =    1.000,"P-2-1",          5895,   144.860E-03,   63.1391E-03,            0.,NA,NA,"",   1.08340E+06,   1.05623E+06,   1.05623E+06
C:/temp/Job-2.odb,Step-1,Increment      1: Step Time =    1.000,"P-2-1",          5896,   141.417E-03,   53.1804E-03,            0.,NA,NA,"",   1.08617E+06,   1.06448E+06,   1.06448E+06
C:/temp/Job-2.odb,Step-1,Increment      1: Step Time =    1.000,"P-2-1",          5897,   147.421E-03,   47.4725E-03,            0.,NA,NA,"",   1.06323E+06,   1.04719E+06,   1.04719E+06
C:/temp/Job-2.odb,Step-1,Increment      1: Step Time =    1.000,"P-2-1",          5898,   48.7590E-03,   51.4282E-03,            0.,NA,NA,"",   1.03287E+06,   1.05237E+06,   1.05237E+06
C:/temp/Job-2.odb,Step-1,Increment      1: Step Time =    1.000,"P-2-1",          5899,   150.051E-03,   148.697E-03,            0.,NA,NA,"",   1.06342E+06,   1.04625E+06,   1.04625E+06
C:/temp/Job-2.odb,Step-1,Increment      1: Step Time =    1.000,"P-2-1",          5900,   51.6916E-03,   151.350E-03,            0.,NA,NA,"",   1.04630E+06,   1.06023E+06,   1.06023E+06
C:/temp/Job-2.odb,Step-1,Increment      1: Step Time =    1.000,"P-2-1",          5901,   55.2552E-03,   59.3839E-03,            0.,NA,NA,"",   1.04698E+06,   1.05759E+06,   1.05759E+06
C:/temp/Job-2.odb,Step-1,Increment      1: Step Time =    1.000,"P-2-1",          5902,   56.9867E-03,   150.005E-03,            0.,NA,NA,"",   1.06054E+06,   1.06841E+06,   1.06841E+06
C:/temp/Job-2.odb,Step-1,Increment      1: Step Time =    1.000,"P-2-1",          5903,   50.3562E-03,   55.1479E-03,            0.,NA,NA,"",   1.03264E+06,   1.05077E+06,   1.05077E+06
C:/temp/Job-2.odb,Step-1,Increment      1: Step Time =    1.000,"P-2-1",          5904,   147.857E-03,   145.745E-03,            0.,NA,NA,"",   1.07183E+06,   1.05188E+06,   1.05188E+06
C:/temp/Job-2.odb,Step-1,Increment      1: Step Time =    1.000,"P-2-1",          5905,   143.563E-03,   51.1243E-03,            0.,NA,NA,"",   1.07703E+06,   1.05757E+06,   1.05757E+06
C:/temp/Job-2.odb,Step-1,Increment      1: Step Time =    1.000,"P-2-1",          5906,   145.919E-03,   66.5971E-03,            0.,NA,NA,"",   1.07381E+06,   1.04676E+06,   1.04676E+06
C:/temp/Job-2.odb,Step-1,Increment      1: Step Time =    1.000,"P-2-1",          5907,   50.3059E-03,   149.924E-03,            0.,NA,NA,"",   1.04038E+06,   1.05676E+06,   1.05676E+06
C:/temp/Job-2.odb,Step-1,Increment      1: Step Time =    1.000,"P-2-1",          5908,   149.623E-03,   151.316E-03,            0.,NA,NA,"",   1.06108E+06,   1.04513E+06,   1.04513E+06
C:/temp/Job-2.odb,Step-1,Increment      1: Step Time =    1.000,"P-2-1",          5909,   51.6501E-03,   49.4527E-03,            0.,NA,NA,"",   1.04552E+06,   1.05976E+06,   1.05976E+06
C:/temp/Job-2.odb,Step-1,Increment      1: Step Time =    1.000,"P-2-1",          5910,   149.933E-03,   51.3302E-03,            0.,NA,NA,"",   1.06308E+06,   1.04595E+06,   1.04595E+06
C:/temp/Job-2.odb,Step-1,Increment      1: Step Time =    1.000,"P-2-1",          5911,   160.664E-03,   82.6730E-03,            0.,NA,NA,"",   972.343E+03,   973.236E+03,   973.236E+03
C:/temp/Job-2.odb,Step-1,Increment      1: Step Time =    1.000,"P-2-1",          5912,   144.299E-03,   140.984E-03,            0.,NA,NA,"",   1.08535E+06,   1.06046E+06,   1.06046E+06
C:/temp/Job-2.odb,Step-1,Increment      1: Step Time =    1.000,"P-2-1",          5913,   155.667E-03,   105.656E-03,            0.,NA,NA,"",   916.592E+03,   925.544E+03,   925.544E+03
C:/temp/Job-2.odb,Step-1,Increment      1: Step Time =    1.000,"P-2-1",          5914,   52.0196E-03,   142.065E-03,            0.,NA,NA,"",   1.03488E+06,   1.05057E+06,   1.05057E+06
C:/temp/Job-2.odb,Step-1,Increment      1: Step Time =    1.000,"P-2-1",          5915,   143.019E-03,   144.232E-03,            0.,NA,NA,"",   1.08630E+06,   1.06321E+06,   1.06321E+06
C:/temp/Job-2.odb,Step-1,Increment      1: Step Time =    1.000,"P-2-1",          5916,   157.548E-03,   89.3876E-03,            0.,NA,NA,"",   938.995E+03,   944.533E+03,   944.533E+03
C:/temp/Job-2.odb,Step-1,Increment      1: Step Time =    1.000,"P-2-1",          5917,   44.0663E-03,   51.2944E-03,            0.,NA,NA,"",   1.01670E+06,   1.04389E+06,   1.04389E+06
C:/temp/Job-2.odb,Step-1,Increment      1: Step Time =    1.000,"P-2-1",          5918,   148.589E-03,   42.1224E-03,            0.,NA,NA,"",   1.05242E+06,   1.03960E+06,   1.03960E+06
C:/temp/Job-2.odb,Step-1,Increment      1: Step Time =    1.000,"P-2-1",          5919,   52.3313E-03,   154.266E-03,            0.,NA,NA,"",   1.04980E+06,   1.06215E+06,   1.06215E+06
C:/temp/Job-2.odb,Step-1,Increment      1: Step Time =    1.000,"P-2-1",          5920,   155.605E-03,   148.560E-03,            0.,NA,NA,"",   1.05101E+06,   1.03685E+06,   1.03685E+06
C:/temp/Job-2.odb,Step-1,Increment      1: Step Time =    1.000,"P-2-1",          5921,   49.6843E-03,   139.071E-03,            0.,NA,NA,"",   1.01615E+06,   1.03731E+06,   1.03731E+06
C:/temp/Job-2.odb,Step-1,Increment      1: Step Time =    1.000,"P-2-1",          5922,   146.688E-03,   55.0305E-03,            0.,NA,NA,"",   1.07508E+06,   1.05422E+06,   1.05422E+06
C:/temp/Job-2.odb,Step-1,Increment      1: Step Time =    1.000,"P-2-1",          5923,   150.257E-03,   62.1725E-03,            0.,NA,NA,"",   1.06419E+06,   1.04290E+06,   1.04290E+06
C:/temp/Job-2.odb,Step-1,Increment      1: Step Time =    1.000,"P-2-1",          5924,   147.272E-03,   143.405E-03,            0.,NA,NA,"",   1.07517E+06,   1.05353E+06,   1.05353E+06
C:/temp/Job-2.odb,Step-1,Increment      1: Step Time =    1.000,"P-2-1",          5925,   141.286E-03,   50.6996E-03,            0.,NA,NA,"",   1.08100E+06,   1.06158E+06,   1.06158E+06
C:/temp/Job-2.odb,Step-1,Increment      1: Step Time =    1.000,"P-2-1",          5926,   54.3332E-03,   150.300E-03,            0.,NA,NA,"",   1.05276E+06,   1.06376E+06,   1.06376E+06
C:/temp/Job-2.odb,Step-1,Increment      1: Step Time =    1.000,"P-2-1",          5927,   58.6204E-03,   147.608E-03,            0.,NA,NA,"",   1.06574E+06,   1.07169E+06,   1.07169E+06
C:/temp/Job-2.odb,Step-1,Increment      1: Step Time =    1.000,"P-2-1",          5928,   51.2114E-03,   52.1929E-03,            0.,NA,NA,"",   1.04058E+06,   1.05642E+06,   1.05642E+06
C:/temp/Job-2.odb,Step-1,Increment      1: Step Time =    1.000,"P-2-1",          5929,   147.872E-03,   148.141E-03,            0.,NA,NA,"",   1.06911E+06,   1.05060E+06,   1.05060E+06
C:/temp/Job-2.odb,Step-1,Increment      1: Step Time =    1.000,"P-2-1",          5930,   146.792E-03,   50.9064E-03,            0.,NA,NA,"",   1.07002E+06,   1.05156E+06,   1.05156E+06
C:/temp/Job-2.odb,Step-1,Increment      1: Step Time =    1.000,"P-2-1",          5931,   143.014E-03,   55.3878E-03,            0.,NA,NA,"",   1.08584E+06,   1.06290E+06,   1.06290E+06
C:/temp/Job-2.odb,Step-1,Increment      1: Step Time =    1.000,"P-2-1",          5932,   144.534E-03,   69.0757E-03,            0.,NA,NA,"",   1.07414E+06,   1.04478E+06,   1.04478E+06
C:/temp/Job-2.odb,Step-1,Increment      1: Step Time =    1.000,"P-2-1",          5933,   162.608E-03,   84.1354E-03,            0.,NA,NA,"",   967.407E+03,   970.943E+03,   970.943E+03
C:/temp/Job-2.odb,Step-1,Increment      1: Step Time =    1.000,"P-2-1",          5934,   146.955E-03,   150.584E-03,            0.,NA,NA,"",   1.06750E+06,   1.05019E+06,   1.05019E+06
C:/temp/Job-2.odb,Step-1,Increment      1: Step Time =    1.000,"P-2-1",          5935,   52.2812E-03,   148.568E-03,            0.,NA,NA,"",   1.04536E+06,   1.05928E+06,   1.05928E+06
C:/temp/Job-2.odb,Step-1,Increment      1: Step Time =    1.000,"P-2-1",          5936,   148.441E-03,   52.6541E-03,            0.,NA,NA,"",   1.06792E+06,   1.04928E+06,   1.04928E+06
C:/temp/Job-2.odb,Step-1,Increment      1: Step Time =    1.000,"P-2-1",          5937,   54.1561E-03,   49.9864E-03,            0.,NA,NA,"",   1.05248E+06,   1.06362E+06,   1.06362E+06
C:/temp/Job-2.odb,Step-1,Increment      1: Step Time =    1.000,"P-2-1",          5938,   57.1310E-03,   141.344E-03,            0.,NA,NA,"",   1.05685E+06,   1.06416E+06,   1.06416E+06
C:/temp/Job-2.odb,Step-1,Increment      1: Step Time =    1.000,"P-2-1",          5939,   155.811E-03,   90.8956E-03,            0.,NA,NA,"",   927.725E+03,   934.138E+03,   934.138E+03
C:/temp/Job-2.odb,Step-1,Increment      1: Step Time =    1.000,"P-2-1",          5940,   147.954E-03,   61.4508E-03,            0.,NA,NA,"",   1.07303E+06,   1.04960E+06,   1.04960E+06
C:/temp/Job-2.odb,Step-1,Increment      1: Step Time =    1.000,"P-2-1",          5941,   51.1040E-03,   147.002E-03,            0.,NA,NA,"",   1.03956E+06,   1.05552E+06,   1.05552E+06
C:/temp/Job-2.odb,Step-1,Increment      1: Step Time =    1.000,"P-2-1",          5942,   54.4290E-03,   144.285E-03,            0.,NA,NA,"",   1.04834E+06,   1.05983E+06,   1.05983E+06
C:/temp/Job-2.odb,Step-1,Increment      1: Step Time =    1.000,"P-2-1",          5943,   145.047E-03,   143.609E-03,            0.,NA,NA,"",   1.08144E+06,   1.05873E+06,   1.05873E+06
C:/temp/Job-2.odb,Step-1,Increment      1: Step Time =    1.000,"P-2-1",          5944,   144.660E-03,   151.315E-03,            0.,NA,NA,"",   1.07033E+06,   1.05307E+06,   1.05307E+06
C:/temp/Job-2.odb,Step-1,Increment      1: Step Time =    1.000,"P-2-1",          5945,   56.6846E-03,   50.1556E-03,            0.,NA,NA,"",   1.05982E+06,   1.06799E+06,   1.06799E+06
C:/temp/Job-2.odb,Step-1,Increment      1: Step Time =    1.000,"P-2-1",          5946,   159.512E-03,   87.8283E-03,            0.,NA,NA,"",   949.768E+03,   954.670E+03,   954.670E+03
C:/temp/Job-2.odb,Step-1,Increment      1: Step Time =    1.000,"P-2-1",          5947,   56.8660E-03,   136.297E-03,            0.,NA,NA,"",   1.04700E+06,   1.05463E+06,   1.05463E+06
C:/temp/Job-2.odb,Step-1,Increment      1: Step Time =    1.000,"P-2-1",          5948,   146.618E-03,   138.319E-03,            0.,NA,NA,"",   1.07729E+06,   1.05269E+06,   1.05269E+06
C:/temp/Job-2.odb,Step-1,Increment      1: Step Time =    1.000,"P-2-1",          5949,   159.081E-03,   91.3187E-03,            0.,NA,NA,"",   934.947E+03,   942.796E+03,   942.796E+03
C:/temp/Job-2.odb,Step-1,Increment      1: Step Time =    1.000,"P-2-1",          5950,   149.805E-03,   65.1346E-03,            0.,NA,NA,"",   1.06101E+06,   1.03900E+06,   1.03900E+06
C:/temp/Job-2.odb,Step-1,Increment      1: Step Time =    1.000,"P-2-1",          5951,   144.087E-03,   146.534E-03,            0.,NA,NA,"",   1.07997E+06,   1.05904E+06,   1.05904E+06
C:/temp/Job-2.odb,Step-1,Increment      1: Step Time =    1.000,"P-2-1",          5952,   55.9754E-03,   143.187E-03,            0.,NA,NA,"",   1.05365E+06,   1.06282E+06,   1.06282E+06
C:/temp/Job-2.odb,Step-1,Increment      1: Step Time =    1.000,"P-2-1",          5953,   96.1112E-03,   157.851E-03,            0.,NA,NA,"",   1.01814E+06,   1.04371E+06,   1.04371E+06
C:/temp/Job-2.odb,Step-1,Increment      1: Step Time =    1.000,"P-2-1",          5954,   153.633E-03,   32.2632E-03,            0.,NA,NA,"",   1.02967E+06,   1.02224E+06,   1.02224E+06
C:/temp/Job-2.odb,Step-1,Increment      1: Step Time =    1.000,"P-2-1",          5955,   167.784E-03,   154.253E-03,            0.,NA,NA,"",   1.02531E+06,   1.01948E+06,   1.01948E+06
C:/temp/Job-2.odb,Step-1,Increment      1: Step Time =    1.000,"P-2-1",          5956,   32.6476E-03,   46.2139E-03,            0.,NA,NA,"",   990.279E+03,   1.03532E+06,   1.03532E+06
C:/temp/Job-2.odb,Step-1,Increment      1: Step Time =    1.000,"P-2-1",          5957,   46.0634E-03,   167.719E-03,            0.,NA,NA,"",   1.04585E+06,   1.05874E+06,   1.05874E+06
C:/temp/Job-2.odb,Step-1,Increment      1: Step Time =    1.000,"P-2-1",          5958,   149.189E-03,   135.979E-03,            0.,NA,NA,"",   1.06564E+06,   1.04292E+06,   1.04292E+06
C:/temp/Job-2.odb,Step-1,Increment      1: Step Time =    1.000,"P-2-1",          5959,   57.5121E-03,   144.664E-03,            0.,NA,NA,"",   1.06115E+06,   1.06814E+06,   1.06814E+06
C:/temp/Job-2.odb,Step-1,Increment      1: Step Time =    1.000,"P-2-1",          5960,   145.810E-03,   145.868E-03,            0.,NA,NA,"",   1.07674E+06,   1.05601E+06,   1.05601E+06
C:/temp/Job-2.odb,Step-1,Increment      1: Step Time =    1.000,"P-2-1",          5961,   141.426E-03,   145.409E-03,            0.,NA,NA,"",   1.08909E+06,   1.06637E+06,   1.06637E+06
C:/temp/Job-2.odb,Step-1,Increment      1: Step Time =    1.000,"P-2-1",          5962,   59.6429E-03,   142.596E-03,            0.,NA,NA,"",   1.06860E+06,   1.07256E+06,   1.07256E+06
C:/temp/Job-2.odb,Step-1,Increment      1: Step Time =    1.000,"P-2-1",          5963,   102.295E-03,   138.370E-03,            0.,NA,NA,"",   1.04375E+06,   1.10562E+06,   1.10562E+06
C:/temp/Job-2.odb,Step-1,Increment      1: Step Time =    1.000,"P-2-1",          5964,   116.441E-03,   148.199E-03,            0.,NA,NA,"",   1.07094E+06,   1.08293E+06,   1.08293E+06
C:/temp/Job-2.odb,Step-1,Increment      1: Step Time =    1.000,"P-2-1",          5965,   163.484E-03,   87.6239E-03,            0.,NA,NA,"",   956.342E+03,   963.140E+03,   963.140E+03
C:/temp/Job-2.odb,Step-1,Increment      1: Step Time =    1.000,"P-2-1",          5966,   86.9219E-03,   36.9447E-03,            0.,NA,NA,"",   1.02475E+06,   1.03997E+06,   1.03997E+06
C:/temp/Job-2.odb,Step-1,Increment      1: Step Time =    1.000,"P-2-1",          5967,   66.0161E-03,   52.0342E-03,            0.,NA,NA,"",   1.08360E+06,   1.08490E+06,   1.08490E+06
C:/temp/Job-2.odb,Step-1,Increment      1: Step Time =    1.000,"P-2-1",          5968,   47.0476E-03,   106.050E-03,            0.,NA,NA,"",   816.337E+03,   874.134E+03,   874.134E+03
C:/temp/Job-2.odb,Step-1,Increment      1: Step Time =    1.000,"P-2-1",          5969,   100.933E-03,   149.634E-03,            0.,NA,NA,"",   1.02460E+06,   1.06234E+06,   1.06234E+06
C:/temp/Job-2.odb,Step-1,Increment      1: Step Time =    1.000,"P-2-1",          5970,   97.9384E-03,   51.7802E-03,            0.,NA,NA,"",   1.02673E+06,   1.06728E+06,   1.06728E+06
C:/temp/Job-2.odb,Step-1,Increment      1: Step Time =    1.000,"P-2-1",          5971,   116.491E-03,   150.332E-03,            0.,NA,NA,"",   1.06282E+06,   1.07459E+06,   1.07459E+06
C:/temp/Job-2.odb,Step-1,Increment      1: Step Time =    1.000,"P-2-1",          5972,   13.5593E-03,   4.21585E-03,            0.,NA,NA,"",   1.17631E+06,   1.18234E+06,   1.18234E+06
C:/temp/Job-2.odb,Step-1,Increment      1: Step Time =    1.000,"P-2-1",          5973,   4.21215E-03,   186.442E-03,            0.,NA,NA,"",   1.08953E+06,   1.18181E+06,   1.18181E+06
C:/temp/Job-2.odb,Step-1,Increment      1: Step Time =    1.000,"P-2-1",          5974,   195.787E-03,   13.5581E-03,            0.,NA,NA,"",   1.00021E+06,   1.00003E+06,   1.00003E+06
C:/temp/Job-2.odb,Step-1,Increment      1: Step Time =    1.000,"P-2-1",          5975,   186.375E-03,   195.671E-03,            0.,NA,NA,"",   999.524E+03,   999.512E+03,   999.512E+03
C:/temp/Job-2.odb,Step-1,Increment      1: Step Time =    1.000,"P-2-1",          5976,   62.3308E-03,   125.410E-03,            0.,NA,NA,"",   1.03648E+06,   1.03224E+06,   1.03224E+06
C:/temp/Job-2.odb,Step-1,Increment      1: Step Time =    1.000,"P-2-1",          5977,   34.0546E-03,   142.691E-03,            0.,NA,NA,"",   959.198E+03,   1.00929E+06,   1.00929E+06
C:/temp/Job-2.odb,Step-1,Increment      1: Step Time =    1.000,"P-2-1",          5978,   141.391E-03,   168.353E-03,            0.,NA,NA,"",   1.03473E+06,   1.02754E+06,   1.02754E+06
C:/temp/Job-2.odb,Step-1,Increment      1: Step Time =    1.000,"P-2-1",          5979,   56.4285E-03,   32.2941E-03,            0.,NA,NA,"",   1.04839E+06,   1.05387E+06,   1.05387E+06
C:/temp/Job-2.odb,Step-1,Increment      1: Step Time =    1.000,"P-2-1",          5980,   167.047E-03,   57.6051E-03,            0.,NA,NA,"",   1.02492E+06,   1.01876E+06,   1.01876E+06
C:/temp/Job-2.odb,Step-1,Increment      1: Step Time =    1.000,"P-2-1",          5981,   116.246E-03,   9.72746E-03,            0.,NA,NA,"",   964.365E+03,   965.218E+03,   965.218E+03
C:/temp/Job-2.odb,Step-1,Increment      1: Step Time =    1.000,"P-2-1",          5982,   9.14103E-03,   83.9533E-03,            0.,NA,NA,"",   801.585E+03,   897.736E+03,   897.736E+03
C:/temp/Job-2.odb,Step-1,Increment      1: Step Time =    1.000,"P-2-1",          5983,   190.831E-03,   116.033E-03,            0.,NA,NA,"",   973.631E+03,   997.666E+03,   997.666E+03
C:/temp/Job-2.odb,Step-1,Increment      1: Step Time =    1.000,"P-2-1",          5984,   83.8570E-03,   190.706E-03,            0.,NA,NA,"",   960.337E+03,   961.431E+03,   961.431E+03
C:/temp/Job-2.odb,Step-1,Increment      1: Step Time =    1.000,"P-2-1",          5985,   58.1058E-03,   88.6471E-03,            0.,NA,NA,"",   844.320E+03,   877.293E+03,   877.293E+03
C:/temp/Job-2.odb,Step-1,Increment      1: Step Time =    1.000,"P-2-1",          5986,   93.4456E-03,   26.1869E-03,            0.,NA,NA,"",   997.389E+03,   1.00747E+06,   1.00747E+06
C:/temp/Job-2.odb,Step-1,Increment      1: Step Time =    1.000,"P-2-1",          5987,   171.562E-03,   93.6940E-03,            0.,NA,NA,"",   956.584E+03,   969.989E+03,   969.989E+03
C:/temp/Job-2.odb,Step-1,Increment      1: Step Time =    1.000,"P-2-1",          5988,   40.5822E-03,   95.2068E-03,            0.,NA,NA,"",   820.336E+03,   885.960E+03,   885.960E+03
C:/temp/Job-2.odb,Step-1,Increment      1: Step Time =    1.000,"P-2-1",          5989,   46.8606E-03,   91.7648E-03,            0.,NA,NA,"",   826.910E+03,   883.125E+03,   883.125E+03
C:/temp/Job-2.odb,Step-1,Increment      1: Step Time =    1.000,"P-2-1",          5990,   112.397E-03,   61.0636E-03,            0.,NA,NA,"",   1.09919E+06,   1.12475E+06,   1.12475E+06
C:/temp/Job-2.odb,Step-1,Increment      1: Step Time =    1.000,"P-2-1",          5991,   89.5895E-03,   139.490E-03,            0.,NA,NA,"",   1.07963E+06,   1.11885E+06,   1.11885E+06
C:/temp/Job-2.odb,Step-1,Increment      1: Step Time =    1.000,"P-2-1",          5992,   54.1459E-03,   98.4521E-03,            0.,NA,NA,"",   777.641E+03,   830.914E+03,   830.914E+03
C:/temp/Job-2.odb,Step-1,Increment      1: Step Time =    1.000,"P-2-1",          5993,   156.705E-03,   140.222E-03,            0.,NA,NA,"",   1.04706E+06,   1.03214E+06,   1.03214E+06
C:/temp/Job-2.odb,Step-1,Increment      1: Step Time =    1.000,"P-2-1",          5994,   61.5382E-03,   154.458E-03,            0.,NA,NA,"",   1.06690E+06,   1.07157E+06,   1.07157E+06
C:/temp/Job-2.odb,Step-1,Increment      1: Step Time =    1.000,"P-2-1",          5995,   136.758E-03,   45.3626E-03,            0.,NA,NA,"",   1.07199E+06,   1.05819E+06,   1.05819E+06
C:/temp/Job-2.odb,Step-1,Increment      1: Step Time =    1.000,"P-2-1",          5996,   43.6771E-03,   62.2793E-03,            0.,NA,NA,"",   981.608E+03,   1.01620E+06,   1.01620E+06
C:/temp/Job-2.odb,Step-1,Increment      1: Step Time =    1.000,"P-2-1",          5997,   143.066E-03,   71.5222E-03,            0.,NA,NA,"",   1.07233E+06,   1.04069E+06,   1.04069E+06
C:/temp/Job-2.odb,Step-1,Increment      1: Step Time =    1.000,"P-2-1",          5998,   121.310E-03,   172.127E-03,            0.,NA,NA,"",   1.01275E+06,   1.01536E+06,   1.01536E+06
C:/temp/Job-2.odb,Step-1,Increment      1: Step Time =    1.000,"P-2-1",          5999,   133.567E-03,   152.680E-03,            0.,NA,NA,"",   1.07990E+06,   1.06634E+06,   1.06634E+06
C:/temp/Job-2.odb,Step-1,Increment      1: Step Time =    1.000,"P-2-1",          6000,   151.804E-03,   67.3331E-03,            0.,NA,NA,"",   1.04933E+06,   1.02973E+06,   1.02973E+06
C:/temp/Job-2.odb,Step-1,Increment      1: Step Time =    1.000,"P-2-1",          6001,   48.1050E-03,   133.193E-03,            0.,NA,NA,"",   985.883E+03,   1.01381E+06,   1.01381E+06
C:/temp/Job-2.odb,Step-1,Increment      1: Step Time =    1.000,"P-2-1",          6002,   67.2799E-03,   47.4719E-03,            0.,NA,NA,"",   1.07608E+06,   1.07917E+06,   1.07917E+06
C:/temp/Job-2.odb,Step-1,Increment      1: Step Time =    1.000,"P-2-1",          6003,   154.008E-03,   125.508E-03,            0.,NA,NA,"",   1.01696E+06,   1.00373E+06,   1.00373E+06
C:/temp/Job-2.odb,Step-1,Increment      1: Step Time =    1.000,"P-2-1",          6004,   46.4007E-03,   75.7333E-03,            0.,NA,NA,"",   928.026E+03,   967.985E+03,   967.985E+03
C:/temp/Job-2.odb,Step-1,Increment      1: Step Time =    1.000,"P-2-1",          6005,   57.0703E-03,   122.547E-03,            0.,NA,NA,"",   969.990E+03,   985.103E+03,   985.103E+03
C:/temp/Job-2.odb,Step-1,Increment      1: Step Time =    1.000,"P-2-1",          6006,   157.599E-03,   26.6015E-03,            0.,NA,NA,"",   1.01860E+06,   1.01366E+06,   1.01366E+06
C:/temp/Job-2.odb,Step-1,Increment      1: Step Time =    1.000,"P-2-1",          6007,   173.669E-03,   157.690E-03,            0.,NA,NA,"",   1.01596E+06,   1.01314E+06,   1.01314E+06
C:/temp/Job-2.odb,Step-1,Increment      1: Step Time =    1.000,"P-2-1",          6008,   26.5497E-03,   42.3370E-03,            0.,NA,NA,"",   981.844E+03,   1.03628E+06,   1.03628E+06
C:/temp/Job-2.odb,Step-1,Increment      1: Step Time =    1.000,"P-2-1",          6009,   42.3450E-03,   173.424E-03,            0.,NA,NA,"",   1.04649E+06,   1.05906E+06,   1.05906E+06
C:/temp/Job-2.odb,Step-1,Increment      1: Step Time =    1.000,"P-2-1",          6010,   179.254E-03,   2.02066E-03,            0.,NA,NA,"",   998.920E+03,   998.911E+03,   998.911E+03
C:/temp/Job-2.odb,Step-1,Increment      1: Step Time =    1.000,"P-2-1",          6011,   176.824E-03,   2.07865E-03,            0.,NA,NA,"",   998.702E+03,   998.682E+03,   998.682E+03
C:/temp/Job-2.odb,Step-1,Increment      1: Step Time =    1.000,"P-2-1",          6012,   197.957E-03,   179.267E-03,            0.,NA,NA,"",   1.00046E+06,   1.00004E+06,   1.00004E+06
C:/temp/Job-2.odb,Step-1,Increment      1: Step Time =    1.000,"P-2-1",          6013,   197.902E-03,   176.833E-03,            0.,NA,NA,"",   1.00045E+06,   1.00007E+06,   1.00007E+06
C:/temp/Job-2.odb,Step-1,Increment      1: Step Time =    1.000,"P-2-1",          6014,   20.7457E-03,   197.980E-03,            0.,NA,NA,"",   1.07146E+06,   1.07222E+06,   1.07222E+06
C:/temp/Job-2.odb,Step-1,Increment      1: Step Time =    1.000,"P-2-1",          6015,   23.1756E-03,   197.922E-03,            0.,NA,NA,"",   1.05551E+06,   1.05620E+06,   1.05620E+06
C:/temp/Job-2.odb,Step-1,Increment      1: Step Time =    1.000,"P-2-1",          6016,   2.02158E-03,   20.7456E-03,            0.,NA,NA,"",   985.003E+03,   1.09046E+06,   1.09046E+06
C:/temp/Job-2.odb,Step-1,Increment      1: Step Time =    1.000,"P-2-1",          6017,   2.07979E-03,   23.1754E-03,            0.,NA,NA,"",   967.138E+03,   1.07221E+06,   1.07221E+06
C:/temp/Job-2.odb,Step-1,Increment      1: Step Time =    1.000,"P-2-1",          6018,   93.9318E-03,   113.531E-03,            0.,NA,NA,"",   1.80808E+06,   1.87501E+06,   1.87501E+06
C:/temp/Job-2.odb,Step-1,Increment      1: Step Time =    1.000,"P-2-1",          6019,   109.225E-03,   111.900E-03,            0.,NA,NA,"",   1.39737E+06,   1.39538E+06,   1.39538E+06
C:/temp/Job-2.odb,Step-1,Increment      1: Step Time =    1.000,"P-2-1",          6020,   90.7280E-03,   88.0783E-03,            0.,NA,NA,"",   1.38084E+06,   1.38041E+06,   1.38041E+06
C:/temp/Job-2.odb,Step-1,Increment      1: Step Time =    1.000,"P-2-1",          6021,   100.595E-03,   120.118E-03,            0.,NA,NA,"",   1.35480E+06,   1.50075E+06,   1.50075E+06
C:/temp/Job-2.odb,Step-1,Increment      1: Step Time =    1.000,"P-2-1",          6022,   99.4110E-03,   79.9895E-03,            0.,NA,NA,"",   1.36398E+06,   1.51038E+06,   1.51038E+06
C:/temp/Job-2.odb,Step-1,Increment      1: Step Time =    1.000,"P-2-1",          6023,   27.8030E-03,   4.95543E-03,            0.,NA,NA,"",   1.04937E+06,   1.05068E+06,   1.05068E+06
C:/temp/Job-2.odb,Step-1,Increment      1: Step Time =    1.000,"P-2-1",          6024,   195.048E-03,   27.8071E-03,            0.,NA,NA,"",   1.00011E+06,   1.00037E+06,   1.00037E+06
C:/temp/Job-2.odb,Step-1,Increment      1: Step Time =    1.000,"P-2-1",          6025,   172.266E-03,   195.071E-03,            0.,NA,NA,"",   998.324E+03,   998.208E+03,   998.208E+03
C:/temp/Job-2.odb,Step-1,Increment      1: Step Time =    1.000,"P-2-1",          6026,   4.94845E-03,   172.192E-03,            0.,NA,NA,"",   952.870E+03,   1.05107E+06,   1.05107E+06
C:/temp/Job-2.odb,Step-1,Increment      1: Step Time =    1.000,"P-2-1",          6027,   5.06372E-03,   162.736E-03,            0.,NA,NA,"",   909.162E+03,   1.00869E+06,   1.00869E+06
C:/temp/Job-2.odb,Step-1,Increment      1: Step Time =    1.000,"P-2-1",          6028,   4.46322E-03,   102.058E-03,            0.,NA,NA,"",   781.443E+03,   880.543E+03,   880.543E+03
C:/temp/Job-2.odb,Step-1,Increment      1: Step Time =    1.000,"P-2-1",          6029,   5.11235E-03,   95.1459E-03,            0.,NA,NA,"",   783.259E+03,   882.064E+03,   882.064E+03
C:/temp/Job-2.odb,Step-1,Increment      1: Step Time =    1.000,"P-2-1",          6030,   5.22350E-03,   37.2725E-03,            0.,NA,NA,"",   909.925E+03,   1.00937E+06,   1.00937E+06
C:/temp/Job-2.odb,Step-1,Increment      1: Step Time =    1.000,"P-2-1",          6031,   6.72261E-03,   16.3873E-03,            0.,NA,NA,"",   1.06685E+06,   1.14944E+06,   1.14944E+06
C:/temp/Job-2.odb,Step-1,Increment      1: Step Time =    1.000,"P-2-1",          6032,   37.2615E-03,   5.08665E-03,            0.,NA,NA,"",   1.01505E+06,   1.01607E+06,   1.01607E+06
C:/temp/Job-2.odb,Step-1,Increment      1: Step Time =    1.000,"P-2-1",          6033,   97.9242E-03,   4.47171E-03,            0.,NA,NA,"",   936.100E+03,   936.529E+03,   936.529E+03
C:/temp/Job-2.odb,Step-1,Increment      1: Step Time =    1.000,"P-2-1",          6034,   104.810E-03,   5.19176E-03,            0.,NA,NA,"",   940.954E+03,   941.410E+03,   941.410E+03
C:/temp/Job-2.odb,Step-1,Increment      1: Step Time =    1.000,"P-2-1",          6035,   162.751E-03,   5.22850E-03,            0.,NA,NA,"",   996.344E+03,   996.116E+03,   996.116E+03
C:/temp/Job-2.odb,Step-1,Increment      1: Step Time =    1.000,"P-2-1",          6036,   183.617E-03,   6.71776E-03,            0.,NA,NA,"",   999.659E+03,   999.618E+03,   999.618E+03
C:/temp/Job-2.odb,Step-1,Increment      1: Step Time =    1.000,"P-2-1",          6037,   194.934E-03,   37.2614E-03,            0.,NA,NA,"",   998.905E+03,   1.00065E+06,   1.00065E+06
C:/temp/Job-2.odb,Step-1,Increment      1: Step Time =    1.000,"P-2-1",          6038,   195.534E-03,   97.9375E-03,            0.,NA,NA,"",   964.928E+03,   998.883E+03,   998.883E+03
C:/temp/Job-2.odb,Step-1,Increment      1: Step Time =    1.000,"P-2-1",          6039,   194.853E-03,   104.838E-03,            0.,NA,NA,"",   966.069E+03,   998.738E+03,   998.738E+03
C:/temp/Job-2.odb,Step-1,Increment      1: Step Time =    1.000,"P-2-1",          6040,   194.776E-03,   162.732E-03,            0.,NA,NA,"",   998.938E+03,   1.00062E+06,   1.00062E+06
C:/temp/Job-2.odb,Step-1,Increment      1: Step Time =    1.000,"P-2-1",          6041,   193.154E-03,   183.709E-03,            0.,NA,NA,"",   1.00032E+06,   1.00018E+06,   1.00018E+06
C:/temp/Job-2.odb,Step-1,Increment      1: Step Time =    1.000,"P-2-1",          6042,   162.744E-03,   194.919E-03,            0.,NA,NA,"",   996.192E+03,   995.961E+03,   995.961E+03
C:/temp/Job-2.odb,Step-1,Increment      1: Step Time =    1.000,"P-2-1",          6043,   102.070E-03,   195.532E-03,            0.,NA,NA,"",   937.016E+03,   937.429E+03,   937.429E+03
C:/temp/Job-2.odb,Step-1,Increment      1: Step Time =    1.000,"P-2-1",          6044,   95.1804E-03,   194.827E-03,            0.,NA,NA,"",   938.976E+03,   939.459E+03,   939.459E+03
C:/temp/Job-2.odb,Step-1,Increment      1: Step Time =    1.000,"P-2-1",          6045,   37.2490E-03,   194.773E-03,            0.,NA,NA,"",   1.01661E+06,   1.01736E+06,   1.01736E+06
C:/temp/Job-2.odb,Step-1,Increment      1: Step Time =    1.000,"P-2-1",          6046,   16.3857E-03,   193.282E-03,            0.,NA,NA,"",   1.14550E+06,   1.15547E+06,   1.15547E+06
C:/temp/Job-2.odb,Step-1,Increment      1: Step Time =    1.000,"P-2-1",          6047,   80.3053E-03,   115.279E-03,            0.,NA,NA,"",   1.20990E+06,   1.10988E+06,   1.10988E+06
C:/temp/Job-2.odb,Step-1,Increment      1: Step Time =    1.000,"P-2-1",          6048,   93.6765E-03,   75.5874E-03,            0.,NA,NA,"",   1.21074E+06,   1.29526E+06,   1.29526E+06
C:/temp/Job-2.odb,Step-1,Increment      1: Step Time =    1.000,"P-2-1",          6049,   107.135E-03,   125.307E-03,            0.,NA,NA,"",   1.19950E+06,   1.27168E+06,   1.27168E+06
C:/temp/Job-2.odb,Step-1,Increment      1: Step Time =    1.000,"P-2-1",          6050,   79.8866E-03,   117.681E-03,            0.,NA,NA,"",   1.23683E+06,   1.15415E+06,   1.15415E+06
C:/temp/Job-2.odb,Step-1,Increment      1: Step Time =    1.000,"P-2-1",          6051,   74.9909E-03,   102.734E-03,            0.,NA,NA,"",   516.099E+03,   533.562E+03,   533.562E+03
C:/temp/Job-2.odb,Step-1,Increment      1: Step Time =    1.000,"P-2-1",          6052,   190.434E-03,   101.879E-03,            0.,NA,NA,"",   968.228E+03,   995.829E+03,   995.829E+03
C:/temp/Job-2.odb,Step-1,Increment      1: Step Time =    1.000,"P-2-1",          6053,   98.1777E-03,   190.430E-03,            0.,NA,NA,"",   954.774E+03,   956.388E+03,   956.388E+03
C:/temp/Job-2.odb,Step-1,Increment      1: Step Time =    1.000,"P-2-1",          6054,   9.51027E-03,   98.0700E-03,            0.,NA,NA,"",   789.366E+03,   885.448E+03,   885.448E+03
C:/temp/Job-2.odb,Step-1,Increment      1: Step Time =    1.000,"P-2-1",          6055,   101.802E-03,   9.59187E-03,            0.,NA,NA,"",    955.21E+03,   956.786E+03,   956.786E+03
C:/temp/Job-2.odb,Step-1,Increment      1: Step Time =    1.000,"P-2-1",          6056,   12.0737E-03,   6.57694E-03,            0.,NA,NA,"",   1.20151E+06,   1.21768E+06,   1.21768E+06
C:/temp/Job-2.odb,Step-1,Increment      1: Step Time =    1.000,"P-2-1",          6057,   193.428E-03,   12.0703E-03,            0.,NA,NA,"",   1.00014E+06,   1.00003E+06,   1.00003E+06
C:/temp/Job-2.odb,Step-1,Increment      1: Step Time =    1.000,"P-2-1",          6058,   188.136E-03,   193.279E-03,            0.,NA,NA,"",   999.753E+03,   999.724E+03,   999.724E+03
C:/temp/Job-2.odb,Step-1,Increment      1: Step Time =    1.000,"P-2-1",          6059,   6.57290E-03,   187.929E-03,            0.,NA,NA,"",   1.13518E+06,   1.20975E+06,   1.20975E+06
C:/temp/Job-2.odb,Step-1,Increment      1: Step Time =    1.000,"P-2-1",          6060,   77.6392E-03,   107.406E-03,            0.,NA,NA,"",   783.621E+03,   722.637E+03,   722.637E+03
C:/temp/Job-2.odb,Step-1,Increment      1: Step Time =    1.000,"P-2-1",          6061,   76.1154E-03,   108.239E-03,            0.,NA,NA,"",   808.937E+03,   758.921E+03,   758.921E+03
C:/temp/Job-2.odb,Step-1,Increment      1: Step Time =    1.000,"P-2-1",          6062,   92.6992E-03,   193.482E-03,            0.,NA,NA,"",   944.727E+03,   945.468E+03,   945.468E+03
C:/temp/Job-2.odb,Step-1,Increment      1: Step Time =    1.000,"P-2-1",          6063,   6.39704E-03,   92.6547E-03,            0.,NA,NA,"",   786.672E+03,   884.778E+03,   884.778E+03
C:/temp/Job-2.odb,Step-1,Increment      1: Step Time =    1.000,"P-2-1",          6064,   75.4899E-03,   106.788E-03,            0.,NA,NA,"",   723.178E+03,   696.863E+03,   696.863E+03
C:/temp/Job-2.odb,Step-1,Increment      1: Step Time =    1.000,"P-2-1",          6065,   73.1140E-03,   103.797E-03,            0.,NA,NA,"",   595.574E+03,   613.910E+03,   613.910E+03
C:/temp/Job-2.odb,Step-1,Increment      1: Step Time =    1.000,"P-2-1",          6066,   193.001E-03,   37.6927E-03,            0.,NA,NA,"",   999.261E+03,   1.00113E+06,   1.00113E+06
C:/temp/Job-2.odb,Step-1,Increment      1: Step Time =    1.000,"P-2-1",          6067,   193.548E-03,   107.330E-03,            0.,NA,NA,"",   967.705E+03,   998.126E+03,   998.126E+03
C:/temp/Job-2.odb,Step-1,Increment      1: Step Time =    1.000,"P-2-1",          6068,   37.6730E-03,   7.02613E-03,            0.,NA,NA,"",   1.02384E+06,   1.02519E+06,   1.02519E+06
C:/temp/Job-2.odb,Step-1,Increment      1: Step Time =    1.000,"P-2-1",          6069,   107.286E-03,   6.54739E-03,            0.,NA,NA,"",   947.193E+03,   947.890E+03,   947.890E+03
C:/temp/Job-2.odb,Step-1,Increment      1: Step Time =    1.000,"P-2-1",          6070,   6.99800E-03,   162.303E-03,            0.,NA,NA,"",   916.932E+03,   1.01271E+06,   1.01271E+06
C:/temp/Job-2.odb,Step-1,Increment      1: Step Time =    1.000,"P-2-1",          6071,   162.323E-03,   192.971E-03,            0.,NA,NA,"",   997.020E+03,   996.611E+03,   996.611E+03
C:/temp/Job-2.odb,Step-1,Increment      1: Step Time =    1.000,"P-2-1",          6072,   192.820E-03,   97.4426E-03,            0.,NA,NA,"",   967.128E+03,   997.365E+03,   997.365E+03
C:/temp/Job-2.odb,Step-1,Increment      1: Step Time =    1.000,"P-2-1",          6073,   102.580E-03,   192.811E-03,            0.,NA,NA,"",   947.645E+03,   948.611E+03,   948.611E+03
C:/temp/Job-2.odb,Step-1,Increment      1: Step Time =    1.000,"P-2-1",          6074,   7.19031E-03,   102.544E-03,            0.,NA,NA,"",   785.874E+03,   883.388E+03,   883.388E+03
C:/temp/Job-2.odb,Step-1,Increment      1: Step Time =    1.000,"P-2-1",          6075,   97.4103E-03,   7.19274E-03,            0.,NA,NA,"",   946.763E+03,   947.766E+03,   947.766E+03
C:/temp/Job-2.odb,Step-1,Increment      1: Step Time =    1.000,"P-2-1",          6076,   71.5047E-03,   102.101E-03,            0.,NA,NA,"",   573.235E+03,   607.346E+03,   607.346E+03
C:/temp/Job-2.odb,Step-1,Increment      1: Step Time =    1.000,"P-2-1",          6077,   92.3478E-03,   73.9927E-03,            0.,NA,NA,"",   1.19257E+06,   1.26129E+06,   1.26129E+06
C:/temp/Job-2.odb,Step-1,Increment      1: Step Time =    1.000,"P-2-1",          6078,   11.5976E-03,   27.9063E-03,            0.,NA,NA,"",   991.022E+03,   1.06926E+06,   1.06926E+06
C:/temp/Job-2.odb,Step-1,Increment      1: Step Time =    1.000,"P-2-1",          6079,   172.097E-03,   11.5964E-03,            0.,NA,NA,"",   1.00083E+06,   1.00028E+06,   1.00028E+06
C:/temp/Job-2.odb,Step-1,Increment      1: Step Time =    1.000,"P-2-1",          6080,   188.266E-03,   172.174E-03,            0.,NA,NA,"",   1.00158E+06,   1.00183E+06,   1.00183E+06
C:/temp/Job-2.odb,Step-1,Increment      1: Step Time =    1.000,"P-2-1",          6081,   27.9048E-03,   188.407E-03,            0.,NA,NA,"",   1.07313E+06,   1.08194E+06,   1.08194E+06
C:/temp/Job-2.odb,Step-1,Increment      1: Step Time =    1.000,"P-2-1",          6082,   79.2345E-03,   120.020E-03,            0.,NA,NA,"",   1.23661E+06,   1.16995E+06,   1.16995E+06
C:/temp/Job-2.odb,Step-1,Increment      1: Step Time =    1.000,"P-2-1",          6083,   77.1931E-03,   119.667E-03,            0.,NA,NA,"",   1.19587E+06,   1.12995E+06,   1.12995E+06
C:/temp/Job-2.odb,Step-1,Increment      1: Step Time =    1.000,"P-2-1",          6084,   75.4794E-03,   117.683E-03,            0.,NA,NA,"",   1.13933E+06,   1.07378E+06,   1.07378E+06
C:/temp/Job-2.odb,Step-1,Increment      1: Step Time =    1.000,"P-2-1",          6085,   93.6863E-03,   73.0630E-03,            0.,NA,NA,"",   1.16035E+06,   1.24092E+06,   1.24092E+06
C:/temp/Job-2.odb,Step-1,Increment      1: Step Time =    1.000,"P-2-1",          6086,   92.5103E-03,   125.397E-03,            0.,NA,NA,"",   1.20782E+06,   1.27479E+06,   1.27479E+06
C:/temp/Job-2.odb,Step-1,Increment      1: Step Time =    1.000,"P-2-1",          6087,   87.4675E-03,   122.231E-03,            0.,NA,NA,"",   1.30330E+06,   1.30275E+06,   1.30275E+06
C:/temp/Job-2.odb,Step-1,Increment      1: Step Time =    1.000,"P-2-1",          6088,   121.200E-03,   110.848E-03,            0.,NA,NA,"",   1.04379E+06,   916.438E+03,   916.438E+03
C:/temp/Job-2.odb,Step-1,Increment      1: Step Time =    1.000,"P-2-1",          6089,   10.2524E-03,   94.8691E-03,            0.,NA,NA,"",   791.789E+03,   887.310E+03,   887.310E+03
C:/temp/Job-2.odb,Step-1,Increment      1: Step Time =    1.000,"P-2-1",          6090,   104.940E-03,   10.4033E-03,            0.,NA,NA,"",   958.675E+03,   960.535E+03,   960.535E+03
C:/temp/Job-2.odb,Step-1,Increment      1: Step Time =    1.000,"P-2-1",          6091,   189.604E-03,   105.069E-03,            0.,NA,NA,"",   968.747E+03,   995.076E+03,   995.076E+03
C:/temp/Job-2.odb,Step-1,Increment      1: Step Time =    1.000,"P-2-1",          6092,   95.0285E-03,   189.612E-03,            0.,NA,NA,"",   957.815E+03,   959.789E+03,   959.789E+03
C:/temp/Job-2.odb,Step-1,Increment      1: Step Time =    1.000,"P-2-1",          6093,   39.6935E-03,   189.887E-03,            0.,NA,NA,"",   1.02947E+06,   1.03205E+06,   1.03205E+06
C:/temp/Job-2.odb,Step-1,Increment      1: Step Time =    1.000,"P-2-1",          6094,   9.62227E-03,   174.464E-03,            0.,NA,NA,"",   996.848E+03,   1.07907E+06,   1.07907E+06
C:/temp/Job-2.odb,Step-1,Increment      1: Step Time =    1.000,"P-2-1",          6095,   10.0708E-03,   39.8197E-03,            0.,NA,NA,"",   923.052E+03,   1.01272E+06,   1.01272E+06
C:/temp/Job-2.odb,Step-1,Increment      1: Step Time =    1.000,"P-2-1",          6096,   25.5327E-03,   9.62804E-03,            0.,NA,NA,"",   1.08152E+06,   1.08927E+06,   1.08927E+06
C:/temp/Job-2.odb,Step-1,Increment      1: Step Time =    1.000,"P-2-1",          6097,   160.306E-03,   10.1125E-03,            0.,NA,NA,"",   998.658E+03,   997.822E+03,   997.822E+03
C:/temp/Job-2.odb,Step-1,Increment      1: Step Time =    1.000,"P-2-1",          6098,   190.373E-03,   25.5368E-03,            0.,NA,NA,"",   1.00088E+06,   1.00109E+06,   1.00109E+06
C:/temp/Job-2.odb,Step-1,Increment      1: Step Time =    1.000,"P-2-1",          6099,   189.932E-03,   160.181E-03,            0.,NA,NA,"",   1.00015E+06,   1.00228E+06,   1.00228E+06
C:/temp/Job-2.odb,Step-1,Increment      1: Step Time =    1.000,"P-2-1",          6100,   174.936E-03,   190.386E-03,            0.,NA,NA,"",   999.972E+03,   999.671E+03,   999.671E+03
C:/temp/Job-2.odb,Step-1,Increment      1: Step Time =    1.000,"P-2-1",          6101,   119.304E-03,   84.5393E-03,            0.,NA,NA,"",   1.25456E+06,   1.13414E+06,   1.13414E+06
C:/temp/Job-2.odb,Step-1,Increment      1: Step Time =    1.000,"P-2-1",          6102,   108.500E-03,   74.4925E-03,            0.,NA,NA,"",   1.21743E+06,   1.27157E+06,   1.27157E+06
C:/temp/Job-2.odb,Step-1,Increment      1: Step Time =    1.000,"P-2-1",          6103,   104.387E-03,   191.311E-03,            0.,NA,NA,"",   952.929E+03,   954.198E+03,   954.198E+03
C:/temp/Job-2.odb,Step-1,Increment      1: Step Time =    1.000,"P-2-1",          6104,   8.71787E-03,   104.335E-03,            0.,NA,NA,"",   788.721E+03,   885.344E+03,   885.344E+03
C:/temp/Job-2.odb,Step-1,Increment      1: Step Time =    1.000,"P-2-1",          6105,   95.6066E-03,   8.68963E-03,            0.,NA,NA,"",   951.772E+03,   953.127E+03,   953.127E+03
C:/temp/Job-2.odb,Step-1,Increment      1: Step Time =    1.000,"P-2-1",          6106,   191.315E-03,   95.6509E-03,            0.,NA,NA,"",   968.066E+03,   996.467E+03,   996.467E+03
C:/temp/Job-2.odb,Step-1,Increment      1: Step Time =    1.000,"P-2-1",          6107,   185.554E-03,   191.437E-03,            0.,NA,NA,"",   999.854E+03,   999.798E+03,   999.798E+03
C:/temp/Job-2.odb,Step-1,Increment      1: Step Time =    1.000,"P-2-1",          6108,   74.8130E-03,   112.711E-03,            0.,NA,NA,"",   987.720E+03,   929.713E+03,   929.713E+03
C:/temp/Job-2.odb,Step-1,Increment      1: Step Time =    1.000,"P-2-1",          6109,   187.289E-03,   189.421E-03,            0.,NA,NA,"",   1.00007E+06,   1.00001E+06,   1.00001E+06
C:/temp/Job-2.odb,Step-1,Increment      1: Step Time =    1.000,"P-2-1",          6110,   83.7056E-03,   85.8397E-03,            0.,NA,NA,"",   1.27561E+06,   1.16293E+06,   1.16293E+06
C:/temp/Job-2.odb,Step-1,Increment      1: Step Time =    1.000,"P-2-1",          6111,   74.0743E-03,   107.394E-03,            0.,NA,NA,"",   745.773E+03,   727.748E+03,   727.748E+03
C:/temp/Job-2.odb,Step-1,Increment      1: Step Time =    1.000,"P-2-1",          6112,   71.4946E-03,   105.018E-03,            0.,NA,NA,"",   661.202E+03,   678.431E+03,   678.431E+03
C:/temp/Job-2.odb,Step-1,Increment      1: Step Time =    1.000,"P-2-1",          6113,   116.671E-03,   113.852E-03,            0.,NA,NA,"",   1.28697E+06,   1.15195E+06,   1.15195E+06
C:/temp/Job-2.odb,Step-1,Increment      1: Step Time =    1.000,"P-2-1",          6114,   71.7380E-03,   110.445E-03,            0.,NA,NA,"",   862.580E+03,   842.584E+03,   842.584E+03
C:/temp/Job-2.odb,Step-1,Increment      1: Step Time =    1.000,"P-2-1",          6115,   105.404E-03,   129.053E-03,            0.,NA,NA,"",   1.11968E+06,   1.19931E+06,   1.19931E+06
C:/temp/Job-2.odb,Step-1,Increment      1: Step Time =    1.000,"P-2-1",          6116,   119.148E-03,   112.837E-03,            0.,NA,NA,"",   1.20477E+06,   1.06356E+06,   1.06356E+06
C:/temp/Job-2.odb,Step-1,Increment      1: Step Time =    1.000,"P-2-1",          6117,   113.012E-03,   82.0336E-03,            0.,NA,NA,"",   1.37546E+06,   1.32141E+06,   1.32141E+06
C:/temp/Job-2.odb,Step-1,Increment      1: Step Time =    1.000,"P-2-1",          6118,   91.0240E-03,   71.7525E-03,            0.,NA,NA,"",   1.17257E+06,   1.22506E+06,   1.22506E+06
C:/temp/Job-2.odb,Step-1,Increment      1: Step Time =    1.000,"P-2-1",          6119,   75.7681E-03,   97.1652E-03,            0.,NA,NA,"",   501.971E+03,   513.643E+03,   513.643E+03
C:/temp/Job-2.odb,Step-1,Increment      1: Step Time =    1.000,"P-2-1",          6120,   70.3939E-03,   108.964E-03,            0.,NA,NA,"",   801.053E+03,   798.967E+03,   798.967E+03
C:/temp/Job-2.odb,Step-1,Increment      1: Step Time =    1.000,"P-2-1",          6121,   122.935E-03,   106.828E-03,            0.,NA,NA,"",   770.384E+03,   696.893E+03,   696.893E+03
C:/temp/Job-2.odb,Step-1,Increment      1: Step Time =    1.000,"P-2-1",          6122,   14.4843E-03,   28.7540E-03,            0.,NA,NA,"",   999.362E+03,   1.06955E+06,   1.06955E+06
C:/temp/Job-2.odb,Step-1,Increment      1: Step Time =    1.000,"P-2-1",          6123,   15.7370E-03,   30.2798E-03,            0.,NA,NA,"",   995.066E+03,   1.06361E+06,   1.06361E+06
C:/temp/Job-2.odb,Step-1,Increment      1: Step Time =    1.000,"P-2-1",          6124,   171.252E-03,   14.4836E-03,            0.,NA,NA,"",   1.00241E+06,   1.00152E+06,   1.00152E+06
C:/temp/Job-2.odb,Step-1,Increment      1: Step Time =    1.000,"P-2-1",          6125,   169.732E-03,   15.7418E-03,            0.,NA,NA,"",   1.00337E+06,   1.00222E+06,   1.00222E+06
C:/temp/Job-2.odb,Step-1,Increment      1: Step Time =    1.000,"P-2-1",          6126,   185.313E-03,   171.358E-03,            0.,NA,NA,"",   1.00286E+06,   1.00290E+06,   1.00290E+06
C:/temp/Job-2.odb,Step-1,Increment      1: Step Time =    1.000,"P-2-1",          6127,   184.031E-03,   169.829E-03,            0.,NA,NA,"",   1.00376E+06,   1.00369E+06,   1.00369E+06
C:/temp/Job-2.odb,Step-1,Increment      1: Step Time =    1.000,"P-2-1",          6128,   28.7544E-03,   185.523E-03,            0.,NA,NA,"",   1.07006E+06,   1.08276E+06,   1.08276E+06
C:/temp/Job-2.odb,Step-1,Increment      1: Step Time =    1.000,"P-2-1",          6129,   30.2757E-03,   184.265E-03,            0.,NA,NA,"",   1.06569E+06,   1.07853E+06,   1.07853E+06
C:/temp/Job-2.odb,Step-1,Increment      1: Step Time =    1.000,"P-2-1",          6130,   82.5493E-03,   123.318E-03,            0.,NA,NA,"",   1.26600E+06,   1.23033E+06,   1.23033E+06
C:/temp/Job-2.odb,Step-1,Increment      1: Step Time =    1.000,"P-2-1",          6131,   91.2365E-03,   126.479E-03,            0.,NA,NA,"",   1.20012E+06,   1.25552E+06,   1.25552E+06
C:/temp/Job-2.odb,Step-1,Increment      1: Step Time =    1.000,"P-2-1",          6132,   14.5114E-03,   97.5986E-03,            0.,NA,NA,"",   797.623E+03,   889.896E+03,   889.896E+03
C:/temp/Job-2.odb,Step-1,Increment      1: Step Time =    1.000,"P-2-1",          6133,   102.190E-03,   14.6406E-03,            0.,NA,NA,"",   970.116E+03,   973.756E+03,   973.756E+03
C:/temp/Job-2.odb,Step-1,Increment      1: Step Time =    1.000,"P-2-1",          6134,   185.271E-03,   102.249E-03,            0.,NA,NA,"",   967.909E+03,   990.440E+03,   990.440E+03
C:/temp/Job-2.odb,Step-1,Increment      1: Step Time =    1.000,"P-2-1",          6135,   97.8536E-03,   185.407E-03,            0.,NA,NA,"",   969.982E+03,   973.716E+03,   973.716E+03
C:/temp/Job-2.odb,Step-1,Increment      1: Step Time =    1.000,"P-2-1",          6136,   117.319E-03,   115.981E-03,            0.,NA,NA,"",   1.30894E+06,   1.19489E+06,   1.19489E+06
C:/temp/Job-2.odb,Step-1,Increment      1: Step Time =    1.000,"P-2-1",          6137,   82.9037E-03,   81.6632E-03,            0.,NA,NA,"",   1.29177E+06,   1.21826E+06,   1.21826E+06
C:/temp/Job-2.odb,Step-1,Increment      1: Step Time =    1.000,"P-2-1",          6138,   102.542E-03,   187.590E-03,            0.,NA,NA,"",   963.579E+03,   966.124E+03,   966.124E+03
C:/temp/Job-2.odb,Step-1,Increment      1: Step Time =    1.000,"P-2-1",          6139,   38.8516E-03,   182.490E-03,            0.,NA,NA,"",   1.04677E+06,   1.05459E+06,   1.05459E+06
C:/temp/Job-2.odb,Step-1,Increment      1: Step Time =    1.000,"P-2-1",          6140,   38.4551E-03,   179.829E-03,            0.,NA,NA,"",   1.04959E+06,   1.06006E+06,   1.06006E+06
C:/temp/Job-2.odb,Step-1,Increment      1: Step Time =    1.000,"P-2-1",          6141,   12.3728E-03,   102.370E-03,            0.,NA,NA,"",   793.961E+03,   888.036E+03,   888.036E+03
C:/temp/Job-2.odb,Step-1,Increment      1: Step Time =    1.000,"P-2-1",          6142,   17.4536E-03,   38.9312E-03,            0.,NA,NA,"",   959.398E+03,   1.03184E+06,   1.03184E+06
C:/temp/Job-2.odb,Step-1,Increment      1: Step Time =    1.000,"P-2-1",          6143,   20.1263E-03,   38.5028E-03,            0.,NA,NA,"",   972.903E+03,   1.03849E+06,   1.03849E+06
C:/temp/Job-2.odb,Step-1,Increment      1: Step Time =    1.000,"P-2-1",          6144,   97.4576E-03,   12.4345E-03,            0.,NA,NA,"",   963.286E+03,   965.938E+03,   965.938E+03
C:/temp/Job-2.odb,Step-1,Increment      1: Step Time =    1.000,"P-2-1",          6145,   161.150E-03,   17.5033E-03,            0.,NA,NA,"",   1.00581E+06,   1.00367E+06,   1.00367E+06
C:/temp/Job-2.odb,Step-1,Increment      1: Step Time =    1.000,"P-2-1",          6146,   161.540E-03,   20.1672E-03,            0.,NA,NA,"",   1.00867E+06,   1.00598E+06,   1.00598E+06
C:/temp/Job-2.odb,Step-1,Increment      1: Step Time =    1.000,"P-2-1",          6147,   187.707E-03,   97.5676E-03,            0.,NA,NA,"",   968.308E+03,   993.178E+03,   993.178E+03
C:/temp/Job-2.odb,Step-1,Increment      1: Step Time =    1.000,"P-2-1",          6148,   182.595E-03,   161.023E-03,            0.,NA,NA,"",   1.00555E+06,   1.00593E+06,   1.00593E+06
C:/temp/Job-2.odb,Step-1,Increment      1: Step Time =    1.000,"P-2-1",          6149,   180.014E-03,   161.418E-03,            0.,NA,NA,"",   1.00792E+06,   1.00746E+06,   1.00746E+06
C:/temp/Job-2.odb,Step-1,Increment      1: Step Time =    1.000,"P-2-1",          6150,   117.006E-03,   81.0933E-03,            0.,NA,NA,"",   1.31986E+06,   1.23534E+06,   1.23534E+06
C:/temp/Job-2.odb,Step-1,Increment      1: Step Time =    1.000,"P-2-1",          6151,   183.453E-03,   191.623E-03,            0.,NA,NA,"",   999.793E+03,   999.722E+03,   999.722E+03
C:/temp/Job-2.odb,Step-1,Increment      1: Step Time =    1.000,"P-2-1",          6152,   183.017E-03,   189.439E-03,            0.,NA,NA,"",   1.00015E+06,   1.00003E+06,   1.00003E+06
C:/temp/Job-2.odb,Step-1,Increment      1: Step Time =    1.000,"P-2-1",          6153,   159.923E-03,   188.011E-03,            0.,NA,NA,"",   1.00009E+06,   998.932E+03,   998.932E+03
C:/temp/Job-2.odb,Step-1,Increment      1: Step Time =    1.000,"P-2-1",          6154,   11.8645E-03,   159.869E-03,            0.,NA,NA,"",   929.680E+03,   1.01573E+06,   1.01573E+06
C:/temp/Job-2.odb,Step-1,Increment      1: Step Time =    1.000,"P-2-1",          6155,   39.9120E-03,   11.8886E-03,            0.,NA,NA,"",   1.03426E+06,   1.03748E+06,   1.03748E+06
C:/temp/Job-2.odb,Step-1,Increment      1: Step Time =    1.000,"P-2-1",          6156,   188.135E-03,   40.1277E-03,            0.,NA,NA,"",   1.00114E+06,   1.00310E+06,   1.00310E+06
C:/temp/Job-2.odb,Step-1,Increment      1: Step Time =    1.000,"P-2-1",          6157,   8.91422E-03,   182.021E-03,            0.,NA,NA,"",   1.05919E+06,   1.13412E+06,   1.13412E+06
C:/temp/Job-2.odb,Step-1,Increment      1: Step Time =    1.000,"P-2-1",          6158,   10.5877E-03,   178.990E-03,            0.,NA,NA,"",   1.04114E+06,   1.11391E+06,   1.11391E+06
C:/temp/Job-2.odb,Step-1,Increment      1: Step Time =    1.000,"P-2-1",          6159,   17.9796E-03,   8.92386E-03,            0.,NA,NA,"",   1.12956E+06,   1.14317E+06,   1.14317E+06
C:/temp/Job-2.odb,Step-1,Increment      1: Step Time =    1.000,"P-2-1",          6160,   21.0106E-03,   10.5980E-03,            0.,NA,NA,"",   1.10941E+06,   1.12331E+06,   1.12331E+06
C:/temp/Job-2.odb,Step-1,Increment      1: Step Time =    1.000,"P-2-1",          6161,   191.082E-03,   17.9756E-03,            0.,NA,NA,"",   1.00047E+06,   1.00043E+06,   1.00043E+06
C:/temp/Job-2.odb,Step-1,Increment      1: Step Time =    1.000,"P-2-1",          6162,   189.405E-03,   21.0082E-03,            0.,NA,NA,"",   1.00081E+06,   1.00083E+06,   1.00083E+06
C:/temp/Job-2.odb,Step-1,Increment      1: Step Time =    1.000,"P-2-1",          6163,   70.2668E-03,   106.341E-03,            0.,NA,NA,"",   715.657E+03,   730.463E+03,   730.463E+03
C:/temp/Job-2.odb,Step-1,Increment      1: Step Time =    1.000,"P-2-1",          6164,   68.4532E-03,   105.182E-03,            0.,NA,NA,"",   695.735E+03,   723.768E+03,   723.768E+03
C:/temp/Job-2.odb,Step-1,Increment      1: Step Time =    1.000,"P-2-1",          6165,   119.432E-03,   117.104E-03,            0.,NA,NA,"",   1.27024E+06,   1.16452E+06,   1.16452E+06
C:/temp/Job-2.odb,Step-1,Increment      1: Step Time =    1.000,"P-2-1",          6166,   125.214E-03,   107.760E-03,            0.,NA,NA,"",   818.441E+03,   761.701E+03,   761.701E+03
C:/temp/Job-2.odb,Step-1,Increment      1: Step Time =    1.000,"P-2-1",          6167,   120.540E-03,   120.922E-03,            0.,NA,NA,"",   1.26801E+06,   1.18637E+06,   1.18637E+06
C:/temp/Job-2.odb,Step-1,Increment      1: Step Time =    1.000,"P-2-1",          6168,   81.3027E-03,   80.8700E-03,            0.,NA,NA,"",   1.26537E+06,   1.19377E+06,   1.19377E+06
C:/temp/Job-2.odb,Step-1,Increment      1: Step Time =    1.000,"P-2-1",          6169,   120.806E-03,   125.264E-03,            0.,NA,NA,"",   1.24822E+06,   1.19346E+06,   1.19346E+06
C:/temp/Job-2.odb,Step-1,Increment      1: Step Time =    1.000,"P-2-1",          6170,   170.140E-03,   18.6996E-03,            0.,NA,NA,"",   1.00516E+06,   1.00372E+06,   1.00372E+06
C:/temp/Job-2.odb,Step-1,Increment      1: Step Time =    1.000,"P-2-1",          6171,   169.181E-03,   20.1475E-03,            0.,NA,NA,"",   1.00647E+06,   1.00470E+06,   1.00470E+06
C:/temp/Job-2.odb,Step-1,Increment      1: Step Time =    1.000,"P-2-1",          6172,   180.770E-03,   170.359E-03,            0.,NA,NA,"",   1.00553E+06,   1.00488E+06,   1.00488E+06
C:/temp/Job-2.odb,Step-1,Increment      1: Step Time =    1.000,"P-2-1",          6173,   179.189E-03,   169.230E-03,            0.,NA,NA,"",   1.00668E+06,   1.00579E+06,   1.00579E+06
C:/temp/Job-2.odb,Step-1,Increment      1: Step Time =    1.000,"P-2-1",          6174,   29.8721E-03,   181.308E-03,            0.,NA,NA,"",   1.06510E+06,   1.08315E+06,   1.08315E+06
C:/temp/Job-2.odb,Step-1,Increment      1: Step Time =    1.000,"P-2-1",          6175,   30.8318E-03,   179.859E-03,            0.,NA,NA,"",   1.06055E+06,   1.07925E+06,   1.07925E+06
C:/temp/Job-2.odb,Step-1,Increment      1: Step Time =    1.000,"P-2-1",          6176,   18.6929E-03,   29.8691E-03,            0.,NA,NA,"",   1.01093E+06,   1.07005E+06,   1.07005E+06
C:/temp/Job-2.odb,Step-1,Increment      1: Step Time =    1.000,"P-2-1",          6177,   20.1277E-03,   30.8325E-03,            0.,NA,NA,"",   1.00961E+06,   1.06645E+06,   1.06645E+06
C:/temp/Job-2.odb,Step-1,Increment      1: Step Time =    1.000,"P-2-1",          6178,   69.6043E-03,   111.547E-03,            0.,NA,NA,"",   885.609E+03,   873.588E+03,   873.588E+03
C:/temp/Job-2.odb,Step-1,Increment      1: Step Time =    1.000,"P-2-1",          6179,   68.5516E-03,   109.998E-03,            0.,NA,NA,"",   831.972E+03,   834.273E+03,   834.273E+03
C:/temp/Job-2.odb,Step-1,Increment      1: Step Time =    1.000,"P-2-1",          6180,   67.6796E-03,   108.477E-03,            0.,NA,NA,"",   786.047E+03,   800.849E+03,   800.849E+03
C:/temp/Job-2.odb,Step-1,Increment      1: Step Time =    1.000,"P-2-1",          6181,   130.707E-03,   99.0636E-03,            0.,NA,NA,"",   633.039E+03,   649.657E+03,   649.657E+03
C:/temp/Job-2.odb,Step-1,Increment      1: Step Time =    1.000,"P-2-1",          6182,   130.279E-03,   104.783E-03,            0.,NA,NA,"",   711.297E+03,   710.476E+03,   710.476E+03
C:/temp/Job-2.odb,Step-1,Increment      1: Step Time =    1.000,"P-2-1",          6183,   122.538E-03,   80.7441E-03,            0.,NA,NA,"",   1.22867E+06,   1.13840E+06,   1.13840E+06
C:/temp/Job-2.odb,Step-1,Increment      1: Step Time =    1.000,"P-2-1",          6184,   118.305E-03,   80.1596E-03,            0.,NA,NA,"",   1.29901E+06,   1.21523E+06,   1.21523E+06
C:/temp/Job-2.odb,Step-1,Increment      1: Step Time =    1.000,"P-2-1",          6185,   129.529E-03,   81.2951E-03,            0.,NA,NA,"",   1.11023E+06,   1.04273E+06,   1.04273E+06
C:/temp/Job-2.odb,Step-1,Increment      1: Step Time =    1.000,"P-2-1",          6186,   117.236E-03,   78.6226E-03,            0.,NA,NA,"",   1.30878E+06,   1.23955E+06,   1.23955E+06
C:/temp/Job-2.odb,Step-1,Increment      1: Step Time =    1.000,"P-2-1",          6187,   92.3950E-03,   66.0439E-03,            0.,NA,NA,"",   1.09422E+06,   1.15163E+06,   1.15163E+06
C:/temp/Job-2.odb,Step-1,Increment      1: Step Time =    1.000,"P-2-1",          6188,   99.0558E-03,   134.692E-03,            0.,NA,NA,"",   1.05359E+06,   1.12765E+06,   1.12765E+06
C:/temp/Job-2.odb,Step-1,Increment      1: Step Time =    1.000,"P-2-1",          6189,   152.198E-03,   9.17351E-03,            0.,NA,NA,"",   995.021E+03,   994.147E+03,   994.147E+03
C:/temp/Job-2.odb,Step-1,Increment      1: Step Time =    1.000,"P-2-1",          6190,   146.065E-03,   9.56402E-03,            0.,NA,NA,"",   991.794E+03,   990.857E+03,   990.857E+03
C:/temp/Job-2.odb,Step-1,Increment      1: Step Time =    1.000,"P-2-1",          6191,   134.514E-03,   9.98494E-03,            0.,NA,NA,"",   983.224E+03,   982.594E+03,   982.594E+03
C:/temp/Job-2.odb,Step-1,Increment      1: Step Time =    1.000,"P-2-1",          6192,   114.251E-03,   9.34293E-03,            0.,NA,NA,"",   961.516E+03,   962.472E+03,   962.472E+03
C:/temp/Job-2.odb,Step-1,Increment      1: Step Time =    1.000,"P-2-1",          6193,   110.055E-03,   10.1874E-03,            0.,NA,NA,"",   960.753E+03,   962.255E+03,   962.255E+03
C:/temp/Job-2.odb,Step-1,Increment      1: Step Time =    1.000,"P-2-1",          6194,   47.7946E-03,   190.825E-03,            0.,NA,NA,"",   1.00937E+06,   1.01020E+06,   1.01020E+06
C:/temp/Job-2.odb,Step-1,Increment      1: Step Time =    1.000,"P-2-1",          6195,   53.9308E-03,   190.428E-03,            0.,NA,NA,"",   998.988E+03,   999.345E+03,   999.345E+03
C:/temp/Job-2.odb,Step-1,Increment      1: Step Time =    1.000,"P-2-1",          6196,   65.4957E-03,   189.991E-03,            0.,NA,NA,"",   983.455E+03,   983.672E+03,   983.672E+03
C:/temp/Job-2.odb,Step-1,Increment      1: Step Time =    1.000,"P-2-1",          6197,   85.8079E-03,   190.983E-03,            0.,NA,NA,"",   957.866E+03,   958.999E+03,   958.999E+03
C:/temp/Job-2.odb,Step-1,Increment      1: Step Time =    1.000,"P-2-1",          6198,   89.8198E-03,   189.837E-03,            0.,NA,NA,"",   959.076E+03,   960.735E+03,   960.735E+03
C:/temp/Job-2.odb,Step-1,Increment      1: Step Time =    1.000,"P-2-1",          6199,   79.5803E-03,   125.011E-03,            0.,NA,NA,"",   1.22715E+06,   1.19018E+06,   1.19018E+06
C:/temp/Job-2.odb,Step-1,Increment      1: Step Time =    1.000,"P-2-1",          6200,   121.414E-03,   114.988E-03,            0.,NA,NA,"",   1.20023E+06,   1.08485E+06,   1.08485E+06
C:/temp/Job-2.odb,Step-1,Increment      1: Step Time =    1.000,"P-2-1",          6201,   9.23299E-03,   48.0680E-03,            0.,NA,NA,"",   890.168E+03,   983.726E+03,   983.726E+03
C:/temp/Job-2.odb,Step-1,Increment      1: Step Time =    1.000,"P-2-1",          6202,   9.06795E-03,   53.9069E-03,            0.,NA,NA,"",   871.075E+03,   965.669E+03,   965.669E+03
C:/temp/Job-2.odb,Step-1,Increment      1: Step Time =    1.000,"P-2-1",          6203,   10.0198E-03,   65.4185E-03,            0.,NA,NA,"",   842.887E+03,   937.342E+03,   937.342E+03
C:/temp/Job-2.odb,Step-1,Increment      1: Step Time =    1.000,"P-2-1",          6204,   8.74856E-03,   85.8561E-03,            0.,NA,NA,"",   798.107E+03,   894.590E+03,   894.590E+03
C:/temp/Job-2.odb,Step-1,Increment      1: Step Time =    1.000,"P-2-1",          6205,   9.85015E-03,   89.7531E-03,            0.,NA,NA,"",   795.354E+03,   891.065E+03,   891.065E+03
C:/temp/Job-2.odb,Step-1,Increment      1: Step Time =    1.000,"P-2-1",          6206,   109.060E-03,   13.4251E-03,            0.,NA,NA,"",   969.210E+03,   971.746E+03,   971.746E+03
C:/temp/Job-2.odb,Step-1,Increment      1: Step Time =    1.000,"P-2-1",          6207,   190.768E-03,   151.926E-03,            0.,NA,NA,"",   997.442E+03,   1.00217E+06,   1.00217E+06
C:/temp/Job-2.odb,Step-1,Increment      1: Step Time =    1.000,"P-2-1",          6208,   190.938E-03,   146.086E-03,            0.,NA,NA,"",   994.772E+03,   1.00204E+06,   1.00204E+06
C:/temp/Job-2.odb,Step-1,Increment      1: Step Time =    1.000,"P-2-1",          6209,   190.019E-03,   134.575E-03,            0.,NA,NA,"",   988.250E+03,   1.00121E+06,   1.00121E+06
C:/temp/Job-2.odb,Step-1,Increment      1: Step Time =    1.000,"P-2-1",          6210,   191.240E-03,   114.137E-03,            0.,NA,NA,"",   972.322E+03,   997.595E+03,   997.595E+03
C:/temp/Job-2.odb,Step-1,Increment      1: Step Time =    1.000,"P-2-1",          6211,   190.084E-03,   110.229E-03,            0.,NA,NA,"",   970.558E+03,   996.099E+03,   996.099E+03
C:/temp/Job-2.odb,Step-1,Increment      1: Step Time =    1.000,"P-2-1",          6212,   90.8549E-03,   186.462E-03,            0.,NA,NA,"",   969.196E+03,    972.12E+03,    972.12E+03
C:/temp/Job-2.odb,Step-1,Increment      1: Step Time =    1.000,"P-2-1",          6213,   125.514E-03,   109.359E-03,            0.,NA,NA,"",   890.563E+03,   823.423E+03,   823.423E+03
C:/temp/Job-2.odb,Step-1,Increment      1: Step Time =    1.000,"P-2-1",          6214,   71.0466E-03,   120.657E-03,            0.,NA,NA,"",   1.09526E+06,   1.05772E+06,   1.05772E+06
C:/temp/Job-2.odb,Step-1,Increment      1: Step Time =    1.000,"P-2-1",          6215,   133.795E-03,   95.9757E-03,            0.,NA,NA,"",   738.371E+03,   746.425E+03,   746.425E+03
C:/temp/Job-2.odb,Step-1,Increment      1: Step Time =    1.000,"P-2-1",          6216,   89.3534E-03,   134.767E-03,            0.,NA,NA,"",   1.11395E+06,   1.15441E+06,   1.15441E+06
C:/temp/Job-2.odb,Step-1,Increment      1: Step Time =    1.000,"P-2-1",          6217,   67.6829E-03,   106.877E-03,            0.,NA,NA,"",   745.428E+03,   767.960E+03,   767.960E+03
C:/temp/Job-2.odb,Step-1,Increment      1: Step Time =    1.000,"P-2-1",          6218,   122.532E-03,   124.549E-03,            0.,NA,NA,"",   1.23948E+06,   1.17607E+06,   1.17607E+06
C:/temp/Job-2.odb,Step-1,Increment      1: Step Time =    1.000,"P-2-1",          6219,   178.570E-03,   167.788E-03,            0.,NA,NA,"",   1.00759E+06,   1.00655E+06,   1.00655E+06
C:/temp/Job-2.odb,Step-1,Increment      1: Step Time =    1.000,"P-2-1",          6220,   31.9200E-03,   178.796E-03,            0.,NA,NA,"",   1.05691E+06,   1.07546E+06,   1.07546E+06
C:/temp/Job-2.odb,Step-1,Increment      1: Step Time =    1.000,"P-2-1",          6221,   21.1728E-03,   31.9259E-03,            0.,NA,NA,"",   1.00662E+06,   1.06255E+06,   1.06255E+06
C:/temp/Job-2.odb,Step-1,Increment      1: Step Time =    1.000,"P-2-1",          6222,   168.092E-03,   21.2103E-03,            0.,NA,NA,"",   1.00769E+06,   1.00560E+06,   1.00560E+06
C:/temp/Job-2.odb,Step-1,Increment      1: Step Time =    1.000,"P-2-1",          6223,   65.6143E-03,   106.536E-03,            0.,NA,NA,"",   746.046E+03,   775.671E+03,   775.671E+03
C:/temp/Job-2.odb,Step-1,Increment      1: Step Time =    1.000,"P-2-1",          6224,   174.939E-03,   14.8958E-03,            0.,NA,NA,"",   1.00210E+06,   1.00143E+06,   1.00143E+06
C:/temp/Job-2.odb,Step-1,Increment      1: Step Time =    1.000,"P-2-1",          6225,   187.937E-03,   111.364E-03,            0.,NA,NA,"",   971.694E+03,   994.735E+03,   994.735E+03
C:/temp/Job-2.odb,Step-1,Increment      1: Step Time =    1.000,"P-2-1",          6226,   189.853E-03,   114.114E-03,            0.,NA,NA,"",   973.086E+03,   996.912E+03,   996.912E+03
C:/temp/Job-2.odb,Step-1,Increment      1: Step Time =    1.000,"P-2-1",          6227,   25.0668E-03,   185.110E-03,            0.,NA,NA,"",   1.08299E+06,   1.10006E+06,   1.10006E+06
C:/temp/Job-2.odb,Step-1,Increment      1: Step Time =    1.000,"P-2-1",          6228,   12.0471E-03,   88.6346E-03,            0.,NA,NA,"",   800.668E+03,   894.660E+03,   894.660E+03
C:/temp/Job-2.odb,Step-1,Increment      1: Step Time =    1.000,"P-2-1",          6229,   10.1695E-03,   85.8657E-03,            0.,NA,NA,"",   800.952E+03,   896.306E+03,   896.306E+03
C:/temp/Job-2.odb,Step-1,Increment      1: Step Time =    1.000,"P-2-1",          6230,   123.519E-03,   122.097E-03,            0.,NA,NA,"",   1.22957E+06,   1.15278E+06,   1.15278E+06
C:/temp/Job-2.odb,Step-1,Increment      1: Step Time =    1.000,"P-2-1",          6231,   87.4512E-03,   127.199E-03,            0.,NA,NA,"",   1.21489E+06,   1.23393E+06,   1.23393E+06
C:/temp/Job-2.odb,Step-1,Increment      1: Step Time =    1.000,"P-2-1",          6232,   188.208E-03,   116.574E-03,            0.,NA,NA,"",   974.782E+03,    996.19E+03,    996.19E+03
C:/temp/Job-2.odb,Step-1,Increment      1: Step Time =    1.000,"P-2-1",          6233,   11.6507E-03,   83.3663E-03,            0.,NA,NA,"",   807.325E+03,   901.321E+03,   901.321E+03
C:/temp/Job-2.odb,Step-1,Increment      1: Step Time =    1.000,"P-2-1",          6234,   14.9023E-03,   25.0609E-03,            0.,NA,NA,"",   1.02409E+06,   1.08854E+06,   1.08854E+06
C:/temp/Job-2.odb,Step-1,Increment      1: Step Time =    1.000,"P-2-1",          6235,   184.695E-03,   175.101E-03,            0.,NA,NA,"",   1.00254E+06,   1.00239E+06,   1.00239E+06
C:/temp/Job-2.odb,Step-1,Increment      1: Step Time =    1.000,"P-2-1",          6236,   78.8590E-03,   80.3071E-03,            0.,NA,NA,"",   1.22187E+06,   1.15710E+06,   1.15710E+06
C:/temp/Job-2.odb,Step-1,Increment      1: Step Time =    1.000,"P-2-1",          6237,   157.261E-03,   190.382E-03,            0.,NA,NA,"",   997.394E+03,   996.528E+03,   996.528E+03
C:/temp/Job-2.odb,Step-1,Increment      1: Step Time =    1.000,"P-2-1",          6238,   9.51184E-03,   157.268E-03,            0.,NA,NA,"",   910.060E+03,   1.00172E+06,   1.00172E+06
C:/temp/Job-2.odb,Step-1,Increment      1: Step Time =    1.000,"P-2-1",          6239,   42.6214E-03,   9.66144E-03,            0.,NA,NA,"",   1.02178E+06,   1.02345E+06,   1.02345E+06
C:/temp/Job-2.odb,Step-1,Increment      1: Step Time =    1.000,"P-2-1",          6240,   190.488E-03,   42.7268E-03,            0.,NA,NA,"",   999.304E+03,   1.00224E+06,   1.00224E+06
C:/temp/Job-2.odb,Step-1,Increment      1: Step Time =    1.000,"P-2-1",          6241,   85.7325E-03,   189.387E-03,            0.,NA,NA,"",   963.542E+03,   965.038E+03,   965.038E+03
C:/temp/Job-2.odb,Step-1,Increment      1: Step Time =    1.000,"P-2-1",          6242,   83.2321E-03,   188.152E-03,            0.,NA,NA,"",   968.988E+03,   970.794E+03,   970.794E+03
C:/temp/Job-2.odb,Step-1,Increment      1: Step Time =    1.000,"P-2-1",          6243,   114.151E-03,   11.0276E-03,            0.,NA,NA,"",   966.130E+03,   967.407E+03,   967.407E+03
C:/temp/Job-2.odb,Step-1,Increment      1: Step Time =    1.000,"P-2-1",          6244,   117.521E-03,   12.2817E-03,            0.,NA,NA,"",   971.832E+03,   972.998E+03,   972.998E+03
C:/temp/Job-2.odb,Step-1,Increment      1: Step Time =    1.000,"P-2-1",          6245,   77.6291E-03,   78.8575E-03,            0.,NA,NA,"",   1.21139E+06,   1.15361E+06,   1.15361E+06
C:/temp/Job-2.odb,Step-1,Increment      1: Step Time =    1.000,"P-2-1",          6246,   69.7106E-03,   94.6254E-03,            0.,NA,NA,"",   689.549E+03,   711.993E+03,   711.993E+03
C:/temp/Job-2.odb,Step-1,Increment      1: Step Time =    1.000,"P-2-1",          6247,   87.7077E-03,   135.490E-03,            0.,NA,NA,"",   1.11974E+06,   1.15145E+06,   1.15145E+06
C:/temp/Job-2.odb,Step-1,Increment      1: Step Time =    1.000,"P-2-1",          6248,   86.9645E-03,   139.438E-03,            0.,NA,NA,"",   1.09591E+06,   1.12515E+06,   1.12515E+06
C:/temp/Job-2.odb,Step-1,Increment      1: Step Time =    1.000,"P-2-1",          6249,   122.832E-03,   12.4912E-03,            0.,NA,NA,"",   977.597E+03,   978.090E+03,   978.090E+03
C:/temp/Job-2.odb,Step-1,Increment      1: Step Time =    1.000,"P-2-1",          6250,   138.223E-03,   12.8144E-03,            0.,NA,NA,"",   991.867E+03,   990.611E+03,   990.611E+03
C:/temp/Job-2.odb,Step-1,Increment      1: Step Time =    1.000,"P-2-1",          6251,   187.498E-03,   122.693E-03,            0.,NA,NA,"",   980.383E+03,   998.089E+03,   998.089E+03
C:/temp/Job-2.odb,Step-1,Increment      1: Step Time =    1.000,"P-2-1",          6252,   186.950E-03,   138.526E-03,            0.,NA,NA,"",   993.793E+03,   1.00282E+06,   1.00282E+06
C:/temp/Job-2.odb,Step-1,Increment      1: Step Time =    1.000,"P-2-1",          6253,   77.3302E-03,   187.527E-03,            0.,NA,NA,"",   977.374E+03,   978.664E+03,   978.664E+03
C:/temp/Job-2.odb,Step-1,Increment      1: Step Time =    1.000,"P-2-1",          6254,   61.7683E-03,   187.160E-03,            0.,NA,NA,"",   998.383E+03,   998.787E+03,   998.787E+03
C:/temp/Job-2.odb,Step-1,Increment      1: Step Time =    1.000,"P-2-1",          6255,   12.6507E-03,   77.3325E-03,            0.,NA,NA,"",   821.556E+03,   914.135E+03,   914.135E+03
C:/temp/Job-2.odb,Step-1,Increment      1: Step Time =    1.000,"P-2-1",          6256,   13.0659E-03,   61.4512E-03,            0.,NA,NA,"",   863.848E+03,   953.594E+03,   953.594E+03
C:/temp/Job-2.odb,Step-1,Increment      1: Step Time =    1.000,"P-2-1",          6257,   11.9853E-03,   54.9509E-03,            0.,NA,NA,"",   879.834E+03,   969.788E+03,   969.788E+03
C:/temp/Job-2.odb,Step-1,Increment      1: Step Time =    1.000,"P-2-1",          6258,   10.8107E-03,   50.5369E-03,            0.,NA,NA,"",   888.865E+03,   980.017E+03,   980.017E+03
C:/temp/Job-2.odb,Step-1,Increment      1: Step Time =    1.000,"P-2-1",          6259,   144.526E-03,   12.5291E-03,            0.,NA,NA,"",   995.713E+03,   994.224E+03,   994.224E+03
C:/temp/Job-2.odb,Step-1,Increment      1: Step Time =    1.000,"P-2-1",          6260,   150.284E-03,   10.8000E-03,            0.,NA,NA,"",   996.153E+03,   994.951E+03,   994.951E+03
C:/temp/Job-2.odb,Step-1,Increment      1: Step Time =    1.000,"P-2-1",          6261,   154.046E-03,   12.2441E-03,            0.,NA,NA,"",   999.030E+03,   997.646E+03,   997.646E+03
C:/temp/Job-2.odb,Step-1,Increment      1: Step Time =    1.000,"P-2-1",          6262,   188.022E-03,   145.039E-03,            0.,NA,NA,"",   996.806E+03,   1.00329E+06,   1.00329E+06
C:/temp/Job-2.odb,Step-1,Increment      1: Step Time =    1.000,"P-2-1",          6263,   189.191E-03,   149.455E-03,            0.,NA,NA,"",   997.698E+03,   1.00291E+06,   1.00291E+06
C:/temp/Job-2.odb,Step-1,Increment      1: Step Time =    1.000,"P-2-1",          6264,   55.4711E-03,   187.448E-03,            0.,NA,NA,"",   1.00709E+06,   1.00779E+06,   1.00779E+06
C:/temp/Job-2.odb,Step-1,Increment      1: Step Time =    1.000,"P-2-1",          6265,   49.7087E-03,   189.191E-03,            0.,NA,NA,"",   1.01138E+06,   1.01235E+06,   1.01235E+06
C:/temp/Job-2.odb,Step-1,Increment      1: Step Time =    1.000,"P-2-1",          6266,   45.9489E-03,   187.751E-03,            0.,NA,NA,"",   1.02256E+06,   1.02452E+06,   1.02452E+06
C:/temp/Job-2.odb,Step-1,Increment      1: Step Time =    1.000,"P-2-1",          6267,   24.3220E-03,   182.965E-03,            0.,NA,NA,"",   1.07818E+06,   1.10124E+06,   1.10124E+06
C:/temp/Job-2.odb,Step-1,Increment      1: Step Time =    1.000,"P-2-1",          6268,   17.0478E-03,   24.3158E-03,            0.,NA,NA,"",   1.03727E+06,   1.09294E+06,   1.09294E+06
C:/temp/Job-2.odb,Step-1,Increment      1: Step Time =    1.000,"P-2-1",          6269,   175.687E-03,   17.0415E-03,            0.,NA,NA,"",   1.00303E+06,   1.00224E+06,   1.00224E+06
C:/temp/Job-2.odb,Step-1,Increment      1: Step Time =    1.000,"P-2-1",          6270,   120.742E-03,   129.266E-03,            0.,NA,NA,"",   1.21402E+06,   1.17772E+06,   1.17772E+06
C:/temp/Job-2.odb,Step-1,Increment      1: Step Time =    1.000,"P-2-1",          6271,   119.719E-03,   133.276E-03,            0.,NA,NA,"",   1.18010E+06,   1.16190E+06,   1.16190E+06
C:/temp/Job-2.odb,Step-1,Increment      1: Step Time =    1.000,"P-2-1",          6272,   68.9203E-03,   122.510E-03,            0.,NA,NA,"",   1.08637E+06,   1.05821E+06,   1.05821E+06
C:/temp/Job-2.odb,Step-1,Increment      1: Step Time =    1.000,"P-2-1",          6273,   119.104E-03,   74.0870E-03,            0.,NA,NA,"",   1.25233E+06,   1.20680E+06,   1.20680E+06
C:/temp/Job-2.odb,Step-1,Increment      1: Step Time =    1.000,"P-2-1",          6274,   138.632E-03,   87.9855E-03,            0.,NA,NA,"",   919.101E+03,   902.875E+03,   902.875E+03
C:/temp/Job-2.odb,Step-1,Increment      1: Step Time =    1.000,"P-2-1",          6275,   135.261E-03,   98.5621E-03,            0.,NA,NA,"",   732.322E+03,   746.970E+03,   746.970E+03
C:/temp/Job-2.odb,Step-1,Increment      1: Step Time =    1.000,"P-2-1",          6276,   134.388E-03,   100.563E-03,            0.,NA,NA,"",   714.883E+03,   730.265E+03,   730.265E+03
C:/temp/Job-2.odb,Step-1,Increment      1: Step Time =    1.000,"P-2-1",          6277,   107.253E-03,   138.764E-03,            0.,NA,NA,"",   1.06462E+06,   1.11262E+06,   1.11262E+06
C:/temp/Job-2.odb,Step-1,Increment      1: Step Time =    1.000,"P-2-1",          6278,   87.6907E-03,   185.335E-03,            0.,NA,NA,"",   974.580E+03,   977.675E+03,   977.675E+03
C:/temp/Job-2.odb,Step-1,Increment      1: Step Time =    1.000,"P-2-1",          6279,   111.947E-03,   14.3913E-03,            0.,NA,NA,"",   973.494E+03,   976.021E+03,   976.021E+03
C:/temp/Job-2.odb,Step-1,Increment      1: Step Time =    1.000,"P-2-1",          6280,   180.725E-03,   185.297E-03,            0.,NA,NA,"",   1.00122E+06,   1.00091E+06,   1.00091E+06
C:/temp/Job-2.odb,Step-1,Increment      1: Step Time =    1.000,"P-2-1",          6281,   66.5249E-03,   110.920E-03,            0.,NA,NA,"",   853.507E+03,   861.065E+03,   861.065E+03
C:/temp/Job-2.odb,Step-1,Increment      1: Step Time =    1.000,"P-2-1",          6282,   65.2240E-03,   109.015E-03,            0.,NA,NA,"",   801.933E+03,    822.96E+03,    822.96E+03
C:/temp/Job-2.odb,Step-1,Increment      1: Step Time =    1.000,"P-2-1",          6283,   69.3995E-03,   115.047E-03,            0.,NA,NA,"",   972.812E+03,   949.801E+03,   949.801E+03
C:/temp/Job-2.odb,Step-1,Increment      1: Step Time =    1.000,"P-2-1",          6284,   89.6037E-03,   64.9363E-03,            0.,NA,NA,"",   1.10748E+06,   1.15034E+06,   1.15034E+06
C:/temp/Job-2.odb,Step-1,Increment      1: Step Time =    1.000,"P-2-1",          6285,   98.1920E-03,   62.5270E-03,            0.,NA,NA,"",   1.04551E+06,   1.11049E+06,   1.11049E+06
C:/temp/Job-2.odb,Step-1,Increment      1: Step Time =    1.000,"P-2-1",          6286,   102.840E-03,   62.9414E-03,            0.,NA,NA,"",   1.04988E+06,   1.11402E+06,   1.11402E+06
C:/temp/Job-2.odb,Step-1,Increment      1: Step Time =    1.000,"P-2-1",          6287,   79.0156E-03,   69.7136E-03,            0.,NA,NA,"",   1.18784E+06,   1.17095E+06,   1.17095E+06
C:/temp/Job-2.odb,Step-1,Increment      1: Step Time =    1.000,"P-2-1",          6288,   111.446E-03,   63.6188E-03,            0.,NA,NA,"",   1.11070E+06,   1.14136E+06,   1.14136E+06
C:/temp/Job-2.odb,Step-1,Increment      1: Step Time =    1.000,"P-2-1",          6289,   131.990E-03,   101.044E-03,            0.,NA,NA,"",   669.497E+03,   685.147E+03,   685.147E+03
C:/temp/Job-2.odb,Step-1,Increment      1: Step Time =    1.000,"P-2-1",          6290,   117.252E-03,   134.707E-03,            0.,NA,NA,"",   1.15920E+06,   1.15734E+06,   1.15734E+06
C:/temp/Job-2.odb,Step-1,Increment      1: Step Time =    1.000,"P-2-1",          6291,   85.5357E-03,   67.4324E-03,            0.,NA,NA,"",   1.15807E+06,   1.17752E+06,   1.17752E+06
C:/temp/Job-2.odb,Step-1,Increment      1: Step Time =    1.000,"P-2-1",          6292,   12.1507E-03,   112.633E-03,            0.,NA,NA,"",   802.395E+03,   896.213E+03,   896.213E+03
C:/temp/Job-2.odb,Step-1,Increment      1: Step Time =    1.000,"P-2-1",          6293,   87.3082E-03,   12.0827E-03,            0.,NA,NA,"",   966.793E+03,   968.876E+03,   968.876E+03
C:/temp/Job-2.odb,Step-1,Increment      1: Step Time =    1.000,"P-2-1",          6294,   187.780E-03,   87.3630E-03,            0.,NA,NA,"",   972.380E+03,   994.909E+03,   994.909E+03
C:/temp/Job-2.odb,Step-1,Increment      1: Step Time =    1.000,"P-2-1",          6295,   112.708E-03,   187.879E-03,            0.,NA,NA,"",   967.935E+03,   969.692E+03,   969.692E+03
C:/temp/Job-2.odb,Step-1,Increment      1: Step Time =    1.000,"P-2-1",          6296,   180.248E-03,   174.980E-03,            0.,NA,NA,"",   1.00445E+06,   1.00378E+06,   1.00378E+06
C:/temp/Job-2.odb,Step-1,Increment      1: Step Time =    1.000,"P-2-1",          6297,   87.7251E-03,   65.1263E-03,            0.,NA,NA,"",   1.12238E+06,   1.15600E+06,   1.15600E+06
C:/temp/Job-2.odb,Step-1,Increment      1: Step Time =    1.000,"P-2-1",          6298,   84.9982E-03,   12.0070E-03,            0.,NA,NA,"",   968.230E+03,   970.122E+03,   970.122E+03
C:/temp/Job-2.odb,Step-1,Increment      1: Step Time =    1.000,"P-2-1",          6299,   115.016E-03,   188.012E-03,            0.,NA,NA,"",   969.301E+03,   970.749E+03,   970.749E+03
C:/temp/Job-2.odb,Step-1,Increment      1: Step Time =    1.000,"P-2-1",          6300,   12.0430E-03,   114.965E-03,            0.,NA,NA,"",   805.582E+03,   899.360E+03,   899.360E+03
C:/temp/Job-2.odb,Step-1,Increment      1: Step Time =    1.000,"P-2-1",          6301,   187.900E-03,   85.0335E-03,            0.,NA,NA,"",   973.942E+03,   995.698E+03,   995.698E+03
C:/temp/Job-2.odb,Step-1,Increment      1: Step Time =    1.000,"P-2-1",          6302,   123.473E-03,   118.346E-03,            0.,NA,NA,"",   1.20455E+06,   1.11249E+06,   1.11249E+06
C:/temp/Job-2.odb,Step-1,Increment      1: Step Time =    1.000,"P-2-1",          6303,   18.6310E-03,   25.0464E-03,            0.,NA,NA,"",   1.03804E+06,   1.09029E+06,   1.09029E+06
C:/temp/Job-2.odb,Step-1,Increment      1: Step Time =    1.000,"P-2-1",          6304,   174.956E-03,   18.6255E-03,            0.,NA,NA,"",   1.00383E+06,   1.00288E+06,   1.00288E+06
C:/temp/Job-2.odb,Step-1,Increment      1: Step Time =    1.000,"P-2-1",          6305,   25.0538E-03,   181.382E-03,            0.,NA,NA,"",   1.07314E+06,   1.09813E+06,   1.09813E+06
C:/temp/Job-2.odb,Step-1,Increment      1: Step Time =    1.000,"P-2-1",          6306,   125.504E-03,   121.386E-03,            0.,NA,NA,"",   1.19871E+06,   1.12141E+06,   1.12141E+06
C:/temp/Job-2.odb,Step-1,Increment      1: Step Time =    1.000,"P-2-1",          6307,   97.4030E-03,   20.8502E-03,            0.,NA,NA,"",   984.791E+03,   991.785E+03,   991.785E+03
C:/temp/Job-2.odb,Step-1,Increment      1: Step Time =    1.000,"P-2-1",          6308,   94.8823E-03,   18.9390E-03,            0.,NA,NA,"",   981.402E+03,   987.169E+03,   987.169E+03
C:/temp/Job-2.odb,Step-1,Increment      1: Step Time =    1.000,"P-2-1",          6309,   181.551E-03,   96.2943E-03,            0.,NA,NA,"",   966.258E+03,   985.887E+03,   985.887E+03
C:/temp/Job-2.odb,Step-1,Increment      1: Step Time =    1.000,"P-2-1",          6310,   116.921E-03,   136.509E-03,            0.,NA,NA,"",   1.14344E+06,   1.14604E+06,   1.14604E+06
C:/temp/Job-2.odb,Step-1,Increment      1: Step Time =    1.000,"P-2-1",          6311,   102.842E-03,   179.115E-03,            0.,NA,NA,"",   984.554E+03,   991.264E+03,   991.264E+03
C:/temp/Job-2.odb,Step-1,Increment      1: Step Time =    1.000,"P-2-1",          6312,   105.205E-03,   181.183E-03,            0.,NA,NA,"",   980.608E+03,   985.861E+03,   985.861E+03
C:/temp/Job-2.odb,Step-1,Increment      1: Step Time =    1.000,"P-2-1",          6313,   18.8386E-03,   103.382E-03,            0.,NA,NA,"",   804.526E+03,   893.135E+03,   893.135E+03
C:/temp/Job-2.odb,Step-1,Increment      1: Step Time =    1.000,"P-2-1",          6314,   63.3708E-03,   108.044E-03,            0.,NA,NA,"",   787.769E+03,   817.759E+03,   817.759E+03
C:/temp/Job-2.odb,Step-1,Increment      1: Step Time =    1.000,"P-2-1",          6315,   22.4662E-03,   178.641E-03,            0.,NA,NA,"",   1.06082E+06,   1.09668E+06,   1.09668E+06
C:/temp/Job-2.odb,Step-1,Increment      1: Step Time =    1.000,"P-2-1",          6316,   21.3619E-03,   22.4515E-03,            0.,NA,NA,"",   1.05510E+06,   1.09572E+06,   1.09572E+06
C:/temp/Job-2.odb,Step-1,Increment      1: Step Time =    1.000,"P-2-1",          6317,   177.543E-03,   21.3626E-03,            0.,NA,NA,"",   1.00439E+06,   1.00349E+06,   1.00349E+06
C:/temp/Job-2.odb,Step-1,Increment      1: Step Time =    1.000,"P-2-1",          6318,   66.4375E-03,   84.1220E-03,            0.,NA,NA,"",   962.300E+03,   952.906E+03,   952.906E+03
C:/temp/Job-2.odb,Step-1,Increment      1: Step Time =    1.000,"P-2-1",          6319,   188.370E-03,   42.8495E-03,            0.,NA,NA,"",   1.00064E+06,   1.00324E+06,   1.00324E+06
C:/temp/Job-2.odb,Step-1,Increment      1: Step Time =    1.000,"P-2-1",          6320,   157.153E-03,   188.190E-03,            0.,NA,NA,"",   999.541E+03,   998.280E+03,   998.280E+03
C:/temp/Job-2.odb,Step-1,Increment      1: Step Time =    1.000,"P-2-1",          6321,   11.6305E-03,   157.146E-03,            0.,NA,NA,"",   919.090E+03,   1.00630E+06,   1.00630E+06
C:/temp/Job-2.odb,Step-1,Increment      1: Step Time =    1.000,"P-2-1",          6322,   42.5610E-03,   11.7595E-03,            0.,NA,NA,"",   1.02853E+06,   1.03110E+06,   1.03110E+06
C:/temp/Job-2.odb,Step-1,Increment      1: Step Time =    1.000,"P-2-1",          6323,   123.240E-03,   128.176E-03,            0.,NA,NA,"",   1.21187E+06,   1.16396E+06,   1.16396E+06
C:/temp/Job-2.odb,Step-1,Increment      1: Step Time =    1.000,"P-2-1",          6324,   85.3162E-03,   136.620E-03,            0.,NA,NA,"",   1.12444E+06,   1.14568E+06,   1.14568E+06
C:/temp/Job-2.odb,Step-1,Increment      1: Step Time =    1.000,"P-2-1",          6325,   66.4472E-03,   121.765E-03,            0.,NA,NA,"",   1.04410E+06,   1.02733E+06,   1.02733E+06
C:/temp/Job-2.odb,Step-1,Increment      1: Step Time =    1.000,"P-2-1",          6326,   77.5938E-03,   184.493E-03,            0.,NA,NA,"",   987.208E+03,   989.216E+03,   989.216E+03
C:/temp/Job-2.odb,Step-1,Increment      1: Step Time =    1.000,"P-2-1",          6327,   15.7756E-03,   77.4109E-03,            0.,NA,NA,"",   829.835E+03,   918.940E+03,   918.940E+03
C:/temp/Job-2.odb,Step-1,Increment      1: Step Time =    1.000,"P-2-1",          6328,   122.493E-03,   15.4794E-03,            0.,NA,NA,"",   985.061E+03,   985.851E+03,   985.851E+03
C:/temp/Job-2.odb,Step-1,Increment      1: Step Time =    1.000,"P-2-1",          6329,   184.479E-03,   122.688E-03,            0.,NA,NA,"",   982.147E+03,   997.264E+03,   997.264E+03
C:/temp/Job-2.odb,Step-1,Increment      1: Step Time =    1.000,"P-2-1",          6330,   65.2860E-03,   87.0589E-03,            0.,NA,NA,"",   890.317E+03,   895.876E+03,   895.876E+03
C:/temp/Job-2.odb,Step-1,Increment      1: Step Time =    1.000,"P-2-1",          6331,   82.5984E-03,   185.587E-03,            0.,NA,NA,"",   978.405E+03,   980.626E+03,   980.626E+03
C:/temp/Job-2.odb,Step-1,Increment      1: Step Time =    1.000,"P-2-1",          6332,   15.5315E-03,   82.7373E-03,            0.,NA,NA,"",   816.779E+03,   907.262E+03,   907.262E+03
C:/temp/Job-2.odb,Step-1,Increment      1: Step Time =    1.000,"P-2-1",          6333,   117.838E-03,   14.1876E-03,            0.,NA,NA,"",   977.062E+03,   978.497E+03,   978.497E+03
C:/temp/Job-2.odb,Step-1,Increment      1: Step Time =    1.000,"P-2-1",          6334,   184.270E-03,   117.266E-03,            0.,NA,NA,"",   976.919E+03,   994.596E+03,   994.596E+03
C:/temp/Job-2.odb,Step-1,Increment      1: Step Time =    1.000,"P-2-1",          6335,   64.9275E-03,   112.004E-03,            0.,NA,NA,"",   866.914E+03,   877.509E+03,   877.509E+03
C:/temp/Job-2.odb,Step-1,Increment      1: Step Time =    1.000,"P-2-1",          6336,   89.1100E-03,   63.6120E-03,            0.,NA,NA,"",   1.10140E+06,   1.14102E+06,   1.14102E+06
C:/temp/Job-2.odb,Step-1,Increment      1: Step Time =    1.000,"P-2-1",          6337,   111.531E-03,   185.167E-03,            0.,NA,NA,"",   974.362E+03,   977.119E+03,   977.119E+03
C:/temp/Job-2.odb,Step-1,Increment      1: Step Time =    1.000,"P-2-1",          6338,   14.8313E-03,   111.383E-03,            0.,NA,NA,"",   805.746E+03,   897.335E+03,   897.335E+03
C:/temp/Job-2.odb,Step-1,Increment      1: Step Time =    1.000,"P-2-1",          6339,   109.970E-03,   140.495E-03,            0.,NA,NA,"",   1.07346E+06,   1.10883E+06,   1.10883E+06
C:/temp/Job-2.odb,Step-1,Increment      1: Step Time =    1.000,"P-2-1",          6340,   119.310E-03,   70.8724E-03,            0.,NA,NA,"",   1.21916E+06,   1.18818E+06,   1.18818E+06
C:/temp/Job-2.odb,Step-1,Increment      1: Step Time =    1.000,"P-2-1",          6341,   122.451E-03,   74.0761E-03,            0.,NA,NA,"",   1.23017E+06,   1.17336E+06,   1.17336E+06
C:/temp/Job-2.odb,Step-1,Increment      1: Step Time =    1.000,"P-2-1",          6342,   69.5792E-03,   78.5162E-03,            0.,NA,NA,"",   1.08463E+06,   1.05510E+06,   1.05510E+06
C:/temp/Job-2.odb,Step-1,Increment      1: Step Time =    1.000,"P-2-1",          6343,   70.5568E-03,   76.8551E-03,            0.,NA,NA,"",   1.11052E+06,   1.07902E+06,   1.07902E+06
C:/temp/Job-2.odb,Step-1,Increment      1: Step Time =    1.000,"P-2-1",          6344,   57.0425E-03,   184.370E-03,            0.,NA,NA,"",   1.01381E+06,   1.01482E+06,   1.01482E+06
C:/temp/Job-2.odb,Step-1,Increment      1: Step Time =    1.000,"P-2-1",          6345,   171.387E-03,   171.638E-03,            0.,NA,NA,"",   1.01138E+06,   1.00881E+06,   1.00881E+06
C:/temp/Job-2.odb,Step-1,Increment      1: Step Time =    1.000,"P-2-1",          6346,   15.3026E-03,   55.8245E-03,            0.,NA,NA,"",   889.019E+03,   974.057E+03,   974.057E+03
C:/temp/Job-2.odb,Step-1,Increment      1: Step Time =    1.000,"P-2-1",          6347,   88.5261E-03,   14.6799E-03,            0.,NA,NA,"",   973.895E+03,   977.067E+03,   977.067E+03
C:/temp/Job-2.odb,Step-1,Increment      1: Step Time =    1.000,"P-2-1",          6348,   185.041E-03,   88.6410E-03,            0.,NA,NA,"",   971.605E+03,   992.112E+03,   992.112E+03
C:/temp/Job-2.odb,Step-1,Increment      1: Step Time =    1.000,"P-2-1",          6349,   184.705E-03,   144.160E-03,            0.,NA,NA,"",   999.393E+03,   1.00476E+06,   1.00476E+06
C:/temp/Job-2.odb,Step-1,Increment      1: Step Time =    1.000,"P-2-1",          6350,   157.913E-03,   29.1423E-03,            0.,NA,NA,"",   1.02192E+06,   1.01626E+06,   1.01626E+06
C:/temp/Job-2.odb,Step-1,Increment      1: Step Time =    1.000,"P-2-1",          6351,   155.743E-03,   29.6075E-03,            0.,NA,NA,"",   1.02402E+06,   1.01786E+06,   1.01786E+06
C:/temp/Job-2.odb,Step-1,Increment      1: Step Time =    1.000,"P-2-1",          6352,   154.806E-03,   24.8710E-03,            0.,NA,NA,"",   1.01724E+06,   1.01252E+06,   1.01252E+06
C:/temp/Job-2.odb,Step-1,Increment      1: Step Time =    1.000,"P-2-1",          6353,   171.830E-03,   27.1523E-03,            0.,NA,NA,"",   1.01026E+06,   1.00796E+06,   1.00796E+06
C:/temp/Job-2.odb,Step-1,Increment      1: Step Time =    1.000,"P-2-1",          6354,   137.276E-03,   80.7126E-03,            0.,NA,NA,"",   1.03698E+06,   998.582E+03,   998.582E+03
C:/temp/Job-2.odb,Step-1,Increment      1: Step Time =    1.000,"P-2-1",          6355,   114.556E-03,   14.8665E-03,            0.,NA,NA,"",   976.556E+03,   978.676E+03,   978.676E+03
C:/temp/Job-2.odb,Step-1,Increment      1: Step Time =    1.000,"P-2-1",          6356,   142.947E-03,   15.5840E-03,            0.,NA,NA,"",   999.965E+03,   997.904E+03,   997.904E+03
C:/temp/Job-2.odb,Step-1,Increment      1: Step Time =    1.000,"P-2-1",          6357,   172.011E-03,   21.9363E-03,            0.,NA,NA,"",   1.00657E+06,   1.00496E+06,   1.00496E+06
C:/temp/Job-2.odb,Step-1,Increment      1: Step Time =    1.000,"P-2-1",          6358,   41.9712E-03,   170.931E-03,            0.,NA,NA,"",   1.04545E+06,   1.06044E+06,   1.06044E+06
C:/temp/Job-2.odb,Step-1,Increment      1: Step Time =    1.000,"P-2-1",          6359,   44.0727E-03,   170.399E-03,            0.,NA,NA,"",   1.04578E+06,   1.05894E+06,   1.05894E+06
C:/temp/Job-2.odb,Step-1,Increment      1: Step Time =    1.000,"P-2-1",          6360,   45.2102E-03,   175.030E-03,            0.,NA,NA,"",   1.04501E+06,   1.05404E+06,   1.05404E+06
C:/temp/Job-2.odb,Step-1,Increment      1: Step Time =    1.000,"P-2-1",          6361,   28.1927E-03,   172.845E-03,            0.,NA,NA,"",   1.04089E+06,   1.07453E+06,   1.07453E+06
C:/temp/Job-2.odb,Step-1,Increment      1: Step Time =    1.000,"P-2-1",          6362,   84.8688E-03,   183.870E-03,            0.,NA,NA,"",   981.399E+03,   984.644E+03,   984.644E+03
C:/temp/Job-2.odb,Step-1,Increment      1: Step Time =    1.000,"P-2-1",          6363,   28.0029E-03,   178.071E-03,            0.,NA,NA,"",   1.05849E+06,   1.08434E+06,   1.08434E+06
C:/temp/Job-2.odb,Step-1,Increment      1: Step Time =    1.000,"P-2-1",          6364,   29.0648E-03,   41.8727E-03,            0.,NA,NA,"",   992.251E+03,   1.04097E+06,   1.04097E+06
C:/temp/Job-2.odb,Step-1,Increment      1: Step Time =    1.000,"P-2-1",          6365,   29.7020E-03,   44.0921E-03,            0.,NA,NA,"",   986.849E+03,   1.03619E+06,   1.03619E+06
C:/temp/Job-2.odb,Step-1,Increment      1: Step Time =    1.000,"P-2-1",          6366,   24.8728E-03,   45.1504E-03,            0.,NA,NA,"",   965.112E+03,   1.02556E+06,   1.02556E+06
C:/temp/Job-2.odb,Step-1,Increment      1: Step Time =    1.000,"P-2-1",          6367,   21.9475E-03,   28.0007E-03,            0.,NA,NA,"",   1.02820E+06,   1.07688E+06,   1.07688E+06
C:/temp/Job-2.odb,Step-1,Increment      1: Step Time =    1.000,"P-2-1",          6368,   27.3880E-03,   27.8287E-03,            0.,NA,NA,"",   1.03799E+06,   1.07385E+06,   1.07385E+06
C:/temp/Job-2.odb,Step-1,Increment      1: Step Time =    1.000,"P-2-1",          6369,   171.339E-03,   158.162E-03,            0.,NA,NA,"",   1.01885E+06,   1.01500E+06,   1.01500E+06
C:/temp/Job-2.odb,Step-1,Increment      1: Step Time =    1.000,"P-2-1",          6370,   170.664E-03,   155.970E-03,            0.,NA,NA,"",   1.02044E+06,   1.01620E+06,   1.01620E+06
C:/temp/Job-2.odb,Step-1,Increment      1: Step Time =    1.000,"P-2-1",          6371,   175.177E-03,   154.799E-03,            0.,NA,NA,"",   1.01437E+06,   1.01235E+06,   1.01235E+06
C:/temp/Job-2.odb,Step-1,Increment      1: Step Time =    1.000,"P-2-1",          6372,   136.425E-03,   101.480E-03,            0.,NA,NA,"",   750.300E+03,   764.212E+03,   764.212E+03
C:/temp/Job-2.odb,Step-1,Increment      1: Step Time =    1.000,"P-2-1",          6373,   64.4476E-03,   94.8051E-03,            0.,NA,NA,"",   729.822E+03,   767.079E+03,   767.079E+03
C:/temp/Job-2.odb,Step-1,Increment      1: Step Time =    1.000,"P-2-1",          6374,   18.1154E-03,   90.7389E-03,            0.,NA,NA,"",   808.853E+03,   897.663E+03,   897.663E+03
C:/temp/Job-2.odb,Step-1,Increment      1: Step Time =    1.000,"P-2-1",          6375,   18.9196E-03,   92.7031E-03,            0.,NA,NA,"",   807.929E+03,   896.128E+03,   896.128E+03
C:/temp/Job-2.odb,Step-1,Increment      1: Step Time =    1.000,"P-2-1",          6376,   24.2017E-03,   97.4667E-03,            0.,NA,NA,"",   811.415E+03,   894.928E+03,   894.928E+03
C:/temp/Job-2.odb,Step-1,Increment      1: Step Time =    1.000,"P-2-1",          6377,   179.774E-03,   107.343E-03,            0.,NA,NA,"",   966.873E+03,   984.538E+03,   984.538E+03
C:/temp/Job-2.odb,Step-1,Increment      1: Step Time =    1.000,"P-2-1",          6378,   95.5293E-03,   178.959E-03,            0.,NA,NA,"",   985.987E+03,   992.972E+03,   992.972E+03
C:/temp/Job-2.odb,Step-1,Increment      1: Step Time =    1.000,"P-2-1",          6379,   102.548E-03,   22.2042E-03,            0.,NA,NA,"",   987.363E+03,   994.900E+03,   994.900E+03
C:/temp/Job-2.odb,Step-1,Increment      1: Step Time =    1.000,"P-2-1",          6380,   58.6252E-03,   108.311E-03,            0.,NA,NA,"",   803.973E+03,   843.501E+03,   843.501E+03
C:/temp/Job-2.odb,Step-1,Increment      1: Step Time =    1.000,"P-2-1",          6381,   59.6407E-03,   110.051E-03,            0.,NA,NA,"",   824.829E+03,   857.887E+03,   857.887E+03
C:/temp/Job-2.odb,Step-1,Increment      1: Step Time =    1.000,"P-2-1",          6382,   56.9709E-03,   107.356E-03,            0.,NA,NA,"",   796.587E+03,   840.819E+03,   840.819E+03
C:/temp/Job-2.odb,Step-1,Increment      1: Step Time =    1.000,"P-2-1",          6383,   115.191E-03,   185.890E-03,            0.,NA,NA,"",   975.012E+03,   976.917E+03,   976.917E+03
C:/temp/Job-2.odb,Step-1,Increment      1: Step Time =    1.000,"P-2-1",          6384,   117.283E-03,   185.584E-03,            0.,NA,NA,"",   977.420E+03,   979.025E+03,   979.025E+03
C:/temp/Job-2.odb,Step-1,Increment      1: Step Time =    1.000,"P-2-1",          6385,   14.1531E-03,   115.090E-03,            0.,NA,NA,"",   809.921E+03,   901.851E+03,   901.851E+03
C:/temp/Job-2.odb,Step-1,Increment      1: Step Time =    1.000,"P-2-1",          6386,   14.5592E-03,   117.228E-03,            0.,NA,NA,"",   814.589E+03,   905.903E+03,   905.903E+03
C:/temp/Job-2.odb,Step-1,Increment      1: Step Time =    1.000,"P-2-1",          6387,   84.8833E-03,   14.1030E-03,            0.,NA,NA,"",   974.884E+03,   977.378E+03,   977.378E+03
C:/temp/Job-2.odb,Step-1,Increment      1: Step Time =    1.000,"P-2-1",          6388,   82.7595E-03,   14.5448E-03,            0.,NA,NA,"",   978.094E+03,   980.529E+03,   980.529E+03
C:/temp/Job-2.odb,Step-1,Increment      1: Step Time =    1.000,"P-2-1",          6389,   185.722E-03,   84.8806E-03,            0.,NA,NA,"",   974.490E+03,   994.255E+03,   994.255E+03
C:/temp/Job-2.odb,Step-1,Increment      1: Step Time =    1.000,"P-2-1",          6390,   185.390E-03,   82.7549E-03,            0.,NA,NA,"",   976.386E+03,   994.999E+03,   994.999E+03
C:/temp/Job-2.odb,Step-1,Increment      1: Step Time =    1.000,"P-2-1",          6391,   127.929E-03,   122.625E-03,            0.,NA,NA,"",   1.17163E+06,   1.10427E+06,   1.10427E+06
C:/temp/Job-2.odb,Step-1,Increment      1: Step Time =    1.000,"P-2-1",          6392,   50.5581E-03,   186.633E-03,            0.,NA,NA,"",   1.01761E+06,   1.01901E+06,   1.01901E+06
C:/temp/Job-2.odb,Step-1,Increment      1: Step Time =    1.000,"P-2-1",          6393,   15.0923E-03,   52.4161E-03,            0.,NA,NA,"",   899.764E+03,   983.915E+03,   983.915E+03
C:/temp/Job-2.odb,Step-1,Increment      1: Step Time =    1.000,"P-2-1",          6394,   149.439E-03,   13.3313E-03,            0.,NA,NA,"",   999.128E+03,   997.413E+03,   997.413E+03
C:/temp/Job-2.odb,Step-1,Increment      1: Step Time =    1.000,"P-2-1",          6395,   184.906E-03,   147.571E-03,            0.,NA,NA,"",   1.00085E+06,   1.00506E+06,   1.00506E+06
C:/temp/Job-2.odb,Step-1,Increment      1: Step Time =    1.000,"P-2-1",          6396,   86.1413E-03,   62.8251E-03,            0.,NA,NA,"",   1.11230E+06,   1.13964E+06,   1.13964E+06
C:/temp/Job-2.odb,Step-1,Increment      1: Step Time =    1.000,"P-2-1",          6397,   100.758E-03,   141.640E-03,            0.,NA,NA,"",   1.03495E+06,   1.08929E+06,   1.08929E+06
C:/temp/Job-2.odb,Step-1,Increment      1: Step Time =    1.000,"P-2-1",          6398,   172.410E-03,   165.076E-03,            0.,NA,NA,"",   1.01444E+06,   1.01148E+06,   1.01148E+06
C:/temp/Job-2.odb,Step-1,Increment      1: Step Time =    1.000,"P-2-1",          6399,   35.4577E-03,   171.431E-03,            0.,NA,NA,"",   1.04290E+06,   1.06578E+06,   1.06578E+06
C:/temp/Job-2.odb,Step-1,Increment      1: Step Time =    1.000,"P-2-1",          6400,   28.3443E-03,   35.6763E-03,            0.,NA,NA,"",   1.01166E+06,   1.05550E+06,   1.05550E+06
C:/temp/Job-2.odb,Step-1,Increment      1: Step Time =    1.000,"P-2-1",          6401,   164.538E-03,   28.6372E-03,            0.,NA,NA,"",   1.01662E+06,   1.01244E+06,   1.01244E+06
C:/temp/Job-2.odb,Step-1,Increment      1: Step Time =    1.000,"P-2-1",          6402,   67.0154E-03,   115.517E-03,            0.,NA,NA,"",   956.623E+03,   945.972E+03,   945.972E+03
C:/temp/Job-2.odb,Step-1,Increment      1: Step Time =    1.000,"P-2-1",          6403,   119.822E-03,   67.5177E-03,            0.,NA,NA,"",   1.18676E+06,   1.16567E+06,   1.16567E+06
C:/temp/Job-2.odb,Step-1,Increment      1: Step Time =    1.000,"P-2-1",          6404,   49.0897E-03,   187.783E-03,            0.,NA,NA,"",   1.01669E+06,   1.01818E+06,   1.01818E+06
C:/temp/Job-2.odb,Step-1,Increment      1: Step Time =    1.000,"P-2-1",          6405,   150.901E-03,   12.1970E-03,            0.,NA,NA,"",   998.189E+03,   996.720E+03,   996.720E+03
C:/temp/Job-2.odb,Step-1,Increment      1: Step Time =    1.000,"P-2-1",          6406,   187.813E-03,   114.130E-03,            0.,NA,NA,"",   973.495E+03,   995.374E+03,   995.374E+03
C:/temp/Job-2.odb,Step-1,Increment      1: Step Time =    1.000,"P-2-1",          6407,   12.3138E-03,   85.7281E-03,            0.,NA,NA,"",   805.298E+03,   898.819E+03,   898.819E+03
C:/temp/Job-2.odb,Step-1,Increment      1: Step Time =    1.000,"P-2-1",          6408,   115.392E-03,   60.1936E-03,            0.,NA,NA,"",   1.11147E+06,   1.12395E+06,   1.12395E+06
C:/temp/Job-2.odb,Step-1,Increment      1: Step Time =    1.000,"P-2-1",          6409,   61.6574E-03,   93.3755E-03,            0.,NA,NA,"",   767.646E+03,   805.534E+03,   805.534E+03
C:/temp/Job-2.odb,Step-1,Increment      1: Step Time =    1.000,"P-2-1",          6410,   123.353E-03,   137.130E-03,            0.,NA,NA,"",   1.15194E+06,   1.13157E+06,   1.13157E+06
C:/temp/Job-2.odb,Step-1,Increment      1: Step Time =    1.000,"P-2-1",          6411,   187.168E-03,   115.407E-03,            0.,NA,NA,"",   974.394E+03,   995.237E+03,   995.237E+03
C:/temp/Job-2.odb,Step-1,Increment      1: Step Time =    1.000,"P-2-1",          6412,   13.0737E-03,   84.1199E-03,            0.,NA,NA,"",   809.177E+03,   901.960E+03,   901.960E+03
C:/temp/Job-2.odb,Step-1,Increment      1: Step Time =    1.000,"P-2-1",          6413,   55.4438E-03,   106.787E-03,            0.,NA,NA,"",    795.88E+03,   843.078E+03,   843.078E+03
C:/temp/Job-2.odb,Step-1,Increment      1: Step Time =    1.000,"P-2-1",          6414,   66.1645E-03,   127.853E-03,            0.,NA,NA,"",   1.08878E+06,   1.07356E+06,   1.07356E+06
C:/temp/Job-2.odb,Step-1,Increment      1: Step Time =    1.000,"P-2-1",          6415,   57.8206E-03,   112.807E-03,            0.,NA,NA,"",   861.300E+03,   892.198E+03,   892.198E+03
C:/temp/Job-2.odb,Step-1,Increment      1: Step Time =    1.000,"P-2-1",          6416,   62.4626E-03,   91.2523E-03,            0.,NA,NA,"",   801.957E+03,   831.543E+03,   831.543E+03
C:/temp/Job-2.odb,Step-1,Increment      1: Step Time =    1.000,"P-2-1",          6417,   74.6250E-03,   67.2537E-03,            0.,NA,NA,"",   1.15436E+06,   1.13784E+06,   1.13784E+06
C:/temp/Job-2.odb,Step-1,Increment      1: Step Time =    1.000,"P-2-1",          6418,   64.6700E-03,   80.8394E-03,            0.,NA,NA,"",   997.927E+03,   990.247E+03,   990.247E+03
C:/temp/Job-2.odb,Step-1,Increment      1: Step Time =    1.000,"P-2-1",          6419,   88.3019E-03,   61.7534E-03,            0.,NA,NA,"",   1.09415E+06,   1.12905E+06,   1.12905E+06
C:/temp/Job-2.odb,Step-1,Increment      1: Step Time =    1.000,"P-2-1",          6420,   112.540E-03,   142.348E-03,            0.,NA,NA,"",   1.07906E+06,   1.10386E+06,   1.10386E+06
C:/temp/Job-2.odb,Step-1,Increment      1: Step Time =    1.000,"P-2-1",          6421,   104.433E-03,   145.260E-03,            0.,NA,NA,"",   1.03505E+06,   1.07765E+06,   1.07765E+06
C:/temp/Job-2.odb,Step-1,Increment      1: Step Time =    1.000,"P-2-1",          6422,   134.837E-03,   74.1228E-03,            0.,NA,NA,"",   1.11769E+06,   1.06959E+06,   1.06959E+06
C:/temp/Job-2.odb,Step-1,Increment      1: Step Time =    1.000,"P-2-1",          6423,   136.980E-03,   74.1826E-03,            0.,NA,NA,"",   1.09887E+06,   1.05505E+06,   1.05505E+06
C:/temp/Job-2.odb,Step-1,Increment      1: Step Time =    1.000,"P-2-1",          6424,   88.4171E-03,   17.4068E-03,            0.,NA,NA,"",   981.411E+03,   985.702E+03,   985.702E+03
C:/temp/Job-2.odb,Step-1,Increment      1: Step Time =    1.000,"P-2-1",          6425,   86.4715E-03,   15.4537E-03,            0.,NA,NA,"",   977.625E+03,   980.819E+03,   980.819E+03
C:/temp/Job-2.odb,Step-1,Increment      1: Step Time =    1.000,"P-2-1",          6426,   43.9061E-03,   168.086E-03,            0.,NA,NA,"",   1.04461E+06,   1.05965E+06,   1.05965E+06
C:/temp/Job-2.odb,Step-1,Increment      1: Step Time =    1.000,"P-2-1",          6427,   17.7206E-03,   111.508E-03,            0.,NA,NA,"",   811.218E+03,   900.186E+03,   900.186E+03
C:/temp/Job-2.odb,Step-1,Increment      1: Step Time =    1.000,"P-2-1",          6428,   15.5758E-03,   113.500E-03,            0.,NA,NA,"",   810.147E+03,   900.901E+03,   900.901E+03
C:/temp/Job-2.odb,Step-1,Increment      1: Step Time =    1.000,"P-2-1",          6429,   182.029E-03,   88.7422E-03,            0.,NA,NA,"",   970.930E+03,   989.154E+03,   989.154E+03
C:/temp/Job-2.odb,Step-1,Increment      1: Step Time =    1.000,"P-2-1",          6430,   184.162E-03,   86.4706E-03,            0.,NA,NA,"",   973.196E+03,   992.238E+03,   992.238E+03
C:/temp/Job-2.odb,Step-1,Increment      1: Step Time =    1.000,"P-2-1",          6431,   111.646E-03,   182.236E-03,            0.,NA,NA,"",   981.394E+03,   985.131E+03,   985.131E+03
C:/temp/Job-2.odb,Step-1,Increment      1: Step Time =    1.000,"P-2-1",          6432,   113.673E-03,   184.349E-03,            0.,NA,NA,"",   977.843E+03,   980.488E+03,   980.488E+03
C:/temp/Job-2.odb,Step-1,Increment      1: Step Time =    1.000,"P-2-1",          6433,   32.1932E-03,   43.6995E-03,            0.,NA,NA,"",   996.746E+03,   1.04059E+06,   1.04059E+06
C:/temp/Job-2.odb,Step-1,Increment      1: Step Time =    1.000,"P-2-1",          6434,   138.155E-03,   14.5556E-03,            0.,NA,NA,"",   995.338E+03,   993.768E+03,   993.768E+03
C:/temp/Job-2.odb,Step-1,Increment      1: Step Time =    1.000,"P-2-1",          6435,   123.674E-03,   17.4186E-03,            0.,NA,NA,"",   990.732E+03,   991.333E+03,   991.333E+03
C:/temp/Job-2.odb,Step-1,Increment      1: Step Time =    1.000,"P-2-1",          6436,   121.994E-03,   19.1746E-03,            0.,NA,NA,"",   993.152E+03,   994.416E+03,   994.416E+03
C:/temp/Job-2.odb,Step-1,Increment      1: Step Time =    1.000,"P-2-1",          6437,   155.838E-03,   31.9596E-03,            0.,NA,NA,"",   1.02755E+06,   1.02057E+06,   1.02057E+06
C:/temp/Job-2.odb,Step-1,Increment      1: Step Time =    1.000,"P-2-1",          6438,   168.480E-03,   156.449E-03,            0.,NA,NA,"",   1.02344E+06,   1.01815E+06,   1.01815E+06
C:/temp/Job-2.odb,Step-1,Increment      1: Step Time =    1.000,"P-2-1",          6439,   14.6195E-03,   62.1060E-03,            0.,NA,NA,"",   867.543E+03,   955.270E+03,   955.270E+03
C:/temp/Job-2.odb,Step-1,Increment      1: Step Time =    1.000,"P-2-1",          6440,   17.5365E-03,   75.9031E-03,            0.,NA,NA,"",   838.101E+03,   924.975E+03,   924.975E+03
C:/temp/Job-2.odb,Step-1,Increment      1: Step Time =    1.000,"P-2-1",          6441,   19.4913E-03,   77.1959E-03,            0.,NA,NA,"",   839.423E+03,   924.282E+03,   924.282E+03
C:/temp/Job-2.odb,Step-1,Increment      1: Step Time =    1.000,"P-2-1",          6442,   82.2699E-03,   182.821E-03,            0.,NA,NA,"",   986.751E+03,   989.799E+03,   989.799E+03
C:/temp/Job-2.odb,Step-1,Increment      1: Step Time =    1.000,"P-2-1",          6443,   92.5465E-03,   177.580E-03,            0.,NA,NA,"",   990.576E+03,   998.123E+03,   998.123E+03
C:/temp/Job-2.odb,Step-1,Increment      1: Step Time =    1.000,"P-2-1",          6444,   61.8202E-03,   185.402E-03,            0.,NA,NA,"",   1.00420E+06,   1.00476E+06,   1.00476E+06
C:/temp/Job-2.odb,Step-1,Increment      1: Step Time =    1.000,"P-2-1",          6445,   76.3486E-03,   182.500E-03,            0.,NA,NA,"",   994.680E+03,   996.939E+03,   996.939E+03
C:/temp/Job-2.odb,Step-1,Increment      1: Step Time =    1.000,"P-2-1",          6446,   77.9860E-03,   180.770E-03,            0.,NA,NA,"",   997.276E+03,   1.00027E+06,   1.00027E+06
C:/temp/Job-2.odb,Step-1,Increment      1: Step Time =    1.000,"P-2-1",          6447,   137.845E-03,   104.186E-03,            0.,NA,NA,"",   792.467E+03,   801.285E+03,   801.285E+03
C:/temp/Job-2.odb,Step-1,Increment      1: Step Time =    1.000,"P-2-1",          6448,   18.6848E-03,   56.7418E-03,            0.,NA,NA,"",   899.921E+03,   979.111E+03,   979.111E+03
C:/temp/Job-2.odb,Step-1,Increment      1: Step Time =    1.000,"P-2-1",          6449,   185.386E-03,   137.864E-03,            0.,NA,NA,"",   994.977E+03,   1.00332E+06,   1.00332E+06
C:/temp/Job-2.odb,Step-1,Increment      1: Step Time =    1.000,"P-2-1",          6450,   183.030E-03,   124.293E-03,            0.,NA,NA,"",   984.529E+03,   997.772E+03,   997.772E+03
C:/temp/Job-2.odb,Step-1,Increment      1: Step Time =    1.000,"P-2-1",          6451,   181.071E-03,   123.072E-03,            0.,NA,NA,"",   984.115E+03,   996.447E+03,   996.447E+03
C:/temp/Job-2.odb,Step-1,Increment      1: Step Time =    1.000,"P-2-1",          6452,   181.325E-03,   143.228E-03,            0.,NA,NA,"",   1.00309E+06,   1.00673E+06,   1.00673E+06
C:/temp/Job-2.odb,Step-1,Increment      1: Step Time =    1.000,"P-2-1",          6453,   63.5271E-03,   120.450E-03,            0.,NA,NA,"",   1.00072E+06,   996.202E+03,   996.202E+03
C:/temp/Job-2.odb,Step-1,Increment      1: Step Time =    1.000,"P-2-1",          6454,   115.100E-03,   17.8787E-03,            0.,NA,NA,"",   984.264E+03,   987.139E+03,   987.139E+03
C:/temp/Job-2.odb,Step-1,Increment      1: Step Time =    1.000,"P-2-1",          6455,   177.954E-03,   93.4872E-03,            0.,NA,NA,"",   964.918E+03,   981.659E+03,   981.659E+03
C:/temp/Job-2.odb,Step-1,Increment      1: Step Time =    1.000,"P-2-1",          6456,   19.9652E-03,   88.2853E-03,            0.,NA,NA,"",   815.640E+03,   902.327E+03,   902.327E+03
C:/temp/Job-2.odb,Step-1,Increment      1: Step Time =    1.000,"P-2-1",          6457,   21.4352E-03,   58.2704E-03,            0.,NA,NA,"",   904.588E+03,   979.932E+03,   979.932E+03
C:/temp/Job-2.odb,Step-1,Increment      1: Step Time =    1.000,"P-2-1",          6458,   178.592E-03,   141.675E-03,            0.,NA,NA,"",   1.00541E+06,   1.00797E+06,   1.00797E+06
C:/temp/Job-2.odb,Step-1,Increment      1: Step Time =    1.000,"P-2-1",          6459,   76.1831E-03,   133.565E-03,            0.,NA,NA,"",   1.15553E+06,   1.14288E+06,   1.14288E+06
C:/temp/Job-2.odb,Step-1,Increment      1: Step Time =    1.000,"P-2-1",          6460,   92.3781E-03,   145.945E-03,            0.,NA,NA,"",   1.04341E+06,   1.08233E+06,   1.08233E+06
C:/temp/Job-2.odb,Step-1,Increment      1: Step Time =    1.000,"P-2-1",          6461,   90.3934E-03,   20.3515E-03,            0.,NA,NA,"",   987.565E+03,   993.638E+03,   993.638E+03
C:/temp/Job-2.odb,Step-1,Increment      1: Step Time =    1.000,"P-2-1",          6462,   76.9371E-03,   60.4788E-03,            0.,NA,NA,"",   1.12471E+06,   1.12481E+06,   1.12481E+06
C:/temp/Job-2.odb,Step-1,Increment      1: Step Time =    1.000,"P-2-1",          6463,   77.6538E-03,   57.9059E-03,            0.,NA,NA,"",   1.11034E+06,   1.11514E+06,   1.11514E+06
C:/temp/Job-2.odb,Step-1,Increment      1: Step Time =    1.000,"P-2-1",          6464,   139.010E-03,   74.4508E-03,            0.,NA,NA,"",   1.08127E+06,   1.04226E+06,   1.04226E+06
C:/temp/Job-2.odb,Step-1,Increment      1: Step Time =    1.000,"P-2-1",          6465,   20.9710E-03,   109.545E-03,            0.,NA,NA,"",   814.118E+03,   900.016E+03,   900.016E+03
C:/temp/Job-2.odb,Step-1,Increment      1: Step Time =    1.000,"P-2-1",          6466,   145.035E-03,   19.6205E-03,            0.,NA,NA,"",   1.00861E+06,   1.00537E+06,   1.00537E+06
C:/temp/Job-2.odb,Step-1,Increment      1: Step Time =    1.000,"P-2-1",          6467,   169.821E-03,   167.216E-03,            0.,NA,NA,"",   1.01562E+06,   1.01210E+06,   1.01210E+06
C:/temp/Job-2.odb,Step-1,Increment      1: Step Time =    1.000,"P-2-1",          6468,   109.376E-03,   179.707E-03,            0.,NA,NA,"",   985.789E+03,   991.043E+03,   991.043E+03
C:/temp/Job-2.odb,Step-1,Increment      1: Step Time =    1.000,"P-2-1",          6469,   54.9372E-03,   180.218E-03,            0.,NA,NA,"",   1.02789E+06,   1.03027E+06,   1.03027E+06
C:/temp/Job-2.odb,Step-1,Increment      1: Step Time =    1.000,"P-2-1",          6470,   60.6943E-03,   80.9183E-03,            0.,NA,NA,"",   962.018E+03,   969.688E+03,   969.688E+03
C:/temp/Job-2.odb,Step-1,Increment      1: Step Time =    1.000,"P-2-1",          6471,   140.788E-03,   97.3497E-03,            0.,NA,NA,"",   807.461E+03,   819.634E+03,   819.634E+03
C:/temp/Job-2.odb,Step-1,Increment      1: Step Time =    1.000,"P-2-1",          6472,   171.594E-03,   100.072E-03,            0.,NA,NA,"",   953.341E+03,   967.683E+03,   967.683E+03
C:/temp/Job-2.odb,Step-1,Increment      1: Step Time =    1.000,"P-2-1",          6473,   183.683E-03,   85.0319E-03,            0.,NA,NA,"",   974.350E+03,   992.503E+03,   992.503E+03
C:/temp/Job-2.odb,Step-1,Increment      1: Step Time =    1.000,"P-2-1",          6474,   115.098E-03,   183.924E-03,            0.,NA,NA,"",   979.851E+03,   982.322E+03,   982.322E+03
C:/temp/Job-2.odb,Step-1,Increment      1: Step Time =    1.000,"P-2-1",          6475,   166.776E-03,   29.4672E-03,            0.,NA,NA,"",   1.01547E+06,   1.01170E+06,   1.01170E+06
C:/temp/Job-2.odb,Step-1,Increment      1: Step Time =    1.000,"P-2-1",          6476,   33.2499E-03,   170.561E-03,            0.,NA,NA,"",   1.04012E+06,   1.06713E+06,   1.06713E+06
C:/temp/Job-2.odb,Step-1,Increment      1: Step Time =    1.000,"P-2-1",          6477,   29.4403E-03,   33.8106E-03,            0.,NA,NA,"",   1.02019E+06,   1.05999E+06,   1.05999E+06
C:/temp/Job-2.odb,Step-1,Increment      1: Step Time =    1.000,"P-2-1",          6478,   31.3106E-03,   34.7838E-03,            0.,NA,NA,"",   1.02105E+06,   1.05835E+06,   1.05835E+06
C:/temp/Job-2.odb,Step-1,Increment      1: Step Time =    1.000,"P-2-1",          6479,   117.646E-03,   17.0647E-03,            0.,NA,NA,"",   984.434E+03,   986.542E+03,   986.542E+03
C:/temp/Job-2.odb,Step-1,Increment      1: Step Time =    1.000,"P-2-1",          6480,   22.5836E-03,   51.9709E-03,            0.,NA,NA,"",   931.791E+03,   1.00124E+06,   1.00124E+06
C:/temp/Job-2.odb,Step-1,Increment      1: Step Time =    1.000,"P-2-1",          6481,   177.348E-03,   147.921E-03,            0.,NA,NA,"",   1.01054E+06,   1.01055E+06,   1.01055E+06
C:/temp/Job-2.odb,Step-1,Increment      1: Step Time =    1.000,"P-2-1",          6482,   47.1378E-03,   12.4349E-03,            0.,NA,NA,"",   1.02044E+06,   1.02219E+06,   1.02219E+06
C:/temp/Job-2.odb,Step-1,Increment      1: Step Time =    1.000,"P-2-1",          6483,   152.769E-03,   188.156E-03,            0.,NA,NA,"",   998.313E+03,   996.942E+03,   996.942E+03
C:/temp/Job-2.odb,Step-1,Increment      1: Step Time =    1.000,"P-2-1",          6484,   152.809E-03,   186.198E-03,            0.,NA,NA,"",   1.00077E+06,   998.996E+03,   998.996E+03
C:/temp/Job-2.odb,Step-1,Increment      1: Step Time =    1.000,"P-2-1",          6485,   150.924E-03,   185.286E-03,            0.,NA,NA,"",   1.00128E+06,   999.310E+03,   999.310E+03
C:/temp/Job-2.odb,Step-1,Increment      1: Step Time =    1.000,"P-2-1",          6486,   188.406E-03,   47.1601E-03,            0.,NA,NA,"",   999.522E+03,   1.00336E+06,   1.00336E+06
C:/temp/Job-2.odb,Step-1,Increment      1: Step Time =    1.000,"P-2-1",          6487,   186.565E-03,   47.1241E-03,            0.,NA,NA,"",   1.00098E+06,   1.00428E+06,   1.00428E+06
C:/temp/Job-2.odb,Step-1,Increment      1: Step Time =    1.000,"P-2-1",          6488,   185.731E-03,   48.9245E-03,            0.,NA,NA,"",   1.00101E+06,   1.00460E+06,   1.00460E+06
C:/temp/Job-2.odb,Step-1,Increment      1: Step Time =    1.000,"P-2-1",          6489,   11.5997E-03,   152.833E-03,            0.,NA,NA,"",   902.994E+03,   991.783E+03,   991.783E+03
C:/temp/Job-2.odb,Step-1,Increment      1: Step Time =    1.000,"P-2-1",          6490,   13.4444E-03,   152.869E-03,            0.,NA,NA,"",   910.479E+03,   995.870E+03,   995.870E+03
C:/temp/Job-2.odb,Step-1,Increment      1: Step Time =    1.000,"P-2-1",          6491,   14.2894E-03,   151.058E-03,            0.,NA,NA,"",   907.299E+03,   992.094E+03,   992.094E+03
C:/temp/Job-2.odb,Step-1,Increment      1: Step Time =    1.000,"P-2-1",          6492,   60.5601E-03,   87.6398E-03,            0.,NA,NA,"",   859.976E+03,    884.36E+03,    884.36E+03
C:/temp/Job-2.odb,Step-1,Increment      1: Step Time =    1.000,"P-2-1",          6493,   49.6044E-03,   14.9057E-03,            0.,NA,NA,"",   1.02332E+06,   1.02536E+06,   1.02536E+06
C:/temp/Job-2.odb,Step-1,Increment      1: Step Time =    1.000,"P-2-1",          6494,   59.6830E-03,   117.186E-03,            0.,NA,NA,"",   929.650E+03,   944.510E+03,   944.510E+03
C:/temp/Job-2.odb,Step-1,Increment      1: Step Time =    1.000,"P-2-1",          6495,   42.6841E-03,   29.5376E-03,            0.,NA,NA,"",   1.04519E+06,   1.05979E+06,   1.05979E+06
C:/temp/Job-2.odb,Step-1,Increment      1: Step Time =    1.000,"P-2-1",          6496,   157.381E-03,   170.537E-03,            0.,NA,NA,"",   1.02276E+06,   1.01690E+06,   1.01690E+06
C:/temp/Job-2.odb,Step-1,Increment      1: Step Time =    1.000,"P-2-1",          6497,   50.5966E-03,   97.5187E-03,            0.,NA,NA,"",   794.474E+03,   850.625E+03,   850.625E+03
C:/temp/Job-2.odb,Step-1,Increment      1: Step Time =    1.000,"P-2-1",          6498,   118.152E-03,   61.6432E-03,            0.,NA,NA,"",   1.13427E+06,   1.13355E+06,   1.13355E+06
C:/temp/Job-2.odb,Step-1,Increment      1: Step Time =    1.000,"P-2-1",          6499,   68.9071E-03,   70.8638E-03,            0.,NA,NA,"",   1.11799E+06,   1.09821E+06,   1.09821E+06
C:/temp/Job-2.odb,Step-1,Increment      1: Step Time =    1.000,"P-2-1",          6500,   135.360E-03,   72.2327E-03,            0.,NA,NA,"",   1.12062E+06,   1.07501E+06,   1.07501E+06
C:/temp/Job-2.odb,Step-1,Increment      1: Step Time =    1.000,"P-2-1",          6501,   34.9894E-03,   46.0617E-03,            0.,NA,NA,"",   998.668E+03,   1.03906E+06,   1.03906E+06
C:/temp/Job-2.odb,Step-1,Increment      1: Step Time =    1.000,"P-2-1",          6502,   18.8227E-03,   74.6662E-03,            0.,NA,NA,"",   844.378E+03,   929.484E+03,   929.484E+03
C:/temp/Job-2.odb,Step-1,Increment      1: Step Time =    1.000,"P-2-1",          6503,   23.8007E-03,   79.5824E-03,            0.,NA,NA,"",   843.503E+03,   923.622E+03,   923.622E+03
C:/temp/Job-2.odb,Step-1,Increment      1: Step Time =    1.000,"P-2-1",          6504,   153.551E-03,   34.5957E-03,            0.,NA,NA,"",   1.03360E+06,   1.02523E+06,   1.02523E+06
C:/temp/Job-2.odb,Step-1,Increment      1: Step Time =    1.000,"P-2-1",          6505,   165.680E-03,   154.764E-03,            0.,NA,NA,"",   1.02856E+06,   1.02164E+06,   1.02164E+06
C:/temp/Job-2.odb,Step-1,Increment      1: Step Time =    1.000,"P-2-1",          6506,   46.0709E-03,   165.283E-03,            0.,NA,NA,"",   1.04469E+06,   1.05919E+06,   1.05919E+06
C:/temp/Job-2.odb,Step-1,Increment      1: Step Time =    1.000,"P-2-1",          6507,   22.3674E-03,   88.4173E-03,            0.,NA,NA,"",   819.837E+03,   903.939E+03,   903.939E+03
C:/temp/Job-2.odb,Step-1,Increment      1: Step Time =    1.000,"P-2-1",          6508,   124.668E-03,   18.9058E-03,            0.,NA,NA,"",   994.965E+03,   995.371E+03,   995.371E+03
C:/temp/Job-2.odb,Step-1,Increment      1: Step Time =    1.000,"P-2-1",          6509,   170.909E-03,   42.8961E-03,            0.,NA,NA,"",   1.01973E+06,   1.01567E+06,   1.01567E+06
C:/temp/Job-2.odb,Step-1,Increment      1: Step Time =    1.000,"P-2-1",          6510,   180.201E-03,   124.957E-03,            0.,NA,NA,"",   987.009E+03,   997.681E+03,   997.681E+03
C:/temp/Job-2.odb,Step-1,Increment      1: Step Time =    1.000,"P-2-1",          6511,   178.312E-03,   124.382E-03,            0.,NA,NA,"",   987.389E+03,   996.861E+03,   996.861E+03
C:/temp/Job-2.odb,Step-1,Increment      1: Step Time =    1.000,"P-2-1",          6512,   182.970E-03,   128.150E-03,            0.,NA,NA,"",   988.576E+03,   999.813E+03,   999.813E+03
C:/temp/Job-2.odb,Step-1,Increment      1: Step Time =    1.000,"P-2-1",          6513,   75.3414E-03,   180.929E-03,            0.,NA,NA,"",   1.00029E+06,   1.00272E+06,   1.00272E+06
C:/temp/Job-2.odb,Step-1,Increment      1: Step Time =    1.000,"P-2-1",          6514,   29.0725E-03,   157.126E-03,            0.,NA,NA,"",   988.439E+03,   1.03804E+06,   1.03804E+06
C:/temp/Job-2.odb,Step-1,Increment      1: Step Time =    1.000,"P-2-1",          6515,   174.696E-03,   93.6468E-03,            0.,NA,NA,"",   961.175E+03,   976.068E+03,   976.068E+03
C:/temp/Job-2.odb,Step-1,Increment      1: Step Time =    1.000,"P-2-1",          6516,   86.8633E-03,   61.4229E-03,            0.,NA,NA,"",   1.09987E+06,   1.12973E+06,   1.12973E+06
C:/temp/Job-2.odb,Step-1,Increment      1: Step Time =    1.000,"P-2-1",          6517,   139.190E-03,   106.845E-03,            0.,NA,NA,"",   838.849E+03,   841.086E+03,   841.086E+03
C:/temp/Job-2.odb,Step-1,Increment      1: Step Time =    1.000,"P-2-1",          6518,   107.214E-03,   146.715E-03,            0.,NA,NA,"",   1.04045E+06,   1.07585E+06,   1.07585E+06
C:/temp/Job-2.odb,Step-1,Increment      1: Step Time =    1.000,"P-2-1",          6519,   74.5946E-03,   135.440E-03,            0.,NA,NA,"",   1.14068E+06,   1.13035E+06,   1.13035E+06
C:/temp/Job-2.odb,Step-1,Increment      1: Step Time =    1.000,"P-2-1",          6520,   70.7462E-03,   132.930E-03,            0.,NA,NA,"",   1.13142E+06,   1.11547E+06,   1.11547E+06
C:/temp/Job-2.odb,Step-1,Increment      1: Step Time =    1.000,"P-2-1",          6521,   143.581E-03,   81.9581E-03,            0.,NA,NA,"",   992.053E+03,   971.491E+03,   971.491E+03
C:/temp/Job-2.odb,Step-1,Increment      1: Step Time =    1.000,"P-2-1",          6522,   148.072E-03,   87.5356E-03,            0.,NA,NA,"",   932.780E+03,   929.549E+03,   929.549E+03
C:/temp/Job-2.odb,Step-1,Increment      1: Step Time =    1.000,"P-2-1",          6523,   33.5601E-03,   164.692E-03,            0.,NA,NA,"",   1.02529E+06,   1.05849E+06,   1.05849E+06
C:/temp/Job-2.odb,Step-1,Increment      1: Step Time =    1.000,"P-2-1",          6524,   25.6947E-03,   106.128E-03,            0.,NA,NA,"",   816.373E+03,   897.914E+03,   897.914E+03
C:/temp/Job-2.odb,Step-1,Increment      1: Step Time =    1.000,"P-2-1",          6525,   85.0686E-03,   178.668E-03,            0.,NA,NA,"",   994.918E+03,   1.00034E+06,   1.00034E+06
C:/temp/Job-2.odb,Step-1,Increment      1: Step Time =    1.000,"P-2-1",          6526,   98.4852E-03,   172.249E-03,            0.,NA,NA,"",   997.689E+03,   1.00935E+06,   1.00935E+06
C:/temp/Job-2.odb,Step-1,Increment      1: Step Time =    1.000,"P-2-1",          6527,   166.621E-03,   35.3019E-03,            0.,NA,NA,"",   1.02077E+06,   1.01584E+06,   1.01584E+06
C:/temp/Job-2.odb,Step-1,Increment      1: Step Time =    1.000,"P-2-1",          6528,   32.5738E-03,   33.0413E-03,            0.,NA,NA,"",   1.02898E+06,   1.06189E+06,   1.06189E+06
C:/temp/Job-2.odb,Step-1,Increment      1: Step Time =    1.000,"P-2-1",          6529,   104.816E-03,   26.8875E-03,            0.,NA,NA,"",   996.698E+03,   1.00688E+06,   1.00688E+06
C:/temp/Job-2.odb,Step-1,Increment      1: Step Time =    1.000,"P-2-1",          6530,   51.2236E-03,   94.5973E-03,            0.,NA,NA,"",   802.973E+03,   856.637E+03,   856.637E+03
C:/temp/Job-2.odb,Step-1,Increment      1: Step Time =    1.000,"P-2-1",          6531,   20.6408E-03,   112.359E-03,            0.,NA,NA,"",   817.997E+03,   903.932E+03,   903.932E+03
C:/temp/Job-2.odb,Step-1,Increment      1: Step Time =    1.000,"P-2-1",          6532,   18.6764E-03,   63.8333E-03,            0.,NA,NA,"",   875.710E+03,   957.901E+03,   957.901E+03
C:/temp/Job-2.odb,Step-1,Increment      1: Step Time =    1.000,"P-2-1",          6533,   181.322E-03,   136.118E-03,            0.,NA,NA,"",   997.754E+03,   1.00426E+06,   1.00426E+06
C:/temp/Job-2.odb,Step-1,Increment      1: Step Time =    1.000,"P-2-1",          6534,   108.552E-03,   178.560E-03,            0.,NA,NA,"",   987.605E+03,   993.463E+03,   993.463E+03
C:/temp/Job-2.odb,Step-1,Increment      1: Step Time =    1.000,"P-2-1",          6535,   90.9927E-03,   22.3045E-03,            0.,NA,NA,"",   991.519E+03,   998.682E+03,   998.682E+03
C:/temp/Job-2.odb,Step-1,Increment      1: Step Time =    1.000,"P-2-1",          6536,   164.616E-03,   36.0521E-03,            0.,NA,NA,"",   1.02343E+06,   1.01772E+06,   1.01772E+06
C:/temp/Job-2.odb,Step-1,Increment      1: Step Time =    1.000,"P-2-1",          6537,   35.6281E-03,   163.975E-03,            0.,NA,NA,"",   1.02825E+06,   1.05820E+06,   1.05820E+06
C:/temp/Job-2.odb,Step-1,Increment      1: Step Time =    1.000,"P-2-1",          6538,   140.243E-03,   109.827E-03,            0.,NA,NA,"",   884.958E+03,   879.275E+03,   879.275E+03
C:/temp/Job-2.odb,Step-1,Increment      1: Step Time =    1.000,"P-2-1",          6539,   109.295E-03,   176.982E-03,            0.,NA,NA,"",   991.190E+03,   997.653E+03,   997.653E+03
C:/temp/Job-2.odb,Step-1,Increment      1: Step Time =    1.000,"P-2-1",          6540,   178.009E-03,   51.6121E-03,            0.,NA,NA,"",   1.00969E+06,   1.01003E+06,   1.01003E+06
C:/temp/Job-2.odb,Step-1,Increment      1: Step Time =    1.000,"P-2-1",          6541,   88.9754E-03,   23.0908E-03,            0.,NA,NA,"",   995.046E+03,   1.00241E+06,   1.00241E+06
C:/temp/Job-2.odb,Step-1,Increment      1: Step Time =    1.000,"P-2-1",          6542,   22.0789E-03,   148.282E-03,            0.,NA,NA,"",   931.046E+03,   1.00129E+06,   1.00129E+06
C:/temp/Job-2.odb,Step-1,Increment      1: Step Time =    1.000,"P-2-1",          6543,   74.5192E-03,   138.661E-03,            0.,NA,NA,"",   1.12650E+06,   1.12172E+06,   1.12172E+06
C:/temp/Job-2.odb,Step-1,Increment      1: Step Time =    1.000,"P-2-1",          6544,   173.221E-03,   110.734E-03,            0.,NA,NA,"",   964.821E+03,   977.436E+03,   977.436E+03
C:/temp/Job-2.odb,Step-1,Increment      1: Step Time =    1.000,"P-2-1",          6545,   52.9084E-03,   176.042E-03,            0.,NA,NA,"",   1.03830E+06,   1.04252E+06,   1.04252E+06
C:/temp/Job-2.odb,Step-1,Increment      1: Step Time =    1.000,"P-2-1",          6546,   32.2163E-03,   158.781E-03,            0.,NA,NA,"",   1.00402E+06,   1.04591E+06,   1.04591E+06
C:/temp/Job-2.odb,Step-1,Increment      1: Step Time =    1.000,"P-2-1",          6547,   147.089E-03,   23.3951E-03,            0.,NA,NA,"",   1.01624E+06,   1.01170E+06,   1.01170E+06
C:/temp/Job-2.odb,Step-1,Increment      1: Step Time =    1.000,"P-2-1",          6548,   167.839E-03,   41.2370E-03,            0.,NA,NA,"",   1.02317E+06,   1.01785E+06,   1.01785E+06
C:/temp/Job-2.odb,Step-1,Increment      1: Step Time =    1.000,"P-2-1",          6549,   122.486E-03,   68.0834E-03,            0.,NA,NA,"",   1.18905E+06,   1.15683E+06,   1.15683E+06
C:/temp/Job-2.odb,Step-1,Increment      1: Step Time =    1.000,"P-2-1",          6550,   167.498E-03,   161.028E-03,            0.,NA,NA,"",   1.02245E+06,   1.01724E+06,   1.01724E+06
C:/temp/Job-2.odb,Step-1,Increment      1: Step Time =    1.000,"P-2-1",          6551,   34.1657E-03,   37.1340E-03,            0.,NA,NA,"",   1.02079E+06,   1.05518E+06,   1.05518E+06
C:/temp/Job-2.odb,Step-1,Increment      1: Step Time =    1.000,"P-2-1",          6552,   162.775E-03,   34.9465E-03,            0.,NA,NA,"",   1.02448E+06,   1.01842E+06,   1.01842E+06
C:/temp/Job-2.odb,Step-1,Increment      1: Step Time =    1.000,"P-2-1",          6553,   29.8106E-03,   98.1918E-03,            0.,NA,NA,"",   816.523E+03,   894.288E+03,   894.288E+03
C:/temp/Job-2.odb,Step-1,Increment      1: Step Time =    1.000,"P-2-1",          6554,   180.336E-03,   54.1340E-03,            0.,NA,NA,"",   1.00546E+06,   1.00783E+06,   1.00783E+06
C:/temp/Job-2.odb,Step-1,Increment      1: Step Time =    1.000,"P-2-1",          6555,   37.8241E-03,   165.144E-03,            0.,NA,NA,"",   1.03346E+06,   1.05925E+06,   1.05925E+06
C:/temp/Job-2.odb,Step-1,Increment      1: Step Time =    1.000,"P-2-1",          6556,   19.7786E-03,   145.714E-03,            0.,NA,NA,"",   911.968E+03,   988.284E+03,   988.284E+03
C:/temp/Job-2.odb,Step-1,Increment      1: Step Time =    1.000,"P-2-1",          6557,   128.391E-03,   136.626E-03,            0.,NA,NA,"",   1.14818E+06,   1.11725E+06,   1.11725E+06
C:/temp/Job-2.odb,Step-1,Increment      1: Step Time =    1.000,"P-2-1",          6558,   98.8320E-03,   49.9540E-03,            0.,NA,NA,"",   1.02455E+06,   1.06179E+06,   1.06179E+06
C:/temp/Job-2.odb,Step-1,Increment      1: Step Time =    1.000,"P-2-1",          6559,   64.1262E-03,   78.8977E-03,            0.,NA,NA,"",   1.01789E+06,   1.01016E+06,   1.01016E+06
C:/temp/Job-2.odb,Step-1,Increment      1: Step Time =    1.000,"P-2-1",          6560,   86.2112E-03,   53.7171E-03,            0.,NA,NA,"",   1.06651E+06,   1.09187E+06,   1.09187E+06
C:/temp/Job-2.odb,Step-1,Increment      1: Step Time =    1.000,"P-2-1",          6561,   73.5413E-03,   179.070E-03,            0.,NA,NA,"",   1.00801E+06,   1.01067E+06,   1.01067E+06
C:/temp/Job-2.odb,Step-1,Increment      1: Step Time =    1.000,"P-2-1",          6562,   20.2329E-03,   72.7062E-03,            0.,NA,NA,"",   854.454E+03,   937.098E+03,   937.098E+03
C:/temp/Job-2.odb,Step-1,Increment      1: Step Time =    1.000,"P-2-1",          6563,   126.537E-03,   20.6002E-03,            0.,NA,NA,"",   1.00066E+06,   1.00054E+06,   1.00054E+06
C:/temp/Job-2.odb,Step-1,Increment      1: Step Time =    1.000,"P-2-1",          6564,   120.360E-03,   65.2758E-03,            0.,NA,NA,"",   1.16807E+06,   1.15084E+06,   1.15084E+06
C:/temp/Job-2.odb,Step-1,Increment      1: Step Time =    1.000,"P-2-1",          6565,   122.224E-03,   65.6021E-03,            0.,NA,NA,"",   1.17350E+06,   1.14832E+06,   1.14832E+06
C:/temp/Job-2.odb,Step-1,Increment      1: Step Time =    1.000,"P-2-1",          6566,   35.4870E-03,   36.0628E-03,            0.,NA,NA,"",   1.02695E+06,   1.05759E+06,   1.05759E+06
C:/temp/Job-2.odb,Step-1,Increment      1: Step Time =    1.000,"P-2-1",          6567,   130.716E-03,   67.6348E-03,            0.,NA,NA,"",   1.15254E+06,   1.11069E+06,   1.11069E+06
C:/temp/Job-2.odb,Step-1,Increment      1: Step Time =    1.000,"P-2-1",          6568,   54.6877E-03,   117.208E-03,            0.,NA,NA,"",   906.380E+03,   935.655E+03,   935.655E+03
C:/temp/Job-2.odb,Step-1,Increment      1: Step Time =    1.000,"P-2-1",          6569,   57.9228E-03,   118.499E-03,            0.,NA,NA,"",   933.418E+03,   951.987E+03,   951.987E+03
C:/temp/Job-2.odb,Step-1,Increment      1: Step Time =    1.000,"P-2-1",          6570,   52.4127E-03,   117.278E-03,            0.,NA,NA,"",   898.317E+03,   933.233E+03,   933.233E+03
C:/temp/Job-2.odb,Step-1,Increment      1: Step Time =    1.000,"P-2-1",          6571,   48.6860E-03,   172.250E-03,            0.,NA,NA,"",   1.04518E+06,   1.05329E+06,   1.05329E+06
C:/temp/Job-2.odb,Step-1,Increment      1: Step Time =    1.000,"P-2-1",          6572,   47.9020E-03,   169.807E-03,            0.,NA,NA,"",   1.04653E+06,   1.05650E+06,   1.05650E+06
C:/temp/Job-2.odb,Step-1,Increment      1: Step Time =    1.000,"P-2-1",          6573,   151.622E-03,   26.7462E-03,            0.,NA,NA,"",   1.02130E+06,   1.01571E+06,   1.01571E+06
C:/temp/Job-2.odb,Step-1,Increment      1: Step Time =    1.000,"P-2-1",          6574,   151.585E-03,   30.2442E-03,            0.,NA,NA,"",   1.02750E+06,   1.02061E+06,   1.02061E+06
C:/temp/Job-2.odb,Step-1,Increment      1: Step Time =    1.000,"P-2-1",          6575,   157.939E-03,   162.071E-03,            0.,NA,NA,"",   1.03376E+06,   1.02523E+06,   1.02523E+06
C:/temp/Job-2.odb,Step-1,Increment      1: Step Time =    1.000,"P-2-1",          6576,   132.901E-03,   125.670E-03,            0.,NA,NA,"",   1.13534E+06,   1.08320E+06,   1.08320E+06
C:/temp/Job-2.odb,Step-1,Increment      1: Step Time =    1.000,"P-2-1",          6577,   73.4688E-03,   141.681E-03,            0.,NA,NA,"",   1.11198E+06,   1.11036E+06,   1.11036E+06
C:/temp/Job-2.odb,Step-1,Increment      1: Step Time =    1.000,"P-2-1",          6578,   70.9514E-03,   62.9830E-03,            0.,NA,NA,"",   1.12323E+06,   1.11373E+06,   1.11373E+06
C:/temp/Job-2.odb,Step-1,Increment      1: Step Time =    1.000,"P-2-1",          6579,   72.8892E-03,   56.1365E-03,            0.,NA,NA,"",   1.10376E+06,   1.10389E+06,   1.10389E+06
C:/temp/Job-2.odb,Step-1,Increment      1: Step Time =    1.000,"P-2-1",          6580,   111.482E-03,   47.2671E-03,            0.,NA,NA,"",   1.04031E+06,   1.06106E+06,   1.06106E+06
C:/temp/Job-2.odb,Step-1,Increment      1: Step Time =    1.000,"P-2-1",          6581,   26.5842E-03,   49.1325E-03,            0.,NA,NA,"",   957.223E+03,   1.01709E+06,   1.01709E+06
C:/temp/Job-2.odb,Step-1,Increment      1: Step Time =    1.000,"P-2-1",          6582,   30.6830E-03,   48.7512E-03,            0.,NA,NA,"",   974.254E+03,   1.02543E+06,   1.02543E+06
C:/temp/Job-2.odb,Step-1,Increment      1: Step Time =    1.000,"P-2-1",          6583,   181.043E-03,   127.652E-03,            0.,NA,NA,"",   989.449E+03,   999.479E+03,   999.479E+03
C:/temp/Job-2.odb,Step-1,Increment      1: Step Time =    1.000,"P-2-1",          6584,   176.261E-03,   126.429E-03,            0.,NA,NA,"",   991.365E+03,    998.44E+03,    998.44E+03
C:/temp/Job-2.odb,Step-1,Increment      1: Step Time =    1.000,"P-2-1",          6585,   173.246E-03,   150.739E-03,            0.,NA,NA,"",   1.01705E+06,   1.01433E+06,   1.01433E+06
C:/temp/Job-2.odb,Step-1,Increment      1: Step Time =    1.000,"P-2-1",          6586,   169.152E-03,   151.522E-03,            0.,NA,NA,"",   1.02355E+06,    1.0184E+06,    1.0184E+06
C:/temp/Job-2.odb,Step-1,Increment      1: Step Time =    1.000,"P-2-1",          6587,   19.7891E-03,   121.426E-03,            0.,NA,NA,"",   836.297E+03,   921.190E+03,   921.190E+03
C:/temp/Job-2.odb,Step-1,Increment      1: Step Time =    1.000,"P-2-1",          6588,   18.6448E-03,   115.973E-03,            0.,NA,NA,"",   821.288E+03,   908.530E+03,   908.530E+03
C:/temp/Job-2.odb,Step-1,Increment      1: Step Time =    1.000,"P-2-1",          6589,   21.8332E-03,   117.766E-03,            0.,NA,NA,"",   831.802E+03,   915.284E+03,   915.284E+03
C:/temp/Job-2.odb,Step-1,Increment      1: Step Time =    1.000,"P-2-1",          6590,   24.6463E-03,   88.5859E-03,            0.,NA,NA,"",   823.530E+03,   905.179E+03,   905.179E+03
C:/temp/Job-2.odb,Step-1,Increment      1: Step Time =    1.000,"P-2-1",          6591,   78.5330E-03,   19.8449E-03,            0.,NA,NA,"",   998.477E+03,   1.00186E+06,   1.00186E+06
C:/temp/Job-2.odb,Step-1,Increment      1: Step Time =    1.000,"P-2-1",          6592,   84.1777E-03,   18.4171E-03,            0.,NA,NA,"",   988.071E+03,   992.077E+03,   992.077E+03
C:/temp/Job-2.odb,Step-1,Increment      1: Step Time =    1.000,"P-2-1",          6593,   81.6262E-03,   21.6577E-03,            0.,NA,NA,"",   999.612E+03,   1.00440E+06,   1.00440E+06
C:/temp/Job-2.odb,Step-1,Increment      1: Step Time =    1.000,"P-2-1",          6594,   151.349E-03,   174.345E-03,            0.,NA,NA,"",   1.01956E+06,   1.01435E+06,   1.01435E+06
C:/temp/Job-2.odb,Step-1,Increment      1: Step Time =    1.000,"P-2-1",          6595,   176.913E-03,   86.7769E-03,            0.,NA,NA,"",   970.706E+03,   984.622E+03,   984.622E+03
C:/temp/Job-2.odb,Step-1,Increment      1: Step Time =    1.000,"P-2-1",          6596,   102.478E-03,   32.1010E-03,            0.,NA,NA,"",   1.00428E+06,   1.01904E+06,   1.01904E+06
C:/temp/Job-2.odb,Step-1,Increment      1: Step Time =    1.000,"P-2-1",          6597,   42.3169E-03,   36.9082E-03,            0.,NA,NA,"",   1.03816E+06,   1.05890E+06,   1.05890E+06
C:/temp/Job-2.odb,Step-1,Increment      1: Step Time =    1.000,"P-2-1",          6598,   92.9252E-03,   30.5735E-03,            0.,NA,NA,"",   1.00567E+06,   1.01897E+06,   1.01897E+06
C:/temp/Job-2.odb,Step-1,Increment      1: Step Time =    1.000,"P-2-1",          6599,   109.870E-03,   148.340E-03,            0.,NA,NA,"",   1.04606E+06,   1.07386E+06,   1.07386E+06
C:/temp/Job-2.odb,Step-1,Increment      1: Step Time =    1.000,"P-2-1",          6600,   103.840E-03,   150.642E-03,            0.,NA,NA,"",   1.02618E+06,   1.06011E+06,   1.06011E+06
C:/temp/Job-2.odb,Step-1,Increment      1: Step Time =    1.000,"P-2-1",          6601,   49.4993E-03,   100.334E-03,            0.,NA,NA,"",   797.049E+03,   854.538E+03,   854.538E+03
C:/temp/Job-2.odb,Step-1,Increment      1: Step Time =    1.000,"P-2-1",          6602,   47.2972E-03,   96.6849E-03,            0.,NA,NA,"",   806.803E+03,   865.775E+03,   865.775E+03
C:/temp/Job-2.odb,Step-1,Increment      1: Step Time =    1.000,"P-2-1",          6603,   20.5538E-03,   115.285E-03,            0.,NA,NA,"",   823.461E+03,   908.793E+03,   908.793E+03
C:/temp/Job-2.odb,Step-1,Increment      1: Step Time =    1.000,"P-2-1",          6604,   23.0960E-03,   113.045E-03,            0.,NA,NA,"",   823.933E+03,   907.008E+03,   907.008E+03
C:/temp/Job-2.odb,Step-1,Increment      1: Step Time =    1.000,"P-2-1",          6605,   52.8042E-03,   87.2754E-03,            0.,NA,NA,"",   857.760E+03,   899.223E+03,   899.223E+03
C:/temp/Job-2.odb,Step-1,Increment      1: Step Time =    1.000,"P-2-1",          6606,   124.855E-03,   67.3115E-03,            0.,NA,NA,"",   1.17742E+06,   1.14150E+06,   1.14150E+06
C:/temp/Job-2.odb,Step-1,Increment      1: Step Time =    1.000,"P-2-1",          6607,   121.350E-03,   56.4618E-03,            0.,NA,NA,"",   1.11063E+06,   1.10608E+06,   1.10608E+06
C:/temp/Job-2.odb,Step-1,Increment      1: Step Time =    1.000,"P-2-1",          6608,   146.855E-03,   82.2037E-03,            0.,NA,NA,"",   981.412E+03,   967.057E+03,   967.057E+03
C:/temp/Job-2.odb,Step-1,Increment      1: Step Time =    1.000,"P-2-1",          6609,   143.057E-03,   99.4603E-03,            0.,NA,NA,"",   824.108E+03,   836.774E+03,   836.774E+03
C:/temp/Job-2.odb,Step-1,Increment      1: Step Time =    1.000,"P-2-1",          6610,   85.1501E-03,   19.8492E-03,            0.,NA,NA,"",   991.179E+03,   996.062E+03,   996.062E+03
C:/temp/Job-2.odb,Step-1,Increment      1: Step Time =    1.000,"P-2-1",          6611,   86.6231E-03,   22.5002E-03,            0.,NA,NA,"",   995.866E+03,   1.00231E+06,   1.00231E+06
C:/temp/Job-2.odb,Step-1,Increment      1: Step Time =    1.000,"P-2-1",          6612,   115.331E-03,   179.035E-03,            0.,NA,NA,"",   991.553E+03,   995.414E+03,   995.414E+03
C:/temp/Job-2.odb,Step-1,Increment      1: Step Time =    1.000,"P-2-1",          6613,   100.150E-03,   169.007E-03,            0.,NA,NA,"",   1.00237E+06,   1.01665E+06,   1.01665E+06
C:/temp/Job-2.odb,Step-1,Increment      1: Step Time =    1.000,"P-2-1",          6614,   102.445E-03,   168.413E-03,            0.,NA,NA,"",   1.00346E+06,   1.01778E+06,   1.01778E+06
C:/temp/Job-2.odb,Step-1,Increment      1: Step Time =    1.000,"P-2-1",          6615,   27.4442E-03,   108.859E-03,            0.,NA,NA,"",   822.433E+03,   901.639E+03,   901.639E+03
C:/temp/Job-2.odb,Step-1,Increment      1: Step Time =    1.000,"P-2-1",          6616,   178.180E-03,   76.7910E-03,            0.,NA,NA,"",   985.400E+03,   995.449E+03,   995.449E+03
C:/temp/Job-2.odb,Step-1,Increment      1: Step Time =    1.000,"P-2-1",          6617,   122.834E-03,   178.512E-03,            0.,NA,NA,"",   999.407E+03,   1.00071E+06,   1.00071E+06
C:/temp/Job-2.odb,Step-1,Increment      1: Step Time =    1.000,"P-2-1",          6618,   91.2549E-03,   28.2813E-03,            0.,NA,NA,"",   1.00322E+06,   1.01430E+06,   1.01430E+06
C:/temp/Job-2.odb,Step-1,Increment      1: Step Time =    1.000,"P-2-1",          6619,   164.781E-03,   159.635E-03,            0.,NA,NA,"",   1.02686E+06,   1.02033E+06,   1.02033E+06
C:/temp/Job-2.odb,Step-1,Increment      1: Step Time =    1.000,"P-2-1",          6620,   162.894E-03,   153.140E-03,            0.,NA,NA,"",   1.03399E+06,   1.02532E+06,   1.02532E+06
C:/temp/Job-2.odb,Step-1,Increment      1: Step Time =    1.000,"P-2-1",          6621,   125.676E-03,   179.780E-03,            0.,NA,NA,"",   998.781E+03,   998.956E+03,   998.956E+03
C:/temp/Job-2.odb,Step-1,Increment      1: Step Time =    1.000,"P-2-1",          6622,   179.674E-03,   74.0316E-03,            0.,NA,NA,"",   988.545E+03,   998.398E+03,   998.398E+03
C:/temp/Job-2.odb,Step-1,Increment      1: Step Time =    1.000,"P-2-1",          6623,   55.4544E-03,   86.0324E-03,            0.,NA,NA,"",   872.718E+03,   906.343E+03,   906.343E+03
C:/temp/Job-2.odb,Step-1,Increment      1: Step Time =    1.000,"P-2-1",          6624,   126.309E-03,   146.422E-03,            0.,NA,NA,"",   1.10255E+06,   1.09122E+06,   1.09122E+06
C:/temp/Job-2.odb,Step-1,Increment      1: Step Time =    1.000,"P-2-1",          6625,   55.3605E-03,   84.0855E-03,            0.,NA,NA,"",   893.937E+03,   924.254E+03,   924.254E+03
C:/temp/Job-2.odb,Step-1,Increment      1: Step Time =    1.000,"P-2-1",          6626,   164.727E-03,   38.4546E-03,            0.,NA,NA,"",   1.02551E+06,   1.01930E+06,   1.01930E+06
C:/temp/Job-2.odb,Step-1,Increment      1: Step Time =    1.000,"P-2-1",          6627,   35.6382E-03,   161.519E-03,            0.,NA,NA,"",   1.02158E+06,   1.05426E+06,   1.05426E+06
C:/temp/Job-2.odb,Step-1,Increment      1: Step Time =    1.000,"P-2-1",          6628,   22.1144E-03,   71.7675E-03,            0.,NA,NA,"",   863.149E+03,   942.797E+03,   942.797E+03
C:/temp/Job-2.odb,Step-1,Increment      1: Step Time =    1.000,"P-2-1",          6629,   137.747E-03,   68.0701E-03,            0.,NA,NA,"",   1.11336E+06,   1.07514E+06,   1.07514E+06
C:/temp/Job-2.odb,Step-1,Increment      1: Step Time =    1.000,"P-2-1",          6630,   121.086E-03,   63.6964E-03,            0.,NA,NA,"",   1.15705E+06,   1.14132E+06,   1.14132E+06
C:/temp/Job-2.odb,Step-1,Increment      1: Step Time =    1.000,"P-2-1",          6631,   51.7738E-03,   17.4296E-03,            0.,NA,NA,"",   1.02656E+06,   1.02885E+06,   1.02885E+06
C:/temp/Job-2.odb,Step-1,Increment      1: Step Time =    1.000,"P-2-1",          6632,   91.3376E-03,   24.3289E-03,            0.,NA,NA,"",   995.519E+03,   1.00394E+06,   1.00394E+06
C:/temp/Job-2.odb,Step-1,Increment      1: Step Time =    1.000,"P-2-1",          6633,   53.7953E-03,   84.2037E-03,            0.,NA,NA,"",   888.228E+03,   922.348E+03,   922.348E+03
C:/temp/Job-2.odb,Step-1,Increment      1: Step Time =    1.000,"P-2-1",          6634,   143.789E-03,   25.6898E-03,            0.,NA,NA,"",   1.02074E+06,   1.01561E+06,   1.01561E+06
C:/temp/Job-2.odb,Step-1,Increment      1: Step Time =    1.000,"P-2-1",          6635,   56.2141E-03,   174.523E-03,            0.,NA,NA,"",   1.03820E+06,   1.04175E+06,   1.04175E+06
C:/temp/Job-2.odb,Step-1,Increment      1: Step Time =    1.000,"P-2-1",          6636,   26.8518E-03,   86.4535E-03,            0.,NA,NA,"",   831.626E+03,   910.246E+03,   910.246E+03
C:/temp/Job-2.odb,Step-1,Increment      1: Step Time =    1.000,"P-2-1",          6637,   129.008E-03,   66.9198E-03,            0.,NA,NA,"",   1.15909E+06,   1.11927E+06,   1.11927E+06
C:/temp/Job-2.odb,Step-1,Increment      1: Step Time =    1.000,"P-2-1",          6638,   26.0809E-03,   60.6772E-03,            0.,NA,NA,"",   914.720E+03,   982.658E+03,   982.658E+03
C:/temp/Job-2.odb,Step-1,Increment      1: Step Time =    1.000,"P-2-1",          6639,   173.971E-03,   139.127E-03,            0.,NA,NA,"",   1.01030E+06,   1.01024E+06,   1.01024E+06
C:/temp/Job-2.odb,Step-1,Increment      1: Step Time =    1.000,"P-2-1",          6640,   117.610E-03,   28.7645E-03,            0.,NA,NA,"",   1.01094E+06,   1.01610E+06,   1.01610E+06
C:/temp/Job-2.odb,Step-1,Increment      1: Step Time =    1.000,"P-2-1",          6641,   51.4292E-03,   92.2546E-03,            0.,NA,NA,"",   816.980E+03,   867.906E+03,   867.906E+03
C:/temp/Job-2.odb,Step-1,Increment      1: Step Time =    1.000,"P-2-1",          6642,   123.741E-03,   52.7549E-03,            0.,NA,NA,"",   1.09630E+06,   1.09017E+06,   1.09017E+06
C:/temp/Job-2.odb,Step-1,Increment      1: Step Time =    1.000,"P-2-1",          6643,   101.083E-03,   48.8135E-03,            0.,NA,NA,"",   1.02269E+06,   1.05769E+06,   1.05769E+06
C:/temp/Job-2.odb,Step-1,Increment      1: Step Time =    1.000,"P-2-1",          6644,   19.4153E-03,   69.3089E-03,            0.,NA,NA,"",   861.848E+03,   944.366E+03,   944.366E+03
C:/temp/Job-2.odb,Step-1,Increment      1: Step Time =    1.000,"P-2-1",          6645,   82.5116E-03,   172.256E-03,            0.,NA,NA,"",   1.01306E+06,   1.02074E+06,   1.02074E+06
C:/temp/Job-2.odb,Step-1,Increment      1: Step Time =    1.000,"P-2-1",          6646,   67.2997E-03,   68.9834E-03,            0.,NA,NA,"",   1.10747E+06,   1.09271E+06,   1.09271E+06
C:/temp/Job-2.odb,Step-1,Increment      1: Step Time =    1.000,"P-2-1",          6647,   69.2585E-03,   179.653E-03,            0.,NA,NA,"",   1.01170E+06,   1.01345E+06,   1.01345E+06
C:/temp/Job-2.odb,Step-1,Increment      1: Step Time =    1.000,"P-2-1",          6648,   27.5361E-03,   82.1985E-03,            0.,NA,NA,"",   844.566E+03,   920.754E+03,   920.754E+03
C:/temp/Job-2.odb,Step-1,Increment      1: Step Time =    1.000,"P-2-1",          6649,   130.764E-03,   19.8432E-03,            0.,NA,NA,"",   1.00219E+06,   1.00096E+06,   1.00096E+06
C:/temp/Job-2.odb,Step-1,Increment      1: Step Time =    1.000,"P-2-1",          6650,   62.9760E-03,   77.9178E-03,            0.,NA,NA,"",   1.01679E+06,   1.01216E+06,   1.01216E+06
C:/temp/Job-2.odb,Step-1,Increment      1: Step Time =    1.000,"P-2-1",          6651,   165.416E-03,   161.630E-03,            0.,NA,NA,"",   1.02447E+06,   1.01859E+06,   1.01859E+06
C:/temp/Job-2.odb,Step-1,Increment      1: Step Time =    1.000,"P-2-1",          6652,   180.276E-03,   87.0477E-03,            0.,NA,NA,"",   971.850E+03,   988.216E+03,   988.216E+03
C:/temp/Job-2.odb,Step-1,Increment      1: Step Time =    1.000,"P-2-1",          6653,   178.594E-03,   85.1021E-03,            0.,NA,NA,"",   973.481E+03,   987.879E+03,   987.879E+03
C:/temp/Job-2.odb,Step-1,Increment      1: Step Time =    1.000,"P-2-1",          6654,   65.1382E-03,   72.5808E-03,            0.,NA,NA,"",   1.07408E+06,   1.06254E+06,   1.06254E+06
C:/temp/Job-2.odb,Step-1,Increment      1: Step Time =    1.000,"P-2-1",          6655,   53.9123E-03,   80.2344E-03,            0.,NA,NA,"",   927.308E+03,   954.687E+03,   954.687E+03
C:/temp/Job-2.odb,Step-1,Increment      1: Step Time =    1.000,"P-2-1",          6656,   71.5398E-03,   138.479E-03,            0.,NA,NA,"",   1.11977E+06,   1.11264E+06,   1.11264E+06
C:/temp/Job-2.odb,Step-1,Increment      1: Step Time =    1.000,"P-2-1",          6657,   68.2569E-03,   136.842E-03,            0.,NA,NA,"",   1.11125E+06,   1.10266E+06,   1.10266E+06
C:/temp/Job-2.odb,Step-1,Increment      1: Step Time =    1.000,"P-2-1",          6658,   168.369E-03,   108.176E-03,            0.,NA,NA,"",   954.268E+03,   965.652E+03,   965.652E+03
C:/temp/Job-2.odb,Step-1,Increment      1: Step Time =    1.000,"P-2-1",          6659,   103.838E-03,   34.0406E-03,            0.,NA,NA,"",   1.00732E+06,   1.02348E+06,   1.02348E+06
C:/temp/Job-2.odb,Step-1,Increment      1: Step Time =    1.000,"P-2-1",          6660,   90.1831E-03,   32.5378E-03,            0.,NA,NA,"",   1.01182E+06,   1.02582E+06,   1.02582E+06
C:/temp/Job-2.odb,Step-1,Increment      1: Step Time =    1.000,"P-2-1",          6661,   146.526E-03,   27.5191E-03,            0.,NA,NA,"",   1.02439E+06,   1.01841E+06,   1.01841E+06
C:/temp/Job-2.odb,Step-1,Increment      1: Step Time =    1.000,"P-2-1",          6662,   149.905E-03,   28.1672E-03,            0.,NA,NA,"",   1.02464E+06,   1.01842E+06,   1.01842E+06
C:/temp/Job-2.odb,Step-1,Increment      1: Step Time =    1.000,"P-2-1",          6663,   39.1042E-03,   43.6427E-03,            0.,NA,NA,"",   1.01809E+06,   1.04895E+06,   1.04895E+06
C:/temp/Job-2.odb,Step-1,Increment      1: Step Time =    1.000,"P-2-1",          6664,   40.0462E-03,   47.7396E-03,            0.,NA,NA,"",   1.01125E+06,   1.04332E+06,   1.04332E+06
C:/temp/Job-2.odb,Step-1,Increment      1: Step Time =    1.000,"P-2-1",          6665,   142.013E-03,   129.879E-03,            0.,NA,NA,"",   1.08421E+06,   1.05102E+06,   1.05102E+06
C:/temp/Job-2.odb,Step-1,Increment      1: Step Time =    1.000,"P-2-1",          6666,   112.763E-03,   43.8974E-03,            0.,NA,NA,"",   1.03593E+06,   1.05239E+06,   1.05239E+06
C:/temp/Job-2.odb,Step-1,Increment      1: Step Time =    1.000,"P-2-1",          6667,   178.496E-03,   127.868E-03,            0.,NA,NA,"",   991.729E+03,   999.630E+03,   999.630E+03
C:/temp/Job-2.odb,Step-1,Increment      1: Step Time =    1.000,"P-2-1",          6668,   54.5298E-03,   172.950E-03,            0.,NA,NA,"",   1.04200E+06,   1.04666E+06,   1.04666E+06
C:/temp/Job-2.odb,Step-1,Increment      1: Step Time =    1.000,"P-2-1",          6669,   171.012E-03,   90.6800E-03,            0.,NA,NA,"",   960.034E+03,   972.136E+03,   972.136E+03
C:/temp/Job-2.odb,Step-1,Increment      1: Step Time =    1.000,"P-2-1",          6670,   148.687E-03,   173.778E-03,            0.,NA,NA,"",   1.02114E+06,   1.01569E+06,   1.01569E+06
C:/temp/Job-2.odb,Step-1,Increment      1: Step Time =    1.000,"P-2-1",          6671,   127.363E-03,   179.027E-03,            0.,NA,NA,"",   1.00200E+06,   1.00170E+06,   1.00170E+06
C:/temp/Job-2.odb,Step-1,Increment      1: Step Time =    1.000,"P-2-1",          6672,   29.9846E-03,   107.569E-03,            0.,NA,NA,"",   823.018E+03,   899.765E+03,   899.765E+03
C:/temp/Job-2.odb,Step-1,Increment      1: Step Time =    1.000,"P-2-1",          6673,   179.046E-03,   72.2816E-03,            0.,NA,NA,"",   991.018E+03,   999.553E+03,   999.553E+03
C:/temp/Job-2.odb,Step-1,Increment      1: Step Time =    1.000,"P-2-1",          6674,   52.3825E-03,   119.496E-03,            0.,NA,NA,"",   918.875E+03,   950.420E+03,   950.420E+03
C:/temp/Job-2.odb,Step-1,Increment      1: Step Time =    1.000,"P-2-1",          6675,   56.3899E-03,   119.110E-03,            0.,NA,NA,"",   933.240E+03,     955.2E+03,     955.2E+03
C:/temp/Job-2.odb,Step-1,Increment      1: Step Time =    1.000,"P-2-1",          6676,   85.1119E-03,   46.1128E-03,            0.,NA,NA,"",   1.04737E+06,   1.06721E+06,   1.06721E+06
C:/temp/Job-2.odb,Step-1,Increment      1: Step Time =    1.000,"P-2-1",          6677,   93.7901E-03,   43.5080E-03,            0.,NA,NA,"",   1.02240E+06,   1.04856E+06,   1.04856E+06
C:/temp/Job-2.odb,Step-1,Increment      1: Step Time =    1.000,"P-2-1",          6678,   134.638E-03,   130.924E-03,            0.,NA,NA,"",   1.13078E+06,   1.08863E+06,   1.08863E+06
C:/temp/Job-2.odb,Step-1,Increment      1: Step Time =    1.000,"P-2-1",          6679,   69.4267E-03,   59.9061E-03,            0.,NA,NA,"",   1.10923E+06,   1.10398E+06,   1.10398E+06
C:/temp/Job-2.odb,Step-1,Increment      1: Step Time =    1.000,"P-2-1",          6680,   122.235E-03,   61.6131E-03,            0.,NA,NA,"",   1.14201E+06,   1.12752E+06,   1.12752E+06
C:/temp/Job-2.odb,Step-1,Increment      1: Step Time =    1.000,"P-2-1",          6681,   124.411E-03,   55.6755E-03,            0.,NA,NA,"",   1.11187E+06,   1.10094E+06,   1.10094E+06
C:/temp/Job-2.odb,Step-1,Increment      1: Step Time =    1.000,"P-2-1",          6682,   131.508E-03,   65.5608E-03,            0.,NA,NA,"",   1.14425E+06,   1.10658E+06,   1.10658E+06
C:/temp/Job-2.odb,Step-1,Increment      1: Step Time =    1.000,"P-2-1",          6683,   97.8682E-03,   47.5942E-03,            0.,NA,NA,"",   1.02261E+06,   1.05595E+06,   1.05595E+06
C:/temp/Job-2.odb,Step-1,Increment      1: Step Time =    1.000,"P-2-1",          6684,   123.561E-03,   49.6246E-03,            0.,NA,NA,"",   1.08164E+06,   1.07849E+06,   1.07849E+06
C:/temp/Job-2.odb,Step-1,Increment      1: Step Time =    1.000,"P-2-1",          6685,   150.319E-03,   82.1691E-03,            0.,NA,NA,"",   977.470E+03,   967.831E+03,   967.831E+03
C:/temp/Job-2.odb,Step-1,Increment      1: Step Time =    1.000,"P-2-1",          6686,   112.526E-03,   149.768E-03,            0.,NA,NA,"",   1.05161E+06,   1.07227E+06,   1.07227E+06
C:/temp/Job-2.odb,Step-1,Increment      1: Step Time =    1.000,"P-2-1",          6687,   106.448E-03,   152.123E-03,            0.,NA,NA,"",   1.02869E+06,   1.05797E+06,   1.05797E+06
C:/temp/Job-2.odb,Step-1,Increment      1: Step Time =    1.000,"P-2-1",          6688,   46.4264E-03,   99.5831E-03,            0.,NA,NA,"",   805.844E+03,   866.231E+03,   866.231E+03
C:/temp/Job-2.odb,Step-1,Increment      1: Step Time =    1.000,"P-2-1",          6689,   43.9857E-03,   95.9465E-03,            0.,NA,NA,"",   815.201E+03,   877.379E+03,   877.379E+03
C:/temp/Job-2.odb,Step-1,Increment      1: Step Time =    1.000,"P-2-1",          6690,   21.1523E-03,   70.0838E-03,            0.,NA,NA,"",   864.319E+03,   944.978E+03,   944.978E+03
C:/temp/Job-2.odb,Step-1,Increment      1: Step Time =    1.000,"P-2-1",          6691,   128.973E-03,   22.0919E-03,            0.,NA,NA,"",   1.00583E+06,   1.00481E+06,   1.00481E+06
C:/temp/Job-2.odb,Step-1,Increment      1: Step Time =    1.000,"P-2-1",          6692,   71.2890E-03,   177.347E-03,            0.,NA,NA,"",   1.01529E+06,   1.01776E+06,   1.01776E+06
C:/temp/Job-2.odb,Step-1,Increment      1: Step Time =    1.000,"P-2-1",          6693,   44.8959E-03,   160.661E-03,            0.,NA,NA,"",   1.03941E+06,   1.05805E+06,   1.05805E+06
C:/temp/Job-2.odb,Step-1,Increment      1: Step Time =    1.000,"P-2-1",          6694,   89.6455E-03,   26.4577E-03,            0.,NA,NA,"",   1.00104E+06,   1.01043E+06,   1.01043E+06
C:/temp/Job-2.odb,Step-1,Increment      1: Step Time =    1.000,"P-2-1",          6695,   88.5893E-03,   29.7888E-03,            0.,NA,NA,"",   1.00896E+06,   1.02028E+06,   1.02028E+06
C:/temp/Job-2.odb,Step-1,Increment      1: Step Time =    1.000,"P-2-1",          6696,   48.0192E-03,   157.301E-03,            0.,NA,NA,"",   1.04198E+06,   1.05852E+06,   1.05852E+06
C:/temp/Job-2.odb,Step-1,Increment      1: Step Time =    1.000,"P-2-1",          6697,   52.6312E-03,   159.843E-03,            0.,NA,NA,"",   1.05135E+06,   1.06172E+06,   1.06172E+06
C:/temp/Job-2.odb,Step-1,Increment      1: Step Time =    1.000,"P-2-1",          6698,   57.2599E-03,   77.6138E-03,            0.,NA,NA,"",   971.740E+03,   986.158E+03,   986.158E+03
C:/temp/Job-2.odb,Step-1,Increment      1: Step Time =    1.000,"P-2-1",          6699,   61.1978E-03,   76.2154E-03,            0.,NA,NA,"",   1.01602E+06,   1.01616E+06,   1.01616E+06
C:/temp/Job-2.odb,Step-1,Increment      1: Step Time =    1.000,"P-2-1",          6700,   144.001E-03,   74.3148E-03,            0.,NA,NA,"",   1.05157E+06,   1.02305E+06,   1.02305E+06
C:/temp/Job-2.odb,Step-1,Increment      1: Step Time =    1.000,"P-2-1",          6701,   161.762E-03,   155.850E-03,            0.,NA,NA,"",   1.03454E+06,   1.02575E+06,   1.02575E+06
C:/temp/Job-2.odb,Step-1,Increment      1: Step Time =    1.000,"P-2-1",          6702,   118.736E-03,   148.788E-03,            0.,NA,NA,"",   1.07581E+06,   1.08253E+06,   1.08253E+06
C:/temp/Job-2.odb,Step-1,Increment      1: Step Time =    1.000,"P-2-1",          6703,   138.323E-03,   26.4844E-03,            0.,NA,NA,"",   1.02183E+06,   1.01726E+06,   1.01726E+06
C:/temp/Job-2.odb,Step-1,Increment      1: Step Time =    1.000,"P-2-1",          6704,   57.4979E-03,   23.2243E-03,            0.,NA,NA,"",   1.03308E+06,   1.03577E+06,   1.03577E+06
C:/temp/Job-2.odb,Step-1,Increment      1: Step Time =    1.000,"P-2-1",          6705,   53.0511E-03,   25.4338E-03,            0.,NA,NA,"",   1.04043E+06,   1.04512E+06,   1.04512E+06
C:/temp/Job-2.odb,Step-1,Increment      1: Step Time =    1.000,"P-2-1",          6706,   65.9378E-03,   173.896E-03,            0.,NA,NA,"",   1.03108E+06,   1.03363E+06,   1.03363E+06
C:/temp/Job-2.odb,Step-1,Increment      1: Step Time =    1.000,"P-2-1",          6707,   73.2275E-03,   173.156E-03,            0.,NA,NA,"",   1.02396E+06,   1.02788E+06,   1.02788E+06
C:/temp/Job-2.odb,Step-1,Increment      1: Step Time =    1.000,"P-2-1",          6708,   26.5467E-03,   147.947E-03,            0.,NA,NA,"",   947.952E+03,   1.00938E+06,   1.00938E+06
C:/temp/Job-2.odb,Step-1,Increment      1: Step Time =    1.000,"P-2-1",          6709,   173.597E-03,   52.0140E-03,            0.,NA,NA,"",   1.01621E+06,   1.01391E+06,   1.01391E+06
C:/temp/Job-2.odb,Step-1,Increment      1: Step Time =    1.000,"P-2-1",          6710,   27.8749E-03,   71.8333E-03,            0.,NA,NA,"",   880.402E+03,   951.296E+03,   951.296E+03
C:/temp/Job-2.odb,Step-1,Increment      1: Step Time =    1.000,"P-2-1",          6711,   141.742E-03,   25.4216E-03,            0.,NA,NA,"",   1.01981E+06,   1.01503E+06,   1.01503E+06
C:/temp/Job-2.odb,Step-1,Increment      1: Step Time =    1.000,"P-2-1",          6712,   58.2924E-03,   174.248E-03,            0.,NA,NA,"",   1.03691E+06,   1.03989E+06,   1.03989E+06
C:/temp/Job-2.odb,Step-1,Increment      1: Step Time =    1.000,"P-2-1",          6713,   28.6450E-03,   73.1784E-03,            0.,NA,NA,"",   878.076E+03,   948.480E+03,   948.480E+03
C:/temp/Job-2.odb,Step-1,Increment      1: Step Time =    1.000,"P-2-1",          6714,   138.889E-03,   65.9603E-03,            0.,NA,NA,"",   1.10877E+06,   1.07376E+06,   1.07376E+06
C:/temp/Job-2.odb,Step-1,Increment      1: Step Time =    1.000,"P-2-1",          6715,   136.659E-03,   134.093E-03,            0.,NA,NA,"",   1.11996E+06,   1.08350E+06,   1.08350E+06
C:/temp/Job-2.odb,Step-1,Increment      1: Step Time =    1.000,"P-2-1",          6716,   92.3029E-03,   155.105E-03,            0.,NA,NA,"",   1.02760E+06,   1.05446E+06,   1.05446E+06
C:/temp/Job-2.odb,Step-1,Increment      1: Step Time =    1.000,"P-2-1",          6717,   69.8652E-03,   139.071E-03,            0.,NA,NA,"",   1.11284E+06,   1.10627E+06,   1.10627E+06
C:/temp/Job-2.odb,Step-1,Increment      1: Step Time =    1.000,"P-2-1",          6718,   88.1136E-03,   27.1247E-03,            0.,NA,NA,"",   1.00420E+06,   1.01353E+06,   1.01353E+06
C:/temp/Job-2.odb,Step-1,Increment      1: Step Time =    1.000,"P-2-1",          6719,   168.306E-03,   110.976E-03,            0.,NA,NA,"",   959.572E+03,   969.476E+03,   969.476E+03
C:/temp/Job-2.odb,Step-1,Increment      1: Step Time =    1.000,"P-2-1",          6720,   101.245E-03,   47.3567E-03,            0.,NA,NA,"",   1.02093E+06,   1.05388E+06,   1.05388E+06
C:/temp/Job-2.odb,Step-1,Increment      1: Step Time =    1.000,"P-2-1",          6721,   98.2658E-03,   45.6373E-03,            0.,NA,NA,"",   1.01997E+06,   1.05067E+06,   1.05067E+06
C:/temp/Job-2.odb,Step-1,Increment      1: Step Time =    1.000,"P-2-1",          6722,   84.4689E-03,   152.197E-03,            0.,NA,NA,"",   1.05408E+06,   1.07329E+06,   1.07329E+06
C:/temp/Job-2.odb,Step-1,Increment      1: Step Time =    1.000,"P-2-1",          6723,   25.4399E-03,   121.823E-03,            0.,NA,NA,"",   851.972E+03,   929.223E+03,   929.223E+03
C:/temp/Job-2.odb,Step-1,Increment      1: Step Time =    1.000,"P-2-1",          6724,   127.758E-03,   23.9951E-03,            0.,NA,NA,"",   1.00996E+06,   1.00927E+06,   1.00927E+06
C:/temp/Job-2.odb,Step-1,Increment      1: Step Time =    1.000,"P-2-1",          6725,   36.6372E-03,   97.9765E-03,            0.,NA,NA,"",   818.657E+03,   889.086E+03,   889.086E+03
C:/temp/Job-2.odb,Step-1,Increment      1: Step Time =    1.000,"P-2-1",          6726,   20.1619E-03,   140.097E-03,            0.,NA,NA,"",   894.120E+03,   972.350E+03,   972.350E+03
C:/temp/Job-2.odb,Step-1,Increment      1: Step Time =    1.000,"P-2-1",          6727,   78.7383E-03,   25.8268E-03,            0.,NA,NA,"",   1.01361E+06,   1.01909E+06,   1.01909E+06
C:/temp/Job-2.odb,Step-1,Increment      1: Step Time =    1.000,"P-2-1",          6728,   180.012E-03,   59.5204E-03,            0.,NA,NA,"",   1.00283E+06,   1.00668E+06,   1.00668E+06
C:/temp/Job-2.odb,Step-1,Increment      1: Step Time =    1.000,"P-2-1",          6729,   48.7563E-03,   108.178E-03,            0.,NA,NA,"",   823.386E+03,   877.415E+03,   877.415E+03
C:/temp/Job-2.odb,Step-1,Increment      1: Step Time =    1.000,"P-2-1",          6730,   60.3526E-03,   135.506E-03,            0.,NA,NA,"",   1.06545E+06,   1.06637E+06,   1.06637E+06
C:/temp/Job-2.odb,Step-1,Increment      1: Step Time =    1.000,"P-2-1",          6731,   117.101E-03,   146.146E-03,            0.,NA,NA,"",   1.08180E+06,   1.09175E+06,   1.09175E+06
C:/temp/Job-2.odb,Step-1,Increment      1: Step Time =    1.000,"P-2-1",          6732,   145.898E-03,   77.7412E-03,            0.,NA,NA,"",   1.02202E+06,   999.636E+03,   999.636E+03
C:/temp/Job-2.odb,Step-1,Increment      1: Step Time =    1.000,"P-2-1",          6733,   166.238E-03,   95.8528E-03,            0.,NA,NA,"",   944.114E+03,   956.114E+03,   956.114E+03
C:/temp/Job-2.odb,Step-1,Increment      1: Step Time =    1.000,"P-2-1",          6734,   28.8285E-03,   50.9126E-03,            0.,NA,NA,"",   960.025E+03,   1.01651E+06,   1.01651E+06
C:/temp/Job-2.odb,Step-1,Increment      1: Step Time =    1.000,"P-2-1",          6735,   170.633E-03,   148.810E-03,            0.,NA,NA,"",   1.02101E+06,   1.01683E+06,   1.01683E+06
C:/temp/Job-2.odb,Step-1,Increment      1: Step Time =    1.000,"P-2-1",          6736,   100.375E-03,   36.3861E-03,            0.,NA,NA,"",   1.00961E+06,   1.02865E+06,   1.02865E+06
C:/temp/Job-2.odb,Step-1,Increment      1: Step Time =    1.000,"P-2-1",          6737,   31.1524E-03,   104.144E-03,            0.,NA,NA,"",   819.202E+03,   895.206E+03,   895.206E+03
C:/temp/Job-2.odb,Step-1,Increment      1: Step Time =    1.000,"P-2-1",          6738,   144.700E-03,   113.508E-03,            0.,NA,NA,"",   940.474E+03,   931.267E+03,   931.267E+03
C:/temp/Job-2.odb,Step-1,Increment      1: Step Time =    1.000,"P-2-1",          6739,   57.2744E-03,   126.567E-03,            0.,NA,NA,"",   1.00404E+06,   1.01443E+06,   1.01443E+06
C:/temp/Job-2.odb,Step-1,Increment      1: Step Time =    1.000,"P-2-1",          6740,   63.8326E-03,   71.4862E-03,            0.,NA,NA,"",   1.06756E+06,   1.05950E+06,   1.05950E+06
C:/temp/Job-2.odb,Step-1,Increment      1: Step Time =    1.000,"P-2-1",          6741,   62.6228E-03,   72.9538E-03,            0.,NA,NA,"",   1.04920E+06,   1.04440E+06,   1.04440E+06
C:/temp/Job-2.odb,Step-1,Increment      1: Step Time =    1.000,"P-2-1",          6742,   45.2584E-03,   157.939E-03,            0.,NA,NA,"",   1.03675E+06,   1.05675E+06,   1.05675E+06
C:/temp/Job-2.odb,Step-1,Increment      1: Step Time =    1.000,"P-2-1",          6743,   178.797E-03,   69.8294E-03,            0.,NA,NA,"",   994.354E+03,   1.00153E+06,   1.00153E+06
C:/temp/Job-2.odb,Step-1,Increment      1: Step Time =    1.000,"P-2-1",          6744,   129.872E-03,   178.602E-03,            0.,NA,NA,"",   1.00494E+06,   1.00387E+06,   1.00387E+06
C:/temp/Job-2.odb,Step-1,Increment      1: Step Time =    1.000,"P-2-1",          6745,   123.877E-03,   60.2402E-03,            0.,NA,NA,"",   1.13608E+06,   1.11930E+06,   1.11930E+06
C:/temp/Job-2.odb,Step-1,Increment      1: Step Time =    1.000,"P-2-1",          6746,   130.968E-03,   143.336E-03,            0.,NA,NA,"",   1.11479E+06,   1.09299E+06,   1.09299E+06
C:/temp/Job-2.odb,Step-1,Increment      1: Step Time =    1.000,"P-2-1",          6747,   142.120E-03,   27.1612E-03,            0.,NA,NA,"",   1.02363E+06,   1.01821E+06,   1.01821E+06
C:/temp/Job-2.odb,Step-1,Increment      1: Step Time =    1.000,"P-2-1",          6748,   172.080E-03,   129.313E-03,            0.,NA,NA,"",   999.934E+03,   1.00214E+06,   1.00214E+06
C:/temp/Job-2.odb,Step-1,Increment      1: Step Time =    1.000,"P-2-1",          6749,   41.0039E-03,   43.9643E-03,            0.,NA,NA,"",   1.02263E+06,   1.05044E+06,   1.05044E+06
C:/temp/Job-2.odb,Step-1,Increment      1: Step Time =    1.000,"P-2-1",          6750,   145.973E-03,   120.550E-03,            0.,NA,NA,"",   1.00824E+06,   988.207E+03,   988.207E+03
C:/temp/Job-2.odb,Step-1,Increment      1: Step Time =    1.000,"P-2-1",          6751,   144.238E-03,   132.862E-03,            0.,NA,NA,"",   1.08099E+06,   1.05164E+06,   1.05164E+06
C:/temp/Job-2.odb,Step-1,Increment      1: Step Time =    1.000,"P-2-1",          6752,   68.6608E-03,   57.2872E-03,            0.,NA,NA,"",   1.10117E+06,   1.09837E+06,   1.09837E+06
C:/temp/Job-2.odb,Step-1,Increment      1: Step Time =    1.000,"P-2-1",          6753,   97.4592E-03,   35.7986E-03,            0.,NA,NA,"",   1.00919E+06,   1.02836E+06,   1.02836E+06
C:/temp/Job-2.odb,Step-1,Increment      1: Step Time =    1.000,"P-2-1",          6754,   62.6497E-03,   169.714E-03,            0.,NA,NA,"",   1.04275E+06,   1.04612E+06,   1.04612E+06
C:/temp/Job-2.odb,Step-1,Increment      1: Step Time =    1.000,"P-2-1",          6755,   169.816E-03,   87.6337E-03,            0.,NA,NA,"",   963.530E+03,   973.729E+03,   973.729E+03
C:/temp/Job-2.odb,Step-1,Increment      1: Step Time =    1.000,"P-2-1",          6756,   173.390E-03,   77.4375E-03,            0.,NA,NA,"",   986.170E+03,   993.033E+03,   993.033E+03
C:/temp/Job-2.odb,Step-1,Increment      1: Step Time =    1.000,"P-2-1",          6757,   76.7128E-03,   168.506E-03,            0.,NA,NA,"",   1.03025E+06,   1.03664E+06,   1.03664E+06
C:/temp/Job-2.odb,Step-1,Increment      1: Step Time =    1.000,"P-2-1",          6758,   81.0911E-03,   51.0368E-03,            0.,NA,NA,"",   1.07360E+06,   1.08822E+06,   1.08822E+06
C:/temp/Job-2.odb,Step-1,Increment      1: Step Time =    1.000,"P-2-1",          6759,   92.1888E-03,   41.7868E-03,            0.,NA,NA,"",   1.02324E+06,   1.04656E+06,   1.04656E+06
C:/temp/Job-2.odb,Step-1,Increment      1: Step Time =    1.000,"P-2-1",          6760,   108.071E-03,   42.8410E-03,            0.,NA,NA,"",   1.02443E+06,   1.04584E+06,   1.04584E+06
C:/temp/Job-2.odb,Step-1,Increment      1: Step Time =    1.000,"P-2-1",          6761,   150.184E-03,   101.372E-03,            0.,NA,NA,"",   878.653E+03,   889.781E+03,   889.781E+03
C:/temp/Job-2.odb,Step-1,Increment      1: Step Time =    1.000,"P-2-1",          6762,   173.029E-03,   49.5483E-03,            0.,NA,NA,"",   1.01723E+06,   1.01446E+06,   1.01446E+06
C:/temp/Job-2.odb,Step-1,Increment      1: Step Time =    1.000,"P-2-1",          6763,   139.705E-03,   28.9086E-03,            0.,NA,NA,"",   1.02780E+06,   1.02210E+06,   1.02210E+06
C:/temp/Job-2.odb,Step-1,Increment      1: Step Time =    1.000,"P-2-1",          6764,   118.269E-03,   34.0656E-03,            0.,NA,NA,"",   1.02406E+06,   1.03004E+06,   1.03004E+06
C:/temp/Job-2.odb,Step-1,Increment      1: Step Time =    1.000,"P-2-1",          6765,   51.5809E-03,   30.5897E-03,            0.,NA,NA,"",   1.04682E+06,   1.05435E+06,   1.05435E+06
C:/temp/Job-2.odb,Step-1,Increment      1: Step Time =    1.000,"P-2-1",          6766,   133.869E-03,   64.0979E-03,            0.,NA,NA,"",   1.13102E+06,   1.09589E+06,   1.09589E+06
C:/temp/Job-2.odb,Step-1,Increment      1: Step Time =    1.000,"P-2-1",          6767,   137.202E-03,   65.1641E-03,            0.,NA,NA,"",   1.11765E+06,   1.08200E+06,   1.08200E+06
C:/temp/Job-2.odb,Step-1,Increment      1: Step Time =    1.000,"P-2-1",          6768,   27.0352E-03,   150.465E-03,            0.,NA,NA,"",   958.065E+03,   1.01714E+06,   1.01714E+06
C:/temp/Job-2.odb,Step-1,Increment      1: Step Time =    1.000,"P-2-1",          6769,   151.634E-03,   166.697E-03,            0.,NA,NA,"",   1.03308E+06,   1.02496E+06,   1.02496E+06
C:/temp/Job-2.odb,Step-1,Increment      1: Step Time =    1.000,"P-2-1",          6770,   152.300E-03,   164.722E-03,            0.,NA,NA,"",   1.03586E+06,   1.02703E+06,   1.02703E+06
C:/temp/Job-2.odb,Step-1,Increment      1: Step Time =    1.000,"P-2-1",          6771,   147.717E-03,   29.9335E-03,            0.,NA,NA,"",   1.02889E+06,   1.02193E+06,   1.02193E+06
C:/temp/Job-2.odb,Step-1,Increment      1: Step Time =    1.000,"P-2-1",          6772,   143.589E-03,   28.8743E-03,            0.,NA,NA,"",   1.02762E+06,   1.02131E+06,   1.02131E+06
C:/temp/Job-2.odb,Step-1,Increment      1: Step Time =    1.000,"P-2-1",          6773,   142.999E-03,   172.560E-03,            0.,NA,NA,"",   1.02460E+06,   1.01895E+06,   1.01895E+06
C:/temp/Job-2.odb,Step-1,Increment      1: Step Time =    1.000,"P-2-1",          6774,   38.2007E-03,   99.8437E-03,            0.,NA,NA,"",   817.464E+03,   886.351E+03,   886.351E+03
C:/temp/Job-2.odb,Step-1,Increment      1: Step Time =    1.000,"P-2-1",          6775,   93.6768E-03,   40.2273E-03,            0.,NA,NA,"",   1.01840E+06,   1.04134E+06,   1.04134E+06
C:/temp/Job-2.odb,Step-1,Increment      1: Step Time =    1.000,"P-2-1",          6776,   126.945E-03,   49.3078E-03,            0.,NA,NA,"",   1.08525E+06,   1.07674E+06,   1.07674E+06
C:/temp/Job-2.odb,Step-1,Increment      1: Step Time =    1.000,"P-2-1",          6777,   121.602E-03,   45.6837E-03,            0.,NA,NA,"",   1.06294E+06,   1.06491E+06,   1.06491E+06
C:/temp/Job-2.odb,Step-1,Increment      1: Step Time =    1.000,"P-2-1",          6778,   145.124E-03,   104.810E-03,            0.,NA,NA,"",   860.207E+03,   868.715E+03,   868.715E+03
C:/temp/Job-2.odb,Step-1,Increment      1: Step Time =    1.000,"P-2-1",          6779,   117.945E-03,   150.700E-03,            0.,NA,NA,"",   1.06541E+06,   1.07421E+06,   1.07421E+06
C:/temp/Job-2.odb,Step-1,Increment      1: Step Time =    1.000,"P-2-1",          6780,   111.706E-03,   152.959E-03,            0.,NA,NA,"",   1.04060E+06,   1.06067E+06,   1.06067E+06
C:/temp/Job-2.odb,Step-1,Increment      1: Step Time =    1.000,"P-2-1",          6781,   106.431E-03,   154.490E-03,            0.,NA,NA,"",   1.02525E+06,   1.05148E+06,   1.05148E+06
C:/temp/Job-2.odb,Step-1,Increment      1: Step Time =    1.000,"P-2-1",          6782,   51.7140E-03,   171.169E-03,            0.,NA,NA,"",   1.04514E+06,   1.05197E+06,   1.05197E+06
C:/temp/Job-2.odb,Step-1,Increment      1: Step Time =    1.000,"P-2-1",          6783,   110.259E-03,   169.752E-03,            0.,NA,NA,"",   1.00587E+06,   1.01596E+06,   1.01596E+06
C:/temp/Job-2.odb,Step-1,Increment      1: Step Time =    1.000,"P-2-1",          6784,   33.1566E-03,   88.4251E-03,            0.,NA,NA,"",   835.659E+03,   907.276E+03,   907.276E+03
C:/temp/Job-2.odb,Step-1,Increment      1: Step Time =    1.000,"P-2-1",          6785,   37.5858E-03,   88.8966E-03,            0.,NA,NA,"",   839.302E+03,   905.322E+03,   905.322E+03
C:/temp/Job-2.odb,Step-1,Increment      1: Step Time =    1.000,"P-2-1",          6786,   104.030E-03,   163.314E-03,            0.,NA,NA,"",   1.01122E+06,   1.02956E+06,   1.02956E+06
C:/temp/Job-2.odb,Step-1,Increment      1: Step Time =    1.000,"P-2-1",          6787,   106.109E-03,   163.157E-03,            0.,NA,NA,"",   1.01293E+06,   1.03032E+06,   1.03032E+06
C:/temp/Job-2.odb,Step-1,Increment      1: Step Time =    1.000,"P-2-1",          6788,   32.8211E-03,   106.564E-03,            0.,NA,NA,"",   823.707E+03,   897.432E+03,   897.432E+03
C:/temp/Job-2.odb,Step-1,Increment      1: Step Time =    1.000,"P-2-1",          6789,   32.3271E-03,   83.1784E-03,            0.,NA,NA,"",   851.470E+03,   921.637E+03,   921.637E+03
C:/temp/Job-2.odb,Step-1,Increment      1: Step Time =    1.000,"P-2-1",          6790,   158.194E-03,   152.519E-03,            0.,NA,NA,"",   1.04287E+06,   1.03148E+06,   1.03148E+06
C:/temp/Job-2.odb,Step-1,Increment      1: Step Time =    1.000,"P-2-1",          6791,   160.553E-03,   100.613E-03,            0.,NA,NA,"",   925.440E+03,   936.896E+03,   936.896E+03
C:/temp/Job-2.odb,Step-1,Increment      1: Step Time =    1.000,"P-2-1",          6792,   163.419E-03,   110.011E-03,            0.,NA,NA,"",   950.484E+03,   958.794E+03,   958.794E+03
C:/temp/Job-2.odb,Step-1,Increment      1: Step Time =    1.000,"P-2-1",          6793,   54.6512E-03,   121.206E-03,            0.,NA,NA,"",   945.202E+03,   968.540E+03,   968.540E+03
C:/temp/Job-2.odb,Step-1,Increment      1: Step Time =    1.000,"P-2-1",          6794,   45.6228E-03,   102.378E-03,            0.,NA,NA,"",   809.574E+03,   870.398E+03,   870.398E+03
C:/temp/Job-2.odb,Step-1,Increment      1: Step Time =    1.000,"P-2-1",          6795,   43.2479E-03,   99.0228E-03,            0.,NA,NA,"",   812.411E+03,   875.988E+03,   875.988E+03
C:/temp/Job-2.odb,Step-1,Increment      1: Step Time =    1.000,"P-2-1",          6796,   55.1839E-03,   124.571E-03,            0.,NA,NA,"",   975.529E+03,   993.655E+03,   993.655E+03
C:/temp/Job-2.odb,Step-1,Increment      1: Step Time =    1.000,"P-2-1",          6797,   53.4534E-03,   157.317E-03,            0.,NA,NA,"",   1.05276E+06,   1.06310E+06,   1.06310E+06
C:/temp/Job-2.odb,Step-1,Increment      1: Step Time =    1.000,"P-2-1",          6798,   123.871E-03,   172.983E-03,            0.,NA,NA,"",   1.01353E+06,   1.01466E+06,   1.01466E+06
C:/temp/Job-2.odb,Step-1,Increment      1: Step Time =    1.000,"P-2-1",          6799,   89.8441E-03,   155.317E-03,            0.,NA,NA,"",   1.03232E+06,   1.05626E+06,   1.05626E+06
C:/temp/Job-2.odb,Step-1,Increment      1: Step Time =    1.000,"P-2-1",          6800,   64.4978E-03,   67.3834E-03,            0.,NA,NA,"",   1.08874E+06,   1.08069E+06,   1.08069E+06
C:/temp/Job-2.odb,Step-1,Increment      1: Step Time =    1.000,"P-2-1",          6801,   29.4518E-03,   84.7997E-03,            0.,NA,NA,"",   840.480E+03,   915.293E+03,   915.293E+03
C:/temp/Job-2.odb,Step-1,Increment      1: Step Time =    1.000,"P-2-1",          6802,   79.3134E-03,   169.213E-03,            0.,NA,NA,"",   1.02461E+06,   1.03199E+06,   1.03199E+06
C:/temp/Job-2.odb,Step-1,Increment      1: Step Time =    1.000,"P-2-1",          6803,   128.455E-03,   53.4055E-03,            0.,NA,NA,"",   1.10347E+06,   1.08843E+06,   1.08843E+06
C:/temp/Job-2.odb,Step-1,Increment      1: Step Time =    1.000,"P-2-1",          6804,   127.382E-03,   55.0052E-03,            0.,NA,NA,"",   1.11049E+06,   1.09501E+06,   1.09501E+06
C:/temp/Job-2.odb,Step-1,Increment      1: Step Time =    1.000,"P-2-1",          6805,   79.1622E-03,   49.3063E-03,            0.,NA,NA,"",   1.07229E+06,   1.08397E+06,   1.08397E+06
C:/temp/Job-2.odb,Step-1,Increment      1: Step Time =    1.000,"P-2-1",          6806,   85.1456E-03,   30.9779E-03,            0.,NA,NA,"",   1.01572E+06,   1.02629E+06,   1.02629E+06
C:/temp/Job-2.odb,Step-1,Increment      1: Step Time =    1.000,"P-2-1",          6807,   30.3839E-03,   73.2319E-03,            0.,NA,NA,"",   883.319E+03,   951.061E+03,   951.061E+03
C:/temp/Job-2.odb,Step-1,Increment      1: Step Time =    1.000,"P-2-1",          6808,   56.8274E-03,   128.728E-03,            0.,NA,NA,"",   1.01521E+06,   1.02503E+06,   1.02503E+06
C:/temp/Job-2.odb,Step-1,Increment      1: Step Time =    1.000,"P-2-1",          6809,   30.8726E-03,   147.787E-03,            0.,NA,NA,"",   963.360E+03,   1.01658E+06,   1.01658E+06
C:/temp/Job-2.odb,Step-1,Increment      1: Step Time =    1.000,"P-2-1",          6810,   98.8477E-03,   36.4351E-03,            0.,NA,NA,"",   1.00980E+06,   1.02908E+06,   1.02908E+06
C:/temp/Job-2.odb,Step-1,Increment      1: Step Time =    1.000,"P-2-1",          6811,   169.450E-03,   52.4426E-03,            0.,NA,NA,"",   1.02264E+06,   1.01781E+06,   1.01781E+06
C:/temp/Job-2.odb,Step-1,Increment      1: Step Time =    1.000,"P-2-1",          6812,   99.4677E-03,   43.7336E-03,            0.,NA,NA,"",   1.01787E+06,   1.04598E+06,   1.04598E+06
C:/temp/Job-2.odb,Step-1,Increment      1: Step Time =    1.000,"P-2-1",          6813,   90.8665E-03,   156.102E-03,            0.,NA,NA,"",   1.02903E+06,   1.05341E+06,   1.05341E+06
C:/temp/Job-2.odb,Step-1,Increment      1: Step Time =    1.000,"P-2-1",          6814,   167.035E-03,   111.810E-03,            0.,NA,NA,"",   960.093E+03,   968.910E+03,   968.910E+03
C:/temp/Job-2.odb,Step-1,Increment      1: Step Time =    1.000,"P-2-1",          6815,   165.601E-03,   111.173E-03,            0.,NA,NA,"",   956.810E+03,   965.337E+03,   965.337E+03
C:/temp/Job-2.odb,Step-1,Increment      1: Step Time =    1.000,"P-2-1",          6816,   97.2151E-03,   163.281E-03,            0.,NA,NA,"",   1.01072E+06,   1.03064E+06,   1.03064E+06
C:/temp/Job-2.odb,Step-1,Increment      1: Step Time =    1.000,"P-2-1",          6817,   50.7004E-03,   124.342E-03,            0.,NA,NA,"",   948.918E+03,   978.695E+03,   978.695E+03
C:/temp/Job-2.odb,Step-1,Increment      1: Step Time =    1.000,"P-2-1",          6818,   64.7459E-03,   171.417E-03,            0.,NA,NA,"",   1.03765E+06,   1.04055E+06,   1.04055E+06
C:/temp/Job-2.odb,Step-1,Increment      1: Step Time =    1.000,"P-2-1",          6819,   53.8715E-03,   168.009E-03,            0.,NA,NA,"",   1.04815E+06,   1.05474E+06,   1.05474E+06
C:/temp/Job-2.odb,Step-1,Increment      1: Step Time =    1.000,"P-2-1",          6820,   108.535E-03,   164.522E-03,            0.,NA,NA,"",   1.01314E+06,   1.02806E+06,   1.02806E+06
C:/temp/Job-2.odb,Step-1,Increment      1: Step Time =    1.000,"P-2-1",          6821,   62.3071E-03,   70.7104E-03,            0.,NA,NA,"",   1.06126E+06,   1.05653E+06,   1.05653E+06
C:/temp/Job-2.odb,Step-1,Increment      1: Step Time =    1.000,"P-2-1",          6822,   48.4799E-03,   124.827E-03,            0.,NA,NA,"",   941.287E+03,   975.870E+03,   975.870E+03
C:/temp/Job-2.odb,Step-1,Increment      1: Step Time =    1.000,"P-2-1",          6823,   139.865E-03,   63.6689E-03,            0.,NA,NA,"",   1.10450E+06,   1.07254E+06,   1.07254E+06
C:/temp/Job-2.odb,Step-1,Increment      1: Step Time =    1.000,"P-2-1",          6824,   48.8103E-03,   34.1772E-03,            0.,NA,NA,"",   1.04712E+06,   1.05851E+06,   1.05851E+06
C:/temp/Job-2.odb,Step-1,Increment      1: Step Time =    1.000,"P-2-1",          6825,   31.2712E-03,   65.1672E-03,            0.,NA,NA,"",   918.066E+03,   979.128E+03,   979.128E+03
C:/temp/Job-2.odb,Step-1,Increment      1: Step Time =    1.000,"P-2-1",          6826,   38.6172E-03,   53.0429E-03,            0.,NA,NA,"",   991.409E+03,   1.02986E+06,   1.02986E+06
C:/temp/Job-2.odb,Step-1,Increment      1: Step Time =    1.000,"P-2-1",          6827,   108.150E-03,   36.0105E-03,            0.,NA,NA,"",   1.01355E+06,   1.02901E+06,   1.02901E+06
C:/temp/Job-2.odb,Step-1,Increment      1: Step Time =    1.000,"P-2-1",          6828,   66.4386E-03,   67.1464E-03,            0.,NA,NA,"",   1.10193E+06,   1.09072E+06,   1.09072E+06
C:/temp/Job-2.odb,Step-1,Increment      1: Step Time =    1.000,"P-2-1",          6829,   145.289E-03,   31.5888E-03,            0.,NA,NA,"",   1.03315E+06,   1.02556E+06,   1.02556E+06
C:/temp/Job-2.odb,Step-1,Increment      1: Step Time =    1.000,"P-2-1",          6830,   129.277E-03,   62.7177E-03,            0.,NA,NA,"",   1.14387E+06,   1.11285E+06,   1.11285E+06
C:/temp/Job-2.odb,Step-1,Increment      1: Step Time =    1.000,"P-2-1",          6831,   115.543E-03,   39.5509E-03,            0.,NA,NA,"",   1.03221E+06,   1.04269E+06,   1.04269E+06
C:/temp/Job-2.odb,Step-1,Increment      1: Step Time =    1.000,"P-2-1",          6832,   43.6809E-03,   91.1942E-03,            0.,NA,NA,"",   831.900E+03,   891.597E+03,   891.597E+03
C:/temp/Job-2.odb,Step-1,Increment      1: Step Time =    1.000,"P-2-1",          6833,   98.5767E-03,   164.002E-03,            0.,NA,NA,"",   1.00927E+06,   1.02851E+06,   1.02851E+06
C:/temp/Job-2.odb,Step-1,Increment      1: Step Time =    1.000,"P-2-1",          6834,   169.343E-03,   133.753E-03,            0.,NA,NA,"",    1.0109E+06,   1.00892E+06,   1.00892E+06
C:/temp/Job-2.odb,Step-1,Increment      1: Step Time =    1.000,"P-2-1",          6835,   126.951E-03,   59.7405E-03,            0.,NA,NA,"",   1.13270E+06,   1.11064E+06,   1.11064E+06
C:/temp/Job-2.odb,Step-1,Increment      1: Step Time =    1.000,"P-2-1",          6836,   111.561E-03,   167.442E-03,            0.,NA,NA,"",   1.01156E+06,   1.02232E+06,   1.02232E+06
C:/temp/Job-2.odb,Step-1,Increment      1: Step Time =    1.000,"P-2-1",          6837,   42.6919E-03,   44.4910E-03,            0.,NA,NA,"",   1.02651E+06,   1.05173E+06,   1.05173E+06
C:/temp/Job-2.odb,Step-1,Increment      1: Step Time =    1.000,"P-2-1",          6838,   66.4773E-03,   56.9806E-03,            0.,NA,NA,"",   1.09356E+06,   1.09165E+06,   1.09165E+06
C:/temp/Job-2.odb,Step-1,Increment      1: Step Time =    1.000,"P-2-1",          6839,   43.0209E-03,   156.565E-03,            0.,NA,NA,"",   1.02914E+06,   1.05339E+06,   1.05339E+06
C:/temp/Job-2.odb,Step-1,Increment      1: Step Time =    1.000,"P-2-1",          6840,   149.541E-03,   167.360E-03,            0.,NA,NA,"",   1.03333E+06,   1.02530E+06,   1.02530E+06
C:/temp/Job-2.odb,Step-1,Increment      1: Step Time =    1.000,"P-2-1",          6841,   31.9908E-03,   70.9592E-03,            0.,NA,NA,"",   898.626E+03,   962.038E+03,   962.038E+03
C:/temp/Job-2.odb,Step-1,Increment      1: Step Time =    1.000,"P-2-1",          6842,   150.652E-03,   161.691E-03,            0.,NA,NA,"",   1.04280E+06,   1.03236E+06,   1.03236E+06
C:/temp/Job-2.odb,Step-1,Increment      1: Step Time =    1.000,"P-2-1",          6843,   39.3619E-03,   88.4134E-03,            0.,NA,NA,"",   842.276E+03,   905.845E+03,   905.845E+03
C:/temp/Job-2.odb,Step-1,Increment      1: Step Time =    1.000,"P-2-1",          6844,   33.0914E-03,   117.876E-03,            0.,NA,NA,"",   856.755E+03,   925.330E+03,   925.330E+03
C:/temp/Job-2.odb,Step-1,Increment      1: Step Time =    1.000,"P-2-1",          6845,   42.6944E-03,   102.084E-03,            0.,NA,NA,"",   814.414E+03,   878.360E+03,   878.360E+03
C:/temp/Job-2.odb,Step-1,Increment      1: Step Time =    1.000,"P-2-1",          6846,   34.8217E-03,   105.419E-03,            0.,NA,NA,"",   822.578E+03,   894.404E+03,   894.404E+03
C:/temp/Job-2.odb,Step-1,Increment      1: Step Time =    1.000,"P-2-1",          6847,   30.8496E-03,   126.193E-03,            0.,NA,NA,"",   882.873E+03,   949.904E+03,   949.904E+03
C:/temp/Job-2.odb,Step-1,Increment      1: Step Time =    1.000,"P-2-1",          6848,   45.7477E-03,   87.6303E-03,            0.,NA,NA,"",   850.379E+03,   904.219E+03,   904.219E+03
C:/temp/Job-2.odb,Step-1,Increment      1: Step Time =    1.000,"P-2-1",          6849,   45.9245E-03,   84.0564E-03,            0.,NA,NA,"",   871.866E+03,   921.894E+03,   921.894E+03
C:/temp/Job-2.odb,Step-1,Increment      1: Step Time =    1.000,"P-2-1",          6850,   143.048E-03,   169.477E-03,            0.,NA,NA,"",   1.03129E+06,   1.02444E+06,   1.02444E+06
C:/temp/Job-2.odb,Step-1,Increment      1: Step Time =    1.000,"P-2-1",          6851,   164.608E-03,   95.5449E-03,            0.,NA,NA,"",   940.871E+03,   952.324E+03,   952.324E+03
C:/temp/Job-2.odb,Step-1,Increment      1: Step Time =    1.000,"P-2-1",          6852,   143.952E-03,   167.652E-03,            0.,NA,NA,"",   1.03557E+06,   1.02777E+06,   1.02777E+06
C:/temp/Job-2.odb,Step-1,Increment      1: Step Time =    1.000,"P-2-1",          6853,   137.716E-03,   30.0644E-03,            0.,NA,NA,"",   1.02981E+06,   1.02426E+06,   1.02426E+06
C:/temp/Job-2.odb,Step-1,Increment      1: Step Time =    1.000,"P-2-1",          6854,   134.534E-03,   30.2985E-03,            0.,NA,NA,"",   1.02989E+06,   1.02513E+06,   1.02513E+06
C:/temp/Job-2.odb,Step-1,Increment      1: Step Time =    1.000,"P-2-1",          6855,   66.5266E-03,   49.7066E-03,            0.,NA,NA,"",   1.07996E+06,   1.08222E+06,   1.08222E+06
C:/temp/Job-2.odb,Step-1,Increment      1: Step Time =    1.000,"P-2-1",          6856,   115.728E-03,   152.134E-03,            0.,NA,NA,"",   1.05471E+06,   1.06770E+06,   1.06770E+06
C:/temp/Job-2.odb,Step-1,Increment      1: Step Time =    1.000,"P-2-1",          6857,   117.608E-03,   153.315E-03,            0.,NA,NA,"",   1.05578E+06,   1.06522E+06,   1.06522E+06
C:/temp/Job-2.odb,Step-1,Increment      1: Step Time =    1.000,"P-2-1",          6858,   59.0224E-03,   137.395E-03,            0.,NA,NA,"",   1.06196E+06,   1.06547E+06,   1.06547E+06
C:/temp/Job-2.odb,Step-1,Increment      1: Step Time =    1.000,"P-2-1",          6859,   39.2130E-03,   54.9441E-03,            0.,NA,NA,"",   987.837E+03,   1.02641E+06,   1.02641E+06
C:/temp/Job-2.odb,Step-1,Increment      1: Step Time =    1.000,"P-2-1",          6860,   74.4759E-03,   47.8145E-03,            0.,NA,NA,"",   1.07507E+06,   1.08159E+06,   1.08159E+06
C:/temp/Job-2.odb,Step-1,Increment      1: Step Time =    1.000,"P-2-1",          6861,   76.5208E-03,   47.3004E-03,            0.,NA,NA,"",   1.07088E+06,   1.07947E+06,   1.07947E+06
C:/temp/Job-2.odb,Step-1,Increment      1: Step Time =    1.000,"P-2-1",          6862,   76.0648E-03,   166.286E-03,            0.,NA,NA,"",   1.03627E+06,   1.04304E+06,   1.04304E+06
C:/temp/Job-2.odb,Step-1,Increment      1: Step Time =    1.000,"P-2-1",          6863,   80.6229E-03,   168.445E-03,            0.,NA,NA,"",   1.02452E+06,   1.03306E+06,   1.03306E+06
C:/temp/Job-2.odb,Step-1,Increment      1: Step Time =    1.000,"P-2-1",          6864,   80.1745E-03,   164.978E-03,            0.,NA,NA,"",   1.03280E+06,   1.04234E+06,   1.04234E+06
C:/temp/Job-2.odb,Step-1,Increment      1: Step Time =    1.000,"P-2-1",          6865,   153.174E-03,   43.6050E-03,            0.,NA,NA,"",   1.04792E+06,   1.03561E+06,   1.03561E+06
C:/temp/Job-2.odb,Step-1,Increment      1: Step Time =    1.000,"P-2-1",          6866,   151.142E-03,   43.8424E-03,            0.,NA,NA,"",   1.05138E+06,   1.03833E+06,   1.03833E+06
C:/temp/Job-2.odb,Step-1,Increment      1: Step Time =    1.000,"P-2-1",          6867,   147.300E-03,   125.958E-03,            0.,NA,NA,"",   1.04031E+06,   1.01703E+06,   1.01703E+06
C:/temp/Job-2.odb,Step-1,Increment      1: Step Time =    1.000,"P-2-1",          6868,   156.053E-03,   151.318E-03,            0.,NA,NA,"",   1.04845E+06,   1.03537E+06,   1.03537E+06
C:/temp/Job-2.odb,Step-1,Increment      1: Step Time =    1.000,"P-2-1",          6869,   149.085E-03,   104.140E-03,            0.,NA,NA,"",   879.690E+03,   889.182E+03,   889.182E+03
C:/temp/Job-2.odb,Step-1,Increment      1: Step Time =    1.000,"P-2-1",          6870,   130.838E-03,   154.576E-03,            0.,NA,NA,"",   1.07294E+06,   1.06330E+06,   1.06330E+06
C:/temp/Job-2.odb,Step-1,Increment      1: Step Time =    1.000,"P-2-1",          6871,   95.3901E-03,   39.2109E-03,            0.,NA,NA,"",   1.01482E+06,   1.03705E+06,   1.03705E+06
C:/temp/Job-2.odb,Step-1,Increment      1: Step Time =    1.000,"P-2-1",          6872,   57.4326E-03,   162.570E-03,            0.,NA,NA,"",   1.05445E+06,   1.06053E+06,   1.06053E+06
C:/temp/Job-2.odb,Step-1,Increment      1: Step Time =    1.000,"P-2-1",          6873,   88.1532E-03,   156.792E-03,            0.,NA,NA,"",   1.03322E+06,   1.05441E+06,   1.05441E+06
C:/temp/Job-2.odb,Step-1,Increment      1: Step Time =    1.000,"P-2-1",          6874,   106.080E-03,   161.103E-03,            0.,NA,NA,"",   1.01556E+06,   1.03486E+06,   1.03486E+06
C:/temp/Job-2.odb,Step-1,Increment      1: Step Time =    1.000,"P-2-1",          6875,   80.0352E-03,   34.1640E-03,            0.,NA,NA,"",   1.03096E+06,   1.04029E+06,   1.04029E+06
C:/temp/Job-2.odb,Step-1,Increment      1: Step Time =    1.000,"P-2-1",          6876,   46.0344E-03,   109.994E-03,            0.,NA,NA,"",   835.647E+03,   891.534E+03,   891.534E+03
C:/temp/Job-2.odb,Step-1,Increment      1: Step Time =    1.000,"P-2-1",          6877,   130.189E-03,   49.4275E-03,            0.,NA,NA,"",   1.08735E+06,   1.07473E+06,   1.07473E+06
C:/temp/Job-2.odb,Step-1,Increment      1: Step Time =    1.000,"P-2-1",          6878,   127.373E-03,   46.3035E-03,            0.,NA,NA,"",   1.07389E+06,   1.06717E+06,   1.06717E+06
C:/temp/Job-2.odb,Step-1,Increment      1: Step Time =    1.000,"P-2-1",          6879,   129.279E-03,   55.9398E-03,            0.,NA,NA,"",   1.11380E+06,   1.09452E+06,   1.09452E+06
C:/temp/Job-2.odb,Step-1,Increment      1: Step Time =    1.000,"P-2-1",          6880,   130.938E-03,   53.3113E-03,            0.,NA,NA,"",   1.10173E+06,   1.08416E+06,   1.08416E+06
C:/temp/Job-2.odb,Step-1,Increment      1: Step Time =    1.000,"P-2-1",          6881,   165.757E-03,   55.7093E-03,            0.,NA,NA,"",   1.02846E+06,   1.02117E+06,   1.02117E+06
C:/temp/Job-2.odb,Step-1,Increment      1: Step Time =    1.000,"P-2-1",          6882,   57.6320E-03,   164.582E-03,            0.,NA,NA,"",   1.05226E+06,   1.05783E+06,   1.05783E+06
C:/temp/Job-2.odb,Step-1,Increment      1: Step Time =    1.000,"P-2-1",          6883,   134.824E-03,   145.008E-03,            0.,NA,NA,"",   1.10340E+06,   1.08110E+06,   1.08110E+06
C:/temp/Job-2.odb,Step-1,Increment      1: Step Time =    1.000,"P-2-1",          6884,   133.947E-03,   150.084E-03,            0.,NA,NA,"",   1.08831E+06,   1.07201E+06,   1.07201E+06
C:/temp/Job-2.odb,Step-1,Increment      1: Step Time =    1.000,"P-2-1",          6885,   35.0995E-03,   144.899E-03,            0.,NA,NA,"",   971.043E+03,   1.01761E+06,   1.01761E+06
C:/temp/Job-2.odb,Step-1,Increment      1: Step Time =    1.000,"P-2-1",          6886,   142.857E-03,   38.5235E-03,            0.,NA,NA,"",   1.05023E+06,   1.03937E+06,   1.03937E+06
C:/temp/Job-2.odb,Step-1,Increment      1: Step Time =    1.000,"P-2-1",          6887,   142.340E-03,   36.4574E-03,            0.,NA,NA,"",   1.04554E+06,   1.03587E+06,   1.03587E+06
C:/temp/Job-2.odb,Step-1,Increment      1: Step Time =    1.000,"P-2-1",          6888,   108.004E-03,   162.875E-03,            0.,NA,NA,"",   1.01502E+06,   1.03164E+06,   1.03164E+06
C:/temp/Job-2.odb,Step-1,Increment      1: Step Time =    1.000,"P-2-1",          6889,   73.8583E-03,   31.8290E-03,            0.,NA,NA,"",   1.03502E+06,   1.04037E+06,   1.04037E+06
C:/temp/Job-2.odb,Step-1,Increment      1: Step Time =    1.000,"P-2-1",          6890,   64.6446E-03,   22.9913E-03,            0.,NA,NA,"",   1.02431E+06,   1.02628E+06,   1.02628E+06
C:/temp/Job-2.odb,Step-1,Increment      1: Step Time =    1.000,"P-2-1",          6891,   162.619E-03,   95.3144E-03,            0.,NA,NA,"",   936.010E+03,   946.894E+03,   946.894E+03
C:/temp/Job-2.odb,Step-1,Increment      1: Step Time =    1.000,"P-2-1",          6892,   154.539E-03,   150.574E-03,            0.,NA,NA,"",   1.05192E+06,   1.03782E+06,   1.03782E+06
C:/temp/Job-2.odb,Step-1,Increment      1: Step Time =    1.000,"P-2-1",          6893,   100.971E-03,   42.6196E-03,            0.,NA,NA,"",   1.01708E+06,   1.04319E+06,   1.04319E+06
C:/temp/Job-2.odb,Step-1,Increment      1: Step Time =    1.000,"P-2-1",          6894,   78.4368E-03,   32.8364E-03,            0.,NA,NA,"",   1.03001E+06,   1.03783E+06,   1.03783E+06
C:/temp/Job-2.odb,Step-1,Increment      1: Step Time =    1.000,"P-2-1",          6895,   48.9336E-03,   126.840E-03,            0.,NA,NA,"",   957.007E+03,   988.259E+03,   988.259E+03
C:/temp/Job-2.odb,Step-1,Increment      1: Step Time =    1.000,"P-2-1",          6896,   104.704E-03,   40.8837E-03,            0.,NA,NA,"",   1.01681E+06,   1.03902E+06,   1.03902E+06
C:/temp/Job-2.odb,Step-1,Increment      1: Step Time =    1.000,"P-2-1",          6897,   64.9842E-03,   56.2005E-03,            0.,NA,NA,"",   1.08796E+06,   1.08737E+06,   1.08737E+06
C:/temp/Job-2.odb,Step-1,Increment      1: Step Time =    1.000,"P-2-1",          6898,   60.8264E-03,   71.6351E-03,            0.,NA,NA,"",   1.04396E+06,   1.04338E+06,   1.04338E+06
C:/temp/Job-2.odb,Step-1,Increment      1: Step Time =    1.000,"P-2-1",          6899,   34.3341E-03,   107.685E-03,            0.,NA,NA,"",   827.052E+03,   898.784E+03,   898.784E+03
C:/temp/Job-2.odb,Step-1,Increment      1: Step Time =    1.000,"P-2-1",          6900,   132.502E-03,   52.5037E-03,            0.,NA,NA,"",   1.09801E+06,   1.08005E+06,   1.08005E+06
C:/temp/Job-2.odb,Step-1,Increment      1: Step Time =    1.000,"P-2-1",          6901,   106.144E-03,   159.105E-03,            0.,NA,NA,"",   1.01843E+06,   1.03985E+06,   1.03985E+06
C:/temp/Job-2.odb,Step-1,Increment      1: Step Time =    1.000,"P-2-1",          6902,   153.009E-03,   45.1111E-03,            0.,NA,NA,"",   1.05011E+06,   1.03711E+06,   1.03711E+06
C:/temp/Job-2.odb,Step-1,Increment      1: Step Time =    1.000,"P-2-1",          6903,   151.593E-03,   45.7334E-03,            0.,NA,NA,"",   1.05312E+06,   1.03939E+06,   1.03939E+06
C:/temp/Job-2.odb,Step-1,Increment      1: Step Time =    1.000,"P-2-1",          6904,   149.671E-03,   46.5283E-03,            0.,NA,NA,"",   1.05753E+06,   1.04276E+06,   1.04276E+06
C:/temp/Job-2.odb,Step-1,Increment      1: Step Time =    1.000,"P-2-1",          6905,   65.2491E-03,   144.871E-03,            0.,NA,NA,"",   1.08646E+06,   1.08659E+06,   1.08659E+06
C:/temp/Job-2.odb,Step-1,Increment      1: Step Time =    1.000,"P-2-1",          6906,   89.8105E-03,   168.654E-03,            0.,NA,NA,"",   1.01019E+06,   1.02318E+06,   1.02318E+06
C:/temp/Job-2.odb,Step-1,Increment      1: Step Time =    1.000,"P-2-1",          6907,   110.548E-03,   36.1282E-03,            0.,NA,NA,"",   1.01665E+06,   1.03041E+06,   1.03041E+06
C:/temp/Job-2.odb,Step-1,Increment      1: Step Time =    1.000,"P-2-1",          6908,   66.5941E-03,   169.370E-03,            0.,NA,NA,"",   1.04035E+06,   1.04378E+06,   1.04378E+06
C:/temp/Job-2.odb,Step-1,Increment      1: Step Time =    1.000,"P-2-1",          6909,   68.7359E-03,   168.119E-03,            0.,NA,NA,"",   1.04113E+06,   1.04501E+06,   1.04501E+06
C:/temp/Job-2.odb,Step-1,Increment      1: Step Time =    1.000,"P-2-1",          6910,   52.5396E-03,   130.437E-03,            0.,NA,NA,"",   996.723E+03,   1.01648E+06,   1.01648E+06
C:/temp/Job-2.odb,Step-1,Increment      1: Step Time =    1.000,"P-2-1",          6911,   148.000E-03,   163.189E-03,            0.,NA,NA,"",   1.04243E+06,   1.03243E+06,   1.03243E+06
C:/temp/Job-2.odb,Step-1,Increment      1: Step Time =    1.000,"P-2-1",          6912,   173.455E-03,   64.3048E-03,            0.,NA,NA,"",   1.00744E+06,   1.00809E+06,   1.00809E+06
C:/temp/Job-2.odb,Step-1,Increment      1: Step Time =    1.000,"P-2-1",          6913,   134.673E-03,   175.135E-03,            0.,NA,NA,"",   1.01630E+06,   1.01329E+06,   1.01329E+06
C:/temp/Job-2.odb,Step-1,Increment      1: Step Time =    1.000,"P-2-1",          6914,   70.0109E-03,   28.5343E-03,            0.,NA,NA,"",   1.03171E+06,   1.03522E+06,   1.03522E+06
C:/temp/Job-2.odb,Step-1,Increment      1: Step Time =    1.000,"P-2-1",          6915,   78.2896E-03,   44.2388E-03,            0.,NA,NA,"",   1.05890E+06,   1.06939E+06,   1.06939E+06
C:/temp/Job-2.odb,Step-1,Increment      1: Step Time =    1.000,"P-2-1",          6916,   34.8444E-03,   150.680E-03,            0.,NA,NA,"",   987.757E+03,   1.03108E+06,   1.03108E+06
C:/temp/Job-2.odb,Step-1,Increment      1: Step Time =    1.000,"P-2-1",          6917,   131.066E-03,   61.3222E-03,            0.,NA,NA,"",   1.13258E+06,   1.10304E+06,   1.10304E+06
C:/temp/Job-2.odb,Step-1,Increment      1: Step Time =    1.000,"P-2-1",          6918,   164.474E-03,   50.4858E-03,            0.,NA,NA,"",   1.03204E+06,   1.02385E+06,   1.02385E+06
C:/temp/Job-2.odb,Step-1,Increment      1: Step Time =    1.000,"P-2-1",          6919,   37.7898E-03,   106.233E-03,            0.,NA,NA,"",   824.950E+03,   893.218E+03,   893.218E+03
C:/temp/Job-2.odb,Step-1,Increment      1: Step Time =    1.000,"P-2-1",          6920,   43.9296E-03,   86.3180E-03,            0.,NA,NA,"",   857.404E+03,   912.597E+03,   912.597E+03
C:/temp/Job-2.odb,Step-1,Increment      1: Step Time =    1.000,"P-2-1",          6921,   169.792E-03,   80.5054E-03,            0.,NA,NA,"",   980.013E+03,   985.903E+03,   985.903E+03
C:/temp/Job-2.odb,Step-1,Increment      1: Step Time =    1.000,"P-2-1",          6922,   123.071E-03,   43.3102E-03,            0.,NA,NA,"",   1.05776E+06,   1.05810E+06,   1.05810E+06
C:/temp/Job-2.odb,Step-1,Increment      1: Step Time =    1.000,"P-2-1",          6923,   162.919E-03,   112.740E-03,            0.,NA,NA,"",   957.643E+03,   963.775E+03,   963.775E+03
C:/temp/Job-2.odb,Step-1,Increment      1: Step Time =    1.000,"P-2-1",          6924,   153.763E-03,   104.822E-03,            0.,NA,NA,"",   906.251E+03,   915.444E+03,   915.444E+03
C:/temp/Job-2.odb,Step-1,Increment      1: Step Time =    1.000,"P-2-1",          6925,   136.626E-03,   32.2414E-03,            0.,NA,NA,"",   1.03531E+06,   1.02924E+06,   1.02924E+06
C:/temp/Job-2.odb,Step-1,Increment      1: Step Time =    1.000,"P-2-1",          6926,   42.4021E-03,   80.1834E-03,            0.,NA,NA,"",   887.751E+03,   939.899E+03,   939.899E+03
C:/temp/Job-2.odb,Step-1,Increment      1: Step Time =    1.000,"P-2-1",          6927,   141.345E-03,   32.7819E-03,            0.,NA,NA,"",   1.03677E+06,   1.02912E+06,   1.02912E+06
C:/temp/Job-2.odb,Step-1,Increment      1: Step Time =    1.000,"P-2-1",          6928,   109.487E-03,   162.405E-03,            0.,NA,NA,"",   1.01722E+06,   1.03323E+06,   1.03323E+06
C:/temp/Job-2.odb,Step-1,Increment      1: Step Time =    1.000,"P-2-1",          6929,   136.544E-03,   147.985E-03,            0.,NA,NA,"",   1.09169E+06,   1.07209E+06,   1.07209E+06
C:/temp/Job-2.odb,Step-1,Increment      1: Step Time =    1.000,"P-2-1",          6930,   89.3629E-03,   156.769E-03,            0.,NA,NA,"",   1.03122E+06,   1.05346E+06,   1.05346E+06
C:/temp/Job-2.odb,Step-1,Increment      1: Step Time =    1.000,"P-2-1",          6931,   160.399E-03,   112.802E-03,            0.,NA,NA,"",   955.050E+03,   959.666E+03,   959.666E+03
C:/temp/Job-2.odb,Step-1,Increment      1: Step Time =    1.000,"P-2-1",          6932,   33.5743E-03,   67.1181E-03,            0.,NA,NA,"",   919.032E+03,   977.014E+03,   977.014E+03
C:/temp/Job-2.odb,Step-1,Increment      1: Step Time =    1.000,"P-2-1",          6933,   33.4773E-03,   70.3010E-03,            0.,NA,NA,"",   905.511E+03,   966.201E+03,   966.201E+03
C:/temp/Job-2.odb,Step-1,Increment      1: Step Time =    1.000,"P-2-1",          6934,   34.8122E-03,   71.1075E-03,            0.,NA,NA,"",   907.963E+03,   966.486E+03,   966.486E+03
C:/temp/Job-2.odb,Step-1,Increment      1: Step Time =    1.000,"P-2-1",          6935,   36.0109E-03,   119.666E-03,            0.,NA,NA,"",   870.855E+03,   933.914E+03,   933.914E+03
C:/temp/Job-2.odb,Step-1,Increment      1: Step Time =    1.000,"P-2-1",          6936,   144.095E-03,   163.600E-03,            0.,NA,NA,"",   1.04442E+06,   1.03467E+06,   1.03467E+06
C:/temp/Job-2.odb,Step-1,Increment      1: Step Time =    1.000,"P-2-1",          6937,   167.211E-03,   131.115E-03,            0.,NA,NA,"",   1.00935E+06,   1.00665E+06,   1.00665E+06
C:/temp/Job-2.odb,Step-1,Increment      1: Step Time =    1.000,"P-2-1",          6938,   153.203E-03,   106.833E-03,            0.,NA,NA,"",   911.148E+03,   918.479E+03,   918.479E+03
C:/temp/Job-2.odb,Step-1,Increment      1: Step Time =    1.000,"P-2-1",          6939,   132.050E-03,   173.957E-03,            0.,NA,NA,"",   1.01759E+06,   1.01510E+06,   1.01510E+06
C:/temp/Job-2.odb,Step-1,Increment      1: Step Time =    1.000,"P-2-1",          6940,   134.440E-03,   32.0367E-03,            0.,NA,NA,"",   1.03443E+06,   1.02916E+06,   1.02916E+06
C:/temp/Job-2.odb,Step-1,Increment      1: Step Time =    1.000,"P-2-1",          6941,   170.015E-03,   65.9670E-03,            0.,NA,NA,"",   1.01022E+06,   1.00868E+06,   1.00868E+06
C:/temp/Job-2.odb,Step-1,Increment      1: Step Time =    1.000,"P-2-1",          6942,   166.556E-03,   63.8354E-03,            0.,NA,NA,"",   1.01915E+06,   1.01398E+06,   1.01398E+06
C:/temp/Job-2.odb,Step-1,Increment      1: Step Time =    1.000,"P-2-1",          6943,   149.373E-03,   126.666E-03,            0.,NA,NA,"",   1.03604E+06,   1.01545E+06,   1.01545E+06
C:/temp/Job-2.odb,Step-1,Increment      1: Step Time =    1.000,"P-2-1",          6944,   149.011E-03,   128.818E-03,            0.,NA,NA,"",   1.04635E+06,   1.02429E+06,   1.02429E+06
C:/temp/Job-2.odb,Step-1,Increment      1: Step Time =    1.000,"P-2-1",          6945,   36.4184E-03,   59.7041E-03,            0.,NA,NA,"",   959.680E+03,   1.00717E+06,   1.00717E+06
C:/temp/Job-2.odb,Step-1,Increment      1: Step Time =    1.000,"P-2-1",          6946,   109.728E-03,   159.676E-03,            0.,NA,NA,"",   1.02272E+06,   1.04026E+06,   1.04026E+06
C:/temp/Job-2.odb,Step-1,Increment      1: Step Time =    1.000,"P-2-1",          6947,   114.193E-03,   156.459E-03,            0.,NA,NA,"",   1.03798E+06,   1.05213E+06,   1.05213E+06
C:/temp/Job-2.odb,Step-1,Increment      1: Step Time =    1.000,"P-2-1",          6948,   75.6158E-03,   164.019E-03,            0.,NA,NA,"",   1.04229E+06,   1.04946E+06,   1.04946E+06
C:/temp/Job-2.odb,Step-1,Increment      1: Step Time =    1.000,"P-2-1",          6949,   79.2970E-03,   163.279E-03,            0.,NA,NA,"",   1.03817E+06,   1.04776E+06,   1.04776E+06
C:/temp/Job-2.odb,Step-1,Increment      1: Step Time =    1.000,"P-2-1",          6950,   56.9387E-03,   153.796E-03,            0.,NA,NA,"",   1.05979E+06,   1.06752E+06,   1.06752E+06
C:/temp/Job-2.odb,Step-1,Increment      1: Step Time =    1.000,"P-2-1",          6951,   80.2537E-03,   161.147E-03,            0.,NA,NA,"",   1.04135E+06,   1.05239E+06,   1.05239E+06
C:/temp/Job-2.odb,Step-1,Increment      1: Step Time =    1.000,"P-2-1",          6952,   133.221E-03,   50.0513E-03,            0.,NA,NA,"",   1.08905E+06,   1.07308E+06,   1.07308E+06
C:/temp/Job-2.odb,Step-1,Increment      1: Step Time =    1.000,"P-2-1",          6953,   155.080E-03,   70.9965E-03,            0.,NA,NA,"",   1.02796E+06,   1.01362E+06,   1.01362E+06
C:/temp/Job-2.odb,Step-1,Increment      1: Step Time =    1.000,"P-2-1",          6954,   152.691E-03,   75.2818E-03,            0.,NA,NA,"",   1.01525E+06,   1.00115E+06,   1.00115E+06
C:/temp/Job-2.odb,Step-1,Increment      1: Step Time =    1.000,"P-2-1",          6955,   57.9718E-03,   30.9762E-03,            0.,NA,NA,"",   1.04653E+06,   1.05113E+06,   1.05113E+06
C:/temp/Job-2.odb,Step-1,Increment      1: Step Time =    1.000,"P-2-1",          6956,   44.4903E-03,   53.5627E-03,            0.,NA,NA,"",   1.01288E+06,   1.04049E+06,   1.04049E+06
C:/temp/Job-2.odb,Step-1,Increment      1: Step Time =    1.000,"P-2-1",          6957,   161.043E-03,   140.363E-03,            0.,NA,NA,"",   1.03627E+06,   1.02528E+06,   1.02528E+06
C:/temp/Job-2.odb,Step-1,Increment      1: Step Time =    1.000,"P-2-1",          6958,   164.454E-03,   134.971E-03,            0.,NA,NA,"",   1.02136E+06,   1.01464E+06,   1.01464E+06
C:/temp/Job-2.odb,Step-1,Increment      1: Step Time =    1.000,"P-2-1",          6959,   133.308E-03,   54.0980E-03,            0.,NA,NA,"",   1.10306E+06,   1.08246E+06,   1.08246E+06
C:/temp/Job-2.odb,Step-1,Increment      1: Step Time =    1.000,"P-2-1",          6960,   140.153E-03,   36.5043E-03,            0.,NA,NA,"",   1.04682E+06,   1.03749E+06,   1.03749E+06
C:/temp/Job-2.odb,Step-1,Increment      1: Step Time =    1.000,"P-2-1",          6961,   141.392E-03,   43.3011E-03,            0.,NA,NA,"",   1.06274E+06,   1.04914E+06,   1.04914E+06
C:/temp/Job-2.odb,Step-1,Increment      1: Step Time =    1.000,"P-2-1",          6962,   47.2301E-03,   127.594E-03,            0.,NA,NA,"",   951.871E+03,   986.698E+03,   986.698E+03
C:/temp/Job-2.odb,Step-1,Increment      1: Step Time =    1.000,"P-2-1",          6963,   60.0446E-03,   162.472E-03,            0.,NA,NA,"",   1.05580E+06,   1.06081E+06,   1.06081E+06
C:/temp/Job-2.odb,Step-1,Increment      1: Step Time =    1.000,"P-2-1",          6964,   36.5267E-03,   109.062E-03,            0.,NA,NA,"",   831.544E+03,   900.215E+03,   900.215E+03
C:/temp/Job-2.odb,Step-1,Increment      1: Step Time =    1.000,"P-2-1",          6965,   42.2158E-03,   113.735E-03,            0.,NA,NA,"",   853.504E+03,   911.575E+03,   911.575E+03
C:/temp/Job-2.odb,Step-1,Increment      1: Step Time =    1.000,"P-2-1",          6966,   71.2160E-03,   33.0682E-03,            0.,NA,NA,"",   1.04117E+06,   1.04596E+06,   1.04596E+06
C:/temp/Job-2.odb,Step-1,Increment      1: Step Time =    1.000,"P-2-1",          6967,   74.0139E-03,   34.7520E-03,            0.,NA,NA,"",   1.04156E+06,   1.04752E+06,   1.04752E+06
C:/temp/Job-2.odb,Step-1,Increment      1: Step Time =    1.000,"P-2-1",          6968,   63.2571E-03,   53.7144E-03,            0.,NA,NA,"",   1.07947E+06,   1.08136E+06,   1.08136E+06
C:/temp/Job-2.odb,Step-1,Increment      1: Step Time =    1.000,"P-2-1",          6969,   37.5867E-03,   82.2047E-03,            0.,NA,NA,"",   866.249E+03,   928.174E+03,   928.174E+03
C:/temp/Job-2.odb,Step-1,Increment      1: Step Time =    1.000,"P-2-1",          6970,   111.122E-03,   160.840E-03,            0.,NA,NA,"",   1.02325E+06,   1.03855E+06,   1.03855E+06
C:/temp/Job-2.odb,Step-1,Increment      1: Step Time =    1.000,"P-2-1",          6971,   47.7843E-03,   146.077E-03,            0.,NA,NA,"",   1.02506E+06,   1.04690E+06,   1.04690E+06
C:/temp/Job-2.odb,Step-1,Increment      1: Step Time =    1.000,"P-2-1",          6972,   69.3037E-03,   32.7863E-03,            0.,NA,NA,"",   1.04275E+06,   1.04696E+06,   1.04696E+06
C:/temp/Job-2.odb,Step-1,Increment      1: Step Time =    1.000,"P-2-1",          6973,   42.9836E-03,   118.583E-03,            0.,NA,NA,"",   881.726E+03,   934.014E+03,   934.014E+03
C:/temp/Job-2.odb,Step-1,Increment      1: Step Time =    1.000,"P-2-1",          6974,   43.3172E-03,   120.790E-03,            0.,NA,NA,"",   896.378E+03,   945.704E+03,   945.704E+03
C:/temp/Job-2.odb,Step-1,Increment      1: Step Time =    1.000,"P-2-1",          6975,   157.459E-03,   143.775E-03,            0.,NA,NA,"",   1.04736E+06,   1.03334E+06,   1.03334E+06
C:/temp/Job-2.odb,Step-1,Increment      1: Step Time =    1.000,"P-2-1",          6976,   135.151E-03,   170.277E-03,            0.,NA,NA,"",   1.02845E+06,   1.02392E+06,   1.02392E+06
C:/temp/Job-2.odb,Step-1,Increment      1: Step Time =    1.000,"P-2-1",          6977,   60.8255E-03,   160.422E-03,            0.,NA,NA,"",   1.05899E+06,   1.06393E+06,   1.06393E+06
C:/temp/Job-2.odb,Step-1,Increment      1: Step Time =    1.000,"P-2-1",          6978,   29.3407E-03,   133.336E-03,            0.,NA,NA,"",   905.396E+03,   970.877E+03,   970.877E+03
C:/temp/Job-2.odb,Step-1,Increment      1: Step Time =    1.000,"P-2-1",          6979,   64.5590E-03,   146.079E-03,            0.,NA,NA,"",   1.08427E+06,   1.08512E+06,   1.08512E+06
C:/temp/Job-2.odb,Step-1,Increment      1: Step Time =    1.000,"P-2-1",          6980,   140.053E-03,   166.695E-03,            0.,NA,NA,"",   1.03861E+06,   1.03102E+06,   1.03102E+06
C:/temp/Job-2.odb,Step-1,Increment      1: Step Time =    1.000,"P-2-1",          6981,   49.3296E-03,   128.440E-03,            0.,NA,NA,"",   968.327E+03,   997.093E+03,   997.093E+03
C:/temp/Job-2.odb,Step-1,Increment      1: Step Time =    1.000,"P-2-1",          6982,   63.7159E-03,   144.758E-03,            0.,NA,NA,"",   1.08253E+06,   1.08343E+06,   1.08343E+06
C:/temp/Job-2.odb,Step-1,Increment      1: Step Time =    1.000,"P-2-1",          6983,   31.0138E-03,   133.929E-03,            0.,NA,NA,"",   913.272E+03,   975.586E+03,   975.586E+03
C:/temp/Job-2.odb,Step-1,Increment      1: Step Time =    1.000,"P-2-1",          6984,   160.446E-03,   115.145E-03,            0.,NA,NA,"",   964.474E+03,   967.081E+03,   967.081E+03
C:/temp/Job-2.odb,Step-1,Increment      1: Step Time =    1.000,"P-2-1",          6985,   59.7671E-03,   159.209E-03,            0.,NA,NA,"",   1.05941E+06,   1.06482E+06,   1.06482E+06
C:/temp/Job-2.odb,Step-1,Increment      1: Step Time =    1.000,"P-2-1",          6986,   38.3052E-03,   119.420E-03,            0.,NA,NA,"",   874.916E+03,   934.481E+03,   934.481E+03
C:/temp/Job-2.odb,Step-1,Increment      1: Step Time =    1.000,"P-2-1",          6987,   70.0905E-03,   46.9831E-03,            0.,NA,NA,"",   1.07521E+06,   1.07922E+06,   1.07922E+06
C:/temp/Job-2.odb,Step-1,Increment      1: Step Time =    1.000,"P-2-1",          6988,   77.5422E-03,   37.3567E-03,            0.,NA,NA,"",   1.04231E+06,   1.05107E+06,   1.05107E+06
C:/temp/Job-2.odb,Step-1,Increment      1: Step Time =    1.000,"P-2-1",          6989,   66.7620E-03,   161.486E-03,            0.,NA,NA,"",   1.05696E+06,   1.06110E+06,   1.06110E+06
C:/temp/Job-2.odb,Step-1,Increment      1: Step Time =    1.000,"P-2-1",          6990,   135.105E-03,   53.4633E-03,            0.,NA,NA,"",   1.09769E+06,   1.07703E+06,   1.07703E+06
C:/temp/Job-2.odb,Step-1,Increment      1: Step Time =    1.000,"P-2-1",          6991,   157.506E-03,   108.213E-03,            0.,NA,NA,"",   930.677E+03,   938.099E+03,   938.099E+03
C:/temp/Job-2.odb,Step-1,Increment      1: Step Time =    1.000,"P-2-1",          6992,   145.713E-03,   60.6940E-03,            0.,NA,NA,"",   1.08160E+06,   1.05633E+06,   1.05633E+06
C:/temp/Job-2.odb,Step-1,Increment      1: Step Time =    1.000,"P-2-1",          6993,   88.5932E-03,   158.176E-03,            0.,NA,NA,"",   1.03113E+06,   1.05149E+06,   1.05149E+06
C:/temp/Job-2.odb,Step-1,Increment      1: Step Time =    1.000,"P-2-1",          6994,   150.718E-03,   48.4388E-03,            0.,NA,NA,"",   1.05822E+06,   1.04288E+06,   1.04288E+06
C:/temp/Job-2.odb,Step-1,Increment      1: Step Time =    1.000,"P-2-1",          6995,   148.657E-03,   49.5446E-03,            0.,NA,NA,"",   1.06382E+06,   1.04702E+06,   1.04702E+06
C:/temp/Job-2.odb,Step-1,Increment      1: Step Time =    1.000,"P-2-1",          6996,   133.366E-03,   60.2029E-03,            0.,NA,NA,"",   1.12322E+06,   1.09407E+06,   1.09407E+06
C:/temp/Job-2.odb,Step-1,Increment      1: Step Time =    1.000,"P-2-1",          6997,   155.118E-03,   142.987E-03,            0.,NA,NA,"",   1.05291E+06,   1.03694E+06,   1.03694E+06
C:/temp/Job-2.odb,Step-1,Increment      1: Step Time =    1.000,"P-2-1",          6998,   35.4010E-03,   67.4550E-03,            0.,NA,NA,"",   924.611E+03,   979.496E+03,   979.496E+03
C:/temp/Job-2.odb,Step-1,Increment      1: Step Time =    1.000,"P-2-1",          6999,   40.6379E-03,   118.942E-03,            0.,NA,NA,"",   878.583E+03,   934.665E+03,   934.665E+03
C:/temp/Job-2.odb,Step-1,Increment      1: Step Time =    1.000,"P-2-1",          7000,   113.055E-03,   160.513E-03,            0.,NA,NA,"",   1.02722E+06,   1.04073E+06,   1.04073E+06
C:/temp/Job-2.odb,Step-1,Increment      1: Step Time =    1.000,"P-2-1",          7001,   44.1357E-03,   75.9258E-03,            0.,NA,NA,"",   919.811E+03,   964.162E+03,   964.162E+03
C:/temp/Job-2.odb,Step-1,Increment      1: Step Time =    1.000,"P-2-1",          7002,   165.826E-03,   83.3500E-03,            0.,NA,NA,"",   972.082E+03,   977.066E+03,   977.066E+03
C:/temp/Job-2.odb,Step-1,Increment      1: Step Time =    1.000,"P-2-1",          7003,   166.959E-03,   79.1062E-03,            0.,NA,NA,"",   984.533E+03,   987.397E+03,   987.397E+03
C:/temp/Job-2.odb,Step-1,Increment      1: Step Time =    1.000,"P-2-1",          7004,   57.4376E-03,   56.3299E-03,            0.,NA,NA,"",   1.06127E+06,   1.06803E+06,   1.06803E+06
C:/temp/Job-2.odb,Step-1,Increment      1: Step Time =    1.000,"P-2-1",          7005,   40.2437E-03,   58.5904E-03,            0.,NA,NA,"",   979.248E+03,   1.01863E+06,   1.01863E+06
C:/temp/Job-2.odb,Step-1,Increment      1: Step Time =    1.000,"P-2-1",          7006,   41.7913E-03,   109.102E-03,            0.,NA,NA,"",   832.807E+03,   894.892E+03,   894.892E+03
C:/temp/Job-2.odb,Step-1,Increment      1: Step Time =    1.000,"P-2-1",          7007,   42.1968E-03,   107.593E-03,            0.,NA,NA,"",   827.824E+03,   890.260E+03,   890.260E+03
C:/temp/Job-2.odb,Step-1,Increment      1: Step Time =    1.000,"P-2-1",          7008,   151.267E-03,   127.473E-03,            0.,NA,NA,"",   1.03342E+06,   1.01510E+06,   1.01510E+06
C:/temp/Job-2.odb,Step-1,Increment      1: Step Time =    1.000,"P-2-1",          7009,   151.978E-03,   130.763E-03,            0.,NA,NA,"",   1.04285E+06,   1.02408E+06,   1.02408E+06
C:/temp/Job-2.odb,Step-1,Increment      1: Step Time =    1.000,"P-2-1",          7010,   162.500E-03,   134.124E-03,            0.,NA,NA,"",   1.02367E+06,   1.01539E+06,   1.01539E+06
C:/temp/Job-2.odb,Step-1,Increment      1: Step Time =    1.000,"P-2-1",          7011,   69.0852E-03,   34.8319E-03,            0.,NA,NA,"",   1.04774E+06,   1.05217E+06,   1.05217E+06
C:/temp/Job-2.odb,Step-1,Increment      1: Step Time =    1.000,"P-2-1",          7012,   52.2702E-03,   62.9941E-03,            0.,NA,NA,"",   1.02206E+06,   1.03931E+06,   1.03931E+06
C:/temp/Job-2.odb,Step-1,Increment      1: Step Time =    1.000,"P-2-1",          7013,   39.3405E-03,   108.763E-03,            0.,NA,NA,"",   832.070E+03,   897.341E+03,   897.341E+03
C:/temp/Job-2.odb,Step-1,Increment      1: Step Time =    1.000,"P-2-1",          7014,   32.7589E-03,   130.627E-03,            0.,NA,NA,"",   906.787E+03,   967.942E+03,   967.942E+03
C:/temp/Job-2.odb,Step-1,Increment      1: Step Time =    1.000,"P-2-1",          7015,   52.8119E-03,   150.002E-03,            0.,NA,NA,"",   1.04857E+06,   1.06134E+06,   1.06134E+06
C:/temp/Job-2.odb,Step-1,Increment      1: Step Time =    1.000,"P-2-1",          7016,   135.062E-03,   49.3518E-03,            0.,NA,NA,"",   1.08535E+06,   1.06887E+06,   1.06887E+06
C:/temp/Job-2.odb,Step-1,Increment      1: Step Time =    1.000,"P-2-1",          7017,   136.162E-03,   51.0867E-03,            0.,NA,NA,"",   1.09041E+06,   1.07161E+06,   1.07161E+06
C:/temp/Job-2.odb,Step-1,Increment      1: Step Time =    1.000,"P-2-1",          7018,   157.923E-03,   53.3465E-03,            0.,NA,NA,"",   1.04639E+06,   1.03320E+06,   1.03320E+06
C:/temp/Job-2.odb,Step-1,Increment      1: Step Time =    1.000,"P-2-1",          7019,   155.667E-03,   53.2064E-03,            0.,NA,NA,"",   1.05178E+06,   1.03701E+06,   1.03701E+06
C:/temp/Job-2.odb,Step-1,Increment      1: Step Time =    1.000,"P-2-1",          7020,   161.996E-03,   81.1409E-03,            0.,NA,NA,"",   978.736E+03,   979.297E+03,   979.297E+03
C:/temp/Job-2.odb,Step-1,Increment      1: Step Time =    1.000,"P-2-1",          7021,   151.911E-03,   50.1707E-03,            0.,NA,NA,"",   1.05796E+06,   1.04227E+06,   1.04227E+06
C:/temp/Job-2.odb,Step-1,Increment      1: Step Time =    1.000,"P-2-1",          7022,   138.732E-03,   41.1363E-03,            0.,NA,NA,"",   1.05905E+06,   1.04747E+06,   1.04747E+06
C:/temp/Job-2.odb,Step-1,Increment      1: Step Time =    1.000,"P-2-1",          7023,   67.1132E-03,   34.8807E-03,            0.,NA,NA,"",   1.04943E+06,   1.05354E+06,   1.05354E+06
C:/temp/Job-2.odb,Step-1,Increment      1: Step Time =    1.000,"P-2-1",          7024,   52.0838E-03,   46.8616E-03,            0.,NA,NA,"",   1.04869E+06,   1.06166E+06,   1.06166E+06
C:/temp/Job-2.odb,Step-1,Increment      1: Step Time =    1.000,"P-2-1",          7025,   57.9876E-03,   33.6885E-03,            0.,NA,NA,"",   1.04986E+06,   1.05501E+06,   1.05501E+06
C:/temp/Job-2.odb,Step-1,Increment      1: Step Time =    1.000,"P-2-1",          7026,   38.1158E-03,   69.0986E-03,            0.,NA,NA,"",   929.155E+03,   979.908E+03,   979.908E+03
C:/temp/Job-2.odb,Step-1,Increment      1: Step Time =    1.000,"P-2-1",          7027,   137.325E-03,   166.409E-03,            0.,NA,NA,"",   1.03944E+06,   1.03253E+06,   1.03253E+06
C:/temp/Job-2.odb,Step-1,Increment      1: Step Time =    1.000,"P-2-1",          7028,   116.286E-03,   160.677E-03,            0.,NA,NA,"",   1.03314E+06,   1.04266E+06,   1.04266E+06
C:/temp/Job-2.odb,Step-1,Increment      1: Step Time =    1.000,"P-2-1",          7029,   140.665E-03,   161.704E-03,            0.,NA,NA,"",   1.05072E+06,   1.04045E+06,   1.04045E+06
C:/temp/Job-2.odb,Step-1,Increment      1: Step Time =    1.000,"P-2-1",          7030,   43.2446E-03,   71.5974E-03,            0.,NA,NA,"",   938.038E+03,   980.805E+03,   980.805E+03
C:/temp/Job-2.odb,Step-1,Increment      1: Step Time =    1.000,"P-2-1",          7031,   134.401E-03,   56.9749E-03,            0.,NA,NA,"",   1.11128E+06,   1.08641E+06,   1.08641E+06
C:/temp/Job-2.odb,Step-1,Increment      1: Step Time =    1.000,"P-2-1",          7032,   63.0692E-03,   145.939E-03,            0.,NA,NA,"",   1.08059E+06,   1.08217E+06,   1.08217E+06
C:/temp/Job-2.odb,Step-1,Increment      1: Step Time =    1.000,"P-2-1",          7033,   144.196E-03,   159.167E-03,            0.,NA,NA,"",   1.05460E+06,   1.04230E+06,   1.04230E+06
C:/temp/Job-2.odb,Step-1,Increment      1: Step Time =    1.000,"P-2-1",          7034,   42.2587E-03,   69.5322E-03,            0.,NA,NA,"",   944.233E+03,   987.213E+03,   987.213E+03
C:/temp/Job-2.odb,Step-1,Increment      1: Step Time =    1.000,"P-2-1",          7035,   166.267E-03,   81.5957E-03,            0.,NA,NA,"",   977.124E+03,   981.283E+03,   981.283E+03
C:/temp/Job-2.odb,Step-1,Increment      1: Step Time =    1.000,"P-2-1",          7036,   157.452E-03,   55.0448E-03,            0.,NA,NA,"",   1.04753E+06,   1.03367E+06,   1.03367E+06
C:/temp/Job-2.odb,Step-1,Increment      1: Step Time =    1.000,"P-2-1",          7037,   144.835E-03,   157.251E-03,            0.,NA,NA,"",   1.05812E+06,   1.04468E+06,   1.04468E+06
C:/temp/Job-2.odb,Step-1,Increment      1: Step Time =    1.000,"P-2-1",          7038,   153.271E-03,   55.7636E-03,            0.,NA,NA,"",   1.05745E+06,   1.04050E+06,   1.04050E+06
C:/temp/Job-2.odb,Step-1,Increment      1: Step Time =    1.000,"P-2-1",          7039,   46.7519E-03,   138.606E-03,            0.,NA,NA,"",   999.610E+03,   1.02719E+06,   1.02719E+06
C:/temp/Job-2.odb,Step-1,Increment      1: Step Time =    1.000,"P-2-1",          7040,   58.8247E-03,   32.4539E-03,            0.,NA,NA,"",   1.04823E+06,   1.05282E+06,   1.05282E+06
C:/temp/Job-2.odb,Step-1,Increment      1: Step Time =    1.000,"P-2-1",          7041,   134.993E-03,   165.802E-03,            0.,NA,NA,"",   1.04021E+06,   1.03409E+06,   1.03409E+06
C:/temp/Job-2.odb,Step-1,Increment      1: Step Time =    1.000,"P-2-1",          7042,   137.018E-03,   163.477E-03,            0.,NA,NA,"",   1.04688E+06,   1.03869E+06,   1.03869E+06
C:/temp/Job-2.odb,Step-1,Increment      1: Step Time =    1.000,"P-2-1",          7043,   138.020E-03,   162.027E-03,            0.,NA,NA,"",   1.05088E+06,   1.04155E+06,   1.04155E+06
C:/temp/Job-2.odb,Step-1,Increment      1: Step Time =    1.000,"P-2-1",          7044,   159.696E-03,   74.4824E-03,            0.,NA,NA,"",   1.00532E+06,   998.596E+03,   998.596E+03
C:/temp/Job-2.odb,Step-1,Increment      1: Step Time =    1.000,"P-2-1",          7045,   153.133E-03,   141.459E-03,            0.,NA,NA,"",   1.05770E+06,   1.03984E+06,   1.03984E+06
C:/temp/Job-2.odb,Step-1,Increment      1: Step Time =    1.000,"P-2-1",          7046,   154.348E-03,   140.097E-03,            0.,NA,NA,"",   1.05312E+06,   1.03616E+06,   1.03616E+06
C:/temp/Job-2.odb,Step-1,Increment      1: Step Time =    1.000,"P-2-1",          7047,   139.591E-03,   158.774E-03,            0.,NA,NA,"",   1.05882E+06,   1.04708E+06,   1.04708E+06
C:/temp/Job-2.odb,Step-1,Increment      1: Step Time =    1.000,"P-2-1",          7048,   145.187E-03,   153.379E-03,            0.,NA,NA,"",   1.06557E+06,   1.04966E+06,   1.04966E+06
C:/temp/Job-2.odb,Step-1,Increment      1: Step Time =    1.000,"P-2-1",          7049,   143.759E-03,   58.0348E-03,            0.,NA,NA,"",   1.08701E+06,   1.06222E+06,   1.06222E+06
C:/temp/Job-2.odb,Step-1,Increment      1: Step Time =    1.000,"P-2-1",          7050,   136.239E-03,   36.8938E-03,            0.,NA,NA,"",   1.04794E+06,   1.03985E+06,   1.03985E+06
C:/temp/Job-2.odb,Step-1,Increment      1: Step Time =    1.000,"P-2-1",          7051,   129.380E-03,   159.186E-03,            0.,NA,NA,"",   1.05680E+06,   1.05130E+06,   1.05130E+06
C:/temp/Job-2.odb,Step-1,Increment      1: Step Time =    1.000,"P-2-1",          7052,   136.299E-03,   39.0175E-03,            0.,NA,NA,"",   1.05394E+06,   1.04462E+06,   1.04462E+06
C:/temp/Job-2.odb,Step-1,Increment      1: Step Time =    1.000,"P-2-1",          7053,   138.787E-03,   60.4010E-03,            0.,NA,NA,"",   1.10650E+06,   1.07717E+06,   1.07717E+06
C:/temp/Job-2.odb,Step-1,Increment      1: Step Time =    1.000,"P-2-1",          7054,   152.990E-03,   128.454E-03,            0.,NA,NA,"",   1.03111E+06,   1.01491E+06,   1.01491E+06
C:/temp/Job-2.odb,Step-1,Increment      1: Step Time =    1.000,"P-2-1",          7055,   54.2767E-03,   142.326E-03,            0.,NA,NA,"",   1.04505E+06,   1.05695E+06,   1.05695E+06
C:/temp/Job-2.odb,Step-1,Increment      1: Step Time =    1.000,"P-2-1",          7056,   52.3878E-03,   144.327E-03,            0.,NA,NA,"",   1.04020E+06,   1.05494E+06,   1.05494E+06
C:/temp/Job-2.odb,Step-1,Increment      1: Step Time =    1.000,"P-2-1",          7057,   52.8336E-03,   146.161E-03,            0.,NA,NA,"",   1.04417E+06,   1.05798E+06,   1.05798E+06
C:/temp/Job-2.odb,Step-1,Increment      1: Step Time =    1.000,"P-2-1",          7058,   142.452E-03,   147.476E-03,            0.,NA,NA,"",   1.08235E+06,   1.06162E+06,   1.06162E+06
C:/temp/Job-2.odb,Step-1,Increment      1: Step Time =    1.000,"P-2-1",          7059,   143.456E-03,   149.541E-03,            0.,NA,NA,"",   1.07627E+06,   1.05738E+06,   1.05738E+06
C:/temp/Job-2.odb,Step-1,Increment      1: Step Time =    1.000,"P-2-1",          7060,   55.7611E-03,   55.0308E-03,            0.,NA,NA,"",   1.05518E+06,   1.06444E+06,   1.06444E+06
C:/temp/Job-2.odb,Step-1,Increment      1: Step Time =    1.000,"P-2-1",          7061,   129.677E-03,   160.962E-03,            0.,NA,NA,"",   1.05133E+06,   1.04642E+06,   1.04642E+06
C:/temp/Job-2.odb,Step-1,Increment      1: Step Time =    1.000,"P-2-1",          7062,   130.494E-03,   162.752E-03,            0.,NA,NA,"",   1.04640E+06,   1.04168E+06,   1.04168E+06
C:/temp/Job-2.odb,Step-1,Increment      1: Step Time =    1.000,"P-2-1",          7063,   56.8893E-03,   54.0670E-03,            0.,NA,NA,"",   1.05954E+06,   1.06752E+06,   1.06752E+06
C:/temp/Job-2.odb,Step-1,Increment      1: Step Time =    1.000,"P-2-1",          7064,   41.5566E-03,   63.0958E-03,            0.,NA,NA,"",   968.542E+03,   1.00805E+06,   1.00805E+06
C:/temp/Job-2.odb,Step-1,Increment      1: Step Time =    1.000,"P-2-1",          7065,   42.7363E-03,   66.4661E-03,            0.,NA,NA,"",   961.549E+03,   1.00079E+06,   1.00079E+06
C:/temp/Job-2.odb,Step-1,Increment      1: Step Time =    1.000,"P-2-1",          7066,   160.147E-03,   134.368E-03,            0.,NA,NA,"",   1.02982E+06,   1.01899E+06,   1.01899E+06
C:/temp/Job-2.odb,Step-1,Increment      1: Step Time =    1.000,"P-2-1",          7067,   160.936E-03,   133.246E-03,            0.,NA,NA,"",   1.02558E+06,   1.01593E+06,   1.01593E+06
C:/temp/Job-2.odb,Step-1,Increment      1: Step Time =    1.000,"P-2-1",          7068,   161.473E-03,   131.680E-03,            0.,NA,NA,"",   1.02085E+06,   1.01245E+06,   1.01245E+06
C:/temp/Job-2.odb,Step-1,Increment      1: Step Time =    1.000,"P-2-1",          7069,   143.348E-03,   53.0834E-03,            0.,NA,NA,"",   1.08055E+06,   1.05957E+06,   1.05957E+06
C:/temp/Job-2.odb,Step-1,Increment      1: Step Time =    1.000,"P-2-1",          7070,   162.408E-03,   61.4683E-03,            0.,NA,NA,"",   1.03104E+06,   1.02152E+06,   1.02152E+06
C:/temp/Job-2.odb,Step-1,Increment      1: Step Time =    1.000,"P-2-1",          7071,   70.7267E-03,   36.4144E-03,            0.,NA,NA,"",   1.04974E+06,   1.05474E+06,   1.05474E+06
C:/temp/Job-2.odb,Step-1,Increment      1: Step Time =    1.000,"P-2-1",          7072,   52.8648E-03,   55.6048E-03,            0.,NA,NA,"",   1.04252E+06,   1.05643E+06,   1.05643E+06
C:/temp/Job-2.odb,Step-1,Increment      1: Step Time =    1.000,"P-2-1",          7073,   157.387E-03,   63.2306E-03,            0.,NA,NA,"",   1.04098E+06,   1.02687E+06,   1.02687E+06
C:/temp/Job-2.odb,Step-1,Increment      1: Step Time =    1.000,"P-2-1",          7074,   151.558E-03,   58.0212E-03,            0.,NA,NA,"",   1.06235E+06,   1.04327E+06,   1.04327E+06
C:/temp/Job-2.odb,Step-1,Increment      1: Step Time =    1.000,"P-2-1",          7075,   41.9552E-03,   127.451E-03,            0.,NA,NA,"",   928.595E+03,   974.491E+03,   974.491E+03
C:/temp/Job-2.odb,Step-1,Increment      1: Step Time =    1.000,"P-2-1",          7076,   58.9704E-03,   145.780E-03,            0.,NA,NA,"",   1.06642E+06,   1.07191E+06,   1.07191E+06
C:/temp/Job-2.odb,Step-1,Increment      1: Step Time =    1.000,"P-2-1",          7077,   59.3977E-03,   47.9093E-03,            0.,NA,NA,"",   1.06556E+06,   1.07134E+06,   1.07134E+06
C:/temp/Job-2.odb,Step-1,Increment      1: Step Time =    1.000,"P-2-1",          7078,   69.8926E-03,   38.5186E-03,            0.,NA,NA,"",   1.05492E+06,   1.05987E+06,   1.05987E+06
C:/temp/Job-2.odb,Step-1,Increment      1: Step Time =    1.000,"P-2-1",          7079,   155.020E-03,   128.813E-03,            0.,NA,NA,"",   1.02738E+06,   1.01328E+06,   1.01328E+06
C:/temp/Job-2.odb,Step-1,Increment      1: Step Time =    1.000,"P-2-1",          7080,   47.9563E-03,   63.6688E-03,            0.,NA,NA,"",   998.474E+03,   1.02464E+06,   1.02464E+06
C:/temp/Job-2.odb,Step-1,Increment      1: Step Time =    1.000,"P-2-1",          7081,   143.755E-03,   155.088E-03,            0.,NA,NA,"",   1.06477E+06,   1.04975E+06,   1.04975E+06
C:/temp/Job-2.odb,Step-1,Increment      1: Step Time =    1.000,"P-2-1",          7082,   134.735E-03,   164.199E-03,            0.,NA,NA,"",   1.04471E+06,   1.03795E+06,   1.03795E+06
C:/temp/Job-2.odb,Step-1,Increment      1: Step Time =    1.000,"P-2-1",          7083,   52.7537E-03,   58.0036E-03,            0.,NA,NA,"",   1.03817E+06,   1.05278E+06,   1.05278E+06
C:/temp/Job-2.odb,Step-1,Increment      1: Step Time =    1.000,"P-2-1",          7084,   155.293E-03,   127.158E-03,            0.,NA,NA,"",   1.02073E+06,   1.00788E+06,   1.00788E+06
C:/temp/Job-2.odb,Step-1,Increment      1: Step Time =    1.000,"P-2-1",          7085,   163.073E-03,   128.077E-03,            0.,NA,NA,"",   1.00865E+06,   1.00356E+06,   1.00356E+06
C:/temp/Job-2.odb,Step-1,Increment      1: Step Time =    1.000,"P-2-1",          7086,   58.7708E-03,   36.3586E-03,            0.,NA,NA,"",   1.05345E+06,   1.05894E+06,   1.05894E+06
C:/temp/Job-2.odb,Step-1,Increment      1: Step Time =    1.000,"P-2-1",          7087,   59.8483E-03,   34.7391E-03,            0.,NA,NA,"",   1.05139E+06,   1.05620E+06,   1.05620E+06
C:/temp/Job-2.odb,Step-1,Increment      1: Step Time =    1.000,"P-2-1",          7088,   56.6311E-03,   52.4142E-03,            0.,NA,NA,"",   1.05940E+06,   1.06765E+06,   1.06765E+06
C:/temp/Job-2.odb,Step-1,Increment      1: Step Time =    1.000,"P-2-1",          7089,   46.0698E-03,   63.3089E-03,            0.,NA,NA,"",   991.201E+03,   1.02091E+06,   1.02091E+06
C:/temp/Job-2.odb,Step-1,Increment      1: Step Time =    1.000,"P-2-1",          7090,   43.4130E-03,   138.124E-03,            0.,NA,NA,"",   982.128E+03,   1.01693E+06,   1.01693E+06
C:/temp/Job-2.odb,Step-1,Increment      1: Step Time =    1.000,"P-2-1",          7091,   157.301E-03,   128.020E-03,            0.,NA,NA,"",   1.01989E+06,   1.00868E+06,   1.00868E+06
C:/temp/Job-2.odb,Step-1,Increment      1: Step Time =    1.000,"P-2-1",          7092,   157.361E-03,   130.775E-03,            0.,NA,NA,"",   1.02802E+06,   1.01574E+06,   1.01574E+06
C:/temp/Job-2.odb,Step-1,Increment      1: Step Time =    1.000,"P-2-1",          7093,   153.271E-03,   138.780E-03,            0.,NA,NA,"",   1.05497E+06,   1.03698E+06,   1.03698E+06
C:/temp/Job-2.odb,Step-1,Increment      1: Step Time =    1.000,"P-2-1",          7094,   57.0320E-03,   43.9747E-03,            0.,NA,NA,"",   1.05913E+06,   1.06665E+06,   1.06665E+06
