ODB Name,Step,Frame,Part Instance Name,    Node Label,X,Y,Z,Section Name,Material Name,Section Point,       S-Mises,S-Max. In-Plane Principal (Abs),S-Max. Principal (Abs)
C:/temp/Job-5.odb,Step-1,Increment      1: Step Time =    1.000,"P-5-1",             1,   94.5765E-03,   111.262E-03,            0.,NA,NA,"",   1.62454E+06,   1.68671E+06,   1.68671E+06
C:/temp/Job-5.odb,Step-1,Increment      1: Step Time =    1.000,"P-5-1",             2,   90.2271E-03,   107.794E-03,            0.,NA,NA,"",   915.700E+03,   830.092E+03,   830.092E+03
C:/temp/Job-5.odb,Step-1,Increment      1: Step Time =    1.000,"P-5-1",             3,   87.8134E-03,   102.782E-03,            0.,NA,NA,"",   456.031E+03,   86.7293E+03,   86.7293E+03
C:/temp/Job-5.odb,Step-1,Increment      1: Step Time =    1.000,"P-5-1",             4,   90.2271E-03,   92.2064E-03,            0.,NA,NA,"",   1.03333E+06,   969.882E+03,   969.882E+03
C:/temp/Job-5.odb,Step-1,Increment      1: Step Time =    1.000,"P-5-1",             5,   94.5765E-03,   88.7379E-03,            0.,NA,NA,"",   1.79379E+06,   1.85681E+06,   1.85681E+06
C:/temp/Job-5.odb,Step-1,Increment      1: Step Time =    1.000,"P-5-1",             6,   100.000E-03,   87.5000E-03,            0.,NA,NA,"",   2.13109E+06,   2.23414E+06,   2.23414E+06
C:/temp/Job-5.odb,Step-1,Increment      1: Step Time =    1.000,"P-5-1",             7,   105.424E-03,   88.7379E-03,            0.,NA,NA,"",   1.66182E+06,   1.73119E+06,   1.73119E+06
C:/temp/Job-5.odb,Step-1,Increment      1: Step Time =    1.000,"P-5-1",             8,   109.773E-03,   92.2064E-03,            0.,NA,NA,"",   939.679E+03,   834.117E+03,   834.117E+03
C:/temp/Job-5.odb,Step-1,Increment      1: Step Time =    1.000,"P-5-1",             9,   112.187E-03,   97.2185E-03,            0.,NA,NA,"",   471.916E+03,  -83.8851E+03,  -83.8851E+03
C:/temp/Job-5.odb,Step-1,Increment      1: Step Time =    1.000,"P-5-1",            10,   109.773E-03,   107.794E-03,            0.,NA,NA,"",   948.822E+03,   852.073E+03,   852.073E+03
C:/temp/Job-5.odb,Step-1,Increment      1: Step Time =    1.000,"P-5-1",            11,   105.424E-03,   111.262E-03,            0.,NA,NA,"",   1.63763E+06,   1.70110E+06,   1.70110E+06
C:/temp/Job-5.odb,Step-1,Increment      1: Step Time =    1.000,"P-5-1",            12,   100.000E-03,   112.500E-03,            0.,NA,NA,"",   2.10076E+06,   2.19075E+06,   2.19075E+06
C:/temp/Job-5.odb,Step-1,Increment      1: Step Time =    1.000,"P-5-1",            13,   200.000E-03,            0.,            0.,NA,NA,"",   999.976E+03,   999.953E+03,   999.953E+03
C:/temp/Job-5.odb,Step-1,Increment      1: Step Time =    1.000,"P-5-1",            14,            0.,            0.,            0.,NA,NA,"",   1.51827E+06,   1.59147E+06,   1.59147E+06
C:/temp/Job-5.odb,Step-1,Increment      1: Step Time =    1.000,"P-5-1",            15,   200.000E-03,   200.000E-03,            0.,NA,NA,"",   999.974E+03,   999.949E+03,   999.949E+03
C:/temp/Job-5.odb,Step-1,Increment      1: Step Time =    1.000,"P-5-1",            16,            0.,   200.000E-03,            0.,NA,NA,"",   1.51783E+06,   1.59065E+06,   1.59065E+06
C:/temp/Job-5.odb,Step-1,Increment      1: Step Time =    1.000,"P-5-1",            17,   87.8134E-03,   97.2185E-03,            0.,NA,NA,"",   497.659E+03,   29.1258E+03,   29.1258E+03
C:/temp/Job-5.odb,Step-1,Increment      1: Step Time =    1.000,"P-5-1",            18,   112.187E-03,   102.782E-03,            0.,NA,NA,"",   508.607E+03,   73.3170E+03,   73.3170E+03
C:/temp/Job-5.odb,Step-1,Increment      1: Step Time =    1.000,"P-5-1",            19,   194.286E-03,            0.,            0.,NA,NA,"",   999.880E+03,   999.854E+03,   999.854E+03
C:/temp/Job-5.odb,Step-1,Increment      1: Step Time =    1.000,"P-5-1",            20,   188.571E-03,            0.,            0.,NA,NA,"",   999.594E+03,   999.580E+03,   999.580E+03
C:/temp/Job-5.odb,Step-1,Increment      1: Step Time =    1.000,"P-5-1",            21,   182.857E-03,            0.,            0.,NA,NA,"",   999.177E+03,   999.152E+03,   999.152E+03
C:/temp/Job-5.odb,Step-1,Increment      1: Step Time =    1.000,"P-5-1",            22,   177.143E-03,            0.,            0.,NA,NA,"",   998.555E+03,   998.507E+03,   998.507E+03
C:/temp/Job-5.odb,Step-1,Increment      1: Step Time =    1.000,"P-5-1",            23,   171.429E-03,            0.,            0.,NA,NA,"",   997.564E+03,   997.488E+03,   997.488E+03
C:/temp/Job-5.odb,Step-1,Increment      1: Step Time =    1.000,"P-5-1",            24,   165.714E-03,            0.,            0.,NA,NA,"",   995.995E+03,   995.890E+03,   995.890E+03
C:/temp/Job-5.odb,Step-1,Increment      1: Step Time =    1.000,"P-5-1",            25,   160.000E-03,            0.,            0.,NA,NA,"",   993.607E+03,   993.466E+03,   993.466E+03
C:/temp/Job-5.odb,Step-1,Increment      1: Step Time =    1.000,"P-5-1",            26,   154.286E-03,            0.,            0.,NA,NA,"",   990.075E+03,   989.959E+03,   989.959E+03
C:/temp/Job-5.odb,Step-1,Increment      1: Step Time =    1.000,"P-5-1",            27,   148.571E-03,            0.,            0.,NA,NA,"",   985.327E+03,   985.186E+03,   985.186E+03
C:/temp/Job-5.odb,Step-1,Increment      1: Step Time =    1.000,"P-5-1",            28,   142.857E-03,            0.,            0.,NA,NA,"",   979.172E+03,   979.075E+03,   979.075E+03
C:/temp/Job-5.odb,Step-1,Increment      1: Step Time =    1.000,"P-5-1",            29,   137.143E-03,            0.,            0.,NA,NA,"",   971.893E+03,   971.803E+03,   971.803E+03
C:/temp/Job-5.odb,Step-1,Increment      1: Step Time =    1.000,"P-5-1",            30,   131.429E-03,            0.,            0.,NA,NA,"",   963.781E+03,   963.747E+03,   963.747E+03
C:/temp/Job-5.odb,Step-1,Increment      1: Step Time =    1.000,"P-5-1",            31,   125.714E-03,            0.,            0.,NA,NA,"",   955.388E+03,   955.416E+03,   955.416E+03
C:/temp/Job-5.odb,Step-1,Increment      1: Step Time =    1.000,"P-5-1",            32,   120.000E-03,            0.,            0.,NA,NA,"",   947.352E+03,   947.426E+03,   947.426E+03
C:/temp/Job-5.odb,Step-1,Increment      1: Step Time =    1.000,"P-5-1",            33,   114.286E-03,            0.,            0.,NA,NA,"",   940.174E+03,   940.337E+03,   940.337E+03
C:/temp/Job-5.odb,Step-1,Increment      1: Step Time =    1.000,"P-5-1",            34,   108.571E-03,            0.,            0.,NA,NA,"",   934.519E+03,   934.712E+03,   934.712E+03
C:/temp/Job-5.odb,Step-1,Increment      1: Step Time =    1.000,"P-5-1",            35,   102.857E-03,            0.,            0.,NA,NA,"",   930.739E+03,   930.970E+03,   930.970E+03
C:/temp/Job-5.odb,Step-1,Increment      1: Step Time =    1.000,"P-5-1",            36,   97.1429E-03,            0.,            0.,NA,NA,"",   929.151E+03,   929.405E+03,   929.405E+03
C:/temp/Job-5.odb,Step-1,Increment      1: Step Time =    1.000,"P-5-1",            37,   91.4286E-03,            0.,            0.,NA,NA,"",   929.963E+03,   930.163E+03,   930.163E+03
C:/temp/Job-5.odb,Step-1,Increment      1: Step Time =    1.000,"P-5-1",            38,   85.7143E-03,            0.,            0.,NA,NA,"",   932.887E+03,   933.088E+03,   933.088E+03
C:/temp/Job-5.odb,Step-1,Increment      1: Step Time =    1.000,"P-5-1",            39,   80.0000E-03,            0.,            0.,NA,NA,"",   937.717E+03,   937.773E+03,   937.773E+03
C:/temp/Job-5.odb,Step-1,Increment      1: Step Time =    1.000,"P-5-1",            40,   74.2857E-03,            0.,            0.,NA,NA,"",   943.547E+03,   943.682E+03,   943.682E+03
C:/temp/Job-5.odb,Step-1,Increment      1: Step Time =    1.000,"P-5-1",            41,   68.5714E-03,            0.,            0.,NA,NA,"",   950.451E+03,   950.378E+03,   950.378E+03
C:/temp/Job-5.odb,Step-1,Increment      1: Step Time =    1.000,"P-5-1",            42,   62.8571E-03,            0.,            0.,NA,NA,"",   957.380E+03,   957.525E+03,   957.525E+03
C:/temp/Job-5.odb,Step-1,Increment      1: Step Time =    1.000,"P-5-1",            43,   57.1429E-03,            0.,            0.,NA,NA,"",   965.211E+03,   965.121E+03,   965.121E+03
C:/temp/Job-5.odb,Step-1,Increment      1: Step Time =    1.000,"P-5-1",            44,   51.4286E-03,            0.,            0.,NA,NA,"",   973.064E+03,   973.290E+03,   973.290E+03
C:/temp/Job-5.odb,Step-1,Increment      1: Step Time =    1.000,"P-5-1",            45,   45.7143E-03,            0.,            0.,NA,NA,"",   982.473E+03,   982.495E+03,   982.495E+03
C:/temp/Job-5.odb,Step-1,Increment      1: Step Time =    1.000,"P-5-1",            46,   40.0000E-03,            0.,            0.,NA,NA,"",   993.129E+03,   993.661E+03,   993.661E+03
C:/temp/Job-5.odb,Step-1,Increment      1: Step Time =    1.000,"P-5-1",            47,   34.2857E-03,            0.,            0.,NA,NA,"",   1.00790E+06,   1.00820E+06,   1.00820E+06
C:/temp/Job-5.odb,Step-1,Increment      1: Step Time =    1.000,"P-5-1",            48,   28.5714E-03,            0.,            0.,NA,NA,"",   1.02741E+06,   1.02893E+06,   1.02893E+06
C:/temp/Job-5.odb,Step-1,Increment      1: Step Time =    1.000,"P-5-1",            49,   22.8571E-03,            0.,            0.,NA,NA,"",   1.05877E+06,   1.05958E+06,   1.05958E+06
C:/temp/Job-5.odb,Step-1,Increment      1: Step Time =    1.000,"P-5-1",            50,   17.1429E-03,            0.,            0.,NA,NA,"",   1.10515E+06,   1.11024E+06,   1.11024E+06
C:/temp/Job-5.odb,Step-1,Increment      1: Step Time =    1.000,"P-5-1",            51,   11.4286E-03,            0.,            0.,NA,NA,"",   1.19247E+06,   1.19477E+06,   1.19477E+06
C:/temp/Job-5.odb,Step-1,Increment      1: Step Time =    1.000,"P-5-1",            52,   5.71429E-03,            0.,            0.,NA,NA,"",   1.38710E+06,   1.41919E+06,   1.41919E+06
C:/temp/Job-5.odb,Step-1,Increment      1: Step Time =    1.000,"P-5-1",            53,   200.000E-03,   194.286E-03,            0.,NA,NA,"",   1.00004E+06,   999.969E+03,   999.969E+03
C:/temp/Job-5.odb,Step-1,Increment      1: Step Time =    1.000,"P-5-1",            54,   200.000E-03,   188.571E-03,            0.,NA,NA,"",   1.00017E+06,   1.00001E+06,   1.00001E+06
C:/temp/Job-5.odb,Step-1,Increment      1: Step Time =    1.000,"P-5-1",            55,   200.000E-03,   182.857E-03,            0.,NA,NA,"",   1.00030E+06,   1.00007E+06,   1.00007E+06
C:/temp/Job-5.odb,Step-1,Increment      1: Step Time =    1.000,"P-5-1",            56,   200.000E-03,   177.143E-03,            0.,NA,NA,"",   1.00031E+06,   1.00016E+06,   1.00016E+06
C:/temp/Job-5.odb,Step-1,Increment      1: Step Time =    1.000,"P-5-1",            57,   200.000E-03,   171.429E-03,            0.,NA,NA,"",   999.965E+03,   1.00018E+06,   1.00018E+06
C:/temp/Job-5.odb,Step-1,Increment      1: Step Time =    1.000,"P-5-1",            58,   200.000E-03,   165.714E-03,            0.,NA,NA,"",   999.304E+03,   1.00029E+06,   1.00029E+06
C:/temp/Job-5.odb,Step-1,Increment      1: Step Time =    1.000,"P-5-1",            59,   200.000E-03,   160.000E-03,            0.,NA,NA,"",   997.939E+03,   1.00029E+06,   1.00029E+06
C:/temp/Job-5.odb,Step-1,Increment      1: Step Time =    1.000,"P-5-1",            60,   200.000E-03,   154.286E-03,            0.,NA,NA,"",   995.918E+03,   1.00032E+06,   1.00032E+06
C:/temp/Job-5.odb,Step-1,Increment      1: Step Time =    1.000,"P-5-1",            61,   200.000E-03,   148.571E-03,            0.,NA,NA,"",   993.084E+03,   1.00030E+06,   1.00030E+06
C:/temp/Job-5.odb,Step-1,Increment      1: Step Time =    1.000,"P-5-1",            62,   200.000E-03,   142.857E-03,            0.,NA,NA,"",   989.491E+03,   1.00023E+06,   1.00023E+06
C:/temp/Job-5.odb,Step-1,Increment      1: Step Time =    1.000,"P-5-1",            63,   200.000E-03,   137.143E-03,            0.,NA,NA,"",   985.371E+03,   1.00020E+06,   1.00020E+06
C:/temp/Job-5.odb,Step-1,Increment      1: Step Time =    1.000,"P-5-1",            64,   200.000E-03,   131.429E-03,            0.,NA,NA,"",   980.801E+03,   1.00007E+06,   1.00007E+06
C:/temp/Job-5.odb,Step-1,Increment      1: Step Time =    1.000,"P-5-1",            65,   200.000E-03,   125.714E-03,            0.,NA,NA,"",   976.202E+03,   999.960E+03,   999.960E+03
C:/temp/Job-5.odb,Step-1,Increment      1: Step Time =    1.000,"P-5-1",            66,   200.000E-03,   120.000E-03,            0.,NA,NA,"",   971.799E+03,   999.758E+03,   999.758E+03
C:/temp/Job-5.odb,Step-1,Increment      1: Step Time =    1.000,"P-5-1",            67,   200.000E-03,   114.286E-03,            0.,NA,NA,"",   968.112E+03,   999.606E+03,   999.606E+03
C:/temp/Job-5.odb,Step-1,Increment      1: Step Time =    1.000,"P-5-1",            68,   200.000E-03,   108.571E-03,            0.,NA,NA,"",   965.394E+03,   999.418E+03,   999.418E+03
C:/temp/Job-5.odb,Step-1,Increment      1: Step Time =    1.000,"P-5-1",            69,   200.000E-03,   102.857E-03,            0.,NA,NA,"",   964.072E+03,   999.390E+03,   999.390E+03
C:/temp/Job-5.odb,Step-1,Increment      1: Step Time =    1.000,"P-5-1",            70,   200.000E-03,   97.1429E-03,            0.,NA,NA,"",   964.066E+03,   999.334E+03,   999.334E+03
C:/temp/Job-5.odb,Step-1,Increment      1: Step Time =    1.000,"P-5-1",            71,   200.000E-03,   91.4286E-03,            0.,NA,NA,"",   965.589E+03,   999.475E+03,   999.475E+03
C:/temp/Job-5.odb,Step-1,Increment      1: Step Time =    1.000,"P-5-1",            72,   200.000E-03,   85.7143E-03,            0.,NA,NA,"",   968.268E+03,   999.587E+03,   999.587E+03
C:/temp/Job-5.odb,Step-1,Increment      1: Step Time =    1.000,"P-5-1",            73,   200.000E-03,   80.0000E-03,            0.,NA,NA,"",   971.948E+03,   999.733E+03,   999.733E+03
C:/temp/Job-5.odb,Step-1,Increment      1: Step Time =    1.000,"P-5-1",            74,   200.000E-03,   74.2857E-03,            0.,NA,NA,"",   976.384E+03,   999.967E+03,   999.967E+03
C:/temp/Job-5.odb,Step-1,Increment      1: Step Time =    1.000,"P-5-1",            75,   200.000E-03,   68.5714E-03,            0.,NA,NA,"",   980.977E+03,   1.00004E+06,   1.00004E+06
C:/temp/Job-5.odb,Step-1,Increment      1: Step Time =    1.000,"P-5-1",            76,   200.000E-03,   62.8571E-03,            0.,NA,NA,"",   985.657E+03,   1.00023E+06,   1.00023E+06
C:/temp/Job-5.odb,Step-1,Increment      1: Step Time =    1.000,"P-5-1",            77,   200.000E-03,   57.1429E-03,            0.,NA,NA,"",   989.808E+03,   1.00025E+06,   1.00025E+06
C:/temp/Job-5.odb,Step-1,Increment      1: Step Time =    1.000,"P-5-1",            78,   200.000E-03,   51.4286E-03,            0.,NA,NA,"",   993.411E+03,   1.00031E+06,   1.00031E+06
C:/temp/Job-5.odb,Step-1,Increment      1: Step Time =    1.000,"P-5-1",            79,   200.000E-03,   45.7143E-03,            0.,NA,NA,"",   996.204E+03,   1.00030E+06,   1.00030E+06
C:/temp/Job-5.odb,Step-1,Increment      1: Step Time =    1.000,"P-5-1",            80,   200.000E-03,   40.0000E-03,            0.,NA,NA,"",   998.217E+03,   1.00028E+06,   1.00028E+06
C:/temp/Job-5.odb,Step-1,Increment      1: Step Time =    1.000,"P-5-1",            81,   200.000E-03,   34.2857E-03,            0.,NA,NA,"",   999.507E+03,   1.00025E+06,   1.00025E+06
C:/temp/Job-5.odb,Step-1,Increment      1: Step Time =    1.000,"P-5-1",            82,   200.000E-03,   28.5714E-03,            0.,NA,NA,"",   1.00016E+06,   1.00018E+06,   1.00018E+06
C:/temp/Job-5.odb,Step-1,Increment      1: Step Time =    1.000,"P-5-1",            83,   200.000E-03,   22.8571E-03,            0.,NA,NA,"",   1.00041E+06,   1.00014E+06,   1.00014E+06
C:/temp/Job-5.odb,Step-1,Increment      1: Step Time =    1.000,"P-5-1",            84,   200.000E-03,   17.1429E-03,            0.,NA,NA,"",   1.00034E+06,   1.00005E+06,   1.00005E+06
C:/temp/Job-5.odb,Step-1,Increment      1: Step Time =    1.000,"P-5-1",            85,   200.000E-03,   11.4286E-03,            0.,NA,NA,"",   1.00019E+06,   1.00001E+06,   1.00001E+06
C:/temp/Job-5.odb,Step-1,Increment      1: Step Time =    1.000,"P-5-1",            86,   200.000E-03,   5.71429E-03,            0.,NA,NA,"",   1.00003E+06,   999.954E+03,   999.954E+03
C:/temp/Job-5.odb,Step-1,Increment      1: Step Time =    1.000,"P-5-1",            87,   5.71429E-03,   200.000E-03,            0.,NA,NA,"",   1.38653E+06,   1.41870E+06,   1.41870E+06
C:/temp/Job-5.odb,Step-1,Increment      1: Step Time =    1.000,"P-5-1",            88,   11.4286E-03,   200.000E-03,            0.,NA,NA,"",   1.19243E+06,   1.19501E+06,   1.19501E+06
C:/temp/Job-5.odb,Step-1,Increment      1: Step Time =    1.000,"P-5-1",            89,   17.1429E-03,   200.000E-03,            0.,NA,NA,"",   1.10574E+06,   1.11104E+06,   1.11104E+06
C:/temp/Job-5.odb,Step-1,Increment      1: Step Time =    1.000,"P-5-1",            90,   22.8571E-03,   200.000E-03,            0.,NA,NA,"",   1.05983E+06,   1.06075E+06,   1.06075E+06
C:/temp/Job-5.odb,Step-1,Increment      1: Step Time =    1.000,"P-5-1",            91,   28.5714E-03,   200.000E-03,            0.,NA,NA,"",   1.02841E+06,   1.03005E+06,   1.03005E+06
C:/temp/Job-5.odb,Step-1,Increment      1: Step Time =    1.000,"P-5-1",            92,   34.2857E-03,   200.000E-03,            0.,NA,NA,"",   1.00855E+06,   1.00894E+06,   1.00894E+06
C:/temp/Job-5.odb,Step-1,Increment      1: Step Time =    1.000,"P-5-1",            93,   40.0000E-03,   200.000E-03,            0.,NA,NA,"",   993.469E+03,   994.045E+03,   994.045E+03
C:/temp/Job-5.odb,Step-1,Increment      1: Step Time =    1.000,"P-5-1",            94,   45.7143E-03,   200.000E-03,            0.,NA,NA,"",   982.473E+03,    982.58E+03,    982.58E+03
C:/temp/Job-5.odb,Step-1,Increment      1: Step Time =    1.000,"P-5-1",            95,   51.4286E-03,   200.000E-03,            0.,NA,NA,"",   973.026E+03,   973.208E+03,   973.208E+03
C:/temp/Job-5.odb,Step-1,Increment      1: Step Time =    1.000,"P-5-1",            96,   57.1429E-03,   200.000E-03,            0.,NA,NA,"",   964.906E+03,   964.867E+03,   964.867E+03
C:/temp/Job-5.odb,Step-1,Increment      1: Step Time =    1.000,"P-5-1",            97,   62.8571E-03,   200.000E-03,            0.,NA,NA,"",   956.919E+03,   957.014E+03,   957.014E+03
C:/temp/Job-5.odb,Step-1,Increment      1: Step Time =    1.000,"P-5-1",            98,   68.5714E-03,   200.000E-03,            0.,NA,NA,"",   949.547E+03,   949.528E+03,   949.528E+03
C:/temp/Job-5.odb,Step-1,Increment      1: Step Time =    1.000,"P-5-1",            99,   74.2857E-03,   200.000E-03,            0.,NA,NA,"",   942.473E+03,   942.605E+03,   942.605E+03
C:/temp/Job-5.odb,Step-1,Increment      1: Step Time =    1.000,"P-5-1",           100,   80.0000E-03,   200.000E-03,            0.,NA,NA,"",   936.538E+03,   936.615E+03,   936.615E+03
C:/temp/Job-5.odb,Step-1,Increment      1: Step Time =    1.000,"P-5-1",           101,   85.7143E-03,   200.000E-03,            0.,NA,NA,"",   931.811E+03,   932.031E+03,   932.031E+03
C:/temp/Job-5.odb,Step-1,Increment      1: Step Time =    1.000,"P-5-1",           102,   91.4286E-03,   200.000E-03,            0.,NA,NA,"",   929.102E+03,   929.275E+03,   929.275E+03
C:/temp/Job-5.odb,Step-1,Increment      1: Step Time =    1.000,"P-5-1",           103,   97.1429E-03,   200.000E-03,            0.,NA,NA,"",   928.362E+03,   928.625E+03,   928.625E+03
C:/temp/Job-5.odb,Step-1,Increment      1: Step Time =    1.000,"P-5-1",           104,   102.857E-03,   200.000E-03,            0.,NA,NA,"",   930.078E+03,   930.297E+03,   930.297E+03
C:/temp/Job-5.odb,Step-1,Increment      1: Step Time =    1.000,"P-5-1",           105,   108.571E-03,   200.000E-03,            0.,NA,NA,"",   934.083E+03,   934.305E+03,   934.305E+03
C:/temp/Job-5.odb,Step-1,Increment      1: Step Time =    1.000,"P-5-1",           106,   114.286E-03,   200.000E-03,            0.,NA,NA,"",   940.209E+03,   940.341E+03,   940.341E+03
C:/temp/Job-5.odb,Step-1,Increment      1: Step Time =    1.000,"P-5-1",           107,   120.000E-03,   200.000E-03,            0.,NA,NA,"",   947.763E+03,   947.855E+03,   947.855E+03
C:/temp/Job-5.odb,Step-1,Increment      1: Step Time =    1.000,"P-5-1",           108,   125.714E-03,   200.000E-03,            0.,NA,NA,"",   956.177E+03,   956.162E+03,   956.162E+03
C:/temp/Job-5.odb,Step-1,Increment      1: Step Time =    1.000,"P-5-1",           109,   131.429E-03,   200.000E-03,            0.,NA,NA,"",   964.623E+03,   964.593E+03,   964.593E+03
C:/temp/Job-5.odb,Step-1,Increment      1: Step Time =    1.000,"P-5-1",           110,   137.143E-03,   200.000E-03,            0.,NA,NA,"",   972.731E+03,   972.626E+03,   972.626E+03
C:/temp/Job-5.odb,Step-1,Increment      1: Step Time =    1.000,"P-5-1",           111,   142.857E-03,   200.000E-03,            0.,NA,NA,"",   979.929E+03,   979.817E+03,   979.817E+03
C:/temp/Job-5.odb,Step-1,Increment      1: Step Time =    1.000,"P-5-1",           112,   148.571E-03,   200.000E-03,            0.,NA,NA,"",      986.E+03,   985.857E+03,   985.857E+03
C:/temp/Job-5.odb,Step-1,Increment      1: Step Time =    1.000,"P-5-1",           113,   154.286E-03,   200.000E-03,            0.,NA,NA,"",   990.715E+03,   990.588E+03,   990.588E+03
C:/temp/Job-5.odb,Step-1,Increment      1: Step Time =    1.000,"P-5-1",           114,   160.000E-03,   200.000E-03,            0.,NA,NA,"",   994.146E+03,   994.026E+03,   994.026E+03
C:/temp/Job-5.odb,Step-1,Increment      1: Step Time =    1.000,"P-5-1",           115,   165.714E-03,   200.000E-03,            0.,NA,NA,"",   996.431E+03,   996.344E+03,   996.344E+03
C:/temp/Job-5.odb,Step-1,Increment      1: Step Time =    1.000,"P-5-1",           116,   171.429E-03,   200.000E-03,            0.,NA,NA,"",   997.873E+03,   997.809E+03,   997.809E+03
C:/temp/Job-5.odb,Step-1,Increment      1: Step Time =    1.000,"P-5-1",           117,   177.143E-03,   200.000E-03,            0.,NA,NA,"",   998.738E+03,   998.700E+03,   998.700E+03
C:/temp/Job-5.odb,Step-1,Increment      1: Step Time =    1.000,"P-5-1",           118,   182.857E-03,   200.000E-03,            0.,NA,NA,"",   999.267E+03,   999.252E+03,   999.252E+03
C:/temp/Job-5.odb,Step-1,Increment      1: Step Time =    1.000,"P-5-1",           119,   188.571E-03,   200.000E-03,            0.,NA,NA,"",   999.642E+03,   999.626E+03,   999.626E+03
C:/temp/Job-5.odb,Step-1,Increment      1: Step Time =    1.000,"P-5-1",           120,   194.286E-03,   200.000E-03,            0.,NA,NA,"",   999.882E+03,   999.865E+03,   999.865E+03
C:/temp/Job-5.odb,Step-1,Increment      1: Step Time =    1.000,"P-5-1",           121,            0.,   5.71429E-03,            0.,NA,NA,"",   1.33920E+06,   1.42443E+06,   1.42443E+06
C:/temp/Job-5.odb,Step-1,Increment      1: Step Time =    1.000,"P-5-1",           122,            0.,   11.4286E-03,            0.,NA,NA,"",   1.10855E+06,   1.20784E+06,   1.20784E+06
C:/temp/Job-5.odb,Step-1,Increment      1: Step Time =    1.000,"P-5-1",           123,            0.,   17.1429E-03,            0.,NA,NA,"",   1.02522E+06,   1.12689E+06,   1.12689E+06
C:/temp/Job-5.odb,Step-1,Increment      1: Step Time =    1.000,"P-5-1",           124,            0.,   22.8571E-03,            0.,NA,NA,"",   972.351E+03,   1.07517E+06,   1.07517E+06
C:/temp/Job-5.odb,Step-1,Increment      1: Step Time =    1.000,"P-5-1",           125,            0.,   28.5714E-03,            0.,NA,NA,"",   936.241E+03,   1.03982E+06,   1.03982E+06
C:/temp/Job-5.odb,Step-1,Increment      1: Step Time =    1.000,"P-5-1",           126,            0.,   34.2857E-03,            0.,NA,NA,"",   909.122E+03,   1.01301E+06,   1.01301E+06
C:/temp/Job-5.odb,Step-1,Increment      1: Step Time =    1.000,"P-5-1",           127,            0.,   40.0000E-03,            0.,NA,NA,"",   887.039E+03,   991.194E+03,   991.194E+03
C:/temp/Job-5.odb,Step-1,Increment      1: Step Time =    1.000,"P-5-1",           128,            0.,   45.7143E-03,            0.,NA,NA,"",   868.778E+03,   972.846E+03,   972.846E+03
C:/temp/Job-5.odb,Step-1,Increment      1: Step Time =    1.000,"P-5-1",           129,            0.,   51.4286E-03,            0.,NA,NA,"",   852.864E+03,   956.745E+03,   956.745E+03
C:/temp/Job-5.odb,Step-1,Increment      1: Step Time =    1.000,"P-5-1",           130,            0.,   57.1429E-03,            0.,NA,NA,"",   838.719E+03,   942.207E+03,   942.207E+03
C:/temp/Job-5.odb,Step-1,Increment      1: Step Time =    1.000,"P-5-1",           131,            0.,   62.8571E-03,            0.,NA,NA,"",   825.881E+03,   928.857E+03,   928.857E+03
C:/temp/Job-5.odb,Step-1,Increment      1: Step Time =    1.000,"P-5-1",           132,            0.,   68.5714E-03,            0.,NA,NA,"",   814.240E+03,   916.631E+03,   916.631E+03
C:/temp/Job-5.odb,Step-1,Increment      1: Step Time =    1.000,"P-5-1",           133,            0.,   74.2857E-03,            0.,NA,NA,"",   803.945E+03,   905.732E+03,   905.732E+03
C:/temp/Job-5.odb,Step-1,Increment      1: Step Time =    1.000,"P-5-1",           134,            0.,   80.0000E-03,            0.,NA,NA,"",   795.139E+03,   896.370E+03,   896.370E+03
C:/temp/Job-5.odb,Step-1,Increment      1: Step Time =    1.000,"P-5-1",           135,            0.,   85.7143E-03,            0.,NA,NA,"",   788.154E+03,   888.908E+03,   888.908E+03
C:/temp/Job-5.odb,Step-1,Increment      1: Step Time =    1.000,"P-5-1",           136,            0.,   91.4286E-03,            0.,NA,NA,"",   783.252E+03,   883.658E+03,   883.658E+03
C:/temp/Job-5.odb,Step-1,Increment      1: Step Time =    1.000,"P-5-1",           137,            0.,   97.1429E-03,            0.,NA,NA,"",   780.720E+03,   880.947E+03,   880.947E+03
C:/temp/Job-5.odb,Step-1,Increment      1: Step Time =    1.000,"P-5-1",           138,            0.,   102.857E-03,            0.,NA,NA,"",   780.755E+03,   880.979E+03,   880.979E+03
C:/temp/Job-5.odb,Step-1,Increment      1: Step Time =    1.000,"P-5-1",           139,            0.,   108.571E-03,            0.,NA,NA,"",   783.262E+03,   883.664E+03,   883.664E+03
C:/temp/Job-5.odb,Step-1,Increment      1: Step Time =    1.000,"P-5-1",           140,            0.,   114.286E-03,            0.,NA,NA,"",   788.175E+03,   888.934E+03,   888.934E+03
C:/temp/Job-5.odb,Step-1,Increment      1: Step Time =    1.000,"P-5-1",           141,            0.,   120.000E-03,            0.,NA,NA,"",     795.1E+03,   896.311E+03,   896.311E+03
C:/temp/Job-5.odb,Step-1,Increment      1: Step Time =    1.000,"P-5-1",           142,            0.,   125.714E-03,            0.,NA,NA,"",   803.856E+03,   905.653E+03,   905.653E+03
C:/temp/Job-5.odb,Step-1,Increment      1: Step Time =    1.000,"P-5-1",           143,            0.,   131.429E-03,            0.,NA,NA,"",   814.029E+03,   916.396E+03,   916.396E+03
C:/temp/Job-5.odb,Step-1,Increment      1: Step Time =    1.000,"P-5-1",           144,            0.,   137.143E-03,            0.,NA,NA,"",   825.562E+03,   928.545E+03,   928.545E+03
C:/temp/Job-5.odb,Step-1,Increment      1: Step Time =    1.000,"P-5-1",           145,            0.,   142.857E-03,            0.,NA,NA,"",   838.244E+03,   941.719E+03,   941.719E+03
C:/temp/Job-5.odb,Step-1,Increment      1: Step Time =    1.000,"P-5-1",           146,            0.,   148.571E-03,            0.,NA,NA,"",   852.328E+03,   956.224E+03,   956.224E+03
C:/temp/Job-5.odb,Step-1,Increment      1: Step Time =    1.000,"P-5-1",           147,            0.,   154.286E-03,            0.,NA,NA,"",   868.113E+03,   972.206E+03,   972.206E+03
C:/temp/Job-5.odb,Step-1,Increment      1: Step Time =    1.000,"P-5-1",           148,            0.,   160.000E-03,            0.,NA,NA,"",   886.304E+03,   990.485E+03,   990.485E+03
C:/temp/Job-5.odb,Step-1,Increment      1: Step Time =    1.000,"P-5-1",           149,            0.,   165.714E-03,            0.,NA,NA,"",   908.172E+03,   1.01213E+06,   1.01213E+06
C:/temp/Job-5.odb,Step-1,Increment      1: Step Time =    1.000,"P-5-1",           150,            0.,   171.429E-03,            0.,NA,NA,"",   935.431E+03,   1.03906E+06,   1.03906E+06
C:/temp/Job-5.odb,Step-1,Increment      1: Step Time =    1.000,"P-5-1",           151,            0.,   177.143E-03,            0.,NA,NA,"",   971.491E+03,   1.07436E+06,   1.07436E+06
C:/temp/Job-5.odb,Step-1,Increment      1: Step Time =    1.000,"P-5-1",           152,            0.,   182.857E-03,            0.,NA,NA,"",   1.02472E+06,   1.12634E+06,   1.12634E+06
C:/temp/Job-5.odb,Step-1,Increment      1: Step Time =    1.000,"P-5-1",           153,            0.,   188.571E-03,            0.,NA,NA,"",   1.10717E+06,   1.20631E+06,   1.20631E+06
C:/temp/Job-5.odb,Step-1,Increment      1: Step Time =    1.000,"P-5-1",           154,            0.,   194.286E-03,            0.,NA,NA,"",   1.33735E+06,   1.42226E+06,   1.42226E+06
C:/temp/Job-5.odb,Step-1,Increment      1: Step Time =    1.000,"P-5-1",           155,   104.547E-03,   117.513E-03,            0.,NA,NA,"",   1.56069E+06,   1.66186E+06,   1.66186E+06
C:/temp/Job-5.odb,Step-1,Increment      1: Step Time =    1.000,"P-5-1",           156,   80.5481E-03,   98.7867E-03,            0.,NA,NA,"",   456.672E+03,   228.551E+03,   228.551E+03
C:/temp/Job-5.odb,Step-1,Increment      1: Step Time =    1.000,"P-5-1",           157,   111.628E-03,   115.147E-03,            0.,NA,NA,"",   1.38382E+06,   1.35375E+06,   1.35375E+06
C:/temp/Job-5.odb,Step-1,Increment      1: Step Time =    1.000,"P-5-1",           158,   114.991E-03,   92.4216E-03,            0.,NA,NA,"",   806.917E+03,   625.726E+03,   625.726E+03
C:/temp/Job-5.odb,Step-1,Increment      1: Step Time =    1.000,"P-5-1",           159,   103.384E-03,   81.9082E-03,            0.,NA,NA,"",   1.54292E+06,   1.65528E+06,   1.65528E+06
C:/temp/Job-5.odb,Step-1,Increment      1: Step Time =    1.000,"P-5-1",           160,   93.5499E-03,   84.6120E-03,            0.,NA,NA,"",   1.61706E+06,   1.67807E+06,   1.67807E+06
C:/temp/Job-5.odb,Step-1,Increment      1: Step Time =    1.000,"P-5-1",           161,   114.102E-03,   86.6205E-03,            0.,NA,NA,"",   1.27491E+06,   1.18381E+06,   1.18381E+06
C:/temp/Job-5.odb,Step-1,Increment      1: Step Time =    1.000,"P-5-1",           162,   89.2871E-03,   86.0372E-03,            0.,NA,NA,"",   1.36584E+06,   1.34056E+06,   1.34056E+06
C:/temp/Job-5.odb,Step-1,Increment      1: Step Time =    1.000,"P-5-1",           163,   88.1222E-03,   114.940E-03,            0.,NA,NA,"",   1.36007E+06,   1.33380E+06,   1.33380E+06
C:/temp/Job-5.odb,Step-1,Increment      1: Step Time =    1.000,"P-5-1",           164,   119.068E-03,   99.4729E-03,            0.,NA,NA,"",   476.758E+03,   195.456E+03,   195.456E+03
C:/temp/Job-5.odb,Step-1,Increment      1: Step Time =    1.000,"P-5-1",           165,   117.939E-03,   107.080E-03,            0.,NA,NA,"",   776.137E+03,   618.946E+03,   618.946E+03
C:/temp/Job-5.odb,Step-1,Increment      1: Step Time =    1.000,"P-5-1",           166,   84.4914E-03,   90.3299E-03,            0.,NA,NA,"",   974.909E+03,   845.604E+03,   845.604E+03
C:/temp/Job-5.odb,Step-1,Increment      1: Step Time =    1.000,"P-5-1",           167,   81.9098E-03,   106.624E-03,            0.,NA,NA,"",   707.563E+03,   584.114E+03,   584.114E+03
C:/temp/Job-5.odb,Step-1,Increment      1: Step Time =    1.000,"P-5-1",           168,   95.3055E-03,   117.434E-03,            0.,NA,NA,"",   1.55986E+06,   1.65971E+06,   1.65971E+06
C:/temp/Job-5.odb,Step-1,Increment      1: Step Time =    1.000,"P-5-1",           169,   153.867E-03,   5.51141E-03,            0.,NA,NA,"",   992.020E+03,   991.612E+03,   991.612E+03
C:/temp/Job-5.odb,Step-1,Increment      1: Step Time =    1.000,"P-5-1",           170,   136.572E-03,   5.04509E-03,            0.,NA,NA,"",   975.765E+03,   975.523E+03,   975.523E+03
C:/temp/Job-5.odb,Step-1,Increment      1: Step Time =    1.000,"P-5-1",           171,   130.892E-03,   5.05103E-03,            0.,NA,NA,"",   968.714E+03,   968.609E+03,   968.609E+03
C:/temp/Job-5.odb,Step-1,Increment      1: Step Time =    1.000,"P-5-1",           172,   194.901E-03,   148.541E-03,            0.,NA,NA,"",   994.036E+03,   1.00089E+06,   1.00089E+06
C:/temp/Job-5.odb,Step-1,Increment      1: Step Time =    1.000,"P-5-1",           173,   194.994E-03,   131.530E-03,            0.,NA,NA,"",   982.674E+03,   1.00027E+06,   1.00027E+06
C:/temp/Job-5.odb,Step-1,Increment      1: Step Time =    1.000,"P-5-1",           174,   194.984E-03,   125.861E-03,            0.,NA,NA,"",   978.282E+03,   999.861E+03,   999.861E+03
C:/temp/Job-5.odb,Step-1,Increment      1: Step Time =    1.000,"P-5-1",           175,   119.481E-03,   5.15218E-03,            0.,NA,NA,"",   954.446E+03,   954.703E+03,   954.703E+03
C:/temp/Job-5.odb,Step-1,Increment      1: Step Time =    1.000,"P-5-1",           176,   113.762E-03,   5.18800E-03,            0.,NA,NA,"",   948.292E+03,   948.741E+03,   948.741E+03
C:/temp/Job-5.odb,Step-1,Increment      1: Step Time =    1.000,"P-5-1",           177,   108.033E-03,   5.20331E-03,            0.,NA,NA,"",   943.439E+03,   944.016E+03,   944.016E+03
C:/temp/Job-5.odb,Step-1,Increment      1: Step Time =    1.000,"P-5-1",           178,   102.280E-03,   5.18826E-03,            0.,NA,NA,"",   940.253E+03,   940.938E+03,   940.938E+03
C:/temp/Job-5.odb,Step-1,Increment      1: Step Time =    1.000,"P-5-1",           179,   96.5200E-03,   5.15317E-03,            0.,NA,NA,"",   939.128E+03,   939.814E+03,   939.814E+03
C:/temp/Job-5.odb,Step-1,Increment      1: Step Time =    1.000,"P-5-1",           180,   90.7732E-03,   5.11838E-03,            0.,NA,NA,"",   940.142E+03,   940.772E+03,   940.772E+03
C:/temp/Job-5.odb,Step-1,Increment      1: Step Time =    1.000,"P-5-1",           181,   85.0554E-03,   5.09562E-03,            0.,NA,NA,"",   943.223E+03,   943.692E+03,   943.692E+03
C:/temp/Job-5.odb,Step-1,Increment      1: Step Time =    1.000,"P-5-1",           182,   79.3600E-03,   5.08073E-03,            0.,NA,NA,"",   947.901E+03,   948.218E+03,   948.218E+03
C:/temp/Job-5.odb,Step-1,Increment      1: Step Time =    1.000,"P-5-1",           183,   194.902E-03,   114.443E-03,            0.,NA,NA,"",   970.375E+03,   998.835E+03,   998.835E+03
C:/temp/Job-5.odb,Step-1,Increment      1: Step Time =    1.000,"P-5-1",           184,   194.859E-03,   108.715E-03,            0.,NA,NA,"",   967.656E+03,   998.383E+03,   998.383E+03
C:/temp/Job-5.odb,Step-1,Increment      1: Step Time =    1.000,"P-5-1",           185,   194.826E-03,   102.974E-03,            0.,NA,NA,"",   966.268E+03,   998.154E+03,   998.154E+03
C:/temp/Job-5.odb,Step-1,Increment      1: Step Time =    1.000,"P-5-1",           186,   194.811E-03,   97.2585E-03,            0.,NA,NA,"",   966.299E+03,   998.137E+03,   998.137E+03
C:/temp/Job-5.odb,Step-1,Increment      1: Step Time =    1.000,"P-5-1",           187,   194.820E-03,   91.5512E-03,            0.,NA,NA,"",   967.774E+03,   998.400E+03,   998.400E+03
C:/temp/Job-5.odb,Step-1,Increment      1: Step Time =    1.000,"P-5-1",           188,   194.844E-03,   85.8697E-03,            0.,NA,NA,"",   970.435E+03,   998.786E+03,   998.786E+03
C:/temp/Job-5.odb,Step-1,Increment      1: Step Time =    1.000,"P-5-1",           189,   194.882E-03,   80.1840E-03,            0.,NA,NA,"",   974.047E+03,   999.279E+03,   999.279E+03
C:/temp/Job-5.odb,Step-1,Increment      1: Step Time =    1.000,"P-5-1",           190,   194.932E-03,   74.5007E-03,            0.,NA,NA,"",   978.251E+03,   999.780E+03,   999.780E+03
C:/temp/Job-5.odb,Step-1,Increment      1: Step Time =    1.000,"P-5-1",           191,   51.4756E-03,   194.878E-03,            0.,NA,NA,"",   983.359E+03,   983.593E+03,   983.593E+03
C:/temp/Job-5.odb,Step-1,Increment      1: Step Time =    1.000,"P-5-1",           192,   57.1590E-03,   194.957E-03,            0.,NA,NA,"",   974.524E+03,   974.648E+03,   974.648E+03
C:/temp/Job-5.odb,Step-1,Increment      1: Step Time =    1.000,"P-5-1",           193,   62.8204E-03,   195.001E-03,            0.,NA,NA,"",   966.549E+03,   966.618E+03,   966.618E+03
C:/temp/Job-5.odb,Step-1,Increment      1: Step Time =    1.000,"P-5-1",           194,   68.4778E-03,   195.026E-03,            0.,NA,NA,"",   959.131E+03,   959.250E+03,   959.250E+03
C:/temp/Job-5.odb,Step-1,Increment      1: Step Time =    1.000,"P-5-1",           195,   74.1502E-03,   195.016E-03,            0.,NA,NA,"",   952.327E+03,   952.556E+03,   952.556E+03
C:/temp/Job-5.odb,Step-1,Increment      1: Step Time =    1.000,"P-5-1",           196,   79.8443E-03,   194.979E-03,            0.,NA,NA,"",   946.516E+03,   946.883E+03,   946.883E+03
C:/temp/Job-5.odb,Step-1,Increment      1: Step Time =    1.000,"P-5-1",           197,   85.5603E-03,   194.926E-03,            0.,NA,NA,"",   942.040E+03,   942.557E+03,   942.557E+03
C:/temp/Job-5.odb,Step-1,Increment      1: Step Time =    1.000,"P-5-1",           198,   91.2557E-03,   194.891E-03,            0.,NA,NA,"",   939.256E+03,   939.876E+03,   939.876E+03
C:/temp/Job-5.odb,Step-1,Increment      1: Step Time =    1.000,"P-5-1",           199,   96.9509E-03,   194.882E-03,            0.,NA,NA,"",   938.401E+03,   939.083E+03,   939.083E+03
C:/temp/Job-5.odb,Step-1,Increment      1: Step Time =    1.000,"P-5-1",           200,   102.638E-03,   194.896E-03,            0.,NA,NA,"",   939.616E+03,   940.306E+03,   940.306E+03
C:/temp/Job-5.odb,Step-1,Increment      1: Step Time =    1.000,"P-5-1",           201,   108.355E-03,   194.909E-03,            0.,NA,NA,"",   942.976E+03,   943.574E+03,   943.574E+03
C:/temp/Job-5.odb,Step-1,Increment      1: Step Time =    1.000,"P-5-1",           202,   114.069E-03,   194.910E-03,            0.,NA,NA,"",   948.285E+03,   948.708E+03,   948.708E+03
C:/temp/Job-5.odb,Step-1,Increment      1: Step Time =    1.000,"P-5-1",           203,   119.792E-03,   194.903E-03,            0.,NA,NA,"",   954.937E+03,   955.146E+03,   955.146E+03
C:/temp/Job-5.odb,Step-1,Increment      1: Step Time =    1.000,"P-5-1",           204,   125.476E-03,   194.898E-03,            0.,NA,NA,"",   962.237E+03,   962.256E+03,   962.256E+03
C:/temp/Job-5.odb,Step-1,Increment      1: Step Time =    1.000,"P-5-1",           205,   5.10727E-03,   51.4269E-03,            0.,NA,NA,"",   862.645E+03,   962.906E+03,   962.906E+03
C:/temp/Job-5.odb,Step-1,Increment      1: Step Time =    1.000,"P-5-1",           206,   5.07566E-03,   57.1245E-03,            0.,NA,NA,"",   847.796E+03,   948.087E+03,   948.087E+03
C:/temp/Job-5.odb,Step-1,Increment      1: Step Time =    1.000,"P-5-1",           207,   5.06954E-03,   62.8309E-03,            0.,NA,NA,"",   833.955E+03,   934.117E+03,   934.117E+03
C:/temp/Job-5.odb,Step-1,Increment      1: Step Time =    1.000,"P-5-1",           208,   5.07335E-03,   68.5415E-03,            0.,NA,NA,"",   821.512E+03,   921.424E+03,   921.424E+03
C:/temp/Job-5.odb,Step-1,Increment      1: Step Time =    1.000,"P-5-1",           209,   5.08547E-03,   74.2590E-03,            0.,NA,NA,"",   810.241E+03,   909.873E+03,   909.873E+03
C:/temp/Job-5.odb,Step-1,Increment      1: Step Time =    1.000,"P-5-1",           210,   5.09149E-03,   79.9674E-03,            0.,NA,NA,"",   800.661E+03,   900.004E+03,   900.004E+03
C:/temp/Job-5.odb,Step-1,Increment      1: Step Time =    1.000,"P-5-1",           211,   5.09345E-03,   85.6703E-03,            0.,NA,NA,"",   792.913E+03,   892.009E+03,   892.009E+03
C:/temp/Job-5.odb,Step-1,Increment      1: Step Time =    1.000,"P-5-1",           212,   5.09798E-03,   91.3695E-03,            0.,NA,NA,"",   787.500E+03,   886.406E+03,   886.406E+03
C:/temp/Job-5.odb,Step-1,Increment      1: Step Time =    1.000,"P-5-1",           213,   5.10779E-03,   97.0829E-03,            0.,NA,NA,"",   784.682E+03,   883.483E+03,   883.483E+03
C:/temp/Job-5.odb,Step-1,Increment      1: Step Time =    1.000,"P-5-1",           214,   5.11668E-03,   102.786E-03,            0.,NA,NA,"",    784.67E+03,   883.468E+03,   883.468E+03
C:/temp/Job-5.odb,Step-1,Increment      1: Step Time =    1.000,"P-5-1",           215,   5.12482E-03,   108.477E-03,            0.,NA,NA,"",   787.493E+03,   886.380E+03,   886.380E+03
C:/temp/Job-5.odb,Step-1,Increment      1: Step Time =    1.000,"P-5-1",           216,   5.12949E-03,   114.150E-03,            0.,NA,NA,"",   792.844E+03,   891.910E+03,   891.910E+03
C:/temp/Job-5.odb,Step-1,Increment      1: Step Time =    1.000,"P-5-1",           217,   5.12741E-03,   119.820E-03,            0.,NA,NA,"",   800.472E+03,   899.781E+03,   899.781E+03
C:/temp/Job-5.odb,Step-1,Increment      1: Step Time =    1.000,"P-5-1",           218,   5.11912E-03,   125.484E-03,            0.,NA,NA,"",   809.907E+03,   909.501E+03,   909.501E+03
C:/temp/Job-5.odb,Step-1,Increment      1: Step Time =    1.000,"P-5-1",           219,   171.531E-03,   5.85041E-03,            0.,NA,NA,"",   998.408E+03,   998.189E+03,   998.189E+03
C:/temp/Job-5.odb,Step-1,Increment      1: Step Time =    1.000,"P-5-1",           220,   165.712E-03,   5.85019E-03,            0.,NA,NA,"",   997.173E+03,   996.860E+03,   996.860E+03
C:/temp/Job-5.odb,Step-1,Increment      1: Step Time =    1.000,"P-5-1",           221,   148.016E-03,   5.24913E-03,            0.,NA,NA,"",   987.674E+03,   987.280E+03,   987.280E+03
C:/temp/Job-5.odb,Step-1,Increment      1: Step Time =    1.000,"P-5-1",           222,   142.280E-03,   5.08610E-03,            0.,NA,NA,"",   982.180E+03,   981.848E+03,   981.848E+03
C:/temp/Job-5.odb,Step-1,Increment      1: Step Time =    1.000,"P-5-1",           223,   125.194E-03,   5.09610E-03,            0.,NA,NA,"",   961.434E+03,   961.508E+03,   961.508E+03
C:/temp/Job-5.odb,Step-1,Increment      1: Step Time =    1.000,"P-5-1",           224,   73.6839E-03,   5.05899E-03,            0.,NA,NA,"",   953.705E+03,   953.882E+03,   953.882E+03
C:/temp/Job-5.odb,Step-1,Increment      1: Step Time =    1.000,"P-5-1",           225,   68.0107E-03,   5.02987E-03,            0.,NA,NA,"",   960.227E+03,   960.332E+03,   960.332E+03
C:/temp/Job-5.odb,Step-1,Increment      1: Step Time =    1.000,"P-5-1",           226,   62.3456E-03,   4.99198E-03,            0.,NA,NA,"",   967.362E+03,   967.448E+03,   967.448E+03
C:/temp/Job-5.odb,Step-1,Increment      1: Step Time =    1.000,"P-5-1",           227,   56.6795E-03,   4.96617E-03,            0.,NA,NA,"",   975.047E+03,   975.185E+03,   975.185E+03
C:/temp/Job-5.odb,Step-1,Increment      1: Step Time =    1.000,"P-5-1",           228,   51.0122E-03,   4.96963E-03,            0.,NA,NA,"",   983.608E+03,   983.867E+03,   983.867E+03
C:/temp/Job-5.odb,Step-1,Increment      1: Step Time =    1.000,"P-5-1",           229,   45.3387E-03,   5.01652E-03,            0.,NA,NA,"",   993.611E+03,   994.125E+03,   994.125E+03
C:/temp/Job-5.odb,Step-1,Increment      1: Step Time =    1.000,"P-5-1",           230,   39.6423E-03,   5.10546E-03,            0.,NA,NA,"",   1.00581E+06,   1.00677E+06,   1.00677E+06
C:/temp/Job-5.odb,Step-1,Increment      1: Step Time =    1.000,"P-5-1",           231,   33.9387E-03,   5.20815E-03,            0.,NA,NA,"",   1.02195E+06,   1.02364E+06,   1.02364E+06
C:/temp/Job-5.odb,Step-1,Increment      1: Step Time =    1.000,"P-5-1",           232,   28.2441E-03,   5.30345E-03,            0.,NA,NA,"",   1.04357E+06,   1.04645E+06,   1.04645E+06
C:/temp/Job-5.odb,Step-1,Increment      1: Step Time =    1.000,"P-5-1",           233,   22.5886E-03,   5.39044E-03,            0.,NA,NA,"",   1.07603E+06,   1.08065E+06,   1.08065E+06
C:/temp/Job-5.odb,Step-1,Increment      1: Step Time =    1.000,"P-5-1",           234,   16.9351E-03,   5.46922E-03,            0.,NA,NA,"",   1.12114E+06,   1.13008E+06,   1.13008E+06
C:/temp/Job-5.odb,Step-1,Increment      1: Step Time =    1.000,"P-5-1",           235,   194.403E-03,   165.709E-03,            0.,NA,NA,"",   999.671E+03,   1.00081E+06,   1.00081E+06
C:/temp/Job-5.odb,Step-1,Increment      1: Step Time =    1.000,"P-5-1",           236,   194.592E-03,   159.989E-03,            0.,NA,NA,"",   998.516E+03,   1.00091E+06,   1.00091E+06
C:/temp/Job-5.odb,Step-1,Increment      1: Step Time =    1.000,"P-5-1",           237,   194.973E-03,   142.866E-03,            0.,NA,NA,"",   990.739E+03,   1.00076E+06,   1.00076E+06
C:/temp/Job-5.odb,Step-1,Increment      1: Step Time =    1.000,"P-5-1",           238,   195.003E-03,   137.200E-03,            0.,NA,NA,"",   986.894E+03,   1.00056E+06,   1.00056E+06
C:/temp/Job-5.odb,Step-1,Increment      1: Step Time =    1.000,"P-5-1",           239,   194.956E-03,   120.181E-03,            0.,NA,NA,"",   974.055E+03,   999.365E+03,   999.365E+03
C:/temp/Job-5.odb,Step-1,Increment      1: Step Time =    1.000,"P-5-1",           240,   194.989E-03,   68.8002E-03,            0.,NA,NA,"",   982.691E+03,   1.00021E+06,   1.00021E+06
C:/temp/Job-5.odb,Step-1,Increment      1: Step Time =    1.000,"P-5-1",           241,   195.044E-03,   63.1243E-03,            0.,NA,NA,"",   987.031E+03,   1.00057E+06,   1.00057E+06
C:/temp/Job-5.odb,Step-1,Increment      1: Step Time =    1.000,"P-5-1",           242,   195.064E-03,   57.4608E-03,            0.,NA,NA,"",   990.915E+03,   1.00077E+06,   1.00077E+06
C:/temp/Job-5.odb,Step-1,Increment      1: Step Time =    1.000,"P-5-1",           243,   195.043E-03,   51.7726E-03,            0.,NA,NA,"",   994.222E+03,   1.00089E+06,   1.00089E+06
C:/temp/Job-5.odb,Step-1,Increment      1: Step Time =    1.000,"P-5-1",           244,   194.990E-03,   46.0685E-03,            0.,NA,NA,"",   996.803E+03,   1.00091E+06,   1.00091E+06
C:/temp/Job-5.odb,Step-1,Increment      1: Step Time =    1.000,"P-5-1",           245,   194.896E-03,   40.3248E-03,            0.,NA,NA,"",   998.645E+03,   1.00085E+06,   1.00085E+06
C:/temp/Job-5.odb,Step-1,Increment      1: Step Time =    1.000,"P-5-1",           246,   194.771E-03,   34.5463E-03,            0.,NA,NA,"",   999.794E+03,   1.00074E+06,   1.00074E+06
C:/temp/Job-5.odb,Step-1,Increment      1: Step Time =    1.000,"P-5-1",           247,   194.636E-03,   28.7517E-03,            0.,NA,NA,"",   1.00035E+06,   1.00057E+06,   1.00057E+06
C:/temp/Job-5.odb,Step-1,Increment      1: Step Time =    1.000,"P-5-1",           248,   194.529E-03,   22.9510E-03,            0.,NA,NA,"",   1.00049E+06,   1.00038E+06,   1.00038E+06
C:/temp/Job-5.odb,Step-1,Increment      1: Step Time =    1.000,"P-5-1",           249,   194.453E-03,   17.1649E-03,            0.,NA,NA,"",   1.00038E+06,   1.00018E+06,   1.00018E+06
C:/temp/Job-5.odb,Step-1,Increment      1: Step Time =    1.000,"P-5-1",           250,   194.394E-03,   11.4094E-03,            0.,NA,NA,"",   1.00015E+06,   1.00001E+06,   1.00001E+06
C:/temp/Job-5.odb,Step-1,Increment      1: Step Time =    1.000,"P-5-1",           251,   194.341E-03,   5.68525E-03,            0.,NA,NA,"",   999.949E+03,   999.889E+03,   999.889E+03
C:/temp/Job-5.odb,Step-1,Increment      1: Step Time =    1.000,"P-5-1",           252,   131.167E-03,   194.896E-03,            0.,NA,NA,"",   969.661E+03,   969.519E+03,   969.519E+03
C:/temp/Job-5.odb,Step-1,Increment      1: Step Time =    1.000,"P-5-1",           253,   136.857E-03,   194.902E-03,            0.,NA,NA,"",   976.711E+03,   976.444E+03,   976.444E+03
C:/temp/Job-5.odb,Step-1,Increment      1: Step Time =    1.000,"P-5-1",           254,   142.567E-03,   194.902E-03,            0.,NA,NA,"",   983.029E+03,   982.676E+03,   982.676E+03
C:/temp/Job-5.odb,Step-1,Increment      1: Step Time =    1.000,"P-5-1",           255,   148.305E-03,   194.891E-03,            0.,NA,NA,"",   988.334E+03,   987.936E+03,   987.936E+03
C:/temp/Job-5.odb,Step-1,Increment      1: Step Time =    1.000,"P-5-1",           256,   154.036E-03,   194.853E-03,            0.,NA,NA,"",   992.452E+03,   992.062E+03,   992.062E+03
C:/temp/Job-5.odb,Step-1,Increment      1: Step Time =    1.000,"P-5-1",           257,   159.783E-03,   194.770E-03,            0.,NA,NA,"",   995.413E+03,   995.070E+03,   995.070E+03
C:/temp/Job-5.odb,Step-1,Increment      1: Step Time =    1.000,"P-5-1",           258,   165.542E-03,   194.655E-03,            0.,NA,NA,"",   997.379E+03,   997.106E+03,   997.106E+03
C:/temp/Job-5.odb,Step-1,Increment      1: Step Time =    1.000,"P-5-1",           259,   171.299E-03,   194.530E-03,            0.,NA,NA,"",   998.561E+03,   998.371E+03,   998.371E+03
C:/temp/Job-5.odb,Step-1,Increment      1: Step Time =    1.000,"P-5-1",           260,   177.053E-03,   194.428E-03,            0.,NA,NA,"",   999.217E+03,   999.101E+03,   999.101E+03
C:/temp/Job-5.odb,Step-1,Increment      1: Step Time =    1.000,"P-5-1",           261,   182.798E-03,   194.360E-03,            0.,NA,NA,"",   999.566E+03,   999.513E+03,   999.513E+03
C:/temp/Job-5.odb,Step-1,Increment      1: Step Time =    1.000,"P-5-1",           262,   188.533E-03,   194.312E-03,            0.,NA,NA,"",   999.789E+03,   999.753E+03,   999.753E+03
C:/temp/Job-5.odb,Step-1,Increment      1: Step Time =    1.000,"P-5-1",           263,   194.268E-03,   194.290E-03,            0.,NA,NA,"",   999.958E+03,   999.908E+03,   999.908E+03
C:/temp/Job-5.odb,Step-1,Increment      1: Step Time =    1.000,"P-5-1",           264,   5.10083E-03,   131.180E-03,            0.,NA,NA,"",   820.984E+03,   920.870E+03,   920.870E+03
C:/temp/Job-5.odb,Step-1,Increment      1: Step Time =    1.000,"P-5-1",           265,   5.07663E-03,   136.871E-03,            0.,NA,NA,"",   833.218E+03,   933.365E+03,   933.365E+03
C:/temp/Job-5.odb,Step-1,Increment      1: Step Time =    1.000,"P-5-1",           266,   5.06859E-03,   142.565E-03,            0.,NA,NA,"",   846.822E+03,   947.122E+03,   947.122E+03
C:/temp/Job-5.odb,Step-1,Increment      1: Step Time =    1.000,"P-5-1",           267,   5.08841E-03,   148.268E-03,            0.,NA,NA,"",   861.548E+03,   961.838E+03,   961.838E+03
C:/temp/Job-5.odb,Step-1,Increment      1: Step Time =    1.000,"P-5-1",           268,   5.14731E-03,   153.988E-03,            0.,NA,NA,"",   878.492E+03,   978.469E+03,   978.469E+03
C:/temp/Job-5.odb,Step-1,Increment      1: Step Time =    1.000,"P-5-1",           269,   5.24006E-03,   159.748E-03,            0.,NA,NA,"",   897.568E+03,   996.939E+03,   996.939E+03
C:/temp/Job-5.odb,Step-1,Increment      1: Step Time =    1.000,"P-5-1",           270,   5.34942E-03,   165.527E-03,            0.,NA,NA,"",   921.384E+03,   1.01961E+06,   1.01961E+06
C:/temp/Job-5.odb,Step-1,Increment      1: Step Time =    1.000,"P-5-1",           271,   5.45883E-03,   171.304E-03,            0.,NA,NA,"",   949.663E+03,   1.04624E+06,   1.04624E+06
C:/temp/Job-5.odb,Step-1,Increment      1: Step Time =    1.000,"P-5-1",           272,   5.56361E-03,   177.046E-03,            0.,NA,NA,"",   990.015E+03,   1.08356E+06,   1.08356E+06
C:/temp/Job-5.odb,Step-1,Increment      1: Step Time =    1.000,"P-5-1",           273,   5.63997E-03,   182.790E-03,            0.,NA,NA,"",   1.04134E+06,   1.13065E+06,   1.13065E+06
C:/temp/Job-5.odb,Step-1,Increment      1: Step Time =    1.000,"P-5-1",           274,   5.69010E-03,   188.527E-03,            0.,NA,NA,"",   1.14009E+06,   1.21811E+06,   1.21811E+06
C:/temp/Job-5.odb,Step-1,Increment      1: Step Time =    1.000,"P-5-1",           275,   5.71242E-03,   194.265E-03,            0.,NA,NA,"",   1.30029E+06,   1.35074E+06,   1.35074E+06
C:/temp/Job-5.odb,Step-1,Increment      1: Step Time =    1.000,"P-5-1",           276,   45.7542E-03,   194.758E-03,            0.,NA,NA,"",   993.580E+03,   994.165E+03,   994.165E+03
C:/temp/Job-5.odb,Step-1,Increment      1: Step Time =    1.000,"P-5-1",           277,   194.254E-03,   171.379E-03,            0.,NA,NA,"",   1.00026E+06,   1.00063E+06,   1.00063E+06
C:/temp/Job-5.odb,Step-1,Increment      1: Step Time =    1.000,"P-5-1",           278,   194.781E-03,   154.252E-03,            0.,NA,NA,"",   996.663E+03,   1.00096E+06,   1.00096E+06
C:/temp/Job-5.odb,Step-1,Increment      1: Step Time =    1.000,"P-5-1",           279,   159.800E-03,   5.75754E-03,            0.,NA,NA,"",   995.124E+03,   994.743E+03,   994.743E+03
C:/temp/Job-5.odb,Step-1,Increment      1: Step Time =    1.000,"P-5-1",           280,   5.16179E-03,   45.7244E-03,            0.,NA,NA,"",   879.720E+03,   979.622E+03,   979.622E+03
C:/temp/Job-5.odb,Step-1,Increment      1: Step Time =    1.000,"P-5-1",           281,   177.252E-03,   5.81685E-03,            0.,NA,NA,"",   999.086E+03,   998.953E+03,   998.953E+03
C:/temp/Job-5.odb,Step-1,Increment      1: Step Time =    1.000,"P-5-1",           282,   113.326E-03,   10.3952E-03,            0.,NA,NA,"",   963.474E+03,   964.775E+03,   964.775E+03
C:/temp/Job-5.odb,Step-1,Increment      1: Step Time =    1.000,"P-5-1",           283,   194.175E-03,   177.062E-03,            0.,NA,NA,"",   1.00044E+06,   1.00044E+06,   1.00044E+06
C:/temp/Job-5.odb,Step-1,Increment      1: Step Time =    1.000,"P-5-1",           284,   190.032E-03,   137.276E-03,            0.,NA,NA,"",   990.504E+03,   1.00160E+06,   1.00160E+06
C:/temp/Job-5.odb,Step-1,Increment      1: Step Time =    1.000,"P-5-1",           285,   189.623E-03,   103.180E-03,            0.,NA,NA,"",   968.860E+03,   994.639E+03,   994.639E+03
C:/temp/Job-5.odb,Step-1,Increment      1: Step Time =    1.000,"P-5-1",           286,   10.2113E-03,   96.9866E-03,            0.,NA,NA,"",   792.811E+03,   888.394E+03,   888.394E+03
C:/temp/Job-5.odb,Step-1,Increment      1: Step Time =    1.000,"P-5-1",           287,   10.1398E-03,   74.1945E-03,            0.,NA,NA,"",   823.301E+03,   918.215E+03,   918.215E+03
C:/temp/Job-5.odb,Step-1,Increment      1: Step Time =    1.000,"P-5-1",           288,   85.3230E-03,   189.877E-03,            0.,NA,NA,"",   960.894E+03,   962.379E+03,   962.379E+03
C:/temp/Job-5.odb,Step-1,Increment      1: Step Time =    1.000,"P-5-1",           289,   101.731E-03,   10.3398E-03,            0.,NA,NA,"",   957.615E+03,   959.551E+03,   959.551E+03
C:/temp/Job-5.odb,Step-1,Increment      1: Step Time =    1.000,"P-5-1",           290,   90.1259E-03,   10.1622E-03,            0.,NA,NA,"",   958.829E+03,   960.562E+03,   960.562E+03
C:/temp/Job-5.odb,Step-1,Increment      1: Step Time =    1.000,"P-5-1",           291,   78.7374E-03,   10.1408E-03,            0.,NA,NA,"",   967.238E+03,   968.150E+03,   968.150E+03
C:/temp/Job-5.odb,Step-1,Increment      1: Step Time =    1.000,"P-5-1",           292,   189.854E-03,   114.735E-03,            0.,NA,NA,"",   973.831E+03,   996.755E+03,   996.755E+03
C:/temp/Job-5.odb,Step-1,Increment      1: Step Time =    1.000,"P-5-1",           293,   189.564E-03,   91.7200E-03,            0.,NA,NA,"",   970.546E+03,   995.273E+03,   995.273E+03
C:/temp/Job-5.odb,Step-1,Increment      1: Step Time =    1.000,"P-5-1",           294,   189.732E-03,   80.4027E-03,            0.,NA,NA,"",   977.420E+03,   997.852E+03,   997.852E+03
C:/temp/Job-5.odb,Step-1,Increment      1: Step Time =    1.000,"P-5-1",           295,   73.9736E-03,   190.094E-03,            0.,NA,NA,"",   971.074E+03,   971.711E+03,   971.711E+03
C:/temp/Job-5.odb,Step-1,Increment      1: Step Time =    1.000,"P-5-1",           296,   96.6780E-03,   189.737E-03,            0.,NA,NA,"",   956.628E+03,   958.603E+03,   958.603E+03
C:/temp/Job-5.odb,Step-1,Increment      1: Step Time =    1.000,"P-5-1",           297,   108.051E-03,   189.845E-03,            0.,NA,NA,"",   959.258E+03,   960.971E+03,   960.971E+03
C:/temp/Job-5.odb,Step-1,Increment      1: Step Time =    1.000,"P-5-1",           298,   119.479E-03,   189.805E-03,            0.,NA,NA,"",   968.601E+03,   969.238E+03,   969.238E+03
C:/temp/Job-5.odb,Step-1,Increment      1: Step Time =    1.000,"P-5-1",           299,   10.1900E-03,   85.5977E-03,            0.,NA,NA,"",   802.820E+03,   898.207E+03,   898.207E+03
C:/temp/Job-5.odb,Step-1,Increment      1: Step Time =    1.000,"P-5-1",           300,   10.2920E-03,   108.318E-03,            0.,NA,NA,"",   796.128E+03,   891.579E+03,   891.579E+03
C:/temp/Job-5.odb,Step-1,Increment      1: Step Time =    1.000,"P-5-1",           301,   10.3203E-03,   119.549E-03,            0.,NA,NA,"",   811.394E+03,   906.450E+03,   906.450E+03
C:/temp/Job-5.odb,Step-1,Increment      1: Step Time =    1.000,"P-5-1",           302,   147.357E-03,   10.2534E-03,            0.,NA,NA,"",   993.156E+03,   992.085E+03,   992.085E+03
C:/temp/Job-5.odb,Step-1,Increment      1: Step Time =    1.000,"P-5-1",           303,   136.078E-03,   9.97133E-03,            0.,NA,NA,"",   984.181E+03,   983.508E+03,   983.508E+03
C:/temp/Job-5.odb,Step-1,Increment      1: Step Time =    1.000,"P-5-1",           304,   124.777E-03,   10.1774E-03,            0.,NA,NA,"",   973.461E+03,   973.680E+03,   973.680E+03
C:/temp/Job-5.odb,Step-1,Increment      1: Step Time =    1.000,"P-5-1",           305,   189.895E-03,   148.442E-03,            0.,NA,NA,"",   996.804E+03,   1.00253E+06,   1.00253E+06
C:/temp/Job-5.odb,Step-1,Increment      1: Step Time =    1.000,"P-5-1",           306,   190.011E-03,   126.092E-03,            0.,NA,NA,"",   982.326E+03,   999.666E+03,   999.666E+03
C:/temp/Job-5.odb,Step-1,Increment      1: Step Time =    1.000,"P-5-1",           307,   62.8054E-03,   190.038E-03,            0.,NA,NA,"",   984.937E+03,   985.223E+03,   985.223E+03
C:/temp/Job-5.odb,Step-1,Increment      1: Step Time =    1.000,"P-5-1",           308,   10.0730E-03,   62.7841E-03,            0.,NA,NA,"",   850.575E+03,   944.673E+03,   944.673E+03
C:/temp/Job-5.odb,Step-1,Increment      1: Step Time =    1.000,"P-5-1",           309,   34.2853E-03,   194.390E-03,            0.,NA,NA,"",   1.02274E+06,   1.02465E+06,   1.02465E+06
C:/temp/Job-5.odb,Step-1,Increment      1: Step Time =    1.000,"P-5-1",           310,   40.0114E-03,   194.576E-03,            0.,NA,NA,"",   1.00615E+06,   1.00727E+06,   1.00727E+06
C:/temp/Job-5.odb,Step-1,Increment      1: Step Time =    1.000,"P-5-1",           311,   51.6211E-03,   189.846E-03,            0.,NA,NA,"",   1.00220E+06,   1.00297E+06,   1.00297E+06
C:/temp/Job-5.odb,Step-1,Increment      1: Step Time =    1.000,"P-5-1",           312,   57.2229E-03,   189.969E-03,            0.,NA,NA,"",   993.006E+03,   993.386E+03,   993.386E+03
C:/temp/Job-5.odb,Step-1,Increment      1: Step Time =    1.000,"P-5-1",           313,   5.40812E-03,   34.2382E-03,            0.,NA,NA,"",   923.126E+03,   1.02113E+06,   1.02113E+06
C:/temp/Job-5.odb,Step-1,Increment      1: Step Time =    1.000,"P-5-1",           314,   5.27173E-03,   39.9961E-03,            0.,NA,NA,"",   899.013E+03,   998.240E+03,   998.240E+03
C:/temp/Job-5.odb,Step-1,Increment      1: Step Time =    1.000,"P-5-1",           315,   10.1385E-03,   51.4527E-03,            0.,NA,NA,"",   882.599E+03,   975.125E+03,   975.125E+03
C:/temp/Job-5.odb,Step-1,Increment      1: Step Time =    1.000,"P-5-1",           316,   10.0744E-03,   57.1030E-03,            0.,NA,NA,"",   865.822E+03,   959.304E+03,   959.304E+03
C:/temp/Job-5.odb,Step-1,Increment      1: Step Time =    1.000,"P-5-1",           317,   5.52534E-03,   28.5232E-03,            0.,NA,NA,"",   951.460E+03,   1.04778E+06,   1.04778E+06
C:/temp/Job-5.odb,Step-1,Increment      1: Step Time =    1.000,"P-5-1",           318,   5.58566E-03,   22.7945E-03,            0.,NA,NA,"",   991.712E+03,   1.08505E+06,   1.08505E+06
C:/temp/Job-5.odb,Step-1,Increment      1: Step Time =    1.000,"P-5-1",           319,   5.60465E-03,   17.0456E-03,            0.,NA,NA,"",   1.04297E+06,   1.13223E+06,   1.13223E+06
C:/temp/Job-5.odb,Step-1,Increment      1: Step Time =    1.000,"P-5-1",           320,   28.6176E-03,   194.242E-03,            0.,NA,NA,"",   1.04436E+06,   1.04752E+06,   1.04752E+06
C:/temp/Job-5.odb,Step-1,Increment      1: Step Time =    1.000,"P-5-1",           321,   22.9310E-03,   194.171E-03,            0.,NA,NA,"",   1.07604E+06,   1.08102E+06,   1.08102E+06
C:/temp/Job-5.odb,Step-1,Increment      1: Step Time =    1.000,"P-5-1",           322,   17.1975E-03,   194.171E-03,            0.,NA,NA,"",   1.12002E+06,   1.12949E+06,   1.12949E+06
C:/temp/Job-5.odb,Step-1,Increment      1: Step Time =    1.000,"P-5-1",           323,   5.60985E-03,   11.3111E-03,            0.,NA,NA,"",   1.14349E+06,   1.22137E+06,   1.22137E+06
C:/temp/Job-5.odb,Step-1,Increment      1: Step Time =    1.000,"P-5-1",           324,   11.4470E-03,   194.213E-03,            0.,NA,NA,"",   1.20380E+06,   1.21821E+06,   1.21821E+06
C:/temp/Job-5.odb,Step-1,Increment      1: Step Time =    1.000,"P-5-1",           325,   130.788E-03,   189.770E-03,            0.,NA,NA,"",   980.027E+03,   979.658E+03,   979.658E+03
C:/temp/Job-5.odb,Step-1,Increment      1: Step Time =    1.000,"P-5-1",           326,   190.012E-03,   69.0793E-03,            0.,NA,NA,"",   986.234E+03,   1.00058E+06,   1.00058E+06
C:/temp/Job-5.odb,Step-1,Increment      1: Step Time =    1.000,"P-5-1",           327,   11.2868E-03,   5.54552E-03,            0.,NA,NA,"",   1.20671E+06,   1.22040E+06,   1.22040E+06
C:/temp/Job-5.odb,Step-1,Increment      1: Step Time =    1.000,"P-5-1",           328,   10.2125E-03,   130.834E-03,            0.,NA,NA,"",   834.954E+03,   929.432E+03,   929.432E+03
C:/temp/Job-5.odb,Step-1,Increment      1: Step Time =    1.000,"P-5-1",           329,   188.874E-03,   17.3091E-03,            0.,NA,NA,"",   1.00068E+06,   1.00056E+06,   1.00056E+06
C:/temp/Job-5.odb,Step-1,Increment      1: Step Time =    1.000,"P-5-1",           330,   189.027E-03,   23.1955E-03,            0.,NA,NA,"",   1.00114E+06,   1.00112E+06,   1.00112E+06
C:/temp/Job-5.odb,Step-1,Increment      1: Step Time =    1.000,"P-5-1",           331,   130.464E-03,   10.0366E-03,            0.,NA,NA,"",   978.916E+03,   978.636E+03,   978.636E+03
C:/temp/Job-5.odb,Step-1,Increment      1: Step Time =    1.000,"P-5-1",           332,   84.4163E-03,   10.1382E-03,            0.,NA,NA,"",   962.417E+03,   963.741E+03,   963.741E+03
C:/temp/Job-5.odb,Step-1,Increment      1: Step Time =    1.000,"P-5-1",           333,   67.4781E-03,   10.0312E-03,            0.,NA,NA,"",   979.361E+03,   979.706E+03,   979.706E+03
C:/temp/Job-5.odb,Step-1,Increment      1: Step Time =    1.000,"P-5-1",           334,   182.614E-03,   188.625E-03,            0.,NA,NA,"",   1.00039E+06,   1.00023E+06,   1.00023E+06
C:/temp/Job-5.odb,Step-1,Increment      1: Step Time =    1.000,"P-5-1",           335,   176.797E-03,   188.759E-03,            0.,NA,NA,"",   1.00057E+06,   1.00023E+06,   1.00023E+06
C:/temp/Job-5.odb,Step-1,Increment      1: Step Time =    1.000,"P-5-1",           336,   147.907E-03,   189.837E-03,            0.,NA,NA,"",   993.967E+03,   992.846E+03,   992.846E+03
C:/temp/Job-5.odb,Step-1,Increment      1: Step Time =    1.000,"P-5-1",           337,   190.007E-03,   142.869E-03,            0.,NA,NA,"",   993.940E+03,   1.00217E+06,   1.00217E+06
C:/temp/Job-5.odb,Step-1,Increment      1: Step Time =    1.000,"P-5-1",           338,   189.877E-03,   74.7606E-03,            0.,NA,NA,"",   981.805E+03,   999.293E+03,   999.293E+03
C:/temp/Job-5.odb,Step-1,Increment      1: Step Time =    1.000,"P-5-1",           339,   190.114E-03,   52.2626E-03,            0.,NA,NA,"",   996.734E+03,   1.00251E+06,   1.00251E+06
C:/temp/Job-5.odb,Step-1,Increment      1: Step Time =    1.000,"P-5-1",           340,   11.3759E-03,   182.592E-03,            0.,NA,NA,"",   1.07423E+06,   1.13778E+06,   1.13778E+06
C:/temp/Job-5.odb,Step-1,Increment      1: Step Time =    1.000,"P-5-1",           341,   10.9729E-03,   170.977E-03,            0.,NA,NA,"",   978.041E+03,   1.05948E+06,   1.05948E+06
C:/temp/Job-5.odb,Step-1,Increment      1: Step Time =    1.000,"P-5-1",           342,   10.7067E-03,   165.117E-03,            0.,NA,NA,"",   945.652E+03,   1.03173E+06,   1.03173E+06
C:/temp/Job-5.odb,Step-1,Increment      1: Step Time =    1.000,"P-5-1",           343,   10.4552E-03,   159.277E-03,            0.,NA,NA,"",   920.080E+03,   1.00924E+06,   1.00924E+06
C:/temp/Job-5.odb,Step-1,Increment      1: Step Time =    1.000,"P-5-1",           344,   113.746E-03,   189.847E-03,            0.,NA,NA,"",   963.336E+03,   964.551E+03,   964.551E+03
C:/temp/Job-5.odb,Step-1,Increment      1: Step Time =    1.000,"P-5-1",           345,   136.459E-03,   189.806E-03,            0.,NA,NA,"",   985.375E+03,   984.643E+03,   984.643E+03
C:/temp/Job-5.odb,Step-1,Increment      1: Step Time =    1.000,"P-5-1",           346,   16.8469E-03,   11.0756E-03,            0.,NA,NA,"",   1.13137E+06,   1.15236E+06,   1.15236E+06
C:/temp/Job-5.odb,Step-1,Increment      1: Step Time =    1.000,"P-5-1",           347,   28.0860E-03,   10.6866E-03,            0.,NA,NA,"",   1.06614E+06,   1.07404E+06,   1.07404E+06
C:/temp/Job-5.odb,Step-1,Increment      1: Step Time =    1.000,"P-5-1",           348,   33.7844E-03,   10.4240E-03,            0.,NA,NA,"",   1.04358E+06,   1.04855E+06,   1.04855E+06
C:/temp/Job-5.odb,Step-1,Increment      1: Step Time =    1.000,"P-5-1",           349,   39.4725E-03,   10.1617E-03,            0.,NA,NA,"",   1.02710E+06,   1.02983E+06,   1.02983E+06
C:/temp/Job-5.odb,Step-1,Increment      1: Step Time =    1.000,"P-5-1",           350,   10.2787E-03,   125.145E-03,            0.,NA,NA,"",   822.398E+03,   917.187E+03,   917.187E+03
C:/temp/Job-5.odb,Step-1,Increment      1: Step Time =    1.000,"P-5-1",           351,   190.048E-03,   131.693E-03,            0.,NA,NA,"",   986.574E+03,   1.00077E+06,   1.00077E+06
C:/temp/Job-5.odb,Step-1,Increment      1: Step Time =    1.000,"P-5-1",           352,   107.557E-03,   10.4146E-03,            0.,NA,NA,"",   959.834E+03,   961.550E+03,   961.550E+03
C:/temp/Job-5.odb,Step-1,Increment      1: Step Time =    1.000,"P-5-1",           353,   95.9091E-03,   10.2339E-03,            0.,NA,NA,"",   957.151E+03,   959.125E+03,   959.125E+03
C:/temp/Job-5.odb,Step-1,Increment      1: Step Time =    1.000,"P-5-1",           354,   73.1084E-03,   10.0953E-03,            0.,NA,NA,"",   972.978E+03,   973.545E+03,   973.545E+03
C:/temp/Job-5.odb,Step-1,Increment      1: Step Time =    1.000,"P-5-1",           355,   189.730E-03,   108.977E-03,            0.,NA,NA,"",   970.644E+03,    995.45E+03,    995.45E+03
C:/temp/Job-5.odb,Step-1,Increment      1: Step Time =    1.000,"P-5-1",           356,   189.556E-03,   97.4448E-03,            0.,NA,NA,"",   968.867E+03,   994.612E+03,   994.612E+03
C:/temp/Job-5.odb,Step-1,Increment      1: Step Time =    1.000,"P-5-1",           357,   189.620E-03,   86.0702E-03,            0.,NA,NA,"",   973.559E+03,   996.464E+03,   996.464E+03
C:/temp/Job-5.odb,Step-1,Increment      1: Step Time =    1.000,"P-5-1",           358,   68.3820E-03,   190.108E-03,            0.,NA,NA,"",   977.611E+03,   977.990E+03,   977.990E+03
C:/temp/Job-5.odb,Step-1,Increment      1: Step Time =    1.000,"P-5-1",           359,   79.6189E-03,   190.024E-03,            0.,NA,NA,"",   965.287E+03,   966.369E+03,   966.369E+03
C:/temp/Job-5.odb,Step-1,Increment      1: Step Time =    1.000,"P-5-1",           360,   90.9924E-03,   189.771E-03,            0.,NA,NA,"",   958.034E+03,   959.824E+03,   959.824E+03
C:/temp/Job-5.odb,Step-1,Increment      1: Step Time =    1.000,"P-5-1",           361,   102.335E-03,   189.793E-03,            0.,NA,NA,"",   956.933E+03,   958.913E+03,   958.913E+03
C:/temp/Job-5.odb,Step-1,Increment      1: Step Time =    1.000,"P-5-1",           362,   125.115E-03,   189.770E-03,            0.,NA,NA,"",   974.361E+03,   974.447E+03,   974.447E+03
C:/temp/Job-5.odb,Step-1,Increment      1: Step Time =    1.000,"P-5-1",           363,   10.0824E-03,   68.4774E-03,            0.,NA,NA,"",   836.263E+03,   930.827E+03,   930.827E+03
C:/temp/Job-5.odb,Step-1,Increment      1: Step Time =    1.000,"P-5-1",           364,   10.1740E-03,   79.9029E-03,            0.,NA,NA,"",   811.939E+03,   907.133E+03,   907.133E+03
C:/temp/Job-5.odb,Step-1,Increment      1: Step Time =    1.000,"P-5-1",           365,   10.1888E-03,   91.2733E-03,            0.,NA,NA,"",   796.238E+03,   891.762E+03,   891.762E+03
C:/temp/Job-5.odb,Step-1,Increment      1: Step Time =    1.000,"P-5-1",           366,   10.2472E-03,   102.666E-03,            0.,NA,NA,"",   792.786E+03,   888.336E+03,   888.336E+03
C:/temp/Job-5.odb,Step-1,Increment      1: Step Time =    1.000,"P-5-1",           367,   10.3218E-03,   113.931E-03,            0.,NA,NA,"",    802.52E+03,   897.801E+03,   897.801E+03
C:/temp/Job-5.odb,Step-1,Increment      1: Step Time =    1.000,"P-5-1",           368,   190.118E-03,   63.4651E-03,            0.,NA,NA,"",   990.325E+03,   1.00154E+06,   1.00154E+06
C:/temp/Job-5.odb,Step-1,Increment      1: Step Time =    1.000,"P-5-1",           369,   141.700E-03,   10.0056E-03,            0.,NA,NA,"",   988.934E+03,   988.005E+03,   988.005E+03
C:/temp/Job-5.odb,Step-1,Increment      1: Step Time =    1.000,"P-5-1",           370,   119.079E-03,   10.3107E-03,            0.,NA,NA,"",   968.184E+03,   968.970E+03,   968.970E+03
C:/temp/Job-5.odb,Step-1,Increment      1: Step Time =    1.000,"P-5-1",           371,   61.8815E-03,   9.92735E-03,            0.,NA,NA,"",   986.200E+03,   986.529E+03,   986.529E+03
C:/temp/Job-5.odb,Step-1,Increment      1: Step Time =    1.000,"P-5-1",           372,   56.2938E-03,   9.85622E-03,            0.,NA,NA,"",   993.904E+03,   994.393E+03,   994.393E+03
C:/temp/Job-5.odb,Step-1,Increment      1: Step Time =    1.000,"P-5-1",           373,   50.7070E-03,   9.85799E-03,            0.,NA,NA,"",   1.00293E+06,   1.00376E+06,   1.00376E+06
C:/temp/Job-5.odb,Step-1,Increment      1: Step Time =    1.000,"P-5-1",           374,   45.1218E-03,   9.95065E-03,            0.,NA,NA,"",   1.01354E+06,   1.01510E+06,   1.01510E+06
C:/temp/Job-5.odb,Step-1,Increment      1: Step Time =    1.000,"P-5-1",           375,   22.4735E-03,   10.9160E-03,            0.,NA,NA,"",   1.09288E+06,   1.10644E+06,   1.10644E+06
C:/temp/Job-5.odb,Step-1,Increment      1: Step Time =    1.000,"P-5-1",           376,   189.963E-03,   120.466E-03,            0.,NA,NA,"",   977.921E+03,   998.261E+03,   998.261E+03
C:/temp/Job-5.odb,Step-1,Increment      1: Step Time =    1.000,"P-5-1",           377,   190.156E-03,   57.8955E-03,            0.,NA,NA,"",   993.885E+03,   1.00220E+06,   1.00220E+06
C:/temp/Job-5.odb,Step-1,Increment      1: Step Time =    1.000,"P-5-1",           378,   165.665E-03,   11.6012E-03,            0.,NA,NA,"",   1.00031E+06,   999.429E+03,   999.429E+03
C:/temp/Job-5.odb,Step-1,Increment      1: Step Time =    1.000,"P-5-1",           379,   190.012E-03,   46.5940E-03,            0.,NA,NA,"",   998.934E+03,   1.00260E+06,   1.00260E+06
C:/temp/Job-5.odb,Step-1,Increment      1: Step Time =    1.000,"P-5-1",           380,   189.830E-03,   40.8390E-03,            0.,NA,NA,"",   1.00042E+06,   1.00248E+06,   1.00248E+06
C:/temp/Job-5.odb,Step-1,Increment      1: Step Time =    1.000,"P-5-1",           381,   189.565E-03,   35.0037E-03,            0.,NA,NA,"",   1.00119E+06,   1.00215E+06,   1.00215E+06
C:/temp/Job-5.odb,Step-1,Increment      1: Step Time =    1.000,"P-5-1",           382,   189.258E-03,   29.1161E-03,            0.,NA,NA,"",   1.00137E+06,   1.00167E+06,   1.00167E+06
C:/temp/Job-5.odb,Step-1,Increment      1: Step Time =    1.000,"P-5-1",           383,   182.966E-03,   5.75972E-03,            0.,NA,NA,"",   999.477E+03,   999.412E+03,   999.412E+03
C:/temp/Job-5.odb,Step-1,Increment      1: Step Time =    1.000,"P-5-1",           384,   188.662E-03,   5.71021E-03,            0.,NA,NA,"",   999.753E+03,   999.708E+03,   999.708E+03
C:/temp/Job-5.odb,Step-1,Increment      1: Step Time =    1.000,"P-5-1",           385,   142.156E-03,   189.843E-03,            0.,NA,NA,"",   990.121E+03,   989.120E+03,   989.120E+03
C:/temp/Job-5.odb,Step-1,Increment      1: Step Time =    1.000,"P-5-1",           386,   188.729E-03,   165.504E-03,            0.,NA,NA,"",   1.00138E+06,   1.00237E+06,   1.00237E+06
C:/temp/Job-5.odb,Step-1,Increment      1: Step Time =    1.000,"P-5-1",           387,   153.615E-03,   189.756E-03,            0.,NA,NA,"",   996.859E+03,   995.754E+03,   995.754E+03
C:/temp/Job-5.odb,Step-1,Increment      1: Step Time =    1.000,"P-5-1",           388,   159.363E-03,   189.575E-03,            0.,NA,NA,"",   998.840E+03,   997.855E+03,   997.855E+03
C:/temp/Job-5.odb,Step-1,Increment      1: Step Time =    1.000,"P-5-1",           389,   165.154E-03,   189.303E-03,            0.,NA,NA,"",   1.00000E+06,   999.211E+03,   999.211E+03
C:/temp/Job-5.odb,Step-1,Increment      1: Step Time =    1.000,"P-5-1",           390,   170.965E-03,   188.992E-03,            0.,NA,NA,"",   1.00052E+06,   999.947E+03,   999.947E+03
C:/temp/Job-5.odb,Step-1,Increment      1: Step Time =    1.000,"P-5-1",           391,   194.176E-03,   182.802E-03,            0.,NA,NA,"",   1.00036E+06,   1.00023E+06,   1.00023E+06
C:/temp/Job-5.odb,Step-1,Increment      1: Step Time =    1.000,"P-5-1",           392,   194.219E-03,   188.556E-03,            0.,NA,NA,"",   1.00015E+06,   1.00004E+06,   1.00004E+06
C:/temp/Job-5.odb,Step-1,Increment      1: Step Time =    1.000,"P-5-1",           393,   10.1503E-03,   136.487E-03,            0.,NA,NA,"",   848.864E+03,   942.942E+03,   942.942E+03
C:/temp/Job-5.odb,Step-1,Increment      1: Step Time =    1.000,"P-5-1",           394,   10.1257E-03,   142.134E-03,            0.,NA,NA,"",   863.723E+03,   957.239E+03,   957.239E+03
C:/temp/Job-5.odb,Step-1,Increment      1: Step Time =    1.000,"P-5-1",           395,   10.1586E-03,   147.797E-03,            0.,NA,NA,"",   880.162E+03,   972.791E+03,   972.791E+03
C:/temp/Job-5.odb,Step-1,Increment      1: Step Time =    1.000,"P-5-1",           396,   10.2700E-03,   153.486E-03,            0.,NA,NA,"",    898.43E+03,   989.709E+03,   989.709E+03
C:/temp/Job-5.odb,Step-1,Increment      1: Step Time =    1.000,"P-5-1",           397,   11.2394E-03,   176.763E-03,            0.,NA,NA,"",   1.01895E+06,   1.09348E+06,   1.09348E+06
C:/temp/Job-5.odb,Step-1,Increment      1: Step Time =    1.000,"P-5-1",           398,   188.746E-03,   11.4855E-03,            0.,NA,NA,"",   1.00016E+06,   1.00006E+06,   1.00006E+06
C:/temp/Job-5.odb,Step-1,Increment      1: Step Time =    1.000,"P-5-1",           399,   188.415E-03,   188.550E-03,            0.,NA,NA,"",   1.00020E+06,   1.00013E+06,   1.00013E+06
C:/temp/Job-5.odb,Step-1,Increment      1: Step Time =    1.000,"P-5-1",           400,   11.4545E-03,   188.401E-03,            0.,NA,NA,"",   1.16149E+06,   1.20290E+06,   1.20290E+06
C:/temp/Job-5.odb,Step-1,Increment      1: Step Time =    1.000,"P-5-1",           401,   45.9676E-03,   189.622E-03,            0.,NA,NA,"",   1.01312E+06,   1.01472E+06,   1.01472E+06
C:/temp/Job-5.odb,Step-1,Increment      1: Step Time =    1.000,"P-5-1",           402,   189.668E-03,   154.069E-03,            0.,NA,NA,"",   999.044E+03,   1.00270E+06,   1.00270E+06
C:/temp/Job-5.odb,Step-1,Increment      1: Step Time =    1.000,"P-5-1",           403,   10.2465E-03,   45.8253E-03,            0.,NA,NA,"",   900.817E+03,   991.934E+03,   991.934E+03
C:/temp/Job-5.odb,Step-1,Increment      1: Step Time =    1.000,"P-5-1",           404,   153.283E-03,   10.7483E-03,            0.,NA,NA,"",   996.766E+03,   995.606E+03,   995.606E+03
C:/temp/Job-5.odb,Step-1,Increment      1: Step Time =    1.000,"P-5-1",           405,   188.318E-03,   171.169E-03,            0.,NA,NA,"",   1.00151E+06,   1.00188E+06,   1.00188E+06
C:/temp/Job-5.odb,Step-1,Increment      1: Step Time =    1.000,"P-5-1",           406,   171.560E-03,   11.7559E-03,            0.,NA,NA,"",   1.00059E+06,   999.983E+03,   999.983E+03
C:/temp/Job-5.odb,Step-1,Increment      1: Step Time =    1.000,"P-5-1",           407,   11.2362E-03,   11.2095E-03,            0.,NA,NA,"",   1.16771E+06,   1.20805E+06,   1.20805E+06
C:/temp/Job-5.odb,Step-1,Increment      1: Step Time =    1.000,"P-5-1",           408,   183.055E-03,   11.6216E-03,            0.,NA,NA,"",   1.00034E+06,   1.00016E+06,   1.00016E+06
C:/temp/Job-5.odb,Step-1,Increment      1: Step Time =    1.000,"P-5-1",           409,   188.271E-03,   182.731E-03,            0.,NA,NA,"",   1.00079E+06,   1.00070E+06,   1.00070E+06
C:/temp/Job-5.odb,Step-1,Increment      1: Step Time =    1.000,"P-5-1",           410,   23.0857E-03,   188.174E-03,            0.,NA,NA,"",   1.09003E+06,   1.10445E+06,   1.10445E+06
C:/temp/Job-5.odb,Step-1,Increment      1: Step Time =    1.000,"P-5-1",           411,   34.4954E-03,   188.691E-03,            0.,NA,NA,"",   1.04366E+06,   1.04922E+06,   1.04922E+06
C:/temp/Job-5.odb,Step-1,Increment      1: Step Time =    1.000,"P-5-1",           412,   11.2531E-03,   22.7950E-03,            0.,NA,NA,"",   1.02234E+06,   1.09620E+06,   1.09620E+06
C:/temp/Job-5.odb,Step-1,Increment      1: Step Time =    1.000,"P-5-1",           413,   10.8335E-03,   34.3434E-03,            0.,NA,NA,"",   949.365E+03,   1.03466E+06,   1.03466E+06
C:/temp/Job-5.odb,Step-1,Increment      1: Step Time =    1.000,"P-5-1",           414,   11.1634E-03,   28.5928E-03,            0.,NA,NA,"",   982.063E+03,   1.06259E+06,   1.06259E+06
C:/temp/Job-5.odb,Step-1,Increment      1: Step Time =    1.000,"P-5-1",           415,   28.8311E-03,   188.277E-03,            0.,NA,NA,"",   1.06523E+06,   1.07386E+06,   1.07386E+06
C:/temp/Job-5.odb,Step-1,Increment      1: Step Time =    1.000,"P-5-1",           416,   11.2548E-03,   16.9755E-03,            0.,NA,NA,"",   1.07897E+06,   1.14180E+06,   1.14180E+06
C:/temp/Job-5.odb,Step-1,Increment      1: Step Time =    1.000,"P-5-1",           417,   17.2722E-03,   188.246E-03,            0.,NA,NA,"",   1.12592E+06,   1.14827E+06,   1.14827E+06
C:/temp/Job-5.odb,Step-1,Increment      1: Step Time =    1.000,"P-5-1",           418,   107.657E-03,   184.827E-03,            0.,NA,NA,"",   972.779E+03,   976.197E+03,   976.197E+03
C:/temp/Job-5.odb,Step-1,Increment      1: Step Time =    1.000,"P-5-1",           419,   184.245E-03,   86.2722E-03,            0.,NA,NA,"",   974.355E+03,   992.624E+03,   992.624E+03
C:/temp/Job-5.odb,Step-1,Increment      1: Step Time =    1.000,"P-5-1",           420,   15.6476E-03,   113.624E-03,            0.,NA,NA,"",   812.533E+03,   903.146E+03,   903.146E+03
C:/temp/Job-5.odb,Step-1,Increment      1: Step Time =    1.000,"P-5-1",           421,   184.125E-03,   91.9385E-03,            0.,NA,NA,"",   970.219E+03,   990.210E+03,   990.210E+03
C:/temp/Job-5.odb,Step-1,Increment      1: Step Time =    1.000,"P-5-1",           422,   15.5599E-03,   108.054E-03,            0.,NA,NA,"",   804.876E+03,   896.094E+03,   896.094E+03
C:/temp/Job-5.odb,Step-1,Increment      1: Step Time =    1.000,"P-5-1",           423,   184.200E-03,   97.7120E-03,            0.,NA,NA,"",    967.85E+03,   988.819E+03,   988.819E+03
C:/temp/Job-5.odb,Step-1,Increment      1: Step Time =    1.000,"P-5-1",           424,   15.6717E-03,   119.157E-03,            0.,NA,NA,"",   822.990E+03,   912.881E+03,   912.881E+03
C:/temp/Job-5.odb,Step-1,Increment      1: Step Time =    1.000,"P-5-1",           425,   89.5015E-03,   15.1179E-03,            0.,NA,NA,"",   974.542E+03,   977.876E+03,   977.876E+03
C:/temp/Job-5.odb,Step-1,Increment      1: Step Time =    1.000,"P-5-1",           426,   15.4190E-03,   102.492E-03,            0.,NA,NA,"",   801.026E+03,   892.600E+03,   892.600E+03
C:/temp/Job-5.odb,Step-1,Increment      1: Step Time =    1.000,"P-5-1",           427,   184.363E-03,   103.522E-03,            0.,NA,NA,"",   968.162E+03,   989.180E+03,   989.180E+03
C:/temp/Job-5.odb,Step-1,Increment      1: Step Time =    1.000,"P-5-1",           428,   95.2793E-03,   15.2216E-03,            0.,NA,NA,"",   971.936E+03,   975.816E+03,   975.816E+03
C:/temp/Job-5.odb,Step-1,Increment      1: Step Time =    1.000,"P-5-1",           429,   119.015E-03,   184.682E-03,            0.,NA,NA,"",   981.207E+03,   982.584E+03,   982.584E+03
C:/temp/Job-5.odb,Step-1,Increment      1: Step Time =    1.000,"P-5-1",           430,   15.3109E-03,   96.8470E-03,            0.,NA,NA,"",   801.118E+03,   892.755E+03,   892.755E+03
C:/temp/Job-5.odb,Step-1,Increment      1: Step Time =    1.000,"P-5-1",           431,   78.1387E-03,   15.2241E-03,            0.,NA,NA,"",   984.618E+03,   986.473E+03,   986.473E+03
C:/temp/Job-5.odb,Step-1,Increment      1: Step Time =    1.000,"P-5-1",           432,   101.192E-03,   15.4663E-03,            0.,NA,NA,"",   971.769E+03,   975.717E+03,   975.717E+03
C:/temp/Job-5.odb,Step-1,Increment      1: Step Time =    1.000,"P-5-1",           433,   113.319E-03,   184.819E-03,            0.,NA,NA,"",   976.375E+03,   978.860E+03,   978.860E+03
C:/temp/Job-5.odb,Step-1,Increment      1: Step Time =    1.000,"P-5-1",           434,   184.630E-03,   109.377E-03,            0.,NA,NA,"",   970.982E+03,   991.057E+03,   991.057E+03
C:/temp/Job-5.odb,Step-1,Increment      1: Step Time =    1.000,"P-5-1",           435,   107.121E-03,   15.6757E-03,            0.,NA,NA,"",   973.751E+03,   977.243E+03,   977.243E+03
C:/temp/Job-5.odb,Step-1,Increment      1: Step Time =    1.000,"P-5-1",           436,   83.8094E-03,   15.1550E-03,            0.,NA,NA,"",   978.927E+03,   981.544E+03,   981.544E+03
C:/temp/Job-5.odb,Step-1,Increment      1: Step Time =    1.000,"P-5-1",           437,   184.461E-03,   80.6171E-03,            0.,NA,NA,"",   979.545E+03,   995.616E+03,   995.616E+03
C:/temp/Job-5.odb,Step-1,Increment      1: Step Time =    1.000,"P-5-1",           438,   101.998E-03,   184.678E-03,            0.,NA,NA,"",   971.227E+03,   975.242E+03,   975.242E+03
C:/temp/Job-5.odb,Step-1,Increment      1: Step Time =    1.000,"P-5-1",           439,   113.015E-03,   15.6667E-03,            0.,NA,NA,"",   976.941E+03,   979.661E+03,   979.661E+03
C:/temp/Job-5.odb,Step-1,Increment      1: Step Time =    1.000,"P-5-1",           440,   184.876E-03,   115.184E-03,            0.,NA,NA,"",   975.511E+03,   993.795E+03,   993.795E+03
C:/temp/Job-5.odb,Step-1,Increment      1: Step Time =    1.000,"P-5-1",           441,   96.3280E-03,   184.526E-03,            0.,NA,NA,"",   971.788E+03,   975.817E+03,   975.817E+03
C:/temp/Job-5.odb,Step-1,Increment      1: Step Time =    1.000,"P-5-1",           442,   15.2644E-03,   91.1466E-03,            0.,NA,NA,"",   805.256E+03,   896.688E+03,   896.688E+03
C:/temp/Job-5.odb,Step-1,Increment      1: Step Time =    1.000,"P-5-1",           443,   90.6399E-03,   184.567E-03,            0.,NA,NA,"",   973.786E+03,   977.442E+03,   977.442E+03
C:/temp/Job-5.odb,Step-1,Increment      1: Step Time =    1.000,"P-5-1",           444,   176.333E-03,   182.934E-03,            0.,NA,NA,"",   1.00268E+06,   1.00197E+06,   1.00197E+06
C:/temp/Job-5.odb,Step-1,Increment      1: Step Time =    1.000,"P-5-1",           445,   183.402E-03,   23.6293E-03,            0.,NA,NA,"",   1.00268E+06,   1.00235E+06,   1.00235E+06
C:/temp/Job-5.odb,Step-1,Increment      1: Step Time =    1.000,"P-5-1",           446,   118.806E-03,   15.5236E-03,            0.,NA,NA,"",   980.966E+03,   982.581E+03,   982.581E+03
C:/temp/Job-5.odb,Step-1,Increment      1: Step Time =    1.000,"P-5-1",           447,   17.0615E-03,   176.279E-03,            0.,NA,NA,"",   1.03831E+06,   1.09413E+06,   1.09413E+06
C:/temp/Job-5.odb,Step-1,Increment      1: Step Time =    1.000,"P-5-1",           448,   22.5648E-03,   16.6018E-03,            0.,NA,NA,"",   1.08421E+06,   1.10873E+06,   1.10873E+06
C:/temp/Job-5.odb,Step-1,Increment      1: Step Time =    1.000,"P-5-1",           449,   185.021E-03,   120.865E-03,            0.,NA,NA,"",   980.892E+03,   996.813E+03,   996.813E+03
C:/temp/Job-5.odb,Step-1,Increment      1: Step Time =    1.000,"P-5-1",           450,   84.9996E-03,   184.856E-03,            0.,NA,NA,"",   977.109E+03,   980.147E+03,   980.147E+03
C:/temp/Job-5.odb,Step-1,Increment      1: Step Time =    1.000,"P-5-1",           451,   15.2981E-03,   85.4987E-03,            0.,NA,NA,"",   813.017E+03,   903.979E+03,   903.979E+03
C:/temp/Job-5.odb,Step-1,Increment      1: Step Time =    1.000,"P-5-1",           452,   170.400E-03,   183.405E-03,            0.,NA,NA,"",   1.00355E+06,   1.00238E+06,   1.00238E+06
C:/temp/Job-5.odb,Step-1,Increment      1: Step Time =    1.000,"P-5-1",           453,   183.850E-03,   29.6916E-03,            0.,NA,NA,"",   1.00363E+06,   1.00346E+06,   1.00346E+06
C:/temp/Job-5.odb,Step-1,Increment      1: Step Time =    1.000,"P-5-1",           454,   16.5988E-03,   170.353E-03,            0.,NA,NA,"",   1.00034E+06,   1.06604E+06,   1.06604E+06
C:/temp/Job-5.odb,Step-1,Increment      1: Step Time =    1.000,"P-5-1",           455,   28.2152E-03,   16.1302E-03,            0.,NA,NA,"",   1.06820E+06,   1.08414E+06,   1.08414E+06
C:/temp/Job-5.odb,Step-1,Increment      1: Step Time =    1.000,"P-5-1",           456,   124.541E-03,   15.2367E-03,            0.,NA,NA,"",   985.439E+03,   985.890E+03,   985.890E+03
C:/temp/Job-5.odb,Step-1,Increment      1: Step Time =    1.000,"P-5-1",           457,   79.3372E-03,   185.137E-03,            0.,NA,NA,"",   982.017E+03,   984.105E+03,   984.105E+03
C:/temp/Job-5.odb,Step-1,Increment      1: Step Time =    1.000,"P-5-1",           458,   185.110E-03,   131.890E-03,            0.,NA,NA,"",   990.867E+03,   1.00154E+06,   1.00154E+06
C:/temp/Job-5.odb,Step-1,Increment      1: Step Time =    1.000,"P-5-1",           459,   185.092E-03,   126.415E-03,            0.,NA,NA,"",   986.090E+03,   999.422E+03,   999.422E+03
C:/temp/Job-5.odb,Step-1,Increment      1: Step Time =    1.000,"P-5-1",           460,   15.2511E-03,   79.7972E-03,            0.,NA,NA,"",   823.909E+03,   914.160E+03,   914.160E+03
C:/temp/Job-5.odb,Step-1,Increment      1: Step Time =    1.000,"P-5-1",           461,   16.0609E-03,   164.411E-03,            0.,NA,NA,"",   967.103E+03,   1.04031E+06,   1.04031E+06
C:/temp/Job-5.odb,Step-1,Increment      1: Step Time =    1.000,"P-5-1",           462,   33.9128E-03,   15.5785E-03,            0.,NA,NA,"",   1.05361E+06,   1.06306E+06,   1.06306E+06
C:/temp/Job-5.odb,Step-1,Increment      1: Step Time =    1.000,"P-5-1",           463,   164.501E-03,   183.970E-03,            0.,NA,NA,"",   1.00401E+06,   1.00239E+06,   1.00239E+06
C:/temp/Job-5.odb,Step-1,Increment      1: Step Time =    1.000,"P-5-1",           464,   184.380E-03,   35.6979E-03,            0.,NA,NA,"",   1.00408E+06,   1.00439E+06,   1.00439E+06
C:/temp/Job-5.odb,Step-1,Increment      1: Step Time =    1.000,"P-5-1",           465,   130.197E-03,   14.9481E-03,            0.,NA,NA,"",   989.735E+03,   989.170E+03,   989.170E+03
C:/temp/Job-5.odb,Step-1,Increment      1: Step Time =    1.000,"P-5-1",           466,   73.7934E-03,   185.256E-03,            0.,NA,NA,"",   987.771E+03,   989.065E+03,   989.065E+03
C:/temp/Job-5.odb,Step-1,Increment      1: Step Time =    1.000,"P-5-1",           467,   15.1197E-03,   74.0639E-03,            0.,NA,NA,"",   837.046E+03,   926.475E+03,   926.475E+03
C:/temp/Job-5.odb,Step-1,Increment      1: Step Time =    1.000,"P-5-1",           468,   15.6236E-03,   158.543E-03,            0.,NA,NA,"",   940.253E+03,   1.01860E+06,   1.01860E+06
C:/temp/Job-5.odb,Step-1,Increment      1: Step Time =    1.000,"P-5-1",           469,   39.5431E-03,   15.1041E-03,            0.,NA,NA,"",   1.03989E+06,   1.04551E+06,   1.04551E+06
C:/temp/Job-5.odb,Step-1,Increment      1: Step Time =    1.000,"P-5-1",           470,   158.707E-03,   184.430E-03,            0.,NA,NA,"",   1.00379E+06,   1.00183E+06,   1.00183E+06
C:/temp/Job-5.odb,Step-1,Increment      1: Step Time =    1.000,"P-5-1",           471,   184.806E-03,   41.5619E-03,            0.,NA,NA,"",   1.00378E+06,   1.00495E+06,   1.00495E+06
C:/temp/Job-5.odb,Step-1,Increment      1: Step Time =    1.000,"P-5-1",           472,   68.3310E-03,   185.221E-03,            0.,NA,NA,"",   994.359E+03,   995.211E+03,   995.211E+03
C:/temp/Job-5.odb,Step-1,Increment      1: Step Time =    1.000,"P-5-1",           473,   15.0011E-03,   68.3747E-03,            0.,NA,NA,"",   851.706E+03,   940.193E+03,   940.193E+03
C:/temp/Job-5.odb,Step-1,Increment      1: Step Time =    1.000,"P-5-1",           474,   153.007E-03,   184.715E-03,            0.,NA,NA,"",   1.00283E+06,   1.00067E+06,   1.00067E+06
C:/temp/Job-5.odb,Step-1,Increment      1: Step Time =    1.000,"P-5-1",           475,   185.068E-03,   47.2962E-03,            0.,NA,NA,"",   1.00274E+06,   1.00517E+06,   1.00517E+06
C:/temp/Job-5.odb,Step-1,Increment      1: Step Time =    1.000,"P-5-1",           476,   15.3466E-03,   152.795E-03,            0.,NA,NA,"",   917.681E+03,   999.516E+03,   999.516E+03
C:/temp/Job-5.odb,Step-1,Increment      1: Step Time =    1.000,"P-5-1",           477,   45.0677E-03,   14.7803E-03,            0.,NA,NA,"",   1.02857E+06,   1.03175E+06,   1.03175E+06
C:/temp/Job-5.odb,Step-1,Increment      1: Step Time =    1.000,"P-5-1",           478,   14.9591E-03,   62.7301E-03,            0.,NA,NA,"",   867.408E+03,   954.719E+03,   954.719E+03
C:/temp/Job-5.odb,Step-1,Increment      1: Step Time =    1.000,"P-5-1",           479,   62.8537E-03,   185.097E-03,            0.,NA,NA,"",   1.00158E+06,   1.00237E+06,   1.00237E+06
C:/temp/Job-5.odb,Step-1,Increment      1: Step Time =    1.000,"P-5-1",           480,   15.2213E-03,   147.147E-03,            0.,NA,NA,"",   898.058E+03,   982.307E+03,   982.307E+03
C:/temp/Job-5.odb,Step-1,Increment      1: Step Time =    1.000,"P-5-1",           481,   50.5163E-03,   14.6304E-03,            0.,NA,NA,"",   1.01849E+06,   1.02044E+06,   1.02044E+06
C:/temp/Job-5.odb,Step-1,Increment      1: Step Time =    1.000,"P-5-1",           482,   185.116E-03,   137.377E-03,            0.,NA,NA,"",   995.073E+03,   1.00319E+06,   1.00319E+06
C:/temp/Job-5.odb,Step-1,Increment      1: Step Time =    1.000,"P-5-1",           483,   124.627E-03,   184.543E-03,            0.,NA,NA,"",   986.253E+03,   986.554E+03,   986.554E+03
C:/temp/Job-5.odb,Step-1,Increment      1: Step Time =    1.000,"P-5-1",           484,   72.5166E-03,   15.1966E-03,            0.,NA,NA,"",   990.725E+03,   991.942E+03,   991.942E+03
C:/temp/Job-5.odb,Step-1,Increment      1: Step Time =    1.000,"P-5-1",           485,   15.5293E-03,   124.728E-03,            0.,NA,NA,"",   835.349E+03,   924.468E+03,   924.468E+03
C:/temp/Job-5.odb,Step-1,Increment      1: Step Time =    1.000,"P-5-1",           486,   147.354E-03,   184.836E-03,            0.,NA,NA,"",   1.00119E+06,   999.001E+03,   999.001E+03
C:/temp/Job-5.odb,Step-1,Increment      1: Step Time =    1.000,"P-5-1",           487,   185.191E-03,   52.9268E-03,            0.,NA,NA,"",   1.00085E+06,   1.00495E+06,   1.00495E+06
C:/temp/Job-5.odb,Step-1,Increment      1: Step Time =    1.000,"P-5-1",           488,   135.713E-03,   14.7704E-03,            0.,NA,NA,"",   993.518E+03,   992.225E+03,   992.225E+03
C:/temp/Job-5.odb,Step-1,Increment      1: Step Time =    1.000,"P-5-1",           489,   15.1974E-03,   141.550E-03,            0.,NA,NA,"",   880.630E+03,   966.608E+03,   966.608E+03
C:/temp/Job-5.odb,Step-1,Increment      1: Step Time =    1.000,"P-5-1",           490,   15.0009E-03,   57.0992E-03,            0.,NA,NA,"",   884.361E+03,   970.166E+03,   970.166E+03
C:/temp/Job-5.odb,Step-1,Increment      1: Step Time =    1.000,"P-5-1",           491,   55.9755E-03,   14.6467E-03,            0.,NA,NA,"",   1.01049E+06,   1.01162E+06,   1.01162E+06
C:/temp/Job-5.odb,Step-1,Increment      1: Step Time =    1.000,"P-5-1",           492,   184.788E-03,   74.9905E-03,            0.,NA,NA,"",   984.871E+03,   998.492E+03,   998.492E+03
C:/temp/Job-5.odb,Step-1,Increment      1: Step Time =    1.000,"P-5-1",           493,   57.3409E-03,   184.974E-03,            0.,NA,NA,"",   1.00952E+06,   1.01046E+06,   1.01046E+06
C:/temp/Job-5.odb,Step-1,Increment      1: Step Time =    1.000,"P-5-1",           494,   141.670E-03,   184.823E-03,            0.,NA,NA,"",   998.745E+03,   996.775E+03,   996.775E+03
C:/temp/Job-5.odb,Step-1,Increment      1: Step Time =    1.000,"P-5-1",           495,   185.223E-03,   58.4325E-03,            0.,NA,NA,"",   998.106E+03,   1.00424E+06,   1.00424E+06
C:/temp/Job-5.odb,Step-1,Increment      1: Step Time =    1.000,"P-5-1",           496,   135.976E-03,   184.712E-03,            0.,NA,NA,"",   995.349E+03,   993.918E+03,   993.918E+03
C:/temp/Job-5.odb,Step-1,Increment      1: Step Time =    1.000,"P-5-1",           497,   185.200E-03,   63.8710E-03,            0.,NA,NA,"",   994.611E+03,   1.00303E+06,   1.00303E+06
C:/temp/Job-5.odb,Step-1,Increment      1: Step Time =    1.000,"P-5-1",           498,   15.2403E-03,   135.986E-03,            0.,NA,NA,"",   864.703E+03,   951.929E+03,   951.929E+03
C:/temp/Job-5.odb,Step-1,Increment      1: Step Time =    1.000,"P-5-1",           499,   61.4333E-03,   14.8153E-03,            0.,NA,NA,"",   1.00339E+06,   1.00421E+06,   1.00421E+06
C:/temp/Job-5.odb,Step-1,Increment      1: Step Time =    1.000,"P-5-1",           500,   15.1150E-03,   51.5250E-03,            0.,NA,NA,"",   902.253E+03,   986.236E+03,   986.236E+03
C:/temp/Job-5.odb,Step-1,Increment      1: Step Time =    1.000,"P-5-1",           501,   51.8729E-03,   184.879E-03,            0.,NA,NA,"",   1.01762E+06,   1.01930E+06,   1.01930E+06
C:/temp/Job-5.odb,Step-1,Increment      1: Step Time =    1.000,"P-5-1",           502,   146.612E-03,   14.9799E-03,            0.,NA,NA,"",   999.901E+03,   997.887E+03,   997.887E+03
C:/temp/Job-5.odb,Step-1,Increment      1: Step Time =    1.000,"P-5-1",           503,   141.161E-03,   14.7614E-03,            0.,NA,NA,"",   996.880E+03,   995.150E+03,   995.150E+03
C:/temp/Job-5.odb,Step-1,Increment      1: Step Time =    1.000,"P-5-1",           504,   184.961E-03,   148.272E-03,            0.,NA,NA,"",   1.00104E+06,   1.00496E+06,   1.00496E+06
C:/temp/Job-5.odb,Step-1,Increment      1: Step Time =    1.000,"P-5-1",           505,   185.062E-03,   142.871E-03,            0.,NA,NA,"",   998.481E+03,   1.00432E+06,   1.00432E+06
C:/temp/Job-5.odb,Step-1,Increment      1: Step Time =    1.000,"P-5-1",           506,   130.273E-03,   184.576E-03,            0.,NA,NA,"",   991.058E+03,   990.432E+03,   990.432E+03
C:/temp/Job-5.odb,Step-1,Increment      1: Step Time =    1.000,"P-5-1",           507,   185.053E-03,   69.3928E-03,            0.,NA,NA,"",   990.052E+03,   1.00103E+06,   1.00103E+06
C:/temp/Job-5.odb,Step-1,Increment      1: Step Time =    1.000,"P-5-1",           508,   15.3551E-03,   130.383E-03,            0.,NA,NA,"",   849.580E+03,   937.819E+03,   937.819E+03
C:/temp/Job-5.odb,Step-1,Increment      1: Step Time =    1.000,"P-5-1",           509,   66.9428E-03,   15.0378E-03,            0.,NA,NA,"",   996.881E+03,   997.737E+03,   997.737E+03
C:/temp/Job-5.odb,Step-1,Increment      1: Step Time =    1.000,"P-5-1",           510,   177.295E-03,   11.7621E-03,            0.,NA,NA,"",   1.00055E+06,   1.00018E+06,   1.00018E+06
C:/temp/Job-5.odb,Step-1,Increment      1: Step Time =    1.000,"P-5-1",           511,   188.182E-03,   176.892E-03,            0.,NA,NA,"",   1.00129E+06,   1.00132E+06,   1.00132E+06
C:/temp/Job-5.odb,Step-1,Increment      1: Step Time =    1.000,"P-5-1",           512,   159.467E-03,   11.4011E-03,            0.,NA,NA,"",   999.226E+03,   998.117E+03,   998.117E+03
C:/temp/Job-5.odb,Step-1,Increment      1: Step Time =    1.000,"P-5-1",           513,   10.4802E-03,   40.1391E-03,            0.,NA,NA,"",   922.836E+03,   1.01159E+06,   1.01159E+06
C:/temp/Job-5.odb,Step-1,Increment      1: Step Time =    1.000,"P-5-1",           514,   189.239E-03,   159.777E-03,            0.,NA,NA,"",   1.00061E+06,   1.00267E+06,   1.00267E+06
C:/temp/Job-5.odb,Step-1,Increment      1: Step Time =    1.000,"P-5-1",           515,   40.2387E-03,   189.198E-03,            0.,NA,NA,"",   1.02698E+06,   1.03004E+06,   1.03004E+06
C:/temp/Job-5.odb,Step-1,Increment      1: Step Time =    1.000,"P-5-1",           516,   182.286E-03,   182.719E-03,            0.,NA,NA,"",   1.00167E+06,   1.00135E+06,   1.00135E+06
C:/temp/Job-5.odb,Step-1,Increment      1: Step Time =    1.000,"P-5-1",           517,   183.140E-03,   17.6034E-03,            0.,NA,NA,"",   1.00152E+06,   1.00121E+06,   1.00121E+06
C:/temp/Job-5.odb,Step-1,Increment      1: Step Time =    1.000,"P-5-1",           518,   17.2804E-03,   182.248E-03,            0.,NA,NA,"",   1.08772E+06,   1.12845E+06,   1.12845E+06
C:/temp/Job-5.odb,Step-1,Increment      1: Step Time =    1.000,"P-5-1",           519,   181.963E-03,   176.698E-03,            0.,NA,NA,"",   1.00324E+06,   1.00279E+06,   1.00279E+06
C:/temp/Job-5.odb,Step-1,Increment      1: Step Time =    1.000,"P-5-1",           520,   177.285E-03,   17.9218E-03,            0.,NA,NA,"",   1.00280E+06,   1.00207E+06,   1.00207E+06
C:/temp/Job-5.odb,Step-1,Increment      1: Step Time =    1.000,"P-5-1",           521,   23.2966E-03,   181.912E-03,            0.,NA,NA,"",   1.07705E+06,    1.1035E+06,    1.1035E+06
C:/temp/Job-5.odb,Step-1,Increment      1: Step Time =    1.000,"P-5-1",           522,   184.732E-03,   153.672E-03,            0.,NA,NA,"",   1.00292E+06,   1.00523E+06,   1.00523E+06
C:/temp/Job-5.odb,Step-1,Increment      1: Step Time =    1.000,"P-5-1",           523,   152.365E-03,   15.5955E-03,            0.,NA,NA,"",   1.00270E+06,   1.00052E+06,   1.00052E+06
C:/temp/Job-5.odb,Step-1,Increment      1: Step Time =    1.000,"P-5-1",           524,   46.4157E-03,   184.668E-03,            0.,NA,NA,"",   1.02744E+06,   1.03053E+06,   1.03053E+06
C:/temp/Job-5.odb,Step-1,Increment      1: Step Time =    1.000,"P-5-1",           525,   15.2692E-03,   46.0536E-03,            0.,NA,NA,"",   921.387E+03,   1.00296E+06,   1.00296E+06
C:/temp/Job-5.odb,Step-1,Increment      1: Step Time =    1.000,"P-5-1",           526,   179.709E-03,   75.0716E-03,            0.,NA,NA,"",   987.844E+03,   997.606E+03,   997.606E+03
C:/temp/Job-5.odb,Step-1,Increment      1: Step Time =    1.000,"P-5-1",           527,   20.8415E-03,   124.314E-03,            0.,NA,NA,"",   849.385E+03,   931.895E+03,   931.895E+03
C:/temp/Job-5.odb,Step-1,Increment      1: Step Time =    1.000,"P-5-1",           528,   123.965E-03,   179.058E-03,            0.,NA,NA,"",   998.461E+03,   999.231E+03,   999.231E+03
C:/temp/Job-5.odb,Step-1,Increment      1: Step Time =    1.000,"P-5-1",           529,   77.5991E-03,   20.4091E-03,            0.,NA,NA,"",   1.00021E+06,   1.00335E+06,   1.00335E+06
C:/temp/Job-5.odb,Step-1,Increment      1: Step Time =    1.000,"P-5-1",           530,   181.979E-03,   170.693E-03,            0.,NA,NA,"",   1.00447E+06,   1.00410E+06,   1.00410E+06
C:/temp/Job-5.odb,Step-1,Increment      1: Step Time =    1.000,"P-5-1",           531,   71.8879E-03,   20.4703E-03,            0.,NA,NA,"",   1.00707E+06,   1.00924E+06,   1.00924E+06
C:/temp/Job-5.odb,Step-1,Increment      1: Step Time =    1.000,"P-5-1",           532,   129.785E-03,   179.274E-03,            0.,NA,NA,"",   1.00309E+06,   1.00211E+06,   1.00211E+06
C:/temp/Job-5.odb,Step-1,Increment      1: Step Time =    1.000,"P-5-1",           533,   20.4773E-03,   129.973E-03,            0.,NA,NA,"",   864.822E+03,   946.121E+03,   946.121E+03
C:/temp/Job-5.odb,Step-1,Increment      1: Step Time =    1.000,"P-5-1",           534,   165.550E-03,   17.2287E-03,            0.,NA,NA,"",   1.00465E+06,   1.00293E+06,   1.00293E+06
C:/temp/Job-5.odb,Step-1,Increment      1: Step Time =    1.000,"P-5-1",           535,   182.949E-03,   164.903E-03,            0.,NA,NA,"",   1.00482E+06,   1.00493E+06,   1.00493E+06
C:/temp/Job-5.odb,Step-1,Increment      1: Step Time =    1.000,"P-5-1",           536,   16.9342E-03,   16.8677E-03,            0.,NA,NA,"",   1.09555E+06,   1.13430E+06,   1.13430E+06
C:/temp/Job-5.odb,Step-1,Increment      1: Step Time =    1.000,"P-5-1",           537,   180.092E-03,   69.6298E-03,            0.,NA,NA,"",   994.206E+03,   1.00174E+06,   1.00174E+06
C:/temp/Job-5.odb,Step-1,Increment      1: Step Time =    1.000,"P-5-1",           538,   180.222E-03,   137.447E-03,            0.,NA,NA,"",   1.00049E+06,   1.00533E+06,   1.00533E+06
C:/temp/Job-5.odb,Step-1,Increment      1: Step Time =    1.000,"P-5-1",           539,   135.476E-03,   19.4761E-03,            0.,NA,NA,"",   1.00337E+06,   1.00136E+06,   1.00136E+06
C:/temp/Job-5.odb,Step-1,Increment      1: Step Time =    1.000,"P-5-1",           540,   180.160E-03,   132.119E-03,            0.,NA,NA,"",   995.508E+03,   1.00260E+06,   1.00260E+06
C:/temp/Job-5.odb,Step-1,Increment      1: Step Time =    1.000,"P-5-1",           541,   140.670E-03,   19.4716E-03,            0.,NA,NA,"",   1.00578E+06,   1.00303E+06,   1.00303E+06
C:/temp/Job-5.odb,Step-1,Increment      1: Step Time =    1.000,"P-5-1",           542,   19.8332E-03,   57.1836E-03,            0.,NA,NA,"",   902.495E+03,   980.077E+03,   980.077E+03
C:/temp/Job-5.odb,Step-1,Increment      1: Step Time =    1.000,"P-5-1",           543,   57.5254E-03,   179.883E-03,            0.,NA,NA,"",   1.02350E+06,   1.02549E+06,   1.02549E+06
C:/temp/Job-5.odb,Step-1,Increment      1: Step Time =    1.000,"P-5-1",           544,   63.0391E-03,   180.125E-03,            0.,NA,NA,"",   1.01629E+06,   1.01775E+06,   1.01775E+06
C:/temp/Job-5.odb,Step-1,Increment      1: Step Time =    1.000,"P-5-1",           545,   19.7188E-03,   62.7208E-03,            0.,NA,NA,"",   884.292E+03,   964.315E+03,   964.315E+03
C:/temp/Job-5.odb,Step-1,Increment      1: Step Time =    1.000,"P-5-1",           546,   68.3996E-03,   180.358E-03,            0.,NA,NA,"",   1.00902E+06,   1.01064E+06,   1.01064E+06
C:/temp/Job-5.odb,Step-1,Increment      1: Step Time =    1.000,"P-5-1",           547,   73.6584E-03,   180.485E-03,            0.,NA,NA,"",   1.00231E+06,   1.00452E+06,   1.00452E+06
C:/temp/Job-5.odb,Step-1,Increment      1: Step Time =    1.000,"P-5-1",           548,   19.7851E-03,   68.2390E-03,            0.,NA,NA,"",   867.485E+03,   949.315E+03,   949.315E+03
C:/temp/Job-5.odb,Step-1,Increment      1: Step Time =    1.000,"P-5-1",           549,   20.3079E-03,   79.6151E-03,            0.,NA,NA,"",   836.685E+03,   921.170E+03,   921.170E+03
C:/temp/Job-5.odb,Step-1,Increment      1: Step Time =    1.000,"P-5-1",           550,   20.2487E-03,   91.0060E-03,            0.,NA,NA,"",   813.592E+03,   900.379E+03,   900.379E+03
C:/temp/Job-5.odb,Step-1,Increment      1: Step Time =    1.000,"P-5-1",           551,   118.713E-03,   20.8925E-03,            0.,NA,NA,"",   993.680E+03,   996.344E+03,   996.344E+03
C:/temp/Job-5.odb,Step-1,Increment      1: Step Time =    1.000,"P-5-1",           552,   180.018E-03,   115.750E-03,            0.,NA,NA,"",   976.254E+03,   990.538E+03,   990.538E+03
C:/temp/Job-5.odb,Step-1,Increment      1: Step Time =    1.000,"P-5-1",           553,   19.9878E-03,   73.8401E-03,            0.,NA,NA,"",   851.582E+03,   934.860E+03,   934.860E+03
C:/temp/Job-5.odb,Step-1,Increment      1: Step Time =    1.000,"P-5-1",           554,   178.991E-03,   80.6913E-03,            0.,NA,NA,"",   980.777E+03,   992.797E+03,   992.797E+03
C:/temp/Job-5.odb,Step-1,Increment      1: Step Time =    1.000,"P-5-1",           555,   20.4686E-03,   85.4247E-03,            0.,NA,NA,"",   823.502E+03,   909.148E+03,   909.148E+03
C:/temp/Job-5.odb,Step-1,Increment      1: Step Time =    1.000,"P-5-1",           556,   124.556E-03,   20.2435E-03,            0.,NA,NA,"",   997.541E+03,   998.127E+03,   998.127E+03
C:/temp/Job-5.odb,Step-1,Increment      1: Step Time =    1.000,"P-5-1",           557,   107.234E-03,   179.913E-03,            0.,NA,NA,"",   984.038E+03,   989.683E+03,   989.683E+03
C:/temp/Job-5.odb,Step-1,Increment      1: Step Time =    1.000,"P-5-1",           558,   79.0018E-03,   180.374E-03,            0.,NA,NA,"",   996.510E+03,   999.766E+03,   999.766E+03
C:/temp/Job-5.odb,Step-1,Increment      1: Step Time =    1.000,"P-5-1",           559,   180.124E-03,   121.332E-03,            0.,NA,NA,"",   983.391E+03,   995.285E+03,   995.285E+03
C:/temp/Job-5.odb,Step-1,Increment      1: Step Time =    1.000,"P-5-1",           560,   20.3661E-03,   96.6568E-03,            0.,NA,NA,"",   808.700E+03,   896.032E+03,   896.032E+03
C:/temp/Job-5.odb,Step-1,Increment      1: Step Time =    1.000,"P-5-1",           561,   94.6012E-03,   20.0474E-03,            0.,NA,NA,"",   984.126E+03,   990.318E+03,   990.318E+03
C:/temp/Job-5.odb,Step-1,Increment      1: Step Time =    1.000,"P-5-1",           562,   90.1565E-03,   179.079E-03,            0.,NA,NA,"",   988.023E+03,   994.305E+03,   994.305E+03
C:/temp/Job-5.odb,Step-1,Increment      1: Step Time =    1.000,"P-5-1",           563,   84.5593E-03,   179.853E-03,            0.,NA,NA,"",   991.894E+03,   996.720E+03,   996.720E+03
C:/temp/Job-5.odb,Step-1,Increment      1: Step Time =    1.000,"P-5-1",           564,   112.771E-03,   179.868E-03,            0.,NA,NA,"",   987.588E+03,   991.738E+03,   991.738E+03
C:/temp/Job-5.odb,Step-1,Increment      1: Step Time =    1.000,"P-5-1",           565,   130.152E-03,   19.7515E-03,            0.,NA,NA,"",   1.00063E+06,   999.629E+03,   999.629E+03
C:/temp/Job-5.odb,Step-1,Increment      1: Step Time =    1.000,"P-5-1",           566,   179.612E-03,   109.949E-03,            0.,NA,NA,"",   969.460E+03,   985.660E+03,   985.660E+03
C:/temp/Job-5.odb,Step-1,Increment      1: Step Time =    1.000,"P-5-1",           567,   88.9444E-03,   19.9502E-03,            0.,NA,NA,"",   987.697E+03,   992.971E+03,   992.971E+03
C:/temp/Job-5.odb,Step-1,Increment      1: Step Time =    1.000,"P-5-1",           568,   96.0211E-03,   179.151E-03,            0.,NA,NA,"",   984.771E+03,   991.664E+03,   991.664E+03
C:/temp/Job-5.odb,Step-1,Increment      1: Step Time =    1.000,"P-5-1",           569,   21.3511E-03,   118.691E-03,            0.,NA,NA,"",   835.047E+03,   918.742E+03,   918.742E+03
C:/temp/Job-5.odb,Step-1,Increment      1: Step Time =    1.000,"P-5-1",           570,   179.023E-03,   104.004E-03,            0.,NA,NA,"",   964.633E+03,   981.912E+03,   981.912E+03
C:/temp/Job-5.odb,Step-1,Increment      1: Step Time =    1.000,"P-5-1",           571,   101.735E-03,   179.554E-03,            0.,NA,NA,"",   983.009E+03,   989.687E+03,   989.687E+03
C:/temp/Job-5.odb,Step-1,Increment      1: Step Time =    1.000,"P-5-1",           572,   112.841E-03,   21.0268E-03,            0.,NA,NA,"",   989.271E+03,   993.882E+03,   993.882E+03
C:/temp/Job-5.odb,Step-1,Increment      1: Step Time =    1.000,"P-5-1",           573,   106.694E-03,   21.0890E-03,            0.,NA,NA,"",   985.500E+03,   991.549E+03,   991.549E+03
C:/temp/Job-5.odb,Step-1,Increment      1: Step Time =    1.000,"P-5-1",           574,   100.568E-03,   20.5301E-03,            0.,NA,NA,"",   983.468E+03,   990.073E+03,   990.073E+03
C:/temp/Job-5.odb,Step-1,Increment      1: Step Time =    1.000,"P-5-1",           575,   20.6470E-03,   102.221E-03,            0.,NA,NA,"",   808.598E+03,   895.554E+03,   895.554E+03
C:/temp/Job-5.odb,Step-1,Increment      1: Step Time =    1.000,"P-5-1",           576,   178.750E-03,   98.1144E-03,            0.,NA,NA,"",   963.498E+03,   980.721E+03,   980.721E+03
C:/temp/Job-5.odb,Step-1,Increment      1: Step Time =    1.000,"P-5-1",           577,   21.0340E-03,   107.636E-03,            0.,NA,NA,"",   813.261E+03,   899.309E+03,   899.309E+03
C:/temp/Job-5.odb,Step-1,Increment      1: Step Time =    1.000,"P-5-1",           578,   178.362E-03,   92.1770E-03,            0.,NA,NA,"",   966.683E+03,   982.722E+03,   982.722E+03
C:/temp/Job-5.odb,Step-1,Increment      1: Step Time =    1.000,"P-5-1",           579,   21.1857E-03,   113.161E-03,            0.,NA,NA,"",   822.764E+03,   907.657E+03,   907.657E+03
C:/temp/Job-5.odb,Step-1,Increment      1: Step Time =    1.000,"P-5-1",           580,   178.603E-03,   86.4432E-03,            0.,NA,NA,"",   973.346E+03,   987.501E+03,   987.501E+03
C:/temp/Job-5.odb,Step-1,Increment      1: Step Time =    1.000,"P-5-1",           581,   17.1031E-03,   22.8280E-03,            0.,NA,NA,"",   1.04460E+06,   1.09845E+06,   1.09845E+06
C:/temp/Job-5.odb,Step-1,Increment      1: Step Time =    1.000,"P-5-1",           582,   17.0925E-03,   28.8608E-03,            0.,NA,NA,"",   1.00627E+06,   1.06996E+06,   1.06996E+06
C:/temp/Job-5.odb,Step-1,Increment      1: Step Time =    1.000,"P-5-1",           583,   29.3274E-03,   181.913E-03,            0.,NA,NA,"",   1.06419E+06,   1.08133E+06,   1.08133E+06
C:/temp/Job-5.odb,Step-1,Increment      1: Step Time =    1.000,"P-5-1",           584,   145.777E-03,   19.5843E-03,            0.,NA,NA,"",   1.00758E+06,   1.00445E+06,   1.00445E+06
C:/temp/Job-5.odb,Step-1,Increment      1: Step Time =    1.000,"P-5-1",           585,   180.050E-03,   142.875E-03,            0.,NA,NA,"",   1.00436E+06,   1.00728E+06,   1.00728E+06
C:/temp/Job-5.odb,Step-1,Increment      1: Step Time =    1.000,"P-5-1",           586,   180.122E-03,   126.779E-03,            0.,NA,NA,"",   989.894E+03,   999.323E+03,   999.323E+03
C:/temp/Job-5.odb,Step-1,Increment      1: Step Time =    1.000,"P-5-1",           587,   118.322E-03,   179.491E-03,            0.,NA,NA,"",   992.849E+03,   995.365E+03,   995.365E+03
C:/temp/Job-5.odb,Step-1,Increment      1: Step Time =    1.000,"P-5-1",           588,   83.3078E-03,   20.1439E-03,            0.,NA,NA,"",   993.464E+03,   997.698E+03,   997.698E+03
C:/temp/Job-5.odb,Step-1,Increment      1: Step Time =    1.000,"P-5-1",           589,   23.2494E-03,   175.527E-03,            0.,NA,NA,"",   1.04772E+06,   1.08754E+06,   1.08754E+06
C:/temp/Job-5.odb,Step-1,Increment      1: Step Time =    1.000,"P-5-1",           590,   22.3075E-03,   169.376E-03,            0.,NA,NA,"",   1.01401E+06,   1.06582E+06,   1.06582E+06
C:/temp/Job-5.odb,Step-1,Increment      1: Step Time =    1.000,"P-5-1",           591,   28.7390E-03,   21.6126E-03,            0.,NA,NA,"",   1.05744E+06,   1.08122E+06,   1.08122E+06
C:/temp/Job-5.odb,Step-1,Increment      1: Step Time =    1.000,"P-5-1",           592,   34.4103E-03,   20.5955E-03,            0.,NA,NA,"",   1.05337E+06,   1.06800E+06,   1.06800E+06
C:/temp/Job-5.odb,Step-1,Increment      1: Step Time =    1.000,"P-5-1",           593,   175.618E-03,   176.772E-03,            0.,NA,NA,"",   1.00560E+06,   1.00440E+06,   1.00440E+06
C:/temp/Job-5.odb,Step-1,Increment      1: Step Time =    1.000,"P-5-1",           594,   177.421E-03,   24.3207E-03,            0.,NA,NA,"",   1.00526E+06,   1.00419E+06,   1.00419E+06
C:/temp/Job-5.odb,Step-1,Increment      1: Step Time =    1.000,"P-5-1",           595,   169.482E-03,   177.761E-03,            0.,NA,NA,"",   1.00773E+06,   1.00569E+06,   1.00569E+06
C:/temp/Job-5.odb,Step-1,Increment      1: Step Time =    1.000,"P-5-1",           596,   178.354E-03,   30.6110E-03,            0.,NA,NA,"",   1.00720E+06,   1.00606E+06,   1.00606E+06
C:/temp/Job-5.odb,Step-1,Increment      1: Step Time =    1.000,"P-5-1",           597,   20.2875E-03,   146.357E-03,            0.,NA,NA,"",   915.743E+03,   991.036E+03,   991.036E+03
C:/temp/Job-5.odb,Step-1,Increment      1: Step Time =    1.000,"P-5-1",           598,   55.6419E-03,   19.3649E-03,            0.,NA,NA,"",   1.02383E+06,   1.02618E+06,   1.02618E+06
C:/temp/Job-5.odb,Step-1,Increment      1: Step Time =    1.000,"P-5-1",           599,   20.3873E-03,   151.905E-03,            0.,NA,NA,"",   935.613E+03,   1.00773E+06,   1.00773E+06
C:/temp/Job-5.odb,Step-1,Increment      1: Step Time =    1.000,"P-5-1",           600,   50.3966E-03,   19.2840E-03,            0.,NA,NA,"",   1.03082E+06,   1.03418E+06,   1.03418E+06
C:/temp/Job-5.odb,Step-1,Increment      1: Step Time =    1.000,"P-5-1",           601,   163.539E-03,   178.748E-03,            0.,NA,NA,"",   1.00916E+06,   1.00642E+06,   1.00642E+06
C:/temp/Job-5.odb,Step-1,Increment      1: Step Time =    1.000,"P-5-1",           602,   179.264E-03,   36.6821E-03,            0.,NA,NA,"",   1.00819E+06,   1.00734E+06,   1.00734E+06
C:/temp/Job-5.odb,Step-1,Increment      1: Step Time =    1.000,"P-5-1",           603,   146.785E-03,   179.946E-03,            0.,NA,NA,"",   1.00938E+06,   1.00589E+06,   1.00589E+06
C:/temp/Job-5.odb,Step-1,Increment      1: Step Time =    1.000,"P-5-1",           604,   21.3546E-03,   163.367E-03,            0.,NA,NA,"",   984.049E+03,   1.04523E+06,   1.04523E+06
C:/temp/Job-5.odb,Step-1,Increment      1: Step Time =    1.000,"P-5-1",           605,   180.257E-03,   53.6641E-03,            0.,NA,NA,"",   1.00641E+06,   1.00817E+06,   1.00817E+06
C:/temp/Job-5.odb,Step-1,Increment      1: Step Time =    1.000,"P-5-1",           606,   39.8847E-03,   19.8855E-03,            0.,NA,NA,"",   1.04596E+06,   1.05483E+06,   1.05483E+06
C:/temp/Job-5.odb,Step-1,Increment      1: Step Time =    1.000,"P-5-1",           607,   141.241E-03,   179.885E-03,            0.,NA,NA,"",   1.00827E+06,   1.00509E+06,   1.00509E+06
C:/temp/Job-5.odb,Step-1,Increment      1: Step Time =    1.000,"P-5-1",           608,   180.142E-03,   59.1000E-03,            0.,NA,NA,"",   1.00371E+06,   1.00701E+06,   1.00701E+06
C:/temp/Job-5.odb,Step-1,Increment      1: Step Time =    1.000,"P-5-1",           609,   157.839E-03,   179.411E-03,            0.,NA,NA,"",   1.00975E+06,   1.00657E+06,   1.00657E+06
C:/temp/Job-5.odb,Step-1,Increment      1: Step Time =    1.000,"P-5-1",           610,   179.880E-03,   42.4673E-03,            0.,NA,NA,"",   1.00828E+06,   1.00805E+06,   1.00805E+06
C:/temp/Job-5.odb,Step-1,Increment      1: Step Time =    1.000,"P-5-1",           611,   20.7315E-03,   157.540E-03,            0.,NA,NA,"",   957.704E+03,   1.02547E+06,   1.02547E+06
C:/temp/Job-5.odb,Step-1,Increment      1: Step Time =    1.000,"P-5-1",           612,   45.1908E-03,   19.4614E-03,            0.,NA,NA,"",   1.03787E+06,   1.04336E+06,   1.04336E+06
C:/temp/Job-5.odb,Step-1,Increment      1: Step Time =    1.000,"P-5-1",           613,   152.295E-03,   179.803E-03,            0.,NA,NA,"",   1.00987E+06,   1.00641E+06,   1.00641E+06
C:/temp/Job-5.odb,Step-1,Increment      1: Step Time =    1.000,"P-5-1",           614,   180.198E-03,   48.0926E-03,            0.,NA,NA,"",   1.00774E+06,   1.00838E+06,   1.00838E+06
C:/temp/Job-5.odb,Step-1,Increment      1: Step Time =    1.000,"P-5-1",           615,   20.3256E-03,   140.837E-03,            0.,NA,NA,"",   897.375E+03,   975.143E+03,   975.143E+03
C:/temp/Job-5.odb,Step-1,Increment      1: Step Time =    1.000,"P-5-1",           616,   60.8586E-03,   19.7682E-03,            0.,NA,NA,"",   1.01864E+06,   1.02023E+06,   1.02023E+06
C:/temp/Job-5.odb,Step-1,Increment      1: Step Time =    1.000,"P-5-1",           617,   20.3809E-03,   135.402E-03,            0.,NA,NA,"",   880.352E+03,   960.181E+03,   960.181E+03
C:/temp/Job-5.odb,Step-1,Increment      1: Step Time =    1.000,"P-5-1",           618,   66.2590E-03,   20.2186E-03,            0.,NA,NA,"",   1.01345E+06,   1.01501E+06,   1.01501E+06
C:/temp/Job-5.odb,Step-1,Increment      1: Step Time =    1.000,"P-5-1",           619,   135.560E-03,   179.627E-03,            0.,NA,NA,"",   1.00634E+06,   1.00395E+06,   1.00395E+06
C:/temp/Job-5.odb,Step-1,Increment      1: Step Time =    1.000,"P-5-1",           620,   180.241E-03,   64.3171E-03,            0.,NA,NA,"",   999.398E+03,   1.00474E+06,   1.00474E+06
C:/temp/Job-5.odb,Step-1,Increment      1: Step Time =    1.000,"P-5-1",           621,   171.392E-03,   17.9642E-03,            0.,NA,NA,"",   1.00398E+06,   1.00273E+06,   1.00273E+06
C:/temp/Job-5.odb,Step-1,Increment      1: Step Time =    1.000,"P-5-1",           622,   16.2883E-03,   34.7372E-03,            0.,NA,NA,"",   972.428E+03,   1.04416E+06,   1.04416E+06
C:/temp/Job-5.odb,Step-1,Increment      1: Step Time =    1.000,"P-5-1",           623,   35.1284E-03,   182.888E-03,            0.,NA,NA,"",   1.05152E+06,   1.06184E+06,   1.06184E+06
C:/temp/Job-5.odb,Step-1,Increment      1: Step Time =    1.000,"P-5-1",           624,   15.5595E-03,   40.5232E-03,            0.,NA,NA,"",   943.828E+03,   1.02163E+06,   1.02163E+06
C:/temp/Job-5.odb,Step-1,Increment      1: Step Time =    1.000,"P-5-1",           625,   40.8214E-03,   183.955E-03,            0.,NA,NA,"",   1.03867E+06,   1.04452E+06,   1.04452E+06
C:/temp/Job-5.odb,Step-1,Increment      1: Step Time =    1.000,"P-5-1",           626,   158.858E-03,   17.2227E-03,            0.,NA,NA,"",   1.00557E+06,   1.00324E+06,   1.00324E+06
C:/temp/Job-5.odb,Step-1,Increment      1: Step Time =    1.000,"P-5-1",           627,   184.012E-03,   159.229E-03,            0.,NA,NA,"",   1.00423E+06,   1.00525E+06,   1.00525E+06
C:/temp/Job-5.odb,Step-1,Increment      1: Step Time =    1.000,"P-5-1",           628,   179.937E-03,   148.119E-03,            0.,NA,NA,"",   1.00658E+06,   1.00813E+06,   1.00813E+06
C:/temp/Job-5.odb,Step-1,Increment      1: Step Time =    1.000,"P-5-1",           629,   52.1214E-03,   179.825E-03,            0.,NA,NA,"",   1.02997E+06,   1.03310E+06,   1.03310E+06
C:/temp/Job-5.odb,Step-1,Increment      1: Step Time =    1.000,"P-5-1",           630,   20.1398E-03,   51.6776E-03,            0.,NA,NA,"",   922.230E+03,   996.751E+03,   996.751E+03
C:/temp/Job-5.odb,Step-1,Increment      1: Step Time =    1.000,"P-5-1",           631,   150.807E-03,   20.1207E-03,            0.,NA,NA,"",   1.00948E+06,   1.00609E+06,   1.00609E+06
C:/temp/Job-5.odb,Step-1,Increment      1: Step Time =    1.000,"P-5-1",           632,   175.004E-03,   132.451E-03,            0.,NA,NA,"",   1.00132E+06,   1.00445E+06,   1.00445E+06
C:/temp/Job-5.odb,Step-1,Increment      1: Step Time =    1.000,"P-5-1",           633,   129.664E-03,   173.971E-03,            0.,NA,NA,"",   1.01587E+06,   1.01414E+06,   1.01414E+06
C:/temp/Job-5.odb,Step-1,Increment      1: Step Time =    1.000,"P-5-1",           634,   175.058E-03,   69.7933E-03,            0.,NA,NA,"",   999.085E+03,   1.00298E+06,   1.00298E+06
C:/temp/Job-5.odb,Step-1,Increment      1: Step Time =    1.000,"P-5-1",           635,   71.2303E-03,   26.0544E-03,            0.,NA,NA,"",   1.02329E+06,   1.02647E+06,   1.02647E+06
C:/temp/Job-5.odb,Step-1,Increment      1: Step Time =    1.000,"P-5-1",           636,   25.4640E-03,   129.599E-03,            0.,NA,NA,"",   878.605E+03,   952.890E+03,   952.890E+03
C:/temp/Job-5.odb,Step-1,Increment      1: Step Time =    1.000,"P-5-1",           637,   175.523E-03,   137.433E-03,            0.,NA,NA,"",   1.00666E+06,   1.00808E+06,   1.00808E+06
C:/temp/Job-5.odb,Step-1,Increment      1: Step Time =    1.000,"P-5-1",           638,   174.888E-03,   74.7331E-03,            0.,NA,NA,"",   991.286E+03,   997.198E+03,   997.198E+03
C:/temp/Job-5.odb,Step-1,Increment      1: Step Time =    1.000,"P-5-1",           639,   25.8398E-03,   124.310E-03,            0.,NA,NA,"",   863.498E+03,   939.346E+03,   939.346E+03
C:/temp/Job-5.odb,Step-1,Increment      1: Step Time =    1.000,"P-5-1",           640,   73.6701E-03,   175.756E-03,            0.,NA,NA,"",   1.01487E+06,   1.01833E+06,   1.01833E+06
C:/temp/Job-5.odb,Step-1,Increment      1: Step Time =    1.000,"P-5-1",           641,   123.147E-03,   172.832E-03,            0.,NA,NA,"",   1.01277E+06,   1.01437E+06,   1.01437E+06
C:/temp/Job-5.odb,Step-1,Increment      1: Step Time =    1.000,"P-5-1",           642,   24.7284E-03,   73.4656E-03,            0.,NA,NA,"",   867.171E+03,   943.592E+03,   943.592E+03
C:/temp/Job-5.odb,Step-1,Increment      1: Step Time =    1.000,"P-5-1",           643,   77.2460E-03,   25.7674E-03,            0.,NA,NA,"",   1.01459E+06,   1.01936E+06,   1.01936E+06
C:/temp/Job-5.odb,Step-1,Increment      1: Step Time =    1.000,"P-5-1",           644,   25.2679E-03,   79.2284E-03,            0.,NA,NA,"",   850.313E+03,   928.399E+03,   928.399E+03
C:/temp/Job-5.odb,Step-1,Increment      1: Step Time =    1.000,"P-5-1",           645,   78.6491E-03,   175.851E-03,            0.,NA,NA,"",   1.00842E+06,   1.01301E+06,   1.01301E+06
C:/temp/Job-5.odb,Step-1,Increment      1: Step Time =    1.000,"P-5-1",           646,   135.340E-03,   24.0351E-03,            0.,NA,NA,"",   1.01400E+06,   1.01102E+06,   1.01102E+06
C:/temp/Job-5.odb,Step-1,Increment      1: Step Time =    1.000,"P-5-1",           647,   135.509E-03,   174.733E-03,            0.,NA,NA,"",   1.01752E+06,   1.01390E+06,   1.01390E+06
C:/temp/Job-5.odb,Step-1,Increment      1: Step Time =    1.000,"P-5-1",           648,   118.864E-03,   26.9244E-03,            0.,NA,NA,"",   1.00717E+06,   1.01096E+06,   1.01096E+06
C:/temp/Job-5.odb,Step-1,Increment      1: Step Time =    1.000,"P-5-1",           649,   175.333E-03,   64.8215E-03,            0.,NA,NA,"",   1.00468E+06,   1.00672E+06,   1.00672E+06
C:/temp/Job-5.odb,Step-1,Increment      1: Step Time =    1.000,"P-5-1",           650,   112.854E-03,   26.2572E-03,            0.,NA,NA,"",   999.756E+03,   1.00649E+06,   1.00649E+06
C:/temp/Job-5.odb,Step-1,Increment      1: Step Time =    1.000,"P-5-1",           651,   65.2784E-03,   25.6665E-03,            0.,NA,NA,"",   1.02904E+06,   1.03141E+06,   1.03141E+06
C:/temp/Job-5.odb,Step-1,Increment      1: Step Time =    1.000,"P-5-1",           652,   25.7408E-03,   134.659E-03,            0.,NA,NA,"",   896.623E+03,   968.026E+03,   968.026E+03
C:/temp/Job-5.odb,Step-1,Increment      1: Step Time =    1.000,"P-5-1",           653,   130.345E-03,   24.4993E-03,            0.,NA,NA,"",   1.01135E+06,   1.00985E+06,   1.00985E+06
C:/temp/Job-5.odb,Step-1,Increment      1: Step Time =    1.000,"P-5-1",           654,   173.032E-03,   80.3306E-03,            0.,NA,NA,"",   981.945E+03,   989.552E+03,   989.552E+03
C:/temp/Job-5.odb,Step-1,Increment      1: Step Time =    1.000,"P-5-1",           655,   174.986E-03,   127.131E-03,            0.,NA,NA,"",   994.106E+03,   999.531E+03,   999.531E+03
C:/temp/Job-5.odb,Step-1,Increment      1: Step Time =    1.000,"P-5-1",           656,   28.0518E-03,   118.376E-03,            0.,NA,NA,"",   849.649E+03,   925.025E+03,   925.025E+03
C:/temp/Job-5.odb,Step-1,Increment      1: Step Time =    1.000,"P-5-1",           657,   140.215E-03,   24.3245E-03,            0.,NA,NA,"",   1.01576E+06,   1.01172E+06,   1.01172E+06
C:/temp/Job-5.odb,Step-1,Increment      1: Step Time =    1.000,"P-5-1",           658,   117.217E-03,   174.344E-03,            0.,NA,NA,"",   1.00267E+06,   1.00692E+06,   1.00692E+06
C:/temp/Job-5.odb,Step-1,Increment      1: Step Time =    1.000,"P-5-1",           659,   83.0576E-03,   25.0326E-03,            0.,NA,NA,"",   1.00557E+06,   1.01174E+06,   1.01174E+06
C:/temp/Job-5.odb,Step-1,Increment      1: Step Time =    1.000,"P-5-1",           660,   25.3721E-03,   96.3352E-03,            0.,NA,NA,"",   815.351E+03,   897.860E+03,   897.860E+03
C:/temp/Job-5.odb,Step-1,Increment      1: Step Time =    1.000,"P-5-1",           661,   25.8514E-03,   101.719E-03,            0.,NA,NA,"",   814.194E+03,   896.384E+03,   896.384E+03
C:/temp/Job-5.odb,Step-1,Increment      1: Step Time =    1.000,"P-5-1",           662,   173.264E-03,   104.603E-03,            0.,NA,NA,"",   957.926E+03,   972.132E+03,   972.132E+03
C:/temp/Job-5.odb,Step-1,Increment      1: Step Time =    1.000,"P-5-1",           663,   83.7269E-03,   175.191E-03,            0.,NA,NA,"",   1.00406E+06,   1.01049E+06,   1.01049E+06
C:/temp/Job-5.odb,Step-1,Increment      1: Step Time =    1.000,"P-5-1",           664,   173.527E-03,   98.7063E-03,            0.,NA,NA,"",   956.788E+03,   971.558E+03,   971.558E+03
C:/temp/Job-5.odb,Step-1,Increment      1: Step Time =    1.000,"P-5-1",           665,   63.4606E-03,   175.154E-03,            0.,NA,NA,"",   1.02876E+06,   1.03106E+06,   1.03106E+06
C:/temp/Job-5.odb,Step-1,Increment      1: Step Time =    1.000,"P-5-1",           666,   89.2792E-03,   172.641E-03,            0.,NA,NA,"",   1.00275E+06,   1.01257E+06,   1.01257E+06
C:/temp/Job-5.odb,Step-1,Increment      1: Step Time =    1.000,"P-5-1",           667,   24.3253E-03,   62.7798E-03,            0.,NA,NA,"",   900.602E+03,   973.114E+03,   973.114E+03
C:/temp/Job-5.odb,Step-1,Increment      1: Step Time =    1.000,"P-5-1",           668,   112.041E-03,   175.046E-03,            0.,NA,NA,"",   996.865E+03,   1.00303E+06,   1.00303E+06
C:/temp/Job-5.odb,Step-1,Increment      1: Step Time =    1.000,"P-5-1",           669,   106.916E-03,   175.240E-03,            0.,NA,NA,"",   993.252E+03,   1.00156E+06,   1.00156E+06
C:/temp/Job-5.odb,Step-1,Increment      1: Step Time =    1.000,"P-5-1",           670,   26.0709E-03,   85.5941E-03,            0.,NA,NA,"",   834.016E+03,   913.395E+03,   913.395E+03
C:/temp/Job-5.odb,Step-1,Increment      1: Step Time =    1.000,"P-5-1",           671,   177.345E-03,   163.494E-03,            0.,NA,NA,"",   1.00946E+06,   1.00824E+06,   1.00824E+06
C:/temp/Job-5.odb,Step-1,Increment      1: Step Time =    1.000,"P-5-1",           672,   160.779E-03,   21.4115E-03,            0.,NA,NA,"",   1.00987E+06,   1.00681E+06,   1.00681E+06
C:/temp/Job-5.odb,Step-1,Increment      1: Step Time =    1.000,"P-5-1",           673,   24.8894E-03,   90.9856E-03,            0.,NA,NA,"",   820.706E+03,   902.923E+03,   902.923E+03
C:/temp/Job-5.odb,Step-1,Increment      1: Step Time =    1.000,"P-5-1",           674,   88.5234E-03,   24.5937E-03,            0.,NA,NA,"",   998.526E+03,   1.00595E+06,   1.00595E+06
C:/temp/Job-5.odb,Step-1,Increment      1: Step Time =    1.000,"P-5-1",           675,   175.326E-03,   116.342E-03,            0.,NA,NA,"",   976.616E+03,   987.401E+03,   987.401E+03
C:/temp/Job-5.odb,Step-1,Increment      1: Step Time =    1.000,"P-5-1",           676,   96.0609E-03,   173.665E-03,            0.,NA,NA,"",   995.406E+03,   1.00593E+06,   1.00593E+06
C:/temp/Job-5.odb,Step-1,Increment      1: Step Time =    1.000,"P-5-1",           677,   93.8776E-03,   24.5916E-03,            0.,NA,NA,"",   993.987E+03,   1.00270E+06,   1.00270E+06
C:/temp/Job-5.odb,Step-1,Increment      1: Step Time =    1.000,"P-5-1",           678,   174.814E-03,   110.772E-03,            0.,NA,NA,"",   967.198E+03,   980.152E+03,   980.152E+03
C:/temp/Job-5.odb,Step-1,Increment      1: Step Time =    1.000,"P-5-1",           679,   101.822E-03,   174.378E-03,            0.,NA,NA,"",   992.849E+03,   1.00268E+06,   1.00268E+06
C:/temp/Job-5.odb,Step-1,Increment      1: Step Time =    1.000,"P-5-1",           680,   125.038E-03,   24.9483E-03,            0.,NA,NA,"",   1.00885E+06,   1.00929E+06,   1.00929E+06
C:/temp/Job-5.odb,Step-1,Increment      1: Step Time =    1.000,"P-5-1",           681,   68.6871E-03,   175.457E-03,            0.,NA,NA,"",   1.02207E+06,   1.02458E+06,   1.02458E+06
C:/temp/Job-5.odb,Step-1,Increment      1: Step Time =    1.000,"P-5-1",           682,   164.906E-03,   22.5314E-03,            0.,NA,NA,"",   1.00973E+06,   1.00695E+06,   1.00695E+06
C:/temp/Job-5.odb,Step-1,Increment      1: Step Time =    1.000,"P-5-1",           683,   175.242E-03,   121.712E-03,            0.,NA,NA,"",   985.493E+03,   993.644E+03,   993.644E+03
C:/temp/Job-5.odb,Step-1,Increment      1: Step Time =    1.000,"P-5-1",           684,   106.168E-03,   26.9894E-03,            0.,NA,NA,"",   996.846E+03,   1.00661E+06,   1.00661E+06
C:/temp/Job-5.odb,Step-1,Increment      1: Step Time =    1.000,"P-5-1",           685,   24.4761E-03,   68.0642E-03,            0.,NA,NA,"",   883.908E+03,   958.577E+03,   958.577E+03
C:/temp/Job-5.odb,Step-1,Increment      1: Step Time =    1.000,"P-5-1",           686,   99.6491E-03,   25.3257E-03,            0.,NA,NA,"",   993.058E+03,   1.00270E+06,   1.00270E+06
C:/temp/Job-5.odb,Step-1,Increment      1: Step Time =    1.000,"P-5-1",           687,   171.705E-03,   92.3917E-03,            0.,NA,NA,"",   959.695E+03,   972.305E+03,   972.305E+03
C:/temp/Job-5.odb,Step-1,Increment      1: Step Time =    1.000,"P-5-1",           688,   172.919E-03,   86.4121E-03,            0.,NA,NA,"",   970.747E+03,   981.473E+03,   981.473E+03
C:/temp/Job-5.odb,Step-1,Increment      1: Step Time =    1.000,"P-5-1",           689,   27.0440E-03,   106.983E-03,            0.,NA,NA,"",   819.926E+03,   900.228E+03,   900.228E+03
C:/temp/Job-5.odb,Step-1,Increment      1: Step Time =    1.000,"P-5-1",           690,   26.6361E-03,   112.551E-03,            0.,NA,NA,"",   830.253E+03,   909.700E+03,   909.700E+03
C:/temp/Job-5.odb,Step-1,Increment      1: Step Time =    1.000,"P-5-1",           691,   23.0058E-03,   22.6338E-03,            0.,NA,NA,"",   1.05742E+06,   1.09378E+06,   1.09378E+06
C:/temp/Job-5.odb,Step-1,Increment      1: Step Time =    1.000,"P-5-1",           692,   23.9215E-03,   29.5670E-03,            0.,NA,NA,"",   1.02289E+06,   1.06946E+06,   1.06946E+06
C:/temp/Job-5.odb,Step-1,Increment      1: Step Time =    1.000,"P-5-1",           693,   167.984E-03,   172.337E-03,            0.,NA,NA,"",   1.01288E+06,   1.00968E+06,   1.00968E+06
C:/temp/Job-5.odb,Step-1,Increment      1: Step Time =    1.000,"P-5-1",           694,   172.976E-03,   32.0923E-03,            0.,NA,NA,"",   1.01204E+06,   1.00952E+06,   1.00952E+06
C:/temp/Job-5.odb,Step-1,Increment      1: Step Time =    1.000,"P-5-1",           695,   25.3805E-03,   150.938E-03,            0.,NA,NA,"",   952.184E+03,   1.01475E+06,   1.01475E+06
C:/temp/Job-5.odb,Step-1,Increment      1: Step Time =    1.000,"P-5-1",           696,   50.3142E-03,   23.8450E-03,            0.,NA,NA,"",   1.03854E+06,   1.04388E+06,   1.04388E+06
C:/temp/Job-5.odb,Step-1,Increment      1: Step Time =    1.000,"P-5-1",           697,   162.257E-03,   173.763E-03,            0.,NA,NA,"",   1.01502E+06,   1.01097E+06,   1.01097E+06
C:/temp/Job-5.odb,Step-1,Increment      1: Step Time =    1.000,"P-5-1",           698,   174.254E-03,   38.0085E-03,            0.,NA,NA,"",   1.01341E+06,   1.01098E+06,   1.01098E+06
C:/temp/Job-5.odb,Step-1,Increment      1: Step Time =    1.000,"P-5-1",           699,   30.3866E-03,   174.449E-03,            0.,NA,NA,"",   1.04695E+06,   1.07387E+06,   1.07387E+06
C:/temp/Job-5.odb,Step-1,Increment      1: Step Time =    1.000,"P-5-1",           700,   30.0028E-03,   26.9111E-03,            0.,NA,NA,"",   1.04425E+06,   1.07358E+06,   1.07358E+06
C:/temp/Job-5.odb,Step-1,Increment      1: Step Time =    1.000,"P-5-1",           701,   25.6944E-03,   156.383E-03,            0.,NA,NA,"",    973.11E+03,   1.03085E+06,   1.03085E+06
C:/temp/Job-5.odb,Step-1,Increment      1: Step Time =    1.000,"P-5-1",           702,   45.4432E-03,   24.0989E-03,            0.,NA,NA,"",   1.04293E+06,   1.05100E+06,   1.05100E+06
C:/temp/Job-5.odb,Step-1,Increment      1: Step Time =    1.000,"P-5-1",           703,   25.4014E-03,   145.498E-03,            0.,NA,NA,"",   933.619E+03,   999.519E+03,   999.519E+03
C:/temp/Job-5.odb,Step-1,Increment      1: Step Time =    1.000,"P-5-1",           704,   55.1911E-03,   23.9119E-03,            0.,NA,NA,"",   1.03549E+06,   1.03906E+06,   1.03906E+06
C:/temp/Job-5.odb,Step-1,Increment      1: Step Time =    1.000,"P-5-1",           705,   156.825E-03,   174.560E-03,            0.,NA,NA,"",   1.01656E+06,   1.01193E+06,   1.01193E+06
C:/temp/Job-5.odb,Step-1,Increment      1: Step Time =    1.000,"P-5-1",           706,   175.024E-03,   43.5350E-03,            0.,NA,NA,"",   1.01375E+06,   1.01170E+06,   1.01170E+06
C:/temp/Job-5.odb,Step-1,Increment      1: Step Time =    1.000,"P-5-1",           707,   140.980E-03,   175.157E-03,            0.,NA,NA,"",   1.01819E+06,   1.01360E+06,   1.01360E+06
C:/temp/Job-5.odb,Step-1,Increment      1: Step Time =    1.000,"P-5-1",           708,   174.527E-03,   59.8921E-03,            0.,NA,NA,"",   1.01097E+06,   1.01066E+06,   1.01066E+06
C:/temp/Job-5.odb,Step-1,Increment      1: Step Time =    1.000,"P-5-1",           709,   21.4953E-03,   35.7811E-03,            0.,NA,NA,"",   988.713E+03,   1.04878E+06,   1.04878E+06
C:/temp/Job-5.odb,Step-1,Increment      1: Step Time =    1.000,"P-5-1",           710,   36.6172E-03,   177.239E-03,            0.,NA,NA,"",   1.04969E+06,   1.06443E+06,   1.06443E+06
C:/temp/Job-5.odb,Step-1,Increment      1: Step Time =    1.000,"P-5-1",           711,   170.610E-03,   25.2985E-03,            0.,NA,NA,"",   1.00935E+06,   1.00704E+06,   1.00704E+06
C:/temp/Job-5.odb,Step-1,Increment      1: Step Time =    1.000,"P-5-1",           712,   174.583E-03,   169.709E-03,            0.,NA,NA,"",   1.00973E+06,   1.00781E+06,   1.00781E+06
C:/temp/Job-5.odb,Step-1,Increment      1: Step Time =    1.000,"P-5-1",           713,   25.6025E-03,   140.025E-03,            0.,NA,NA,"",   915.131E+03,   983.815E+03,   983.815E+03
C:/temp/Job-5.odb,Step-1,Increment      1: Step Time =    1.000,"P-5-1",           714,   59.8743E-03,   24.9297E-03,            0.,NA,NA,"",   1.03244E+06,   1.03519E+06,   1.03519E+06
C:/temp/Job-5.odb,Step-1,Increment      1: Step Time =    1.000,"P-5-1",           715,   146.322E-03,   175.213E-03,            0.,NA,NA,"",   1.01815E+06,   1.01316E+06,   1.01316E+06
C:/temp/Job-5.odb,Step-1,Increment      1: Step Time =    1.000,"P-5-1",           716,   26.4499E-03,   161.982E-03,            0.,NA,NA,"",   995.680E+03,   1.04678E+06,   1.04678E+06
C:/temp/Job-5.odb,Step-1,Increment      1: Step Time =    1.000,"P-5-1",           717,   40.4724E-03,   24.5122E-03,            0.,NA,NA,"",   1.04682E+06,   1.05920E+06,   1.05920E+06
C:/temp/Job-5.odb,Step-1,Increment      1: Step Time =    1.000,"P-5-1",           718,   175.431E-03,   54.2064E-03,            0.,NA,NA,"",   1.01273E+06,   1.01183E+06,   1.01183E+06
C:/temp/Job-5.odb,Step-1,Increment      1: Step Time =    1.000,"P-5-1",           719,   27.8840E-03,   167.800E-03,            0.,NA,NA,"",   1.02248E+06,   1.06351E+06,   1.06351E+06
C:/temp/Job-5.odb,Step-1,Increment      1: Step Time =    1.000,"P-5-1",           720,   35.3524E-03,   25.3313E-03,            0.,NA,NA,"",   1.04832E+06,   1.06720E+06,   1.06720E+06
C:/temp/Job-5.odb,Step-1,Increment      1: Step Time =    1.000,"P-5-1",           721,   151.557E-03,   175.019E-03,            0.,NA,NA,"",   1.01752E+06,   1.01258E+06,   1.01258E+06
C:/temp/Job-5.odb,Step-1,Increment      1: Step Time =    1.000,"P-5-1",           722,   175.440E-03,   48.8630E-03,            0.,NA,NA,"",   1.01346E+06,   1.01200E+06,   1.01200E+06
C:/temp/Job-5.odb,Step-1,Increment      1: Step Time =    1.000,"P-5-1",           723,   20.2986E-03,   41.1704E-03,            0.,NA,NA,"",   961.208E+03,   1.02883E+06,   1.02883E+06
C:/temp/Job-5.odb,Step-1,Increment      1: Step Time =    1.000,"P-5-1",           724,   41.9196E-03,   179.056E-03,            0.,NA,NA,"",   1.04418E+06,   1.05231E+06,   1.05231E+06
C:/temp/Job-5.odb,Step-1,Increment      1: Step Time =    1.000,"P-5-1",           725,   179.123E-03,   158.187E-03,            0.,NA,NA,"",   1.00860E+06,   1.00823E+06,   1.00823E+06
C:/temp/Job-5.odb,Step-1,Increment      1: Step Time =    1.000,"P-5-1",           726,   20.3796E-03,   46.3612E-03,            0.,NA,NA,"",   941.593E+03,   1.01297E+06,   1.01297E+06
C:/temp/Job-5.odb,Step-1,Increment      1: Step Time =    1.000,"P-5-1",           727,   47.0452E-03,   180.046E-03,            0.,NA,NA,"",   1.03624E+06,   1.04145E+06,   1.04145E+06
C:/temp/Job-5.odb,Step-1,Increment      1: Step Time =    1.000,"P-5-1",           728,   180.115E-03,   153.101E-03,            0.,NA,NA,"",   1.00768E+06,   1.00824E+06,   1.00824E+06
C:/temp/Job-5.odb,Step-1,Increment      1: Step Time =    1.000,"P-5-1",           729,   175.032E-03,   142.680E-03,            0.,NA,NA,"",   1.01085E+06,   1.01070E+06,   1.01070E+06
C:/temp/Job-5.odb,Step-1,Increment      1: Step Time =    1.000,"P-5-1",           730,   149.575E-03,   24.1290E-03,            0.,NA,NA,"",   1.01587E+06,   1.01139E+06,   1.01139E+06
C:/temp/Job-5.odb,Step-1,Increment      1: Step Time =    1.000,"P-5-1",           731,   57.9170E-03,   174.770E-03,            0.,NA,NA,"",   1.03527E+06,   1.03826E+06,   1.03826E+06
C:/temp/Job-5.odb,Step-1,Increment      1: Step Time =    1.000,"P-5-1",           732,   24.4255E-03,   57.4852E-03,            0.,NA,NA,"",   919.167E+03,   988.605E+03,   988.605E+03
C:/temp/Job-5.odb,Step-1,Increment      1: Step Time =    1.000,"P-5-1",           733,   130.563E-03,   169.081E-03,            0.,NA,NA,"",   1.02895E+06,   1.02577E+06,   1.02577E+06
C:/temp/Job-5.odb,Step-1,Increment      1: Step Time =    1.000,"P-5-1",           734,   169.329E-03,   70.1399E-03,            0.,NA,NA,"",   1.00455E+06,   1.00415E+06,   1.00415E+06
C:/temp/Job-5.odb,Step-1,Increment      1: Step Time =    1.000,"P-5-1",           735,   169.709E-03,   127.186E-03,            0.,NA,NA,"",   998.356E+03,   999.725E+03,   999.725E+03
C:/temp/Job-5.odb,Step-1,Increment      1: Step Time =    1.000,"P-5-1",           736,   77.4106E-03,   31.3606E-03,            0.,NA,NA,"",   1.02726E+06,   1.03367E+06,   1.03367E+06
C:/temp/Job-5.odb,Step-1,Increment      1: Step Time =    1.000,"P-5-1",           737,   29.3707E-03,   125.069E-03,            0.,NA,NA,"",   874.824E+03,   945.419E+03,   945.419E+03
C:/temp/Job-5.odb,Step-1,Increment      1: Step Time =    1.000,"P-5-1",           738,   168.940E-03,   133.505E-03,            0.,NA,NA,"",   1.01062E+06,   1.00857E+06,   1.00857E+06
C:/temp/Job-5.odb,Step-1,Increment      1: Step Time =    1.000,"P-5-1",           739,   169.238E-03,   77.4704E-03,            0.,NA,NA,"",   990.428E+03,   993.545E+03,   993.545E+03
C:/temp/Job-5.odb,Step-1,Increment      1: Step Time =    1.000,"P-5-1",           740,   29.2758E-03,   72.9421E-03,            0.,NA,NA,"",   883.773E+03,   952.722E+03,   952.722E+03
C:/temp/Job-5.odb,Step-1,Increment      1: Step Time =    1.000,"P-5-1",           741,   135.889E-03,   170.264E-03,            0.,NA,NA,"",   1.02881E+06,   1.02365E+06,   1.02365E+06
C:/temp/Job-5.odb,Step-1,Increment      1: Step Time =    1.000,"P-5-1",           742,   32.4530E-03,   122.114E-03,            0.,NA,NA,"",   875.205E+03,   942.035E+03,   942.035E+03
C:/temp/Job-5.odb,Step-1,Increment      1: Step Time =    1.000,"P-5-1",           743,   171.136E-03,   64.3614E-03,            0.,NA,NA,"",   1.01096E+06,   1.00971E+06,   1.00971E+06
C:/temp/Job-5.odb,Step-1,Increment      1: Step Time =    1.000,"P-5-1",           744,   119.435E-03,   168.720E-03,            0.,NA,NA,"",   1.01797E+06,   1.02251E+06,   1.02251E+06
C:/temp/Job-5.odb,Step-1,Increment      1: Step Time =    1.000,"P-5-1",           745,   70.6320E-03,   32.1772E-03,            0.,NA,NA,"",   1.03809E+06,   1.04216E+06,   1.04216E+06
C:/temp/Job-5.odb,Step-1,Increment      1: Step Time =    1.000,"P-5-1",           746,   83.3393E-03,   29.4705E-03,            0.,NA,NA,"",   1.01473E+06,   1.02299E+06,   1.02299E+06
C:/temp/Job-5.odb,Step-1,Increment      1: Step Time =    1.000,"P-5-1",           747,   31.7984E-03,   133.560E-03,            0.,NA,NA,"",   915.136E+03,   976.151E+03,   976.151E+03
C:/temp/Job-5.odb,Step-1,Increment      1: Step Time =    1.000,"P-5-1",           748,   114.119E-03,   31.8823E-03,            0.,NA,NA,"",   1.01181E+06,   1.02040E+06,   1.02040E+06
C:/temp/Job-5.odb,Step-1,Increment      1: Step Time =    1.000,"P-5-1",           749,   130.774E-03,   29.9908E-03,            0.,NA,NA,"",   1.02471E+06,   1.02229E+06,   1.02229E+06
C:/temp/Job-5.odb,Step-1,Increment      1: Step Time =    1.000,"P-5-1",           750,   170.415E-03,   121.741E-03,            0.,NA,NA,"",   986.780E+03,   991.531E+03,   991.531E+03
C:/temp/Job-5.odb,Step-1,Increment      1: Step Time =    1.000,"P-5-1",           751,   74.0653E-03,   171.051E-03,            0.,NA,NA,"",   1.02644E+06,   1.03133E+06,   1.03133E+06
C:/temp/Job-5.odb,Step-1,Increment      1: Step Time =    1.000,"P-5-1",           752,   29.3062E-03,   67.8437E-03,            0.,NA,NA,"",   901.593E+03,   968.280E+03,   968.280E+03
C:/temp/Job-5.odb,Step-1,Increment      1: Step Time =    1.000,"P-5-1",           753,   30.1628E-03,   78.2354E-03,            0.,NA,NA,"",   866.073E+03,   936.818E+03,   936.818E+03
C:/temp/Job-5.odb,Step-1,Increment      1: Step Time =    1.000,"P-5-1",           754,   79.6462E-03,   167.502E-03,            0.,NA,NA,"",   1.02678E+06,   1.03525E+06,   1.03525E+06
C:/temp/Job-5.odb,Step-1,Increment      1: Step Time =    1.000,"P-5-1",           755,   108.686E-03,   31.2409E-03,            0.,NA,NA,"",   1.00529E+06,   1.01671E+06,   1.01671E+06
C:/temp/Job-5.odb,Step-1,Increment      1: Step Time =    1.000,"P-5-1",           756,   122.739E-03,   31.4462E-03,            0.,NA,NA,"",   1.02130E+06,   1.02320E+06,   1.02320E+06
C:/temp/Job-5.odb,Step-1,Increment      1: Step Time =    1.000,"P-5-1",           757,   33.9613E-03,   114.689E-03,            0.,NA,NA,"",   848.444E+03,   917.574E+03,   917.574E+03
C:/temp/Job-5.odb,Step-1,Increment      1: Step Time =    1.000,"P-5-1",           758,   115.326E-03,   169.172E-03,            0.,NA,NA,"",   1.01213E+06,   1.01915E+06,   1.01915E+06
C:/temp/Job-5.odb,Step-1,Increment      1: Step Time =    1.000,"P-5-1",           759,   139.507E-03,   29.9437E-03,            0.,NA,NA,"",   1.02830E+06,   1.02257E+06,   1.02257E+06
C:/temp/Job-5.odb,Step-1,Increment      1: Step Time =    1.000,"P-5-1",           760,   84.3628E-03,   168.693E-03,            0.,NA,NA,"",   1.01658E+06,   1.02665E+06,   1.02665E+06
C:/temp/Job-5.odb,Step-1,Increment      1: Step Time =    1.000,"P-5-1",           761,   88.3610E-03,   29.0248E-03,            0.,NA,NA,"",   1.00706E+06,   1.01702E+06,   1.01702E+06
C:/temp/Job-5.odb,Step-1,Increment      1: Step Time =    1.000,"P-5-1",           762,   28.8699E-03,   90.2871E-03,            0.,NA,NA,"",   827.782E+03,   905.397E+03,   905.397E+03
C:/temp/Job-5.odb,Step-1,Increment      1: Step Time =    1.000,"P-5-1",           763,   110.742E-03,   170.110E-03,            0.,NA,NA,"",   1.00491E+06,   1.01426E+06,   1.01426E+06
C:/temp/Job-5.odb,Step-1,Increment      1: Step Time =    1.000,"P-5-1",           764,   31.3294E-03,   83.5165E-03,            0.,NA,NA,"",   850.633E+03,   922.311E+03,   922.311E+03
C:/temp/Job-5.odb,Step-1,Increment      1: Step Time =    1.000,"P-5-1",           765,   30.2209E-03,   95.6106E-03,            0.,NA,NA,"",   821.250E+03,   898.315E+03,   898.315E+03
C:/temp/Job-5.odb,Step-1,Increment      1: Step Time =    1.000,"P-5-1",           766,   91.4200E-03,   166.758E-03,            0.,NA,NA,"",   1.01034E+06,   1.02508E+06,   1.02508E+06
C:/temp/Job-5.odb,Step-1,Increment      1: Step Time =    1.000,"P-5-1",           767,   93.1219E-03,   28.7552E-03,            0.,NA,NA,"",   1.00273E+06,   1.01385E+06,   1.01385E+06
C:/temp/Job-5.odb,Step-1,Increment      1: Step Time =    1.000,"P-5-1",           768,   140.833E-03,   170.722E-03,            0.,NA,NA,"",   1.02821E+06,   1.02197E+06,   1.02197E+06
C:/temp/Job-5.odb,Step-1,Increment      1: Step Time =    1.000,"P-5-1",           769,   169.331E-03,   100.735E-03,            0.,NA,NA,"",   949.151E+03,   962.433E+03,   962.433E+03
C:/temp/Job-5.odb,Step-1,Increment      1: Step Time =    1.000,"P-5-1",           770,   102.295E-03,   31.9830E-03,            0.,NA,NA,"",   1.00295E+06,   1.01737E+06,   1.01737E+06
C:/temp/Job-5.odb,Step-1,Increment      1: Step Time =    1.000,"P-5-1",           771,   169.995E-03,   58.1766E-03,            0.,NA,NA,"",   1.01973E+06,   1.01587E+06,   1.01587E+06
C:/temp/Job-5.odb,Step-1,Increment      1: Step Time =    1.000,"P-5-1",           772,   31.5115E-03,   101.897E-03,            0.,NA,NA,"",   819.655E+03,   895.817E+03,   895.817E+03
C:/temp/Job-5.odb,Step-1,Increment      1: Step Time =    1.000,"P-5-1",           773,   97.9056E-03,   29.8340E-03,            0.,NA,NA,"",   1.00070E+06,   1.01367E+06,   1.01367E+06
C:/temp/Job-5.odb,Step-1,Increment      1: Step Time =    1.000,"P-5-1",           774,   168.447E-03,   107.769E-03,            0.,NA,NA,"",   954.631E+03,   965.854E+03,   965.854E+03
C:/temp/Job-5.odb,Step-1,Increment      1: Step Time =    1.000,"P-5-1",           775,   166.220E-03,   96.3221E-03,            0.,NA,NA,"",   944.511E+03,   956.309E+03,   956.309E+03
C:/temp/Job-5.odb,Step-1,Increment      1: Step Time =    1.000,"P-5-1",           776,   102.984E-03,   168.482E-03,            0.,NA,NA,"",   1.00278E+06,   1.01638E+06,   1.01638E+06
C:/temp/Job-5.odb,Step-1,Increment      1: Step Time =    1.000,"P-5-1",           777,   96.8942E-03,   168.559E-03,            0.,NA,NA,"",   1.00357E+06,   1.01793E+06,   1.01793E+06
C:/temp/Job-5.odb,Step-1,Increment      1: Step Time =    1.000,"P-5-1",           778,   63.9695E-03,   31.1520E-03,            0.,NA,NA,"",   1.04124E+06,   1.04475E+06,   1.04475E+06
C:/temp/Job-5.odb,Step-1,Increment      1: Step Time =    1.000,"P-5-1",           779,   170.488E-03,   112.077E-03,            0.,NA,NA,"",   965.602E+03,   975.594E+03,   975.594E+03
C:/temp/Job-5.odb,Step-1,Increment      1: Step Time =    1.000,"P-5-1",           780,   30.8850E-03,   139.416E-03,            0.,NA,NA,"",   934.397E+03,   993.462E+03,   993.462E+03
C:/temp/Job-5.odb,Step-1,Increment      1: Step Time =    1.000,"P-5-1",           781,   170.831E-03,   116.774E-03,            0.,NA,NA,"",   976.268E+03,   983.986E+03,   983.986E+03
C:/temp/Job-5.odb,Step-1,Increment      1: Step Time =    1.000,"P-5-1",           782,   31.0503E-03,   110.349E-03,            0.,NA,NA,"",   831.416E+03,   906.416E+03,   906.416E+03
C:/temp/Job-5.odb,Step-1,Increment      1: Step Time =    1.000,"P-5-1",           783,   64.1933E-03,   170.142E-03,            0.,NA,NA,"",   1.04008E+06,   1.04313E+06,   1.04313E+06
C:/temp/Job-5.odb,Step-1,Increment      1: Step Time =    1.000,"P-5-1",           784,   28.8302E-03,   62.8278E-03,            0.,NA,NA,"",   917.681E+03,   982.240E+03,   982.240E+03
C:/temp/Job-5.odb,Step-1,Increment      1: Step Time =    1.000,"P-5-1",           785,   161.959E-03,   27.0113E-03,            0.,NA,NA,"",   1.01556E+06,   1.01143E+06,   1.01143E+06
C:/temp/Job-5.odb,Step-1,Increment      1: Step Time =    1.000,"P-5-1",           786,   30.5802E-03,   155.136E-03,            0.,NA,NA,"",   986.170E+03,   1.03480E+06,   1.03480E+06
C:/temp/Job-5.odb,Step-1,Increment      1: Step Time =    1.000,"P-5-1",           787,   45.8221E-03,   28.8612E-03,            0.,NA,NA,"",   1.04473E+06,   1.05580E+06,   1.05580E+06
C:/temp/Job-5.odb,Step-1,Increment      1: Step Time =    1.000,"P-5-1",           788,   30.3274E-03,   149.999E-03,            0.,NA,NA,"",   968.335E+03,   1.02152E+06,   1.02152E+06
C:/temp/Job-5.odb,Step-1,Increment      1: Step Time =    1.000,"P-5-1",           789,   50.4909E-03,   28.4663E-03,            0.,NA,NA,"",   1.04278E+06,   1.05030E+06,   1.05030E+06
C:/temp/Job-5.odb,Step-1,Increment      1: Step Time =    1.000,"P-5-1",           790,   28.7896E-03,   34.3605E-03,            0.,NA,NA,"",   1.01422E+06,   1.05624E+06,   1.05624E+06
C:/temp/Job-5.odb,Step-1,Increment      1: Step Time =    1.000,"P-5-1",           791,   30.4248E-03,   144.801E-03,            0.,NA,NA,"",   951.042E+03,   1.00761E+06,   1.00761E+06
C:/temp/Job-5.odb,Step-1,Increment      1: Step Time =    1.000,"P-5-1",           792,   57.5571E-03,   30.8082E-03,            0.,NA,NA,"",   1.04359E+06,   1.04850E+06,   1.04850E+06
C:/temp/Job-5.odb,Step-1,Increment      1: Step Time =    1.000,"P-5-1",           793,   165.388E-03,   30.1263E-03,            0.,NA,NA,"",   1.01699E+06,   1.01275E+06,   1.01275E+06
C:/temp/Job-5.odb,Step-1,Increment      1: Step Time =    1.000,"P-5-1",           794,   26.1492E-03,   38.3150E-03,            0.,NA,NA,"",   994.218E+03,   1.04626E+06,   1.04626E+06
C:/temp/Job-5.odb,Step-1,Increment      1: Step Time =    1.000,"P-5-1",           795,   165.404E-03,   167.464E-03,            0.,NA,NA,"",   1.01905E+06,   1.01433E+06,   1.01433E+06
C:/temp/Job-5.odb,Step-1,Increment      1: Step Time =    1.000,"P-5-1",           796,   167.779E-03,   34.6751E-03,            0.,NA,NA,"",   1.01852E+06,   1.01415E+06,   1.01415E+06
C:/temp/Job-5.odb,Step-1,Increment      1: Step Time =    1.000,"P-5-1",           797,   160.689E-03,   169.030E-03,            0.,NA,NA,"",   1.02160E+06,   1.01600E+06,   1.01600E+06
C:/temp/Job-5.odb,Step-1,Increment      1: Step Time =    1.000,"P-5-1",           798,   145.831E-03,   170.579E-03,            0.,NA,NA,"",   1.02721E+06,   1.02056E+06,   1.02056E+06
C:/temp/Job-5.odb,Step-1,Increment      1: Step Time =    1.000,"P-5-1",           799,   155.709E-03,   169.790E-03,            0.,NA,NA,"",   1.02392E+06,   1.01768E+06,   1.01768E+06
C:/temp/Job-5.odb,Step-1,Increment      1: Step Time =    1.000,"P-5-1",           800,   171.127E-03,   54.2207E-03,            0.,NA,NA,"",   1.01919E+06,   1.01577E+06,   1.01577E+06
C:/temp/Job-5.odb,Step-1,Increment      1: Step Time =    1.000,"P-5-1",           801,   169.216E-03,   39.7727E-03,            0.,NA,NA,"",   1.01989E+06,   1.01545E+06,   1.01545E+06
C:/temp/Job-5.odb,Step-1,Increment      1: Step Time =    1.000,"P-5-1",           802,   170.089E-03,   44.8535E-03,            0.,NA,NA,"",   1.02056E+06,   1.01622E+06,   1.01622E+06
C:/temp/Job-5.odb,Step-1,Increment      1: Step Time =    1.000,"P-5-1",           803,   31.3504E-03,   160.280E-03,            0.,NA,NA,"",   1.00586E+06,   1.04795E+06,   1.04795E+06
C:/temp/Job-5.odb,Step-1,Increment      1: Step Time =    1.000,"P-5-1",           804,   41.1843E-03,   29.0945E-03,            0.,NA,NA,"",   1.04473E+06,   1.06040E+06,   1.06040E+06
C:/temp/Job-5.odb,Step-1,Increment      1: Step Time =    1.000,"P-5-1",           805,   158.399E-03,   24.4614E-03,            0.,NA,NA,"",   1.01375E+06,   1.00982E+06,   1.00982E+06
C:/temp/Job-5.odb,Step-1,Increment      1: Step Time =    1.000,"P-5-1",           806,   150.756E-03,   170.257E-03,            0.,NA,NA,"",   1.02592E+06,   1.01930E+06,   1.01930E+06
C:/temp/Job-5.odb,Step-1,Increment      1: Step Time =    1.000,"P-5-1",           807,   170.699E-03,   49.7526E-03,            0.,NA,NA,"",   1.01995E+06,   1.01606E+06,   1.01606E+06
C:/temp/Job-5.odb,Step-1,Increment      1: Step Time =    1.000,"P-5-1",           808,   32.9639E-03,   165.084E-03,            0.,NA,NA,"",   1.02532E+06,   1.05882E+06,   1.05882E+06
C:/temp/Job-5.odb,Step-1,Increment      1: Step Time =    1.000,"P-5-1",           809,   36.6779E-03,   29.6726E-03,            0.,NA,NA,"",   1.04252E+06,   1.06468E+06,   1.06468E+06
C:/temp/Job-5.odb,Step-1,Increment      1: Step Time =    1.000,"P-5-1",           810,   26.3411E-03,   46.2144E-03,            0.,NA,NA,"",   966.499E+03,   1.02486E+06,   1.02486E+06
C:/temp/Job-5.odb,Step-1,Increment      1: Step Time =    1.000,"P-5-1",           811,   43.9436E-03,   174.531E-03,            0.,NA,NA,"",   1.04540E+06,   1.05518E+06,   1.05518E+06
C:/temp/Job-5.odb,Step-1,Increment      1: Step Time =    1.000,"P-5-1",           812,   155.333E-03,   27.8972E-03,            0.,NA,NA,"",   1.02001E+06,   1.01468E+06,   1.01468E+06
C:/temp/Job-5.odb,Step-1,Increment      1: Step Time =    1.000,"P-5-1",           813,   174.588E-03,   156.276E-03,            0.,NA,NA,"",   1.01364E+06,   1.01164E+06,   1.01164E+06
C:/temp/Job-5.odb,Step-1,Increment      1: Step Time =    1.000,"P-5-1",           814,   25.1480E-03,   52.1197E-03,            0.,NA,NA,"",   941.018E+03,   1.00588E+06,   1.00588E+06
C:/temp/Job-5.odb,Step-1,Increment      1: Step Time =    1.000,"P-5-1",           815,   51.7581E-03,   174.043E-03,            0.,NA,NA,"",   1.04123E+06,   1.04677E+06,   1.04677E+06
C:/temp/Job-5.odb,Step-1,Increment      1: Step Time =    1.000,"P-5-1",           816,   152.737E-03,   25.3380E-03,            0.,NA,NA,"",   1.01703E+06,   1.01233E+06,   1.01233E+06
C:/temp/Job-5.odb,Step-1,Increment      1: Step Time =    1.000,"P-5-1",           817,   174.082E-03,   148.553E-03,            0.,NA,NA,"",   1.01431E+06,   1.01257E+06,   1.01257E+06
C:/temp/Job-5.odb,Step-1,Increment      1: Step Time =    1.000,"P-5-1",           818,   170.168E-03,   141.402E-03,            0.,NA,NA,"",   1.01703E+06,   1.01390E+06,   1.01390E+06
C:/temp/Job-5.odb,Step-1,Increment      1: Step Time =    1.000,"P-5-1",           819,   145.361E-03,   28.5119E-03,            0.,NA,NA,"",   1.02446E+06,   1.01855E+06,   1.01855E+06
C:/temp/Job-5.odb,Step-1,Increment      1: Step Time =    1.000,"P-5-1",           820,   58.9821E-03,   169.808E-03,            0.,NA,NA,"",   1.04433E+06,   1.04831E+06,   1.04831E+06
C:/temp/Job-5.odb,Step-1,Increment      1: Step Time =    1.000,"P-5-1",           821,   28.6159E-03,   58.0558E-03,            0.,NA,NA,"",   934.624E+03,   996.364E+03,   996.364E+03
C:/temp/Job-5.odb,Step-1,Increment      1: Step Time =    1.000,"P-5-1",           822,   165.551E-03,   75.0245E-03,            0.,NA,NA,"",   998.850E+03,   997.670E+03,   997.670E+03
C:/temp/Job-5.odb,Step-1,Increment      1: Step Time =    1.000,"P-5-1",           823,   163.170E-03,   131.608E-03,            0.,NA,NA,"",   1.01698E+06,   1.01031E+06,   1.01031E+06
C:/temp/Job-5.odb,Step-1,Increment      1: Step Time =    1.000,"P-5-1",           824,   34.6521E-03,   126.104E-03,            0.,NA,NA,"",   898.266E+03,   958.702E+03,   958.702E+03
C:/temp/Job-5.odb,Step-1,Increment      1: Step Time =    1.000,"P-5-1",           825,   125.376E-03,   167.308E-03,            0.,NA,NA,"",   1.02942E+06,   1.02905E+06,   1.02905E+06
C:/temp/Job-5.odb,Step-1,Increment      1: Step Time =    1.000,"P-5-1",           826,   131.949E-03,   164.525E-03,            0.,NA,NA,"",   1.04208E+06,   1.03658E+06,   1.03658E+06
C:/temp/Job-5.odb,Step-1,Increment      1: Step Time =    1.000,"P-5-1",           827,   81.3099E-03,   35.5198E-03,            0.,NA,NA,"",   1.03071E+06,   1.04068E+06,   1.04068E+06
C:/temp/Job-5.odb,Step-1,Increment      1: Step Time =    1.000,"P-5-1",           828,   35.4867E-03,   129.681E-03,            0.,NA,NA,"",   914.202E+03,   970.692E+03,   970.692E+03
C:/temp/Job-5.odb,Step-1,Increment      1: Step Time =    1.000,"P-5-1",           829,   164.186E-03,   67.6146E-03,            0.,NA,NA,"",   1.01764E+06,   1.01158E+06,   1.01158E+06
C:/temp/Job-5.odb,Step-1,Increment      1: Step Time =    1.000,"P-5-1",           830,   74.2859E-03,   35.9751E-03,            0.,NA,NA,"",   1.04212E+06,   1.04815E+06,   1.04815E+06
C:/temp/Job-5.odb,Step-1,Increment      1: Step Time =    1.000,"P-5-1",           831,   70.3341E-03,   164.457E-03,            0.,NA,NA,"",   1.04681E+06,   1.05150E+06,   1.05150E+06
C:/temp/Job-5.odb,Step-1,Increment      1: Step Time =    1.000,"P-5-1",           832,   164.531E-03,   126.194E-03,            0.,NA,NA,"",   1.00149E+06,   998.963E+03,   998.963E+03
C:/temp/Job-5.odb,Step-1,Increment      1: Step Time =    1.000,"P-5-1",           833,   76.6618E-03,   163.532E-03,            0.,NA,NA,"",   1.04122E+06,   1.04883E+06,   1.04883E+06
C:/temp/Job-5.odb,Step-1,Increment      1: Step Time =    1.000,"P-5-1",           834,   35.4016E-03,   76.7463E-03,            0.,NA,NA,"",   888.055E+03,   949.563E+03,   949.563E+03
C:/temp/Job-5.odb,Step-1,Increment      1: Step Time =    1.000,"P-5-1",           835,   167.793E-03,   81.2929E-03,            0.,NA,NA,"",   980.841E+03,   985.346E+03,   985.346E+03
C:/temp/Job-5.odb,Step-1,Increment      1: Step Time =    1.000,"P-5-1",           836,   33.0882E-03,   72.5661E-03,            0.,NA,NA,"",   897.620E+03,   960.432E+03,   960.432E+03
C:/temp/Job-5.odb,Step-1,Increment      1: Step Time =    1.000,"P-5-1",           837,   127.114E-03,   34.0570E-03,            0.,NA,NA,"",   1.03362E+06,   1.03264E+06,   1.03264E+06
C:/temp/Job-5.odb,Step-1,Increment      1: Step Time =    1.000,"P-5-1",           838,   37.4822E-03,   119.010E-03,            0.,NA,NA,"",   873.641E+03,   934.831E+03,   934.831E+03
C:/temp/Job-5.odb,Step-1,Increment      1: Step Time =    1.000,"P-5-1",           839,   110.514E-03,   37.5146E-03,            0.,NA,NA,"",   1.01814E+06,   1.03288E+06,   1.03288E+06
C:/temp/Job-5.odb,Step-1,Increment      1: Step Time =    1.000,"P-5-1",           840,   134.787E-03,   34.1167E-03,            0.,NA,NA,"",   1.03905E+06,   1.03314E+06,   1.03314E+06
C:/temp/Job-5.odb,Step-1,Increment      1: Step Time =    1.000,"P-5-1",           841,   119.287E-03,   36.3732E-03,            0.,NA,NA,"",   1.03017E+06,   1.03529E+06,   1.03529E+06
C:/temp/Job-5.odb,Step-1,Increment      1: Step Time =    1.000,"P-5-1",           842,   120.425E-03,   164.731E-03,            0.,NA,NA,"",   1.02863E+06,   1.03262E+06,   1.03262E+06
C:/temp/Job-5.odb,Step-1,Increment      1: Step Time =    1.000,"P-5-1",           843,   84.2791E-03,   32.9245E-03,            0.,NA,NA,"",   1.02136E+06,   1.03162E+06,   1.03162E+06
C:/temp/Job-5.odb,Step-1,Increment      1: Step Time =    1.000,"P-5-1",           844,   114.143E-03,   162.837E-03,            0.,NA,NA,"",   1.02359E+06,   1.03447E+06,   1.03447E+06
C:/temp/Job-5.odb,Step-1,Increment      1: Step Time =    1.000,"P-5-1",           845,   35.8662E-03,   81.9005E-03,            0.,NA,NA,"",   867.610E+03,   931.866E+03,   931.866E+03
C:/temp/Job-5.odb,Step-1,Increment      1: Step Time =    1.000,"P-5-1",           846,   136.642E-03,   166.181E-03,            0.,NA,NA,"",   1.03946E+06,   1.03232E+06,   1.03232E+06
C:/temp/Job-5.odb,Step-1,Increment      1: Step Time =    1.000,"P-5-1",           847,   33.3113E-03,   88.5298E-03,            0.,NA,NA,"",   837.265E+03,   909.052E+03,   909.052E+03
C:/temp/Job-5.odb,Step-1,Increment      1: Step Time =    1.000,"P-5-1",           848,   92.5767E-03,   32.1315E-03,            0.,NA,NA,"",   1.00940E+06,   1.02238E+06,   1.02238E+06
C:/temp/Job-5.odb,Step-1,Increment      1: Step Time =    1.000,"P-5-1",           849,   80.4623E-03,   163.278E-03,            0.,NA,NA,"",   1.03570E+06,   1.04581E+06,   1.04581E+06
C:/temp/Job-5.odb,Step-1,Increment      1: Step Time =    1.000,"P-5-1",           850,   108.460E-03,   165.391E-03,            0.,NA,NA,"",   1.01118E+06,   1.02505E+06,   1.02505E+06
C:/temp/Job-5.odb,Step-1,Increment      1: Step Time =    1.000,"P-5-1",           851,   124.327E-03,   37.0000E-03,            0.,NA,NA,"",   1.03826E+06,   1.03881E+06,   1.03881E+06
C:/temp/Job-5.odb,Step-1,Increment      1: Step Time =    1.000,"P-5-1",           852,   35.2699E-03,   93.6977E-03,            0.,NA,NA,"",   826.708E+03,   897.864E+03,   897.864E+03
C:/temp/Job-5.odb,Step-1,Increment      1: Step Time =    1.000,"P-5-1",           853,   166.843E-03,   62.3815E-03,            0.,NA,NA,"",   1.02024E+06,   1.01512E+06,   1.01512E+06
C:/temp/Job-5.odb,Step-1,Increment      1: Step Time =    1.000,"P-5-1",           854,   64.7717E-03,   165.226E-03,            0.,NA,NA,"",   1.04974E+06,   1.05347E+06,   1.05347E+06
C:/temp/Job-5.odb,Step-1,Increment      1: Step Time =    1.000,"P-5-1",           855,   165.594E-03,   121.059E-03,            0.,NA,NA,"",   986.284E+03,   987.882E+03,   987.882E+03
C:/temp/Job-5.odb,Step-1,Increment      1: Step Time =    1.000,"P-5-1",           856,   67.3018E-03,   37.7770E-03,            0.,NA,NA,"",   1.05347E+06,   1.05765E+06,   1.05765E+06
C:/temp/Job-5.odb,Step-1,Increment      1: Step Time =    1.000,"P-5-1",           857,   35.6656E-03,   139.495E-03,            0.,NA,NA,"",   954.206E+03,   1.00365E+06,   1.00365E+06
C:/temp/Job-5.odb,Step-1,Increment      1: Step Time =    1.000,"P-5-1",           858,   35.0572E-03,   67.8877E-03,            0.,NA,NA,"",   922.549E+03,   979.011E+03,   979.011E+03
C:/temp/Job-5.odb,Step-1,Increment      1: Step Time =    1.000,"P-5-1",           859,   95.5410E-03,   33.9272E-03,            0.,NA,NA,"",   1.00878E+06,   1.02438E+06,   1.02438E+06
C:/temp/Job-5.odb,Step-1,Increment      1: Step Time =    1.000,"P-5-1",           860,   106.120E-03,   34.9326E-03,            0.,NA,NA,"",   1.00901E+06,   1.02409E+06,   1.02409E+06
C:/temp/Job-5.odb,Step-1,Increment      1: Step Time =    1.000,"P-5-1",           861,   86.1312E-03,   163.108E-03,            0.,NA,NA,"",   1.02509E+06,   1.03943E+06,   1.03943E+06
C:/temp/Job-5.odb,Step-1,Increment      1: Step Time =    1.000,"P-5-1",           862,   166.887E-03,   87.3541E-03,            0.,NA,NA,"",   963.961E+03,   971.678E+03,   971.678E+03
C:/temp/Job-5.odb,Step-1,Increment      1: Step Time =    1.000,"P-5-1",           863,   164.694E-03,   110.874E-03,            0.,NA,NA,"",   956.077E+03,   963.874E+03,   963.874E+03
C:/temp/Job-5.odb,Step-1,Increment      1: Step Time =    1.000,"P-5-1",           864,   38.9801E-03,   111.066E-03,            0.,NA,NA,"",   842.331E+03,   906.566E+03,   906.566E+03
C:/temp/Job-5.odb,Step-1,Increment      1: Step Time =    1.000,"P-5-1",           865,   166.520E-03,   116.549E-03,            0.,NA,NA,"",   973.695E+03,   978.877E+03,   978.877E+03
C:/temp/Job-5.odb,Step-1,Increment      1: Step Time =    1.000,"P-5-1",           866,   99.0545E-03,   36.2997E-03,            0.,NA,NA,"",   1.00967E+06,   1.02830E+06,   1.02830E+06
C:/temp/Job-5.odb,Step-1,Increment      1: Step Time =    1.000,"P-5-1",           867,   37.4280E-03,   98.7519E-03,            0.,NA,NA,"",   820.076E+03,   889.690E+03,   889.690E+03
C:/temp/Job-5.odb,Step-1,Increment      1: Step Time =    1.000,"P-5-1",           868,   97.2094E-03,   164.665E-03,            0.,NA,NA,"",   1.00838E+06,   1.02622E+06,   1.02622E+06
C:/temp/Job-5.odb,Step-1,Increment      1: Step Time =    1.000,"P-5-1",           869,   161.734E-03,   100.318E-03,            0.,NA,NA,"",   929.162E+03,   940.626E+03,   940.626E+03
C:/temp/Job-5.odb,Step-1,Increment      1: Step Time =    1.000,"P-5-1",           870,   165.255E-03,   104.095E-03,            0.,NA,NA,"",   942.581E+03,   954.115E+03,   954.115E+03
C:/temp/Job-5.odb,Step-1,Increment      1: Step Time =    1.000,"P-5-1",           871,   100.826E-03,   162.500E-03,            0.,NA,NA,"",   1.01140E+06,   1.03105E+06,   1.03105E+06
C:/temp/Job-5.odb,Step-1,Increment      1: Step Time =    1.000,"P-5-1",           872,   35.4649E-03,   106.635E-03,            0.,NA,NA,"",   827.612E+03,   898.348E+03,   898.348E+03
C:/temp/Job-5.odb,Step-1,Increment      1: Step Time =    1.000,"P-5-1",           873,   162.243E-03,   92.3738E-03,            0.,NA,NA,"",   942.802E+03,   951.643E+03,   951.643E+03
C:/temp/Job-5.odb,Step-1,Increment      1: Step Time =    1.000,"P-5-1",           874,   62.6805E-03,   36.2975E-03,            0.,NA,NA,"",   1.05241E+06,   1.05659E+06,   1.05659E+06
C:/temp/Job-5.odb,Step-1,Increment      1: Step Time =    1.000,"P-5-1",           875,   35.2302E-03,   144.354E-03,            0.,NA,NA,"",   968.677E+03,   1.01616E+06,   1.01616E+06
C:/temp/Job-5.odb,Step-1,Increment      1: Step Time =    1.000,"P-5-1",           876,   145.123E-03,   165.926E-03,            0.,NA,NA,"",   1.03709E+06,   1.02851E+06,   1.02851E+06
C:/temp/Job-5.odb,Step-1,Increment      1: Step Time =    1.000,"P-5-1",           877,   167.168E-03,   55.5435E-03,            0.,NA,NA,"",   1.02554E+06,   1.01949E+06,   1.01949E+06
C:/temp/Job-5.odb,Step-1,Increment      1: Step Time =    1.000,"P-5-1",           878,   35.3868E-03,   153.946E-03,            0.,NA,NA,"",   999.440E+03,   1.03929E+06,   1.03929E+06
C:/temp/Job-5.odb,Step-1,Increment      1: Step Time =    1.000,"P-5-1",           879,   46.2446E-03,   33.8717E-03,            0.,NA,NA,"",   1.04333E+06,   1.05779E+06,   1.05779E+06
C:/temp/Job-5.odb,Step-1,Increment      1: Step Time =    1.000,"P-5-1",           880,   35.1862E-03,   149.160E-03,            0.,NA,NA,"",   983.609E+03,   1.02766E+06,   1.02766E+06
C:/temp/Job-5.odb,Step-1,Increment      1: Step Time =    1.000,"P-5-1",           881,   51.4632E-03,   33.0372E-03,            0.,NA,NA,"",   1.04560E+06,   1.05497E+06,   1.05497E+06
C:/temp/Job-5.odb,Step-1,Increment      1: Step Time =    1.000,"P-5-1",           882,   35.9253E-03,   158.625E-03,            0.,NA,NA,"",   1.01358E+06,   1.04871E+06,   1.04871E+06
C:/temp/Job-5.odb,Step-1,Increment      1: Step Time =    1.000,"P-5-1",           883,   41.5535E-03,   33.9101E-03,            0.,NA,NA,"",   1.04011E+06,   1.05985E+06,   1.05985E+06
C:/temp/Job-5.odb,Step-1,Increment      1: Step Time =    1.000,"P-5-1",           884,   159.271E-03,   164.666E-03,            0.,NA,NA,"",   1.02839E+06,   1.02112E+06,   1.02112E+06
C:/temp/Job-5.odb,Step-1,Increment      1: Step Time =    1.000,"P-5-1",           885,   164.241E-03,   41.7142E-03,            0.,NA,NA,"",   1.02770E+06,   1.02087E+06,   1.02087E+06
C:/temp/Job-5.odb,Step-1,Increment      1: Step Time =    1.000,"P-5-1",           886,   29.9484E-03,   41.8376E-03,            0.,NA,NA,"",   994.652E+03,   1.04150E+06,   1.04150E+06
C:/temp/Job-5.odb,Step-1,Increment      1: Step Time =    1.000,"P-5-1",           887,   43.0788E-03,   168.089E-03,            0.,NA,NA,"",   1.04200E+06,   1.05852E+06,   1.05852E+06
C:/temp/Job-5.odb,Step-1,Increment      1: Step Time =    1.000,"P-5-1",           888,   149.859E-03,   165.414E-03,            0.,NA,NA,"",   1.03508E+06,   1.02643E+06,   1.02643E+06
C:/temp/Job-5.odb,Step-1,Increment      1: Step Time =    1.000,"P-5-1",           889,   154.678E-03,   165.035E-03,            0.,NA,NA,"",   1.03171E+06,   1.02369E+06,   1.02369E+06
C:/temp/Job-5.odb,Step-1,Increment      1: Step Time =    1.000,"P-5-1",           890,   165.923E-03,   51.2595E-03,            0.,NA,NA,"",   1.02833E+06,   1.02135E+06,   1.02135E+06
C:/temp/Job-5.odb,Step-1,Increment      1: Step Time =    1.000,"P-5-1",           891,   165.088E-03,   46.4399E-03,            0.,NA,NA,"",   1.02896E+06,   1.02183E+06,   1.02183E+06
C:/temp/Job-5.odb,Step-1,Increment      1: Step Time =    1.000,"P-5-1",           892,   162.716E-03,   163.352E-03,            0.,NA,NA,"",   1.02595E+06,   1.01936E+06,   1.01936E+06
C:/temp/Job-5.odb,Step-1,Increment      1: Step Time =    1.000,"P-5-1",           893,   162.959E-03,   37.3097E-03,            0.,NA,NA,"",   1.02606E+06,   1.01957E+06,   1.01957E+06
C:/temp/Job-5.odb,Step-1,Increment      1: Step Time =    1.000,"P-5-1",           894,   158.094E-03,   30.7031E-03,            0.,NA,NA,"",   1.02275E+06,   1.01690E+06,   1.01690E+06
C:/temp/Job-5.odb,Step-1,Increment      1: Step Time =    1.000,"P-5-1",           895,   168.251E-03,   157.458E-03,            0.,NA,NA,"",   1.02245E+06,   1.01727E+06,   1.01727E+06
C:/temp/Job-5.odb,Step-1,Increment      1: Step Time =    1.000,"P-5-1",           896,   37.3755E-03,   162.121E-03,            0.,NA,NA,"",   1.02468E+06,   1.05424E+06,   1.05424E+06
C:/temp/Job-5.odb,Step-1,Increment      1: Step Time =    1.000,"P-5-1",           897,   35.6698E-03,   35.5543E-03,            0.,NA,NA,"",   1.02613E+06,   1.05624E+06,   1.05624E+06
C:/temp/Job-5.odb,Step-1,Increment      1: Step Time =    1.000,"P-5-1",           898,   31.9599E-03,   49.0414E-03,            0.,NA,NA,"",   977.221E+03,   1.02621E+06,   1.02621E+06
C:/temp/Job-5.odb,Step-1,Increment      1: Step Time =    1.000,"P-5-1",           899,   47.1061E-03,   170.717E-03,            0.,NA,NA,"",   1.04497E+06,   1.05540E+06,   1.05540E+06
C:/temp/Job-5.odb,Step-1,Increment      1: Step Time =    1.000,"P-5-1",           900,   151.470E-03,   30.7079E-03,            0.,NA,NA,"",   1.02643E+06,   1.01980E+06,   1.01980E+06
C:/temp/Job-5.odb,Step-1,Increment      1: Step Time =    1.000,"P-5-1",           901,   170.705E-03,   153.299E-03,            0.,NA,NA,"",   1.01976E+06,   1.01571E+06,   1.01571E+06
C:/temp/Job-5.odb,Step-1,Increment      1: Step Time =    1.000,"P-5-1",           902,   29.8180E-03,   53.5415E-03,            0.,NA,NA,"",   954.319E+03,   1.01097E+06,   1.01097E+06
C:/temp/Job-5.odb,Step-1,Increment      1: Step Time =    1.000,"P-5-1",           903,   54.0639E-03,   168.680E-03,            0.,NA,NA,"",   1.04622E+06,   1.05280E+06,   1.05280E+06
C:/temp/Job-5.odb,Step-1,Increment      1: Step Time =    1.000,"P-5-1",           904,   146.770E-03,   32.3416E-03,            0.,NA,NA,"",    1.0321E+06,   1.02464E+06,   1.02464E+06
C:/temp/Job-5.odb,Step-1,Increment      1: Step Time =    1.000,"P-5-1",           905,   168.575E-03,   146.152E-03,            0.,NA,NA,"",   1.02290E+06,   1.01771E+06,   1.01771E+06
C:/temp/Job-5.odb,Step-1,Increment      1: Step Time =    1.000,"P-5-1",           906,   32.6639E-03,   38.1808E-03,            0.,NA,NA,"",   1.01242E+06,   1.05040E+06,   1.05040E+06
C:/temp/Job-5.odb,Step-1,Increment      1: Step Time =    1.000,"P-5-1",           907,   32.5058E-03,   31.5491E-03,            0.,NA,NA,"",   1.03225E+06,   1.06383E+06,   1.06383E+06
C:/temp/Job-5.odb,Step-1,Increment      1: Step Time =    1.000,"P-5-1",           908,   165.799E-03,   138.990E-03,            0.,NA,NA,"",   1.02335E+06,   1.01697E+06,   1.01697E+06
C:/temp/Job-5.odb,Step-1,Increment      1: Step Time =    1.000,"P-5-1",           909,   142.098E-03,   34.1082E-03,            0.,NA,NA,"",   1.03870E+06,   1.03058E+06,   1.03058E+06
C:/temp/Job-5.odb,Step-1,Increment      1: Step Time =    1.000,"P-5-1",           910,   60.0842E-03,   165.281E-03,            0.,NA,NA,"",   1.05074E+06,   1.05538E+06,   1.05538E+06
C:/temp/Job-5.odb,Step-1,Increment      1: Step Time =    1.000,"P-5-1",           911,   33.2021E-03,   62.2424E-03,            0.,NA,NA,"",   937.474E+03,   993.656E+03,   993.656E+03
C:/temp/Job-5.odb,Step-1,Increment      1: Step Time =    1.000,"P-5-1",           912,   169.557E-03,   164.677E-03,            0.,NA,NA,"",   1.01707E+06,   1.01318E+06,   1.01318E+06
C:/temp/Job-5.odb,Step-1,Increment      1: Step Time =    1.000,"P-5-1",           913,   35.6954E-03,   169.274E-03,            0.,NA,NA,"",   1.03760E+06,   1.06253E+06,   1.06253E+06
C:/temp/Job-5.odb,Step-1,Increment      1: Step Time =    1.000,"P-5-1",           914,   160.965E-03,   33.5334E-03,            0.,NA,NA,"",   1.02459E+06,   1.01839E+06,   1.01839E+06
C:/temp/Job-5.odb,Step-1,Increment      1: Step Time =    1.000,"P-5-1",           915,   161.325E-03,   72.6152E-03,            0.,NA,NA,"",   1.01031E+06,   1.00402E+06,   1.00402E+06
C:/temp/Job-5.odb,Step-1,Increment      1: Step Time =    1.000,"P-5-1",           916,   39.3355E-03,   130.178E-03,            0.,NA,NA,"",   930.470E+03,   980.127E+03,   980.127E+03
C:/temp/Job-5.odb,Step-1,Increment      1: Step Time =    1.000,"P-5-1",           917,   127.105E-03,   162.513E-03,            0.,NA,NA,"",   1.04420E+06,   1.04142E+06,   1.04142E+06
C:/temp/Job-5.odb,Step-1,Increment      1: Step Time =    1.000,"P-5-1",           918,   157.897E-03,   129.761E-03,            0.,NA,NA,"",   1.02289E+06,   1.01183E+06,   1.01183E+06
C:/temp/Job-5.odb,Step-1,Increment      1: Step Time =    1.000,"P-5-1",           919,   78.1105E-03,   39.0174E-03,            0.,NA,NA,"",   1.04350E+06,   1.05286E+06,   1.05286E+06
C:/temp/Job-5.odb,Step-1,Increment      1: Step Time =    1.000,"P-5-1",           920,   163.216E-03,   79.6254E-03,            0.,NA,NA,"",   986.466E+03,   986.442E+03,   986.442E+03
C:/temp/Job-5.odb,Step-1,Increment      1: Step Time =    1.000,"P-5-1",           921,   74.8132E-03,   160.807E-03,            0.,NA,NA,"",   1.04922E+06,   1.05637E+06,   1.05637E+06
C:/temp/Job-5.odb,Step-1,Increment      1: Step Time =    1.000,"P-5-1",           922,   122.180E-03,   160.117E-03,            0.,NA,NA,"",   1.04448E+06,   1.04637E+06,   1.04637E+06
C:/temp/Job-5.odb,Step-1,Increment      1: Step Time =    1.000,"P-5-1",           923,   40.9877E-03,   124.075E-03,            0.,NA,NA,"",   909.704E+03,   960.433E+03,   960.433E+03
C:/temp/Job-5.odb,Step-1,Increment      1: Step Time =    1.000,"P-5-1",           924,   81.9358E-03,   41.7584E-03,            0.,NA,NA,"",   1.04357E+06,   1.05692E+06,   1.05692E+06
C:/temp/Job-5.odb,Step-1,Increment      1: Step Time =    1.000,"P-5-1",           925,   36.9353E-03,   134.873E-03,            0.,NA,NA,"",   943.110E+03,   992.913E+03,   992.913E+03
C:/temp/Job-5.odb,Step-1,Increment      1: Step Time =    1.000,"P-5-1",           926,   39.0238E-03,   72.4577E-03,            0.,NA,NA,"",   919.695E+03,   971.131E+03,   971.131E+03
C:/temp/Job-5.odb,Step-1,Increment      1: Step Time =    1.000,"P-5-1",           927,   159.353E-03,   65.3398E-03,            0.,NA,NA,"",   1.03212E+06,   1.02071E+06,   1.02071E+06
C:/temp/Job-5.odb,Step-1,Increment      1: Step Time =    1.000,"P-5-1",           928,   133.728E-03,   160.356E-03,            0.,NA,NA,"",   1.05455E+06,   1.04604E+06,   1.04604E+06
C:/temp/Job-5.odb,Step-1,Increment      1: Step Time =    1.000,"P-5-1",           929,   70.9889E-03,   40.4085E-03,            0.,NA,NA,"",   1.05665E+06,   1.06170E+06,   1.06170E+06
C:/temp/Job-5.odb,Step-1,Increment      1: Step Time =    1.000,"P-5-1",           930,   64.2065E-03,   160.769E-03,            0.,NA,NA,"",   1.05735E+06,   1.06160E+06,   1.06160E+06
C:/temp/Job-5.odb,Step-1,Increment      1: Step Time =    1.000,"P-5-1",           931,   130.692E-03,   37.8650E-03,            0.,NA,NA,"",   1.04663E+06,   1.04179E+06,   1.04179E+06
C:/temp/Job-5.odb,Step-1,Increment      1: Step Time =    1.000,"P-5-1",           932,   114.430E-03,   40.7993E-03,            0.,NA,NA,"",   1.03150E+06,   1.04396E+06,   1.04396E+06
C:/temp/Job-5.odb,Step-1,Increment      1: Step Time =    1.000,"P-5-1",           933,   117.233E-03,   157.437E-03,            0.,NA,NA,"",   1.04278E+06,   1.05154E+06,   1.05154E+06
C:/temp/Job-5.odb,Step-1,Increment      1: Step Time =    1.000,"P-5-1",           934,   39.2957E-03,   79.7744E-03,            0.,NA,NA,"",   886.646E+03,   943.548E+03,   943.548E+03
C:/temp/Job-5.odb,Step-1,Increment      1: Step Time =    1.000,"P-5-1",           935,   159.338E-03,   124.606E-03,            0.,NA,NA,"",   1.00322E+06,   996.677E+03,   996.677E+03
C:/temp/Job-5.odb,Step-1,Increment      1: Step Time =    1.000,"P-5-1",           936,   79.2775E-03,   158.925E-03,            0.,NA,NA,"",   1.04718E+06,   1.05784E+06,   1.05784E+06
C:/temp/Job-5.odb,Step-1,Increment      1: Step Time =    1.000,"P-5-1",           937,   40.3707E-03,   91.2761E-03,            0.,NA,NA,"",   835.003E+03,   898.922E+03,   898.922E+03
C:/temp/Job-5.odb,Step-1,Increment      1: Step Time =    1.000,"P-5-1",           938,   160.955E-03,   84.4703E-03,            0.,NA,NA,"",   968.889E+03,   970.798E+03,   970.798E+03
C:/temp/Job-5.odb,Step-1,Increment      1: Step Time =    1.000,"P-5-1",           939,   85.4907E-03,   38.2675E-03,            0.,NA,NA,"",   1.03031E+06,   1.04448E+06,   1.04448E+06
C:/temp/Job-5.odb,Step-1,Increment      1: Step Time =    1.000,"P-5-1",           940,   121.470E-03,   41.8974E-03,            0.,NA,NA,"",   1.04848E+06,   1.05140E+06,   1.05140E+06
C:/temp/Job-5.odb,Step-1,Increment      1: Step Time =    1.000,"P-5-1",           941,   126.067E-03,   40.5153E-03,            0.,NA,NA,"",   1.04924E+06,   1.04750E+06,   1.04750E+06
C:/temp/Job-5.odb,Step-1,Increment      1: Step Time =    1.000,"P-5-1",           942,   109.803E-03,   157.899E-03,            0.,NA,NA,"",   1.02513E+06,   1.04413E+06,   1.04413E+06
C:/temp/Job-5.odb,Step-1,Increment      1: Step Time =    1.000,"P-5-1",           943,   107.065E-03,   41.9560E-03,            0.,NA,NA,"",   1.02024E+06,   1.04192E+06,   1.04192E+06
C:/temp/Job-5.odb,Step-1,Increment      1: Step Time =    1.000,"P-5-1",           944,   42.5938E-03,   115.310E-03,            0.,NA,NA,"",   866.951E+03,   922.630E+03,   922.630E+03
C:/temp/Job-5.odb,Step-1,Increment      1: Step Time =    1.000,"P-5-1",           945,   42.5455E-03,   95.9614E-03,            0.,NA,NA,"",   819.474E+03,   882.940E+03,   882.940E+03
C:/temp/Job-5.odb,Step-1,Increment      1: Step Time =    1.000,"P-5-1",           946,   90.1102E-03,   41.9078E-03,            0.,NA,NA,"",   1.02699E+06,   1.04726E+06,   1.04726E+06
C:/temp/Job-5.odb,Step-1,Increment      1: Step Time =    1.000,"P-5-1",           947,   83.6460E-03,   157.268E-03,            0.,NA,NA,"",   1.04309E+06,   1.05839E+06,   1.05839E+06
C:/temp/Job-5.odb,Step-1,Increment      1: Step Time =    1.000,"P-5-1",           948,   161.256E-03,   107.793E-03,            0.,NA,NA,"",   940.832E+03,   949.312E+03,   949.312E+03
C:/temp/Job-5.odb,Step-1,Increment      1: Step Time =    1.000,"P-5-1",           949,   160.656E-03,   119.534E-03,            0.,NA,NA,"",   982.646E+03,   981.420E+03,   981.420E+03
C:/temp/Job-5.odb,Step-1,Increment      1: Step Time =    1.000,"P-5-1",           950,   105.714E-03,   160.627E-03,            0.,NA,NA,"",   1.01549E+06,   1.03512E+06,   1.03512E+06
C:/temp/Job-5.odb,Step-1,Increment      1: Step Time =    1.000,"P-5-1",           951,   90.3934E-03,   159.028E-03,            0.,NA,NA,"",   1.02367E+06,   1.04482E+06,   1.04482E+06
C:/temp/Job-5.odb,Step-1,Increment      1: Step Time =    1.000,"P-5-1",           952,   95.4898E-03,   39.9429E-03,            0.,NA,NA,"",   1.01680E+06,   1.03826E+06,   1.03826E+06
C:/temp/Job-5.odb,Step-1,Increment      1: Step Time =    1.000,"P-5-1",           953,   162.174E-03,   114.824E-03,            0.,NA,NA,"",   965.922E+03,   969.608E+03,   969.608E+03
C:/temp/Job-5.odb,Step-1,Increment      1: Step Time =    1.000,"P-5-1",           954,   157.712E-03,   104.208E-03,            0.,NA,NA,"",   919.445E+03,   929.457E+03,   929.457E+03
C:/temp/Job-5.odb,Step-1,Increment      1: Step Time =    1.000,"P-5-1",           955,   102.816E-03,   39.2360E-03,            0.,NA,NA,"",   1.01342E+06,   1.03406E+06,   1.03406E+06
C:/temp/Job-5.odb,Step-1,Increment      1: Step Time =    1.000,"P-5-1",           956,   157.583E-03,   88.9887E-03,            0.,NA,NA,"",   945.803E+03,   950.036E+03,   950.036E+03
C:/temp/Job-5.odb,Step-1,Increment      1: Step Time =    1.000,"P-5-1",           957,   43.8141E-03,   107.632E-03,            0.,NA,NA,"",   829.654E+03,   889.989E+03,   889.989E+03
C:/temp/Job-5.odb,Step-1,Increment      1: Step Time =    1.000,"P-5-1",           958,   99.8169E-03,   157.715E-03,            0.,NA,NA,"",   1.01679E+06,   1.04201E+06,   1.04201E+06
C:/temp/Job-5.odb,Step-1,Increment      1: Step Time =    1.000,"P-5-1",           959,   40.4207E-03,   103.305E-03,            0.,NA,NA,"",   820.170E+03,   886.395E+03,   886.395E+03
C:/temp/Job-5.odb,Step-1,Increment      1: Step Time =    1.000,"P-5-1",           960,   64.5888E-03,   42.1373E-03,            0.,NA,NA,"",   1.06150E+06,   1.06582E+06,   1.06582E+06
C:/temp/Job-5.odb,Step-1,Increment      1: Step Time =    1.000,"P-5-1",           961,   157.802E-03,   96.6632E-03,            0.,NA,NA,"",   918.808E+03,   929.127E+03,   929.127E+03
C:/temp/Job-5.odb,Step-1,Increment      1: Step Time =    1.000,"P-5-1",           962,   40.0032E-03,   139.582E-03,            0.,NA,NA,"",   974.180E+03,   1.01529E+06,   1.01529E+06
C:/temp/Job-5.odb,Step-1,Increment      1: Step Time =    1.000,"P-5-1",           963,   138.839E-03,   162.519E-03,            0.,NA,NA,"",   1.04862E+06,   1.03901E+06,   1.03901E+06
C:/temp/Job-5.odb,Step-1,Increment      1: Step Time =    1.000,"P-5-1",           964,   162.032E-03,   59.1313E-03,            0.,NA,NA,"",   1.03361E+06,   1.02382E+06,   1.02382E+06
C:/temp/Job-5.odb,Step-1,Increment      1: Step Time =    1.000,"P-5-1",           965,   61.9818E-03,   40.0782E-03,            0.,NA,NA,"",   1.05834E+06,   1.06313E+06,   1.06313E+06
C:/temp/Job-5.odb,Step-1,Increment      1: Step Time =    1.000,"P-5-1",           966,   40.0235E-03,   143.832E-03,            0.,NA,NA,"",   985.611E+03,   1.02401E+06,   1.02401E+06
C:/temp/Job-5.odb,Step-1,Increment      1: Step Time =    1.000,"P-5-1",           967,   144.052E-03,   161.380E-03,            0.,NA,NA,"",   1.04797E+06,   1.03705E+06,   1.03705E+06
C:/temp/Job-5.odb,Step-1,Increment      1: Step Time =    1.000,"P-5-1",           968,   160.869E-03,   53.0885E-03,            0.,NA,NA,"",   1.03830E+06,   1.02786E+06,   1.02786E+06
C:/temp/Job-5.odb,Step-1,Increment      1: Step Time =    1.000,"P-5-1",           969,   52.1529E-03,   38.3699E-03,            0.,NA,NA,"",   1.04739E+06,   1.05822E+06,   1.05822E+06
C:/temp/Job-5.odb,Step-1,Increment      1: Step Time =    1.000,"P-5-1",           970,   40.0616E-03,   148.346E-03,            0.,NA,NA,"",   999.296E+03,   1.03461E+06,   1.03461E+06
C:/temp/Job-5.odb,Step-1,Increment      1: Step Time =    1.000,"P-5-1",           971,   40.0132E-03,   152.985E-03,            0.,NA,NA,"",   1.01225E+06,   1.04367E+06,   1.04367E+06
C:/temp/Job-5.odb,Step-1,Increment      1: Step Time =    1.000,"P-5-1",           972,   46.4546E-03,   39.4220E-03,            0.,NA,NA,"",   1.03909E+06,   1.05676E+06,   1.05676E+06
C:/temp/Job-5.odb,Step-1,Increment      1: Step Time =    1.000,"P-5-1",           973,   154.044E-03,   160.272E-03,            0.,NA,NA,"",   1.03976E+06,   1.02961E+06,   1.02961E+06
C:/temp/Job-5.odb,Step-1,Increment      1: Step Time =    1.000,"P-5-1",           974,   148.908E-03,   160.395E-03,            0.,NA,NA,"",   1.04498E+06,   1.03402E+06,   1.03402E+06
C:/temp/Job-5.odb,Step-1,Increment      1: Step Time =    1.000,"P-5-1",           975,   159.965E-03,   48.0536E-03,            0.,NA,NA,"",   1.03843E+06,   1.02832E+06,   1.02832E+06
C:/temp/Job-5.odb,Step-1,Increment      1: Step Time =    1.000,"P-5-1",           976,   43.2706E-03,   161.609E-03,            0.,NA,NA,"",   1.03506E+06,   1.05587E+06,   1.05587E+06
C:/temp/Job-5.odb,Step-1,Increment      1: Step Time =    1.000,"P-5-1",           977,   40.3305E-03,   39.5641E-03,            0.,NA,NA,"",   1.02685E+06,   1.05362E+06,   1.05362E+06
C:/temp/Job-5.odb,Step-1,Increment      1: Step Time =    1.000,"P-5-1",           978,   162.191E-03,   157.950E-03,            0.,NA,NA,"",   1.03082E+06,   1.02302E+06,   1.02302E+06
C:/temp/Job-5.odb,Step-1,Increment      1: Step Time =    1.000,"P-5-1",           979,   34.6146E-03,   44.8261E-03,            0.,NA,NA,"",   999.982E+03,   1.04064E+06,   1.04064E+06
C:/temp/Job-5.odb,Step-1,Increment      1: Step Time =    1.000,"P-5-1",           980,   158.264E-03,   39.3797E-03,            0.,NA,NA,"",   1.03390E+06,   1.02529E+06,   1.02529E+06
C:/temp/Job-5.odb,Step-1,Increment      1: Step Time =    1.000,"P-5-1",           981,   46.2687E-03,   164.318E-03,            0.,NA,NA,"",   1.04238E+06,   1.05759E+06,   1.05759E+06
C:/temp/Job-5.odb,Step-1,Increment      1: Step Time =    1.000,"P-5-1",           982,   153.675E-03,   34.7772E-03,            0.,NA,NA,"",   1.03270E+06,   1.02456E+06,   1.02456E+06
C:/temp/Job-5.odb,Step-1,Increment      1: Step Time =    1.000,"P-5-1",           983,   164.235E-03,   154.625E-03,            0.,NA,NA,"",   1.02966E+06,   1.02217E+06,   1.02217E+06
C:/temp/Job-5.odb,Step-1,Increment      1: Step Time =    1.000,"P-5-1",           984,   36.6487E-03,   52.0290E-03,            0.,NA,NA,"",   983.559E+03,   1.02603E+06,   1.02603E+06
C:/temp/Job-5.odb,Step-1,Increment      1: Step Time =    1.000,"P-5-1",           985,   49.9541E-03,   166.634E-03,            0.,NA,NA,"",   1.04600E+06,   1.05636E+06,   1.05636E+06
C:/temp/Job-5.odb,Step-1,Increment      1: Step Time =    1.000,"P-5-1",           986,   148.128E-03,   36.2111E-03,            0.,NA,NA,"",   1.03999E+06,   1.03070E+06,   1.03070E+06
C:/temp/Job-5.odb,Step-1,Increment      1: Step Time =    1.000,"P-5-1",           987,   166.397E-03,   150.615E-03,            0.,NA,NA,"",   1.02715E+06,   1.02052E+06,   1.02052E+06
C:/temp/Job-5.odb,Step-1,Increment      1: Step Time =    1.000,"P-5-1",           988,   163.747E-03,   143.852E-03,            0.,NA,NA,"",   1.03149E+06,   1.02280E+06,   1.02280E+06
C:/temp/Job-5.odb,Step-1,Increment      1: Step Time =    1.000,"P-5-1",           989,   33.8194E-03,   55.9079E-03,            0.,NA,NA,"",   960.196E+03,   1.01120E+06,   1.01120E+06
C:/temp/Job-5.odb,Step-1,Increment      1: Step Time =    1.000,"P-5-1",           990,   56.0821E-03,   163.959E-03,            0.,NA,NA,"",   1.05077E+06,   1.05758E+06,   1.05758E+06
C:/temp/Job-5.odb,Step-1,Increment      1: Step Time =    1.000,"P-5-1",           991,   144.187E-03,   36.8100E-03,            0.,NA,NA,"",   1.04384E+06,   1.03424E+06,   1.03424E+06
C:/temp/Job-5.odb,Step-1,Increment      1: Step Time =    1.000,"P-5-1",           992,   161.123E-03,   136.789E-03,            0.,NA,NA,"",   1.03044E+06,   1.02039E+06,   1.02039E+06
C:/temp/Job-5.odb,Step-1,Increment      1: Step Time =    1.000,"P-5-1",           993,   138.271E-03,   37.6675E-03,            0.,NA,NA,"",   1.04838E+06,   1.03932E+06,   1.03932E+06
C:/temp/Job-5.odb,Step-1,Increment      1: Step Time =    1.000,"P-5-1",           994,   60.8500E-03,   161.904E-03,            0.,NA,NA,"",   1.05553E+06,   1.06020E+06,   1.06020E+06
C:/temp/Job-5.odb,Step-1,Increment      1: Step Time =    1.000,"P-5-1",           995,   40.0595E-03,   64.5299E-03,            0.,NA,NA,"",   957.822E+03,   1.00162E+06,   1.00162E+06
C:/temp/Job-5.odb,Step-1,Increment      1: Step Time =    1.000,"P-5-1",           996,   158.720E-03,   77.2958E-03,            0.,NA,NA,"",   998.194E+03,   992.427E+03,   992.427E+03
C:/temp/Job-5.odb,Step-1,Increment      1: Step Time =    1.000,"P-5-1",           997,   39.9049E-03,   165.220E-03,            0.,NA,NA,"",   1.03480E+06,   1.05784E+06,   1.05784E+06
C:/temp/Job-5.odb,Step-1,Increment      1: Step Time =    1.000,"P-5-1",           998,   46.4138E-03,   126.866E-03,            0.,NA,NA,"",   946.383E+03,   983.635E+03,   983.635E+03
C:/temp/Job-5.odb,Step-1,Increment      1: Step Time =    1.000,"P-5-1",           999,   43.5158E-03,   131.545E-03,            0.,NA,NA,"",   954.828E+03,   995.087E+03,   995.087E+03
C:/temp/Job-5.odb,Step-1,Increment      1: Step Time =    1.000,"P-5-1",          1000,   124.411E-03,   155.477E-03,            0.,NA,NA,"",   1.06319E+06,   1.06088E+06,   1.06088E+06
C:/temp/Job-5.odb,Step-1,Increment      1: Step Time =    1.000,"P-5-1",          1001,   78.4625E-03,   46.1668E-03,            0.,NA,NA,"",   1.06094E+06,   1.07184E+06,   1.07184E+06
C:/temp/Job-5.odb,Step-1,Increment      1: Step Time =    1.000,"P-5-1",          1002,   156.670E-03,   70.3748E-03,            0.,NA,NA,"",   1.02588E+06,   1.01364E+06,   1.01364E+06
C:/temp/Job-5.odb,Step-1,Increment      1: Step Time =    1.000,"P-5-1",          1003,   74.7653E-03,   43.3588E-03,            0.,NA,NA,"",   1.05987E+06,   1.06709E+06,   1.06709E+06
C:/temp/Job-5.odb,Step-1,Increment      1: Step Time =    1.000,"P-5-1",          1004,   152.791E-03,   127.927E-03,            0.,NA,NA,"",   1.03025E+06,   1.01393E+06,   1.01393E+06
C:/temp/Job-5.odb,Step-1,Increment      1: Step Time =    1.000,"P-5-1",          1005,   68.5550E-03,   159.182E-03,            0.,NA,NA,"",   1.06000E+06,   1.06441E+06,   1.06441E+06
C:/temp/Job-5.odb,Step-1,Increment      1: Step Time =    1.000,"P-5-1",          1006,   77.3903E-03,   154.665E-03,            0.,NA,NA,"",   1.06128E+06,   1.07107E+06,   1.07107E+06
C:/temp/Job-5.odb,Step-1,Increment      1: Step Time =    1.000,"P-5-1",          1007,   42.4265E-03,   69.2709E-03,            0.,NA,NA,"",   948.427E+03,   991.173E+03,   991.173E+03
C:/temp/Job-5.odb,Step-1,Increment      1: Step Time =    1.000,"P-5-1",          1008,   119.924E-03,   152.662E-03,            0.,NA,NA,"",   1.06469E+06,   1.06858E+06,   1.06858E+06
C:/temp/Job-5.odb,Step-1,Increment      1: Step Time =    1.000,"P-5-1",          1009,   42.6952E-03,   76.4218E-03,            0.,NA,NA,"",   912.388E+03,   960.535E+03,   960.535E+03
C:/temp/Job-5.odb,Step-1,Increment      1: Step Time =    1.000,"P-5-1",          1010,   156.164E-03,   81.7292E-03,            0.,NA,NA,"",   980.948E+03,    976.59E+03,    976.59E+03
C:/temp/Job-5.odb,Step-1,Increment      1: Step Time =    1.000,"P-5-1",          1011,   127.939E-03,   44.9061E-03,            0.,NA,NA,"",   1.06650E+06,   1.06101E+06,   1.06101E+06
C:/temp/Job-5.odb,Step-1,Increment      1: Step Time =    1.000,"P-5-1",          1012,   85.2494E-03,   44.3670E-03,            0.,NA,NA,"",   1.04171E+06,   1.05930E+06,   1.05930E+06
C:/temp/Job-5.odb,Step-1,Increment      1: Step Time =    1.000,"P-5-1",          1013,   117.481E-03,   44.4619E-03,            0.,NA,NA,"",   1.04862E+06,   1.05695E+06,   1.05695E+06
C:/temp/Job-5.odb,Step-1,Increment      1: Step Time =    1.000,"P-5-1",          1014,   111.002E-03,   45.1229E-03,            0.,NA,NA,"",   1.03270E+06,   1.05293E+06,   1.05293E+06
C:/temp/Job-5.odb,Step-1,Increment      1: Step Time =    1.000,"P-5-1",          1015,   46.3290E-03,   119.275E-03,            0.,NA,NA,"",   899.650E+03,   944.629E+03,   944.629E+03
C:/temp/Job-5.odb,Step-1,Increment      1: Step Time =    1.000,"P-5-1",          1016,   47.2414E-03,   93.5997E-03,            0.,NA,NA,"",   820.623E+03,   877.829E+03,   877.829E+03
C:/temp/Job-5.odb,Step-1,Increment      1: Step Time =    1.000,"P-5-1",          1017,   45.9065E-03,   88.6294E-03,            0.,NA,NA,"",   849.261E+03,   903.281E+03,   903.281E+03
C:/temp/Job-5.odb,Step-1,Increment      1: Step Time =    1.000,"P-5-1",          1018,   112.982E-03,   153.972E-03,            0.,NA,NA,"",   1.04079E+06,   1.05779E+06,   1.05779E+06
C:/temp/Job-5.odb,Step-1,Increment      1: Step Time =    1.000,"P-5-1",          1019,   45.9145E-03,   80.4979E-03,            0.,NA,NA,"",   900.915E+03,   946.210E+03,   946.210E+03
C:/temp/Job-5.odb,Step-1,Increment      1: Step Time =    1.000,"P-5-1",          1020,   123.153E-03,   46.2421E-03,            0.,NA,NA,"",   1.06450E+06,   1.06498E+06,   1.06498E+06
C:/temp/Job-5.odb,Step-1,Increment      1: Step Time =    1.000,"P-5-1",          1021,   81.4451E-03,   152.703E-03,            0.,NA,NA,"",   1.05877E+06,   1.07330E+06,   1.07330E+06
C:/temp/Job-5.odb,Step-1,Increment      1: Step Time =    1.000,"P-5-1",          1022,   41.0132E-03,   135.936E-03,            0.,NA,NA,"",   964.569E+03,   1.00643E+06,   1.00643E+06
C:/temp/Job-5.odb,Step-1,Increment      1: Step Time =    1.000,"P-5-1",          1023,   88.0004E-03,   46.3710E-03,            0.,NA,NA,"",   1.03911E+06,   1.06108E+06,   1.06108E+06
C:/temp/Job-5.odb,Step-1,Increment      1: Step Time =    1.000,"P-5-1",          1024,   67.8647E-03,   44.8318E-03,            0.,NA,NA,"",   1.06753E+06,   1.07154E+06,   1.07154E+06
C:/temp/Job-5.odb,Step-1,Increment      1: Step Time =    1.000,"P-5-1",          1025,   154.208E-03,   122.831E-03,            0.,NA,NA,"",   1.00394E+06,   993.337E+03,   993.337E+03
C:/temp/Job-5.odb,Step-1,Increment      1: Step Time =    1.000,"P-5-1",          1026,   154.311E-03,   63.6991E-03,            0.,NA,NA,"",   1.04821E+06,   1.03162E+06,   1.03162E+06
C:/temp/Job-5.odb,Step-1,Increment      1: Step Time =    1.000,"P-5-1",          1027,   135.757E-03,   156.188E-03,            0.,NA,NA,"",   1.06568E+06,   1.05371E+06,   1.05371E+06
C:/temp/Job-5.odb,Step-1,Increment      1: Step Time =    1.000,"P-5-1",          1028,   106.582E-03,   153.984E-03,            0.,NA,NA,"",   1.02544E+06,   1.05224E+06,   1.05224E+06
C:/temp/Job-5.odb,Step-1,Increment      1: Step Time =    1.000,"P-5-1",          1029,   104.398E-03,   45.8949E-03,            0.,NA,NA,"",   1.02237E+06,   1.05057E+06,   1.05057E+06
C:/temp/Job-5.odb,Step-1,Increment      1: Step Time =    1.000,"P-5-1",          1030,   154.196E-03,   107.814E-03,            0.,NA,NA,"",   920.265E+03,   926.913E+03,   926.913E+03
C:/temp/Job-5.odb,Step-1,Increment      1: Step Time =    1.000,"P-5-1",          1031,   153.114E-03,   85.9338E-03,            0.,NA,NA,"",   957.556E+03,   955.232E+03,   955.232E+03
C:/temp/Job-5.odb,Step-1,Increment      1: Step Time =    1.000,"P-5-1",          1032,   87.6656E-03,   154.586E-03,            0.,NA,NA,"",   1.03850E+06,   1.06038E+06,   1.06038E+06
C:/temp/Job-5.odb,Step-1,Increment      1: Step Time =    1.000,"P-5-1",          1033,   94.0799E-03,   46.3233E-03,            0.,NA,NA,"",   1.02805E+06,   1.05586E+06,   1.05586E+06
C:/temp/Job-5.odb,Step-1,Increment      1: Step Time =    1.000,"P-5-1",          1034,   47.4601E-03,   111.706E-03,            0.,NA,NA,"",   850.427E+03,   902.118E+03,   902.118E+03
C:/temp/Job-5.odb,Step-1,Increment      1: Step Time =    1.000,"P-5-1",          1035,   45.3018E-03,   100.312E-03,            0.,NA,NA,"",   809.474E+03,   871.228E+03,   871.228E+03
C:/temp/Job-5.odb,Step-1,Increment      1: Step Time =    1.000,"P-5-1",          1036,   157.280E-03,   112.061E-03,            0.,NA,NA,"",   949.099E+03,   952.259E+03,   952.259E+03
C:/temp/Job-5.odb,Step-1,Increment      1: Step Time =    1.000,"P-5-1",          1037,   155.642E-03,   117.660E-03,            0.,NA,NA,"",   975.401E+03,   971.577E+03,   971.577E+03
C:/temp/Job-5.odb,Step-1,Increment      1: Step Time =    1.000,"P-5-1",          1038,   153.628E-03,   100.675E-03,            0.,NA,NA,"",   895.664E+03,   906.977E+03,   906.977E+03
C:/temp/Job-5.odb,Step-1,Increment      1: Step Time =    1.000,"P-5-1",          1039,   99.1438E-03,   44.0337E-03,            0.,NA,NA,"",   1.01943E+06,   1.04635E+06,   1.04635E+06
C:/temp/Job-5.odb,Step-1,Increment      1: Step Time =    1.000,"P-5-1",          1040,   97.6188E-03,   153.293E-03,            0.,NA,NA,"",   1.02125E+06,   1.05282E+06,   1.05282E+06
C:/temp/Job-5.odb,Step-1,Increment      1: Step Time =    1.000,"P-5-1",          1041,   103.318E-03,   156.162E-03,            0.,NA,NA,"",   1.01906E+06,   1.04521E+06,   1.04521E+06
C:/temp/Job-5.odb,Step-1,Increment      1: Step Time =    1.000,"P-5-1",          1042,   153.566E-03,   93.1946E-03,            0.,NA,NA,"",   915.168E+03,   922.303E+03,   922.303E+03
C:/temp/Job-5.odb,Step-1,Increment      1: Step Time =    1.000,"P-5-1",          1043,   48.5541E-03,   104.440E-03,            0.,NA,NA,"",   809.056E+03,   866.365E+03,   866.365E+03
C:/temp/Job-5.odb,Step-1,Increment      1: Step Time =    1.000,"P-5-1",          1044,   61.2692E-03,   45.4169E-03,            0.,NA,NA,"",   1.06318E+06,   1.06878E+06,   1.06878E+06
C:/temp/Job-5.odb,Step-1,Increment      1: Step Time =    1.000,"P-5-1",          1045,   44.5123E-03,   142.924E-03,            0.,NA,NA,"",   1.00070E+06,   1.03104E+06,   1.03104E+06
C:/temp/Job-5.odb,Step-1,Increment      1: Step Time =    1.000,"P-5-1",          1046,   142.585E-03,   156.726E-03,            0.,NA,NA,"",   1.06020E+06,   1.04649E+06,   1.04649E+06
C:/temp/Job-5.odb,Step-1,Increment      1: Step Time =    1.000,"P-5-1",          1047,   156.061E-03,   58.9031E-03,            0.,NA,NA,"",   1.04862E+06,   1.03370E+06,   1.03370E+06
C:/temp/Job-5.odb,Step-1,Increment      1: Step Time =    1.000,"P-5-1",          1048,   53.4668E-03,   44.8341E-03,            0.,NA,NA,"",   1.04961E+06,   1.06114E+06,   1.06114E+06
C:/temp/Job-5.odb,Step-1,Increment      1: Step Time =    1.000,"P-5-1",          1049,   45.3221E-03,   147.619E-03,            0.,NA,NA,"",   1.01728E+06,   1.04304E+06,   1.04304E+06
C:/temp/Job-5.odb,Step-1,Increment      1: Step Time =    1.000,"P-5-1",          1050,   147.816E-03,   154.480E-03,            0.,NA,NA,"",   1.05727E+06,   1.04293E+06,   1.04293E+06
C:/temp/Job-5.odb,Step-1,Increment      1: Step Time =    1.000,"P-5-1",          1051,   155.677E-03,   54.1142E-03,            0.,NA,NA,"",   1.04914E+06,   1.03516E+06,   1.03516E+06
C:/temp/Job-5.odb,Step-1,Increment      1: Step Time =    1.000,"P-5-1",          1052,   153.962E-03,   155.551E-03,            0.,NA,NA,"",   1.04595E+06,   1.03390E+06,   1.03390E+06
C:/temp/Job-5.odb,Step-1,Increment      1: Step Time =    1.000,"P-5-1",          1053,   154.613E-03,   49.4555E-03,            0.,NA,NA,"",   1.04935E+06,   1.03603E+06,   1.03603E+06
C:/temp/Job-5.odb,Step-1,Increment      1: Step Time =    1.000,"P-5-1",          1054,   158.773E-03,   156.357E-03,            0.,NA,NA,"",   1.03734E+06,   1.02766E+06,   1.02766E+06
C:/temp/Job-5.odb,Step-1,Increment      1: Step Time =    1.000,"P-5-1",          1055,   153.618E-03,   44.8683E-03,            0.,NA,NA,"",   1.04731E+06,   1.03507E+06,   1.03507E+06
C:/temp/Job-5.odb,Step-1,Increment      1: Step Time =    1.000,"P-5-1",          1056,   45.2196E-03,   155.682E-03,            0.,NA,NA,"",   1.03027E+06,   1.05243E+06,   1.05243E+06
C:/temp/Job-5.odb,Step-1,Increment      1: Step Time =    1.000,"P-5-1",          1057,   44.4260E-03,   152.036E-03,            0.,NA,NA,"",   1.02232E+06,   1.04724E+06,   1.04724E+06
C:/temp/Job-5.odb,Step-1,Increment      1: Step Time =    1.000,"P-5-1",          1058,   47.1631E-03,   45.5944E-03,            0.,NA,NA,"",   1.03408E+06,   1.05390E+06,   1.05390E+06
C:/temp/Job-5.odb,Step-1,Increment      1: Step Time =    1.000,"P-5-1",          1059,   159.071E-03,   141.696E-03,            0.,NA,NA,"",   1.04061E+06,   1.02822E+06,   1.02822E+06
C:/temp/Job-5.odb,Step-1,Increment      1: Step Time =    1.000,"P-5-1",          1060,   40.0527E-03,   56.2071E-03,            0.,NA,NA,"",   984.737E+03,   1.02311E+06,   1.02311E+06
C:/temp/Job-5.odb,Step-1,Increment      1: Step Time =    1.000,"P-5-1",          1061,   147.935E-03,   40.7262E-03,            0.,NA,NA,"",   1.04920E+06,   1.03751E+06,   1.03751E+06
C:/temp/Job-5.odb,Step-1,Increment      1: Step Time =    1.000,"P-5-1",          1062,   49.0092E-03,   160.720E-03,            0.,NA,NA,"",   1.04348E+06,   1.05794E+06,   1.05794E+06
C:/temp/Job-5.odb,Step-1,Increment      1: Step Time =    1.000,"P-5-1",          1063,   161.783E-03,   148.346E-03,            0.,NA,NA,"",   1.03624E+06,   1.02642E+06,   1.02642E+06
C:/temp/Job-5.odb,Step-1,Increment      1: Step Time =    1.000,"P-5-1",          1064,   142.742E-03,   40.0574E-03,            0.,NA,NA,"",   1.05200E+06,   1.04081E+06,   1.04081E+06
C:/temp/Job-5.odb,Step-1,Increment      1: Step Time =    1.000,"P-5-1",          1065,   36.8007E-03,   59.8088E-03,            0.,NA,NA,"",   959.359E+03,   1.00705E+06,   1.00705E+06
C:/temp/Job-5.odb,Step-1,Increment      1: Step Time =    1.000,"P-5-1",          1066,   58.4897E-03,   159.782E-03,            0.,NA,NA,"",   1.05591E+06,   1.06214E+06,   1.06214E+06
C:/temp/Job-5.odb,Step-1,Increment      1: Step Time =    1.000,"P-5-1",          1067,   156.196E-03,   134.783E-03,            0.,NA,NA,"",   1.03934E+06,   1.02477E+06,   1.02477E+06
C:/temp/Job-5.odb,Step-1,Increment      1: Step Time =    1.000,"P-5-1",          1068,   62.4106E-03,   156.921E-03,            0.,NA,NA,"",   1.06238E+06,   1.06715E+06,   1.06715E+06
C:/temp/Job-5.odb,Step-1,Increment      1: Step Time =    1.000,"P-5-1",          1069,   134.303E-03,   42.7658E-03,            0.,NA,NA,"",   1.06256E+06,   1.05256E+06,   1.05256E+06
C:/temp/Job-5.odb,Step-1,Increment      1: Step Time =    1.000,"P-5-1",          1070,   44.5636E-03,   65.9523E-03,            0.,NA,NA,"",   972.349E+03,   1.00803E+06,   1.00803E+06
C:/temp/Job-5.odb,Step-1,Increment      1: Step Time =    1.000,"P-5-1",          1071,   50.4787E-03,   129.627E-03,            0.,NA,NA,"",   980.982E+03,   1.00694E+06,   1.00694E+06
C:/temp/Job-5.odb,Step-1,Increment      1: Step Time =    1.000,"P-5-1",          1072,   154.132E-03,   74.9627E-03,            0.,NA,NA,"",   1.01473E+06,   1.00253E+06,   1.00253E+06
C:/temp/Job-5.odb,Step-1,Increment      1: Step Time =    1.000,"P-5-1",          1073,   75.2978E-03,   50.9437E-03,            0.,NA,NA,"",   1.08120E+06,   1.08772E+06,   1.08772E+06
C:/temp/Job-5.odb,Step-1,Increment      1: Step Time =    1.000,"P-5-1",          1074,   126.852E-03,   150.964E-03,            0.,NA,NA,"",   1.08282E+06,   1.07419E+06,   1.07419E+06
C:/temp/Job-5.odb,Step-1,Increment      1: Step Time =    1.000,"P-5-1",          1075,   165.666E-03,   160.819E-03,            0.,NA,NA,"",   1.02413E+06,   1.01825E+06,   1.01825E+06
C:/temp/Job-5.odb,Step-1,Increment      1: Step Time =    1.000,"P-5-1",          1076,   122.551E-03,   148.093E-03,            0.,NA,NA,"",   1.08901E+06,   1.08530E+06,   1.08530E+06
C:/temp/Job-5.odb,Step-1,Increment      1: Step Time =    1.000,"P-5-1",          1077,   151.738E-03,   79.2074E-03,            0.,NA,NA,"",   999.178E+03,   987.636E+03,   987.636E+03
C:/temp/Job-5.odb,Step-1,Increment      1: Step Time =    1.000,"P-5-1",          1078,   157.557E-03,   36.0548E-03,            0.,NA,NA,"",   1.03076E+06,   1.02296E+06,   1.02296E+06
C:/temp/Job-5.odb,Step-1,Increment      1: Step Time =    1.000,"P-5-1",          1079,   82.2026E-03,   48.5637E-03,            0.,NA,NA,"",   1.05958E+06,   1.07532E+06,   1.07532E+06
C:/temp/Job-5.odb,Step-1,Increment      1: Step Time =    1.000,"P-5-1",          1080,   50.4551E-03,   122.701E-03,            0.,NA,NA,"",   939.161E+03,   971.608E+03,   971.608E+03
C:/temp/Job-5.odb,Step-1,Increment      1: Step Time =    1.000,"P-5-1",          1081,   71.2014E-03,   152.440E-03,            0.,NA,NA,"",   1.07510E+06,   1.07922E+06,   1.07922E+06
C:/temp/Job-5.odb,Step-1,Increment      1: Step Time =    1.000,"P-5-1",          1082,   35.9159E-03,   41.0267E-03,            0.,NA,NA,"",   1.01331E+06,   1.04840E+06,   1.04840E+06
C:/temp/Job-5.odb,Step-1,Increment      1: Step Time =    1.000,"P-5-1",          1083,   46.6953E-03,   72.9376E-03,            0.,NA,NA,"",   949.537E+03,   985.906E+03,   985.906E+03
C:/temp/Job-5.odb,Step-1,Increment      1: Step Time =    1.000,"P-5-1",          1084,   47.1273E-03,   133.560E-03,            0.,NA,NA,"",   981.587E+03,   1.01205E+06,   1.01205E+06
C:/temp/Job-5.odb,Step-1,Increment      1: Step Time =    1.000,"P-5-1",          1085,   114.634E-03,   48.3869E-03,            0.,NA,NA,"",   1.05177E+06,   1.06669E+06,   1.06669E+06
C:/temp/Job-5.odb,Step-1,Increment      1: Step Time =    1.000,"P-5-1",          1086,   151.738E-03,   68.3472E-03,            0.,NA,NA,"",   1.04580E+06,   1.02717E+06,   1.02717E+06
C:/temp/Job-5.odb,Step-1,Increment      1: Step Time =    1.000,"P-5-1",          1087,   49.1767E-03,   77.3196E-03,            0.,NA,NA,"",   933.733E+03,   969.051E+03,   969.051E+03
C:/temp/Job-5.odb,Step-1,Increment      1: Step Time =    1.000,"P-5-1",          1088,   71.4966E-03,   47.8390E-03,            0.,NA,NA,"",   1.07445E+06,   1.07881E+06,   1.07881E+06
C:/temp/Job-5.odb,Step-1,Increment      1: Step Time =    1.000,"P-5-1",          1089,   79.5691E-03,   148.371E-03,            0.,NA,NA,"",   1.07704E+06,   1.08937E+06,   1.08937E+06
C:/temp/Job-5.odb,Step-1,Increment      1: Step Time =    1.000,"P-5-1",          1090,   115.755E-03,   149.564E-03,            0.,NA,NA,"",   1.06299E+06,   1.07569E+06,   1.07569E+06
C:/temp/Job-5.odb,Step-1,Increment      1: Step Time =    1.000,"P-5-1",          1091,   133.762E-03,   149.461E-03,            0.,NA,NA,"",   1.08782E+06,   1.07095E+06,   1.07095E+06
C:/temp/Job-5.odb,Step-1,Increment      1: Step Time =    1.000,"P-5-1",          1092,   128.598E-03,   49.9401E-03,            0.,NA,NA,"",   1.08671E+06,   1.07605E+06,   1.07605E+06
C:/temp/Job-5.odb,Step-1,Increment      1: Step Time =    1.000,"P-5-1",          1093,   50.6774E-03,   91.0505E-03,            0.,NA,NA,"",   832.445E+03,    882.14E+03,    882.14E+03
C:/temp/Job-5.odb,Step-1,Increment      1: Step Time =    1.000,"P-5-1",          1094,   108.240E-03,   49.0088E-03,            0.,NA,NA,"",   1.03289E+06,   1.06077E+06,   1.06077E+06
C:/temp/Job-5.odb,Step-1,Increment      1: Step Time =    1.000,"P-5-1",          1095,   49.6408E-03,   84.2592E-03,            0.,NA,NA,"",   884.895E+03,   927.509E+03,   927.509E+03
C:/temp/Job-5.odb,Step-1,Increment      1: Step Time =    1.000,"P-5-1",          1096,   119.744E-03,   47.1019E-03,            0.,NA,NA,"",   1.06097E+06,   1.06588E+06,   1.06588E+06
C:/temp/Job-5.odb,Step-1,Increment      1: Step Time =    1.000,"P-5-1",          1097,   85.7907E-03,   50.0099E-03,            0.,NA,NA,"",   1.05515E+06,   1.07690E+06,   1.07690E+06
C:/temp/Job-5.odb,Step-1,Increment      1: Step Time =    1.000,"P-5-1",          1098,   149.082E-03,   83.1875E-03,            0.,NA,NA,"",   977.622E+03,   967.457E+03,   967.457E+03
C:/temp/Job-5.odb,Step-1,Increment      1: Step Time =    1.000,"P-5-1",          1099,   109.241E-03,   150.543E-03,            0.,NA,NA,"",   1.03744E+06,   1.06412E+06,   1.06412E+06
C:/temp/Job-5.odb,Step-1,Increment      1: Step Time =    1.000,"P-5-1",          1100,   51.1736E-03,   115.510E-03,            0.,NA,NA,"",   885.012E+03,   924.918E+03,   924.918E+03
C:/temp/Job-5.odb,Step-1,Increment      1: Step Time =    1.000,"P-5-1",          1101,   49.9404E-03,   97.5075E-03,            0.,NA,NA,"",   800.347E+03,   857.316E+03,   857.316E+03
C:/temp/Job-5.odb,Step-1,Increment      1: Step Time =    1.000,"P-5-1",          1102,   85.2416E-03,   150.306E-03,            0.,NA,NA,"",   1.05675E+06,   1.07729E+06,   1.07729E+06
C:/temp/Job-5.odb,Step-1,Increment      1: Step Time =    1.000,"P-5-1",          1103,   152.023E-03,   111.326E-03,            0.,NA,NA,"",   935.541E+03,   936.608E+03,   936.608E+03
C:/temp/Job-5.odb,Step-1,Increment      1: Step Time =    1.000,"P-5-1",          1104,   90.8659E-03,   48.8966E-03,            0.,NA,NA,"",   1.03838E+06,   1.06582E+06,   1.06582E+06
C:/temp/Job-5.odb,Step-1,Increment      1: Step Time =    1.000,"P-5-1",          1105,   149.842E-03,   104.684E-03,            0.,NA,NA,"",   885.222E+03,   894.541E+03,   894.541E+03
C:/temp/Job-5.odb,Step-1,Increment      1: Step Time =    1.000,"P-5-1",          1106,   148.935E-03,   121.094E-03,            0.,NA,NA,"",   1.00450E+06,   988.424E+03,   988.424E+03
C:/temp/Job-5.odb,Step-1,Increment      1: Step Time =    1.000,"P-5-1",          1107,   150.470E-03,   115.994E-03,            0.,NA,NA,"",   966.059E+03,   958.816E+03,   958.816E+03
C:/temp/Job-5.odb,Step-1,Increment      1: Step Time =    1.000,"P-5-1",          1108,   103.093E-03,   49.1072E-03,            0.,NA,NA,"",   1.02450E+06,   1.05783E+06,   1.05783E+06
C:/temp/Job-5.odb,Step-1,Increment      1: Step Time =    1.000,"P-5-1",          1109,   91.4410E-03,   151.491E-03,            0.,NA,NA,"",   1.03359E+06,   1.06344E+06,   1.06344E+06
C:/temp/Job-5.odb,Step-1,Increment      1: Step Time =    1.000,"P-5-1",          1110,   104.175E-03,   151.019E-03,            0.,NA,NA,"",   1.02543E+06,   1.05849E+06,   1.05849E+06
C:/temp/Job-5.odb,Step-1,Increment      1: Step Time =    1.000,"P-5-1",          1111,   96.2834E-03,   51.0128E-03,            0.,NA,NA,"",   1.02911E+06,   1.06524E+06,   1.06524E+06
C:/temp/Job-5.odb,Step-1,Increment      1: Step Time =    1.000,"P-5-1",          1112,   149.424E-03,   89.8773E-03,            0.,NA,NA,"",   923.143E+03,   924.100E+03,   924.100E+03
C:/temp/Job-5.odb,Step-1,Increment      1: Step Time =    1.000,"P-5-1",          1113,   47.7654E-03,   138.565E-03,            0.,NA,NA,"",   1.00393E+06,   1.03016E+06,   1.03016E+06
C:/temp/Job-5.odb,Step-1,Increment      1: Step Time =    1.000,"P-5-1",          1114,   52.1329E-03,   108.386E-03,            0.,NA,NA,"",   824.492E+03,   873.216E+03,   873.216E+03
C:/temp/Job-5.odb,Step-1,Increment      1: Step Time =    1.000,"P-5-1",          1115,   149.355E-03,   97.1749E-03,            0.,NA,NA,"",   878.557E+03,   888.913E+03,   888.913E+03
C:/temp/Job-5.odb,Step-1,Increment      1: Step Time =    1.000,"P-5-1",          1116,   53.0961E-03,   101.404E-03,            0.,NA,NA,"",   782.522E+03,   837.083E+03,   837.083E+03
C:/temp/Job-5.odb,Step-1,Increment      1: Step Time =    1.000,"P-5-1",          1117,   64.5969E-03,   48.7620E-03,            0.,NA,NA,"",   1.07246E+06,   1.07599E+06,   1.07599E+06
C:/temp/Job-5.odb,Step-1,Increment      1: Step Time =    1.000,"P-5-1",          1118,   101.185E-03,   151.633E-03,            0.,NA,NA,"",   1.02232E+06,   1.05598E+06,   1.05598E+06
C:/temp/Job-5.odb,Step-1,Increment      1: Step Time =    1.000,"P-5-1",          1119,   149.552E-03,   61.8277E-03,            0.,NA,NA,"",   1.06402E+06,   1.04343E+06,   1.04343E+06
C:/temp/Job-5.odb,Step-1,Increment      1: Step Time =    1.000,"P-5-1",          1120,   140.061E-03,   147.786E-03,            0.,NA,NA,"",   1.08331E+06,   1.06366E+06,   1.06366E+06
C:/temp/Job-5.odb,Step-1,Increment      1: Step Time =    1.000,"P-5-1",          1121,   58.0707E-03,   48.4624E-03,            0.,NA,NA,"",   1.06002E+06,   1.06768E+06,   1.06768E+06
C:/temp/Job-5.odb,Step-1,Increment      1: Step Time =    1.000,"P-5-1",          1122,   50.3721E-03,   144.802E-03,            0.,NA,NA,"",   1.02981E+06,   1.04855E+06,   1.04855E+06
C:/temp/Job-5.odb,Step-1,Increment      1: Step Time =    1.000,"P-5-1",          1123,   143.516E-03,   150.129E-03,            0.,NA,NA,"",   1.07143E+06,   1.05417E+06,   1.05417E+06
C:/temp/Job-5.odb,Step-1,Increment      1: Step Time =    1.000,"P-5-1",          1124,   150.557E-03,   55.4563E-03,            0.,NA,NA,"",   1.06124E+06,   1.04348E+06,   1.04348E+06
C:/temp/Job-5.odb,Step-1,Increment      1: Step Time =    1.000,"P-5-1",          1125,   154.393E-03,   139.640E-03,            0.,NA,NA,"",   1.05117E+06,   1.03462E+06,   1.03462E+06
C:/temp/Job-5.odb,Step-1,Increment      1: Step Time =    1.000,"P-5-1",          1126,   150.401E-03,   149.173E-03,            0.,NA,NA,"",   1.05972E+06,   1.04345E+06,   1.04345E+06
C:/temp/Job-5.odb,Step-1,Increment      1: Step Time =    1.000,"P-5-1",          1127,   149.209E-03,   51.1290E-03,            0.,NA,NA,"",   1.06205E+06,   1.04524E+06,   1.04524E+06
C:/temp/Job-5.odb,Step-1,Increment      1: Step Time =    1.000,"P-5-1",          1128,   155.248E-03,   150.955E-03,            0.,NA,NA,"",   1.04838E+06,   1.03525E+06,   1.03525E+06
C:/temp/Job-5.odb,Step-1,Increment      1: Step Time =    1.000,"P-5-1",          1129,   40.6771E-03,   47.0687E-03,            0.,NA,NA,"",   1.01161E+06,   1.04309E+06,   1.04309E+06
C:/temp/Job-5.odb,Step-1,Increment      1: Step Time =    1.000,"P-5-1",          1130,   46.7084E-03,   158.689E-03,            0.,NA,NA,"",   1.03783E+06,   1.05635E+06,   1.05635E+06
C:/temp/Job-5.odb,Step-1,Increment      1: Step Time =    1.000,"P-5-1",          1131,   48.3094E-03,   51.7147E-03,            0.,NA,NA,"",   1.02943E+06,   1.05010E+06,   1.05010E+06
C:/temp/Job-5.odb,Step-1,Increment      1: Step Time =    1.000,"P-5-1",          1132,   49.2688E-03,   153.819E-03,            0.,NA,NA,"",   1.03936E+06,   1.05585E+06,   1.05585E+06
C:/temp/Job-5.odb,Step-1,Increment      1: Step Time =    1.000,"P-5-1",          1133,   153.302E-03,   40.1765E-03,            0.,NA,NA,"",   1.04207E+06,   1.03153E+06,   1.03153E+06
C:/temp/Job-5.odb,Step-1,Increment      1: Step Time =    1.000,"P-5-1",          1134,   160.018E-03,   152.526E-03,            0.,NA,NA,"",   1.03817E+06,   1.02799E+06,   1.02799E+06
C:/temp/Job-5.odb,Step-1,Increment      1: Step Time =    1.000,"P-5-1",          1135,   43.8303E-03,   53.1798E-03,            0.,NA,NA,"",   1.00938E+06,   1.03846E+06,   1.03846E+06
C:/temp/Job-5.odb,Step-1,Increment      1: Step Time =    1.000,"P-5-1",          1136,   157.090E-03,   146.344E-03,            0.,NA,NA,"",   1.04664E+06,   1.03325E+06,   1.03325E+06
C:/temp/Job-5.odb,Step-1,Increment      1: Step Time =    1.000,"P-5-1",          1137,   140.837E-03,   44.4126E-03,            0.,NA,NA,"",   1.06387E+06,   1.05019E+06,   1.05019E+06
C:/temp/Job-5.odb,Step-1,Increment      1: Step Time =    1.000,"P-5-1",          1138,   42.8701E-03,   60.1448E-03,            0.,NA,NA,"",   984.216E+03,   1.01953E+06,   1.01953E+06
C:/temp/Job-5.odb,Step-1,Increment      1: Step Time =    1.000,"P-5-1",          1139,   55.0962E-03,   156.814E-03,            0.,NA,NA,"",   1.05278E+06,   1.06217E+06,   1.06217E+06
C:/temp/Job-5.odb,Step-1,Increment      1: Step Time =    1.000,"P-5-1",          1140,   45.9845E-03,   61.9474E-03,            0.,NA,NA,"",   991.501E+03,   1.02202E+06,   1.02202E+06
C:/temp/Job-5.odb,Step-1,Increment      1: Step Time =    1.000,"P-5-1",          1141,   60.2936E-03,   153.368E-03,            0.,NA,NA,"",   1.06395E+06,   1.06953E+06,   1.06953E+06
C:/temp/Job-5.odb,Step-1,Increment      1: Step Time =    1.000,"P-5-1",          1142,   45.8587E-03,   58.0319E-03,            0.,NA,NA,"",   1.00363E+06,   1.03205E+06,   1.03205E+06
C:/temp/Job-5.odb,Step-1,Increment      1: Step Time =    1.000,"P-5-1",          1143,   53.7924E-03,   152.009E-03,            0.,NA,NA,"",   1.04963E+06,   1.06129E+06,   1.06129E+06
C:/temp/Job-5.odb,Step-1,Increment      1: Step Time =    1.000,"P-5-1",          1144,   147.086E-03,   46.0615E-03,            0.,NA,NA,"",   1.06008E+06,   1.04516E+06,   1.04516E+06
C:/temp/Job-5.odb,Step-1,Increment      1: Step Time =    1.000,"P-5-1",          1145,   152.500E-03,   144.361E-03,            0.,NA,NA,"",   1.05781E+06,   1.04076E+06,   1.04076E+06
C:/temp/Job-5.odb,Step-1,Increment      1: Step Time =    1.000,"P-5-1",          1146,   151.253E-03,   132.909E-03,            0.,NA,NA,"",   1.05047E+06,   1.03080E+06,   1.03080E+06
C:/temp/Job-5.odb,Step-1,Increment      1: Step Time =    1.000,"P-5-1",          1147,   66.7889E-03,   154.696E-03,            0.,NA,NA,"",   1.06917E+06,   1.07291E+06,   1.07291E+06
C:/temp/Job-5.odb,Step-1,Increment      1: Step Time =    1.000,"P-5-1",          1148,   134.118E-03,   48.9397E-03,            0.,NA,NA,"",   1.08325E+06,   1.06801E+06,   1.06801E+06
C:/temp/Job-5.odb,Step-1,Increment      1: Step Time =    1.000,"P-5-1",          1149,   48.8380E-03,   67.8071E-03,            0.,NA,NA,"",   984.168E+03,   1.01217E+06,   1.01217E+06
C:/temp/Job-5.odb,Step-1,Increment      1: Step Time =    1.000,"P-5-1",          1150,   54.3098E-03,   125.990E-03,            0.,NA,NA,"",   982.272E+03,   1.00183E+06,   1.00183E+06
C:/temp/Job-5.odb,Step-1,Increment      1: Step Time =    1.000,"P-5-1",          1151,   147.236E-03,   77.1128E-03,            0.,NA,NA,"",   1.02108E+06,   1.00166E+06,   1.00166E+06
C:/temp/Job-5.odb,Step-1,Increment      1: Step Time =    1.000,"P-5-1",          1152,   79.8439E-03,   54.3064E-03,            0.,NA,NA,"",   1.08503E+06,   1.09706E+06,   1.09706E+06
C:/temp/Job-5.odb,Step-1,Increment      1: Step Time =    1.000,"P-5-1",          1153,   125.213E-03,   143.700E-03,            0.,NA,NA,"",   1.11322E+06,   1.09937E+06,   1.09937E+06
C:/temp/Job-5.odb,Step-1,Increment      1: Step Time =    1.000,"P-5-1",          1154,   53.8223E-03,   132.579E-03,            0.,NA,NA,"",   1.01294E+06,   1.02957E+06,   1.02957E+06
C:/temp/Job-5.odb,Step-1,Increment      1: Step Time =    1.000,"P-5-1",          1155,   149.251E-03,   72.8774E-03,            0.,NA,NA,"",   1.03741E+06,   1.01752E+06,   1.01752E+06
C:/temp/Job-5.odb,Step-1,Increment      1: Step Time =    1.000,"P-5-1",          1156,   71.7319E-03,   55.4068E-03,            0.,NA,NA,"",   1.09721E+06,   1.09777E+06,   1.09777E+06
C:/temp/Job-5.odb,Step-1,Increment      1: Step Time =    1.000,"P-5-1",          1157,   129.374E-03,   146.642E-03,            0.,NA,NA,"",   1.10080E+06,   1.08457E+06,   1.08457E+06
C:/temp/Job-5.odb,Step-1,Increment      1: Step Time =    1.000,"P-5-1",          1158,   73.8839E-03,   145.900E-03,            0.,NA,NA,"",   1.09538E+06,   1.09768E+06,   1.09768E+06
C:/temp/Job-5.odb,Step-1,Increment      1: Step Time =    1.000,"P-5-1",          1159,   118.442E-03,   145.071E-03,            0.,NA,NA,"",   1.09246E+06,   1.09659E+06,   1.09659E+06
C:/temp/Job-5.odb,Step-1,Increment      1: Step Time =    1.000,"P-5-1",          1160,   51.4403E-03,   74.0501E-03,            0.,NA,NA,"",   966.140E+03,   992.790E+03,   992.790E+03
C:/temp/Job-5.odb,Step-1,Increment      1: Step Time =    1.000,"P-5-1",          1161,   85.1071E-03,   54.4765E-03,            0.,NA,NA,"",   1.07080E+06,   1.09292E+06,   1.09292E+06
C:/temp/Job-5.odb,Step-1,Increment      1: Step Time =    1.000,"P-5-1",          1162,   145.455E-03,   80.9112E-03,            0.,NA,NA,"",   1.00297E+06,   984.161E+03,   984.161E+03
C:/temp/Job-5.odb,Step-1,Increment      1: Step Time =    1.000,"P-5-1",          1163,   54.9249E-03,   119.095E-03,            0.,NA,NA,"",   930.734E+03,   956.671E+03,   956.671E+03
C:/temp/Job-5.odb,Step-1,Increment      1: Step Time =    1.000,"P-5-1",          1164,   111.934E-03,   52.6137E-03,            0.,NA,NA,"",   1.05345E+06,   1.07709E+06,   1.07709E+06
C:/temp/Job-5.odb,Step-1,Increment      1: Step Time =    1.000,"P-5-1",          1165,   118.601E-03,   50.8256E-03,            0.,NA,NA,"",   1.07148E+06,   1.07807E+06,   1.07807E+06
C:/temp/Job-5.odb,Step-1,Increment      1: Step Time =    1.000,"P-5-1",          1166,   52.8061E-03,   80.4584E-03,            0.,NA,NA,"",   924.546E+03,   955.572E+03,   955.572E+03
C:/temp/Job-5.odb,Step-1,Increment      1: Step Time =    1.000,"P-5-1",          1167,   53.9161E-03,   87.4451E-03,            0.,NA,NA,"",   862.594E+03,   901.835E+03,   901.835E+03
C:/temp/Job-5.odb,Step-1,Increment      1: Step Time =    1.000,"P-5-1",          1168,   123.409E-03,   50.9318E-03,            0.,NA,NA,"",   1.08387E+06,   1.08100E+06,   1.08100E+06
C:/temp/Job-5.odb,Step-1,Increment      1: Step Time =    1.000,"P-5-1",          1169,   111.756E-03,   146.415E-03,            0.,NA,NA,"",   1.05766E+06,   1.08186E+06,   1.08186E+06
C:/temp/Job-5.odb,Step-1,Increment      1: Step Time =    1.000,"P-5-1",          1170,   82.9410E-03,   147.219E-03,            0.,NA,NA,"",   1.07196E+06,   1.09005E+06,   1.09005E+06
C:/temp/Job-5.odb,Step-1,Increment      1: Step Time =    1.000,"P-5-1",          1171,   54.1751E-03,   94.5843E-03,            0.,NA,NA,"",   800.272E+03,   849.933E+03,   849.933E+03
C:/temp/Job-5.odb,Step-1,Increment      1: Step Time =    1.000,"P-5-1",          1172,   142.980E-03,   124.820E-03,            0.,NA,NA,"",   1.05685E+06,   1.02709E+06,   1.02709E+06
C:/temp/Job-5.odb,Step-1,Increment      1: Step Time =    1.000,"P-5-1",          1173,   50.3436E-03,   135.821E-03,            0.,NA,NA,"",   1.00721E+06,   1.02943E+06,   1.02943E+06
C:/temp/Job-5.odb,Step-1,Increment      1: Step Time =    1.000,"P-5-1",          1174,   89.1824E-03,   54.1645E-03,            0.,NA,NA,"",   1.05580E+06,   1.08577E+06,   1.08577E+06
C:/temp/Job-5.odb,Step-1,Increment      1: Step Time =    1.000,"P-5-1",          1175,   68.1123E-03,   52.0819E-03,            0.,NA,NA,"",   1.08372E+06,   1.08534E+06,   1.08534E+06
C:/temp/Job-5.odb,Step-1,Increment      1: Step Time =    1.000,"P-5-1",          1176,   105.386E-03,   52.1179E-03,            0.,NA,NA,"",   1.03105E+06,   1.06676E+06,   1.06676E+06
C:/temp/Job-5.odb,Step-1,Increment      1: Step Time =    1.000,"P-5-1",          1177,   146.743E-03,   66.3089E-03,            0.,NA,NA,"",   1.06834E+06,   1.04399E+06,   1.04399E+06
C:/temp/Job-5.odb,Step-1,Increment      1: Step Time =    1.000,"P-5-1",          1178,   145.167E-03,   113.902E-03,            0.,NA,NA,"",   948.353E+03,   938.005E+03,   938.005E+03
C:/temp/Job-5.odb,Step-1,Increment      1: Step Time =    1.000,"P-5-1",          1179,   145.715E-03,   86.6835E-03,            0.,NA,NA,"",   948.547E+03,   939.643E+03,   939.643E+03
C:/temp/Job-5.odb,Step-1,Increment      1: Step Time =    1.000,"P-5-1",          1180,   135.864E-03,   145.434E-03,            0.,NA,NA,"",   1.09737E+06,   1.07509E+06,   1.07509E+06
C:/temp/Job-5.odb,Step-1,Increment      1: Step Time =    1.000,"P-5-1",          1181,   105.358E-03,   147.559E-03,            0.,NA,NA,"",   1.03271E+06,   1.06885E+06,   1.06885E+06
C:/temp/Job-5.odb,Step-1,Increment      1: Step Time =    1.000,"P-5-1",          1182,   88.5148E-03,   147.092E-03,            0.,NA,NA,"",   1.05358E+06,   1.08267E+06,   1.08267E+06
C:/temp/Job-5.odb,Step-1,Increment      1: Step Time =    1.000,"P-5-1",          1183,   55.8175E-03,   112.149E-03,            0.,NA,NA,"",   859.757E+03,   895.537E+03,   895.537E+03
C:/temp/Job-5.odb,Step-1,Increment      1: Step Time =    1.000,"P-5-1",          1184,   57.3432E-03,   98.3917E-03,            0.,NA,NA,"",   758.397E+03,   809.125E+03,   809.125E+03
C:/temp/Job-5.odb,Step-1,Increment      1: Step Time =    1.000,"P-5-1",          1185,   143.025E-03,   119.575E-03,            0.,NA,NA,"",   1.01698E+06,   991.838E+03,   991.838E+03
C:/temp/Job-5.odb,Step-1,Increment      1: Step Time =    1.000,"P-5-1",          1186,   92.8057E-03,   52.8162E-03,            0.,NA,NA,"",   1.04130E+06,    1.0757E+06,    1.0757E+06
C:/temp/Job-5.odb,Step-1,Increment      1: Step Time =    1.000,"P-5-1",          1187,   145.102E-03,   101.226E-03,            0.,NA,NA,"",   844.155E+03,   856.222E+03,   856.222E+03
C:/temp/Job-5.odb,Step-1,Increment      1: Step Time =    1.000,"P-5-1",          1188,   145.281E-03,   93.5842E-03,            0.,NA,NA,"",   876.281E+03,   881.765E+03,   881.765E+03
C:/temp/Job-5.odb,Step-1,Increment      1: Step Time =    1.000,"P-5-1",          1189,   95.3612E-03,   148.541E-03,            0.,NA,NA,"",   1.02986E+06,   1.06727E+06,   1.06727E+06
C:/temp/Job-5.odb,Step-1,Increment      1: Step Time =    1.000,"P-5-1",          1190,   100.175E-03,   145.711E-03,            0.,NA,NA,"",   1.03037E+06,   1.07369E+06,   1.07369E+06
C:/temp/Job-5.odb,Step-1,Increment      1: Step Time =    1.000,"P-5-1",          1191,   56.6408E-03,   105.233E-03,            0.,NA,NA,"",   782.635E+03,   830.325E+03,   830.325E+03
C:/temp/Job-5.odb,Step-1,Increment      1: Step Time =    1.000,"P-5-1",          1192,   52.7632E-03,   138.818E-03,            0.,NA,NA,"",   1.02852E+06,   1.04453E+06,   1.04453E+06
C:/temp/Job-5.odb,Step-1,Increment      1: Step Time =    1.000,"P-5-1",          1193,   61.3466E-03,   52.2312E-03,            0.,NA,NA,"",   1.07019E+06,   1.07447E+06,   1.07447E+06
C:/temp/Job-5.odb,Step-1,Increment      1: Step Time =    1.000,"P-5-1",          1194,   145.340E-03,   58.4498E-03,            0.,NA,NA,"",   1.07727E+06,   1.05474E+06,   1.05474E+06
C:/temp/Job-5.odb,Step-1,Increment      1: Step Time =    1.000,"P-5-1",          1195,   142.040E-03,   144.222E-03,            0.,NA,NA,"",   1.08533E+06,   1.06290E+06,   1.06290E+06
C:/temp/Job-5.odb,Step-1,Increment      1: Step Time =    1.000,"P-5-1",          1196,   148.068E-03,   142.240E-03,            0.,NA,NA,"",   1.07074E+06,   1.04968E+06,   1.04968E+06
C:/temp/Job-5.odb,Step-1,Increment      1: Step Time =    1.000,"P-5-1",          1197,   144.475E-03,   53.2300E-03,            0.,NA,NA,"",   1.07561E+06,   1.05576E+06,   1.05576E+06
C:/temp/Job-5.odb,Step-1,Increment      1: Step Time =    1.000,"P-5-1",          1198,   52.1616E-03,   148.180E-03,            0.,NA,NA,"",   1.04205E+06,   1.05671E+06,   1.05671E+06
C:/temp/Job-5.odb,Step-1,Increment      1: Step Time =    1.000,"P-5-1",          1199,   56.0265E-03,   51.5449E-03,            0.,NA,NA,"",   1.05434E+06,   1.06435E+06,   1.06435E+06
C:/temp/Job-5.odb,Step-1,Increment      1: Step Time =    1.000,"P-5-1",          1200,   139.476E-03,   49.0070E-03,            0.,NA,NA,"",   1.07697E+06,   1.05978E+06,   1.05978E+06
C:/temp/Job-5.odb,Step-1,Increment      1: Step Time =    1.000,"P-5-1",          1201,   64.9304E-03,   150.672E-03,            0.,NA,NA,"",   1.07489E+06,   1.07775E+06,   1.07775E+06
C:/temp/Job-5.odb,Step-1,Increment      1: Step Time =    1.000,"P-5-1",          1202,   50.1596E-03,   62.6980E-03,            0.,NA,NA,"",   1.00961E+06,   1.03221E+06,   1.03221E+06
C:/temp/Job-5.odb,Step-1,Increment      1: Step Time =    1.000,"P-5-1",          1203,   143.646E-03,   49.5661E-03,            0.,NA,NA,"",   1.07163E+06,   1.05399E+06,   1.05399E+06
C:/temp/Job-5.odb,Step-1,Increment      1: Step Time =    1.000,"P-5-1",          1204,   53.8635E-03,   56.8599E-03,            0.,NA,NA,"",   1.04131E+06,   1.05514E+06,   1.05514E+06
C:/temp/Job-5.odb,Step-1,Increment      1: Step Time =    1.000,"P-5-1",          1205,   58.4722E-03,   149.478E-03,            0.,NA,NA,"",   1.06184E+06,   1.06874E+06,   1.06874E+06
C:/temp/Job-5.odb,Step-1,Increment      1: Step Time =    1.000,"P-5-1",          1206,   149.711E-03,   137.659E-03,            0.,NA,NA,"",   1.06345E+06,   1.04236E+06,   1.04236E+06
C:/temp/Job-5.odb,Step-1,Increment      1: Step Time =    1.000,"P-5-1",          1207,   69.4044E-03,   148.231E-03,            0.,NA,NA,"",   1.08563E+06,   1.08717E+06,   1.08717E+06
C:/temp/Job-5.odb,Step-1,Increment      1: Step Time =    1.000,"P-5-1",          1208,   146.243E-03,   131.183E-03,            0.,NA,NA,"",   1.06583E+06,   1.04004E+06,   1.04004E+06
C:/temp/Job-5.odb,Step-1,Increment      1: Step Time =    1.000,"P-5-1",          1209,   53.4293E-03,   69.3534E-03,            0.,NA,NA,"",   1.00064E+06,   1.01942E+06,   1.01942E+06
C:/temp/Job-5.odb,Step-1,Increment      1: Step Time =    1.000,"P-5-1",          1210,   134.184E-03,   54.2381E-03,            0.,NA,NA,"",   1.10020E+06,   1.07924E+06,   1.07924E+06
C:/temp/Job-5.odb,Step-1,Increment      1: Step Time =    1.000,"P-5-1",          1211,   57.6786E-03,   129.316E-03,            0.,NA,NA,"",   1.02218E+06,   1.03125E+06,   1.03125E+06
C:/temp/Job-5.odb,Step-1,Increment      1: Step Time =    1.000,"P-5-1",          1212,   142.443E-03,   75.8917E-03,            0.,NA,NA,"",   1.05116E+06,   1.02173E+06,   1.02173E+06
C:/temp/Job-5.odb,Step-1,Increment      1: Step Time =    1.000,"P-5-1",          1213,   75.4534E-03,   58.5272E-03,            0.,NA,NA,"",   1.10976E+06,   1.11106E+06,   1.11106E+06
C:/temp/Job-5.odb,Step-1,Increment      1: Step Time =    1.000,"P-5-1",          1214,   128.017E-03,   139.458E-03,            0.,NA,NA,"",   1.13221E+06,   1.10698E+06,   1.10698E+06
C:/temp/Job-5.odb,Step-1,Increment      1: Step Time =    1.000,"P-5-1",          1215,   121.184E-03,   140.637E-03,            0.,NA,NA,"",   1.12585E+06,   1.11691E+06,   1.11691E+06
C:/temp/Job-5.odb,Step-1,Increment      1: Step Time =    1.000,"P-5-1",          1216,   58.5310E-03,   122.601E-03,            0.,NA,NA,"",   983.548E+03,   995.083E+03,   995.083E+03
C:/temp/Job-5.odb,Step-1,Increment      1: Step Time =    1.000,"P-5-1",          1217,   81.8296E-03,   59.9028E-03,            0.,NA,NA,"",   1.10791E+06,   1.12076E+06,   1.12076E+06
C:/temp/Job-5.odb,Step-1,Increment      1: Step Time =    1.000,"P-5-1",          1218,   141.573E-03,   80.2323E-03,            0.,NA,NA,"",   1.02114E+06,   994.025E+03,   994.025E+03
C:/temp/Job-5.odb,Step-1,Increment      1: Step Time =    1.000,"P-5-1",          1219,   116.749E-03,   56.7138E-03,            0.,NA,NA,"",   1.09267E+06,   1.10236E+06,   1.10236E+06
C:/temp/Job-5.odb,Step-1,Increment      1: Step Time =    1.000,"P-5-1",          1220,   78.4902E-03,   143.924E-03,            0.,NA,NA,"",   1.09968E+06,   1.10692E+06,   1.10692E+06
C:/temp/Job-5.odb,Step-1,Increment      1: Step Time =    1.000,"P-5-1",          1221,   59.6386E-03,   79.4855E-03,            0.,NA,NA,"",   971.605E+03,   982.179E+03,   982.179E+03
C:/temp/Job-5.odb,Step-1,Increment      1: Step Time =    1.000,"P-5-1",          1222,   56.6008E-03,   135.832E-03,            0.,NA,NA,"",   1.03993E+06,   1.04952E+06,   1.04952E+06
C:/temp/Job-5.odb,Step-1,Increment      1: Step Time =    1.000,"P-5-1",          1223,   114.406E-03,   141.996E-03,            0.,NA,NA,"",   1.08977E+06,   1.10692E+06,   1.10692E+06
C:/temp/Job-5.odb,Step-1,Increment      1: Step Time =    1.000,"P-5-1",          1224,   68.2103E-03,   59.7633E-03,            0.,NA,NA,"",   1.10088E+06,   1.09689E+06,   1.09689E+06
C:/temp/Job-5.odb,Step-1,Increment      1: Step Time =    1.000,"P-5-1",          1225,   123.303E-03,   56.1450E-03,            0.,NA,NA,"",   1.10872E+06,   1.10011E+06,   1.10011E+06
C:/temp/Job-5.odb,Step-1,Increment      1: Step Time =    1.000,"P-5-1",          1226,   137.742E-03,   69.3047E-03,            0.,NA,NA,"",   1.10425E+06,   1.06824E+06,   1.06824E+06
C:/temp/Job-5.odb,Step-1,Increment      1: Step Time =    1.000,"P-5-1",          1227,   58.6802E-03,   91.1526E-03,            0.,NA,NA,"",   818.921E+03,   855.823E+03,   855.823E+03
C:/temp/Job-5.odb,Step-1,Increment      1: Step Time =    1.000,"P-5-1",          1228,   131.952E-03,   142.537E-03,            0.,NA,NA,"",   1.11324E+06,   1.08942E+06,   1.08942E+06
C:/temp/Job-5.odb,Step-1,Increment      1: Step Time =    1.000,"P-5-1",          1229,   56.8906E-03,   83.5253E-03,            0.,NA,NA,"",   910.955E+03,   936.674E+03,   936.674E+03
C:/temp/Job-5.odb,Step-1,Increment      1: Step Time =    1.000,"P-5-1",          1230,   85.9934E-03,   59.2966E-03,            0.,NA,NA,"",   1.08890E+06,   1.11346E+06,   1.11346E+06
C:/temp/Job-5.odb,Step-1,Increment      1: Step Time =    1.000,"P-5-1",          1231,   108.326E-03,   55.9906E-03,            0.,NA,NA,"",   1.04892E+06,   1.08488E+06,   1.08488E+06
C:/temp/Job-5.odb,Step-1,Increment      1: Step Time =    1.000,"P-5-1",          1232,   142.759E-03,   83.5937E-03,            0.,NA,NA,"",   985.748E+03,   965.782E+03,   965.782E+03
C:/temp/Job-5.odb,Step-1,Increment      1: Step Time =    1.000,"P-5-1",          1233,   59.4599E-03,   115.788E-03,            0.,NA,NA,"",   917.317E+03,   935.787E+03,   935.787E+03
C:/temp/Job-5.odb,Step-1,Increment      1: Step Time =    1.000,"P-5-1",          1234,   144.885E-03,   135.873E-03,            0.,NA,NA,"",   1.07934E+06,   1.05281E+06,   1.05281E+06
C:/temp/Job-5.odb,Step-1,Increment      1: Step Time =    1.000,"P-5-1",          1235,   107.649E-03,   143.399E-03,            0.,NA,NA,"",   1.04887E+06,   1.08712E+06,   1.08712E+06
C:/temp/Job-5.odb,Step-1,Increment      1: Step Time =    1.000,"P-5-1",          1236,   61.1650E-03,   95.5580E-03,            0.,NA,NA,"",   755.023E+03,   797.496E+03,   797.496E+03
C:/temp/Job-5.odb,Step-1,Increment      1: Step Time =    1.000,"P-5-1",          1237,   84.1945E-03,   142.729E-03,            0.,NA,NA,"",   1.08737E+06,   1.10783E+06,   1.10783E+06
C:/temp/Job-5.odb,Step-1,Increment      1: Step Time =    1.000,"P-5-1",          1238,   140.109E-03,   111.726E-03,            0.,NA,NA,"",   925.080E+03,   910.977E+03,   910.977E+03
C:/temp/Job-5.odb,Step-1,Increment      1: Step Time =    1.000,"P-5-1",          1239,   139.267E-03,   123.013E-03,            0.,NA,NA,"",   1.06454E+06,   1.02863E+06,   1.02863E+06
C:/temp/Job-5.odb,Step-1,Increment      1: Step Time =    1.000,"P-5-1",          1240,   140.723E-03,   105.831E-03,            0.,NA,NA,"",   836.250E+03,   841.115E+03,   841.115E+03
C:/temp/Job-5.odb,Step-1,Increment      1: Step Time =    1.000,"P-5-1",          1241,   90.2736E-03,   58.5338E-03,            0.,NA,NA,"",   1.06603E+06,   1.10231E+06,   1.10231E+06
C:/temp/Job-5.odb,Step-1,Increment      1: Step Time =    1.000,"P-5-1",          1242,   138.061E-03,   116.376E-03,            0.,NA,NA,"",   1.00170E+06,   970.609E+03,   970.609E+03
C:/temp/Job-5.odb,Step-1,Increment      1: Step Time =    1.000,"P-5-1",          1243,   101.886E-03,   54.1562E-03,            0.,NA,NA,"",   1.02907E+06,   1.07186E+06,   1.07186E+06
C:/temp/Job-5.odb,Step-1,Increment      1: Step Time =    1.000,"P-5-1",          1244,   141.588E-03,   89.8964E-03,            0.,NA,NA,"",   901.743E+03,   895.762E+03,   895.762E+03
C:/temp/Job-5.odb,Step-1,Increment      1: Step Time =    1.000,"P-5-1",          1245,   103.523E-03,   140.645E-03,            0.,NA,NA,"",   1.04336E+06,   1.09499E+06,   1.09499E+06
C:/temp/Job-5.odb,Step-1,Increment      1: Step Time =    1.000,"P-5-1",          1246,   92.2564E-03,   143.910E-03,            0.,NA,NA,"",   1.04721E+06,   1.08775E+06,   1.08775E+06
C:/temp/Job-5.odb,Step-1,Increment      1: Step Time =    1.000,"P-5-1",          1247,   58.9532E-03,   139.269E-03,            0.,NA,NA,"",   1.05933E+06,   1.06460E+06,   1.06460E+06
C:/temp/Job-5.odb,Step-1,Increment      1: Step Time =    1.000,"P-5-1",          1248,   98.2054E-03,   55.7822E-03,            0.,NA,NA,"",   1.03304E+06,   1.07901E+06,   1.07901E+06
C:/temp/Job-5.odb,Step-1,Increment      1: Step Time =    1.000,"P-5-1",          1249,   60.3358E-03,   108.947E-03,            0.,NA,NA,"",   819.165E+03,   851.544E+03,   851.544E+03
C:/temp/Job-5.odb,Step-1,Increment      1: Step Time =    1.000,"P-5-1",          1250,   60.9389E-03,   102.123E-03,            0.,NA,NA,"",   724.779E+03,   772.633E+03,   772.633E+03
C:/temp/Job-5.odb,Step-1,Increment      1: Step Time =    1.000,"P-5-1",          1251,   140.908E-03,   97.2379E-03,            0.,NA,NA,"",   816.620E+03,   827.026E+03,   827.026E+03
C:/temp/Job-5.odb,Step-1,Increment      1: Step Time =    1.000,"P-5-1",          1252,   64.6049E-03,   56.0109E-03,            0.,NA,NA,"",   1.08296E+06,   1.08362E+06,   1.08362E+06
C:/temp/Job-5.odb,Step-1,Increment      1: Step Time =    1.000,"P-5-1",          1253,   96.2303E-03,   140.817E-03,            0.,NA,NA,"",   1.04336E+06,   1.09568E+06,   1.09568E+06
C:/temp/Job-5.odb,Step-1,Increment      1: Step Time =    1.000,"P-5-1",          1254,   142.406E-03,   64.1015E-03,            0.,NA,NA,"",   1.08743E+06,   1.05952E+06,   1.05952E+06
C:/temp/Job-5.odb,Step-1,Increment      1: Step Time =    1.000,"P-5-1",          1255,   138.147E-03,   141.765E-03,            0.,NA,NA,"",   1.09949E+06,   1.07356E+06,   1.07356E+06
C:/temp/Job-5.odb,Step-1,Increment      1: Step Time =    1.000,"P-5-1",          1256,   139.376E-03,   53.7662E-03,            0.,NA,NA,"",   1.08869E+06,   1.06726E+06,   1.06726E+06
C:/temp/Job-5.odb,Step-1,Increment      1: Step Time =    1.000,"P-5-1",          1257,   63.0380E-03,   146.775E-03,            0.,NA,NA,"",   1.07564E+06,   1.07819E+06,   1.07819E+06
C:/temp/Job-5.odb,Step-1,Increment      1: Step Time =    1.000,"P-5-1",          1258,   143.882E-03,   140.266E-03,            0.,NA,NA,"",   1.08504E+06,   1.06006E+06,   1.06006E+06
C:/temp/Job-5.odb,Step-1,Increment      1: Step Time =    1.000,"P-5-1",          1259,   139.604E-03,   58.2108E-03,            0.,NA,NA,"",   1.09659E+06,   1.07090E+06,   1.07090E+06
C:/temp/Job-5.odb,Step-1,Increment      1: Step Time =    1.000,"P-5-1",          1260,   56.6520E-03,   145.649E-03,            0.,NA,NA,"",   1.05484E+06,   1.06389E+06,   1.06389E+06
C:/temp/Job-5.odb,Step-1,Increment      1: Step Time =    1.000,"P-5-1",          1261,   57.8918E-03,   55.2092E-03,            0.,NA,NA,"",   1.05895E+06,   1.06664E+06,   1.06664E+06
C:/temp/Job-5.odb,Step-1,Increment      1: Step Time =    1.000,"P-5-1",          1262,   55.7847E-03,   63.3067E-03,            0.,NA,NA,"",   1.03679E+06,   1.04837E+06,   1.04837E+06
C:/temp/Job-5.odb,Step-1,Increment      1: Step Time =    1.000,"P-5-1",          1263,   72.0505E-03,   141.638E-03,            0.,NA,NA,"",   1.10729E+06,   1.10448E+06,   1.10448E+06
C:/temp/Job-5.odb,Step-1,Increment      1: Step Time =    1.000,"P-5-1",          1264,   57.9775E-03,   72.1037E-03,            0.,NA,NA,"",   1.01606E+06,   1.02505E+06,   1.02505E+06
C:/temp/Job-5.odb,Step-1,Increment      1: Step Time =    1.000,"P-5-1",          1265,   141.247E-03,   129.500E-03,            0.,NA,NA,"",   1.08065E+06,   1.04834E+06,   1.04834E+06
C:/temp/Job-5.odb,Step-1,Increment      1: Step Time =    1.000,"P-5-1",          1266,   128.907E-03,   55.1288E-03,            0.,NA,NA,"",   1.10817E+06,   1.09086E+06,   1.09086E+06
C:/temp/Job-5.odb,Step-1,Increment      1: Step Time =    1.000,"P-5-1",          1267,   61.8293E-03,   126.123E-03,            0.,NA,NA,"",   1.03575E+06,   1.03479E+06,   1.03479E+06
C:/temp/Job-5.odb,Step-1,Increment      1: Step Time =    1.000,"P-5-1",          1268,   78.4359E-03,   61.0429E-03,            0.,NA,NA,"",   1.12140E+06,   1.12488E+06,   1.12488E+06
C:/temp/Job-5.odb,Step-1,Increment      1: Step Time =    1.000,"P-5-1",          1269,   137.616E-03,   75.4836E-03,            0.,NA,NA,"",   1.08548E+06,   1.04589E+06,   1.04589E+06
C:/temp/Job-5.odb,Step-1,Increment      1: Step Time =    1.000,"P-5-1",          1270,   124.023E-03,   136.316E-03,            0.,NA,NA,"",   1.15289E+06,   1.12840E+06,   1.12840E+06
C:/temp/Job-5.odb,Step-1,Increment      1: Step Time =    1.000,"P-5-1",          1271,   60.6096E-03,   132.786E-03,            0.,NA,NA,"",   1.05576E+06,   1.05737E+06,   1.05737E+06
C:/temp/Job-5.odb,Step-1,Increment      1: Step Time =    1.000,"P-5-1",          1272,   72.5312E-03,   63.6846E-03,            0.,NA,NA,"",   1.12766E+06,   1.11785E+06,   1.11785E+06
C:/temp/Job-5.odb,Step-1,Increment      1: Step Time =    1.000,"P-5-1",          1273,   117.152E-03,   137.550E-03,            0.,NA,NA,"",   1.13521E+06,   1.13633E+06,   1.13633E+06
C:/temp/Job-5.odb,Step-1,Increment      1: Step Time =    1.000,"P-5-1",          1274,   131.063E-03,   135.328E-03,            0.,NA,NA,"",   1.13710E+06,   1.10267E+06,   1.10267E+06
C:/temp/Job-5.odb,Step-1,Increment      1: Step Time =    1.000,"P-5-1",          1275,   82.6847E-03,   65.1852E-03,            0.,NA,NA,"",   1.14058E+06,   1.15042E+06,   1.15042E+06
C:/temp/Job-5.odb,Step-1,Increment      1: Step Time =    1.000,"P-5-1",          1276,   135.781E-03,   81.1906E-03,            0.,NA,NA,"",   1.04521E+06,   1.00481E+06,   1.00481E+06
C:/temp/Job-5.odb,Step-1,Increment      1: Step Time =    1.000,"P-5-1",          1277,   62.9360E-03,   119.393E-03,            0.,NA,NA,"",   985.759E+03,   986.177E+03,   986.177E+03
C:/temp/Job-5.odb,Step-1,Increment      1: Step Time =    1.000,"P-5-1",          1278,   118.656E-03,   62.9788E-03,            0.,NA,NA,"",   1.14288E+06,   1.13768E+06,   1.13768E+06
C:/temp/Job-5.odb,Step-1,Increment      1: Step Time =    1.000,"P-5-1",          1279,   111.329E-03,   60.3232E-03,            0.,NA,NA,"",   1.08268E+06,   1.11374E+06,   1.11374E+06
C:/temp/Job-5.odb,Step-1,Increment      1: Step Time =    1.000,"P-5-1",          1280,   63.9772E-03,   82.4829E-03,            0.,NA,NA,"",   968.124E+03,   968.210E+03,   968.210E+03
C:/temp/Job-5.odb,Step-1,Increment      1: Step Time =    1.000,"P-5-1",          1281,   61.3352E-03,   86.5464E-03,            0.,NA,NA,"",   891.291E+03,   909.745E+03,   909.745E+03
C:/temp/Job-5.odb,Step-1,Increment      1: Step Time =    1.000,"P-5-1",          1282,   110.382E-03,   138.974E-03,            0.,NA,NA,"",   1.08108E+06,   1.11607E+06,   1.11607E+06
C:/temp/Job-5.odb,Step-1,Increment      1: Step Time =    1.000,"P-5-1",          1283,   81.5359E-03,   137.066E-03,            0.,NA,NA,"",   1.13388E+06,   1.14027E+06,   1.14027E+06
C:/temp/Job-5.odb,Step-1,Increment      1: Step Time =    1.000,"P-5-1",          1284,   63.6991E-03,   92.7265E-03,            0.,NA,NA,"",   782.107E+03,   812.216E+03,   812.216E+03
C:/temp/Job-5.odb,Step-1,Increment      1: Step Time =    1.000,"P-5-1",          1285,   87.1448E-03,   64.5101E-03,            0.,NA,NA,"",   1.11617E+06,   1.14435E+06,   1.14435E+06
C:/temp/Job-5.odb,Step-1,Increment      1: Step Time =    1.000,"P-5-1",          1286,   63.1588E-03,   136.404E-03,            0.,NA,NA,"",   1.07820E+06,   1.07612E+06,   1.07612E+06
C:/temp/Job-5.odb,Step-1,Increment      1: Step Time =    1.000,"P-5-1",          1287,   134.608E-03,   107.643E-03,            0.,NA,NA,"",   841.315E+03,   829.128E+03,   829.128E+03
C:/temp/Job-5.odb,Step-1,Increment      1: Step Time =    1.000,"P-5-1",          1288,   104.262E-03,   58.5282E-03,            0.,NA,NA,"",   1.04133E+06,   1.09032E+06,   1.09032E+06
C:/temp/Job-5.odb,Step-1,Increment      1: Step Time =    1.000,"P-5-1",          1289,   138.380E-03,   85.9665E-03,            0.,NA,NA,"",   963.825E+03,   939.996E+03,   939.996E+03
C:/temp/Job-5.odb,Step-1,Increment      1: Step Time =    1.000,"P-5-1",          1290,   133.784E-03,   113.840E-03,            0.,NA,NA,"",   977.591E+03,   939.930E+03,   939.930E+03
C:/temp/Job-5.odb,Step-1,Increment      1: Step Time =    1.000,"P-5-1",          1291,   64.3755E-03,   63.6748E-03,            0.,NA,NA,"",   1.08505E+06,   1.08156E+06,   1.08156E+06
C:/temp/Job-5.odb,Step-1,Increment      1: Step Time =    1.000,"P-5-1",          1292,   67.5090E-03,   144.179E-03,            0.,NA,NA,"",   1.09137E+06,   1.09032E+06,   1.09032E+06
C:/temp/Job-5.odb,Step-1,Increment      1: Step Time =    1.000,"P-5-1",          1293,   135.489E-03,   63.8182E-03,            0.,NA,NA,"",   1.11648E+06,   1.08425E+06,   1.08425E+06
C:/temp/Job-5.odb,Step-1,Increment      1: Step Time =    1.000,"P-5-1",          1294,   106.495E-03,   136.126E-03,            0.,NA,NA,"",   1.06953E+06,   1.12495E+06,   1.12495E+06
C:/temp/Job-5.odb,Step-1,Increment      1: Step Time =    1.000,"P-5-1",          1295,   63.9910E-03,   112.605E-03,            0.,NA,NA,"",   888.271E+03,   899.107E+03,   899.107E+03
C:/temp/Job-5.odb,Step-1,Increment      1: Step Time =    1.000,"P-5-1",          1296,   134.884E-03,   138.580E-03,            0.,NA,NA,"",   1.11618E+06,   1.08594E+06,   1.08594E+06
C:/temp/Job-5.odb,Step-1,Increment      1: Step Time =    1.000,"P-5-1",          1297,   64.8321E-03,   98.9745E-03,            0.,NA,NA,"",   682.764E+03,   727.775E+03,   727.775E+03
C:/temp/Job-5.odb,Step-1,Increment      1: Step Time =    1.000,"P-5-1",          1298,   88.8266E-03,   139.248E-03,            0.,NA,NA,"",   1.08110E+06,   1.11856E+06,   1.11856E+06
C:/temp/Job-5.odb,Step-1,Increment      1: Step Time =    1.000,"P-5-1",          1299,   135.289E-03,   120.194E-03,            0.,NA,NA,"",   1.06683E+06,   1.02263E+06,   1.02263E+06
C:/temp/Job-5.odb,Step-1,Increment      1: Step Time =    1.000,"P-5-1",          1300,   136.408E-03,   100.702E-03,            0.,NA,NA,"",   744.404E+03,   758.944E+03,   758.944E+03
C:/temp/Job-5.odb,Step-1,Increment      1: Step Time =    1.000,"P-5-1",          1301,   95.9654E-03,   62.0658E-03,            0.,NA,NA,"",   1.05346E+06,   1.11006E+06,   1.11006E+06
C:/temp/Job-5.odb,Step-1,Increment      1: Step Time =    1.000,"P-5-1",          1302,   100.148E-03,   60.4648E-03,            0.,NA,NA,"",   1.03954E+06,   1.09669E+06,   1.09669E+06
C:/temp/Job-5.odb,Step-1,Increment      1: Step Time =    1.000,"P-5-1",          1303,   137.129E-03,   93.1963E-03,            0.,NA,NA,"",   829.857E+03,   828.992E+03,   828.992E+03
C:/temp/Job-5.odb,Step-1,Increment      1: Step Time =    1.000,"P-5-1",          1304,   129.540E-03,   60.1200E-03,            0.,NA,NA,"",   1.12725E+06,   1.10171E+06,   1.10171E+06
C:/temp/Job-5.odb,Step-1,Increment      1: Step Time =    1.000,"P-5-1",          1305,   99.8151E-03,   137.276E-03,            0.,NA,NA,"",   1.04840E+06,   1.11045E+06,   1.11045E+06
C:/temp/Job-5.odb,Step-1,Increment      1: Step Time =    1.000,"P-5-1",          1306,   64.7200E-03,   105.749E-03,            0.,NA,NA,"",   742.815E+03,   775.881E+03,   775.881E+03
C:/temp/Job-5.odb,Step-1,Increment      1: Step Time =    1.000,"P-5-1",          1307,   92.9539E-03,   136.220E-03,            0.,NA,NA,"",   1.07065E+06,   1.12709E+06,   1.12709E+06
C:/temp/Job-5.odb,Step-1,Increment      1: Step Time =    1.000,"P-5-1",          1308,   60.8150E-03,   67.5725E-03,            0.,NA,NA,"",   1.05522E+06,   1.05643E+06,   1.05643E+06
C:/temp/Job-5.odb,Step-1,Increment      1: Step Time =    1.000,"P-5-1",          1309,   61.0567E-03,   142.966E-03,            0.,NA,NA,"",   1.07096E+06,   1.07407E+06,   1.07407E+06
C:/temp/Job-5.odb,Step-1,Increment      1: Step Time =    1.000,"P-5-1",          1310,   134.604E-03,   59.0291E-03,            0.,NA,NA,"",   1.11282E+06,   1.08598E+06,   1.08598E+06
C:/temp/Job-5.odb,Step-1,Increment      1: Step Time =    1.000,"P-5-1",          1311,   140.360E-03,   139.011E-03,            0.,NA,NA,"",   1.09601E+06,   1.06888E+06,   1.06888E+06
C:/temp/Job-5.odb,Step-1,Increment      1: Step Time =    1.000,"P-5-1",          1312,   124.110E-03,   61.4071E-03,            0.,NA,NA,"",   1.13909E+06,   1.12027E+06,   1.12027E+06
C:/temp/Job-5.odb,Step-1,Increment      1: Step Time =    1.000,"P-5-1",          1313,   76.7323E-03,   139.349E-03,            0.,NA,NA,"",   1.12265E+06,   1.12158E+06,   1.12158E+06
C:/temp/Job-5.odb,Step-1,Increment      1: Step Time =    1.000,"P-5-1",          1314,   62.2870E-03,   75.2804E-03,            0.,NA,NA,"",   1.02945E+06,   1.02773E+06,   1.02773E+06
C:/temp/Job-5.odb,Step-1,Increment      1: Step Time =    1.000,"P-5-1",          1315,   136.812E-03,   127.086E-03,            0.,NA,NA,"",   1.10011E+06,   1.05944E+06,   1.05944E+06
C:/temp/Job-5.odb,Step-1,Increment      1: Step Time =    1.000,"P-5-1",          1316,   60.6775E-03,   59.6492E-03,            0.,NA,NA,"",   1.06910E+06,   1.07232E+06,   1.07232E+06
C:/temp/Job-5.odb,Step-1,Increment      1: Step Time =    1.000,"P-5-1",          1317,   64.8068E-03,   129.757E-03,            0.,NA,NA,"",   1.07618E+06,   1.06805E+06,   1.06805E+06
C:/temp/Job-5.odb,Step-1,Increment      1: Step Time =    1.000,"P-5-1",          1318,   71.6282E-03,   70.9631E-03,            0.,NA,NA,"",   1.13548E+06,   1.11322E+06,   1.11322E+06
C:/temp/Job-5.odb,Step-1,Increment      1: Step Time =    1.000,"P-5-1",          1319,   134.098E-03,   75.2622E-03,            0.,NA,NA,"",   1.11126E+06,   1.06436E+06,   1.06436E+06
C:/temp/Job-5.odb,Step-1,Increment      1: Step Time =    1.000,"P-5-1",          1320,   119.939E-03,   133.189E-03,            0.,NA,NA,"",   1.18018E+06,   1.15853E+06,   1.15853E+06
C:/temp/Job-5.odb,Step-1,Increment      1: Step Time =    1.000,"P-5-1",          1321,   126.939E-03,   132.127E-03,            0.,NA,NA,"",   1.16662E+06,   1.12641E+06,   1.12641E+06
C:/temp/Job-5.odb,Step-1,Increment      1: Step Time =    1.000,"P-5-1",          1322,   77.9462E-03,   64.8683E-03,            0.,NA,NA,"",   1.14620E+06,   1.14182E+06,   1.14182E+06
C:/temp/Job-5.odb,Step-1,Increment      1: Step Time =    1.000,"P-5-1",          1323,   66.1625E-03,   123.042E-03,            0.,NA,NA,"",   1.05085E+06,   1.03790E+06,   1.03790E+06
C:/temp/Job-5.odb,Step-1,Increment      1: Step Time =    1.000,"P-5-1",          1324,   131.424E-03,   78.3536E-03,            0.,NA,NA,"",   1.11556E+06,   1.06171E+06,   1.06171E+06
C:/temp/Job-5.odb,Step-1,Increment      1: Step Time =    1.000,"P-5-1",          1325,   113.553E-03,   65.2945E-03,            0.,NA,NA,"",   1.13716E+06,   1.15508E+06,   1.15508E+06
C:/temp/Job-5.odb,Step-1,Increment      1: Step Time =    1.000,"P-5-1",          1326,   113.100E-03,   134.523E-03,            0.,NA,NA,"",   1.13372E+06,   1.15529E+06,   1.15529E+06
C:/temp/Job-5.odb,Step-1,Increment      1: Step Time =    1.000,"P-5-1",          1327,   67.4809E-03,   133.536E-03,            0.,NA,NA,"",   1.10235E+06,   1.09231E+06,   1.09231E+06
C:/temp/Job-5.odb,Step-1,Increment      1: Step Time =    1.000,"P-5-1",          1328,   68.4582E-03,   85.4330E-03,            0.,NA,NA,"",   957.982E+03,   943.798E+03,   943.798E+03
C:/temp/Job-5.odb,Step-1,Increment      1: Step Time =    1.000,"P-5-1",          1329,   88.4433E-03,   69.8119E-03,            0.,NA,NA,"",   1.15564E+06,   1.18899E+06,   1.18899E+06
C:/temp/Job-5.odb,Step-1,Increment      1: Step Time =    1.000,"P-5-1",          1330,   68.2059E-03,   67.3992E-03,            0.,NA,NA,"",   1.10685E+06,   1.09456E+06,   1.09456E+06
C:/temp/Job-5.odb,Step-1,Increment      1: Step Time =    1.000,"P-5-1",          1331,   65.9325E-03,   89.1643E-03,            0.,NA,NA,"",   850.694E+03,   862.316E+03,   862.316E+03
C:/temp/Job-5.odb,Step-1,Increment      1: Step Time =    1.000,"P-5-1",          1332,   108.688E-03,   67.6930E-03,            0.,NA,NA,"",   1.11721E+06,   1.16759E+06,   1.16759E+06
C:/temp/Job-5.odb,Step-1,Increment      1: Step Time =    1.000,"P-5-1",          1333,   132.930E-03,   72.4085E-03,            0.,NA,NA,"",   1.12547E+06,   1.08022E+06,   1.08022E+06
C:/temp/Job-5.odb,Step-1,Increment      1: Step Time =    1.000,"P-5-1",          1334,   130.505E-03,   85.3441E-03,            0.,NA,NA,"",   1.03090E+06,   974.431E+03,   974.431E+03
C:/temp/Job-5.odb,Step-1,Increment      1: Step Time =    1.000,"P-5-1",          1335,   134.197E-03,   131.293E-03,            0.,NA,NA,"",   1.12612E+06,   1.08603E+06,   1.08603E+06
C:/temp/Job-5.odb,Step-1,Increment      1: Step Time =    1.000,"P-5-1",          1336,   67.4393E-03,   116.282E-03,            0.,NA,NA,"",   982.847E+03,   970.004E+03,   970.004E+03
C:/temp/Job-5.odb,Step-1,Increment      1: Step Time =    1.000,"P-5-1",          1337,   109.048E-03,   131.680E-03,            0.,NA,NA,"",   1.12329E+06,   1.17318E+06,   1.17318E+06
C:/temp/Job-5.odb,Step-1,Increment      1: Step Time =    1.000,"P-5-1",          1338,   67.9410E-03,   95.6922E-03,            0.,NA,NA,"",   701.409E+03,   731.615E+03,   731.615E+03
C:/temp/Job-5.odb,Step-1,Increment      1: Step Time =    1.000,"P-5-1",          1339,   130.266E-03,   110.657E-03,            0.,NA,NA,"",   932.560E+03,   887.449E+03,   887.449E+03
C:/temp/Job-5.odb,Step-1,Increment      1: Step Time =    1.000,"P-5-1",          1340,   85.9988E-03,   134.388E-03,            0.,NA,NA,"",   1.13424E+06,   1.15863E+06,   1.15863E+06
C:/temp/Job-5.odb,Step-1,Increment      1: Step Time =    1.000,"P-5-1",          1341,   139.094E-03,   134.712E-03,            0.,NA,NA,"",   1.10217E+06,   1.07029E+06,   1.07029E+06
C:/temp/Job-5.odb,Step-1,Increment      1: Step Time =    1.000,"P-5-1",          1342,   65.0627E-03,   71.2091E-03,            0.,NA,NA,"",   1.07474E+06,   1.06545E+06,   1.06545E+06
C:/temp/Job-5.odb,Step-1,Increment      1: Step Time =    1.000,"P-5-1",          1343,   131.457E-03,   103.736E-03,            0.,NA,NA,"",   699.957E+03,   702.685E+03,   702.685E+03
C:/temp/Job-5.odb,Step-1,Increment      1: Step Time =    1.000,"P-5-1",          1344,   131.039E-03,   117.312E-03,            0.,NA,NA,"",   1.06554E+06,   1.01041E+06,   1.01041E+06
C:/temp/Job-5.odb,Step-1,Increment      1: Step Time =    1.000,"P-5-1",          1345,   93.1794E-03,   68.4097E-03,            0.,NA,NA,"",   1.10471E+06,   1.16568E+06,   1.16568E+06
C:/temp/Job-5.odb,Step-1,Increment      1: Step Time =    1.000,"P-5-1",          1346,   102.107E-03,   65.1369E-03,            0.,NA,NA,"",   1.05670E+06,   1.12592E+06,   1.12592E+06
C:/temp/Job-5.odb,Step-1,Increment      1: Step Time =    1.000,"P-5-1",          1347,   133.733E-03,   89.1986E-03,            0.,NA,NA,"",   905.091E+03,   880.279E+03,   880.279E+03
C:/temp/Job-5.odb,Step-1,Increment      1: Step Time =    1.000,"P-5-1",          1348,   99.8114E-03,   131.279E-03,            0.,NA,NA,"",   1.07922E+06,   1.15877E+06,   1.15877E+06
C:/temp/Job-5.odb,Step-1,Increment      1: Step Time =    1.000,"P-5-1",          1349,   68.5110E-03,   109.412E-03,            0.,NA,NA,"",   841.336E+03,   841.764E+03,   841.764E+03
C:/temp/Job-5.odb,Step-1,Increment      1: Step Time =    1.000,"P-5-1",          1350,   68.8557E-03,   102.435E-03,            0.,NA,NA,"",   624.893E+03,   661.195E+03,   661.195E+03
C:/temp/Job-5.odb,Step-1,Increment      1: Step Time =    1.000,"P-5-1",          1351,   90.3465E-03,   131.615E-03,            0.,NA,NA,"",   1.12573E+06,   1.17663E+06,   1.17663E+06
C:/temp/Job-5.odb,Step-1,Increment      1: Step Time =    1.000,"P-5-1",          1352,   132.541E-03,   96.5354E-03,            0.,NA,NA,"",   729.683E+03,   735.089E+03,   735.089E+03
C:/temp/Job-5.odb,Step-1,Increment      1: Step Time =    1.000,"P-5-1",          1353,   97.6786E-03,   66.8697E-03,            0.,NA,NA,"",   1.06817E+06,   1.14106E+06,   1.14106E+06
C:/temp/Job-5.odb,Step-1,Increment      1: Step Time =    1.000,"P-5-1",          1354,   96.7084E-03,   133.397E-03,            0.,NA,NA,"",   1.06919E+06,   1.14121E+06,   1.14121E+06
C:/temp/Job-5.odb,Step-1,Increment      1: Step Time =    1.000,"P-5-1",          1355,   129.803E-03,   128.101E-03,            0.,NA,NA,"",   1.15567E+06,   1.10635E+06,   1.10635E+06
C:/temp/Job-5.odb,Step-1,Increment      1: Step Time =    1.000,"P-5-1",          1356,   69.1176E-03,   74.5728E-03,            0.,NA,NA,"",   1.10276E+06,   1.07995E+06,   1.07995E+06
C:/temp/Job-5.odb,Step-1,Increment      1: Step Time =    1.000,"P-5-1",          1357,   120.320E-03,   68.3433E-03,            0.,NA,NA,"",   1.19006E+06,   1.16472E+06,   1.16472E+06
C:/temp/Job-5.odb,Step-1,Increment      1: Step Time =    1.000,"P-5-1",          1358,   66.5560E-03,   78.4441E-03,            0.,NA,NA,"",   1.04269E+06,   1.02801E+06,   1.02801E+06
C:/temp/Job-5.odb,Step-1,Increment      1: Step Time =    1.000,"P-5-1",          1359,   78.9757E-03,   132.300E-03,            0.,NA,NA,"",   1.16955E+06,   1.15750E+06,   1.15750E+06
C:/temp/Job-5.odb,Step-1,Increment      1: Step Time =    1.000,"P-5-1",          1360,   132.539E-03,   124.144E-03,            0.,NA,NA,"",   1.11947E+06,   1.06922E+06,   1.06922E+06
C:/temp/Job-5.odb,Step-1,Increment      1: Step Time =    1.000,"P-5-1",          1361,   69.8903E-03,   137.526E-03,            0.,NA,NA,"",   1.11218E+06,   1.10427E+06,   1.10427E+06
C:/temp/Job-5.odb,Step-1,Increment      1: Step Time =    1.000,"P-5-1",          1362,   130.637E-03,   64.9441E-03,            0.,NA,NA,"",   1.14021E+06,   1.10538E+06,   1.10538E+06
C:/temp/Job-5.odb,Step-1,Increment      1: Step Time =    1.000,"P-5-1",          1363,   69.1343E-03,   126.811E-03,            0.,NA,NA,"",   1.10537E+06,   1.08490E+06,   1.08490E+06
C:/temp/Job-5.odb,Step-1,Increment      1: Step Time =    1.000,"P-5-1",          1364,   75.7302E-03,   73.6354E-03,            0.,NA,NA,"",   1.18007E+06,   1.14648E+06,   1.14648E+06
C:/temp/Job-5.odb,Step-1,Increment      1: Step Time =    1.000,"P-5-1",          1365,   128.694E-03,   74.9243E-03,            0.,NA,NA,"",   1.16114E+06,   1.10502E+06,   1.10502E+06
C:/temp/Job-5.odb,Step-1,Increment      1: Step Time =    1.000,"P-5-1",          1366,   122.733E-03,   128.972E-03,            0.,NA,NA,"",   1.20002E+06,   1.15705E+06,   1.15705E+06
C:/temp/Job-5.odb,Step-1,Increment      1: Step Time =    1.000,"P-5-1",          1367,   71.8770E-03,   130.744E-03,            0.,NA,NA,"",   1.13487E+06,   1.11531E+06,   1.11531E+06
C:/temp/Job-5.odb,Step-1,Increment      1: Step Time =    1.000,"P-5-1",          1368,   115.773E-03,   130.117E-03,            0.,NA,NA,"",   1.20216E+06,   1.19359E+06,   1.19359E+06
C:/temp/Job-5.odb,Step-1,Increment      1: Step Time =    1.000,"P-5-1",          1369,   126.863E-03,   71.0745E-03,            0.,NA,NA,"",   1.17431E+06,   1.12677E+06,   1.12677E+06
C:/temp/Job-5.odb,Step-1,Increment      1: Step Time =    1.000,"P-5-1",          1370,   83.0621E-03,   71.2797E-03,            0.,NA,NA,"",   1.19722E+06,   1.19402E+06,   1.19402E+06
C:/temp/Job-5.odb,Step-1,Increment      1: Step Time =    1.000,"P-5-1",          1371,   127.066E-03,   81.7286E-03,            0.,NA,NA,"",   1.14215E+06,   1.06829E+06,   1.06829E+06
C:/temp/Job-5.odb,Step-1,Increment      1: Step Time =    1.000,"P-5-1",          1372,   70.6145E-03,   120.039E-03,            0.,NA,NA,"",   1.07906E+06,   1.04708E+06,   1.04708E+06
C:/temp/Job-5.odb,Step-1,Increment      1: Step Time =    1.000,"P-5-1",          1373,   110.591E-03,   72.5003E-03,            0.,NA,NA,"",   1.20233E+06,   1.23470E+06,   1.23470E+06
C:/temp/Job-5.odb,Step-1,Increment      1: Step Time =    1.000,"P-5-1",          1374,   73.0360E-03,   88.4681E-03,            0.,NA,NA,"",   915.016E+03,   883.597E+03,   883.597E+03
C:/temp/Job-5.odb,Step-1,Increment      1: Step Time =    1.000,"P-5-1",          1375,   111.517E-03,   127.203E-03,            0.,NA,NA,"",   1.20889E+06,   1.23628E+06,   1.23628E+06
C:/temp/Job-5.odb,Step-1,Increment      1: Step Time =    1.000,"P-5-1",          1376,   70.5466E-03,   92.1500E-03,            0.,NA,NA,"",   785.849E+03,   786.743E+03,   786.743E+03
C:/temp/Job-5.odb,Step-1,Increment      1: Step Time =    1.000,"P-5-1",          1377,   90.4186E-03,   74.9227E-03,            0.,NA,NA,"",   1.21192E+06,   1.25842E+06,   1.25842E+06
C:/temp/Job-5.odb,Step-1,Increment      1: Step Time =    1.000,"P-5-1",          1378,   105.916E-03,   74.6991E-03,            0.,NA,NA,"",   1.20343E+06,   1.28527E+06,   1.28527E+06
C:/temp/Job-5.odb,Step-1,Increment      1: Step Time =    1.000,"P-5-1",          1379,   125.781E-03,   88.9472E-03,            0.,NA,NA,"",   955.096E+03,   884.596E+03,   884.596E+03
C:/temp/Job-5.odb,Step-1,Increment      1: Step Time =    1.000,"P-5-1",          1380,   126.883E-03,   114.147E-03,            0.,NA,NA,"",   1.05697E+06,   982.433E+03,   982.433E+03
C:/temp/Job-5.odb,Step-1,Increment      1: Step Time =    1.000,"P-5-1",          1381,   72.0502E-03,   113.173E-03,            0.,NA,NA,"",   973.913E+03,   939.398E+03,   939.398E+03
C:/temp/Job-5.odb,Step-1,Increment      1: Step Time =    1.000,"P-5-1",          1382,   104.888E-03,   129.063E-03,            0.,NA,NA,"",   1.10980E+06,   1.18903E+06,   1.18903E+06
C:/temp/Job-5.odb,Step-1,Increment      1: Step Time =    1.000,"P-5-1",          1383,   72.3986E-03,   98.9494E-03,            0.,NA,NA,"",   550.520E+03,   581.505E+03,   581.505E+03
C:/temp/Job-5.odb,Step-1,Increment      1: Step Time =    1.000,"P-5-1",          1384,   87.9391E-03,   126.940E-03,            0.,NA,NA,"",   1.20935E+06,   1.23810E+06,   1.23810E+06
C:/temp/Job-5.odb,Step-1,Increment      1: Step Time =    1.000,"P-5-1",          1385,   127.734E-03,   99.8484E-03,            0.,NA,NA,"",   585.048E+03,   592.169E+03,   592.169E+03
C:/temp/Job-5.odb,Step-1,Increment      1: Step Time =    1.000,"P-5-1",          1386,   94.9964E-03,   73.3588E-03,            0.,NA,NA,"",   1.15156E+06,   1.23282E+06,   1.23282E+06
C:/temp/Job-5.odb,Step-1,Increment      1: Step Time =    1.000,"P-5-1",          1387,   129.101E-03,   92.6531E-03,            0.,NA,NA,"",   800.477E+03,   774.596E+03,   774.596E+03
C:/temp/Job-5.odb,Step-1,Increment      1: Step Time =    1.000,"P-5-1",          1388,   99.5040E-03,   71.7060E-03,            0.,NA,NA,"",   1.10197E+06,   1.19576E+06,   1.19576E+06
C:/temp/Job-5.odb,Step-1,Increment      1: Step Time =    1.000,"P-5-1",          1389,   72.9803E-03,   106.084E-03,            0.,NA,NA,"",   711.228E+03,   706.463E+03,   706.463E+03
C:/temp/Job-5.odb,Step-1,Increment      1: Step Time =    1.000,"P-5-1",          1390,   99.8283E-03,   126.808E-03,            0.,NA,NA,"",   1.12622E+06,   1.22194E+06,   1.22194E+06
C:/temp/Job-5.odb,Step-1,Increment      1: Step Time =    1.000,"P-5-1",          1391,   94.6746E-03,   129.041E-03,            0.,NA,NA,"",   1.11234E+06,   1.19155E+06,   1.19155E+06
C:/temp/Job-5.odb,Step-1,Increment      1: Step Time =    1.000,"P-5-1",          1392,   115.406E-03,   70.3648E-03,            0.,NA,NA,"",   1.20357E+06,   1.19625E+06,   1.19625E+06
C:/temp/Job-5.odb,Step-1,Increment      1: Step Time =    1.000,"P-5-1",          1393,   70.9606E-03,   81.5201E-03,            0.,NA,NA,"",   1.06112E+06,   1.02746E+06,   1.02746E+06
C:/temp/Job-5.odb,Step-1,Increment      1: Step Time =    1.000,"P-5-1",          1394,   128.253E-03,   121.073E-03,            0.,NA,NA,"",   1.14830E+06,   1.08196E+06,   1.08196E+06
C:/temp/Job-5.odb,Step-1,Increment      1: Step Time =    1.000,"P-5-1",          1395,   83.4213E-03,   129.662E-03,            0.,NA,NA,"",   1.19738E+06,   1.19393E+06,   1.19393E+06
C:/temp/Job-5.odb,Step-1,Increment      1: Step Time =    1.000,"P-5-1",          1396,   125.395E-03,   66.4725E-03,            0.,NA,NA,"",   1.16570E+06,   1.13228E+06,   1.13228E+06
C:/temp/Job-5.odb,Step-1,Increment      1: Step Time =    1.000,"P-5-1",          1397,   76.3300E-03,   127.962E-03,            0.,NA,NA,"",   1.17293E+06,   1.14603E+06,   1.14603E+06
C:/temp/Job-5.odb,Step-1,Increment      1: Step Time =    1.000,"P-5-1",          1398,   121.129E-03,   121.722E-03,            0.,NA,NA,"",   1.24533E+06,   1.17138E+06,   1.17138E+06
C:/temp/Job-5.odb,Step-1,Increment      1: Step Time =    1.000,"P-5-1",          1399,   78.1580E-03,   120.975E-03,            0.,NA,NA,"",   1.20200E+06,   1.14726E+06,   1.14726E+06
C:/temp/Job-5.odb,Step-1,Increment      1: Step Time =    1.000,"P-5-1",          1400,   77.7586E-03,   80.3932E-03,            0.,NA,NA,"",   1.20535E+06,   1.13799E+06,   1.13799E+06
C:/temp/Job-5.odb,Step-1,Increment      1: Step Time =    1.000,"P-5-1",          1401,   122.028E-03,   73.3316E-03,            0.,NA,NA,"",   1.21395E+06,   1.16606E+06,   1.16606E+06
C:/temp/Job-5.odb,Step-1,Increment      1: Step Time =    1.000,"P-5-1",          1402,   124.090E-03,   77.8600E-03,            0.,NA,NA,"",   1.19910E+06,   1.13179E+06,   1.13179E+06
C:/temp/Job-5.odb,Step-1,Increment      1: Step Time =    1.000,"P-5-1",          1403,   114.014E-03,   122.720E-03,            0.,NA,NA,"",   1.29144E+06,   1.26658E+06,   1.26658E+06
C:/temp/Job-5.odb,Step-1,Increment      1: Step Time =    1.000,"P-5-1",          1404,   107.890E-03,   79.5700E-03,            0.,NA,NA,"",   1.35148E+06,   1.41097E+06,   1.41097E+06
C:/temp/Job-5.odb,Step-1,Increment      1: Step Time =    1.000,"P-5-1",          1405,   83.0035E-03,   78.3507E-03,            0.,NA,NA,"",   1.29178E+06,   1.24427E+06,   1.24427E+06
C:/temp/Job-5.odb,Step-1,Increment      1: Step Time =    1.000,"P-5-1",          1406,   77.6695E-03,   91.5516E-03,            0.,NA,NA,"",   858.291E+03,   792.726E+03,   792.726E+03
C:/temp/Job-5.odb,Step-1,Increment      1: Step Time =    1.000,"P-5-1",          1407,   122.260E-03,   85.2291E-03,            0.,NA,NA,"",   1.17460E+06,   1.06927E+06,   1.06927E+06
C:/temp/Job-5.odb,Step-1,Increment      1: Step Time =    1.000,"P-5-1",          1408,   75.2062E-03,   117.033E-03,            0.,NA,NA,"",   1.10018E+06,   1.04750E+06,   1.04750E+06
C:/temp/Job-5.odb,Step-1,Increment      1: Step Time =    1.000,"P-5-1",          1409,   107.151E-03,   124.576E-03,            0.,NA,NA,"",   1.22143E+06,   1.29461E+06,   1.29461E+06
C:/temp/Job-5.odb,Step-1,Increment      1: Step Time =    1.000,"P-5-1",          1410,   75.2429E-03,   95.3255E-03,            0.,NA,NA,"",   636.006E+03,   633.803E+03,   633.803E+03
C:/temp/Job-5.odb,Step-1,Increment      1: Step Time =    1.000,"P-5-1",          1411,   122.635E-03,   110.748E-03,            0.,NA,NA,"",   1.03888E+06,   934.472E+03,   934.472E+03
C:/temp/Job-5.odb,Step-1,Increment      1: Step Time =    1.000,"P-5-1",          1412,   122.672E-03,   103.337E-03,            0.,NA,NA,"",   554.573E+03,   494.807E+03,   494.807E+03
C:/temp/Job-5.odb,Step-1,Increment      1: Step Time =    1.000,"P-5-1",          1413,   101.405E-03,   76.6293E-03,            0.,NA,NA,"",   1.19841E+06,   1.31437E+06,   1.31437E+06
C:/temp/Job-5.odb,Step-1,Increment      1: Step Time =    1.000,"P-5-1",          1414,   121.357E-03,   92.4852E-03,            0.,NA,NA,"",   830.053E+03,   727.367E+03,   727.367E+03
C:/temp/Job-5.odb,Step-1,Increment      1: Step Time =    1.000,"P-5-1",          1415,   76.8262E-03,   109.989E-03,            0.,NA,NA,"",   953.356E+03,   885.911E+03,   885.911E+03
C:/temp/Job-5.odb,Step-1,Increment      1: Step Time =    1.000,"P-5-1",          1416,   102.966E-03,   122.407E-03,            0.,NA,NA,"",   1.23315E+06,   1.34370E+06,   1.34370E+06
C:/temp/Job-5.odb,Step-1,Increment      1: Step Time =    1.000,"P-5-1",          1417,   77.1936E-03,   102.523E-03,            0.,NA,NA,"",   495.772E+03,   468.819E+03,   468.819E+03
C:/temp/Job-5.odb,Step-1,Increment      1: Step Time =    1.000,"P-5-1",          1418,   124.371E-03,   96.0916E-03,            0.,NA,NA,"",    622.42E+03,   600.132E+03,   600.132E+03
C:/temp/Job-5.odb,Step-1,Increment      1: Step Time =    1.000,"P-5-1",          1419,   96.9013E-03,   78.2609E-03,            0.,NA,NA,"",   1.23662E+06,   1.34991E+06,   1.34991E+06
C:/temp/Job-5.odb,Step-1,Increment      1: Step Time =    1.000,"P-5-1",          1420,   92.4635E-03,   124.460E-03,            0.,NA,NA,"",   1.22509E+06,   1.29765E+06,   1.29765E+06
C:/temp/Job-5.odb,Step-1,Increment      1: Step Time =    1.000,"P-5-1",          1421,   96.7742E-03,   122.355E-03,            0.,NA,NA,"",   1.23731E+06,   1.34702E+06,   1.34702E+06
C:/temp/Job-5.odb,Step-1,Increment      1: Step Time =    1.000,"P-5-1",          1422,   73.3800E-03,   77.5977E-03,            0.,NA,NA,"",   1.13921E+06,   1.09912E+06,   1.09912E+06
C:/temp/Job-5.odb,Step-1,Increment      1: Step Time =    1.000,"P-5-1",          1423,   125.502E-03,   124.966E-03,            0.,NA,NA,"",   1.19106E+06,   1.13049E+06,   1.13049E+06
C:/temp/Job-5.odb,Step-1,Increment      1: Step Time =    1.000,"P-5-1",          1424,   112.371E-03,   77.0389E-03,            0.,NA,NA,"",   1.28659E+06,   1.27876E+06,   1.27876E+06
C:/temp/Job-5.odb,Step-1,Increment      1: Step Time =    1.000,"P-5-1",          1425,   75.4594E-03,   84.4835E-03,            0.,NA,NA,"",   1.07382E+06,   1.01580E+06,   1.01580E+06
C:/temp/Job-5.odb,Step-1,Increment      1: Step Time =    1.000,"P-5-1",          1426,   123.917E-03,   117.892E-03,            0.,NA,NA,"",   1.16624E+06,   1.08383E+06,   1.08383E+06
C:/temp/Job-5.odb,Step-1,Increment      1: Step Time =    1.000,"P-5-1",          1427,   85.4892E-03,   122.334E-03,            0.,NA,NA,"",   1.28031E+06,   1.25967E+06,   1.25967E+06
C:/temp/Job-5.odb,Step-1,Increment      1: Step Time =    1.000,"P-5-1",          1428,   116.594E-03,   118.511E-03,            0.,NA,NA,"",   1.32286E+06,   1.22706E+06,   1.22706E+06
C:/temp/Job-5.odb,Step-1,Increment      1: Step Time =    1.000,"P-5-1",          1429,   82.7568E-03,   82.8751E-03,            0.,NA,NA,"",   1.29066E+06,   1.20519E+06,   1.20519E+06
C:/temp/Job-5.odb,Step-1,Increment      1: Step Time =    1.000,"P-5-1",          1430,   118.344E-03,   81.3129E-03,            0.,NA,NA,"",   1.30921E+06,   1.21934E+06,   1.21934E+06
C:/temp/Job-5.odb,Step-1,Increment      1: Step Time =    1.000,"P-5-1",          1431,   82.9010E-03,   118.035E-03,            0.,NA,NA,"",   1.28751E+06,   1.20420E+06,   1.20420E+06
C:/temp/Job-5.odb,Step-1,Increment      1: Step Time =    1.000,"P-5-1",          1432,   80.0151E-03,   113.982E-03,            0.,NA,NA,"",   1.18374E+06,   1.07763E+06,   1.07763E+06
C:/temp/Job-5.odb,Step-1,Increment      1: Step Time =    1.000,"P-5-1",          1433,   118.042E-03,   89.0744E-03,            0.,NA,NA,"",   1.07643E+06,   929.246E+03,   929.246E+03
C:/temp/Job-5.odb,Step-1,Increment      1: Step Time =    1.000,"P-5-1",          1434,   119.438E-03,   114.588E-03,            0.,NA,NA,"",   1.24911E+06,   1.11772E+06,   1.11772E+06
C:/temp/Job-5.odb,Step-1,Increment      1: Step Time =    1.000,"P-5-1",          1435,   85.6462E-03,   86.5380E-03,            0.,NA,NA,"",   1.23699E+06,   1.14604E+06,   1.14604E+06
C:/temp/Job-5.odb,Step-1,Increment      1: Step Time =    1.000,"P-5-1",          1436,   109.363E-03,   119.802E-03,            0.,NA,NA,"",   1.36501E+06,   1.40906E+06,   1.40906E+06
C:/temp/Job-5.odb,Step-1,Increment      1: Step Time =    1.000,"P-5-1",          1437,   92.1760E-03,   79.8297E-03,            0.,NA,NA,"",   1.34311E+06,   1.40074E+06,   1.40074E+06
C:/temp/Job-5.odb,Step-1,Increment      1: Step Time =    1.000,"P-5-1",          1438,   90.3019E-03,   119.600E-03,            0.,NA,NA,"",   1.36103E+06,   1.40443E+06,   1.40443E+06
C:/temp/Job-5.odb,Step-1,Increment      1: Step Time =    1.000,"P-5-1",          1439,   113.780E-03,   80.6737E-03,            0.,NA,NA,"",   1.33923E+06,   1.28359E+06,   1.28359E+06
C:/temp/Job-5.odb,Step-1,Increment      1: Step Time =    1.000,"P-5-1",          1440,   5.64142E-03,   5.62705E-03,            0.,NA,NA,"",   1.30322E+06,   1.35346E+06,   1.35346E+06
C:/temp/Job-5.odb,Step-1,Increment      1: Step Time =    1.000,"P-5-1",          1441,   99.9532E-03,   116.904E-03,            0.,NA,NA,"",   1.67955E+06,   1.79748E+06,   1.79748E+06
C:/temp/Job-5.odb,Step-1,Increment      1: Step Time =    1.000,"P-5-1",          1442,   114.640E-03,   111.153E-03,            0.,NA,NA,"",   1.14316E+06,   1.00667E+06,   1.00667E+06
C:/temp/Job-5.odb,Step-1,Increment      1: Step Time =    1.000,"P-5-1",          1443,   116.812E-03,   95.6108E-03,            0.,NA,NA,"",   622.785E+03,   279.542E+03,   279.542E+03
C:/temp/Job-5.odb,Step-1,Increment      1: Step Time =    1.000,"P-5-1",          1444,   85.1339E-03,   110.852E-03,            0.,NA,NA,"",   1.09255E+06,   973.583E+03,   973.583E+03
C:/temp/Job-5.odb,Step-1,Increment      1: Step Time =    1.000,"P-5-1",          1445,   82.5895E-03,   94.6572E-03,            0.,NA,NA,"",   668.253E+03,   388.251E+03,   388.251E+03
C:/temp/Job-5.odb,Step-1,Increment      1: Step Time =    1.000,"P-5-1",          1446,   110.489E-03,   84.0386E-03,            0.,NA,NA,"",   1.38579E+06,   1.38512E+06,   1.38512E+06
C:/temp/Job-5.odb,Step-1,Increment      1: Step Time =    1.000,"P-5-1",          1447,   98.7570E-03,   83.0921E-03,            0.,NA,NA,"",   1.70943E+06,   1.82811E+06,   1.82811E+06
C:/temp/Job-5.odb,Step-1,Increment      1: Step Time =    1.000,"P-5-1",          1448,   79.9767E-03,   87.3939E-03,            0.,NA,NA,"",   1.09318E+06,   982.705E+03,   982.705E+03
C:/temp/Job-5.odb,Step-1,Increment      1: Step Time =    1.000,"P-5-1",          1449,   87.7607E-03,   81.2757E-03,            0.,NA,NA,"",   1.39002E+06,   1.37047E+06,   1.37047E+06
C:/temp/Job-5.odb,Step-1,Increment      1: Step Time =    1.000,"P-5-1",          1450,   99.9012E-03,   120.622E-03,            0.,NA,NA,"",   1.24375E+06,   1.37624E+06,   1.37624E+06
C:/temp/Job-5.odb,Step-1,Increment      1: Step Time =    1.000,"P-5-1",          1451,   126.676E-03,   107.122E-03,            0.,NA,NA,"",   797.281E+03,   753.524E+03,   753.524E+03
C:/temp/Job-5.odb,Step-1,Increment      1: Step Time =    1.000,"P-5-1",          1452,   117.085E-03,   75.4258E-03,            0.,NA,NA,"",   1.26517E+06,   1.22381E+06,   1.22381E+06
C:/temp/Job-5.odb,Step-1,Increment      1: Step Time =    1.000,"P-5-1",          1453,   118.443E-03,   125.849E-03,            0.,NA,NA,"",   1.25588E+06,   1.20783E+06,   1.20783E+06
C:/temp/Job-5.odb,Step-1,Increment      1: Step Time =    1.000,"P-5-1",          1454,   104.026E-03,   69.8238E-03,            0.,NA,NA,"",   1.09160E+06,   1.17273E+06,   1.17273E+06
C:/temp/Job-5.odb,Step-1,Increment      1: Step Time =    1.000,"P-5-1",          1455,   80.8179E-03,   125.204E-03,            0.,NA,NA,"",   1.23527E+06,   1.19800E+06,   1.19800E+06
C:/temp/Job-5.odb,Step-1,Increment      1: Step Time =    1.000,"P-5-1",          1456,   79.7886E-03,   75.9772E-03,            0.,NA,NA,"",   1.24132E+06,   1.19748E+06,   1.19748E+06
C:/temp/Job-5.odb,Step-1,Increment      1: Step Time =    1.000,"P-5-1",          1457,   86.2132E-03,   76.5362E-03,            0.,NA,NA,"",   1.26598E+06,   1.26179E+06,   1.26179E+06
C:/temp/Job-5.odb,Step-1,Increment      1: Step Time =    1.000,"P-5-1",          1458,   106.607E-03,   62.9707E-03,            0.,NA,NA,"",   1.06488E+06,   1.11819E+06,   1.11819E+06
C:/temp/Job-5.odb,Step-1,Increment      1: Step Time =    1.000,"P-5-1",          1459,   102.857E-03,   133.388E-03,            0.,NA,NA,"",   1.06826E+06,   1.14011E+06,   1.14011E+06
C:/temp/Job-5.odb,Step-1,Increment      1: Step Time =    1.000,"P-5-1",          1460,   146.986E-03,   108.925E-03,            0.,NA,NA,"",   899.733E+03,   902.130E+03,   902.130E+03
C:/temp/Job-5.odb,Step-1,Increment      1: Step Time =    1.000,"P-5-1",          1461,   136.124E-03,   111.007E-03,            0.,NA,NA,"",   918.953E+03,   896.728E+03,   896.728E+03
C:/temp/Job-5.odb,Step-1,Increment      1: Step Time =    1.000,"P-5-1",          1462,   73.5414E-03,   123.937E-03,            0.,NA,NA,"",   1.14290E+06,   1.10708E+06,   1.10708E+06
C:/temp/Job-5.odb,Step-1,Increment      1: Step Time =    1.000,"P-5-1",          1463,   77.6787E-03,   69.4231E-03,            0.,NA,NA,"",   1.17339E+06,   1.15550E+06,   1.15550E+06
C:/temp/Job-5.odb,Step-1,Increment      1: Step Time =    1.000,"P-5-1",          1464,   74.4105E-03,   134.955E-03,            0.,NA,NA,"",   1.13750E+06,   1.12650E+06,   1.12650E+06
C:/temp/Job-5.odb,Step-1,Increment      1: Step Time =    1.000,"P-5-1",          1465,   91.6229E-03,   63.4191E-03,            0.,NA,NA,"",   1.08280E+06,   1.12863E+06,   1.12863E+06
C:/temp/Job-5.odb,Step-1,Increment      1: Step Time =    1.000,"P-5-1",          1466,   131.796E-03,   69.2326E-03,            0.,NA,NA,"",   1.13922E+06,   1.09758E+06,   1.09758E+06
C:/temp/Job-5.odb,Step-1,Increment      1: Step Time =    1.000,"P-5-1",          1467,   73.9044E-03,   68.1631E-03,            0.,NA,NA,"",   1.14859E+06,   1.12981E+06,   1.12981E+06
C:/temp/Job-5.odb,Step-1,Increment      1: Step Time =    1.000,"P-5-1",          1468,   155.161E-03,   21.7550E-03,            0.,NA,NA,"",   1.01159E+06,   1.00794E+06,   1.00794E+06
C:/temp/Job-5.odb,Step-1,Increment      1: Step Time =    1.000,"P-5-1",          1469,   143.979E-03,   71.1164E-03,            0.,NA,NA,"",   1.06775E+06,   1.03957E+06,   1.03957E+06
C:/temp/Job-5.odb,Step-1,Increment      1: Step Time =    1.000,"P-5-1",          1470,   94.3643E-03,   57.3089E-03,            0.,NA,NA,"",   1.04570E+06,   1.08957E+06,   1.08957E+06
C:/temp/Job-5.odb,Step-1,Increment      1: Step Time =    1.000,"P-5-1",          1471,   147.736E-03,   126.189E-03,            0.,NA,NA,"",   1.04062E+06,   1.01817E+06,   1.01817E+06
C:/temp/Job-5.odb,Step-1,Increment      1: Step Time =    1.000,"P-5-1",          1472,   75.5180E-03,   150.280E-03,            0.,NA,NA,"",   1.07876E+06,   1.08550E+06,   1.08550E+06
C:/temp/Job-5.odb,Step-1,Increment      1: Step Time =    1.000,"P-5-1",          1473,   149.779E-03,   27.3977E-03,            0.,NA,NA,"",   1.02109E+06,   1.01564E+06,   1.01564E+06
C:/temp/Job-5.odb,Step-1,Increment      1: Step Time =    1.000,"P-5-1",          1474,   94.0747E-03,   155.742E-03,            0.,NA,NA,"",   1.02188E+06,   1.04906E+06,   1.04906E+06
C:/temp/Job-5.odb,Step-1,Increment      1: Step Time =    1.000,"P-5-1",          1475,   55.4747E-03,   76.5228E-03,            0.,NA,NA,"",   969.592E+03,   989.176E+03,   989.176E+03
C:/temp/Job-5.odb,Step-1,Increment      1: Step Time =    1.000,"P-5-1",          1476,   65.4275E-03,   140.264E-03,            0.,NA,NA,"",   1.08928E+06,   1.08683E+06,   1.08683E+06
C:/temp/Job-5.odb,Step-1,Increment      1: Step Time =    1.000,"P-5-1",          1477,   159.072E-03,   43.5098E-03,            0.,NA,NA,"",   1.03678E+06,   1.02730E+06,   1.02730E+06
C:/temp/Job-5.odb,Step-1,Increment      1: Step Time =    1.000,"P-5-1",          1478,   172.428E-03,   160.618E-03,            0.,NA,NA,"",   1.01555E+06,   1.01250E+06,   1.01250E+06
C:/temp/Job-5.odb,Step-1,Increment      1: Step Time =    1.000,"P-5-1",          1479,   39.6742E-03,   172.248E-03,            0.,NA,NA,"",   1.04436E+06,   1.06113E+06,   1.06113E+06
C:/temp/Job-5.odb,Step-1,Increment      1: Step Time =    1.000,"P-5-1",          1480,   139.307E-03,   62.0849E-03,            0.,NA,NA,"",   1.10063E+06,   1.07136E+06,   1.07136E+06
C:/temp/Job-5.odb,Step-1,Increment      1: Step Time =    1.000,"P-5-1",          1481,   145.142E-03,   24.1639E-03,            0.,NA,NA,"",   1.01614E+06,   1.01167E+06,   1.01167E+06
C:/temp/Job-5.odb,Step-1,Increment      1: Step Time =    1.000,"P-5-1",          1482,   47.4643E-03,   176.312E-03,            0.,NA,NA,"",   1.04184E+06,   1.04832E+06,   1.04832E+06
C:/temp/Job-5.odb,Step-1,Increment      1: Step Time =    1.000,"P-5-1",          1483,   24.1763E-03,   41.7563E-03,            0.,NA,NA,"",   974.562E+03,   1.03425E+06,   1.03425E+06
C:/temp/Job-5.odb,Step-1,Increment      1: Step Time =    1.000,"P-5-1",          1484,   176.351E-03,   152.735E-03,            0.,NA,NA,"",   1.01183E+06,   1.01079E+06,   1.01079E+06
C:/temp/Job-5.odb,Step-1,Increment      1: Step Time =    1.000,"P-5-1",          1485,   99.9595E-03,   49.6180E-03,            0.,NA,NA,"",   1.02384E+06,   1.05937E+06,   1.05937E+06
C:/temp/Job-5.odb,Step-1,Increment      1: Step Time =    1.000,"P-5-1",          1486,   72.9787E-03,   156.857E-03,            0.,NA,NA,"",   1.06198E+06,   1.06800E+06,   1.06800E+06
C:/temp/Job-5.odb,Step-1,Increment      1: Step Time =    1.000,"P-5-1",          1487,   96.8709E-03,   159.528E-03,            0.,NA,NA,"",   1.01563E+06,   1.03899E+06,   1.03899E+06
C:/temp/Job-5.odb,Step-1,Increment      1: Step Time =    1.000,"P-5-1",          1488,   93.9022E-03,   162.505E-03,            0.,NA,NA,"",   1.01384E+06,   1.03341E+06,   1.03341E+06
C:/temp/Job-5.odb,Step-1,Increment      1: Step Time =    1.000,"P-5-1",          1489,   37.9197E-03,   33.1587E-03,            0.,NA,NA,"",   1.03658E+06,   1.06076E+06,   1.06076E+06
C:/temp/Job-5.odb,Step-1,Increment      1: Step Time =    1.000,"P-5-1",          1490,   42.3068E-03,   83.8774E-03,            0.,NA,NA,"",   872.909E+03,   928.119E+03,   928.119E+03
C:/temp/Job-5.odb,Step-1,Increment      1: Step Time =    1.000,"P-5-1",          1491,   38.0313E-03,   86.4827E-03,            0.,NA,NA,"",   851.861E+03,   916.051E+03,   916.051E+03
C:/temp/Job-5.odb,Step-1,Increment      1: Step Time =    1.000,"P-5-1",          1492,   129.099E-03,   157.997E-03,            0.,NA,NA,"",   1.05956E+06,   1.05320E+06,   1.05320E+06
C:/temp/Job-5.odb,Step-1,Increment      1: Step Time =    1.000,"P-5-1",          1493,   131.386E-03,   153.616E-03,            0.,NA,NA,"",   1.07486E+06,   1.06351E+06,   1.06351E+06
C:/temp/Job-5.odb,Step-1,Increment      1: Step Time =    1.000,"P-5-1",          1494,   82.3240E-03,   171.858E-03,            0.,NA,NA,"",   1.01265E+06,   1.02016E+06,   1.02016E+06
C:/temp/Job-5.odb,Step-1,Increment      1: Step Time =    1.000,"P-5-1",          1495,   167.232E-03,   113.134E-03,            0.,NA,NA,"",   965.179E+03,   972.873E+03,   972.873E+03
C:/temp/Job-5.odb,Step-1,Increment      1: Step Time =    1.000,"P-5-1",          1496,   88.5645E-03,   50.9860E-03,            0.,NA,NA,"",   1.04962E+06,   1.07611E+06,   1.07611E+06
C:/temp/Job-5.odb,Step-1,Increment      1: Step Time =    1.000,"P-5-1",          1497,   75.1296E-03,   166.717E-03,            0.,NA,NA,"",   1.03596E+06,   1.04236E+06,   1.04236E+06
C:/temp/Job-5.odb,Step-1,Increment      1: Step Time =    1.000,"P-5-1",          1498,   159.215E-03,   160.399E-03,            0.,NA,NA,"",   1.03297E+06,   1.02454E+06,   1.02454E+06
C:/temp/Job-5.odb,Step-1,Increment      1: Step Time =    1.000,"P-5-1",          1499,   40.5554E-03,   158.137E-03,            0.,NA,NA,"",   1.02322E+06,   1.05106E+06,   1.05106E+06
C:/temp/Job-5.odb,Step-1,Increment      1: Step Time =    1.000,"P-5-1",          1500,   54.7475E-03,   142.139E-03,            0.,NA,NA,"",   1.04366E+06,   1.05564E+06,   1.05564E+06
C:/temp/Job-5.odb,Step-1,Increment      1: Step Time =    1.000,"P-5-1",          1501,   106.989E-03,   171.359E-03,            0.,NA,NA,"",   999.706E+03,   1.01019E+06,   1.01019E+06
C:/temp/Job-5.odb,Step-1,Increment      1: Step Time =    1.000,"P-5-1",          1502,   151.968E-03,   58.6266E-03,            0.,NA,NA,"",   1.05902E+06,   1.04101E+06,   1.04101E+06
C:/temp/Job-5.odb,Step-1,Increment      1: Step Time =    1.000,"P-5-1",          1503,   78.6505E-03,   171.580E-03,            0.,NA,NA,"",   1.01840E+06,   1.02476E+06,   1.02476E+06
C:/temp/Job-5.odb,Step-1,Increment      1: Step Time =    1.000,"P-5-1",          1504,   126.037E-03,   28.6574E-03,            0.,NA,NA,"",   1.01734E+06,   1.01740E+06,   1.01740E+06
C:/temp/Job-5.odb,Step-1,Increment      1: Step Time =    1.000,"P-5-1",          1505,   49.6975E-03,   57.3930E-03,            0.,NA,NA,"",   1.02248E+06,   1.04350E+06,   1.04350E+06
C:/temp/Job-5.odb,Step-1,Increment      1: Step Time =    1.000,"P-5-1",          1506,   171.246E-03,   74.1613E-03,            0.,NA,NA,"",   994.622E+03,   997.575E+03,   997.575E+03
C:/temp/Job-5.odb,Step-1,Increment      1: Step Time =    1.000,"P-5-1",          1507,   30.2357E-03,   128.662E-03,            0.,NA,NA,"",   889.180E+03,   956.727E+03,   956.727E+03
C:/temp/Job-5.odb,Step-1,Increment      1: Step Time =    1.000,"P-5-1",          1508,   92.4087E-03,   37.3193E-03,            0.,NA,NA,"",   1.01657E+06,   1.03397E+06,   1.03397E+06
C:/temp/Job-5.odb,Step-1,Increment      1: Step Time =    1.000,"P-5-1",          1509,   139.079E-03,   152.120E-03,            0.,NA,NA,"",   1.07436E+06,   1.05833E+06,   1.05833E+06
C:/temp/Job-5.odb,Step-1,Increment      1: Step Time =    1.000,"P-5-1",          1510,   54.4431E-03,   27.7139E-03,            0.,NA,NA,"",   1.04130E+06,   1.04624E+06,   1.04624E+06
C:/temp/Job-5.odb,Step-1,Increment      1: Step Time =    1.000,"P-5-1",          1511,   146.036E-03,   146.523E-03,            0.,NA,NA,"",   1.07266E+06,   1.05302E+06,   1.05302E+06
C:/temp/Job-5.odb,Step-1,Increment      1: Step Time =    1.000,"P-5-1",          1512,   171.626E-03,   137.489E-03,            0.,NA,NA,"",   1.01184E+06,   1.01052E+06,   1.01052E+06
C:/temp/Job-5.odb,Step-1,Increment      1: Step Time =    1.000,"P-5-1",          1513,   135.270E-03,   27.8858E-03,            0.,NA,NA,"",   1.02282E+06,   1.01883E+06,   1.01883E+06
C:/temp/Job-5.odb,Step-1,Increment      1: Step Time =    1.000,"P-5-1",          1514,   69.2986E-03,   170.344E-03,            0.,NA,NA,"",   1.03440E+06,   1.03790E+06,   1.03790E+06
C:/temp/Job-5.odb,Step-1,Increment      1: Step Time =    1.000,"P-5-1",          1515,   52.5801E-03,   162.184E-03,            0.,NA,NA,"",   1.04880E+06,   1.05879E+06,   1.05879E+06
C:/temp/Job-5.odb,Step-1,Increment      1: Step Time =    1.000,"P-5-1",          1516,   48.8582E-03,   141.423E-03,            0.,NA,NA,"",   1.01515E+06,   1.03818E+06,   1.03818E+06
C:/temp/Job-5.odb,Step-1,Increment      1: Step Time =    1.000,"P-5-1",          1517,   88.5816E-03,   34.0568E-03,            0.,NA,NA,"",   1.01671E+06,   1.02982E+06,   1.02982E+06
C:/temp/Job-5.odb,Step-1,Increment      1: Step Time =    1.000,"P-5-1",          1518,   57.5815E-03,   36.7185E-03,            0.,NA,NA,"",   1.05135E+06,   1.05766E+06,   1.05766E+06
C:/temp/Job-5.odb,Step-1,Increment      1: Step Time =    1.000,"P-5-1",          1519,   140.562E-03,   166.575E-03,            0.,NA,NA,"",   1.03786E+06,   1.02989E+06,   1.02989E+06
C:/temp/Job-5.odb,Step-1,Increment      1: Step Time =    1.000,"P-5-1",          1520,   44.1108E-03,   138.130E-03,            0.,NA,NA,"",   985.729E+03,   1.01999E+06,   1.01999E+06
C:/temp/Job-5.odb,Step-1,Increment      1: Step Time =    1.000,"P-5-1",          1521,   31.8228E-03,   58.6265E-03,            0.,NA,NA,"",   944.587E+03,   1.00092E+06,   1.00092E+06
C:/temp/Job-5.odb,Step-1,Increment      1: Step Time =    1.000,"P-5-1",          1522,   58.4934E-03,   41.6884E-03,            0.,NA,NA,"",   1.05610E+06,   1.06293E+06,   1.06293E+06
C:/temp/Job-5.odb,Step-1,Increment      1: Step Time =    1.000,"P-5-1",          1523,   139.104E-03,   158.467E-03,            0.,NA,NA,"",   1.05922E+06,   1.04711E+06,   1.04711E+06
C:/temp/Job-5.odb,Step-1,Increment      1: Step Time =    1.000,"P-5-1",          1524,   52.7018E-03,   51.2867E-03,            0.,NA,NA,"",   1.04459E+06,   1.05867E+06,   1.05867E+06
C:/temp/Job-5.odb,Step-1,Increment      1: Step Time =    1.000,"P-5-1",          1525,   50.1318E-03,   157.157E-03,            0.,NA,NA,"",   1.04321E+06,   1.05802E+06,   1.05802E+06
C:/temp/Job-5.odb,Step-1,Increment      1: Step Time =    1.000,"P-5-1",          1526,   47.9410E-03,   150.560E-03,            0.,NA,NA,"",   1.03153E+06,   1.05147E+06,   1.05147E+06
