ODB Name,Step,Frame,Part Instance Name,    Node Label,X,Y,Z,Section Name,Material Name,Section Point,       S-Mises,S-Max. In-Plane Principal (Abs),S-Max. Principal (Abs)
C:/temp/Job-1.odb,Step-1,Increment      1: Step Time =    1.000,"P-1-1",             1,   91.1612E-03,   108.839E-03,            0.,NA,NA,"",   1.14872E+06,   1.11569E+06,   1.11569E+06
C:/temp/Job-1.odb,Step-1,Increment      1: Step Time =    1.000,"P-1-1",             2,   87.5000E-03,   100.000E-03,            0.,NA,NA,"",   626.334E+03,   461.183E+03,   461.183E+03
C:/temp/Job-1.odb,Step-1,Increment      1: Step Time =    1.000,"P-1-1",             3,   91.1612E-03,   91.1612E-03,            0.,NA,NA,"",   1.13337E+06,   1.06951E+06,   1.06951E+06
C:/temp/Job-1.odb,Step-1,Increment      1: Step Time =    1.000,"P-1-1",             4,   100.000E-03,   87.5000E-03,            0.,NA,NA,"",   1.49190E+06,   1.57759E+06,   1.57759E+06
C:/temp/Job-1.odb,Step-1,Increment      1: Step Time =    1.000,"P-1-1",             5,   108.839E-03,   91.1612E-03,            0.,NA,NA,"",   1.19771E+06,   1.13126E+06,   1.13126E+06
C:/temp/Job-1.odb,Step-1,Increment      1: Step Time =    1.000,"P-1-1",             6,   112.500E-03,   100.000E-03,            0.,NA,NA,"",   701.676E+03,   575.621E+03,   575.621E+03
C:/temp/Job-1.odb,Step-1,Increment      1: Step Time =    1.000,"P-1-1",             7,   108.839E-03,   108.839E-03,            0.,NA,NA,"",   1.28757E+06,   1.26701E+06,   1.26701E+06
C:/temp/Job-1.odb,Step-1,Increment      1: Step Time =    1.000,"P-1-1",             8,   100.000E-03,   112.500E-03,            0.,NA,NA,"",   1.61961E+06,   1.71280E+06,   1.71280E+06
C:/temp/Job-1.odb,Step-1,Increment      1: Step Time =    1.000,"P-1-1",             9,   200.000E-03,            0.,            0.,NA,NA,"",   1.00039E+06,   1.00088E+06,   1.00088E+06
C:/temp/Job-1.odb,Step-1,Increment      1: Step Time =    1.000,"P-1-1",            10,            0.,            0.,            0.,NA,NA,"",   1.11308E+06,   1.17191E+06,   1.17191E+06
C:/temp/Job-1.odb,Step-1,Increment      1: Step Time =    1.000,"P-1-1",            11,   200.000E-03,   200.000E-03,            0.,NA,NA,"",   1.00092E+06,   1.00182E+06,   1.00182E+06
C:/temp/Job-1.odb,Step-1,Increment      1: Step Time =    1.000,"P-1-1",            12,            0.,   200.000E-03,            0.,NA,NA,"",   1.11392E+06,   1.17431E+06,   1.17431E+06
C:/temp/Job-1.odb,Step-1,Increment      1: Step Time =    1.000,"P-1-1",            13,   171.429E-03,            0.,            0.,NA,NA,"",   999.725E+03,   998.400E+03,   998.400E+03
C:/temp/Job-1.odb,Step-1,Increment      1: Step Time =    1.000,"P-1-1",            14,   142.857E-03,            0.,            0.,NA,NA,"",   987.620E+03,   986.020E+03,   986.020E+03
C:/temp/Job-1.odb,Step-1,Increment      1: Step Time =    1.000,"P-1-1",            15,   114.286E-03,            0.,            0.,NA,NA,"",   967.803E+03,   969.673E+03,   969.673E+03
C:/temp/Job-1.odb,Step-1,Increment      1: Step Time =    1.000,"P-1-1",            16,   85.7143E-03,            0.,            0.,NA,NA,"",   966.973E+03,   971.757E+03,   971.757E+03
C:/temp/Job-1.odb,Step-1,Increment      1: Step Time =    1.000,"P-1-1",            17,   57.1429E-03,            0.,            0.,NA,NA,"",   997.247E+03,   995.111E+03,   995.111E+03
C:/temp/Job-1.odb,Step-1,Increment      1: Step Time =    1.000,"P-1-1",            18,   28.5714E-03,            0.,            0.,NA,NA,"",   1.06653E+06,   1.09092E+06,   1.09092E+06
C:/temp/Job-1.odb,Step-1,Increment      1: Step Time =    1.000,"P-1-1",            19,   200.000E-03,   171.429E-03,            0.,NA,NA,"",   998.815E+03,   1.00149E+06,   1.00149E+06
C:/temp/Job-1.odb,Step-1,Increment      1: Step Time =    1.000,"P-1-1",            20,   200.000E-03,   142.857E-03,            0.,NA,NA,"",   993.367E+03,   1.00273E+06,   1.00273E+06
C:/temp/Job-1.odb,Step-1,Increment      1: Step Time =    1.000,"P-1-1",            21,   200.000E-03,   114.286E-03,            0.,NA,NA,"",   978.322E+03,   995.523E+03,   995.523E+03
C:/temp/Job-1.odb,Step-1,Increment      1: Step Time =    1.000,"P-1-1",            22,   200.000E-03,   85.7143E-03,            0.,NA,NA,"",   977.891E+03,   994.928E+03,   994.928E+03
C:/temp/Job-1.odb,Step-1,Increment      1: Step Time =    1.000,"P-1-1",            23,   200.000E-03,   57.1429E-03,            0.,NA,NA,"",   994.160E+03,   1.00309E+06,   1.00309E+06
C:/temp/Job-1.odb,Step-1,Increment      1: Step Time =    1.000,"P-1-1",            24,   200.000E-03,   28.5714E-03,            0.,NA,NA,"",   999.775E+03,   1.00198E+06,   1.00198E+06
C:/temp/Job-1.odb,Step-1,Increment      1: Step Time =    1.000,"P-1-1",            25,   28.5714E-03,   200.000E-03,            0.,NA,NA,"",   1.06397E+06,   1.08839E+06,   1.08839E+06
C:/temp/Job-1.odb,Step-1,Increment      1: Step Time =    1.000,"P-1-1",            26,   57.1429E-03,   200.000E-03,            0.,NA,NA,"",   989.083E+03,   987.348E+03,   987.348E+03
C:/temp/Job-1.odb,Step-1,Increment      1: Step Time =    1.000,"P-1-1",            27,   85.7143E-03,   200.000E-03,            0.,NA,NA,"",   963.541E+03,   968.167E+03,   968.167E+03
C:/temp/Job-1.odb,Step-1,Increment      1: Step Time =    1.000,"P-1-1",            28,   114.286E-03,   200.000E-03,            0.,NA,NA,"",   971.361E+03,   972.790E+03,   972.790E+03
C:/temp/Job-1.odb,Step-1,Increment      1: Step Time =    1.000,"P-1-1",            29,   142.857E-03,   200.000E-03,            0.,NA,NA,"",   990.708E+03,   989.308E+03,   989.308E+03
C:/temp/Job-1.odb,Step-1,Increment      1: Step Time =    1.000,"P-1-1",            30,   171.429E-03,   200.000E-03,            0.,NA,NA,"",   1.00128E+06,   999.482E+03,   999.482E+03
C:/temp/Job-1.odb,Step-1,Increment      1: Step Time =    1.000,"P-1-1",            31,            0.,   28.5714E-03,            0.,NA,NA,"",   1.00107E+06,   1.07497E+06,   1.07497E+06
C:/temp/Job-1.odb,Step-1,Increment      1: Step Time =    1.000,"P-1-1",            32,            0.,   57.1429E-03,            0.,NA,NA,"",   865.373E+03,   956.126E+03,   956.126E+03
C:/temp/Job-1.odb,Step-1,Increment      1: Step Time =    1.000,"P-1-1",            33,            0.,   85.7143E-03,            0.,NA,NA,"",   819.445E+03,   913.148E+03,   913.148E+03
C:/temp/Job-1.odb,Step-1,Increment      1: Step Time =    1.000,"P-1-1",            34,            0.,   114.286E-03,            0.,NA,NA,"",   820.197E+03,   913.464E+03,   913.464E+03
C:/temp/Job-1.odb,Step-1,Increment      1: Step Time =    1.000,"P-1-1",            35,            0.,   142.857E-03,            0.,NA,NA,"",   869.211E+03,   957.865E+03,   957.865E+03
C:/temp/Job-1.odb,Step-1,Increment      1: Step Time =    1.000,"P-1-1",            36,            0.,   171.429E-03,            0.,NA,NA,"",   1.00458E+06,   1.07759E+06,   1.07759E+06
C:/temp/Job-1.odb,Step-1,Increment      1: Step Time =    1.000,"P-1-1",            37,   107.505E-03,   119.722E-03,            0.,NA,NA,"",   1.42410E+06,   1.47357E+06,   1.47357E+06
C:/temp/Job-1.odb,Step-1,Increment      1: Step Time =    1.000,"P-1-1",            38,   118.691E-03,   116.379E-03,            0.,NA,NA,"",   1.18317E+06,   1.09456E+06,   1.09456E+06
C:/temp/Job-1.odb,Step-1,Increment      1: Step Time =    1.000,"P-1-1",            39,   109.122E-03,   77.1950E-03,            0.,NA,NA,"",   1.28495E+06,   1.32928E+06,   1.32928E+06
C:/temp/Job-1.odb,Step-1,Increment      1: Step Time =    1.000,"P-1-1",            40,   94.1233E-03,   76.0599E-03,            0.,NA,NA,"",   1.27902E+06,   1.32893E+06,   1.32893E+06
C:/temp/Job-1.odb,Step-1,Increment      1: Step Time =    1.000,"P-1-1",            41,   77.5385E-03,   89.7833E-03,            0.,NA,NA,"",   889.872E+03,   815.452E+03,   815.452E+03
C:/temp/Job-1.odb,Step-1,Increment      1: Step Time =    1.000,"P-1-1",            42,   75.5457E-03,   111.271E-03,            0.,NA,NA,"",   898.513E+03,   854.678E+03,   854.678E+03
C:/temp/Job-1.odb,Step-1,Increment      1: Step Time =    1.000,"P-1-1",            43,   124.563E-03,   91.9645E-03,            0.,NA,NA,"",   812.086E+03,   742.571E+03,   742.571E+03
C:/temp/Job-1.odb,Step-1,Increment      1: Step Time =    1.000,"P-1-1",            44,   89.6762E-03,   125.892E-03,            0.,NA,NA,"",   1.23529E+06,   1.27039E+06,   1.27039E+06
C:/temp/Job-1.odb,Step-1,Increment      1: Step Time =    1.000,"P-1-1",            45,   100.226E-03,   123.231E-03,            0.,NA,NA,"",   1.35982E+06,   1.43868E+06,   1.43868E+06
C:/temp/Job-1.odb,Step-1,Increment      1: Step Time =    1.000,"P-1-1",            46,   117.689E-03,   82.7462E-03,            0.,NA,NA,"",   1.18676E+06,   1.12331E+06,   1.12331E+06
C:/temp/Job-1.odb,Step-1,Increment      1: Step Time =    1.000,"P-1-1",            47,   87.0605E-03,   79.0396E-03,            0.,NA,NA,"",   1.31350E+06,   1.29075E+06,   1.29075E+06
C:/temp/Job-1.odb,Step-1,Increment      1: Step Time =    1.000,"P-1-1",            48,   101.442E-03,   68.5951E-03,            0.,NA,NA,"",   1.13009E+06,   1.20686E+06,   1.20686E+06
C:/temp/Job-1.odb,Step-1,Increment      1: Step Time =    1.000,"P-1-1",            49,   75.7931E-03,   99.7479E-03,            0.,NA,NA,"",   671.907E+03,   610.824E+03,   610.824E+03
C:/temp/Job-1.odb,Step-1,Increment      1: Step Time =    1.000,"P-1-1",            50,   124.318E-03,   109.262E-03,            0.,NA,NA,"",   860.695E+03,   790.572E+03,   790.572E+03
C:/temp/Job-1.odb,Step-1,Increment      1: Step Time =    1.000,"P-1-1",            51,   113.536E-03,   125.295E-03,            0.,NA,NA,"",   1.24879E+06,   1.24155E+06,   1.24155E+06
C:/temp/Job-1.odb,Step-1,Increment      1: Step Time =    1.000,"P-1-1",            52,   75.9797E-03,   126.234E-03,            0.,NA,NA,"",   1.12701E+06,   1.10959E+06,   1.10959E+06
C:/temp/Job-1.odb,Step-1,Increment      1: Step Time =    1.000,"P-1-1",            53,   87.1081E-03,   69.4802E-03,            0.,NA,NA,"",   1.15231E+06,   1.14906E+06,   1.14906E+06
C:/temp/Job-1.odb,Step-1,Increment      1: Step Time =    1.000,"P-1-1",            54,   133.383E-03,   117.873E-03,            0.,NA,NA,"",   1.08097E+06,   1.03766E+06,   1.03766E+06
C:/temp/Job-1.odb,Step-1,Increment      1: Step Time =    1.000,"P-1-1",            55,   67.4234E-03,   88.8148E-03,            0.,NA,NA,"",   853.885E+03,   862.591E+03,   862.591E+03
C:/temp/Job-1.odb,Step-1,Increment      1: Step Time =    1.000,"P-1-1",            56,   59.9512E-03,   110.332E-03,            0.,NA,NA,"",   861.997E+03,   888.490E+03,   888.490E+03
C:/temp/Job-1.odb,Step-1,Increment      1: Step Time =    1.000,"P-1-1",            57,   105.918E-03,   134.600E-03,            0.,NA,NA,"",   1.08945E+06,   1.13902E+06,   1.13902E+06
C:/temp/Job-1.odb,Step-1,Increment      1: Step Time =    1.000,"P-1-1",            58,   115.089E-03,   69.4441E-03,            0.,NA,NA,"",   1.16230E+06,   1.14572E+06,   1.14572E+06
C:/temp/Job-1.odb,Step-1,Increment      1: Step Time =    1.000,"P-1-1",            59,   135.116E-03,   85.5636E-03,            0.,NA,NA,"",   1.00790E+06,   980.500E+03,   980.500E+03
C:/temp/Job-1.odb,Step-1,Increment      1: Step Time =    1.000,"P-1-1",            60,   109.719E-03,   61.8446E-03,            0.,NA,NA,"",   1.10830E+06,   1.12937E+06,   1.12937E+06
C:/temp/Job-1.odb,Step-1,Increment      1: Step Time =    1.000,"P-1-1",            61,   126.056E-03,   123.845E-03,            0.,NA,NA,"",   1.19645E+06,   1.14048E+06,   1.14048E+06
C:/temp/Job-1.odb,Step-1,Increment      1: Step Time =    1.000,"P-1-1",            62,   76.0946E-03,   66.7450E-03,            0.,NA,NA,"",   1.16859E+06,   1.15530E+06,   1.15530E+06
C:/temp/Job-1.odb,Step-1,Increment      1: Step Time =    1.000,"P-1-1",            63,   128.257E-03,   69.1362E-03,            0.,NA,NA,"",   1.15758E+06,   1.11944E+06,   1.11944E+06
C:/temp/Job-1.odb,Step-1,Increment      1: Step Time =    1.000,"P-1-1",            64,   62.3598E-03,   96.4226E-03,            0.,NA,NA,"",   774.333E+03,   819.953E+03,   819.953E+03
C:/temp/Job-1.odb,Step-1,Increment      1: Step Time =    1.000,"P-1-1",            65,   116.525E-03,   141.500E-03,            0.,NA,NA,"",   1.09655E+06,   1.10643E+06,   1.10643E+06
C:/temp/Job-1.odb,Step-1,Increment      1: Step Time =    1.000,"P-1-1",            66,   61.0893E-03,   125.482E-03,            0.,NA,NA,"",   1.00347E+06,   1.00276E+06,   1.00276E+06
C:/temp/Job-1.odb,Step-1,Increment      1: Step Time =    1.000,"P-1-1",            67,   131.822E-03,   102.333E-03,            0.,NA,NA,"",   713.733E+03,   703.498E+03,   703.498E+03
C:/temp/Job-1.odb,Step-1,Increment      1: Step Time =    1.000,"P-1-1",            68,   129.742E-03,   132.686E-03,            0.,NA,NA,"",   1.12388E+06,   1.09983E+06,   1.09983E+06
C:/temp/Job-1.odb,Step-1,Increment      1: Step Time =    1.000,"P-1-1",            69,   140.638E-03,   127.616E-03,            0.,NA,NA,"",   1.08073E+06,   1.04851E+06,   1.04851E+06
C:/temp/Job-1.odb,Step-1,Increment      1: Step Time =    1.000,"P-1-1",            70,   92.4393E-03,   59.3822E-03,            0.,NA,NA,"",   1.05534E+06,   1.09295E+06,   1.09295E+06
C:/temp/Job-1.odb,Step-1,Increment      1: Step Time =    1.000,"P-1-1",            71,   63.5899E-03,   79.9414E-03,            0.,NA,NA,"",   996.345E+03,   987.792E+03,   987.792E+03
C:/temp/Job-1.odb,Step-1,Increment      1: Step Time =    1.000,"P-1-1",            72,   149.899E-03,   71.2663E-03,            0.,NA,NA,"",   1.04044E+06,   1.02204E+06,   1.02204E+06
C:/temp/Job-1.odb,Step-1,Increment      1: Step Time =    1.000,"P-1-1",            73,   75.3783E-03,   142.259E-03,            0.,NA,NA,"",   1.11975E+06,   1.12128E+06,   1.12128E+06
C:/temp/Job-1.odb,Step-1,Increment      1: Step Time =    1.000,"P-1-1",            74,   93.5354E-03,   146.393E-03,            0.,NA,NA,"",   1.04948E+06,   1.07899E+06,   1.07899E+06
C:/temp/Job-1.odb,Step-1,Increment      1: Step Time =    1.000,"P-1-1",            75,   154.829E-03,   95.8409E-03,            0.,NA,NA,"",   935.092E+03,   937.896E+03,   937.896E+03
C:/temp/Job-1.odb,Step-1,Increment      1: Step Time =    1.000,"P-1-1",            76,   123.499E-03,   49.9250E-03,            0.,NA,NA,"",   1.07293E+06,   1.07403E+06,   1.07403E+06
C:/temp/Job-1.odb,Step-1,Increment      1: Step Time =    1.000,"P-1-1",            77,   47.3128E-03,   128.755E-03,            0.,NA,NA,"",   935.631E+03,   973.500E+03,   973.500E+03
C:/temp/Job-1.odb,Step-1,Increment      1: Step Time =    1.000,"P-1-1",            78,   47.2093E-03,   85.1197E-03,            0.,NA,NA,"",   877.620E+03,   927.044E+03,   927.044E+03
C:/temp/Job-1.odb,Step-1,Increment      1: Step Time =    1.000,"P-1-1",            79,   70.7256E-03,   155.841E-03,            0.,NA,NA,"",   1.07516E+06,   1.07488E+06,   1.07488E+06
C:/temp/Job-1.odb,Step-1,Increment      1: Step Time =    1.000,"P-1-1",            80,   140.490E-03,   109.959E-03,            0.,NA,NA,"",   882.937E+03,   876.838E+03,   876.838E+03
C:/temp/Job-1.odb,Step-1,Increment      1: Step Time =    1.000,"P-1-1",            81,   142.975E-03,   139.986E-03,            0.,NA,NA,"",   1.06988E+06,   1.04991E+06,   1.04991E+06
C:/temp/Job-1.odb,Step-1,Increment      1: Step Time =    1.000,"P-1-1",            82,   64.2556E-03,   67.9634E-03,            0.,NA,NA,"",   1.09252E+06,   1.08376E+06,   1.08376E+06
C:/temp/Job-1.odb,Step-1,Increment      1: Step Time =    1.000,"P-1-1",            83,   43.2086E-03,   109.475E-03,            0.,NA,NA,"",   857.441E+03,   916.180E+03,   916.180E+03
C:/temp/Job-1.odb,Step-1,Increment      1: Step Time =    1.000,"P-1-1",            84,   150.047E-03,   50.1734E-03,            0.,NA,NA,"",   1.04433E+06,   1.03175E+06,   1.03175E+06
C:/temp/Job-1.odb,Step-1,Increment      1: Step Time =    1.000,"P-1-1",            85,   59.2045E-03,   138.452E-03,            0.,NA,NA,"",   1.06329E+06,   1.06769E+06,   1.06769E+06
C:/temp/Job-1.odb,Step-1,Increment      1: Step Time =    1.000,"P-1-1",            86,   129.621E-03,   148.487E-03,            0.,NA,NA,"",   1.08746E+06,   1.07245E+06,   1.07245E+06
C:/temp/Job-1.odb,Step-1,Increment      1: Step Time =    1.000,"P-1-1",            87,   83.0790E-03,   171.886E-03,            0.,NA,NA,"",   1.00149E+06,   1.00956E+06,   1.00956E+06
C:/temp/Job-1.odb,Step-1,Increment      1: Step Time =    1.000,"P-1-1",            88,   146.686E-03,   25.2158E-03,            0.,NA,NA,"",   1.01292E+06,   1.00780E+06,   1.00780E+06
C:/temp/Job-1.odb,Step-1,Increment      1: Step Time =    1.000,"P-1-1",            89,   23.3536E-03,   112.282E-03,            0.,NA,NA,"",   837.029E+03,   918.441E+03,   918.441E+03
C:/temp/Job-1.odb,Step-1,Increment      1: Step Time =    1.000,"P-1-1",            90,   29.0191E-03,   142.809E-03,            0.,NA,NA,"",   931.556E+03,   992.024E+03,   992.024E+03
C:/temp/Job-1.odb,Step-1,Increment      1: Step Time =    1.000,"P-1-1",            91,   103.308E-03,   49.7165E-03,            0.,NA,NA,"",   1.03164E+06,   1.06092E+06,   1.06092E+06
C:/temp/Job-1.odb,Step-1,Increment      1: Step Time =    1.000,"P-1-1",            92,   118.408E-03,   25.4085E-03,            0.,NA,NA,"",   1.00164E+06,   1.00344E+06,   1.00344E+06
C:/temp/Job-1.odb,Step-1,Increment      1: Step Time =    1.000,"P-1-1",            93,   155.702E-03,   118.334E-03,            0.,NA,NA,"",   982.146E+03,   975.945E+03,   975.945E+03
C:/temp/Job-1.odb,Step-1,Increment      1: Step Time =    1.000,"P-1-1",            94,   172.535E-03,   84.6990E-03,            0.,NA,NA,"",   980.888E+03,   987.893E+03,   987.893E+03
C:/temp/Job-1.odb,Step-1,Increment      1: Step Time =    1.000,"P-1-1",            95,   53.2492E-03,   56.9929E-03,            0.,NA,NA,"",   1.02868E+06,   1.04789E+06,   1.04789E+06
C:/temp/Job-1.odb,Step-1,Increment      1: Step Time =    1.000,"P-1-1",            96,   24.0773E-03,   84.3193E-03,            0.,NA,NA,"",   843.006E+03,   923.466E+03,   923.466E+03
C:/temp/Job-1.odb,Step-1,Increment      1: Step Time =    1.000,"P-1-1",            97,   53.0741E-03,   154.247E-03,            0.,NA,NA,"",   1.06509E+06,   1.07636E+06,   1.07636E+06
C:/temp/Job-1.odb,Step-1,Increment      1: Step Time =    1.000,"P-1-1",            98,   26.1861E-03,   56.2282E-03,            0.,NA,NA,"",   920.878E+03,   987.527E+03,   987.527E+03
C:/temp/Job-1.odb,Step-1,Increment      1: Step Time =    1.000,"P-1-1",            99,   53.8064E-03,   175.348E-03,            0.,NA,NA,"",   1.02423E+06,   1.02753E+06,   1.02753E+06
C:/temp/Job-1.odb,Step-1,Increment      1: Step Time =    1.000,"P-1-1",           100,   27.6034E-03,   28.0016E-03,            0.,NA,NA,"",   1.02031E+06,   1.06124E+06,   1.06124E+06
C:/temp/Job-1.odb,Step-1,Increment      1: Step Time =    1.000,"P-1-1",           101,   55.8655E-03,   28.0311E-03,            0.,NA,NA,"",   1.02722E+06,   1.03171E+06,   1.03171E+06
C:/temp/Job-1.odb,Step-1,Increment      1: Step Time =    1.000,"P-1-1",           102,   176.273E-03,   144.500E-03,            0.,NA,NA,"",   1.00696E+06,   1.00887E+06,   1.00887E+06
C:/temp/Job-1.odb,Step-1,Increment      1: Step Time =    1.000,"P-1-1",           103,   174.830E-03,   54.0067E-03,            0.,NA,NA,"",   1.00953E+06,   1.00970E+06,   1.00970E+06
C:/temp/Job-1.odb,Step-1,Increment      1: Step Time =    1.000,"P-1-1",           104,   143.173E-03,   169.289E-03,            0.,NA,NA,"",   1.02474E+06,   1.01783E+06,   1.01783E+06
C:/temp/Job-1.odb,Step-1,Increment      1: Step Time =    1.000,"P-1-1",           105,   77.4040E-03,   52.2466E-03,            0.,NA,NA,"",   1.07983E+06,   1.08514E+06,   1.08514E+06
C:/temp/Job-1.odb,Step-1,Increment      1: Step Time =    1.000,"P-1-1",           106,   113.044E-03,   174.570E-03,            0.,NA,NA,"",   1.00084E+06,   1.00507E+06,   1.00507E+06
C:/temp/Job-1.odb,Step-1,Increment      1: Step Time =    1.000,"P-1-1",           107,   176.777E-03,   115.821E-03,            0.,NA,NA,"",   979.967E+03,   990.085E+03,   990.085E+03
C:/temp/Job-1.odb,Step-1,Increment      1: Step Time =    1.000,"P-1-1",           108,   173.628E-03,   26.4557E-03,            0.,NA,NA,"",   1.00677E+06,   1.00502E+06,   1.00502E+06
C:/temp/Job-1.odb,Step-1,Increment      1: Step Time =    1.000,"P-1-1",           109,   27.1492E-03,   172.992E-03,            0.,NA,NA,"",   1.02236E+06,   1.06193E+06,   1.06193E+06
C:/temp/Job-1.odb,Step-1,Increment      1: Step Time =    1.000,"P-1-1",           110,   87.8581E-03,   29.8242E-03,            0.,NA,NA,"",   1.00589E+06,   1.01586E+06,   1.01586E+06
C:/temp/Job-1.odb,Step-1,Increment      1: Step Time =    1.000,"P-1-1",           111,   155.469E-03,   143.660E-03,            0.,NA,NA,"",   1.03696E+06,   1.02484E+06,   1.02484E+06
C:/temp/Job-1.odb,Step-1,Increment      1: Step Time =    1.000,"P-1-1",           112,   173.001E-03,   172.005E-03,            0.,NA,NA,"",   1.00889E+06,   1.00689E+06,   1.00689E+06
C:/temp/Job-1.odb,Step-1,Increment      1: Step Time =    1.000,"P-1-1",           113,   76.3070E-03,   78.9900E-03,            0.,NA,NA,"",   1.17287E+06,   1.12141E+06,   1.12141E+06
C:/temp/Job-1.odb,Step-1,Increment      1: Step Time =    1.000,"P-1-1",           114,   121.109E-03,   130.953E-03,            0.,NA,NA,"",   1.16912E+06,   1.14432E+06,   1.14432E+06
C:/temp/Job-1.odb,Step-1,Increment      1: Step Time =    1.000,"P-1-1",           115,   112.414E-03,   153.575E-03,            0.,NA,NA,"",   1.05191E+06,   1.06515E+06,   1.06515E+06
C:/temp/Job-1.odb,Step-1,Increment      1: Step Time =    1.000,"P-1-1",           116,   140.985E-03,   98.2903E-03,            0.,NA,NA,"",    821.13E+03,   825.406E+03,   825.406E+03
C:/temp/Job-1.odb,Step-1,Increment      1: Step Time =    1.000,"P-1-1",           117,   146.436E-03,   83.3934E-03,            0.,NA,NA,"",   1.01542E+06,   996.560E+03,   996.560E+03
C:/temp/Job-1.odb,Step-1,Increment      1: Step Time =    1.000,"P-1-1",           118,   119.238E-03,   59.6543E-03,            0.,NA,NA,"",   1.15845E+06,   1.14944E+06,   1.14944E+06
