ODB Name,Step,Frame,Part Instance Name,    Node Label,X,Y,Z,Section Name,Material Name,Section Point,       S-Mises,S-Max. In-Plane Principal (Abs),S-Max. Principal (Abs)
C:/temp/Job-1.odb,Step-1,Increment      1: Step Time =    1.000,"P-1-1",             1,       85.1412,       182.675,            0.,NA,NA,"",   5.22362E+06,   4.94256E+06,   4.94256E+06
C:/temp/Job-1.odb,Step-1,Increment      1: Step Time =    1.000,"P-1-1",             2,       70.7511,       178.743,            0.,NA,NA,"",   4.58487E+06,  -4.50805E+06,  -4.50805E+06
C:/temp/Job-1.odb,Step-1,Increment      1: Step Time =    1.000,"P-1-1",             3,       57.2834,       172.328,            0.,NA,NA,"",   7.43228E+06,  -7.48059E+06,  -7.48059E+06
C:/temp/Job-1.odb,Step-1,Increment      1: Step Time =    1.000,"P-1-1",             4,       45.1629,       163.631,            0.,NA,NA,"",   7.49600E+06,  -7.56992E+06,  -7.56992E+06
C:/temp/Job-1.odb,Step-1,Increment      1: Step Time =    1.000,"P-1-1",             5,       34.7720,       152.927,            0.,NA,NA,"",   5.96545E+06,  -6.01250E+06,  -6.01250E+06
C:/temp/Job-1.odb,Step-1,Increment      1: Step Time =    1.000,"P-1-1",             6,       26.4383,       140.555,            0.,NA,NA,"",   3.29242E+06,  -3.32925E+06,  -3.32925E+06
C:/temp/Job-1.odb,Step-1,Increment      1: Step Time =    1.000,"P-1-1",             7,       20.4246,       126.903,            0.,NA,NA,"",   1.44405E+06,  -1.45943E+06,  -1.45943E+06
C:/temp/Job-1.odb,Step-1,Increment      1: Step Time =    1.000,"P-1-1",             8,       16.9206,       112.402,            0.,NA,NA,"",   709.587E+03,  -717.996E+03,  -717.996E+03
C:/temp/Job-1.odb,Step-1,Increment      1: Step Time =    1.000,"P-1-1",             9,       16.0369,       102.489,            0.,NA,NA,"",   592.528E+03,  -604.851E+03,  -604.851E+03
C:/temp/Job-1.odb,Step-1,Increment      1: Step Time =    1.000,"P-1-1",            10,       16.9206,       87.5977,            0.,NA,NA,"",   749.652E+03,  -757.407E+03,  -757.407E+03
C:/temp/Job-1.odb,Step-1,Increment      1: Step Time =    1.000,"P-1-1",            11,       20.4246,       73.0973,            0.,NA,NA,"",   1.42166E+06,  -1.43879E+06,  -1.43879E+06
C:/temp/Job-1.odb,Step-1,Increment      1: Step Time =    1.000,"P-1-1",            12,       26.4383,       59.4455,            0.,NA,NA,"",   3.23417E+06,  -3.28721E+06,  -3.28721E+06
C:/temp/Job-1.odb,Step-1,Increment      1: Step Time =    1.000,"P-1-1",            13,       34.7720,       47.0726,            0.,NA,NA,"",   5.93501E+06,  -5.98275E+06,  -5.98275E+06
C:/temp/Job-1.odb,Step-1,Increment      1: Step Time =    1.000,"P-1-1",            14,       45.1629,       36.3691,            0.,NA,NA,"",   7.68527E+06,  -7.77199E+06,  -7.77199E+06
C:/temp/Job-1.odb,Step-1,Increment      1: Step Time =    1.000,"P-1-1",            15,       57.2834,       27.6723,            0.,NA,NA,"",   8.10088E+06,  -8.14475E+06,  -8.14475E+06
C:/temp/Job-1.odb,Step-1,Increment      1: Step Time =    1.000,"P-1-1",            16,       70.7511,       21.2567,            0.,NA,NA,"",   4.75076E+06,  -4.70113E+06,  -4.70113E+06
C:/temp/Job-1.odb,Step-1,Increment      1: Step Time =    1.000,"P-1-1",            17,       85.1412,       17.3246,            0.,NA,NA,"",   5.70882E+06,   5.30905E+06,   5.30905E+06
C:/temp/Job-1.odb,Step-1,Increment      1: Step Time =    1.000,"P-1-1",            18,          100.,           16.,            0.,NA,NA,"",   15.5574E+06,   15.5830E+06,   15.5830E+06
C:/temp/Job-1.odb,Step-1,Increment      1: Step Time =    1.000,"P-1-1",            19,       114.859,       17.3246,            0.,NA,NA,"",   21.5117E+06,   21.6064E+06,   21.6064E+06
C:/temp/Job-1.odb,Step-1,Increment      1: Step Time =    1.000,"P-1-1",            20,       129.249,       21.2567,            0.,NA,NA,"",   17.8551E+06,   18.0569E+06,   18.0569E+06
C:/temp/Job-1.odb,Step-1,Increment      1: Step Time =    1.000,"P-1-1",            21,       142.717,       27.6723,            0.,NA,NA,"",   12.0965E+06,   12.3017E+06,   12.3017E+06
C:/temp/Job-1.odb,Step-1,Increment      1: Step Time =    1.000,"P-1-1",            22,       154.837,       36.3691,            0.,NA,NA,"",   7.65453E+06,   7.80732E+06,   7.80732E+06
C:/temp/Job-1.odb,Step-1,Increment      1: Step Time =    1.000,"P-1-1",            23,       165.228,       47.0726,            0.,NA,NA,"",   5.10654E+06,   5.14863E+06,   5.14863E+06
C:/temp/Job-1.odb,Step-1,Increment      1: Step Time =    1.000,"P-1-1",            24,       173.562,       59.4455,            0.,NA,NA,"",   2.33393E+06,   2.24021E+06,   2.24021E+06
C:/temp/Job-1.odb,Step-1,Increment      1: Step Time =    1.000,"P-1-1",            25,       179.575,       73.0973,            0.,NA,NA,"",   3.89548E+06,  -3.84029E+06,  -3.84029E+06
C:/temp/Job-1.odb,Step-1,Increment      1: Step Time =    1.000,"P-1-1",            26,       183.079,       87.5977,            0.,NA,NA,"",   9.07159E+06,  -9.23944E+06,  -9.23944E+06
C:/temp/Job-1.odb,Step-1,Increment      1: Step Time =    1.000,"P-1-1",            27,       183.963,       97.5108,            0.,NA,NA,"",   11.8234E+06,  -11.8618E+06,  -11.8618E+06
C:/temp/Job-1.odb,Step-1,Increment      1: Step Time =    1.000,"P-1-1",            28,       183.079,       112.402,            0.,NA,NA,"",   9.53653E+06,  -9.56673E+06,  -9.56673E+06
C:/temp/Job-1.odb,Step-1,Increment      1: Step Time =    1.000,"P-1-1",            29,       179.575,       126.903,            0.,NA,NA,"",   3.65433E+06,  -3.51192E+06,  -3.51192E+06
C:/temp/Job-1.odb,Step-1,Increment      1: Step Time =    1.000,"P-1-1",            30,       173.562,       140.555,            0.,NA,NA,"",   2.36293E+06,   2.26044E+06,   2.26044E+06
C:/temp/Job-1.odb,Step-1,Increment      1: Step Time =    1.000,"P-1-1",            31,       165.228,       152.927,            0.,NA,NA,"",   5.07223E+06,   5.13237E+06,   5.13237E+06
C:/temp/Job-1.odb,Step-1,Increment      1: Step Time =    1.000,"P-1-1",            32,       154.837,       163.631,            0.,NA,NA,"",   7.90181E+06,   8.02196E+06,   8.02196E+06
C:/temp/Job-1.odb,Step-1,Increment      1: Step Time =    1.000,"P-1-1",            33,       142.717,       172.328,            0.,NA,NA,"",   12.7876E+06,   12.8895E+06,   12.8895E+06
C:/temp/Job-1.odb,Step-1,Increment      1: Step Time =    1.000,"P-1-1",            34,       129.249,       178.743,            0.,NA,NA,"",   18.2303E+06,   18.4369E+06,   18.4369E+06
C:/temp/Job-1.odb,Step-1,Increment      1: Step Time =    1.000,"P-1-1",            35,       114.859,       182.675,            0.,NA,NA,"",   19.2315E+06,   19.4533E+06,   19.4533E+06
C:/temp/Job-1.odb,Step-1,Increment      1: Step Time =    1.000,"P-1-1",            36,          100.,          184.,            0.,NA,NA,"",   15.1282E+06,   15.2363E+06,   15.2363E+06
C:/temp/Job-1.odb,Step-1,Increment      1: Step Time =    1.000,"P-1-1",            37,          190.,            0.,            0.,NA,NA,"",   720.750E+03,   680.738E+03,   680.738E+03
C:/temp/Job-1.odb,Step-1,Increment      1: Step Time =    1.000,"P-1-1",            38,          180.,            0.,            0.,NA,NA,"",   555.399E+03,  -194.486E+03,  -194.486E+03
C:/temp/Job-1.odb,Step-1,Increment      1: Step Time =    1.000,"P-1-1",            39,          170.,            0.,            0.,NA,NA,"",   1.56192E+06,  -1.52766E+06,  -1.52766E+06
C:/temp/Job-1.odb,Step-1,Increment      1: Step Time =    1.000,"P-1-1",            40,          160.,            0.,            0.,NA,NA,"",   2.98461E+06,  -2.96495E+06,  -2.96495E+06
C:/temp/Job-1.odb,Step-1,Increment      1: Step Time =    1.000,"P-1-1",            41,          150.,            0.,            0.,NA,NA,"",   4.78320E+06,  -4.77053E+06,  -4.77053E+06
C:/temp/Job-1.odb,Step-1,Increment      1: Step Time =    1.000,"P-1-1",            42,          140.,            0.,            0.,NA,NA,"",   6.50984E+06,  -6.48116E+06,  -6.48116E+06
C:/temp/Job-1.odb,Step-1,Increment      1: Step Time =    1.000,"P-1-1",            43,          130.,            0.,            0.,NA,NA,"",   7.34498E+06,  -7.33999E+06,  -7.33999E+06
C:/temp/Job-1.odb,Step-1,Increment      1: Step Time =    1.000,"P-1-1",            44,          120.,            0.,            0.,NA,NA,"",   7.77838E+06,  -7.74401E+06,  -7.74401E+06
C:/temp/Job-1.odb,Step-1,Increment      1: Step Time =    1.000,"P-1-1",            45,          110.,            0.,            0.,NA,NA,"",   7.07978E+06,  -6.93297E+06,  -6.93297E+06
C:/temp/Job-1.odb,Step-1,Increment      1: Step Time =    1.000,"P-1-1",            46,          100.,            0.,            0.,NA,NA,"",   3.40080E+06,  -3.07467E+06,  -3.07467E+06
C:/temp/Job-1.odb,Step-1,Increment      1: Step Time =    1.000,"P-1-1",            47,           90.,            0.,            0.,NA,NA,"",   4.02513E+06,   3.62927E+06,   3.62927E+06
C:/temp/Job-1.odb,Step-1,Increment      1: Step Time =    1.000,"P-1-1",            48,           80.,            0.,            0.,NA,NA,"",   8.79454E+06,   8.67253E+06,   8.67253E+06
C:/temp/Job-1.odb,Step-1,Increment      1: Step Time =    1.000,"P-1-1",            49,           70.,            0.,            0.,NA,NA,"",   11.9861E+06,   11.9462E+06,   11.9462E+06
C:/temp/Job-1.odb,Step-1,Increment      1: Step Time =    1.000,"P-1-1",            50,           60.,            0.,            0.,NA,NA,"",   13.2918E+06,   13.2425E+06,   13.2425E+06
C:/temp/Job-1.odb,Step-1,Increment      1: Step Time =    1.000,"P-1-1",            51,           50.,            0.,            0.,NA,NA,"",   12.9914E+06,   12.9785E+06,   12.9785E+06
C:/temp/Job-1.odb,Step-1,Increment      1: Step Time =    1.000,"P-1-1",            52,           40.,            0.,            0.,NA,NA,"",   12.0312E+06,   12.0188E+06,   12.0188E+06
C:/temp/Job-1.odb,Step-1,Increment      1: Step Time =    1.000,"P-1-1",            53,           30.,            0.,            0.,NA,NA,"",   10.8109E+06,   10.8099E+06,   10.8099E+06
C:/temp/Job-1.odb,Step-1,Increment      1: Step Time =    1.000,"P-1-1",            54,           20.,            0.,            0.,NA,NA,"",   9.72902E+06,   9.73042E+06,   9.73042E+06
C:/temp/Job-1.odb,Step-1,Increment      1: Step Time =    1.000,"P-1-1",            55,           10.,            0.,            0.,NA,NA,"",   8.94761E+06,   8.93841E+06,   8.93841E+06
C:/temp/Job-1.odb,Step-1,Increment      1: Step Time =    1.000,"P-1-1",            56,          200.,            0.,            0.,NA,NA,"",   980.146E+03,   953.449E+03,   953.449E+03
C:/temp/Job-1.odb,Step-1,Increment      1: Step Time =    1.000,"P-1-1",            57,            0.,            0.,            0.,NA,NA,"",   8.95709E+06,   9.42667E+06,   9.42667E+06
C:/temp/Job-1.odb,Step-1,Increment      1: Step Time =    1.000,"P-1-1",            58,          200.,          190.,            0.,NA,NA,"",   1.20745E+06,   983.092E+03,   983.092E+03
C:/temp/Job-1.odb,Step-1,Increment      1: Step Time =    1.000,"P-1-1",            59,          200.,          180.,            0.,NA,NA,"",   1.78461E+06,  -66.8490E+03,  -66.8490E+03
C:/temp/Job-1.odb,Step-1,Increment      1: Step Time =    1.000,"P-1-1",            60,          200.,          170.,            0.,NA,NA,"",   2.12367E+06,  -1.38859E+06,  -1.38859E+06
C:/temp/Job-1.odb,Step-1,Increment      1: Step Time =    1.000,"P-1-1",            61,          200.,          160.,            0.,NA,NA,"",   1.81902E+06,  -41.5247E+03,  -41.5247E+03
C:/temp/Job-1.odb,Step-1,Increment      1: Step Time =    1.000,"P-1-1",            62,          200.,          150.,            0.,NA,NA,"",   1.30223E+06,   1.34188E+06,   1.34188E+06
C:/temp/Job-1.odb,Step-1,Increment      1: Step Time =    1.000,"P-1-1",            63,          200.,          140.,            0.,NA,NA,"",   2.86811E+06,   3.18257E+06,   3.18257E+06
C:/temp/Job-1.odb,Step-1,Increment      1: Step Time =    1.000,"P-1-1",            64,          200.,          130.,            0.,NA,NA,"",   6.25586E+06,   6.62793E+06,   6.62793E+06
C:/temp/Job-1.odb,Step-1,Increment      1: Step Time =    1.000,"P-1-1",            65,          200.,          120.,            0.,NA,NA,"",   10.1864E+06,   10.6314E+06,   10.6314E+06
C:/temp/Job-1.odb,Step-1,Increment      1: Step Time =    1.000,"P-1-1",            66,          200.,          110.,            0.,NA,NA,"",   13.6255E+06,   14.0139E+06,   14.0139E+06
C:/temp/Job-1.odb,Step-1,Increment      1: Step Time =    1.000,"P-1-1",            67,          200.,          100.,            0.,NA,NA,"",   15.0387E+06,   15.4248E+06,   15.4248E+06
C:/temp/Job-1.odb,Step-1,Increment      1: Step Time =    1.000,"P-1-1",            68,          200.,           90.,            0.,NA,NA,"",   13.8763E+06,   14.2245E+06,   14.2245E+06
C:/temp/Job-1.odb,Step-1,Increment      1: Step Time =    1.000,"P-1-1",            69,          200.,           80.,            0.,NA,NA,"",   10.2659E+06,   10.6669E+06,   10.6669E+06
C:/temp/Job-1.odb,Step-1,Increment      1: Step Time =    1.000,"P-1-1",            70,          200.,           70.,            0.,NA,NA,"",   6.05473E+06,   6.42674E+06,   6.42674E+06
C:/temp/Job-1.odb,Step-1,Increment      1: Step Time =    1.000,"P-1-1",            71,          200.,           60.,            0.,NA,NA,"",   2.85739E+06,   3.16189E+06,   3.16189E+06
C:/temp/Job-1.odb,Step-1,Increment      1: Step Time =    1.000,"P-1-1",            72,          200.,           50.,            0.,NA,NA,"",   1.32221E+06,   1.32988E+06,   1.32988E+06
C:/temp/Job-1.odb,Step-1,Increment      1: Step Time =    1.000,"P-1-1",            73,          200.,           40.,            0.,NA,NA,"",   1.86058E+06,  -106.113E+03,  -106.113E+03
C:/temp/Job-1.odb,Step-1,Increment      1: Step Time =    1.000,"P-1-1",            74,          200.,           30.,            0.,NA,NA,"",   2.19018E+06,  -1.47615E+06,  -1.47615E+06
C:/temp/Job-1.odb,Step-1,Increment      1: Step Time =    1.000,"P-1-1",            75,          200.,           20.,            0.,NA,NA,"",   1.80437E+06,  -89.1820E+03,  -89.1820E+03
C:/temp/Job-1.odb,Step-1,Increment      1: Step Time =    1.000,"P-1-1",            76,          200.,           10.,            0.,NA,NA,"",   1.22014E+06,   989.610E+03,   989.610E+03
C:/temp/Job-1.odb,Step-1,Increment      1: Step Time =    1.000,"P-1-1",            77,          200.,          200.,            0.,NA,NA,"",   984.613E+03,   965.338E+03,   965.338E+03
C:/temp/Job-1.odb,Step-1,Increment      1: Step Time =    1.000,"P-1-1",            78,           10.,          200.,            0.,NA,NA,"",   8.97783E+06,   8.96459E+06,   8.96459E+06
C:/temp/Job-1.odb,Step-1,Increment      1: Step Time =    1.000,"P-1-1",            79,           20.,          200.,            0.,NA,NA,"",   9.72984E+06,   9.74378E+06,   9.74378E+06
C:/temp/Job-1.odb,Step-1,Increment      1: Step Time =    1.000,"P-1-1",            80,           30.,          200.,            0.,NA,NA,"",   10.9437E+06,   10.9315E+06,   10.9315E+06
C:/temp/Job-1.odb,Step-1,Increment      1: Step Time =    1.000,"P-1-1",            81,           40.,          200.,            0.,NA,NA,"",   12.1420E+06,   12.1281E+06,   12.1281E+06
C:/temp/Job-1.odb,Step-1,Increment      1: Step Time =    1.000,"P-1-1",            82,           50.,          200.,            0.,NA,NA,"",   13.2009E+06,   13.1952E+06,   13.1952E+06
C:/temp/Job-1.odb,Step-1,Increment      1: Step Time =    1.000,"P-1-1",            83,           60.,          200.,            0.,NA,NA,"",   13.5140E+06,   13.4561E+06,   13.4561E+06
C:/temp/Job-1.odb,Step-1,Increment      1: Step Time =    1.000,"P-1-1",            84,           70.,          200.,            0.,NA,NA,"",   11.9884E+06,   11.9373E+06,   11.9373E+06
C:/temp/Job-1.odb,Step-1,Increment      1: Step Time =    1.000,"P-1-1",            85,           80.,          200.,            0.,NA,NA,"",   8.78572E+06,   8.68196E+06,   8.68196E+06
C:/temp/Job-1.odb,Step-1,Increment      1: Step Time =    1.000,"P-1-1",            86,           90.,          200.,            0.,NA,NA,"",   4.31116E+06,   3.85049E+06,   3.85049E+06
C:/temp/Job-1.odb,Step-1,Increment      1: Step Time =    1.000,"P-1-1",            87,          100.,          200.,            0.,NA,NA,"",   3.60652E+06,  -3.10076E+06,  -3.10076E+06
C:/temp/Job-1.odb,Step-1,Increment      1: Step Time =    1.000,"P-1-1",            88,          110.,          200.,            0.,NA,NA,"",   6.82374E+06,  -6.70881E+06,  -6.70881E+06
C:/temp/Job-1.odb,Step-1,Increment      1: Step Time =    1.000,"P-1-1",            89,          120.,          200.,            0.,NA,NA,"",   8.83231E+06,  -8.78109E+06,  -8.78109E+06
C:/temp/Job-1.odb,Step-1,Increment      1: Step Time =    1.000,"P-1-1",            90,          130.,          200.,            0.,NA,NA,"",   8.39983E+06,  -8.37385E+06,  -8.37385E+06
C:/temp/Job-1.odb,Step-1,Increment      1: Step Time =    1.000,"P-1-1",            91,          140.,          200.,            0.,NA,NA,"",   6.78882E+06,  -6.74579E+06,  -6.74579E+06
C:/temp/Job-1.odb,Step-1,Increment      1: Step Time =    1.000,"P-1-1",            92,          150.,          200.,            0.,NA,NA,"",   4.65003E+06,  -4.64500E+06,  -4.64500E+06
C:/temp/Job-1.odb,Step-1,Increment      1: Step Time =    1.000,"P-1-1",            93,          160.,          200.,            0.,NA,NA,"",   2.93230E+06,  -2.91196E+06,  -2.91196E+06
C:/temp/Job-1.odb,Step-1,Increment      1: Step Time =    1.000,"P-1-1",            94,          170.,          200.,            0.,NA,NA,"",   1.49456E+06,  -1.46588E+06,  -1.46588E+06
C:/temp/Job-1.odb,Step-1,Increment      1: Step Time =    1.000,"P-1-1",            95,          180.,          200.,            0.,NA,NA,"",   550.638E+03,  -168.905E+03,  -168.905E+03
C:/temp/Job-1.odb,Step-1,Increment      1: Step Time =    1.000,"P-1-1",            96,          190.,          200.,            0.,NA,NA,"",   738.083E+03,   696.956E+03,   696.956E+03
C:/temp/Job-1.odb,Step-1,Increment      1: Step Time =    1.000,"P-1-1",            97,            0.,          200.,            0.,NA,NA,"",   8.98092E+06,   9.42425E+06,   9.42425E+06
C:/temp/Job-1.odb,Step-1,Increment      1: Step Time =    1.000,"P-1-1",            98,            0.,           10.,            0.,NA,NA,"",   5.94936E+06,   6.56328E+06,   6.56328E+06
C:/temp/Job-1.odb,Step-1,Increment      1: Step Time =    1.000,"P-1-1",            99,            0.,           20.,            0.,NA,NA,"",   3.27922E+06,   3.65160E+06,   3.65160E+06
C:/temp/Job-1.odb,Step-1,Increment      1: Step Time =    1.000,"P-1-1",           100,            0.,           30.,            0.,NA,NA,"",   1.01837E+06,   1.13407E+06,   1.13407E+06
C:/temp/Job-1.odb,Step-1,Increment      1: Step Time =    1.000,"P-1-1",           101,            0.,           40.,            0.,NA,NA,"",   843.442E+03,  -833.534E+03,  -833.534E+03
C:/temp/Job-1.odb,Step-1,Increment      1: Step Time =    1.000,"P-1-1",           102,            0.,           50.,            0.,NA,NA,"",   1.68754E+06,  -1.74203E+06,  -1.74203E+06
C:/temp/Job-1.odb,Step-1,Increment      1: Step Time =    1.000,"P-1-1",           103,            0.,           60.,            0.,NA,NA,"",   1.86979E+06,  -1.87737E+06,  -1.87737E+06
C:/temp/Job-1.odb,Step-1,Increment      1: Step Time =    1.000,"P-1-1",           104,            0.,           70.,            0.,NA,NA,"",   1.52567E+06,  -1.48610E+06,  -1.48610E+06
C:/temp/Job-1.odb,Step-1,Increment      1: Step Time =    1.000,"P-1-1",           105,            0.,           80.,            0.,NA,NA,"",   999.196E+03,  -957.209E+03,  -957.209E+03
C:/temp/Job-1.odb,Step-1,Increment      1: Step Time =    1.000,"P-1-1",           106,            0.,           90.,            0.,NA,NA,"",   484.794E+03,  -502.329E+03,  -502.329E+03
C:/temp/Job-1.odb,Step-1,Increment      1: Step Time =    1.000,"P-1-1",           107,            0.,          100.,            0.,NA,NA,"",   222.412E+03,  -254.857E+03,  -254.857E+03
C:/temp/Job-1.odb,Step-1,Increment      1: Step Time =    1.000,"P-1-1",           108,            0.,          110.,            0.,NA,NA,"",   491.225E+03,  -508.266E+03,  -508.266E+03
C:/temp/Job-1.odb,Step-1,Increment      1: Step Time =    1.000,"P-1-1",           109,            0.,          120.,            0.,NA,NA,"",   993.042E+03,  -960.023E+03,  -960.023E+03
C:/temp/Job-1.odb,Step-1,Increment      1: Step Time =    1.000,"P-1-1",           110,            0.,          130.,            0.,NA,NA,"",   1.53004E+06,  -1.49360E+06,  -1.49360E+06
C:/temp/Job-1.odb,Step-1,Increment      1: Step Time =    1.000,"P-1-1",           111,            0.,          140.,            0.,NA,NA,"",   1.86019E+06,  -1.86695E+06,  -1.86695E+06
C:/temp/Job-1.odb,Step-1,Increment      1: Step Time =    1.000,"P-1-1",           112,            0.,          150.,            0.,NA,NA,"",   1.65112E+06,  -1.70168E+06,  -1.70168E+06
C:/temp/Job-1.odb,Step-1,Increment      1: Step Time =    1.000,"P-1-1",           113,            0.,          160.,            0.,NA,NA,"",   805.104E+03,  -800.479E+03,  -800.479E+03
C:/temp/Job-1.odb,Step-1,Increment      1: Step Time =    1.000,"P-1-1",           114,            0.,          170.,            0.,NA,NA,"",   1.01971E+06,   1.11982E+06,   1.11982E+06
C:/temp/Job-1.odb,Step-1,Increment      1: Step Time =    1.000,"P-1-1",           115,            0.,          180.,            0.,NA,NA,"",   3.22699E+06,   3.58756E+06,   3.58756E+06
C:/temp/Job-1.odb,Step-1,Increment      1: Step Time =    1.000,"P-1-1",           116,            0.,          190.,            0.,NA,NA,"",   5.90179E+06,   6.49627E+06,   6.49627E+06
C:/temp/Job-1.odb,Step-1,Increment      1: Step Time =    1.000,"P-1-1",           117,       108.732,       8.05886,            0.,NA,NA,"",   6.71651E+06,   6.60472E+06,   6.60472E+06
C:/temp/Job-1.odb,Step-1,Increment      1: Step Time =    1.000,"P-1-1",           118,       188.234,       11.3856,            0.,NA,NA,"",   1.38971E+06,   1.08044E+06,   1.08044E+06
C:/temp/Job-1.odb,Step-1,Increment      1: Step Time =    1.000,"P-1-1",           119,       9.99577,       73.4942,            0.,NA,NA,"",   1.28582E+06,  -1.30450E+06,  -1.30450E+06
C:/temp/Job-1.odb,Step-1,Increment      1: Step Time =    1.000,"P-1-1",           120,       190.386,       126.606,            0.,NA,NA,"",   4.76487E+06,   2.66234E+06,   2.66234E+06
C:/temp/Job-1.odb,Step-1,Increment      1: Step Time =    1.000,"P-1-1",           121,       189.665,       189.992,            0.,NA,NA,"",   1.26548E+06,   992.911E+03,   992.911E+03
C:/temp/Job-1.odb,Step-1,Increment      1: Step Time =    1.000,"P-1-1",           122,       179.768,       190.448,            0.,NA,NA,"",   1.35187E+06,   968.835E+03,   968.835E+03
C:/temp/Job-1.odb,Step-1,Increment      1: Step Time =    1.000,"P-1-1",           123,       169.883,       190.051,            0.,NA,NA,"",   1.57893E+06,   225.133E+03,   225.133E+03
C:/temp/Job-1.odb,Step-1,Increment      1: Step Time =    1.000,"P-1-1",           124,       154.954,       187.026,            0.,NA,NA,"",   2.45786E+06,   2.27058E+06,   2.27058E+06
C:/temp/Job-1.odb,Step-1,Increment      1: Step Time =    1.000,"P-1-1",           125,       144.640,       191.354,            0.,NA,NA,"",   2.20145E+06,  -196.422E+03,  -196.422E+03
C:/temp/Job-1.odb,Step-1,Increment      1: Step Time =    1.000,"P-1-1",           126,       129.602,       191.871,            0.,NA,NA,"",   3.15965E+06,   863.229E+03,   863.229E+03
C:/temp/Job-1.odb,Step-1,Increment      1: Step Time =    1.000,"P-1-1",           127,       124.187,       188.795,            0.,NA,NA,"",   7.39572E+06,   7.70701E+06,   7.70701E+06
C:/temp/Job-1.odb,Step-1,Increment      1: Step Time =    1.000,"P-1-1",           128,       115.562,       190.810,            0.,NA,NA,"",   7.07296E+06,   7.06532E+06,   7.06532E+06
C:/temp/Job-1.odb,Step-1,Increment      1: Step Time =    1.000,"P-1-1",           129,       105.983,       189.175,            0.,NA,NA,"",   12.0695E+06,   12.0329E+06,   12.0329E+06
C:/temp/Job-1.odb,Step-1,Increment      1: Step Time =    1.000,"P-1-1",           130,       94.0546,       189.277,            0.,NA,NA,"",   9.83715E+06,   9.48832E+06,   9.48832E+06
C:/temp/Job-1.odb,Step-1,Increment      1: Step Time =    1.000,"P-1-1",           131,       84.4843,       191.077,            0.,NA,NA,"",   7.83414E+06,   7.01142E+06,   7.01142E+06
C:/temp/Job-1.odb,Step-1,Increment      1: Step Time =    1.000,"P-1-1",           132,       74.5655,       190.470,            0.,NA,NA,"",   6.94123E+06,   6.14504E+06,   6.14504E+06
C:/temp/Job-1.odb,Step-1,Increment      1: Step Time =    1.000,"P-1-1",           133,       63.6742,       191.422,            0.,NA,NA,"",   7.93228E+06,   7.59565E+06,   7.59565E+06
C:/temp/Job-1.odb,Step-1,Increment      1: Step Time =    1.000,"P-1-1",           134,       51.1777,       191.550,            0.,NA,NA,"",   8.51352E+06,   8.36885E+06,   8.36885E+06
C:/temp/Job-1.odb,Step-1,Increment      1: Step Time =    1.000,"P-1-1",           135,       41.1097,       190.633,            0.,NA,NA,"",   7.89242E+06,   7.78295E+06,   7.78295E+06
C:/temp/Job-1.odb,Step-1,Increment      1: Step Time =    1.000,"P-1-1",           136,       30.4721,       189.002,            0.,NA,NA,"",   6.80024E+06,   6.76370E+06,   6.76370E+06
C:/temp/Job-1.odb,Step-1,Increment      1: Step Time =    1.000,"P-1-1",           137,       21.0710,       191.506,            0.,NA,NA,"",   7.73347E+06,    7.7805E+06,    7.7805E+06
C:/temp/Job-1.odb,Step-1,Increment      1: Step Time =    1.000,"P-1-1",           138,       11.7358,       188.947,            0.,NA,NA,"",   6.48090E+06,   6.63613E+06,   6.63613E+06
C:/temp/Job-1.odb,Step-1,Increment      1: Step Time =    1.000,"P-1-1",           139,       9.61669,       179.091,            0.,NA,NA,"",   2.98121E+06,   3.27145E+06,   3.27145E+06
C:/temp/Job-1.odb,Step-1,Increment      1: Step Time =    1.000,"P-1-1",           140,       20.4068,       180.707,            0.,NA,NA,"",   3.46066E+06,   3.57809E+06,   3.57809E+06
C:/temp/Job-1.odb,Step-1,Increment      1: Step Time =    1.000,"P-1-1",           141,       31.6382,       180.030,            0.,NA,NA,"",   2.76251E+06,   2.66351E+06,   2.66351E+06
C:/temp/Job-1.odb,Step-1,Increment      1: Step Time =    1.000,"P-1-1",           142,       42.6985,       181.511,            0.,NA,NA,"",   2.58866E+06,   1.70920E+06,   1.70920E+06
C:/temp/Job-1.odb,Step-1,Increment      1: Step Time =    1.000,"P-1-1",           143,       52.9857,       179.979,            0.,NA,NA,"",   3.01732E+06,  -1.70469E+06,  -1.70469E+06
C:/temp/Job-1.odb,Step-1,Increment      1: Step Time =    1.000,"P-1-1",           144,       64.1271,       181.148,            0.,NA,NA,"",   4.55766E+06,  -4.12672E+06,  -4.12672E+06
C:/temp/Job-1.odb,Step-1,Increment      1: Step Time =    1.000,"P-1-1",           145,       136.294,       180.109,            0.,NA,NA,"",   13.4714E+06,   13.7070E+06,   13.7070E+06
C:/temp/Job-1.odb,Step-1,Increment      1: Step Time =    1.000,"P-1-1",           146,       147.151,       178.385,            0.,NA,NA,"",   8.19771E+06,   8.42931E+06,   8.42931E+06
C:/temp/Job-1.odb,Step-1,Increment      1: Step Time =    1.000,"P-1-1",           147,       155.480,       176.343,            0.,NA,NA,"",   5.91987E+06,   6.12936E+06,   6.12936E+06
C:/temp/Job-1.odb,Step-1,Increment      1: Step Time =    1.000,"P-1-1",           148,       167.232,       178.928,            0.,NA,NA,"",   2.89416E+06,   2.90405E+06,   2.90405E+06
C:/temp/Job-1.odb,Step-1,Increment      1: Step Time =    1.000,"P-1-1",           149,       179.181,       182.002,            0.,NA,NA,"",   1.96217E+06,   1.69951E+06,   1.69951E+06
C:/temp/Job-1.odb,Step-1,Increment      1: Step Time =    1.000,"P-1-1",           150,       188.538,       179.181,            0.,NA,NA,"",   1.75410E+06,   1.38320E+06,   1.38320E+06
C:/temp/Job-1.odb,Step-1,Increment      1: Step Time =    1.000,"P-1-1",           151,       153.971,       170.790,            0.,NA,NA,"",   7.85367E+06,   8.03902E+06,   8.03902E+06
C:/temp/Job-1.odb,Step-1,Increment      1: Step Time =    1.000,"P-1-1",           152,       168.911,       171.538,            0.,NA,NA,"",   3.50236E+06,   3.62952E+06,   3.62952E+06
C:/temp/Job-1.odb,Step-1,Increment      1: Step Time =    1.000,"P-1-1",           153,       180.187,       168.381,            0.,NA,NA,"",   2.36637E+06,   2.33766E+06,   2.33766E+06
C:/temp/Job-1.odb,Step-1,Increment      1: Step Time =    1.000,"P-1-1",           154,       190.242,       169.062,            0.,NA,NA,"",   1.78117E+06,   1.40781E+06,   1.40781E+06
C:/temp/Job-1.odb,Step-1,Increment      1: Step Time =    1.000,"P-1-1",           155,       165.904,       160.076,            0.,NA,NA,"",   5.22899E+06,   5.33841E+06,   5.33841E+06
C:/temp/Job-1.odb,Step-1,Increment      1: Step Time =    1.000,"P-1-1",           156,       190.504,       159.657,            0.,NA,NA,"",   2.05225E+06,    1.7405E+06,    1.7405E+06
C:/temp/Job-1.odb,Step-1,Increment      1: Step Time =    1.000,"P-1-1",           157,       178.517,       149.028,            0.,NA,NA,"",   3.44479E+06,   3.20190E+06,   3.20190E+06
C:/temp/Job-1.odb,Step-1,Increment      1: Step Time =    1.000,"P-1-1",           158,       190.139,       149.422,            0.,NA,NA,"",   2.90034E+06,   2.58204E+06,   2.58204E+06
C:/temp/Job-1.odb,Step-1,Increment      1: Step Time =    1.000,"P-1-1",           159,       190.947,       135.487,            0.,NA,NA,"",   4.17140E+06,   3.79939E+06,   3.79939E+06
C:/temp/Job-1.odb,Step-1,Increment      1: Step Time =    1.000,"P-1-1",           160,       188.058,       117.786,            0.,NA,NA,"",   5.51948E+06,  -2.48449E+06,  -2.48449E+06
C:/temp/Job-1.odb,Step-1,Increment      1: Step Time =    1.000,"P-1-1",           161,       188.988,       106.825,            0.,NA,NA,"",   6.66702E+06,  -4.57273E+06,  -4.57273E+06
C:/temp/Job-1.odb,Step-1,Increment      1: Step Time =    1.000,"P-1-1",           162,       189.157,       96.5584,            0.,NA,NA,"",   6.84352E+06,  -5.00602E+06,  -5.00602E+06
C:/temp/Job-1.odb,Step-1,Increment      1: Step Time =    1.000,"P-1-1",           163,       188.761,       85.2440,            0.,NA,NA,"",   6.12619E+06,  -2.82173E+06,  -2.82173E+06
C:/temp/Job-1.odb,Step-1,Increment      1: Step Time =    1.000,"P-1-1",           164,       188.569,       63.7499,            0.,NA,NA,"",   4.04486E+06,   3.38851E+06,   3.38851E+06
C:/temp/Job-1.odb,Step-1,Increment      1: Step Time =    1.000,"P-1-1",           165,       191.113,       74.7815,            0.,NA,NA,"",   4.90119E+06,   4.34337E+06,   4.34337E+06
C:/temp/Job-1.odb,Step-1,Increment      1: Step Time =    1.000,"P-1-1",           166,       178.446,       50.5087,            0.,NA,NA,"",   3.52725E+06,   3.27504E+06,   3.27504E+06
C:/temp/Job-1.odb,Step-1,Increment      1: Step Time =    1.000,"P-1-1",           167,       190.042,       53.0480,            0.,NA,NA,"",   3.12942E+06,   2.79715E+06,   2.79715E+06
C:/temp/Job-1.odb,Step-1,Increment      1: Step Time =    1.000,"P-1-1",           168,       168.417,       44.8342,            0.,NA,NA,"",   4.73346E+06,   4.78136E+06,   4.78136E+06
C:/temp/Job-1.odb,Step-1,Increment      1: Step Time =    1.000,"P-1-1",           169,       177.974,       43.4982,            0.,NA,NA,"",   3.41002E+06,   3.28733E+06,   3.28733E+06
C:/temp/Job-1.odb,Step-1,Increment      1: Step Time =    1.000,"P-1-1",           170,       190.878,       43.7244,            0.,NA,NA,"",   2.17198E+06,   1.89172E+06,   1.89172E+06
C:/temp/Job-1.odb,Step-1,Increment      1: Step Time =    1.000,"P-1-1",           171,       159.436,       32.2018,            0.,NA,NA,"",   6.32108E+06,   6.50864E+06,   6.50864E+06
C:/temp/Job-1.odb,Step-1,Increment      1: Step Time =    1.000,"P-1-1",           172,       170.517,       33.6303,            0.,NA,NA,"",   3.70720E+06,   3.83575E+06,   3.83575E+06
C:/temp/Job-1.odb,Step-1,Increment      1: Step Time =    1.000,"P-1-1",           173,       178.664,       33.9425,            0.,NA,NA,"",   2.65064E+06,   2.64250E+06,   2.64250E+06
C:/temp/Job-1.odb,Step-1,Increment      1: Step Time =    1.000,"P-1-1",           174,       191.901,       34.5545,            0.,NA,NA,"",   1.79823E+06,   1.37283E+06,   1.37283E+06
C:/temp/Job-1.odb,Step-1,Increment      1: Step Time =    1.000,"P-1-1",           175,       140.783,       19.7446,            0.,NA,NA,"",   10.4030E+06,   10.6514E+06,   10.6514E+06
C:/temp/Job-1.odb,Step-1,Increment      1: Step Time =    1.000,"P-1-1",           176,       149.215,       20.0024,            0.,NA,NA,"",   6.51673E+06,   6.72269E+06,   6.72269E+06
C:/temp/Job-1.odb,Step-1,Increment      1: Step Time =    1.000,"P-1-1",           177,       156.177,       19.8645,            0.,NA,NA,"",   4.48108E+06,   4.60597E+06,   4.60597E+06
C:/temp/Job-1.odb,Step-1,Increment      1: Step Time =    1.000,"P-1-1",           178,       167.362,       18.7106,            0.,NA,NA,"",   2.68294E+06,   2.59355E+06,   2.59355E+06
C:/temp/Job-1.odb,Step-1,Increment      1: Step Time =    1.000,"P-1-1",           179,       178.989,       21.2665,            0.,NA,NA,"",   2.07521E+06,   1.91052E+06,   1.91052E+06
C:/temp/Job-1.odb,Step-1,Increment      1: Step Time =    1.000,"P-1-1",           180,       190.765,       21.3411,            0.,NA,NA,"",   1.73871E+06,   1.27971E+06,   1.27971E+06
C:/temp/Job-1.odb,Step-1,Increment      1: Step Time =    1.000,"P-1-1",           181,       128.935,       11.4066,            0.,NA,NA,"",   6.18986E+06,   6.46506E+06,   6.46506E+06
C:/temp/Job-1.odb,Step-1,Increment      1: Step Time =    1.000,"P-1-1",           182,       9.80536,       9.83149,            0.,NA,NA,"",   6.81175E+06,   7.00888E+06,   7.00888E+06
C:/temp/Job-1.odb,Step-1,Increment      1: Step Time =    1.000,"P-1-1",           183,       19.7902,       9.92730,            0.,NA,NA,"",   7.03139E+06,   7.07415E+06,   7.07415E+06
C:/temp/Job-1.odb,Step-1,Increment      1: Step Time =    1.000,"P-1-1",           184,       29.5726,       9.77309,            0.,NA,NA,"",   7.41967E+06,   7.40160E+06,   7.40160E+06
C:/temp/Job-1.odb,Step-1,Increment      1: Step Time =    1.000,"P-1-1",           185,       44.7136,       13.4619,            0.,NA,NA,"",   5.14672E+06,   4.89014E+06,   4.89014E+06
C:/temp/Job-1.odb,Step-1,Increment      1: Step Time =    1.000,"P-1-1",           186,       55.1952,       8.85643,            0.,NA,NA,"",   7.98252E+06,   7.77786E+06,   7.77786E+06
C:/temp/Job-1.odb,Step-1,Increment      1: Step Time =    1.000,"P-1-1",           187,       70.3829,       8.14642,            0.,NA,NA,"",   7.84683E+06,   7.35498E+06,   7.35498E+06
C:/temp/Job-1.odb,Step-1,Increment      1: Step Time =    1.000,"P-1-1",           188,       75.8264,       11.1809,            0.,NA,NA,"",   6.40743E+06,   5.43510E+06,   5.43510E+06
C:/temp/Job-1.odb,Step-1,Increment      1: Step Time =    1.000,"P-1-1",           189,       84.5726,       8.99904,            0.,NA,NA,"",   7.73203E+06,   6.90724E+06,   6.90724E+06
C:/temp/Job-1.odb,Step-1,Increment      1: Step Time =    1.000,"P-1-1",           190,       94.8958,       10.3445,            0.,NA,NA,"",   9.72660E+06,   9.46351E+06,   9.46351E+06
C:/temp/Job-1.odb,Step-1,Increment      1: Step Time =    1.000,"P-1-1",           191,       119.377,       9.86729,            0.,NA,NA,"",   7.22035E+06,   7.35980E+06,   7.35980E+06
C:/temp/Job-1.odb,Step-1,Increment      1: Step Time =    1.000,"P-1-1",           192,       137.306,       9.21838,            0.,NA,NA,"",   2.94159E+06,   933.263E+03,   933.263E+03
C:/temp/Job-1.odb,Step-1,Increment      1: Step Time =    1.000,"P-1-1",           193,       150.055,       8.03233,            0.,NA,NA,"",   2.12577E+06,  -543.486E+03,  -543.486E+03
C:/temp/Job-1.odb,Step-1,Increment      1: Step Time =    1.000,"P-1-1",           194,       158.805,       8.54940,            0.,NA,NA,"",   1.78336E+06,  -237.711E+03,  -237.711E+03
C:/temp/Job-1.odb,Step-1,Increment      1: Step Time =    1.000,"P-1-1",           195,       168.830,       10.7596,            0.,NA,NA,"",   1.65269E+06,   507.865E+03,   507.865E+03
C:/temp/Job-1.odb,Step-1,Increment      1: Step Time =    1.000,"P-1-1",           196,       178.800,       8.69769,            0.,NA,NA,"",   1.28421E+06,   540.404E+03,   540.404E+03
C:/temp/Job-1.odb,Step-1,Increment      1: Step Time =    1.000,"P-1-1",           197,       63.6292,       19.9379,            0.,NA,NA,"",   4.86820E+06,  -4.65699E+06,  -4.65699E+06
C:/temp/Job-1.odb,Step-1,Increment      1: Step Time =    1.000,"P-1-1",           198,       52.3914,       22.1360,            0.,NA,NA,"",   3.64932E+06,  -3.59704E+06,  -3.59704E+06
C:/temp/Job-1.odb,Step-1,Increment      1: Step Time =    1.000,"P-1-1",           199,       45.0871,       22.6186,            0.,NA,NA,"",   2.30181E+06,  -1.48056E+06,  -1.48056E+06
C:/temp/Job-1.odb,Step-1,Increment      1: Step Time =    1.000,"P-1-1",           200,       34.5010,       19.0943,            0.,NA,NA,"",   2.91688E+06,   2.76830E+06,   2.76830E+06
C:/temp/Job-1.odb,Step-1,Increment      1: Step Time =    1.000,"P-1-1",           201,       23.6212,       18.2663,            0.,NA,NA,"",   3.79444E+06,   3.86635E+06,   3.86635E+06
C:/temp/Job-1.odb,Step-1,Increment      1: Step Time =    1.000,"P-1-1",           202,       9.68809,       19.3978,            0.,NA,NA,"",   3.55476E+06,   3.85181E+06,   3.85181E+06
C:/temp/Job-1.odb,Step-1,Increment      1: Step Time =    1.000,"P-1-1",           203,       46.3048,       29.4678,            0.,NA,NA,"",   5.97275E+06,  -6.09389E+06,  -6.09389E+06
C:/temp/Job-1.odb,Step-1,Increment      1: Step Time =    1.000,"P-1-1",           204,       31.2811,       31.2241,            0.,NA,NA,"",   1.97730E+06,  -2.02257E+06,  -2.02257E+06
C:/temp/Job-1.odb,Step-1,Increment      1: Step Time =    1.000,"P-1-1",           205,       24.2556,       31.8158,            0.,NA,NA,"",   1.12871E+06,  -884.011E+03,  -884.011E+03
C:/temp/Job-1.odb,Step-1,Increment      1: Step Time =    1.000,"P-1-1",           206,       12.0941,       29.7320,            0.,NA,NA,"",   904.624E+03,   952.667E+03,   952.667E+03
C:/temp/Job-1.odb,Step-1,Increment      1: Step Time =    1.000,"P-1-1",           207,       34.6411,       40.6167,            0.,NA,NA,"",   5.66037E+06,  -5.73785E+06,  -5.73785E+06
C:/temp/Job-1.odb,Step-1,Increment      1: Step Time =    1.000,"P-1-1",           208,       19.8578,       42.1241,            0.,NA,NA,"",   2.51603E+06,  -2.36951E+06,  -2.36951E+06
C:/temp/Job-1.odb,Step-1,Increment      1: Step Time =    1.000,"P-1-1",           209,       9.72060,       40.5904,            0.,NA,NA,"",   1.56637E+06,  -1.33014E+06,  -1.33014E+06
C:/temp/Job-1.odb,Step-1,Increment      1: Step Time =    1.000,"P-1-1",           210,       21.0167,       49.4772,            0.,NA,NA,"",   3.12204E+06,  -3.08226E+06,  -3.08226E+06
C:/temp/Job-1.odb,Step-1,Increment      1: Step Time =    1.000,"P-1-1",           211,       9.08129,       50.1254,            0.,NA,NA,"",   2.16212E+06,  -2.07938E+06,  -2.07938E+06
C:/temp/Job-1.odb,Step-1,Increment      1: Step Time =    1.000,"P-1-1",           212,       10.1133,       61.8082,            0.,NA,NA,"",   1.95499E+06,  -1.95125E+06,  -1.95125E+06
C:/temp/Job-1.odb,Step-1,Increment      1: Step Time =    1.000,"P-1-1",           213,       10.9814,       95.4762,            0.,NA,NA,"",   539.579E+03,  -562.883E+03,  -562.883E+03
C:/temp/Job-1.odb,Step-1,Increment      1: Step Time =    1.000,"P-1-1",           214,       9.19854,       83.5863,            0.,NA,NA,"",   784.380E+03,  -807.534E+03,  -807.534E+03
C:/temp/Job-1.odb,Step-1,Increment      1: Step Time =    1.000,"P-1-1",           215,       7.93004,       103.238,            0.,NA,NA,"",   421.062E+03,  -458.264E+03,  -458.264E+03
C:/temp/Job-1.odb,Step-1,Increment      1: Step Time =    1.000,"P-1-1",           216,       11.7476,       115.522,            0.,NA,NA,"",   784.184E+03,  -806.766E+03,  -806.766E+03
C:/temp/Job-1.odb,Step-1,Increment      1: Step Time =    1.000,"P-1-1",           217,       9.74704,       137.303,            0.,NA,NA,"",   1.92169E+06,  -1.91834E+06,  -1.91834E+06
C:/temp/Job-1.odb,Step-1,Increment      1: Step Time =    1.000,"P-1-1",           218,       10.3667,       127.647,            0.,NA,NA,"",   1.37387E+06,  -1.39398E+06,  -1.39398E+06
C:/temp/Job-1.odb,Step-1,Increment      1: Step Time =    1.000,"P-1-1",           219,       21.3155,       148.588,            0.,NA,NA,"",   3.19946E+06,  -3.18762E+06,  -3.18762E+06
C:/temp/Job-1.odb,Step-1,Increment      1: Step Time =    1.000,"P-1-1",           220,       8.71874,       146.265,            0.,NA,NA,"",   2.17407E+06,  -2.11657E+06,  -2.11657E+06
C:/temp/Job-1.odb,Step-1,Increment      1: Step Time =    1.000,"P-1-1",           221,       34.7403,       159.397,            0.,NA,NA,"",   5.72150E+06,  -5.79640E+06,  -5.79640E+06
C:/temp/Job-1.odb,Step-1,Increment      1: Step Time =    1.000,"P-1-1",           222,       20.5192,       158.890,            0.,NA,NA,"",   2.46752E+06,  -2.33234E+06,  -2.33234E+06
C:/temp/Job-1.odb,Step-1,Increment      1: Step Time =    1.000,"P-1-1",           223,       9.35345,       155.861,            0.,NA,NA,"",   1.85517E+06,  -1.68770E+06,  -1.68770E+06
C:/temp/Job-1.odb,Step-1,Increment      1: Step Time =    1.000,"P-1-1",           224,       45.0320,       171.245,            0.,NA,NA,"",   5.03030E+06,  -5.16560E+06,  -5.16560E+06
C:/temp/Job-1.odb,Step-1,Increment      1: Step Time =    1.000,"P-1-1",           225,       32.4997,       168.174,            0.,NA,NA,"",   2.33738E+06,  -2.39386E+06,  -2.39386E+06
C:/temp/Job-1.odb,Step-1,Increment      1: Step Time =    1.000,"P-1-1",           226,       22.7628,       165.435,            0.,NA,NA,"",   1.49458E+06,  -1.34839E+06,  -1.34839E+06
C:/temp/Job-1.odb,Step-1,Increment      1: Step Time =    1.000,"P-1-1",           227,       8.76693,       165.261,            0.,NA,NA,"",   801.235E+03,  -101.755E+03,  -101.755E+03
C:/temp/Job-1.odb,Step-1,Increment      1: Step Time =    1.000,"P-1-1",           228,       95.0238,       183.852,            0.,NA,NA,"",   11.8430E+06,   11.9455E+06,   11.9455E+06
C:/temp/Job-1.odb,Step-1,Increment      1: Step Time =    1.000,"P-1-1",           229,       90.0651,       183.410,            0.,NA,NA,"",   8.42673E+06,   8.40931E+06,   8.40931E+06
C:/temp/Job-1.odb,Step-1,Increment      1: Step Time =    1.000,"P-1-1",           230,       80.2696,       181.650,            0.,NA,NA,"",   3.09385E+06,   921.974E+03,   921.974E+03
C:/temp/Job-1.odb,Step-1,Increment      1: Step Time =    1.000,"P-1-1",           231,       75.4672,       180.338,            0.,NA,NA,"",   3.10060E+06,  -2.57585E+06,  -2.57585E+06
C:/temp/Job-1.odb,Step-1,Increment      1: Step Time =    1.000,"P-1-1",           232,       66.1376,       176.872,            0.,NA,NA,"",   5.96613E+06,  -5.97345E+06,  -5.97345E+06
C:/temp/Job-1.odb,Step-1,Increment      1: Step Time =    1.000,"P-1-1",           233,       61.6431,       174.731,            0.,NA,NA,"",   6.89459E+06,  -6.93574E+06,  -6.93574E+06
C:/temp/Job-1.odb,Step-1,Increment      1: Step Time =    1.000,"P-1-1",           234,       53.0737,       169.670,            0.,NA,NA,"",   7.55730E+06,  -7.65423E+06,  -7.65423E+06
C:/temp/Job-1.odb,Step-1,Increment      1: Step Time =    1.000,"P-1-1",           235,       49.0288,       166.768,            0.,NA,NA,"",   7.52175E+06,  -7.65215E+06,  -7.65215E+06
C:/temp/Job-1.odb,Step-1,Increment      1: Step Time =    1.000,"P-1-1",           236,       41.4897,       160.271,            0.,NA,NA,"",   7.22349E+06,  -7.28611E+06,  -7.28611E+06
C:/temp/Job-1.odb,Step-1,Increment      1: Step Time =    1.000,"P-1-1",           237,       38.0220,       156.699,            0.,NA,NA,"",   6.68247E+06,  -6.74388E+06,  -6.74388E+06
C:/temp/Job-1.odb,Step-1,Increment      1: Step Time =    1.000,"P-1-1",           238,       31.7511,       148.970,            0.,NA,NA,"",   5.10703E+06,  -5.15465E+06,  -5.15465E+06
C:/temp/Job-1.odb,Step-1,Increment      1: Step Time =    1.000,"P-1-1",           239,       28.9699,       144.841,            0.,NA,NA,"",   4.17976E+06,  -4.22332E+06,  -4.22332E+06
C:/temp/Job-1.odb,Step-1,Increment      1: Step Time =    1.000,"P-1-1",           240,       24.1650,       136.125,            0.,NA,NA,"",   2.55468E+06,  -2.58117E+06,  -2.58117E+06
C:/temp/Job-1.odb,Step-1,Increment      1: Step Time =    1.000,"P-1-1",           241,       22.1581,       131.570,            0.,NA,NA,"",   1.94637E+06,  -1.96395E+06,  -1.96395E+06
C:/temp/Job-1.odb,Step-1,Increment      1: Step Time =    1.000,"P-1-1",           242,       18.9706,       122.141,            0.,NA,NA,"",   1.10009E+06,  -1.12066E+06,  -1.12066E+06
C:/temp/Job-1.odb,Step-1,Increment      1: Step Time =    1.000,"P-1-1",           243,       17.8013,       117.302,            0.,NA,NA,"",   866.645E+03,  -888.409E+03,  -888.409E+03
C:/temp/Job-1.odb,Step-1,Increment      1: Step Time =    1.000,"P-1-1",           244,       16.3318,       107.459,            0.,NA,NA,"",   632.746E+03,  -637.332E+03,  -637.332E+03
C:/temp/Job-1.odb,Step-1,Increment      1: Step Time =    1.000,"P-1-1",           245,       16.0369,       97.5108,            0.,NA,NA,"",   587.738E+03,  -599.048E+03,  -599.048E+03
C:/temp/Job-1.odb,Step-1,Increment      1: Step Time =    1.000,"P-1-1",           246,       16.3318,       92.5411,            0.,NA,NA,"",   645.683E+03,  -651.053E+03,  -651.053E+03
C:/temp/Job-1.odb,Step-1,Increment      1: Step Time =    1.000,"P-1-1",           247,       17.8013,       82.6978,            0.,NA,NA,"",   896.785E+03,  -912.435E+03,  -912.435E+03
C:/temp/Job-1.odb,Step-1,Increment      1: Step Time =    1.000,"P-1-1",           248,       18.9706,       77.8587,            0.,NA,NA,"",   1.10461E+06,  -1.12243E+06,  -1.12243E+06
C:/temp/Job-1.odb,Step-1,Increment      1: Step Time =    1.000,"P-1-1",           249,       22.1581,       68.4305,            0.,NA,NA,"",   1.88188E+06,  -1.89902E+06,  -1.89902E+06
C:/temp/Job-1.odb,Step-1,Increment      1: Step Time =    1.000,"P-1-1",           250,       24.1650,       63.8745,            0.,NA,NA,"",   2.48634E+06,  -2.52603E+06,  -2.52603E+06
C:/temp/Job-1.odb,Step-1,Increment      1: Step Time =    1.000,"P-1-1",           251,       28.9699,       55.1588,            0.,NA,NA,"",   4.12033E+06,  -4.15252E+06,  -4.15252E+06
C:/temp/Job-1.odb,Step-1,Increment      1: Step Time =    1.000,"P-1-1",           252,       31.7511,       51.0297,            0.,NA,NA,"",   5.05732E+06,  -5.09464E+06,  -5.09464E+06
C:/temp/Job-1.odb,Step-1,Increment      1: Step Time =    1.000,"P-1-1",           253,       38.0220,       43.3014,            0.,NA,NA,"",   6.68504E+06,  -6.74632E+06,  -6.74632E+06
C:/temp/Job-1.odb,Step-1,Increment      1: Step Time =    1.000,"P-1-1",           254,       41.4897,       39.7294,            0.,NA,NA,"",   7.27581E+06,  -7.34378E+06,  -7.34378E+06
C:/temp/Job-1.odb,Step-1,Increment      1: Step Time =    1.000,"P-1-1",           255,       49.0288,       33.2322,            0.,NA,NA,"",    7.9616E+06,  -8.05994E+06,  -8.05994E+06
C:/temp/Job-1.odb,Step-1,Increment      1: Step Time =    1.000,"P-1-1",           256,       53.0737,       30.3299,            0.,NA,NA,"",   8.18152E+06,  -8.24454E+06,  -8.24454E+06
C:/temp/Job-1.odb,Step-1,Increment      1: Step Time =    1.000,"P-1-1",           257,       61.6431,       25.2688,            0.,NA,NA,"",   7.47389E+06,  -7.50878E+06,  -7.50878E+06
C:/temp/Job-1.odb,Step-1,Increment      1: Step Time =    1.000,"P-1-1",           258,       66.1376,       23.1278,            0.,NA,NA,"",   6.31962E+06,  -6.31903E+06,  -6.31903E+06
C:/temp/Job-1.odb,Step-1,Increment      1: Step Time =    1.000,"P-1-1",           259,       75.4672,       19.6623,            0.,NA,NA,"",   3.11181E+06,  -2.78657E+06,  -2.78657E+06
C:/temp/Job-1.odb,Step-1,Increment      1: Step Time =    1.000,"P-1-1",           260,       80.2696,       18.3501,            0.,NA,NA,"",   2.88980E+06,   650.863E+03,   650.863E+03
C:/temp/Job-1.odb,Step-1,Increment      1: Step Time =    1.000,"P-1-1",           261,       90.0651,       16.5896,            0.,NA,NA,"",   8.73329E+06,   8.79834E+06,   8.79834E+06
C:/temp/Job-1.odb,Step-1,Increment      1: Step Time =    1.000,"P-1-1",           262,       95.0238,       16.1475,            0.,NA,NA,"",   11.9256E+06,   12.1177E+06,   12.1177E+06
C:/temp/Job-1.odb,Step-1,Increment      1: Step Time =    1.000,"P-1-1",           263,       104.976,       16.1475,            0.,NA,NA,"",   18.6912E+06,   18.7707E+06,   18.7707E+06
C:/temp/Job-1.odb,Step-1,Increment      1: Step Time =    1.000,"P-1-1",           264,       109.935,       16.5896,            0.,NA,NA,"",   20.6636E+06,   20.7709E+06,   20.7709E+06
C:/temp/Job-1.odb,Step-1,Increment      1: Step Time =    1.000,"P-1-1",           265,       119.730,       18.3501,            0.,NA,NA,"",   20.8894E+06,   21.0550E+06,   21.0550E+06
C:/temp/Job-1.odb,Step-1,Increment      1: Step Time =    1.000,"P-1-1",           266,       124.533,       19.6623,            0.,NA,NA,"",   19.5029E+06,   19.7413E+06,   19.7413E+06
C:/temp/Job-1.odb,Step-1,Increment      1: Step Time =    1.000,"P-1-1",           267,       133.862,       23.1278,            0.,NA,NA,"",   15.9478E+06,   16.0520E+06,   16.0520E+06
C:/temp/Job-1.odb,Step-1,Increment      1: Step Time =    1.000,"P-1-1",           268,       138.357,       25.2688,            0.,NA,NA,"",   13.8991E+06,   14.1177E+06,   14.1177E+06
C:/temp/Job-1.odb,Step-1,Increment      1: Step Time =    1.000,"P-1-1",           269,       146.926,       30.3299,            0.,NA,NA,"",   10.4758E+06,   10.5885E+06,   10.5885E+06
C:/temp/Job-1.odb,Step-1,Increment      1: Step Time =    1.000,"P-1-1",           270,       150.971,       33.2322,            0.,NA,NA,"",   8.95478E+06,   9.07315E+06,   9.07315E+06
C:/temp/Job-1.odb,Step-1,Increment      1: Step Time =    1.000,"P-1-1",           271,       158.510,       39.7294,            0.,NA,NA,"",   6.66274E+06,   6.77568E+06,   6.77568E+06
C:/temp/Job-1.odb,Step-1,Increment      1: Step Time =    1.000,"P-1-1",           272,       161.978,       43.3014,            0.,NA,NA,"",   5.85285E+06,   5.91198E+06,   5.91198E+06
C:/temp/Job-1.odb,Step-1,Increment      1: Step Time =    1.000,"P-1-1",           273,       168.249,       51.0297,            0.,NA,NA,"",   4.29482E+06,   4.31076E+06,   4.31076E+06
C:/temp/Job-1.odb,Step-1,Increment      1: Step Time =    1.000,"P-1-1",           274,       171.030,       55.1588,            0.,NA,NA,"",   3.36106E+06,   3.34514E+06,   3.34514E+06
C:/temp/Job-1.odb,Step-1,Increment      1: Step Time =    1.000,"P-1-1",           275,       175.835,       63.8745,            0.,NA,NA,"",   1.52640E+06,   380.059E+03,   380.059E+03
C:/temp/Job-1.odb,Step-1,Increment      1: Step Time =    1.000,"P-1-1",           276,       177.842,       68.4305,            0.,NA,NA,"",   2.01851E+06,  -1.80796E+06,  -1.80796E+06
C:/temp/Job-1.odb,Step-1,Increment      1: Step Time =    1.000,"P-1-1",           277,       181.029,       77.8587,            0.,NA,NA,"",   5.86301E+06,  -5.82493E+06,  -5.82493E+06
C:/temp/Job-1.odb,Step-1,Increment      1: Step Time =    1.000,"P-1-1",           278,       182.199,       82.6978,            0.,NA,NA,"",   7.47922E+06,  -7.55941E+06,  -7.55941E+06
C:/temp/Job-1.odb,Step-1,Increment      1: Step Time =    1.000,"P-1-1",           279,       183.668,       92.5411,            0.,NA,NA,"",   10.7066E+06,  -10.7812E+06,  -10.7812E+06
C:/temp/Job-1.odb,Step-1,Increment      1: Step Time =    1.000,"P-1-1",           280,       183.963,       102.489,            0.,NA,NA,"",   11.9985E+06,  -12.0395E+06,  -12.0395E+06
C:/temp/Job-1.odb,Step-1,Increment      1: Step Time =    1.000,"P-1-1",           281,       183.668,       107.459,            0.,NA,NA,"",   11.1759E+06,  -11.1994E+06,  -11.1994E+06
C:/temp/Job-1.odb,Step-1,Increment      1: Step Time =    1.000,"P-1-1",           282,       182.199,       117.302,            0.,NA,NA,"",   7.55300E+06,  -7.63074E+06,  -7.63074E+06
C:/temp/Job-1.odb,Step-1,Increment      1: Step Time =    1.000,"P-1-1",           283,       181.029,       122.141,            0.,NA,NA,"",   5.55692E+06,  -5.53455E+06,  -5.53455E+06
C:/temp/Job-1.odb,Step-1,Increment      1: Step Time =    1.000,"P-1-1",           284,       177.842,       131.570,            0.,NA,NA,"",   2.02069E+06,  -1.73539E+06,  -1.73539E+06
C:/temp/Job-1.odb,Step-1,Increment      1: Step Time =    1.000,"P-1-1",           285,       175.835,       136.125,            0.,NA,NA,"",   1.57163E+06,   407.906E+03,   407.906E+03
C:/temp/Job-1.odb,Step-1,Increment      1: Step Time =    1.000,"P-1-1",           286,       171.030,       144.841,            0.,NA,NA,"",   3.37023E+06,   3.35869E+06,   3.35869E+06
C:/temp/Job-1.odb,Step-1,Increment      1: Step Time =    1.000,"P-1-1",           287,       168.249,       148.970,            0.,NA,NA,"",   4.26890E+06,   4.30416E+06,   4.30416E+06
C:/temp/Job-1.odb,Step-1,Increment      1: Step Time =    1.000,"P-1-1",           288,       161.978,       156.699,            0.,NA,NA,"",   5.87101E+06,   5.95585E+06,   5.95585E+06
C:/temp/Job-1.odb,Step-1,Increment      1: Step Time =    1.000,"P-1-1",           289,       158.510,       160.271,            0.,NA,NA,"",   6.79501E+06,   6.88734E+06,   6.88734E+06
C:/temp/Job-1.odb,Step-1,Increment      1: Step Time =    1.000,"P-1-1",           290,       150.971,       166.768,            0.,NA,NA,"",   9.23870E+06,   9.36160E+06,   9.36160E+06
C:/temp/Job-1.odb,Step-1,Increment      1: Step Time =    1.000,"P-1-1",           291,       146.926,       169.670,            0.,NA,NA,"",   10.9257E+06,   11.0123E+06,   11.0123E+06
C:/temp/Job-1.odb,Step-1,Increment      1: Step Time =    1.000,"P-1-1",           292,       138.357,       174.731,            0.,NA,NA,"",   14.6214E+06,   14.7629E+06,   14.7629E+06
C:/temp/Job-1.odb,Step-1,Increment      1: Step Time =    1.000,"P-1-1",           293,       133.862,       176.872,            0.,NA,NA,"",   16.4596E+06,   16.6296E+06,   16.6296E+06
C:/temp/Job-1.odb,Step-1,Increment      1: Step Time =    1.000,"P-1-1",           294,       124.533,       180.338,            0.,NA,NA,"",   19.7122E+06,   19.8689E+06,   19.8689E+06
C:/temp/Job-1.odb,Step-1,Increment      1: Step Time =    1.000,"P-1-1",           295,       119.730,       181.650,            0.,NA,NA,"",   20.5724E+06,   20.7788E+06,   20.7788E+06
C:/temp/Job-1.odb,Step-1,Increment      1: Step Time =    1.000,"P-1-1",           296,       109.935,       183.410,            0.,NA,NA,"",   20.3188E+06,   20.3770E+06,   20.3770E+06
C:/temp/Job-1.odb,Step-1,Increment      1: Step Time =    1.000,"P-1-1",           297,       104.976,       183.852,            0.,NA,NA,"",   18.0593E+06,   18.1002E+06,   18.1002E+06
C:/temp/Job-1.odb,Step-1,Increment      1: Step Time =    1.000,"P-1-1",           298,          195.,            0.,            0.,NA,NA,"",   910.624E+03,   880.375E+03,   880.375E+03
C:/temp/Job-1.odb,Step-1,Increment      1: Step Time =    1.000,"P-1-1",           299,          185.,            0.,            0.,NA,NA,"",   505.700E+03,   402.662E+03,   402.662E+03
C:/temp/Job-1.odb,Step-1,Increment      1: Step Time =    1.000,"P-1-1",           300,          175.,            0.,            0.,NA,NA,"",   980.394E+03,  -930.702E+03,  -930.702E+03
C:/temp/Job-1.odb,Step-1,Increment      1: Step Time =    1.000,"P-1-1",           301,          165.,            0.,            0.,NA,NA,"",   2.21026E+06,  -2.19168E+06,  -2.19168E+06
C:/temp/Job-1.odb,Step-1,Increment      1: Step Time =    1.000,"P-1-1",           302,          155.,            0.,            0.,NA,NA,"",   3.85319E+06,  -3.83675E+06,  -3.83675E+06
C:/temp/Job-1.odb,Step-1,Increment      1: Step Time =    1.000,"P-1-1",           303,          145.,            0.,            0.,NA,NA,"",   5.72076E+06,  -5.70163E+06,  -5.70163E+06
C:/temp/Job-1.odb,Step-1,Increment      1: Step Time =    1.000,"P-1-1",           304,          135.,            0.,            0.,NA,NA,"",   7.02801E+06,  -7.00517E+06,  -7.00517E+06
C:/temp/Job-1.odb,Step-1,Increment      1: Step Time =    1.000,"P-1-1",           305,          125.,            0.,            0.,NA,NA,"",   7.58473E+06,  -7.57895E+06,  -7.57895E+06
C:/temp/Job-1.odb,Step-1,Increment      1: Step Time =    1.000,"P-1-1",           306,          115.,            0.,            0.,NA,NA,"",   7.74794E+06,  -7.66835E+06,  -7.66835E+06
C:/temp/Job-1.odb,Step-1,Increment      1: Step Time =    1.000,"P-1-1",           307,          105.,            0.,            0.,NA,NA,"",   5.39490E+06,  -5.25889E+06,  -5.25889E+06
C:/temp/Job-1.odb,Step-1,Increment      1: Step Time =    1.000,"P-1-1",           308,           95.,            0.,            0.,NA,NA,"",   2.72606E+06,   182.331E+03,   182.331E+03
C:/temp/Job-1.odb,Step-1,Increment      1: Step Time =    1.000,"P-1-1",           309,           85.,            0.,            0.,NA,NA,"",   6.41855E+06,   6.23736E+06,   6.23736E+06
C:/temp/Job-1.odb,Step-1,Increment      1: Step Time =    1.000,"P-1-1",           310,           75.,            0.,            0.,NA,NA,"",   10.6689E+06,   10.6015E+06,   10.6015E+06
C:/temp/Job-1.odb,Step-1,Increment      1: Step Time =    1.000,"P-1-1",           311,           65.,            0.,            0.,NA,NA,"",   12.8559E+06,   12.8161E+06,   12.8161E+06
C:/temp/Job-1.odb,Step-1,Increment      1: Step Time =    1.000,"P-1-1",           312,           55.,            0.,            0.,NA,NA,"",   13.2701E+06,   13.2456E+06,   13.2456E+06
C:/temp/Job-1.odb,Step-1,Increment      1: Step Time =    1.000,"P-1-1",           313,           45.,            0.,            0.,NA,NA,"",   12.5837E+06,   12.5622E+06,   12.5622E+06
C:/temp/Job-1.odb,Step-1,Increment      1: Step Time =    1.000,"P-1-1",           314,           35.,            0.,            0.,NA,NA,"",   11.4070E+06,   11.4084E+06,   11.4084E+06
C:/temp/Job-1.odb,Step-1,Increment      1: Step Time =    1.000,"P-1-1",           315,           25.,            0.,            0.,NA,NA,"",   10.2470E+06,   10.2492E+06,   10.2492E+06
C:/temp/Job-1.odb,Step-1,Increment      1: Step Time =    1.000,"P-1-1",           316,           15.,            0.,            0.,NA,NA,"",   9.26868E+06,   9.28876E+06,   9.28876E+06
C:/temp/Job-1.odb,Step-1,Increment      1: Step Time =    1.000,"P-1-1",           317,            5.,            0.,            0.,NA,NA,"",   8.91355E+06,   9.10445E+06,   9.10445E+06
C:/temp/Job-1.odb,Step-1,Increment      1: Step Time =    1.000,"P-1-1",           318,          200.,          195.,            0.,NA,NA,"",   1.03067E+06,   962.909E+03,   962.909E+03
C:/temp/Job-1.odb,Step-1,Increment      1: Step Time =    1.000,"P-1-1",           319,          200.,          185.,            0.,NA,NA,"",   1.49301E+06,   1.02059E+06,   1.02059E+06
C:/temp/Job-1.odb,Step-1,Increment      1: Step Time =    1.000,"P-1-1",           320,          200.,          175.,            0.,NA,NA,"",   2.01413E+06,  -1.27177E+06,  -1.27177E+06
C:/temp/Job-1.odb,Step-1,Increment      1: Step Time =    1.000,"P-1-1",           321,          200.,          165.,            0.,NA,NA,"",   2.05098E+06,  -1.30848E+06,  -1.30848E+06
C:/temp/Job-1.odb,Step-1,Increment      1: Step Time =    1.000,"P-1-1",           322,          200.,          155.,            0.,NA,NA,"",   1.46406E+06,   1.14340E+06,   1.14340E+06
C:/temp/Job-1.odb,Step-1,Increment      1: Step Time =    1.000,"P-1-1",           323,          200.,          145.,            0.,NA,NA,"",   1.77630E+06,   2.00102E+06,   2.00102E+06
C:/temp/Job-1.odb,Step-1,Increment      1: Step Time =    1.000,"P-1-1",           324,          200.,          135.,            0.,NA,NA,"",   4.42377E+06,   4.80168E+06,   4.80168E+06
C:/temp/Job-1.odb,Step-1,Increment      1: Step Time =    1.000,"P-1-1",           325,          200.,          125.,            0.,NA,NA,"",   8.11249E+06,   8.55056E+06,   8.55056E+06
C:/temp/Job-1.odb,Step-1,Increment      1: Step Time =    1.000,"P-1-1",           326,          200.,          115.,            0.,NA,NA,"",   12.1850E+06,   12.5469E+06,   12.5469E+06
C:/temp/Job-1.odb,Step-1,Increment      1: Step Time =    1.000,"P-1-1",           327,          200.,          105.,            0.,NA,NA,"",   14.6206E+06,   15.0000E+06,   15.0000E+06
C:/temp/Job-1.odb,Step-1,Increment      1: Step Time =    1.000,"P-1-1",           328,          200.,           95.,            0.,NA,NA,"",   14.8356E+06,   15.1886E+06,   15.1886E+06
C:/temp/Job-1.odb,Step-1,Increment      1: Step Time =    1.000,"P-1-1",           329,          200.,           85.,            0.,NA,NA,"",   12.2656E+06,   12.6611E+06,   12.6611E+06
C:/temp/Job-1.odb,Step-1,Increment      1: Step Time =    1.000,"P-1-1",           330,          200.,           75.,            0.,NA,NA,"",   8.05936E+06,   8.46968E+06,   8.46968E+06
C:/temp/Job-1.odb,Step-1,Increment      1: Step Time =    1.000,"P-1-1",           331,          200.,           65.,            0.,NA,NA,"",   4.33628E+06,   4.68013E+06,   4.68013E+06
C:/temp/Job-1.odb,Step-1,Increment      1: Step Time =    1.000,"P-1-1",           332,          200.,           55.,            0.,NA,NA,"",   1.76349E+06,   1.97803E+06,   1.97803E+06
C:/temp/Job-1.odb,Step-1,Increment      1: Step Time =    1.000,"P-1-1",           333,          200.,           45.,            0.,NA,NA,"",   1.49541E+06,   1.11733E+06,   1.11733E+06
C:/temp/Job-1.odb,Step-1,Increment      1: Step Time =    1.000,"P-1-1",           334,          200.,           35.,            0.,NA,NA,"",   2.11907E+06,  -1.39440E+06,  -1.39440E+06
C:/temp/Job-1.odb,Step-1,Increment      1: Step Time =    1.000,"P-1-1",           335,          200.,           25.,            0.,NA,NA,"",   2.06195E+06,  -1.33732E+06,  -1.33732E+06
C:/temp/Job-1.odb,Step-1,Increment      1: Step Time =    1.000,"P-1-1",           336,          200.,           15.,            0.,NA,NA,"",   1.49543E+06,   1.02178E+06,   1.02178E+06
C:/temp/Job-1.odb,Step-1,Increment      1: Step Time =    1.000,"P-1-1",           337,          200.,            5.,            0.,NA,NA,"",   1.04257E+06,   964.348E+03,   964.348E+03
C:/temp/Job-1.odb,Step-1,Increment      1: Step Time =    1.000,"P-1-1",           338,            5.,          200.,            0.,NA,NA,"",   8.93238E+06,   9.11732E+06,   9.11732E+06
C:/temp/Job-1.odb,Step-1,Increment      1: Step Time =    1.000,"P-1-1",           339,           15.,          200.,            0.,NA,NA,"",   9.28103E+06,   9.29611E+06,   9.29611E+06
C:/temp/Job-1.odb,Step-1,Increment      1: Step Time =    1.000,"P-1-1",           340,           25.,          200.,            0.,NA,NA,"",   10.3278E+06,   10.3277E+06,   10.3277E+06
C:/temp/Job-1.odb,Step-1,Increment      1: Step Time =    1.000,"P-1-1",           341,           35.,          200.,            0.,NA,NA,"",   11.5124E+06,   11.5179E+06,   11.5179E+06
C:/temp/Job-1.odb,Step-1,Increment      1: Step Time =    1.000,"P-1-1",           342,           45.,          200.,            0.,NA,NA,"",   12.7285E+06,   12.7084E+06,   12.7084E+06
C:/temp/Job-1.odb,Step-1,Increment      1: Step Time =    1.000,"P-1-1",           343,           55.,          200.,            0.,NA,NA,"",   13.5664E+06,   13.5342E+06,   13.5342E+06
C:/temp/Job-1.odb,Step-1,Increment      1: Step Time =    1.000,"P-1-1",           344,           65.,          200.,            0.,NA,NA,"",   12.8840E+06,   12.8611E+06,   12.8611E+06
C:/temp/Job-1.odb,Step-1,Increment      1: Step Time =    1.000,"P-1-1",           345,           75.,          200.,            0.,NA,NA,"",   10.7341E+06,   10.6079E+06,   10.6079E+06
C:/temp/Job-1.odb,Step-1,Increment      1: Step Time =    1.000,"P-1-1",           346,           85.,          200.,            0.,NA,NA,"",   6.47654E+06,   6.31384E+06,   6.31384E+06
C:/temp/Job-1.odb,Step-1,Increment      1: Step Time =    1.000,"P-1-1",           347,           95.,          200.,            0.,NA,NA,"",   3.10973E+06,   217.405E+03,   217.405E+03
C:/temp/Job-1.odb,Step-1,Increment      1: Step Time =    1.000,"P-1-1",           348,          105.,          200.,            0.,NA,NA,"",   5.09312E+06,  -4.92342E+06,  -4.92342E+06
C:/temp/Job-1.odb,Step-1,Increment      1: Step Time =    1.000,"P-1-1",           349,          115.,          200.,            0.,NA,NA,"",   8.23028E+06,  -8.10323E+06,  -8.10323E+06
C:/temp/Job-1.odb,Step-1,Increment      1: Step Time =    1.000,"P-1-1",           350,          125.,          200.,            0.,NA,NA,"",   8.84484E+06,  -8.80516E+06,  -8.80516E+06
C:/temp/Job-1.odb,Step-1,Increment      1: Step Time =    1.000,"P-1-1",           351,          135.,          200.,            0.,NA,NA,"",   7.68971E+06,  -7.66637E+06,  -7.66637E+06
C:/temp/Job-1.odb,Step-1,Increment      1: Step Time =    1.000,"P-1-1",           352,          145.,          200.,            0.,NA,NA,"",   5.68285E+06,  -5.67339E+06,  -5.67339E+06
C:/temp/Job-1.odb,Step-1,Increment      1: Step Time =    1.000,"P-1-1",           353,          155.,          200.,            0.,NA,NA,"",   3.76208E+06,  -3.74227E+06,  -3.74227E+06
C:/temp/Job-1.odb,Step-1,Increment      1: Step Time =    1.000,"P-1-1",           354,          165.,          200.,            0.,NA,NA,"",   2.16589E+06,  -2.14508E+06,  -2.14508E+06
C:/temp/Job-1.odb,Step-1,Increment      1: Step Time =    1.000,"P-1-1",           355,          175.,          200.,            0.,NA,NA,"",   926.460E+03,  -876.390E+03,  -876.390E+03
C:/temp/Job-1.odb,Step-1,Increment      1: Step Time =    1.000,"P-1-1",           356,          185.,          200.,            0.,NA,NA,"",   521.946E+03,   415.399E+03,   415.399E+03
C:/temp/Job-1.odb,Step-1,Increment      1: Step Time =    1.000,"P-1-1",           357,          195.,          200.,            0.,NA,NA,"",   923.098E+03,   896.892E+03,   896.892E+03
C:/temp/Job-1.odb,Step-1,Increment      1: Step Time =    1.000,"P-1-1",           358,            0.,            5.,            0.,NA,NA,"",   7.77297E+06,   8.34023E+06,   8.34023E+06
C:/temp/Job-1.odb,Step-1,Increment      1: Step Time =    1.000,"P-1-1",           359,            0.,           15.,            0.,NA,NA,"",   4.60556E+06,   5.10928E+06,   5.10928E+06
C:/temp/Job-1.odb,Step-1,Increment      1: Step Time =    1.000,"P-1-1",           360,            0.,           25.,            0.,NA,NA,"",   2.04831E+06,   2.28306E+06,   2.28306E+06
C:/temp/Job-1.odb,Step-1,Increment      1: Step Time =    1.000,"P-1-1",           361,            0.,           35.,            0.,NA,NA,"",   569.321E+03,   83.2781E+03,   83.2781E+03
C:/temp/Job-1.odb,Step-1,Increment      1: Step Time =    1.000,"P-1-1",           362,            0.,           45.,            0.,NA,NA,"",   1.35865E+06,  -1.40079E+06,  -1.40079E+06
C:/temp/Job-1.odb,Step-1,Increment      1: Step Time =    1.000,"P-1-1",           363,            0.,           55.,            0.,NA,NA,"",   1.85660E+06,  -1.89447E+06,  -1.89447E+06
C:/temp/Job-1.odb,Step-1,Increment      1: Step Time =    1.000,"P-1-1",           364,            0.,           65.,            0.,NA,NA,"",   1.73725E+06,  -1.71776E+06,  -1.71776E+06
C:/temp/Job-1.odb,Step-1,Increment      1: Step Time =    1.000,"P-1-1",           365,            0.,           75.,            0.,NA,NA,"",   1.27428E+06,  -1.22446E+06,  -1.22446E+06
C:/temp/Job-1.odb,Step-1,Increment      1: Step Time =    1.000,"P-1-1",           366,            0.,           85.,            0.,NA,NA,"",   723.558E+03,  -706.956E+03,  -706.956E+03
C:/temp/Job-1.odb,Step-1,Increment      1: Step Time =    1.000,"P-1-1",           367,            0.,           95.,            0.,NA,NA,"",   297.169E+03,  -330.755E+03,  -330.755E+03
C:/temp/Job-1.odb,Step-1,Increment      1: Step Time =    1.000,"P-1-1",           368,            0.,          105.,            0.,NA,NA,"",   299.300E+03,  -332.000E+03,  -332.000E+03
C:/temp/Job-1.odb,Step-1,Increment      1: Step Time =    1.000,"P-1-1",           369,            0.,          115.,            0.,NA,NA,"",   737.573E+03,  -726.626E+03,  -726.626E+03
C:/temp/Job-1.odb,Step-1,Increment      1: Step Time =    1.000,"P-1-1",           370,            0.,          125.,            0.,NA,NA,"",   1.26403E+06,  -1.22166E+06,  -1.22166E+06
C:/temp/Job-1.odb,Step-1,Increment      1: Step Time =    1.000,"P-1-1",           371,            0.,          135.,            0.,NA,NA,"",   1.74009E+06,  -1.72113E+06,  -1.72113E+06
C:/temp/Job-1.odb,Step-1,Increment      1: Step Time =    1.000,"P-1-1",           372,            0.,          145.,            0.,NA,NA,"",   1.83913E+06,  -1.87257E+06,  -1.87257E+06
C:/temp/Job-1.odb,Step-1,Increment      1: Step Time =    1.000,"P-1-1",           373,            0.,          155.,            0.,NA,NA,"",   1.30120E+06,  -1.34240E+06,  -1.34240E+06
C:/temp/Job-1.odb,Step-1,Increment      1: Step Time =    1.000,"P-1-1",           374,            0.,          165.,            0.,NA,NA,"",   555.036E+03,   64.4582E+03,   64.4582E+03
C:/temp/Job-1.odb,Step-1,Increment      1: Step Time =    1.000,"P-1-1",           375,            0.,          175.,            0.,NA,NA,"",   2.03885E+06,   2.26771E+06,   2.26771E+06
C:/temp/Job-1.odb,Step-1,Increment      1: Step Time =    1.000,"P-1-1",           376,            0.,          185.,            0.,NA,NA,"",   4.55888E+06,   5.04564E+06,   5.04564E+06
C:/temp/Job-1.odb,Step-1,Increment      1: Step Time =    1.000,"P-1-1",           377,            0.,          195.,            0.,NA,NA,"",   7.75025E+06,   8.29155E+06,   8.29155E+06
C:/temp/Job-1.odb,Step-1,Increment      1: Step Time =    1.000,"P-1-1",           378,       59.2905,       22.4614,            0.,NA,NA,"",   5.77294E+06,  -5.76087E+06,  -5.76087E+06
C:/temp/Job-1.odb,Step-1,Increment      1: Step Time =    1.000,"P-1-1",           379,       145.638,       23.5294,            0.,NA,NA,"",   10.1305E+06,   10.3572E+06,   10.3572E+06
C:/temp/Job-1.odb,Step-1,Increment      1: Step Time =    1.000,"P-1-1",           380,       59.4709,       178.783,            0.,NA,NA,"",   5.02174E+06,  -4.88997E+06,  -4.88997E+06
C:/temp/Job-1.odb,Step-1,Increment      1: Step Time =    1.000,"P-1-1",           381,       140.585,       177.650,            0.,NA,NA,"",   12.4437E+06,   12.6416E+06,   12.6416E+06
C:/temp/Job-1.odb,Step-1,Increment      1: Step Time =    1.000,"P-1-1",           382,       177.523,       142.618,            0.,NA,NA,"",   2.81675E+06,   2.56716E+06,   2.56716E+06
C:/temp/Job-1.odb,Step-1,Increment      1: Step Time =    1.000,"P-1-1",           383,       149.914,       26.6032,            0.,NA,NA,"",   9.10975E+06,   9.27235E+06,   9.27235E+06
C:/temp/Job-1.odb,Step-1,Increment      1: Step Time =    1.000,"P-1-1",           384,       162.100,       163.745,            0.,NA,NA,"",   6.02449E+06,   6.16083E+06,   6.16083E+06
C:/temp/Job-1.odb,Step-1,Increment      1: Step Time =    1.000,"P-1-1",           385,       126.886,       184.067,            0.,NA,NA,"",   15.2826E+06,   15.5277E+06,   15.5277E+06
C:/temp/Job-1.odb,Step-1,Increment      1: Step Time =    1.000,"P-1-1",           386,       177.758,       57.6256,            0.,NA,NA,"",   2.79631E+06,   2.51915E+06,   2.51915E+06
C:/temp/Job-1.odb,Step-1,Increment      1: Step Time =    1.000,"P-1-1",           387,       165.282,       40.9741,            0.,NA,NA,"",   5.38641E+06,   5.47029E+06,   5.47029E+06
C:/temp/Job-1.odb,Step-1,Increment      1: Step Time =    1.000,"P-1-1",           388,       130.173,       17.4488,            0.,NA,NA,"",   14.8879E+06,   15.1575E+06,   15.1575E+06
C:/temp/Job-1.odb,Step-1,Increment      1: Step Time =    1.000,"P-1-1",           389,       87.5461,       11.9704,            0.,NA,NA,"",   8.12059E+06,   7.52715E+06,   7.52715E+06
C:/temp/Job-1.odb,Step-1,Increment      1: Step Time =    1.000,"P-1-1",           390,       184.168,       76.5058,            0.,NA,NA,"",   5.13439E+06,  -4.77610E+06,  -4.77610E+06
C:/temp/Job-1.odb,Step-1,Increment      1: Step Time =    1.000,"P-1-1",           391,       171.626,       48.7836,            0.,NA,NA,"",   4.07638E+06,   4.07378E+06,   4.07378E+06
C:/temp/Job-1.odb,Step-1,Increment      1: Step Time =    1.000,"P-1-1",           392,       119.918,       14.2931,            0.,NA,NA,"",   16.3943E+06,   16.6438E+06,   16.6438E+06
C:/temp/Job-1.odb,Step-1,Increment      1: Step Time =    1.000,"P-1-1",           393,       55.0602,       25.0020,            0.,NA,NA,"",   6.50435E+06,  -6.56947E+06,  -6.56947E+06
C:/temp/Job-1.odb,Step-1,Increment      1: Step Time =    1.000,"P-1-1",           394,       182.215,       133.396,            0.,NA,NA,"",   2.83716E+06,   341.167E+03,   341.167E+03
C:/temp/Job-1.odb,Step-1,Increment      1: Step Time =    1.000,"P-1-1",           395,       115.030,       14.0030,            0.,NA,NA,"",   17.6222E+06,   17.7605E+06,   17.7605E+06
C:/temp/Job-1.odb,Step-1,Increment      1: Step Time =    1.000,"P-1-1",           396,       68.1516,       17.6137,            0.,NA,NA,"",   4.16532E+06,  -2.33678E+06,  -2.33678E+06
C:/temp/Job-1.odb,Step-1,Increment      1: Step Time =    1.000,"P-1-1",           397,       185.598,       122.687,            0.,NA,NA,"",   5.08638E+06,  -4.39692E+06,  -4.39692E+06
C:/temp/Job-1.odb,Step-1,Increment      1: Step Time =    1.000,"P-1-1",           398,       185.690,       80.9229,            0.,NA,NA,"",   6.06502E+06,  -5.73232E+06,  -5.73232E+06
C:/temp/Job-1.odb,Step-1,Increment      1: Step Time =    1.000,"P-1-1",           399,       148.934,       172.783,            0.,NA,NA,"",   9.76025E+06,   9.90756E+06,   9.90756E+06
C:/temp/Job-1.odb,Step-1,Increment      1: Step Time =    1.000,"P-1-1",           400,       174.844,       52.9879,            0.,NA,NA,"",   3.42223E+06,   3.31645E+06,   3.31645E+06
C:/temp/Job-1.odb,Step-1,Increment      1: Step Time =    1.000,"P-1-1",           401,       118.418,       187.073,            0.,NA,NA,"",   13.3339E+06,   13.6446E+06,   13.6446E+06
C:/temp/Job-1.odb,Step-1,Increment      1: Step Time =    1.000,"P-1-1",           402,       74.0022,       184.114,            0.,NA,NA,"",   3.82500E+06,   356.312E+03,   356.312E+03
C:/temp/Job-1.odb,Step-1,Increment      1: Step Time =    1.000,"P-1-1",           403,       73.1050,       15.9206,            0.,NA,NA,"",   3.81693E+06,   221.571E+03,   221.571E+03
C:/temp/Job-1.odb,Step-1,Increment      1: Step Time =    1.000,"P-1-1",           404,       51.0222,       27.7238,            0.,NA,NA,"",   6.86009E+06,  -6.95389E+06,  -6.95389E+06
C:/temp/Job-1.odb,Step-1,Increment      1: Step Time =    1.000,"P-1-1",           405,       125.367,       14.6439,            0.,NA,NA,"",   13.3799E+06,   13.6748E+06,   13.6748E+06
C:/temp/Job-1.odb,Step-1,Increment      1: Step Time =    1.000,"P-1-1",           406,       172.208,       151.538,            0.,NA,NA,"",   3.97809E+06,   3.98082E+06,   3.98082E+06
C:/temp/Job-1.odb,Step-1,Increment      1: Step Time =    1.000,"P-1-1",           407,       112.659,       187.773,            0.,NA,NA,"",   14.2402E+06,   14.3433E+06,   14.3433E+06
C:/temp/Job-1.odb,Step-1,Increment      1: Step Time =    1.000,"P-1-1",           408,       182.812,       71.8958,            0.,NA,NA,"",   3.69118E+06,  -3.19746E+06,  -3.19746E+06
C:/temp/Job-1.odb,Step-1,Increment      1: Step Time =    1.000,"P-1-1",           409,       162.300,       36.9781,            0.,NA,NA,"",   5.97058E+06,   6.10684E+06,   6.10684E+06
C:/temp/Job-1.odb,Step-1,Increment      1: Step Time =    1.000,"P-1-1",           410,       77.7364,       14.5796,            0.,NA,NA,"",   4.29066E+06,   2.59524E+06,   2.59524E+06
C:/temp/Job-1.odb,Step-1,Increment      1: Step Time =    1.000,"P-1-1",           411,       180.172,       138.177,            0.,NA,NA,"",   2.51502E+06,   1.51446E+06,   1.51446E+06
C:/temp/Job-1.odb,Step-1,Increment      1: Step Time =    1.000,"P-1-1",           412,       131.809,       182.393,            0.,NA,NA,"",   14.3150E+06,   14.5901E+06,   14.5901E+06
C:/temp/Job-1.odb,Step-1,Increment      1: Step Time =    1.000,"P-1-1",           413,       134.937,       18.8750,            0.,NA,NA,"",   13.5238E+06,   13.7299E+06,   13.7299E+06
C:/temp/Job-1.odb,Step-1,Increment      1: Step Time =    1.000,"P-1-1",           414,       181.206,       67.2117,            0.,NA,NA,"",   2.58745E+06,  -950.840E+03,  -950.840E+03
C:/temp/Job-1.odb,Step-1,Increment      1: Step Time =    1.000,"P-1-1",           415,       122.270,       185.395,            0.,NA,NA,"",   15.6829E+06,   15.9753E+06,   15.9753E+06
C:/temp/Job-1.odb,Step-1,Increment      1: Step Time =    1.000,"P-1-1",           416,       81.6392,       12.8731,            0.,NA,NA,"",   5.91171E+06,   5.11409E+06,   5.11409E+06
C:/temp/Job-1.odb,Step-1,Increment      1: Step Time =    1.000,"P-1-1",           417,       89.4076,       187.396,            0.,NA,NA,"",   8.78826E+06,   8.39614E+06,   8.39614E+06
C:/temp/Job-1.odb,Step-1,Increment      1: Step Time =    1.000,"P-1-1",           418,       184.948,       128.158,            0.,NA,NA,"",   3.85313E+06,  -904.480E+03,  -904.480E+03
C:/temp/Job-1.odb,Step-1,Increment      1: Step Time =    1.000,"P-1-1",           419,       179.587,       62.5745,            0.,NA,NA,"",   2.31006E+06,   1.34493E+06,   1.34493E+06
C:/temp/Job-1.odb,Step-1,Increment      1: Step Time =    1.000,"P-1-1",           420,       154.323,       29.4365,            0.,NA,NA,"",   7.80399E+06,   7.97726E+06,   7.97726E+06
C:/temp/Job-1.odb,Step-1,Increment      1: Step Time =    1.000,"P-1-1",           421,       84.4478,       186.937,            0.,NA,NA,"",   6.51316E+06,   5.93727E+06,   5.93727E+06
C:/temp/Job-1.odb,Step-1,Increment      1: Step Time =    1.000,"P-1-1",           422,       20.1599,       137.515,            0.,NA,NA,"",   2.44630E+06,  -2.46973E+06,  -2.46973E+06
C:/temp/Job-1.odb,Step-1,Increment      1: Step Time =    1.000,"P-1-1",           423,       174.822,       147.030,            0.,NA,NA,"",   3.38864E+06,   3.29422E+06,   3.29422E+06
C:/temp/Job-1.odb,Step-1,Increment      1: Step Time =    1.000,"P-1-1",           424,       42.0160,       33.3377,            0.,NA,NA,"",   6.20246E+06,  -6.32505E+06,  -6.32505E+06
C:/temp/Job-1.odb,Step-1,Increment      1: Step Time =    1.000,"P-1-1",           425,       27.7945,       151.460,            0.,NA,NA,"",   4.47355E+06,  -4.51218E+06,  -4.51218E+06
C:/temp/Job-1.odb,Step-1,Increment      1: Step Time =    1.000,"P-1-1",           426,       41.4520,       166.808,            0.,NA,NA,"",   5.96175E+06,  -6.07060E+06,  -6.07060E+06
C:/temp/Job-1.odb,Step-1,Increment      1: Step Time =    1.000,"P-1-1",           427,       38.2246,       163.058,            0.,NA,NA,"",   6.02994E+06,  -6.12082E+06,  -6.12082E+06
C:/temp/Job-1.odb,Step-1,Increment      1: Step Time =    1.000,"P-1-1",           428,       78.7462,       186.621,            0.,NA,NA,"",   5.05881E+06,   3.59659E+06,   3.59659E+06
C:/temp/Job-1.odb,Step-1,Increment      1: Step Time =    1.000,"P-1-1",           429,       19.7617,       62.8083,            0.,NA,NA,"",   2.38415E+06,  -2.41069E+06,  -2.41069E+06
C:/temp/Job-1.odb,Step-1,Increment      1: Step Time =    1.000,"P-1-1",           430,       144.780,       175.222,            0.,NA,NA,"",   11.1881E+06,   11.3633E+06,   11.3633E+06
C:/temp/Job-1.odb,Step-1,Increment      1: Step Time =    1.000,"P-1-1",           431,       55.0315,       176.222,            0.,NA,NA,"",   5.49688E+06,  -5.51949E+06,  -5.51949E+06
C:/temp/Job-1.odb,Step-1,Increment      1: Step Time =    1.000,"P-1-1",           432,       18.2831,       67.5804,            0.,NA,NA,"",   1.86183E+06,  -1.88097E+06,  -1.88097E+06
C:/temp/Job-1.odb,Step-1,Increment      1: Step Time =    1.000,"P-1-1",           433,       13.8384,       77.2285,            0.,NA,NA,"",   1.10467E+06,  -1.12862E+06,  -1.12862E+06
C:/temp/Job-1.odb,Step-1,Increment      1: Step Time =    1.000,"P-1-1",           434,       16.4402,       127.923,            0.,NA,NA,"",   1.46188E+06,  -1.48347E+06,  -1.48347E+06
C:/temp/Job-1.odb,Step-1,Increment      1: Step Time =    1.000,"P-1-1",           435,       38.2363,       36.9478,            0.,NA,NA,"",   6.04874E+06,  -6.14817E+06,  -6.14817E+06
C:/temp/Job-1.odb,Step-1,Increment      1: Step Time =    1.000,"P-1-1",           436,       16.6006,       72.2818,            0.,NA,NA,"",   1.43305E+06,  -1.45518E+06,  -1.45518E+06
C:/temp/Job-1.odb,Step-1,Increment      1: Step Time =    1.000,"P-1-1",           437,       69.1426,       182.682,            0.,NA,NA,"",   4.05535E+06,  -2.21543E+06,  -2.21543E+06
C:/temp/Job-1.odb,Step-1,Increment      1: Step Time =    1.000,"P-1-1",           438,       50.3585,       173.782,            0.,NA,NA,"",   5.59700E+06,  -5.70607E+06,  -5.70607E+06
C:/temp/Job-1.odb,Step-1,Increment      1: Step Time =    1.000,"P-1-1",           439,       11.7212,       102.365,            0.,NA,NA,"",   537.699E+03,  -559.619E+03,  -559.619E+03
C:/temp/Job-1.odb,Step-1,Increment      1: Step Time =    1.000,"P-1-1",           440,       24.7404,       52.5260,            0.,NA,NA,"",   3.75953E+06,  -3.77941E+06,  -3.77941E+06
C:/temp/Job-1.odb,Step-1,Increment      1: Step Time =    1.000,"P-1-1",           441,       22.6109,       142.214,            0.,NA,NA,"",   3.09855E+06,  -3.12665E+06,  -3.12665E+06
C:/temp/Job-1.odb,Step-1,Increment      1: Step Time =    1.000,"P-1-1",           442,       13.9239,       112.210,            0.,NA,NA,"",   702.928E+03,  -713.541E+03,  -713.541E+03
C:/temp/Job-1.odb,Step-1,Increment      1: Step Time =    1.000,"P-1-1",           443,       21.0557,       57.2162,            0.,NA,NA,"",   2.93126E+06,  -2.95456E+06,  -2.95456E+06
C:/temp/Job-1.odb,Step-1,Increment      1: Step Time =    1.000,"P-1-1",           444,       18.3768,       132.688,            0.,NA,NA,"",   1.89928E+06,  -1.92007E+06,  -1.92007E+06
C:/temp/Job-1.odb,Step-1,Increment      1: Step Time =    1.000,"P-1-1",           445,       27.9369,       48.3560,            0.,NA,NA,"",   4.47686E+06,  -4.50772E+06,  -4.50772E+06
C:/temp/Job-1.odb,Step-1,Increment      1: Step Time =    1.000,"P-1-1",           446,       12.6403,       122.633,            0.,NA,NA,"",   1.10650E+06,  -1.13030E+06,  -1.13030E+06
C:/temp/Job-1.odb,Step-1,Increment      1: Step Time =    1.000,"P-1-1",           447,       25.1555,       146.881,            0.,NA,NA,"",   3.80124E+06,  -3.83542E+06,  -3.83542E+06
C:/temp/Job-1.odb,Step-1,Increment      1: Step Time =    1.000,"P-1-1",           448,       31.1672,       155.597,            0.,NA,NA,"",   5.13980E+06,  -5.18666E+06,  -5.18666E+06
C:/temp/Job-1.odb,Step-1,Increment      1: Step Time =    1.000,"P-1-1",           449,       124.939,       196.099,            0.,NA,NA,"",   5.55220E+06,  -5.43932E+06,  -5.43932E+06
C:/temp/Job-1.odb,Step-1,Increment      1: Step Time =    1.000,"P-1-1",           450,       195.238,       154.845,            0.,NA,NA,"",   1.76178E+06,   1.46190E+06,   1.46190E+06
C:/temp/Job-1.odb,Step-1,Increment      1: Step Time =    1.000,"P-1-1",           451,       195.219,       164.708,            0.,NA,NA,"",   1.91016E+06,    1.1355E+03,    1.1355E+03
C:/temp/Job-1.odb,Step-1,Increment      1: Step Time =    1.000,"P-1-1",           452,       194.809,       174.570,            0.,NA,NA,"",   1.88379E+06,  -15.9934E+03,  -15.9934E+03
C:/temp/Job-1.odb,Step-1,Increment      1: Step Time =    1.000,"P-1-1",           453,       165.066,       195.244,            0.,NA,NA,"",   1.85106E+06,  -1.66755E+06,  -1.66755E+06
C:/temp/Job-1.odb,Step-1,Increment      1: Step Time =    1.000,"P-1-1",           454,       155.004,       191.128,            0.,NA,NA,"",   1.93165E+06,  -109.727E+03,  -109.727E+03
C:/temp/Job-1.odb,Step-1,Increment      1: Step Time =    1.000,"P-1-1",           455,       105.235,       194.761,            0.,NA,NA,"",   5.57933E+06,   463.639E+03,   463.639E+03
C:/temp/Job-1.odb,Step-1,Increment      1: Step Time =    1.000,"P-1-1",           456,       94.8000,       194.777,            0.,NA,NA,"",   5.49681E+06,   3.73377E+06,   3.73377E+06
C:/temp/Job-1.odb,Step-1,Increment      1: Step Time =    1.000,"P-1-1",           457,       4.50139,       174.870,            0.,NA,NA,"",   1.92760E+06,   2.16115E+06,   2.16115E+06
C:/temp/Job-1.odb,Step-1,Increment      1: Step Time =    1.000,"P-1-1",           458,       4.35233,       165.096,            0.,NA,NA,"",   629.033E+03,  -3.19223E+03,  -3.19223E+03
C:/temp/Job-1.odb,Step-1,Increment      1: Step Time =    1.000,"P-1-1",           459,       194.426,       105.985,            0.,NA,NA,"",   8.38939E+06,   8.52696E+06,   8.52696E+06
C:/temp/Job-1.odb,Step-1,Increment      1: Step Time =    1.000,"P-1-1",           460,       194.386,       116.160,            0.,NA,NA,"",   7.96629E+06,   7.92934E+06,   7.92934E+06
C:/temp/Job-1.odb,Step-1,Increment      1: Step Time =    1.000,"P-1-1",           461,       194.464,       95.7604,            0.,NA,NA,"",   8.34964E+06,   8.51920E+06,   8.51920E+06
C:/temp/Job-1.odb,Step-1,Increment      1: Step Time =    1.000,"P-1-1",           462,       194.514,       85.3542,            0.,NA,NA,"",   8.21177E+06,   8.22846E+06,   8.22846E+06
C:/temp/Job-1.odb,Step-1,Increment      1: Step Time =    1.000,"P-1-1",           463,       195.233,       74.7956,            0.,NA,NA,"",   6.72104E+06,   6.89349E+06,   6.89349E+06
C:/temp/Job-1.odb,Step-1,Increment      1: Step Time =    1.000,"P-1-1",           464,       154.778,       3.97454,            0.,NA,NA,"",   3.05118E+06,  -2.94747E+06,  -2.94747E+06
C:/temp/Job-1.odb,Step-1,Increment      1: Step Time =    1.000,"P-1-1",           465,       4.94060,       4.94757,            0.,NA,NA,"",   8.04008E+06,   8.35683E+06,   8.35683E+06
C:/temp/Job-1.odb,Step-1,Increment      1: Step Time =    1.000,"P-1-1",           466,       5.33470,       35.0619,            0.,NA,NA,"",   691.684E+03,  -27.4802E+03,  -27.4802E+03
C:/temp/Job-1.odb,Step-1,Increment      1: Step Time =    1.000,"P-1-1",           467,       5.29335,       24.8460,            0.,NA,NA,"",   2.00119E+06,   2.24270E+06,   2.24270E+06
C:/temp/Job-1.odb,Step-1,Increment      1: Step Time =    1.000,"P-1-1",           468,       4.87006,       14.8245,            0.,NA,NA,"",   4.77250E+06,   5.20622E+06,   5.20622E+06
C:/temp/Job-1.odb,Step-1,Increment      1: Step Time =    1.000,"P-1-1",           469,       4.62572,       45.0991,            0.,NA,NA,"",   1.55629E+06,  -1.52408E+06,  -1.52408E+06
C:/temp/Job-1.odb,Step-1,Increment      1: Step Time =    1.000,"P-1-1",           470,       4.96815,       74.1048,            0.,NA,NA,"",   1.27105E+06,  -1.25000E+06,  -1.25000E+06
C:/temp/Job-1.odb,Step-1,Increment      1: Step Time =    1.000,"P-1-1",           471,       5.48554,       126.114,            0.,NA,NA,"",   1.28662E+06,  -1.27214E+06,  -1.27214E+06
C:/temp/Job-1.odb,Step-1,Increment      1: Step Time =    1.000,"P-1-1",           472,       5.92033,       115.568,            0.,NA,NA,"",   743.291E+03,  -751.408E+03,  -751.408E+03
C:/temp/Job-1.odb,Step-1,Increment      1: Step Time =    1.000,"P-1-1",           473,       4.80113,       136.019,            0.,NA,NA,"",   1.77710E+06,  -1.76524E+06,  -1.76524E+06
C:/temp/Job-1.odb,Step-1,Increment      1: Step Time =    1.000,"P-1-1",           474,       4.48849,       155.414,            0.,NA,NA,"",   1.48717E+06,  -1.44294E+06,  -1.44294E+06
C:/temp/Job-1.odb,Step-1,Increment      1: Step Time =    1.000,"P-1-1",           475,       14.9056,       4.93016,            0.,NA,NA,"",   8.53178E+06,   8.56162E+06,   8.56162E+06
C:/temp/Job-1.odb,Step-1,Increment      1: Step Time =    1.000,"P-1-1",           476,       24.8181,       4.87871,            0.,NA,NA,"",   9.24698E+06,   9.24644E+06,   9.24644E+06
C:/temp/Job-1.odb,Step-1,Increment      1: Step Time =    1.000,"P-1-1",           477,       34.7625,       4.83819,            0.,NA,NA,"",   10.1085E+06,   10.0987E+06,   10.0987E+06
C:/temp/Job-1.odb,Step-1,Increment      1: Step Time =    1.000,"P-1-1",           478,       44.7141,       9.20923,            0.,NA,NA,"",   7.91060E+06,   7.76051E+06,   7.76051E+06
C:/temp/Job-1.odb,Step-1,Increment      1: Step Time =    1.000,"P-1-1",           479,       55.0048,       4.44981,            0.,NA,NA,"",   11.4173E+06,   11.3495E+06,   11.3495E+06
C:/temp/Job-1.odb,Step-1,Increment      1: Step Time =    1.000,"P-1-1",           480,       65.0810,       4.22507,            0.,NA,NA,"",   11.1149E+06,   10.9852E+06,   10.9852E+06
C:/temp/Job-1.odb,Step-1,Increment      1: Step Time =    1.000,"P-1-1",           481,       75.0540,       3.88917,            0.,NA,NA,"",   9.64219E+06,   9.41162E+06,   9.41162E+06
C:/temp/Job-1.odb,Step-1,Increment      1: Step Time =    1.000,"P-1-1",           482,       84.8855,       4.28868,            0.,NA,NA,"",   7.14654E+06,   6.66415E+06,   6.66415E+06
C:/temp/Job-1.odb,Step-1,Increment      1: Step Time =    1.000,"P-1-1",           483,       94.8532,       4.71559,            0.,NA,NA,"",   4.95775E+06,   3.35899E+06,   3.35899E+06
C:/temp/Job-1.odb,Step-1,Increment      1: Step Time =    1.000,"P-1-1",           484,       104.816,       4.02177,            0.,NA,NA,"",   4.78683E+06,  -873.988E+03,  -873.988E+03
C:/temp/Job-1.odb,Step-1,Increment      1: Step Time =    1.000,"P-1-1",           485,       114.627,       4.88410,            0.,NA,NA,"",   5.46369E+06,  -2.36987E+06,  -2.36987E+06
C:/temp/Job-1.odb,Step-1,Increment      1: Step Time =    1.000,"P-1-1",           486,       125.769,       6.40294,            0.,NA,NA,"",   4.92082E+06,  -1.04831E+06,  -1.04831E+06
C:/temp/Job-1.odb,Step-1,Increment      1: Step Time =    1.000,"P-1-1",           487,       135.907,       4.59486,            0.,NA,NA,"",   4.60567E+06,  -4.46814E+06,  -4.46814E+06
C:/temp/Job-1.odb,Step-1,Increment      1: Step Time =    1.000,"P-1-1",           488,       145.349,       3.91393,            0.,NA,NA,"",   4.19521E+06,  -4.08939E+06,  -4.08939E+06
C:/temp/Job-1.odb,Step-1,Increment      1: Step Time =    1.000,"P-1-1",           489,       164.448,       4.58114,            0.,NA,NA,"",   1.89936E+06,  -1.72715E+06,  -1.72715E+06
C:/temp/Job-1.odb,Step-1,Increment      1: Step Time =    1.000,"P-1-1",           490,       194.992,       54.2132,            0.,NA,NA,"",   2.31909E+06,   2.32046E+06,   2.32046E+06
C:/temp/Job-1.odb,Step-1,Increment      1: Step Time =    1.000,"P-1-1",           491,       194.452,       64.2373,            0.,NA,NA,"",   4.23882E+06,   4.27226E+06,   4.27226E+06
C:/temp/Job-1.odb,Step-1,Increment      1: Step Time =    1.000,"P-1-1",           492,       174.315,       4.70236,            0.,NA,NA,"",   1.09788E+06,  -837.824E+03,  -837.824E+03
C:/temp/Job-1.odb,Step-1,Increment      1: Step Time =    1.000,"P-1-1",           493,       184.375,       4.82354,            0.,NA,NA,"",   804.035E+03,   602.765E+03,   602.765E+03
C:/temp/Job-1.odb,Step-1,Increment      1: Step Time =    1.000,"P-1-1",           494,       195.790,       25.2758,            0.,NA,NA,"",   1.92770E+06,  -83.9813E+03,  -83.9813E+03
C:/temp/Job-1.odb,Step-1,Increment      1: Step Time =    1.000,"P-1-1",           495,       195.970,       34.8565,            0.,NA,NA,"",   1.95467E+06,  -82.2090E+03,  -82.2090E+03
C:/temp/Job-1.odb,Step-1,Increment      1: Step Time =    1.000,"P-1-1",           496,       195.559,       44.4488,            0.,NA,NA,"",   1.68948E+06,   1.36106E+06,   1.36106E+06
C:/temp/Job-1.odb,Step-1,Increment      1: Step Time =    1.000,"P-1-1",           497,       194.597,       5.36037,            0.,NA,NA,"",   1.01810E+06,   919.010E+03,   919.010E+03
C:/temp/Job-1.odb,Step-1,Increment      1: Step Time =    1.000,"P-1-1",           498,       194.837,       15.5820,            0.,NA,NA,"",   1.53474E+06,   1.08330E+06,   1.08330E+06
C:/temp/Job-1.odb,Step-1,Increment      1: Step Time =    1.000,"P-1-1",           499,       195.267,       125.633,            0.,NA,NA,"",   6.74332E+06,   6.89371E+06,   6.89371E+06
C:/temp/Job-1.odb,Step-1,Increment      1: Step Time =    1.000,"P-1-1",           500,       195.545,       135.266,            0.,NA,NA,"",   4.27861E+06,   4.43345E+06,   4.43345E+06
C:/temp/Job-1.odb,Step-1,Increment      1: Step Time =    1.000,"P-1-1",           501,       195.479,       144.940,            0.,NA,NA,"",   2.34413E+06,   2.38108E+06,   2.38108E+06
C:/temp/Job-1.odb,Step-1,Increment      1: Step Time =    1.000,"P-1-1",           502,       194.565,       184.784,            0.,NA,NA,"",   1.51680E+06,   1.08378E+06,   1.08378E+06
C:/temp/Job-1.odb,Step-1,Increment      1: Step Time =    1.000,"P-1-1",           503,       174.869,       195.165,            0.,NA,NA,"",   1.08620E+06,  -467.738E+03,  -467.738E+03
C:/temp/Job-1.odb,Step-1,Increment      1: Step Time =    1.000,"P-1-1",           504,       194.894,       194.959,            0.,NA,NA,"",   1.00086E+06,   915.286E+03,   915.286E+03
C:/temp/Job-1.odb,Step-1,Increment      1: Step Time =    1.000,"P-1-1",           505,       184.884,       195.099,            0.,NA,NA,"",   810.101E+03,   617.798E+03,   617.798E+03
C:/temp/Job-1.odb,Step-1,Increment      1: Step Time =    1.000,"P-1-1",           506,       144.901,       195.664,            0.,NA,NA,"",   4.06392E+06,  -3.96006E+06,  -3.96006E+06
C:/temp/Job-1.odb,Step-1,Increment      1: Step Time =    1.000,"P-1-1",           507,       134.883,       195.817,            0.,NA,NA,"",   5.11307E+06,  -5.00012E+06,  -5.00012E+06
C:/temp/Job-1.odb,Step-1,Increment      1: Step Time =    1.000,"P-1-1",           508,       115.152,       195.601,            0.,NA,NA,"",   5.38993E+06,  -2.88386E+06,  -2.88386E+06
C:/temp/Job-1.odb,Step-1,Increment      1: Step Time =    1.000,"P-1-1",           509,       84.7557,       195.448,            0.,NA,NA,"",   7.17105E+06,   6.70235E+06,   6.70235E+06
C:/temp/Job-1.odb,Step-1,Increment      1: Step Time =    1.000,"P-1-1",           510,       74.7132,       195.334,            0.,NA,NA,"",   9.47080E+06,   9.14858E+06,   9.14858E+06
C:/temp/Job-1.odb,Step-1,Increment      1: Step Time =    1.000,"P-1-1",           511,       64.5590,       195.835,            0.,NA,NA,"",   11.2171E+06,   11.1191E+06,   11.1191E+06
C:/temp/Job-1.odb,Step-1,Increment      1: Step Time =    1.000,"P-1-1",           512,       55.1518,       196.284,            0.,NA,NA,"",   11.9317E+06,   11.8482E+06,   11.8482E+06
C:/temp/Job-1.odb,Step-1,Increment      1: Step Time =    1.000,"P-1-1",           513,       5.37134,       194.702,            0.,NA,NA,"",   7.98734E+06,   8.28461E+06,   8.28461E+06
C:/temp/Job-1.odb,Step-1,Increment      1: Step Time =    1.000,"P-1-1",           514,       5.21155,       184.580,            0.,NA,NA,"",   4.58537E+06,   4.99432E+06,   4.99432E+06
C:/temp/Job-1.odb,Step-1,Increment      1: Step Time =    1.000,"P-1-1",           515,       4.39270,       145.657,            0.,NA,NA,"",   1.94717E+06,  -1.94461E+06,  -1.94461E+06
C:/temp/Job-1.odb,Step-1,Increment      1: Step Time =    1.000,"P-1-1",           516,       4.18042,       104.567,            0.,NA,NA,"",   329.277E+03,  -367.071E+03,  -367.071E+03
C:/temp/Job-1.odb,Step-1,Increment      1: Step Time =    1.000,"P-1-1",           517,       5.75651,       96.7580,            0.,NA,NA,"",   357.390E+03,  -394.934E+03,  -394.934E+03
C:/temp/Job-1.odb,Step-1,Increment      1: Step Time =    1.000,"P-1-1",           518,       4.80804,       84.3548,            0.,NA,NA,"",   734.073E+03,  -735.929E+03,  -735.929E+03
C:/temp/Job-1.odb,Step-1,Increment      1: Step Time =    1.000,"P-1-1",           519,       4.67613,       63.8767,            0.,NA,NA,"",   1.77469E+06,  -1.76494E+06,  -1.76494E+06
C:/temp/Job-1.odb,Step-1,Increment      1: Step Time =    1.000,"P-1-1",           520,       4.20109,       54.7325,            0.,NA,NA,"",   1.95645E+06,  -1.95828E+06,  -1.95828E+06
C:/temp/Job-1.odb,Step-1,Increment      1: Step Time =    1.000,"P-1-1",           521,       45.4528,       195.561,            0.,NA,NA,"",   11.2258E+06,   11.1709E+06,   11.1709E+06
C:/temp/Job-1.odb,Step-1,Increment      1: Step Time =    1.000,"P-1-1",           522,       35.4166,       195.048,            0.,NA,NA,"",   10.1190E+06,   10.1088E+06,   10.1088E+06
C:/temp/Job-1.odb,Step-1,Increment      1: Step Time =    1.000,"P-1-1",           523,       25.5992,       195.316,            0.,NA,NA,"",   9.34100E+06,   9.33858E+06,   9.33858E+06
C:/temp/Job-1.odb,Step-1,Increment      1: Step Time =    1.000,"P-1-1",           524,       15.6233,       195.310,            0.,NA,NA,"",   8.63050E+06,   8.65422E+06,   8.65422E+06
C:/temp/Job-1.odb,Step-1,Increment      1: Step Time =    1.000,"P-1-1",           525,       189.339,       5.39508,            0.,NA,NA,"",   933.369E+03,   798.193E+03,   798.193E+03
C:/temp/Job-1.odb,Step-1,Increment      1: Step Time =    1.000,"P-1-1",           526,       179.344,       4.55136,            0.,NA,NA,"",   820.699E+03,  -83.7033E+03,  -83.7033E+03
C:/temp/Job-1.odb,Step-1,Increment      1: Step Time =    1.000,"P-1-1",           527,       169.379,       4.94395,            0.,NA,NA,"",   1.47970E+06,  -1.23923E+06,  -1.23923E+06
C:/temp/Job-1.odb,Step-1,Increment      1: Step Time =    1.000,"P-1-1",           528,       159.554,       4.22111,            0.,NA,NA,"",   2.43203E+06,  -2.30976E+06,  -2.30976E+06
C:/temp/Job-1.odb,Step-1,Increment      1: Step Time =    1.000,"P-1-1",           529,       150.047,       3.88559,            0.,NA,NA,"",   3.67196E+06,  -3.57788E+06,  -3.57788E+06
C:/temp/Job-1.odb,Step-1,Increment      1: Step Time =    1.000,"P-1-1",           530,       140.602,       4.16516,            0.,NA,NA,"",   4.52316E+06,  -4.39618E+06,  -4.39618E+06
C:/temp/Job-1.odb,Step-1,Increment      1: Step Time =    1.000,"P-1-1",           531,       131.076,       5.22258,            0.,NA,NA,"",   4.46440E+06,  -3.76461E+06,  -3.76461E+06
C:/temp/Job-1.odb,Step-1,Increment      1: Step Time =    1.000,"P-1-1",           532,       119.884,       5.27914,            0.,NA,NA,"",   5.15992E+06,  -2.62852E+06,  -2.62852E+06
C:/temp/Job-1.odb,Step-1,Increment      1: Step Time =    1.000,"P-1-1",           533,       109.584,       4.22063,            0.,NA,NA,"",   5.28360E+06,  -1.89760E+06,  -1.89760E+06
C:/temp/Job-1.odb,Step-1,Increment      1: Step Time =    1.000,"P-1-1",           534,       99.7770,       4.29704,            0.,NA,NA,"",   4.62751E+06,   995.272E+03,   995.272E+03
C:/temp/Job-1.odb,Step-1,Increment      1: Step Time =    1.000,"P-1-1",           535,       89.7919,       4.41748,            0.,NA,NA,"",   5.89354E+06,   5.29755E+06,   5.29755E+06
C:/temp/Job-1.odb,Step-1,Increment      1: Step Time =    1.000,"P-1-1",           536,       79.9983,       3.94483,            0.,NA,NA,"",   8.42219E+06,   8.09182E+06,   8.09182E+06
C:/temp/Job-1.odb,Step-1,Increment      1: Step Time =    1.000,"P-1-1",           537,       70.0937,       4.06702,            0.,NA,NA,"",   10.5237E+06,   10.3731E+06,   10.3731E+06
C:/temp/Job-1.odb,Step-1,Increment      1: Step Time =    1.000,"P-1-1",           538,       60.0638,       4.25781,            0.,NA,NA,"",   11.4359E+06,   11.3070E+06,   11.3070E+06
C:/temp/Job-1.odb,Step-1,Increment      1: Step Time =    1.000,"P-1-1",           539,       49.9142,       4.58833,            0.,NA,NA,"",   11.2466E+06,   11.2005E+06,   11.2005E+06
C:/temp/Job-1.odb,Step-1,Increment      1: Step Time =    1.000,"P-1-1",           540,       39.7696,       4.76590,            0.,NA,NA,"",   10.5699E+06,   10.5348E+06,   10.5348E+06
C:/temp/Job-1.odb,Step-1,Increment      1: Step Time =    1.000,"P-1-1",           541,       29.7860,       4.86284,            0.,NA,NA,"",   9.66623E+06,   9.66167E+06,   9.66167E+06
C:/temp/Job-1.odb,Step-1,Increment      1: Step Time =    1.000,"P-1-1",           542,       19.8762,       4.91692,            0.,NA,NA,"",   8.86653E+06,   8.87826E+06,   8.87826E+06
C:/temp/Job-1.odb,Step-1,Increment      1: Step Time =    1.000,"P-1-1",           543,       9.90798,       4.92422,            0.,NA,NA,"",   8.34031E+06,   8.39346E+06,   8.39346E+06
C:/temp/Job-1.odb,Step-1,Increment      1: Step Time =    1.000,"P-1-1",           544,       194.758,       189.912,            0.,NA,NA,"",   1.22919E+06,   988.164E+03,   988.164E+03
C:/temp/Job-1.odb,Step-1,Increment      1: Step Time =    1.000,"P-1-1",           545,       194.468,       179.650,            0.,NA,NA,"",   1.74313E+06,   581.210E+03,   581.210E+03
C:/temp/Job-1.odb,Step-1,Increment      1: Step Time =    1.000,"P-1-1",           546,       195.089,       169.607,            0.,NA,NA,"",   1.93755E+06,  -75.1663E+03,  -75.1663E+03
C:/temp/Job-1.odb,Step-1,Increment      1: Step Time =    1.000,"P-1-1",           547,       195.264,       159.817,            0.,NA,NA,"",   1.82950E+06,   714.969E+03,   714.969E+03
C:/temp/Job-1.odb,Step-1,Increment      1: Step Time =    1.000,"P-1-1",           548,       195.246,       149.821,            0.,NA,NA,"",   1.88281E+06,   1.79711E+06,   1.79711E+06
C:/temp/Job-1.odb,Step-1,Increment      1: Step Time =    1.000,"P-1-1",           549,       195.498,       140.087,            0.,NA,NA,"",   3.19159E+06,   3.30153E+06,   3.30153E+06
C:/temp/Job-1.odb,Step-1,Increment      1: Step Time =    1.000,"P-1-1",           550,       195.528,       130.405,            0.,NA,NA,"",   5.54166E+06,   5.66601E+06,   5.66601E+06
C:/temp/Job-1.odb,Step-1,Increment      1: Step Time =    1.000,"P-1-1",           551,       194.879,       120.858,            0.,NA,NA,"",   7.48598E+06,   7.61200E+06,   7.61200E+06
C:/temp/Job-1.odb,Step-1,Increment      1: Step Time =    1.000,"P-1-1",           552,       194.324,       111.123,            0.,NA,NA,"",   8.27245E+06,   8.26151E+06,   8.26151E+06
C:/temp/Job-1.odb,Step-1,Increment      1: Step Time =    1.000,"P-1-1",           553,       194.476,       100.874,            0.,NA,NA,"",   8.38872E+06,   8.61123E+06,   8.61123E+06
C:/temp/Job-1.odb,Step-1,Increment      1: Step Time =    1.000,"P-1-1",           554,       194.419,       90.5871,            0.,NA,NA,"",   8.33070E+06,   8.37037E+06,   8.37037E+06
C:/temp/Job-1.odb,Step-1,Increment      1: Step Time =    1.000,"P-1-1",           555,       195.090,       80.0668,            0.,NA,NA,"",   7.72769E+06,   7.85246E+06,   7.85246E+06
C:/temp/Job-1.odb,Step-1,Increment      1: Step Time =    1.000,"P-1-1",           556,       194.872,       69.5529,            0.,NA,NA,"",   5.45105E+06,   5.53713E+06,   5.53713E+06
C:/temp/Job-1.odb,Step-1,Increment      1: Step Time =    1.000,"P-1-1",           557,       194.583,       59.1147,            0.,NA,NA,"",   3.18931E+06,   3.21191E+06,   3.21191E+06
C:/temp/Job-1.odb,Step-1,Increment      1: Step Time =    1.000,"P-1-1",           558,       195.381,       49.2839,            0.,NA,NA,"",   1.79761E+06,   1.69867E+06,   1.69867E+06
C:/temp/Job-1.odb,Step-1,Increment      1: Step Time =    1.000,"P-1-1",           559,       195.768,       39.6621,            0.,NA,NA,"",   1.81393E+06,   623.162E+03,   623.162E+03
C:/temp/Job-1.odb,Step-1,Increment      1: Step Time =    1.000,"P-1-1",           560,       196.012,       30.0808,            0.,NA,NA,"",   2.00103E+06,  -151.314E+03,  -151.314E+03
C:/temp/Job-1.odb,Step-1,Increment      1: Step Time =    1.000,"P-1-1",           561,       195.377,       20.4520,            0.,NA,NA,"",   1.76406E+06,   544.779E+03,   544.779E+03
C:/temp/Job-1.odb,Step-1,Increment      1: Step Time =    1.000,"P-1-1",           562,       194.415,       10.6100,            0.,NA,NA,"",   1.26534E+06,   1.00732E+06,   1.00732E+06
C:/temp/Job-1.odb,Step-1,Increment      1: Step Time =    1.000,"P-1-1",           563,       10.6315,       194.722,            0.,NA,NA,"",   8.30567E+06,   8.34556E+06,   8.34556E+06
C:/temp/Job-1.odb,Step-1,Increment      1: Step Time =    1.000,"P-1-1",           564,       20.6187,       195.547,            0.,NA,NA,"",   9.02868E+06,   9.05642E+06,   9.05642E+06
C:/temp/Job-1.odb,Step-1,Increment      1: Step Time =    1.000,"P-1-1",           565,       30.4342,       194.930,            0.,NA,NA,"",   9.66871E+06,   9.64585E+06,   9.64585E+06
C:/temp/Job-1.odb,Step-1,Increment      1: Step Time =    1.000,"P-1-1",           566,       40.4545,       195.300,            0.,NA,NA,"",   10.6945E+06,   10.6548E+06,   10.6548E+06
C:/temp/Job-1.odb,Step-1,Increment      1: Step Time =    1.000,"P-1-1",           567,       50.3722,       195.892,            0.,NA,NA,"",   11.6455E+06,   11.6128E+06,   11.6128E+06
C:/temp/Job-1.odb,Step-1,Increment      1: Step Time =    1.000,"P-1-1",           568,       59.7758,       196.263,            0.,NA,NA,"",   11.8050E+06,   11.6856E+06,   11.6856E+06
C:/temp/Job-1.odb,Step-1,Increment      1: Step Time =    1.000,"P-1-1",           569,       69.5403,       195.514,            0.,NA,NA,"",   10.4028E+06,   10.2145E+06,   10.2145E+06
C:/temp/Job-1.odb,Step-1,Increment      1: Step Time =    1.000,"P-1-1",           570,       79.7132,       195.468,            0.,NA,NA,"",   8.40632E+06,   8.04809E+06,   8.04809E+06
C:/temp/Job-1.odb,Step-1,Increment      1: Step Time =    1.000,"P-1-1",           571,       89.8156,       195.271,            0.,NA,NA,"",   6.02482E+06,   5.35800E+06,   5.35800E+06
C:/temp/Job-1.odb,Step-1,Increment      1: Step Time =    1.000,"P-1-1",           572,       100.021,       194.607,            0.,NA,NA,"",   5.57769E+06,   2.06462E+06,   2.06462E+06
C:/temp/Job-1.odb,Step-1,Increment      1: Step Time =    1.000,"P-1-1",           573,       110.292,       195.345,            0.,NA,NA,"",   5.45987E+06,  -1.39821E+06,  -1.39821E+06
C:/temp/Job-1.odb,Step-1,Increment      1: Step Time =    1.000,"P-1-1",           574,       120.005,       196.006,            0.,NA,NA,"",   5.40037E+06,  -4.43012E+06,  -4.43012E+06
C:/temp/Job-1.odb,Step-1,Increment      1: Step Time =    1.000,"P-1-1",           575,       129.890,       195.949,            0.,NA,NA,"",   5.45644E+06,  -5.35982E+06,  -5.35982E+06
C:/temp/Job-1.odb,Step-1,Increment      1: Step Time =    1.000,"P-1-1",           576,       139.870,       195.820,            0.,NA,NA,"",   4.67176E+06,  -4.52312E+06,  -4.52312E+06
C:/temp/Job-1.odb,Step-1,Increment      1: Step Time =    1.000,"P-1-1",           577,       149.963,       195.555,            0.,NA,NA,"",   3.44798E+06,  -3.34592E+06,  -3.34592E+06
C:/temp/Job-1.odb,Step-1,Increment      1: Step Time =    1.000,"P-1-1",           578,       160.092,       195.387,            0.,NA,NA,"",   2.33408E+06,  -2.17782E+06,  -2.17782E+06
C:/temp/Job-1.odb,Step-1,Increment      1: Step Time =    1.000,"P-1-1",           579,       169.955,       195.153,            0.,NA,NA,"",   1.43549E+06,  -1.21351E+06,  -1.21351E+06
C:/temp/Job-1.odb,Step-1,Increment      1: Step Time =    1.000,"P-1-1",           580,       179.886,       195.171,            0.,NA,NA,"",   850.503E+03,   293.601E+03,   293.601E+03
C:/temp/Job-1.odb,Step-1,Increment      1: Step Time =    1.000,"P-1-1",           581,       189.874,       195.012,            0.,NA,NA,"",   910.789E+03,   788.690E+03,   788.690E+03
C:/temp/Job-1.odb,Step-1,Increment      1: Step Time =    1.000,"P-1-1",           582,       4.88721,       9.89131,            0.,NA,NA,"",   6.31841E+06,   6.77393E+06,   6.77393E+06
C:/temp/Job-1.odb,Step-1,Increment      1: Step Time =    1.000,"P-1-1",           583,       4.96504,       19.7866,            0.,NA,NA,"",   3.36547E+06,   3.71589E+06,   3.71589E+06
C:/temp/Job-1.odb,Step-1,Increment      1: Step Time =    1.000,"P-1-1",           584,       5.65813,       29.9124,            0.,NA,NA,"",   950.696E+03,   1.07015E+06,   1.07015E+06
C:/temp/Job-1.odb,Step-1,Increment      1: Step Time =    1.000,"P-1-1",           585,       4.92758,       40.1381,            0.,NA,NA,"",   1.10023E+06,  -993.232E+03,  -993.232E+03
C:/temp/Job-1.odb,Step-1,Increment      1: Step Time =    1.000,"P-1-1",           586,       4.42587,       49.9732,            0.,NA,NA,"",   1.83656E+06,  -1.83230E+06,  -1.83230E+06
C:/temp/Job-1.odb,Step-1,Increment      1: Step Time =    1.000,"P-1-1",           587,       4.06726,       59.4285,            0.,NA,NA,"",   1.92618E+06,  -1.92371E+06,  -1.92371E+06
C:/temp/Job-1.odb,Step-1,Increment      1: Step Time =    1.000,"P-1-1",           588,       4.93456,       68.8572,            0.,NA,NA,"",   1.54655E+06,  -1.52936E+06,  -1.52936E+06
C:/temp/Job-1.odb,Step-1,Increment      1: Step Time =    1.000,"P-1-1",           589,       4.76668,       79.1672,            0.,NA,NA,"",   982.709E+03,  -968.945E+03,  -968.945E+03
C:/temp/Job-1.odb,Step-1,Increment      1: Step Time =    1.000,"P-1-1",           590,       5.13369,       89.9058,            0.,NA,NA,"",   523.301E+03,  -547.250E+03,  -547.250E+03
C:/temp/Job-1.odb,Step-1,Increment      1: Step Time =    1.000,"P-1-1",           591,       3.15422,       100.302,            0.,NA,NA,"",   246.226E+03,  -282.831E+03,  -282.831E+03
C:/temp/Job-1.odb,Step-1,Increment      1: Step Time =    1.000,"P-1-1",           592,       5.02977,       109.889,            0.,NA,NA,"",   509.209E+03,  -534.676E+03,  -534.676E+03
C:/temp/Job-1.odb,Step-1,Increment      1: Step Time =    1.000,"P-1-1",           593,       6.07312,       121.078,            0.,NA,NA,"",   999.681E+03,  -995.031E+03,  -995.031E+03
C:/temp/Job-1.odb,Step-1,Increment      1: Step Time =    1.000,"P-1-1",           594,       5.07338,       131.152,            0.,NA,NA,"",   1.56045E+06,  -1.54366E+06,  -1.54366E+06
C:/temp/Job-1.odb,Step-1,Increment      1: Step Time =    1.000,"P-1-1",           595,       4.52290,       140.762,            0.,NA,NA,"",   1.92372E+06,  -1.91861E+06,  -1.91861E+06
C:/temp/Job-1.odb,Step-1,Increment      1: Step Time =    1.000,"P-1-1",           596,       4.43244,       150.555,            0.,NA,NA,"",   1.80083E+06,  -1.78696E+06,  -1.78696E+06
C:/temp/Job-1.odb,Step-1,Increment      1: Step Time =    1.000,"P-1-1",           597,       4.43560,       160.225,            0.,NA,NA,"",   1.01215E+06,  -905.789E+03,  -905.789E+03
C:/temp/Job-1.odb,Step-1,Increment      1: Step Time =    1.000,"P-1-1",           598,       4.35213,       169.989,            0.,NA,NA,"",   939.887E+03,   1.05365E+06,   1.05365E+06
C:/temp/Job-1.odb,Step-1,Increment      1: Step Time =    1.000,"P-1-1",           599,       4.79482,       179.709,            0.,NA,NA,"",   3.16515E+06,   3.50324E+06,   3.50324E+06
C:/temp/Job-1.odb,Step-1,Increment      1: Step Time =    1.000,"P-1-1",           600,       5.56077,       189.535,            0.,NA,NA,"",   6.19190E+06,   6.61325E+06,   6.61325E+06
C:/temp/Job-1.odb,Step-1,Increment      1: Step Time =    1.000,"P-1-1",           601,       158.150,       167.178,            0.,NA,NA,"",   6.92368E+06,   7.08693E+06,   7.08693E+06
C:/temp/Job-1.odb,Step-1,Increment      1: Step Time =    1.000,"P-1-1",           602,       169.398,       156.030,            0.,NA,NA,"",   4.57086E+06,   4.63251E+06,   4.63251E+06
C:/temp/Job-1.odb,Step-1,Increment      1: Step Time =    1.000,"P-1-1",           603,       31.2112,       44.4185,            0.,NA,NA,"",   5.12023E+06,  -5.17164E+06,  -5.17164E+06
C:/temp/Job-1.odb,Step-1,Increment      1: Step Time =    1.000,"P-1-1",           604,       110.930,       191.109,            0.,NA,NA,"",   7.06873E+06,   6.99388E+06,   6.99388E+06
C:/temp/Job-1.odb,Step-1,Increment      1: Step Time =    1.000,"P-1-1",           605,       89.3505,       8.51939,            0.,NA,NA,"",   8.57770E+06,   7.79477E+06,   7.79477E+06
C:/temp/Job-1.odb,Step-1,Increment      1: Step Time =    1.000,"P-1-1",           606,       120.260,       192.283,            0.,NA,NA,"",   3.71466E+06,   2.80967E+06,   2.80967E+06
C:/temp/Job-1.odb,Step-1,Increment      1: Step Time =    1.000,"P-1-1",           607,       79.5641,       191.152,            0.,NA,NA,"",   7.44524E+06,   6.66081E+06,   6.66081E+06
C:/temp/Job-1.odb,Step-1,Increment      1: Step Time =    1.000,"P-1-1",           608,       79.7783,       7.63220,            0.,NA,NA,"",   7.66785E+06,   6.96341E+06,   6.96341E+06
C:/temp/Job-1.odb,Step-1,Increment      1: Step Time =    1.000,"P-1-1",           609,       123.467,       10.1795,            0.,NA,NA,"",   6.29489E+06,   6.54699E+06,   6.54699E+06
C:/temp/Job-1.odb,Step-1,Increment      1: Step Time =    1.000,"P-1-1",           610,       48.6951,       25.2516,            0.,NA,NA,"",   4.26828E+06,  -4.35738E+06,  -4.35738E+06
C:/temp/Job-1.odb,Step-1,Increment      1: Step Time =    1.000,"P-1-1",           611,       36.8417,       169.585,            0.,NA,NA,"",   3.02633E+06,  -3.13681E+06,  -3.13681E+06
C:/temp/Job-1.odb,Step-1,Increment      1: Step Time =    1.000,"P-1-1",           612,       38.4333,       30.5038,            0.,NA,NA,"",   3.53217E+06,  -3.66974E+06,  -3.66974E+06
C:/temp/Job-1.odb,Step-1,Increment      1: Step Time =    1.000,"P-1-1",           613,       161.657,       170.724,            0.,NA,NA,"",   5.17150E+06,   5.36470E+06,   5.36470E+06
C:/temp/Job-1.odb,Step-1,Increment      1: Step Time =    1.000,"P-1-1",           614,       165.174,       31.3198,            0.,NA,NA,"",   4.50139E+06,   4.67881E+06,   4.67881E+06
C:/temp/Job-1.odb,Step-1,Increment      1: Step Time =    1.000,"P-1-1",           615,       134.892,       186.594,            0.,NA,NA,"",   6.55627E+06,   6.81141E+06,   6.81141E+06
C:/temp/Job-1.odb,Step-1,Increment      1: Step Time =    1.000,"P-1-1",           616,       139.003,       14.0237,            0.,NA,NA,"",   5.87511E+06,    6.0556E+06,    6.0556E+06
C:/temp/Job-1.odb,Step-1,Increment      1: Step Time =    1.000,"P-1-1",           617,       62.0071,       186.237,            0.,NA,NA,"",   4.63223E+06,   2.13854E+06,   2.13854E+06
C:/temp/Job-1.odb,Step-1,Increment      1: Step Time =    1.000,"P-1-1",           618,       65.0438,       13.4692,            0.,NA,NA,"",   4.78694E+06,   2.98718E+06,   2.98718E+06
C:/temp/Job-1.odb,Step-1,Increment      1: Step Time =    1.000,"P-1-1",           619,       23.2093,       154.258,            0.,NA,NA,"",   3.28519E+06,  -3.25305E+06,  -3.25305E+06
C:/temp/Job-1.odb,Step-1,Increment      1: Step Time =    1.000,"P-1-1",           620,       176.386,       153.685,            0.,NA,NA,"",   3.55850E+06,   3.45699E+06,   3.45699E+06
C:/temp/Job-1.odb,Step-1,Increment      1: Step Time =    1.000,"P-1-1",           621,       24.1225,       45.4089,            0.,NA,NA,"",   3.44184E+06,  -3.41647E+06,  -3.41647E+06
C:/temp/Job-1.odb,Step-1,Increment      1: Step Time =    1.000,"P-1-1",           622,       174.882,       46.3455,            0.,NA,NA,"",   3.72705E+06,   3.66538E+06,   3.66538E+06
C:/temp/Job-1.odb,Step-1,Increment      1: Step Time =    1.000,"P-1-1",           623,       27.7560,       158.531,            0.,NA,NA,"",   3.70490E+06,  -3.71458E+06,  -3.71458E+06
C:/temp/Job-1.odb,Step-1,Increment      1: Step Time =    1.000,"P-1-1",           624,       174.267,       159.316,            0.,NA,NA,"",   3.59618E+06,   3.61519E+06,   3.61519E+06
C:/temp/Job-1.odb,Step-1,Increment      1: Step Time =    1.000,"P-1-1",           625,       27.6211,       41.5621,            0.,NA,NA,"",   3.68503E+06,  -3.69950E+06,  -3.69950E+06
C:/temp/Job-1.odb,Step-1,Increment      1: Step Time =    1.000,"P-1-1",           626,       171.616,       42.5720,            0.,NA,NA,"",   4.09180E+06,   4.12830E+06,   4.12830E+06
C:/temp/Job-1.odb,Step-1,Increment      1: Step Time =    1.000,"P-1-1",           627,       141.533,       8.42878,            0.,NA,NA,"",   2.41532E+06,  -14.8555E+03,  -14.8555E+03
C:/temp/Job-1.odb,Step-1,Increment      1: Step Time =    1.000,"P-1-1",           628,       132.959,       9.98359,            0.,NA,NA,"",   3.51289E+06,   2.75865E+06,   2.75865E+06
C:/temp/Job-1.odb,Step-1,Increment      1: Step Time =    1.000,"P-1-1",           629,       113.783,       9.89226,            0.,NA,NA,"",   8.94211E+06,   8.94934E+06,   8.94934E+06
C:/temp/Job-1.odb,Step-1,Increment      1: Step Time =    1.000,"P-1-1",           630,       104.798,       7.76138,            0.,NA,NA,"",   6.70363E+06,   6.33331E+06,   6.33331E+06
C:/temp/Job-1.odb,Step-1,Increment      1: Step Time =    1.000,"P-1-1",           631,       65.2225,       8.53164,            0.,NA,NA,"",   7.84047E+06,   7.44775E+06,   7.44775E+06
C:/temp/Job-1.odb,Step-1,Increment      1: Step Time =    1.000,"P-1-1",           632,       190.697,       140.195,            0.,NA,NA,"",   3.74608E+06,   3.39220E+06,   3.39220E+06
C:/temp/Job-1.odb,Step-1,Increment      1: Step Time =    1.000,"P-1-1",           633,       191.109,       130.879,            0.,NA,NA,"",   4.52422E+06,   3.99860E+06,   3.99860E+06
C:/temp/Job-1.odb,Step-1,Increment      1: Step Time =    1.000,"P-1-1",           634,       189.817,       122.167,            0.,NA,NA,"",   4.70071E+06,   666.663E+03,   666.663E+03
C:/temp/Job-1.odb,Step-1,Increment      1: Step Time =    1.000,"P-1-1",           635,       189.032,       57.8451,            0.,NA,NA,"",   3.65203E+06,   3.19810E+06,   3.19810E+06
C:/temp/Job-1.odb,Step-1,Increment      1: Step Time =    1.000,"P-1-1",           636,       59.2854,       192.585,            0.,NA,NA,"",   8.75807E+06,   8.49196E+06,   8.49196E+06
C:/temp/Job-1.odb,Step-1,Increment      1: Step Time =    1.000,"P-1-1",           637,       68.8358,       191.089,            0.,NA,NA,"",   7.45410E+06,   6.91178E+06,   6.91178E+06
C:/temp/Job-1.odb,Step-1,Increment      1: Step Time =    1.000,"P-1-1",           638,       89.3296,       190.975,            0.,NA,NA,"",   8.44413E+06,   7.62424E+06,   7.62424E+06
C:/temp/Job-1.odb,Step-1,Increment      1: Step Time =    1.000,"P-1-1",           639,       134.721,       191.532,            0.,NA,NA,"",   2.94073E+06,   598.719E+03,   598.719E+03
C:/temp/Job-1.odb,Step-1,Increment      1: Step Time =    1.000,"P-1-1",           640,       7.62654,       58.7963,            0.,NA,NA,"",   2.02444E+06,  -2.00987E+06,  -2.00987E+06
C:/temp/Job-1.odb,Step-1,Increment      1: Step Time =    1.000,"P-1-1",           641,       9.73221,       67.7157,            0.,NA,NA,"",   1.63154E+06,  -1.64152E+06,  -1.64152E+06
C:/temp/Job-1.odb,Step-1,Increment      1: Step Time =    1.000,"P-1-1",           642,       9.41056,       89.0067,            0.,NA,NA,"",   614.170E+03,  -640.198E+03,  -640.198E+03
C:/temp/Job-1.odb,Step-1,Increment      1: Step Time =    1.000,"P-1-1",           643,       190.970,       79.6992,            0.,NA,NA,"",   4.78488E+06,   2.60543E+06,   2.60543E+06
C:/temp/Job-1.odb,Step-1,Increment      1: Step Time =    1.000,"P-1-1",           644,       190.277,       69.7151,            0.,NA,NA,"",   4.49162E+06,   3.87756E+06,   3.87756E+06
C:/temp/Job-1.odb,Step-1,Increment      1: Step Time =    1.000,"P-1-1",           645,       9.12437,       78.6160,            0.,NA,NA,"",   992.780E+03,  -1.01424E+06,  -1.01424E+06
C:/temp/Job-1.odb,Step-1,Increment      1: Step Time =    1.000,"P-1-1",           646,       9.90685,       132.533,            0.,NA,NA,"",   1.66125E+06,  -1.67151E+06,  -1.67151E+06
C:/temp/Job-1.odb,Step-1,Increment      1: Step Time =    1.000,"P-1-1",           647,       9.01561,       141.688,            0.,NA,NA,"",   2.10761E+06,  -2.08158E+06,  -2.08158E+06
C:/temp/Job-1.odb,Step-1,Increment      1: Step Time =    1.000,"P-1-1",           648,       186.414,       70.6897,            0.,NA,NA,"",   3.81137E+06,   276.487E+03,   276.487E+03
C:/temp/Job-1.odb,Step-1,Increment      1: Step Time =    1.000,"P-1-1",           649,       187.486,       131.366,            0.,NA,NA,"",   4.02925E+06,   2.97067E+06,   2.97067E+06
C:/temp/Job-1.odb,Step-1,Increment      1: Step Time =    1.000,"P-1-1",           650,       13.8992,       129.512,            0.,NA,NA,"",   1.50561E+06,  -1.53186E+06,  -1.53186E+06
C:/temp/Job-1.odb,Step-1,Increment      1: Step Time =    1.000,"P-1-1",           651,       13.7465,       71.0384,            0.,NA,NA,"",   1.46905E+06,  -1.49405E+06,  -1.49405E+06
C:/temp/Job-1.odb,Step-1,Increment      1: Step Time =    1.000,"P-1-1",           652,       128.816,       187.892,            0.,NA,NA,"",   7.32963E+06,   7.62932E+06,   7.62932E+06
C:/temp/Job-1.odb,Step-1,Increment      1: Step Time =    1.000,"P-1-1",           653,       131.276,       14.5844,            0.,NA,NA,"",   10.0523E+06,   10.4032E+06,   10.4032E+06
C:/temp/Job-1.odb,Step-1,Increment      1: Step Time =    1.000,"P-1-1",           654,       68.1423,       186.794,            0.,NA,NA,"",   4.80841E+06,   2.70453E+06,   2.70453E+06
C:/temp/Job-1.odb,Step-1,Increment      1: Step Time =    1.000,"P-1-1",           655,       71.1746,       12.1163,            0.,NA,NA,"",   5.57722E+06,   4.56990E+06,   4.56990E+06
C:/temp/Job-1.odb,Step-1,Increment      1: Step Time =    1.000,"P-1-1",           656,       152.825,       23.0786,            0.,NA,NA,"",   6.54224E+06,   6.74459E+06,   6.74459E+06
C:/temp/Job-1.odb,Step-1,Increment      1: Step Time =    1.000,"P-1-1",           657,       185.128,       140.667,            0.,NA,NA,"",   3.73165E+06,   3.01594E+06,   3.01594E+06
C:/temp/Job-1.odb,Step-1,Increment      1: Step Time =    1.000,"P-1-1",           658,       14.4729,       133.440,            0.,NA,NA,"",   1.79192E+06,  -1.81274E+06,  -1.81274E+06
C:/temp/Job-1.odb,Step-1,Increment      1: Step Time =    1.000,"P-1-1",           659,       186.327,       135.209,            0.,NA,NA,"",   3.93148E+06,   2.97565E+06,   2.97565E+06
C:/temp/Job-1.odb,Step-1,Increment      1: Step Time =    1.000,"P-1-1",           660,       150.549,       175.928,            0.,NA,NA,"",   7.58007E+06,   7.76656E+06,   7.76656E+06
C:/temp/Job-1.odb,Step-1,Increment      1: Step Time =    1.000,"P-1-1",           661,       184.788,       66.0389,            0.,NA,NA,"",   3.58157E+06,   1.46665E+06,   1.46665E+06
C:/temp/Job-1.odb,Step-1,Increment      1: Step Time =    1.000,"P-1-1",           662,       183.599,       61.8388,            0.,NA,NA,"",   3.52696E+06,   2.69747E+06,   2.69747E+06
C:/temp/Job-1.odb,Step-1,Increment      1: Step Time =    1.000,"P-1-1",           663,       48.5218,       178.079,            0.,NA,NA,"",   2.71129E+06,  -2.53078E+06,  -2.53078E+06
C:/temp/Job-1.odb,Step-1,Increment      1: Step Time =    1.000,"P-1-1",           664,       15.0286,       62.5630,            0.,NA,NA,"",   2.15159E+06,  -2.15830E+06,  -2.15830E+06
C:/temp/Job-1.odb,Step-1,Increment      1: Step Time =    1.000,"P-1-1",           665,       15.4101,       138.944,            0.,NA,NA,"",   2.23921E+06,  -2.24291E+06,  -2.24291E+06
C:/temp/Job-1.odb,Step-1,Increment      1: Step Time =    1.000,"P-1-1",           666,       189.145,       101.701,            0.,NA,NA,"",   6.86864E+06,  -5.12093E+06,  -5.12093E+06
C:/temp/Job-1.odb,Step-1,Increment      1: Step Time =    1.000,"P-1-1",           667,       60.3511,       11.5324,            0.,NA,NA,"",   5.67542E+06,   5.12080E+06,   5.12080E+06
C:/temp/Job-1.odb,Step-1,Increment      1: Step Time =    1.000,"P-1-1",           668,       13.0990,       142.948,            0.,NA,NA,"",   2.35945E+06,  -2.31820E+06,  -2.31820E+06
C:/temp/Job-1.odb,Step-1,Increment      1: Step Time =    1.000,"P-1-1",           669,       139.552,       188.613,            0.,NA,NA,"",   3.34683E+06,   3.46612E+06,   3.46612E+06
C:/temp/Job-1.odb,Step-1,Increment      1: Step Time =    1.000,"P-1-1",           670,       150.181,       182.203,            0.,NA,NA,"",   5.20854E+06,   5.32969E+06,   5.32969E+06
C:/temp/Job-1.odb,Step-1,Increment      1: Step Time =    1.000,"P-1-1",           671,       153.223,       16.6849,            0.,NA,NA,"",   3.89895E+06,   3.95902E+06,   3.95902E+06
C:/temp/Job-1.odb,Step-1,Increment      1: Step Time =    1.000,"P-1-1",           672,       49.1847,       18.4942,            0.,NA,NA,"",   2.75355E+06,   643.825E+03,   643.825E+03
C:/temp/Job-1.odb,Step-1,Increment      1: Step Time =    1.000,"P-1-1",           673,       40.1686,       172.397,            0.,NA,NA,"",   2.77031E+06,  -2.88139E+06,  -2.88139E+06
C:/temp/Job-1.odb,Step-1,Increment      1: Step Time =    1.000,"P-1-1",           674,       41.9557,       26.6567,            0.,NA,NA,"",   2.87667E+06,  -2.95271E+06,  -2.95271E+06
C:/temp/Job-1.odb,Step-1,Increment      1: Step Time =    1.000,"P-1-1",           675,       158.194,       173.782,            0.,NA,NA,"",   5.60912E+06,   5.82868E+06,   5.82868E+06
C:/temp/Job-1.odb,Step-1,Increment      1: Step Time =    1.000,"P-1-1",           676,       160.953,       26.9500,            0.,NA,NA,"",   4.93186E+06,   5.12814E+06,   5.12814E+06
C:/temp/Job-1.odb,Step-1,Increment      1: Step Time =    1.000,"P-1-1",           677,       156.697,       25.6133,            0.,NA,NA,"",   5.84323E+06,   6.04927E+06,   6.04927E+06
C:/temp/Job-1.odb,Step-1,Increment      1: Step Time =    1.000,"P-1-1",           678,       43.8796,       176.817,            0.,NA,NA,"",   2.21032E+06,  -1.60486E+06,  -1.60486E+06
C:/temp/Job-1.odb,Step-1,Increment      1: Step Time =    1.000,"P-1-1",           679,       172.011,       36.9477,            0.,NA,NA,"",   3.70235E+06,   3.78387E+06,   3.78387E+06
C:/temp/Job-1.odb,Step-1,Increment      1: Step Time =    1.000,"P-1-1",           680,       188.620,       112.056,            0.,NA,NA,"",   6.22794E+06,  -3.52881E+06,  -3.52881E+06
C:/temp/Job-1.odb,Step-1,Increment      1: Step Time =    1.000,"P-1-1",           681,       13.7248,       92.0898,            0.,NA,NA,"",   638.343E+03,  -648.016E+03,  -648.016E+03
C:/temp/Job-1.odb,Step-1,Increment      1: Step Time =    1.000,"P-1-1",           682,       31.6090,       162.193,            0.,NA,NA,"",   3.98575E+06,  -4.04495E+06,  -4.04495E+06
C:/temp/Job-1.odb,Step-1,Increment      1: Step Time =    1.000,"P-1-1",           683,       169.827,       163.759,            0.,NA,NA,"",   4.07529E+06,   4.19867E+06,   4.19867E+06
C:/temp/Job-1.odb,Step-1,Increment      1: Step Time =    1.000,"P-1-1",           684,       31.2108,       37.7971,            0.,NA,NA,"",   3.84228E+06,  -3.90420E+06,  -3.90420E+06
C:/temp/Job-1.odb,Step-1,Increment      1: Step Time =    1.000,"P-1-1",           685,       18.9112,       143.875,            0.,NA,NA,"",   2.79911E+06,  -2.79324E+06,  -2.79324E+06
C:/temp/Job-1.odb,Step-1,Increment      1: Step Time =    1.000,"P-1-1",           686,       182.841,       55.7417,            0.,NA,NA,"",   3.53853E+06,   3.00754E+06,   3.00754E+06
C:/temp/Job-1.odb,Step-1,Increment      1: Step Time =    1.000,"P-1-1",           687,       110.891,       13.2850,            0.,NA,NA,"",   16.6369E+06,   16.7491E+06,   16.7491E+06
C:/temp/Job-1.odb,Step-1,Increment      1: Step Time =    1.000,"P-1-1",           688,       18.4281,       153.382,            0.,NA,NA,"",   2.74804E+06,  -2.64506E+06,  -2.64506E+06
C:/temp/Job-1.odb,Step-1,Increment      1: Step Time =    1.000,"P-1-1",           689,       181.608,       47.1993,            0.,NA,NA,"",   3.38648E+06,   3.08451E+06,   3.08451E+06
C:/temp/Job-1.odb,Step-1,Increment      1: Step Time =    1.000,"P-1-1",           690,       139.356,       183.377,            0.,NA,NA,"",   8.23185E+06,   8.49308E+06,   8.49308E+06
C:/temp/Job-1.odb,Step-1,Increment      1: Step Time =    1.000,"P-1-1",           691,       60.5090,       16.7803,            0.,NA,NA,"",   3.42521E+06,  -240.682E+03,  -240.682E+03
C:/temp/Job-1.odb,Step-1,Increment      1: Step Time =    1.000,"P-1-1",           692,       185.294,       50.9532,            0.,NA,NA,"",   3.40334E+06,   2.97650E+06,   2.97650E+06
C:/temp/Job-1.odb,Step-1,Increment      1: Step Time =    1.000,"P-1-1",           693,       15.7225,       145.771,            0.,NA,NA,"",   2.60739E+06,  -2.54897E+06,  -2.54897E+06
C:/temp/Job-1.odb,Step-1,Increment      1: Step Time =    1.000,"P-1-1",           694,       143.789,       186.741,            0.,NA,NA,"",   4.04860E+06,   4.11257E+06,   4.11257E+06
C:/temp/Job-1.odb,Step-1,Increment      1: Step Time =    1.000,"P-1-1",           695,       149.892,       12.9958,            0.,NA,NA,"",   2.74251E+06,   2.61190E+06,   2.61190E+06
C:/temp/Job-1.odb,Step-1,Increment      1: Step Time =    1.000,"P-1-1",           696,       55.9804,       13.5429,            0.,NA,NA,"",   4.61175E+06,   4.01544E+06,   4.01544E+06
C:/temp/Job-1.odb,Step-1,Increment      1: Step Time =    1.000,"P-1-1",           697,       52.7716,       186.748,            0.,NA,NA,"",   4.93976E+06,   4.45871E+06,   4.45871E+06
C:/temp/Job-1.odb,Step-1,Increment      1: Step Time =    1.000,"P-1-1",           698,       34.7951,       27.7547,            0.,NA,NA,"",   1.56104E+06,  -1.60636E+06,  -1.60636E+06
C:/temp/Job-1.odb,Step-1,Increment      1: Step Time =    1.000,"P-1-1",           699,       164.675,       174.582,            0.,NA,NA,"",   3.86367E+06,   4.00252E+06,   4.00252E+06
C:/temp/Job-1.odb,Step-1,Increment      1: Step Time =    1.000,"P-1-1",           700,       165.553,       27.4812,            0.,NA,NA,"",   3.98072E+06,   4.14118E+06,   4.14118E+06
C:/temp/Job-1.odb,Step-1,Increment      1: Step Time =    1.000,"P-1-1",           701,       100.265,       11.8049,            0.,NA,NA,"",   12.7324E+06,   12.6879E+06,   12.6879E+06
C:/temp/Job-1.odb,Step-1,Increment      1: Step Time =    1.000,"P-1-1",           702,       100.015,       189.289,            0.,NA,NA,"",   11.3385E+06,   11.2332E+06,   11.2332E+06
C:/temp/Job-1.odb,Step-1,Increment      1: Step Time =    1.000,"P-1-1",           703,       166.506,       35.1626,            0.,NA,NA,"",   4.70027E+06,   4.85394E+06,   4.85394E+06
C:/temp/Job-1.odb,Step-1,Increment      1: Step Time =    1.000,"P-1-1",           704,       34.8771,       165.545,            0.,NA,NA,"",   3.98475E+06,  -4.08689E+06,  -4.08689E+06
C:/temp/Job-1.odb,Step-1,Increment      1: Step Time =    1.000,"P-1-1",           705,       176.283,       163.749,            0.,NA,NA,"",   3.09176E+06,   3.11879E+06,   3.11879E+06
C:/temp/Job-1.odb,Step-1,Increment      1: Step Time =    1.000,"P-1-1",           706,       24.2347,       38.5158,            0.,NA,NA,"",   2.55363E+06,  -2.48143E+06,  -2.48143E+06
C:/temp/Job-1.odb,Step-1,Increment      1: Step Time =    1.000,"P-1-1",           707,       185.381,       43.3081,            0.,NA,NA,"",   2.78966E+06,   2.52368E+06,   2.52368E+06
C:/temp/Job-1.odb,Step-1,Increment      1: Step Time =    1.000,"P-1-1",           708,       15.1466,       156.199,            0.,NA,NA,"",   2.27777E+06,  -2.10043E+06,  -2.10043E+06
C:/temp/Job-1.odb,Step-1,Increment      1: Step Time =    1.000,"P-1-1",           709,       189.044,       91.2482,            0.,NA,NA,"",   6.74587E+06,  -4.13246E+06,  -4.13246E+06
C:/temp/Job-1.odb,Step-1,Increment      1: Step Time =    1.000,"P-1-1",           710,       9.17970,       109.046,            0.,NA,NA,"",   566.910E+03,  -594.084E+03,  -594.084E+03
C:/temp/Job-1.odb,Step-1,Increment      1: Step Time =    1.000,"P-1-1",           711,       25.0342,       161.964,            0.,NA,NA,"",   2.52851E+06,  -2.46409E+06,  -2.46409E+06
C:/temp/Job-1.odb,Step-1,Increment      1: Step Time =    1.000,"P-1-1",           712,       174.645,       40.1868,            0.,NA,NA,"",   3.58310E+06,   3.58644E+06,   3.58644E+06
C:/temp/Job-1.odb,Step-1,Increment      1: Step Time =    1.000,"P-1-1",           713,       57.3835,       189.416,            0.,NA,NA,"",   6.57678E+06,   6.19107E+06,   6.19107E+06
C:/temp/Job-1.odb,Step-1,Increment      1: Step Time =    1.000,"P-1-1",           714,       143.080,       12.7450,            0.,NA,NA,"",   3.60054E+06,   3.68025E+06,   3.68025E+06
C:/temp/Job-1.odb,Step-1,Increment      1: Step Time =    1.000,"P-1-1",           715,       34.8254,       34.1274,            0.,NA,NA,"",   3.83100E+06,  -3.94427E+06,  -3.94427E+06
C:/temp/Job-1.odb,Step-1,Increment      1: Step Time =    1.000,"P-1-1",           716,       165.667,       167.442,            0.,NA,NA,"",   4.61702E+06,    4.7894E+06,    4.7894E+06
C:/temp/Job-1.odb,Step-1,Increment      1: Step Time =    1.000,"P-1-1",           717,       90.5851,       13.1414,            0.,NA,NA,"",   9.07782E+06,   8.90462E+06,   8.90462E+06
C:/temp/Job-1.odb,Step-1,Increment      1: Step Time =    1.000,"P-1-1",           718,       109.686,       186.630,            0.,NA,NA,"",   17.5784E+06,   17.6723E+06,   17.6723E+06
C:/temp/Job-1.odb,Step-1,Increment      1: Step Time =    1.000,"P-1-1",           719,       145.827,       7.82770,            0.,NA,NA,"",   2.20226E+06,  -478.388E+03,  -478.388E+03
C:/temp/Job-1.odb,Step-1,Increment      1: Step Time =    1.000,"P-1-1",           720,       55.5706,       192.634,            0.,NA,NA,"",   8.99938E+06,   8.78603E+06,   8.78603E+06
C:/temp/Job-1.odb,Step-1,Increment      1: Step Time =    1.000,"P-1-1",           721,       174.574,       35.4411,            0.,NA,NA,"",   3.19452E+06,   3.25251E+06,   3.25251E+06
C:/temp/Job-1.odb,Step-1,Increment      1: Step Time =    1.000,"P-1-1",           722,       27.7951,       34.8480,            0.,NA,NA,"",   2.35817E+06,  -2.34285E+06,  -2.34285E+06
C:/temp/Job-1.odb,Step-1,Increment      1: Step Time =    1.000,"P-1-1",           723,       28.9586,       165.253,            0.,NA,NA,"",   2.44900E+06,  -2.44335E+06,  -2.44335E+06
C:/temp/Job-1.odb,Step-1,Increment      1: Step Time =    1.000,"P-1-1",           724,       174.028,       168.209,            0.,NA,NA,"",   3.04555E+06,   3.11260E+06,   3.11260E+06
C:/temp/Job-1.odb,Step-1,Increment      1: Step Time =    1.000,"P-1-1",           725,       180.793,       40.0752,            0.,NA,NA,"",   2.95258E+06,   2.82346E+06,   2.82346E+06
C:/temp/Job-1.odb,Step-1,Increment      1: Step Time =    1.000,"P-1-1",           726,       21.1517,       35.3256,            0.,NA,NA,"",   1.60797E+06,  -1.41048E+06,  -1.41048E+06
C:/temp/Job-1.odb,Step-1,Increment      1: Step Time =    1.000,"P-1-1",           727,       18.6011,       162.901,            0.,NA,NA,"",   1.68315E+06,  -1.44284E+06,  -1.44284E+06
C:/temp/Job-1.odb,Step-1,Increment      1: Step Time =    1.000,"P-1-1",           728,       180.543,       163.867,            0.,NA,NA,"",   2.68512E+06,   2.63331E+06,   2.63331E+06
C:/temp/Job-1.odb,Step-1,Increment      1: Step Time =    1.000,"P-1-1",           729,       149.804,       186.898,            0.,NA,NA,"",   2.92766E+06,   2.81789E+06,   2.81789E+06
C:/temp/Job-1.odb,Step-1,Increment      1: Step Time =    1.000,"P-1-1",           730,       145.693,       16.5416,            0.,NA,NA,"",   5.59121E+06,   5.78141E+06,   5.78141E+06
C:/temp/Job-1.odb,Step-1,Increment      1: Step Time =    1.000,"P-1-1",           731,       49.8635,       13.4838,            0.,NA,NA,"",   4.95283E+06,   4.62579E+06,   4.62579E+06
C:/temp/Job-1.odb,Step-1,Increment      1: Step Time =    1.000,"P-1-1",           732,       56.9633,       182.821,            0.,NA,NA,"",   3.34455E+06,  -40.0003E+03,  -40.0003E+03
C:/temp/Job-1.odb,Step-1,Increment      1: Step Time =    1.000,"P-1-1",           733,       34.2411,       174.504,            0.,NA,NA,"",   1.45215E+06,  -293.225E+03,  -293.225E+03
C:/temp/Job-1.odb,Step-1,Increment      1: Step Time =    1.000,"P-1-1",           734,       38.0676,       24.1821,            0.,NA,NA,"",   1.47025E+06,  -611.697E+03,  -611.697E+03
C:/temp/Job-1.odb,Step-1,Increment      1: Step Time =    1.000,"P-1-1",           735,       160.816,       177.231,            0.,NA,NA,"",   4.18709E+06,   4.31711E+06,   4.31711E+06
C:/temp/Job-1.odb,Step-1,Increment      1: Step Time =    1.000,"P-1-1",           736,       162.564,       21.8747,            0.,NA,NA,"",   3.76829E+06,   3.85463E+06,   3.85463E+06
C:/temp/Job-1.odb,Step-1,Increment      1: Step Time =    1.000,"P-1-1",           737,       31.3527,       24.6961,            0.,NA,NA,"",   1.23977E+06,   458.739E+03,   458.739E+03
C:/temp/Job-1.odb,Step-1,Increment      1: Step Time =    1.000,"P-1-1",           738,       30.0584,       171.984,            0.,NA,NA,"",   1.12878E+06,  -449.639E+03,  -449.639E+03
C:/temp/Job-1.odb,Step-1,Increment      1: Step Time =    1.000,"P-1-1",           739,       171.018,       27.5168,            0.,NA,NA,"",   3.11403E+06,   3.21336E+06,   3.21336E+06
C:/temp/Job-1.odb,Step-1,Increment      1: Step Time =    1.000,"P-1-1",           740,       171.371,       176.085,            0.,NA,NA,"",   2.70093E+06,   2.72043E+06,   2.72043E+06
C:/temp/Job-1.odb,Step-1,Increment      1: Step Time =    1.000,"P-1-1",           741,       13.4087,       150.896,            0.,NA,NA,"",   2.38259E+06,  -2.25564E+06,  -2.25564E+06
C:/temp/Job-1.odb,Step-1,Increment      1: Step Time =    1.000,"P-1-1",           742,       187.235,       47.7160,            0.,NA,NA,"",   3.01449E+06,   2.66677E+06,   2.66677E+06
C:/temp/Job-1.odb,Step-1,Increment      1: Step Time =    1.000,"P-1-1",           743,       46.8575,       186.656,            0.,NA,NA,"",   5.20293E+06,   4.93543E+06,   4.93543E+06
C:/temp/Job-1.odb,Step-1,Increment      1: Step Time =    1.000,"P-1-1",           744,       154.070,       11.4096,            0.,NA,NA,"",   1.97134E+06,   1.62327E+06,   1.62327E+06
C:/temp/Job-1.odb,Step-1,Increment      1: Step Time =    1.000,"P-1-1",           745,       14.4583,       41.3487,            0.,NA,NA,"",   1.99837E+06,  -1.75732E+06,  -1.75732E+06
C:/temp/Job-1.odb,Step-1,Increment      1: Step Time =    1.000,"P-1-1",           746,       180.448,       159.337,            0.,NA,NA,"",   3.00406E+06,   2.88419E+06,   2.88419E+06
C:/temp/Job-1.odb,Step-1,Increment      1: Step Time =    1.000,"P-1-1",           747,       44.8776,       16.9556,            0.,NA,NA,"",   3.20778E+06,   2.82256E+06,   2.82256E+06
C:/temp/Job-1.odb,Step-1,Increment      1: Step Time =    1.000,"P-1-1",           748,       155.063,       183.254,            0.,NA,NA,"",   3.58695E+06,   3.62118E+06,   3.62118E+06
C:/temp/Job-1.odb,Step-1,Increment      1: Step Time =    1.000,"P-1-1",           749,       46.1576,       191.039,            0.,NA,NA,"",   8.16309E+06,   8.01683E+06,   8.01683E+06
C:/temp/Job-1.odb,Step-1,Increment      1: Step Time =    1.000,"P-1-1",           750,       154.428,       7.95989,            0.,NA,NA,"",   1.96146E+06,  -427.321E+03,  -427.321E+03
C:/temp/Job-1.odb,Step-1,Increment      1: Step Time =    1.000,"P-1-1",           751,       27.7598,       28.1017,            0.,NA,NA,"",   942.712E+03,  -163.005E+03,  -163.005E+03
C:/temp/Job-1.odb,Step-1,Increment      1: Step Time =    1.000,"P-1-1",           752,       175.866,       173.782,            0.,NA,NA,"",   2.45166E+06,   2.44678E+06,   2.44678E+06
C:/temp/Job-1.odb,Step-1,Increment      1: Step Time =    1.000,"P-1-1",           753,       49.9310,       9.09607,            0.,NA,NA,"",   7.93664E+06,   7.77878E+06,   7.77878E+06
C:/temp/Job-1.odb,Step-1,Increment      1: Step Time =    1.000,"P-1-1",           754,       149.832,       191.174,            0.,NA,NA,"",   2.10204E+06,  -168.807E+03,  -168.807E+03
C:/temp/Job-1.odb,Step-1,Increment      1: Step Time =    1.000,"P-1-1",           755,       23.8286,       171.593,            0.,NA,NA,"",   633.090E+03,   290.513E+03,   290.513E+03
C:/temp/Job-1.odb,Step-1,Increment      1: Step Time =    1.000,"P-1-1",           756,       174.658,       31.8914,            0.,NA,NA,"",   2.95589E+06,   3.02492E+06,   3.02492E+06
C:/temp/Job-1.odb,Step-1,Increment      1: Step Time =    1.000,"P-1-1",           757,       160.235,       17.5776,            0.,NA,NA,"",   3.17947E+06,   3.14632E+06,   3.14632E+06
C:/temp/Job-1.odb,Step-1,Increment      1: Step Time =    1.000,"P-1-1",           758,       156.812,       179.586,            0.,NA,NA,"",   4.52340E+06,   4.65463E+06,   4.65463E+06
C:/temp/Job-1.odb,Step-1,Increment      1: Step Time =    1.000,"P-1-1",           759,       40.5660,       19.4551,            0.,NA,NA,"",   2.56639E+06,   1.80711E+06,   1.80711E+06
C:/temp/Job-1.odb,Step-1,Increment      1: Step Time =    1.000,"P-1-1",           760,       37.7311,       180.694,            0.,NA,NA,"",   2.51539E+06,   2.21855E+06,   2.21855E+06
C:/temp/Job-1.odb,Step-1,Increment      1: Step Time =    1.000,"P-1-1",           761,       13.9508,       161.227,            0.,NA,NA,"",   1.62393E+06,  -1.33585E+06,  -1.33585E+06
C:/temp/Job-1.odb,Step-1,Increment      1: Step Time =    1.000,"P-1-1",           762,       186.831,       38.0595,            0.,NA,NA,"",   2.18930E+06,   1.97580E+06,   1.97580E+06
C:/temp/Job-1.odb,Step-1,Increment      1: Step Time =    1.000,"P-1-1",           763,       177.655,       178.188,            0.,NA,NA,"",   2.15800E+06,   2.03067E+06,   2.03067E+06
C:/temp/Job-1.odb,Step-1,Increment      1: Step Time =    1.000,"P-1-1",           764,       24.3538,       24.9561,            0.,NA,NA,"",   1.34745E+06,   1.40332E+06,   1.40332E+06
C:/temp/Job-1.odb,Step-1,Increment      1: Step Time =    1.000,"P-1-1",           765,       175.556,       25.1150,            0.,NA,NA,"",   2.46564E+06,   2.45548E+06,   2.45548E+06
C:/temp/Job-1.odb,Step-1,Increment      1: Step Time =    1.000,"P-1-1",           766,       26.3482,       176.127,            0.,NA,NA,"",   1.56163E+06,   1.57764E+06,   1.57764E+06
C:/temp/Job-1.odb,Step-1,Increment      1: Step Time =    1.000,"P-1-1",           767,       17.4520,       46.8435,            0.,NA,NA,"",   2.65305E+06,  -2.52818E+06,  -2.52818E+06
C:/temp/Job-1.odb,Step-1,Increment      1: Step Time =    1.000,"P-1-1",           768,       15.1268,       36.9575,            0.,NA,NA,"",   1.46398E+06,  -910.571E+03,  -910.571E+03
C:/temp/Job-1.odb,Step-1,Increment      1: Step Time =    1.000,"P-1-1",           769,       185.514,       164.084,            0.,NA,NA,"",   2.19563E+06,   2.02994E+06,   2.02994E+06
C:/temp/Job-1.odb,Step-1,Increment      1: Step Time =    1.000,"P-1-1",           770,       181.074,       154.819,            0.,NA,NA,"",   3.28485E+06,   3.05267E+06,   3.05267E+06
C:/temp/Job-1.odb,Step-1,Increment      1: Step Time =    1.000,"P-1-1",           771,       39.6511,       9.49960,            0.,NA,NA,"",   7.74988E+06,   7.66124E+06,   7.66124E+06
C:/temp/Job-1.odb,Step-1,Increment      1: Step Time =    1.000,"P-1-1",           772,       160.021,       190.865,            0.,NA,NA,"",   1.76985E+06,  -7.29153E+03,  -7.29153E+03
C:/temp/Job-1.odb,Step-1,Increment      1: Step Time =    1.000,"P-1-1",           773,       9.11240,       160.545,            0.,NA,NA,"",   1.38102E+06,  -1.13334E+06,  -1.13334E+06
C:/temp/Job-1.odb,Step-1,Increment      1: Step Time =    1.000,"P-1-1",           774,       191.345,       39.0963,            0.,NA,NA,"",   1.91316E+06,   1.57461E+06,   1.57461E+06
C:/temp/Job-1.odb,Step-1,Increment      1: Step Time =    1.000,"P-1-1",           775,       19.9415,       176.371,            0.,NA,NA,"",   1.84162E+06,   1.98754E+06,   1.98754E+06
C:/temp/Job-1.odb,Step-1,Increment      1: Step Time =    1.000,"P-1-1",           776,       182.088,       25.3755,            0.,NA,NA,"",   2.00387E+06,   1.85123E+06,   1.85123E+06
C:/temp/Job-1.odb,Step-1,Increment      1: Step Time =    1.000,"P-1-1",           777,       157.640,       13.4755,            0.,NA,NA,"",   2.34257E+06,   2.08020E+06,   2.08020E+06
C:/temp/Job-1.odb,Step-1,Increment      1: Step Time =    1.000,"P-1-1",           778,       41.8962,       186.059,            0.,NA,NA,"",   5.14723E+06,   4.94310E+06,   4.94310E+06
C:/temp/Job-1.odb,Step-1,Increment      1: Step Time =    1.000,"P-1-1",           779,       13.0986,       165.655,            0.,NA,NA,"",   935.534E+03,  -166.619E+03,  -166.619E+03
C:/temp/Job-1.odb,Step-1,Increment      1: Step Time =    1.000,"P-1-1",           780,       188.012,       33.8926,            0.,NA,NA,"",   1.87487E+06,   1.64557E+06,   1.64557E+06
C:/temp/Job-1.odb,Step-1,Increment      1: Step Time =    1.000,"P-1-1",           781,       39.7690,       14.2307,            0.,NA,NA,"",   5.14345E+06,   4.96509E+06,   4.96509E+06
C:/temp/Job-1.odb,Step-1,Increment      1: Step Time =    1.000,"P-1-1",           782,       159.653,       186.613,            0.,NA,NA,"",   2.19282E+06,   1.97444E+06,   1.97444E+06
C:/temp/Job-1.odb,Step-1,Increment      1: Step Time =    1.000,"P-1-1",           783,       164.499,       185.551,            0.,NA,NA,"",   2.15127E+06,   1.91803E+06,   1.91803E+06
C:/temp/Job-1.odb,Step-1,Increment      1: Step Time =    1.000,"P-1-1",           784,       34.4891,       14.5824,            0.,NA,NA,"",   5.10133E+06,   5.00791E+06,   5.00791E+06
C:/temp/Job-1.odb,Step-1,Increment      1: Step Time =    1.000,"P-1-1",           785,       186.260,       22.8558,            0.,NA,NA,"",   1.82070E+06,   1.52240E+06,   1.52240E+06
C:/temp/Job-1.odb,Step-1,Increment      1: Step Time =    1.000,"P-1-1",           786,       14.4932,       178.050,            0.,NA,NA,"",   2.59146E+06,   2.82526E+06,   2.82526E+06
C:/temp/Job-1.odb,Step-1,Increment      1: Step Time =    1.000,"P-1-1",           787,       162.152,       12.5313,            0.,NA,NA,"",   1.96630E+06,   1.60036E+06,   1.60036E+06
C:/temp/Job-1.odb,Step-1,Increment      1: Step Time =    1.000,"P-1-1",           788,       185.806,       155.072,            0.,NA,NA,"",   2.90149E+06,   2.60197E+06,   2.60197E+06
C:/temp/Job-1.odb,Step-1,Increment      1: Step Time =    1.000,"P-1-1",           789,       13.6989,       45.6994,            0.,NA,NA,"",   2.30948E+06,  -2.13172E+06,  -2.13172E+06
C:/temp/Job-1.odb,Step-1,Increment      1: Step Time =    1.000,"P-1-1",           790,       184.654,       27.8215,            0.,NA,NA,"",   1.91948E+06,   1.76048E+06,   1.76048E+06
C:/temp/Job-1.odb,Step-1,Increment      1: Step Time =    1.000,"P-1-1",           791,       16.3634,       169.955,            0.,NA,NA,"",   637.174E+03,   664.650E+03,   664.650E+03
C:/temp/Job-1.odb,Step-1,Increment      1: Step Time =    1.000,"P-1-1",           792,       185.701,       150.879,            0.,NA,NA,"",   3.34360E+06,   2.92006E+06,   2.92006E+06
C:/temp/Job-1.odb,Step-1,Increment      1: Step Time =    1.000,"P-1-1",           793,       13.9884,       50.3386,            0.,NA,NA,"",   2.50792E+06,  -2.40633E+06,  -2.40633E+06
C:/temp/Job-1.odb,Step-1,Increment      1: Step Time =    1.000,"P-1-1",           794,       190.500,       154.813,            0.,NA,NA,"",   2.36125E+06,   2.06776E+06,   2.06776E+06
C:/temp/Job-1.odb,Step-1,Increment      1: Step Time =    1.000,"P-1-1",           795,       9.25775,       45.3829,            0.,NA,NA,"",   1.95607E+06,  -1.80634E+06,  -1.80634E+06
C:/temp/Job-1.odb,Step-1,Increment      1: Step Time =    1.000,"P-1-1",           796,       164.660,       15.0725,            0.,NA,NA,"",   2.32045E+06,   2.09704E+06,   2.09704E+06
C:/temp/Job-1.odb,Step-1,Increment      1: Step Time =    1.000,"P-1-1",           797,       33.1749,       184.796,            0.,NA,NA,"",   4.82494E+06,   4.74344E+06,   4.74344E+06
C:/temp/Job-1.odb,Step-1,Increment      1: Step Time =    1.000,"P-1-1",           798,       163.515,       9.00170,            0.,NA,NA,"",   1.64891E+06,       970.875,       970.875
C:/temp/Job-1.odb,Step-1,Increment      1: Step Time =    1.000,"P-1-1",           799,       36.0491,       190.105,            0.,NA,NA,"",   7.52936E+06,   7.47345E+06,   7.47345E+06
C:/temp/Job-1.odb,Step-1,Increment      1: Step Time =    1.000,"P-1-1",           800,       187.728,       26.6961,            0.,NA,NA,"",   1.81049E+06,   1.52692E+06,   1.52692E+06
C:/temp/Job-1.odb,Step-1,Increment      1: Step Time =    1.000,"P-1-1",           801,       13.3206,       174.038,            0.,NA,NA,"",   1.43310E+06,   1.61673E+06,   1.61673E+06
C:/temp/Job-1.odb,Step-1,Increment      1: Step Time =    1.000,"P-1-1",           802,       34.5928,       9.69831,            0.,NA,NA,"",   7.58452E+06,   7.53935E+06,   7.53935E+06
C:/temp/Job-1.odb,Step-1,Increment      1: Step Time =    1.000,"P-1-1",           803,       164.977,       190.390,            0.,NA,NA,"",   1.67424E+06,   125.153E+03,   125.153E+03
C:/temp/Job-1.odb,Step-1,Increment      1: Step Time =    1.000,"P-1-1",           804,       8.98225,       174.575,            0.,NA,NA,"",   1.71001E+06,   1.93245E+06,   1.93245E+06
C:/temp/Job-1.odb,Step-1,Increment      1: Step Time =    1.000,"P-1-1",           805,       191.643,       25.8136,            0.,NA,NA,"",   1.77666E+06,   1.27802E+06,   1.27802E+06
C:/temp/Job-1.odb,Step-1,Increment      1: Step Time =    1.000,"P-1-1",           806,       190.421,       164.392,            0.,NA,NA,"",   1.87196E+06,   1.52917E+06,   1.52917E+06
C:/temp/Job-1.odb,Step-1,Increment      1: Step Time =    1.000,"P-1-1",           807,       10.5430,       35.5741,            0.,NA,NA,"",   999.611E+03,  -245.707E+03,  -245.707E+03
C:/temp/Job-1.odb,Step-1,Increment      1: Step Time =    1.000,"P-1-1",           808,       172.540,       15.9613,            0.,NA,NA,"",   2.06170E+06,   1.81267E+06,   1.81267E+06
C:/temp/Job-1.odb,Step-1,Increment      1: Step Time =    1.000,"P-1-1",           809,       26.7119,       184.194,            0.,NA,NA,"",   4.70882E+06,   4.72739E+06,   4.72739E+06
C:/temp/Job-1.odb,Step-1,Increment      1: Step Time =    1.000,"P-1-1",           810,       13.3016,       55.7802,            0.,NA,NA,"",   2.35973E+06,  -2.32626E+06,  -2.32626E+06
C:/temp/Job-1.odb,Step-1,Increment      1: Step Time =    1.000,"P-1-1",           811,       173.834,       21.1731,            0.,NA,NA,"",   2.40713E+06,   2.33145E+06,   2.33145E+06
C:/temp/Job-1.odb,Step-1,Increment      1: Step Time =    1.000,"P-1-1",           812,       183.302,       14.9433,            0.,NA,NA,"",   1.72177E+06,   1.37990E+06,   1.37990E+06
C:/temp/Job-1.odb,Step-1,Increment      1: Step Time =    1.000,"P-1-1",           813,       16.5561,       185.700,            0.,NA,NA,"",   5.45353E+06,   5.57029E+06,   5.57029E+06
C:/temp/Job-1.odb,Step-1,Increment      1: Step Time =    1.000,"P-1-1",           814,       24.5925,       180.311,            0.,NA,NA,"",   3.12860E+06,   3.18852E+06,   3.18852E+06
C:/temp/Job-1.odb,Step-1,Increment      1: Step Time =    1.000,"P-1-1",           815,       17.7241,       53.1157,            0.,NA,NA,"",   2.76181E+06,  -2.72336E+06,  -2.72336E+06
C:/temp/Job-1.odb,Step-1,Increment      1: Step Time =    1.000,"P-1-1",           816,       181.221,       144.921,            0.,NA,NA,"",   3.44787E+06,   2.98842E+06,   2.98842E+06
C:/temp/Job-1.odb,Step-1,Increment      1: Step Time =    1.000,"P-1-1",           817,       174.989,       12.4342,            0.,NA,NA,"",   1.68803E+06,   1.29001E+06,   1.29001E+06
C:/temp/Job-1.odb,Step-1,Increment      1: Step Time =    1.000,"P-1-1",           818,       24.5947,       187.769,            0.,NA,NA,"",   6.30475E+06,   6.34033E+06,   6.34033E+06
C:/temp/Job-1.odb,Step-1,Increment      1: Step Time =    1.000,"P-1-1",           819,       16.5682,       191.134,            0.,NA,NA,"",   7.39225E+06,   7.43239E+06,   7.43239E+06
C:/temp/Job-1.odb,Step-1,Increment      1: Step Time =    1.000,"P-1-1",           820,       183.379,       9.17622,            0.,NA,NA,"",   1.30648E+06,   971.928E+03,   971.928E+03
C:/temp/Job-1.odb,Step-1,Increment      1: Step Time =    1.000,"P-1-1",           821,       60.2230,       8.28569,            0.,NA,NA,"",   8.00635E+06,   7.67676E+06,   7.67676E+06
C:/temp/Job-1.odb,Step-1,Increment      1: Step Time =    1.000,"P-1-1",           822,       8.65966,       54.8144,            0.,NA,NA,"",   2.14207E+06,  -2.10460E+06,  -2.10460E+06
C:/temp/Job-1.odb,Step-1,Increment      1: Step Time =    1.000,"P-1-1",           823,       139.673,       191.845,            0.,NA,NA,"",   2.46453E+06,   72.3824E+03,   72.3824E+03
C:/temp/Job-1.odb,Step-1,Increment      1: Step Time =    1.000,"P-1-1",           824,       191.055,       144.770,            0.,NA,NA,"",   3.22741E+06,   2.91264E+06,   2.91264E+06
C:/temp/Job-1.odb,Step-1,Increment      1: Step Time =    1.000,"P-1-1",           825,       9.00258,       151.011,            0.,NA,NA,"",   2.09724E+06,  -1.99188E+06,  -1.99188E+06
C:/temp/Job-1.odb,Step-1,Increment      1: Step Time =    1.000,"P-1-1",           826,       190.915,       48.3851,            0.,NA,NA,"",   2.58852E+06,   2.31626E+06,   2.31626E+06
C:/temp/Job-1.odb,Step-1,Increment      1: Step Time =    1.000,"P-1-1",           827,       28.5519,       20.2936,            0.,NA,NA,"",   2.82626E+06,   2.81644E+06,   2.81644E+06
C:/temp/Job-1.odb,Step-1,Increment      1: Step Time =    1.000,"P-1-1",           828,       173.667,       180.180,            0.,NA,NA,"",   2.24741E+06,   2.12116E+06,   2.12116E+06
C:/temp/Job-1.odb,Step-1,Increment      1: Step Time =    1.000,"P-1-1",           829,       17.1831,       32.6767,            0.,NA,NA,"",   920.452E+03,  -166.372E+03,  -166.372E+03
C:/temp/Job-1.odb,Step-1,Increment      1: Step Time =    1.000,"P-1-1",           830,       185.406,       168.571,            0.,NA,NA,"",   1.95947E+06,   1.80590E+06,   1.80590E+06
C:/temp/Job-1.odb,Step-1,Increment      1: Step Time =    1.000,"P-1-1",           831,       24.6662,       9.74450,            0.,NA,NA,"",   7.22592E+06,   7.23249E+06,   7.23249E+06
C:/temp/Job-1.odb,Step-1,Increment      1: Step Time =    1.000,"P-1-1",           832,       10.3710,       24.2097,            0.,NA,NA,"",   2.07008E+06,   2.31203E+06,   2.31203E+06
C:/temp/Job-1.odb,Step-1,Increment      1: Step Time =    1.000,"P-1-1",           833,       174.086,       9.14233,            0.,NA,NA,"",   1.39383E+06,   199.615E+03,   199.615E+03
C:/temp/Job-1.odb,Step-1,Increment      1: Step Time =    1.000,"P-1-1",           834,       25.6157,       190.882,            0.,NA,NA,"",   7.56199E+06,   7.57181E+06,   7.57181E+06
C:/temp/Job-1.odb,Step-1,Increment      1: Step Time =    1.000,"P-1-1",           835,       174.765,       190.352,            0.,NA,NA,"",   1.45725E+06,   614.258E+03,   614.258E+03
C:/temp/Job-1.odb,Step-1,Increment      1: Step Time =    1.000,"P-1-1",           836,       189.892,       173.833,            0.,NA,NA,"",   1.75836E+06,   1.36904E+06,   1.36904E+06
C:/temp/Job-1.odb,Step-1,Increment      1: Step Time =    1.000,"P-1-1",           837,       10.4001,       183.725,            0.,NA,NA,"",   4.47751E+06,   4.76086E+06,   4.76086E+06
C:/temp/Job-1.odb,Step-1,Increment      1: Step Time =    1.000,"P-1-1",           838,       14.7936,       9.85025,            0.,NA,NA,"",   6.93870E+06,   7.02066E+06,   7.02066E+06
C:/temp/Job-1.odb,Step-1,Increment      1: Step Time =    1.000,"P-1-1",           839,       9.68395,       14.6299,            0.,NA,NA,"",   5.09865E+06,   5.39173E+06,   5.39173E+06
C:/temp/Job-1.odb,Step-1,Increment      1: Step Time =    1.000,"P-1-1",           840,       184.711,       190.268,            0.,NA,NA,"",   1.29878E+06,   983.089E+03,   983.089E+03
C:/temp/Job-1.odb,Step-1,Increment      1: Step Time =    1.000,"P-1-1",           841,       189.304,       184.861,            0.,NA,NA,"",   1.57327E+06,   1.20164E+06,   1.20164E+06
C:/temp/Job-1.odb,Step-1,Increment      1: Step Time =    1.000,"P-1-1",           842,       189.691,       16.6969,            0.,NA,NA,"",   1.63221E+06,   1.23310E+06,   1.23310E+06
C:/temp/Job-1.odb,Step-1,Increment      1: Step Time =    1.000,"P-1-1",           843,       184.638,       18.8339,            0.,NA,NA,"",   1.78284E+06,   1.46932E+06,   1.46932E+06
C:/temp/Job-1.odb,Step-1,Increment      1: Step Time =    1.000,"P-1-1",           844,       15.3867,       182.072,            0.,NA,NA,"",   4.02273E+06,   4.21624E+06,   4.21624E+06
C:/temp/Job-1.odb,Step-1,Increment      1: Step Time =    1.000,"P-1-1",           845,       187.423,       145.522,            0.,NA,NA,"",   3.59785E+06,   3.07973E+06,   3.07973E+06
C:/temp/Job-1.odb,Step-1,Increment      1: Step Time =    1.000,"P-1-1",           846,       29.2955,       14.7771,            0.,NA,NA,"",   5.19778E+06,   5.17625E+06,   5.17625E+06
C:/temp/Job-1.odb,Step-1,Increment      1: Step Time =    1.000,"P-1-1",           847,       169.918,       184.143,            0.,NA,NA,"",   2.11234E+06,   1.88805E+06,   1.88805E+06
C:/temp/Job-1.odb,Step-1,Increment      1: Step Time =    1.000,"P-1-1",           848,       180.623,       172.851,            0.,NA,NA,"",   2.15053E+06,   2.07991E+06,   2.07991E+06
C:/temp/Job-1.odb,Step-1,Increment      1: Step Time =    1.000,"P-1-1",           849,       20.7902,       22.2576,            0.,NA,NA,"",   2.49284E+06,   2.62596E+06,   2.62596E+06
C:/temp/Job-1.odb,Step-1,Increment      1: Step Time =    1.000,"P-1-1",           850,       24.6136,       14.3726,            0.,NA,NA,"",   5.30159E+06,   5.33902E+06,   5.33902E+06
C:/temp/Job-1.odb,Step-1,Increment      1: Step Time =    1.000,"P-1-1",           851,       17.0991,       25.9032,            0.,NA,NA,"",   1.38545E+06,   1.53434E+06,   1.53434E+06
C:/temp/Job-1.odb,Step-1,Increment      1: Step Time =    1.000,"P-1-1",           852,       175.001,       185.903,            0.,NA,NA,"",   1.82815E+06,   1.49661E+06,   1.49661E+06
C:/temp/Job-1.odb,Step-1,Increment      1: Step Time =    1.000,"P-1-1",           853,       185.097,       176.240,            0.,NA,NA,"",   1.86799E+06,   1.63426E+06,   1.63426E+06
C:/temp/Job-1.odb,Step-1,Increment      1: Step Time =    1.000,"P-1-1",           854,       184.342,       185.545,            0.,NA,NA,"",   1.63924E+06,   1.29435E+06,   1.29435E+06
C:/temp/Job-1.odb,Step-1,Increment      1: Step Time =    1.000,"P-1-1",           855,       14.5654,       14.5904,            0.,NA,NA,"",   5.24056E+06,   5.41091E+06,   5.41091E+06
C:/temp/Job-1.odb,Step-1,Increment      1: Step Time =    1.000,"P-1-1",           856,       17.6180,       19.7928,            0.,NA,NA,"",   3.39881E+06,   3.56833E+06,   3.56833E+06
C:/temp/Job-1.odb,Step-1,Increment      1: Step Time =    1.000,"P-1-1",           857,       181.695,       177.159,            0.,NA,NA,"",   1.99457E+06,   1.81693E+06,   1.81693E+06
C:/temp/Job-1.odb,Step-1,Increment      1: Step Time =    1.000,"P-1-1",           858,       185.384,       172.830,            0.,NA,NA,"",   1.87476E+06,   1.68628E+06,   1.68628E+06
C:/temp/Job-1.odb,Step-1,Increment      1: Step Time =    1.000,"P-1-1",           859,       20.5907,       28.8564,            0.,NA,NA,"",   746.436E+03,   416.894E+03,   416.894E+03
C:/temp/Job-1.odb,Step-1,Increment      1: Step Time =    1.000,"P-1-1",           860,       175.889,       182.730,            0.,NA,NA,"",   2.04294E+06,   1.79566E+06,   1.79566E+06
C:/temp/Job-1.odb,Step-1,Increment      1: Step Time =    1.000,"P-1-1",           861,       19.8466,       15.2337,            0.,NA,NA,"",   4.98479E+06,   5.07955E+06,   5.07955E+06
C:/temp/Job-1.odb,Step-1,Increment      1: Step Time =    1.000,"P-1-1",           862,       179.666,       186.079,            0.,NA,NA,"",   1.70509E+06,   1.35551E+06,   1.35551E+06
C:/temp/Job-1.odb,Step-1,Increment      1: Step Time =    1.000,"P-1-1",           863,       183.414,       181.124,            0.,NA,NA,"",   1.84763E+06,   1.55760E+06,   1.55760E+06
C:/temp/Job-1.odb,Step-1,Increment      1: Step Time =    1.000,"P-1-1",           864,       14.0340,       18.9404,            0.,NA,NA,"",   3.69674E+06,   3.91583E+06,   3.91583E+06
C:/temp/Job-1.odb,Step-1,Increment      1: Step Time =    1.000,"P-1-1",           865,       44.8224,       4.66620,            0.,NA,NA,"",   10.9822E+06,   10.9219E+06,   10.9219E+06
C:/temp/Job-1.odb,Step-1,Increment      1: Step Time =    1.000,"P-1-1",           866,       155.031,       195.497,            0.,NA,NA,"",   2.87970E+06,  -2.74000E+06,  -2.74000E+06
C:/temp/Job-1.odb,Step-1,Increment      1: Step Time =    1.000,"P-1-1",           867,       13.5431,       82.7796,            0.,NA,NA,"",   860.478E+03,  -881.301E+03,  -881.301E+03
C:/temp/Job-1.odb,Step-1,Increment      1: Step Time =    1.000,"P-1-1",           868,       105.924,       11.5300,            0.,NA,NA,"",   13.3451E+06,   13.3826E+06,   13.3826E+06
C:/temp/Job-1.odb,Step-1,Increment      1: Step Time =    1.000,"P-1-1",           869,       120.891,       189.513,            0.,NA,NA,"",   7.05347E+06,   7.35662E+06,   7.35662E+06
C:/temp/Job-1.odb,Step-1,Increment      1: Step Time =    1.000,"P-1-1",           870,       124.786,       192.366,            0.,NA,NA,"",   3.12878E+06,   1.08441E+06,   1.08441E+06
C:/temp/Job-1.odb,Step-1,Increment      1: Step Time =    1.000,"P-1-1",           871,       13.3082,       87.8351,            0.,NA,NA,"",   708.092E+03,  -722.816E+03,  -722.816E+03
C:/temp/Job-1.odb,Step-1,Increment      1: Step Time =    1.000,"P-1-1",           872,       12.6514,       107.860,            0.,NA,NA,"",   619.687E+03,  -632.207E+03,  -632.207E+03
C:/temp/Job-1.odb,Step-1,Increment      1: Step Time =    1.000,"P-1-1",           873,       8.66994,       169.942,            0.,NA,NA,"",   818.351E+03,   928.047E+03,   928.047E+03
C:/temp/Job-1.odb,Step-1,Increment      1: Step Time =    1.000,"P-1-1",           874,       38.9964,       176.148,            0.,NA,NA,"",   1.75393E+06,  -588.825E+03,  -588.825E+03
C:/temp/Job-1.odb,Step-1,Increment      1: Step Time =    1.000,"P-1-1",           875,       72.4160,       187.053,            0.,NA,NA,"",   5.10717E+06,   3.97760E+06,   3.97760E+06
C:/temp/Job-1.odb,Step-1,Increment      1: Step Time =    1.000,"P-1-1",           876,       100.024,       8.28742,            0.,NA,NA,"",   7.88081E+06,   7.42898E+06,   7.42898E+06
C:/temp/Job-1.odb,Step-1,Increment      1: Step Time =    1.000,"P-1-1",           877,       79.1556,       10.4351,            0.,NA,NA,"",   6.96548E+06,   5.99925E+06,   5.99925E+06
C:/temp/Job-1.odb,Step-1,Increment      1: Step Time =    1.000,"P-1-1",           878,       75.2195,       7.61089,            0.,NA,NA,"",   7.86942E+06,   7.27617E+06,   7.27617E+06
C:/temp/Job-1.odb,Step-1,Increment      1: Step Time =    1.000,"P-1-1",           879,       192.063,       30.2327,            0.,NA,NA,"",   1.77803E+06,   1.28569E+06,   1.28569E+06
C:/temp/Job-1.odb,Step-1,Increment      1: Step Time =    1.000,"P-1-1",           880,       188.149,       78.7766,            0.,NA,NA,"",   4.63014E+06,  -1.41446E+06,  -1.41446E+06
C:/temp/Job-1.odb,Step-1,Increment      1: Step Time =    1.000,"P-1-1",           881,       14.0877,       67.1847,            0.,NA,NA,"",   1.76871E+06,  -1.78667E+06,  -1.78667E+06
C:/temp/Job-1.odb,Step-1,Increment      1: Step Time =    1.000,"P-1-1",           882,       187.488,       75.2060,            0.,NA,NA,"",   4.41272E+06,  -178.919E+03,  -178.919E+03
C:/temp/Job-1.odb,Step-1,Increment      1: Step Time =    1.000,"P-1-1",           883,       143.117,       180.630,            0.,NA,NA,"",   8.52732E+06,   8.77098E+06,   8.77098E+06
C:/temp/Job-1.odb,Step-1,Increment      1: Step Time =    1.000,"P-1-1",           884,       56.6278,       19.6539,            0.,NA,NA,"",   3.31564E+06,  -2.11127E+06,  -2.11127E+06
C:/temp/Job-1.odb,Step-1,Increment      1: Step Time =    1.000,"P-1-1",           885,       134.650,       14.3760,            0.,NA,NA,"",   8.27086E+06,   8.55714E+06,   8.55714E+06
C:/temp/Job-1.odb,Step-1,Increment      1: Step Time =    1.000,"P-1-1",           886,       16.2837,       58.4929,            0.,NA,NA,"",   2.41367E+06,  -2.41467E+06,  -2.41467E+06
C:/temp/Job-1.odb,Step-1,Increment      1: Step Time =    1.000,"P-1-1",           887,       12.6078,       146.577,            0.,NA,NA,"",   2.40709E+06,  -2.32599E+06,  -2.32599E+06
C:/temp/Job-1.odb,Step-1,Increment      1: Step Time =    1.000,"P-1-1",           888,       146.175,       11.1544,            0.,NA,NA,"",   2.26634E+06,   2.15587E+06,   2.15587E+06
C:/temp/Job-1.odb,Step-1,Increment      1: Step Time =    1.000,"P-1-1",           889,       153.381,       174.363,            0.,NA,NA,"",   6.98405E+06,   7.18481E+06,   7.18481E+06
C:/temp/Job-1.odb,Step-1,Increment      1: Step Time =    1.000,"P-1-1",           890,       168.740,       38.8998,            0.,NA,NA,"",   4.48982E+06,   4.59131E+06,   4.59131E+06
C:/temp/Job-1.odb,Step-1,Increment      1: Step Time =    1.000,"P-1-1",           891,       18.0018,       188.163,            0.,NA,NA,"",   6.41532E+06,   6.47882E+06,   6.47882E+06
C:/temp/Job-1.odb,Step-1,Increment      1: Step Time =    1.000,"P-1-1",           892,       21.2431,       187.907,            0.,NA,NA,"",   6.32261E+06,   6.38702E+06,   6.38702E+06
C:/temp/Job-1.odb,Step-1,Increment      1: Step Time =    1.000,"P-1-1",           893,       12.7704,       169.899,            0.,NA,NA,"",   756.739E+03,   813.615E+03,   813.615E+03
C:/temp/Job-1.odb,Step-1,Increment      1: Step Time =    1.000,"P-1-1",           894,       181.814,       12.3181,            0.,NA,NA,"",   1.61324E+06,   1.24671E+06,   1.24671E+06
C:/temp/Job-1.odb,Step-1,Increment      1: Step Time =    1.000,"P-1-1",           895,       178.447,       12.5210,            0.,NA,NA,"",   1.67573E+06,   1.28682E+06,   1.28682E+06
C:/temp/Job-1.odb,Step-1,Increment      1: Step Time =    1.000,"P-1-1",           896,       188.302,       30.4525,            0.,NA,NA,"",   1.79266E+06,   1.53117E+06,   1.53117E+06
C:/temp/Job-1.odb,Step-1,Increment      1: Step Time =    1.000,"P-1-1",           897,       185.629,       159.560,            0.,NA,NA,"",   2.51787E+06,   2.29822E+06,   2.29822E+06
C:/temp/Job-1.odb,Step-1,Increment      1: Step Time =    1.000,"P-1-1",           898,       14.7429,       22.5353,            0.,NA,NA,"",   2.43141E+06,   2.64512E+06,   2.64512E+06
C:/temp/Job-1.odb,Step-1,Increment      1: Step Time =    1.000,"P-1-1",           899,       17.2945,       149.733,            0.,NA,NA,"",   2.74873E+06,  -2.66374E+06,  -2.66374E+06
C:/temp/Job-1.odb,Step-1,Increment      1: Step Time =    1.000,"P-1-1",           900,       37.1663,       185.382,            0.,NA,NA,"",   4.97879E+06,   4.83770E+06,   4.83770E+06
C:/temp/Job-1.odb,Step-1,Increment      1: Step Time =    1.000,"P-1-1",           901,       184.139,       147.723,            0.,NA,NA,"",   3.60005E+06,   3.08777E+06,   3.08777E+06
C:/temp/Job-1.odb,Step-1,Increment      1: Step Time =    1.000,"P-1-1",           902,       51.0630,       183.000,            0.,NA,NA,"",   2.89687E+06,   1.21614E+06,   1.21614E+06
C:/temp/Job-1.odb,Step-1,Increment      1: Step Time =    1.000,"P-1-1",           903,       182.088,       150.695,            0.,NA,NA,"",   3.48716E+06,   3.10346E+06,   3.10346E+06
C:/temp/Job-1.odb,Step-1,Increment      1: Step Time =    1.000,"P-1-1",           904,       169.039,       30.8829,            0.,NA,NA,"",   3.68087E+06,   3.82883E+06,   3.82883E+06
C:/temp/Job-1.odb,Step-1,Increment      1: Step Time =    1.000,"P-1-1",           905,       158.358,       22.4335,            0.,NA,NA,"",   4.67256E+06,   4.82812E+06,   4.82812E+06
C:/temp/Job-1.odb,Step-1,Increment      1: Step Time =    1.000,"P-1-1",           906,       165.856,       24.1240,            0.,NA,NA,"",   3.49771E+06,   3.60460E+06,   3.60460E+06
C:/temp/Job-1.odb,Step-1,Increment      1: Step Time =    1.000,"P-1-1",           907,       178.367,       16.4022,            0.,NA,NA,"",   1.93540E+06,   1.64775E+06,   1.64775E+06
C:/temp/Job-1.odb,Step-1,Increment      1: Step Time =    1.000,"P-1-1",           908,       21.1212,       184.451,            0.,NA,NA,"",   4.90345E+06,   4.99025E+06,   4.99025E+06
C:/temp/Job-1.odb,Step-1,Increment      1: Step Time =    1.000,"P-1-1",           909,       47.2358,       182.391,            0.,NA,NA,"",   2.79434E+06,   1.08351E+06,   1.08351E+06
C:/temp/Job-1.odb,Step-1,Increment      1: Step Time =    1.000,"P-1-1",           910,       34.6674,       22.5119,            0.,NA,NA,"",   1.57325E+06,   987.736E+03,   987.736E+03
C:/temp/Job-1.odb,Step-1,Increment      1: Step Time =    1.000,"P-1-1",           911,       169.543,       22.7467,            0.,NA,NA,"",   2.90463E+06,   2.92784E+06,   2.92784E+06
C:/temp/Job-1.odb,Step-1,Increment      1: Step Time =    1.000,"P-1-1",           912,       145.461,       183.266,            0.,NA,NA,"",   5.98123E+06,   6.16487E+06,   6.16487E+06
C:/temp/Job-1.odb,Step-1,Increment      1: Step Time =    1.000,"P-1-1",           913,       54.2282,       17.1563,            0.,NA,NA,"",   2.83633E+06,   808.671E+03,   808.671E+03
C:/temp/Job-1.odb,Step-1,Increment      1: Step Time =    1.000,"P-1-1",           914,       152.972,       178.521,            0.,NA,NA,"",   5.86031E+06,   6.02607E+06,   6.02607E+06
C:/temp/Job-1.odb,Step-1,Increment      1: Step Time =    1.000,"P-1-1",           915,       18.7178,       38.0931,            0.,NA,NA,"",   1.88304E+06,  -1.64821E+06,  -1.64821E+06
C:/temp/Job-1.odb,Step-1,Increment      1: Step Time =    1.000,"P-1-1",           916,       182.689,       35.9208,            0.,NA,NA,"",   2.43010E+06,   2.32514E+06,   2.32514E+06
C:/temp/Job-1.odb,Step-1,Increment      1: Step Time =    1.000,"P-1-1",           917,       184.295,       31.5831,            0.,NA,NA,"",   2.01526E+06,   1.88884E+06,   1.88884E+06
C:/temp/Job-1.odb,Step-1,Increment      1: Step Time =    1.000,"P-1-1",           918,       162.971,       181.115,            0.,NA,NA,"",   3.01604E+06,   3.00735E+06,   3.00735E+06
C:/temp/Job-1.odb,Step-1,Increment      1: Step Time =    1.000,"P-1-1",           919,       158.834,       182.813,            0.,NA,NA,"",   3.09980E+06,   3.10242E+06,   3.10242E+06
C:/temp/Job-1.odb,Step-1,Increment      1: Step Time =    1.000,"P-1-1",           920,       17.1879,       166.617,            0.,NA,NA,"",   942.956E+03,  -215.810E+03,  -215.810E+03
C:/temp/Job-1.odb,Step-1,Increment      1: Step Time =    1.000,"P-1-1",           921,       16.9944,       173.009,            0.,NA,NA,"",   1.04299E+06,   1.17713E+06,   1.17713E+06
C:/temp/Job-1.odb,Step-1,Increment      1: Step Time =    1.000,"P-1-1",           922,       177.203,       37.3769,            0.,NA,NA,"",   3.07958E+06,   3.06889E+06,   3.06889E+06
C:/temp/Job-1.odb,Step-1,Increment      1: Step Time =    1.000,"P-1-1",           923,       20.7390,       168.498,            0.,NA,NA,"",   719.388E+03,  -206.261E+03,  -206.261E+03
C:/temp/Job-1.odb,Step-1,Increment      1: Step Time =    1.000,"P-1-1",           924,       18.9242,       171.081,            0.,NA,NA,"",   617.221E+03,   677.767E+03,   677.767E+03
C:/temp/Job-1.odb,Step-1,Increment      1: Step Time =    1.000,"P-1-1",           925,       20.9812,       173.006,            0.,NA,NA,"",   849.259E+03,   937.071E+03,   937.071E+03
C:/temp/Job-1.odb,Step-1,Increment      1: Step Time =    1.000,"P-1-1",           926,       26.4921,       168.654,            0.,NA,NA,"",   1.12262E+06,  -910.770E+03,  -910.770E+03
C:/temp/Job-1.odb,Step-1,Increment      1: Step Time =    1.000,"P-1-1",           927,       179.085,       29.4776,            0.,NA,NA,"",   2.37678E+06,   2.35483E+06,   2.35483E+06
