ODB Name,Step,Frame,Part Instance Name,    Node Label,X,Y,Z,Section Name,Material Name,Section Point,       S-Mises,S-Max. In-Plane Principal (Abs),S-Max. Principal (Abs)
C:/temp/Job-10.odb,Step-1,Increment      1: Step Time =    1.000,"P-10-1",             1,       85.1308,       149.829,            0.,NA,NA,"",   3.09281E+06,   3.14449E+06,   3.14449E+06
C:/temp/Job-10.odb,Step-1,Increment      1: Step Time =    1.000,"P-10-1",             2,       71.5033,       143.496,            0.,NA,NA,"",   1.21673E+06,   1.21336E+06,   1.21336E+06
C:/temp/Job-10.odb,Step-1,Increment      1: Step Time =    1.000,"P-10-1",             3,       60.2556,       133.532,            0.,NA,NA,"",   464.128E+03,  -396.349E+03,  -396.349E+03
C:/temp/Job-10.odb,Step-1,Increment      1: Step Time =    1.000,"P-10-1",             4,       52.3268,       120.767,            0.,NA,NA,"",   850.933E+03,  -869.127E+03,  -869.127E+03
C:/temp/Job-10.odb,Step-1,Increment      1: Step Time =    1.000,"P-10-1",             5,       48.3791,       106.268,            0.,NA,NA,"",   889.670E+03,  -898.476E+03,  -898.476E+03
C:/temp/Job-10.odb,Step-1,Increment      1: Step Time =    1.000,"P-10-1",             6,       48.7422,       91.2454,            0.,NA,NA,"",   830.510E+03,  -858.433E+03,  -858.433E+03
C:/temp/Job-10.odb,Step-1,Increment      1: Step Time =    1.000,"P-10-1",             7,       53.3858,       76.9540,            0.,NA,NA,"",   853.122E+03,  -861.918E+03,  -861.918E+03
C:/temp/Job-10.odb,Step-1,Increment      1: Step Time =    1.000,"P-10-1",             8,       61.9220,       64.5872,            0.,NA,NA,"",   366.642E+03,  -112.729E+03,  -112.729E+03
C:/temp/Job-10.odb,Step-1,Increment      1: Step Time =    1.000,"P-10-1",             9,       73.6381,       55.1776,            0.,NA,NA,"",   1.54850E+06,   1.55463E+06,   1.55463E+06
C:/temp/Job-10.odb,Step-1,Increment      1: Step Time =    1.000,"P-10-1",            10,       87.5556,       49.5110,            0.,NA,NA,"",   3.43614E+06,   3.48554E+06,   3.48554E+06
C:/temp/Job-10.odb,Step-1,Increment      1: Step Time =    1.000,"P-10-1",            11,       102.512,       48.0607,            0.,NA,NA,"",   4.43966E+06,   4.53449E+06,   4.53449E+06
C:/temp/Job-10.odb,Step-1,Increment      1: Step Time =    1.000,"P-10-1",            12,       112.444,       49.5110,            0.,NA,NA,"",   4.43647E+06,   4.51833E+06,   4.51833E+06
C:/temp/Job-10.odb,Step-1,Increment      1: Step Time =    1.000,"P-10-1",            13,       126.362,       55.1776,            0.,NA,NA,"",   3.34568E+06,   3.38989E+06,   3.38989E+06
C:/temp/Job-10.odb,Step-1,Increment      1: Step Time =    1.000,"P-10-1",            14,       138.078,       64.5872,            0.,NA,NA,"",   1.54207E+06,   1.54999E+06,   1.54999E+06
C:/temp/Job-10.odb,Step-1,Increment      1: Step Time =    1.000,"P-10-1",            15,       146.614,       76.9540,            0.,NA,NA,"",   704.332E+03,  -639.740E+03,  -639.740E+03
C:/temp/Job-10.odb,Step-1,Increment      1: Step Time =    1.000,"P-10-1",            16,       151.258,       91.2454,            0.,NA,NA,"",   2.00983E+06,  -2.03068E+06,  -2.03068E+06
C:/temp/Job-10.odb,Step-1,Increment      1: Step Time =    1.000,"P-10-1",            17,       151.621,       106.268,            0.,NA,NA,"",   2.01903E+06,  -2.05910E+06,  -2.05910E+06
C:/temp/Job-10.odb,Step-1,Increment      1: Step Time =    1.000,"P-10-1",            18,       147.673,       120.767,            0.,NA,NA,"",   910.352E+03,  -872.131E+03,  -872.131E+03
C:/temp/Job-10.odb,Step-1,Increment      1: Step Time =    1.000,"P-10-1",            19,       139.744,       133.532,            0.,NA,NA,"",   1.24027E+06,   1.22559E+06,   1.22559E+06
C:/temp/Job-10.odb,Step-1,Increment      1: Step Time =    1.000,"P-10-1",            20,       128.497,       143.496,            0.,NA,NA,"",   2.95823E+06,   3.02482E+06,   3.02482E+06
C:/temp/Job-10.odb,Step-1,Increment      1: Step Time =    1.000,"P-10-1",            21,       114.869,       149.829,            0.,NA,NA,"",   4.42823E+06,   4.50348E+06,   4.50348E+06
C:/temp/Job-10.odb,Step-1,Increment      1: Step Time =    1.000,"P-10-1",            22,          100.,          152.,            0.,NA,NA,"",   4.40541E+06,   4.48721E+06,   4.48721E+06
C:/temp/Job-10.odb,Step-1,Increment      1: Step Time =    1.000,"P-10-1",            23,          190.,            0.,            0.,NA,NA,"",   988.812E+03,   988.684E+03,   988.684E+03
C:/temp/Job-10.odb,Step-1,Increment      1: Step Time =    1.000,"P-10-1",            24,          180.,            0.,            0.,NA,NA,"",   971.111E+03,   970.679E+03,   970.679E+03
C:/temp/Job-10.odb,Step-1,Increment      1: Step Time =    1.000,"P-10-1",            25,          170.,            0.,            0.,NA,NA,"",   943.695E+03,   941.951E+03,   941.951E+03
C:/temp/Job-10.odb,Step-1,Increment      1: Step Time =    1.000,"P-10-1",            26,          160.,            0.,            0.,NA,NA,"",   880.335E+03,   878.281E+03,   878.281E+03
C:/temp/Job-10.odb,Step-1,Increment      1: Step Time =    1.000,"P-10-1",            27,          150.,            0.,            0.,NA,NA,"",   763.447E+03,   761.140E+03,   761.140E+03
C:/temp/Job-10.odb,Step-1,Increment      1: Step Time =    1.000,"P-10-1",            28,          140.,            0.,            0.,NA,NA,"",   595.207E+03,   593.455E+03,   593.455E+03
C:/temp/Job-10.odb,Step-1,Increment      1: Step Time =    1.000,"P-10-1",            29,          130.,            0.,            0.,NA,NA,"",   414.921E+03,   414.177E+03,   414.177E+03
C:/temp/Job-10.odb,Step-1,Increment      1: Step Time =    1.000,"P-10-1",            30,          120.,            0.,            0.,NA,NA,"",   282.230E+03,   285.273E+03,   285.273E+03
C:/temp/Job-10.odb,Step-1,Increment      1: Step Time =    1.000,"P-10-1",            31,          110.,            0.,            0.,NA,NA,"",   273.218E+03,   277.681E+03,   277.681E+03
C:/temp/Job-10.odb,Step-1,Increment      1: Step Time =    1.000,"P-10-1",            32,          100.,            0.,            0.,NA,NA,"",   440.547E+03,   440.729E+03,   440.729E+03
C:/temp/Job-10.odb,Step-1,Increment      1: Step Time =    1.000,"P-10-1",            33,           90.,            0.,            0.,NA,NA,"",   750.918E+03,   747.753E+03,   747.753E+03
C:/temp/Job-10.odb,Step-1,Increment      1: Step Time =    1.000,"P-10-1",            34,           80.,            0.,            0.,NA,NA,"",   1.13104E+06,   1.12641E+06,   1.12641E+06
C:/temp/Job-10.odb,Step-1,Increment      1: Step Time =    1.000,"P-10-1",            35,           70.,            0.,            0.,NA,NA,"",   1.53412E+06,   1.52933E+06,   1.52933E+06
C:/temp/Job-10.odb,Step-1,Increment      1: Step Time =    1.000,"P-10-1",            36,           60.,            0.,            0.,NA,NA,"",   1.88885E+06,   1.88660E+06,   1.88660E+06
C:/temp/Job-10.odb,Step-1,Increment      1: Step Time =    1.000,"P-10-1",            37,           50.,            0.,            0.,NA,NA,"",   2.15673E+06,   2.15004E+06,   2.15004E+06
C:/temp/Job-10.odb,Step-1,Increment      1: Step Time =    1.000,"P-10-1",            38,           40.,            0.,            0.,NA,NA,"",   2.32218E+06,   2.32085E+06,   2.32085E+06
C:/temp/Job-10.odb,Step-1,Increment      1: Step Time =    1.000,"P-10-1",            39,           30.,            0.,            0.,NA,NA,"",   2.40885E+06,   2.40711E+06,   2.40711E+06
C:/temp/Job-10.odb,Step-1,Increment      1: Step Time =    1.000,"P-10-1",            40,           20.,            0.,            0.,NA,NA,"",   2.46313E+06,   2.46261E+06,   2.46261E+06
C:/temp/Job-10.odb,Step-1,Increment      1: Step Time =    1.000,"P-10-1",            41,           10.,            0.,            0.,NA,NA,"",   2.58664E+06,   2.58888E+06,   2.58888E+06
C:/temp/Job-10.odb,Step-1,Increment      1: Step Time =    1.000,"P-10-1",            42,          200.,            0.,            0.,NA,NA,"",   999.233E+03,   998.456E+03,   998.456E+03
C:/temp/Job-10.odb,Step-1,Increment      1: Step Time =    1.000,"P-10-1",            43,            0.,            0.,            0.,NA,NA,"",   3.01371E+06,   3.16369E+06,   3.16369E+06
C:/temp/Job-10.odb,Step-1,Increment      1: Step Time =    1.000,"P-10-1",            44,          200.,          190.,            0.,NA,NA,"",   1.00624E+06,   1.00032E+06,   1.00032E+06
C:/temp/Job-10.odb,Step-1,Increment      1: Step Time =    1.000,"P-10-1",            45,          200.,          180.,            0.,NA,NA,"",   1.01158E+06,   1.00405E+06,   1.00405E+06
C:/temp/Job-10.odb,Step-1,Increment      1: Step Time =    1.000,"P-10-1",            46,          200.,          170.,            0.,NA,NA,"",   990.415E+03,   1.00898E+06,   1.00898E+06
C:/temp/Job-10.odb,Step-1,Increment      1: Step Time =    1.000,"P-10-1",            47,          200.,          160.,            0.,NA,NA,"",   933.407E+03,   1.01137E+06,   1.01137E+06
C:/temp/Job-10.odb,Step-1,Increment      1: Step Time =    1.000,"P-10-1",            48,          200.,          150.,            0.,NA,NA,"",   887.320E+03,   1.01801E+06,   1.01801E+06
C:/temp/Job-10.odb,Step-1,Increment      1: Step Time =    1.000,"P-10-1",            49,          200.,          140.,            0.,NA,NA,"",   967.722E+03,   1.07014E+06,   1.07014E+06
C:/temp/Job-10.odb,Step-1,Increment      1: Step Time =    1.000,"P-10-1",            50,          200.,          130.,            0.,NA,NA,"",   1.23461E+06,   1.38857E+06,   1.38857E+06
C:/temp/Job-10.odb,Step-1,Increment      1: Step Time =    1.000,"P-10-1",            51,          200.,          120.,            0.,NA,NA,"",   1.58447E+06,   1.82695E+06,   1.82695E+06
C:/temp/Job-10.odb,Step-1,Increment      1: Step Time =    1.000,"P-10-1",            52,          200.,          110.,            0.,NA,NA,"",   1.87066E+06,   2.15685E+06,   2.15685E+06
C:/temp/Job-10.odb,Step-1,Increment      1: Step Time =    1.000,"P-10-1",            53,          200.,          100.,            0.,NA,NA,"",   1.97134E+06,   2.26947E+06,   2.26947E+06
C:/temp/Job-10.odb,Step-1,Increment      1: Step Time =    1.000,"P-10-1",            54,          200.,           90.,            0.,NA,NA,"",   1.85104E+06,   2.13482E+06,   2.13482E+06
C:/temp/Job-10.odb,Step-1,Increment      1: Step Time =    1.000,"P-10-1",            55,          200.,           80.,            0.,NA,NA,"",   1.57052E+06,   1.81063E+06,   1.81063E+06
C:/temp/Job-10.odb,Step-1,Increment      1: Step Time =    1.000,"P-10-1",            56,          200.,           70.,            0.,NA,NA,"",   1.22477E+06,   1.37757E+06,   1.37757E+06
C:/temp/Job-10.odb,Step-1,Increment      1: Step Time =    1.000,"P-10-1",            57,          200.,           60.,            0.,NA,NA,"",   965.419E+03,   1.07844E+06,   1.07844E+06
C:/temp/Job-10.odb,Step-1,Increment      1: Step Time =    1.000,"P-10-1",            58,          200.,           50.,            0.,NA,NA,"",   896.604E+03,   1.02775E+06,   1.02775E+06
C:/temp/Job-10.odb,Step-1,Increment      1: Step Time =    1.000,"P-10-1",            59,          200.,           40.,            0.,NA,NA,"",   933.491E+03,   1.00788E+06,   1.00788E+06
C:/temp/Job-10.odb,Step-1,Increment      1: Step Time =    1.000,"P-10-1",            60,          200.,           30.,            0.,NA,NA,"",   989.962E+03,   1.00574E+06,   1.00574E+06
C:/temp/Job-10.odb,Step-1,Increment      1: Step Time =    1.000,"P-10-1",            61,          200.,           20.,            0.,NA,NA,"",   1.01103E+06,   1.00498E+06,   1.00498E+06
C:/temp/Job-10.odb,Step-1,Increment      1: Step Time =    1.000,"P-10-1",            62,          200.,           10.,            0.,NA,NA,"",   1.00528E+06,   1.00015E+06,   1.00015E+06
C:/temp/Job-10.odb,Step-1,Increment      1: Step Time =    1.000,"P-10-1",            63,          200.,          200.,            0.,NA,NA,"",   999.132E+03,   998.249E+03,   998.249E+03
C:/temp/Job-10.odb,Step-1,Increment      1: Step Time =    1.000,"P-10-1",            64,           10.,          200.,            0.,NA,NA,"",   2.58278E+06,   2.58603E+06,   2.58603E+06
C:/temp/Job-10.odb,Step-1,Increment      1: Step Time =    1.000,"P-10-1",            65,           20.,          200.,            0.,NA,NA,"",   2.45993E+06,   2.45918E+06,   2.45918E+06
C:/temp/Job-10.odb,Step-1,Increment      1: Step Time =    1.000,"P-10-1",            66,           30.,          200.,            0.,NA,NA,"",   2.40005E+06,   2.39863E+06,   2.39863E+06
C:/temp/Job-10.odb,Step-1,Increment      1: Step Time =    1.000,"P-10-1",            67,           40.,          200.,            0.,NA,NA,"",   2.31475E+06,   2.31175E+06,   2.31175E+06
C:/temp/Job-10.odb,Step-1,Increment      1: Step Time =    1.000,"P-10-1",            68,           50.,          200.,            0.,NA,NA,"",   2.14944E+06,   2.14654E+06,   2.14654E+06
C:/temp/Job-10.odb,Step-1,Increment      1: Step Time =    1.000,"P-10-1",            69,           60.,          200.,            0.,NA,NA,"",   1.88747E+06,   1.88286E+06,   1.88286E+06
C:/temp/Job-10.odb,Step-1,Increment      1: Step Time =    1.000,"P-10-1",            70,           70.,          200.,            0.,NA,NA,"",   1.53999E+06,   1.53427E+06,   1.53427E+06
C:/temp/Job-10.odb,Step-1,Increment      1: Step Time =    1.000,"P-10-1",            71,           80.,          200.,            0.,NA,NA,"",   1.13754E+06,   1.13264E+06,   1.13264E+06
C:/temp/Job-10.odb,Step-1,Increment      1: Step Time =    1.000,"P-10-1",            72,           90.,          200.,            0.,NA,NA,"",   749.256E+03,   746.396E+03,   746.396E+03
C:/temp/Job-10.odb,Step-1,Increment      1: Step Time =    1.000,"P-10-1",            73,          100.,          200.,            0.,NA,NA,"",   448.009E+03,   448.847E+03,   448.847E+03
C:/temp/Job-10.odb,Step-1,Increment      1: Step Time =    1.000,"P-10-1",            74,          110.,          200.,            0.,NA,NA,"",   283.825E+03,   289.024E+03,   289.024E+03
C:/temp/Job-10.odb,Step-1,Increment      1: Step Time =    1.000,"P-10-1",            75,          120.,          200.,            0.,NA,NA,"",   287.098E+03,   290.047E+03,   290.047E+03
C:/temp/Job-10.odb,Step-1,Increment      1: Step Time =    1.000,"P-10-1",            76,          130.,          200.,            0.,NA,NA,"",   421.739E+03,   421.410E+03,   421.410E+03
C:/temp/Job-10.odb,Step-1,Increment      1: Step Time =    1.000,"P-10-1",            77,          140.,          200.,            0.,NA,NA,"",   627.588E+03,   625.786E+03,   625.786E+03
C:/temp/Job-10.odb,Step-1,Increment      1: Step Time =    1.000,"P-10-1",            78,          150.,          200.,            0.,NA,NA,"",   792.509E+03,   785.791E+03,   785.791E+03
C:/temp/Job-10.odb,Step-1,Increment      1: Step Time =    1.000,"P-10-1",            79,          160.,          200.,            0.,NA,NA,"",   888.946E+03,   887.154E+03,   887.154E+03
C:/temp/Job-10.odb,Step-1,Increment      1: Step Time =    1.000,"P-10-1",            80,          170.,          200.,            0.,NA,NA,"",   942.343E+03,   941.564E+03,   941.564E+03
C:/temp/Job-10.odb,Step-1,Increment      1: Step Time =    1.000,"P-10-1",            81,          180.,          200.,            0.,NA,NA,"",   967.977E+03,   967.948E+03,   967.948E+03
C:/temp/Job-10.odb,Step-1,Increment      1: Step Time =    1.000,"P-10-1",            82,          190.,          200.,            0.,NA,NA,"",   987.632E+03,   987.487E+03,   987.487E+03
C:/temp/Job-10.odb,Step-1,Increment      1: Step Time =    1.000,"P-10-1",            83,            0.,          200.,            0.,NA,NA,"",   3.00974E+06,   3.16015E+06,   3.16015E+06
C:/temp/Job-10.odb,Step-1,Increment      1: Step Time =    1.000,"P-10-1",            84,            0.,           10.,            0.,NA,NA,"",   2.13307E+06,   2.34247E+06,   2.34247E+06
C:/temp/Job-10.odb,Step-1,Increment      1: Step Time =    1.000,"P-10-1",            85,            0.,           20.,            0.,NA,NA,"",   1.67855E+06,   1.86815E+06,   1.86815E+06
C:/temp/Job-10.odb,Step-1,Increment      1: Step Time =    1.000,"P-10-1",            86,            0.,           30.,            0.,NA,NA,"",   1.34375E+06,   1.50174E+06,   1.50174E+06
C:/temp/Job-10.odb,Step-1,Increment      1: Step Time =    1.000,"P-10-1",            87,            0.,           40.,            0.,NA,NA,"",   1.04568E+06,   1.16923E+06,   1.16923E+06
C:/temp/Job-10.odb,Step-1,Increment      1: Step Time =    1.000,"P-10-1",            88,            0.,           50.,            0.,NA,NA,"",   776.854E+03,   864.790E+03,   864.790E+03
C:/temp/Job-10.odb,Step-1,Increment      1: Step Time =    1.000,"P-10-1",            89,            0.,           60.,            0.,NA,NA,"",   534.197E+03,   585.377E+03,   585.377E+03
C:/temp/Job-10.odb,Step-1,Increment      1: Step Time =    1.000,"P-10-1",            90,            0.,           70.,            0.,NA,NA,"",   328.650E+03,   342.277E+03,   342.277E+03
C:/temp/Job-10.odb,Step-1,Increment      1: Step Time =    1.000,"P-10-1",            91,            0.,           80.,            0.,NA,NA,"",   180.443E+03,   152.994E+03,   152.994E+03
C:/temp/Job-10.odb,Step-1,Increment      1: Step Time =    1.000,"P-10-1",            92,            0.,           90.,            0.,NA,NA,"",   114.813E+03,  -91.0824E+03,  -91.0824E+03
C:/temp/Job-10.odb,Step-1,Increment      1: Step Time =    1.000,"P-10-1",            93,            0.,          100.,            0.,NA,NA,"",   105.958E+03,  -107.191E+03,  -107.191E+03
C:/temp/Job-10.odb,Step-1,Increment      1: Step Time =    1.000,"P-10-1",            94,            0.,          110.,            0.,NA,NA,"",   114.535E+03,  -89.7332E+03,  -89.7332E+03
C:/temp/Job-10.odb,Step-1,Increment      1: Step Time =    1.000,"P-10-1",            95,            0.,          120.,            0.,NA,NA,"",   179.977E+03,   154.254E+03,   154.254E+03
C:/temp/Job-10.odb,Step-1,Increment      1: Step Time =    1.000,"P-10-1",            96,            0.,          130.,            0.,NA,NA,"",   328.468E+03,   342.883E+03,   342.883E+03
C:/temp/Job-10.odb,Step-1,Increment      1: Step Time =    1.000,"P-10-1",            97,            0.,          140.,            0.,NA,NA,"",   535.491E+03,   587.111E+03,   587.111E+03
C:/temp/Job-10.odb,Step-1,Increment      1: Step Time =    1.000,"P-10-1",            98,            0.,          150.,            0.,NA,NA,"",   778.524E+03,   867.447E+03,   867.447E+03
C:/temp/Job-10.odb,Step-1,Increment      1: Step Time =    1.000,"P-10-1",            99,            0.,          160.,            0.,NA,NA,"",   1.04573E+06,   1.17155E+06,   1.17155E+06
C:/temp/Job-10.odb,Step-1,Increment      1: Step Time =    1.000,"P-10-1",           100,            0.,          170.,            0.,NA,NA,"",   1.33607E+06,   1.49692E+06,   1.49692E+06
C:/temp/Job-10.odb,Step-1,Increment      1: Step Time =    1.000,"P-10-1",           101,            0.,          180.,            0.,NA,NA,"",   1.67232E+06,   1.86415E+06,   1.86415E+06
C:/temp/Job-10.odb,Step-1,Increment      1: Step Time =    1.000,"P-10-1",           102,            0.,          190.,            0.,NA,NA,"",   2.12796E+06,   2.33786E+06,   2.33786E+06
C:/temp/Job-10.odb,Step-1,Increment      1: Step Time =    1.000,"P-10-1",           103,       109.034,       42.2761,            0.,NA,NA,"",   3.70056E+06,   3.86133E+06,   3.86133E+06
C:/temp/Job-10.odb,Step-1,Increment      1: Step Time =    1.000,"P-10-1",           104,       191.020,       40.1367,            0.,NA,NA,"",   1.02611E+06,   1.08985E+06,   1.08985E+06
C:/temp/Job-10.odb,Step-1,Increment      1: Step Time =    1.000,"P-10-1",           105,       158.192,       106.468,            0.,NA,NA,"",   1.44537E+06,  -1.45771E+06,  -1.45771E+06
C:/temp/Job-10.odb,Step-1,Increment      1: Step Time =    1.000,"P-10-1",           106,       42.1310,       89.8109,            0.,NA,NA,"",   615.706E+03,  -654.552E+03,  -654.552E+03
C:/temp/Job-10.odb,Step-1,Increment      1: Step Time =    1.000,"P-10-1",           107,       188.458,       158.906,            0.,NA,NA,"",   1.08540E+06,   1.13941E+06,   1.13941E+06
C:/temp/Job-10.odb,Step-1,Increment      1: Step Time =    1.000,"P-10-1",           108,       173.577,       159.456,            0.,NA,NA,"",   1.46166E+06,   1.39241E+06,   1.39241E+06
C:/temp/Job-10.odb,Step-1,Increment      1: Step Time =    1.000,"P-10-1",           109,       164.808,       155.661,            0.,NA,NA,"",   1.75055E+06,   1.58838E+06,   1.58838E+06
C:/temp/Job-10.odb,Step-1,Increment      1: Step Time =    1.000,"P-10-1",           110,       157.372,       159.786,            0.,NA,NA,"",   1.83659E+06,   1.68493E+06,   1.68493E+06
C:/temp/Job-10.odb,Step-1,Increment      1: Step Time =    1.000,"P-10-1",           111,       146.951,       160.246,            0.,NA,NA,"",   1.99568E+06,   1.89259E+06,   1.89259E+06
C:/temp/Job-10.odb,Step-1,Increment      1: Step Time =    1.000,"P-10-1",           112,       137.272,       158.630,            0.,NA,NA,"",   2.20608E+06,   2.21546E+06,   2.21546E+06
C:/temp/Job-10.odb,Step-1,Increment      1: Step Time =    1.000,"P-10-1",           113,       127.050,       159.656,            0.,NA,NA,"",   2.50459E+06,   2.61971E+06,   2.61971E+06
C:/temp/Job-10.odb,Step-1,Increment      1: Step Time =    1.000,"P-10-1",           114,       117.007,       158.476,            0.,NA,NA,"",   3.12111E+06,   3.29223E+06,   3.29223E+06
C:/temp/Job-10.odb,Step-1,Increment      1: Step Time =    1.000,"P-10-1",           115,       105.580,       156.771,            0.,NA,NA,"",   3.98060E+06,   4.11300E+06,   4.11300E+06
C:/temp/Job-10.odb,Step-1,Increment      1: Step Time =    1.000,"P-10-1",           116,       94.6572,       156.627,            0.,NA,NA,"",   3.64880E+06,   3.75422E+06,   3.75422E+06
C:/temp/Job-10.odb,Step-1,Increment      1: Step Time =    1.000,"P-10-1",           117,       82.1638,       159.983,            0.,NA,NA,"",   2.54643E+06,   2.57442E+06,   2.57442E+06
C:/temp/Job-10.odb,Step-1,Increment      1: Step Time =    1.000,"P-10-1",           118,       75.2499,       158.813,            0.,NA,NA,"",   2.30333E+06,   2.24942E+06,   2.24942E+06
C:/temp/Job-10.odb,Step-1,Increment      1: Step Time =    1.000,"P-10-1",           119,       64.4329,       159.426,            0.,NA,NA,"",   2.06101E+06,   1.88147E+06,   1.88147E+06
C:/temp/Job-10.odb,Step-1,Increment      1: Step Time =    1.000,"P-10-1",           120,       54.8335,       161.419,            0.,NA,NA,"",   1.91868E+06,   1.71744E+06,   1.71744E+06
C:/temp/Job-10.odb,Step-1,Increment      1: Step Time =    1.000,"P-10-1",           121,       45.1328,       156.915,            0.,NA,NA,"",   1.57921E+06,   1.40574E+06,   1.40574E+06
C:/temp/Job-10.odb,Step-1,Increment      1: Step Time =    1.000,"P-10-1",           122,       34.0898,       160.937,            0.,NA,NA,"",   1.50644E+06,   1.42144E+06,   1.42144E+06
C:/temp/Job-10.odb,Step-1,Increment      1: Step Time =    1.000,"P-10-1",           123,       23.7649,       158.395,            0.,NA,NA,"",   1.25744E+06,   1.25650E+06,   1.25650E+06
C:/temp/Job-10.odb,Step-1,Increment      1: Step Time =    1.000,"P-10-1",           124,       13.5585,       159.744,            0.,NA,NA,"",   1.17209E+06,   1.24225E+06,   1.24225E+06
C:/temp/Job-10.odb,Step-1,Increment      1: Step Time =    1.000,"P-10-1",           125,       9.15650,       150.013,            0.,NA,NA,"",   812.547E+03,   884.111E+03,   884.111E+03
C:/temp/Job-10.odb,Step-1,Increment      1: Step Time =    1.000,"P-10-1",           126,       18.6083,       145.389,            0.,NA,NA,"",   738.590E+03,   761.216E+03,   761.216E+03
C:/temp/Job-10.odb,Step-1,Increment      1: Step Time =    1.000,"P-10-1",           127,       31.1684,       149.563,            0.,NA,NA,"",   1.05655E+06,   987.687E+03,   987.687E+03
C:/temp/Job-10.odb,Step-1,Increment      1: Step Time =    1.000,"P-10-1",           128,       43.4940,       148.008,            0.,NA,NA,"",   1.17749E+06,   1.00078E+06,   1.00078E+06
C:/temp/Job-10.odb,Step-1,Increment      1: Step Time =    1.000,"P-10-1",           129,       53.8858,       146.898,            0.,NA,NA,"",   1.22797E+06,   1.00416E+06,   1.00416E+06
C:/temp/Job-10.odb,Step-1,Increment      1: Step Time =    1.000,"P-10-1",           130,       63.0523,       149.369,            0.,NA,NA,"",   1.46991E+06,   1.30841E+06,   1.30841E+06
C:/temp/Job-10.odb,Step-1,Increment      1: Step Time =    1.000,"P-10-1",           131,       139.880,       149.654,            0.,NA,NA,"",   2.22436E+06,   2.18992E+06,   2.18992E+06
C:/temp/Job-10.odb,Step-1,Increment      1: Step Time =    1.000,"P-10-1",           132,       146.305,       148.637,            0.,NA,NA,"",   2.10832E+06,   1.96212E+06,   1.96212E+06
C:/temp/Job-10.odb,Step-1,Increment      1: Step Time =    1.000,"P-10-1",           133,       159.254,       147.200,            0.,NA,NA,"",   1.96289E+06,   1.70019E+06,   1.70019E+06
C:/temp/Job-10.odb,Step-1,Increment      1: Step Time =    1.000,"P-10-1",           134,       171.084,       147.644,            0.,NA,NA,"",   1.69551E+06,   1.53059E+06,   1.53059E+06
C:/temp/Job-10.odb,Step-1,Increment      1: Step Time =    1.000,"P-10-1",           135,       179.441,       145.444,            0.,NA,NA,"",   1.45382E+06,   1.41799E+06,   1.41799E+06
C:/temp/Job-10.odb,Step-1,Increment      1: Step Time =    1.000,"P-10-1",           136,       186.401,       147.977,            0.,NA,NA,"",   1.19840E+06,   1.26664E+06,   1.26664E+06
C:/temp/Job-10.odb,Step-1,Increment      1: Step Time =    1.000,"P-10-1",           137,       147.305,       138.677,            0.,NA,NA,"",   1.74343E+06,   1.53966E+06,   1.53966E+06
C:/temp/Job-10.odb,Step-1,Increment      1: Step Time =    1.000,"P-10-1",           138,       159.929,       138.020,            0.,NA,NA,"",   1.89495E+06,   1.53003E+06,   1.53003E+06
C:/temp/Job-10.odb,Step-1,Increment      1: Step Time =    1.000,"P-10-1",           139,       165.520,       135.727,            0.,NA,NA,"",   1.79419E+06,   1.44883E+06,   1.44883E+06
C:/temp/Job-10.odb,Step-1,Increment      1: Step Time =    1.000,"P-10-1",           140,       181.724,       135.093,            0.,NA,NA,"",   1.39500E+06,   1.41214E+06,   1.41214E+06
C:/temp/Job-10.odb,Step-1,Increment      1: Step Time =    1.000,"P-10-1",           141,       190.917,       134.837,            0.,NA,NA,"",   1.15344E+06,   1.31233E+06,   1.31233E+06
C:/temp/Job-10.odb,Step-1,Increment      1: Step Time =    1.000,"P-10-1",           142,       161.440,       125.795,            0.,NA,NA,"",   1.51079E+06,   592.250E+03,   592.250E+03
C:/temp/Job-10.odb,Step-1,Increment      1: Step Time =    1.000,"P-10-1",           143,       171.436,       123.242,            0.,NA,NA,"",   1.37935E+06,   1.14225E+06,   1.14225E+06
C:/temp/Job-10.odb,Step-1,Increment      1: Step Time =    1.000,"P-10-1",           144,       180.836,       126.449,            0.,NA,NA,"",   1.33532E+06,   1.36437E+06,   1.36437E+06
C:/temp/Job-10.odb,Step-1,Increment      1: Step Time =    1.000,"P-10-1",           145,       190.367,       125.300,            0.,NA,NA,"",   1.25089E+06,   1.43297E+06,   1.43297E+06
C:/temp/Job-10.odb,Step-1,Increment      1: Step Time =    1.000,"P-10-1",           146,       158.234,       119.493,            0.,NA,NA,"",   1.25188E+06,  -946.936E+03,  -946.936E+03
C:/temp/Job-10.odb,Step-1,Increment      1: Step Time =    1.000,"P-10-1",           147,       173.399,       117.065,            0.,NA,NA,"",   1.10584E+06,   979.380E+03,   979.380E+03
C:/temp/Job-10.odb,Step-1,Increment      1: Step Time =    1.000,"P-10-1",           148,       179.414,       111.647,            0.,NA,NA,"",   900.330E+03,   990.618E+03,   990.618E+03
C:/temp/Job-10.odb,Step-1,Increment      1: Step Time =    1.000,"P-10-1",           149,       189.669,       115.284,            0.,NA,NA,"",   1.29155E+06,   1.48860E+06,   1.48860E+06
C:/temp/Job-10.odb,Step-1,Increment      1: Step Time =    1.000,"P-10-1",           150,       166.451,       106.411,            0.,NA,NA,"",   657.793E+03,  -362.691E+03,  -362.691E+03
C:/temp/Job-10.odb,Step-1,Increment      1: Step Time =    1.000,"P-10-1",           151,       189.950,       105.080,            0.,NA,NA,"",   1.30765E+06,   1.50504E+06,   1.50504E+06
C:/temp/Job-10.odb,Step-1,Increment      1: Step Time =    1.000,"P-10-1",           152,       158.546,       83.6052,            0.,NA,NA,"",   1.19685E+06,  -1.00956E+06,  -1.00956E+06
C:/temp/Job-10.odb,Step-1,Increment      1: Step Time =    1.000,"P-10-1",           153,       167.698,       82.1692,            0.,NA,NA,"",   1.17620E+06,   509.103E+03,   509.103E+03
C:/temp/Job-10.odb,Step-1,Increment      1: Step Time =    1.000,"P-10-1",           154,       176.628,       81.3482,            0.,NA,NA,"",   1.15741E+06,   1.12887E+06,   1.12887E+06
C:/temp/Job-10.odb,Step-1,Increment      1: Step Time =    1.000,"P-10-1",           155,       189.217,       84.4138,            0.,NA,NA,"",   1.27251E+06,   1.46568E+06,   1.46568E+06
C:/temp/Job-10.odb,Step-1,Increment      1: Step Time =    1.000,"P-10-1",           156,       189.486,       94.9548,            0.,NA,NA,"",   1.28085E+06,   1.47337E+06,   1.47337E+06
C:/temp/Job-10.odb,Step-1,Increment      1: Step Time =    1.000,"P-10-1",           157,       179.035,       95.8785,            0.,NA,NA,"",   664.889E+03,   749.405E+03,   749.405E+03
C:/temp/Job-10.odb,Step-1,Increment      1: Step Time =    1.000,"P-10-1",           158,       169.677,       94.8308,            0.,NA,NA,"",   480.207E+03,   111.695E+03,   111.695E+03
C:/temp/Job-10.odb,Step-1,Increment      1: Step Time =    1.000,"P-10-1",           159,       156.216,       95.2657,            0.,NA,NA,"",   1.79203E+06,  -1.81620E+06,  -1.81620E+06
C:/temp/Job-10.odb,Step-1,Increment      1: Step Time =    1.000,"P-10-1",           160,       160.064,       72.7788,            0.,NA,NA,"",   1.54229E+06,   1.03120E+06,   1.03120E+06
C:/temp/Job-10.odb,Step-1,Increment      1: Step Time =    1.000,"P-10-1",           161,       167.715,       72.1143,            0.,NA,NA,"",   1.58165E+06,   1.22528E+06,   1.22528E+06
C:/temp/Job-10.odb,Step-1,Increment      1: Step Time =    1.000,"P-10-1",           162,       176.277,       76.9534,            0.,NA,NA,"",   1.30606E+06,   1.22562E+06,   1.22562E+06
C:/temp/Job-10.odb,Step-1,Increment      1: Step Time =    1.000,"P-10-1",           163,       190.124,       74.1111,            0.,NA,NA,"",   1.24373E+06,   1.42249E+06,   1.42249E+06
C:/temp/Job-10.odb,Step-1,Increment      1: Step Time =    1.000,"P-10-1",           164,       147.915,       63.7758,            0.,NA,NA,"",   1.57657E+06,   1.34772E+06,   1.34772E+06
C:/temp/Job-10.odb,Step-1,Increment      1: Step Time =    1.000,"P-10-1",           165,       157.340,       62.6466,            0.,NA,NA,"",   1.88292E+06,   1.50032E+06,   1.50032E+06
C:/temp/Job-10.odb,Step-1,Increment      1: Step Time =    1.000,"P-10-1",           166,       168.528,       63.0399,            0.,NA,NA,"",   1.76780E+06,   1.49447E+06,   1.49447E+06
C:/temp/Job-10.odb,Step-1,Increment      1: Step Time =    1.000,"P-10-1",           167,       180.720,       63.8407,            0.,NA,NA,"",   1.43698E+06,   1.42438E+06,   1.42438E+06
C:/temp/Job-10.odb,Step-1,Increment      1: Step Time =    1.000,"P-10-1",           168,       190.182,       64.4025,            0.,NA,NA,"",   1.16502E+06,   1.31506E+06,   1.31506E+06
C:/temp/Job-10.odb,Step-1,Increment      1: Step Time =    1.000,"P-10-1",           169,       140.910,       50.3699,            0.,NA,NA,"",   2.20859E+06,   2.15764E+06,   2.15764E+06
C:/temp/Job-10.odb,Step-1,Increment      1: Step Time =    1.000,"P-10-1",           170,       147.753,       53.2543,            0.,NA,NA,"",   2.07795E+06,   1.89671E+06,   1.89671E+06
C:/temp/Job-10.odb,Step-1,Increment      1: Step Time =    1.000,"P-10-1",           171,       157.518,       56.3769,            0.,NA,NA,"",   1.98930E+06,   1.68135E+06,   1.68135E+06
C:/temp/Job-10.odb,Step-1,Increment      1: Step Time =    1.000,"P-10-1",           172,       169.390,       55.8887,            0.,NA,NA,"",   1.75698E+06,   1.55171E+06,   1.55171E+06
C:/temp/Job-10.odb,Step-1,Increment      1: Step Time =    1.000,"P-10-1",           173,       179.835,       54.3061,            0.,NA,NA,"",   1.43603E+06,   1.40683E+06,   1.40683E+06
C:/temp/Job-10.odb,Step-1,Increment      1: Step Time =    1.000,"P-10-1",           174,       189.876,       52.0258,            0.,NA,NA,"",   1.08907E+06,   1.19714E+06,   1.19714E+06
C:/temp/Job-10.odb,Step-1,Increment      1: Step Time =    1.000,"P-10-1",           175,       10.1172,       41.2785,            0.,NA,NA,"",   1.09050E+06,   1.17859E+06,   1.17859E+06
C:/temp/Job-10.odb,Step-1,Increment      1: Step Time =    1.000,"P-10-1",           176,       21.6809,       41.8789,            0.,NA,NA,"",   1.22348E+06,   1.23599E+06,   1.23599E+06
C:/temp/Job-10.odb,Step-1,Increment      1: Step Time =    1.000,"P-10-1",           177,       32.6166,       44.2641,            0.,NA,NA,"",   1.30300E+06,   1.22582E+06,   1.22582E+06
C:/temp/Job-10.odb,Step-1,Increment      1: Step Time =    1.000,"P-10-1",           178,       40.9484,       42.1664,            0.,NA,NA,"",   1.52827E+06,   1.38721E+06,   1.38721E+06
C:/temp/Job-10.odb,Step-1,Increment      1: Step Time =    1.000,"P-10-1",           179,       51.3327,       43.0210,            0.,NA,NA,"",   1.70216E+06,   1.50117E+06,   1.50117E+06
C:/temp/Job-10.odb,Step-1,Increment      1: Step Time =    1.000,"P-10-1",           180,       61.9144,       40.7255,            0.,NA,NA,"",   1.96528E+06,   1.77612E+06,   1.77612E+06
C:/temp/Job-10.odb,Step-1,Increment      1: Step Time =    1.000,"P-10-1",           181,       72.3256,       37.7501,            0.,NA,NA,"",   2.26341E+06,   2.15568E+06,   2.15568E+06
C:/temp/Job-10.odb,Step-1,Increment      1: Step Time =    1.000,"P-10-1",           182,       86.7809,       40.8623,            0.,NA,NA,"",   2.81545E+06,   2.89270E+06,   2.89270E+06
C:/temp/Job-10.odb,Step-1,Increment      1: Step Time =    1.000,"P-10-1",           183,       97.3685,       43.4975,            0.,NA,NA,"",   3.83981E+06,   3.94712E+06,   3.94712E+06
C:/temp/Job-10.odb,Step-1,Increment      1: Step Time =    1.000,"P-10-1",           184,       117.053,       41.5407,            0.,NA,NA,"",   3.14029E+06,   3.30863E+06,   3.30863E+06
C:/temp/Job-10.odb,Step-1,Increment      1: Step Time =    1.000,"P-10-1",           185,       125.386,       41.3190,            0.,NA,NA,"",   2.63432E+06,   2.76549E+06,   2.76549E+06
C:/temp/Job-10.odb,Step-1,Increment      1: Step Time =    1.000,"P-10-1",           186,       139.199,       40.3766,            0.,NA,NA,"",   2.14428E+06,   2.12681E+06,   2.12681E+06
C:/temp/Job-10.odb,Step-1,Increment      1: Step Time =    1.000,"P-10-1",           187,       150.576,       42.5089,            0.,NA,NA,"",   1.99842E+06,   1.85530E+06,   1.85530E+06
C:/temp/Job-10.odb,Step-1,Increment      1: Step Time =    1.000,"P-10-1",           188,       161.495,       40.5683,            0.,NA,NA,"",   1.75898E+06,   1.61137E+06,   1.61137E+06
C:/temp/Job-10.odb,Step-1,Increment      1: Step Time =    1.000,"P-10-1",           189,       168.763,       41.6408,            0.,NA,NA,"",   1.60222E+06,   1.48873E+06,   1.48873E+06
C:/temp/Job-10.odb,Step-1,Increment      1: Step Time =    1.000,"P-10-1",           190,       179.971,       39.8387,            0.,NA,NA,"",   1.28117E+06,   1.27018E+06,   1.27018E+06
C:/temp/Job-10.odb,Step-1,Increment      1: Step Time =    1.000,"P-10-1",           191,       62.7533,       51.3758,            0.,NA,NA,"",   1.42430E+06,   1.26608E+06,   1.26608E+06
C:/temp/Job-10.odb,Step-1,Increment      1: Step Time =    1.000,"P-10-1",           192,       53.8923,       52.6157,            0.,NA,NA,"",   1.29876E+06,   1.07527E+06,   1.07527E+06
C:/temp/Job-10.odb,Step-1,Increment      1: Step Time =    1.000,"P-10-1",           193,       39.0808,       53.6710,            0.,NA,NA,"",   1.04351E+06,   897.711E+03,   897.711E+03
C:/temp/Job-10.odb,Step-1,Increment      1: Step Time =    1.000,"P-10-1",           194,       30.0432,       50.6308,            0.,NA,NA,"",   1.03297E+06,   974.451E+03,   974.451E+03
C:/temp/Job-10.odb,Step-1,Increment      1: Step Time =    1.000,"P-10-1",           195,       19.6477,       52.1645,            0.,NA,NA,"",   838.042E+03,   856.142E+03,   856.142E+03
C:/temp/Job-10.odb,Step-1,Increment      1: Step Time =    1.000,"P-10-1",           196,       9.73097,       50.8758,            0.,NA,NA,"",   793.457E+03,   860.560E+03,   860.560E+03
C:/temp/Job-10.odb,Step-1,Increment      1: Step Time =    1.000,"P-10-1",           197,       51.3716,       63.2682,            0.,NA,NA,"",   645.078E+03,  -148.093E+03,  -148.093E+03
C:/temp/Job-10.odb,Step-1,Increment      1: Step Time =    1.000,"P-10-1",           198,       40.1630,       63.6356,            0.,NA,NA,"",   625.760E+03,   303.836E+03,   303.836E+03
C:/temp/Job-10.odb,Step-1,Increment      1: Step Time =    1.000,"P-10-1",           199,       31.2989,       62.0012,            0.,NA,NA,"",   599.716E+03,    527.15E+03,    527.15E+03
C:/temp/Job-10.odb,Step-1,Increment      1: Step Time =    1.000,"P-10-1",           200,       23.5282,       61.9624,            0.,NA,NA,"",   537.163E+03,   524.905E+03,   524.905E+03
C:/temp/Job-10.odb,Step-1,Increment      1: Step Time =    1.000,"P-10-1",           201,       9.27903,       65.2978,            0.,NA,NA,"",   393.680E+03,   427.543E+03,   427.543E+03
C:/temp/Job-10.odb,Step-1,Increment      1: Step Time =    1.000,"P-10-1",           202,       40.7200,       74.1536,            0.,NA,NA,"",   369.109E+03,  -341.346E+03,  -341.346E+03
C:/temp/Job-10.odb,Step-1,Increment      1: Step Time =    1.000,"P-10-1",           203,       29.9153,       73.4104,            0.,NA,NA,"",   226.496E+03,   28.2324E+03,   28.2324E+03
C:/temp/Job-10.odb,Step-1,Increment      1: Step Time =    1.000,"P-10-1",           204,       18.1609,       74.6175,            0.,NA,NA,"",   169.953E+03,   168.536E+03,   168.536E+03
C:/temp/Job-10.odb,Step-1,Increment      1: Step Time =    1.000,"P-10-1",           205,       9.42330,       74.9465,            0.,NA,NA,"",   200.705E+03,   207.957E+03,   207.957E+03
C:/temp/Job-10.odb,Step-1,Increment      1: Step Time =    1.000,"P-10-1",           206,       41.3081,       81.0475,            0.,NA,NA,"",   455.983E+03,  -483.745E+03,  -483.745E+03
C:/temp/Job-10.odb,Step-1,Increment      1: Step Time =    1.000,"P-10-1",           207,       30.9497,       83.0121,            0.,NA,NA,"",   161.905E+03,  -181.372E+03,  -181.372E+03
C:/temp/Job-10.odb,Step-1,Increment      1: Step Time =    1.000,"P-10-1",           208,       22.5654,       86.2089,            0.,NA,NA,"",   102.973E+03,  -109.055E+03,  -109.055E+03
C:/temp/Job-10.odb,Step-1,Increment      1: Step Time =    1.000,"P-10-1",           209,       10.0987,       84.9821,            0.,NA,NA,"",   126.415E+03,   3.91325E+03,   3.91325E+03
C:/temp/Job-10.odb,Step-1,Increment      1: Step Time =    1.000,"P-10-1",           210,       32.1530,       94.1630,            0.,NA,NA,"",   238.468E+03,  -269.422E+03,  -269.422E+03
C:/temp/Job-10.odb,Step-1,Increment      1: Step Time =    1.000,"P-10-1",           211,       22.9510,       94.2573,            0.,NA,NA,"",   142.962E+03,  -159.716E+03,  -159.716E+03
C:/temp/Job-10.odb,Step-1,Increment      1: Step Time =    1.000,"P-10-1",           212,       9.82828,       95.2750,            0.,NA,NA,"",   152.905E+03,  -131.552E+03,  -131.552E+03
C:/temp/Job-10.odb,Step-1,Increment      1: Step Time =    1.000,"P-10-1",           213,       41.5728,       114.975,            0.,NA,NA,"",   516.458E+03,  -552.152E+03,  -552.152E+03
C:/temp/Job-10.odb,Step-1,Increment      1: Step Time =    1.000,"P-10-1",           214,       31.9793,       116.206,            0.,NA,NA,"",   183.613E+03,  -207.439E+03,  -207.439E+03
C:/temp/Job-10.odb,Step-1,Increment      1: Step Time =    1.000,"P-10-1",           215,       20.9643,       113.389,            0.,NA,NA,"",   101.239E+03,  -100.981E+03,  -100.981E+03
C:/temp/Job-10.odb,Step-1,Increment      1: Step Time =    1.000,"P-10-1",           216,       10.2234,       115.366,            0.,NA,NA,"",   124.515E+03,   7.24512E+03,   7.24512E+03
C:/temp/Job-10.odb,Step-1,Increment      1: Step Time =    1.000,"P-10-1",           217,       10.1791,       105.345,            0.,NA,NA,"",   149.070E+03,  -127.101E+03,  -127.101E+03
C:/temp/Job-10.odb,Step-1,Increment      1: Step Time =    1.000,"P-10-1",           218,       21.2169,       106.345,            0.,NA,NA,"",   139.398E+03,  -148.056E+03,  -148.056E+03
C:/temp/Job-10.odb,Step-1,Increment      1: Step Time =    1.000,"P-10-1",           219,       33.1518,       107.436,            0.,NA,NA,"",   262.727E+03,  -297.574E+03,  -297.574E+03
C:/temp/Job-10.odb,Step-1,Increment      1: Step Time =    1.000,"P-10-1",           220,       43.2242,       103.588,            0.,NA,NA,"",    710.67E+03,  -740.001E+03,  -740.001E+03
C:/temp/Job-10.odb,Step-1,Increment      1: Step Time =    1.000,"P-10-1",           221,       39.9073,       130.929,            0.,NA,NA,"",   429.637E+03,  -3.11598E+03,  -3.11598E+03
C:/temp/Job-10.odb,Step-1,Increment      1: Step Time =    1.000,"P-10-1",           222,       29.4573,       123.410,            0.,NA,NA,"",   164.785E+03,  -79.8176E+03,  -79.8176E+03
C:/temp/Job-10.odb,Step-1,Increment      1: Step Time =    1.000,"P-10-1",           223,       22.9806,       126.812,            0.,NA,NA,"",   195.600E+03,   173.474E+03,   173.474E+03
C:/temp/Job-10.odb,Step-1,Increment      1: Step Time =    1.000,"P-10-1",           224,       9.78923,       125.581,            0.,NA,NA,"",   202.240E+03,   211.874E+03,   211.874E+03
C:/temp/Job-10.odb,Step-1,Increment      1: Step Time =    1.000,"P-10-1",           225,       52.3911,       138.406,            0.,NA,NA,"",   723.353E+03,   301.943E+03,   301.943E+03
C:/temp/Job-10.odb,Step-1,Increment      1: Step Time =    1.000,"P-10-1",           226,       32.4713,       138.653,            0.,NA,NA,"",   636.377E+03,   550.583E+03,   550.583E+03
C:/temp/Job-10.odb,Step-1,Increment      1: Step Time =    1.000,"P-10-1",           227,       19.3731,       135.265,            0.,NA,NA,"",   418.003E+03,   427.149E+03,   427.149E+03
C:/temp/Job-10.odb,Step-1,Increment      1: Step Time =    1.000,"P-10-1",           228,       9.44075,       135.442,            0.,NA,NA,"",   411.240E+03,   446.651E+03,   446.651E+03
C:/temp/Job-10.odb,Step-1,Increment      1: Step Time =    1.000,"P-10-1",           229,       190.296,       9.46897,            0.,NA,NA,"",   1.00284E+06,   1.00277E+06,   1.00277E+06
C:/temp/Job-10.odb,Step-1,Increment      1: Step Time =    1.000,"P-10-1",           230,       180.695,       10.6987,            0.,NA,NA,"",   1.02484E+06,   1.02310E+06,   1.02310E+06
C:/temp/Job-10.odb,Step-1,Increment      1: Step Time =    1.000,"P-10-1",           231,       169.655,       11.8966,            0.,NA,NA,"",   1.06614E+06,   1.05360E+06,   1.05360E+06
C:/temp/Job-10.odb,Step-1,Increment      1: Step Time =    1.000,"P-10-1",           232,       158.921,       10.9074,            0.,NA,NA,"",   1.06352E+06,   1.04452E+06,   1.04452E+06
C:/temp/Job-10.odb,Step-1,Increment      1: Step Time =    1.000,"P-10-1",           233,       148.976,       10.0574,            0.,NA,NA,"",   1.01259E+06,   994.272E+03,   994.272E+03
C:/temp/Job-10.odb,Step-1,Increment      1: Step Time =    1.000,"P-10-1",           234,       134.489,       9.50724,            0.,NA,NA,"",   890.164E+03,   885.089E+03,   885.089E+03
C:/temp/Job-10.odb,Step-1,Increment      1: Step Time =    1.000,"P-10-1",           235,       124.694,       9.68899,            0.,NA,NA,"",   814.041E+03,   829.124E+03,   829.124E+03
C:/temp/Job-10.odb,Step-1,Increment      1: Step Time =    1.000,"P-10-1",           236,       114.540,       10.1147,            0.,NA,NA,"",   806.549E+03,   841.265E+03,   841.265E+03
C:/temp/Job-10.odb,Step-1,Increment      1: Step Time =    1.000,"P-10-1",           237,       104.317,       9.64643,            0.,NA,NA,"",   893.656E+03,   918.456E+03,   918.456E+03
C:/temp/Job-10.odb,Step-1,Increment      1: Step Time =    1.000,"P-10-1",           238,       94.2466,       9.94835,            0.,NA,NA,"",   1.13868E+06,   1.13556E+06,   1.13556E+06
C:/temp/Job-10.odb,Step-1,Increment      1: Step Time =    1.000,"P-10-1",           239,       83.9298,       10.4027,            0.,NA,NA,"",   1.43201E+06,   1.39969E+06,   1.39969E+06
C:/temp/Job-10.odb,Step-1,Increment      1: Step Time =    1.000,"P-10-1",           240,       74.2794,       9.18821,            0.,NA,NA,"",   1.62919E+06,   1.58783E+06,   1.58783E+06
C:/temp/Job-10.odb,Step-1,Increment      1: Step Time =    1.000,"P-10-1",           241,       65.1907,       9.11644,            0.,NA,NA,"",   1.82542E+06,   1.78674E+06,   1.78674E+06
C:/temp/Job-10.odb,Step-1,Increment      1: Step Time =    1.000,"P-10-1",           242,       50.2751,       10.2057,            0.,NA,NA,"",   2.06561E+06,   2.03035E+06,   2.03035E+06
C:/temp/Job-10.odb,Step-1,Increment      1: Step Time =    1.000,"P-10-1",           243,       39.9914,       9.32360,            0.,NA,NA,"",   2.17024E+06,   2.15229E+06,   2.15229E+06
C:/temp/Job-10.odb,Step-1,Increment      1: Step Time =    1.000,"P-10-1",           244,       30.0083,       9.42546,            0.,NA,NA,"",   2.23745E+06,   2.22867E+06,   2.22867E+06
C:/temp/Job-10.odb,Step-1,Increment      1: Step Time =    1.000,"P-10-1",           245,       20.2752,       9.96463,            0.,NA,NA,"",   2.28542E+06,   2.29586E+06,   2.29586E+06
C:/temp/Job-10.odb,Step-1,Increment      1: Step Time =    1.000,"P-10-1",           246,       10.1897,       10.1203,            0.,NA,NA,"",   2.33309E+06,   2.40511E+06,   2.40511E+06
C:/temp/Job-10.odb,Step-1,Increment      1: Step Time =    1.000,"P-10-1",           247,       186.769,       23.0703,            0.,NA,NA,"",   1.05195E+06,   1.06037E+06,   1.06037E+06
C:/temp/Job-10.odb,Step-1,Increment      1: Step Time =    1.000,"P-10-1",           248,       178.114,       22.1464,            0.,NA,NA,"",   1.13754E+06,   1.12839E+06,   1.12839E+06
C:/temp/Job-10.odb,Step-1,Increment      1: Step Time =    1.000,"P-10-1",           249,       165.528,       23.5532,            0.,NA,NA,"",   1.32751E+06,   1.27800E+06,   1.27800E+06
C:/temp/Job-10.odb,Step-1,Increment      1: Step Time =    1.000,"P-10-1",           250,       156.564,       21.1301,            0.,NA,NA,"",   1.35334E+06,   1.30280E+06,   1.30280E+06
C:/temp/Job-10.odb,Step-1,Increment      1: Step Time =    1.000,"P-10-1",           251,       147.239,       19.9176,            0.,NA,NA,"",   1.37294E+06,   1.33542E+06,   1.33542E+06
C:/temp/Job-10.odb,Step-1,Increment      1: Step Time =    1.000,"P-10-1",           252,       133.030,       23.0770,            0.,NA,NA,"",   1.53346E+06,   1.55267E+06,   1.55267E+06
C:/temp/Job-10.odb,Step-1,Increment      1: Step Time =    1.000,"P-10-1",           253,       124.598,       18.9621,            0.,NA,NA,"",   1.33787E+06,   1.39251E+06,   1.39251E+06
C:/temp/Job-10.odb,Step-1,Increment      1: Step Time =    1.000,"P-10-1",           254,       106.805,       22.3402,            0.,NA,NA,"",   1.62097E+06,   1.73434E+06,   1.73434E+06
C:/temp/Job-10.odb,Step-1,Increment      1: Step Time =    1.000,"P-10-1",           255,       94.3735,       19.5994,            0.,NA,NA,"",   1.69006E+06,   1.72490E+06,   1.72490E+06
C:/temp/Job-10.odb,Step-1,Increment      1: Step Time =    1.000,"P-10-1",           256,       80.6377,       23.9757,            0.,NA,NA,"",   2.10436E+06,   2.04417E+06,   2.04417E+06
C:/temp/Job-10.odb,Step-1,Increment      1: Step Time =    1.000,"P-10-1",           257,       73.1887,       22.2296,            0.,NA,NA,"",   2.10843E+06,   2.00485E+06,   2.00485E+06
C:/temp/Job-10.odb,Step-1,Increment      1: Step Time =    1.000,"P-10-1",           258,       65.7818,       18.5442,            0.,NA,NA,"",   2.02475E+06,   1.92360E+06,   1.92360E+06
C:/temp/Job-10.odb,Step-1,Increment      1: Step Time =    1.000,"P-10-1",           259,       51.0148,       21.3539,            0.,NA,NA,"",   2.04448E+06,   1.93745E+06,   1.93745E+06
C:/temp/Job-10.odb,Step-1,Increment      1: Step Time =    1.000,"P-10-1",           260,       40.6211,       21.5182,            0.,NA,NA,"",   1.99807E+06,   1.92735E+06,   1.92735E+06
C:/temp/Job-10.odb,Step-1,Increment      1: Step Time =    1.000,"P-10-1",           261,       31.9113,       22.0506,            0.,NA,NA,"",   1.95347E+06,   1.91406E+06,   1.91406E+06
C:/temp/Job-10.odb,Step-1,Increment      1: Step Time =    1.000,"P-10-1",           262,       21.0908,       20.1733,            0.,NA,NA,"",   1.96151E+06,   1.98255E+06,   1.98255E+06
C:/temp/Job-10.odb,Step-1,Increment      1: Step Time =    1.000,"P-10-1",           263,       10.4887,       20.2319,            0.,NA,NA,"",   1.83373E+06,   1.94644E+06,   1.94644E+06
C:/temp/Job-10.odb,Step-1,Increment      1: Step Time =    1.000,"P-10-1",           264,       190.392,       31.5569,            0.,NA,NA,"",   1.02608E+06,   1.05694E+06,   1.05694E+06
C:/temp/Job-10.odb,Step-1,Increment      1: Step Time =    1.000,"P-10-1",           265,       175.974,       31.0403,            0.,NA,NA,"",   1.27005E+06,   1.24420E+06,   1.24420E+06
C:/temp/Job-10.odb,Step-1,Increment      1: Step Time =    1.000,"P-10-1",           266,       170.719,       29.8776,            0.,NA,NA,"",   1.35095E+06,   1.30084E+06,   1.30084E+06
C:/temp/Job-10.odb,Step-1,Increment      1: Step Time =    1.000,"P-10-1",           267,       159.820,       35.7587,            0.,NA,NA,"",   1.68766E+06,   1.56997E+06,   1.56997E+06
C:/temp/Job-10.odb,Step-1,Increment      1: Step Time =    1.000,"P-10-1",           268,       148.581,       31.6759,            0.,NA,NA,"",   1.75362E+06,   1.67961E+06,   1.67961E+06
C:/temp/Job-10.odb,Step-1,Increment      1: Step Time =    1.000,"P-10-1",           269,       137.702,       32.8205,            0.,NA,NA,"",   1.91837E+06,   1.91736E+06,   1.91736E+06
C:/temp/Job-10.odb,Step-1,Increment      1: Step Time =    1.000,"P-10-1",           270,       128.902,       31.5502,            0.,NA,NA,"",   1.95011E+06,   2.02566E+06,   2.02566E+06
C:/temp/Job-10.odb,Step-1,Increment      1: Step Time =    1.000,"P-10-1",           271,       116.809,       31.8481,            0.,NA,NA,"",   2.15633E+06,   2.31598E+06,   2.31598E+06
C:/temp/Job-10.odb,Step-1,Increment      1: Step Time =    1.000,"P-10-1",           272,       105.770,       31.6662,            0.,NA,NA,"",   2.30759E+06,   2.48022E+06,   2.48022E+06
C:/temp/Job-10.odb,Step-1,Increment      1: Step Time =    1.000,"P-10-1",           273,       95.4874,       29.3450,            0.,NA,NA,"",   2.22747E+06,   2.33318E+06,   2.33318E+06
C:/temp/Job-10.odb,Step-1,Increment      1: Step Time =    1.000,"P-10-1",           274,       86.2443,       31.4825,            0.,NA,NA,"",   2.36084E+06,   2.38564E+06,   2.38564E+06
C:/temp/Job-10.odb,Step-1,Increment      1: Step Time =    1.000,"P-10-1",           275,       73.5361,       28.6856,            0.,NA,NA,"",   2.23680E+06,   2.12531E+06,   2.12531E+06
C:/temp/Job-10.odb,Step-1,Increment      1: Step Time =    1.000,"P-10-1",           276,       64.5965,       31.0297,            0.,NA,NA,"",   2.17146E+06,   2.00871E+06,   2.00871E+06
C:/temp/Job-10.odb,Step-1,Increment      1: Step Time =    1.000,"P-10-1",           277,       52.6061,       33.2743,            0.,NA,NA,"",   1.96716E+06,   1.79306E+06,   1.79306E+06
C:/temp/Job-10.odb,Step-1,Increment      1: Step Time =    1.000,"P-10-1",           278,       44.5415,       32.7603,            0.,NA,NA,"",   1.85331E+06,   1.71591E+06,   1.71591E+06
C:/temp/Job-10.odb,Step-1,Increment      1: Step Time =    1.000,"P-10-1",           279,       34.9615,       30.2234,            0.,NA,NA,"",   1.78342E+06,   1.70905E+06,   1.70905E+06
C:/temp/Job-10.odb,Step-1,Increment      1: Step Time =    1.000,"P-10-1",           280,       26.2082,       30.9112,            0.,NA,NA,"",   1.66471E+06,   1.64781E+06,   1.64781E+06
C:/temp/Job-10.odb,Step-1,Increment      1: Step Time =    1.000,"P-10-1",           281,       11.4554,       31.1412,            0.,NA,NA,"",   1.45313E+06,   1.55071E+06,   1.55071E+06
C:/temp/Job-10.odb,Step-1,Increment      1: Step Time =    1.000,"P-10-1",           282,       189.306,       169.716,            0.,NA,NA,"",   1.04235E+06,   1.06763E+06,   1.06763E+06
C:/temp/Job-10.odb,Step-1,Increment      1: Step Time =    1.000,"P-10-1",           283,       176.852,       170.029,            0.,NA,NA,"",   1.24539E+06,   1.22367E+06,   1.22367E+06
C:/temp/Job-10.odb,Step-1,Increment      1: Step Time =    1.000,"P-10-1",           284,       168.449,       170.693,            0.,NA,NA,"",   1.38965E+06,   1.33134E+06,   1.33134E+06
C:/temp/Job-10.odb,Step-1,Increment      1: Step Time =    1.000,"P-10-1",           285,       156.194,       169.305,            0.,NA,NA,"",   1.63392E+06,   1.54232E+06,   1.54232E+06
C:/temp/Job-10.odb,Step-1,Increment      1: Step Time =    1.000,"P-10-1",           286,       145.281,       169.802,            0.,NA,NA,"",   1.75338E+06,   1.70009E+06,   1.70009E+06
C:/temp/Job-10.odb,Step-1,Increment      1: Step Time =    1.000,"P-10-1",           287,       137.497,       169.792,            0.,NA,NA,"",   1.81840E+06,   1.81914E+06,   1.81914E+06
C:/temp/Job-10.odb,Step-1,Increment      1: Step Time =    1.000,"P-10-1",           288,       127.068,       169.069,            0.,NA,NA,"",   1.94913E+06,   2.04126E+06,   2.04126E+06
C:/temp/Job-10.odb,Step-1,Increment      1: Step Time =    1.000,"P-10-1",           289,       116.294,       169.461,            0.,NA,NA,"",   2.06030E+06,   2.21597E+06,   2.21597E+06
C:/temp/Job-10.odb,Step-1,Increment      1: Step Time =    1.000,"P-10-1",           290,       104.246,       168.088,            0.,NA,NA,"",   2.35282E+06,   2.52116E+06,   2.52116E+06
C:/temp/Job-10.odb,Step-1,Increment      1: Step Time =    1.000,"P-10-1",           291,       93.9520,       166.946,            0.,NA,NA,"",   2.48659E+06,   2.60133E+06,   2.60133E+06
C:/temp/Job-10.odb,Step-1,Increment      1: Step Time =    1.000,"P-10-1",           292,       82.9884,       171.428,            0.,NA,NA,"",   2.24379E+06,   2.22169E+06,   2.22169E+06
C:/temp/Job-10.odb,Step-1,Increment      1: Step Time =    1.000,"P-10-1",           293,       62.8651,       166.917,            0.,NA,NA,"",   2.13538E+06,   1.95813E+06,   1.95813E+06
C:/temp/Job-10.odb,Step-1,Increment      1: Step Time =    1.000,"P-10-1",           294,       52.0505,       170.800,            0.,NA,NA,"",   2.01383E+06,   1.86182E+06,   1.86182E+06
C:/temp/Job-10.odb,Step-1,Increment      1: Step Time =    1.000,"P-10-1",           295,       41.5155,       169.770,            0.,NA,NA,"",   1.85960E+06,   1.74695E+06,   1.74695E+06
C:/temp/Job-10.odb,Step-1,Increment      1: Step Time =    1.000,"P-10-1",           296,       30.3707,       170.315,            0.,NA,NA,"",   1.74739E+06,   1.70694E+06,   1.70694E+06
C:/temp/Job-10.odb,Step-1,Increment      1: Step Time =    1.000,"P-10-1",           297,       21.3026,       168.247,            0.,NA,NA,"",   1.57059E+06,   1.58970E+06,   1.58970E+06
C:/temp/Job-10.odb,Step-1,Increment      1: Step Time =    1.000,"P-10-1",           298,       8.71758,       169.224,            0.,NA,NA,"",   1.41725E+06,   1.53638E+06,   1.53638E+06
C:/temp/Job-10.odb,Step-1,Increment      1: Step Time =    1.000,"P-10-1",           299,       189.711,       179.818,            0.,NA,NA,"",   1.02607E+06,   1.03205E+06,   1.03205E+06
C:/temp/Job-10.odb,Step-1,Increment      1: Step Time =    1.000,"P-10-1",           300,       179.858,       180.487,            0.,NA,NA,"",   1.08902E+06,   1.08619E+06,   1.08619E+06
C:/temp/Job-10.odb,Step-1,Increment      1: Step Time =    1.000,"P-10-1",           301,       163.730,       181.116,            0.,NA,NA,"",   1.24030E+06,   1.20244E+06,   1.20244E+06
C:/temp/Job-10.odb,Step-1,Increment      1: Step Time =    1.000,"P-10-1",           302,       158.347,       174.908,            0.,NA,NA,"",   1.45218E+06,   1.38617E+06,   1.38617E+06
C:/temp/Job-10.odb,Step-1,Increment      1: Step Time =    1.000,"P-10-1",           303,       145.835,       177.823,            0.,NA,NA,"",   1.46251E+06,   1.42037E+06,   1.42037E+06
C:/temp/Job-10.odb,Step-1,Increment      1: Step Time =    1.000,"P-10-1",           304,       134.886,       180.086,            0.,NA,NA,"",   1.38962E+06,   1.39557E+06,   1.39557E+06
C:/temp/Job-10.odb,Step-1,Increment      1: Step Time =    1.000,"P-10-1",           305,       126.468,       179.925,            0.,NA,NA,"",   1.38683E+06,   1.43695E+06,   1.43695E+06
C:/temp/Job-10.odb,Step-1,Increment      1: Step Time =    1.000,"P-10-1",           306,       116.196,       179.093,            0.,NA,NA,"",   1.45155E+06,   1.54977E+06,   1.54977E+06
C:/temp/Job-10.odb,Step-1,Increment      1: Step Time =    1.000,"P-10-1",           307,       104.585,       178.313,            0.,NA,NA,"",   1.63149E+06,   1.73512E+06,   1.73512E+06
C:/temp/Job-10.odb,Step-1,Increment      1: Step Time =    1.000,"P-10-1",           308,       93.5996,       178.106,            0.,NA,NA,"",   1.82422E+06,   1.86647E+06,   1.86647E+06
C:/temp/Job-10.odb,Step-1,Increment      1: Step Time =    1.000,"P-10-1",           309,       74.3410,       179.086,            0.,NA,NA,"",   2.05034E+06,   1.95739E+06,   1.95739E+06
C:/temp/Job-10.odb,Step-1,Increment      1: Step Time =    1.000,"P-10-1",           310,       63.9512,       180.884,            0.,NA,NA,"",   2.04954E+06,   1.94012E+06,   1.94012E+06
C:/temp/Job-10.odb,Step-1,Increment      1: Step Time =    1.000,"P-10-1",           311,       53.8106,       181.044,            0.,NA,NA,"",   2.04699E+06,   1.95098E+06,   1.95098E+06
C:/temp/Job-10.odb,Step-1,Increment      1: Step Time =    1.000,"P-10-1",           312,       42.8038,       181.171,            0.,NA,NA,"",   2.03873E+06,   1.97399E+06,   1.97399E+06
C:/temp/Job-10.odb,Step-1,Increment      1: Step Time =    1.000,"P-10-1",           313,       30.9188,       179.454,            0.,NA,NA,"",   1.97991E+06,   1.95052E+06,   1.95052E+06
C:/temp/Job-10.odb,Step-1,Increment      1: Step Time =    1.000,"P-10-1",           314,       22.5403,       180.069,            0.,NA,NA,"",   1.97628E+06,   1.98972E+06,   1.98972E+06
C:/temp/Job-10.odb,Step-1,Increment      1: Step Time =    1.000,"P-10-1",           315,       9.21023,       179.060,            0.,NA,NA,"",   1.78193E+06,   1.90825E+06,   1.90825E+06
C:/temp/Job-10.odb,Step-1,Increment      1: Step Time =    1.000,"P-10-1",           316,       189.971,       190.007,            0.,NA,NA,"",   1.00401E+06,   1.00389E+06,   1.00389E+06
C:/temp/Job-10.odb,Step-1,Increment      1: Step Time =    1.000,"P-10-1",           317,       175.557,       190.524,            0.,NA,NA,"",   1.02081E+06,   1.01737E+06,   1.01737E+06
C:/temp/Job-10.odb,Step-1,Increment      1: Step Time =    1.000,"P-10-1",           318,       166.185,       190.571,            0.,NA,NA,"",   1.02947E+06,   1.01950E+06,   1.01950E+06
C:/temp/Job-10.odb,Step-1,Increment      1: Step Time =    1.000,"P-10-1",           319,       157.132,       189.598,            0.,NA,NA,"",   1.04325E+06,   1.02477E+06,   1.02477E+06
C:/temp/Job-10.odb,Step-1,Increment      1: Step Time =    1.000,"P-10-1",           320,       149.026,       186.793,            0.,NA,NA,"",   1.13489E+06,   1.10673E+06,   1.10673E+06
C:/temp/Job-10.odb,Step-1,Increment      1: Step Time =    1.000,"P-10-1",           321,       133.911,       190.093,            0.,NA,NA,"",   902.518E+03,   899.953E+03,   899.953E+03
C:/temp/Job-10.odb,Step-1,Increment      1: Step Time =    1.000,"P-10-1",           322,       124.830,       190.214,            0.,NA,NA,"",   820.669E+03,   835.434E+03,   835.434E+03
C:/temp/Job-10.odb,Step-1,Increment      1: Step Time =    1.000,"P-10-1",           323,       115.153,       189.488,            0.,NA,NA,"",   830.542E+03,   867.421E+03,   867.421E+03
C:/temp/Job-10.odb,Step-1,Increment      1: Step Time =    1.000,"P-10-1",           324,       104.850,       189.086,            0.,NA,NA,"",   957.873E+03,   991.343E+03,   991.343E+03
C:/temp/Job-10.odb,Step-1,Increment      1: Step Time =    1.000,"P-10-1",           325,       94.4517,       189.196,            0.,NA,NA,"",   1.18545E+06,   1.18473E+06,   1.18473E+06
C:/temp/Job-10.odb,Step-1,Increment      1: Step Time =    1.000,"P-10-1",           326,       84.4611,       189.708,            0.,NA,NA,"",   1.42240E+06,   1.39156E+06,   1.39156E+06
C:/temp/Job-10.odb,Step-1,Increment      1: Step Time =    1.000,"P-10-1",           327,       74.5683,       189.981,            0.,NA,NA,"",   1.64955E+06,   1.60431E+06,   1.60431E+06
C:/temp/Job-10.odb,Step-1,Increment      1: Step Time =    1.000,"P-10-1",           328,       64.7520,       190.329,            0.,NA,NA,"",   1.85008E+06,   1.80549E+06,   1.80549E+06
C:/temp/Job-10.odb,Step-1,Increment      1: Step Time =    1.000,"P-10-1",           329,       50.4943,       186.761,            0.,NA,NA,"",   2.05664E+06,   2.00503E+06,   2.00503E+06
C:/temp/Job-10.odb,Step-1,Increment      1: Step Time =    1.000,"P-10-1",           330,       41.2593,       188.897,            0.,NA,NA,"",   2.13793E+06,   2.10992E+06,   2.10992E+06
C:/temp/Job-10.odb,Step-1,Increment      1: Step Time =    1.000,"P-10-1",           331,       31.1155,       190.053,            0.,NA,NA,"",   2.22342E+06,   2.21385E+06,   2.21385E+06
C:/temp/Job-10.odb,Step-1,Increment      1: Step Time =    1.000,"P-10-1",           332,       20.9604,       187.649,            0.,NA,NA,"",   2.20875E+06,   2.22159E+06,   2.22159E+06
C:/temp/Job-10.odb,Step-1,Increment      1: Step Time =    1.000,"P-10-1",           333,       10.0485,       189.316,            0.,NA,NA,"",   2.30299E+06,   2.38261E+06,   2.38261E+06
C:/temp/Job-10.odb,Step-1,Increment      1: Step Time =    1.000,"P-10-1",           334,       94.9813,       151.757,            0.,NA,NA,"",   4.08493E+06,   4.15854E+06,   4.15854E+06
C:/temp/Job-10.odb,Step-1,Increment      1: Step Time =    1.000,"P-10-1",           335,       90.0094,       151.031,            0.,NA,NA,"",   3.63515E+06,   3.69880E+06,   3.69880E+06
C:/temp/Job-10.odb,Step-1,Increment      1: Step Time =    1.000,"P-10-1",           336,       80.3911,       148.161,            0.,NA,NA,"",   2.47411E+06,   2.50976E+06,   2.50976E+06
C:/temp/Job-10.odb,Step-1,Increment      1: Step Time =    1.000,"P-10-1",           337,       75.8344,       146.044,            0.,NA,NA,"",   1.82234E+06,   1.84067E+06,   1.84067E+06
C:/temp/Job-10.odb,Step-1,Increment      1: Step Time =    1.000,"P-10-1",           338,       67.4384,       140.543,            0.,NA,NA,"",   722.839E+03,   676.949E+03,   676.949E+03
C:/temp/Job-10.odb,Step-1,Increment      1: Step Time =    1.000,"P-10-1",           339,       63.6774,       137.211,            0.,NA,NA,"",   449.579E+03,   86.4566E+03,   86.4566E+03
C:/temp/Job-10.odb,Step-1,Increment      1: Step Time =    1.000,"P-10-1",           340,       57.2048,       129.539,            0.,NA,NA,"",   634.698E+03,  -628.420E+03,  -628.420E+03
C:/temp/Job-10.odb,Step-1,Increment      1: Step Time =    1.000,"P-10-1",           341,       54.5537,       125.271,            0.,NA,NA,"",   775.929E+03,  -785.933E+03,  -785.933E+03
C:/temp/Job-10.odb,Step-1,Increment      1: Step Time =    1.000,"P-10-1",           342,       50.5451,       116.069,            0.,NA,NA,"",   897.814E+03,  -912.797E+03,  -912.797E+03
C:/temp/Job-10.odb,Step-1,Increment      1: Step Time =    1.000,"P-10-1",           343,       49.2251,       111.221,            0.,NA,NA,"",   920.238E+03,  -929.795E+03,  -929.795E+03
C:/temp/Job-10.odb,Step-1,Increment      1: Step Time =    1.000,"P-10-1",           344,       48.0152,       101.257,            0.,NA,NA,"",   843.757E+03,  -859.329E+03,  -859.329E+03
C:/temp/Job-10.odb,Step-1,Increment      1: Step Time =    1.000,"P-10-1",           345,       48.1366,       96.2334,            0.,NA,NA,"",   823.967E+03,  -849.833E+03,  -849.833E+03
C:/temp/Job-10.odb,Step-1,Increment      1: Step Time =    1.000,"P-10-1",           346,       49.8265,       86.3392,            0.,NA,NA,"",   865.042E+03,  -883.351E+03,  -883.351E+03
C:/temp/Job-10.odb,Step-1,Increment      1: Step Time =    1.000,"P-10-1",           347,       51.3792,       81.5605,            0.,NA,NA,"",   887.982E+03,  -899.527E+03,  -899.527E+03
C:/temp/Job-10.odb,Step-1,Increment      1: Step Time =    1.000,"P-10-1",           348,       55.8277,       72.5627,            0.,NA,NA,"",   737.436E+03,  -739.424E+03,  -739.424E+03
C:/temp/Job-10.odb,Step-1,Increment      1: Step Time =    1.000,"P-10-1",           349,       58.6820,       68.4276,            0.,NA,NA,"",   544.679E+03,  -531.427E+03,  -531.427E+03
C:/temp/Job-10.odb,Step-1,Increment      1: Step Time =    1.000,"P-10-1",           350,       65.5176,       61.0774,            0.,NA,NA,"",   466.751E+03,   394.963E+03,   394.963E+03
C:/temp/Job-10.odb,Step-1,Increment      1: Step Time =    1.000,"P-10-1",           351,       69.4352,       57.9311,            0.,NA,NA,"",   945.410E+03,   936.025E+03,   936.025E+03
C:/temp/Job-10.odb,Step-1,Increment      1: Step Time =    1.000,"P-10-1",           352,       78.0871,       52.8425,            0.,NA,NA,"",   2.17572E+06,   2.18901E+06,   2.18901E+06
C:/temp/Job-10.odb,Step-1,Increment      1: Step Time =    1.000,"P-10-1",           353,       82.7408,       50.9478,            0.,NA,NA,"",   2.83237E+06,   2.86567E+06,   2.86567E+06
C:/temp/Job-10.odb,Step-1,Increment      1: Step Time =    1.000,"P-10-1",           354,       92.4866,       48.5457,            0.,NA,NA,"",   3.93206E+06,   3.99376E+06,   3.99376E+06
C:/temp/Job-10.odb,Step-1,Increment      1: Step Time =    1.000,"P-10-1",           355,       97.4877,       48.0607,            0.,NA,NA,"",   4.27601E+06,   4.34712E+06,   4.34712E+06
C:/temp/Job-10.odb,Step-1,Increment      1: Step Time =    1.000,"P-10-1",           356,       107.513,       48.5457,            0.,NA,NA,"",   4.46835E+06,   4.58284E+06,   4.58284E+06
C:/temp/Job-10.odb,Step-1,Increment      1: Step Time =    1.000,"P-10-1",           357,       117.259,       50.9478,            0.,NA,NA,"",   4.26051E+06,   4.31939E+06,   4.31939E+06
C:/temp/Job-10.odb,Step-1,Increment      1: Step Time =    1.000,"P-10-1",           358,       121.913,       52.8425,            0.,NA,NA,"",   3.88304E+06,   3.93301E+06,   3.93301E+06
C:/temp/Job-10.odb,Step-1,Increment      1: Step Time =    1.000,"P-10-1",           359,       130.565,       57.9311,            0.,NA,NA,"",   2.76047E+06,   2.81785E+06,   2.81785E+06
C:/temp/Job-10.odb,Step-1,Increment      1: Step Time =    1.000,"P-10-1",           360,       134.482,       61.0774,            0.,NA,NA,"",   2.16765E+06,   2.20800E+06,   2.20800E+06
C:/temp/Job-10.odb,Step-1,Increment      1: Step Time =    1.000,"P-10-1",           361,       141.318,       68.4276,            0.,NA,NA,"",   938.797E+03,   912.426E+03,   912.426E+03
C:/temp/Job-10.odb,Step-1,Increment      1: Step Time =    1.000,"P-10-1",           362,       144.172,       72.5627,            0.,NA,NA,"",   561.553E+03,   113.547E+03,   113.547E+03
C:/temp/Job-10.odb,Step-1,Increment      1: Step Time =    1.000,"P-10-1",           363,       148.621,       81.5605,            0.,NA,NA,"",   1.17891E+06,  -1.17006E+06,  -1.17006E+06
C:/temp/Job-10.odb,Step-1,Increment      1: Step Time =    1.000,"P-10-1",           364,       150.174,       86.3392,            0.,NA,NA,"",   1.64428E+06,  -1.65417E+06,  -1.65417E+06
C:/temp/Job-10.odb,Step-1,Increment      1: Step Time =    1.000,"P-10-1",           365,       151.863,       96.2334,            0.,NA,NA,"",   2.20529E+06,  -2.22909E+06,  -2.22909E+06
C:/temp/Job-10.odb,Step-1,Increment      1: Step Time =    1.000,"P-10-1",           366,       151.985,       101.257,            0.,NA,NA,"",   2.18885E+06,  -2.21802E+06,  -2.21802E+06
C:/temp/Job-10.odb,Step-1,Increment      1: Step Time =    1.000,"P-10-1",           367,       150.775,       111.221,            0.,NA,NA,"",   1.75454E+06,  -1.77900E+06,  -1.77900E+06
C:/temp/Job-10.odb,Step-1,Increment      1: Step Time =    1.000,"P-10-1",           368,       149.455,       116.069,            0.,NA,NA,"",   1.37012E+06,  -1.36805E+06,  -1.36805E+06
C:/temp/Job-10.odb,Step-1,Increment      1: Step Time =    1.000,"P-10-1",           369,       145.446,       125.271,            0.,NA,NA,"",   597.384E+03,  -118.617E+03,  -118.617E+03
C:/temp/Job-10.odb,Step-1,Increment      1: Step Time =    1.000,"P-10-1",           370,       142.795,       129.539,            0.,NA,NA,"",   730.516E+03,   640.669E+03,   640.669E+03
C:/temp/Job-10.odb,Step-1,Increment      1: Step Time =    1.000,"P-10-1",           371,       136.323,       137.211,            0.,NA,NA,"",   1.82835E+06,   1.83936E+06,   1.83936E+06
C:/temp/Job-10.odb,Step-1,Increment      1: Step Time =    1.000,"P-10-1",           372,       132.562,       140.543,            0.,NA,NA,"",   2.39901E+06,   2.43971E+06,   2.43971E+06
C:/temp/Job-10.odb,Step-1,Increment      1: Step Time =    1.000,"P-10-1",           373,       124.166,       146.044,            0.,NA,NA,"",   3.67975E+06,   3.73231E+06,   3.73231E+06
C:/temp/Job-10.odb,Step-1,Increment      1: Step Time =    1.000,"P-10-1",           374,       119.609,       148.161,            0.,NA,NA,"",   4.13057E+06,   4.19196E+06,   4.19196E+06
C:/temp/Job-10.odb,Step-1,Increment      1: Step Time =    1.000,"P-10-1",           375,       109.991,       151.031,            0.,NA,NA,"",   4.57699E+06,   4.65862E+06,   4.65862E+06
C:/temp/Job-10.odb,Step-1,Increment      1: Step Time =    1.000,"P-10-1",           376,       105.019,       151.757,            0.,NA,NA,"",   4.57074E+06,   4.65651E+06,   4.65651E+06
C:/temp/Job-10.odb,Step-1,Increment      1: Step Time =    1.000,"P-10-1",           377,          195.,            0.,            0.,NA,NA,"",   996.250E+03,   995.678E+03,   995.678E+03
C:/temp/Job-10.odb,Step-1,Increment      1: Step Time =    1.000,"P-10-1",           378,          185.,            0.,            0.,NA,NA,"",   980.156E+03,   980.074E+03,   980.074E+03
C:/temp/Job-10.odb,Step-1,Increment      1: Step Time =    1.000,"P-10-1",           379,          175.,            0.,            0.,NA,NA,"",   959.889E+03,    958.92E+03,    958.92E+03
C:/temp/Job-10.odb,Step-1,Increment      1: Step Time =    1.000,"P-10-1",           380,          165.,            0.,            0.,NA,NA,"",   918.267E+03,   916.095E+03,   916.095E+03
C:/temp/Job-10.odb,Step-1,Increment      1: Step Time =    1.000,"P-10-1",           381,          155.,            0.,            0.,NA,NA,"",   829.301E+03,   826.902E+03,   826.902E+03
C:/temp/Job-10.odb,Step-1,Increment      1: Step Time =    1.000,"P-10-1",           382,          145.,            0.,            0.,NA,NA,"",   684.230E+03,   681.980E+03,   681.980E+03
C:/temp/Job-10.odb,Step-1,Increment      1: Step Time =    1.000,"P-10-1",           383,          135.,            0.,            0.,NA,NA,"",   503.356E+03,   501.885E+03,   501.885E+03
C:/temp/Job-10.odb,Step-1,Increment      1: Step Time =    1.000,"P-10-1",           384,          125.,            0.,            0.,NA,NA,"",   337.130E+03,   338.496E+03,   338.496E+03
C:/temp/Job-10.odb,Step-1,Increment      1: Step Time =    1.000,"P-10-1",           385,          115.,            0.,            0.,NA,NA,"",   258.916E+03,   262.918E+03,   262.918E+03
C:/temp/Job-10.odb,Step-1,Increment      1: Step Time =    1.000,"P-10-1",           386,          105.,            0.,            0.,NA,NA,"",   333.492E+03,   336.834E+03,   336.834E+03
C:/temp/Job-10.odb,Step-1,Increment      1: Step Time =    1.000,"P-10-1",           387,           95.,            0.,            0.,NA,NA,"",   582.143E+03,   580.931E+03,   580.931E+03
C:/temp/Job-10.odb,Step-1,Increment      1: Step Time =    1.000,"P-10-1",           388,           85.,            0.,            0.,NA,NA,"",   936.313E+03,   931.653E+03,   931.653E+03
C:/temp/Job-10.odb,Step-1,Increment      1: Step Time =    1.000,"P-10-1",           389,           75.,            0.,            0.,NA,NA,"",   1.33283E+06,   1.32863E+06,   1.32863E+06
C:/temp/Job-10.odb,Step-1,Increment      1: Step Time =    1.000,"P-10-1",           390,           65.,            0.,            0.,NA,NA,"",   1.71976E+06,   1.71721E+06,   1.71721E+06
C:/temp/Job-10.odb,Step-1,Increment      1: Step Time =    1.000,"P-10-1",           391,           55.,            0.,            0.,NA,NA,"",    2.0326E+06,   2.02695E+06,   2.02695E+06
C:/temp/Job-10.odb,Step-1,Increment      1: Step Time =    1.000,"P-10-1",           392,           45.,            0.,            0.,NA,NA,"",   2.25584E+06,   2.25285E+06,   2.25285E+06
C:/temp/Job-10.odb,Step-1,Increment      1: Step Time =    1.000,"P-10-1",           393,           35.,            0.,            0.,NA,NA,"",   2.37131E+06,   2.37015E+06,   2.37015E+06
C:/temp/Job-10.odb,Step-1,Increment      1: Step Time =    1.000,"P-10-1",           394,           25.,            0.,            0.,NA,NA,"",   2.43480E+06,   2.43561E+06,   2.43561E+06
C:/temp/Job-10.odb,Step-1,Increment      1: Step Time =    1.000,"P-10-1",           395,           15.,            0.,            0.,NA,NA,"",   2.49853E+06,   2.50649E+06,   2.50649E+06
C:/temp/Job-10.odb,Step-1,Increment      1: Step Time =    1.000,"P-10-1",           396,            5.,            0.,            0.,NA,NA,"",   2.83735E+06,   2.90246E+06,   2.90246E+06
C:/temp/Job-10.odb,Step-1,Increment      1: Step Time =    1.000,"P-10-1",           397,          200.,          195.,            0.,NA,NA,"",   1.00114E+06,   998.744E+03,   998.744E+03
C:/temp/Job-10.odb,Step-1,Increment      1: Step Time =    1.000,"P-10-1",           398,          200.,          185.,            0.,NA,NA,"",   1.01086E+06,   1.00212E+06,   1.00212E+06
C:/temp/Job-10.odb,Step-1,Increment      1: Step Time =    1.000,"P-10-1",           399,          200.,          175.,            0.,NA,NA,"",   1.00515E+06,   1.00599E+06,   1.00599E+06
C:/temp/Job-10.odb,Step-1,Increment      1: Step Time =    1.000,"P-10-1",           400,          200.,          165.,            0.,NA,NA,"",   964.459E+03,   1.01000E+06,   1.01000E+06
C:/temp/Job-10.odb,Step-1,Increment      1: Step Time =    1.000,"P-10-1",           401,          200.,          155.,            0.,NA,NA,"",   904.866E+03,   1.01482E+06,   1.01482E+06
C:/temp/Job-10.odb,Step-1,Increment      1: Step Time =    1.000,"P-10-1",           402,          200.,          145.,            0.,NA,NA,"",   903.780E+03,   1.02977E+06,   1.02977E+06
C:/temp/Job-10.odb,Step-1,Increment      1: Step Time =    1.000,"P-10-1",           403,          200.,          135.,            0.,NA,NA,"",   1.08097E+06,   1.18829E+06,   1.18829E+06
C:/temp/Job-10.odb,Step-1,Increment      1: Step Time =    1.000,"P-10-1",           404,          200.,          125.,            0.,NA,NA,"",   1.40916E+06,   1.61375E+06,   1.61375E+06
C:/temp/Job-10.odb,Step-1,Increment      1: Step Time =    1.000,"P-10-1",           405,          200.,          115.,            0.,NA,NA,"",   1.74351E+06,   2.01245E+06,   2.01245E+06
C:/temp/Job-10.odb,Step-1,Increment      1: Step Time =    1.000,"P-10-1",           406,          200.,          105.,            0.,NA,NA,"",   1.94974E+06,   2.24537E+06,   2.24537E+06
C:/temp/Job-10.odb,Step-1,Increment      1: Step Time =    1.000,"P-10-1",           407,          200.,           95.,            0.,NA,NA,"",   1.93627E+06,   2.23042E+06,   2.23042E+06
C:/temp/Job-10.odb,Step-1,Increment      1: Step Time =    1.000,"P-10-1",           408,          200.,           85.,            0.,NA,NA,"",   1.72547E+06,   1.99176E+06,   1.99176E+06
C:/temp/Job-10.odb,Step-1,Increment      1: Step Time =    1.000,"P-10-1",           409,          200.,           75.,            0.,NA,NA,"",   1.39796E+06,   1.60024E+06,   1.60024E+06
C:/temp/Job-10.odb,Step-1,Increment      1: Step Time =    1.000,"P-10-1",           410,          200.,           65.,            0.,NA,NA,"",   1.07274E+06,   1.18556E+06,   1.18556E+06
C:/temp/Job-10.odb,Step-1,Increment      1: Step Time =    1.000,"P-10-1",           411,          200.,           55.,            0.,NA,NA,"",   911.292E+03,   1.04365E+06,   1.04365E+06
C:/temp/Job-10.odb,Step-1,Increment      1: Step Time =    1.000,"P-10-1",           412,          200.,           45.,            0.,NA,NA,"",   906.601E+03,   1.01443E+06,   1.01443E+06
C:/temp/Job-10.odb,Step-1,Increment      1: Step Time =    1.000,"P-10-1",           413,          200.,           35.,            0.,NA,NA,"",   965.269E+03,   1.00666E+06,   1.00666E+06
C:/temp/Job-10.odb,Step-1,Increment      1: Step Time =    1.000,"P-10-1",           414,          200.,           25.,            0.,NA,NA,"",   1.00515E+06,   1.00566E+06,   1.00566E+06
C:/temp/Job-10.odb,Step-1,Increment      1: Step Time =    1.000,"P-10-1",           415,          200.,           15.,            0.,NA,NA,"",   1.00956E+06,   1.00233E+06,   1.00233E+06
C:/temp/Job-10.odb,Step-1,Increment      1: Step Time =    1.000,"P-10-1",           416,          200.,            5.,            0.,NA,NA,"",   1.00110E+06,   999.006E+03,   999.006E+03
C:/temp/Job-10.odb,Step-1,Increment      1: Step Time =    1.000,"P-10-1",           417,            5.,          200.,            0.,NA,NA,"",   2.83422E+06,   2.89984E+06,   2.89984E+06
C:/temp/Job-10.odb,Step-1,Increment      1: Step Time =    1.000,"P-10-1",           418,           15.,          200.,            0.,NA,NA,"",   2.49400E+06,   2.50283E+06,   2.50283E+06
C:/temp/Job-10.odb,Step-1,Increment      1: Step Time =    1.000,"P-10-1",           419,           25.,          200.,            0.,NA,NA,"",   2.42956E+06,   2.43019E+06,   2.43019E+06
C:/temp/Job-10.odb,Step-1,Increment      1: Step Time =    1.000,"P-10-1",           420,           35.,          200.,            0.,NA,NA,"",   2.36205E+06,   2.36077E+06,   2.36077E+06
C:/temp/Job-10.odb,Step-1,Increment      1: Step Time =    1.000,"P-10-1",           421,           45.,          200.,            0.,NA,NA,"",   2.24545E+06,   2.24263E+06,   2.24263E+06
C:/temp/Job-10.odb,Step-1,Increment      1: Step Time =    1.000,"P-10-1",           422,           55.,          200.,            0.,NA,NA,"",   2.02936E+06,   2.02595E+06,   2.02595E+06
C:/temp/Job-10.odb,Step-1,Increment      1: Step Time =    1.000,"P-10-1",           423,           65.,          200.,            0.,NA,NA,"",   1.72273E+06,   1.71814E+06,   1.71814E+06
C:/temp/Job-10.odb,Step-1,Increment      1: Step Time =    1.000,"P-10-1",           424,           75.,          200.,            0.,NA,NA,"",   1.34085E+06,   1.33613E+06,   1.33613E+06
C:/temp/Job-10.odb,Step-1,Increment      1: Step Time =    1.000,"P-10-1",           425,           85.,          200.,            0.,NA,NA,"",   937.629E+03,   933.002E+03,   933.002E+03
C:/temp/Job-10.odb,Step-1,Increment      1: Step Time =    1.000,"P-10-1",           426,           95.,          200.,            0.,NA,NA,"",     584.5E+03,   582.840E+03,   582.840E+03
C:/temp/Job-10.odb,Step-1,Increment      1: Step Time =    1.000,"P-10-1",           427,          105.,          200.,            0.,NA,NA,"",   345.960E+03,   349.210E+03,   349.210E+03
C:/temp/Job-10.odb,Step-1,Increment      1: Step Time =    1.000,"P-10-1",           428,          115.,          200.,            0.,NA,NA,"",   266.165E+03,   270.629E+03,   270.629E+03
C:/temp/Job-10.odb,Step-1,Increment      1: Step Time =    1.000,"P-10-1",           429,          125.,          200.,            0.,NA,NA,"",   340.309E+03,   342.379E+03,   342.379E+03
C:/temp/Job-10.odb,Step-1,Increment      1: Step Time =    1.000,"P-10-1",           430,          135.,          200.,            0.,NA,NA,"",   519.322E+03,   519.731E+03,   519.731E+03
C:/temp/Job-10.odb,Step-1,Increment      1: Step Time =    1.000,"P-10-1",           431,          145.,          200.,            0.,NA,NA,"",   723.331E+03,   715.424E+03,   715.424E+03
C:/temp/Job-10.odb,Step-1,Increment      1: Step Time =    1.000,"P-10-1",           432,          155.,          200.,            0.,NA,NA,"",   846.503E+03,   843.782E+03,   843.782E+03
C:/temp/Job-10.odb,Step-1,Increment      1: Step Time =    1.000,"P-10-1",           433,          165.,          200.,            0.,NA,NA,"",   920.449E+03,   919.215E+03,   919.215E+03
C:/temp/Job-10.odb,Step-1,Increment      1: Step Time =    1.000,"P-10-1",           434,          175.,          200.,            0.,NA,NA,"",   957.200E+03,   956.759E+03,   956.759E+03
C:/temp/Job-10.odb,Step-1,Increment      1: Step Time =    1.000,"P-10-1",           435,          185.,          200.,            0.,NA,NA,"",   977.861E+03,   977.885E+03,   977.885E+03
C:/temp/Job-10.odb,Step-1,Increment      1: Step Time =    1.000,"P-10-1",           436,          195.,          200.,            0.,NA,NA,"",   995.862E+03,   995.206E+03,   995.206E+03
C:/temp/Job-10.odb,Step-1,Increment      1: Step Time =    1.000,"P-10-1",           437,            0.,            5.,            0.,NA,NA,"",   2.63816E+06,   2.81930E+06,   2.81930E+06
C:/temp/Job-10.odb,Step-1,Increment      1: Step Time =    1.000,"P-10-1",           438,            0.,           15.,            0.,NA,NA,"",   1.88479E+06,   2.08683E+06,   2.08683E+06
C:/temp/Job-10.odb,Step-1,Increment      1: Step Time =    1.000,"P-10-1",           439,            0.,           25.,            0.,NA,NA,"",   1.50374E+06,   1.67761E+06,   1.67761E+06
C:/temp/Job-10.odb,Step-1,Increment      1: Step Time =    1.000,"P-10-1",           440,            0.,           35.,            0.,NA,NA,"",   1.19401E+06,   1.33512E+06,   1.33512E+06
C:/temp/Job-10.odb,Step-1,Increment      1: Step Time =    1.000,"P-10-1",           441,            0.,           45.,            0.,NA,NA,"",   907.606E+03,   1.01349E+06,   1.01349E+06
C:/temp/Job-10.odb,Step-1,Increment      1: Step Time =    1.000,"P-10-1",           442,            0.,           55.,            0.,NA,NA,"",   651.960E+03,   721.720E+03,   721.720E+03
C:/temp/Job-10.odb,Step-1,Increment      1: Step Time =    1.000,"P-10-1",           443,            0.,           65.,            0.,NA,NA,"",   425.506E+03,   458.266E+03,   458.266E+03
C:/temp/Job-10.odb,Step-1,Increment      1: Step Time =    1.000,"P-10-1",           444,            0.,           75.,            0.,NA,NA,"",   245.588E+03,   239.494E+03,   239.494E+03
C:/temp/Job-10.odb,Step-1,Increment      1: Step Time =    1.000,"P-10-1",           445,            0.,           85.,            0.,NA,NA,"",   137.010E+03,   15.6684E+03,   15.6684E+03
C:/temp/Job-10.odb,Step-1,Increment      1: Step Time =    1.000,"P-10-1",           446,            0.,           95.,            0.,NA,NA,"",   107.630E+03,  -103.439E+03,  -103.439E+03
C:/temp/Job-10.odb,Step-1,Increment      1: Step Time =    1.000,"P-10-1",           447,            0.,          105.,            0.,NA,NA,"",   107.107E+03,  -102.311E+03,  -102.311E+03
C:/temp/Job-10.odb,Step-1,Increment      1: Step Time =    1.000,"P-10-1",           448,            0.,          115.,            0.,NA,NA,"",   136.159E+03,   16.9591E+03,   16.9591E+03
C:/temp/Job-10.odb,Step-1,Increment      1: Step Time =    1.000,"P-10-1",           449,            0.,          125.,            0.,NA,NA,"",   245.094E+03,   240.014E+03,   240.014E+03
C:/temp/Job-10.odb,Step-1,Increment      1: Step Time =    1.000,"P-10-1",           450,            0.,          135.,            0.,NA,NA,"",   426.945E+03,   460.158E+03,   460.158E+03
C:/temp/Job-10.odb,Step-1,Increment      1: Step Time =    1.000,"P-10-1",           451,            0.,          145.,            0.,NA,NA,"",   653.495E+03,   723.976E+03,   723.976E+03
C:/temp/Job-10.odb,Step-1,Increment      1: Step Time =    1.000,"P-10-1",           452,            0.,          155.,            0.,NA,NA,"",   910.343E+03,   1.01785E+06,   1.01785E+06
C:/temp/Job-10.odb,Step-1,Increment      1: Step Time =    1.000,"P-10-1",           453,            0.,          165.,            0.,NA,NA,"",   1.18834E+06,   1.33179E+06,   1.33179E+06
C:/temp/Job-10.odb,Step-1,Increment      1: Step Time =    1.000,"P-10-1",           454,            0.,          175.,            0.,NA,NA,"",   1.49738E+06,   1.67437E+06,   1.67437E+06
C:/temp/Job-10.odb,Step-1,Increment      1: Step Time =    1.000,"P-10-1",           455,            0.,          185.,            0.,NA,NA,"",   1.88022E+06,   2.08377E+06,   2.08377E+06
C:/temp/Job-10.odb,Step-1,Increment      1: Step Time =    1.000,"P-10-1",           456,            0.,          195.,            0.,NA,NA,"",   2.63170E+06,   2.81251E+06,   2.81251E+06
C:/temp/Job-10.odb,Step-1,Increment      1: Step Time =    1.000,"P-10-1",           457,       124.846,       195.114,            0.,NA,NA,"",   508.352E+03,   513.109E+03,   513.109E+03
C:/temp/Job-10.odb,Step-1,Increment      1: Step Time =    1.000,"P-10-1",           458,       195.196,       125.069,            0.,NA,NA,"",   1.33665E+06,   1.53631E+06,   1.53631E+06
C:/temp/Job-10.odb,Step-1,Increment      1: Step Time =    1.000,"P-10-1",           459,       195.478,       134.884,            0.,NA,NA,"",   1.09325E+06,   1.23227E+06,   1.23227E+06
C:/temp/Job-10.odb,Step-1,Increment      1: Step Time =    1.000,"P-10-1",           460,       134.618,       194.839,            0.,NA,NA,"",   650.675E+03,   649.016E+03,   649.016E+03
C:/temp/Job-10.odb,Step-1,Increment      1: Step Time =    1.000,"P-10-1",           461,       194.651,       84.7503,            0.,NA,NA,"",   1.55179E+06,   1.79100E+06,   1.79100E+06
C:/temp/Job-10.odb,Step-1,Increment      1: Step Time =    1.000,"P-10-1",           462,       124.811,       4.87662,            0.,NA,NA,"",   505.900E+03,   510.298E+03,   510.298E+03
C:/temp/Job-10.odb,Step-1,Increment      1: Step Time =    1.000,"P-10-1",           463,       134.755,       4.76357,            0.,NA,NA,"",   634.932E+03,   631.353E+03,   631.353E+03
C:/temp/Job-10.odb,Step-1,Increment      1: Step Time =    1.000,"P-10-1",           464,       194.899,       105.037,            0.,NA,NA,"",   1.71464E+06,   1.97633E+06,   1.97633E+06
C:/temp/Job-10.odb,Step-1,Increment      1: Step Time =    1.000,"P-10-1",           465,       194.913,       115.130,            0.,NA,NA,"",   1.57269E+06,   1.81516E+06,   1.81516E+06
C:/temp/Job-10.odb,Step-1,Increment      1: Step Time =    1.000,"P-10-1",           466,       114.993,       194.774,            0.,NA,NA,"",   462.918E+03,   476.248E+03,   476.248E+03
C:/temp/Job-10.odb,Step-1,Increment      1: Step Time =    1.000,"P-10-1",           467,       104.911,       194.548,            0.,NA,NA,"",   561.895E+03,   572.777E+03,   572.777E+03
C:/temp/Job-10.odb,Step-1,Increment      1: Step Time =    1.000,"P-10-1",           468,       104.679,       4.89409,            0.,NA,NA,"",   533.038E+03,   541.748E+03,   541.748E+03
C:/temp/Job-10.odb,Step-1,Increment      1: Step Time =    1.000,"P-10-1",           469,       114.782,       5.02501,            0.,NA,NA,"",   448.933E+03,   460.970E+03,   460.970E+03
C:/temp/Job-10.odb,Step-1,Increment      1: Step Time =    1.000,"P-10-1",           470,       94.5719,       4.99427,            0.,NA,NA,"",   779.931E+03,   775.813E+03,   775.813E+03
C:/temp/Job-10.odb,Step-1,Increment      1: Step Time =    1.000,"P-10-1",           471,       84.5507,       5.07144,            0.,NA,NA,"",   1.10219E+06,   1.08773E+06,   1.08773E+06
C:/temp/Job-10.odb,Step-1,Increment      1: Step Time =    1.000,"P-10-1",           472,       5.09177,       115.170,            0.,NA,NA,"",   133.286E+03,   15.1517E+03,   15.1517E+03
C:/temp/Job-10.odb,Step-1,Increment      1: Step Time =    1.000,"P-10-1",           473,       64.9256,       195.195,            0.,NA,NA,"",   1.75817E+06,   1.74210E+06,   1.74210E+06
C:/temp/Job-10.odb,Step-1,Increment      1: Step Time =    1.000,"P-10-1",           474,       55.1142,       195.424,            0.,NA,NA,"",   2.01474E+06,   2.00305E+06,   2.00305E+06
C:/temp/Job-10.odb,Step-1,Increment      1: Step Time =    1.000,"P-10-1",           475,       45.3672,       195.224,            0.,NA,NA,"",   2.19237E+06,   2.18318E+06,   2.18318E+06
C:/temp/Job-10.odb,Step-1,Increment      1: Step Time =    1.000,"P-10-1",           476,       4.97619,       95.1200,            0.,NA,NA,"",   125.751E+03,  -113.029E+03,  -113.029E+03
C:/temp/Job-10.odb,Step-1,Increment      1: Step Time =    1.000,"P-10-1",           477,       5.00215,       85.0105,            0.,NA,NA,"",   133.597E+03,   13.2185E+03,   13.2185E+03
C:/temp/Job-10.odb,Step-1,Increment      1: Step Time =    1.000,"P-10-1",           478,       74.8131,       195.017,            0.,NA,NA,"",   1.44401E+06,   1.42603E+06,   1.42603E+06
C:/temp/Job-10.odb,Step-1,Increment      1: Step Time =    1.000,"P-10-1",           479,       84.7747,       194.843,            0.,NA,NA,"",   1.10382E+06,   1.08957E+06,   1.08957E+06
C:/temp/Job-10.odb,Step-1,Increment      1: Step Time =    1.000,"P-10-1",           480,       5.11332,       10.0828,            0.,NA,NA,"",   2.22860E+06,   2.38732E+06,   2.38732E+06
C:/temp/Job-10.odb,Step-1,Increment      1: Step Time =    1.000,"P-10-1",           481,       5.29418,       20.1819,            0.,NA,NA,"",   1.73550E+06,   1.89981E+06,   1.89981E+06
C:/temp/Job-10.odb,Step-1,Increment      1: Step Time =    1.000,"P-10-1",           482,       5.56363,       30.5201,            0.,NA,NA,"",   1.37944E+06,   1.51929E+06,   1.51929E+06
C:/temp/Job-10.odb,Step-1,Increment      1: Step Time =    1.000,"P-10-1",           483,       5.29894,       35.5790,            0.,NA,NA,"",   1.21522E+06,   1.34177E+06,   1.34177E+06
C:/temp/Job-10.odb,Step-1,Increment      1: Step Time =    1.000,"P-10-1",           484,       4.93440,       45.4908,            0.,NA,NA,"",   916.915E+03,   1.01453E+06,   1.01453E+06
C:/temp/Job-10.odb,Step-1,Increment      1: Step Time =    1.000,"P-10-1",           485,       4.74237,       75.0227,            0.,NA,NA,"",   228.280E+03,   228.269E+03,   228.269E+03
C:/temp/Job-10.odb,Step-1,Increment      1: Step Time =    1.000,"P-10-1",           486,       15.1017,       5.04461,            0.,NA,NA,"",   2.44852E+06,   2.46100E+06,   2.46100E+06
C:/temp/Job-10.odb,Step-1,Increment      1: Step Time =    1.000,"P-10-1",           487,       25.0390,       4.85750,            0.,NA,NA,"",   2.37795E+06,   2.37763E+06,   2.37763E+06
C:/temp/Job-10.odb,Step-1,Increment      1: Step Time =    1.000,"P-10-1",           488,       34.9855,       4.67208,            0.,NA,NA,"",   2.31297E+06,   2.30801E+06,   2.30801E+06
C:/temp/Job-10.odb,Step-1,Increment      1: Step Time =    1.000,"P-10-1",           489,       44.6512,       4.30297,            0.,NA,NA,"",   2.21064E+06,   2.20360E+06,   2.20360E+06
C:/temp/Job-10.odb,Step-1,Increment      1: Step Time =    1.000,"P-10-1",           490,       54.4086,       6.13566,            0.,NA,NA,"",   2.02264E+06,   2.00398E+06,   2.00398E+06
C:/temp/Job-10.odb,Step-1,Increment      1: Step Time =    1.000,"P-10-1",           491,       64.9763,       4.66407,            0.,NA,NA,"",   1.75054E+06,   1.73722E+06,   1.73722E+06
C:/temp/Job-10.odb,Step-1,Increment      1: Step Time =    1.000,"P-10-1",           492,       74.7373,       4.63508,            0.,NA,NA,"",   1.43229E+06,   1.41621E+06,   1.41621E+06
C:/temp/Job-10.odb,Step-1,Increment      1: Step Time =    1.000,"P-10-1",           493,       144.633,       4.88733,            0.,NA,NA,"",   780.297E+03,   773.367E+03,   773.367E+03
C:/temp/Job-10.odb,Step-1,Increment      1: Step Time =    1.000,"P-10-1",           494,       154.560,       5.26402,            0.,NA,NA,"",   897.298E+03,   889.771E+03,   889.771E+03
C:/temp/Job-10.odb,Step-1,Increment      1: Step Time =    1.000,"P-10-1",           495,       164.699,       5.77133,            0.,NA,NA,"",   965.003E+03,   959.010E+03,   959.010E+03
C:/temp/Job-10.odb,Step-1,Increment      1: Step Time =    1.000,"P-10-1",           496,       175.019,       5.75867,            0.,NA,NA,"",   987.939E+03,   985.165E+03,   985.165E+03
C:/temp/Job-10.odb,Step-1,Increment      1: Step Time =    1.000,"P-10-1",           497,       185.189,       5.10190,            0.,NA,NA,"",   990.117E+03,   990.215E+03,   990.215E+03
C:/temp/Job-10.odb,Step-1,Increment      1: Step Time =    1.000,"P-10-1",           498,       194.191,       54.3144,            0.,NA,NA,"",   984.593E+03,   1.11912E+06,   1.11912E+06
C:/temp/Job-10.odb,Step-1,Increment      1: Step Time =    1.000,"P-10-1",           499,       195.036,       64.6605,            0.,NA,NA,"",   1.08918E+06,   1.23074E+06,   1.23074E+06
C:/temp/Job-10.odb,Step-1,Increment      1: Step Time =    1.000,"P-10-1",           500,       195.001,       74.6172,            0.,NA,NA,"",   1.32405E+06,   1.52166E+06,   1.52166E+06
C:/temp/Job-10.odb,Step-1,Increment      1: Step Time =    1.000,"P-10-1",           501,       195.074,       4.88662,            0.,NA,NA,"",   998.835E+03,   997.380E+03,   997.380E+03
C:/temp/Job-10.odb,Step-1,Increment      1: Step Time =    1.000,"P-10-1",           502,       194.494,       14.6229,            0.,NA,NA,"",   1.00852E+06,   1.00477E+06,   1.00477E+06
C:/temp/Job-10.odb,Step-1,Increment      1: Step Time =    1.000,"P-10-1",           503,       194.078,       25.5530,            0.,NA,NA,"",   1.01001E+06,   1.01891E+06,   1.01891E+06
C:/temp/Job-10.odb,Step-1,Increment      1: Step Time =    1.000,"P-10-1",           504,       195.456,       35.3514,            0.,NA,NA,"",   977.741E+03,   1.02356E+06,   1.02356E+06
C:/temp/Job-10.odb,Step-1,Increment      1: Step Time =    1.000,"P-10-1",           505,       195.439,       44.7250,            0.,NA,NA,"",   939.897E+03,   1.04338E+06,   1.04338E+06
C:/temp/Job-10.odb,Step-1,Increment      1: Step Time =    1.000,"P-10-1",           506,       194.716,       94.9170,            0.,NA,NA,"",   1.69858E+06,   1.95790E+06,   1.95790E+06
C:/temp/Job-10.odb,Step-1,Increment      1: Step Time =    1.000,"P-10-1",           507,       195.503,       144.628,            0.,NA,NA,"",   952.019E+03,   1.08835E+06,   1.08835E+06
C:/temp/Job-10.odb,Step-1,Increment      1: Step Time =    1.000,"P-10-1",           508,       194.959,       154.536,            0.,NA,NA,"",   948.357E+03,   1.05380E+06,   1.05380E+06
C:/temp/Job-10.odb,Step-1,Increment      1: Step Time =    1.000,"P-10-1",           509,       145.387,       192.499,            0.,NA,NA,"",   892.630E+03,   877.874E+03,   877.874E+03
C:/temp/Job-10.odb,Step-1,Increment      1: Step Time =    1.000,"P-10-1",           510,       194.552,       164.706,            0.,NA,NA,"",   987.330E+03,   1.03433E+06,   1.03433E+06
C:/temp/Job-10.odb,Step-1,Increment      1: Step Time =    1.000,"P-10-1",           511,       155.832,       194.657,            0.,NA,NA,"",   908.171E+03,   900.988E+03,   900.988E+03
C:/temp/Job-10.odb,Step-1,Increment      1: Step Time =    1.000,"P-10-1",           512,       194.760,       174.814,            0.,NA,NA,"",   1.00944E+06,   1.01734E+06,   1.01734E+06
C:/temp/Job-10.odb,Step-1,Increment      1: Step Time =    1.000,"P-10-1",           513,       165.561,       195.268,            0.,NA,NA,"",   954.566E+03,   950.959E+03,   950.959E+03
C:/temp/Job-10.odb,Step-1,Increment      1: Step Time =    1.000,"P-10-1",           514,       194.898,       184.921,            0.,NA,NA,"",   1.01034E+06,   1.00616E+06,   1.00616E+06
C:/temp/Job-10.odb,Step-1,Increment      1: Step Time =    1.000,"P-10-1",           515,       175.313,       195.287,            0.,NA,NA,"",   977.305E+03,   976.083E+03,   976.083E+03
C:/temp/Job-10.odb,Step-1,Increment      1: Step Time =    1.000,"P-10-1",           516,       194.983,       194.999,            0.,NA,NA,"",   998.552E+03,   996.936E+03,   996.936E+03
C:/temp/Job-10.odb,Step-1,Increment      1: Step Time =    1.000,"P-10-1",           517,       185.079,       195.105,            0.,NA,NA,"",   987.645E+03,   987.783E+03,   987.783E+03
C:/temp/Job-10.odb,Step-1,Increment      1: Step Time =    1.000,"P-10-1",           518,       94.7748,       194.613,            0.,NA,NA,"",   796.201E+03,   792.402E+03,   792.402E+03
C:/temp/Job-10.odb,Step-1,Increment      1: Step Time =    1.000,"P-10-1",           519,       35.5914,       194.842,            0.,NA,NA,"",   2.29917E+06,   2.29268E+06,   2.29268E+06
C:/temp/Job-10.odb,Step-1,Increment      1: Step Time =    1.000,"P-10-1",           520,       25.4443,       194.535,            0.,NA,NA,"",   2.36075E+06,   2.36036E+06,   2.36036E+06
C:/temp/Job-10.odb,Step-1,Increment      1: Step Time =    1.000,"P-10-1",           521,       15.2859,       194.310,            0.,NA,NA,"",   2.43088E+06,   2.44541E+06,   2.44541E+06
C:/temp/Job-10.odb,Step-1,Increment      1: Step Time =    1.000,"P-10-1",           522,       5.08692,       194.819,            0.,NA,NA,"",   2.61497E+06,   2.72209E+06,   2.72209E+06
C:/temp/Job-10.odb,Step-1,Increment      1: Step Time =    1.000,"P-10-1",           523,       4.86696,       184.663,            0.,NA,NA,"",   1.92639E+06,   2.10053E+06,   2.10053E+06
C:/temp/Job-10.odb,Step-1,Increment      1: Step Time =    1.000,"P-10-1",           524,       4.48793,       174.598,            0.,NA,NA,"",   1.52732E+06,   1.68820E+06,   1.68820E+06
C:/temp/Job-10.odb,Step-1,Increment      1: Step Time =    1.000,"P-10-1",           525,       4.36175,       164.702,            0.,NA,NA,"",   1.20995E+06,   1.34284E+06,   1.34284E+06
C:/temp/Job-10.odb,Step-1,Increment      1: Step Time =    1.000,"P-10-1",           526,       4.47727,       154.915,            0.,NA,NA,"",   924.898E+03,   1.02555E+06,   1.02555E+06
C:/temp/Job-10.odb,Step-1,Increment      1: Step Time =    1.000,"P-10-1",           527,       4.61028,       145.050,            0.,NA,NA,"",   655.397E+03,   723.118E+03,   723.118E+03
C:/temp/Job-10.odb,Step-1,Increment      1: Step Time =    1.000,"P-10-1",           528,       4.72092,       135.206,            0.,NA,NA,"",   418.692E+03,   453.757E+03,   453.757E+03
C:/temp/Job-10.odb,Step-1,Increment      1: Step Time =    1.000,"P-10-1",           529,       4.93215,       125.232,            0.,NA,NA,"",   228.150E+03,   229.915E+03,   229.915E+03
C:/temp/Job-10.odb,Step-1,Increment      1: Step Time =    1.000,"P-10-1",           530,       5.07050,       105.158,            0.,NA,NA,"",   124.331E+03,  -110.927E+03,  -110.927E+03
C:/temp/Job-10.odb,Step-1,Increment      1: Step Time =    1.000,"P-10-1",           531,       4.62527,       65.1425,            0.,NA,NA,"",   412.734E+03,   446.962E+03,   446.962E+03
C:/temp/Job-10.odb,Step-1,Increment      1: Step Time =    1.000,"P-10-1",           532,       4.72834,       55.3158,            0.,NA,NA,"",   649.370E+03,   715.595E+03,   715.595E+03
C:/temp/Job-10.odb,Step-1,Increment      1: Step Time =    1.000,"P-10-1",           533,       190.115,       4.85785,            0.,NA,NA,"",   993.879E+03,   993.604E+03,   993.604E+03
C:/temp/Job-10.odb,Step-1,Increment      1: Step Time =    1.000,"P-10-1",           534,       180.176,       5.42807,            0.,NA,NA,"",   989.196E+03,   988.322E+03,   988.322E+03
C:/temp/Job-10.odb,Step-1,Increment      1: Step Time =    1.000,"P-10-1",           535,       169.835,       5.89776,            0.,NA,NA,"",   981.102E+03,   976.369E+03,   976.369E+03
C:/temp/Job-10.odb,Step-1,Increment      1: Step Time =    1.000,"P-10-1",           536,       159.588,       5.52155,            0.,NA,NA,"",   937.723E+03,   930.815E+03,   930.815E+03
C:/temp/Job-10.odb,Step-1,Increment      1: Step Time =    1.000,"P-10-1",           537,       149.573,       5.04958,            0.,NA,NA,"",   843.807E+03,   836.419E+03,   836.419E+03
C:/temp/Job-10.odb,Step-1,Increment      1: Step Time =    1.000,"P-10-1",           538,       139.699,       4.79185,            0.,NA,NA,"",   709.248E+03,   703.541E+03,   703.541E+03
C:/temp/Job-10.odb,Step-1,Increment      1: Step Time =    1.000,"P-10-1",           539,       129.798,       4.79323,            0.,NA,NA,"",   565.159E+03,   564.575E+03,   564.575E+03
C:/temp/Job-10.odb,Step-1,Increment      1: Step Time =    1.000,"P-10-1",           540,       119.800,       4.96912,            0.,NA,NA,"",   464.190E+03,   473.496E+03,   473.496E+03
C:/temp/Job-10.odb,Step-1,Increment      1: Step Time =    1.000,"P-10-1",           541,       109.746,       4.96252,            0.,NA,NA,"",   468.811E+03,   481.498E+03,   481.498E+03
C:/temp/Job-10.odb,Step-1,Increment      1: Step Time =    1.000,"P-10-1",           542,       99.6130,       4.90626,            0.,NA,NA,"",   640.181E+03,   642.035E+03,   642.035E+03
C:/temp/Job-10.odb,Step-1,Increment      1: Step Time =    1.000,"P-10-1",           543,       89.5317,       5.09080,            0.,NA,NA,"",   939.121E+03,   929.014E+03,   929.014E+03
C:/temp/Job-10.odb,Step-1,Increment      1: Step Time =    1.000,"P-10-1",           544,       79.6591,       4.86123,            0.,NA,NA,"",   1.26591E+06,   1.25016E+06,   1.25016E+06
C:/temp/Job-10.odb,Step-1,Increment      1: Step Time =    1.000,"P-10-1",           545,       69.8370,       4.52470,            0.,NA,NA,"",   1.59643E+06,   1.58090E+06,   1.58090E+06
C:/temp/Job-10.odb,Step-1,Increment      1: Step Time =    1.000,"P-10-1",           546,       59.9983,       5.12996,            0.,NA,NA,"",   1.89174E+06,   1.87846E+06,   1.87846E+06
C:/temp/Job-10.odb,Step-1,Increment      1: Step Time =    1.000,"P-10-1",           547,       49.3895,       4.43747,            0.,NA,NA,"",   2.13266E+06,   2.12149E+06,   2.12149E+06
C:/temp/Job-10.odb,Step-1,Increment      1: Step Time =    1.000,"P-10-1",           548,       39.8792,       4.53096,            0.,NA,NA,"",   2.26621E+06,    2.2614E+06,    2.2614E+06
C:/temp/Job-10.odb,Step-1,Increment      1: Step Time =    1.000,"P-10-1",           549,       29.9852,       4.73667,            0.,NA,NA,"",   2.34950E+06,   2.34612E+06,   2.34612E+06
C:/temp/Job-10.odb,Step-1,Increment      1: Step Time =    1.000,"P-10-1",           550,       20.0884,       4.95909,            0.,NA,NA,"",   2.41011E+06,   2.41343E+06,   2.41343E+06
C:/temp/Job-10.odb,Step-1,Increment      1: Step Time =    1.000,"P-10-1",           551,       10.0910,       5.06119,            0.,NA,NA,"",   2.53959E+06,   2.56388E+06,   2.56388E+06
C:/temp/Job-10.odb,Step-1,Increment      1: Step Time =    1.000,"P-10-1",           552,       194.951,       189.979,            0.,NA,NA,"",   1.00465E+06,   1.00112E+06,   1.00112E+06
C:/temp/Job-10.odb,Step-1,Increment      1: Step Time =    1.000,"P-10-1",           553,       194.827,       179.871,            0.,NA,NA,"",   1.01248E+06,   1.01143E+06,   1.01143E+06
C:/temp/Job-10.odb,Step-1,Increment      1: Step Time =    1.000,"P-10-1",           554,       194.653,       169.794,            0.,NA,NA,"",   1.00118E+06,   1.02498E+06,   1.02498E+06
C:/temp/Job-10.odb,Step-1,Increment      1: Step Time =    1.000,"P-10-1",           555,       194.497,       159.573,            0.,NA,NA,"",   969.265E+03,   1.04462E+06,   1.04462E+06
C:/temp/Job-10.odb,Step-1,Increment      1: Step Time =    1.000,"P-10-1",           556,       195.328,       149.536,            0.,NA,NA,"",   936.121E+03,   1.06524E+06,   1.06524E+06
C:/temp/Job-10.odb,Step-1,Increment      1: Step Time =    1.000,"P-10-1",           557,       195.540,       139.756,            0.,NA,NA,"",   1.00448E+06,   1.13561E+06,   1.13561E+06
C:/temp/Job-10.odb,Step-1,Increment      1: Step Time =    1.000,"P-10-1",           558,       195.364,       129.994,            0.,NA,NA,"",   1.20895E+06,   1.37706E+06,   1.37706E+06
C:/temp/Job-10.odb,Step-1,Increment      1: Step Time =    1.000,"P-10-1",           559,       195.025,       120.099,            0.,NA,NA,"",   1.46207E+06,   1.68656E+06,   1.68656E+06
C:/temp/Job-10.odb,Step-1,Increment      1: Step Time =    1.000,"P-10-1",           560,       194.911,       110.121,            0.,NA,NA,"",   1.66010E+06,   1.91488E+06,   1.91488E+06
C:/temp/Job-10.odb,Step-1,Increment      1: Step Time =    1.000,"P-10-1",           561,       194.825,       99.9755,            0.,NA,NA,"",   1.72731E+06,   1.99035E+06,   1.99035E+06
C:/temp/Job-10.odb,Step-1,Increment      1: Step Time =    1.000,"P-10-1",           562,       194.628,       89.8272,            0.,NA,NA,"",   1.63702E+06,   1.88826E+06,   1.88826E+06
C:/temp/Job-10.odb,Step-1,Increment      1: Step Time =    1.000,"P-10-1",           563,       194.818,       79.6744,            0.,NA,NA,"",   1.44595E+06,   1.66792E+06,   1.66792E+06
C:/temp/Job-10.odb,Step-1,Increment      1: Step Time =    1.000,"P-10-1",           564,       195.081,       69.6129,            0.,NA,NA,"",   1.19979E+06,   1.36694E+06,   1.36694E+06
C:/temp/Job-10.odb,Step-1,Increment      1: Step Time =    1.000,"P-10-1",           565,       194.814,       59.6777,            0.,NA,NA,"",   1.01139E+06,   1.14625E+06,   1.14625E+06
C:/temp/Job-10.odb,Step-1,Increment      1: Step Time =    1.000,"P-10-1",           566,       195.157,       49.3741,            0.,NA,NA,"",   944.323E+03,   1.06906E+06,   1.06906E+06
C:/temp/Job-10.odb,Step-1,Increment      1: Step Time =    1.000,"P-10-1",           567,       195.565,       40.0904,            0.,NA,NA,"",   956.151E+03,   1.03059E+06,   1.03059E+06
C:/temp/Job-10.odb,Step-1,Increment      1: Step Time =    1.000,"P-10-1",           568,       194.998,       30.5208,            0.,NA,NA,"",   996.478E+03,   1.01977E+06,   1.01977E+06
C:/temp/Job-10.odb,Step-1,Increment      1: Step Time =    1.000,"P-10-1",           569,       192.502,       19.9040,            0.,NA,NA,"",   1.01660E+06,   1.01811E+06,   1.01811E+06
C:/temp/Job-10.odb,Step-1,Increment      1: Step Time =    1.000,"P-10-1",           570,       195.041,       9.71097,            0.,NA,NA,"",   1.00375E+06,   1.00023E+06,   1.00023E+06
C:/temp/Job-10.odb,Step-1,Increment      1: Step Time =    1.000,"P-10-1",           571,       10.1509,       194.589,            0.,NA,NA,"",   2.52686E+06,   2.55439E+06,   2.55439E+06
C:/temp/Job-10.odb,Step-1,Increment      1: Step Time =    1.000,"P-10-1",           572,       20.3990,       194.146,            0.,NA,NA,"",   2.38827E+06,   2.39266E+06,   2.39266E+06
C:/temp/Job-10.odb,Step-1,Increment      1: Step Time =    1.000,"P-10-1",           573,       30.5312,       194.837,            0.,NA,NA,"",   2.33613E+06,   2.33270E+06,   2.33270E+06
C:/temp/Job-10.odb,Step-1,Increment      1: Step Time =    1.000,"P-10-1",           574,       40.5227,       194.814,            0.,NA,NA,"",   2.25175E+06,   2.24293E+06,   2.24293E+06
C:/temp/Job-10.odb,Step-1,Increment      1: Step Time =    1.000,"P-10-1",           575,       50.2714,       195.453,            0.,NA,NA,"",   2.11351E+06,   2.10415E+06,   2.10415E+06
C:/temp/Job-10.odb,Step-1,Increment      1: Step Time =    1.000,"P-10-1",           576,       59.9941,       195.316,            0.,NA,NA,"",   1.89612E+06,   1.88173E+06,   1.88173E+06
C:/temp/Job-10.odb,Step-1,Increment      1: Step Time =    1.000,"P-10-1",           577,       69.8726,       195.097,            0.,NA,NA,"",   1.60624E+06,   1.58853E+06,   1.58853E+06
C:/temp/Job-10.odb,Step-1,Increment      1: Step Time =    1.000,"P-10-1",           578,       79.7727,       194.938,            0.,NA,NA,"",   1.27387E+06,   1.25703E+06,   1.25703E+06
C:/temp/Job-10.odb,Step-1,Increment      1: Step Time =    1.000,"P-10-1",           579,       89.7643,       194.721,            0.,NA,NA,"",   943.947E+03,   933.928E+03,   933.928E+03
C:/temp/Job-10.odb,Step-1,Increment      1: Step Time =    1.000,"P-10-1",           580,       99.8301,       194.544,            0.,NA,NA,"",   665.151E+03,   669.366E+03,   669.366E+03
C:/temp/Job-10.odb,Step-1,Increment      1: Step Time =    1.000,"P-10-1",           581,       109.972,       194.622,            0.,NA,NA,"",   493.395E+03,   507.669E+03,   507.669E+03
C:/temp/Job-10.odb,Step-1,Increment      1: Step Time =    1.000,"P-10-1",           582,       119.956,       194.963,            0.,NA,NA,"",   470.673E+03,   479.923E+03,   479.923E+03
C:/temp/Job-10.odb,Step-1,Increment      1: Step Time =    1.000,"P-10-1",           583,       129.705,       195.115,            0.,NA,NA,"",   569.809E+03,   570.496E+03,   570.496E+03
C:/temp/Job-10.odb,Step-1,Increment      1: Step Time =    1.000,"P-10-1",           584,       139.644,       194.092,            0.,NA,NA,"",   751.321E+03,   745.331E+03,   745.331E+03
C:/temp/Job-10.odb,Step-1,Increment      1: Step Time =    1.000,"P-10-1",           585,       150.894,       193.909,            0.,NA,NA,"",    887.48E+03,   875.508E+03,   875.508E+03
C:/temp/Job-10.odb,Step-1,Increment      1: Step Time =    1.000,"P-10-1",           586,       160.687,       195.068,            0.,NA,NA,"",   933.960E+03,   929.113E+03,   929.113E+03
C:/temp/Job-10.odb,Step-1,Increment      1: Step Time =    1.000,"P-10-1",           587,       170.433,       195.331,            0.,NA,NA,"",   968.603E+03,   966.261E+03,   966.261E+03
C:/temp/Job-10.odb,Step-1,Increment      1: Step Time =    1.000,"P-10-1",           588,       180.188,       195.209,            0.,NA,NA,"",   982.935E+03,   982.647E+03,   982.647E+03
C:/temp/Job-10.odb,Step-1,Increment      1: Step Time =    1.000,"P-10-1",           589,       190.011,       195.042,            0.,NA,NA,"",   992.979E+03,   992.663E+03,   992.663E+03
C:/temp/Job-10.odb,Step-1,Increment      1: Step Time =    1.000,"P-10-1",           590,       5.19007,       15.1228,            0.,NA,NA,"",   1.94222E+06,   2.11223E+06,   2.11223E+06
C:/temp/Job-10.odb,Step-1,Increment      1: Step Time =    1.000,"P-10-1",           591,       5.45952,       25.3250,            0.,NA,NA,"",   1.54716E+06,   1.70061E+06,   1.70061E+06
C:/temp/Job-10.odb,Step-1,Increment      1: Step Time =    1.000,"P-10-1",           592,       5.07989,       40.5663,            0.,NA,NA,"",   1.06043E+06,   1.17285E+06,   1.17285E+06
C:/temp/Job-10.odb,Step-1,Increment      1: Step Time =    1.000,"P-10-1",           593,       4.82249,       50.3937,            0.,NA,NA,"",   780.598E+03,   862.693E+03,   862.693E+03
C:/temp/Job-10.odb,Step-1,Increment      1: Step Time =    1.000,"P-10-1",           594,       4.65390,       60.2302,            0.,NA,NA,"",   525.759E+03,   576.025E+03,   576.025E+03
C:/temp/Job-10.odb,Step-1,Increment      1: Step Time =    1.000,"P-10-1",           595,       4.64907,       70.0614,            0.,NA,NA,"",   312.373E+03,   330.172E+03,   330.172E+03
C:/temp/Job-10.odb,Step-1,Increment      1: Step Time =    1.000,"P-10-1",           596,       4.88030,       80.0112,            0.,NA,NA,"",   166.667E+03,   145.301E+03,   145.301E+03
C:/temp/Job-10.odb,Step-1,Increment      1: Step Time =    1.000,"P-10-1",           597,       5.00061,       90.0423,            0.,NA,NA,"",   124.677E+03,  -95.0647E+03,  -95.0647E+03
C:/temp/Job-10.odb,Step-1,Increment      1: Step Time =    1.000,"P-10-1",           598,       5.01803,       100.151,            0.,NA,NA,"",   126.394E+03,  -118.134E+03,  -118.134E+03
C:/temp/Job-10.odb,Step-1,Increment      1: Step Time =    1.000,"P-10-1",           599,       5.08032,       110.203,            0.,NA,NA,"",   123.883E+03,  -92.6221E+03,  -92.6221E+03
C:/temp/Job-10.odb,Step-1,Increment      1: Step Time =    1.000,"P-10-1",           600,       5.04701,       120.204,            0.,NA,NA,"",   165.471E+03,   146.776E+03,   146.776E+03
C:/temp/Job-10.odb,Step-1,Increment      1: Step Time =    1.000,"P-10-1",           601,       4.79353,       130.242,            0.,NA,NA,"",   315.483E+03,   334.302E+03,   334.302E+03
C:/temp/Job-10.odb,Step-1,Increment      1: Step Time =    1.000,"P-10-1",           602,       4.66257,       140.131,            0.,NA,NA,"",   532.235E+03,   583.618E+03,   583.618E+03
C:/temp/Job-10.odb,Step-1,Increment      1: Step Time =    1.000,"P-10-1",           603,       4.54260,       149.983,            0.,NA,NA,"",   787.825E+03,   871.964E+03,   871.964E+03
C:/temp/Job-10.odb,Step-1,Increment      1: Step Time =    1.000,"P-10-1",           604,       4.40300,       159.819,            0.,NA,NA,"",   1.06572E+06,   1.18270E+06,   1.18270E+06
C:/temp/Job-10.odb,Step-1,Increment      1: Step Time =    1.000,"P-10-1",           605,       4.37674,       169.631,            0.,NA,NA,"",   1.36389E+06,   1.51144E+06,   1.51144E+06
C:/temp/Job-10.odb,Step-1,Increment      1: Step Time =    1.000,"P-10-1",           606,       4.65561,       179.611,            0.,NA,NA,"",   1.71483E+06,   1.88512E+06,   1.88512E+06
C:/temp/Job-10.odb,Step-1,Increment      1: Step Time =    1.000,"P-10-1",           607,       5.02333,       189.717,            0.,NA,NA,"",   2.21393E+06,   2.37576E+06,   2.37576E+06
C:/temp/Job-10.odb,Step-1,Increment      1: Step Time =    1.000,"P-10-1",           608,       74.1411,       149.889,            0.,NA,NA,"",   1.87712E+06,   1.87417E+06,   1.87417E+06
C:/temp/Job-10.odb,Step-1,Increment      1: Step Time =    1.000,"P-10-1",           609,       59.5442,       141.695,            0.,NA,NA,"",   773.295E+03,   503.906E+03,   503.906E+03
C:/temp/Job-10.odb,Step-1,Increment      1: Step Time =    1.000,"P-10-1",           610,       42.7700,       96.6742,            0.,NA,NA,"",   684.234E+03,  -721.637E+03,  -721.637E+03
C:/temp/Job-10.odb,Step-1,Increment      1: Step Time =    1.000,"P-10-1",           611,       58.4571,       61.6341,            0.,NA,NA,"",   546.324E+03,   8.46730E+03,   8.46730E+03
C:/temp/Job-10.odb,Step-1,Increment      1: Step Time =    1.000,"P-10-1",           612,       47.6785,       79.4236,            0.,NA,NA,"",   742.093E+03,  -757.641E+03,  -757.641E+03
C:/temp/Job-10.odb,Step-1,Increment      1: Step Time =    1.000,"P-10-1",           613,       50.3163,       127.586,            0.,NA,NA,"",   645.783E+03,  -639.714E+03,  -639.714E+03
C:/temp/Job-10.odb,Step-1,Increment      1: Step Time =    1.000,"P-10-1",           614,       50.0075,       74.8218,            0.,NA,NA,"",   710.879E+03,  -716.517E+03,  -716.517E+03
C:/temp/Job-10.odb,Step-1,Increment      1: Step Time =    1.000,"P-10-1",           615,       55.2550,       65.8285,            0.,NA,NA,"",   559.216E+03,  -469.043E+03,  -469.043E+03
C:/temp/Job-10.odb,Step-1,Increment      1: Step Time =    1.000,"P-10-1",           616,       62.3456,       58.0099,            0.,NA,NA,"",   720.032E+03,   601.651E+03,   601.651E+03
C:/temp/Job-10.odb,Step-1,Increment      1: Step Time =    1.000,"P-10-1",           617,       53.4331,       132.002,            0.,NA,NA,"",   584.620E+03,  -535.774E+03,  -535.774E+03
C:/temp/Job-10.odb,Step-1,Increment      1: Step Time =    1.000,"P-10-1",           618,       46.5591,       122.302,            0.,NA,NA,"",   636.694E+03,  -653.993E+03,  -653.993E+03
C:/temp/Job-10.odb,Step-1,Increment      1: Step Time =    1.000,"P-10-1",           619,       66.3422,       54.1678,            0.,NA,NA,"",   1.13874E+06,   1.07362E+06,   1.07362E+06
C:/temp/Job-10.odb,Step-1,Increment      1: Step Time =    1.000,"P-10-1",           620,       46.1817,       116.207,            0.,NA,NA,"",   757.018E+03,  -780.838E+03,  -780.838E+03
C:/temp/Job-10.odb,Step-1,Increment      1: Step Time =    1.000,"P-10-1",           621,       45.2041,       84.2392,            0.,NA,NA,"",   712.764E+03,  -738.641E+03,  -738.641E+03
C:/temp/Job-10.odb,Step-1,Increment      1: Step Time =    1.000,"P-10-1",           622,       69.5042,       147.401,            0.,NA,NA,"",   1.39764E+06,   1.35736E+06,   1.35736E+06
C:/temp/Job-10.odb,Step-1,Increment      1: Step Time =    1.000,"P-10-1",           623,       146.689,       131.954,            0.,NA,NA,"",   1.06068E+06,   879.070E+03,   879.070E+03
C:/temp/Job-10.odb,Step-1,Increment      1: Step Time =    1.000,"P-10-1",           624,       89.2305,       155.872,            0.,NA,NA,"",   3.30720E+06,   3.38901E+06,   3.38901E+06
C:/temp/Job-10.odb,Step-1,Increment      1: Step Time =    1.000,"P-10-1",           625,       64.8376,       144.708,            0.,NA,NA,"",   1.00294E+06,   910.480E+03,   910.480E+03
C:/temp/Job-10.odb,Step-1,Increment      1: Step Time =    1.000,"P-10-1",           626,       52.4775,       70.2900,            0.,NA,NA,"",   634.994E+03,  -615.797E+03,  -615.797E+03
C:/temp/Job-10.odb,Step-1,Increment      1: Step Time =    1.000,"P-10-1",           627,       144.528,       66.0755,            0.,NA,NA,"",   1.17101E+06,   1.07069E+06,   1.07069E+06
C:/temp/Job-10.odb,Step-1,Increment      1: Step Time =    1.000,"P-10-1",           628,       125.003,       150.971,            0.,NA,NA,"",   3.35857E+06,   3.44716E+06,   3.44716E+06
C:/temp/Job-10.odb,Step-1,Increment      1: Step Time =    1.000,"P-10-1",           629,       56.4425,       136.365,            0.,NA,NA,"",   548.547E+03,  -175.540E+03,  -175.540E+03
C:/temp/Job-10.odb,Step-1,Increment      1: Step Time =    1.000,"P-10-1",           630,       83.9207,       154.557,            0.,NA,NA,"",   2.88581E+06,   2.94061E+06,   2.94061E+06
C:/temp/Job-10.odb,Step-1,Increment      1: Step Time =    1.000,"P-10-1",           631,       82.0403,       46.5623,            0.,NA,NA,"",   2.72475E+06,   2.76257E+06,   2.76257E+06
C:/temp/Job-10.odb,Step-1,Increment      1: Step Time =    1.000,"P-10-1",           632,       129.100,       150.341,            0.,NA,NA,"",   2.93429E+06,   3.01592E+06,   3.01592E+06
C:/temp/Job-10.odb,Step-1,Increment      1: Step Time =    1.000,"P-10-1",           633,       147.444,       70.3909,            0.,NA,NA,"",   869.321E+03,   488.401E+03,   488.401E+03
C:/temp/Job-10.odb,Step-1,Increment      1: Step Time =    1.000,"P-10-1",           634,       123.569,       49.1278,            0.,NA,NA,"",   3.55634E+06,   3.63706E+06,   3.63706E+06
C:/temp/Job-10.odb,Step-1,Increment      1: Step Time =    1.000,"P-10-1",           635,       134.588,       52.5640,            0.,NA,NA,"",   2.53693E+06,   2.57604E+06,   2.57604E+06
C:/temp/Job-10.odb,Step-1,Increment      1: Step Time =    1.000,"P-10-1",           636,       157.054,       100.521,            0.,NA,NA,"",   1.72643E+06,  -1.75913E+06,  -1.75913E+06
C:/temp/Job-10.odb,Step-1,Increment      1: Step Time =    1.000,"P-10-1",           637,       118.839,       47.3607,            0.,NA,NA,"",   3.87316E+06,   3.96755E+06,   3.96755E+06
C:/temp/Job-10.odb,Step-1,Increment      1: Step Time =    1.000,"P-10-1",           638,       155.800,       112.506,            0.,NA,NA,"",   1.48577E+06,  -1.46328E+06,  -1.46328E+06
C:/temp/Job-10.odb,Step-1,Increment      1: Step Time =    1.000,"P-10-1",           639,       140.245,       139.876,            0.,NA,NA,"",   1.86999E+06,   1.83574E+06,   1.83574E+06
C:/temp/Job-10.odb,Step-1,Increment      1: Step Time =    1.000,"P-10-1",           640,       78.9284,       152.262,            0.,NA,NA,"",   2.39600E+06,   2.42268E+06,   2.42268E+06
C:/temp/Job-10.odb,Step-1,Increment      1: Step Time =    1.000,"P-10-1",           641,       110.830,       155.594,            0.,NA,NA,"",   4.01778E+06,   4.14688E+06,   4.14688E+06
C:/temp/Job-10.odb,Step-1,Increment      1: Step Time =    1.000,"P-10-1",           642,       151.972,       122.741,            0.,NA,NA,"",   1.05062E+06,  -851.964E+03,  -851.964E+03
C:/temp/Job-10.odb,Step-1,Increment      1: Step Time =    1.000,"P-10-1",           643,       138.277,       57.5374,            0.,NA,NA,"",   2.12789E+06,   2.12983E+06,   2.12983E+06
C:/temp/Job-10.odb,Step-1,Increment      1: Step Time =    1.000,"P-10-1",           644,       152.691,       79.6789,            0.,NA,NA,"",   1.16610E+06,  -1.04503E+06,  -1.04503E+06
C:/temp/Job-10.odb,Step-1,Increment      1: Step Time =    1.000,"P-10-1",           645,       155.357,       90.1145,            0.,NA,NA,"",   1.66889E+06,  -1.67622E+06,  -1.67622E+06
C:/temp/Job-10.odb,Step-1,Increment      1: Step Time =    1.000,"P-10-1",           646,       114.186,       45.1922,            0.,NA,NA,"",   3.95663E+06,   4.07885E+06,   4.07885E+06
C:/temp/Job-10.odb,Step-1,Increment      1: Step Time =    1.000,"P-10-1",           647,       115.803,       154.053,            0.,NA,NA,"",   3.93838E+06,   4.05709E+06,   4.05709E+06
C:/temp/Job-10.odb,Step-1,Increment      1: Step Time =    1.000,"P-10-1",           648,       135.026,       147.152,            0.,NA,NA,"",   2.49565E+06,   2.53396E+06,   2.53396E+06
C:/temp/Job-10.odb,Step-1,Increment      1: Step Time =    1.000,"P-10-1",           649,       70.7670,       49.4325,            0.,NA,NA,"",   1.72646E+06,   1.67788E+06,   1.67788E+06
C:/temp/Job-10.odb,Step-1,Increment      1: Step Time =    1.000,"P-10-1",           650,       102.771,       42.8746,            0.,NA,NA,"",   3.90669E+06,   4.04248E+06,   4.04248E+06
C:/temp/Job-10.odb,Step-1,Increment      1: Step Time =    1.000,"P-10-1",           651,       149.735,       127.590,            0.,NA,NA,"",   932.252E+03,  -4.30110E+03,  -4.30110E+03
C:/temp/Job-10.odb,Step-1,Increment      1: Step Time =    1.000,"P-10-1",           652,       154.265,       84.8966,            0.,NA,NA,"",   1.43673E+06,  -1.39711E+06,  -1.39711E+06
C:/temp/Job-10.odb,Step-1,Increment      1: Step Time =    1.000,"P-10-1",           653,       76.8266,       47.9307,            0.,NA,NA,"",   2.21807E+06,   2.22003E+06,   2.22003E+06
C:/temp/Job-10.odb,Step-1,Increment      1: Step Time =    1.000,"P-10-1",           654,       92.1991,       44.3012,            0.,NA,NA,"",   3.58285E+06,   3.67184E+06,   3.67184E+06
C:/temp/Job-10.odb,Step-1,Increment      1: Step Time =    1.000,"P-10-1",           655,       87.1129,       45.3233,            0.,NA,NA,"",   3.19807E+06,   3.26502E+06,   3.26502E+06
C:/temp/Job-10.odb,Step-1,Increment      1: Step Time =    1.000,"P-10-1",           656,       128.572,       50.7606,            0.,NA,NA,"",   3.09591E+06,   3.16521E+06,   3.16521E+06
C:/temp/Job-10.odb,Step-1,Increment      1: Step Time =    1.000,"P-10-1",           657,       153.896,       117.715,            0.,NA,NA,"",   1.28879E+06,  -1.20430E+06,  -1.20430E+06
C:/temp/Job-10.odb,Step-1,Increment      1: Step Time =    1.000,"P-10-1",           658,       150.212,       74.8949,            0.,NA,NA,"",   909.459E+03,  -348.902E+03,  -348.902E+03
C:/temp/Job-10.odb,Step-1,Increment      1: Step Time =    1.000,"P-10-1",           659,       120.524,       152.432,            0.,NA,NA,"",   3.71106E+06,   3.81311E+06,   3.81311E+06
C:/temp/Job-10.odb,Step-1,Increment      1: Step Time =    1.000,"P-10-1",           660,       137.303,       143.595,            0.,NA,NA,"",   2.28463E+06,   2.28591E+06,   2.28591E+06
C:/temp/Job-10.odb,Step-1,Increment      1: Step Time =    1.000,"P-10-1",           661,       141.466,       61.8380,            0.,NA,NA,"",   1.64546E+06,   1.60409E+06,   1.60409E+06
C:/temp/Job-10.odb,Step-1,Increment      1: Step Time =    1.000,"P-10-1",           662,       143.449,       136.033,            0.,NA,NA,"",   1.41966E+06,   1.33753E+06,   1.33753E+06
C:/temp/Job-10.odb,Step-1,Increment      1: Step Time =    1.000,"P-10-1",           663,       41.9384,       109.807,            0.,NA,NA,"",   604.534E+03,  -640.869E+03,  -640.869E+03
C:/temp/Job-10.odb,Step-1,Increment      1: Step Time =    1.000,"P-10-1",           664,       88.5285,       160.947,            0.,NA,NA,"",   2.79349E+06,   2.88354E+06,   2.88354E+06
C:/temp/Job-10.odb,Step-1,Increment      1: Step Time =    1.000,"P-10-1",           665,       112.146,       160.282,            0.,NA,NA,"",   3.10732E+06,   3.29080E+06,   3.29080E+06
C:/temp/Job-10.odb,Step-1,Increment      1: Step Time =    1.000,"P-10-1",           666,       120.608,       43.9935,            0.,NA,NA,"",   3.21334E+06,   3.35394E+06,   3.35394E+06
C:/temp/Job-10.odb,Step-1,Increment      1: Step Time =    1.000,"P-10-1",           667,       133.679,       151.949,            0.,NA,NA,"",   2.51248E+06,   2.57126E+06,   2.57126E+06
C:/temp/Job-10.odb,Step-1,Increment      1: Step Time =    1.000,"P-10-1",           668,       145.200,       59.4642,            0.,NA,NA,"",   1.84662E+06,   1.69974E+06,   1.69974E+06
C:/temp/Job-10.odb,Step-1,Increment      1: Step Time =    1.000,"P-10-1",           669,       157.384,       77.3568,            0.,NA,NA,"",   1.28898E+06,  -185.545E+03,  -185.545E+03
C:/temp/Job-10.odb,Step-1,Increment      1: Step Time =    1.000,"P-10-1",           670,       44.1037,       76.8178,            0.,NA,NA,"",   500.566E+03,  -509.431E+03,  -509.431E+03
C:/temp/Job-10.odb,Step-1,Increment      1: Step Time =    1.000,"P-10-1",           671,       159.590,       88.9101,            0.,NA,NA,"",   1.17335E+06,  -1.10563E+06,  -1.10563E+06
C:/temp/Job-10.odb,Step-1,Increment      1: Step Time =    1.000,"P-10-1",           672,       161.930,       98.6639,            0.,NA,NA,"",   974.101E+03,  -973.404E+03,  -973.404E+03
C:/temp/Job-10.odb,Step-1,Increment      1: Step Time =    1.000,"P-10-1",           673,       38.0197,       97.5579,            0.,NA,NA,"",   441.312E+03,  -490.718E+03,  -490.718E+03
C:/temp/Job-10.odb,Step-1,Increment      1: Step Time =    1.000,"P-10-1",           674,       48.7787,       67.9880,            0.,NA,NA,"",   531.736E+03,  -435.904E+03,  -435.904E+03
C:/temp/Job-10.odb,Step-1,Increment      1: Step Time =    1.000,"P-10-1",           675,       150.746,       68.0477,            0.,NA,NA,"",   1.38245E+06,   1.03169E+06,   1.03169E+06
C:/temp/Job-10.odb,Step-1,Increment      1: Step Time =    1.000,"P-10-1",           676,       139.310,       9.58030,            0.,NA,NA,"",   934.402E+03,   922.531E+03,   922.531E+03
C:/temp/Job-10.odb,Step-1,Increment      1: Step Time =    1.000,"P-10-1",           677,       129.606,       9.53599,            0.,NA,NA,"",   846.716E+03,   850.917E+03,   850.917E+03
C:/temp/Job-10.odb,Step-1,Increment      1: Step Time =    1.000,"P-10-1",           678,       109.413,       9.84790,            0.,NA,NA,"",   831.089E+03,   865.354E+03,   865.354E+03
C:/temp/Job-10.odb,Step-1,Increment      1: Step Time =    1.000,"P-10-1",           679,       69.6356,       8.90647,            0.,NA,NA,"",   1.72728E+06,   1.68722E+06,   1.68722E+06
C:/temp/Job-10.odb,Step-1,Increment      1: Step Time =    1.000,"P-10-1",           680,       60.7927,       9.74575,            0.,NA,NA,"",   1.91617E+06,   1.87636E+06,   1.87636E+06
C:/temp/Job-10.odb,Step-1,Increment      1: Step Time =    1.000,"P-10-1",           681,       191.064,       139.505,            0.,NA,NA,"",     1.106E+06,   1.25197E+06,   1.25197E+06
C:/temp/Job-10.odb,Step-1,Increment      1: Step Time =    1.000,"P-10-1",           682,       190.697,       130.113,            0.,NA,NA,"",   1.20484E+06,   1.37593E+06,   1.37593E+06
C:/temp/Job-10.odb,Step-1,Increment      1: Step Time =    1.000,"P-10-1",           683,       189.910,       110.203,            0.,NA,NA,"",   1.30175E+06,   1.50165E+06,   1.50165E+06
C:/temp/Job-10.odb,Step-1,Increment      1: Step Time =    1.000,"P-10-1",           684,       189.242,       89.7228,            0.,NA,NA,"",   1.27088E+06,   1.46542E+06,   1.46542E+06
C:/temp/Job-10.odb,Step-1,Increment      1: Step Time =    1.000,"P-10-1",           685,       190.250,       69.1986,            0.,NA,NA,"",   1.20455E+06,   1.37024E+06,   1.37024E+06
C:/temp/Job-10.odb,Step-1,Increment      1: Step Time =    1.000,"P-10-1",           686,       189.946,       59.7077,            0.,NA,NA,"",   1.13357E+06,   1.26691E+06,   1.26691E+06
C:/temp/Job-10.odb,Step-1,Increment      1: Step Time =    1.000,"P-10-1",           687,       59.8523,       190.565,            0.,NA,NA,"",   1.93408E+06,   1.89428E+06,   1.89428E+06
C:/temp/Job-10.odb,Step-1,Increment      1: Step Time =    1.000,"P-10-1",           688,       99.6170,       189.083,            0.,NA,NA,"",   1.06587E+06,   1.08484E+06,   1.08484E+06
C:/temp/Job-10.odb,Step-1,Increment      1: Step Time =    1.000,"P-10-1",           689,       110.042,       189.195,            0.,NA,NA,"",   877.747E+03,   917.048E+03,   917.048E+03
C:/temp/Job-10.odb,Step-1,Increment      1: Step Time =    1.000,"P-10-1",           690,       120.105,       189.852,            0.,NA,NA,"",   813.527E+03,   840.229E+03,   840.229E+03
C:/temp/Job-10.odb,Step-1,Increment      1: Step Time =    1.000,"P-10-1",           691,       9.36225,       60.5169,            0.,NA,NA,"",   515.809E+03,   560.809E+03,   560.809E+03
C:/temp/Job-10.odb,Step-1,Increment      1: Step Time =    1.000,"P-10-1",           692,       9.27726,       70.0865,            0.,NA,NA,"",   287.196E+03,   309.061E+03,   309.061E+03
C:/temp/Job-10.odb,Step-1,Increment      1: Step Time =    1.000,"P-10-1",           693,       9.74291,       79.9068,            0.,NA,NA,"",   143.769E+03,   128.925E+03,   128.925E+03
C:/temp/Job-10.odb,Step-1,Increment      1: Step Time =    1.000,"P-10-1",           694,       9.93576,       90.1363,            0.,NA,NA,"",   137.885E+03,  -105.434E+03,  -105.434E+03
C:/temp/Job-10.odb,Step-1,Increment      1: Step Time =    1.000,"P-10-1",           695,       10.1597,       110.557,            0.,NA,NA,"",   135.304E+03,  -100.983E+03,  -100.983E+03
C:/temp/Job-10.odb,Step-1,Increment      1: Step Time =    1.000,"P-10-1",           696,       9.48505,       130.551,            0.,NA,NA,"",   298.113E+03,   321.080E+03,   321.080E+03
C:/temp/Job-10.odb,Step-1,Increment      1: Step Time =    1.000,"P-10-1",           697,       9.37391,       140.266,            0.,NA,NA,"",   533.702E+03,   580.885E+03,   580.885E+03
C:/temp/Job-10.odb,Step-1,Increment      1: Step Time =    1.000,"P-10-1",           698,       119.657,       9.90075,            0.,NA,NA,"",   801.344E+03,   828.003E+03,   828.003E+03
C:/temp/Job-10.odb,Step-1,Increment      1: Step Time =    1.000,"P-10-1",           699,       99.2732,       9.70168,            0.,NA,NA,"",   1.00040E+06,   1.01151E+06,   1.01151E+06
C:/temp/Job-10.odb,Step-1,Increment      1: Step Time =    1.000,"P-10-1",           700,       89.0815,       10.2911,            0.,NA,NA,"",   1.29414E+06,   1.27535E+06,   1.27535E+06
C:/temp/Job-10.odb,Step-1,Increment      1: Step Time =    1.000,"P-10-1",           701,       79.0420,       9.78739,            0.,NA,NA,"",   1.53556E+06,   1.49620E+06,   1.49620E+06
C:/temp/Job-10.odb,Step-1,Increment      1: Step Time =    1.000,"P-10-1",           702,       189.969,       120.328,            0.,NA,NA,"",   1.27947E+06,   1.47024E+06,   1.47024E+06
C:/temp/Job-10.odb,Step-1,Increment      1: Step Time =    1.000,"P-10-1",           703,       189.758,       100.039,            0.,NA,NA,"",   1.29830E+06,   1.49111E+06,   1.49111E+06
C:/temp/Job-10.odb,Step-1,Increment      1: Step Time =    1.000,"P-10-1",           704,       189.734,       79.1805,            0.,NA,NA,"",   1.26846E+06,   1.45646E+06,   1.45646E+06
C:/temp/Job-10.odb,Step-1,Increment      1: Step Time =    1.000,"P-10-1",           705,       69.6773,       190.126,            0.,NA,NA,"",   1.75360E+06,   1.70759E+06,   1.70759E+06
C:/temp/Job-10.odb,Step-1,Increment      1: Step Time =    1.000,"P-10-1",           706,       79.4689,       189.892,            0.,NA,NA,"",   1.54003E+06,   1.49944E+06,   1.49944E+06
C:/temp/Job-10.odb,Step-1,Increment      1: Step Time =    1.000,"P-10-1",           707,       89.4083,       189.413,            0.,NA,NA,"",   1.30328E+06,   1.28537E+06,   1.28537E+06
C:/temp/Job-10.odb,Step-1,Increment      1: Step Time =    1.000,"P-10-1",           708,       129.372,       190.387,            0.,NA,NA,"",   850.005E+03,   855.798E+03,   855.798E+03
C:/temp/Job-10.odb,Step-1,Increment      1: Step Time =    1.000,"P-10-1",           709,       138.264,       189.107,            0.,NA,NA,"",   985.226E+03,   975.155E+03,   975.155E+03
C:/temp/Job-10.odb,Step-1,Increment      1: Step Time =    1.000,"P-10-1",           710,       10.0268,       100.305,            0.,NA,NA,"",   157.010E+03,  -138.249E+03,  -138.249E+03
C:/temp/Job-10.odb,Step-1,Increment      1: Step Time =    1.000,"P-10-1",           711,       10.0962,       120.528,            0.,NA,NA,"",   141.375E+03,   131.501E+03,   131.501E+03
C:/temp/Job-10.odb,Step-1,Increment      1: Step Time =    1.000,"P-10-1",           712,       100.113,       156.968,            0.,NA,NA,"",   3.86784E+06,   3.99108E+06,   3.99108E+06
C:/temp/Job-10.odb,Step-1,Increment      1: Step Time =    1.000,"P-10-1",           713,       160.215,       114.594,            0.,NA,NA,"",   1.15908E+06,  -968.553E+03,  -968.553E+03
C:/temp/Job-10.odb,Step-1,Increment      1: Step Time =    1.000,"P-10-1",           714,       58.4113,       147.648,            0.,NA,NA,"",   1.31170E+06,   1.10994E+06,   1.10994E+06
C:/temp/Job-10.odb,Step-1,Increment      1: Step Time =    1.000,"P-10-1",           715,       141.932,       146.113,            0.,NA,NA,"",   2.13563E+06,   2.05997E+06,   2.05997E+06
C:/temp/Job-10.odb,Step-1,Increment      1: Step Time =    1.000,"P-10-1",           716,       102.042,       37.8897,            0.,NA,NA,"",   3.02424E+06,   3.20168E+06,   3.20168E+06
C:/temp/Job-10.odb,Step-1,Increment      1: Step Time =    1.000,"P-10-1",           717,       67.7768,       151.596,            0.,NA,NA,"",   1.72383E+06,   1.61520E+06,   1.61520E+06
C:/temp/Job-10.odb,Step-1,Increment      1: Step Time =    1.000,"P-10-1",           718,       54.2910,       58.0005,            0.,NA,NA,"",   916.077E+03,   538.044E+03,   538.044E+03
C:/temp/Job-10.odb,Step-1,Increment      1: Step Time =    1.000,"P-10-1",           719,       46.4239,       72.4774,            0.,NA,NA,"",   508.256E+03,  -484.321E+03,  -484.321E+03
C:/temp/Job-10.odb,Step-1,Increment      1: Step Time =    1.000,"P-10-1",           720,       72.4683,       153.878,            0.,NA,NA,"",   2.02327E+06,   1.96745E+06,   1.96745E+06
C:/temp/Job-10.odb,Step-1,Increment      1: Step Time =    1.000,"P-10-1",           721,       154.833,       130.442,            0.,NA,NA,"",   1.50698E+06,   767.790E+03,   767.790E+03
C:/temp/Job-10.odb,Step-1,Increment      1: Step Time =    1.000,"P-10-1",           722,       125.626,       155.568,            0.,NA,NA,"",   2.83937E+06,   2.96209E+06,   2.96209E+06
C:/temp/Job-10.odb,Step-1,Increment      1: Step Time =    1.000,"P-10-1",           723,       77.1636,       156.051,            0.,NA,NA,"",   2.31651E+06,   2.30706E+06,   2.30706E+06
C:/temp/Job-10.odb,Step-1,Increment      1: Step Time =    1.000,"P-10-1",           724,       129.482,       46.0453,            0.,NA,NA,"",   2.69750E+06,   2.79212E+06,   2.79212E+06
C:/temp/Job-10.odb,Step-1,Increment      1: Step Time =    1.000,"P-10-1",           725,       71.6115,       42.9694,            0.,NA,NA,"",   2.11713E+06,   2.02822E+06,   2.02822E+06
C:/temp/Job-10.odb,Step-1,Increment      1: Step Time =    1.000,"P-10-1",           726,       81.7745,       41.8745,            0.,NA,NA,"",   2.56722E+06,   2.59665E+06,   2.59665E+06
C:/temp/Job-10.odb,Step-1,Increment      1: Step Time =    1.000,"P-10-1",           727,       46.6462,       130.656,            0.,NA,NA,"",   506.026E+03,  -420.188E+03,  -420.188E+03
C:/temp/Job-10.odb,Step-1,Increment      1: Step Time =    1.000,"P-10-1",           728,       121.471,       156.848,            0.,NA,NA,"",   3.01166E+06,   3.15970E+06,   3.15970E+06
C:/temp/Job-10.odb,Step-1,Increment      1: Step Time =    1.000,"P-10-1",           729,       153.735,       72.4504,            0.,NA,NA,"",   1.30264E+06,   464.494E+03,   464.494E+03
C:/temp/Job-10.odb,Step-1,Increment      1: Step Time =    1.000,"P-10-1",           730,       156.931,       69.3344,            0.,NA,NA,"",   1.61406E+06,   1.13803E+06,   1.13803E+06
C:/temp/Job-10.odb,Step-1,Increment      1: Step Time =    1.000,"P-10-1",           731,       42.5092,       70.1168,            0.,NA,NA,"",   439.692E+03,  -340.987E+03,  -340.987E+03
C:/temp/Job-10.odb,Step-1,Increment      1: Step Time =    1.000,"P-10-1",           732,       61.7623,       13.9060,            0.,NA,NA,"",   1.96992E+06,   1.89869E+06,   1.89869E+06
C:/temp/Job-10.odb,Step-1,Increment      1: Step Time =    1.000,"P-10-1",           733,       14.1030,       60.8936,            0.,NA,NA,"",   516.578E+03,   549.802E+03,   549.802E+03
C:/temp/Job-10.odb,Step-1,Increment      1: Step Time =    1.000,"P-10-1",           734,       185.059,       59.4301,            0.,NA,NA,"",   1.29071E+06,   1.35753E+06,   1.35753E+06
C:/temp/Job-10.odb,Step-1,Increment      1: Step Time =    1.000,"P-10-1",           735,       59.5287,       185.825,            0.,NA,NA,"",   1.99472E+06,   1.92264E+06,   1.92264E+06
C:/temp/Job-10.odb,Step-1,Increment      1: Step Time =    1.000,"P-10-1",           736,       138.802,       14.3389,            0.,NA,NA,"",   1.15136E+06,   1.13739E+06,   1.13739E+06
C:/temp/Job-10.odb,Step-1,Increment      1: Step Time =    1.000,"P-10-1",           737,       14.1100,       140.408,            0.,NA,NA,"",   550.493E+03,   586.471E+03,   586.471E+03
C:/temp/Job-10.odb,Step-1,Increment      1: Step Time =    1.000,"P-10-1",           738,       186.632,       139.287,            0.,NA,NA,"",   1.24131E+06,   1.33853E+06,   1.33853E+06
C:/temp/Job-10.odb,Step-1,Increment      1: Step Time =    1.000,"P-10-1",           739,       140.125,       183.105,            0.,NA,NA,"",   1.27534E+06,   1.26003E+06,   1.26003E+06
C:/temp/Job-10.odb,Step-1,Increment      1: Step Time =    1.000,"P-10-1",           740,       122.713,       161.001,            0.,NA,NA,"",   2.55735E+06,   2.70315E+06,   2.70315E+06
C:/temp/Job-10.odb,Step-1,Increment      1: Step Time =    1.000,"P-10-1",           741,       77.1867,       162.217,            0.,NA,NA,"",   2.34906E+06,   2.29960E+06,   2.29960E+06
C:/temp/Job-10.odb,Step-1,Increment      1: Step Time =    1.000,"P-10-1",           742,       120.552,       38.8147,            0.,NA,NA,"",   2.62417E+06,   2.78715E+06,   2.78715E+06
C:/temp/Job-10.odb,Step-1,Increment      1: Step Time =    1.000,"P-10-1",           743,       81.7527,       37.1024,            0.,NA,NA,"",   2.47079E+06,   2.47249E+06,   2.47249E+06
C:/temp/Job-10.odb,Step-1,Increment      1: Step Time =    1.000,"P-10-1",           744,       131.988,       157.700,            0.,NA,NA,"",   2.42722E+06,   2.49859E+06,   2.49859E+06
C:/temp/Job-10.odb,Step-1,Increment      1: Step Time =    1.000,"P-10-1",           745,       70.9914,       158.583,            0.,NA,NA,"",   2.17209E+06,   2.06233E+06,   2.06233E+06
C:/temp/Job-10.odb,Step-1,Increment      1: Step Time =    1.000,"P-10-1",           746,       94.2936,       161.642,            0.,NA,NA,"",   2.95155E+06,   3.08557E+06,   3.08557E+06
C:/temp/Job-10.odb,Step-1,Increment      1: Step Time =    1.000,"P-10-1",           747,       106.408,       162.621,            0.,NA,NA,"",   2.92358E+06,   3.10645E+06,   3.10645E+06
C:/temp/Job-10.odb,Step-1,Increment      1: Step Time =    1.000,"P-10-1",           748,       129.395,       14.1734,            0.,NA,NA,"",   1.09960E+06,   1.11563E+06,   1.11563E+06
C:/temp/Job-10.odb,Step-1,Increment      1: Step Time =    1.000,"P-10-1",           749,       13.8453,       70.1262,            0.,NA,NA,"",   273.365E+03,   291.746E+03,   291.746E+03
C:/temp/Job-10.odb,Step-1,Increment      1: Step Time =    1.000,"P-10-1",           750,       69.3365,       13.0150,            0.,NA,NA,"",   1.85775E+06,   1.79124E+06,   1.79124E+06
C:/temp/Job-10.odb,Step-1,Increment      1: Step Time =    1.000,"P-10-1",           751,       13.8991,       130.896,            0.,NA,NA,"",   295.917E+03,   314.825E+03,   314.825E+03
C:/temp/Job-10.odb,Step-1,Increment      1: Step Time =    1.000,"P-10-1",           752,       186.019,       130.386,            0.,NA,NA,"",   1.27379E+06,   1.39332E+06,   1.39332E+06
C:/temp/Job-10.odb,Step-1,Increment      1: Step Time =    1.000,"P-10-1",           753,       69.3993,       185.086,            0.,NA,NA,"",   1.91587E+06,   1.83703E+06,   1.83703E+06
C:/temp/Job-10.odb,Step-1,Increment      1: Step Time =    1.000,"P-10-1",           754,       185.517,       68.7753,            0.,NA,NA,"",   1.28889E+06,   1.39388E+06,   1.39388E+06
C:/temp/Job-10.odb,Step-1,Increment      1: Step Time =    1.000,"P-10-1",           755,       129.233,       185.904,            0.,NA,NA,"",   1.08984E+06,   1.10429E+06,   1.10429E+06
C:/temp/Job-10.odb,Step-1,Increment      1: Step Time =    1.000,"P-10-1",           756,       142.908,       155.199,            0.,NA,NA,"",   2.14762E+06,   2.07351E+06,   2.07351E+06
C:/temp/Job-10.odb,Step-1,Increment      1: Step Time =    1.000,"P-10-1",           757,       61.6045,       153.895,            0.,NA,NA,"",   1.76050E+06,   1.56873E+06,   1.56873E+06
C:/temp/Job-10.odb,Step-1,Increment      1: Step Time =    1.000,"P-10-1",           758,       162.483,       78.1429,            0.,NA,NA,"",   1.35573E+06,   451.281E+03,   451.281E+03
C:/temp/Job-10.odb,Step-1,Increment      1: Step Time =    1.000,"P-10-1",           759,       34.7302,       80.6002,            0.,NA,NA,"",   237.879E+03,  -255.471E+03,  -255.471E+03
C:/temp/Job-10.odb,Step-1,Increment      1: Step Time =    1.000,"P-10-1",           760,       160.625,       93.8889,            0.,NA,NA,"",   1.12397E+06,  -1.11018E+06,  -1.11018E+06
C:/temp/Job-10.odb,Step-1,Increment      1: Step Time =    1.000,"P-10-1",           761,       36.4663,       92.1530,            0.,NA,NA,"",   363.515E+03,  -409.080E+03,  -409.080E+03
C:/temp/Job-10.odb,Step-1,Increment      1: Step Time =    1.000,"P-10-1",           762,       14.4261,       79.4918,            0.,NA,NA,"",   125.211E+03,   109.374E+03,   109.374E+03
C:/temp/Job-10.odb,Step-1,Increment      1: Step Time =    1.000,"P-10-1",           763,       119.748,       14.6281,            0.,NA,NA,"",   1.08192E+06,   1.13132E+06,   1.13132E+06
C:/temp/Job-10.odb,Step-1,Increment      1: Step Time =    1.000,"P-10-1",           764,       77.8253,       14.5662,            0.,NA,NA,"",   1.77597E+06,   1.71391E+06,   1.71391E+06
C:/temp/Job-10.odb,Step-1,Increment      1: Step Time =    1.000,"P-10-1",           765,       15.0986,       121.086,            0.,NA,NA,"",   125.481E+03,   114.327E+03,   114.327E+03
C:/temp/Job-10.odb,Step-1,Increment      1: Step Time =    1.000,"P-10-1",           766,       79.1135,       184.938,            0.,NA,NA,"",   1.77421E+06,   1.71478E+06,   1.71478E+06
C:/temp/Job-10.odb,Step-1,Increment      1: Step Time =    1.000,"P-10-1",           767,       184.959,       120.859,            0.,NA,NA,"",   1.21789E+06,   1.35594E+06,   1.35594E+06
C:/temp/Job-10.odb,Step-1,Increment      1: Step Time =    1.000,"P-10-1",           768,       120.552,       184.663,            0.,NA,NA,"",   1.12183E+06,   1.17210E+06,   1.17210E+06
C:/temp/Job-10.odb,Step-1,Increment      1: Step Time =    1.000,"P-10-1",           769,       184.974,       78.3622,            0.,NA,NA,"",   1.22331E+06,   1.35851E+06,   1.35851E+06
C:/temp/Job-10.odb,Step-1,Increment      1: Step Time =    1.000,"P-10-1",           770,       46.8297,       61.2328,            0.,NA,NA,"",   761.607E+03,   354.845E+03,   354.845E+03
C:/temp/Job-10.odb,Step-1,Increment      1: Step Time =    1.000,"P-10-1",           771,       151.343,       61.5615,            0.,NA,NA,"",   1.84281E+06,   1.53589E+06,   1.53589E+06
C:/temp/Job-10.odb,Step-1,Increment      1: Step Time =    1.000,"P-10-1",           772,       57.1273,       152.457,            0.,NA,NA,"",   1.60984E+06,   1.39739E+06,   1.39739E+06
C:/temp/Job-10.odb,Step-1,Increment      1: Step Time =    1.000,"P-10-1",           773,       144.216,       151.915,            0.,NA,NA,"",   2.15076E+06,   2.05020E+06,   2.05020E+06
C:/temp/Job-10.odb,Step-1,Increment      1: Step Time =    1.000,"P-10-1",           774,       149.029,       57.5272,            0.,NA,NA,"",   1.98083E+06,   1.74451E+06,   1.74451E+06
C:/temp/Job-10.odb,Step-1,Increment      1: Step Time =    1.000,"P-10-1",           775,       48.5836,       56.6227,            0.,NA,NA,"",   1.00938E+06,   785.754E+03,   785.754E+03
C:/temp/Job-10.odb,Step-1,Increment      1: Step Time =    1.000,"P-10-1",           776,       107.177,       36.5938,            0.,NA,NA,"",   2.80088E+06,   2.99318E+06,   2.99318E+06
C:/temp/Job-10.odb,Step-1,Increment      1: Step Time =    1.000,"P-10-1",           777,       65.3044,       47.0163,            0.,NA,NA,"",   1.74740E+06,   1.60158E+06,   1.60158E+06
C:/temp/Job-10.odb,Step-1,Increment      1: Step Time =    1.000,"P-10-1",           778,       49.7151,       134.557,            0.,NA,NA,"",   587.567E+03,  -197.751E+03,  -197.751E+03
C:/temp/Job-10.odb,Step-1,Increment      1: Step Time =    1.000,"P-10-1",           779,       142.870,       55.0448,            0.,NA,NA,"",   2.08660E+06,   1.99711E+06,   1.99711E+06
C:/temp/Job-10.odb,Step-1,Increment      1: Step Time =    1.000,"P-10-1",           780,       108.858,       14.5372,            0.,NA,NA,"",   1.13956E+06,   1.20168E+06,   1.20168E+06
C:/temp/Job-10.odb,Step-1,Increment      1: Step Time =    1.000,"P-10-1",           781,       14.6516,       90.5021,            0.,NA,NA,"",   140.529E+03,  -118.710E+03,  -118.710E+03
C:/temp/Job-10.odb,Step-1,Increment      1: Step Time =    1.000,"P-10-1",           782,       15.1557,       111.035,            0.,NA,NA,"",   128.093E+03,  -106.752E+03,  -106.752E+03
C:/temp/Job-10.odb,Step-1,Increment      1: Step Time =    1.000,"P-10-1",           783,       88.9163,       15.5351,            0.,NA,NA,"",   1.59060E+06,   1.57571E+06,   1.57571E+06
C:/temp/Job-10.odb,Step-1,Increment      1: Step Time =    1.000,"P-10-1",           784,       185.287,       109.976,            0.,NA,NA,"",   1.05324E+06,   1.21120E+06,   1.21120E+06
C:/temp/Job-10.odb,Step-1,Increment      1: Step Time =    1.000,"P-10-1",           785,       88.8310,       183.980,            0.,NA,NA,"",   1.62066E+06,   1.60657E+06,   1.60657E+06
C:/temp/Job-10.odb,Step-1,Increment      1: Step Time =    1.000,"P-10-1",           786,       183.885,       89.8779,            0.,NA,NA,"",   1.00974E+06,   1.15639E+06,   1.15639E+06
C:/temp/Job-10.odb,Step-1,Increment      1: Step Time =    1.000,"P-10-1",           787,       110.215,       183.667,            0.,NA,NA,"",   1.22078E+06,   1.29563E+06,   1.29563E+06
C:/temp/Job-10.odb,Step-1,Increment      1: Step Time =    1.000,"P-10-1",           788,       163.089,       82.9155,            0.,NA,NA,"",   1.17067E+06,  -387.546E+03,  -387.546E+03
C:/temp/Job-10.odb,Step-1,Increment      1: Step Time =    1.000,"P-10-1",           789,       99.0488,       14.3664,            0.,NA,NA,"",   1.29486E+06,   1.32584E+06,   1.32584E+06
C:/temp/Job-10.odb,Step-1,Increment      1: Step Time =    1.000,"P-10-1",           790,       15.1090,       100.330,            0.,NA,NA,"",   165.593E+03,  -154.956E+03,  -154.956E+03
C:/temp/Job-10.odb,Step-1,Increment      1: Step Time =    1.000,"P-10-1",           791,       99.3608,       183.625,            0.,NA,NA,"",   1.41090E+06,   1.45609E+06,   1.45609E+06
C:/temp/Job-10.odb,Step-1,Increment      1: Step Time =    1.000,"P-10-1",           792,       184.793,       100.286,            0.,NA,NA,"",   955.722E+03,   1.08311E+06,   1.08311E+06
C:/temp/Job-10.odb,Step-1,Increment      1: Step Time =    1.000,"P-10-1",           793,       100.036,       162.112,            0.,NA,NA,"",   3.00861E+06,   3.17393E+06,   3.17393E+06
C:/temp/Job-10.odb,Step-1,Increment      1: Step Time =    1.000,"P-10-1",           794,       60.3720,       158.170,            0.,NA,NA,"",   1.93149E+06,   1.73085E+06,   1.73085E+06
C:/temp/Job-10.odb,Step-1,Increment      1: Step Time =    1.000,"P-10-1",           795,       42.2093,       59.3785,            0.,NA,NA,"",   827.417E+03,   642.683E+03,   642.683E+03
C:/temp/Job-10.odb,Step-1,Increment      1: Step Time =    1.000,"P-10-1",           796,       154.691,       59.1916,            0.,NA,NA,"",   1.96691E+06,   1.63961E+06,   1.63961E+06
C:/temp/Job-10.odb,Step-1,Increment      1: Step Time =    1.000,"P-10-1",           797,       66.7281,       42.0350,            0.,NA,NA,"",   2.01700E+06,   1.86835E+06,   1.86835E+06
C:/temp/Job-10.odb,Step-1,Increment      1: Step Time =    1.000,"P-10-1",           798,       101.046,       33.0386,            0.,NA,NA,"",   2.47051E+06,   2.63403E+06,   2.63403E+06
C:/temp/Job-10.odb,Step-1,Increment      1: Step Time =    1.000,"P-10-1",           799,       96.8933,       38.8845,            0.,NA,NA,"",   3.09740E+06,   3.24505E+06,   3.24505E+06
C:/temp/Job-10.odb,Step-1,Increment      1: Step Time =    1.000,"P-10-1",           800,       60.5736,       45.2204,            0.,NA,NA,"",   1.76773E+06,   1.57005E+06,   1.57005E+06
C:/temp/Job-10.odb,Step-1,Increment      1: Step Time =    1.000,"P-10-1",           801,       43.0564,       134.174,            0.,NA,NA,"",   554.914E+03,   39.4254E+03,   39.4254E+03
C:/temp/Job-10.odb,Step-1,Increment      1: Step Time =    1.000,"P-10-1",           802,       37.9001,       84.7748,            0.,NA,NA,"",   367.262E+03,  -404.418E+03,  -404.418E+03
C:/temp/Job-10.odb,Step-1,Increment      1: Step Time =    1.000,"P-10-1",           803,       162.939,       69.4430,            0.,NA,NA,"",   1.68865E+06,   1.26128E+06,   1.26128E+06
C:/temp/Job-10.odb,Step-1,Increment      1: Step Time =    1.000,"P-10-1",           804,       37.7410,       72.2788,            0.,NA,NA,"",   330.300E+03,  -256.570E+03,  -256.570E+03
C:/temp/Job-10.odb,Step-1,Increment      1: Step Time =    1.000,"P-10-1",           805,       13.9278,       65.5282,            0.,NA,NA,"",   386.144E+03,   412.346E+03,   412.346E+03
C:/temp/Job-10.odb,Step-1,Increment      1: Step Time =    1.000,"P-10-1",           806,       65.4707,       13.4407,            0.,NA,NA,"",   1.91947E+06,   1.85059E+06,   1.85059E+06
C:/temp/Job-10.odb,Step-1,Increment      1: Step Time =    1.000,"P-10-1",           807,       185.363,       64.0945,            0.,NA,NA,"",   1.29573E+06,   1.38077E+06,   1.38077E+06
C:/temp/Job-10.odb,Step-1,Increment      1: Step Time =    1.000,"P-10-1",           808,       64.4442,       185.517,            0.,NA,NA,"",   1.95907E+06,   1.88061E+06,   1.88061E+06
C:/temp/Job-10.odb,Step-1,Increment      1: Step Time =    1.000,"P-10-1",           809,       134.117,       14.1596,            0.,NA,NA,"",   1.12586E+06,   1.12458E+06,   1.12458E+06
C:/temp/Job-10.odb,Step-1,Increment      1: Step Time =    1.000,"P-10-1",           810,       14.1337,       135.597,            0.,NA,NA,"",   416.019E+03,   443.951E+03,   443.951E+03
C:/temp/Job-10.odb,Step-1,Increment      1: Step Time =    1.000,"P-10-1",           811,       186.388,       134.868,            0.,NA,NA,"",   1.26388E+06,   1.37242E+06,   1.37242E+06
C:/temp/Job-10.odb,Step-1,Increment      1: Step Time =    1.000,"P-10-1",           812,       136.724,       184.660,            0.,NA,NA,"",   1.18882E+06,   1.18295E+06,   1.18295E+06
C:/temp/Job-10.odb,Step-1,Increment      1: Step Time =    1.000,"P-10-1",           813,       127.708,       164.342,            0.,NA,NA,"",   2.22091E+06,   2.32456E+06,   2.32456E+06
C:/temp/Job-10.odb,Step-1,Increment      1: Step Time =    1.000,"P-10-1",           814,       73.2732,       163.296,            0.,NA,NA,"",   2.26278E+06,   2.15776E+06,   2.15776E+06
C:/temp/Job-10.odb,Step-1,Increment      1: Step Time =    1.000,"P-10-1",           815,       118.706,       35.5303,            0.,NA,NA,"",   2.40657E+06,   2.57147E+06,   2.57147E+06
C:/temp/Job-10.odb,Step-1,Increment      1: Step Time =    1.000,"P-10-1",           816,       86.5452,       36.2088,            0.,NA,NA,"",   2.56447E+06,   2.61942E+06,   2.61942E+06
C:/temp/Job-10.odb,Step-1,Increment      1: Step Time =    1.000,"P-10-1",           817,       88.3917,       166.437,            0.,NA,NA,"",   2.46675E+06,   2.52981E+06,   2.52981E+06
C:/temp/Job-10.odb,Step-1,Increment      1: Step Time =    1.000,"P-10-1",           818,       110.209,       166.827,            0.,NA,NA,"",   2.37600E+06,   2.55390E+06,   2.55390E+06
C:/temp/Job-10.odb,Step-1,Increment      1: Step Time =    1.000,"P-10-1",           819,       73.4443,       13.4518,            0.,NA,NA,"",   1.80518E+06,   1.73952E+06,   1.73952E+06
C:/temp/Job-10.odb,Step-1,Increment      1: Step Time =    1.000,"P-10-1",           820,       13.8894,       74.7999,            0.,NA,NA,"",   184.050E+03,   190.677E+03,   190.677E+03
C:/temp/Job-10.odb,Step-1,Increment      1: Step Time =    1.000,"P-10-1",           821,       14.5016,       126.171,            0.,NA,NA,"",   192.709E+03,   201.007E+03,   201.007E+03
C:/temp/Job-10.odb,Step-1,Increment      1: Step Time =    1.000,"P-10-1",           822,       124.602,       14.3158,            0.,NA,NA,"",   1.08055E+06,   1.11314E+06,   1.11314E+06
C:/temp/Job-10.odb,Step-1,Increment      1: Step Time =    1.000,"P-10-1",           823,       185.600,       125.752,            0.,NA,NA,"",   1.26265E+06,   1.39331E+06,   1.39331E+06
C:/temp/Job-10.odb,Step-1,Increment      1: Step Time =    1.000,"P-10-1",           824,       125.169,       185.264,            0.,NA,NA,"",   1.10111E+06,   1.13269E+06,   1.13269E+06
C:/temp/Job-10.odb,Step-1,Increment      1: Step Time =    1.000,"P-10-1",           825,       185.425,       73.5123,            0.,NA,NA,"",   1.26873E+06,   1.39249E+06,   1.39249E+06
C:/temp/Job-10.odb,Step-1,Increment      1: Step Time =    1.000,"P-10-1",           826,       74.3238,       184.828,            0.,NA,NA,"",   1.85456E+06,   1.78295E+06,   1.78295E+06
C:/temp/Job-10.odb,Step-1,Increment      1: Step Time =    1.000,"P-10-1",           827,       163.380,       74.8600,            0.,NA,NA,"",   1.49859E+06,   1.01399E+06,   1.01399E+06
C:/temp/Job-10.odb,Step-1,Increment      1: Step Time =    1.000,"P-10-1",           828,       46.0321,       137.540,            0.,NA,NA,"",   712.830E+03,   312.212E+03,   312.212E+03
C:/temp/Job-10.odb,Step-1,Increment      1: Step Time =    1.000,"P-10-1",           829,       166.330,       96.6262,            0.,NA,NA,"",   573.027E+03,  -355.151E+03,  -355.151E+03
C:/temp/Job-10.odb,Step-1,Increment      1: Step Time =    1.000,"P-10-1",           830,       33.6972,       98.5256,            0.,NA,NA,"",   285.090E+03,  -326.151E+03,  -326.151E+03
C:/temp/Job-10.odb,Step-1,Increment      1: Step Time =    1.000,"P-10-1",           831,       82.9324,       16.5309,            0.,NA,NA,"",   1.77016E+06,   1.72441E+06,   1.72441E+06
C:/temp/Job-10.odb,Step-1,Increment      1: Step Time =    1.000,"P-10-1",           832,       15.6203,       115.383,            0.,NA,NA,"",   107.153E+03,  -31.5636E+03,  -31.5636E+03
C:/temp/Job-10.odb,Step-1,Increment      1: Step Time =    1.000,"P-10-1",           833,       15.6528,       84.9633,            0.,NA,NA,"",   112.917E+03,  -28.8186E+03,  -28.8186E+03
C:/temp/Job-10.odb,Step-1,Increment      1: Step Time =    1.000,"P-10-1",           834,       114.248,       15.5786,            0.,NA,NA,"",   1.15857E+06,   1.22792E+06,   1.22792E+06
C:/temp/Job-10.odb,Step-1,Increment      1: Step Time =    1.000,"P-10-1",           835,       115.519,       184.170,            0.,NA,NA,"",   1.15841E+06,   1.22619E+06,   1.22619E+06
C:/temp/Job-10.odb,Step-1,Increment      1: Step Time =    1.000,"P-10-1",           836,       183.333,       83.9165,            0.,NA,NA,"",   1.11655E+06,   1.24358E+06,   1.24358E+06
C:/temp/Job-10.odb,Step-1,Increment      1: Step Time =    1.000,"P-10-1",           837,       84.0217,       184.662,            0.,NA,NA,"",   1.69624E+06,   1.65578E+06,   1.65578E+06
C:/temp/Job-10.odb,Step-1,Increment      1: Step Time =    1.000,"P-10-1",           838,       183.790,       115.277,            0.,NA,NA,"",   1.11053E+06,   1.24785E+06,   1.24785E+06
C:/temp/Job-10.odb,Step-1,Increment      1: Step Time =    1.000,"P-10-1",           839,       15.4191,       105.602,            0.,NA,NA,"",   153.695E+03,  -141.055E+03,  -141.055E+03
C:/temp/Job-10.odb,Step-1,Increment      1: Step Time =    1.000,"P-10-1",           840,       94.1167,       14.8501,            0.,NA,NA,"",   1.43111E+06,   1.44162E+06,   1.44162E+06
C:/temp/Job-10.odb,Step-1,Increment      1: Step Time =    1.000,"P-10-1",           841,       184.312,       95.2460,            0.,NA,NA,"",   953.169E+03,   1.08853E+06,   1.08853E+06
C:/temp/Job-10.odb,Step-1,Increment      1: Step Time =    1.000,"P-10-1",           842,       104.774,       183.607,            0.,NA,NA,"",   1.30474E+06,   1.37209E+06,   1.37209E+06
C:/temp/Job-10.odb,Step-1,Increment      1: Step Time =    1.000,"P-10-1",           843,       103.890,       14.2324,            0.,NA,NA,"",   1.19242E+06,   1.24081E+06,   1.24081E+06
C:/temp/Job-10.odb,Step-1,Increment      1: Step Time =    1.000,"P-10-1",           844,       14.3754,       95.4702,            0.,NA,NA,"",   161.325E+03,  -146.895E+03,  -146.895E+03
C:/temp/Job-10.odb,Step-1,Increment      1: Step Time =    1.000,"P-10-1",           845,       94.0071,       183.670,            0.,NA,NA,"",   1.52425E+06,   1.53963E+06,   1.53963E+06
C:/temp/Job-10.odb,Step-1,Increment      1: Step Time =    1.000,"P-10-1",           846,       185.262,       105.129,            0.,NA,NA,"",   1.00146E+06,   1.14559E+06,   1.14559E+06
C:/temp/Job-10.odb,Step-1,Increment      1: Step Time =    1.000,"P-10-1",           847,       146.459,       48.6997,            0.,NA,NA,"",   2.11477E+06,   1.97716E+06,   1.97716E+06
C:/temp/Job-10.odb,Step-1,Increment      1: Step Time =    1.000,"P-10-1",           848,       163.974,       87.8231,            0.,NA,NA,"",   970.787E+03,  -729.737E+03,  -729.737E+03
C:/temp/Job-10.odb,Step-1,Increment      1: Step Time =    1.000,"P-10-1",           849,       67.7192,       37.1027,            0.,NA,NA,"",   2.17754E+06,   2.02710E+06,   2.02710E+06
C:/temp/Job-10.odb,Step-1,Increment      1: Step Time =    1.000,"P-10-1",           850,       33.6031,       87.5415,            0.,NA,NA,"",   255.508E+03,  -289.493E+03,  -289.493E+03
C:/temp/Job-10.odb,Step-1,Increment      1: Step Time =    1.000,"P-10-1",           851,       168.515,       100.095,            0.,NA,NA,"",   432.078E+03,  -91.7636E+03,  -91.7636E+03
C:/temp/Job-10.odb,Step-1,Increment      1: Step Time =    1.000,"P-10-1",           852,       30.4353,       102.643,            0.,NA,NA,"",   207.161E+03,  -228.817E+03,  -228.817E+03
C:/temp/Job-10.odb,Step-1,Increment      1: Step Time =    1.000,"P-10-1",           853,       36.5430,       134.755,            0.,NA,NA,"",   527.402E+03,   388.454E+03,   388.454E+03
C:/temp/Job-10.odb,Step-1,Increment      1: Step Time =    1.000,"P-10-1",           854,       111.537,       20.3290,            0.,NA,NA,"",   1.44598E+06,   1.54895E+06,   1.54895E+06
C:/temp/Job-10.odb,Step-1,Increment      1: Step Time =    1.000,"P-10-1",           855,       19.4576,       91.5822,            0.,NA,NA,"",   136.963E+03,  -138.338E+03,  -138.338E+03
C:/temp/Job-10.odb,Step-1,Increment      1: Step Time =    1.000,"P-10-1",           856,       181.772,       109.158,            0.,NA,NA,"",   891.092E+03,   1.01913E+06,   1.01913E+06
C:/temp/Job-10.odb,Step-1,Increment      1: Step Time =    1.000,"P-10-1",           857,       99.0258,       18.9843,            0.,NA,NA,"",   1.55647E+06,   1.61548E+06,   1.61548E+06
C:/temp/Job-10.odb,Step-1,Increment      1: Step Time =    1.000,"P-10-1",           858,       20.7101,       99.4187,            0.,NA,NA,"",   154.863E+03,  -165.366E+03,  -165.366E+03
C:/temp/Job-10.odb,Step-1,Increment      1: Step Time =    1.000,"P-10-1",           859,       99.1188,       178.257,            0.,NA,NA,"",   1.72071E+06,   1.79762E+06,   1.79762E+06
C:/temp/Job-10.odb,Step-1,Increment      1: Step Time =    1.000,"P-10-1",           860,       179.819,       100.911,            0.,NA,NA,"",   653.713E+03,   734.282E+03,   734.282E+03
C:/temp/Job-10.odb,Step-1,Increment      1: Step Time =    1.000,"P-10-1",           861,       166.887,       76.9648,            0.,NA,NA,"",   1.40796E+06,   1.01121E+06,   1.01121E+06
C:/temp/Job-10.odb,Step-1,Increment      1: Step Time =    1.000,"P-10-1",           862,       147.707,       155.317,            0.,NA,NA,"",   2.06914E+06,   1.93772E+06,   1.93772E+06
C:/temp/Job-10.odb,Step-1,Increment      1: Step Time =    1.000,"P-10-1",           863,       152.318,       56.3955,            0.,NA,NA,"",   2.02009E+06,   1.74258E+06,   1.74258E+06
C:/temp/Job-10.odb,Step-1,Increment      1: Step Time =    1.000,"P-10-1",           864,       91.8190,       39.8519,            0.,NA,NA,"",   3.00746E+06,   3.12210E+06,   3.12210E+06
C:/temp/Job-10.odb,Step-1,Increment      1: Step Time =    1.000,"P-10-1",           865,       58.9463,       49.2212,            0.,NA,NA,"",   1.54368E+06,   1.33498E+06,   1.33498E+06
C:/temp/Job-10.odb,Step-1,Increment      1: Step Time =    1.000,"P-10-1",           866,       35.1067,       74.3121,            0.,NA,NA,"",   272.537E+03,  -218.822E+03,  -218.822E+03
C:/temp/Job-10.odb,Step-1,Increment      1: Step Time =    1.000,"P-10-1",           867,       19.1449,       56.8052,            0.,NA,NA,"",   676.252E+03,   692.977E+03,   692.977E+03
C:/temp/Job-10.odb,Step-1,Increment      1: Step Time =    1.000,"P-10-1",           868,       62.4777,       17.2870,            0.,NA,NA,"",   2.02245E+06,   1.92650E+06,   1.92650E+06
C:/temp/Job-10.odb,Step-1,Increment      1: Step Time =    1.000,"P-10-1",           869,       59.1679,       181.393,            0.,NA,NA,"",   2.04754E+06,   1.94500E+06,   1.94500E+06
C:/temp/Job-10.odb,Step-1,Increment      1: Step Time =    1.000,"P-10-1",           870,       180.315,       59.1360,            0.,NA,NA,"",   1.44878E+06,   1.42487E+06,   1.42487E+06
C:/temp/Job-10.odb,Step-1,Increment      1: Step Time =    1.000,"P-10-1",           871,       138.121,       19.0495,            0.,NA,NA,"",   1.35490E+06,   1.34360E+06,   1.34360E+06
C:/temp/Job-10.odb,Step-1,Increment      1: Step Time =    1.000,"P-10-1",           872,       18.7299,       140.621,            0.,NA,NA,"",   583.414E+03,   600.381E+03,   600.381E+03
C:/temp/Job-10.odb,Step-1,Increment      1: Step Time =    1.000,"P-10-1",           873,       182.324,       139.208,            0.,NA,NA,"",   1.38361E+06,   1.40107E+06,   1.40107E+06
C:/temp/Job-10.odb,Step-1,Increment      1: Step Time =    1.000,"P-10-1",           874,       138.379,       179.939,            0.,NA,NA,"",   1.40426E+06,   1.39352E+06,   1.39352E+06
C:/temp/Job-10.odb,Step-1,Increment      1: Step Time =    1.000,"P-10-1",           875,       124.035,       164.406,            0.,NA,NA,"",   2.29421E+06,   2.42795E+06,   2.42795E+06
C:/temp/Job-10.odb,Step-1,Increment      1: Step Time =    1.000,"P-10-1",           876,       74.3656,       167.332,            0.,NA,NA,"",   2.28281E+06,   2.18242E+06,   2.18242E+06
C:/temp/Job-10.odb,Step-1,Increment      1: Step Time =    1.000,"P-10-1",           877,       114.147,       38.3553,            0.,NA,NA,"",   2.85348E+06,   3.03918E+06,   3.03918E+06
C:/temp/Job-10.odb,Step-1,Increment      1: Step Time =    1.000,"P-10-1",           878,       114.319,       164.814,            0.,NA,NA,"",   2.48862E+06,   2.66781E+06,   2.66781E+06
C:/temp/Job-10.odb,Step-1,Increment      1: Step Time =    1.000,"P-10-1",           879,       129.145,       18.6395,            0.,NA,NA,"",   1.33183E+06,   1.36268E+06,   1.36268E+06
C:/temp/Job-10.odb,Step-1,Increment      1: Step Time =    1.000,"P-10-1",           880,       17.4298,       131.140,            0.,NA,NA,"",   301.685E+03,   313.967E+03,   313.967E+03
C:/temp/Job-10.odb,Step-1,Increment      1: Step Time =    1.000,"P-10-1",           881,       68.8602,       180.076,            0.,NA,NA,"",   2.05395E+06,   1.94490E+06,   1.94490E+06
C:/temp/Job-10.odb,Step-1,Increment      1: Step Time =    1.000,"P-10-1",           882,       180.896,       68.4282,            0.,NA,NA,"",   1.40293E+06,   1.40598E+06,   1.40598E+06
C:/temp/Job-10.odb,Step-1,Increment      1: Step Time =    1.000,"P-10-1",           883,       18.3997,       70.3192,            0.,NA,NA,"",   264.911E+03,   271.027E+03,   271.027E+03
C:/temp/Job-10.odb,Step-1,Increment      1: Step Time =    1.000,"P-10-1",           884,       69.1464,       16.3379,            0.,NA,NA,"",   1.94949E+06,   1.86438E+06,   1.86438E+06
C:/temp/Job-10.odb,Step-1,Increment      1: Step Time =    1.000,"P-10-1",           885,       181.260,       130.834,            0.,NA,NA,"",   1.38187E+06,   1.40235E+06,   1.40235E+06
C:/temp/Job-10.odb,Step-1,Increment      1: Step Time =    1.000,"P-10-1",           886,       132.589,       182.601,            0.,NA,NA,"",   1.26297E+06,   1.27199E+06,   1.27199E+06
C:/temp/Job-10.odb,Step-1,Increment      1: Step Time =    1.000,"P-10-1",           887,       48.7246,       140.659,            0.,NA,NA,"",   878.429E+03,   639.002E+03,   639.002E+03
C:/temp/Job-10.odb,Step-1,Increment      1: Step Time =    1.000,"P-10-1",           888,       163.784,       102.923,            0.,NA,NA,"",   771.519E+03,  -742.314E+03,  -742.314E+03
C:/temp/Job-10.odb,Step-1,Increment      1: Step Time =    1.000,"P-10-1",           889,       38.4555,       103.264,            0.,NA,NA,"",   459.480E+03,  -506.560E+03,  -506.560E+03
C:/temp/Job-10.odb,Step-1,Increment      1: Step Time =    1.000,"P-10-1",           890,       20.4948,       82.3223,            0.,NA,NA,"",   89.2071E+03,  -12.9233E+03,  -12.9233E+03
C:/temp/Job-10.odb,Step-1,Increment      1: Step Time =    1.000,"P-10-1",           891,       116.570,       19.1045,            0.,NA,NA,"",   1.35125E+06,   1.44092E+06,   1.44092E+06
C:/temp/Job-10.odb,Step-1,Increment      1: Step Time =    1.000,"P-10-1",           892,       78.6914,       20.7127,            0.,NA,NA,"",   2.01227E+06,   1.93923E+06,   1.93923E+06
C:/temp/Job-10.odb,Step-1,Increment      1: Step Time =    1.000,"P-10-1",           893,       19.3925,       116.685,            0.,NA,NA,"",   90.4196E+03,  -48.3601E+03,  -48.3601E+03
C:/temp/Job-10.odb,Step-1,Increment      1: Step Time =    1.000,"P-10-1",           894,       83.2539,       180.012,            0.,NA,NA,"",   1.91040E+06,   1.86644E+06,   1.86644E+06
C:/temp/Job-10.odb,Step-1,Increment      1: Step Time =    1.000,"P-10-1",           895,       178.957,       117.919,            0.,NA,NA,"",   1.13775E+06,   1.16745E+06,   1.16745E+06
C:/temp/Job-10.odb,Step-1,Increment      1: Step Time =    1.000,"P-10-1",           896,       180.149,       80.7606,            0.,NA,NA,"",   1.16648E+06,   1.22116E+06,   1.22116E+06
C:/temp/Job-10.odb,Step-1,Increment      1: Step Time =    1.000,"P-10-1",           897,       44.6002,       65.7905,            0.,NA,NA,"",   561.881E+03,  -140.617E+03,  -140.617E+03
C:/temp/Job-10.odb,Step-1,Increment      1: Step Time =    1.000,"P-10-1",           898,       18.7793,       110.849,            0.,NA,NA,"",   119.011E+03,  -112.271E+03,  -112.271E+03
C:/temp/Job-10.odb,Step-1,Increment      1: Step Time =    1.000,"P-10-1",           899,       89.5295,       20.5436,            0.,NA,NA,"",   1.83843E+06,   1.84245E+06,   1.84245E+06
C:/temp/Job-10.odb,Step-1,Increment      1: Step Time =    1.000,"P-10-1",           900,       178.625,       90.6427,            0.,NA,NA,"",   808.187E+03,   892.019E+03,   892.019E+03
C:/temp/Job-10.odb,Step-1,Increment      1: Step Time =    1.000,"P-10-1",           901,       100.072,       28.3331,            0.,NA,NA,"",   2.11447E+06,   2.24493E+06,   2.24493E+06
C:/temp/Job-10.odb,Step-1,Increment      1: Step Time =    1.000,"P-10-1",           902,       107.578,       169.126,            0.,NA,NA,"",   2.24326E+06,   2.41683E+06,   2.41683E+06
C:/temp/Job-10.odb,Step-1,Increment      1: Step Time =    1.000,"P-10-1",           903,       88.2451,       172.046,            0.,NA,NA,"",   2.19803E+06,   2.22741E+06,   2.22741E+06
C:/temp/Job-10.odb,Step-1,Increment      1: Step Time =    1.000,"P-10-1",           904,       23.8204,       111.248,            0.,NA,NA,"",   112.150E+03,  -125.065E+03,  -125.065E+03
C:/temp/Job-10.odb,Step-1,Increment      1: Step Time =    1.000,"P-10-1",           905,       90.2439,       25.5264,            0.,NA,NA,"",   2.06970E+06,   2.10444E+06,   2.10444E+06
C:/temp/Job-10.odb,Step-1,Increment      1: Step Time =    1.000,"P-10-1",           906,       173.713,       91.1503,            0.,NA,NA,"",   686.099E+03,   661.479E+03,   661.479E+03
C:/temp/Job-10.odb,Step-1,Increment      1: Step Time =    1.000,"P-10-1",           907,       108.425,       172.786,            0.,NA,NA,"",   1.95617E+06,   2.10884E+06,   2.10884E+06
C:/temp/Job-10.odb,Step-1,Increment      1: Step Time =    1.000,"P-10-1",           908,       121.484,       168.093,            0.,NA,NA,"",   2.09593E+06,   2.23245E+06,   2.23245E+06
C:/temp/Job-10.odb,Step-1,Increment      1: Step Time =    1.000,"P-10-1",           909,       77.1368,       171.296,            0.,NA,NA,"",   2.25458E+06,   2.17674E+06,   2.17674E+06
C:/temp/Job-10.odb,Step-1,Increment      1: Step Time =    1.000,"P-10-1",           910,       24.6227,       80.4650,            0.,NA,NA,"",   94.2207E+03,  -51.3104E+03,  -51.3104E+03
C:/temp/Job-10.odb,Step-1,Increment      1: Step Time =    1.000,"P-10-1",           911,       119.442,       24.6269,            0.,NA,NA,"",   1.64994E+06,   1.75989E+06,   1.75989E+06
C:/temp/Job-10.odb,Step-1,Increment      1: Step Time =    1.000,"P-10-1",           912,       75.8370,       23.5104,            0.,NA,NA,"",   2.13647E+06,   2.04529E+06,   2.04529E+06
C:/temp/Job-10.odb,Step-1,Increment      1: Step Time =    1.000,"P-10-1",           913,       25.0994,       117.902,            0.,NA,NA,"",   80.1112E+03,  -86.9761E+03,  -86.9761E+03
C:/temp/Job-10.odb,Step-1,Increment      1: Step Time =    1.000,"P-10-1",           914,       78.4798,       176.556,            0.,NA,NA,"",   2.10731E+06,   2.03456E+06,   2.03456E+06
C:/temp/Job-10.odb,Step-1,Increment      1: Step Time =    1.000,"P-10-1",           915,       175.747,       123.083,            0.,NA,NA,"",   1.32420E+06,   1.22747E+06,   1.22747E+06
C:/temp/Job-10.odb,Step-1,Increment      1: Step Time =    1.000,"P-10-1",           916,       121.607,       174.083,            0.,NA,NA,"",   1.71257E+06,   1.81650E+06,   1.81650E+06
C:/temp/Job-10.odb,Step-1,Increment      1: Step Time =    1.000,"P-10-1",           917,       99.0527,       172.924,            0.,NA,NA,"",   2.03714E+06,   2.15035E+06,   2.15035E+06
C:/temp/Job-10.odb,Step-1,Increment      1: Step Time =    1.000,"P-10-1",           918,       175.052,       102.001,            0.,NA,NA,"",   435.604E+03,   482.221E+03,   482.221E+03
C:/temp/Job-10.odb,Step-1,Increment      1: Step Time =    1.000,"P-10-1",           919,       25.8896,       99.9383,            0.,NA,NA,"",   156.428E+03,  -172.129E+03,  -172.129E+03
C:/temp/Job-10.odb,Step-1,Increment      1: Step Time =    1.000,"P-10-1",           920,       23.7823,       57.5131,            0.,NA,NA,"",   694.816E+03,   684.407E+03,   684.407E+03
C:/temp/Job-10.odb,Step-1,Increment      1: Step Time =    1.000,"P-10-1",           921,       61.9817,       23.5353,            0.,NA,NA,"",   2.10382E+06,   1.97031E+06,   1.97031E+06
C:/temp/Job-10.odb,Step-1,Increment      1: Step Time =    1.000,"P-10-1",           922,       141.592,       24.3546,            0.,NA,NA,"",   1.56303E+06,   1.53839E+06,   1.53839E+06
C:/temp/Job-10.odb,Step-1,Increment      1: Step Time =    1.000,"P-10-1",           923,       23.0037,       141.141,            0.,NA,NA,"",   627.366E+03,   622.959E+03,   622.959E+03
C:/temp/Job-10.odb,Step-1,Increment      1: Step Time =    1.000,"P-10-1",           924,       179.266,       142.998,            0.,NA,NA,"",   1.48125E+06,   1.43493E+06,   1.43493E+06
C:/temp/Job-10.odb,Step-1,Increment      1: Step Time =    1.000,"P-10-1",           925,       140.353,       176.705,            0.,NA,NA,"",   1.52898E+06,   1.50901E+06,   1.50901E+06
C:/temp/Job-10.odb,Step-1,Increment      1: Step Time =    1.000,"P-10-1",           926,       58.8891,       177.368,            0.,NA,NA,"",   2.07974E+06,   1.95034E+06,   1.95034E+06
C:/temp/Job-10.odb,Step-1,Increment      1: Step Time =    1.000,"P-10-1",           927,       175.740,       59.1883,            0.,NA,NA,"",   1.59342E+06,   1.47688E+06,   1.47688E+06
C:/temp/Job-10.odb,Step-1,Increment      1: Step Time =    1.000,"P-10-1",           928,       153.464,       52.5041,            0.,NA,NA,"",   2.04065E+06,   1.79263E+06,   1.79263E+06
C:/temp/Job-10.odb,Step-1,Increment      1: Step Time =    1.000,"P-10-1",           929,       72.1882,       25.4364,            0.,NA,NA,"",   2.18492E+06,   2.06992E+06,   2.06992E+06
C:/temp/Job-10.odb,Step-1,Increment      1: Step Time =    1.000,"P-10-1",           930,       130.740,       178.816,            0.,NA,NA,"",   1.45353E+06,   1.48627E+06,   1.48627E+06
C:/temp/Job-10.odb,Step-1,Increment      1: Step Time =    1.000,"P-10-1",           931,       25.5797,       133.984,            0.,NA,NA,"",   417.091E+03,   389.016E+03,   389.016E+03
C:/temp/Job-10.odb,Step-1,Increment      1: Step Time =    1.000,"P-10-1",           932,       176.302,       72.5777,            0.,NA,NA,"",   1.43023E+06,   1.32606E+06,   1.32606E+06
C:/temp/Job-10.odb,Step-1,Increment      1: Step Time =    1.000,"P-10-1",           933,       87.6450,       178.023,            0.,NA,NA,"",   1.93384E+06,   1.92886E+06,   1.92886E+06
C:/temp/Job-10.odb,Step-1,Increment      1: Step Time =    1.000,"P-10-1",           934,       63.0832,       35.8818,            0.,NA,NA,"",   2.10785E+06,   1.92828E+06,   1.92828E+06
C:/temp/Job-10.odb,Step-1,Increment      1: Step Time =    1.000,"P-10-1",           935,       173.360,       96.8043,            0.,NA,NA,"",   444.127E+03,   440.248E+03,   440.248E+03
C:/temp/Job-10.odb,Step-1,Increment      1: Step Time =    1.000,"P-10-1",           936,       26.6036,       95.1233,            0.,NA,NA,"",   155.253E+03,  -171.146E+03,  -171.146E+03
C:/temp/Job-10.odb,Step-1,Increment      1: Step Time =    1.000,"P-10-1",           937,       36.2991,       141.615,            0.,NA,NA,"",   801.046E+03,   679.711E+03,   679.711E+03
C:/temp/Job-10.odb,Step-1,Increment      1: Step Time =    1.000,"P-10-1",           938,       59.3311,       55.0511,            0.,NA,NA,"",   1.12136E+06,   932.418E+03,   932.418E+03
C:/temp/Job-10.odb,Step-1,Increment      1: Step Time =    1.000,"P-10-1",           939,       54.7270,       186.108,            0.,NA,NA,"",   2.02650E+06,   1.96407E+06,   1.96407E+06
C:/temp/Job-10.odb,Step-1,Increment      1: Step Time =    1.000,"P-10-1",           940,       184.771,       54.8936,            0.,NA,NA,"",   1.26647E+06,   1.32148E+06,   1.32148E+06
C:/temp/Job-10.odb,Step-1,Increment      1: Step Time =    1.000,"P-10-1",           941,       143.456,       14.6287,            0.,NA,NA,"",   1.17300E+06,   1.15033E+06,   1.15033E+06
C:/temp/Job-10.odb,Step-1,Increment      1: Step Time =    1.000,"P-10-1",           942,       13.9339,       145.237,            0.,NA,NA,"",   697.034E+03,   741.303E+03,   741.303E+03
C:/temp/Job-10.odb,Step-1,Increment      1: Step Time =    1.000,"P-10-1",           943,       14.3594,       56.1936,            0.,NA,NA,"",   660.229E+03,   699.758E+03,   699.758E+03
C:/temp/Job-10.odb,Step-1,Increment      1: Step Time =    1.000,"P-10-1",           944,       52.2951,       13.8411,            0.,NA,NA,"",   2.04235E+06,   1.98373E+06,   1.98373E+06
C:/temp/Job-10.odb,Step-1,Increment      1: Step Time =    1.000,"P-10-1",           945,       186.701,       143.666,            0.,NA,NA,"",   1.21720E+06,   1.30089E+06,   1.30089E+06
C:/temp/Job-10.odb,Step-1,Increment      1: Step Time =    1.000,"P-10-1",           946,       145.845,       183.901,            0.,NA,NA,"",   1.23680E+06,   1.20569E+06,   1.20569E+06
C:/temp/Job-10.odb,Step-1,Increment      1: Step Time =    1.000,"P-10-1",           947,       118.693,       163.010,            0.,NA,NA,"",   2.55011E+06,   2.71967E+06,   2.71967E+06
C:/temp/Job-10.odb,Step-1,Increment      1: Step Time =    1.000,"P-10-1",           948,       78.1276,       166.515,            0.,NA,NA,"",   2.34207E+06,   2.28669E+06,   2.28669E+06
C:/temp/Job-10.odb,Step-1,Increment      1: Step Time =    1.000,"P-10-1",           949,       50.7974,       143.059,            0.,NA,NA,"",   1.00030E+06,   764.964E+03,   764.964E+03
C:/temp/Job-10.odb,Step-1,Increment      1: Step Time =    1.000,"P-10-1",           950,       54.2315,       142.510,            0.,NA,NA,"",   949.732E+03,   717.199E+03,   717.199E+03
C:/temp/Job-10.odb,Step-1,Increment      1: Step Time =    1.000,"P-10-1",           951,       94.8442,       24.5193,            0.,NA,NA,"",   1.94981E+06,   2.01749E+06,   2.01749E+06
C:/temp/Job-10.odb,Step-1,Increment      1: Step Time =    1.000,"P-10-1",           952,       104.049,       173.216,            0.,NA,NA,"",   1.96523E+06,   2.10321E+06,   2.10321E+06
C:/temp/Job-10.odb,Step-1,Increment      1: Step Time =    1.000,"P-10-1",           953,       93.6812,       172.528,            0.,NA,NA,"",   2.12285E+06,   2.20129E+06,   2.20129E+06
C:/temp/Job-10.odb,Step-1,Increment      1: Step Time =    1.000,"P-10-1",           954,       166.721,       112.778,            0.,NA,NA,"",   917.293E+03,   24.0355E+03,   24.0355E+03
C:/temp/Job-10.odb,Step-1,Increment      1: Step Time =    1.000,"P-10-1",           955,       150.362,       151.433,            0.,NA,NA,"",   2.07787E+06,   1.88971E+06,   1.88971E+06
C:/temp/Job-10.odb,Step-1,Increment      1: Step Time =    1.000,"P-10-1",           956,       54.7324,       48.1715,            0.,NA,NA,"",   1.55406E+06,   1.33600E+06,   1.33600E+06
C:/temp/Job-10.odb,Step-1,Increment      1: Step Time =    1.000,"P-10-1",           957,       121.256,       179.471,            0.,NA,NA,"",   1.41054E+06,   1.48587E+06,   1.48587E+06
C:/temp/Job-10.odb,Step-1,Increment      1: Step Time =    1.000,"P-10-1",           958,       75.4755,       18.7604,            0.,NA,NA,"",   1.96990E+06,   1.88658E+06,   1.88658E+06
C:/temp/Job-10.odb,Step-1,Increment      1: Step Time =    1.000,"P-10-1",           959,       180.702,       77.2580,            0.,NA,NA,"",   1.25461E+06,   1.29485E+06,   1.29485E+06
C:/temp/Job-10.odb,Step-1,Increment      1: Step Time =    1.000,"P-10-1",           960,       19.9973,       121.841,            0.,NA,NA,"",   112.003E+03,   71.6129E+03,   71.6129E+03
C:/temp/Job-10.odb,Step-1,Increment      1: Step Time =    1.000,"P-10-1",           961,       99.3715,       167.424,            0.,NA,NA,"",   2.44607E+06,   2.59536E+06,   2.59536E+06
C:/temp/Job-10.odb,Step-1,Increment      1: Step Time =    1.000,"P-10-1",           962,       177.840,       85.7211,            0.,NA,NA,"",   989.044E+03,   1.02545E+06,   1.02545E+06
C:/temp/Job-10.odb,Step-1,Increment      1: Step Time =    1.000,"P-10-1",           963,       110.518,       177.809,            0.,NA,NA,"",   1.59186E+06,   1.71005E+06,   1.71005E+06
C:/temp/Job-10.odb,Step-1,Increment      1: Step Time =    1.000,"P-10-1",           964,       17.3013,       112.831,            0.,NA,NA,"",   106.947E+03,  -89.6126E+03,  -89.6126E+03
C:/temp/Job-10.odb,Step-1,Increment      1: Step Time =    1.000,"P-10-1",           965,       84.8302,       21.8962,            0.,NA,NA,"",   1.98020E+06,   1.95197E+06,   1.95197E+06
C:/temp/Job-10.odb,Step-1,Increment      1: Step Time =    1.000,"P-10-1",           966,       112.075,       34.3403,            0.,NA,NA,"",   2.48559E+06,   2.67119E+06,   2.67119E+06
C:/temp/Job-10.odb,Step-1,Increment      1: Step Time =    1.000,"P-10-1",           967,       65.7423,       164.916,            0.,NA,NA,"",   2.15612E+06,   1.98603E+06,   1.98603E+06
C:/temp/Job-10.odb,Step-1,Increment      1: Step Time =    1.000,"P-10-1",           968,       132.057,       169.309,            0.,NA,NA,"",   1.88130E+06,   1.92928E+06,   1.92928E+06
C:/temp/Job-10.odb,Step-1,Increment      1: Step Time =    1.000,"P-10-1",           969,       59.8598,       162.779,            0.,NA,NA,"",   2.04245E+06,   1.84787E+06,   1.84787E+06
C:/temp/Job-10.odb,Step-1,Increment      1: Step Time =    1.000,"P-10-1",           970,       43.1101,       126.920,            0.,NA,NA,"",   424.673E+03,  -389.078E+03,  -389.078E+03
C:/temp/Job-10.odb,Step-1,Increment      1: Step Time =    1.000,"P-10-1",           971,       139.936,       45.3280,            0.,NA,NA,"",   2.22104E+06,   2.19142E+06,   2.19142E+06
C:/temp/Job-10.odb,Step-1,Increment      1: Step Time =    1.000,"P-10-1",           972,       154.025,       65.4832,            0.,NA,NA,"",   1.71271E+06,   1.31913E+06,   1.31913E+06
C:/temp/Job-10.odb,Step-1,Increment      1: Step Time =    1.000,"P-10-1",           973,       160.512,       59.7969,            0.,NA,NA,"",   1.92185E+06,   1.58145E+06,   1.58145E+06
C:/temp/Job-10.odb,Step-1,Increment      1: Step Time =    1.000,"P-10-1",           974,       134.556,       46.3003,            0.,NA,NA,"",   2.41641E+06,   2.45928E+06,   2.45928E+06
C:/temp/Job-10.odb,Step-1,Increment      1: Step Time =    1.000,"P-10-1",           975,       32.0898,       76.7807,            0.,NA,NA,"",   197.415E+03,  -165.623E+03,  -165.623E+03
C:/temp/Job-10.odb,Step-1,Increment      1: Step Time =    1.000,"P-10-1",           976,       151.795,       47.3635,            0.,NA,NA,"",   2.04248E+06,   1.85536E+06,   1.85536E+06
C:/temp/Job-10.odb,Step-1,Increment      1: Step Time =    1.000,"P-10-1",           977,       164.408,       116.717,            0.,NA,NA,"",   1.13313E+06,  -13.5154E+03,  -13.5154E+03
C:/temp/Job-10.odb,Step-1,Increment      1: Step Time =    1.000,"P-10-1",           978,       37.3650,       68.1510,            0.,NA,NA,"",   431.025E+03,  -10.4090E+03,  -10.4090E+03
C:/temp/Job-10.odb,Step-1,Increment      1: Step Time =    1.000,"P-10-1",           979,       113.285,       174.281,            0.,NA,NA,"",   1.77831E+06,   1.91757E+06,   1.91757E+06
C:/temp/Job-10.odb,Step-1,Increment      1: Step Time =    1.000,"P-10-1",           980,       76.6983,       42.6962,            0.,NA,NA,"",   2.30967E+06,   2.28219E+06,   2.28219E+06
C:/temp/Job-10.odb,Step-1,Increment      1: Step Time =    1.000,"P-10-1",           981,       40.8212,       119.864,            0.,NA,NA,"",   414.184E+03,  -439.438E+03,  -439.438E+03
C:/temp/Job-10.odb,Step-1,Increment      1: Step Time =    1.000,"P-10-1",           982,       33.4966,       64.6308,            0.,NA,NA,"",   529.979E+03,   429.255E+03,   429.255E+03
C:/temp/Job-10.odb,Step-1,Increment      1: Step Time =    1.000,"P-10-1",           983,       36.0882,       61.2322,            0.,NA,NA,"",   683.482E+03,   557.112E+03,   557.112E+03
C:/temp/Job-10.odb,Step-1,Increment      1: Step Time =    1.000,"P-10-1",           984,       156.736,       45.9042,            0.,NA,NA,"",   1.95001E+06,   1.75068E+06,   1.75068E+06
C:/temp/Job-10.odb,Step-1,Increment      1: Step Time =    1.000,"P-10-1",           985,       9.52409,       55.7018,            0.,NA,NA,"",   650.084E+03,   706.143E+03,   706.143E+03
C:/temp/Job-10.odb,Step-1,Increment      1: Step Time =    1.000,"P-10-1",           986,       55.0869,       190.823,            0.,NA,NA,"",   2.00687E+06,   1.97362E+06,   1.97362E+06
C:/temp/Job-10.odb,Step-1,Increment      1: Step Time =    1.000,"P-10-1",           987,       144.112,       9.77154,            0.,NA,NA,"",   975.891E+03,   959.923E+03,   959.923E+03
C:/temp/Job-10.odb,Step-1,Increment      1: Step Time =    1.000,"P-10-1",           988,       191.062,       144.157,            0.,NA,NA,"",   1.07037E+06,   1.20136E+06,   1.20136E+06
C:/temp/Job-10.odb,Step-1,Increment      1: Step Time =    1.000,"P-10-1",           989,       27.5429,       105.505,            0.,NA,NA,"",   167.754E+03,  -186.631E+03,  -186.631E+03
C:/temp/Job-10.odb,Step-1,Increment      1: Step Time =    1.000,"P-10-1",           990,       126.525,       174.215,            0.,NA,NA,"",   1.68246E+06,   1.75758E+06,   1.75758E+06
C:/temp/Job-10.odb,Step-1,Increment      1: Step Time =    1.000,"P-10-1",           991,       72.1174,       173.519,            0.,NA,NA,"",   2.19073E+06,   2.07241E+06,   2.07241E+06
C:/temp/Job-10.odb,Step-1,Increment      1: Step Time =    1.000,"P-10-1",           992,       26.7596,       84.9306,            0.,NA,NA,"",   110.438E+03,  -125.116E+03,  -125.116E+03
C:/temp/Job-10.odb,Step-1,Increment      1: Step Time =    1.000,"P-10-1",           993,       114.916,       28.0968,            0.,NA,NA,"",   1.90138E+06,   2.04861E+06,   2.04861E+06
C:/temp/Job-10.odb,Step-1,Increment      1: Step Time =    1.000,"P-10-1",           994,       85.7629,       26.7594,            0.,NA,NA,"",   2.16933E+06,   2.16575E+06,   2.16575E+06
C:/temp/Job-10.odb,Step-1,Increment      1: Step Time =    1.000,"P-10-1",           995,       24.1771,       114.995,            0.,NA,NA,"",   86.4888E+03,  -95.3463E+03,  -95.3463E+03
C:/temp/Job-10.odb,Step-1,Increment      1: Step Time =    1.000,"P-10-1",           996,       176.306,       114.466,            0.,NA,NA,"",   984.309E+03,   975.803E+03,   975.803E+03
C:/temp/Job-10.odb,Step-1,Increment      1: Step Time =    1.000,"P-10-1",           997,       173.086,       86.3838,            0.,NA,NA,"",   934.575E+03,   834.033E+03,   834.033E+03
C:/temp/Job-10.odb,Step-1,Increment      1: Step Time =    1.000,"P-10-1",           998,       170.568,       103.644,            0.,NA,NA,"",   431.272E+03,   177.438E+03,   177.438E+03
C:/temp/Job-10.odb,Step-1,Increment      1: Step Time =    1.000,"P-10-1",           999,       104.562,       27.1464,            0.,NA,NA,"",   1.97102E+06,   2.11299E+06,   2.11299E+06
C:/temp/Job-10.odb,Step-1,Increment      1: Step Time =    1.000,"P-10-1",          1000,       27.9859,       62.3449,            0.,NA,NA,"",   564.512E+03,   520.338E+03,   520.338E+03
C:/temp/Job-10.odb,Step-1,Increment      1: Step Time =    1.000,"P-10-1",          1001,       67.3579,       26.0086,            0.,NA,NA,"",   2.16887E+06,   2.03290E+06,   2.03290E+06
C:/temp/Job-10.odb,Step-1,Increment      1: Step Time =    1.000,"P-10-1",          1002,       135.810,       28.2515,            0.,NA,NA,"",   1.74459E+06,   1.75687E+06,   1.75687E+06
C:/temp/Job-10.odb,Step-1,Increment      1: Step Time =    1.000,"P-10-1",          1003,       27.7696,       138.481,            0.,NA,NA,"",   584.821E+03,   543.656E+03,   543.656E+03
C:/temp/Job-10.odb,Step-1,Increment      1: Step Time =    1.000,"P-10-1",          1004,       171.176,       137.192,            0.,NA,NA,"",   1.69918E+06,   1.47627E+06,   1.47627E+06
C:/temp/Job-10.odb,Step-1,Increment      1: Step Time =    1.000,"P-10-1",          1005,       135.901,       175.097,            0.,NA,NA,"",   1.60733E+06,   1.61556E+06,   1.61556E+06
C:/temp/Job-10.odb,Step-1,Increment      1: Step Time =    1.000,"P-10-1",          1006,       63.0239,       176.512,            0.,NA,NA,"",   2.10606E+06,   1.97024E+06,   1.97024E+06
C:/temp/Job-10.odb,Step-1,Increment      1: Step Time =    1.000,"P-10-1",          1007,       172.141,       63.7313,            0.,NA,NA,"",   1.67520E+06,   1.46848E+06,   1.46848E+06
C:/temp/Job-10.odb,Step-1,Increment      1: Step Time =    1.000,"P-10-1",          1008,       68.7048,       32.6103,            0.,NA,NA,"",   2.22640E+06,   2.08263E+06,   2.08263E+06
C:/temp/Job-10.odb,Step-1,Increment      1: Step Time =    1.000,"P-10-1",          1009,       57.1483,       39.4659,            0.,NA,NA,"",   1.91551E+06,   1.71433E+06,   1.71433E+06
C:/temp/Job-10.odb,Step-1,Increment      1: Step Time =    1.000,"P-10-1",          1010,       160.114,       66.1585,            0.,NA,NA,"",   1.78532E+06,   1.36986E+06,   1.36986E+06
C:/temp/Job-10.odb,Step-1,Increment      1: Step Time =    1.000,"P-10-1",          1011,       169.308,       91.3007,            0.,NA,NA,"",   663.330E+03,   54.2004E+03,   54.2004E+03
C:/temp/Job-10.odb,Step-1,Increment      1: Step Time =    1.000,"P-10-1",          1012,       28.6584,       90.2507,            0.,NA,NA,"",   163.968E+03,  -183.972E+03,  -183.972E+03
C:/temp/Job-10.odb,Step-1,Increment      1: Step Time =    1.000,"P-10-1",          1013,       39.7901,       144.582,            0.,NA,NA,"",   970.095E+03,   820.286E+03,   820.286E+03
C:/temp/Job-10.odb,Step-1,Increment      1: Step Time =    1.000,"P-10-1",          1014,       82.9835,       166.178,            0.,NA,NA,"",      2.41E+06,   2.41319E+06,   2.41319E+06
C:/temp/Job-10.odb,Step-1,Increment      1: Step Time =    1.000,"P-10-1",          1015,       90.8502,       30.4310,            0.,NA,NA,"",   2.31463E+06,   2.38426E+06,   2.38426E+06
C:/temp/Job-10.odb,Step-1,Increment      1: Step Time =    1.000,"P-10-1",          1016,       170.339,       114.973,            0.,NA,NA,"",   1.00918E+06,   788.139E+03,   788.139E+03
C:/temp/Job-10.odb,Step-1,Increment      1: Step Time =    1.000,"P-10-1",          1017,       152.741,       147.877,            0.,NA,NA,"",   2.04982E+06,   1.81075E+06,   1.81075E+06
C:/temp/Job-10.odb,Step-1,Increment      1: Step Time =    1.000,"P-10-1",          1018,       69.6209,       168.360,            0.,NA,NA,"",   2.22329E+06,   2.08359E+06,   2.08359E+06
C:/temp/Job-10.odb,Step-1,Increment      1: Step Time =    1.000,"P-10-1",          1019,       132.285,       163.955,            0.,NA,NA,"",   2.13585E+06,   2.19328E+06,   2.19328E+06
C:/temp/Job-10.odb,Step-1,Increment      1: Step Time =    1.000,"P-10-1",          1020,       131.283,       174.327,            0.,NA,NA,"",   1.65229E+06,   1.69299E+06,   1.69299E+06
C:/temp/Job-10.odb,Step-1,Increment      1: Step Time =    1.000,"P-10-1",          1021,       63.2919,       162.261,            0.,NA,NA,"",   2.09519E+06,   1.90966E+06,   1.90966E+06
C:/temp/Job-10.odb,Step-1,Increment      1: Step Time =    1.000,"P-10-1",          1022,       145.334,       43.9038,            0.,NA,NA,"",   2.09415E+06,   1.99388E+06,   1.99388E+06
C:/temp/Job-10.odb,Step-1,Increment      1: Step Time =    1.000,"P-10-1",          1023,       162.689,       121.131,            0.,NA,NA,"",   1.33332E+06,   30.2373E+03,   30.2373E+03
C:/temp/Job-10.odb,Step-1,Increment      1: Step Time =    1.000,"P-10-1",          1024,       116.925,       174.349,            0.,NA,NA,"",   1.74356E+06,   1.87144E+06,   1.87144E+06
C:/temp/Job-10.odb,Step-1,Increment      1: Step Time =    1.000,"P-10-1",          1025,       50.2920,       47.3360,            0.,NA,NA,"",   1.51409E+06,   1.30709E+06,   1.30709E+06
C:/temp/Job-10.odb,Step-1,Increment      1: Step Time =    1.000,"P-10-1",          1026,       164.445,       56.7247,            0.,NA,NA,"",   1.87768E+06,   1.59960E+06,   1.59960E+06
C:/temp/Job-10.odb,Step-1,Increment      1: Step Time =    1.000,"P-10-1",          1027,       28.6130,       78.8278,            0.,NA,NA,"",   133.160E+03,  -114.290E+03,  -114.290E+03
C:/temp/Job-10.odb,Step-1,Increment      1: Step Time =    1.000,"P-10-1",          1028,       155.823,       41.3932,            0.,NA,NA,"",   1.89114E+06,   1.73344E+06,   1.73344E+06
C:/temp/Job-10.odb,Step-1,Increment      1: Step Time =    1.000,"P-10-1",          1029,       28.0607,       131.440,            0.,NA,NA,"",   341.172E+03,   288.035E+03,   288.035E+03
C:/temp/Job-10.odb,Step-1,Increment      1: Step Time =    1.000,"P-10-1",          1030,       166.844,       67.0935,            0.,NA,NA,"",   1.72698E+06,   1.39336E+06,   1.39336E+06
C:/temp/Job-10.odb,Step-1,Increment      1: Step Time =    1.000,"P-10-1",          1031,       163.111,       63.2885,            0.,NA,NA,"",   1.84246E+06,   1.48727E+06,   1.48727E+06
C:/temp/Job-10.odb,Step-1,Increment      1: Step Time =    1.000,"P-10-1",          1032,       23.4260,       66.3863,            0.,NA,NA,"",   390.495E+03,   376.336E+03,   376.336E+03
C:/temp/Job-10.odb,Step-1,Increment      1: Step Time =    1.000,"P-10-1",          1033,       176.276,       131.406,            0.,NA,NA,"",   1.51097E+06,   1.40119E+06,   1.40119E+06
C:/temp/Job-10.odb,Step-1,Increment      1: Step Time =    1.000,"P-10-1",          1034,       128.957,       22.7301,            0.,NA,NA,"",   1.53378E+06,   1.57903E+06,   1.57903E+06
C:/temp/Job-10.odb,Step-1,Increment      1: Step Time =    1.000,"P-10-1",          1035,       67.4939,       175.232,            0.,NA,NA,"",   2.14270E+06,   2.00754E+06,   2.00754E+06
C:/temp/Job-10.odb,Step-1,Increment      1: Step Time =    1.000,"P-10-1",          1036,       23.6196,       90.3740,            0.,NA,NA,"",   127.154E+03,  -142.095E+03,  -142.095E+03
C:/temp/Job-10.odb,Step-1,Increment      1: Step Time =    1.000,"P-10-1",          1037,       34.8716,       121.847,            0.,NA,NA,"",   235.572E+03,  -235.799E+03,  -235.799E+03
C:/temp/Job-10.odb,Step-1,Increment      1: Step Time =    1.000,"P-10-1",          1038,       78.9721,       180.350,            0.,NA,NA,"",   1.95715E+06,   1.88858E+06,   1.88858E+06
C:/temp/Job-10.odb,Step-1,Increment      1: Step Time =    1.000,"P-10-1",          1039,       158.299,       50.1483,            0.,NA,NA,"",   1.97146E+06,   1.72924E+06,   1.72924E+06
C:/temp/Job-10.odb,Step-1,Increment      1: Step Time =    1.000,"P-10-1",          1040,       76.9901,       37.6921,            0.,NA,NA,"",   2.36343E+06,   2.30743E+06,   2.30743E+06
C:/temp/Job-10.odb,Step-1,Increment      1: Step Time =    1.000,"P-10-1",          1041,       121.522,       29.4232,            0.,NA,NA,"",   1.91588E+06,   2.03851E+06,   2.03851E+06
C:/temp/Job-10.odb,Step-1,Increment      1: Step Time =    1.000,"P-10-1",          1042,       26.0757,       121.607,            0.,NA,NA,"",   111.602E+03,  -11.9178E+03,  -11.9178E+03
C:/temp/Job-10.odb,Step-1,Increment      1: Step Time =    1.000,"P-10-1",          1043,       171.894,       119.756,            0.,NA,NA,"",   1.23468E+06,   1.03277E+06,   1.03277E+06
C:/temp/Job-10.odb,Step-1,Increment      1: Step Time =    1.000,"P-10-1",          1044,       172.266,       81.7491,            0.,NA,NA,"",   1.16680E+06,   992.165E+03,   992.165E+03
C:/temp/Job-10.odb,Step-1,Increment      1: Step Time =    1.000,"P-10-1",          1045,       113.163,       25.2220,            0.,NA,NA,"",   1.72037E+06,   1.85253E+06,   1.85253E+06
C:/temp/Job-10.odb,Step-1,Increment      1: Step Time =    1.000,"P-10-1",          1046,       176.090,       107.454,            0.,NA,NA,"",   649.521E+03,   689.864E+03,   689.864E+03
C:/temp/Job-10.odb,Step-1,Increment      1: Step Time =    1.000,"P-10-1",          1047,       59.9859,       29.3600,            0.,NA,NA,"",   2.11395E+06,   1.94868E+06,   1.94868E+06
C:/temp/Job-10.odb,Step-1,Increment      1: Step Time =    1.000,"P-10-1",          1048,       28.1990,       58.2332,            0.,NA,NA,"",   712.176E+03,   670.249E+03,   670.249E+03
C:/temp/Job-10.odb,Step-1,Increment      1: Step Time =    1.000,"P-10-1",          1049,       26.4661,       142.125,            0.,NA,NA,"",   695.662E+03,   665.610E+03,   665.610E+03
C:/temp/Job-10.odb,Step-1,Increment      1: Step Time =    1.000,"P-10-1",          1050,       140.706,       29.6965,            0.,NA,NA,"",   1.77226E+06,   1.74898E+06,   1.74898E+06
C:/temp/Job-10.odb,Step-1,Increment      1: Step Time =    1.000,"P-10-1",          1051,       176.586,       143.918,            0.,NA,NA,"",   1.55327E+06,   1.46575E+06,   1.46575E+06
C:/temp/Job-10.odb,Step-1,Increment      1: Step Time =    1.000,"P-10-1",          1052,       171.752,       59.7714,            0.,NA,NA,"",   1.70427E+06,   1.51119E+06,   1.51119E+06
C:/temp/Job-10.odb,Step-1,Increment      1: Step Time =    1.000,"P-10-1",          1053,       57.5802,       173.503,            0.,NA,NA,"",   2.08376E+06,   1.93236E+06,   1.93236E+06
C:/temp/Job-10.odb,Step-1,Increment      1: Step Time =    1.000,"P-10-1",          1054,       55.9357,       43.9540,            0.,NA,NA,"",   1.74735E+06,   1.53582E+06,   1.53582E+06
C:/temp/Job-10.odb,Step-1,Increment      1: Step Time =    1.000,"P-10-1",          1055,       33.5538,       145.654,            0.,NA,NA,"",   928.437E+03,   836.818E+03,   836.818E+03
C:/temp/Job-10.odb,Step-1,Increment      1: Step Time =    1.000,"P-10-1",          1056,       42.7618,       140.994,            0.,NA,NA,"",   849.891E+03,   663.335E+03,   663.335E+03
C:/temp/Job-10.odb,Step-1,Increment      1: Step Time =    1.000,"P-10-1",          1057,       33.7007,       131.558,            0.,NA,NA,"",   392.372E+03,   278.732E+03,   278.732E+03
C:/temp/Job-10.odb,Step-1,Increment      1: Step Time =    1.000,"P-10-1",          1058,       153.882,       10.4329,            0.,NA,NA,"",   1.04207E+06,   1.02277E+06,   1.02277E+06
C:/temp/Job-10.odb,Step-1,Increment      1: Step Time =    1.000,"P-10-1",          1059,       190.098,       153.634,            0.,NA,NA,"",   1.05775E+06,    1.1438E+06,    1.1438E+06
C:/temp/Job-10.odb,Step-1,Increment      1: Step Time =    1.000,"P-10-1",          1060,       46.0495,       190.727,            0.,NA,NA,"",   2.11576E+06,   2.09036E+06,   2.09036E+06
C:/temp/Job-10.odb,Step-1,Increment      1: Step Time =    1.000,"P-10-1",          1061,       9.93520,       46.0480,            0.,NA,NA,"",   941.120E+03,   1.01918E+06,   1.01918E+06
C:/temp/Job-10.odb,Step-1,Increment      1: Step Time =    1.000,"P-10-1",          1062,       173.068,       111.646,            0.,NA,NA,"",   827.495E+03,   744.606E+03,   744.606E+03
C:/temp/Job-10.odb,Step-1,Increment      1: Step Time =    1.000,"P-10-1",          1063,       151.200,       141.554,            0.,NA,NA,"",   1.95086E+06,   1.67208E+06,   1.67208E+06
C:/temp/Job-10.odb,Step-1,Increment      1: Step Time =    1.000,"P-10-1",          1064,       156.863,       150.575,            0.,NA,NA,"",   1.99017E+06,   1.75827E+06,   1.75827E+06
C:/temp/Job-10.odb,Step-1,Increment      1: Step Time =    1.000,"P-10-1",          1065,       67.8986,       161.845,            0.,NA,NA,"",   2.16932E+06,   2.01529E+06,   2.01529E+06
C:/temp/Job-10.odb,Step-1,Increment      1: Step Time =    1.000,"P-10-1",          1066,       59.7196,       168.640,            0.,NA,NA,"",   2.09979E+06,   1.92219E+06,   1.92219E+06
C:/temp/Job-10.odb,Step-1,Increment      1: Step Time =    1.000,"P-10-1",          1067,       168.347,       118.482,            0.,NA,NA,"",   1.19628E+06,   868.086E+03,   868.086E+03
C:/temp/Job-10.odb,Step-1,Increment      1: Step Time =    1.000,"P-10-1",          1068,       49.4317,       51.9660,            0.,NA,NA,"",   1.27399E+06,   1.05841E+06,   1.05841E+06
C:/temp/Job-10.odb,Step-1,Increment      1: Step Time =    1.000,"P-10-1",          1069,       160.723,       53.9170,            0.,NA,NA,"",   1.95426E+06,   1.67736E+06,   1.67736E+06
C:/temp/Job-10.odb,Step-1,Increment      1: Step Time =    1.000,"P-10-1",          1070,       26.9158,       75.0132,            0.,NA,NA,"",   172.110E+03,   33.0771E+03,   33.0771E+03
C:/temp/Job-10.odb,Step-1,Increment      1: Step Time =    1.000,"P-10-1",          1071,       91.3739,       35.2132,            0.,NA,NA,"",   2.61388E+06,   2.71392E+06,   2.71392E+06
C:/temp/Job-10.odb,Step-1,Increment      1: Step Time =    1.000,"P-10-1",          1072,       28.9943,       67.0938,            0.,NA,NA,"",   401.027E+03,   341.298E+03,   341.298E+03
C:/temp/Job-10.odb,Step-1,Increment      1: Step Time =    1.000,"P-10-1",          1073,       144.341,       38.9622,            0.,NA,NA,"",   2.01878E+06,   1.94777E+06,   1.94777E+06
C:/temp/Job-10.odb,Step-1,Increment      1: Step Time =    1.000,"P-10-1",          1074,       24.1584,       124.156,            0.,NA,NA,"",   147.695E+03,   110.694E+03,   110.694E+03
C:/temp/Job-10.odb,Step-1,Increment      1: Step Time =    1.000,"P-10-1",          1075,       171.787,       77.0156,            0.,NA,NA,"",   1.36178E+06,   1.13904E+06,   1.13904E+06
C:/temp/Job-10.odb,Step-1,Increment      1: Step Time =    1.000,"P-10-1",          1076,       74.7210,       25.8470,            0.,NA,NA,"",   2.19503E+06,   2.09546E+06,   2.09546E+06
C:/temp/Job-10.odb,Step-1,Increment      1: Step Time =    1.000,"P-10-1",          1077,       110.436,       29.9874,            0.,NA,NA,"",   2.11840E+06,   2.28666E+06,   2.28666E+06
C:/temp/Job-10.odb,Step-1,Increment      1: Step Time =    1.000,"P-10-1",          1078,       81.4884,       28.0286,            0.,NA,NA,"",   2.23400E+06,   2.19026E+06,   2.19026E+06
C:/temp/Job-10.odb,Step-1,Increment      1: Step Time =    1.000,"P-10-1",          1079,       27.9176,       110.868,            0.,NA,NA,"",   140.732E+03,  -159.042E+03,  -159.042E+03
C:/temp/Job-10.odb,Step-1,Increment      1: Step Time =    1.000,"P-10-1",          1080,       58.2284,       34.5068,            0.,NA,NA,"",   2.04352E+06,   1.85719E+06,   1.85719E+06
C:/temp/Job-10.odb,Step-1,Increment      1: Step Time =    1.000,"P-10-1",          1081,       36.2163,       117.843,            0.,NA,NA,"",   282.143E+03,  -308.608E+03,  -308.608E+03
C:/temp/Job-10.odb,Step-1,Increment      1: Step Time =    1.000,"P-10-1",          1082,       123.468,       33.4303,            0.,NA,NA,"",   2.14141E+06,   2.26902E+06,   2.26902E+06
C:/temp/Job-10.odb,Step-1,Increment      1: Step Time =    1.000,"P-10-1",          1083,       36.8408,       148.053,            0.,NA,NA,"",   1.07732E+06,   955.788E+03,   955.788E+03
C:/temp/Job-10.odb,Step-1,Increment      1: Step Time =    1.000,"P-10-1",          1084,       160.880,       153.204,            0.,NA,NA,"",   1.88135E+06,   1.67924E+06,   1.67924E+06
C:/temp/Job-10.odb,Step-1,Increment      1: Step Time =    1.000,"P-10-1",          1085,       124.769,       37.3499,            0.,NA,NA,"",   2.35616E+06,   2.48661E+06,   2.48661E+06
C:/temp/Job-10.odb,Step-1,Increment      1: Step Time =    1.000,"P-10-1",          1086,       151.523,       161.503,            0.,NA,NA,"",   1.90659E+06,   1.78059E+06,   1.78059E+06
C:/temp/Job-10.odb,Step-1,Increment      1: Step Time =    1.000,"P-10-1",          1087,       77.2914,       33.0680,            0.,NA,NA,"",   2.33283E+06,   2.26096E+06,   2.26096E+06
C:/temp/Job-10.odb,Step-1,Increment      1: Step Time =    1.000,"P-10-1",          1088,       152.979,       15.4876,            0.,NA,NA,"",   1.20125E+06,   1.16834E+06,   1.16834E+06
C:/temp/Job-10.odb,Step-1,Increment      1: Step Time =    1.000,"P-10-1",          1089,       15.1104,       46.6191,            0.,NA,NA,"",   977.423E+03,   1.02757E+06,   1.02757E+06
C:/temp/Job-10.odb,Step-1,Increment      1: Step Time =    1.000,"P-10-1",          1090,       185.783,       152.022,            0.,NA,NA,"",   1.19833E+06,   1.24702E+06,   1.24702E+06
C:/temp/Job-10.odb,Step-1,Increment      1: Step Time =    1.000,"P-10-1",          1091,       47.1471,       187.443,            0.,NA,NA,"",   2.08218E+06,   2.03992E+06,   2.03992E+06
C:/temp/Job-10.odb,Step-1,Increment      1: Step Time =    1.000,"P-10-1",          1092,       72.9968,       33.0931,            0.,NA,NA,"",   2.28282E+06,   2.16991E+06,   2.16991E+06
C:/temp/Job-10.odb,Step-1,Increment      1: Step Time =    1.000,"P-10-1",          1093,       149.612,       37.4447,            0.,NA,NA,"",   1.90871E+06,   1.80130E+06,   1.80130E+06
C:/temp/Job-10.odb,Step-1,Increment      1: Step Time =    1.000,"P-10-1",          1094,       52.5852,       38.6920,            0.,NA,NA,"",   1.85586E+06,   1.66236E+06,   1.66236E+06
C:/temp/Job-10.odb,Step-1,Increment      1: Step Time =    1.000,"P-10-1",          1095,       124.683,       23.4552,            0.,NA,NA,"",   1.57298E+06,   1.64816E+06,   1.64816E+06
C:/temp/Job-10.odb,Step-1,Increment      1: Step Time =    1.000,"P-10-1",          1096,       176.039,       127.090,            0.,NA,NA,"",   1.43317E+06,   1.32609E+06,   1.32609E+06
C:/temp/Job-10.odb,Step-1,Increment      1: Step Time =    1.000,"P-10-1",          1097,       164.756,       72.1447,            0.,NA,NA,"",   1.60267E+06,   1.17320E+06,   1.17320E+06
C:/temp/Job-10.odb,Step-1,Increment      1: Step Time =    1.000,"P-10-1",          1098,       54.9701,       28.0726,            0.,NA,NA,"",   2.05622E+06,   1.90370E+06,   1.90370E+06
C:/temp/Job-10.odb,Step-1,Increment      1: Step Time =    1.000,"P-10-1",          1099,       24.3943,       53.1789,            0.,NA,NA,"",   853.939E+03,   842.609E+03,   842.609E+03
C:/temp/Job-10.odb,Step-1,Increment      1: Step Time =    1.000,"P-10-1",          1100,       23.5854,       145.577,            0.,NA,NA,"",   792.373E+03,   785.241E+03,   785.241E+03
C:/temp/Job-10.odb,Step-1,Increment      1: Step Time =    1.000,"P-10-1",          1101,       146.189,       24.6963,            0.,NA,NA,"",   1.56016E+06,   1.51513E+06,   1.51513E+06
C:/temp/Job-10.odb,Step-1,Increment      1: Step Time =    1.000,"P-10-1",          1102,       143.497,       175.152,            0.,NA,NA,"",   1.57030E+06,   1.52869E+06,   1.52869E+06
C:/temp/Job-10.odb,Step-1,Increment      1: Step Time =    1.000,"P-10-1",          1103,       177.523,       146.149,            0.,NA,NA,"",   1.50079E+06,   1.43885E+06,   1.43885E+06
C:/temp/Job-10.odb,Step-1,Increment      1: Step Time =    1.000,"P-10-1",          1104,       174.755,       54.7114,            0.,NA,NA,"",   1.59724E+06,   1.48281E+06,   1.48281E+06
C:/temp/Job-10.odb,Step-1,Increment      1: Step Time =    1.000,"P-10-1",          1105,       55.5239,       177.740,            0.,NA,NA,"",   2.06272E+06,   1.94042E+06,   1.94042E+06
C:/temp/Job-10.odb,Step-1,Increment      1: Step Time =    1.000,"P-10-1",          1106,       144.430,       142.468,            0.,NA,NA,"",   1.96375E+06,   1.83363E+06,   1.83363E+06
C:/temp/Job-10.odb,Step-1,Increment      1: Step Time =    1.000,"P-10-1",          1107,       157.689,       141.130,            0.,NA,NA,"",   1.95266E+06,   1.62032E+06,   1.62032E+06
C:/temp/Job-10.odb,Step-1,Increment      1: Step Time =    1.000,"P-10-1",          1108,       45.6512,       46.4002,            0.,NA,NA,"",   1.46021E+06,   1.27572E+06,   1.27572E+06
C:/temp/Job-10.odb,Step-1,Increment      1: Step Time =    1.000,"P-10-1",          1109,       22.4300,       75.7944,            0.,NA,NA,"",   145.427E+03,   91.8509E+03,   91.8509E+03
C:/temp/Job-10.odb,Step-1,Increment      1: Step Time =    1.000,"P-10-1",          1110,       165.695,       60.6417,            0.,NA,NA,"",   1.83847E+06,   1.53849E+06,   1.53849E+06
C:/temp/Job-10.odb,Step-1,Increment      1: Step Time =    1.000,"P-10-1",          1111,       171.821,       72.3471,            0.,NA,NA,"",   1.51457E+06,   1.27773E+06,   1.27773E+06
C:/temp/Job-10.odb,Step-1,Increment      1: Step Time =    1.000,"P-10-1",          1112,       69.8076,       29.1611,            0.,NA,NA,"",   2.22498E+06,   2.08976E+06,   2.08976E+06
C:/temp/Job-10.odb,Step-1,Increment      1: Step Time =    1.000,"P-10-1",          1113,       37.1046,       113.408,            0.,NA,NA,"",   348.625E+03,  -387.318E+03,  -387.318E+03
C:/temp/Job-10.odb,Step-1,Increment      1: Step Time =    1.000,"P-10-1",          1114,       39.7187,       150.771,            0.,NA,NA,"",   1.22720E+06,   1.08413E+06,   1.08413E+06
C:/temp/Job-10.odb,Step-1,Increment      1: Step Time =    1.000,"P-10-1",          1115,       30.9894,       120.031,            0.,NA,NA,"",   157.372E+03,  -162.452E+03,  -162.452E+03
C:/temp/Job-10.odb,Step-1,Increment      1: Step Time =    1.000,"P-10-1",          1116,       32.5744,       111.896,            0.,NA,NA,"",   223.480E+03,  -253.750E+03,  -253.750E+03
C:/temp/Job-10.odb,Step-1,Increment      1: Step Time =    1.000,"P-10-1",          1117,       22.2674,       150.415,            0.,NA,NA,"",   953.074E+03,   957.730E+03,   957.730E+03
C:/temp/Job-10.odb,Step-1,Increment      1: Step Time =    1.000,"P-10-1",          1118,       150.574,       25.7061,            0.,NA,NA,"",   1.54607E+06,   1.48460E+06,   1.48460E+06
C:/temp/Job-10.odb,Step-1,Increment      1: Step Time =    1.000,"P-10-1",          1119,       173.633,       50.1713,            0.,NA,NA,"",   1.59353E+06,   1.48082E+06,   1.48082E+06
C:/temp/Job-10.odb,Step-1,Increment      1: Step Time =    1.000,"P-10-1",          1120,       48.1236,       172.392,            0.,NA,NA,"",   1.98286E+06,   1.85142E+06,   1.85142E+06
C:/temp/Job-10.odb,Step-1,Increment      1: Step Time =    1.000,"P-10-1",          1121,       50.7081,       26.5478,            0.,NA,NA,"",   2.01822E+06,   1.88019E+06,   1.88019E+06
C:/temp/Job-10.odb,Step-1,Increment      1: Step Time =    1.000,"P-10-1",          1122,       25.3863,       48.8893,            0.,NA,NA,"",   1.02634E+06,   1.00930E+06,   1.00930E+06
C:/temp/Job-10.odb,Step-1,Increment      1: Step Time =    1.000,"P-10-1",          1123,       150.568,       176.002,            0.,NA,NA,"",   1.49699E+06,   1.43965E+06,   1.43965E+06
C:/temp/Job-10.odb,Step-1,Increment      1: Step Time =    1.000,"P-10-1",          1124,       174.795,       152.233,            0.,NA,NA,"",   1.53633E+06,   1.44676E+06,   1.44676E+06
C:/temp/Job-10.odb,Step-1,Increment      1: Step Time =    1.000,"P-10-1",          1125,       163.054,       149.973,            0.,NA,NA,"",   1.87115E+06,   1.64984E+06,   1.64984E+06
C:/temp/Job-10.odb,Step-1,Increment      1: Step Time =    1.000,"P-10-1",          1126,       125.960,       27.6261,            0.,NA,NA,"",   1.77270E+06,   1.85662E+06,   1.85662E+06
C:/temp/Job-10.odb,Step-1,Increment      1: Step Time =    1.000,"P-10-1",          1127,       146.260,       165.007,            0.,NA,NA,"",   1.88647E+06,   1.80890E+06,   1.80890E+06
C:/temp/Job-10.odb,Step-1,Increment      1: Step Time =    1.000,"P-10-1",          1128,       154.715,       154.019,            0.,NA,NA,"",   1.98733E+06,   1.79331E+06,   1.79331E+06
C:/temp/Job-10.odb,Step-1,Increment      1: Step Time =    1.000,"P-10-1",          1129,       18.7122,       78.3176,            0.,NA,NA,"",   112.165E+03,   93.6079E+03,   93.6079E+03
C:/temp/Job-10.odb,Step-1,Increment      1: Step Time =    1.000,"P-10-1",          1130,       120.136,       19.1936,            0.,NA,NA,"",   1.34711E+06,   1.42383E+06,   1.42383E+06
C:/temp/Job-10.odb,Step-1,Increment      1: Step Time =    1.000,"P-10-1",          1131,       180.243,       122.046,            0.,NA,NA,"",   1.25183E+06,   1.28911E+06,   1.28911E+06
C:/temp/Job-10.odb,Step-1,Increment      1: Step Time =    1.000,"P-10-1",          1132,       154.883,       36.5825,            0.,NA,NA,"",   1.79886E+06,   1.67678E+06,   1.67678E+06
C:/temp/Job-10.odb,Step-1,Increment      1: Step Time =    1.000,"P-10-1",          1133,       37.8154,       108.601,            0.,NA,NA,"",   417.875E+03,  -462.233E+03,  -462.233E+03
C:/temp/Job-10.odb,Step-1,Increment      1: Step Time =    1.000,"P-10-1",          1134,       131.713,       27.2458,            0.,NA,NA,"",   1.71771E+06,   1.75737E+06,   1.75737E+06
C:/temp/Job-10.odb,Step-1,Increment      1: Step Time =    1.000,"P-10-1",          1135,       154.046,       138.117,            0.,NA,NA,"",   1.85917E+06,   1.50657E+06,   1.50657E+06
C:/temp/Job-10.odb,Step-1,Increment      1: Step Time =    1.000,"P-10-1",          1136,       44.1977,       151.868,            0.,NA,NA,"",   1.35711E+06,   1.18121E+06,   1.18121E+06
C:/temp/Job-10.odb,Step-1,Increment      1: Step Time =    1.000,"P-10-1",          1137,       48.9093,       38.4819,            0.,NA,NA,"",   1.80393E+06,   1.62547E+06,   1.62547E+06
C:/temp/Job-10.odb,Step-1,Increment      1: Step Time =    1.000,"P-10-1",          1138,       143.102,       34.2929,            0.,NA,NA,"",   1.90675E+06,   1.85971E+06,   1.85971E+06
C:/temp/Job-10.odb,Step-1,Increment      1: Step Time =    1.000,"P-10-1",          1139,       164.071,       52.4968,            0.,NA,NA,"",   1.87697E+06,   1.63690E+06,   1.63690E+06
C:/temp/Job-10.odb,Step-1,Increment      1: Step Time =    1.000,"P-10-1",          1140,       138.532,       36.0572,            0.,NA,NA,"",   2.01964E+06,   2.01198E+06,   2.01198E+06
C:/temp/Job-10.odb,Step-1,Increment      1: Step Time =    1.000,"P-10-1",          1141,       37.7866,       57.5093,            0.,NA,NA,"",   860.112E+03,   720.853E+03,   720.853E+03
C:/temp/Job-10.odb,Step-1,Increment      1: Step Time =    1.000,"P-10-1",          1142,       32.3169,       59.2334,            0.,NA,NA,"",   714.222E+03,   632.948E+03,   632.948E+03
C:/temp/Job-10.odb,Step-1,Increment      1: Step Time =    1.000,"P-10-1",          1143,       136.999,       164.001,            0.,NA,NA,"",   2.05156E+06,   2.06176E+06,   2.06176E+06
C:/temp/Job-10.odb,Step-1,Increment      1: Step Time =    1.000,"P-10-1",          1144,       35.7340,       48.4043,            0.,NA,NA,"",   1.20775E+06,   1.09800E+06,   1.09800E+06
C:/temp/Job-10.odb,Step-1,Increment      1: Step Time =    1.000,"P-10-1",          1145,       141.504,       167.742,            0.,NA,NA,"",   1.86788E+06,   1.83573E+06,   1.83573E+06
C:/temp/Job-10.odb,Step-1,Increment      1: Step Time =    1.000,"P-10-1",          1146,       169.334,       60.4675,            0.,NA,NA,"",   1.77010E+06,   1.52936E+06,   1.52936E+06
C:/temp/Job-10.odb,Step-1,Increment      1: Step Time =    1.000,"P-10-1",          1147,       30.0759,       143.666,            0.,NA,NA,"",   797.257E+03,   737.336E+03,   737.336E+03
C:/temp/Job-10.odb,Step-1,Increment      1: Step Time =    1.000,"P-10-1",          1148,       54.7584,       165.647,            0.,NA,NA,"",   2.00007E+06,   1.81440E+06,   1.81440E+06
C:/temp/Job-10.odb,Step-1,Increment      1: Step Time =    1.000,"P-10-1",          1149,       164.932,       43.7352,            0.,NA,NA,"",   1.73233E+06,   1.57870E+06,   1.57870E+06
C:/temp/Job-10.odb,Step-1,Increment      1: Step Time =    1.000,"P-10-1",          1150,       166.904,       47.4831,            0.,NA,NA,"",   1.74031E+06,   1.57365E+06,   1.57365E+06
C:/temp/Job-10.odb,Step-1,Increment      1: Step Time =    1.000,"P-10-1",          1151,       150.606,       134.753,            0.,NA,NA,"",   1.57906E+06,   1.26591E+06,   1.26591E+06
C:/temp/Job-10.odb,Step-1,Increment      1: Step Time =    1.000,"P-10-1",          1152,       25.7379,       152.203,            0.,NA,NA,"",   1.06698E+06,   1.04757E+06,   1.04757E+06
C:/temp/Job-10.odb,Step-1,Increment      1: Step Time =    1.000,"P-10-1",          1153,       151.874,       20.5148,            0.,NA,NA,"",   1.36863E+06,   1.32174E+06,   1.32174E+06
C:/temp/Job-10.odb,Step-1,Increment      1: Step Time =    1.000,"P-10-1",          1154,       18.1923,       150.148,            0.,NA,NA,"",   896.310E+03,   924.679E+03,   924.679E+03
C:/temp/Job-10.odb,Step-1,Increment      1: Step Time =    1.000,"P-10-1",          1155,       46.7414,       178.780,            0.,NA,NA,"",   2.02663E+06,   1.93569E+06,   1.93569E+06
C:/temp/Job-10.odb,Step-1,Increment      1: Step Time =    1.000,"P-10-1",          1156,       179.690,       48.5344,            0.,NA,NA,"",   1.38417E+06,   1.36026E+06,   1.36026E+06
C:/temp/Job-10.odb,Step-1,Increment      1: Step Time =    1.000,"P-10-1",          1157,       20.4479,       47.3346,            0.,NA,NA,"",   1.01079E+06,   1.02841E+06,   1.02841E+06
C:/temp/Job-10.odb,Step-1,Increment      1: Step Time =    1.000,"P-10-1",          1158,       46.1597,       22.9318,            0.,NA,NA,"",   2.00549E+06,   1.90596E+06,   1.90596E+06
C:/temp/Job-10.odb,Step-1,Increment      1: Step Time =    1.000,"P-10-1",          1159,       48.8120,       30.0271,            0.,NA,NA,"",   1.96162E+06,   1.81300E+06,   1.81300E+06
C:/temp/Job-10.odb,Step-1,Increment      1: Step Time =    1.000,"P-10-1",          1160,       179.597,       152.794,            0.,NA,NA,"",   1.37546E+06,   1.35367E+06,   1.35367E+06
C:/temp/Job-10.odb,Step-1,Increment      1: Step Time =    1.000,"P-10-1",          1161,       153.523,       177.487,            0.,NA,NA,"",   1.42446E+06,   1.36830E+06,   1.36830E+06
C:/temp/Job-10.odb,Step-1,Increment      1: Step Time =    1.000,"P-10-1",          1162,       148.160,       174.572,            0.,NA,NA,"",   1.56490E+06,   1.50923E+06,   1.50923E+06
C:/temp/Job-10.odb,Step-1,Increment      1: Step Time =    1.000,"P-10-1",          1163,       49.1893,       160.704,            0.,NA,NA,"",   1.78056E+06,   1.59511E+06,   1.59511E+06
C:/temp/Job-10.odb,Step-1,Increment      1: Step Time =    1.000,"P-10-1",          1164,       166.313,       152.643,            0.,NA,NA,"",   1.75701E+06,   1.58262E+06,   1.58262E+06
C:/temp/Job-10.odb,Step-1,Increment      1: Step Time =    1.000,"P-10-1",          1165,       161.814,       143.772,            0.,NA,NA,"",   1.92116E+06,   1.63373E+06,   1.63373E+06
C:/temp/Job-10.odb,Step-1,Increment      1: Step Time =    1.000,"P-10-1",          1166,       141.695,       164.034,            0.,NA,NA,"",   1.96997E+06,   1.93042E+06,   1.93042E+06
C:/temp/Job-10.odb,Step-1,Increment      1: Step Time =    1.000,"P-10-1",          1167,       150.672,       165.958,            0.,NA,NA,"",   1.80595E+06,   1.70665E+06,   1.70665E+06
C:/temp/Job-10.odb,Step-1,Increment      1: Step Time =    1.000,"P-10-1",          1168,       49.7063,       145.961,            0.,NA,NA,"",   1.14213E+06,   919.238E+03,   919.238E+03
C:/temp/Job-10.odb,Step-1,Increment      1: Step Time =    1.000,"P-10-1",          1169,       42.1128,       153.842,            0.,NA,NA,"",   1.39585E+06,   1.23656E+06,   1.23656E+06
C:/temp/Job-10.odb,Step-1,Increment      1: Step Time =    1.000,"P-10-1",          1170,       154.401,       31.5126,            0.,NA,NA,"",   1.67190E+06,   1.57903E+06,   1.57903E+06
C:/temp/Job-10.odb,Step-1,Increment      1: Step Time =    1.000,"P-10-1",          1171,       46.2611,       41.5424,            0.,NA,NA,"",   1.65754E+06,   1.48512E+06,   1.48512E+06
C:/temp/Job-10.odb,Step-1,Increment      1: Step Time =    1.000,"P-10-1",          1172,       133.916,       36.5485,            0.,NA,NA,"",   2.11621E+06,   2.15489E+06,   2.15489E+06
C:/temp/Job-10.odb,Step-1,Increment      1: Step Time =    1.000,"P-10-1",          1173,       34.6037,       52.1489,            0.,NA,NA,"",   1.03925E+06,   936.418E+03,   936.418E+03
C:/temp/Job-10.odb,Step-1,Increment      1: Step Time =    1.000,"P-10-1",          1174,       129.335,       36.6270,            0.,NA,NA,"",   2.21322E+06,   2.29938E+06,   2.29938E+06
C:/temp/Job-10.odb,Step-1,Increment      1: Step Time =    1.000,"P-10-1",          1175,       134.107,       32.2766,            0.,NA,NA,"",   1.93413E+06,   1.96370E+06,   1.96370E+06
C:/temp/Job-10.odb,Step-1,Increment      1: Step Time =    1.000,"P-10-1",          1176,       36.7809,       43.9716,            0.,NA,NA,"",   1.38094E+06,   1.27014E+06,   1.27014E+06
C:/temp/Job-10.odb,Step-1,Increment      1: Step Time =    1.000,"P-10-1",          1177,       154.953,       173.436,            0.,NA,NA,"",   1.53649E+06,   1.46433E+06,   1.46433E+06
C:/temp/Job-10.odb,Step-1,Increment      1: Step Time =    1.000,"P-10-1",          1178,       30.0526,       159.032,            0.,NA,NA,"",   1.38270E+06,   1.32669E+06,   1.32669E+06
C:/temp/Job-10.odb,Step-1,Increment      1: Step Time =    1.000,"P-10-1",          1179,       47.1701,       26.8942,            0.,NA,NA,"",   1.97653E+06,   1.85169E+06,   1.85169E+06
C:/temp/Job-10.odb,Step-1,Increment      1: Step Time =    1.000,"P-10-1",          1180,       150.871,       171.150,            0.,NA,NA,"",   1.64689E+06,   1.57243E+06,   1.57243E+06
C:/temp/Job-10.odb,Step-1,Increment      1: Step Time =    1.000,"P-10-1",          1181,       47.7344,       35.4980,            0.,NA,NA,"",   1.84693E+06,   1.68115E+06,   1.68115E+06
C:/temp/Job-10.odb,Step-1,Increment      1: Step Time =    1.000,"P-10-1",          1182,       32.1854,       155.267,            0.,NA,NA,"",   1.27792E+06,   1.20005E+06,   1.20005E+06
C:/temp/Job-10.odb,Step-1,Increment      1: Step Time =    1.000,"P-10-1",          1183,       157.141,       135.349,            0.,NA,NA,"",   1.80977E+06,   1.40580E+06,   1.40580E+06
C:/temp/Job-10.odb,Step-1,Increment      1: Step Time =    1.000,"P-10-1",          1184,       13.7365,       150.073,            0.,NA,NA,"",   849.422E+03,   901.893E+03,   901.893E+03
C:/temp/Job-10.odb,Step-1,Increment      1: Step Time =    1.000,"P-10-1",          1185,       148.180,       15.0101,            0.,NA,NA,"",   1.19007E+06,   1.16117E+06,   1.16117E+06
C:/temp/Job-10.odb,Step-1,Increment      1: Step Time =    1.000,"P-10-1",          1186,       185.144,       50.8535,            0.,NA,NA,"",   1.22010E+06,   1.27349E+06,   1.27349E+06
C:/temp/Job-10.odb,Step-1,Increment      1: Step Time =    1.000,"P-10-1",          1187,       49.1310,       182.815,            0.,NA,NA,"",   2.04877E+06,   1.97530E+06,   1.97530E+06
C:/temp/Job-10.odb,Step-1,Increment      1: Step Time =    1.000,"P-10-1",          1188,       14.7175,       51.4210,            0.,NA,NA,"",   815.340E+03,   860.298E+03,   860.298E+03
C:/temp/Job-10.odb,Step-1,Increment      1: Step Time =    1.000,"P-10-1",          1189,       48.1295,       16.6268,            0.,NA,NA,"",   2.05810E+06,   1.98899E+06,   1.98899E+06
C:/temp/Job-10.odb,Step-1,Increment      1: Step Time =    1.000,"P-10-1",          1190,       151.547,       182.027,            0.,NA,NA,"",   1.29562E+06,   1.25442E+06,   1.25442E+06
C:/temp/Job-10.odb,Step-1,Increment      1: Step Time =    1.000,"P-10-1",          1191,       181.932,       147.254,            0.,NA,NA,"",   1.35440E+06,   1.35964E+06,   1.35964E+06
C:/temp/Job-10.odb,Step-1,Increment      1: Step Time =    1.000,"P-10-1",          1192,       50.4443,       166.239,            0.,NA,NA,"",   1.93541E+06,   1.76485E+06,   1.76485E+06
C:/temp/Job-10.odb,Step-1,Increment      1: Step Time =    1.000,"P-10-1",          1193,       47.3270,       153.472,            0.,NA,NA,"",   1.48426E+06,   1.29140E+06,   1.29140E+06
C:/temp/Job-10.odb,Step-1,Increment      1: Step Time =    1.000,"P-10-1",          1194,       155.732,       163.183,            0.,NA,NA,"",   1.79382E+06,   1.66676E+06,   1.66676E+06
C:/temp/Job-10.odb,Step-1,Increment      1: Step Time =    1.000,"P-10-1",          1195,       134.295,       41.1403,            0.,NA,NA,"",   2.28397E+06,   2.32407E+06,   2.32407E+06
C:/temp/Job-10.odb,Step-1,Increment      1: Step Time =    1.000,"P-10-1",          1196,       39.4314,       37.8458,            0.,NA,NA,"",   1.64262E+06,   1.51947E+06,   1.51947E+06
C:/temp/Job-10.odb,Step-1,Increment      1: Step Time =    1.000,"P-10-1",          1197,       166.024,       38.0382,            0.,NA,NA,"",   1.60201E+06,   1.49170E+06,   1.49170E+06
C:/temp/Job-10.odb,Step-1,Increment      1: Step Time =    1.000,"P-10-1",          1198,       164.035,       34.3270,            0.,NA,NA,"",   1.57395E+06,   1.47473E+06,   1.47473E+06
C:/temp/Job-10.odb,Step-1,Increment      1: Step Time =    1.000,"P-10-1",          1199,       44.3109,       37.0349,            0.,NA,NA,"",   1.74676E+06,   1.59794E+06,   1.59794E+06
C:/temp/Job-10.odb,Step-1,Increment      1: Step Time =    1.000,"P-10-1",          1200,       170.144,       154.501,            0.,NA,NA,"",   1.63270E+06,   1.50564E+06,   1.50564E+06
C:/temp/Job-10.odb,Step-1,Increment      1: Step Time =    1.000,"P-10-1",          1201,       163.994,       139.938,            0.,NA,NA,"",   1.87084E+06,   1.55547E+06,   1.55547E+06
C:/temp/Job-10.odb,Step-1,Increment      1: Step Time =    1.000,"P-10-1",          1202,       52.7796,       151.170,            0.,NA,NA,"",   1.47195E+06,   1.25147E+06,   1.25147E+06
C:/temp/Job-10.odb,Step-1,Increment      1: Step Time =    1.000,"P-10-1",          1203,       167.578,       32.3062,            0.,NA,NA,"",   1.45774E+06,   1.38321E+06,   1.38321E+06
C:/temp/Job-10.odb,Step-1,Increment      1: Step Time =    1.000,"P-10-1",          1204,       44.1879,       163.281,            0.,NA,NA,"",   1.76014E+06,   1.60890E+06,   1.60890E+06
C:/temp/Job-10.odb,Step-1,Increment      1: Step Time =    1.000,"P-10-1",          1205,       161.570,       162.219,            0.,NA,NA,"",   1.69903E+06,   1.57105E+06,   1.57105E+06
C:/temp/Job-10.odb,Step-1,Increment      1: Step Time =    1.000,"P-10-1",          1206,       46.0456,       167.815,            0.,NA,NA,"",   1.88790E+06,   1.74279E+06,   1.74279E+06
C:/temp/Job-10.odb,Step-1,Increment      1: Step Time =    1.000,"P-10-1",          1207,       161.390,       44.9556,            0.,NA,NA,"",   1.84481E+06,   1.66021E+06,   1.66021E+06
C:/temp/Job-10.odb,Step-1,Increment      1: Step Time =    1.000,"P-10-1",          1208,       18.1868,       154.886,            0.,NA,NA,"",   1.06256E+06,   1.09572E+06,   1.09572E+06
C:/temp/Job-10.odb,Step-1,Increment      1: Step Time =    1.000,"P-10-1",          1209,       184.507,       44.0500,            0.,NA,NA,"",   1.19434E+06,   1.22696E+06,   1.22696E+06
C:/temp/Job-10.odb,Step-1,Increment      1: Step Time =    1.000,"P-10-1",          1210,       43.9151,       18.9051,            0.,NA,NA,"",   2.03828E+06,   1.96602E+06,   1.96602E+06
C:/temp/Job-10.odb,Step-1,Increment      1: Step Time =    1.000,"P-10-1",          1211,       156.724,       179.015,            0.,NA,NA,"",   1.35185E+06,   1.30111E+06,   1.30111E+06
C:/temp/Job-10.odb,Step-1,Increment      1: Step Time =    1.000,"P-10-1",          1212,       34.5588,       39.3419,            0.,NA,NA,"",   1.50869E+06,   1.42156E+06,   1.42156E+06
C:/temp/Job-10.odb,Step-1,Increment      1: Step Time =    1.000,"P-10-1",          1213,       124.836,       45.2895,            0.,NA,NA,"",   3.01594E+06,   3.13672E+06,   3.13672E+06
C:/temp/Job-10.odb,Step-1,Increment      1: Step Time =    1.000,"P-10-1",          1214,       55.8460,       156.989,            0.,NA,NA,"",   1.79361E+06,   1.58304E+06,   1.58304E+06
C:/temp/Job-10.odb,Step-1,Increment      1: Step Time =    1.000,"P-10-1",          1215,       160.046,       171.358,            0.,NA,NA,"",   1.51956E+06,   1.43944E+06,   1.43944E+06
C:/temp/Job-10.odb,Step-1,Increment      1: Step Time =    1.000,"P-10-1",          1216,       26.8386,       163.254,            0.,NA,NA,"",   1.47691E+06,   1.45367E+06,   1.45367E+06
C:/temp/Job-10.odb,Step-1,Increment      1: Step Time =    1.000,"P-10-1",          1217,       39.1456,       25.8899,            0.,NA,NA,"",   1.93354E+06,   1.84866E+06,   1.84866E+06
C:/temp/Job-10.odb,Step-1,Increment      1: Step Time =    1.000,"P-10-1",          1218,       156.546,       124.619,            0.,NA,NA,"",   1.32499E+06,  -375.625E+03,  -375.625E+03
C:/temp/Job-10.odb,Step-1,Increment      1: Step Time =    1.000,"P-10-1",          1219,       38.1003,       33.1286,            0.,NA,NA,"",   1.75850E+06,   1.65894E+06,   1.65894E+06
C:/temp/Job-10.odb,Step-1,Increment      1: Step Time =    1.000,"P-10-1",          1220,       32.4247,       35.0928,            0.,NA,NA,"",   1.61701E+06,   1.55144E+06,   1.55144E+06
C:/temp/Job-10.odb,Step-1,Increment      1: Step Time =    1.000,"P-10-1",          1221,       176.040,       43.3540,            0.,NA,NA,"",   1.43662E+06,   1.37976E+06,   1.37976E+06
C:/temp/Job-10.odb,Step-1,Increment      1: Step Time =    1.000,"P-10-1",          1222,       169.806,       35.7286,            0.,NA,NA,"",   1.47339E+06,   1.39614E+06,   1.39614E+06
C:/temp/Job-10.odb,Step-1,Increment      1: Step Time =    1.000,"P-10-1",          1223,       162.901,       172.693,            0.,NA,NA,"",   1.43099E+06,   1.36493E+06,   1.36493E+06
C:/temp/Job-10.odb,Step-1,Increment      1: Step Time =    1.000,"P-10-1",          1224,       39.3888,       28.7278,            0.,NA,NA,"",   1.87782E+06,   1.78259E+06,   1.78259E+06
C:/temp/Job-10.odb,Step-1,Increment      1: Step Time =    1.000,"P-10-1",          1225,       39.3366,       165.114,            0.,NA,NA,"",   1.72712E+06,   1.61241E+06,   1.61241E+06
C:/temp/Job-10.odb,Step-1,Increment      1: Step Time =    1.000,"P-10-1",          1226,       160.927,       134.720,            0.,NA,NA,"",   1.80938E+06,   1.40249E+06,   1.40249E+06
C:/temp/Job-10.odb,Step-1,Increment      1: Step Time =    1.000,"P-10-1",          1227,       31.3498,       47.1015,            0.,NA,NA,"",   1.19243E+06,   1.12208E+06,   1.12208E+06
C:/temp/Job-10.odb,Step-1,Increment      1: Step Time =    1.000,"P-10-1",          1228,       186.584,       47.8629,            0.,NA,NA,"",   1.17123E+06,   1.22958E+06,   1.22958E+06
C:/temp/Job-10.odb,Step-1,Increment      1: Step Time =    1.000,"P-10-1",          1229,       13.6521,       154.947,            0.,NA,NA,"",   1.01265E+06,   1.07352E+06,   1.07352E+06
C:/temp/Job-10.odb,Step-1,Increment      1: Step Time =    1.000,"P-10-1",          1230,       45.8355,       12.6274,            0.,NA,NA,"",   2.08609E+06,   2.04479E+06,   2.04479E+06
C:/temp/Job-10.odb,Step-1,Increment      1: Step Time =    1.000,"P-10-1",          1231,       154.899,       183.575,            0.,NA,NA,"",   1.23276E+06,   1.19511E+06,   1.19511E+06
C:/temp/Job-10.odb,Step-1,Increment      1: Step Time =    1.000,"P-10-1",          1232,       38.5099,       23.5042,            0.,NA,NA,"",   1.95863E+06,   1.88517E+06,   1.88517E+06
C:/temp/Job-10.odb,Step-1,Increment      1: Step Time =    1.000,"P-10-1",          1233,       21.1949,       164.266,            0.,NA,NA,"",   1.42351E+06,   1.44353E+06,   1.44353E+06
C:/temp/Job-10.odb,Step-1,Increment      1: Step Time =    1.000,"P-10-1",          1234,       161.478,       176.184,            0.,NA,NA,"",   1.37336E+06,   1.31672E+06,   1.31672E+06
C:/temp/Job-10.odb,Step-1,Increment      1: Step Time =    1.000,"P-10-1",          1235,       174.296,       155.766,            0.,NA,NA,"",   1.49788E+06,   1.42021E+06,   1.42021E+06
C:/temp/Job-10.odb,Step-1,Increment      1: Step Time =    1.000,"P-10-1",          1236,       44.0805,       174.419,            0.,NA,NA,"",   1.96633E+06,   1.86156E+06,   1.86156E+06
C:/temp/Job-10.odb,Step-1,Increment      1: Step Time =    1.000,"P-10-1",          1237,       33.5403,       166.371,            0.,NA,NA,"",   1.67146E+06,   1.60054E+06,   1.60054E+06
C:/temp/Job-10.odb,Step-1,Increment      1: Step Time =    1.000,"P-10-1",          1238,       172.640,       39.3556,            0.,NA,NA,"",   1.46764E+06,   1.39449E+06,   1.39449E+06
C:/temp/Job-10.odb,Step-1,Increment      1: Step Time =    1.000,"P-10-1",          1239,       162.845,       30.7876,            0.,NA,NA,"",   1.51998E+06,   1.43537E+06,   1.43537E+06
C:/temp/Job-10.odb,Step-1,Increment      1: Step Time =    1.000,"P-10-1",          1240,       30.0355,       41.2462,            0.,NA,NA,"",   1.36220E+06,   1.30799E+06,   1.30799E+06
C:/temp/Job-10.odb,Step-1,Increment      1: Step Time =    1.000,"P-10-1",          1241,       37.1209,       171.999,            0.,NA,NA,"",   1.85722E+06,   1.77610E+06,   1.77610E+06
C:/temp/Job-10.odb,Step-1,Increment      1: Step Time =    1.000,"P-10-1",          1242,       37.6401,       19.2820,            0.,NA,NA,"",   2.02655E+06,   1.97330E+06,   1.97330E+06
C:/temp/Job-10.odb,Step-1,Increment      1: Step Time =    1.000,"P-10-1",          1243,       35.9073,       22.9135,            0.,NA,NA,"",   1.95355E+06,   1.89098E+06,   1.89098E+06
C:/temp/Job-10.odb,Step-1,Increment      1: Step Time =    1.000,"P-10-1",          1244,       25.8957,       168.364,            0.,NA,NA,"",   1.64208E+06,   1.62889E+06,   1.62889E+06
C:/temp/Job-10.odb,Step-1,Increment      1: Step Time =    1.000,"P-10-1",          1245,       18.8082,       160.197,            0.,NA,NA,"",   1.25738E+06,   1.29261E+06,   1.29261E+06
C:/temp/Job-10.odb,Step-1,Increment      1: Step Time =    1.000,"P-10-1",          1246,       166.074,       174.110,            0.,NA,NA,"",   1.35917E+06,   1.30513E+06,   1.30513E+06
C:/temp/Job-10.odb,Step-1,Increment      1: Step Time =    1.000,"P-10-1",          1247,       160.095,       180.261,            0.,NA,NA,"",   1.29186E+06,   1.24677E+06,   1.24677E+06
C:/temp/Job-10.odb,Step-1,Increment      1: Step Time =    1.000,"P-10-1",          1248,       167.709,       161.162,            0.,NA,NA,"",   1.58338E+06,   1.47713E+06,   1.47713E+06
C:/temp/Job-10.odb,Step-1,Increment      1: Step Time =    1.000,"P-10-1",          1249,       40.0889,       176.760,            0.,NA,NA,"",   1.97115E+06,   1.89488E+06,   1.89488E+06
C:/temp/Job-10.odb,Step-1,Increment      1: Step Time =    1.000,"P-10-1",          1250,       163.251,       158.882,            0.,NA,NA,"",   1.72885E+06,   1.58359E+06,   1.58359E+06
C:/temp/Job-10.odb,Step-1,Increment      1: Step Time =    1.000,"P-10-1",          1251,       165.986,       131.197,            0.,NA,NA,"",   1.68924E+06,   1.31808E+06,   1.31808E+06
C:/temp/Job-10.odb,Step-1,Increment      1: Step Time =    1.000,"P-10-1",          1252,       160.820,       130.455,            0.,NA,NA,"",   1.67085E+06,   1.21150E+06,   1.21150E+06
C:/temp/Job-10.odb,Step-1,Increment      1: Step Time =    1.000,"P-10-1",          1253,       155.205,       26.2493,            0.,NA,NA,"",   1.51676E+06,   1.44694E+06,   1.44694E+06
C:/temp/Job-10.odb,Step-1,Increment      1: Step Time =    1.000,"P-10-1",          1254,       163.501,       168.722,            0.,NA,NA,"",   1.51947E+06,   1.43563E+06,   1.43563E+06
C:/temp/Job-10.odb,Step-1,Increment      1: Step Time =    1.000,"P-10-1",          1255,       166.384,       126.725,            0.,NA,NA,"",   1.55463E+06,   1.16530E+06,   1.16530E+06
C:/temp/Job-10.odb,Step-1,Increment      1: Step Time =    1.000,"P-10-1",          1256,       172.997,       33.3330,            0.,NA,NA,"",   1.36504E+06,   1.31572E+06,   1.31572E+06
C:/temp/Job-10.odb,Step-1,Increment      1: Step Time =    1.000,"P-10-1",          1257,       26.3085,       36.7352,            0.,NA,NA,"",   1.46644E+06,   1.44525E+06,   1.44525E+06
C:/temp/Job-10.odb,Step-1,Increment      1: Step Time =    1.000,"P-10-1",          1258,       33.1885,       174.931,            0.,NA,NA,"",   1.87549E+06,   1.82540E+06,   1.82540E+06
C:/temp/Job-10.odb,Step-1,Increment      1: Step Time =    1.000,"P-10-1",          1259,       36.3642,       179.388,            0.,NA,NA,"",   2.00115E+06,   1.94837E+06,   1.94837E+06
C:/temp/Job-10.odb,Step-1,Increment      1: Step Time =    1.000,"P-10-1",          1260,       30.0966,       177.294,            0.,NA,NA,"",   1.92273E+06,   1.89226E+06,   1.89226E+06
C:/temp/Job-10.odb,Step-1,Increment      1: Step Time =    1.000,"P-10-1",          1261,       165.954,       164.723,            0.,NA,NA,"",   1.55725E+06,   1.46105E+06,   1.46105E+06
C:/temp/Job-10.odb,Step-1,Increment      1: Step Time =    1.000,"P-10-1",          1262,       173.963,       27.5671,            0.,NA,NA,"",   1.25894E+06,   1.22993E+06,   1.22993E+06
C:/temp/Job-10.odb,Step-1,Increment      1: Step Time =    1.000,"P-10-1",          1263,       170.929,       167.058,            0.,NA,NA,"",   1.40926E+06,   1.34866E+06,   1.34866E+06
C:/temp/Job-10.odb,Step-1,Increment      1: Step Time =    1.000,"P-10-1",          1264,       168.514,       26.4291,            0.,NA,NA,"",   1.33425E+06,   1.28469E+06,   1.28469E+06
C:/temp/Job-10.odb,Step-1,Increment      1: Step Time =    1.000,"P-10-1",          1265,       32.2212,       182.389,            0.,NA,NA,"",   2.05194E+06,   2.02194E+06,   2.02194E+06
C:/temp/Job-10.odb,Step-1,Increment      1: Step Time =    1.000,"P-10-1",          1266,       171.403,       178.518,            0.,NA,NA,"",   1.20660E+06,   1.18025E+06,   1.18025E+06
C:/temp/Job-10.odb,Step-1,Increment      1: Step Time =    1.000,"P-10-1",          1267,       172.512,       163.237,            0.,NA,NA,"",   1.43181E+06,   1.36788E+06,   1.36788E+06
C:/temp/Job-10.odb,Step-1,Increment      1: Step Time =    1.000,"P-10-1",          1268,       179.223,       28.6498,            0.,NA,NA,"",   1.18552E+06,   1.17702E+06,   1.17702E+06
C:/temp/Job-10.odb,Step-1,Increment      1: Step Time =    1.000,"P-10-1",          1269,       177.100,       26.1815,            0.,NA,NA,"",   1.19648E+06,   1.18107E+06,   1.18107E+06
C:/temp/Job-10.odb,Step-1,Increment      1: Step Time =    1.000,"P-10-1",          1270,       29.5538,       181.704,            0.,NA,NA,"",   2.02387E+06,   2.00450E+06,   2.00450E+06
C:/temp/Job-10.odb,Step-1,Increment      1: Step Time =    1.000,"P-10-1",          1271,       39.1343,       183.828,            0.,NA,NA,"",   2.07227E+06,   2.02780E+06,   2.02780E+06
C:/temp/Job-10.odb,Step-1,Increment      1: Step Time =    1.000,"P-10-1",          1272,       181.254,       31.5794,            0.,NA,NA,"",   1.17206E+06,   1.17309E+06,   1.17309E+06
C:/temp/Job-10.odb,Step-1,Increment      1: Step Time =    1.000,"P-10-1",          1273,       27.4419,       180.092,            0.,NA,NA,"",   1.98167E+06,   1.97040E+06,   1.97040E+06
C:/temp/Job-10.odb,Step-1,Increment      1: Step Time =    1.000,"P-10-1",          1274,       35.5723,       185.515,            0.,NA,NA,"",   2.10930E+06,   2.08050E+06,   2.08050E+06
C:/temp/Job-10.odb,Step-1,Increment      1: Step Time =    1.000,"P-10-1",          1275,       177.824,       164.841,            0.,NA,NA,"",   1.29071E+06,   1.26659E+06,   1.26659E+06
C:/temp/Job-10.odb,Step-1,Increment      1: Step Time =    1.000,"P-10-1",          1276,       163.263,       27.4489,            0.,NA,NA,"",   1.44139E+06,   1.37238E+06,   1.37238E+06
C:/temp/Job-10.odb,Step-1,Increment      1: Step Time =    1.000,"P-10-1",          1277,       183.008,       34.5929,            0.,NA,NA,"",   1.16539E+06,   1.17661E+06,   1.17661E+06
C:/temp/Job-10.odb,Step-1,Increment      1: Step Time =    1.000,"P-10-1",          1278,       184.732,       29.3495,            0.,NA,NA,"",   1.09613E+06,   1.11018E+06,   1.11018E+06
C:/temp/Job-10.odb,Step-1,Increment      1: Step Time =    1.000,"P-10-1",          1279,       27.9062,       185.129,            0.,NA,NA,"",   2.12449E+06,   2.11449E+06,   2.11449E+06
C:/temp/Job-10.odb,Step-1,Increment      1: Step Time =    1.000,"P-10-1",          1280,       183.607,       169.837,            0.,NA,NA,"",   1.12363E+06,   1.13313E+06,   1.13313E+06
C:/temp/Job-10.odb,Step-1,Increment      1: Step Time =    1.000,"P-10-1",          1281,       165.685,       29.2588,            0.,NA,NA,"",   1.43768E+06,   1.36772E+06,   1.36772E+06
C:/temp/Job-10.odb,Step-1,Increment      1: Step Time =    1.000,"P-10-1",          1282,       161.296,       21.9502,            0.,NA,NA,"",   1.33560E+06,   1.28524E+06,   1.28524E+06
C:/temp/Job-10.odb,Step-1,Increment      1: Step Time =    1.000,"P-10-1",          1283,       35.9902,       189.856,            0.,NA,NA,"",   2.19195E+06,   2.17416E+06,   2.17416E+06
C:/temp/Job-10.odb,Step-1,Increment      1: Step Time =    1.000,"P-10-1",          1284,       24.7029,       183.298,            0.,NA,NA,"",   2.07125E+06,   2.07379E+06,   2.07379E+06
C:/temp/Job-10.odb,Step-1,Increment      1: Step Time =    1.000,"P-10-1",          1285,       26.2778,       189.432,            0.,NA,NA,"",   2.23760E+06,   2.23362E+06,   2.23362E+06
C:/temp/Job-10.odb,Step-1,Increment      1: Step Time =    1.000,"P-10-1",          1286,       178.171,       33.9838,            0.,NA,NA,"",   1.25794E+06,   1.24093E+06,   1.24093E+06
C:/temp/Job-10.odb,Step-1,Increment      1: Step Time =    1.000,"P-10-1",          1287,       187.194,       36.3294,            0.,NA,NA,"",   1.07682E+06,   1.11515E+06,   1.11515E+06
C:/temp/Job-10.odb,Step-1,Increment      1: Step Time =    1.000,"P-10-1",          1288,       182.375,       25.8081,            0.,NA,NA,"",   1.11162E+06,   1.11492E+06,   1.11492E+06
C:/temp/Job-10.odb,Step-1,Increment      1: Step Time =    1.000,"P-10-1",          1289,       178.852,       175.477,            0.,NA,NA,"",   1.14742E+06,   1.13997E+06,   1.13997E+06
C:/temp/Job-10.odb,Step-1,Increment      1: Step Time =    1.000,"P-10-1",          1290,       183.530,       165.085,            0.,NA,NA,"",   1.16180E+06,   1.17418E+06,   1.17418E+06
C:/temp/Job-10.odb,Step-1,Increment      1: Step Time =    1.000,"P-10-1",          1291,       169.402,       18.4952,            0.,NA,NA,"",   1.18207E+06,   1.15623E+06,   1.15623E+06
C:/temp/Job-10.odb,Step-1,Increment      1: Step Time =    1.000,"P-10-1",          1292,       189.033,       164.650,            0.,NA,NA,"",   1.05408E+06,   1.09346E+06,   1.09346E+06
C:/temp/Job-10.odb,Step-1,Increment      1: Step Time =    1.000,"P-10-1",          1293,       189.005,       27.2549,            0.,NA,NA,"",   1.03776E+06,   1.05597E+06,   1.05597E+06
C:/temp/Job-10.odb,Step-1,Increment      1: Step Time =    1.000,"P-10-1",          1294,       178.234,       160.575,            0.,NA,NA,"",   1.32831E+06,   1.30106E+06,   1.30106E+06
C:/temp/Job-10.odb,Step-1,Increment      1: Step Time =    1.000,"P-10-1",          1295,       184.116,       174.861,            0.,NA,NA,"",   1.08905E+06,   1.09517E+06,   1.09517E+06
C:/temp/Job-10.odb,Step-1,Increment      1: Step Time =    1.000,"P-10-1",          1296,       163.195,       16.9088,            0.,NA,NA,"",   1.19745E+06,   1.16566E+06,   1.16566E+06
C:/temp/Job-10.odb,Step-1,Increment      1: Step Time =    1.000,"P-10-1",          1297,       18.7145,       182.156,            0.,NA,NA,"",   2.02960E+06,   2.06155E+06,   2.06155E+06
C:/temp/Job-10.odb,Step-1,Increment      1: Step Time =    1.000,"P-10-1",          1298,       186.726,       39.6952,            0.,NA,NA,"",   1.10598E+06,   1.14817E+06,   1.14817E+06
C:/temp/Job-10.odb,Step-1,Increment      1: Step Time =    1.000,"P-10-1",          1299,       184.649,       180.015,            0.,NA,NA,"",   1.05599E+06,   1.05968E+06,   1.05968E+06
C:/temp/Job-10.odb,Step-1,Increment      1: Step Time =    1.000,"P-10-1",          1300,       189.474,       174.754,            0.,NA,NA,"",   1.03516E+06,   1.04907E+06,   1.04907E+06
C:/temp/Job-10.odb,Step-1,Increment      1: Step Time =    1.000,"P-10-1",          1301,       15.1966,       188.696,            0.,NA,NA,"",   2.27482E+06,   2.30944E+06,   2.30944E+06
C:/temp/Job-10.odb,Step-1,Increment      1: Step Time =    1.000,"P-10-1",          1302,       13.5538,       178.302,            0.,NA,NA,"",   1.82416E+06,   1.90823E+06,   1.90823E+06
C:/temp/Job-10.odb,Step-1,Increment      1: Step Time =    1.000,"P-10-1",          1303,       176.070,       16.9276,            0.,NA,NA,"",   1.09981E+06,   1.08974E+06,   1.08974E+06
C:/temp/Job-10.odb,Step-1,Increment      1: Step Time =    1.000,"P-10-1",          1304,       175.274,       11.4440,            0.,NA,NA,"",   1.04695E+06,   1.04004E+06,   1.04004E+06
C:/temp/Job-10.odb,Step-1,Increment      1: Step Time =    1.000,"P-10-1",          1305,       180.219,       185.423,            0.,NA,NA,"",   1.04883E+06,   1.04722E+06,   1.04722E+06
C:/temp/Job-10.odb,Step-1,Increment      1: Step Time =    1.000,"P-10-1",          1306,       14.3353,       183.403,            0.,NA,NA,"",   2.05089E+06,   2.11558E+06,   2.11558E+06
C:/temp/Job-10.odb,Step-1,Increment      1: Step Time =    1.000,"P-10-1",          1307,       17.1747,       172.864,            0.,NA,NA,"",   1.67482E+06,   1.72904E+06,   1.72904E+06
C:/temp/Job-10.odb,Step-1,Increment      1: Step Time =    1.000,"P-10-1",          1308,       175.641,       185.851,            0.,NA,NA,"",   1.06917E+06,   1.06248E+06,   1.06248E+06
C:/temp/Job-10.odb,Step-1,Increment      1: Step Time =    1.000,"P-10-1",          1309,       9.64612,       184.161,            0.,NA,NA,"",   2.01041E+06,   2.12628E+06,   2.12628E+06
C:/temp/Job-10.odb,Step-1,Increment      1: Step Time =    1.000,"P-10-1",          1310,       25.0892,       172.197,            0.,NA,NA,"",   1.75953E+06,   1.75557E+06,   1.75557E+06
C:/temp/Job-10.odb,Step-1,Increment      1: Step Time =    1.000,"P-10-1",          1311,       13.0926,       173.503,            0.,NA,NA,"",   1.63626E+06,   1.72576E+06,   1.72576E+06
C:/temp/Job-10.odb,Step-1,Increment      1: Step Time =    1.000,"P-10-1",          1312,       181.503,       15.4536,            0.,NA,NA,"",   1.05081E+06,   1.04946E+06,   1.04946E+06
C:/temp/Job-10.odb,Step-1,Increment      1: Step Time =    1.000,"P-10-1",          1313,       184.960,       185.120,            0.,NA,NA,"",   1.02964E+06,   1.03141E+06,   1.03141E+06
C:/temp/Job-10.odb,Step-1,Increment      1: Step Time =    1.000,"P-10-1",          1314,       189.876,       184.961,            0.,NA,NA,"",   1.01522E+06,   1.01683E+06,   1.01683E+06
C:/temp/Job-10.odb,Step-1,Increment      1: Step Time =    1.000,"P-10-1",          1315,       12.9497,       168.864,            0.,NA,NA,"",   1.46825E+06,   1.55681E+06,   1.55681E+06
C:/temp/Job-10.odb,Step-1,Increment      1: Step Time =    1.000,"P-10-1",          1316,       8.85840,       174.095,            0.,NA,NA,"",   1.58702E+06,   1.71326E+06,   1.71326E+06
C:/temp/Job-10.odb,Step-1,Increment      1: Step Time =    1.000,"P-10-1",          1317,       183.288,       19.1882,            0.,NA,NA,"",   1.05914E+06,   1.06105E+06,   1.06105E+06
C:/temp/Job-10.odb,Step-1,Increment      1: Step Time =    1.000,"P-10-1",          1318,       171.357,       181.870,            0.,NA,NA,"",   1.15636E+06,   1.13641E+06,   1.13641E+06
C:/temp/Job-10.odb,Step-1,Increment      1: Step Time =    1.000,"P-10-1",          1319,       185.658,       10.1261,            0.,NA,NA,"",   1.00916E+06,   1.01017E+06,   1.01017E+06
C:/temp/Job-10.odb,Step-1,Increment      1: Step Time =    1.000,"P-10-1",          1320,       186.850,       15.5534,            0.,NA,NA,"",   1.02315E+06,   1.02593E+06,   1.02593E+06
C:/temp/Job-10.odb,Step-1,Increment      1: Step Time =    1.000,"P-10-1",          1321,       171.173,       186.119,            0.,NA,NA,"",   1.09043E+06,   1.07773E+06,   1.07773E+06
C:/temp/Job-10.odb,Step-1,Increment      1: Step Time =    1.000,"P-10-1",          1322,       174.511,       177.040,            0.,NA,NA,"",   1.18872E+06,   1.16911E+06,   1.16911E+06
C:/temp/Job-10.odb,Step-1,Increment      1: Step Time =    1.000,"P-10-1",          1323,       185.081,       190.151,            0.,NA,NA,"",   1.00784E+06,   1.00840E+06,   1.00840E+06
C:/temp/Job-10.odb,Step-1,Increment      1: Step Time =    1.000,"P-10-1",          1324,       13.1158,       164.284,            0.,NA,NA,"",   1.31995E+06,   1.40043E+06,   1.40043E+06
C:/temp/Job-10.odb,Step-1,Increment      1: Step Time =    1.000,"P-10-1",          1325,       28.7849,       173.253,            0.,NA,NA,"",   1.81338E+06,   1.78955E+06,   1.78955E+06
C:/temp/Job-10.odb,Step-1,Increment      1: Step Time =    1.000,"P-10-1",          1326,       190.530,       13.2051,            0.,NA,NA,"",   1.00796E+06,   1.00881E+06,   1.00881E+06
C:/temp/Job-10.odb,Step-1,Increment      1: Step Time =    1.000,"P-10-1",          1327,       22.2579,       154.212,            0.,NA,NA,"",   1.08961E+06,   1.09676E+06,   1.09676E+06
C:/temp/Job-10.odb,Step-1,Increment      1: Step Time =    1.000,"P-10-1",          1328,       8.74152,       164.441,            0.,NA,NA,"",   1.26053E+06,   1.36886E+06,   1.36886E+06
C:/temp/Job-10.odb,Step-1,Increment      1: Step Time =    1.000,"P-10-1",          1329,       168.454,       176.927,            0.,NA,NA,"",   1.27214E+06,   1.23313E+06,   1.23313E+06
C:/temp/Job-10.odb,Step-1,Increment      1: Step Time =    1.000,"P-10-1",          1330,       166.816,       186.016,            0.,NA,NA,"",   1.11262E+06,   1.09365E+06,   1.09365E+06
C:/temp/Job-10.odb,Step-1,Increment      1: Step Time =    1.000,"P-10-1",          1331,       8.89826,       159.714,            0.,NA,NA,"",   1.11002E+06,   1.20665E+06,   1.20665E+06
C:/temp/Job-10.odb,Step-1,Increment      1: Step Time =    1.000,"P-10-1",          1332,       9.03122,       154.905,            0.,NA,NA,"",   961.869E+03,   1.04620E+06,   1.04620E+06
C:/temp/Job-10.odb,Step-1,Increment      1: Step Time =    1.000,"P-10-1",          1333,       31.1331,       30.7965,            0.,NA,NA,"",   1.72983E+06,   1.67878E+06,   1.67878E+06
C:/temp/Job-10.odb,Step-1,Increment      1: Step Time =    1.000,"P-10-1",          1334,       158.622,       184.762,            0.,NA,NA,"",   1.17976E+06,   1.14775E+06,   1.14775E+06
C:/temp/Job-10.odb,Step-1,Increment      1: Step Time =    1.000,"P-10-1",          1335,       40.4503,       14.7258,            0.,NA,NA,"",   2.09010E+06,   2.04862E+06,   2.04862E+06
C:/temp/Job-10.odb,Step-1,Increment      1: Step Time =    1.000,"P-10-1",          1336,       164.176,       11.4691,            0.,NA,NA,"",   1.07262E+06,   1.05593E+06,   1.05593E+06
C:/temp/Job-10.odb,Step-1,Increment      1: Step Time =    1.000,"P-10-1",          1337,       35.0108,       9.36837,            0.,NA,NA,"",   2.20532E+06,   2.19121E+06,   2.19121E+06
C:/temp/Job-10.odb,Step-1,Increment      1: Step Time =    1.000,"P-10-1",          1338,       10.4321,       36.4198,            0.,NA,NA,"",   1.25485E+06,   1.35037E+06,   1.35037E+06
C:/temp/Job-10.odb,Step-1,Increment      1: Step Time =    1.000,"P-10-1",          1339,       161.592,       190.248,            0.,NA,NA,"",   1.03274E+06,   1.01922E+06,   1.01922E+06
C:/temp/Job-10.odb,Step-1,Increment      1: Step Time =    1.000,"P-10-1",          1340,       191.101,       35.8528,            0.,NA,NA,"",   1.02053E+06,   1.06696E+06,   1.06696E+06
C:/temp/Job-10.odb,Step-1,Increment      1: Step Time =    1.000,"P-10-1",          1341,       171.489,       45.7226,            0.,NA,NA,"",   1.59435E+06,   1.48165E+06,   1.48165E+06
C:/temp/Job-10.odb,Step-1,Increment      1: Step Time =    1.000,"P-10-1",          1342,       184.102,       155.308,            0.,NA,NA,"",   1.22025E+06,   1.24718E+06,   1.24718E+06
C:/temp/Job-10.odb,Step-1,Increment      1: Step Time =    1.000,"P-10-1",          1343,       25.6483,       178.092,            0.,NA,NA,"",   1.92463E+06,   1.91941E+06,   1.91941E+06
C:/temp/Job-10.odb,Step-1,Increment      1: Step Time =    1.000,"P-10-1",          1344,       25.1594,       9.68117,            0.,NA,NA,"",   2.26448E+06,   2.26270E+06,   2.26270E+06
C:/temp/Job-10.odb,Step-1,Increment      1: Step Time =    1.000,"P-10-1",          1345,       10.7978,       25.4298,            0.,NA,NA,"",   1.63743E+06,   1.74721E+06,   1.74721E+06
C:/temp/Job-10.odb,Step-1,Increment      1: Step Time =    1.000,"P-10-1",          1346,       170.843,       190.671,            0.,NA,NA,"",   1.02585E+06,   1.01926E+06,   1.01926E+06
C:/temp/Job-10.odb,Step-1,Increment      1: Step Time =    1.000,"P-10-1",          1347,       154.185,       166.128,            0.,NA,NA,"",   1.74495E+06,   1.63730E+06,   1.63730E+06
C:/temp/Job-10.odb,Step-1,Increment      1: Step Time =    1.000,"P-10-1",          1348,       15.2560,       10.0865,            0.,NA,NA,"",   2.31725E+06,   2.34474E+06,   2.34474E+06
C:/temp/Job-10.odb,Step-1,Increment      1: Step Time =    1.000,"P-10-1",          1349,       10.3312,       15.1721,            0.,NA,NA,"",   2.05287E+06,   2.15792E+06,   2.15792E+06
C:/temp/Job-10.odb,Step-1,Increment      1: Step Time =    1.000,"P-10-1",          1350,       82.9157,       176.247,            0.,NA,NA,"",   2.08023E+06,   2.04188E+06,   2.04188E+06
C:/temp/Job-10.odb,Step-1,Increment      1: Step Time =    1.000,"P-10-1",          1351,       157.913,       16.0753,            0.,NA,NA,"",   1.20333E+06,   1.16929E+06,   1.16929E+06
C:/temp/Job-10.odb,Step-1,Increment      1: Step Time =    1.000,"P-10-1",          1352,       45.0720,       185.003,            0.,NA,NA,"",   2.07200E+06,   2.02082E+06,   2.02082E+06
C:/temp/Job-10.odb,Step-1,Increment      1: Step Time =    1.000,"P-10-1",          1353,       15.3130,       41.9506,            0.,NA,NA,"",   1.13532E+06,   1.19084E+06,   1.19084E+06
C:/temp/Job-10.odb,Step-1,Increment      1: Step Time =    1.000,"P-10-1",          1354,       37.6792,       157.944,            0.,NA,NA,"",   1.46576E+06,   1.34901E+06,   1.34901E+06
C:/temp/Job-10.odb,Step-1,Increment      1: Step Time =    1.000,"P-10-1",          1355,       162.637,       185.579,            0.,NA,NA,"",   1.13994E+06,   1.11459E+06,   1.11459E+06
C:/temp/Job-10.odb,Step-1,Increment      1: Step Time =    1.000,"P-10-1",          1356,       19.2919,       37.8789,            0.,NA,NA,"",   1.33157E+06,   1.36362E+06,   1.36362E+06
C:/temp/Job-10.odb,Step-1,Increment      1: Step Time =    1.000,"P-10-1",          1357,       189.558,       55.3740,            0.,NA,NA,"",   1.11107E+06,   1.23031E+06,   1.23031E+06
C:/temp/Job-10.odb,Step-1,Increment      1: Step Time =    1.000,"P-10-1",          1358,       56.4354,       11.1851,            0.,NA,NA,"",   1.99107E+06,   1.94475E+06,   1.94475E+06
C:/temp/Job-10.odb,Step-1,Increment      1: Step Time =    1.000,"P-10-1",          1359,       142.351,       187.257,            0.,NA,NA,"",   1.10012E+06,   1.08137E+06,   1.08137E+06
C:/temp/Job-10.odb,Step-1,Increment      1: Step Time =    1.000,"P-10-1",          1360,       9.25695,       145.126,            0.,NA,NA,"",   668.564E+03,   727.581E+03,   727.581E+03
C:/temp/Job-10.odb,Step-1,Increment      1: Step Time =    1.000,"P-10-1",          1361,       30.0150,       13.7554,            0.,NA,NA,"",   2.13953E+06,   2.12359E+06,   2.12359E+06
C:/temp/Job-10.odb,Step-1,Increment      1: Step Time =    1.000,"P-10-1",          1362,       34.8305,       13.8591,            0.,NA,NA,"",   2.12267E+06,   2.09729E+06,   2.09729E+06
C:/temp/Job-10.odb,Step-1,Increment      1: Step Time =    1.000,"P-10-1",          1363,       15.1557,       37.4911,            0.,NA,NA,"",   1.29557E+06,   1.35623E+06,   1.35623E+06
C:/temp/Job-10.odb,Step-1,Increment      1: Step Time =    1.000,"P-10-1",          1364,       25.5077,       14.5409,            0.,NA,NA,"",   2.13715E+06,   2.13385E+06,   2.13385E+06
C:/temp/Job-10.odb,Step-1,Increment      1: Step Time =    1.000,"P-10-1",          1365,       15.9074,       25.1713,            0.,NA,NA,"",   1.72267E+06,   1.78731E+06,   1.78731E+06
C:/temp/Job-10.odb,Step-1,Increment      1: Step Time =    1.000,"P-10-1",          1366,       48.2313,       7.78981,            0.,NA,NA,"",   2.10067E+06,   2.07986E+06,   2.07986E+06
C:/temp/Job-10.odb,Step-1,Increment      1: Step Time =    1.000,"P-10-1",          1367,       190.625,       48.3613,            0.,NA,NA,"",   1.06333E+06,   1.15859E+06,   1.15859E+06
C:/temp/Job-10.odb,Step-1,Increment      1: Step Time =    1.000,"P-10-1",          1368,       152.863,       188.496,            0.,NA,NA,"",   1.07442E+06,   1.05028E+06,   1.05028E+06
C:/temp/Job-10.odb,Step-1,Increment      1: Step Time =    1.000,"P-10-1",          1369,       15.4755,       15.1510,            0.,NA,NA,"",   2.12069E+06,   2.16971E+06,   2.16971E+06
C:/temp/Job-10.odb,Step-1,Increment      1: Step Time =    1.000,"P-10-1",          1370,       15.9147,       33.4938,            0.,NA,NA,"",   1.43662E+06,   1.50015E+06,   1.50015E+06
C:/temp/Job-10.odb,Step-1,Increment      1: Step Time =    1.000,"P-10-1",          1371,       26.8843,       20.0137,            0.,NA,NA,"",   1.99105E+06,   1.97982E+06,   1.97982E+06
C:/temp/Job-10.odb,Step-1,Increment      1: Step Time =    1.000,"P-10-1",          1372,       30.2578,       17.2213,            0.,NA,NA,"",   2.06636E+06,   2.04565E+06,   2.04565E+06
C:/temp/Job-10.odb,Step-1,Increment      1: Step Time =    1.000,"P-10-1",          1373,       26.9922,       44.7525,            0.,NA,NA,"",   1.20166E+06,   1.17097E+06,   1.17097E+06
C:/temp/Job-10.odb,Step-1,Increment      1: Step Time =    1.000,"P-10-1",          1374,       31.1322,       26.2612,            0.,NA,NA,"",   1.84965E+06,   1.80656E+06,   1.80656E+06
C:/temp/Job-10.odb,Step-1,Increment      1: Step Time =    1.000,"P-10-1",          1375,       15.7273,       20.1929,            0.,NA,NA,"",   1.91029E+06,   1.97262E+06,   1.97262E+06
C:/temp/Job-10.odb,Step-1,Increment      1: Step Time =    1.000,"P-10-1",          1376,       20.6304,       15.0006,            0.,NA,NA,"",   2.13312E+06,   2.14918E+06,   2.14918E+06
C:/temp/Job-10.odb,Step-1,Increment      1: Step Time =    1.000,"P-10-1",          1377,       21.2007,       30.2427,            0.,NA,NA,"",   1.61342E+06,   1.63638E+06,   1.63638E+06
C:/temp/Job-10.odb,Step-1,Increment      1: Step Time =    1.000,"P-10-1",          1378,       21.2065,       25.2641,            0.,NA,NA,"",   1.78756E+06,   1.81050E+06,   1.81050E+06
C:/temp/Job-10.odb,Step-1,Increment      1: Step Time =    1.000,"P-10-1",          1379,       16.2858,       29.8379,            0.,NA,NA,"",   1.56172E+06,   1.62606E+06,   1.62606E+06
C:/temp/Job-10.odb,Step-1,Increment      1: Step Time =    1.000,"P-10-1",          1380,       26.3000,       25.5955,            0.,NA,NA,"",   1.82738E+06,   1.81468E+06,   1.81468E+06
C:/temp/Job-10.odb,Step-1,Increment      1: Step Time =    1.000,"P-10-1",          1381,       5.06009,       5.04666,            0.,NA,NA,"",   2.62486E+06,   2.73009E+06,   2.73009E+06
C:/temp/Job-10.odb,Step-1,Increment      1: Step Time =    1.000,"P-10-1",          1382,       45.7918,       111.078,            0.,NA,NA,"",   811.709E+03,  -831.369E+03,  -831.369E+03
C:/temp/Job-10.odb,Step-1,Increment      1: Step Time =    1.000,"P-10-1",          1383,       45.9825,       106.808,            0.,NA,NA,"",   838.235E+03,  -853.193E+03,  -853.193E+03
C:/temp/Job-10.odb,Step-1,Increment      1: Step Time =    1.000,"P-10-1",          1384,       44.6185,       8.56257,            0.,NA,NA,"",   2.13365E+06,   2.11333E+06,   2.11333E+06
C:/temp/Job-10.odb,Step-1,Increment      1: Step Time =    1.000,"P-10-1",          1385,       190.793,       148.839,            0.,NA,NA,"",   1.05368E+06,   1.16519E+06,   1.16519E+06
C:/temp/Job-10.odb,Step-1,Increment      1: Step Time =    1.000,"P-10-1",          1386,       50.5641,       191.038,            0.,NA,NA,"",   2.06877E+06,   2.04142E+06,   2.04142E+06
C:/temp/Job-10.odb,Step-1,Increment      1: Step Time =    1.000,"P-10-1",          1387,       190.631,       44.2920,            0.,NA,NA,"",   1.04149E+06,   1.12153E+06,   1.12153E+06
C:/temp/Job-10.odb,Step-1,Increment      1: Step Time =    1.000,"P-10-1",          1388,       180.283,       190.360,            0.,NA,NA,"",   1.01422E+06,   1.01335E+06,   1.01335E+06
C:/temp/Job-10.odb,Step-1,Increment      1: Step Time =    1.000,"P-10-1",          1389,       138.323,       153.768,            0.,NA,NA,"",   2.25767E+06,   2.25235E+06,   2.25235E+06
C:/temp/Job-10.odb,Step-1,Increment      1: Step Time =    1.000,"P-10-1",          1390,       38.9782,       124.105,            0.,NA,NA,"",   330.324E+03,  -319.806E+03,  -319.806E+03
C:/temp/Job-10.odb,Step-1,Increment      1: Step Time =    1.000,"P-10-1",          1391,       162.809,       110.044,            0.,NA,NA,"",   948.735E+03,  -810.709E+03,  -810.709E+03
C:/temp/Job-10.odb,Step-1,Increment      1: Step Time =    1.000,"P-10-1",          1392,       183.142,       160.723,            0.,NA,NA,"",   1.20560E+06,   1.21808E+06,   1.21808E+06
C:/temp/Job-10.odb,Step-1,Increment      1: Step Time =    1.000,"P-10-1",          1393,       128.799,       154.603,            0.,NA,NA,"",   2.71360E+06,   2.81248E+06,   2.81248E+06
C:/temp/Job-10.odb,Step-1,Increment      1: Step Time =    1.000,"P-10-1",          1394,       58.1050,       15.2854,            0.,NA,NA,"",   2.00981E+06,   1.93500E+06,   1.93500E+06
C:/temp/Job-10.odb,Step-1,Increment      1: Step Time =    1.000,"P-10-1",          1395,       54.4782,       17.5854,            0.,NA,NA,"",   2.04148E+06,   1.95463E+06,   1.95463E+06
C:/temp/Job-10.odb,Step-1,Increment      1: Step Time =    1.000,"P-10-1",          1396,       143.119,       180.529,            0.,NA,NA,"",   1.37213E+06,   1.34398E+06,   1.34398E+06
C:/temp/Job-10.odb,Step-1,Increment      1: Step Time =    1.000,"P-10-1",          1397,       133.220,       185.837,            0.,NA,NA,"",   1.11970E+06,   1.12163E+06,   1.12163E+06
C:/temp/Job-10.odb,Step-1,Increment      1: Step Time =    1.000,"P-10-1",          1398,       31.6394,       185.921,            0.,NA,NA,"",   2.13376E+06,   2.11496E+06,   2.11496E+06
C:/temp/Job-10.odb,Step-1,Increment      1: Step Time =    1.000,"P-10-1",          1399,       36.5079,       128.035,            0.,NA,NA,"",   325.333E+03,  -24.8338E+03,  -24.8338E+03
C:/temp/Job-10.odb,Step-1,Increment      1: Step Time =    1.000,"P-10-1",          1400,       32.9497,       125.513,            0.,NA,NA,"",   234.868E+03,  -90.1512E+03,  -90.1512E+03
C:/temp/Job-10.odb,Step-1,Increment      1: Step Time =    1.000,"P-10-1",          1401,       148.631,       145.140,            0.,NA,NA,"",   2.03782E+06,   1.83078E+06,   1.83078E+06
C:/temp/Job-10.odb,Step-1,Increment      1: Step Time =    1.000,"P-10-1",          1402,       142.208,       159.501,            0.,NA,NA,"",   2.08383E+06,   2.02812E+06,   2.02812E+06
C:/temp/Job-10.odb,Step-1,Increment      1: Step Time =    1.000,"P-10-1",          1403,       182.116,       157.560,            0.,NA,NA,"",   1.25103E+06,   1.25917E+06,   1.25917E+06
C:/temp/Job-10.odb,Step-1,Increment      1: Step Time =    1.000,"P-10-1",          1404,       169.559,       109.431,            0.,NA,NA,"",   700.020E+03,   264.216E+03,   264.216E+03
C:/temp/Job-10.odb,Step-1,Increment      1: Step Time =    1.000,"P-10-1",          1405,       186.341,       32.9023,            0.,NA,NA,"",   1.08339E+06,   1.11010E+06,   1.11010E+06
C:/temp/Job-10.odb,Step-1,Increment      1: Step Time =    1.000,"P-10-1",          1406,       148.509,       180.075,            0.,NA,NA,"",   1.37260E+06,   1.32980E+06,   1.32980E+06
C:/temp/Job-10.odb,Step-1,Increment      1: Step Time =    1.000,"P-10-1",          1407,       66.1776,       155.783,            0.,NA,NA,"",   1.94965E+06,   1.79305E+06,   1.79305E+06
C:/temp/Job-10.odb,Step-1,Increment      1: Step Time =    1.000,"P-10-1",          1408,       17.6098,       177.350,            0.,NA,NA,"",   1.84930E+06,   1.89686E+06,   1.89686E+06
C:/temp/Job-10.odb,Step-1,Increment      1: Step Time =    1.000,"P-10-1",          1409,       21.4132,       176.264,            0.,NA,NA,"",   1.85145E+06,   1.87174E+06,   1.87174E+06
C:/temp/Job-10.odb,Step-1,Increment      1: Step Time =    1.000,"P-10-1",          1410,       178.554,       156.685,            0.,NA,NA,"",   1.35776E+06,   1.33038E+06,   1.33038E+06
C:/temp/Job-10.odb,Step-1,Increment      1: Step Time =    1.000,"P-10-1",          1411,       172.345,       23.5357,            0.,NA,NA,"",   1.22970E+06,   1.20116E+06,   1.20116E+06
C:/temp/Job-10.odb,Step-1,Increment      1: Step Time =    1.000,"P-10-1",          1412,       34.6453,       182.544,            0.,NA,NA,"",   2.05942E+06,   2.02131E+06,   2.02131E+06
C:/temp/Job-10.odb,Step-1,Increment      1: Step Time =    1.000,"P-10-1",          1413,       167.122,       122.449,            0.,NA,NA,"",   1.38390E+06,   1.00200E+06,   1.00200E+06
C:/temp/Job-10.odb,Step-1,Increment      1: Step Time =    1.000,"P-10-1",          1414,       142.609,       19.4710,            0.,NA,NA,"",   1.36661E+06,   1.34130E+06,   1.34130E+06
C:/temp/Job-10.odb,Step-1,Increment      1: Step Time =    1.000,"P-10-1",          1415,       133.657,       18.6951,            0.,NA,NA,"",   1.34117E+06,   1.34834E+06,   1.34834E+06
C:/temp/Job-10.odb,Step-1,Increment      1: Step Time =    1.000,"P-10-1",          1416,       172.012,       106.758,            0.,NA,NA,"",   540.600E+03,   470.049E+03,   470.049E+03
C:/temp/Job-10.odb,Step-1,Increment      1: Step Time =    1.000,"P-10-1",          1417,       182.394,       150.683,            0.,NA,NA,"",   1.30656E+06,   1.32053E+06,   1.32053E+06
C:/temp/Job-10.odb,Step-1,Increment      1: Step Time =    1.000,"P-10-1",          1418,       182.650,       143.150,            0.,NA,NA,"",   1.36057E+06,   1.37804E+06,   1.37804E+06
C:/temp/Job-10.odb,Step-1,Increment      1: Step Time =    1.000,"P-10-1",          1419,       107.793,       18.9096,            0.,NA,NA,"",   1.41572E+06,   1.50717E+06,   1.50717E+06
C:/temp/Job-10.odb,Step-1,Increment      1: Step Time =    1.000,"P-10-1",          1420,       103.484,       18.6607,            0.,NA,NA,"",   1.45576E+06,   1.53134E+06,   1.53134E+06
C:/temp/Job-10.odb,Step-1,Increment      1: Step Time =    1.000,"P-10-1",          1421,       71.8804,       17.4790,            0.,NA,NA,"",   1.95440E+06,   1.86680E+06,   1.86680E+06
C:/temp/Job-10.odb,Step-1,Increment      1: Step Time =    1.000,"P-10-1",          1422,       56.8603,       20.0869,            0.,NA,NA,"",   2.05906E+06,   1.95051E+06,   1.95051E+06
C:/temp/Job-10.odb,Step-1,Increment      1: Step Time =    1.000,"P-10-1",          1423,       56.1676,       23.3914,            0.,NA,NA,"",   2.07499E+06,   1.94563E+06,   1.94563E+06
C:/temp/Job-10.odb,Step-1,Increment      1: Step Time =    1.000,"P-10-1",          1424,       180.716,       105.593,            0.,NA,NA,"",   766.786E+03,   875.112E+03,   875.112E+03
C:/temp/Job-10.odb,Step-1,Increment      1: Step Time =    1.000,"P-10-1",          1425,       180.888,       72.9511,            0.,NA,NA,"",   1.34387E+06,   1.36588E+06,   1.36588E+06
C:/temp/Job-10.odb,Step-1,Increment      1: Step Time =    1.000,"P-10-1",          1426,       30.6162,       128.714,            0.,NA,NA,"",   280.041E+03,   131.420E+03,   131.420E+03
C:/temp/Job-10.odb,Step-1,Increment      1: Step Time =    1.000,"P-10-1",          1427,       27.4915,       126.340,            0.,NA,NA,"",   203.213E+03,   79.2942E+03,   79.2942E+03
C:/temp/Job-10.odb,Step-1,Increment      1: Step Time =    1.000,"P-10-1",          1428,       129.684,       41.3027,            0.,NA,NA,"",   2.44222E+06,   2.53409E+06,   2.53409E+06
C:/temp/Job-10.odb,Step-1,Increment      1: Step Time =    1.000,"P-10-1",          1429,       20.7708,       34.5885,            0.,NA,NA,"",   1.44923E+06,   1.47556E+06,   1.47556E+06
C:/temp/Job-10.odb,Step-1,Increment      1: Step Time =    1.000,"P-10-1",          1430,       155.204,       144.436,            0.,NA,NA,"",   2.00826E+06,   1.71747E+06,   1.71747E+06
C:/temp/Job-10.odb,Step-1,Increment      1: Step Time =    1.000,"P-10-1",          1431,       51.3542,       155.576,            0.,NA,NA,"",   1.64684E+06,   1.43775E+06,   1.43775E+06
C:/temp/Job-10.odb,Step-1,Increment      1: Step Time =    1.000,"P-10-1",          1432,       39.5959,       137.853,            0.,NA,NA,"",   678.067E+03,   515.177E+03,   515.177E+03
C:/temp/Job-10.odb,Step-1,Increment      1: Step Time =    1.000,"P-10-1",          1433,       57.4137,       52.3913,            0.,NA,NA,"",   1.33646E+06,   1.11951E+06,   1.11951E+06
C:/temp/Job-10.odb,Step-1,Increment      1: Step Time =    1.000,"P-10-1",          1434,       37.9551,       77.6994,            0.,NA,NA,"",   308.620E+03,  -314.529E+03,  -314.529E+03
C:/temp/Job-10.odb,Step-1,Increment      1: Step Time =    1.000,"P-10-1",          1435,       164.957,       92.4292,            0.,NA,NA,"",   769.639E+03,  -635.616E+03,  -635.616E+03
C:/temp/Job-10.odb,Step-1,Increment      1: Step Time =    1.000,"P-10-1",          1436,       48.4741,       149.617,            0.,NA,NA,"",   1.32487E+06,   1.11612E+06,   1.11612E+06
C:/temp/Job-10.odb,Step-1,Increment      1: Step Time =    1.000,"P-10-1",          1437,       34.0243,       103.127,            0.,NA,NA,"",   289.370E+03,  -329.400E+03,  -329.400E+03
C:/temp/Job-10.odb,Step-1,Increment      1: Step Time =    1.000,"P-10-1",          1438,       46.0148,       143.910,            0.,NA,NA,"",   1.01428E+06,   806.772E+03,   806.772E+03
C:/temp/Job-10.odb,Step-1,Increment      1: Step Time =    1.000,"P-10-1",          1439,       122.111,       41.3687,            0.,NA,NA,"",   2.80291E+06,   2.95552E+06,   2.95552E+06
C:/temp/Job-10.odb,Step-1,Increment      1: Step Time =    1.000,"P-10-1",          1440,       184.166,       37.6004,            0.,NA,NA,"",   1.15114E+06,   1.17515E+06,   1.17515E+06
C:/temp/Job-10.odb,Step-1,Increment      1: Step Time =    1.000,"P-10-1",          1441,       24.8156,       175.486,            0.,NA,NA,"",   1.85183E+06,   1.84963E+06,   1.84963E+06
C:/temp/Job-10.odb,Step-1,Increment      1: Step Time =    1.000,"P-10-1",          1442,       167.496,       181.592,            0.,NA,NA,"",   1.19601E+06,   1.16674E+06,   1.16674E+06
C:/temp/Job-10.odb,Step-1,Increment      1: Step Time =    1.000,"P-10-1",          1443,       145.737,       173.188,            0.,NA,NA,"",   1.62088E+06,   1.56878E+06,   1.56878E+06
C:/temp/Job-10.odb,Step-1,Increment      1: Step Time =    1.000,"P-10-1",          1444,       96.2262,       34.1803,            0.,NA,NA,"",   2.58201E+06,   2.72068E+06,   2.72068E+06
C:/temp/Job-10.odb,Step-1,Increment      1: Step Time =    1.000,"P-10-1",          1445,       175.436,       181.367,            0.,NA,NA,"",   1.12073E+06,   1.10994E+06,   1.10994E+06
C:/temp/Job-10.odb,Step-1,Increment      1: Step Time =    1.000,"P-10-1",          1446,       50.4729,       176.716,            0.,NA,NA,"",   2.03198E+06,   1.91782E+06,   1.91782E+06
C:/temp/Job-10.odb,Step-1,Increment      1: Step Time =    1.000,"P-10-1",          1447,       32.9750,       179.611,            0.,NA,NA,"",   1.98788E+06,   1.94779E+06,   1.94779E+06
C:/temp/Job-10.odb,Step-1,Increment      1: Step Time =    1.000,"P-10-1",          1448,       59.8748,       19.0746,            0.,NA,NA,"",   2.04727E+06,   1.94420E+06,   1.94420E+06
C:/temp/Job-10.odb,Step-1,Increment      1: Step Time =    1.000,"P-10-1",          1449,       178.338,       148.853,            0.,NA,NA,"",   1.45494E+06,   1.40978E+06,   1.40978E+06
C:/temp/Job-10.odb,Step-1,Increment      1: Step Time =    1.000,"P-10-1",          1450,       21.1668,       172.334,            0.,NA,NA,"",   1.71511E+06,   1.73643E+06,   1.73643E+06
C:/temp/Job-10.odb,Step-1,Increment      1: Step Time =    1.000,"P-10-1",          1451,       129.799,       181.969,            0.,NA,NA,"",   1.28238E+06,   1.30620E+06,   1.30620E+06
C:/temp/Job-10.odb,Step-1,Increment      1: Step Time =    1.000,"P-10-1",          1452,       172.206,       173.567,            0.,NA,NA,"",   1.27658E+06,   1.24135E+06,   1.24135E+06
C:/temp/Job-10.odb,Step-1,Increment      1: Step Time =    1.000,"P-10-1",          1453,       178.194,       139.633,            0.,NA,NA,"",   1.52114E+06,   1.44983E+06,   1.44983E+06
C:/temp/Job-10.odb,Step-1,Increment      1: Step Time =    1.000,"P-10-1",          1454,       176.888,       135.702,            0.,NA,NA,"",   1.54052E+06,   1.44286E+06,   1.44286E+06
C:/temp/Job-10.odb,Step-1,Increment      1: Step Time =    1.000,"P-10-1",          1455,       175.163,       119.604,            0.,NA,NA,"",   1.20873E+06,   1.11568E+06,   1.11568E+06
C:/temp/Job-10.odb,Step-1,Increment      1: Step Time =    1.000,"P-10-1",          1456,       141.502,       172.749,            0.,NA,NA,"",   1.67787E+06,   1.64839E+06,   1.64839E+06
C:/temp/Job-10.odb,Step-1,Increment      1: Step Time =    1.000,"P-10-1",          1457,       152.839,       157.605,            0.,NA,NA,"",   1.95721E+06,   1.80059E+06,   1.80059E+06
C:/temp/Job-10.odb,Step-1,Increment      1: Step Time =    1.000,"P-10-1",          1458,       171.219,       127.251,            0.,NA,NA,"",   1.51506E+06,   1.26481E+06,   1.26481E+06
C:/temp/Job-10.odb,Step-1,Increment      1: Step Time =    1.000,"P-10-1",          1459,       171.148,       131.773,            0.,NA,NA,"",   1.62455E+06,   1.37830E+06,   1.37830E+06
C:/temp/Job-10.odb,Step-1,Increment      1: Step Time =    1.000,"P-10-1",          1460,       176.337,       68.1658,            0.,NA,NA,"",   1.51846E+06,   1.40456E+06,   1.40456E+06
C:/temp/Job-10.odb,Step-1,Increment      1: Step Time =    1.000,"P-10-1",          1461,       176.266,       63.7695,            0.,NA,NA,"",   1.56828E+06,   1.45175E+06,   1.45175E+06
C:/temp/Job-10.odb,Step-1,Increment      1: Step Time =    1.000,"P-10-1",          1462,       159.640,       26.6745,            0.,NA,NA,"",   1.47525E+06,   1.40411E+06,   1.40411E+06
C:/temp/Job-10.odb,Step-1,Increment      1: Step Time =    1.000,"P-10-1",          1463,       137.186,       23.7278,            0.,NA,NA,"",   1.55192E+06,   1.54851E+06,   1.54851E+06
C:/temp/Job-10.odb,Step-1,Increment      1: Step Time =    1.000,"P-10-1",          1464,       115.090,       22.2485,            0.,NA,NA,"",   1.53023E+06,   1.64105E+06,   1.64105E+06
C:/temp/Job-10.odb,Step-1,Increment      1: Step Time =    1.000,"P-10-1",          1465,       164.691,       177.149,            0.,NA,NA,"",   1.31299E+06,   1.26547E+06,   1.26547E+06
C:/temp/Job-10.odb,Step-1,Increment      1: Step Time =    1.000,"P-10-1",          1466,       103.495,       22.9886,            0.,NA,NA,"",   1.70625E+06,   1.81404E+06,   1.81404E+06
C:/temp/Job-10.odb,Step-1,Increment      1: Step Time =    1.000,"P-10-1",          1467,       99.3298,       23.7116,            0.,NA,NA,"",   1.82344E+06,   1.91682E+06,   1.91682E+06
C:/temp/Job-10.odb,Step-1,Increment      1: Step Time =    1.000,"P-10-1",          1468,       109.271,       25.1217,            0.,NA,NA,"",   1.76239E+06,   1.89709E+06,   1.89709E+06
C:/temp/Job-10.odb,Step-1,Increment      1: Step Time =    1.000,"P-10-1",          1469,       77.2168,       25.6879,            0.,NA,NA,"",   2.18153E+06,   2.09674E+06,   2.09674E+06
C:/temp/Job-10.odb,Step-1,Increment      1: Step Time =    1.000,"P-10-1",          1470,       69.4417,       21.0374,            0.,NA,NA,"",   2.07941E+06,   1.96808E+06,   1.96808E+06
C:/temp/Job-10.odb,Step-1,Increment      1: Step Time =    1.000,"P-10-1",          1471,       25.2392,       129.083,            0.,NA,NA,"",   256.011E+03,   221.002E+03,   221.002E+03
C:/temp/Job-10.odb,Step-1,Increment      1: Step Time =    1.000,"P-10-1",          1472,       27.5675,       118.653,            0.,NA,NA,"",   103.546E+03,  -110.827E+03,  -110.827E+03
C:/temp/Job-10.odb,Step-1,Increment      1: Step Time =    1.000,"P-10-1",          1473,       27.9972,       115.126,            0.,NA,NA,"",   116.433E+03,  -132.502E+03,  -132.502E+03
C:/temp/Job-10.odb,Step-1,Increment      1: Step Time =    1.000,"P-10-1",          1474,       42.4535,       24.6991,            0.,NA,NA,"",   1.96108E+06,   1.87300E+06,   1.87300E+06
C:/temp/Job-10.odb,Step-1,Increment      1: Step Time =    1.000,"P-10-1",          1475,       29.8053,       99.3666,            0.,NA,NA,"",   198.639E+03,  -219.155E+03,  -219.155E+03
C:/temp/Job-10.odb,Step-1,Increment      1: Step Time =    1.000,"P-10-1",          1476,       29.4530,       96.1563,            0.,NA,NA,"",   185.846E+03,  -203.263E+03,  -203.263E+03
C:/temp/Job-10.odb,Step-1,Increment      1: Step Time =    1.000,"P-10-1",          1477,       174.794,       148.725,            0.,NA,NA,"",   1.56694E+06,   1.46664E+06,   1.46664E+06
C:/temp/Job-10.odb,Step-1,Increment      1: Step Time =    1.000,"P-10-1",          1478,       32.2051,       177.464,            0.,NA,NA,"",   1.93755E+06,   1.89221E+06,   1.89221E+06
C:/temp/Job-10.odb,Step-1,Increment      1: Step Time =    1.000,"P-10-1",          1479,       77.4706,       28.8996,            0.,NA,NA,"",   2.25340E+06,   2.17308E+06,   2.17308E+06
C:/temp/Job-10.odb,Step-1,Increment      1: Step Time =    1.000,"P-10-1",          1480,       33.6867,       18.1390,            0.,NA,NA,"",   2.04594E+06,   2.01125E+06,   2.01125E+06
C:/temp/Job-10.odb,Step-1,Increment      1: Step Time =    1.000,"P-10-1",          1481,       43.4316,       28.3559,            0.,NA,NA,"",   1.91592E+06,   1.80694E+06,   1.80694E+06
C:/temp/Job-10.odb,Step-1,Increment      1: Step Time =    1.000,"P-10-1",          1482,       70.3729,       164.424,            0.,NA,NA,"",   2.22537E+06,   2.09091E+06,   2.09091E+06
C:/temp/Job-10.odb,Step-1,Increment      1: Step Time =    1.000,"P-10-1",          1483,       81.7368,       32.4580,            0.,NA,NA,"",   2.36317E+06,   2.33933E+06,   2.33933E+06
C:/temp/Job-10.odb,Step-1,Increment      1: Step Time =    1.000,"P-10-1",          1484,       175.176,       145.867,            0.,NA,NA,"",   1.57486E+06,   1.47290E+06,   1.47290E+06
C:/temp/Job-10.odb,Step-1,Increment      1: Step Time =    1.000,"P-10-1",          1485,       17.1244,       168.606,            0.,NA,NA,"",   1.51732E+06,   1.57203E+06,   1.57203E+06
C:/temp/Job-10.odb,Step-1,Increment      1: Step Time =    1.000,"P-10-1",          1486,       18.8356,       61.3931,            0.,NA,NA,"",   523.360E+03,   537.794E+03,   537.794E+03
C:/temp/Job-10.odb,Step-1,Increment      1: Step Time =    1.000,"P-10-1",          1487,       18.6170,       65.8896,            0.,NA,NA,"",   386.634E+03,   397.575E+03,   397.575E+03
C:/temp/Job-10.odb,Step-1,Increment      1: Step Time =    1.000,"P-10-1",          1488,       180.343,       36.0557,            0.,NA,NA,"",   1.23857E+06,   1.23166E+06,   1.23166E+06
C:/temp/Job-10.odb,Step-1,Increment      1: Step Time =    1.000,"P-10-1",          1489,       27.6227,       175.891,            0.,NA,NA,"",   1.87290E+06,   1.85544E+06,   1.85544E+06
C:/temp/Job-10.odb,Step-1,Increment      1: Step Time =    1.000,"P-10-1",          1490,       28.0495,       135.651,            0.,NA,NA,"",    491.15E+03,   445.584E+03,   445.584E+03
C:/temp/Job-10.odb,Step-1,Increment      1: Step Time =    1.000,"P-10-1",          1491,       30.6471,       134.313,            0.,NA,NA,"",   458.815E+03,   387.018E+03,   387.018E+03
C:/temp/Job-10.odb,Step-1,Increment      1: Step Time =    1.000,"P-10-1",          1492,       43.7017,       55.1708,            0.,NA,NA,"",   1.03968E+06,   851.347E+03,   851.347E+03
C:/temp/Job-10.odb,Step-1,Increment      1: Step Time =    1.000,"P-10-1",          1493,       44.7803,       50.8833,            0.,NA,NA,"",   1.25434E+06,   1.06469E+06,   1.06469E+06
C:/temp/Job-10.odb,Step-1,Increment      1: Step Time =    1.000,"P-10-1",          1494,       168.516,       86.9403,            0.,NA,NA,"",   922.705E+03,   85.4766E+03,   85.4766E+03
C:/temp/Job-10.odb,Step-1,Increment      1: Step Time =    1.000,"P-10-1",          1495,       174.438,       141.184,            0.,NA,NA,"",   1.62725E+06,   1.48889E+06,   1.48889E+06
C:/temp/Job-10.odb,Step-1,Increment      1: Step Time =    1.000,"P-10-1",          1496,       22.4804,       131.589,            0.,NA,NA,"",   324.228E+03,   313.242E+03,   313.242E+03
C:/temp/Job-10.odb,Step-1,Increment      1: Step Time =    1.000,"P-10-1",          1497,       19.3488,       127.498,            0.,NA,NA,"",   217.194E+03,   216.080E+03,   216.080E+03
C:/temp/Job-10.odb,Step-1,Increment      1: Step Time =    1.000,"P-10-1",          1498,       65.4815,       170.775,            0.,NA,NA,"",   2.17326E+06,   2.01516E+06,   2.01516E+06
C:/temp/Job-10.odb,Step-1,Increment      1: Step Time =    1.000,"P-10-1",          1499,       19.2989,       87.5817,            0.,NA,NA,"",   116.245E+03,  -110.691E+03,  -110.691E+03
C:/temp/Job-10.odb,Step-1,Increment      1: Step Time =    1.000,"P-10-1",          1500,       18.0227,       95.4303,            0.,NA,NA,"",   157.490E+03,  -155.984E+03,  -155.984E+03
C:/temp/Job-10.odb,Step-1,Increment      1: Step Time =    1.000,"P-10-1",          1501,       112.066,       170.871,            0.,NA,NA,"",   2.01219E+06,   2.16832E+06,   2.16832E+06
C:/temp/Job-10.odb,Step-1,Increment      1: Step Time =    1.000,"P-10-1",          1502,       145.233,       28.6947,            0.,NA,NA,"",   1.69837E+06,   1.64891E+06,   1.64891E+06
C:/temp/Job-10.odb,Step-1,Increment      1: Step Time =    1.000,"P-10-1",          1503,       168.316,       142.022,            0.,NA,NA,"",   1.79329E+06,   1.54970E+06,   1.54970E+06
C:/temp/Job-10.odb,Step-1,Increment      1: Step Time =    1.000,"P-10-1",          1504,       159.093,       31.2243,            0.,NA,NA,"",   1.59340E+06,   1.50044E+06,   1.50044E+06
C:/temp/Job-10.odb,Step-1,Increment      1: Step Time =    1.000,"P-10-1",          1505,       128.939,       25.8791,            0.,NA,NA,"",   1.68073E+06,   1.73689E+06,   1.73689E+06
C:/temp/Job-10.odb,Step-1,Increment      1: Step Time =    1.000,"P-10-1",          1506,       175.744,       36.6978,            0.,NA,NA,"",   1.35374E+06,   1.31280E+06,   1.31280E+06
C:/temp/Job-10.odb,Step-1,Increment      1: Step Time =    1.000,"P-10-1",          1507,       169.030,       157.771,            0.,NA,NA,"",   1.60658E+06,   1.49082E+06,   1.49082E+06
C:/temp/Job-10.odb,Step-1,Increment      1: Step Time =    1.000,"P-10-1",          1508,       170.941,       151.157,            0.,NA,NA,"",   1.66866E+06,   1.52297E+06,   1.52297E+06
C:/temp/Job-10.odb,Step-1,Increment      1: Step Time =    1.000,"P-10-1",          1509,       159.024,       156.487,            0.,NA,NA,"",   1.86668E+06,   1.68960E+06,   1.68960E+06
C:/temp/Job-10.odb,Step-1,Increment      1: Step Time =    1.000,"P-10-1",          1510,       166.346,       146.660,            0.,NA,NA,"",   1.82097E+06,   1.59612E+06,   1.59612E+06
C:/temp/Job-10.odb,Step-1,Increment      1: Step Time =    1.000,"P-10-1",          1511,       171.809,       67.8411,            0.,NA,NA,"",   1.62399E+06,   1.39646E+06,   1.39646E+06
C:/temp/Job-10.odb,Step-1,Increment      1: Step Time =    1.000,"P-10-1",          1512,       168.479,       51.5737,            0.,NA,NA,"",   1.75462E+06,   1.56894E+06,   1.56894E+06
C:/temp/Job-10.odb,Step-1,Increment      1: Step Time =    1.000,"P-10-1",          1513,       32.7780,       70.7199,            0.,NA,NA,"",   315.112E+03,   41.2150E+03,   41.2150E+03
C:/temp/Job-10.odb,Step-1,Increment      1: Step Time =    1.000,"P-10-1",          1514,       23.3188,       119.656,            0.,NA,NA,"",   81.5626E+03,  -38.9769E+03,  -38.9769E+03
C:/temp/Job-10.odb,Step-1,Increment      1: Step Time =    1.000,"P-10-1",          1515,       42.0378,       159.375,            0.,NA,NA,"",   1.60628E+06,   1.45869E+06,   1.45869E+06
C:/temp/Job-10.odb,Step-1,Increment      1: Step Time =    1.000,"P-10-1",          1516,       53.8053,       174.736,            0.,NA,NA,"",   2.05057E+06,   1.91585E+06,   1.91585E+06
C:/temp/Job-10.odb,Step-1,Increment      1: Step Time =    1.000,"P-10-1",          1517,       18.4470,       114.317,            0.,NA,NA,"",   102.551E+03,  -87.6126E+03,  -87.6126E+03
C:/temp/Job-10.odb,Step-1,Increment      1: Step Time =    1.000,"P-10-1",          1518,       172.126,       144.163,            0.,NA,NA,"",   1.68449E+06,   1.51775E+06,   1.51775E+06
C:/temp/Job-10.odb,Step-1,Increment      1: Step Time =    1.000,"P-10-1",          1519,       38.2679,       160.985,            0.,NA,NA,"",   1.58218E+06,   1.46738E+06,   1.46738E+06
C:/temp/Job-10.odb,Step-1,Increment      1: Step Time =    1.000,"P-10-1",          1520,       61.5047,       172.374,            0.,NA,NA,"",   2.12429E+06,   1.96526E+06,   1.96526E+06
C:/temp/Job-10.odb,Step-1,Increment      1: Step Time =    1.000,"P-10-1",          1521,       22.1808,       117.131,            0.,NA,NA,"",   75.2830E+03,  -69.4872E+03,  -69.4872E+03
C:/temp/Job-10.odb,Step-1,Increment      1: Step Time =    1.000,"P-10-1",          1522,       55.9788,       169.721,            0.,NA,NA,"",   2.05539E+06,   1.88715E+06,   1.88715E+06
C:/temp/Job-10.odb,Step-1,Increment      1: Step Time =    1.000,"P-10-1",          1523,       58.1135,       165.598,            0.,NA,NA,"",   2.05613E+06,   1.86673E+06,   1.86673E+06
C:/temp/Job-10.odb,Step-1,Increment      1: Step Time =    1.000,"P-10-1",          1524,       22.8319,       70.8286,            0.,NA,NA,"",   260.510E+03,   243.154E+03,   243.154E+03
C:/temp/Job-10.odb,Step-1,Increment      1: Step Time =    1.000,"P-10-1",          1525,       17.3163,       164.516,            0.,NA,NA,"",   1.37773E+06,   1.42958E+06,   1.42958E+06
C:/temp/Job-10.odb,Step-1,Increment      1: Step Time =    1.000,"P-10-1",          1526,       23.8398,       137.228,            0.,NA,NA,"",   511.865E+03,   499.639E+03,   499.639E+03
C:/temp/Job-10.odb,Step-1,Increment      1: Step Time =    1.000,"P-10-1",          1527,       35.8909,       26.8460,            0.,NA,NA,"",   1.87705E+06,   1.80191E+06,   1.80191E+06
C:/temp/Job-10.odb,Step-1,Increment      1: Step Time =    1.000,"P-10-1",          1528,       39.7926,       156.135,            0.,NA,NA,"",   1.43795E+06,   1.30202E+06,   1.30202E+06
C:/temp/Job-10.odb,Step-1,Increment      1: Step Time =    1.000,"P-10-1",          1529,       37.1780,       153.690,            0.,NA,NA,"",   1.29681E+06,   1.17733E+06,   1.17733E+06
C:/temp/Job-10.odb,Step-1,Increment      1: Step Time =    1.000,"P-10-1",          1530,       162.660,       48.7486,            0.,NA,NA,"",   1.86567E+06,   1.65491E+06,   1.65491E+06
C:/temp/Job-10.odb,Step-1,Increment      1: Step Time =    1.000,"P-10-1",          1531,       28.9856,       54.3897,            0.,NA,NA,"",   866.383E+03,   818.555E+03,   818.555E+03
C:/temp/Job-10.odb,Step-1,Increment      1: Step Time =    1.000,"P-10-1",          1532,       167.814,       150.301,            0.,NA,NA,"",   1.75322E+06,   1.57206E+06,   1.57206E+06
C:/temp/Job-10.odb,Step-1,Increment      1: Step Time =    1.000,"P-10-1",          1533,       159.392,       165.720,            0.,NA,NA,"",   1.66529E+06,   1.55436E+06,   1.55436E+06
C:/temp/Job-10.odb,Step-1,Increment      1: Step Time =    1.000,"P-10-1",          1534,       27.6750,       147.736,            0.,NA,NA,"",   931.551E+03,   894.123E+03,   894.123E+03
C:/temp/Job-10.odb,Step-1,Increment      1: Step Time =    1.000,"P-10-1",          1535,       34.3289,       151.586,            0.,NA,NA,"",   1.17728E+06,   1.07964E+06,   1.07964E+06
C:/temp/Job-10.odb,Step-1,Increment      1: Step Time =    1.000,"P-10-1",          1536,       40.1434,       49.7018,            0.,NA,NA,"",   1.23114E+06,   1.08055E+06,   1.08055E+06
C:/temp/Job-10.odb,Step-1,Increment      1: Step Time =    1.000,"P-10-1",          1537,       41.0318,       45.7612,            0.,NA,NA,"",   1.39880E+06,   1.24851E+06,   1.24851E+06
C:/temp/Job-10.odb,Step-1,Increment      1: Step Time =    1.000,"P-10-1",          1538,       27.0348,       71.4096,            0.,NA,NA,"",   256.247E+03,   208.305E+03,   208.305E+03
C:/temp/Job-10.odb,Step-1,Increment      1: Step Time =    1.000,"P-10-1",          1539,       167.472,       58.6357,            0.,NA,NA,"",   1.81103E+06,   1.55625E+06,   1.55625E+06
C:/temp/Job-10.odb,Step-1,Increment      1: Step Time =    1.000,"P-10-1",          1540,       35.1857,       156.949,            0.,NA,NA,"",   1.38592E+06,   1.28468E+06,   1.28468E+06
C:/temp/Job-10.odb,Step-1,Increment      1: Step Time =    1.000,"P-10-1",          1541,       27.1749,       156.092,            0.,NA,NA,"",   1.23015E+06,   1.19991E+06,   1.19991E+06
C:/temp/Job-10.odb,Step-1,Increment      1: Step Time =    1.000,"P-10-1",          1542,       33.4603,       55.7876,            0.,NA,NA,"",   872.532E+03,   779.829E+03,   779.829E+03
C:/temp/Job-10.odb,Step-1,Increment      1: Step Time =    1.000,"P-10-1",          1543,       29.2612,       153.311,            0.,NA,NA,"",   1.16198E+06,   1.11066E+06,   1.11066E+06
