ODB Name,Step,Frame,Part Instance Name,    Node Label,X,Y,Z,Section Name,Material Name,Section Point,       S-Mises,S-Max. In-Plane Principal (Abs),S-Max. Principal (Abs)
C:/temp/Job-11.odb,Step-1,Increment      1: Step Time =    1.000,"P-11-1",             1,       90.4546,       119.821,            0.,NA,NA,"",   1.92397E+06,   1.98444E+06,   1.98444E+06
C:/temp/Job-11.odb,Step-1,Increment      1: Step Time =    1.000,"P-11-1",             2,       82.7997,       113.717,            0.,NA,NA,"",   663.101E+03,   596.860E+03,   596.860E+03
C:/temp/Job-11.odb,Step-1,Increment      1: Step Time =    1.000,"P-11-1",             3,       78.5516,       104.895,            0.,NA,NA,"",   571.180E+03,  -563.570E+03,  -563.570E+03
C:/temp/Job-11.odb,Step-1,Increment      1: Step Time =    1.000,"P-11-1",             4,       78.5516,       95.1045,            0.,NA,NA,"",   559.478E+03,  -546.682E+03,  -546.682E+03
C:/temp/Job-11.odb,Step-1,Increment      1: Step Time =    1.000,"P-11-1",             5,       82.7997,       86.2832,            0.,NA,NA,"",   700.103E+03,   650.708E+03,   650.708E+03
C:/temp/Job-11.odb,Step-1,Increment      1: Step Time =    1.000,"P-11-1",             6,       90.4546,       80.1787,            0.,NA,NA,"",   2.00937E+06,   2.07055E+06,   2.07055E+06
C:/temp/Job-11.odb,Step-1,Increment      1: Step Time =    1.000,"P-11-1",             7,          100.,           78.,            0.,NA,NA,"",   2.57791E+06,   2.66959E+06,   2.66959E+06
C:/temp/Job-11.odb,Step-1,Increment      1: Step Time =    1.000,"P-11-1",             8,       109.545,       80.1787,            0.,NA,NA,"",   1.92624E+06,   1.99319E+06,   1.99319E+06
C:/temp/Job-11.odb,Step-1,Increment      1: Step Time =    1.000,"P-11-1",             9,       117.200,       86.2832,            0.,NA,NA,"",   866.603E+03,   785.169E+03,   785.169E+03
C:/temp/Job-11.odb,Step-1,Increment      1: Step Time =    1.000,"P-11-1",            10,       121.448,       95.1045,            0.,NA,NA,"",   655.962E+03,  -641.740E+03,  -641.740E+03
C:/temp/Job-11.odb,Step-1,Increment      1: Step Time =    1.000,"P-11-1",            11,       121.448,       104.895,            0.,NA,NA,"",   651.875E+03,  -636.867E+03,  -636.867E+03
C:/temp/Job-11.odb,Step-1,Increment      1: Step Time =    1.000,"P-11-1",            12,       117.200,       113.717,            0.,NA,NA,"",   766.670E+03,   707.234E+03,   707.234E+03
C:/temp/Job-11.odb,Step-1,Increment      1: Step Time =    1.000,"P-11-1",            13,       109.545,       119.821,            0.,NA,NA,"",   2.09268E+06,   2.15637E+06,   2.15637E+06
C:/temp/Job-11.odb,Step-1,Increment      1: Step Time =    1.000,"P-11-1",            14,          100.,          122.,            0.,NA,NA,"",   2.55330E+06,   2.64782E+06,   2.64782E+06
C:/temp/Job-11.odb,Step-1,Increment      1: Step Time =    1.000,"P-11-1",            15,          190.,            0.,            0.,NA,NA,"",   999.139E+03,   999.187E+03,   999.187E+03
C:/temp/Job-11.odb,Step-1,Increment      1: Step Time =    1.000,"P-11-1",            16,          180.,            0.,            0.,NA,NA,"",   999.103E+03,   999.119E+03,   999.119E+03
C:/temp/Job-11.odb,Step-1,Increment      1: Step Time =    1.000,"P-11-1",            17,          170.,            0.,            0.,NA,NA,"",   999.341E+03,   999.194E+03,   999.194E+03
C:/temp/Job-11.odb,Step-1,Increment      1: Step Time =    1.000,"P-11-1",            18,          160.,            0.,            0.,NA,NA,"",   995.626E+03,   995.338E+03,   995.338E+03
C:/temp/Job-11.odb,Step-1,Increment      1: Step Time =    1.000,"P-11-1",            19,          150.,            0.,            0.,NA,NA,"",   983.268E+03,   982.966E+03,   982.966E+03
C:/temp/Job-11.odb,Step-1,Increment      1: Step Time =    1.000,"P-11-1",            20,          140.,            0.,            0.,NA,NA,"",   960.046E+03,   959.812E+03,   959.812E+03
C:/temp/Job-11.odb,Step-1,Increment      1: Step Time =    1.000,"P-11-1",            21,          130.,            0.,            0.,NA,NA,"",   929.143E+03,   929.083E+03,   929.083E+03
C:/temp/Job-11.odb,Step-1,Increment      1: Step Time =    1.000,"P-11-1",            22,          120.,            0.,            0.,NA,NA,"",   898.342E+03,   898.615E+03,   898.615E+03
C:/temp/Job-11.odb,Step-1,Increment      1: Step Time =    1.000,"P-11-1",            23,          110.,            0.,            0.,NA,NA,"",   877.422E+03,   877.993E+03,   877.993E+03
C:/temp/Job-11.odb,Step-1,Increment      1: Step Time =    1.000,"P-11-1",            24,          100.,            0.,            0.,NA,NA,"",   874.733E+03,   875.428E+03,   875.428E+03
C:/temp/Job-11.odb,Step-1,Increment      1: Step Time =    1.000,"P-11-1",            25,           90.,            0.,            0.,NA,NA,"",   894.481E+03,   895.003E+03,   895.003E+03
C:/temp/Job-11.odb,Step-1,Increment      1: Step Time =    1.000,"P-11-1",            26,           80.,            0.,            0.,NA,NA,"",   933.452E+03,   933.623E+03,   933.623E+03
C:/temp/Job-11.odb,Step-1,Increment      1: Step Time =    1.000,"P-11-1",            27,           70.,            0.,            0.,NA,NA,"",   982.639E+03,   982.529E+03,   982.529E+03
C:/temp/Job-11.odb,Step-1,Increment      1: Step Time =    1.000,"P-11-1",            28,           60.,            0.,            0.,NA,NA,"",   1.03235E+06,   1.03209E+06,   1.03209E+06
C:/temp/Job-11.odb,Step-1,Increment      1: Step Time =    1.000,"P-11-1",            29,           50.,            0.,            0.,NA,NA,"",   1.07640E+06,   1.07605E+06,   1.07605E+06
C:/temp/Job-11.odb,Step-1,Increment      1: Step Time =    1.000,"P-11-1",            30,           40.,            0.,            0.,NA,NA,"",   1.11408E+06,   1.11379E+06,   1.11379E+06
C:/temp/Job-11.odb,Step-1,Increment      1: Step Time =    1.000,"P-11-1",            31,           30.,            0.,            0.,NA,NA,"",   1.15208E+06,   1.15220E+06,   1.15220E+06
C:/temp/Job-11.odb,Step-1,Increment      1: Step Time =    1.000,"P-11-1",            32,           20.,            0.,            0.,NA,NA,"",   1.21030E+06,   1.21120E+06,   1.21120E+06
C:/temp/Job-11.odb,Step-1,Increment      1: Step Time =    1.000,"P-11-1",            33,           10.,            0.,            0.,NA,NA,"",   1.35074E+06,   1.35387E+06,   1.35387E+06
C:/temp/Job-11.odb,Step-1,Increment      1: Step Time =    1.000,"P-11-1",            34,          200.,            0.,            0.,NA,NA,"",   999.916E+03,   999.832E+03,   999.832E+03
C:/temp/Job-11.odb,Step-1,Increment      1: Step Time =    1.000,"P-11-1",            35,            0.,            0.,            0.,NA,NA,"",   1.70110E+06,   1.78184E+06,   1.78184E+06
C:/temp/Job-11.odb,Step-1,Increment      1: Step Time =    1.000,"P-11-1",            36,          200.,          190.,            0.,NA,NA,"",   1.00052E+06,   1.00016E+06,   1.00016E+06
C:/temp/Job-11.odb,Step-1,Increment      1: Step Time =    1.000,"P-11-1",            37,          200.,          180.,            0.,NA,NA,"",   1.00005E+06,   1.00049E+06,   1.00049E+06
C:/temp/Job-11.odb,Step-1,Increment      1: Step Time =    1.000,"P-11-1",            38,          200.,          170.,            0.,NA,NA,"",   996.029E+03,   1.00091E+06,   1.00091E+06
C:/temp/Job-11.odb,Step-1,Increment      1: Step Time =    1.000,"P-11-1",            39,          200.,          160.,            0.,NA,NA,"",   986.001E+03,   1.00089E+06,   1.00089E+06
C:/temp/Job-11.odb,Step-1,Increment      1: Step Time =    1.000,"P-11-1",            40,          200.,          150.,            0.,NA,NA,"",   969.316E+03,   1.00079E+06,   1.00079E+06
C:/temp/Job-11.odb,Step-1,Increment      1: Step Time =    1.000,"P-11-1",            41,          200.,          140.,            0.,NA,NA,"",   947.398E+03,   1.00079E+06,   1.00079E+06
C:/temp/Job-11.odb,Step-1,Increment      1: Step Time =    1.000,"P-11-1",            42,          200.,          130.,            0.,NA,NA,"",   924.484E+03,   1.00034E+06,   1.00034E+06
C:/temp/Job-11.odb,Step-1,Increment      1: Step Time =    1.000,"P-11-1",            43,          200.,          120.,            0.,NA,NA,"",   904.920E+03,   999.378E+03,   999.378E+03
C:/temp/Job-11.odb,Step-1,Increment      1: Step Time =    1.000,"P-11-1",            44,          200.,          110.,            0.,NA,NA,"",   892.354E+03,   998.362E+03,   998.362E+03
C:/temp/Job-11.odb,Step-1,Increment      1: Step Time =    1.000,"P-11-1",            45,          200.,          100.,            0.,NA,NA,"",   888.159E+03,   997.916E+03,   997.916E+03
C:/temp/Job-11.odb,Step-1,Increment      1: Step Time =    1.000,"P-11-1",            46,          200.,           90.,            0.,NA,NA,"",   892.335E+03,   998.284E+03,   998.284E+03
C:/temp/Job-11.odb,Step-1,Increment      1: Step Time =    1.000,"P-11-1",            47,          200.,           80.,            0.,NA,NA,"",   904.872E+03,   999.258E+03,   999.258E+03
C:/temp/Job-11.odb,Step-1,Increment      1: Step Time =    1.000,"P-11-1",            48,          200.,           70.,            0.,NA,NA,"",   924.541E+03,   1.00024E+06,   1.00024E+06
C:/temp/Job-11.odb,Step-1,Increment      1: Step Time =    1.000,"P-11-1",            49,          200.,           60.,            0.,NA,NA,"",   947.774E+03,   1.00085E+06,   1.00085E+06
C:/temp/Job-11.odb,Step-1,Increment      1: Step Time =    1.000,"P-11-1",            50,          200.,           50.,            0.,NA,NA,"",   969.699E+03,   1.00108E+06,   1.00108E+06
C:/temp/Job-11.odb,Step-1,Increment      1: Step Time =    1.000,"P-11-1",            51,          200.,           40.,            0.,NA,NA,"",    986.37E+03,   1.00099E+06,   1.00099E+06
C:/temp/Job-11.odb,Step-1,Increment      1: Step Time =    1.000,"P-11-1",            52,          200.,           30.,            0.,NA,NA,"",   996.166E+03,   1.00073E+06,   1.00073E+06
C:/temp/Job-11.odb,Step-1,Increment      1: Step Time =    1.000,"P-11-1",            53,          200.,           20.,            0.,NA,NA,"",   1.00010E+06,   1.00045E+06,   1.00045E+06
C:/temp/Job-11.odb,Step-1,Increment      1: Step Time =    1.000,"P-11-1",            54,          200.,           10.,            0.,NA,NA,"",   1.00053E+06,   1.00016E+06,   1.00016E+06
C:/temp/Job-11.odb,Step-1,Increment      1: Step Time =    1.000,"P-11-1",            55,          200.,          200.,            0.,NA,NA,"",   999.919E+03,   999.836E+03,   999.836E+03
C:/temp/Job-11.odb,Step-1,Increment      1: Step Time =    1.000,"P-11-1",            56,           10.,          200.,            0.,NA,NA,"",   1.35171E+06,   1.35454E+06,   1.35454E+06
C:/temp/Job-11.odb,Step-1,Increment      1: Step Time =    1.000,"P-11-1",            57,           20.,          200.,            0.,NA,NA,"",   1.21138E+06,   1.21214E+06,   1.21214E+06
C:/temp/Job-11.odb,Step-1,Increment      1: Step Time =    1.000,"P-11-1",            58,           30.,          200.,            0.,NA,NA,"",   1.15288E+06,   1.15297E+06,   1.15297E+06
C:/temp/Job-11.odb,Step-1,Increment      1: Step Time =    1.000,"P-11-1",            59,           40.,          200.,            0.,NA,NA,"",   1.11431E+06,   1.11421E+06,   1.11421E+06
C:/temp/Job-11.odb,Step-1,Increment      1: Step Time =    1.000,"P-11-1",            60,           50.,          200.,            0.,NA,NA,"",   1.07580E+06,   1.07559E+06,   1.07559E+06
C:/temp/Job-11.odb,Step-1,Increment      1: Step Time =    1.000,"P-11-1",            61,           60.,          200.,            0.,NA,NA,"",   1.03080E+06,   1.03046E+06,   1.03046E+06
C:/temp/Job-11.odb,Step-1,Increment      1: Step Time =    1.000,"P-11-1",            62,           70.,          200.,            0.,NA,NA,"",   981.000E+03,   980.895E+03,   980.895E+03
C:/temp/Job-11.odb,Step-1,Increment      1: Step Time =    1.000,"P-11-1",            63,           80.,          200.,            0.,NA,NA,"",   932.379E+03,   932.599E+03,   932.599E+03
C:/temp/Job-11.odb,Step-1,Increment      1: Step Time =    1.000,"P-11-1",            64,           90.,          200.,            0.,NA,NA,"",   893.908E+03,   894.448E+03,   894.448E+03
C:/temp/Job-11.odb,Step-1,Increment      1: Step Time =    1.000,"P-11-1",            65,          100.,          200.,            0.,NA,NA,"",   874.472E+03,   875.158E+03,   875.158E+03
C:/temp/Job-11.odb,Step-1,Increment      1: Step Time =    1.000,"P-11-1",            66,          110.,          200.,            0.,NA,NA,"",   877.679E+03,   878.259E+03,   878.259E+03
C:/temp/Job-11.odb,Step-1,Increment      1: Step Time =    1.000,"P-11-1",            67,          120.,          200.,            0.,NA,NA,"",   899.393E+03,   899.670E+03,   899.670E+03
C:/temp/Job-11.odb,Step-1,Increment      1: Step Time =    1.000,"P-11-1",            68,          130.,          200.,            0.,NA,NA,"",   930.607E+03,   930.543E+03,   930.543E+03
C:/temp/Job-11.odb,Step-1,Increment      1: Step Time =    1.000,"P-11-1",            69,          140.,          200.,            0.,NA,NA,"",   961.317E+03,   961.027E+03,   961.027E+03
C:/temp/Job-11.odb,Step-1,Increment      1: Step Time =    1.000,"P-11-1",            70,          150.,          200.,            0.,NA,NA,"",   984.032E+03,   983.690E+03,   983.690E+03
C:/temp/Job-11.odb,Step-1,Increment      1: Step Time =    1.000,"P-11-1",            71,          160.,          200.,            0.,NA,NA,"",   996.206E+03,   995.928E+03,   995.928E+03
C:/temp/Job-11.odb,Step-1,Increment      1: Step Time =    1.000,"P-11-1",            72,          170.,          200.,            0.,NA,NA,"",   999.699E+03,   999.566E+03,   999.566E+03
C:/temp/Job-11.odb,Step-1,Increment      1: Step Time =    1.000,"P-11-1",            73,          180.,          200.,            0.,NA,NA,"",   999.225E+03,   999.242E+03,   999.242E+03
C:/temp/Job-11.odb,Step-1,Increment      1: Step Time =    1.000,"P-11-1",            74,          190.,          200.,            0.,NA,NA,"",   999.164E+03,   999.211E+03,   999.211E+03
C:/temp/Job-11.odb,Step-1,Increment      1: Step Time =    1.000,"P-11-1",            75,            0.,          200.,            0.,NA,NA,"",   1.70112E+06,   1.78293E+06,   1.78293E+06
C:/temp/Job-11.odb,Step-1,Increment      1: Step Time =    1.000,"P-11-1",            76,            0.,           10.,            0.,NA,NA,"",   1.23054E+06,   1.34147E+06,   1.34147E+06
C:/temp/Job-11.odb,Step-1,Increment      1: Step Time =    1.000,"P-11-1",            77,            0.,           20.,            0.,NA,NA,"",   1.06262E+06,   1.17528E+06,   1.17528E+06
C:/temp/Job-11.odb,Step-1,Increment      1: Step Time =    1.000,"P-11-1",            78,            0.,           30.,            0.,NA,NA,"",   973.368E+03,   1.08397E+06,   1.08397E+06
C:/temp/Job-11.odb,Step-1,Increment      1: Step Time =    1.000,"P-11-1",            79,            0.,           40.,            0.,NA,NA,"",   908.109E+03,   1.01599E+06,   1.01599E+06
C:/temp/Job-11.odb,Step-1,Increment      1: Step Time =    1.000,"P-11-1",            80,            0.,           50.,            0.,NA,NA,"",   851.098E+03,   955.764E+03,   955.764E+03
C:/temp/Job-11.odb,Step-1,Increment      1: Step Time =    1.000,"P-11-1",            81,            0.,           60.,            0.,NA,NA,"",    798.57E+03,   899.234E+03,   899.234E+03
C:/temp/Job-11.odb,Step-1,Increment      1: Step Time =    1.000,"P-11-1",            82,            0.,           70.,            0.,NA,NA,"",   750.419E+03,   846.303E+03,   846.303E+03
C:/temp/Job-11.odb,Step-1,Increment      1: Step Time =    1.000,"P-11-1",            83,            0.,           80.,            0.,NA,NA,"",   708.735E+03,   800.491E+03,   800.491E+03
C:/temp/Job-11.odb,Step-1,Increment      1: Step Time =    1.000,"P-11-1",            84,            0.,           90.,            0.,NA,NA,"",   679.092E+03,   768.017E+03,   768.017E+03
C:/temp/Job-11.odb,Step-1,Increment      1: Step Time =    1.000,"P-11-1",            85,            0.,          100.,            0.,NA,NA,"",   668.046E+03,   755.975E+03,   755.975E+03
C:/temp/Job-11.odb,Step-1,Increment      1: Step Time =    1.000,"P-11-1",            86,            0.,          110.,            0.,NA,NA,"",   679.672E+03,   768.644E+03,   768.644E+03
C:/temp/Job-11.odb,Step-1,Increment      1: Step Time =    1.000,"P-11-1",            87,            0.,          120.,            0.,NA,NA,"",   709.198E+03,   800.980E+03,   800.980E+03
C:/temp/Job-11.odb,Step-1,Increment      1: Step Time =    1.000,"P-11-1",            88,            0.,          130.,            0.,NA,NA,"",   752.038E+03,   847.955E+03,   847.955E+03
C:/temp/Job-11.odb,Step-1,Increment      1: Step Time =    1.000,"P-11-1",            89,            0.,          140.,            0.,NA,NA,"",   800.888E+03,   901.513E+03,   901.513E+03
C:/temp/Job-11.odb,Step-1,Increment      1: Step Time =    1.000,"P-11-1",            90,            0.,          150.,            0.,NA,NA,"",   852.548E+03,   957.629E+03,   957.629E+03
C:/temp/Job-11.odb,Step-1,Increment      1: Step Time =    1.000,"P-11-1",            91,            0.,          160.,            0.,NA,NA,"",   907.230E+03,   1.01612E+06,   1.01612E+06
C:/temp/Job-11.odb,Step-1,Increment      1: Step Time =    1.000,"P-11-1",            92,            0.,          170.,            0.,NA,NA,"",   971.774E+03,   1.08349E+06,   1.08349E+06
C:/temp/Job-11.odb,Step-1,Increment      1: Step Time =    1.000,"P-11-1",            93,            0.,          180.,            0.,NA,NA,"",   1.06181E+06,   1.17508E+06,   1.17508E+06
C:/temp/Job-11.odb,Step-1,Increment      1: Step Time =    1.000,"P-11-1",            94,            0.,          190.,            0.,NA,NA,"",   1.23066E+06,   1.34205E+06,   1.34205E+06
C:/temp/Job-11.odb,Step-1,Increment      1: Step Time =    1.000,"P-11-1",            95,       105.135,       73.2231,            0.,NA,NA,"",   2.04720E+06,   2.16468E+06,   2.16468E+06
C:/temp/Job-11.odb,Step-1,Increment      1: Step Time =    1.000,"P-11-1",            96,       189.905,       74.8023,            0.,NA,NA,"",   932.974E+03,   998.926E+03,   998.926E+03
C:/temp/Job-11.odb,Step-1,Increment      1: Step Time =    1.000,"P-11-1",            97,       190.177,       125.035,            0.,NA,NA,"",   932.323E+03,   999.170E+03,   999.170E+03
C:/temp/Job-11.odb,Step-1,Increment      1: Step Time =    1.000,"P-11-1",            98,       180.255,       125.030,            0.,NA,NA,"",   955.071E+03,   995.673E+03,   995.673E+03
C:/temp/Job-11.odb,Step-1,Increment      1: Step Time =    1.000,"P-11-1",            99,       165.210,       124.405,            0.,NA,NA,"",   991.124E+03,   988.253E+03,   988.253E+03
C:/temp/Job-11.odb,Step-1,Increment      1: Step Time =    1.000,"P-11-1",           100,       155.671,       124.198,            0.,NA,NA,"",   1.04108E+06,   1.00093E+06,   1.00093E+06
C:/temp/Job-11.odb,Step-1,Increment      1: Step Time =    1.000,"P-11-1",           101,       148.315,       129.178,            0.,NA,NA,"",   1.15498E+06,   1.07823E+06,   1.07823E+06
C:/temp/Job-11.odb,Step-1,Increment      1: Step Time =    1.000,"P-11-1",           102,       139.855,       129.029,            0.,NA,NA,"",   1.26347E+06,   1.14575E+06,   1.14575E+06
C:/temp/Job-11.odb,Step-1,Increment      1: Step Time =    1.000,"P-11-1",           103,       116.942,       124.825,            0.,NA,NA,"",   1.54890E+06,   1.54278E+06,   1.54278E+06
C:/temp/Job-11.odb,Step-1,Increment      1: Step Time =    1.000,"P-11-1",           104,       105.672,       125.998,            0.,NA,NA,"",   2.09755E+06,   2.20813E+06,   2.20813E+06
C:/temp/Job-11.odb,Step-1,Increment      1: Step Time =    1.000,"P-11-1",           105,       94.6897,       127.120,            0.,NA,NA,"",   1.98201E+06,   2.09460E+06,   2.09460E+06
C:/temp/Job-11.odb,Step-1,Increment      1: Step Time =    1.000,"P-11-1",           106,       82.0629,       132.213,            0.,NA,NA,"",   1.46340E+06,   1.46101E+06,   1.46101E+06
C:/temp/Job-11.odb,Step-1,Increment      1: Step Time =    1.000,"P-11-1",           107,       70.8696,       124.686,            0.,NA,NA,"",   1.25596E+06,   1.13629E+06,   1.13629E+06
C:/temp/Job-11.odb,Step-1,Increment      1: Step Time =    1.000,"P-11-1",           108,       58.8857,       124.141,            0.,NA,NA,"",   1.03308E+06,   969.777E+03,   969.777E+03
C:/temp/Job-11.odb,Step-1,Increment      1: Step Time =    1.000,"P-11-1",           109,       52.8124,       123.602,            0.,NA,NA,"",   939.715E+03,   914.946E+03,   914.946E+03
C:/temp/Job-11.odb,Step-1,Increment      1: Step Time =    1.000,"P-11-1",           110,       42.3887,       123.291,            0.,NA,NA,"",   838.226E+03,   865.312E+03,   865.312E+03
C:/temp/Job-11.odb,Step-1,Increment      1: Step Time =    1.000,"P-11-1",           111,       32.7923,       126.476,            0.,NA,NA,"",   827.075E+03,   878.665E+03,   878.665E+03
C:/temp/Job-11.odb,Step-1,Increment      1: Step Time =    1.000,"P-11-1",           112,       23.2756,       124.516,            0.,NA,NA,"",   769.168E+03,   842.350E+03,   842.350E+03
C:/temp/Job-11.odb,Step-1,Increment      1: Step Time =    1.000,"P-11-1",           113,       9.48576,       125.852,            0.,NA,NA,"",   745.485E+03,   834.731E+03,   834.731E+03
C:/temp/Job-11.odb,Step-1,Increment      1: Step Time =    1.000,"P-11-1",           114,       10.3930,       115.790,            0.,NA,NA,"",   697.416E+03,   785.433E+03,   785.433E+03
C:/temp/Job-11.odb,Step-1,Increment      1: Step Time =    1.000,"P-11-1",           115,       23.4257,       118.197,            0.,NA,NA,"",   721.657E+03,   798.752E+03,   798.752E+03
C:/temp/Job-11.odb,Step-1,Increment      1: Step Time =    1.000,"P-11-1",           116,       31.6444,       113.508,            0.,NA,NA,"",   691.440E+03,   760.121E+03,   760.121E+03
C:/temp/Job-11.odb,Step-1,Increment      1: Step Time =    1.000,"P-11-1",           117,       40.9083,       115.867,            0.,NA,NA,"",   724.240E+03,   771.744E+03,   771.744E+03
C:/temp/Job-11.odb,Step-1,Increment      1: Step Time =    1.000,"P-11-1",           118,       54.5511,       111.176,            0.,NA,NA,"",   655.576E+03,   663.607E+03,   663.607E+03
C:/temp/Job-11.odb,Step-1,Increment      1: Step Time =    1.000,"P-11-1",           119,       62.9520,       116.768,            0.,NA,NA,"",   912.675E+03,   824.067E+03,   824.067E+03
C:/temp/Job-11.odb,Step-1,Increment      1: Step Time =    1.000,"P-11-1",           120,       71.9263,       115.152,            0.,NA,NA,"",   996.697E+03,   815.642E+03,   815.642E+03
C:/temp/Job-11.odb,Step-1,Increment      1: Step Time =    1.000,"P-11-1",           121,       126.271,       118.075,            0.,NA,NA,"",   1.23637E+06,   1.03280E+06,   1.03280E+06
C:/temp/Job-11.odb,Step-1,Increment      1: Step Time =    1.000,"P-11-1",           122,       138.383,       117.316,            0.,NA,NA,"",   1.05500E+06,   920.861E+03,   920.861E+03
C:/temp/Job-11.odb,Step-1,Increment      1: Step Time =    1.000,"P-11-1",           123,       149.428,       115.223,            0.,NA,NA,"",   909.454E+03,   866.760E+03,   866.760E+03
C:/temp/Job-11.odb,Step-1,Increment      1: Step Time =    1.000,"P-11-1",           124,       159.824,       114.317,            0.,NA,NA,"",   881.102E+03,   885.638E+03,   885.638E+03
C:/temp/Job-11.odb,Step-1,Increment      1: Step Time =    1.000,"P-11-1",           125,       170.516,       115.165,            0.,NA,NA,"",   906.296E+03,   937.210E+03,   937.210E+03
C:/temp/Job-11.odb,Step-1,Increment      1: Step Time =    1.000,"P-11-1",           126,       180.083,       115.112,            0.,NA,NA,"",   913.151E+03,   967.111E+03,   967.111E+03
C:/temp/Job-11.odb,Step-1,Increment      1: Step Time =    1.000,"P-11-1",           127,       190.013,       115.045,            0.,NA,NA,"",   910.308E+03,   990.264E+03,   990.264E+03
C:/temp/Job-11.odb,Step-1,Increment      1: Step Time =    1.000,"P-11-1",           128,       125.704,       105.927,            0.,NA,NA,"",   603.483E+03,  -293.292E+03,  -293.292E+03
C:/temp/Job-11.odb,Step-1,Increment      1: Step Time =    1.000,"P-11-1",           129,       137.428,       104.789,            0.,NA,NA,"",   502.694E+03,   448.165E+03,   448.165E+03
C:/temp/Job-11.odb,Step-1,Increment      1: Step Time =    1.000,"P-11-1",           130,       147.991,       106.000,            0.,NA,NA,"",   673.877E+03,   672.979E+03,   672.979E+03
C:/temp/Job-11.odb,Step-1,Increment      1: Step Time =    1.000,"P-11-1",           131,       158.528,       104.989,            0.,NA,NA,"",   764.658E+03,   791.103E+03,   791.103E+03
C:/temp/Job-11.odb,Step-1,Increment      1: Step Time =    1.000,"P-11-1",           132,       168.374,       106.001,            0.,NA,NA,"",   840.969E+03,   880.971E+03,   880.971E+03
C:/temp/Job-11.odb,Step-1,Increment      1: Step Time =    1.000,"P-11-1",           133,       179.661,       105.176,            0.,NA,NA,"",   883.427E+03,   945.528E+03,   945.528E+03
C:/temp/Job-11.odb,Step-1,Increment      1: Step Time =    1.000,"P-11-1",           134,       189.899,       105.026,            0.,NA,NA,"",   896.695E+03,   983.767E+03,   983.767E+03
C:/temp/Job-11.odb,Step-1,Increment      1: Step Time =    1.000,"P-11-1",           135,       126.097,       94.7338,            0.,NA,NA,"",   577.916E+03,  -295.084E+03,  -295.084E+03
C:/temp/Job-11.odb,Step-1,Increment      1: Step Time =    1.000,"P-11-1",           136,       136.229,       93.7646,            0.,NA,NA,"",   573.605E+03,   488.570E+03,   488.570E+03
C:/temp/Job-11.odb,Step-1,Increment      1: Step Time =    1.000,"P-11-1",           137,       146.593,       92.0974,            0.,NA,NA,"",   711.686E+03,   694.508E+03,   694.508E+03
C:/temp/Job-11.odb,Step-1,Increment      1: Step Time =    1.000,"P-11-1",           138,       158.200,       95.1353,            0.,NA,NA,"",   759.790E+03,   785.403E+03,   785.403E+03
C:/temp/Job-11.odb,Step-1,Increment      1: Step Time =    1.000,"P-11-1",           139,       169.031,       95.1784,            0.,NA,NA,"",   839.756E+03,   882.303E+03,   882.303E+03
C:/temp/Job-11.odb,Step-1,Increment      1: Step Time =    1.000,"P-11-1",           140,       179.534,       95.0786,            0.,NA,NA,"",   882.207E+03,   944.130E+03,   944.130E+03
C:/temp/Job-11.odb,Step-1,Increment      1: Step Time =    1.000,"P-11-1",           141,       189.837,       94.9841,            0.,NA,NA,"",   896.684E+03,   983.599E+03,   983.599E+03
C:/temp/Job-11.odb,Step-1,Increment      1: Step Time =    1.000,"P-11-1",           142,       130.125,       83.5625,            0.,NA,NA,"",   1.12530E+06,   919.629E+03,   919.629E+03
C:/temp/Job-11.odb,Step-1,Increment      1: Step Time =    1.000,"P-11-1",           143,       140.454,       84.7511,            0.,NA,NA,"",   949.623E+03,   844.138E+03,   844.138E+03
C:/temp/Job-11.odb,Step-1,Increment      1: Step Time =    1.000,"P-11-1",           144,       146.031,       82.4316,            0.,NA,NA,"",   971.999E+03,   899.178E+03,   899.178E+03
C:/temp/Job-11.odb,Step-1,Increment      1: Step Time =    1.000,"P-11-1",           145,       156.662,       81.3653,            0.,NA,NA,"",   938.280E+03,   920.116E+03,   920.116E+03
C:/temp/Job-11.odb,Step-1,Increment      1: Step Time =    1.000,"P-11-1",           146,       169.170,       85.0533,            0.,NA,NA,"",   900.300E+03,   928.490E+03,   928.490E+03
C:/temp/Job-11.odb,Step-1,Increment      1: Step Time =    1.000,"P-11-1",           147,       179.552,       84.8475,            0.,NA,NA,"",   912.892E+03,   965.667E+03,   965.667E+03
C:/temp/Job-11.odb,Step-1,Increment      1: Step Time =    1.000,"P-11-1",           148,       189.846,       84.8781,            0.,NA,NA,"",   910.511E+03,   989.966E+03,   989.966E+03
C:/temp/Job-11.odb,Step-1,Increment      1: Step Time =    1.000,"P-11-1",           149,       9.80962,       74.8498,            0.,NA,NA,"",   742.732E+03,   831.694E+03,   831.694E+03
C:/temp/Job-11.odb,Step-1,Increment      1: Step Time =    1.000,"P-11-1",           150,       19.7040,       74.1265,            0.,NA,NA,"",   768.826E+03,   846.870E+03,   846.870E+03
C:/temp/Job-11.odb,Step-1,Increment      1: Step Time =    1.000,"P-11-1",           151,       32.3669,       76.1274,            0.,NA,NA,"",   793.667E+03,   849.971E+03,   849.971E+03
C:/temp/Job-11.odb,Step-1,Increment      1: Step Time =    1.000,"P-11-1",           152,       44.1788,       75.6918,            0.,NA,NA,"",   878.244E+03,   894.092E+03,   894.092E+03
C:/temp/Job-11.odb,Step-1,Increment      1: Step Time =    1.000,"P-11-1",           153,       51.9781,       71.1046,            0.,NA,NA,"",   1.01825E+06,   993.532E+03,   993.532E+03
C:/temp/Job-11.odb,Step-1,Increment      1: Step Time =    1.000,"P-11-1",           154,       60.1831,       71.0421,            0.,NA,NA,"",   1.14230E+06,   1.07282E+06,   1.07282E+06
C:/temp/Job-11.odb,Step-1,Increment      1: Step Time =    1.000,"P-11-1",           155,       83.1991,       75.0476,            0.,NA,NA,"",   1.49294E+06,   1.49013E+06,   1.49013E+06
C:/temp/Job-11.odb,Step-1,Increment      1: Step Time =    1.000,"P-11-1",           156,       94.5152,       74.0330,            0.,NA,NA,"",   2.07292E+06,   2.18150E+06,   2.18150E+06
C:/temp/Job-11.odb,Step-1,Increment      1: Step Time =    1.000,"P-11-1",           157,       115.126,       73.3683,            0.,NA,NA,"",   1.58478E+06,   1.61097E+06,   1.61097E+06
C:/temp/Job-11.odb,Step-1,Increment      1: Step Time =    1.000,"P-11-1",           158,       127.969,       71.1461,            0.,NA,NA,"",   1.42235E+06,   1.30270E+06,   1.30270E+06
C:/temp/Job-11.odb,Step-1,Increment      1: Step Time =    1.000,"P-11-1",           159,       138.201,       75.0602,            0.,NA,NA,"",   1.24796E+06,   1.10945E+06,   1.10945E+06
C:/temp/Job-11.odb,Step-1,Increment      1: Step Time =    1.000,"P-11-1",           160,       144.905,       72.6418,            0.,NA,NA,"",   1.18491E+06,   1.08528E+06,   1.08528E+06
C:/temp/Job-11.odb,Step-1,Increment      1: Step Time =    1.000,"P-11-1",           161,       159.619,       73.4690,            0.,NA,NA,"",   1.03571E+06,   1.00872E+06,   1.00872E+06
C:/temp/Job-11.odb,Step-1,Increment      1: Step Time =    1.000,"P-11-1",           162,       169.220,       74.4755,            0.,NA,NA,"",   984.168E+03,   992.430E+03,   992.430E+03
C:/temp/Job-11.odb,Step-1,Increment      1: Step Time =    1.000,"P-11-1",           163,       179.587,       74.6140,            0.,NA,NA,"",   956.752E+03,   995.147E+03,   995.147E+03
C:/temp/Job-11.odb,Step-1,Increment      1: Step Time =    1.000,"P-11-1",           164,       73.7905,       81.9043,            0.,NA,NA,"",   1.12245E+06,   961.474E+03,   961.474E+03
C:/temp/Job-11.odb,Step-1,Increment      1: Step Time =    1.000,"P-11-1",           165,       61.7189,       82.7530,            0.,NA,NA,"",   915.029E+03,   836.252E+03,   836.252E+03
C:/temp/Job-11.odb,Step-1,Increment      1: Step Time =    1.000,"P-11-1",           166,       50.7486,       84.7023,            0.,NA,NA,"",   755.815E+03,   764.851E+03,   764.851E+03
C:/temp/Job-11.odb,Step-1,Increment      1: Step Time =    1.000,"P-11-1",           167,       40.8247,       85.4940,            0.,NA,NA,"",   706.478E+03,   756.356E+03,   756.356E+03
C:/temp/Job-11.odb,Step-1,Increment      1: Step Time =    1.000,"P-11-1",           168,       30.5751,       83.3671,            0.,NA,NA,"",   718.341E+03,   786.562E+03,   786.562E+03
C:/temp/Job-11.odb,Step-1,Increment      1: Step Time =    1.000,"P-11-1",           169,       24.1767,       85.1590,            0.,NA,NA,"",   701.184E+03,   779.047E+03,   779.047E+03
C:/temp/Job-11.odb,Step-1,Increment      1: Step Time =    1.000,"P-11-1",           170,       10.5503,       85.1231,            0.,NA,NA,"",   694.007E+03,   781.882E+03,   781.882E+03
C:/temp/Job-11.odb,Step-1,Increment      1: Step Time =    1.000,"P-11-1",           171,       74.3589,       94.0929,            0.,NA,NA,"",   509.392E+03,  -242.287E+03,  -242.287E+03
C:/temp/Job-11.odb,Step-1,Increment      1: Step Time =    1.000,"P-11-1",           172,       62.7769,       95.3167,            0.,NA,NA,"",   402.360E+03,   389.993E+03,   389.993E+03
C:/temp/Job-11.odb,Step-1,Increment      1: Step Time =    1.000,"P-11-1",           173,       52.3148,       93.9344,            0.,NA,NA,"",   540.222E+03,   577.074E+03,   577.074E+03
C:/temp/Job-11.odb,Step-1,Increment      1: Step Time =    1.000,"P-11-1",           174,       41.6417,       94.7774,            0.,NA,NA,"",   599.332E+03,   661.412E+03,   661.412E+03
C:/temp/Job-11.odb,Step-1,Increment      1: Step Time =    1.000,"P-11-1",           175,       29.9500,       94.4818,            0.,NA,NA,"",   647.030E+03,   722.620E+03,   722.620E+03
C:/temp/Job-11.odb,Step-1,Increment      1: Step Time =    1.000,"P-11-1",           176,       23.5042,       93.0651,            0.,NA,NA,"",   660.843E+03,   741.653E+03,   741.653E+03
C:/temp/Job-11.odb,Step-1,Increment      1: Step Time =    1.000,"P-11-1",           177,       9.96216,       95.4607,            0.,NA,NA,"",   665.750E+03,   753.409E+03,   753.409E+03
C:/temp/Job-11.odb,Step-1,Increment      1: Step Time =    1.000,"P-11-1",           178,       74.1668,       105.149,            0.,NA,NA,"",   482.029E+03,  -413.929E+03,  -413.929E+03
C:/temp/Job-11.odb,Step-1,Increment      1: Step Time =    1.000,"P-11-1",           179,       64.1696,       106.555,            0.,NA,NA,"",   484.494E+03,   438.123E+03,   438.123E+03
C:/temp/Job-11.odb,Step-1,Increment      1: Step Time =    1.000,"P-11-1",           180,       53.1371,       103.090,            0.,NA,NA,"",   484.840E+03,   527.188E+03,   527.188E+03
C:/temp/Job-11.odb,Step-1,Increment      1: Step Time =    1.000,"P-11-1",           181,       42.6725,       104.193,            0.,NA,NA,"",   587.455E+03,   648.839E+03,   648.839E+03
C:/temp/Job-11.odb,Step-1,Increment      1: Step Time =    1.000,"P-11-1",           182,       31.4514,       104.849,            0.,NA,NA,"",   639.548E+03,   713.784E+03,   713.784E+03
C:/temp/Job-11.odb,Step-1,Increment      1: Step Time =    1.000,"P-11-1",           183,       20.2371,       105.361,            0.,NA,NA,"",   660.906E+03,   744.302E+03,   744.302E+03
C:/temp/Job-11.odb,Step-1,Increment      1: Step Time =    1.000,"P-11-1",           184,       10.0273,       105.521,            0.,NA,NA,"",   667.561E+03,   755.240E+03,   755.240E+03
C:/temp/Job-11.odb,Step-1,Increment      1: Step Time =    1.000,"P-11-1",           185,       189.613,       10.4168,            0.,NA,NA,"",   1.00103E+06,   1.00151E+06,   1.00151E+06
C:/temp/Job-11.odb,Step-1,Increment      1: Step Time =    1.000,"P-11-1",           186,       179.379,       10.5660,            0.,NA,NA,"",   1.00478E+06,   1.00484E+06,   1.00484E+06
C:/temp/Job-11.odb,Step-1,Increment      1: Step Time =    1.000,"P-11-1",           187,       169.266,       10.2460,            0.,NA,NA,"",   1.00903E+06,   1.00782E+06,   1.00782E+06
C:/temp/Job-11.odb,Step-1,Increment      1: Step Time =    1.000,"P-11-1",           188,       159.205,       9.98571,            0.,NA,NA,"",   1.00962E+06,   1.00731E+06,   1.00731E+06
C:/temp/Job-11.odb,Step-1,Increment      1: Step Time =    1.000,"P-11-1",           189,       149.435,       9.53123,            0.,NA,NA,"",   1.00352E+06,   1.00081E+06,   1.00081E+06
C:/temp/Job-11.odb,Step-1,Increment      1: Step Time =    1.000,"P-11-1",           190,       135.003,       9.44634,            0.,NA,NA,"",    981.58E+03,   980.118E+03,   980.118E+03
C:/temp/Job-11.odb,Step-1,Increment      1: Step Time =    1.000,"P-11-1",           191,       125.107,       9.81959,            0.,NA,NA,"",   962.765E+03,   963.586E+03,   963.586E+03
C:/temp/Job-11.odb,Step-1,Increment      1: Step Time =    1.000,"P-11-1",           192,       114.988,       10.0320,            0.,NA,NA,"",   945.335E+03,   948.962E+03,   948.962E+03
C:/temp/Job-11.odb,Step-1,Increment      1: Step Time =    1.000,"P-11-1",           193,       104.899,       10.0402,            0.,NA,NA,"",   937.405E+03,   942.917E+03,   942.917E+03
C:/temp/Job-11.odb,Step-1,Increment      1: Step Time =    1.000,"P-11-1",           194,       94.8215,       9.96177,            0.,NA,NA,"",   945.752E+03,   951.153E+03,   951.153E+03
C:/temp/Job-11.odb,Step-1,Increment      1: Step Time =    1.000,"P-11-1",           195,       84.7413,       9.91371,            0.,NA,NA,"",   971.681E+03,   974.837E+03,   974.837E+03
C:/temp/Job-11.odb,Step-1,Increment      1: Step Time =    1.000,"P-11-1",           196,       74.7920,       9.87386,            0.,NA,NA,"",   1.00805E+06,   1.00837E+06,   1.00837E+06
C:/temp/Job-11.odb,Step-1,Increment      1: Step Time =    1.000,"P-11-1",           197,       64.9488,       9.82408,            0.,NA,NA,"",   1.04697E+06,   1.04522E+06,   1.04522E+06
C:/temp/Job-11.odb,Step-1,Increment      1: Step Time =    1.000,"P-11-1",           198,       50.3649,       9.60193,            0.,NA,NA,"",   1.09949E+06,   1.09731E+06,   1.09731E+06
C:/temp/Job-11.odb,Step-1,Increment      1: Step Time =    1.000,"P-11-1",           199,       40.6976,       9.50068,            0.,NA,NA,"",   1.13191E+06,   1.13138E+06,   1.13138E+06
C:/temp/Job-11.odb,Step-1,Increment      1: Step Time =    1.000,"P-11-1",           200,       30.9244,       9.77969,            0.,NA,NA,"",   1.16902E+06,   1.17226E+06,   1.17226E+06
C:/temp/Job-11.odb,Step-1,Increment      1: Step Time =    1.000,"P-11-1",           201,       20.8263,       10.3671,            0.,NA,NA,"",   1.22072E+06,   1.23397E+06,   1.23397E+06
C:/temp/Job-11.odb,Step-1,Increment      1: Step Time =    1.000,"P-11-1",           202,       10.4623,       10.3998,            0.,NA,NA,"",   1.29382E+06,   1.33784E+06,   1.33784E+06
C:/temp/Job-11.odb,Step-1,Increment      1: Step Time =    1.000,"P-11-1",           203,       189.653,       20.6598,            0.,NA,NA,"",   1.00185E+06,   1.00404E+06,   1.00404E+06
C:/temp/Job-11.odb,Step-1,Increment      1: Step Time =    1.000,"P-11-1",           204,       178.525,       21.9970,            0.,NA,NA,"",   1.01553E+06,   1.01554E+06,   1.01554E+06
C:/temp/Job-11.odb,Step-1,Increment      1: Step Time =    1.000,"P-11-1",           205,       168.141,       20.2321,            0.,NA,NA,"",   1.02858E+06,   1.02436E+06,   1.02436E+06
C:/temp/Job-11.odb,Step-1,Increment      1: Step Time =    1.000,"P-11-1",           206,       158.215,       20.1030,            0.,NA,NA,"",   1.04075E+06,   1.03298E+06,   1.03298E+06
C:/temp/Job-11.odb,Step-1,Increment      1: Step Time =    1.000,"P-11-1",           207,       147.279,       19.9606,            0.,NA,NA,"",   1.04643E+06,   1.03729E+06,   1.03729E+06
C:/temp/Job-11.odb,Step-1,Increment      1: Step Time =    1.000,"P-11-1",           208,       125.440,       19.6907,            0.,NA,NA,"",   1.02454E+06,   1.02682E+06,   1.02682E+06
C:/temp/Job-11.odb,Step-1,Increment      1: Step Time =    1.000,"P-11-1",           209,       114.916,       20.1829,            0.,NA,NA,"",   1.00674E+06,   1.01883E+06,   1.01883E+06
C:/temp/Job-11.odb,Step-1,Increment      1: Step Time =    1.000,"P-11-1",           210,       104.460,       20.1505,            0.,NA,NA,"",   996.763E+03,   1.01459E+06,   1.01459E+06
C:/temp/Job-11.odb,Step-1,Increment      1: Step Time =    1.000,"P-11-1",           211,       94.4619,       19.5974,            0.,NA,NA,"",   1.00430E+06,   1.02110E+06,   1.02110E+06
C:/temp/Job-11.odb,Step-1,Increment      1: Step Time =    1.000,"P-11-1",           212,       84.4357,       19.6449,            0.,NA,NA,"",   1.03209E+06,   1.04221E+06,   1.04221E+06
C:/temp/Job-11.odb,Step-1,Increment      1: Step Time =    1.000,"P-11-1",           213,       74.6329,       19.8374,            0.,NA,NA,"",   1.06885E+06,   1.07034E+06,   1.07034E+06
C:/temp/Job-11.odb,Step-1,Increment      1: Step Time =    1.000,"P-11-1",           214,       64.8921,       19.7430,            0.,NA,NA,"",   1.10104E+06,   1.09604E+06,   1.09604E+06
C:/temp/Job-11.odb,Step-1,Increment      1: Step Time =    1.000,"P-11-1",           215,       50.4564,       19.3162,            0.,NA,NA,"",   1.13274E+06,   1.12686E+06,   1.12686E+06
C:/temp/Job-11.odb,Step-1,Increment      1: Step Time =    1.000,"P-11-1",           216,       41.3510,       18.5829,            0.,NA,NA,"",   1.14867E+06,   1.14780E+06,   1.14780E+06
C:/temp/Job-11.odb,Step-1,Increment      1: Step Time =    1.000,"P-11-1",           217,       32.3267,       18.9373,            0.,NA,NA,"",   1.16365E+06,   1.17210E+06,   1.17210E+06
C:/temp/Job-11.odb,Step-1,Increment      1: Step Time =    1.000,"P-11-1",           218,       22.2162,       21.1881,            0.,NA,NA,"",   1.15928E+06,   1.19159E+06,   1.19159E+06
C:/temp/Job-11.odb,Step-1,Increment      1: Step Time =    1.000,"P-11-1",           219,       10.7122,       20.5524,            0.,NA,NA,"",   1.12296E+06,   1.19939E+06,   1.19939E+06
C:/temp/Job-11.odb,Step-1,Increment      1: Step Time =    1.000,"P-11-1",           220,       190.276,       30.6072,            0.,NA,NA,"",   1.00005E+06,   1.00628E+06,   1.00628E+06
C:/temp/Job-11.odb,Step-1,Increment      1: Step Time =    1.000,"P-11-1",           221,       181.379,       31.7863,            0.,NA,NA,"",   1.01576E+06,   1.01890E+06,   1.01890E+06
C:/temp/Job-11.odb,Step-1,Increment      1: Step Time =    1.000,"P-11-1",           222,       167.361,       35.2411,            0.,NA,NA,"",   1.06494E+06,   1.05401E+06,   1.05401E+06
C:/temp/Job-11.odb,Step-1,Increment      1: Step Time =    1.000,"P-11-1",           223,       157.554,       30.4597,            0.,NA,NA,"",   1.08051E+06,   1.06444E+06,   1.06444E+06
C:/temp/Job-11.odb,Step-1,Increment      1: Step Time =    1.000,"P-11-1",           224,       147.289,       30.4317,            0.,NA,NA,"",   1.10265E+06,   1.08324E+06,   1.08324E+06
C:/temp/Job-11.odb,Step-1,Increment      1: Step Time =    1.000,"P-11-1",           225,       136.053,       31.9625,            0.,NA,NA,"",   1.11893E+06,   1.10427E+06,   1.10427E+06
C:/temp/Job-11.odb,Step-1,Increment      1: Step Time =    1.000,"P-11-1",           226,       125.925,       28.9322,            0.,NA,NA,"",   1.08376E+06,   1.08594E+06,   1.08594E+06
C:/temp/Job-11.odb,Step-1,Increment      1: Step Time =    1.000,"P-11-1",           227,       115.163,       34.9874,            0.,NA,NA,"",   1.08687E+06,   1.11455E+06,   1.11455E+06
C:/temp/Job-11.odb,Step-1,Increment      1: Step Time =    1.000,"P-11-1",           228,       102.693,       31.3920,            0.,NA,NA,"",   1.04489E+06,   1.08340E+06,   1.08340E+06
C:/temp/Job-11.odb,Step-1,Increment      1: Step Time =    1.000,"P-11-1",           229,       93.8538,       28.3235,            0.,NA,NA,"",   1.04335E+06,   1.07298E+06,   1.07298E+06
C:/temp/Job-11.odb,Step-1,Increment      1: Step Time =    1.000,"P-11-1",           230,       84.0464,       29.9046,            0.,NA,NA,"",   1.08509E+06,   1.10462E+06,   1.10462E+06
C:/temp/Job-11.odb,Step-1,Increment      1: Step Time =    1.000,"P-11-1",           231,       75.3954,       31.1271,            0.,NA,NA,"",   1.12870E+06,   1.13294E+06,   1.13294E+06
C:/temp/Job-11.odb,Step-1,Increment      1: Step Time =    1.000,"P-11-1",           232,       64.6173,       28.7920,            0.,NA,NA,"",   1.14807E+06,   1.13858E+06,   1.13858E+06
C:/temp/Job-11.odb,Step-1,Increment      1: Step Time =    1.000,"P-11-1",           233,       55.4210,       31.0281,            0.,NA,NA,"",   1.16344E+06,   1.15074E+06,   1.15074E+06
C:/temp/Job-11.odb,Step-1,Increment      1: Step Time =    1.000,"P-11-1",           234,       43.5016,       27.1112,            0.,NA,NA,"",   1.15095E+06,   1.14826E+06,   1.14826E+06
C:/temp/Job-11.odb,Step-1,Increment      1: Step Time =    1.000,"P-11-1",           235,       33.9756,       31.2176,            0.,NA,NA,"",   1.12923E+06,   1.14458E+06,   1.14458E+06
C:/temp/Job-11.odb,Step-1,Increment      1: Step Time =    1.000,"P-11-1",           236,       20.7540,       31.0211,            0.,NA,NA,"",   1.08347E+06,   1.13470E+06,   1.13470E+06
C:/temp/Job-11.odb,Step-1,Increment      1: Step Time =    1.000,"P-11-1",           237,       10.8197,       30.7157,            0.,NA,NA,"",   1.02641E+06,   1.11173E+06,   1.11173E+06
C:/temp/Job-11.odb,Step-1,Increment      1: Step Time =    1.000,"P-11-1",           238,       190.447,       40.3635,            0.,NA,NA,"",   994.185E+03,   1.00818E+06,   1.00818E+06
C:/temp/Job-11.odb,Step-1,Increment      1: Step Time =    1.000,"P-11-1",           239,       181.313,       40.1572,            0.,NA,NA,"",   1.01909E+06,   1.02506E+06,   1.02506E+06
C:/temp/Job-11.odb,Step-1,Increment      1: Step Time =    1.000,"P-11-1",           240,       169.849,       42.4720,            0.,NA,NA,"",   1.06606E+06,   1.05631E+06,   1.05631E+06
C:/temp/Job-11.odb,Step-1,Increment      1: Step Time =    1.000,"P-11-1",           241,       157.057,       41.8839,            0.,NA,NA,"",   1.12282E+06,   1.09525E+06,   1.09525E+06
C:/temp/Job-11.odb,Step-1,Increment      1: Step Time =    1.000,"P-11-1",           242,       138.632,       44.7527,            0.,NA,NA,"",   1.21008E+06,   1.17129E+06,   1.17129E+06
C:/temp/Job-11.odb,Step-1,Increment      1: Step Time =    1.000,"P-11-1",           243,       123.709,       43.2746,            0.,NA,NA,"",   1.18170E+06,   1.18514E+06,   1.18514E+06
C:/temp/Job-11.odb,Step-1,Increment      1: Step Time =    1.000,"P-11-1",           244,       115.367,       44.4394,            0.,NA,NA,"",   1.15215E+06,   1.18895E+06,   1.18895E+06
C:/temp/Job-11.odb,Step-1,Increment      1: Step Time =    1.000,"P-11-1",           245,       105.102,       41.5870,            0.,NA,NA,"",   1.08780E+06,   1.14951E+06,   1.14951E+06
C:/temp/Job-11.odb,Step-1,Increment      1: Step Time =    1.000,"P-11-1",           246,       96.5355,       43.7170,            0.,NA,NA,"",   1.10247E+06,   1.16889E+06,   1.16889E+06
C:/temp/Job-11.odb,Step-1,Increment      1: Step Time =    1.000,"P-11-1",           247,       87.9832,       42.4060,            0.,NA,NA,"",   1.13213E+06,   1.17780E+06,   1.17780E+06
C:/temp/Job-11.odb,Step-1,Increment      1: Step Time =    1.000,"P-11-1",           248,       72.1308,       44.0810,            0.,NA,NA,"",   1.22234E+06,   1.21230E+06,   1.21230E+06
C:/temp/Job-11.odb,Step-1,Increment      1: Step Time =    1.000,"P-11-1",           249,       61.8430,       41.8036,            0.,NA,NA,"",   1.20678E+06,   1.18492E+06,   1.18492E+06
C:/temp/Job-11.odb,Step-1,Increment      1: Step Time =    1.000,"P-11-1",           250,       39.3208,       41.4339,            0.,NA,NA,"",   1.11512E+06,   1.12274E+06,   1.12274E+06
C:/temp/Job-11.odb,Step-1,Increment      1: Step Time =    1.000,"P-11-1",           251,       31.5023,       43.2305,            0.,NA,NA,"",   1.06403E+06,   1.09358E+06,   1.09358E+06
C:/temp/Job-11.odb,Step-1,Increment      1: Step Time =    1.000,"P-11-1",           252,       22.0343,       39.7136,            0.,NA,NA,"",   1.03218E+06,   1.08654E+06,   1.08654E+06
C:/temp/Job-11.odb,Step-1,Increment      1: Step Time =    1.000,"P-11-1",           253,       12.0419,       42.0872,            0.,NA,NA,"",   953.744E+03,   1.03869E+06,   1.03869E+06
C:/temp/Job-11.odb,Step-1,Increment      1: Step Time =    1.000,"P-11-1",           254,       190.199,       50.0304,            0.,NA,NA,"",   983.638E+03,   1.00928E+06,   1.00928E+06
C:/temp/Job-11.odb,Step-1,Increment      1: Step Time =    1.000,"P-11-1",           255,       180.131,       49.5233,            0.,NA,NA,"",   1.01977E+06,   1.02986E+06,   1.02986E+06
C:/temp/Job-11.odb,Step-1,Increment      1: Step Time =    1.000,"P-11-1",           256,       169.662,       54.1025,            0.,NA,NA,"",   1.06917E+06,   1.05909E+06,   1.05909E+06
C:/temp/Job-11.odb,Step-1,Increment      1: Step Time =    1.000,"P-11-1",           257,       158.520,       52.0373,            0.,NA,NA,"",   1.13892E+06,   1.10322E+06,   1.10322E+06
C:/temp/Job-11.odb,Step-1,Increment      1: Step Time =    1.000,"P-11-1",           258,       147.498,       51.1166,            0.,NA,NA,"",   1.20670E+06,   1.15449E+06,   1.15449E+06
C:/temp/Job-11.odb,Step-1,Increment      1: Step Time =    1.000,"P-11-1",           259,       140.699,       53.0233,            0.,NA,NA,"",   1.25427E+06,   1.19467E+06,   1.19467E+06
C:/temp/Job-11.odb,Step-1,Increment      1: Step Time =    1.000,"P-11-1",           260,       126.466,       51.8629,            0.,NA,NA,"",   1.27595E+06,   1.25428E+06,   1.25428E+06
C:/temp/Job-11.odb,Step-1,Increment      1: Step Time =    1.000,"P-11-1",           261,       116.511,       53.6727,            0.,NA,NA,"",   1.24920E+06,   1.28541E+06,   1.28541E+06
C:/temp/Job-11.odb,Step-1,Increment      1: Step Time =    1.000,"P-11-1",           262,       107.344,       54.9245,            0.,NA,NA,"",   1.20292E+06,   1.29484E+06,   1.29484E+06
C:/temp/Job-11.odb,Step-1,Increment      1: Step Time =    1.000,"P-11-1",           263,       94.1968,       53.4547,            0.,NA,NA,"",   1.18055E+06,   1.27013E+06,   1.27013E+06
C:/temp/Job-11.odb,Step-1,Increment      1: Step Time =    1.000,"P-11-1",           264,       84.8776,       52.4244,            0.,NA,NA,"",   1.23980E+06,   1.28359E+06,   1.28359E+06
C:/temp/Job-11.odb,Step-1,Increment      1: Step Time =    1.000,"P-11-1",           265,       73.8890,       51.5774,            0.,NA,NA,"",   1.27830E+06,   1.26291E+06,   1.26291E+06
C:/temp/Job-11.odb,Step-1,Increment      1: Step Time =    1.000,"P-11-1",           266,       63.8532,       51.9155,            0.,NA,NA,"",   1.24978E+06,   1.21267E+06,   1.21267E+06
C:/temp/Job-11.odb,Step-1,Increment      1: Step Time =    1.000,"P-11-1",           267,       53.2105,       50.5882,            0.,NA,NA,"",   1.17601E+06,   1.15213E+06,   1.15213E+06
C:/temp/Job-11.odb,Step-1,Increment      1: Step Time =    1.000,"P-11-1",           268,       41.3774,       53.4093,            0.,NA,NA,"",   1.07549E+06,   1.08104E+06,   1.08104E+06
C:/temp/Job-11.odb,Step-1,Increment      1: Step Time =    1.000,"P-11-1",           269,       29.1871,       54.5275,            0.,NA,NA,"",   975.299E+03,   1.01871E+06,   1.01871E+06
C:/temp/Job-11.odb,Step-1,Increment      1: Step Time =    1.000,"P-11-1",           270,       9.56037,       52.1874,            0.,NA,NA,"",   876.079E+03,   967.701E+03,   967.701E+03
C:/temp/Job-11.odb,Step-1,Increment      1: Step Time =    1.000,"P-11-1",           271,       189.986,       64.8231,            0.,NA,NA,"",   956.633E+03,   1.00589E+06,   1.00589E+06
C:/temp/Job-11.odb,Step-1,Increment      1: Step Time =    1.000,"P-11-1",           272,       179.738,       64.4972,            0.,NA,NA,"",   994.268E+03,   1.01846E+06,   1.01846E+06
C:/temp/Job-11.odb,Step-1,Increment      1: Step Time =    1.000,"P-11-1",           273,       169.490,       63.9942,            0.,NA,NA,"",   1.04491E+06,   1.03978E+06,   1.03978E+06
C:/temp/Job-11.odb,Step-1,Increment      1: Step Time =    1.000,"P-11-1",           274,       156.221,       62.7642,            0.,NA,NA,"",   1.14195E+06,   1.09352E+06,   1.09352E+06
C:/temp/Job-11.odb,Step-1,Increment      1: Step Time =    1.000,"P-11-1",           275,       145.472,       62.0048,            0.,NA,NA,"",   1.24511E+06,   1.16513E+06,   1.16513E+06
C:/temp/Job-11.odb,Step-1,Increment      1: Step Time =    1.000,"P-11-1",           276,       138.252,       63.8990,            0.,NA,NA,"",   1.31662E+06,   1.21950E+06,   1.21950E+06
C:/temp/Job-11.odb,Step-1,Increment      1: Step Time =    1.000,"P-11-1",           277,       126.204,       63.8301,            0.,NA,NA,"",   1.42007E+06,   1.35068E+06,   1.35068E+06
C:/temp/Job-11.odb,Step-1,Increment      1: Step Time =    1.000,"P-11-1",           278,       116.508,       63.2914,            0.,NA,NA,"",   1.40138E+06,   1.42822E+06,   1.42822E+06
C:/temp/Job-11.odb,Step-1,Increment      1: Step Time =    1.000,"P-11-1",           279,       105.322,       61.8694,            0.,NA,NA,"",   1.31153E+06,   1.43234E+06,   1.43234E+06
C:/temp/Job-11.odb,Step-1,Increment      1: Step Time =    1.000,"P-11-1",           280,       93.7863,       63.5218,            0.,NA,NA,"",   1.36782E+06,   1.48431E+06,   1.48431E+06
C:/temp/Job-11.odb,Step-1,Increment      1: Step Time =    1.000,"P-11-1",           281,       83.9173,       62.3651,            0.,NA,NA,"",   1.38467E+06,   1.41826E+06,   1.41826E+06
C:/temp/Job-11.odb,Step-1,Increment      1: Step Time =    1.000,"P-11-1",           282,       73.3582,       62.6111,            0.,NA,NA,"",   1.35886E+06,   1.30871E+06,   1.30871E+06
C:/temp/Job-11.odb,Step-1,Increment      1: Step Time =    1.000,"P-11-1",           283,       61.3152,       60.3223,            0.,NA,NA,"",   1.23541E+06,   1.18382E+06,   1.18382E+06
C:/temp/Job-11.odb,Step-1,Increment      1: Step Time =    1.000,"P-11-1",           284,       53.0417,       63.1555,            0.,NA,NA,"",   1.12411E+06,   1.09077E+06,   1.09077E+06
C:/temp/Job-11.odb,Step-1,Increment      1: Step Time =    1.000,"P-11-1",           285,       43.7192,       66.7561,            0.,NA,NA,"",   980.257E+03,   987.774E+03,   987.774E+03
C:/temp/Job-11.odb,Step-1,Increment      1: Step Time =    1.000,"P-11-1",           286,       31.3827,       62.3938,            0.,NA,NA,"",   922.894E+03,   967.097E+03,   967.097E+03
C:/temp/Job-11.odb,Step-1,Increment      1: Step Time =    1.000,"P-11-1",           287,       19.2814,       63.5377,            0.,NA,NA,"",   848.284E+03,   921.961E+03,   921.961E+03
C:/temp/Job-11.odb,Step-1,Increment      1: Step Time =    1.000,"P-11-1",           288,       9.06172,       65.4164,            0.,NA,NA,"",   792.837E+03,   883.706E+03,   883.706E+03
C:/temp/Job-11.odb,Step-1,Increment      1: Step Time =    1.000,"P-11-1",           289,       190.460,       134.875,            0.,NA,NA,"",   954.446E+03,   1.00530E+06,   1.00530E+06
C:/temp/Job-11.odb,Step-1,Increment      1: Step Time =    1.000,"P-11-1",           290,       180.597,       134.815,            0.,NA,NA,"",   988.236E+03,   1.01587E+06,   1.01587E+06
C:/temp/Job-11.odb,Step-1,Increment      1: Step Time =    1.000,"P-11-1",           291,       170.374,       134.690,            0.,NA,NA,"",   1.03337E+06,   1.03290E+06,   1.03290E+06
C:/temp/Job-11.odb,Step-1,Increment      1: Step Time =    1.000,"P-11-1",           292,       158.481,       133.928,            0.,NA,NA,"",   1.10268E+06,   1.06429E+06,   1.06429E+06
C:/temp/Job-11.odb,Step-1,Increment      1: Step Time =    1.000,"P-11-1",           293,       146.875,       137.063,            0.,NA,NA,"",   1.22838E+06,   1.14952E+06,   1.14952E+06
C:/temp/Job-11.odb,Step-1,Increment      1: Step Time =    1.000,"P-11-1",           294,       138.276,       139.543,            0.,NA,NA,"",   1.30731E+06,   1.22296E+06,   1.22296E+06
C:/temp/Job-11.odb,Step-1,Increment      1: Step Time =    1.000,"P-11-1",           295,       126.325,       136.965,            0.,NA,NA,"",   1.40550E+06,   1.33952E+06,   1.33952E+06
C:/temp/Job-11.odb,Step-1,Increment      1: Step Time =    1.000,"P-11-1",           296,       116.832,       136.461,            0.,NA,NA,"",   1.41803E+06,   1.44379E+06,   1.44379E+06
C:/temp/Job-11.odb,Step-1,Increment      1: Step Time =    1.000,"P-11-1",           297,       107.302,       136.482,            0.,NA,NA,"",   1.36592E+06,   1.48003E+06,   1.48003E+06
C:/temp/Job-11.odb,Step-1,Increment      1: Step Time =    1.000,"P-11-1",           298,       96.8026,       138.595,            0.,NA,NA,"",   1.29705E+06,   1.42034E+06,   1.42034E+06
C:/temp/Job-11.odb,Step-1,Increment      1: Step Time =    1.000,"P-11-1",           299,       84.4645,       139.857,            0.,NA,NA,"",   1.34200E+06,   1.37881E+06,   1.37881E+06
C:/temp/Job-11.odb,Step-1,Increment      1: Step Time =    1.000,"P-11-1",           300,       69.3291,       136.966,            0.,NA,NA,"",   1.33115E+06,   1.27097E+06,   1.27097E+06
C:/temp/Job-11.odb,Step-1,Increment      1: Step Time =    1.000,"P-11-1",           301,       61.2931,       135.255,            0.,NA,NA,"",   1.22421E+06,   1.16247E+06,   1.16247E+06
C:/temp/Job-11.odb,Step-1,Increment      1: Step Time =    1.000,"P-11-1",           302,       49.3353,       137.995,            0.,NA,NA,"",   1.09142E+06,   1.07195E+06,   1.07195E+06
C:/temp/Job-11.odb,Step-1,Increment      1: Step Time =    1.000,"P-11-1",           303,       39.0807,       139.640,            0.,NA,NA,"",   1.00343E+06,   1.02082E+06,   1.02082E+06
C:/temp/Job-11.odb,Step-1,Increment      1: Step Time =    1.000,"P-11-1",           304,       30.9544,       131.988,            0.,NA,NA,"",   868.128E+03,   919.584E+03,   919.584E+03
C:/temp/Job-11.odb,Step-1,Increment      1: Step Time =    1.000,"P-11-1",           305,       18.2238,       136.085,            0.,NA,NA,"",   840.152E+03,   916.274E+03,   916.274E+03
C:/temp/Job-11.odb,Step-1,Increment      1: Step Time =    1.000,"P-11-1",           306,       9.21957,       135.588,            0.,NA,NA,"",   800.870E+03,   891.424E+03,   891.424E+03
C:/temp/Job-11.odb,Step-1,Increment      1: Step Time =    1.000,"P-11-1",           307,       186.463,       148.560,            0.,NA,NA,"",   993.122E+03,   1.01554E+06,   1.01554E+06
C:/temp/Job-11.odb,Step-1,Increment      1: Step Time =    1.000,"P-11-1",           308,       181.339,       144.287,            0.,NA,NA,"",   1.00643E+06,   1.02451E+06,   1.02451E+06
C:/temp/Job-11.odb,Step-1,Increment      1: Step Time =    1.000,"P-11-1",           309,       171.634,       144.639,            0.,NA,NA,"",   1.05484E+06,   1.05012E+06,   1.05012E+06
C:/temp/Job-11.odb,Step-1,Increment      1: Step Time =    1.000,"P-11-1",           310,       158.574,       147.853,            0.,NA,NA,"",   1.13879E+06,   1.10262E+06,   1.10262E+06
C:/temp/Job-11.odb,Step-1,Increment      1: Step Time =    1.000,"P-11-1",           311,       135.943,       149.197,            0.,NA,NA,"",   1.26155E+06,   1.21040E+06,   1.21040E+06
C:/temp/Job-11.odb,Step-1,Increment      1: Step Time =    1.000,"P-11-1",           312,       124.600,       147.621,            0.,NA,NA,"",   1.27933E+06,   1.26632E+06,   1.26632E+06
C:/temp/Job-11.odb,Step-1,Increment      1: Step Time =    1.000,"P-11-1",           313,       113.761,       145.911,            0.,NA,NA,"",   1.23143E+06,   1.28785E+06,   1.28785E+06
C:/temp/Job-11.odb,Step-1,Increment      1: Step Time =    1.000,"P-11-1",           314,       104.219,       147.450,            0.,NA,NA,"",   1.15722E+06,   1.25014E+06,   1.25014E+06
C:/temp/Job-11.odb,Step-1,Increment      1: Step Time =    1.000,"P-11-1",           315,       96.6352,       149.919,            0.,NA,NA,"",   1.13945E+06,   1.22522E+06,   1.22522E+06
C:/temp/Job-11.odb,Step-1,Increment      1: Step Time =    1.000,"P-11-1",           316,       84.0427,       147.059,            0.,NA,NA,"",   1.25235E+06,   1.28668E+06,   1.28668E+06
C:/temp/Job-11.odb,Step-1,Increment      1: Step Time =    1.000,"P-11-1",           317,       71.3825,       148.973,            0.,NA,NA,"",   1.26572E+06,   1.24630E+06,   1.24630E+06
C:/temp/Job-11.odb,Step-1,Increment      1: Step Time =    1.000,"P-11-1",           318,       62.7854,       146.574,            0.,NA,NA,"",   1.25151E+06,   1.21236E+06,   1.21236E+06
C:/temp/Job-11.odb,Step-1,Increment      1: Step Time =    1.000,"P-11-1",           319,       54.3636,       144.641,            0.,NA,NA,"",   1.17889E+06,   1.14758E+06,   1.14758E+06
C:/temp/Job-11.odb,Step-1,Increment      1: Step Time =    1.000,"P-11-1",           320,       42.4612,       148.100,            0.,NA,NA,"",   1.09081E+06,   1.09261E+06,   1.09261E+06
C:/temp/Job-11.odb,Step-1,Increment      1: Step Time =    1.000,"P-11-1",           321,       28.7175,       148.736,            0.,NA,NA,"",   997.640E+03,   1.03962E+06,   1.03962E+06
C:/temp/Job-11.odb,Step-1,Increment      1: Step Time =    1.000,"P-11-1",           322,       18.7093,       145.050,            0.,NA,NA,"",   906.270E+03,   978.189E+03,   978.189E+03
C:/temp/Job-11.odb,Step-1,Increment      1: Step Time =    1.000,"P-11-1",           323,       9.54409,       150.066,            0.,NA,NA,"",   889.917E+03,   981.407E+03,   981.407E+03
C:/temp/Job-11.odb,Step-1,Increment      1: Step Time =    1.000,"P-11-1",           324,       188.888,       159.000,            0.,NA,NA,"",   997.129E+03,   1.01076E+06,   1.01076E+06
C:/temp/Job-11.odb,Step-1,Increment      1: Step Time =    1.000,"P-11-1",           325,       174.783,       159.243,            0.,NA,NA,"",   1.04298E+06,   1.04077E+06,   1.04077E+06
C:/temp/Job-11.odb,Step-1,Increment      1: Step Time =    1.000,"P-11-1",           326,       166.564,       157.305,            0.,NA,NA,"",   1.08098E+06,   1.06627E+06,   1.06627E+06
C:/temp/Job-11.odb,Step-1,Increment      1: Step Time =    1.000,"P-11-1",           327,       158.087,       158.584,            0.,NA,NA,"",   1.11575E+06,   1.09022E+06,   1.09022E+06
C:/temp/Job-11.odb,Step-1,Increment      1: Step Time =    1.000,"P-11-1",           328,       146.315,       159.376,            0.,NA,NA,"",   1.16088E+06,   1.12717E+06,   1.12717E+06
C:/temp/Job-11.odb,Step-1,Increment      1: Step Time =    1.000,"P-11-1",           329,       136.310,       156.794,            0.,NA,NA,"",   1.20185E+06,   1.16896E+06,   1.16896E+06
C:/temp/Job-11.odb,Step-1,Increment      1: Step Time =    1.000,"P-11-1",           330,       124.592,       154.986,            0.,NA,NA,"",   1.20248E+06,   1.20186E+06,   1.20186E+06
C:/temp/Job-11.odb,Step-1,Increment      1: Step Time =    1.000,"P-11-1",           331,       114.430,       154.675,            0.,NA,NA,"",   1.14782E+06,   1.19074E+06,   1.19074E+06
C:/temp/Job-11.odb,Step-1,Increment      1: Step Time =    1.000,"P-11-1",           332,       106.285,       156.122,            0.,NA,NA,"",   1.10325E+06,   1.16773E+06,   1.16773E+06
C:/temp/Job-11.odb,Step-1,Increment      1: Step Time =    1.000,"P-11-1",           333,       95.6255,       156.748,            0.,NA,NA,"",   1.10205E+06,   1.16761E+06,   1.16761E+06
C:/temp/Job-11.odb,Step-1,Increment      1: Step Time =    1.000,"P-11-1",           334,       83.0767,       157.803,            0.,NA,NA,"",   1.16546E+06,   1.19334E+06,   1.19334E+06
C:/temp/Job-11.odb,Step-1,Increment      1: Step Time =    1.000,"P-11-1",           335,       72.7265,       155.279,            0.,NA,NA,"",   1.22242E+06,   1.21372E+06,   1.21372E+06
C:/temp/Job-11.odb,Step-1,Increment      1: Step Time =    1.000,"P-11-1",           336,       63.1714,       158.038,            0.,NA,NA,"",   1.20678E+06,   1.18740E+06,   1.18740E+06
C:/temp/Job-11.odb,Step-1,Increment      1: Step Time =    1.000,"P-11-1",           337,       53.5066,       155.864,            0.,NA,NA,"",   1.18647E+06,   1.16591E+06,   1.16591E+06
C:/temp/Job-11.odb,Step-1,Increment      1: Step Time =    1.000,"P-11-1",           338,       44.1888,       155.854,            0.,NA,NA,"",   1.13609E+06,   1.13204E+06,   1.13204E+06
C:/temp/Job-11.odb,Step-1,Increment      1: Step Time =    1.000,"P-11-1",           339,       30.9449,       157.633,            0.,NA,NA,"",   1.06610E+06,   1.09587E+06,   1.09587E+06
C:/temp/Job-11.odb,Step-1,Increment      1: Step Time =    1.000,"P-11-1",           340,       20.4360,       160.264,            0.,NA,NA,"",   1.02279E+06,   1.08197E+06,   1.08197E+06
C:/temp/Job-11.odb,Step-1,Increment      1: Step Time =    1.000,"P-11-1",           341,       9.65276,       159.740,            0.,NA,NA,"",   950.379E+03,   1.04193E+06,   1.04193E+06
C:/temp/Job-11.odb,Step-1,Increment      1: Step Time =    1.000,"P-11-1",           342,       189.560,       169.587,            0.,NA,NA,"",   1.00099E+06,   1.00707E+06,   1.00707E+06
C:/temp/Job-11.odb,Step-1,Increment      1: Step Time =    1.000,"P-11-1",           343,       179.009,       169.082,            0.,NA,NA,"",   1.02202E+06,   1.02304E+06,   1.02304E+06
C:/temp/Job-11.odb,Step-1,Increment      1: Step Time =    1.000,"P-11-1",           344,       163.111,       167.040,            0.,NA,NA,"",   1.07395E+06,   1.05991E+06,   1.05991E+06
C:/temp/Job-11.odb,Step-1,Increment      1: Step Time =    1.000,"P-11-1",           345,       156.844,       170.786,            0.,NA,NA,"",   1.07697E+06,   1.06171E+06,   1.06171E+06
C:/temp/Job-11.odb,Step-1,Increment      1: Step Time =    1.000,"P-11-1",           346,       144.951,       170.050,            0.,NA,NA,"",   1.10230E+06,   1.08358E+06,   1.08358E+06
C:/temp/Job-11.odb,Step-1,Increment      1: Step Time =    1.000,"P-11-1",           347,       135.329,       170.597,            0.,NA,NA,"",   1.10386E+06,   1.09154E+06,   1.09154E+06
C:/temp/Job-11.odb,Step-1,Increment      1: Step Time =    1.000,"P-11-1",           348,       125.836,       170.387,            0.,NA,NA,"",   1.08733E+06,   1.08977E+06,   1.08977E+06
C:/temp/Job-11.odb,Step-1,Increment      1: Step Time =    1.000,"P-11-1",           349,       115.768,       170.137,            0.,NA,NA,"",   1.06019E+06,   1.08059E+06,   1.08059E+06
C:/temp/Job-11.odb,Step-1,Increment      1: Step Time =    1.000,"P-11-1",           350,       104.496,       169.976,            0.,NA,NA,"",   1.03975E+06,   1.07437E+06,   1.07437E+06
C:/temp/Job-11.odb,Step-1,Increment      1: Step Time =    1.000,"P-11-1",           351,       94.1400,       166.914,            0.,NA,NA,"",   1.06272E+06,   1.10390E+06,   1.10390E+06
C:/temp/Job-11.odb,Step-1,Increment      1: Step Time =    1.000,"P-11-1",           352,       85.3658,       167.307,            0.,NA,NA,"",   1.09569E+06,   1.12068E+06,   1.12068E+06
C:/temp/Job-11.odb,Step-1,Increment      1: Step Time =    1.000,"P-11-1",           353,       71.5878,       168.074,            0.,NA,NA,"",   1.14809E+06,   1.14539E+06,   1.14539E+06
C:/temp/Job-11.odb,Step-1,Increment      1: Step Time =    1.000,"P-11-1",           354,       61.4598,       167.566,            0.,NA,NA,"",   1.16929E+06,   1.15614E+06,   1.15614E+06
C:/temp/Job-11.odb,Step-1,Increment      1: Step Time =    1.000,"P-11-1",           355,       51.7910,       172.334,            0.,NA,NA,"",   1.15464E+06,   1.14527E+06,   1.14527E+06
C:/temp/Job-11.odb,Step-1,Increment      1: Step Time =    1.000,"P-11-1",           356,       43.8421,       165.939,            0.,NA,NA,"",   1.15063E+06,   1.14716E+06,   1.14716E+06
C:/temp/Job-11.odb,Step-1,Increment      1: Step Time =    1.000,"P-11-1",           357,       34.2262,       161.950,            0.,NA,NA,"",   1.10317E+06,   1.12270E+06,   1.12270E+06
C:/temp/Job-11.odb,Step-1,Increment      1: Step Time =    1.000,"P-11-1",           358,       20.7261,       172.067,            0.,NA,NA,"",   1.10625E+06,   1.15439E+06,   1.15439E+06
C:/temp/Job-11.odb,Step-1,Increment      1: Step Time =    1.000,"P-11-1",           359,       9.49593,       169.493,            0.,NA,NA,"",   1.01953E+06,   1.10918E+06,   1.10918E+06
C:/temp/Job-11.odb,Step-1,Increment      1: Step Time =    1.000,"P-11-1",           360,       189.458,       179.541,            0.,NA,NA,"",   1.00213E+06,   1.00429E+06,   1.00429E+06
C:/temp/Job-11.odb,Step-1,Increment      1: Step Time =    1.000,"P-11-1",           361,       177.986,       179.015,            0.,NA,NA,"",   1.01530E+06,   1.01506E+06,   1.01506E+06
C:/temp/Job-11.odb,Step-1,Increment      1: Step Time =    1.000,"P-11-1",           362,       168.233,       181.458,            0.,NA,NA,"",   1.02447E+06,   1.02102E+06,   1.02102E+06
C:/temp/Job-11.odb,Step-1,Increment      1: Step Time =    1.000,"P-11-1",           363,       159.260,       180.672,            0.,NA,NA,"",   1.03713E+06,   1.03015E+06,   1.03015E+06
C:/temp/Job-11.odb,Step-1,Increment      1: Step Time =    1.000,"P-11-1",           364,       149.839,       180.258,            0.,NA,NA,"",   1.04570E+06,   1.03659E+06,   1.03659E+06
C:/temp/Job-11.odb,Step-1,Increment      1: Step Time =    1.000,"P-11-1",           365,       135.255,       180.116,            0.,NA,NA,"",   1.04191E+06,   1.03644E+06,   1.03644E+06
C:/temp/Job-11.odb,Step-1,Increment      1: Step Time =    1.000,"P-11-1",           366,       125.472,       180.052,            0.,NA,NA,"",   1.02649E+06,   1.02858E+06,   1.02858E+06
C:/temp/Job-11.odb,Step-1,Increment      1: Step Time =    1.000,"P-11-1",           367,       115.441,       180.002,            0.,NA,NA,"",   1.00754E+06,   1.01862E+06,   1.01862E+06
C:/temp/Job-11.odb,Step-1,Increment      1: Step Time =    1.000,"P-11-1",           368,       105.344,       180.299,            0.,NA,NA,"",   994.816E+03,   1.01200E+06,   1.01200E+06
C:/temp/Job-11.odb,Step-1,Increment      1: Step Time =    1.000,"P-11-1",           369,       95.4773,       180.588,            0.,NA,NA,"",   1.00088E+06,   1.01770E+06,   1.01770E+06
C:/temp/Job-11.odb,Step-1,Increment      1: Step Time =    1.000,"P-11-1",           370,       85.6596,       180.543,            0.,NA,NA,"",   1.02717E+06,   1.03816E+06,   1.03816E+06
C:/temp/Job-11.odb,Step-1,Increment      1: Step Time =    1.000,"P-11-1",           371,       75.6138,       180.034,            0.,NA,NA,"",   1.06561E+06,   1.06820E+06,   1.06820E+06
C:/temp/Job-11.odb,Step-1,Increment      1: Step Time =    1.000,"P-11-1",           372,       65.9282,       181.192,            0.,NA,NA,"",   1.09422E+06,   1.08978E+06,   1.08978E+06
C:/temp/Job-11.odb,Step-1,Increment      1: Step Time =    1.000,"P-11-1",           373,       56.4727,       181.487,            0.,NA,NA,"",   1.11589E+06,   1.10990E+06,   1.10990E+06
C:/temp/Job-11.odb,Step-1,Increment      1: Step Time =    1.000,"P-11-1",           374,       41.4068,       174.333,            0.,NA,NA,"",   1.15213E+06,   1.15161E+06,   1.15161E+06
C:/temp/Job-11.odb,Step-1,Increment      1: Step Time =    1.000,"P-11-1",           375,       30.9932,       178.521,            0.,NA,NA,"",   1.15897E+06,   1.17155E+06,   1.17155E+06
C:/temp/Job-11.odb,Step-1,Increment      1: Step Time =    1.000,"P-11-1",           376,       20.6256,       177.917,            0.,NA,NA,"",   1.14827E+06,   1.18778E+06,   1.18778E+06
C:/temp/Job-11.odb,Step-1,Increment      1: Step Time =    1.000,"P-11-1",           377,       9.98404,       179.521,            0.,NA,NA,"",   1.11908E+06,   1.19886E+06,   1.19886E+06
C:/temp/Job-11.odb,Step-1,Increment      1: Step Time =    1.000,"P-11-1",           378,       189.623,       189.656,            0.,NA,NA,"",   1.00101E+06,   1.00150E+06,   1.00150E+06
C:/temp/Job-11.odb,Step-1,Increment      1: Step Time =    1.000,"P-11-1",           379,       179.333,       189.708,            0.,NA,NA,"",   1.00457E+06,   1.00466E+06,   1.00466E+06
C:/temp/Job-11.odb,Step-1,Increment      1: Step Time =    1.000,"P-11-1",           380,       169.216,       190.211,            0.,NA,NA,"",   1.00850E+06,   1.00741E+06,   1.00741E+06
C:/temp/Job-11.odb,Step-1,Increment      1: Step Time =    1.000,"P-11-1",           381,       159.503,       190.282,            0.,NA,NA,"",   1.00946E+06,   1.00726E+06,   1.00726E+06
C:/temp/Job-11.odb,Step-1,Increment      1: Step Time =    1.000,"P-11-1",           382,       149.798,       190.177,            0.,NA,NA,"",   1.00510E+06,   1.00229E+06,   1.00229E+06
C:/temp/Job-11.odb,Step-1,Increment      1: Step Time =    1.000,"P-11-1",           383,       135.103,       190.081,            0.,NA,NA,"",   984.872E+03,   983.216E+03,   983.216E+03
C:/temp/Job-11.odb,Step-1,Increment      1: Step Time =    1.000,"P-11-1",           384,       125.218,       190.025,            0.,NA,NA,"",   964.698E+03,   965.392E+03,   965.392E+03
C:/temp/Job-11.odb,Step-1,Increment      1: Step Time =    1.000,"P-11-1",           385,       115.231,       189.988,            0.,NA,NA,"",   946.085E+03,   949.547E+03,   949.547E+03
C:/temp/Job-11.odb,Step-1,Increment      1: Step Time =    1.000,"P-11-1",           386,       105.216,       190.052,            0.,NA,NA,"",   936.695E+03,   942.166E+03,   942.166E+03
C:/temp/Job-11.odb,Step-1,Increment      1: Step Time =    1.000,"P-11-1",           387,       95.2078,       190.135,            0.,NA,NA,"",   944.330E+03,   949.664E+03,   949.664E+03
C:/temp/Job-11.odb,Step-1,Increment      1: Step Time =    1.000,"P-11-1",           388,       85.2143,       190.151,            0.,NA,NA,"",   969.597E+03,   972.839E+03,   972.839E+03
C:/temp/Job-11.odb,Step-1,Increment      1: Step Time =    1.000,"P-11-1",           389,       75.3129,       190.243,            0.,NA,NA,"",   1.00495E+06,   1.00545E+06,   1.00545E+06
C:/temp/Job-11.odb,Step-1,Increment      1: Step Time =    1.000,"P-11-1",           390,       65.5106,       190.537,            0.,NA,NA,"",   1.04252E+06,   1.04103E+06,   1.04103E+06
C:/temp/Job-11.odb,Step-1,Increment      1: Step Time =    1.000,"P-11-1",           391,       51.8448,       186.429,            0.,NA,NA,"",   1.10936E+06,   1.10560E+06,   1.10560E+06
C:/temp/Job-11.odb,Step-1,Increment      1: Step Time =    1.000,"P-11-1",           392,       41.1916,       188.748,            0.,NA,NA,"",   1.13439E+06,   1.13384E+06,   1.13384E+06
C:/temp/Job-11.odb,Step-1,Increment      1: Step Time =    1.000,"P-11-1",           393,       30.4436,       189.399,            0.,NA,NA,"",   1.17174E+06,   1.17584E+06,   1.17584E+06
C:/temp/Job-11.odb,Step-1,Increment      1: Step Time =    1.000,"P-11-1",           394,       20.3755,       189.400,            0.,NA,NA,"",   1.22218E+06,   1.23670E+06,   1.23670E+06
C:/temp/Job-11.odb,Step-1,Increment      1: Step Time =    1.000,"P-11-1",           395,       10.2153,       189.665,            0.,NA,NA,"",   1.29505E+06,   1.34039E+06,   1.34039E+06
C:/temp/Job-11.odb,Step-1,Increment      1: Step Time =    1.000,"P-11-1",           396,       95.1045,       121.448,            0.,NA,NA,"",   2.34819E+06,   2.43269E+06,   2.43269E+06
C:/temp/Job-11.odb,Step-1,Increment      1: Step Time =    1.000,"P-11-1",           397,       80.1787,       109.545,            0.,NA,NA,"",   426.604E+03,  -98.6385E+03,  -98.6385E+03
C:/temp/Job-11.odb,Step-1,Increment      1: Step Time =    1.000,"P-11-1",           398,           78.,          100.,            0.,NA,NA,"",   659.269E+03,  -669.639E+03,  -669.639E+03
C:/temp/Job-11.odb,Step-1,Increment      1: Step Time =    1.000,"P-11-1",           399,       80.1787,       90.4546,            0.,NA,NA,"",   446.998E+03,  -45.0673E+03,  -45.0673E+03
C:/temp/Job-11.odb,Step-1,Increment      1: Step Time =    1.000,"P-11-1",           400,       95.1045,       78.5516,            0.,NA,NA,"",   2.42527E+06,   2.50890E+06,   2.50890E+06
C:/temp/Job-11.odb,Step-1,Increment      1: Step Time =    1.000,"P-11-1",           401,       104.895,       78.5516,            0.,NA,NA,"",   2.42800E+06,   2.51424E+06,   2.51424E+06
C:/temp/Job-11.odb,Step-1,Increment      1: Step Time =    1.000,"P-11-1",           402,       119.821,       90.4546,            0.,NA,NA,"",   589.370E+03,   1.85017E+03,   1.85017E+03
C:/temp/Job-11.odb,Step-1,Increment      1: Step Time =    1.000,"P-11-1",           403,          122.,          100.,            0.,NA,NA,"",   765.760E+03,     -775.E+03,     -775.E+03
C:/temp/Job-11.odb,Step-1,Increment      1: Step Time =    1.000,"P-11-1",           404,       119.821,       109.545,            0.,NA,NA,"",   513.650E+03,  -64.6274E+03,  -64.6274E+03
C:/temp/Job-11.odb,Step-1,Increment      1: Step Time =    1.000,"P-11-1",           405,       104.895,       121.448,            0.,NA,NA,"",   2.46726E+06,   2.55220E+06,   2.55220E+06
C:/temp/Job-11.odb,Step-1,Increment      1: Step Time =    1.000,"P-11-1",           406,          195.,            0.,            0.,NA,NA,"",   999.640E+03,   999.609E+03,   999.609E+03
C:/temp/Job-11.odb,Step-1,Increment      1: Step Time =    1.000,"P-11-1",           407,          185.,            0.,            0.,NA,NA,"",   998.923E+03,   998.983E+03,   998.983E+03
C:/temp/Job-11.odb,Step-1,Increment      1: Step Time =    1.000,"P-11-1",           408,          175.,            0.,            0.,NA,NA,"",   999.402E+03,   999.352E+03,   999.352E+03
C:/temp/Job-11.odb,Step-1,Increment      1: Step Time =    1.000,"P-11-1",           409,          165.,            0.,            0.,NA,NA,"",   998.237E+03,   998.051E+03,   998.051E+03
C:/temp/Job-11.odb,Step-1,Increment      1: Step Time =    1.000,"P-11-1",           410,          155.,            0.,            0.,NA,NA,"",   990.748E+03,   990.456E+03,   990.456E+03
C:/temp/Job-11.odb,Step-1,Increment      1: Step Time =    1.000,"P-11-1",           411,          145.,            0.,            0.,NA,NA,"",   972.993E+03,   972.689E+03,   972.689E+03
C:/temp/Job-11.odb,Step-1,Increment      1: Step Time =    1.000,"P-11-1",           412,          135.,            0.,            0.,NA,NA,"",   945.174E+03,   944.978E+03,   944.978E+03
C:/temp/Job-11.odb,Step-1,Increment      1: Step Time =    1.000,"P-11-1",           413,          125.,            0.,            0.,NA,NA,"",   913.140E+03,   913.219E+03,   913.219E+03
C:/temp/Job-11.odb,Step-1,Increment      1: Step Time =    1.000,"P-11-1",           414,          115.,            0.,            0.,NA,NA,"",   886.076E+03,   886.506E+03,   886.506E+03
C:/temp/Job-11.odb,Step-1,Increment      1: Step Time =    1.000,"P-11-1",           415,          105.,            0.,            0.,NA,NA,"",   873.362E+03,   874.057E+03,   874.057E+03
C:/temp/Job-11.odb,Step-1,Increment      1: Step Time =    1.000,"P-11-1",           416,           95.,            0.,            0.,NA,NA,"",   881.734E+03,   882.459E+03,   882.459E+03
C:/temp/Job-11.odb,Step-1,Increment      1: Step Time =    1.000,"P-11-1",           417,           85.,            0.,            0.,NA,NA,"",   911.913E+03,   912.388E+03,   912.388E+03
C:/temp/Job-11.odb,Step-1,Increment      1: Step Time =    1.000,"P-11-1",           418,           75.,            0.,            0.,NA,NA,"",   957.309E+03,   957.418E+03,   957.418E+03
C:/temp/Job-11.odb,Step-1,Increment      1: Step Time =    1.000,"P-11-1",           419,           65.,            0.,            0.,NA,NA,"",   1.00795E+06,   1.00775E+06,   1.00775E+06
C:/temp/Job-11.odb,Step-1,Increment      1: Step Time =    1.000,"P-11-1",           420,           55.,            0.,            0.,NA,NA,"",   1.05528E+06,   1.05501E+06,   1.05501E+06
C:/temp/Job-11.odb,Step-1,Increment      1: Step Time =    1.000,"P-11-1",           421,           45.,            0.,            0.,NA,NA,"",   1.09550E+06,   1.09549E+06,   1.09549E+06
C:/temp/Job-11.odb,Step-1,Increment      1: Step Time =    1.000,"P-11-1",           422,           35.,            0.,            0.,NA,NA,"",   1.13168E+06,   1.13213E+06,   1.13213E+06
C:/temp/Job-11.odb,Step-1,Increment      1: Step Time =    1.000,"P-11-1",           423,           25.,            0.,            0.,NA,NA,"",   1.17566E+06,   1.17729E+06,   1.17729E+06
C:/temp/Job-11.odb,Step-1,Increment      1: Step Time =    1.000,"P-11-1",           424,           15.,            0.,            0.,NA,NA,"",   1.25943E+06,   1.26513E+06,   1.26513E+06
C:/temp/Job-11.odb,Step-1,Increment      1: Step Time =    1.000,"P-11-1",           425,            5.,            0.,            0.,NA,NA,"",   1.55903E+06,   1.59496E+06,   1.59496E+06
C:/temp/Job-11.odb,Step-1,Increment      1: Step Time =    1.000,"P-11-1",           426,          200.,          195.,            0.,NA,NA,"",   1.00014E+06,   999.946E+03,   999.946E+03
C:/temp/Job-11.odb,Step-1,Increment      1: Step Time =    1.000,"P-11-1",           427,          200.,          185.,            0.,NA,NA,"",   1.00061E+06,   1.00035E+06,   1.00035E+06
C:/temp/Job-11.odb,Step-1,Increment      1: Step Time =    1.000,"P-11-1",           428,          200.,          175.,            0.,NA,NA,"",   998.677E+03,   1.00072E+06,   1.00072E+06
C:/temp/Job-11.odb,Step-1,Increment      1: Step Time =    1.000,"P-11-1",           429,          200.,          165.,            0.,NA,NA,"",   991.792E+03,   1.00096E+06,   1.00096E+06
C:/temp/Job-11.odb,Step-1,Increment      1: Step Time =    1.000,"P-11-1",           430,          200.,          155.,            0.,NA,NA,"",   978.730E+03,   1.00098E+06,   1.00098E+06
C:/temp/Job-11.odb,Step-1,Increment      1: Step Time =    1.000,"P-11-1",           431,          200.,          145.,            0.,NA,NA,"",   958.677E+03,   1.00077E+06,   1.00077E+06
C:/temp/Job-11.odb,Step-1,Increment      1: Step Time =    1.000,"P-11-1",           432,          200.,          135.,            0.,NA,NA,"",   935.763E+03,   1.00060E+06,   1.00060E+06
C:/temp/Job-11.odb,Step-1,Increment      1: Step Time =    1.000,"P-11-1",           433,          200.,          125.,            0.,NA,NA,"",   913.938E+03,   999.833E+03,   999.833E+03
C:/temp/Job-11.odb,Step-1,Increment      1: Step Time =    1.000,"P-11-1",           434,          200.,          115.,            0.,NA,NA,"",   897.538E+03,   998.750E+03,   998.750E+03
C:/temp/Job-11.odb,Step-1,Increment      1: Step Time =    1.000,"P-11-1",           435,          200.,          105.,            0.,NA,NA,"",   889.186E+03,   998.021E+03,   998.021E+03
C:/temp/Job-11.odb,Step-1,Increment      1: Step Time =    1.000,"P-11-1",           436,          200.,           95.,            0.,NA,NA,"",   889.221E+03,   998.023E+03,   998.023E+03
C:/temp/Job-11.odb,Step-1,Increment      1: Step Time =    1.000,"P-11-1",           437,          200.,           85.,            0.,NA,NA,"",   897.597E+03,   998.743E+03,   998.743E+03
C:/temp/Job-11.odb,Step-1,Increment      1: Step Time =    1.000,"P-11-1",           438,          200.,           75.,            0.,NA,NA,"",   913.978E+03,   999.776E+03,   999.776E+03
C:/temp/Job-11.odb,Step-1,Increment      1: Step Time =    1.000,"P-11-1",           439,          200.,           65.,            0.,NA,NA,"",   936.032E+03,   1.00062E+06,   1.00062E+06
C:/temp/Job-11.odb,Step-1,Increment      1: Step Time =    1.000,"P-11-1",           440,          200.,           55.,            0.,NA,NA,"",   959.219E+03,   1.00104E+06,   1.00104E+06
C:/temp/Job-11.odb,Step-1,Increment      1: Step Time =    1.000,"P-11-1",           441,          200.,           45.,            0.,NA,NA,"",   978.831E+03,   1.00105E+06,   1.00105E+06
C:/temp/Job-11.odb,Step-1,Increment      1: Step Time =    1.000,"P-11-1",           442,          200.,           35.,            0.,NA,NA,"",   992.114E+03,   1.00086E+06,   1.00086E+06
C:/temp/Job-11.odb,Step-1,Increment      1: Step Time =    1.000,"P-11-1",           443,          200.,           25.,            0.,NA,NA,"",   998.738E+03,   1.00060E+06,   1.00060E+06
C:/temp/Job-11.odb,Step-1,Increment      1: Step Time =    1.000,"P-11-1",           444,          200.,           15.,            0.,NA,NA,"",   1.00062E+06,   1.00033E+06,   1.00033E+06
C:/temp/Job-11.odb,Step-1,Increment      1: Step Time =    1.000,"P-11-1",           445,          200.,            5.,            0.,NA,NA,"",   1.00014E+06,   999.945E+03,   999.945E+03
C:/temp/Job-11.odb,Step-1,Increment      1: Step Time =    1.000,"P-11-1",           446,            5.,          200.,            0.,NA,NA,"",   1.55983E+06,   1.59593E+06,   1.59593E+06
C:/temp/Job-11.odb,Step-1,Increment      1: Step Time =    1.000,"P-11-1",           447,           15.,          200.,            0.,NA,NA,"",   1.25997E+06,   1.26582E+06,   1.26582E+06
C:/temp/Job-11.odb,Step-1,Increment      1: Step Time =    1.000,"P-11-1",           448,           25.,          200.,            0.,NA,NA,"",   1.17667E+06,   1.17829E+06,   1.17829E+06
C:/temp/Job-11.odb,Step-1,Increment      1: Step Time =    1.000,"P-11-1",           449,           35.,          200.,            0.,NA,NA,"",   1.13214E+06,   1.13256E+06,   1.13256E+06
C:/temp/Job-11.odb,Step-1,Increment      1: Step Time =    1.000,"P-11-1",           450,           45.,          200.,            0.,NA,NA,"",   1.09584E+06,   1.09579E+06,   1.09579E+06
C:/temp/Job-11.odb,Step-1,Increment      1: Step Time =    1.000,"P-11-1",           451,           55.,          200.,            0.,NA,NA,"",   1.05380E+06,   1.05370E+06,   1.05370E+06
C:/temp/Job-11.odb,Step-1,Increment      1: Step Time =    1.000,"P-11-1",           452,           65.,          200.,            0.,NA,NA,"",   1.00616E+06,   1.00602E+06,   1.00602E+06
C:/temp/Job-11.odb,Step-1,Increment      1: Step Time =    1.000,"P-11-1",           453,           75.,          200.,            0.,NA,NA,"",   956.041E+03,   956.096E+03,   956.096E+03
C:/temp/Job-11.odb,Step-1,Increment      1: Step Time =    1.000,"P-11-1",           454,           85.,          200.,            0.,NA,NA,"",   911.248E+03,    911.66E+03,    911.66E+03
C:/temp/Job-11.odb,Step-1,Increment      1: Step Time =    1.000,"P-11-1",           455,           95.,          200.,            0.,NA,NA,"",   881.317E+03,   882.027E+03,   882.027E+03
C:/temp/Job-11.odb,Step-1,Increment      1: Step Time =    1.000,"P-11-1",           456,          105.,          200.,            0.,NA,NA,"",   873.297E+03,   873.999E+03,   873.999E+03
C:/temp/Job-11.odb,Step-1,Increment      1: Step Time =    1.000,"P-11-1",           457,          115.,          200.,            0.,NA,NA,"",   886.757E+03,   887.179E+03,   887.179E+03
C:/temp/Job-11.odb,Step-1,Increment      1: Step Time =    1.000,"P-11-1",           458,          125.,          200.,            0.,NA,NA,"",   914.478E+03,   914.558E+03,   914.558E+03
C:/temp/Job-11.odb,Step-1,Increment      1: Step Time =    1.000,"P-11-1",           459,          135.,          200.,            0.,NA,NA,"",   946.577E+03,   946.389E+03,   946.389E+03
C:/temp/Job-11.odb,Step-1,Increment      1: Step Time =    1.000,"P-11-1",           460,          145.,          200.,            0.,NA,NA,"",   973.950E+03,   973.619E+03,   973.619E+03
C:/temp/Job-11.odb,Step-1,Increment      1: Step Time =    1.000,"P-11-1",           461,          155.,          200.,            0.,NA,NA,"",   991.403E+03,   991.091E+03,   991.091E+03
C:/temp/Job-11.odb,Step-1,Increment      1: Step Time =    1.000,"P-11-1",           462,          165.,          200.,            0.,NA,NA,"",   998.755E+03,   998.566E+03,   998.566E+03
C:/temp/Job-11.odb,Step-1,Increment      1: Step Time =    1.000,"P-11-1",           463,          175.,          200.,            0.,NA,NA,"",   999.621E+03,   999.581E+03,   999.581E+03
C:/temp/Job-11.odb,Step-1,Increment      1: Step Time =    1.000,"P-11-1",           464,          185.,          200.,            0.,NA,NA,"",   998.973E+03,   999.039E+03,   999.039E+03
C:/temp/Job-11.odb,Step-1,Increment      1: Step Time =    1.000,"P-11-1",           465,          195.,          200.,            0.,NA,NA,"",   999.645E+03,   999.617E+03,   999.617E+03
C:/temp/Job-11.odb,Step-1,Increment      1: Step Time =    1.000,"P-11-1",           466,            0.,            5.,            0.,NA,NA,"",   1.49447E+06,   1.58952E+06,   1.58952E+06
C:/temp/Job-11.odb,Step-1,Increment      1: Step Time =    1.000,"P-11-1",           467,            0.,           15.,            0.,NA,NA,"",   1.13115E+06,   1.24369E+06,   1.24369E+06
C:/temp/Job-11.odb,Step-1,Increment      1: Step Time =    1.000,"P-11-1",           468,            0.,           25.,            0.,NA,NA,"",   1.01374E+06,   1.12569E+06,   1.12569E+06
C:/temp/Job-11.odb,Step-1,Increment      1: Step Time =    1.000,"P-11-1",           469,            0.,           35.,            0.,NA,NA,"",   938.544E+03,   1.04781E+06,   1.04781E+06
C:/temp/Job-11.odb,Step-1,Increment      1: Step Time =    1.000,"P-11-1",           470,            0.,           45.,            0.,NA,NA,"",   879.444E+03,   985.778E+03,   985.778E+03
C:/temp/Job-11.odb,Step-1,Increment      1: Step Time =    1.000,"P-11-1",           471,            0.,           55.,            0.,NA,NA,"",   824.505E+03,   927.354E+03,   927.354E+03
C:/temp/Job-11.odb,Step-1,Increment      1: Step Time =    1.000,"P-11-1",           472,            0.,           65.,            0.,NA,NA,"",   773.784E+03,   872.074E+03,   872.074E+03
C:/temp/Job-11.odb,Step-1,Increment      1: Step Time =    1.000,"P-11-1",           473,            0.,           75.,            0.,NA,NA,"",   728.610E+03,   822.259E+03,   822.259E+03
C:/temp/Job-11.odb,Step-1,Increment      1: Step Time =    1.000,"P-11-1",           474,            0.,           85.,            0.,NA,NA,"",   692.001E+03,   782.124E+03,   782.124E+03
C:/temp/Job-11.odb,Step-1,Increment      1: Step Time =    1.000,"P-11-1",           475,            0.,           95.,            0.,NA,NA,"",   670.824E+03,   759.028E+03,   759.028E+03
C:/temp/Job-11.odb,Step-1,Increment      1: Step Time =    1.000,"P-11-1",           476,            0.,          105.,            0.,NA,NA,"",   671.251E+03,   759.481E+03,   759.481E+03
C:/temp/Job-11.odb,Step-1,Increment      1: Step Time =    1.000,"P-11-1",           477,            0.,          115.,            0.,NA,NA,"",   692.510E+03,   782.675E+03,   782.675E+03
C:/temp/Job-11.odb,Step-1,Increment      1: Step Time =    1.000,"P-11-1",           478,            0.,          125.,            0.,NA,NA,"",   729.329E+03,   823.030E+03,   823.030E+03
C:/temp/Job-11.odb,Step-1,Increment      1: Step Time =    1.000,"P-11-1",           479,            0.,          135.,            0.,NA,NA,"",   776.044E+03,   874.335E+03,   874.335E+03
C:/temp/Job-11.odb,Step-1,Increment      1: Step Time =    1.000,"P-11-1",           480,            0.,          145.,            0.,NA,NA,"",   826.486E+03,   929.442E+03,   929.442E+03
C:/temp/Job-11.odb,Step-1,Increment      1: Step Time =    1.000,"P-11-1",           481,            0.,          155.,            0.,NA,NA,"",   879.412E+03,   986.542E+03,   986.542E+03
C:/temp/Job-11.odb,Step-1,Increment      1: Step Time =    1.000,"P-11-1",           482,            0.,          165.,            0.,NA,NA,"",   937.684E+03,   1.04815E+06,   1.04815E+06
C:/temp/Job-11.odb,Step-1,Increment      1: Step Time =    1.000,"P-11-1",           483,            0.,          175.,            0.,NA,NA,"",   1.01226E+06,   1.12504E+06,   1.12504E+06
C:/temp/Job-11.odb,Step-1,Increment      1: Step Time =    1.000,"P-11-1",           484,            0.,          185.,            0.,NA,NA,"",   1.13079E+06,   1.24391E+06,   1.24391E+06
C:/temp/Job-11.odb,Step-1,Increment      1: Step Time =    1.000,"P-11-1",           485,            0.,          195.,            0.,NA,NA,"",   1.49469E+06,   1.59039E+06,   1.59039E+06
C:/temp/Job-11.odb,Step-1,Increment      1: Step Time =    1.000,"P-11-1",           486,       86.2832,       117.200,            0.,NA,NA,"",   1.30639E+06,   1.31652E+06,   1.31652E+06
C:/temp/Job-11.odb,Step-1,Increment      1: Step Time =    1.000,"P-11-1",           487,       86.2832,       82.7997,            0.,NA,NA,"",   1.37096E+06,   1.39161E+06,   1.39161E+06
C:/temp/Job-11.odb,Step-1,Increment      1: Step Time =    1.000,"P-11-1",           488,       113.717,       82.7997,            0.,NA,NA,"",   1.41622E+06,   1.41435E+06,   1.41435E+06
C:/temp/Job-11.odb,Step-1,Increment      1: Step Time =    1.000,"P-11-1",           489,       113.717,       117.200,            0.,NA,NA,"",   1.45787E+06,   1.47791E+06,   1.47791E+06
C:/temp/Job-11.odb,Step-1,Increment      1: Step Time =    1.000,"P-11-1",           490,       75.5748,       110.246,            0.,NA,NA,"",   563.282E+03,   44.5633E+03,   44.5633E+03
C:/temp/Job-11.odb,Step-1,Increment      1: Step Time =    1.000,"P-11-1",           491,       124.838,       89.1397,            0.,NA,NA,"",   721.364E+03,   297.220E+03,   297.220E+03
C:/temp/Job-11.odb,Step-1,Increment      1: Step Time =    1.000,"P-11-1",           492,       86.3455,       77.4843,            0.,NA,NA,"",   1.60600E+06,   1.63919E+06,   1.63919E+06
C:/temp/Job-11.odb,Step-1,Increment      1: Step Time =    1.000,"P-11-1",           493,       77.0912,       114.966,            0.,NA,NA,"",   852.988E+03,   718.298E+03,   718.298E+03
C:/temp/Job-11.odb,Step-1,Increment      1: Step Time =    1.000,"P-11-1",           494,       123.140,       82.9824,            0.,NA,NA,"",   1.09974E+06,   952.543E+03,   952.543E+03
C:/temp/Job-11.odb,Step-1,Increment      1: Step Time =    1.000,"P-11-1",           495,       119.245,       120.150,            0.,NA,NA,"",   1.33484E+06,   1.27345E+06,   1.27345E+06
C:/temp/Job-11.odb,Step-1,Increment      1: Step Time =    1.000,"P-11-1",           496,       123.923,       111.163,            0.,NA,NA,"",   701.013E+03,   280.080E+03,   280.080E+03
C:/temp/Job-11.odb,Step-1,Increment      1: Step Time =    1.000,"P-11-1",           497,       113.747,       122.433,            0.,NA,NA,"",   1.68012E+06,   1.71332E+06,   1.71332E+06
C:/temp/Job-11.odb,Step-1,Increment      1: Step Time =    1.000,"P-11-1",           498,       77.9687,       119.404,            0.,NA,NA,"",   1.17636E+06,   1.08660E+06,   1.08660E+06
C:/temp/Job-11.odb,Step-1,Increment      1: Step Time =    1.000,"P-11-1",           499,       117.897,       79.4962,            0.,NA,NA,"",   1.42283E+06,   1.38760E+06,   1.38760E+06
C:/temp/Job-11.odb,Step-1,Increment      1: Step Time =    1.000,"P-11-1",           500,       76.1119,       88.8442,            0.,NA,NA,"",   611.548E+03,   261.161E+03,   261.161E+03
C:/temp/Job-11.odb,Step-1,Increment      1: Step Time =    1.000,"P-11-1",           501,       80.8188,       79.7931,            0.,NA,NA,"",   1.25206E+06,   1.20205E+06,   1.20205E+06
C:/temp/Job-11.odb,Step-1,Increment      1: Step Time =    1.000,"P-11-1",           502,       78.4261,       84.0252,            0.,NA,NA,"",   899.313E+03,   790.929E+03,   790.929E+03
C:/temp/Job-11.odb,Step-1,Increment      1: Step Time =    1.000,"P-11-1",           503,       83.8265,       125.658,            0.,NA,NA,"",   1.50107E+06,   1.50906E+06,   1.50906E+06
C:/temp/Job-11.odb,Step-1,Increment      1: Step Time =    1.000,"P-11-1",           504,       121.609,       115.954,            0.,NA,NA,"",   985.982E+03,   853.780E+03,   853.780E+03
C:/temp/Job-11.odb,Step-1,Increment      1: Step Time =    1.000,"P-11-1",           505,       114.425,       77.5499,            0.,NA,NA,"",   1.64832E+06,   1.68317E+06,   1.68317E+06
C:/temp/Job-11.odb,Step-1,Increment      1: Step Time =    1.000,"P-11-1",           506,       45.5017,       195.036,            0.,NA,NA,"",   1.10166E+06,   1.10114E+06,   1.10114E+06
C:/temp/Job-11.odb,Step-1,Increment      1: Step Time =    1.000,"P-11-1",           507,       35.3427,       194.618,            0.,NA,NA,"",   1.14023E+06,   1.14064E+06,   1.14064E+06
C:/temp/Job-11.odb,Step-1,Increment      1: Step Time =    1.000,"P-11-1",           508,       25.2082,       194.717,            0.,NA,NA,"",   1.18638E+06,   1.18927E+06,   1.18927E+06
C:/temp/Job-11.odb,Step-1,Increment      1: Step Time =    1.000,"P-11-1",           509,       25.3992,       5.07513,            0.,NA,NA,"",   1.18456E+06,   1.18728E+06,   1.18728E+06
C:/temp/Job-11.odb,Step-1,Increment      1: Step Time =    1.000,"P-11-1",           510,       35.3890,       4.82324,            0.,NA,NA,"",   1.13860E+06,   1.13893E+06,   1.13893E+06
C:/temp/Job-11.odb,Step-1,Increment      1: Step Time =    1.000,"P-11-1",           511,       195.178,       35.2451,            0.,NA,NA,"",   993.122E+03,   1.00257E+06,   1.00257E+06
C:/temp/Job-11.odb,Step-1,Increment      1: Step Time =    1.000,"P-11-1",           512,       195.176,       45.1244,            0.,NA,NA,"",   981.387E+03,   1.00313E+06,   1.00313E+06
C:/temp/Job-11.odb,Step-1,Increment      1: Step Time =    1.000,"P-11-1",           513,       55.4257,       195.400,            0.,NA,NA,"",   1.06139E+06,   1.06065E+06,   1.06065E+06
C:/temp/Job-11.odb,Step-1,Increment      1: Step Time =    1.000,"P-11-1",           514,       194.956,       25.2732,            0.,NA,NA,"",   998.956E+03,   1.00178E+06,   1.00178E+06
C:/temp/Job-11.odb,Step-1,Increment      1: Step Time =    1.000,"P-11-1",           515,       104.961,       5.02167,            0.,NA,NA,"",   896.373E+03,   898.319E+03,   898.319E+03
C:/temp/Job-11.odb,Step-1,Increment      1: Step Time =    1.000,"P-11-1",           516,       94.9214,       5.00249,            0.,NA,NA,"",   904.792E+03,   906.730E+03,   906.730E+03
C:/temp/Job-11.odb,Step-1,Increment      1: Step Time =    1.000,"P-11-1",           517,       154.690,       4.86542,            0.,NA,NA,"",   995.536E+03,   994.623E+03,   994.623E+03
C:/temp/Job-11.odb,Step-1,Increment      1: Step Time =    1.000,"P-11-1",           518,       164.652,       5.05986,            0.,NA,NA,"",   1.00159E+06,   1.00098E+06,   1.00098E+06
C:/temp/Job-11.odb,Step-1,Increment      1: Step Time =    1.000,"P-11-1",           519,       174.697,       5.20721,            0.,NA,NA,"",   1.00174E+06,   1.00157E+06,   1.00157E+06
C:/temp/Job-11.odb,Step-1,Increment      1: Step Time =    1.000,"P-11-1",           520,       144.848,       4.65091,            0.,NA,NA,"",   980.440E+03,   979.565E+03,   979.565E+03
C:/temp/Job-11.odb,Step-1,Increment      1: Step Time =    1.000,"P-11-1",           521,       5.24469,       10.2308,            0.,NA,NA,"",   1.26791E+06,   1.35412E+06,   1.35412E+06
C:/temp/Job-11.odb,Step-1,Increment      1: Step Time =    1.000,"P-11-1",           522,       5.31028,       15.2788,            0.,NA,NA,"",   1.15155E+06,   1.24887E+06,   1.24887E+06
C:/temp/Job-11.odb,Step-1,Increment      1: Step Time =    1.000,"P-11-1",           523,       5.40030,       25.3315,            0.,NA,NA,"",   1.03271E+06,   1.13510E+06,   1.13510E+06
C:/temp/Job-11.odb,Step-1,Increment      1: Step Time =    1.000,"P-11-1",           524,       5.68416,       35.6750,            0.,NA,NA,"",   955.510E+03,   1.05720E+06,   1.05720E+06
C:/temp/Job-11.odb,Step-1,Increment      1: Step Time =    1.000,"P-11-1",           525,       5.26767,       45.9563,            0.,NA,NA,"",   890.433E+03,   991.202E+03,   991.202E+03
C:/temp/Job-11.odb,Step-1,Increment      1: Step Time =    1.000,"P-11-1",           526,       5.08570,       194.898,            0.,NA,NA,"",   1.45656E+06,   1.51333E+06,   1.51333E+06
C:/temp/Job-11.odb,Step-1,Increment      1: Step Time =    1.000,"P-11-1",           527,       15.3272,       5.25186,            0.,NA,NA,"",   1.26632E+06,   1.27627E+06,   1.27627E+06
C:/temp/Job-11.odb,Step-1,Increment      1: Step Time =    1.000,"P-11-1",           528,       15.1793,       194.760,            0.,NA,NA,"",   1.26779E+06,   1.27797E+06,   1.27797E+06
C:/temp/Job-11.odb,Step-1,Increment      1: Step Time =    1.000,"P-11-1",           529,       45.2713,       4.75624,            0.,NA,NA,"",   1.10213E+06,   1.10156E+06,   1.10156E+06
C:/temp/Job-11.odb,Step-1,Increment      1: Step Time =    1.000,"P-11-1",           530,       55.1150,       4.81439,            0.,NA,NA,"",   1.06396E+06,   1.06307E+06,   1.06307E+06
C:/temp/Job-11.odb,Step-1,Increment      1: Step Time =    1.000,"P-11-1",           531,       64.9776,       4.88120,            0.,NA,NA,"",   1.02066E+06,   1.02001E+06,   1.02001E+06
C:/temp/Job-11.odb,Step-1,Increment      1: Step Time =    1.000,"P-11-1",           532,       74.9031,       4.92430,            0.,NA,NA,"",   974.644E+03,   974.751E+03,   974.751E+03
C:/temp/Job-11.odb,Step-1,Increment      1: Step Time =    1.000,"P-11-1",           533,       84.8813,       4.96958,            0.,NA,NA,"",   933.048E+03,   934.185E+03,   934.185E+03
C:/temp/Job-11.odb,Step-1,Increment      1: Step Time =    1.000,"P-11-1",           534,       114.989,       5.00485,            0.,NA,NA,"",   906.936E+03,   908.187E+03,   908.187E+03
C:/temp/Job-11.odb,Step-1,Increment      1: Step Time =    1.000,"P-11-1",           535,       125.019,       4.89019,            0.,NA,NA,"",   929.937E+03,   930.212E+03,   930.212E+03
C:/temp/Job-11.odb,Step-1,Increment      1: Step Time =    1.000,"P-11-1",           536,       134.956,       4.70592,            0.,NA,NA,"",   956.947E+03,   956.416E+03,   956.416E+03
C:/temp/Job-11.odb,Step-1,Increment      1: Step Time =    1.000,"P-11-1",           537,       184.725,       5.26540,            0.,NA,NA,"",   1.00017E+06,   1.00034E+06,   1.00034E+06
C:/temp/Job-11.odb,Step-1,Increment      1: Step Time =    1.000,"P-11-1",           538,       194.863,       5.13777,            0.,NA,NA,"",   999.966E+03,   999.917E+03,   999.917E+03
C:/temp/Job-11.odb,Step-1,Increment      1: Step Time =    1.000,"P-11-1",           539,       194.776,       15.2800,            0.,NA,NA,"",   1.00062E+06,   1.00097E+06,   1.00097E+06
C:/temp/Job-11.odb,Step-1,Increment      1: Step Time =    1.000,"P-11-1",           540,       195.080,       54.9966,            0.,NA,NA,"",   963.894E+03,   1.00316E+06,   1.00316E+06
C:/temp/Job-11.odb,Step-1,Increment      1: Step Time =    1.000,"P-11-1",           541,       65.2724,       195.290,            0.,NA,NA,"",   1.01796E+06,   1.01741E+06,   1.01741E+06
C:/temp/Job-11.odb,Step-1,Increment      1: Step Time =    1.000,"P-11-1",           542,       195.023,       64.9267,            0.,NA,NA,"",   942.307E+03,   1.00206E+06,   1.00206E+06
C:/temp/Job-11.odb,Step-1,Increment      1: Step Time =    1.000,"P-11-1",           543,       75.1657,       195.147,            0.,NA,NA,"",   972.628E+03,   972.754E+03,   972.754E+03
C:/temp/Job-11.odb,Step-1,Increment      1: Step Time =    1.000,"P-11-1",           544,       194.971,       74.9095,            0.,NA,NA,"",   920.402E+03,   999.651E+03,   999.651E+03
C:/temp/Job-11.odb,Step-1,Increment      1: Step Time =    1.000,"P-11-1",           545,       194.927,       84.9400,            0.,NA,NA,"",   902.700E+03,   996.527E+03,   996.527E+03
C:/temp/Job-11.odb,Step-1,Increment      1: Step Time =    1.000,"P-11-1",           546,       194.924,       94.9846,            0.,NA,NA,"",   892.946E+03,   994.299E+03,   994.299E+03
C:/temp/Job-11.odb,Step-1,Increment      1: Step Time =    1.000,"P-11-1",           547,       194.950,       105.010,            0.,NA,NA,"",   892.915E+03,   994.339E+03,   994.339E+03
C:/temp/Job-11.odb,Step-1,Increment      1: Step Time =    1.000,"P-11-1",           548,       195.005,       115.014,            0.,NA,NA,"",   902.590E+03,   996.621E+03,   996.621E+03
C:/temp/Job-11.odb,Step-1,Increment      1: Step Time =    1.000,"P-11-1",           549,       195.104,       125.001,            0.,NA,NA,"",   920.164E+03,   999.771E+03,   999.771E+03
C:/temp/Job-11.odb,Step-1,Increment      1: Step Time =    1.000,"P-11-1",           550,       195.270,       134.911,            0.,NA,NA,"",   941.447E+03,   1.00190E+06,   1.00190E+06
C:/temp/Job-11.odb,Step-1,Increment      1: Step Time =    1.000,"P-11-1",           551,       195.418,       144.714,            0.,NA,NA,"",   962.427E+03,   1.00258E+06,   1.00258E+06
C:/temp/Job-11.odb,Step-1,Increment      1: Step Time =    1.000,"P-11-1",           552,       194.877,       194.874,            0.,NA,NA,"",   999.964E+03,   999.919E+03,   999.919E+03
C:/temp/Job-11.odb,Step-1,Increment      1: Step Time =    1.000,"P-11-1",           553,       184.733,       194.786,            0.,NA,NA,"",   1.00019E+06,   1.00037E+06,   1.00037E+06
C:/temp/Job-11.odb,Step-1,Increment      1: Step Time =    1.000,"P-11-1",           554,       174.672,       194.936,            0.,NA,NA,"",   1.00180E+06,   1.00166E+06,   1.00166E+06
C:/temp/Job-11.odb,Step-1,Increment      1: Step Time =    1.000,"P-11-1",           555,       164.678,       195.118,            0.,NA,NA,"",   1.00186E+06,   1.00127E+06,   1.00127E+06
C:/temp/Job-11.odb,Step-1,Increment      1: Step Time =    1.000,"P-11-1",           556,       154.819,       195.128,            0.,NA,NA,"",   996.195E+03,   995.281E+03,   995.281E+03
C:/temp/Job-11.odb,Step-1,Increment      1: Step Time =    1.000,"P-11-1",           557,       144.944,       195.089,            0.,NA,NA,"",   981.933E+03,   980.958E+03,   980.958E+03
C:/temp/Job-11.odb,Step-1,Increment      1: Step Time =    1.000,"P-11-1",           558,       135.042,       195.064,            0.,NA,NA,"",   958.970E+03,   958.379E+03,   958.379E+03
C:/temp/Job-11.odb,Step-1,Increment      1: Step Time =    1.000,"P-11-1",           559,       125.098,       195.024,            0.,NA,NA,"",   931.538E+03,   931.771E+03,   931.771E+03
C:/temp/Job-11.odb,Step-1,Increment      1: Step Time =    1.000,"P-11-1",           560,       115.113,       194.993,            0.,NA,NA,"",   907.639E+03,   908.863E+03,   908.863E+03
C:/temp/Job-11.odb,Step-1,Increment      1: Step Time =    1.000,"P-11-1",           561,       105.111,       195.010,            0.,NA,NA,"",   896.153E+03,   898.106E+03,   898.106E+03
C:/temp/Job-11.odb,Step-1,Increment      1: Step Time =    1.000,"P-11-1",           562,       95.1020,       195.044,            0.,NA,NA,"",   904.059E+03,   905.979E+03,   905.979E+03
C:/temp/Job-11.odb,Step-1,Increment      1: Step Time =    1.000,"P-11-1",           563,       85.1038,       195.070,            0.,NA,NA,"",   931.851E+03,   932.973E+03,   932.973E+03
C:/temp/Job-11.odb,Step-1,Increment      1: Step Time =    1.000,"P-11-1",           564,       5.08668,       184.802,            0.,NA,NA,"",   1.15065E+06,   1.24923E+06,   1.24923E+06
C:/temp/Job-11.odb,Step-1,Increment      1: Step Time =    1.000,"P-11-1",           565,       4.89130,       174.796,            0.,NA,NA,"",   1.02980E+06,   1.13400E+06,   1.13400E+06
C:/temp/Job-11.odb,Step-1,Increment      1: Step Time =    1.000,"P-11-1",           566,       4.77771,       164.767,            0.,NA,NA,"",   952.385E+03,   1.05670E+06,   1.05670E+06
C:/temp/Job-11.odb,Step-1,Increment      1: Step Time =    1.000,"P-11-1",           567,       4.77894,       154.971,            0.,NA,NA,"",   892.645E+03,   994.903E+03,   994.903E+03
C:/temp/Job-11.odb,Step-1,Increment      1: Step Time =    1.000,"P-11-1",           568,       4.68801,       145.134,            0.,NA,NA,"",   837.316E+03,   936.631E+03,   936.631E+03
C:/temp/Job-11.odb,Step-1,Increment      1: Step Time =    1.000,"P-11-1",           569,       4.62127,       135.293,            0.,NA,NA,"",   784.025E+03,   879.926E+03,   879.926E+03
C:/temp/Job-11.odb,Step-1,Increment      1: Step Time =    1.000,"P-11-1",           570,       4.78121,       125.355,            0.,NA,NA,"",   734.265E+03,   826.657E+03,   826.657E+03
C:/temp/Job-11.odb,Step-1,Increment      1: Step Time =    1.000,"P-11-1",           571,       5.09530,       115.356,            0.,NA,NA,"",   693.680E+03,   783.400E+03,   783.400E+03
C:/temp/Job-11.odb,Step-1,Increment      1: Step Time =    1.000,"P-11-1",           572,       5.02530,       105.299,            0.,NA,NA,"",   669.916E+03,   758.155E+03,   758.155E+03
C:/temp/Job-11.odb,Step-1,Increment      1: Step Time =    1.000,"P-11-1",           573,       5.02636,       95.1874,            0.,NA,NA,"",   669.040E+03,   757.241E+03,   757.241E+03
C:/temp/Job-11.odb,Step-1,Increment      1: Step Time =    1.000,"P-11-1",           574,       5.18176,       85.0651,            0.,NA,NA,"",   692.377E+03,   782.002E+03,   782.002E+03
C:/temp/Job-11.odb,Step-1,Increment      1: Step Time =    1.000,"P-11-1",           575,       4.87512,       75.0226,            0.,NA,NA,"",   732.725E+03,   825.029E+03,   825.029E+03
C:/temp/Job-11.odb,Step-1,Increment      1: Step Time =    1.000,"P-11-1",           576,       4.47450,       65.2722,            0.,NA,NA,"",   779.879E+03,   875.803E+03,   875.803E+03
C:/temp/Job-11.odb,Step-1,Increment      1: Step Time =    1.000,"P-11-1",           577,       4.53354,       55.7155,            0.,NA,NA,"",   832.237E+03,   931.571E+03,   931.571E+03
C:/temp/Job-11.odb,Step-1,Increment      1: Step Time =    1.000,"P-11-1",           578,       195.090,       154.597,            0.,NA,NA,"",   981.055E+03,   1.00315E+06,   1.00315E+06
C:/temp/Job-11.odb,Step-1,Increment      1: Step Time =    1.000,"P-11-1",           579,       194.703,       164.704,            0.,NA,NA,"",   993.347E+03,   1.00304E+06,   1.00304E+06
C:/temp/Job-11.odb,Step-1,Increment      1: Step Time =    1.000,"P-11-1",           580,       194.778,       174.783,            0.,NA,NA,"",   999.038E+03,   1.00199E+06,   1.00199E+06
C:/temp/Job-11.odb,Step-1,Increment      1: Step Time =    1.000,"P-11-1",           581,       194.767,       184.768,            0.,NA,NA,"",   1.00063E+06,   1.00100E+06,   1.00100E+06
C:/temp/Job-11.odb,Step-1,Increment      1: Step Time =    1.000,"P-11-1",           582,       189.780,       5.22446,            0.,NA,NA,"",   999.831E+03,   999.981E+03,   999.981E+03
C:/temp/Job-11.odb,Step-1,Increment      1: Step Time =    1.000,"P-11-1",           583,       179.705,       5.26221,            0.,NA,NA,"",   1.00093E+06,   1.00096E+06,   1.00096E+06
C:/temp/Job-11.odb,Step-1,Increment      1: Step Time =    1.000,"P-11-1",           584,       169.668,       5.13842,            0.,NA,NA,"",   1.00215E+06,   1.00174E+06,   1.00174E+06
C:/temp/Job-11.odb,Step-1,Increment      1: Step Time =    1.000,"P-11-1",           585,       159.651,       4.97763,            0.,NA,NA,"",   999.532E+03,   998.727E+03,   998.727E+03
C:/temp/Job-11.odb,Step-1,Increment      1: Step Time =    1.000,"P-11-1",           586,       149.773,       4.73655,            0.,NA,NA,"",   989.235E+03,   988.297E+03,   988.297E+03
C:/temp/Job-11.odb,Step-1,Increment      1: Step Time =    1.000,"P-11-1",           587,       139.892,       4.64334,            0.,NA,NA,"",   969.479E+03,   968.744E+03,   968.744E+03
C:/temp/Job-11.odb,Step-1,Increment      1: Step Time =    1.000,"P-11-1",           588,       130.005,       4.80138,            0.,NA,NA,"",   943.476E+03,   943.294E+03,   943.294E+03
C:/temp/Job-11.odb,Step-1,Increment      1: Step Time =    1.000,"P-11-1",           589,       120.009,       4.96377,            0.,NA,NA,"",   917.382E+03,   918.167E+03,   918.167E+03
C:/temp/Job-11.odb,Step-1,Increment      1: Step Time =    1.000,"P-11-1",           590,       109.975,       5.02430,            0.,NA,NA,"",   899.620E+03,   901.283E+03,   901.283E+03
C:/temp/Job-11.odb,Step-1,Increment      1: Step Time =    1.000,"P-11-1",           591,       99.9474,       5.01301,            0.,NA,NA,"",   897.963E+03,   900.016E+03,   900.016E+03
C:/temp/Job-11.odb,Step-1,Increment      1: Step Time =    1.000,"P-11-1",           592,       89.8963,       4.98617,            0.,NA,NA,"",   916.727E+03,   918.321E+03,   918.321E+03
C:/temp/Job-11.odb,Step-1,Increment      1: Step Time =    1.000,"P-11-1",           593,       79.8820,       4.94529,            0.,NA,NA,"",   952.732E+03,   953.327E+03,   953.327E+03
C:/temp/Job-11.odb,Step-1,Increment      1: Step Time =    1.000,"P-11-1",           594,       69.9363,       4.90300,            0.,NA,NA,"",   997.615E+03,   997.298E+03,   997.298E+03
C:/temp/Job-11.odb,Step-1,Increment      1: Step Time =    1.000,"P-11-1",           595,       60.0385,       4.84982,            0.,NA,NA,"",   1.04297E+06,   1.04216E+06,   1.04216E+06
C:/temp/Job-11.odb,Step-1,Increment      1: Step Time =    1.000,"P-11-1",           596,       50.1957,       4.77004,            0.,NA,NA,"",   1.08367E+06,   1.08289E+06,   1.08289E+06
C:/temp/Job-11.odb,Step-1,Increment      1: Step Time =    1.000,"P-11-1",           597,       40.3383,       4.75462,            0.,NA,NA,"",   1.12012E+06,   1.11990E+06,   1.11990E+06
C:/temp/Job-11.odb,Step-1,Increment      1: Step Time =    1.000,"P-11-1",           598,       30.4085,       4.92315,            0.,NA,NA,"",   1.15952E+06,   1.16071E+06,   1.16071E+06
C:/temp/Job-11.odb,Step-1,Increment      1: Step Time =    1.000,"P-11-1",           599,       20.3721,       5.19016,            0.,NA,NA,"",   1.21962E+06,   1.22440E+06,   1.22440E+06
C:/temp/Job-11.odb,Step-1,Increment      1: Step Time =    1.000,"P-11-1",           600,       10.2509,       5.22712,            0.,NA,NA,"",   1.35377E+06,   1.36959E+06,   1.36959E+06
C:/temp/Job-11.odb,Step-1,Increment      1: Step Time =    1.000,"P-11-1",           601,       194.803,       189.806,            0.,NA,NA,"",   1.00049E+06,   1.00050E+06,   1.00050E+06
C:/temp/Job-11.odb,Step-1,Increment      1: Step Time =    1.000,"P-11-1",           602,       194.757,       179.775,            0.,NA,NA,"",   1.00020E+06,   1.00148E+06,   1.00148E+06
C:/temp/Job-11.odb,Step-1,Increment      1: Step Time =    1.000,"P-11-1",           603,       194.757,       169.769,            0.,NA,NA,"",   996.903E+03,   1.00256E+06,   1.00256E+06
C:/temp/Job-11.odb,Step-1,Increment      1: Step Time =    1.000,"P-11-1",           604,       194.679,       159.611,            0.,NA,NA,"",   988.193E+03,   1.00328E+06,   1.00328E+06
C:/temp/Job-11.odb,Step-1,Increment      1: Step Time =    1.000,"P-11-1",           605,       195.356,       149.605,            0.,NA,NA,"",   972.081E+03,   1.00275E+06,   1.00275E+06
C:/temp/Job-11.odb,Step-1,Increment      1: Step Time =    1.000,"P-11-1",           606,       195.362,       139.830,            0.,NA,NA,"",   952.201E+03,   1.00241E+06,   1.00241E+06
C:/temp/Job-11.odb,Step-1,Increment      1: Step Time =    1.000,"P-11-1",           607,       195.181,       129.970,            0.,NA,NA,"",   930.642E+03,   1.00105E+06,   1.00105E+06
C:/temp/Job-11.odb,Step-1,Increment      1: Step Time =    1.000,"P-11-1",           608,       195.049,       120.013,            0.,NA,NA,"",   910.627E+03,   998.235E+03,   998.235E+03
C:/temp/Job-11.odb,Step-1,Increment      1: Step Time =    1.000,"P-11-1",           609,       194.976,       110.009,            0.,NA,NA,"",   896.590E+03,   995.256E+03,   995.256E+03
C:/temp/Job-11.odb,Step-1,Increment      1: Step Time =    1.000,"P-11-1",           610,       194.932,       99.9989,            0.,NA,NA,"",   891.679E+03,   993.994E+03,   993.994E+03
C:/temp/Job-11.odb,Step-1,Increment      1: Step Time =    1.000,"P-11-1",           611,       194.917,       89.9624,            0.,NA,NA,"",   896.650E+03,   995.170E+03,   995.170E+03
C:/temp/Job-11.odb,Step-1,Increment      1: Step Time =    1.000,"P-11-1",           612,       194.942,       79.9181,            0.,NA,NA,"",   910.753E+03,   998.093E+03,   998.093E+03
C:/temp/Job-11.odb,Step-1,Increment      1: Step Time =    1.000,"P-11-1",           613,       194.992,       69.9100,            0.,NA,NA,"",   931.109E+03,   1.00101E+06,   1.00101E+06
C:/temp/Job-11.odb,Step-1,Increment      1: Step Time =    1.000,"P-11-1",           614,       195.046,       59.9565,            0.,NA,NA,"",   953.421E+03,   1.00278E+06,   1.00278E+06
C:/temp/Job-11.odb,Step-1,Increment      1: Step Time =    1.000,"P-11-1",           615,       195.133,       50.0462,            0.,NA,NA,"",   973.302E+03,   1.00325E+06,   1.00325E+06
C:/temp/Job-11.odb,Step-1,Increment      1: Step Time =    1.000,"P-11-1",           616,       195.216,       40.1904,            0.,NA,NA,"",   988.008E+03,   1.00289E+06,   1.00289E+06
C:/temp/Job-11.odb,Step-1,Increment      1: Step Time =    1.000,"P-11-1",           617,       195.101,       30.2582,            0.,NA,NA,"",   996.719E+03,   1.00220E+06,   1.00220E+06
C:/temp/Job-11.odb,Step-1,Increment      1: Step Time =    1.000,"P-11-1",           618,       194.844,       20.2853,            0.,NA,NA,"",   1.00017E+06,   1.00138E+06,   1.00138E+06
C:/temp/Job-11.odb,Step-1,Increment      1: Step Time =    1.000,"P-11-1",           619,       194.791,       10.2252,            0.,NA,NA,"",   1.00049E+06,   1.00049E+06,   1.00049E+06
C:/temp/Job-11.odb,Step-1,Increment      1: Step Time =    1.000,"P-11-1",           620,       10.1419,       194.820,            0.,NA,NA,"",   1.35578E+06,   1.37172E+06,   1.37172E+06
C:/temp/Job-11.odb,Step-1,Increment      1: Step Time =    1.000,"P-11-1",           621,       20.1951,       194.720,            0.,NA,NA,"",   1.22115E+06,   1.22618E+06,   1.22618E+06
C:/temp/Job-11.odb,Step-1,Increment      1: Step Time =    1.000,"P-11-1",           622,       30.2514,       194.673,            0.,NA,NA,"",   1.16152E+06,   1.16285E+06,   1.16285E+06
C:/temp/Job-11.odb,Step-1,Increment      1: Step Time =    1.000,"P-11-1",           623,       40.4742,       194.600,            0.,NA,NA,"",   1.12106E+06,   1.12094E+06,   1.12094E+06
C:/temp/Job-11.odb,Step-1,Increment      1: Step Time =    1.000,"P-11-1",           624,       50.5167,       195.321,            0.,NA,NA,"",   1.08152E+06,   1.08090E+06,   1.08090E+06
C:/temp/Job-11.odb,Step-1,Increment      1: Step Time =    1.000,"P-11-1",           625,       60.3336,       195.364,            0.,NA,NA,"",   1.04025E+06,   1.03950E+06,   1.03950E+06
C:/temp/Job-11.odb,Step-1,Increment      1: Step Time =    1.000,"P-11-1",           626,       70.2195,       195.217,            0.,NA,NA,"",   995.199E+03,   994.941E+03,   994.941E+03
C:/temp/Job-11.odb,Step-1,Increment      1: Step Time =    1.000,"P-11-1",           627,       80.1221,       195.103,            0.,NA,NA,"",   951.199E+03,   951.820E+03,   951.820E+03
C:/temp/Job-11.odb,Step-1,Increment      1: Step Time =    1.000,"P-11-1",           628,       90.1016,       195.061,            0.,NA,NA,"",   915.765E+03,   917.349E+03,   917.349E+03
C:/temp/Job-11.odb,Step-1,Increment      1: Step Time =    1.000,"P-11-1",           629,       100.107,       195.032,            0.,NA,NA,"",   897.457E+03,   899.483E+03,   899.483E+03
C:/temp/Job-11.odb,Step-1,Increment      1: Step Time =    1.000,"P-11-1",           630,       110.114,       194.999,            0.,NA,NA,"",   899.822E+03,   901.476E+03,   901.476E+03
C:/temp/Job-11.odb,Step-1,Increment      1: Step Time =    1.000,"P-11-1",           631,       120.111,       195.001,            0.,NA,NA,"",   918.602E+03,   919.341E+03,   919.341E+03
C:/temp/Job-11.odb,Step-1,Increment      1: Step Time =    1.000,"P-11-1",           632,       130.077,       195.046,            0.,NA,NA,"",   945.348E+03,   945.136E+03,   945.136E+03
C:/temp/Job-11.odb,Step-1,Increment      1: Step Time =    1.000,"P-11-1",           633,       139.998,       195.077,            0.,NA,NA,"",   971.379E+03,   970.535E+03,   970.535E+03
C:/temp/Job-11.odb,Step-1,Increment      1: Step Time =    1.000,"P-11-1",           634,       149.887,       195.117,            0.,NA,NA,"",   990.243E+03,   989.250E+03,   989.250E+03
C:/temp/Job-11.odb,Step-1,Increment      1: Step Time =    1.000,"P-11-1",           635,       159.748,       195.151,            0.,NA,NA,"",   999.973E+03,   999.191E+03,   999.191E+03
C:/temp/Job-11.odb,Step-1,Increment      1: Step Time =    1.000,"P-11-1",           636,       169.648,       195.062,            0.,NA,NA,"",   1.00228E+06,   1.00191E+06,   1.00191E+06
C:/temp/Job-11.odb,Step-1,Increment      1: Step Time =    1.000,"P-11-1",           637,       179.702,       194.843,            0.,NA,NA,"",   1.00096E+06,   1.00101E+06,   1.00101E+06
C:/temp/Job-11.odb,Step-1,Increment      1: Step Time =    1.000,"P-11-1",           638,       189.794,       194.807,            0.,NA,NA,"",   999.835E+03,   999.990E+03,   999.990E+03
C:/temp/Job-11.odb,Step-1,Increment      1: Step Time =    1.000,"P-11-1",           639,       5.35863,       20.2921,            0.,NA,NA,"",   1.08601E+06,   1.18664E+06,   1.18664E+06
C:/temp/Job-11.odb,Step-1,Increment      1: Step Time =    1.000,"P-11-1",           640,       5.51436,       30.4463,            0.,NA,NA,"",   992.050E+03,   1.09442E+06,   1.09442E+06
C:/temp/Job-11.odb,Step-1,Increment      1: Step Time =    1.000,"P-11-1",           641,       5.76598,       40.9299,            0.,NA,NA,"",   922.757E+03,   1.02376E+06,   1.02376E+06
C:/temp/Job-11.odb,Step-1,Increment      1: Step Time =    1.000,"P-11-1",           642,       4.82652,       50.9334,            0.,NA,NA,"",   859.845E+03,   960.195E+03,   960.195E+03
C:/temp/Job-11.odb,Step-1,Increment      1: Step Time =    1.000,"P-11-1",           643,       4.38339,       60.4566,            0.,NA,NA,"",   805.679E+03,   903.443E+03,   903.443E+03
C:/temp/Job-11.odb,Step-1,Increment      1: Step Time =    1.000,"P-11-1",           644,       4.66280,       70.1075,            0.,NA,NA,"",   755.925E+03,   849.968E+03,   849.968E+03
C:/temp/Job-11.odb,Step-1,Increment      1: Step Time =    1.000,"P-11-1",           645,       5.07360,       80.0336,            0.,NA,NA,"",   710.886E+03,   801.694E+03,   801.694E+03
C:/temp/Job-11.odb,Step-1,Increment      1: Step Time =    1.000,"P-11-1",           646,       5.13181,       90.1073,            0.,NA,NA,"",   678.168E+03,   766.918E+03,   766.918E+03
C:/temp/Job-11.odb,Step-1,Increment      1: Step Time =    1.000,"P-11-1",           647,       4.99210,       100.255,            0.,NA,NA,"",   666.287E+03,   754.310E+03,   754.310E+03
C:/temp/Job-11.odb,Step-1,Increment      1: Step Time =    1.000,"P-11-1",           648,       5.09954,       110.344,            0.,NA,NA,"",   679.453E+03,   768.275E+03,   768.275E+03
C:/temp/Job-11.odb,Step-1,Increment      1: Step Time =    1.000,"P-11-1",           649,       4.95427,       120.339,            0.,NA,NA,"",   712.121E+03,   803.025E+03,   803.025E+03
C:/temp/Job-11.odb,Step-1,Increment      1: Step Time =    1.000,"P-11-1",           650,       4.65985,       130.341,            0.,NA,NA,"",   758.544E+03,   852.654E+03,   852.654E+03
C:/temp/Job-11.odb,Step-1,Increment      1: Step Time =    1.000,"P-11-1",           651,       4.63164,       140.216,            0.,NA,NA,"",   810.406E+03,   908.051E+03,   908.051E+03
C:/temp/Job-11.odb,Step-1,Increment      1: Step Time =    1.000,"P-11-1",           652,       4.73058,       150.056,            0.,NA,NA,"",   864.856E+03,   965.718E+03,   965.718E+03
C:/temp/Job-11.odb,Step-1,Increment      1: Step Time =    1.000,"P-11-1",           653,       4.77033,       159.864,            0.,NA,NA,"",   921.708E+03,   1.02512E+06,   1.02512E+06
C:/temp/Job-11.odb,Step-1,Increment      1: Step Time =    1.000,"P-11-1",           654,       4.80098,       169.764,            0.,NA,NA,"",   988.455E+03,   1.09304E+06,   1.09304E+06
C:/temp/Job-11.odb,Step-1,Increment      1: Step Time =    1.000,"P-11-1",           655,       4.99304,       179.806,            0.,NA,NA,"",   1.08419E+06,   1.18634E+06,   1.18634E+06
C:/temp/Job-11.odb,Step-1,Increment      1: Step Time =    1.000,"P-11-1",           656,       5.11206,       189.835,            0.,NA,NA,"",   1.26831E+06,   1.35543E+06,   1.35543E+06
C:/temp/Job-11.odb,Step-1,Increment      1: Step Time =    1.000,"P-11-1",           657,       71.5360,       87.1173,            0.,NA,NA,"",   832.898E+03,   649.254E+03,   649.254E+03
C:/temp/Job-11.odb,Step-1,Increment      1: Step Time =    1.000,"P-11-1",           658,       128.533,       112.908,            0.,NA,NA,"",   951.555E+03,   713.094E+03,   713.094E+03
C:/temp/Job-11.odb,Step-1,Increment      1: Step Time =    1.000,"P-11-1",           659,       89.1260,       126.795,            0.,NA,NA,"",   1.73250E+06,   1.80078E+06,   1.80078E+06
C:/temp/Job-11.odb,Step-1,Increment      1: Step Time =    1.000,"P-11-1",           660,       109.950,       73.4559,            0.,NA,NA,"",   1.81511E+06,   1.90686E+06,   1.90686E+06
C:/temp/Job-11.odb,Step-1,Increment      1: Step Time =    1.000,"P-11-1",           661,       89.7267,       75.4939,            0.,NA,NA,"",   1.84480E+06,   1.91128E+06,   1.91128E+06
C:/temp/Job-11.odb,Step-1,Increment      1: Step Time =    1.000,"P-11-1",           662,       110.426,       124.444,            0.,NA,NA,"",   1.90159E+06,   1.97023E+06,   1.97023E+06
C:/temp/Job-11.odb,Step-1,Increment      1: Step Time =    1.000,"P-11-1",           663,       130.105,       9.65165,            0.,NA,NA,"",   972.430E+03,   971.943E+03,   971.943E+03
C:/temp/Job-11.odb,Step-1,Increment      1: Step Time =    1.000,"P-11-1",           664,       120.053,       9.95452,            0.,NA,NA,"",   953.350E+03,   955.615E+03,   955.615E+03
C:/temp/Job-11.odb,Step-1,Increment      1: Step Time =    1.000,"P-11-1",           665,       109.928,       10.0638,            0.,NA,NA,"",   939.740E+03,   944.478E+03,   944.478E+03
C:/temp/Job-11.odb,Step-1,Increment      1: Step Time =    1.000,"P-11-1",           666,       79.7461,       9.88714,            0.,NA,NA,"",   989.136E+03,   990.858E+03,   990.858E+03
C:/temp/Job-11.odb,Step-1,Increment      1: Step Time =    1.000,"P-11-1",           667,       69.8681,       9.85013,            0.,NA,NA,"",   1.02759E+06,   1.02673E+06,   1.02673E+06
C:/temp/Job-11.odb,Step-1,Increment      1: Step Time =    1.000,"P-11-1",           668,       60.0515,       9.76987,            0.,NA,NA,"",   1.06543E+06,   1.06314E+06,   1.06314E+06
C:/temp/Job-11.odb,Step-1,Increment      1: Step Time =    1.000,"P-11-1",           669,       190.645,       139.687,            0.,NA,NA,"",   963.981E+03,   1.00678E+06,   1.00678E+06
C:/temp/Job-11.odb,Step-1,Increment      1: Step Time =    1.000,"P-11-1",           670,       190.307,       129.970,            0.,NA,NA,"",   943.752E+03,   1.00275E+06,   1.00275E+06
C:/temp/Job-11.odb,Step-1,Increment      1: Step Time =    1.000,"P-11-1",           671,       190.089,       120.044,            0.,NA,NA,"",   920.824E+03,   994.796E+03,   994.796E+03
C:/temp/Job-11.odb,Step-1,Increment      1: Step Time =    1.000,"P-11-1",           672,       189.954,       110.028,            0.,NA,NA,"",   901.977E+03,   986.370E+03,   986.370E+03
C:/temp/Job-11.odb,Step-1,Increment      1: Step Time =    1.000,"P-11-1",           673,       189.857,       100.013,            0.,NA,NA,"",   894.882E+03,   982.804E+03,   982.804E+03
C:/temp/Job-11.odb,Step-1,Increment      1: Step Time =    1.000,"P-11-1",           674,       189.827,       89.9361,            0.,NA,NA,"",   902.055E+03,   986.123E+03,   986.123E+03
C:/temp/Job-11.odb,Step-1,Increment      1: Step Time =    1.000,"P-11-1",           675,       189.861,       79.8333,            0.,NA,NA,"",   921.177E+03,   994.479E+03,   994.479E+03
C:/temp/Job-11.odb,Step-1,Increment      1: Step Time =    1.000,"P-11-1",           676,       189.933,       69.7976,            0.,NA,NA,"",   945.040E+03,   1.00283E+06,   1.00283E+06
C:/temp/Job-11.odb,Step-1,Increment      1: Step Time =    1.000,"P-11-1",           677,       190.024,       59.8633,            0.,NA,NA,"",   967.161E+03,   1.00797E+06,   1.00797E+06
C:/temp/Job-11.odb,Step-1,Increment      1: Step Time =    1.000,"P-11-1",           678,       90.2228,       190.161,            0.,NA,NA,"",   955.092E+03,   959.575E+03,   959.575E+03
C:/temp/Job-11.odb,Step-1,Increment      1: Step Time =    1.000,"P-11-1",           679,       100.218,       190.111,            0.,NA,NA,"",   938.101E+03,   943.823E+03,   943.823E+03
C:/temp/Job-11.odb,Step-1,Increment      1: Step Time =    1.000,"P-11-1",           680,       110.227,       190.015,            0.,NA,NA,"",   939.703E+03,   944.356E+03,   944.356E+03
C:/temp/Job-11.odb,Step-1,Increment      1: Step Time =    1.000,"P-11-1",           681,       120.234,       189.999,            0.,NA,NA,"",   954.686E+03,   956.784E+03,   956.784E+03
C:/temp/Job-11.odb,Step-1,Increment      1: Step Time =    1.000,"P-11-1",           682,       130.175,       190.058,            0.,NA,NA,"",   975.081E+03,   974.466E+03,   974.466E+03
C:/temp/Job-11.odb,Step-1,Increment      1: Step Time =    1.000,"P-11-1",           683,       140.019,       190.101,            0.,NA,NA,"",   993.476E+03,   991.078E+03,   991.078E+03
C:/temp/Job-11.odb,Step-1,Increment      1: Step Time =    1.000,"P-11-1",           684,       8.77411,       60.9419,            0.,NA,NA,"",   819.966E+03,   911.325E+03,   911.325E+03
C:/temp/Job-11.odb,Step-1,Increment      1: Step Time =    1.000,"P-11-1",           685,       9.45627,       70.0325,            0.,NA,NA,"",   768.502E+03,   858.405E+03,   858.405E+03
C:/temp/Job-11.odb,Step-1,Increment      1: Step Time =    1.000,"P-11-1",           686,       10.2142,       79.9076,            0.,NA,NA,"",   716.816E+03,   805.089E+03,   805.089E+03
C:/temp/Job-11.odb,Step-1,Increment      1: Step Time =    1.000,"P-11-1",           687,       10.2712,       90.3171,            0.,NA,NA,"",   676.272E+03,   763.995E+03,   763.995E+03
C:/temp/Job-11.odb,Step-1,Increment      1: Step Time =    1.000,"P-11-1",           688,       9.91742,       100.505,            0.,NA,NA,"",   663.193E+03,   750.826E+03,   750.826E+03
C:/temp/Job-11.odb,Step-1,Increment      1: Step Time =    1.000,"P-11-1",           689,       10.2892,       110.636,            0.,NA,NA,"",   679.344E+03,   767.132E+03,   767.132E+03
C:/temp/Job-11.odb,Step-1,Increment      1: Step Time =    1.000,"P-11-1",           690,       9.92686,       120.847,            0.,NA,NA,"",   719.998E+03,   808.520E+03,   808.520E+03
C:/temp/Job-11.odb,Step-1,Increment      1: Step Time =    1.000,"P-11-1",           691,       9.26005,       130.750,            0.,NA,NA,"",   772.512E+03,   862.467E+03,   862.467E+03
C:/temp/Job-11.odb,Step-1,Increment      1: Step Time =    1.000,"P-11-1",           692,       9.26800,       140.395,            0.,NA,NA,"",   829.961E+03,   921.010E+03,   921.010E+03
C:/temp/Job-11.odb,Step-1,Increment      1: Step Time =    1.000,"P-11-1",           693,       139.823,       9.27371,            0.,NA,NA,"",   990.000E+03,   987.900E+03,   987.900E+03
C:/temp/Job-11.odb,Step-1,Increment      1: Step Time =    1.000,"P-11-1",           694,       99.8650,       9.99720,            0.,NA,NA,"",   939.204E+03,   944.977E+03,   944.977E+03
C:/temp/Job-11.odb,Step-1,Increment      1: Step Time =    1.000,"P-11-1",           695,       89.7655,       9.92884,            0.,NA,NA,"",   956.855E+03,   961.328E+03,   961.328E+03
C:/temp/Job-11.odb,Step-1,Increment      1: Step Time =    1.000,"P-11-1",           696,       60.6546,       190.692,            0.,NA,NA,"",   1.06073E+06,   1.05871E+06,   1.05871E+06
C:/temp/Job-11.odb,Step-1,Increment      1: Step Time =    1.000,"P-11-1",           697,       70.4266,       190.387,            0.,NA,NA,"",   1.02367E+06,   1.02304E+06,   1.02304E+06
C:/temp/Job-11.odb,Step-1,Increment      1: Step Time =    1.000,"P-11-1",           698,       80.2412,       190.184,            0.,NA,NA,"",   986.610E+03,   988.454E+03,   988.454E+03
C:/temp/Job-11.odb,Step-1,Increment      1: Step Time =    1.000,"P-11-1",           699,       9.51755,       164.535,            0.,NA,NA,"",   982.797E+03,   1.07385E+06,   1.07385E+06
C:/temp/Job-11.odb,Step-1,Increment      1: Step Time =    1.000,"P-11-1",           700,       164.221,       10.1103,            0.,NA,NA,"",   1.01004E+06,   1.00820E+06,   1.00820E+06
C:/temp/Job-11.odb,Step-1,Increment      1: Step Time =    1.000,"P-11-1",           701,       35.8344,       9.57032,            0.,NA,NA,"",   1.14957E+06,   1.15039E+06,   1.15039E+06
C:/temp/Job-11.odb,Step-1,Increment      1: Step Time =    1.000,"P-11-1",           702,       11.2174,       36.0544,            0.,NA,NA,"",   989.945E+03,   1.07607E+06,   1.07607E+06
C:/temp/Job-11.odb,Step-1,Increment      1: Step Time =    1.000,"P-11-1",           703,       164.336,       190.312,            0.,NA,NA,"",   1.00951E+06,   1.00782E+06,   1.00782E+06
C:/temp/Job-11.odb,Step-1,Increment      1: Step Time =    1.000,"P-11-1",           704,       189.418,       164.557,            0.,NA,NA,"",   999.092E+03,   1.00844E+06,   1.00844E+06
C:/temp/Job-11.odb,Step-1,Increment      1: Step Time =    1.000,"P-11-1",           705,       190.470,       35.5081,            0.,NA,NA,"",   997.644E+03,   1.00726E+06,   1.00726E+06
C:/temp/Job-11.odb,Step-1,Increment      1: Step Time =    1.000,"P-11-1",           706,       35.5461,       189.244,            0.,NA,NA,"",   1.15274E+06,   1.15409E+06,   1.15409E+06
C:/temp/Job-11.odb,Step-1,Increment      1: Step Time =    1.000,"P-11-1",           707,       25.9034,       10.0688,            0.,NA,NA,"",   1.19329E+06,   1.19998E+06,   1.19998E+06
C:/temp/Job-11.odb,Step-1,Increment      1: Step Time =    1.000,"P-11-1",           708,       10.7228,       25.5877,            0.,NA,NA,"",   1.07030E+06,   1.15248E+06,   1.15248E+06
C:/temp/Job-11.odb,Step-1,Increment      1: Step Time =    1.000,"P-11-1",           709,       9.66559,       174.550,            0.,NA,NA,"",   1.06453E+06,   1.15073E+06,   1.15073E+06
C:/temp/Job-11.odb,Step-1,Increment      1: Step Time =    1.000,"P-11-1",           710,       174.323,       10.4264,            0.,NA,NA,"",   1.00706E+06,   1.00653E+06,   1.00653E+06
C:/temp/Job-11.odb,Step-1,Increment      1: Step Time =    1.000,"P-11-1",           711,       189.969,       25.6454,            0.,NA,NA,"",   1.00141E+06,   1.00521E+06,   1.00521E+06
C:/temp/Job-11.odb,Step-1,Increment      1: Step Time =    1.000,"P-11-1",           712,       25.4113,       189.386,            0.,NA,NA,"",   1.19535E+06,   1.20319E+06,   1.20319E+06
C:/temp/Job-11.odb,Step-1,Increment      1: Step Time =    1.000,"P-11-1",           713,       174.266,       189.990,            0.,NA,NA,"",   1.00670E+06,   1.00624E+06,   1.00624E+06
C:/temp/Job-11.odb,Step-1,Increment      1: Step Time =    1.000,"P-11-1",           714,       189.512,       174.559,            0.,NA,NA,"",   1.00196E+06,   1.00571E+06,   1.00571E+06
C:/temp/Job-11.odb,Step-1,Increment      1: Step Time =    1.000,"P-11-1",           715,       10.1720,       184.548,            0.,NA,NA,"",   1.18890E+06,   1.25766E+06,   1.25766E+06
C:/temp/Job-11.odb,Step-1,Increment      1: Step Time =    1.000,"P-11-1",           716,       184.468,       10.5521,            0.,NA,NA,"",   1.00263E+06,   1.00308E+06,   1.00308E+06
C:/temp/Job-11.odb,Step-1,Increment      1: Step Time =    1.000,"P-11-1",           717,       15.6707,       10.4584,            0.,NA,NA,"",   1.25793E+06,   1.28023E+06,   1.28023E+06
C:/temp/Job-11.odb,Step-1,Increment      1: Step Time =    1.000,"P-11-1",           718,       10.6343,       15.5085,            0.,NA,NA,"",   1.19068E+06,   1.25692E+06,   1.25692E+06
C:/temp/Job-11.odb,Step-1,Increment      1: Step Time =    1.000,"P-11-1",           719,       184.453,       189.614,            0.,NA,NA,"",   1.00253E+06,   1.00299E+06,   1.00299E+06
C:/temp/Job-11.odb,Step-1,Increment      1: Step Time =    1.000,"P-11-1",           720,       189.494,       184.564,            0.,NA,NA,"",   1.00180E+06,   1.00292E+06,   1.00292E+06
C:/temp/Job-11.odb,Step-1,Increment      1: Step Time =    1.000,"P-11-1",           721,       189.554,       15.5808,            0.,NA,NA,"",   1.00173E+06,   1.00286E+06,   1.00286E+06
C:/temp/Job-11.odb,Step-1,Increment      1: Step Time =    1.000,"P-11-1",           722,       15.3103,       189.497,            0.,NA,NA,"",   1.25948E+06,   1.28302E+06,   1.28302E+06
C:/temp/Job-11.odb,Step-1,Increment      1: Step Time =    1.000,"P-11-1",           723,       60.9401,       186.008,            0.,NA,NA,"",   1.08352E+06,   1.07960E+06,   1.07960E+06
C:/temp/Job-11.odb,Step-1,Increment      1: Step Time =    1.000,"P-11-1",           724,       13.8617,       140.505,            0.,NA,NA,"",   850.826E+03,   934.039E+03,   934.039E+03
C:/temp/Job-11.odb,Step-1,Increment      1: Step Time =    1.000,"P-11-1",           725,       184.938,       59.7056,            0.,NA,NA,"",   985.394E+03,   1.01569E+06,   1.01569E+06
C:/temp/Job-11.odb,Step-1,Increment      1: Step Time =    1.000,"P-11-1",           726,       139.867,       13.8281,            0.,NA,NA,"",   1.01259E+06,   1.00859E+06,   1.00859E+06
C:/temp/Job-11.odb,Step-1,Increment      1: Step Time =    1.000,"P-11-1",           727,       60.0326,       14.7346,            0.,NA,NA,"",   1.08978E+06,   1.08553E+06,   1.08553E+06
C:/temp/Job-11.odb,Step-1,Increment      1: Step Time =    1.000,"P-11-1",           728,       140.067,       185.099,            0.,NA,NA,"",   1.01869E+06,   1.01396E+06,   1.01396E+06
C:/temp/Job-11.odb,Step-1,Increment      1: Step Time =    1.000,"P-11-1",           729,       185.837,       139.599,            0.,NA,NA,"",   979.945E+03,   1.01333E+06,   1.01333E+06
C:/temp/Job-11.odb,Step-1,Increment      1: Step Time =    1.000,"P-11-1",           730,       12.5704,       61.4120,            0.,NA,NA,"",   831.297E+03,   916.936E+03,   916.936E+03
C:/temp/Job-11.odb,Step-1,Increment      1: Step Time =    1.000,"P-11-1",           731,       16.3308,       35.7180,            0.,NA,NA,"",   1.02401E+06,   1.09374E+06,   1.09374E+06
C:/temp/Job-11.odb,Step-1,Increment      1: Step Time =    1.000,"P-11-1",           732,       164.033,       185.605,            0.,NA,NA,"",   1.01956E+06,   1.01623E+06,   1.01623E+06
C:/temp/Job-11.odb,Step-1,Increment      1: Step Time =    1.000,"P-11-1",           733,       36.3300,       14.2014,            0.,NA,NA,"",   1.15518E+06,   1.15705E+06,   1.15705E+06
C:/temp/Job-11.odb,Step-1,Increment      1: Step Time =    1.000,"P-11-1",           734,       184.177,       164.833,            0.,NA,NA,"",   1.01011E+06,   1.01651E+06,   1.01651E+06
C:/temp/Job-11.odb,Step-1,Increment      1: Step Time =    1.000,"P-11-1",           735,       163.728,       15.1345,            0.,NA,NA,"",   1.02143E+06,   1.01772E+06,   1.01772E+06
C:/temp/Job-11.odb,Step-1,Increment      1: Step Time =    1.000,"P-11-1",           736,       185.971,       35.7670,            0.,NA,NA,"",   1.00630E+06,   1.01398E+06,   1.01398E+06
C:/temp/Job-11.odb,Step-1,Increment      1: Step Time =    1.000,"P-11-1",           737,       14.1373,       164.424,            0.,NA,NA,"",   1.01348E+06,   1.09007E+06,   1.09007E+06
C:/temp/Job-11.odb,Step-1,Increment      1: Step Time =    1.000,"P-11-1",           738,       35.3392,       183.887,            0.,NA,NA,"",   1.15793E+06,   1.16133E+06,   1.16133E+06
C:/temp/Job-11.odb,Step-1,Increment      1: Step Time =    1.000,"P-11-1",           739,       184.810,       69.6691,            0.,NA,NA,"",   960.364E+03,   1.00515E+06,   1.00515E+06
C:/temp/Job-11.odb,Step-1,Increment      1: Step Time =    1.000,"P-11-1",           740,       69.8161,       14.8307,            0.,NA,NA,"",   1.05724E+06,   1.05569E+06,   1.05569E+06
C:/temp/Job-11.odb,Step-1,Increment      1: Step Time =    1.000,"P-11-1",           741,       14.4949,       69.7274,            0.,NA,NA,"",   785.280E+03,   869.241E+03,   869.241E+03
C:/temp/Job-11.odb,Step-1,Increment      1: Step Time =    1.000,"P-11-1",           742,       185.376,       129.970,            0.,NA,NA,"",   958.062E+03,   1.00482E+06,   1.00482E+06
C:/temp/Job-11.odb,Step-1,Increment      1: Step Time =    1.000,"P-11-1",           743,       130.275,       185.059,            0.,NA,NA,"",   1.00500E+06,   1.00382E+06,   1.00382E+06
C:/temp/Job-11.odb,Step-1,Increment      1: Step Time =    1.000,"P-11-1",           744,       130.337,       14.5599,            0.,NA,NA,"",   1.00226E+06,   1.00118E+06,   1.00118E+06
C:/temp/Job-11.odb,Step-1,Increment      1: Step Time =    1.000,"P-11-1",           745,       13.7607,       131.214,            0.,NA,NA,"",   788.734E+03,   873.332E+03,   873.332E+03
C:/temp/Job-11.odb,Step-1,Increment      1: Step Time =    1.000,"P-11-1",           746,       70.6160,       185.530,            0.,NA,NA,"",   1.05199E+06,   1.05109E+06,   1.05109E+06
C:/temp/Job-11.odb,Step-1,Increment      1: Step Time =    1.000,"P-11-1",           747,       15.9508,       25.8671,            0.,NA,NA,"",   1.09948E+06,   1.16134E+06,   1.16134E+06
C:/temp/Job-11.odb,Step-1,Increment      1: Step Time =    1.000,"P-11-1",           748,       173.719,       185.234,            0.,NA,NA,"",   1.01274E+06,   1.01169E+06,   1.01169E+06
C:/temp/Job-11.odb,Step-1,Increment      1: Step Time =    1.000,"P-11-1",           749,       26.5782,       14.9473,            0.,NA,NA,"",   1.18392E+06,   1.19643E+06,   1.19643E+06
C:/temp/Job-11.odb,Step-1,Increment      1: Step Time =    1.000,"P-11-1",           750,       184.187,       174.267,            0.,NA,NA,"",   1.00886E+06,   1.01158E+06,   1.01158E+06
C:/temp/Job-11.odb,Step-1,Increment      1: Step Time =    1.000,"P-11-1",           751,       173.824,       15.6270,            0.,NA,NA,"",   1.01399E+06,   1.01277E+06,   1.01277E+06
C:/temp/Job-11.odb,Step-1,Increment      1: Step Time =    1.000,"P-11-1",           752,       185.063,       26.2280,            0.,NA,NA,"",   1.00725E+06,   1.01047E+06,   1.01047E+06
C:/temp/Job-11.odb,Step-1,Increment      1: Step Time =    1.000,"P-11-1",           753,       14.2129,       174.183,            0.,NA,NA,"",   1.09014E+06,   1.15869E+06,   1.15869E+06
C:/temp/Job-11.odb,Step-1,Increment      1: Step Time =    1.000,"P-11-1",           754,       25.6519,       183.963,            0.,NA,NA,"",   1.18249E+06,   1.19809E+06,   1.19809E+06
C:/temp/Job-11.odb,Step-1,Increment      1: Step Time =    1.000,"P-11-1",           755,       95.1708,       133.035,            0.,NA,NA,"",   1.49061E+06,   1.62611E+06,   1.62611E+06
C:/temp/Job-11.odb,Step-1,Increment      1: Step Time =    1.000,"P-11-1",           756,       105.169,       67.7626,            0.,NA,NA,"",   1.53212E+06,   1.67291E+06,   1.67291E+06
C:/temp/Job-11.odb,Step-1,Increment      1: Step Time =    1.000,"P-11-1",           757,       93.8031,       68.9477,            0.,NA,NA,"",   1.58439E+06,   1.71268E+06,   1.71268E+06
C:/temp/Job-11.odb,Step-1,Increment      1: Step Time =    1.000,"P-11-1",           758,       106.732,       131.062,            0.,NA,NA,"",   1.58742E+06,   1.71686E+06,   1.71686E+06
C:/temp/Job-11.odb,Step-1,Increment      1: Step Time =    1.000,"P-11-1",           759,       79.6095,       14.8100,            0.,NA,NA,"",   1.02116E+06,   1.02471E+06,   1.02471E+06
C:/temp/Job-11.odb,Step-1,Increment      1: Step Time =    1.000,"P-11-1",           760,       15.2173,       79.4180,            0.,NA,NA,"",   726.481E+03,   811.014E+03,   811.014E+03
C:/temp/Job-11.odb,Step-1,Increment      1: Step Time =    1.000,"P-11-1",           761,       185.128,       120.071,            0.,NA,NA,"",   928.591E+03,   989.182E+03,   989.182E+03
C:/temp/Job-11.odb,Step-1,Increment      1: Step Time =    1.000,"P-11-1",           762,       120.117,       14.9664,            0.,NA,NA,"",   985.656E+03,   990.196E+03,   990.196E+03
C:/temp/Job-11.odb,Step-1,Increment      1: Step Time =    1.000,"P-11-1",           763,       120.355,       184.995,            0.,NA,NA,"",   987.034E+03,   991.212E+03,   991.212E+03
C:/temp/Job-11.odb,Step-1,Increment      1: Step Time =    1.000,"P-11-1",           764,       14.7418,       121.747,            0.,NA,NA,"",   731.981E+03,   816.888E+03,   816.888E+03
C:/temp/Job-11.odb,Step-1,Increment      1: Step Time =    1.000,"P-11-1",           765,       184.732,       79.7662,            0.,NA,NA,"",   928.980E+03,   988.455E+03,   988.455E+03
C:/temp/Job-11.odb,Step-1,Increment      1: Step Time =    1.000,"P-11-1",           766,       80.3777,       185.245,            0.,NA,NA,"",   1.01816E+06,   1.02212E+06,   1.02212E+06
C:/temp/Job-11.odb,Step-1,Increment      1: Step Time =    1.000,"P-11-1",           767,       184.158,       184.440,            0.,NA,NA,"",   1.00491E+06,   1.00582E+06,   1.00582E+06
C:/temp/Job-11.odb,Step-1,Increment      1: Step Time =    1.000,"P-11-1",           768,       16.0114,       15.6601,            0.,NA,NA,"",   1.20753E+06,   1.24669E+06,   1.24669E+06
C:/temp/Job-11.odb,Step-1,Increment      1: Step Time =    1.000,"P-11-1",           769,       184.282,       15.8824,            0.,NA,NA,"",   1.00497E+06,   1.00591E+06,   1.00591E+06
C:/temp/Job-11.odb,Step-1,Increment      1: Step Time =    1.000,"P-11-1",           770,       15.3257,       184.207,            0.,NA,NA,"",   1.20541E+06,   1.24794E+06,   1.24794E+06
C:/temp/Job-11.odb,Step-1,Increment      1: Step Time =    1.000,"P-11-1",           771,       89.6038,       14.8006,            0.,NA,NA,"",   989.470E+03,   998.131E+03,   998.131E+03
C:/temp/Job-11.odb,Step-1,Increment      1: Step Time =    1.000,"P-11-1",           772,       109.821,       15.1391,            0.,NA,NA,"",   972.513E+03,   982.011E+03,   982.011E+03
C:/temp/Job-11.odb,Step-1,Increment      1: Step Time =    1.000,"P-11-1",           773,       15.2903,       90.8538,            0.,NA,NA,"",   673.283E+03,   759.002E+03,   759.002E+03
C:/temp/Job-11.odb,Step-1,Increment      1: Step Time =    1.000,"P-11-1",           774,       184.927,       110.069,            0.,NA,NA,"",    901.29E+03,   972.433E+03,   972.433E+03
C:/temp/Job-11.odb,Step-1,Increment      1: Step Time =    1.000,"P-11-1",           775,       15.5609,       110.650,            0.,NA,NA,"",   678.462E+03,   764.048E+03,   764.048E+03
C:/temp/Job-11.odb,Step-1,Increment      1: Step Time =    1.000,"P-11-1",           776,       184.707,       89.9370,            0.,NA,NA,"",   901.157E+03,   971.769E+03,   971.769E+03
C:/temp/Job-11.odb,Step-1,Increment      1: Step Time =    1.000,"P-11-1",           777,       110.316,       185.052,            0.,NA,NA,"",   972.296E+03,   981.382E+03,   981.382E+03
C:/temp/Job-11.odb,Step-1,Increment      1: Step Time =    1.000,"P-11-1",           778,       90.3869,       185.336,            0.,NA,NA,"",   986.683E+03,   995.447E+03,   995.447E+03
C:/temp/Job-11.odb,Step-1,Increment      1: Step Time =    1.000,"P-11-1",           779,       100.325,       185.268,            0.,NA,NA,"",   969.423E+03,   980.663E+03,   980.663E+03
C:/temp/Job-11.odb,Step-1,Increment      1: Step Time =    1.000,"P-11-1",           780,       184.745,       100.060,            0.,NA,NA,"",   890.551E+03,   965.309E+03,   965.309E+03
C:/temp/Job-11.odb,Step-1,Increment      1: Step Time =    1.000,"P-11-1",           781,       14.8120,       100.710,            0.,NA,NA,"",   660.190E+03,   746.414E+03,   746.414E+03
C:/temp/Job-11.odb,Step-1,Increment      1: Step Time =    1.000,"P-11-1",           782,       99.7185,       14.9408,            0.,NA,NA,"",   971.477E+03,   982.811E+03,   982.811E+03
C:/temp/Job-11.odb,Step-1,Increment      1: Step Time =    1.000,"P-11-1",           783,       112.944,       129.757,            0.,NA,NA,"",   1.58076E+06,   1.64003E+06,   1.64003E+06
C:/temp/Job-11.odb,Step-1,Increment      1: Step Time =    1.000,"P-11-1",           784,       87.4090,       69.9877,            0.,NA,NA,"",   1.55569E+06,   1.61559E+06,   1.61559E+06
C:/temp/Job-11.odb,Step-1,Increment      1: Step Time =    1.000,"P-11-1",           785,       110.539,       68.0206,            0.,NA,NA,"",   1.51473E+06,   1.60972E+06,   1.60972E+06
C:/temp/Job-11.odb,Step-1,Increment      1: Step Time =    1.000,"P-11-1",           786,       88.5196,       134.438,            0.,NA,NA,"",   1.43767E+06,   1.51045E+06,   1.51045E+06
C:/temp/Job-11.odb,Step-1,Increment      1: Step Time =    1.000,"P-11-1",           787,       130.513,       107.364,            0.,NA,NA,"",   618.000E+03,   286.052E+03,   286.052E+03
C:/temp/Job-11.odb,Step-1,Increment      1: Step Time =    1.000,"P-11-1",           788,       69.6004,       92.6956,            0.,NA,NA,"",   514.564E+03,   263.275E+03,   263.275E+03
C:/temp/Job-11.odb,Step-1,Increment      1: Step Time =    1.000,"P-11-1",           789,       13.9238,       65.1286,            0.,NA,NA,"",   813.123E+03,   897.440E+03,   897.440E+03
C:/temp/Job-11.odb,Step-1,Increment      1: Step Time =    1.000,"P-11-1",           790,       135.177,       185.093,            0.,NA,NA,"",   1.01280E+06,   1.00951E+06,   1.00951E+06
C:/temp/Job-11.odb,Step-1,Increment      1: Step Time =    1.000,"P-11-1",           791,       64.9255,       14.7819,            0.,NA,NA,"",   1.07408E+06,   1.07083E+06,   1.07083E+06
C:/temp/Job-11.odb,Step-1,Increment      1: Step Time =    1.000,"P-11-1",           792,       185.584,       134.809,            0.,NA,NA,"",   970.164E+03,   1.01000E+06,   1.01000E+06
C:/temp/Job-11.odb,Step-1,Increment      1: Step Time =    1.000,"P-11-1",           793,       184.864,       64.6754,            0.,NA,NA,"",   974.048E+03,   1.01137E+06,   1.01137E+06
C:/temp/Job-11.odb,Step-1,Increment      1: Step Time =    1.000,"P-11-1",           794,       135.231,       14.2433,            0.,NA,NA,"",   1.00808E+06,   1.00518E+06,   1.00518E+06
C:/temp/Job-11.odb,Step-1,Increment      1: Step Time =    1.000,"P-11-1",           795,       13.7262,       135.862,            0.,NA,NA,"",   819.436E+03,   903.459E+03,   903.459E+03
C:/temp/Job-11.odb,Step-1,Increment      1: Step Time =    1.000,"P-11-1",           796,       65.7689,       185.823,            0.,NA,NA,"",   1.06842E+06,   1.06565E+06,   1.06565E+06
C:/temp/Job-11.odb,Step-1,Increment      1: Step Time =    1.000,"P-11-1",           797,       15.9190,       30.8316,            0.,NA,NA,"",   1.05729E+06,   1.12503E+06,   1.12503E+06
C:/temp/Job-11.odb,Step-1,Increment      1: Step Time =    1.000,"P-11-1",           798,       168.724,       185.654,            0.,NA,NA,"",   1.01639E+06,   1.01416E+06,   1.01416E+06
C:/temp/Job-11.odb,Step-1,Increment      1: Step Time =    1.000,"P-11-1",           799,       31.5527,       14.4426,            0.,NA,NA,"",   1.16986E+06,   1.17540E+06,   1.17540E+06
C:/temp/Job-11.odb,Step-1,Increment      1: Step Time =    1.000,"P-11-1",           800,       184.270,       169.415,            0.,NA,NA,"",   1.00961E+06,   1.01403E+06,   1.01403E+06
C:/temp/Job-11.odb,Step-1,Increment      1: Step Time =    1.000,"P-11-1",           801,       168.738,       15.3055,            0.,NA,NA,"",   1.01807E+06,   1.01554E+06,   1.01554E+06
C:/temp/Job-11.odb,Step-1,Increment      1: Step Time =    1.000,"P-11-1",           802,       185.710,       31.0671,            0.,NA,NA,"",   1.00696E+06,   1.01215E+06,   1.01215E+06
C:/temp/Job-11.odb,Step-1,Increment      1: Step Time =    1.000,"P-11-1",           803,       13.8283,       169.266,            0.,NA,NA,"",   1.04698E+06,   1.12194E+06,   1.12194E+06
C:/temp/Job-11.odb,Step-1,Increment      1: Step Time =    1.000,"P-11-1",           804,       30.6353,       183.966,            0.,NA,NA,"",   1.17027E+06,   1.17820E+06,   1.17820E+06
C:/temp/Job-11.odb,Step-1,Increment      1: Step Time =    1.000,"P-11-1",           805,       74.7011,       14.8228,            0.,NA,NA,"",   1.03927E+06,   1.04013E+06,   1.04013E+06
C:/temp/Job-11.odb,Step-1,Increment      1: Step Time =    1.000,"P-11-1",           806,       14.7463,       74.4746,            0.,NA,NA,"",   755.506E+03,   839.791E+03,   839.791E+03
C:/temp/Job-11.odb,Step-1,Increment      1: Step Time =    1.000,"P-11-1",           807,       185.241,       125.028,            0.,NA,NA,"",   943.964E+03,   997.750E+03,   997.750E+03
C:/temp/Job-11.odb,Step-1,Increment      1: Step Time =    1.000,"P-11-1",           808,       184.751,       74.7124,            0.,NA,NA,"",   945.018E+03,   997.330E+03,   997.330E+03
C:/temp/Job-11.odb,Step-1,Increment      1: Step Time =    1.000,"P-11-1",           809,       125.333,       185.033,            0.,NA,NA,"",   996.172E+03,   997.536E+03,   997.536E+03
C:/temp/Job-11.odb,Step-1,Increment      1: Step Time =    1.000,"P-11-1",           810,       125.249,       14.7859,            0.,NA,NA,"",   994.342E+03,   995.893E+03,   995.893E+03
C:/temp/Job-11.odb,Step-1,Increment      1: Step Time =    1.000,"P-11-1",           811,       14.0358,       126.541,            0.,NA,NA,"",   759.441E+03,   844.374E+03,   844.374E+03
C:/temp/Job-11.odb,Step-1,Increment      1: Step Time =    1.000,"P-11-1",           812,       75.4939,       185.291,            0.,NA,NA,"",   1.03538E+06,   1.03667E+06,   1.03667E+06
C:/temp/Job-11.odb,Step-1,Increment      1: Step Time =    1.000,"P-11-1",           813,       16.2073,       20.7979,            0.,NA,NA,"",   1.14773E+06,   1.20060E+06,   1.20060E+06
C:/temp/Job-11.odb,Step-1,Increment      1: Step Time =    1.000,"P-11-1",           814,       178.848,       184.583,            0.,NA,NA,"",   1.00883E+06,   1.00890E+06,   1.00890E+06
C:/temp/Job-11.odb,Step-1,Increment      1: Step Time =    1.000,"P-11-1",           815,       21.3849,       15.5661,            0.,NA,NA,"",   1.19754E+06,   1.22028E+06,   1.22028E+06
C:/temp/Job-11.odb,Step-1,Increment      1: Step Time =    1.000,"P-11-1",           816,       183.956,       179.311,            0.,NA,NA,"",   1.00720E+06,   1.00879E+06,   1.00879E+06
C:/temp/Job-11.odb,Step-1,Increment      1: Step Time =    1.000,"P-11-1",           817,       184.370,       21.1632,            0.,NA,NA,"",   1.00670E+06,   1.00851E+06,   1.00851E+06
C:/temp/Job-11.odb,Step-1,Increment      1: Step Time =    1.000,"P-11-1",           818,       179.007,       16.0258,            0.,NA,NA,"",   1.00942E+06,   1.00946E+06,   1.00946E+06
C:/temp/Job-11.odb,Step-1,Increment      1: Step Time =    1.000,"P-11-1",           819,       15.0206,       179.046,            0.,NA,NA,"",   1.14145E+06,   1.19951E+06,   1.19951E+06
C:/temp/Job-11.odb,Step-1,Increment      1: Step Time =    1.000,"P-11-1",           820,       20.5253,       183.870,            0.,NA,NA,"",   1.19532E+06,   1.22154E+06,   1.22154E+06
C:/temp/Job-11.odb,Step-1,Increment      1: Step Time =    1.000,"P-11-1",           821,       84.5839,       14.7903,            0.,NA,NA,"",   1.00429E+06,   1.01052E+06,   1.01052E+06
C:/temp/Job-11.odb,Step-1,Increment      1: Step Time =    1.000,"P-11-1",           822,       16.6170,       85.2058,            0.,NA,NA,"",   696.907E+03,   781.138E+03,   781.138E+03
C:/temp/Job-11.odb,Step-1,Increment      1: Step Time =    1.000,"P-11-1",           823,       185.040,       115.067,            0.,NA,NA,"",   913.584E+03,   980.160E+03,   980.160E+03
C:/temp/Job-11.odb,Step-1,Increment      1: Step Time =    1.000,"P-11-1",           824,       114.945,       15.1027,            0.,NA,NA,"",   977.959E+03,   985.276E+03,   985.276E+03
C:/temp/Job-11.odb,Step-1,Increment      1: Step Time =    1.000,"P-11-1",           825,       115.340,       185.004,            0.,NA,NA,"",   978.669E+03,   985.510E+03,   985.510E+03
C:/temp/Job-11.odb,Step-1,Increment      1: Step Time =    1.000,"P-11-1",           826,       16.4404,       116.407,            0.,NA,NA,"",   704.864E+03,   789.024E+03,   789.024E+03
C:/temp/Job-11.odb,Step-1,Increment      1: Step Time =    1.000,"P-11-1",           827,       184.703,       84.8571,            0.,NA,NA,"",   913.752E+03,   979.492E+03,   979.492E+03
C:/temp/Job-11.odb,Step-1,Increment      1: Step Time =    1.000,"P-11-1",           828,       85.3984,       185.310,            0.,NA,NA,"",   1.00114E+06,   1.00776E+06,   1.00776E+06
C:/temp/Job-11.odb,Step-1,Increment      1: Step Time =    1.000,"P-11-1",           829,       94.6584,       14.8318,            0.,NA,NA,"",   977.982E+03,   988.532E+03,   988.532E+03
C:/temp/Job-11.odb,Step-1,Increment      1: Step Time =    1.000,"P-11-1",           830,       15.1034,       105.574,            0.,NA,NA,"",   665.161E+03,   751.228E+03,   751.228E+03
C:/temp/Job-11.odb,Step-1,Increment      1: Step Time =    1.000,"P-11-1",           831,       184.704,       95.0210,            0.,NA,NA,"",   893.100E+03,   966.785E+03,   966.785E+03
C:/temp/Job-11.odb,Step-1,Increment      1: Step Time =    1.000,"P-11-1",           832,       105.317,       185.169,            0.,NA,NA,"",   968.684E+03,   979.397E+03,   979.397E+03
C:/temp/Job-11.odb,Step-1,Increment      1: Step Time =    1.000,"P-11-1",           833,       104.737,       15.0685,            0.,NA,NA,"",   970.061E+03,   980.944E+03,   980.944E+03
C:/temp/Job-11.odb,Step-1,Increment      1: Step Time =    1.000,"P-11-1",           834,       14.8408,       95.8794,            0.,NA,NA,"",   662.366E+03,   748.554E+03,   748.554E+03
C:/temp/Job-11.odb,Step-1,Increment      1: Step Time =    1.000,"P-11-1",           835,       184.816,       105.072,            0.,NA,NA,"",   893.431E+03,   967.326E+03,   967.326E+03
C:/temp/Job-11.odb,Step-1,Increment      1: Step Time =    1.000,"P-11-1",           836,       95.3493,       185.337,            0.,NA,NA,"",   975.706E+03,   986.170E+03,   986.170E+03
C:/temp/Job-11.odb,Step-1,Increment      1: Step Time =    1.000,"P-11-1",           837,       112.382,       135.993,            0.,NA,NA,"",   1.40562E+06,   1.47698E+06,   1.47698E+06
C:/temp/Job-11.odb,Step-1,Increment      1: Step Time =    1.000,"P-11-1",           838,       88.5834,       63.4921,            0.,NA,NA,"",   1.39054E+06,   1.46707E+06,   1.46707E+06
C:/temp/Job-11.odb,Step-1,Increment      1: Step Time =    1.000,"P-11-1",           839,       111.175,       63.1112,            0.,NA,NA,"",   1.36996E+06,   1.45364E+06,   1.45364E+06
C:/temp/Job-11.odb,Step-1,Increment      1: Step Time =    1.000,"P-11-1",           840,       91.9516,       140.568,            0.,NA,NA,"",   1.28797E+06,   1.38131E+06,   1.38131E+06
C:/temp/Job-11.odb,Step-1,Increment      1: Step Time =    1.000,"P-11-1",           841,       135.728,       109.660,            0.,NA,NA,"",   740.490E+03,   612.768E+03,   612.768E+03
C:/temp/Job-11.odb,Step-1,Increment      1: Step Time =    1.000,"P-11-1",           842,       126.608,       100.406,            0.,NA,NA,"",   567.515E+03,  -538.026E+03,  -538.026E+03
C:/temp/Job-11.odb,Step-1,Increment      1: Step Time =    1.000,"P-11-1",           843,       73.5229,       99.5962,            0.,NA,NA,"",   478.373E+03,  -452.905E+03,  -452.905E+03
C:/temp/Job-11.odb,Step-1,Increment      1: Step Time =    1.000,"P-11-1",           844,       64.4259,       90.4132,            0.,NA,NA,"",   620.939E+03,   545.329E+03,   545.329E+03
C:/temp/Job-11.odb,Step-1,Increment      1: Step Time =    1.000,"P-11-1",           845,       99.5899,       68.1958,            0.,NA,NA,"",   1.57031E+06,   1.72393E+06,   1.72393E+06
C:/temp/Job-11.odb,Step-1,Increment      1: Step Time =    1.000,"P-11-1",           846,       101.002,       132.055,            0.,NA,NA,"",   1.55669E+06,   1.71056E+06,   1.71056E+06
C:/temp/Job-11.odb,Step-1,Increment      1: Step Time =    1.000,"P-11-1",           847,       118.402,       131.894,            0.,NA,NA,"",   1.47981E+06,   1.47430E+06,   1.47430E+06
C:/temp/Job-11.odb,Step-1,Increment      1: Step Time =    1.000,"P-11-1",           848,       81.9690,       67.5282,            0.,NA,NA,"",   1.44672E+06,   1.44819E+06,   1.44819E+06
C:/temp/Job-11.odb,Step-1,Increment      1: Step Time =    1.000,"P-11-1",           849,       116.132,       68.2597,            0.,NA,NA,"",   1.50214E+06,   1.52220E+06,   1.52220E+06
C:/temp/Job-11.odb,Step-1,Increment      1: Step Time =    1.000,"P-11-1",           850,       79.9618,       137.590,            0.,NA,NA,"",   1.37724E+06,   1.37609E+06,   1.37609E+06
C:/temp/Job-11.odb,Step-1,Increment      1: Step Time =    1.000,"P-11-1",           851,       133.493,       114.995,            0.,NA,NA,"",   1.02850E+06,   845.802E+03,   845.802E+03
C:/temp/Job-11.odb,Step-1,Increment      1: Step Time =    1.000,"P-11-1",           852,       66.6126,       85.0526,            0.,NA,NA,"",   897.870E+03,   770.147E+03,   770.147E+03
C:/temp/Job-11.odb,Step-1,Increment      1: Step Time =    1.000,"P-11-1",           853,       99.8718,       73.3186,            0.,NA,NA,"",   2.15654E+06,   2.28264E+06,   2.28264E+06
C:/temp/Job-11.odb,Step-1,Increment      1: Step Time =    1.000,"P-11-1",           854,       99.3138,       62.9411,            0.,NA,NA,"",   1.33282E+06,   1.46853E+06,   1.46853E+06
C:/temp/Job-11.odb,Step-1,Increment      1: Step Time =    1.000,"P-11-1",           855,       179.897,       110.156,            0.,NA,NA,"",   894.988E+03,   954.051E+03,   954.051E+03
C:/temp/Job-11.odb,Step-1,Increment      1: Step Time =    1.000,"P-11-1",           856,       21.5625,       88.2877,            0.,NA,NA,"",   682.492E+03,   763.775E+03,   763.775E+03
C:/temp/Job-11.odb,Step-1,Increment      1: Step Time =    1.000,"P-11-1",           857,       109.607,       20.2779,            0.,NA,NA,"",   1.00011E+06,   1.01587E+06,   1.01587E+06
C:/temp/Job-11.odb,Step-1,Increment      1: Step Time =    1.000,"P-11-1",           858,       90.6050,       180.614,            0.,NA,NA,"",   1.01214E+06,   1.02625E+06,   1.02625E+06
C:/temp/Job-11.odb,Step-1,Increment      1: Step Time =    1.000,"P-11-1",           859,       100.404,       180.549,            0.,NA,NA,"",   994.452E+03,   1.01271E+06,   1.01271E+06
C:/temp/Job-11.odb,Step-1,Increment      1: Step Time =    1.000,"P-11-1",           860,       99.4407,       19.8232,            0.,NA,NA,"",   997.544E+03,   1.01583E+06,   1.01583E+06
C:/temp/Job-11.odb,Step-1,Increment      1: Step Time =    1.000,"P-11-1",           861,       19.8662,       100.786,            0.,NA,NA,"",   655.863E+03,   739.736E+03,   739.736E+03
C:/temp/Job-11.odb,Step-1,Increment      1: Step Time =    1.000,"P-11-1",           862,       179.544,       100.165,            0.,NA,NA,"",   878.851E+03,   941.955E+03,   941.955E+03
C:/temp/Job-11.odb,Step-1,Increment      1: Step Time =    1.000,"P-11-1",           863,       64.1394,       77.3488,            0.,NA,NA,"",   1.10775E+06,   1.00553E+06,   1.00553E+06
C:/temp/Job-11.odb,Step-1,Increment      1: Step Time =    1.000,"P-11-1",           864,       135.932,       122.688,            0.,NA,NA,"",   1.23841E+06,   1.08456E+06,   1.08456E+06
C:/temp/Job-11.odb,Step-1,Increment      1: Step Time =    1.000,"P-11-1",           865,       94.4093,       145.608,            0.,NA,NA,"",   1.19167E+06,   1.28534E+06,   1.28534E+06
C:/temp/Job-11.odb,Step-1,Increment      1: Step Time =    1.000,"P-11-1",           866,       58.1488,       88.0243,            0.,NA,NA,"",   700.181E+03,   676.237E+03,   676.237E+03
C:/temp/Job-11.odb,Step-1,Increment      1: Step Time =    1.000,"P-11-1",           867,       142.022,       112.018,            0.,NA,NA,"",   836.555E+03,   762.148E+03,   762.148E+03
C:/temp/Job-11.odb,Step-1,Increment      1: Step Time =    1.000,"P-11-1",           868,       108.271,       58.3764,            0.,NA,NA,"",   1.24958E+06,   1.34636E+06,   1.34636E+06
C:/temp/Job-11.odb,Step-1,Increment      1: Step Time =    1.000,"P-11-1",           869,       93.9376,       58.2672,            0.,NA,NA,"",   1.24776E+06,   1.35020E+06,   1.35020E+06
C:/temp/Job-11.odb,Step-1,Increment      1: Step Time =    1.000,"P-11-1",           870,       107.995,       141.753,            0.,NA,NA,"",   1.24742E+06,   1.34426E+06,   1.34426E+06
C:/temp/Job-11.odb,Step-1,Increment      1: Step Time =    1.000,"P-11-1",           871,       140.134,       180.128,            0.,NA,NA,"",   1.04614E+06,   1.03831E+06,   1.03831E+06
C:/temp/Job-11.odb,Step-1,Increment      1: Step Time =    1.000,"P-11-1",           872,       59.9974,       19.6841,            0.,NA,NA,"",   1.11414E+06,   1.10752E+06,   1.10752E+06
C:/temp/Job-11.odb,Step-1,Increment      1: Step Time =    1.000,"P-11-1",           873,       180.913,       139.579,            0.,NA,NA,"",   999.414E+03,   1.02172E+06,   1.02172E+06
C:/temp/Job-11.odb,Step-1,Increment      1: Step Time =    1.000,"P-11-1",           874,       179.834,       59.4842,            0.,NA,NA,"",   1.00724E+06,   1.02559E+06,   1.02559E+06
C:/temp/Job-11.odb,Step-1,Increment      1: Step Time =    1.000,"P-11-1",           875,       140.368,       18.3254,            0.,NA,NA,"",   1.03749E+06,   1.03070E+06,   1.03070E+06
C:/temp/Job-11.odb,Step-1,Increment      1: Step Time =    1.000,"P-11-1",           876,       18.4195,       140.532,            0.,NA,NA,"",   873.152E+03,   947.324E+03,   947.324E+03
C:/temp/Job-11.odb,Step-1,Increment      1: Step Time =    1.000,"P-11-1",           877,       61.2205,       181.315,            0.,NA,NA,"",   1.10560E+06,   1.09967E+06,   1.09967E+06
C:/temp/Job-11.odb,Step-1,Increment      1: Step Time =    1.000,"P-11-1",           878,       21.1745,       35.4327,            0.,NA,NA,"",   1.05486E+06,   1.10878E+06,   1.10878E+06
C:/temp/Job-11.odb,Step-1,Increment      1: Step Time =    1.000,"P-11-1",           879,       163.933,       180.962,            0.,NA,NA,"",   1.03094E+06,   1.02566E+06,   1.02566E+06
C:/temp/Job-11.odb,Step-1,Increment      1: Step Time =    1.000,"P-11-1",           880,       36.8768,       18.6638,            0.,NA,NA,"",   1.15623E+06,   1.15908E+06,   1.15908E+06
C:/temp/Job-11.odb,Step-1,Increment      1: Step Time =    1.000,"P-11-1",           881,       178.796,       164.618,            0.,NA,NA,"",   1.02533E+06,   1.02701E+06,   1.02701E+06
C:/temp/Job-11.odb,Step-1,Increment      1: Step Time =    1.000,"P-11-1",           882,       163.225,       20.1329,            0.,NA,NA,"",   1.03493E+06,   1.02882E+06,   1.02882E+06
C:/temp/Job-11.odb,Step-1,Increment      1: Step Time =    1.000,"P-11-1",           883,       181.873,       35.9551,            0.,NA,NA,"",   1.01736E+06,   1.02182E+06,   1.02182E+06
C:/temp/Job-11.odb,Step-1,Increment      1: Step Time =    1.000,"P-11-1",           884,       172.838,       180.976,            0.,NA,NA,"",   1.01921E+06,   1.01738E+06,   1.01738E+06
C:/temp/Job-11.odb,Step-1,Increment      1: Step Time =    1.000,"P-11-1",           885,       27.5801,       19.4569,            0.,NA,NA,"",   1.16816E+06,   1.18484E+06,   1.18484E+06
C:/temp/Job-11.odb,Step-1,Increment      1: Step Time =    1.000,"P-11-1",           886,       69.8021,       19.8297,            0.,NA,NA,"",   1.08573E+06,   1.08349E+06,   1.08349E+06
C:/temp/Job-11.odb,Step-1,Increment      1: Step Time =    1.000,"P-11-1",           887,       19.7313,       69.4078,            0.,NA,NA,"",   803.627E+03,   879.484E+03,   879.484E+03
C:/temp/Job-11.odb,Step-1,Increment      1: Step Time =    1.000,"P-11-1",           888,       180.396,       129.931,            0.,NA,NA,"",   973.140E+03,   1.00699E+06,   1.00699E+06
C:/temp/Job-11.odb,Step-1,Increment      1: Step Time =    1.000,"P-11-1",           889,       180.469,       27.3021,            0.,NA,NA,"",   1.01543E+06,   1.01707E+06,   1.01707E+06
C:/temp/Job-11.odb,Step-1,Increment      1: Step Time =    1.000,"P-11-1",           890,       130.378,       180.105,            0.,NA,NA,"",   1.03521E+06,   1.03312E+06,   1.03312E+06
C:/temp/Job-11.odb,Step-1,Increment      1: Step Time =    1.000,"P-11-1",           891,       179.643,       69.5283,            0.,NA,NA,"",   977.177E+03,   1.00816E+06,   1.00816E+06
C:/temp/Job-11.odb,Step-1,Increment      1: Step Time =    1.000,"P-11-1",           892,       18.2611,       164.853,            0.,NA,NA,"",   1.04184E+06,   1.10524E+06,   1.10524E+06
C:/temp/Job-11.odb,Step-1,Increment      1: Step Time =    1.000,"P-11-1",           893,       130.681,       19.4907,            0.,NA,NA,"",   1.03282E+06,   1.03070E+06,   1.03070E+06
C:/temp/Job-11.odb,Step-1,Increment      1: Step Time =    1.000,"P-11-1",           894,       35.6831,       178.326,            0.,NA,NA,"",   1.15570E+06,   1.16152E+06,   1.16152E+06
C:/temp/Job-11.odb,Step-1,Increment      1: Step Time =    1.000,"P-11-1",           895,       18.1849,       131.692,            0.,NA,NA,"",   807.642E+03,   885.449E+03,   885.449E+03
C:/temp/Job-11.odb,Step-1,Increment      1: Step Time =    1.000,"P-11-1",           896,       18.1428,       173.397,            0.,NA,NA,"",   1.10149E+06,   1.15669E+06,   1.15669E+06
C:/temp/Job-11.odb,Step-1,Increment      1: Step Time =    1.000,"P-11-1",           897,       21.0872,       82.3134,            0.,NA,NA,"",   716.344E+03,   796.245E+03,   796.245E+03
C:/temp/Job-11.odb,Step-1,Increment      1: Step Time =    1.000,"P-11-1",           898,       180.180,       120.071,            0.,NA,NA,"",   934.633E+03,   982.086E+03,   982.086E+03
C:/temp/Job-11.odb,Step-1,Increment      1: Step Time =    1.000,"P-11-1",           899,       120.190,       19.9557,            0.,NA,NA,"",   1.01552E+06,   1.02272E+06,   1.02272E+06
C:/temp/Job-11.odb,Step-1,Increment      1: Step Time =    1.000,"P-11-1",           900,       20.5061,       119.987,            0.,NA,NA,"",   729.433E+03,   808.970E+03,   808.970E+03
C:/temp/Job-11.odb,Step-1,Increment      1: Step Time =    1.000,"P-11-1",           901,       70.6738,       180.691,            0.,NA,NA,"",   1.08110E+06,   1.07971E+06,   1.07971E+06
C:/temp/Job-11.odb,Step-1,Increment      1: Step Time =    1.000,"P-11-1",           902,       80.5867,       180.306,            0.,NA,NA,"",   1.04653E+06,   1.05351E+06,   1.05351E+06
C:/temp/Job-11.odb,Step-1,Increment      1: Step Time =    1.000,"P-11-1",           903,       20.8352,       109.991,            0.,NA,NA,"",   674.845E+03,   757.064E+03,   757.064E+03
C:/temp/Job-11.odb,Step-1,Increment      1: Step Time =    1.000,"P-11-1",           904,       67.7755,       98.9861,            0.,NA,NA,"",   306.691E+03,   77.1644E+03,   77.1644E+03
C:/temp/Job-11.odb,Step-1,Increment      1: Step Time =    1.000,"P-11-1",           905,       132.422,       101.097,            0.,NA,NA,"",   389.706E+03,   79.7151E+03,   79.7151E+03
C:/temp/Job-11.odb,Step-1,Increment      1: Step Time =    1.000,"P-11-1",           906,       26.0735,       178.603,            0.,NA,NA,"",   1.16059E+06,   1.18282E+06,   1.18282E+06
C:/temp/Job-11.odb,Step-1,Increment      1: Step Time =    1.000,"P-11-1",           907,       173.028,       20.5923,            0.,NA,NA,"",   1.02211E+06,   1.01987E+06,   1.01987E+06
C:/temp/Job-11.odb,Step-1,Increment      1: Step Time =    1.000,"P-11-1",           908,       179.042,       173.731,            0.,NA,NA,"",   1.01826E+06,   1.01875E+06,   1.01875E+06
C:/temp/Job-11.odb,Step-1,Increment      1: Step Time =    1.000,"P-11-1",           909,       20.8694,       26.4396,            0.,NA,NA,"",   1.11596E+06,   1.16137E+06,   1.16137E+06
C:/temp/Job-11.odb,Step-1,Increment      1: Step Time =    1.000,"P-11-1",           910,       112.811,       141.145,            0.,NA,NA,"",   1.29583E+06,   1.36247E+06,   1.36247E+06
C:/temp/Job-11.odb,Step-1,Increment      1: Step Time =    1.000,"P-11-1",           911,       89.3937,       57.9831,            0.,NA,NA,"",   1.27757E+06,   1.35522E+06,   1.35522E+06
C:/temp/Job-11.odb,Step-1,Increment      1: Step Time =    1.000,"P-11-1",           912,       112.000,       58.6385,            0.,NA,NA,"",   1.28429E+06,   1.35595E+06,   1.35595E+06
C:/temp/Job-11.odb,Step-1,Increment      1: Step Time =    1.000,"P-11-1",           913,       100.271,       126.858,            0.,NA,NA,"",   2.13542E+06,   2.26319E+06,   2.26319E+06
C:/temp/Job-11.odb,Step-1,Increment      1: Step Time =    1.000,"P-11-1",           914,       87.7788,       143.777,            0.,NA,NA,"",   1.27028E+06,   1.33151E+06,   1.33151E+06
C:/temp/Job-11.odb,Step-1,Increment      1: Step Time =    1.000,"P-11-1",           915,       131.113,       120.415,            0.,NA,NA,"",   1.26367E+06,   1.07714E+06,   1.07714E+06
C:/temp/Job-11.odb,Step-1,Increment      1: Step Time =    1.000,"P-11-1",           916,       68.9676,       79.5795,            0.,NA,NA,"",   1.13935E+06,   1.00185E+06,   1.00185E+06
C:/temp/Job-11.odb,Step-1,Increment      1: Step Time =    1.000,"P-11-1",           917,       121.137,       127.318,            0.,NA,NA,"",   1.48983E+06,   1.42284E+06,   1.42284E+06
C:/temp/Job-11.odb,Step-1,Increment      1: Step Time =    1.000,"P-11-1",           918,       79.0274,       72.4216,            0.,NA,NA,"",   1.43206E+06,   1.37972E+06,   1.37972E+06
C:/temp/Job-11.odb,Step-1,Increment      1: Step Time =    1.000,"P-11-1",           919,       120.456,       74.5535,            0.,NA,NA,"",   1.46088E+06,   1.39072E+06,   1.39072E+06
C:/temp/Job-11.odb,Step-1,Increment      1: Step Time =    1.000,"P-11-1",           920,       77.2738,       125.234,            0.,NA,NA,"",   1.35267E+06,   1.28194E+06,   1.28194E+06
C:/temp/Job-11.odb,Step-1,Increment      1: Step Time =    1.000,"P-11-1",           921,       78.5987,       141.660,            0.,NA,NA,"",   1.33102E+06,   1.32794E+06,   1.32794E+06
C:/temp/Job-11.odb,Step-1,Increment      1: Step Time =    1.000,"P-11-1",           922,       121.771,       63.1454,            0.,NA,NA,"",   1.42170E+06,   1.39223E+06,   1.39223E+06
C:/temp/Job-11.odb,Step-1,Increment      1: Step Time =    1.000,"P-11-1",           923,       79.7056,       60.5610,            0.,NA,NA,"",   1.36518E+06,   1.36259E+06,   1.36259E+06
C:/temp/Job-11.odb,Step-1,Increment      1: Step Time =    1.000,"P-11-1",           924,       120.209,       138.075,            0.,NA,NA,"",   1.39924E+06,   1.39201E+06,   1.39201E+06
C:/temp/Job-11.odb,Step-1,Increment      1: Step Time =    1.000,"P-11-1",           925,       69.2263,       105.476,            0.,NA,NA,"",   421.175E+03,   54.7203E+03,   54.7203E+03
C:/temp/Job-11.odb,Step-1,Increment      1: Step Time =    1.000,"P-11-1",           926,       131.175,       94.5400,            0.,NA,NA,"",   516.282E+03,   233.654E+03,   233.654E+03
C:/temp/Job-11.odb,Step-1,Increment      1: Step Time =    1.000,"P-11-1",           927,       102.026,       137.336,            0.,NA,NA,"",   1.32110E+06,   1.45576E+06,   1.45576E+06
C:/temp/Job-11.odb,Step-1,Increment      1: Step Time =    1.000,"P-11-1",           928,       110.381,       175.144,            0.,NA,NA,"",   1.02435E+06,   1.04550E+06,   1.04550E+06
C:/temp/Job-11.odb,Step-1,Increment      1: Step Time =    1.000,"P-11-1",           929,       174.353,       90.0415,            0.,NA,NA,"",   882.004E+03,   929.198E+03,   929.198E+03
C:/temp/Job-11.odb,Step-1,Increment      1: Step Time =    1.000,"P-11-1",           930,       26.2413,       109.479,            0.,NA,NA,"",   668.014E+03,   745.879E+03,   745.879E+03
C:/temp/Job-11.odb,Step-1,Increment      1: Step Time =    1.000,"P-11-1",           931,       89.2995,       24.1764,            0.,NA,NA,"",   1.03954E+06,   1.05882E+06,   1.05882E+06
C:/temp/Job-11.odb,Step-1,Increment      1: Step Time =    1.000,"P-11-1",           932,       174.328,       79.7297,            0.,NA,NA,"",   938.788E+03,   971.046E+03,   971.046E+03
C:/temp/Job-11.odb,Step-1,Increment      1: Step Time =    1.000,"P-11-1",           933,       23.8615,       121.291,            0.,NA,NA,"",   746.126E+03,   820.706E+03,   820.706E+03
C:/temp/Job-11.odb,Step-1,Increment      1: Step Time =    1.000,"P-11-1",           934,       120.637,       175.079,            0.,NA,NA,"",   1.04561E+06,   1.05478E+06,   1.05478E+06
C:/temp/Job-11.odb,Step-1,Increment      1: Step Time =    1.000,"P-11-1",           935,       120.324,       24.8651,            0.,NA,NA,"",   1.04409E+06,   1.05393E+06,   1.05393E+06
C:/temp/Job-11.odb,Step-1,Increment      1: Step Time =    1.000,"P-11-1",           936,       175.238,       120.015,            0.,NA,NA,"",   939.169E+03,   973.890E+03,   973.890E+03
C:/temp/Job-11.odb,Step-1,Increment      1: Step Time =    1.000,"P-11-1",           937,       24.1535,       80.3321,            0.,NA,NA,"",   734.628E+03,   809.779E+03,   809.779E+03
C:/temp/Job-11.odb,Step-1,Increment      1: Step Time =    1.000,"P-11-1",           938,       79.4752,       24.4429,            0.,NA,NA,"",   1.07710E+06,   1.08601E+06,   1.08601E+06
C:/temp/Job-11.odb,Step-1,Increment      1: Step Time =    1.000,"P-11-1",           939,       100.415,       176.050,            0.,NA,NA,"",   1.01546E+06,   1.04157E+06,   1.04157E+06
C:/temp/Job-11.odb,Step-1,Increment      1: Step Time =    1.000,"P-11-1",           940,       174.222,       100.315,            0.,NA,NA,"",   858.831E+03,   911.752E+03,   911.752E+03
C:/temp/Job-11.odb,Step-1,Increment      1: Step Time =    1.000,"P-11-1",           941,       98.9021,       24.6197,            0.,NA,NA,"",   1.01982E+06,   1.04603E+06,   1.04603E+06
C:/temp/Job-11.odb,Step-1,Increment      1: Step Time =    1.000,"P-11-1",           942,       61.6409,       176.580,            0.,NA,NA,"",   1.12532E+06,   1.11774E+06,   1.11774E+06
C:/temp/Job-11.odb,Step-1,Increment      1: Step Time =    1.000,"P-11-1",           943,       23.0549,       140.448,            0.,NA,NA,"",   897.085E+03,   960.792E+03,   960.792E+03
C:/temp/Job-11.odb,Step-1,Increment      1: Step Time =    1.000,"P-11-1",           944,       141.880,       22.3217,            0.,NA,NA,"",   1.06124E+06,   1.05086E+06,   1.05086E+06
C:/temp/Job-11.odb,Step-1,Increment      1: Step Time =    1.000,"P-11-1",           945,       174.790,       59.2489,            0.,NA,NA,"",   1.03239E+06,   1.03772E+06,   1.03772E+06
C:/temp/Job-11.odb,Step-1,Increment      1: Step Time =    1.000,"P-11-1",           946,       60.0368,       24.5479,            0.,NA,NA,"",   1.13673E+06,   1.12747E+06,   1.12747E+06
C:/temp/Job-11.odb,Step-1,Increment      1: Step Time =    1.000,"P-11-1",           947,       175.944,       139.627,            0.,NA,NA,"",   1.02166E+06,   1.03178E+06,   1.03178E+06
C:/temp/Job-11.odb,Step-1,Increment      1: Step Time =    1.000,"P-11-1",           948,       140.174,       175.222,            0.,NA,NA,"",   1.07528E+06,   1.06344E+06,   1.06344E+06
C:/temp/Job-11.odb,Step-1,Increment      1: Step Time =    1.000,"P-11-1",           949,       21.8268,       58.4967,            0.,NA,NA,"",   902.287E+03,   967.462E+03,   967.462E+03
C:/temp/Job-11.odb,Step-1,Increment      1: Step Time =    1.000,"P-11-1",           950,       71.9705,       119.611,            0.,NA,NA,"",   1.16618E+06,   1.00910E+06,   1.00910E+06
C:/temp/Job-11.odb,Step-1,Increment      1: Step Time =    1.000,"P-11-1",           951,       22.7415,       128.125,            0.,NA,NA,"",   797.252E+03,   868.876E+03,   868.876E+03
C:/temp/Job-11.odb,Step-1,Increment      1: Step Time =    1.000,"P-11-1",           952,       130.478,       175.215,            0.,NA,NA,"",   1.06568E+06,   1.06219E+06,   1.06219E+06
C:/temp/Job-11.odb,Step-1,Increment      1: Step Time =    1.000,"P-11-1",           953,       174.486,       69.3595,            0.,NA,NA,"",   996.463E+03,   1.01271E+06,   1.01271E+06
C:/temp/Job-11.odb,Step-1,Increment      1: Step Time =    1.000,"P-11-1",           954,       69.7687,       24.9016,            0.,NA,NA,"",   1.11413E+06,   1.11092E+06,   1.11092E+06
C:/temp/Job-11.odb,Step-1,Increment      1: Step Time =    1.000,"P-11-1",           955,       134.025,       128.967,            0.,NA,NA,"",   1.34890E+06,   1.21526E+06,   1.21526E+06
C:/temp/Job-11.odb,Step-1,Increment      1: Step Time =    1.000,"P-11-1",           956,       65.9736,       70.9971,            0.,NA,NA,"",   1.24442E+06,   1.15212E+06,   1.15212E+06
C:/temp/Job-11.odb,Step-1,Increment      1: Step Time =    1.000,"P-11-1",           957,       89.9478,       52.8939,            0.,NA,NA,"",   1.20411E+06,   1.27644E+06,   1.27644E+06
C:/temp/Job-11.odb,Step-1,Increment      1: Step Time =    1.000,"P-11-1",           958,       111.845,       54.1722,            0.,NA,NA,"",   1.22238E+06,   1.28730E+06,   1.28730E+06
C:/temp/Job-11.odb,Step-1,Increment      1: Step Time =    1.000,"P-11-1",           959,       108.846,       146.545,            0.,NA,NA,"",   1.18794E+06,   1.26868E+06,   1.26868E+06
C:/temp/Job-11.odb,Step-1,Increment      1: Step Time =    1.000,"P-11-1",           960,       36.6070,       172.170,            0.,NA,NA,"",   1.14559E+06,   1.15344E+06,   1.15344E+06
C:/temp/Job-11.odb,Step-1,Increment      1: Step Time =    1.000,"P-11-1",           961,       24.1567,       164.931,            0.,NA,NA,"",   1.07755E+06,   1.12122E+06,   1.12122E+06
C:/temp/Job-11.odb,Step-1,Increment      1: Step Time =    1.000,"P-11-1",           962,       90.4009,       148.283,            0.,NA,NA,"",   1.19290E+06,   1.26444E+06,   1.26444E+06
C:/temp/Job-11.odb,Step-1,Increment      1: Step Time =    1.000,"P-11-1",           963,       162.808,       25.1840,            0.,NA,NA,"",   1.05037E+06,   1.04131E+06,   1.04131E+06
C:/temp/Job-11.odb,Step-1,Increment      1: Step Time =    1.000,"P-11-1",           964,       177.134,       33.1735,            0.,NA,NA,"",   1.02768E+06,   1.02776E+06,   1.02776E+06
C:/temp/Job-11.odb,Step-1,Increment      1: Step Time =    1.000,"P-11-1",           965,       172.909,       163.941,            0.,NA,NA,"",   1.04544E+06,   1.04082E+06,   1.04082E+06
C:/temp/Job-11.odb,Step-1,Increment      1: Step Time =    1.000,"P-11-1",           966,       33.1198,       23.2230,            0.,NA,NA,"",   1.15347E+06,   1.16454E+06,   1.16454E+06
C:/temp/Job-11.odb,Step-1,Increment      1: Step Time =    1.000,"P-11-1",           967,       25.6782,       35.2827,            0.,NA,NA,"",   1.08005E+06,   1.11986E+06,   1.11986E+06
C:/temp/Job-11.odb,Step-1,Increment      1: Step Time =    1.000,"P-11-1",           968,       168.182,       178.243,            0.,NA,NA,"",   1.03088E+06,   1.02644E+06,   1.02644E+06
C:/temp/Job-11.odb,Step-1,Increment      1: Step Time =    1.000,"P-11-1",           969,       26.7346,       173.651,            0.,NA,NA,"",   1.13393E+06,   1.16171E+06,   1.16171E+06
C:/temp/Job-11.odb,Step-1,Increment      1: Step Time =    1.000,"P-11-1",           970,       171.941,       25.1801,            0.,NA,NA,"",   1.03124E+06,   1.02773E+06,   1.02773E+06
C:/temp/Job-11.odb,Step-1,Increment      1: Step Time =    1.000,"P-11-1",           971,       174.478,       173.080,            0.,NA,NA,"",   1.02858E+06,   1.02627E+06,   1.02627E+06
C:/temp/Job-11.odb,Step-1,Increment      1: Step Time =    1.000,"P-11-1",           972,       25.1535,       27.3511,            0.,NA,NA,"",   1.12555E+06,   1.15831E+06,   1.15831E+06
C:/temp/Job-11.odb,Step-1,Increment      1: Step Time =    1.000,"P-11-1",           973,       14.6866,       58.3996,            0.,NA,NA,"",   862.425E+03,   944.155E+03,   944.155E+03
C:/temp/Job-11.odb,Step-1,Increment      1: Step Time =    1.000,"P-11-1",           974,       55.2306,       14.6178,            0.,NA,NA,"",   1.10373E+06,   1.09921E+06,   1.09921E+06
C:/temp/Job-11.odb,Step-1,Increment      1: Step Time =    1.000,"P-11-1",           975,       144.932,       185.148,            0.,NA,NA,"",   1.02250E+06,   1.01701E+06,   1.01701E+06
C:/temp/Job-11.odb,Step-1,Increment      1: Step Time =    1.000,"P-11-1",           976,       17.3938,       40.3727,            0.,NA,NA,"",   998.292E+03,   1.06727E+06,   1.06727E+06
C:/temp/Job-11.odb,Step-1,Increment      1: Step Time =    1.000,"P-11-1",           977,       186.166,       144.194,            0.,NA,NA,"",   987.186E+03,   1.01485E+06,   1.01485E+06
C:/temp/Job-11.odb,Step-1,Increment      1: Step Time =    1.000,"P-11-1",           978,       159.330,       185.495,            0.,NA,NA,"",   1.02212E+06,   1.01781E+06,   1.01781E+06
C:/temp/Job-11.odb,Step-1,Increment      1: Step Time =    1.000,"P-11-1",           979,       41.0445,       14.1087,            0.,NA,NA,"",   1.14179E+06,   1.14092E+06,   1.14092E+06
C:/temp/Job-11.odb,Step-1,Increment      1: Step Time =    1.000,"P-11-1",           980,       179.087,       160.436,            0.,NA,NA,"",   1.02626E+06,   1.02937E+06,   1.02937E+06
C:/temp/Job-11.odb,Step-1,Increment      1: Step Time =    1.000,"P-11-1",           981,       185.039,       54.7573,            0.,NA,NA,"",   993.820E+03,   1.01790E+06,   1.01790E+06
C:/temp/Job-11.odb,Step-1,Increment      1: Step Time =    1.000,"P-11-1",           982,       144.452,       13.6853,            0.,NA,NA,"",   1.01771E+06,   1.01281E+06,   1.01281E+06
C:/temp/Job-11.odb,Step-1,Increment      1: Step Time =    1.000,"P-11-1",           983,       185.831,       40.4055,            0.,NA,NA,"",   1.00510E+06,   1.01588E+06,   1.01588E+06
C:/temp/Job-11.odb,Step-1,Increment      1: Step Time =    1.000,"P-11-1",           984,       158.684,       15.0381,            0.,NA,NA,"",   1.02377E+06,   1.01909E+06,   1.01909E+06
C:/temp/Job-11.odb,Step-1,Increment      1: Step Time =    1.000,"P-11-1",           985,       14.0635,       145.197,            0.,NA,NA,"",   882.706E+03,   964.871E+03,   964.871E+03
C:/temp/Job-11.odb,Step-1,Increment      1: Step Time =    1.000,"P-11-1",           986,       14.6741,       159.753,            0.,NA,NA,"",   982.665E+03,   1.05991E+06,   1.05991E+06
C:/temp/Job-11.odb,Step-1,Increment      1: Step Time =    1.000,"P-11-1",           987,       98.6116,       57.8439,            0.,NA,NA,"",   1.22066E+06,   1.33523E+06,   1.33523E+06
C:/temp/Job-11.odb,Step-1,Increment      1: Step Time =    1.000,"P-11-1",           988,       40.0130,       178.716,            0.,NA,NA,"",   1.15201E+06,   1.15260E+06,   1.15260E+06
C:/temp/Job-11.odb,Step-1,Increment      1: Step Time =    1.000,"P-11-1",           989,       56.2865,       186.228,            0.,NA,NA,"",   1.09664E+06,   1.09258E+06,   1.09258E+06
C:/temp/Job-11.odb,Step-1,Increment      1: Step Time =    1.000,"P-11-1",           990,       135.619,       88.9167,            0.,NA,NA,"",   821.240E+03,   681.906E+03,   681.906E+03
C:/temp/Job-11.odb,Step-1,Increment      1: Step Time =    1.000,"P-11-1",           991,       65.0773,       112.007,            0.,NA,NA,"",   761.004E+03,   658.105E+03,   658.105E+03
C:/temp/Job-11.odb,Step-1,Increment      1: Step Time =    1.000,"P-11-1",           992,       142.684,       106.204,            0.,NA,NA,"",   616.995E+03,   591.729E+03,   591.729E+03
C:/temp/Job-11.odb,Step-1,Increment      1: Step Time =    1.000,"P-11-1",           993,       57.5761,       93.8069,            0.,NA,NA,"",   499.305E+03,   513.447E+03,   513.447E+03
C:/temp/Job-11.odb,Step-1,Increment      1: Step Time =    1.000,"P-11-1",           994,       103.197,       56.5964,            0.,NA,NA,"",   1.20179E+06,   1.31323E+06,   1.31323E+06
C:/temp/Job-11.odb,Step-1,Increment      1: Step Time =    1.000,"P-11-1",           995,       98.5559,       143.750,            0.,NA,NA,"",   1.19546E+06,   1.30426E+06,   1.30426E+06
C:/temp/Job-11.odb,Step-1,Increment      1: Step Time =    1.000,"P-11-1",           996,       103.172,       142.525,            0.,NA,NA,"",   1.21119E+06,   1.32319E+06,   1.32319E+06
C:/temp/Job-11.odb,Step-1,Increment      1: Step Time =    1.000,"P-11-1",           997,       70.5717,       110.648,            0.,NA,NA,"",   722.421E+03,   394.358E+03,   394.358E+03
C:/temp/Job-11.odb,Step-1,Increment      1: Step Time =    1.000,"P-11-1",           998,       130.341,       88.9027,            0.,NA,NA,"",   848.967E+03,   629.770E+03,   629.770E+03
C:/temp/Job-11.odb,Step-1,Increment      1: Step Time =    1.000,"P-11-1",           999,       179.541,       79.7397,            0.,NA,NA,"",   934.610E+03,   980.472E+03,   980.472E+03
C:/temp/Job-11.odb,Step-1,Increment      1: Step Time =    1.000,"P-11-1",          1000,       120.476,       180.025,            0.,NA,NA,"",   1.01686E+06,   1.02350E+06,   1.02350E+06
C:/temp/Job-11.odb,Step-1,Increment      1: Step Time =    1.000,"P-11-1",          1001,       79.5038,       19.6833,            0.,NA,NA,"",   1.04998E+06,   1.05607E+06,   1.05607E+06
C:/temp/Job-11.odb,Step-1,Increment      1: Step Time =    1.000,"P-11-1",          1002,       179.532,       89.9836,            0.,NA,NA,"",   894.298E+03,   952.671E+03,   952.671E+03
C:/temp/Job-11.odb,Step-1,Increment      1: Step Time =    1.000,"P-11-1",          1003,       21.8244,       114.381,            0.,NA,NA,"",   695.940E+03,   776.058E+03,   776.058E+03
C:/temp/Job-11.odb,Step-1,Increment      1: Step Time =    1.000,"P-11-1",          1004,       110.378,       180.109,            0.,NA,NA,"",   999.903E+03,   1.01448E+06,   1.01448E+06
C:/temp/Job-11.odb,Step-1,Increment      1: Step Time =    1.000,"P-11-1",          1005,       89.4201,       19.5584,            0.,NA,NA,"",   1.01676E+06,   1.03041E+06,   1.03041E+06
C:/temp/Job-11.odb,Step-1,Increment      1: Step Time =    1.000,"P-11-1",          1006,       81.7053,       56.1686,            0.,NA,NA,"",   1.30699E+06,   1.32875E+06,   1.32875E+06
C:/temp/Job-11.odb,Step-1,Increment      1: Step Time =    1.000,"P-11-1",          1007,       116.781,       58.4497,            0.,NA,NA,"",   1.32171E+06,   1.35455E+06,   1.35455E+06
C:/temp/Job-11.odb,Step-1,Increment      1: Step Time =    1.000,"P-11-1",          1008,       81.1998,       143.956,            0.,NA,NA,"",   1.29767E+06,   1.31308E+06,   1.31308E+06
C:/temp/Job-11.odb,Step-1,Increment      1: Step Time =    1.000,"P-11-1",          1009,       123.863,       122.750,            0.,NA,NA,"",   1.41483E+06,   1.27299E+06,   1.27299E+06
C:/temp/Job-11.odb,Step-1,Increment      1: Step Time =    1.000,"P-11-1",          1010,       76.2235,       77.1393,            0.,NA,NA,"",   1.32473E+06,   1.21075E+06,   1.21075E+06
C:/temp/Job-11.odb,Step-1,Increment      1: Step Time =    1.000,"P-11-1",          1011,       122.678,       134.196,            0.,NA,NA,"",   1.44027E+06,   1.39095E+06,   1.39095E+06
C:/temp/Job-11.odb,Step-1,Increment      1: Step Time =    1.000,"P-11-1",          1012,       77.3934,       65.1490,            0.,NA,NA,"",   1.39910E+06,   1.36282E+06,   1.36282E+06
C:/temp/Job-11.odb,Step-1,Increment      1: Step Time =    1.000,"P-11-1",          1013,       122.518,       68.5097,            0.,NA,NA,"",   1.46999E+06,   1.40706E+06,   1.40706E+06
C:/temp/Job-11.odb,Step-1,Increment      1: Step Time =    1.000,"P-11-1",          1014,       75.6733,       131.297,            0.,NA,NA,"",   1.41116E+06,   1.35105E+06,   1.35105E+06
C:/temp/Job-11.odb,Step-1,Increment      1: Step Time =    1.000,"P-11-1",          1015,       125.636,       76.7133,            0.,NA,NA,"",   1.39542E+06,   1.24815E+06,   1.24815E+06
C:/temp/Job-11.odb,Step-1,Increment      1: Step Time =    1.000,"P-11-1",          1016,       74.1393,       143.336,            0.,NA,NA,"",   1.31243E+06,   1.29249E+06,   1.29249E+06
C:/temp/Job-11.odb,Step-1,Increment      1: Step Time =    1.000,"P-11-1",          1017,       122.117,       58.0361,            0.,NA,NA,"",   1.34425E+06,   1.33359E+06,   1.33359E+06
C:/temp/Job-11.odb,Step-1,Increment      1: Step Time =    1.000,"P-11-1",          1018,       102.151,       51.9181,            0.,NA,NA,"",   1.14749E+06,   1.24308E+06,   1.24308E+06
C:/temp/Job-11.odb,Step-1,Increment      1: Step Time =    1.000,"P-11-1",          1019,       9.24600,       56.7428,            0.,NA,NA,"",   848.374E+03,   939.928E+03,   939.928E+03
C:/temp/Job-11.odb,Step-1,Increment      1: Step Time =    1.000,"P-11-1",          1020,       190.809,       144.389,            0.,NA,NA,"",   972.509E+03,   1.00756E+06,   1.00756E+06
C:/temp/Job-11.odb,Step-1,Increment      1: Step Time =    1.000,"P-11-1",          1021,       144.678,       9.26086,            0.,NA,NA,"",   997.543E+03,   995.052E+03,   995.052E+03
C:/temp/Job-11.odb,Step-1,Increment      1: Step Time =    1.000,"P-11-1",          1022,       55.9057,       190.814,            0.,NA,NA,"",   1.07800E+06,   1.07579E+06,   1.07579E+06
C:/temp/Job-11.odb,Step-1,Increment      1: Step Time =    1.000,"P-11-1",          1023,       94.1793,       24.1205,            0.,NA,NA,"",   1.02602E+06,   1.04936E+06,   1.04936E+06
C:/temp/Job-11.odb,Step-1,Increment      1: Step Time =    1.000,"P-11-1",          1024,       25.7912,       105.064,            0.,NA,NA,"",   652.940E+03,   732.359E+03,   732.359E+03
C:/temp/Job-11.odb,Step-1,Increment      1: Step Time =    1.000,"P-11-1",          1025,       174.284,       95.1689,            0.,NA,NA,"",   864.119E+03,   915.739E+03,   915.739E+03
C:/temp/Job-11.odb,Step-1,Increment      1: Step Time =    1.000,"P-11-1",          1026,       105.254,       175.409,            0.,NA,NA,"",   1.01755E+06,   1.04230E+06,   1.04230E+06
C:/temp/Job-11.odb,Step-1,Increment      1: Step Time =    1.000,"P-11-1",          1027,       84.3104,       24.4781,            0.,NA,NA,"",   1.05669E+06,   1.07153E+06,   1.07153E+06
C:/temp/Job-11.odb,Step-1,Increment      1: Step Time =    1.000,"P-11-1",          1028,       175.222,       115.163,            0.,NA,NA,"",   910.789E+03,   952.628E+03,   952.628E+03
C:/temp/Job-11.odb,Step-1,Increment      1: Step Time =    1.000,"P-11-1",          1029,       26.3315,       82.2284,            0.,NA,NA,"",   721.543E+03,   794.904E+03,   794.904E+03
C:/temp/Job-11.odb,Step-1,Increment      1: Step Time =    1.000,"P-11-1",          1030,       114.873,       25.2529,            0.,NA,NA,"",   1.03369E+06,   1.05111E+06,   1.05111E+06
C:/temp/Job-11.odb,Step-1,Increment      1: Step Time =    1.000,"P-11-1",          1031,       115.571,       175.079,            0.,NA,NA,"",   1.03405E+06,   1.04975E+06,   1.04975E+06
C:/temp/Job-11.odb,Step-1,Increment      1: Step Time =    1.000,"P-11-1",          1032,       26.8044,       113.633,            0.,NA,NA,"",   691.061E+03,   766.310E+03,   766.310E+03
C:/temp/Job-11.odb,Step-1,Increment      1: Step Time =    1.000,"P-11-1",          1033,       174.341,       84.9171,            0.,NA,NA,"",    908.28E+03,   948.701E+03,   948.701E+03
C:/temp/Job-11.odb,Step-1,Increment      1: Step Time =    1.000,"P-11-1",          1034,       64.8644,       24.4870,            0.,NA,NA,"",   1.12644E+06,   1.11939E+06,   1.11939E+06
C:/temp/Job-11.odb,Step-1,Increment      1: Step Time =    1.000,"P-11-1",          1035,       25.3126,       64.9893,            0.,NA,NA,"",   867.507E+03,   928.672E+03,   928.672E+03
C:/temp/Job-11.odb,Step-1,Increment      1: Step Time =    1.000,"P-11-1",          1036,       175.564,       134.747,            0.,NA,NA,"",   1.00897E+06,   1.02324E+06,   1.02324E+06
C:/temp/Job-11.odb,Step-1,Increment      1: Step Time =    1.000,"P-11-1",          1037,       135.297,       175.287,            0.,NA,NA,"",   1.07231E+06,   1.06394E+06,   1.06394E+06
C:/temp/Job-11.odb,Step-1,Increment      1: Step Time =    1.000,"P-11-1",          1038,       174.625,       64.2916,            0.,NA,NA,"",   1.01757E+06,   1.02766E+06,   1.02766E+06
C:/temp/Job-11.odb,Step-1,Increment      1: Step Time =    1.000,"P-11-1",          1039,       63.3451,       65.0227,            0.,NA,NA,"",   1.24812E+06,   1.18016E+06,   1.18016E+06
C:/temp/Job-11.odb,Step-1,Increment      1: Step Time =    1.000,"P-11-1",          1040,       136.451,       134.933,            0.,NA,NA,"",   1.33585E+06,   1.23133E+06,   1.23133E+06
C:/temp/Job-11.odb,Step-1,Increment      1: Step Time =    1.000,"P-11-1",          1041,       136.882,       24.7038,            0.,NA,NA,"",   1.07331E+06,   1.06387E+06,   1.06387E+06
C:/temp/Job-11.odb,Step-1,Increment      1: Step Time =    1.000,"P-11-1",          1042,       27.2030,       136.101,            0.,NA,NA,"",   884.561E+03,   941.072E+03,   941.072E+03
C:/temp/Job-11.odb,Step-1,Increment      1: Step Time =    1.000,"P-11-1",          1043,       62.6648,       171.497,            0.,NA,NA,"",   1.14902E+06,   1.13942E+06,   1.13942E+06
C:/temp/Job-11.odb,Step-1,Increment      1: Step Time =    1.000,"P-11-1",          1044,       29.6629,       31.2718,            0.,NA,NA,"",   1.11747E+06,   1.14260E+06,   1.14260E+06
C:/temp/Job-11.odb,Step-1,Increment      1: Step Time =    1.000,"P-11-1",          1045,       169.797,       173.696,            0.,NA,NA,"",   1.03782E+06,   1.03271E+06,   1.03271E+06
C:/temp/Job-11.odb,Step-1,Increment      1: Step Time =    1.000,"P-11-1",          1046,       167.703,       165.927,            0.,NA,NA,"",   1.06026E+06,   1.05042E+06,   1.05042E+06
C:/temp/Job-11.odb,Step-1,Increment      1: Step Time =    1.000,"P-11-1",          1047,       167.394,       30.2654,            0.,NA,NA,"",   1.05291E+06,   1.04443E+06,   1.04443E+06
C:/temp/Job-11.odb,Step-1,Increment      1: Step Time =    1.000,"P-11-1",          1048,       26.4610,       168.918,            0.,NA,NA,"",   1.10797E+06,   1.14201E+06,   1.14201E+06
C:/temp/Job-11.odb,Step-1,Increment      1: Step Time =    1.000,"P-11-1",          1049,       34.8957,       166.540,            0.,NA,NA,"",   1.12438E+06,   1.13906E+06,   1.13906E+06
C:/temp/Job-11.odb,Step-1,Increment      1: Step Time =    1.000,"P-11-1",          1050,       92.8374,       152.778,            0.,NA,NA,"",   1.13753E+06,   1.20814E+06,   1.20814E+06
C:/temp/Job-11.odb,Step-1,Increment      1: Step Time =    1.000,"P-11-1",          1051,       106.624,       50.6687,            0.,NA,NA,"",   1.15106E+06,   1.23419E+06,   1.23419E+06
C:/temp/Job-11.odb,Step-1,Increment      1: Step Time =    1.000,"P-11-1",          1052,       91.2080,       48.0378,            0.,NA,NA,"",   1.15268E+06,   1.21896E+06,   1.21896E+06
C:/temp/Job-11.odb,Step-1,Increment      1: Step Time =    1.000,"P-11-1",          1053,       109.548,       150.931,            0.,NA,NA,"",   1.15067E+06,   1.21840E+06,   1.21840E+06
C:/temp/Job-11.odb,Step-1,Increment      1: Step Time =    1.000,"P-11-1",          1054,       59.3537,       111.290,            0.,NA,NA,"",   671.429E+03,   643.853E+03,   643.853E+03
C:/temp/Job-11.odb,Step-1,Increment      1: Step Time =    1.000,"P-11-1",          1055,       140.637,       88.8044,            0.,NA,NA,"",   796.866E+03,   718.503E+03,   718.503E+03
C:/temp/Job-11.odb,Step-1,Increment      1: Step Time =    1.000,"P-11-1",          1056,       68.1408,       130.896,            0.,NA,NA,"",   1.29716E+06,   1.21175E+06,   1.21175E+06
C:/temp/Job-11.odb,Step-1,Increment      1: Step Time =    1.000,"P-11-1",          1057,       70.3269,       66.6896,            0.,NA,NA,"",   1.33529E+06,   1.25929E+06,   1.25929E+06
C:/temp/Job-11.odb,Step-1,Increment      1: Step Time =    1.000,"P-11-1",          1058,       129.573,       133.116,            0.,NA,NA,"",   1.40602E+06,   1.30283E+06,   1.30283E+06
C:/temp/Job-11.odb,Step-1,Increment      1: Step Time =    1.000,"P-11-1",          1059,       137.440,       98.3571,            0.,NA,NA,"",   418.427E+03,   387.232E+03,   387.232E+03
C:/temp/Job-11.odb,Step-1,Increment      1: Step Time =    1.000,"P-11-1",          1060,       148.332,       110.745,            0.,NA,NA,"",   794.363E+03,   769.526E+03,   769.526E+03
C:/temp/Job-11.odb,Step-1,Increment      1: Step Time =    1.000,"P-11-1",          1061,       62.8244,       101.771,            0.,NA,NA,"",   324.104E+03,   328.514E+03,   328.514E+03
C:/temp/Job-11.odb,Step-1,Increment      1: Step Time =    1.000,"P-11-1",          1062,       51.9090,       89.2240,            0.,NA,NA,"",   648.053E+03,   669.531E+03,   669.531E+03
C:/temp/Job-11.odb,Step-1,Increment      1: Step Time =    1.000,"P-11-1",          1063,       130.740,       66.1079,            0.,NA,NA,"",   1.39232E+06,   1.29331E+06,   1.29331E+06
C:/temp/Job-11.odb,Step-1,Increment      1: Step Time =    1.000,"P-11-1",          1064,       44.6787,       184.776,            0.,NA,NA,"",   1.13378E+06,   1.13182E+06,   1.13182E+06
C:/temp/Job-11.odb,Step-1,Increment      1: Step Time =    1.000,"P-11-1",          1065,       145.568,       116.762,            0.,NA,NA,"",   968.651E+03,   896.991E+03,   896.991E+03
C:/temp/Job-11.odb,Step-1,Increment      1: Step Time =    1.000,"P-11-1",          1066,       54.5680,       83.2113,            0.,NA,NA,"",   819.760E+03,   801.808E+03,   801.808E+03
C:/temp/Job-11.odb,Step-1,Increment      1: Step Time =    1.000,"P-11-1",          1067,       25.4893,       24.1233,            0.,NA,NA,"",   1.14651E+06,   1.17431E+06,   1.17431E+06
C:/temp/Job-11.odb,Step-1,Increment      1: Step Time =    1.000,"P-11-1",          1068,       174.499,       176.305,            0.,NA,NA,"",   1.02425E+06,   1.02230E+06,   1.02230E+06
C:/temp/Job-11.odb,Step-1,Increment      1: Step Time =    1.000,"P-11-1",          1069,       175.439,       25.5107,            0.,NA,NA,"",   1.02476E+06,   1.02322E+06,   1.02322E+06
C:/temp/Job-11.odb,Step-1,Increment      1: Step Time =    1.000,"P-11-1",          1070,       23.0782,       173.288,            0.,NA,NA,"",   1.12086E+06,   1.16034E+06,   1.16034E+06
C:/temp/Job-11.odb,Step-1,Increment      1: Step Time =    1.000,"P-11-1",          1071,       184.921,       155.687,            0.,NA,NA,"",   1.00588E+06,   1.01873E+06,   1.01873E+06
C:/temp/Job-11.odb,Step-1,Increment      1: Step Time =    1.000,"P-11-1",          1072,       16.2436,       46.3091,            0.,NA,NA,"",   951.350E+03,   1.02650E+06,   1.02650E+06
C:/temp/Job-11.odb,Step-1,Increment      1: Step Time =    1.000,"P-11-1",          1073,       67.0909,       118.724,            0.,NA,NA,"",   1.04208E+06,   913.075E+03,   913.075E+03
C:/temp/Job-11.odb,Step-1,Increment      1: Step Time =    1.000,"P-11-1",          1074,       74.7042,       25.0019,            0.,NA,NA,"",   1.09791E+06,   1.10020E+06,   1.10020E+06
C:/temp/Job-11.odb,Step-1,Increment      1: Step Time =    1.000,"P-11-1",          1075,       125.618,       175.185,            0.,NA,NA,"",   1.05648E+06,   1.05903E+06,   1.05903E+06
C:/temp/Job-11.odb,Step-1,Increment      1: Step Time =    1.000,"P-11-1",          1076,       174.378,       74.5592,            0.,NA,NA,"",   969.243E+03,   993.086E+03,   993.086E+03
C:/temp/Job-11.odb,Step-1,Increment      1: Step Time =    1.000,"P-11-1",          1077,       27.6398,       125.209,            0.,NA,NA,"",   790.971E+03,   855.914E+03,   855.914E+03
C:/temp/Job-11.odb,Step-1,Increment      1: Step Time =    1.000,"P-11-1",          1078,       103.864,       25.4150,            0.,NA,NA,"",   1.02013E+06,   1.04669E+06,   1.04669E+06
C:/temp/Job-11.odb,Step-1,Increment      1: Step Time =    1.000,"P-11-1",          1079,       174.307,       105.431,            0.,NA,NA,"",   866.597E+03,   917.991E+03,   917.991E+03
C:/temp/Job-11.odb,Step-1,Increment      1: Step Time =    1.000,"P-11-1",          1080,       95.6486,       175.873,            0.,NA,NA,"",   1.02172E+06,   1.04613E+06,   1.04613E+06
C:/temp/Job-11.odb,Step-1,Increment      1: Step Time =    1.000,"P-11-1",          1081,       154.594,       185.373,            0.,NA,NA,"",   1.02385E+06,   1.01874E+06,   1.01874E+06
C:/temp/Job-11.odb,Step-1,Increment      1: Step Time =    1.000,"P-11-1",          1082,       45.7275,       14.2133,            0.,NA,NA,"",   1.12898E+06,   1.12625E+06,   1.12625E+06
C:/temp/Job-11.odb,Step-1,Increment      1: Step Time =    1.000,"P-11-1",          1083,       185.504,       45.0799,            0.,NA,NA,"",   1.00298E+06,   1.01743E+06,   1.01743E+06
C:/temp/Job-11.odb,Step-1,Increment      1: Step Time =    1.000,"P-11-1",          1084,       14.6145,       154.866,            0.,NA,NA,"",   949.732E+03,   1.02853E+06,   1.02853E+06
C:/temp/Job-11.odb,Step-1,Increment      1: Step Time =    1.000,"P-11-1",          1085,       121.478,       53.0510,            0.,NA,NA,"",   1.27206E+06,   1.27590E+06,   1.27590E+06
C:/temp/Job-11.odb,Step-1,Increment      1: Step Time =    1.000,"P-11-1",          1086,       77.9805,       53.9508,            0.,NA,NA,"",   1.29513E+06,   1.29592E+06,   1.29592E+06
C:/temp/Job-11.odb,Step-1,Increment      1: Step Time =    1.000,"P-11-1",          1087,       119.494,       145.085,            0.,NA,NA,"",   1.28851E+06,   1.30474E+06,   1.30474E+06
C:/temp/Job-11.odb,Step-1,Increment      1: Step Time =    1.000,"P-11-1",          1088,       77.7091,       147.125,            0.,NA,NA,"",   1.27304E+06,   1.27577E+06,   1.27577E+06
C:/temp/Job-11.odb,Step-1,Increment      1: Step Time =    1.000,"P-11-1",          1089,       149.781,       185.251,            0.,NA,NA,"",   1.02420E+06,   1.01861E+06,   1.01861E+06
C:/temp/Job-11.odb,Step-1,Increment      1: Step Time =    1.000,"P-11-1",          1090,       182.046,       148.528,            0.,NA,NA,"",   1.00944E+06,   1.02467E+06,   1.02467E+06
C:/temp/Job-11.odb,Step-1,Increment      1: Step Time =    1.000,"P-11-1",          1091,       50.4788,       14.4164,            0.,NA,NA,"",   1.11676E+06,   1.11275E+06,   1.11275E+06
C:/temp/Job-11.odb,Step-1,Increment      1: Step Time =    1.000,"P-11-1",          1092,       148.852,       14.4362,            0.,NA,NA,"",   1.02223E+06,   1.01679E+06,   1.01679E+06
C:/temp/Job-11.odb,Step-1,Increment      1: Step Time =    1.000,"P-11-1",          1093,       185.228,       49.8564,            0.,NA,NA,"",   999.449E+03,   1.01828E+06,   1.01828E+06
C:/temp/Job-11.odb,Step-1,Increment      1: Step Time =    1.000,"P-11-1",          1094,       14.3170,       149.967,            0.,NA,NA,"",   915.390E+03,   996.092E+03,   996.092E+03
C:/temp/Job-11.odb,Step-1,Increment      1: Step Time =    1.000,"P-11-1",          1095,       52.0863,       182.027,            0.,NA,NA,"",   1.12455E+06,   1.11917E+06,   1.11917E+06
C:/temp/Job-11.odb,Step-1,Increment      1: Step Time =    1.000,"P-11-1",          1096,       100.019,       148.353,            0.,NA,NA,"",   1.14385E+06,   1.23773E+06,   1.23773E+06
C:/temp/Job-11.odb,Step-1,Increment      1: Step Time =    1.000,"P-11-1",          1097,       123.329,       140.984,            0.,NA,NA,"",   1.36607E+06,   1.33991E+06,   1.33991E+06
C:/temp/Job-11.odb,Step-1,Increment      1: Step Time =    1.000,"P-11-1",          1098,       75.7380,       58.2704,            0.,NA,NA,"",   1.33999E+06,   1.31604E+06,   1.31604E+06
C:/temp/Job-11.odb,Step-1,Increment      1: Step Time =    1.000,"P-11-1",          1099,       144.368,       129.218,            0.,NA,NA,"",   1.20186E+06,   1.10435E+06,   1.10435E+06
C:/temp/Job-11.odb,Step-1,Increment      1: Step Time =    1.000,"P-11-1",          1100,       55.7845,       70.9624,            0.,NA,NA,"",   1.07086E+06,   1.02479E+06,   1.02479E+06
C:/temp/Job-11.odb,Step-1,Increment      1: Step Time =    1.000,"P-11-1",          1101,       26.4022,       39.4054,            0.,NA,NA,"",   1.05881E+06,   1.09996E+06,   1.09996E+06
C:/temp/Job-11.odb,Step-1,Increment      1: Step Time =    1.000,"P-11-1",          1102,       159.149,       175.933,            0.,NA,NA,"",   1.05366E+06,   1.04342E+06,   1.04342E+06
C:/temp/Job-11.odb,Step-1,Increment      1: Step Time =    1.000,"P-11-1",          1103,       41.7065,       22.8222,            0.,NA,NA,"",   1.15005E+06,   1.14888E+06,   1.14888E+06
C:/temp/Job-11.odb,Step-1,Increment      1: Step Time =    1.000,"P-11-1",          1104,       171.192,       157.376,            0.,NA,NA,"",   1.05964E+06,   1.05209E+06,   1.05209E+06
C:/temp/Job-11.odb,Step-1,Increment      1: Step Time =    1.000,"P-11-1",          1105,       176.821,       39.0624,            0.,NA,NA,"",   1.03397E+06,   1.03435E+06,   1.03435E+06
C:/temp/Job-11.odb,Step-1,Increment      1: Step Time =    1.000,"P-11-1",          1106,       157.850,       25.2406,            0.,NA,NA,"",   1.05993E+06,   1.04834E+06,   1.04834E+06
C:/temp/Job-11.odb,Step-1,Increment      1: Step Time =    1.000,"P-11-1",          1107,       25.3031,       158.097,            0.,NA,NA,"",   1.03884E+06,   1.08418E+06,   1.08418E+06
C:/temp/Job-11.odb,Step-1,Increment      1: Step Time =    1.000,"P-11-1",          1108,       43.5420,       170.714,            0.,NA,NA,"",   1.15343E+06,   1.15098E+06,   1.15098E+06
C:/temp/Job-11.odb,Step-1,Increment      1: Step Time =    1.000,"P-11-1",          1109,       46.4833,       89.7896,            0.,NA,NA,"",   638.581E+03,   682.569E+03,   682.569E+03
C:/temp/Job-11.odb,Step-1,Increment      1: Step Time =    1.000,"P-11-1",          1110,       153.820,       110.113,            0.,NA,NA,"",   797.157E+03,   798.155E+03,   798.155E+03
C:/temp/Job-11.odb,Step-1,Increment      1: Step Time =    1.000,"P-11-1",          1111,       70.1111,       176.188,            0.,NA,NA,"",   1.10854E+06,   1.10572E+06,   1.10572E+06
C:/temp/Job-11.odb,Step-1,Increment      1: Step Time =    1.000,"P-11-1",          1112,       130.883,       24.1610,            0.,NA,NA,"",   1.06190E+06,   1.05833E+06,   1.05833E+06
C:/temp/Job-11.odb,Step-1,Increment      1: Step Time =    1.000,"P-11-1",          1113,       175.356,       129.855,            0.,NA,NA,"",   989.979E+03,   1.00997E+06,   1.00997E+06
C:/temp/Job-11.odb,Step-1,Increment      1: Step Time =    1.000,"P-11-1",          1114,       25.5101,       69.9948,            0.,NA,NA,"",   824.281E+03,   889.424E+03,   889.424E+03
C:/temp/Job-11.odb,Step-1,Increment      1: Step Time =    1.000,"P-11-1",          1115,       58.0175,       102.683,            0.,NA,NA,"",   415.281E+03,   442.856E+03,   442.856E+03
C:/temp/Job-11.odb,Step-1,Increment      1: Step Time =    1.000,"P-11-1",          1116,       142.326,       97.2480,            0.,NA,NA,"",   530.153E+03,   523.655E+03,   523.655E+03
C:/temp/Job-11.odb,Step-1,Increment      1: Step Time =    1.000,"P-11-1",          1117,       100.020,       153.113,            0.,NA,NA,"",   1.11234E+06,   1.19087E+06,   1.19087E+06
C:/temp/Job-11.odb,Step-1,Increment      1: Step Time =    1.000,"P-11-1",          1118,       75.0106,       151.128,            0.,NA,NA,"",   1.24637E+06,   1.24221E+06,   1.24221E+06
C:/temp/Job-11.odb,Step-1,Increment      1: Step Time =    1.000,"P-11-1",          1119,       89.4973,       28.3323,            0.,NA,NA,"",   1.05664E+06,   1.08227E+06,   1.08227E+06
C:/temp/Job-11.odb,Step-1,Increment      1: Step Time =    1.000,"P-11-1",          1120,       26.7928,       60.0191,            0.,NA,NA,"",   915.322E+03,   969.970E+03,   969.970E+03
C:/temp/Job-11.odb,Step-1,Increment      1: Step Time =    1.000,"P-11-1",          1121,       60.5746,       28.9344,            0.,NA,NA,"",   1.15482E+06,   1.14319E+06,   1.14319E+06
C:/temp/Job-11.odb,Step-1,Increment      1: Step Time =    1.000,"P-11-1",          1122,       163.484,       170.976,            0.,NA,NA,"",   1.06019E+06,   1.04927E+06,   1.04927E+06
C:/temp/Job-11.odb,Step-1,Increment      1: Step Time =    1.000,"P-11-1",          1123,       190.400,       153.806,            0.,NA,NA,"",   988.222E+03,   1.00884E+06,   1.00884E+06
C:/temp/Job-11.odb,Step-1,Increment      1: Step Time =    1.000,"P-11-1",          1124,       154.251,       9.80397,            0.,NA,NA,"",   1.00750E+06,   1.00486E+06,   1.00486E+06
C:/temp/Job-11.odb,Step-1,Increment      1: Step Time =    1.000,"P-11-1",          1125,       46.4130,       190.319,            0.,NA,NA,"",   1.11305E+06,   1.11136E+06,   1.11136E+06
C:/temp/Job-11.odb,Step-1,Increment      1: Step Time =    1.000,"P-11-1",          1126,       10.2175,       47.3690,            0.,NA,NA,"",   909.129E+03,   999.302E+03,   999.302E+03
C:/temp/Job-11.odb,Step-1,Increment      1: Step Time =    1.000,"P-11-1",          1127,       170.842,       139.626,            0.,NA,NA,"",   1.04762E+06,   1.04421E+06,   1.04421E+06
C:/temp/Job-11.odb,Step-1,Increment      1: Step Time =    1.000,"P-11-1",          1128,       33.6918,       27.3477,            0.,NA,NA,"",   1.14148E+06,   1.15482E+06,   1.15482E+06
C:/temp/Job-11.odb,Step-1,Increment      1: Step Time =    1.000,"P-11-1",          1129,       79.6942,       28.4089,            0.,NA,NA,"",    1.0965E+06,   1.10766E+06,   1.10766E+06
C:/temp/Job-11.odb,Step-1,Increment      1: Step Time =    1.000,"P-11-1",          1130,       140.068,       170.506,            0.,NA,NA,"",   1.10514E+06,   1.08846E+06,   1.08846E+06
C:/temp/Job-11.odb,Step-1,Increment      1: Step Time =    1.000,"P-11-1",          1131,       170.260,       119.791,            0.,NA,NA,"",   940.479E+03,   962.573E+03,   962.573E+03
C:/temp/Job-11.odb,Step-1,Increment      1: Step Time =    1.000,"P-11-1",          1132,       31.7959,       109.456,            0.,NA,NA,"",   660.368E+03,   732.089E+03,   732.089E+03
C:/temp/Job-11.odb,Step-1,Increment      1: Step Time =    1.000,"P-11-1",          1133,       169.145,       90.1431,            0.,NA,NA,"",   864.090E+03,   901.171E+03,   901.171E+03
C:/temp/Job-11.odb,Step-1,Increment      1: Step Time =    1.000,"P-11-1",          1134,       169.947,       59.0587,            0.,NA,NA,"",   1.06077E+06,   1.05240E+06,   1.05240E+06
C:/temp/Job-11.odb,Step-1,Increment      1: Step Time =    1.000,"P-11-1",          1135,       120.875,       170.240,            0.,NA,NA,"",   1.07413E+06,   1.08556E+06,   1.08556E+06
C:/temp/Job-11.odb,Step-1,Increment      1: Step Time =    1.000,"P-11-1",          1136,       172.564,       36.0210,            0.,NA,NA,"",   1.04599E+06,   1.04125E+06,   1.04125E+06
C:/temp/Job-11.odb,Step-1,Increment      1: Step Time =    1.000,"P-11-1",          1137,       120.599,       29.7498,            0.,NA,NA,"",   1.07357E+06,   1.08560E+06,   1.08560E+06
C:/temp/Job-11.odb,Step-1,Increment      1: Step Time =    1.000,"P-11-1",          1138,       110.582,       170.339,            0.,NA,NA,"",   1.04731E+06,   1.07538E+06,   1.07538E+06
C:/temp/Job-11.odb,Step-1,Increment      1: Step Time =    1.000,"P-11-1",          1139,       27.5318,       117.664,            0.,NA,NA,"",   723.258E+03,   794.807E+03,   794.807E+03
C:/temp/Job-11.odb,Step-1,Increment      1: Step Time =    1.000,"P-11-1",          1140,       141.214,       29.8267,            0.,NA,NA,"",   1.10450E+06,   1.08747E+06,   1.08747E+06
C:/temp/Job-11.odb,Step-1,Increment      1: Step Time =    1.000,"P-11-1",          1141,       169.008,       79.7781,            0.,NA,NA,"",   942.975E+03,   960.783E+03,   960.783E+03
C:/temp/Job-11.odb,Step-1,Increment      1: Step Time =    1.000,"P-11-1",          1142,       27.9416,       140.103,            0.,NA,NA,"",   923.168E+03,   974.351E+03,   974.351E+03
C:/temp/Job-11.odb,Step-1,Increment      1: Step Time =    1.000,"P-11-1",          1143,       28.8328,       162.223,            0.,NA,NA,"",   1.07930E+06,   1.11248E+06,   1.11248E+06
C:/temp/Job-11.odb,Step-1,Increment      1: Step Time =    1.000,"P-11-1",          1144,       56.8983,       172.142,            0.,NA,NA,"",   1.15283E+06,   1.14218E+06,   1.14218E+06
C:/temp/Job-11.odb,Step-1,Increment      1: Step Time =    1.000,"P-11-1",          1145,       124.970,       47.1754,            0.,NA,NA,"",   1.22252E+06,   1.21734E+06,   1.21734E+06
C:/temp/Job-11.odb,Step-1,Increment      1: Step Time =    1.000,"P-11-1",          1146,       55.5753,       74.5661,            0.,NA,NA,"",   1.01545E+06,   972.957E+03,   972.957E+03
C:/temp/Job-11.odb,Step-1,Increment      1: Step Time =    1.000,"P-11-1",          1147,       144.573,       125.550,            0.,NA,NA,"",   1.15588E+06,   1.05970E+06,   1.05970E+06
C:/temp/Job-11.odb,Step-1,Increment      1: Step Time =    1.000,"P-11-1",          1148,       122.659,       150.888,            0.,NA,NA,"",   1.23694E+06,   1.24056E+06,   1.24056E+06
C:/temp/Job-11.odb,Step-1,Increment      1: Step Time =    1.000,"P-11-1",          1149,       76.1216,       47.4195,            0.,NA,NA,"",   1.23773E+06,   1.23856E+06,   1.23856E+06
C:/temp/Job-11.odb,Step-1,Increment      1: Step Time =    1.000,"P-11-1",          1150,       69.3482,       29.9900,            0.,NA,NA,"",   1.14257E+06,   1.13720E+06,   1.13720E+06
C:/temp/Job-11.odb,Step-1,Increment      1: Step Time =    1.000,"P-11-1",          1151,       101.161,       47.5746,            0.,NA,NA,"",   1.11562E+06,   1.19636E+06,   1.19636E+06
C:/temp/Job-11.odb,Step-1,Increment      1: Step Time =    1.000,"P-11-1",          1152,       130.560,       170.370,            0.,NA,NA,"",   1.09805E+06,   1.09226E+06,   1.09226E+06
C:/temp/Job-11.odb,Step-1,Increment      1: Step Time =    1.000,"P-11-1",          1153,       169.378,       69.1446,            0.,NA,NA,"",   1.01981E+06,   1.02013E+06,   1.02013E+06
C:/temp/Job-11.odb,Step-1,Increment      1: Step Time =    1.000,"P-11-1",          1154,       26.8036,       132.258,            0.,NA,NA,"",   850.338E+03,   911.079E+03,   911.079E+03
C:/temp/Job-11.odb,Step-1,Increment      1: Step Time =    1.000,"P-11-1",          1155,       97.7145,       29.1015,            0.,NA,NA,"",   1.03951E+06,   1.07290E+06,   1.07290E+06
C:/temp/Job-11.odb,Step-1,Increment      1: Step Time =    1.000,"P-11-1",          1156,       109.301,       25.5133,            0.,NA,NA,"",   1.02477E+06,   1.04846E+06,   1.04846E+06
C:/temp/Job-11.odb,Step-1,Increment      1: Step Time =    1.000,"P-11-1",          1157,       30.8444,       99.9166,            0.,NA,NA,"",   632.969E+03,   708.610E+03,   708.610E+03
C:/temp/Job-11.odb,Step-1,Increment      1: Step Time =    1.000,"P-11-1",          1158,       25.7761,       90.7189,            0.,NA,NA,"",   668.114E+03,   746.693E+03,   746.693E+03
C:/temp/Job-11.odb,Step-1,Increment      1: Step Time =    1.000,"P-11-1",          1159,       174.886,       110.402,            0.,NA,NA,"",   884.280E+03,   931.996E+03,   931.996E+03
C:/temp/Job-11.odb,Step-1,Increment      1: Step Time =    1.000,"P-11-1",          1160,       168.839,       100.361,            0.,NA,NA,"",   829.999E+03,   874.141E+03,   874.141E+03
C:/temp/Job-11.odb,Step-1,Increment      1: Step Time =    1.000,"P-11-1",          1161,       90.8215,       175.945,            0.,NA,NA,"",   1.03399E+06,   1.05445E+06,   1.05445E+06
C:/temp/Job-11.odb,Step-1,Increment      1: Step Time =    1.000,"P-11-1",          1162,       100.323,       172.372,            0.,NA,NA,"",   1.02959E+06,   1.06198E+06,   1.06198E+06
C:/temp/Job-11.odb,Step-1,Increment      1: Step Time =    1.000,"P-11-1",          1163,       58.9421,       107.004,            0.,NA,NA,"",   532.504E+03,   533.214E+03,   533.214E+03
C:/temp/Job-11.odb,Step-1,Increment      1: Step Time =    1.000,"P-11-1",          1164,       141.386,       92.9899,            0.,NA,NA,"",   647.503E+03,   607.753E+03,   607.753E+03
C:/temp/Job-11.odb,Step-1,Increment      1: Step Time =    1.000,"P-11-1",          1165,       140.848,       133.902,            0.,NA,NA,"",   1.28432E+06,   1.18164E+06,   1.18164E+06
C:/temp/Job-11.odb,Step-1,Increment      1: Step Time =    1.000,"P-11-1",          1166,       59.0515,       66.1276,            0.,NA,NA,"",   1.17985E+06,   1.12074E+06,   1.12074E+06
C:/temp/Job-11.odb,Step-1,Increment      1: Step Time =    1.000,"P-11-1",          1167,       154.673,       190.258,            0.,NA,NA,"",   1.00810E+06,   1.00550E+06,   1.00550E+06
C:/temp/Job-11.odb,Step-1,Increment      1: Step Time =    1.000,"P-11-1",          1168,       45.5316,       9.49941,            0.,NA,NA,"",   1.11566E+06,   1.11411E+06,   1.11411E+06
C:/temp/Job-11.odb,Step-1,Increment      1: Step Time =    1.000,"P-11-1",          1169,       96.1256,       48.9876,            0.,NA,NA,"",   1.13439E+06,   1.21512E+06,   1.21512E+06
C:/temp/Job-11.odb,Step-1,Increment      1: Step Time =    1.000,"P-11-1",          1170,       86.6232,       47.0670,            0.,NA,NA,"",   1.17444E+06,   1.22135E+06,   1.22135E+06
C:/temp/Job-11.odb,Step-1,Increment      1: Step Time =    1.000,"P-11-1",          1171,       190.354,       45.1708,            0.,NA,NA,"",   989.537E+03,   1.00890E+06,   1.00890E+06
C:/temp/Job-11.odb,Step-1,Increment      1: Step Time =    1.000,"P-11-1",          1172,       114.210,       150.408,            0.,NA,NA,"",   1.18432E+06,   1.23273E+06,   1.23273E+06
C:/temp/Job-11.odb,Step-1,Increment      1: Step Time =    1.000,"P-11-1",          1173,       105.008,       151.877,            0.,NA,NA,"",   1.12530E+06,   1.20303E+06,   1.20303E+06
C:/temp/Job-11.odb,Step-1,Increment      1: Step Time =    1.000,"P-11-1",          1174,       9.63414,       154.933,            0.,NA,NA,"",   920.460E+03,   1.01202E+06,   1.01202E+06
C:/temp/Job-11.odb,Step-1,Increment      1: Step Time =    1.000,"P-11-1",          1175,       30.0102,       35.1073,            0.,NA,NA,"",   1.10006E+06,   1.12760E+06,   1.12760E+06
C:/temp/Job-11.odb,Step-1,Increment      1: Step Time =    1.000,"P-11-1",          1176,       27.3659,       43.7201,            0.,NA,NA,"",   1.03783E+06,   1.07948E+06,   1.07948E+06
C:/temp/Job-11.odb,Step-1,Increment      1: Step Time =    1.000,"P-11-1",          1177,       154.948,       175.785,            0.,NA,NA,"",   1.06130E+06,   1.04928E+06,   1.04928E+06
C:/temp/Job-11.odb,Step-1,Increment      1: Step Time =    1.000,"P-11-1",          1178,       45.4142,       23.1146,            0.,NA,NA,"",   1.14841E+06,   1.14351E+06,   1.14351E+06
C:/temp/Job-11.odb,Step-1,Increment      1: Step Time =    1.000,"P-11-1",          1179,       175.940,       154.894,            0.,NA,NA,"",   1.03925E+06,   1.03991E+06,   1.03991E+06
C:/temp/Job-11.odb,Step-1,Increment      1: Step Time =    1.000,"P-11-1",          1180,       169.116,       160.283,            0.,NA,NA,"",   1.06501E+06,   1.05501E+06,   1.05501E+06
C:/temp/Job-11.odb,Step-1,Increment      1: Step Time =    1.000,"P-11-1",          1181,       175.408,       43.7854,            0.,NA,NA,"",   1.04073E+06,   1.04040E+06,   1.04040E+06
C:/temp/Job-11.odb,Step-1,Increment      1: Step Time =    1.000,"P-11-1",          1182,       162.509,       30.3586,            0.,NA,NA,"",   1.06733E+06,   1.05464E+06,   1.05464E+06
C:/temp/Job-11.odb,Step-1,Increment      1: Step Time =    1.000,"P-11-1",          1183,       152.802,       25.3041,            0.,NA,NA,"",   1.06849E+06,   1.05511E+06,   1.05511E+06
C:/temp/Job-11.odb,Step-1,Increment      1: Step Time =    1.000,"P-11-1",          1184,       24.1130,       153.625,            0.,NA,NA,"",   1.00034E+06,   1.05300E+06,   1.05300E+06
C:/temp/Job-11.odb,Step-1,Increment      1: Step Time =    1.000,"P-11-1",          1185,       45.8806,       175.669,            0.,NA,NA,"",   1.14992E+06,   1.14540E+06,   1.14540E+06
C:/temp/Job-11.odb,Step-1,Increment      1: Step Time =    1.000,"P-11-1",          1186,       40.7065,       168.391,            0.,NA,NA,"",   1.14589E+06,   1.14798E+06,   1.14798E+06
C:/temp/Job-11.odb,Step-1,Increment      1: Step Time =    1.000,"P-11-1",          1187,       50.7284,       177.378,            0.,NA,NA,"",   1.14116E+06,   1.13437E+06,   1.13437E+06
C:/temp/Job-11.odb,Step-1,Increment      1: Step Time =    1.000,"P-11-1",          1188,       131.256,       78.3251,            0.,NA,NA,"",   1.29126E+06,   1.11441E+06,   1.11441E+06
C:/temp/Job-11.odb,Step-1,Increment      1: Step Time =    1.000,"P-11-1",          1189,       80.3492,       49.9079,            0.,NA,NA,"",   1.24229E+06,   1.26113E+06,   1.26113E+06
C:/temp/Job-11.odb,Step-1,Increment      1: Step Time =    1.000,"P-11-1",          1190,       118.818,       150.398,            0.,NA,NA,"",   1.21687E+06,   1.24080E+06,   1.24080E+06
C:/temp/Job-11.odb,Step-1,Increment      1: Step Time =    1.000,"P-11-1",          1191,       133.616,       61.1557,            0.,NA,NA,"",   1.34478E+06,   1.26193E+06,   1.26193E+06
C:/temp/Job-11.odb,Step-1,Increment      1: Step Time =    1.000,"P-11-1",          1192,       120.530,       48.3544,            0.,NA,NA,"",   1.21403E+06,   1.22826E+06,   1.22826E+06
C:/temp/Job-11.odb,Step-1,Increment      1: Step Time =    1.000,"P-11-1",          1193,       86.3690,       151.044,            0.,NA,NA,"",   1.19820E+06,   1.24474E+06,   1.24474E+06
C:/temp/Job-11.odb,Step-1,Increment      1: Step Time =    1.000,"P-11-1",          1194,       64.8999,       138.025,            0.,NA,NA,"",   1.28751E+06,   1.22471E+06,   1.22471E+06
C:/temp/Job-11.odb,Step-1,Increment      1: Step Time =    1.000,"P-11-1",          1195,       82.2585,       153.111,            0.,NA,NA,"",   1.20761E+06,   1.23198E+06,   1.23198E+06
C:/temp/Job-11.odb,Step-1,Increment      1: Step Time =    1.000,"P-11-1",          1196,       144.143,       85.1155,            0.,NA,NA,"",   907.590E+03,   836.698E+03,   836.698E+03
C:/temp/Job-11.odb,Step-1,Increment      1: Step Time =    1.000,"P-11-1",          1197,       58.6267,       115.252,            0.,NA,NA,"",   798.063E+03,   756.598E+03,   756.598E+03
C:/temp/Job-11.odb,Step-1,Increment      1: Step Time =    1.000,"P-11-1",          1198,       48.9175,       182.960,            0.,NA,NA,"",   1.12933E+06,   1.12478E+06,   1.12478E+06
C:/temp/Job-11.odb,Step-1,Increment      1: Step Time =    1.000,"P-11-1",          1199,       68.0704,       115.423,            0.,NA,NA,"",   945.206E+03,   798.100E+03,   798.100E+03
C:/temp/Job-11.odb,Step-1,Increment      1: Step Time =    1.000,"P-11-1",          1200,       23.1987,       43.9160,            0.,NA,NA,"",   1.01107E+06,   1.06483E+06,   1.06483E+06
C:/temp/Job-11.odb,Step-1,Increment      1: Step Time =    1.000,"P-11-1",          1201,       154.659,       180.537,            0.,NA,NA,"",   1.04233E+06,   1.03396E+06,   1.03396E+06
C:/temp/Job-11.odb,Step-1,Increment      1: Step Time =    1.000,"P-11-1",          1202,       183.048,       151.572,            0.,NA,NA,"",   1.00969E+06,   1.02350E+06,   1.02350E+06
C:/temp/Job-11.odb,Step-1,Increment      1: Step Time =    1.000,"P-11-1",          1203,       45.7693,       18.7809,            0.,NA,NA,"",   1.14081E+06,   1.13706E+06,   1.13706E+06
C:/temp/Job-11.odb,Step-1,Increment      1: Step Time =    1.000,"P-11-1",          1204,       180.587,       44.6728,            0.,NA,NA,"",   1.02007E+06,   1.02787E+06,   1.02787E+06
C:/temp/Job-11.odb,Step-1,Increment      1: Step Time =    1.000,"P-11-1",          1205,       152.994,       20.0824,            0.,NA,NA,"",   1.04478E+06,   1.03593E+06,   1.03593E+06
C:/temp/Job-11.odb,Step-1,Increment      1: Step Time =    1.000,"P-11-1",          1206,       19.0333,       149.679,            0.,NA,NA,"",   940.149E+03,   1.00939E+06,   1.00939E+06
C:/temp/Job-11.odb,Step-1,Increment      1: Step Time =    1.000,"P-11-1",          1207,       68.8361,       142.511,            0.,NA,NA,"",   1.30621E+06,   1.26399E+06,   1.26399E+06
C:/temp/Job-11.odb,Step-1,Increment      1: Step Time =    1.000,"P-11-1",          1208,       47.8997,       186.193,            0.,NA,NA,"",   1.12281E+06,   1.11972E+06,   1.11972E+06
C:/temp/Job-11.odb,Step-1,Increment      1: Step Time =    1.000,"P-11-1",          1209,       47.4019,       171.830,            0.,NA,NA,"",   1.15522E+06,   1.14872E+06,   1.14872E+06
C:/temp/Job-11.odb,Step-1,Increment      1: Step Time =    1.000,"P-11-1",          1210,       78.5776,       44.3810,            0.,NA,NA,"",   1.20426E+06,   1.21627E+06,   1.21627E+06
C:/temp/Job-11.odb,Step-1,Increment      1: Step Time =    1.000,"P-11-1",          1211,       118.924,       154.971,            0.,NA,NA,"",   1.17123E+06,   1.19581E+06,   1.19581E+06
C:/temp/Job-11.odb,Step-1,Increment      1: Step Time =    1.000,"P-11-1",          1212,       119.737,       44.0337,            0.,NA,NA,"",   1.17141E+06,   1.19007E+06,   1.19007E+06
C:/temp/Job-11.odb,Step-1,Increment      1: Step Time =    1.000,"P-11-1",          1213,       78.3988,       153.224,            0.,NA,NA,"",   1.22358E+06,   1.23275E+06,   1.23275E+06
C:/temp/Job-11.odb,Step-1,Increment      1: Step Time =    1.000,"P-11-1",          1214,       64.0834,       141.956,            0.,NA,NA,"",   1.27270E+06,   1.22109E+06,   1.22109E+06
C:/temp/Job-11.odb,Step-1,Increment      1: Step Time =    1.000,"P-11-1",          1215,       88.3855,       155.702,            0.,NA,NA,"",   1.14625E+06,   1.19628E+06,   1.19628E+06
C:/temp/Job-11.odb,Step-1,Increment      1: Step Time =    1.000,"P-11-1",          1216,       147.810,       25.4752,            0.,NA,NA,"",   1.07512E+06,   1.06111E+06,   1.06111E+06
C:/temp/Job-11.odb,Step-1,Increment      1: Step Time =    1.000,"P-11-1",          1217,       177.427,       150.122,            0.,NA,NA,"",   1.03063E+06,   1.03622E+06,   1.03622E+06
C:/temp/Job-11.odb,Step-1,Increment      1: Step Time =    1.000,"P-11-1",          1218,       23.9443,       48.2653,            0.,NA,NA,"",   983.769E+03,   1.03846E+06,   1.03846E+06
C:/temp/Job-11.odb,Step-1,Increment      1: Step Time =    1.000,"P-11-1",          1219,       175.262,       124.919,            0.,NA,NA,"",   965.543E+03,   992.714E+03,   992.714E+03
C:/temp/Job-11.odb,Step-1,Increment      1: Step Time =    1.000,"P-11-1",          1220,       25.3638,       75.0336,            0.,NA,NA,"",   777.872E+03,   847.386E+03,   847.386E+03
C:/temp/Job-11.odb,Step-1,Increment      1: Step Time =    1.000,"P-11-1",          1221,       125.603,       24.4126,            0.,NA,NA,"",   1.05341E+06,   1.05621E+06,   1.05621E+06
C:/temp/Job-11.odb,Step-1,Increment      1: Step Time =    1.000,"P-11-1",          1222,       75.6129,       173.713,            0.,NA,NA,"",   1.10048E+06,   1.10444E+06,   1.10444E+06
C:/temp/Job-11.odb,Step-1,Increment      1: Step Time =    1.000,"P-11-1",          1223,       55.1676,       24.8712,            0.,NA,NA,"",   1.14405E+06,   1.13459E+06,   1.13459E+06
C:/temp/Job-11.odb,Step-1,Increment      1: Step Time =    1.000,"P-11-1",          1224,       22.6865,       53.0782,            0.,NA,NA,"",   944.593E+03,   1.00505E+06,   1.00505E+06
C:/temp/Job-11.odb,Step-1,Increment      1: Step Time =    1.000,"P-11-1",          1225,       176.558,       144.605,            0.,NA,NA,"",   1.02882E+06,   1.03608E+06,   1.03608E+06
C:/temp/Job-11.odb,Step-1,Increment      1: Step Time =    1.000,"P-11-1",          1226,       145.046,       175.137,            0.,NA,NA,"",   1.07397E+06,   1.06055E+06,   1.06055E+06
C:/temp/Job-11.odb,Step-1,Increment      1: Step Time =    1.000,"P-11-1",          1227,       153.646,       14.8834,            0.,NA,NA,"",   1.02420E+06,   1.01890E+06,   1.01890E+06
C:/temp/Job-11.odb,Step-1,Increment      1: Step Time =    1.000,"P-11-1",          1228,       174.822,       54.2162,            0.,NA,NA,"",   1.04137E+06,   1.04333E+06,   1.04333E+06
C:/temp/Job-11.odb,Step-1,Increment      1: Step Time =    1.000,"P-11-1",          1229,       143.597,       25.7606,            0.,NA,NA,"",   1.07864E+06,   1.06501E+06,   1.06501E+06
C:/temp/Job-11.odb,Step-1,Increment      1: Step Time =    1.000,"P-11-1",          1230,       186.284,       152.461,            0.,NA,NA,"",   999.478E+03,   1.01672E+06,   1.01672E+06
C:/temp/Job-11.odb,Step-1,Increment      1: Step Time =    1.000,"P-11-1",          1231,       14.4184,       49.3856,            0.,NA,NA,"",   921.797E+03,   1.00206E+06,   1.00206E+06
C:/temp/Job-11.odb,Step-1,Increment      1: Step Time =    1.000,"P-11-1",          1232,       23.4130,       144.785,            0.,NA,NA,"",   931.752E+03,   992.065E+03,   992.065E+03
C:/temp/Job-11.odb,Step-1,Increment      1: Step Time =    1.000,"P-11-1",          1233,       69.8107,       49.3286,            0.,NA,NA,"",   1.25995E+06,   1.23545E+06,   1.23545E+06
C:/temp/Job-11.odb,Step-1,Increment      1: Step Time =    1.000,"P-11-1",          1234,       128.434,       150.611,            0.,NA,NA,"",   1.25827E+06,   1.23187E+06,   1.23187E+06
C:/temp/Job-11.odb,Step-1,Increment      1: Step Time =    1.000,"P-11-1",          1235,       23.7286,       149.170,            0.,NA,NA,"",   965.529E+03,   1.02239E+06,   1.02239E+06
C:/temp/Job-11.odb,Step-1,Increment      1: Step Time =    1.000,"P-11-1",          1236,       50.4793,       80.0222,            0.,NA,NA,"",   861.443E+03,   856.931E+03,   856.931E+03
C:/temp/Job-11.odb,Step-1,Increment      1: Step Time =    1.000,"P-11-1",          1237,       149.645,       119.905,            0.,NA,NA,"",   1.01637E+06,   956.908E+03,   956.908E+03
C:/temp/Job-11.odb,Step-1,Increment      1: Step Time =    1.000,"P-11-1",          1238,       90.8002,       171.332,            0.,NA,NA,"",   1.05521E+06,   1.08229E+06,   1.08229E+06
C:/temp/Job-11.odb,Step-1,Increment      1: Step Time =    1.000,"P-11-1",          1239,       174.948,       49.0577,            0.,NA,NA,"",   1.04408E+06,   1.04411E+06,   1.04411E+06
C:/temp/Job-11.odb,Step-1,Increment      1: Step Time =    1.000,"P-11-1",          1240,       50.1629,       24.2674,            0.,NA,NA,"",   1.14747E+06,   1.13991E+06,   1.13991E+06
C:/temp/Job-11.odb,Step-1,Increment      1: Step Time =    1.000,"P-11-1",          1241,       150.043,       175.252,            0.,NA,NA,"",   1.06852E+06,   1.05529E+06,   1.05529E+06
C:/temp/Job-11.odb,Step-1,Increment      1: Step Time =    1.000,"P-11-1",          1242,       129.219,       45.1335,            0.,NA,NA,"",   1.21610E+06,   1.19770E+06,   1.19770E+06
C:/temp/Job-11.odb,Step-1,Increment      1: Step Time =    1.000,"P-11-1",          1243,       170.086,       111.113,            0.,NA,NA,"",   875.014E+03,   911.885E+03,   911.885E+03
C:/temp/Job-11.odb,Step-1,Increment      1: Step Time =    1.000,"P-11-1",          1244,       137.187,       56.8846,            0.,NA,NA,"",   1.29765E+06,   1.22745E+06,   1.22745E+06
C:/temp/Job-11.odb,Step-1,Increment      1: Step Time =    1.000,"P-11-1",          1245,       27.9870,       87.4329,            0.,NA,NA,"",   685.707E+03,   760.529E+03,   760.529E+03
C:/temp/Job-11.odb,Step-1,Increment      1: Step Time =    1.000,"P-11-1",          1246,       102.468,       163.401,            0.,NA,NA,"",   1.06495E+06,   1.11536E+06,   1.11536E+06
C:/temp/Job-11.odb,Step-1,Increment      1: Step Time =    1.000,"P-11-1",          1247,       109.113,       30.7403,            0.,NA,NA,"",   1.04788E+06,   1.08031E+06,   1.08031E+06
C:/temp/Job-11.odb,Step-1,Increment      1: Step Time =    1.000,"P-11-1",          1248,       69.3987,       153.504,            0.,NA,NA,"",   1.23512E+06,   1.21737E+06,   1.21737E+06
C:/temp/Job-11.odb,Step-1,Increment      1: Step Time =    1.000,"P-11-1",          1249,       111.081,       165.961,            0.,NA,NA,"",   1.06832E+06,   1.10222E+06,   1.10222E+06
C:/temp/Job-11.odb,Step-1,Increment      1: Step Time =    1.000,"P-11-1",          1250,       163.638,       100.079,            0.,NA,NA,"",   790.701E+03,   827.423E+03,   827.423E+03
C:/temp/Job-11.odb,Step-1,Increment      1: Step Time =    1.000,"P-11-1",          1251,       36.5147,       99.7152,            0.,NA,NA,"",   610.549E+03,   680.735E+03,   680.735E+03
C:/temp/Job-11.odb,Step-1,Increment      1: Step Time =    1.000,"P-11-1",          1252,       163.887,       90.1827,            0.,NA,NA,"",   843.208E+03,   869.495E+03,   869.495E+03
C:/temp/Job-11.odb,Step-1,Increment      1: Step Time =    1.000,"P-11-1",          1253,       98.3413,       34.6976,            0.,NA,NA,"",   1.06002E+06,   1.10548E+06,   1.10548E+06
C:/temp/Job-11.odb,Step-1,Increment      1: Step Time =    1.000,"P-11-1",          1254,       38.0307,       110.342,            0.,NA,NA,"",   660.161E+03,   722.375E+03,   722.375E+03
C:/temp/Job-11.odb,Step-1,Increment      1: Step Time =    1.000,"P-11-1",          1255,       87.2031,       33.3462,            0.,NA,NA,"",   1.08917E+06,   1.11956E+06,   1.11956E+06
C:/temp/Job-11.odb,Step-1,Increment      1: Step Time =    1.000,"P-11-1",          1256,       115.932,       49.0743,            0.,NA,NA,"",   1.19535E+06,   1.23274E+06,   1.23274E+06
C:/temp/Job-11.odb,Step-1,Increment      1: Step Time =    1.000,"P-11-1",          1257,       56.9619,       118.572,            0.,NA,NA,"",   885.872E+03,   843.617E+03,   843.617E+03
C:/temp/Job-11.odb,Step-1,Increment      1: Step Time =    1.000,"P-11-1",          1258,       145.506,       88.0859,            0.,NA,NA,"",   818.337E+03,   772.539E+03,   772.539E+03
C:/temp/Job-11.odb,Step-1,Increment      1: Step Time =    1.000,"P-11-1",          1259,       141.458,       80.7840,            0.,NA,NA,"",   1.06460E+06,   951.239E+03,   951.239E+03
C:/temp/Job-11.odb,Step-1,Increment      1: Step Time =    1.000,"P-11-1",          1260,       53.8873,       107.285,            0.,NA,NA,"",   561.651E+03,   588.845E+03,   588.845E+03
C:/temp/Job-11.odb,Step-1,Increment      1: Step Time =    1.000,"P-11-1",          1261,       30.3935,       167.704,            0.,NA,NA,"",   1.11532E+06,   1.13987E+06,   1.13987E+06
C:/temp/Job-11.odb,Step-1,Increment      1: Step Time =    1.000,"P-11-1",          1262,       163.318,       79.8213,            0.,NA,NA,"",   949.401E+03,   950.014E+03,   950.014E+03
C:/temp/Job-11.odb,Step-1,Increment      1: Step Time =    1.000,"P-11-1",          1263,       171.869,       30.1357,            0.,NA,NA,"",   1.03938E+06,   1.03492E+06,   1.03492E+06
C:/temp/Job-11.odb,Step-1,Increment      1: Step Time =    1.000,"P-11-1",          1264,       29.3947,       27.4380,            0.,NA,NA,"",   1.13369E+06,   1.15604E+06,   1.15604E+06
C:/temp/Job-11.odb,Step-1,Increment      1: Step Time =    1.000,"P-11-1",          1265,       32.3440,       121.700,            0.,NA,NA,"",   771.051E+03,   830.101E+03,   830.101E+03
C:/temp/Job-11.odb,Step-1,Increment      1: Step Time =    1.000,"P-11-1",          1266,       168.768,       169.877,            0.,NA,NA,"",   1.04794E+06,   1.04080E+06,   1.04080E+06
C:/temp/Job-11.odb,Step-1,Increment      1: Step Time =    1.000,"P-11-1",          1267,       128.420,       57.6998,            0.,NA,NA,"",   1.34107E+06,   1.29063E+06,   1.29063E+06
C:/temp/Job-11.odb,Step-1,Increment      1: Step Time =    1.000,"P-11-1",          1268,       121.343,       165.422,            0.,NA,NA,"",   1.10436E+06,   1.11656E+06,   1.11656E+06
C:/temp/Job-11.odb,Step-1,Increment      1: Step Time =    1.000,"P-11-1",          1269,       39.0664,       164.832,            0.,NA,NA,"",   1.13335E+06,   1.13978E+06,   1.13978E+06
C:/temp/Job-11.odb,Step-1,Increment      1: Step Time =    1.000,"P-11-1",          1270,       165.321,       119.292,            0.,NA,NA,"",   941.396E+03,   949.722E+03,   949.722E+03
C:/temp/Job-11.odb,Step-1,Increment      1: Step Time =    1.000,"P-11-1",          1271,       35.0030,       81.5004,            0.,NA,NA,"",   745.921E+03,   803.027E+03,   803.027E+03
C:/temp/Job-11.odb,Step-1,Increment      1: Step Time =    1.000,"P-11-1",          1272,       80.3395,       34.5871,            0.,NA,NA,"",   1.12835E+06,   1.14466E+06,   1.14466E+06
C:/temp/Job-11.odb,Step-1,Increment      1: Step Time =    1.000,"P-11-1",          1273,       162.320,       35.4327,            0.,NA,NA,"",   1.08273E+06,   1.06643E+06,   1.06643E+06
C:/temp/Job-11.odb,Step-1,Increment      1: Step Time =    1.000,"P-11-1",          1274,       165.880,       162.184,            0.,NA,NA,"",   1.07362E+06,   1.06050E+06,   1.06050E+06
C:/temp/Job-11.odb,Step-1,Increment      1: Step Time =    1.000,"P-11-1",          1275,       34.1742,       34.8958,            0.,NA,NA,"",   1.11696E+06,   1.13388E+06,   1.13388E+06
C:/temp/Job-11.odb,Step-1,Increment      1: Step Time =    1.000,"P-11-1",          1276,       102.367,       157.508,            0.,NA,NA,"",   1.08949E+06,   1.15373E+06,   1.15373E+06
C:/temp/Job-11.odb,Step-1,Increment      1: Step Time =    1.000,"P-11-1",          1277,       100.437,       43.1758,            0.,NA,NA,"",   1.09259E+06,   1.16025E+06,   1.16025E+06
C:/temp/Job-11.odb,Step-1,Increment      1: Step Time =    1.000,"P-11-1",          1278,       133.166,       73.2424,            0.,NA,NA,"",   1.35083E+06,   1.20592E+06,   1.20592E+06
C:/temp/Job-11.odb,Step-1,Increment      1: Step Time =    1.000,"P-11-1",          1279,       34.8385,       130.911,            0.,NA,NA,"",   887.026E+03,   927.134E+03,   927.134E+03
C:/temp/Job-11.odb,Step-1,Increment      1: Step Time =    1.000,"P-11-1",          1280,       81.1227,       175.653,            0.,NA,NA,"",   1.06874E+06,   1.07946E+06,   1.07946E+06
C:/temp/Job-11.odb,Step-1,Increment      1: Step Time =    1.000,"P-11-1",          1281,       152.516,       30.4780,            0.,NA,NA,"",   1.09258E+06,   1.07408E+06,   1.07408E+06
C:/temp/Job-11.odb,Step-1,Increment      1: Step Time =    1.000,"P-11-1",          1282,       28.3233,       48.5491,            0.,NA,NA,"",   1.01121E+06,   1.05365E+06,   1.05365E+06
C:/temp/Job-11.odb,Step-1,Increment      1: Step Time =    1.000,"P-11-1",          1283,       172.273,       149.422,            0.,NA,NA,"",   1.05681E+06,   1.05170E+06,   1.05170E+06
C:/temp/Job-11.odb,Step-1,Increment      1: Step Time =    1.000,"P-11-1",          1284,       19.6570,       78.3138,            0.,NA,NA,"",   738.866E+03,   818.572E+03,   818.572E+03
C:/temp/Job-11.odb,Step-1,Increment      1: Step Time =    1.000,"P-11-1",          1285,       170.237,       129.737,            0.,NA,NA,"",   1.01007E+06,   1.01485E+06,   1.01485E+06
C:/temp/Job-11.odb,Step-1,Increment      1: Step Time =    1.000,"P-11-1",          1286,       29.5869,       65.6250,            0.,NA,NA,"",   884.094E+03,   936.275E+03,   936.275E+03
C:/temp/Job-11.odb,Step-1,Increment      1: Step Time =    1.000,"P-11-1",          1287,       130.699,       28.4838,            0.,NA,NA,"",   1.09078E+06,   1.08507E+06,   1.08507E+06
C:/temp/Job-11.odb,Step-1,Increment      1: Step Time =    1.000,"P-11-1",          1288,       86.0295,       176.044,            0.,NA,NA,"",   1.04844E+06,   1.06419E+06,   1.06419E+06
C:/temp/Job-11.odb,Step-1,Increment      1: Step Time =    1.000,"P-11-1",          1289,       65.4818,       167.238,            0.,NA,NA,"",   1.16509E+06,   1.15470E+06,   1.15470E+06
C:/temp/Job-11.odb,Step-1,Increment      1: Step Time =    1.000,"P-11-1",          1290,       90.2544,       166.656,            0.,NA,NA,"",   1.07748E+06,   1.11248E+06,   1.11248E+06
C:/temp/Job-11.odb,Step-1,Increment      1: Step Time =    1.000,"P-11-1",          1291,       151.959,       90.8244,            0.,NA,NA,"",   769.960E+03,   768.310E+03,   768.310E+03
C:/temp/Job-11.odb,Step-1,Increment      1: Step Time =    1.000,"P-11-1",          1292,       48.9162,       107.921,            0.,NA,NA,"",   594.899E+03,   636.842E+03,   636.842E+03
C:/temp/Job-11.odb,Step-1,Increment      1: Step Time =    1.000,"P-11-1",          1293,       110.681,       45.1599,            0.,NA,NA,"",   1.12994E+06,   1.18607E+06,   1.18607E+06
C:/temp/Job-11.odb,Step-1,Increment      1: Step Time =    1.000,"P-11-1",          1294,       165.728,       113.757,            0.,NA,NA,"",   884.918E+03,   907.150E+03,   907.150E+03
C:/temp/Job-11.odb,Step-1,Increment      1: Step Time =    1.000,"P-11-1",          1295,       36.3433,       85.9089,            0.,NA,NA,"",   698.208E+03,   758.896E+03,   758.896E+03
C:/temp/Job-11.odb,Step-1,Increment      1: Step Time =    1.000,"P-11-1",          1296,       115.093,       39.7246,            0.,NA,NA,"",   1.11617E+06,   1.14929E+06,   1.14929E+06
C:/temp/Job-11.odb,Step-1,Increment      1: Step Time =    1.000,"P-11-1",          1297,       67.9216,       53.8532,            0.,NA,NA,"",   1.28008E+06,   1.24154E+06,   1.24154E+06
C:/temp/Job-11.odb,Step-1,Increment      1: Step Time =    1.000,"P-11-1",          1298,       67.1261,       147.648,            0.,NA,NA,"",   1.26843E+06,   1.23631E+06,   1.23631E+06
C:/temp/Job-11.odb,Step-1,Increment      1: Step Time =    1.000,"P-11-1",          1299,       131.223,       146.378,            0.,NA,NA,"",   1.29846E+06,   1.24921E+06,   1.24921E+06
C:/temp/Job-11.odb,Step-1,Increment      1: Step Time =    1.000,"P-11-1",          1300,       133.580,       53.6134,            0.,NA,NA,"",   1.28998E+06,   1.23660E+06,   1.23660E+06
C:/temp/Job-11.odb,Step-1,Increment      1: Step Time =    1.000,"P-11-1",          1301,       90.8367,       160.941,            0.,NA,NA,"",   1.10195E+06,   1.14904E+06,   1.14904E+06
C:/temp/Job-11.odb,Step-1,Increment      1: Step Time =    1.000,"P-11-1",          1302,       76.6267,       158.936,            0.,NA,NA,"",   1.18928E+06,   1.19461E+06,   1.19461E+06
C:/temp/Job-11.odb,Step-1,Increment      1: Step Time =    1.000,"P-11-1",          1303,       104.250,       160.559,            0.,NA,NA,"",   1.07734E+06,   1.13276E+06,   1.13276E+06
C:/temp/Job-11.odb,Step-1,Increment      1: Step Time =    1.000,"P-11-1",          1304,       98.5823,       39.1826,            0.,NA,NA,"",   1.07768E+06,   1.13355E+06,   1.13355E+06
C:/temp/Job-11.odb,Step-1,Increment      1: Step Time =    1.000,"P-11-1",          1305,       61.1668,       120.666,            0.,NA,NA,"",   997.104E+03,   918.877E+03,   918.877E+03
C:/temp/Job-11.odb,Step-1,Increment      1: Step Time =    1.000,"P-11-1",          1306,       141.304,       59.5972,            0.,NA,NA,"",   1.28076E+06,   1.20098E+06,   1.20098E+06
C:/temp/Job-11.odb,Step-1,Increment      1: Step Time =    1.000,"P-11-1",          1307,       136.586,       79.5796,            0.,NA,NA,"",   1.17005E+06,   1.01484E+06,   1.01484E+06
C:/temp/Job-11.odb,Step-1,Increment      1: Step Time =    1.000,"P-11-1",          1308,       119.616,       39.6903,            0.,NA,NA,"",   1.13685E+06,   1.15515E+06,   1.15515E+06
C:/temp/Job-11.odb,Step-1,Increment      1: Step Time =    1.000,"P-11-1",          1309,       117.988,       159.722,            0.,NA,NA,"",   1.13159E+06,   1.15635E+06,   1.15635E+06
C:/temp/Job-11.odb,Step-1,Increment      1: Step Time =    1.000,"P-11-1",          1310,       77.4502,       39.9912,            0.,NA,NA,"",   1.17698E+06,   1.18619E+06,   1.18619E+06
C:/temp/Job-11.odb,Step-1,Increment      1: Step Time =    1.000,"P-11-1",          1311,       38.3768,       31.2349,            0.,NA,NA,"",   1.13995E+06,   1.14638E+06,   1.14638E+06
C:/temp/Job-11.odb,Step-1,Increment      1: Step Time =    1.000,"P-11-1",          1312,       159.410,       167.168,            0.,NA,NA,"",   1.08363E+06,   1.06696E+06,   1.06696E+06
C:/temp/Job-11.odb,Step-1,Increment      1: Step Time =    1.000,"P-11-1",          1313,       166.672,       39.2490,            0.,NA,NA,"",   1.07318E+06,   1.06033E+06,   1.06033E+06
C:/temp/Job-11.odb,Step-1,Increment      1: Step Time =    1.000,"P-11-1",          1314,       94.1408,       33.1194,            0.,NA,NA,"",   1.06346E+06,   1.10248E+06,   1.10248E+06
C:/temp/Job-11.odb,Step-1,Increment      1: Step Time =    1.000,"P-11-1",          1315,       84.8069,       36.8865,            0.,NA,NA,"",   1.11907E+06,   1.14867E+06,   1.14867E+06
C:/temp/Job-11.odb,Step-1,Increment      1: Step Time =    1.000,"P-11-1",          1316,       33.7790,       158.628,            0.,NA,NA,"",   1.08540E+06,   1.10810E+06,   1.10810E+06
C:/temp/Job-11.odb,Step-1,Increment      1: Step Time =    1.000,"P-11-1",          1317,       37.1874,       104.760,            0.,NA,NA,"",   618.703E+03,   687.098E+03,   687.098E+03
C:/temp/Job-11.odb,Step-1,Increment      1: Step Time =    1.000,"P-11-1",          1318,       163.695,       95.1155,            0.,NA,NA,"",   806.324E+03,   840.184E+03,   840.184E+03
C:/temp/Job-11.odb,Step-1,Increment      1: Step Time =    1.000,"P-11-1",          1319,       115.932,       164.879,            0.,NA,NA,"",   1.08934E+06,   1.11476E+06,   1.11476E+06
C:/temp/Job-11.odb,Step-1,Increment      1: Step Time =    1.000,"P-11-1",          1320,       36.2800,       114.093,            0.,NA,NA,"",   695.054E+03,   756.975E+03,   756.975E+03
C:/temp/Job-11.odb,Step-1,Increment      1: Step Time =    1.000,"P-11-1",          1321,       108.006,       160.542,            0.,NA,NA,"",   1.08622E+06,   1.13698E+06,   1.13698E+06
C:/temp/Job-11.odb,Step-1,Increment      1: Step Time =    1.000,"P-11-1",          1322,       164.200,       85.4007,            0.,NA,NA,"",   891.517E+03,   907.887E+03,   907.887E+03
C:/temp/Job-11.odb,Step-1,Increment      1: Step Time =    1.000,"P-11-1",          1323,       34.6153,       38.6409,            0.,NA,NA,"",   1.10343E+06,   1.12143E+06,   1.12143E+06
C:/temp/Job-11.odb,Step-1,Increment      1: Step Time =    1.000,"P-11-1",          1324,       163.889,       158.774,            0.,NA,NA,"",   1.08994E+06,   1.07216E+06,   1.07216E+06
C:/temp/Job-11.odb,Step-1,Increment      1: Step Time =    1.000,"P-11-1",          1325,       37.9758,       125.321,            0.,NA,NA,"",   842.408E+03,   880.330E+03,   880.330E+03
C:/temp/Job-11.odb,Step-1,Increment      1: Step Time =    1.000,"P-11-1",          1326,       157.220,       35.8500,            0.,NA,NA,"",   1.10046E+06,   1.07949E+06,   1.07949E+06
C:/temp/Job-11.odb,Step-1,Increment      1: Step Time =    1.000,"P-11-1",          1327,       36.1802,       94.9165,            0.,NA,NA,"",   624.546E+03,   693.693E+03,   693.693E+03
C:/temp/Job-11.odb,Step-1,Increment      1: Step Time =    1.000,"P-11-1",          1328,       104.074,       36.9415,            0.,NA,NA,"",   1.06610E+06,   1.11678E+06,   1.11678E+06
C:/temp/Job-11.odb,Step-1,Increment      1: Step Time =    1.000,"P-11-1",          1329,       163.449,       104.734,            0.,NA,NA,"",   801.525E+03,   835.608E+03,   835.608E+03
C:/temp/Job-11.odb,Step-1,Increment      1: Step Time =    1.000,"P-11-1",          1330,       72.9599,       36.5165,            0.,NA,NA,"",   1.17215E+06,   1.16994E+06,   1.16994E+06
C:/temp/Job-11.odb,Step-1,Increment      1: Step Time =    1.000,"P-11-1",          1331,       164.525,       69.0131,            0.,NA,NA,"",   1.04544E+06,   1.02973E+06,   1.02973E+06
C:/temp/Job-11.odb,Step-1,Increment      1: Step Time =    1.000,"P-11-1",          1332,       130.652,       165.077,            0.,NA,NA,"",   1.13489E+06,   1.12505E+06,   1.12505E+06
C:/temp/Job-11.odb,Step-1,Increment      1: Step Time =    1.000,"P-11-1",          1333,       125.974,       165.924,            0.,NA,NA,"",   1.11672E+06,   1.11812E+06,   1.11812E+06
C:/temp/Job-11.odb,Step-1,Increment      1: Step Time =    1.000,"P-11-1",          1334,       42.2295,       162.925,            0.,NA,NA,"",   1.14225E+06,   1.14198E+06,   1.14198E+06
C:/temp/Job-11.odb,Step-1,Increment      1: Step Time =    1.000,"P-11-1",          1335,       135.544,       68.4578,            0.,NA,NA,"",   1.34401E+06,   1.22589E+06,   1.22589E+06
C:/temp/Job-11.odb,Step-1,Increment      1: Step Time =    1.000,"P-11-1",          1336,       67.4533,       34.9169,            0.,NA,NA,"",   1.17355E+06,   1.16352E+06,   1.16352E+06
C:/temp/Job-11.odb,Step-1,Increment      1: Step Time =    1.000,"P-11-1",          1337,       96.0161,       163.736,            0.,NA,NA,"",   1.06963E+06,   1.11884E+06,   1.11884E+06
C:/temp/Job-11.odb,Step-1,Increment      1: Step Time =    1.000,"P-11-1",          1338,       164.258,       74.2612,            0.,NA,NA,"",   1.00382E+06,   995.673E+03,   995.673E+03
C:/temp/Job-11.odb,Step-1,Increment      1: Step Time =    1.000,"P-11-1",          1339,       153.368,       105.457,            0.,NA,NA,"",   720.830E+03,   737.045E+03,   737.045E+03
C:/temp/Job-11.odb,Step-1,Increment      1: Step Time =    1.000,"P-11-1",          1340,       46.9660,       94.3675,            0.,NA,NA,"",   570.592E+03,   623.335E+03,   623.335E+03
C:/temp/Job-11.odb,Step-1,Increment      1: Step Time =    1.000,"P-11-1",          1341,       52.5655,       98.5912,            0.,NA,NA,"",   469.519E+03,   516.461E+03,   516.461E+03
C:/temp/Job-11.odb,Step-1,Increment      1: Step Time =    1.000,"P-11-1",          1342,       147.856,       101.183,            0.,NA,NA,"",   598.174E+03,   613.239E+03,   613.239E+03
C:/temp/Job-11.odb,Step-1,Increment      1: Step Time =    1.000,"P-11-1",          1343,       35.0344,       134.945,            0.,NA,NA,"",   929.217E+03,   963.794E+03,   963.794E+03
C:/temp/Job-11.odb,Step-1,Increment      1: Step Time =    1.000,"P-11-1",          1344,       142.448,       138.271,            0.,NA,NA,"",   1.27510E+06,   1.18914E+06,   1.18914E+06
C:/temp/Job-11.odb,Step-1,Increment      1: Step Time =    1.000,"P-11-1",          1345,       57.1838,       61.5938,            0.,NA,NA,"",   1.18755E+06,   1.14136E+06,   1.14136E+06
C:/temp/Job-11.odb,Step-1,Increment      1: Step Time =    1.000,"P-11-1",          1346,       154.488,       114.753,            0.,NA,NA,"",   885.847E+03,   869.267E+03,   869.267E+03
C:/temp/Job-11.odb,Step-1,Increment      1: Step Time =    1.000,"P-11-1",          1347,       45.7722,       85.1021,            0.,NA,NA,"",   722.360E+03,   755.007E+03,   755.007E+03
C:/temp/Job-11.odb,Step-1,Increment      1: Step Time =    1.000,"P-11-1",          1348,       66.4514,       43.3562,            0.,NA,NA,"",   1.22104E+06,   1.20111E+06,   1.20111E+06
C:/temp/Job-11.odb,Step-1,Increment      1: Step Time =    1.000,"P-11-1",          1349,       129.371,       157.752,            0.,NA,NA,"",   1.19052E+06,   1.17561E+06,   1.17561E+06
C:/temp/Job-11.odb,Step-1,Increment      1: Step Time =    1.000,"P-11-1",          1350,       133.292,       42.7037,            0.,NA,NA,"",   1.20113E+06,   1.17501E+06,   1.17501E+06
C:/temp/Job-11.odb,Step-1,Increment      1: Step Time =    1.000,"P-11-1",          1351,       132.498,       137.009,            0.,NA,NA,"",   1.36663E+06,   1.27360E+06,   1.27360E+06
C:/temp/Job-11.odb,Step-1,Increment      1: Step Time =    1.000,"P-11-1",          1352,       67.1759,       62.8910,            0.,NA,NA,"",   1.29751E+06,   1.23232E+06,   1.23232E+06
C:/temp/Job-11.odb,Step-1,Increment      1: Step Time =    1.000,"P-11-1",          1353,       69.0122,       157.487,            0.,NA,NA,"",   1.21294E+06,   1.19934E+06,   1.19934E+06
C:/temp/Job-11.odb,Step-1,Increment      1: Step Time =    1.000,"P-11-1",          1354,       33.4572,       139.051,            0.,NA,NA,"",   953.097E+03,   989.246E+03,   989.246E+03
C:/temp/Job-11.odb,Step-1,Increment      1: Step Time =    1.000,"P-11-1",          1355,       160.287,       124.105,            0.,NA,NA,"",   1.01110E+06,   990.850E+03,   990.850E+03
C:/temp/Job-11.odb,Step-1,Increment      1: Step Time =    1.000,"P-11-1",          1356,       38.7159,       75.7743,            0.,NA,NA,"",   835.372E+03,   871.911E+03,   871.911E+03
C:/temp/Job-11.odb,Step-1,Increment      1: Step Time =    1.000,"P-11-1",          1357,       165.859,       59.0039,            0.,NA,NA,"",   1.08435E+06,   1.06537E+06,   1.06537E+06
C:/temp/Job-11.odb,Step-1,Increment      1: Step Time =    1.000,"P-11-1",          1358,       151.429,       124.713,            0.,NA,NA,"",   1.07698E+06,   1.01821E+06,   1.01821E+06
C:/temp/Job-11.odb,Step-1,Increment      1: Step Time =    1.000,"P-11-1",          1359,       139.471,       166.189,            0.,NA,NA,"",   1.13150E+06,   1.11039E+06,   1.11039E+06
C:/temp/Job-11.odb,Step-1,Increment      1: Step Time =    1.000,"P-11-1",          1360,       59.8682,       35.2320,            0.,NA,NA,"",   1.17969E+06,   1.16399E+06,   1.16399E+06
C:/temp/Job-11.odb,Step-1,Increment      1: Step Time =    1.000,"P-11-1",          1361,       48.7520,       75.3350,            0.,NA,NA,"",   924.063E+03,   920.529E+03,   920.529E+03
C:/temp/Job-11.odb,Step-1,Increment      1: Step Time =    1.000,"P-11-1",          1362,       59.7460,       140.872,            0.,NA,NA,"",   1.22155E+06,   1.17336E+06,   1.17336E+06
C:/temp/Job-11.odb,Step-1,Increment      1: Step Time =    1.000,"P-11-1",          1363,       141.800,       35.4708,            0.,NA,NA,"",   1.14110E+06,   1.11600E+06,   1.11600E+06
C:/temp/Job-11.odb,Step-1,Increment      1: Step Time =    1.000,"P-11-1",          1364,       37.2321,       61.7106,            0.,NA,NA,"",   976.248E+03,   1.00014E+06,   1.00014E+06
C:/temp/Job-11.odb,Step-1,Increment      1: Step Time =    1.000,"P-11-1",          1365,       165.351,       139.787,            0.,NA,NA,"",   1.08105E+06,   1.06185E+06,   1.06185E+06
C:/temp/Job-11.odb,Step-1,Increment      1: Step Time =    1.000,"P-11-1",          1366,       133.757,       141.653,            0.,NA,NA,"",   1.32710E+06,   1.25375E+06,   1.25375E+06
C:/temp/Job-11.odb,Step-1,Increment      1: Step Time =    1.000,"P-11-1",          1367,       65.6840,       58.4259,            0.,NA,NA,"",   1.27637E+06,   1.22563E+06,   1.22563E+06
C:/temp/Job-11.odb,Step-1,Increment      1: Step Time =    1.000,"P-11-1",          1368,       160.148,       119.193,            0.,NA,NA,"",   948.856E+03,   940.244E+03,   940.244E+03
C:/temp/Job-11.odb,Step-1,Increment      1: Step Time =    1.000,"P-11-1",          1369,       32.9488,       86.3560,            0.,NA,NA,"",   693.419E+03,   760.388E+03,   760.388E+03
C:/temp/Job-11.odb,Step-1,Increment      1: Step Time =    1.000,"P-11-1",          1370,       39.8223,       80.7029,            0.,NA,NA,"",   772.086E+03,   815.066E+03,   815.066E+03
C:/temp/Job-11.odb,Step-1,Increment      1: Step Time =    1.000,"P-11-1",          1371,       84.3133,       162.607,            0.,NA,NA,"",   1.12674E+06,   1.15470E+06,   1.15470E+06
C:/temp/Job-11.odb,Step-1,Increment      1: Step Time =    1.000,"P-11-1",          1372,       109.538,       35.6843,            0.,NA,NA,"",   1.07119E+06,   1.11198E+06,   1.11198E+06
C:/temp/Job-11.odb,Step-1,Increment      1: Step Time =    1.000,"P-11-1",          1373,       52.2640,       167.871,            0.,NA,NA,"",   1.16408E+06,   1.15274E+06,   1.15274E+06
C:/temp/Job-11.odb,Step-1,Increment      1: Step Time =    1.000,"P-11-1",          1374,       38.1905,       34.8051,            0.,NA,NA,"",   1.13081E+06,   1.13874E+06,   1.13874E+06
C:/temp/Job-11.odb,Step-1,Increment      1: Step Time =    1.000,"P-11-1",          1375,       162.100,       163.310,            0.,NA,NA,"",   1.08580E+06,   1.06883E+06,   1.06883E+06
C:/temp/Job-11.odb,Step-1,Increment      1: Step Time =    1.000,"P-11-1",          1376,       89.2814,       38.3185,            0.,NA,NA,"",   1.10357E+06,   1.14564E+06,   1.14564E+06
C:/temp/Job-11.odb,Step-1,Increment      1: Step Time =    1.000,"P-11-1",          1377,       39.9788,       120.163,            0.,NA,NA,"",   783.319E+03,   823.594E+03,   823.594E+03
C:/temp/Job-11.odb,Step-1,Increment      1: Step Time =    1.000,"P-11-1",          1378,       50.2244,       112.083,            0.,NA,NA,"",   668.042E+03,   693.839E+03,   693.839E+03
C:/temp/Job-11.odb,Step-1,Increment      1: Step Time =    1.000,"P-11-1",          1379,       159.918,       85.5880,            0.,NA,NA,"",   882.725E+03,   888.190E+03,   888.190E+03
C:/temp/Job-11.odb,Step-1,Increment      1: Step Time =    1.000,"P-11-1",          1380,       150.534,       85.5941,            0.,NA,NA,"",   878.519E+03,   847.587E+03,   847.587E+03
C:/temp/Job-11.odb,Step-1,Increment      1: Step Time =    1.000,"P-11-1",          1381,       162.633,       40.1969,            0.,NA,NA,"",   1.09215E+06,   1.07363E+06,   1.07363E+06
C:/temp/Job-11.odb,Step-1,Increment      1: Step Time =    1.000,"P-11-1",          1382,       110.762,       157.996,            0.,NA,NA,"",   1.10723E+06,   1.15759E+06,   1.15759E+06
C:/temp/Job-11.odb,Step-1,Increment      1: Step Time =    1.000,"P-11-1",          1383,       135.087,       46.8418,            0.,NA,NA,"",   1.23202E+06,   1.19329E+06,   1.19329E+06
C:/temp/Job-11.odb,Step-1,Increment      1: Step Time =    1.000,"P-11-1",          1384,       122.719,       40.3589,            0.,NA,NA,"",   1.15360E+06,   1.16151E+06,   1.16151E+06
C:/temp/Job-11.odb,Step-1,Increment      1: Step Time =    1.000,"P-11-1",          1385,       42.0455,       99.4123,            0.,NA,NA,"",   577.821E+03,   641.844E+03,   641.844E+03
C:/temp/Job-11.odb,Step-1,Increment      1: Step Time =    1.000,"P-11-1",          1386,       158.304,       77.5789,            0.,NA,NA,"",   993.747E+03,   969.945E+03,   969.945E+03
C:/temp/Job-11.odb,Step-1,Increment      1: Step Time =    1.000,"P-11-1",          1387,       158.345,       100.181,            0.,NA,NA,"",   740.989E+03,   771.466E+03,   771.466E+03
C:/temp/Job-11.odb,Step-1,Increment      1: Step Time =    1.000,"P-11-1",          1388,       65.1174,       152.574,            0.,NA,NA,"",   1.23696E+06,   1.21170E+06,   1.21170E+06
C:/temp/Job-11.odb,Step-1,Increment      1: Step Time =    1.000,"P-11-1",          1389,       39.1992,       160.159,            0.,NA,NA,"",   1.12155E+06,   1.12905E+06,   1.12905E+06
C:/temp/Job-11.odb,Step-1,Increment      1: Step Time =    1.000,"P-11-1",          1390,       70.5965,       161.889,            0.,NA,NA,"",   1.18548E+06,   1.17826E+06,   1.17826E+06
C:/temp/Job-11.odb,Step-1,Increment      1: Step Time =    1.000,"P-11-1",          1391,       140.282,       70.6233,            0.,NA,NA,"",   1.27140E+06,   1.15407E+06,   1.15407E+06
C:/temp/Job-11.odb,Step-1,Increment      1: Step Time =    1.000,"P-11-1",          1392,       40.0643,       130.033,            0.,NA,NA,"",   915.944E+03,   939.403E+03,   939.403E+03
C:/temp/Job-11.odb,Step-1,Increment      1: Step Time =    1.000,"P-11-1",          1393,       32.1038,       69.8915,            0.,NA,NA,"",   863.137E+03,   911.796E+03,   911.796E+03
C:/temp/Job-11.odb,Step-1,Increment      1: Step Time =    1.000,"P-11-1",          1394,       65.1562,       47.6807,            0.,NA,NA,"",   1.23939E+06,   1.21101E+06,   1.21101E+06
C:/temp/Job-11.odb,Step-1,Increment      1: Step Time =    1.000,"P-11-1",          1395,       70.7857,       39.9262,            0.,NA,NA,"",   1.19810E+06,   1.18969E+06,   1.18969E+06
C:/temp/Job-11.odb,Step-1,Increment      1: Step Time =    1.000,"P-11-1",          1396,       126.974,       162.064,            0.,NA,NA,"",   1.14954E+06,   1.14606E+06,   1.14606E+06
C:/temp/Job-11.odb,Step-1,Increment      1: Step Time =    1.000,"P-11-1",          1397,       132.432,       153.541,            0.,NA,NA,"",   1.23189E+06,   1.19988E+06,   1.19988E+06
C:/temp/Job-11.odb,Step-1,Increment      1: Step Time =    1.000,"P-11-1",          1398,       142.721,       66.2733,            0.,NA,NA,"",   1.26504E+06,   1.16753E+06,   1.16753E+06
C:/temp/Job-11.odb,Step-1,Increment      1: Step Time =    1.000,"P-11-1",          1399,       135.663,       84.1856,            0.,NA,NA,"",   1.03030E+06,   871.091E+03,   871.091E+03
C:/temp/Job-11.odb,Step-1,Increment      1: Step Time =    1.000,"P-11-1",          1400,       159.061,       109.570,            0.,NA,NA,"",   817.216E+03,   833.781E+03,   833.781E+03
C:/temp/Job-11.odb,Step-1,Increment      1: Step Time =    1.000,"P-11-1",          1401,       41.3400,       90.1939,            0.,NA,NA,"",   645.298E+03,   702.139E+03,   702.139E+03
C:/temp/Job-11.odb,Step-1,Increment      1: Step Time =    1.000,"P-11-1",          1402,       155.015,       119.410,            0.,NA,NA,"",   972.601E+03,   941.258E+03,   941.258E+03
C:/temp/Job-11.odb,Step-1,Increment      1: Step Time =    1.000,"P-11-1",          1403,       45.0110,       80.3919,            0.,NA,NA,"",   808.239E+03,   830.616E+03,   830.616E+03
C:/temp/Job-11.odb,Step-1,Increment      1: Step Time =    1.000,"P-11-1",          1404,       145.116,       133.245,            0.,NA,NA,"",   1.22623E+06,   1.13572E+06,   1.13572E+06
C:/temp/Job-11.odb,Step-1,Increment      1: Step Time =    1.000,"P-11-1",          1405,       140.006,       143.662,            0.,NA,NA,"",   1.27625E+06,   1.20652E+06,   1.20652E+06
C:/temp/Job-11.odb,Step-1,Increment      1: Step Time =    1.000,"P-11-1",          1406,       54.9931,       66.9690,            0.,NA,NA,"",   1.10776E+06,   1.06546E+06,   1.06546E+06
C:/temp/Job-11.odb,Step-1,Increment      1: Step Time =    1.000,"P-11-1",          1407,       59.5020,       55.8954,            0.,NA,NA,"",   1.22351E+06,   1.18293E+06,   1.18293E+06
C:/temp/Job-11.odb,Step-1,Increment      1: Step Time =    1.000,"P-11-1",          1408,       110.095,       40.4609,            0.,NA,NA,"",   1.09766E+06,   1.14632E+06,   1.14632E+06
C:/temp/Job-11.odb,Step-1,Increment      1: Step Time =    1.000,"P-11-1",          1409,       148.352,       132.321,            0.,NA,NA,"",   1.18371E+06,   1.10598E+06,   1.10598E+06
C:/temp/Job-11.odb,Step-1,Increment      1: Step Time =    1.000,"P-11-1",          1410,       51.9550,       68.0277,            0.,NA,NA,"",   1.05613E+06,   1.02867E+06,   1.02867E+06
C:/temp/Job-11.odb,Step-1,Increment      1: Step Time =    1.000,"P-11-1",          1411,       152.180,       35.6945,            0.,NA,NA,"",   1.11672E+06,   1.09235E+06,   1.09235E+06
C:/temp/Job-11.odb,Step-1,Increment      1: Step Time =    1.000,"P-11-1",          1412,       168.378,       153.238,            0.,NA,NA,"",   1.07611E+06,   1.06338E+06,   1.06338E+06
C:/temp/Job-11.odb,Step-1,Increment      1: Step Time =    1.000,"P-11-1",          1413,       34.5205,       51.9818,            0.,NA,NA,"",   1.03244E+06,   1.05772E+06,   1.05772E+06
C:/temp/Job-11.odb,Step-1,Increment      1: Step Time =    1.000,"P-11-1",          1414,       63.8109,       37.9920,            0.,NA,NA,"",   1.19352E+06,   1.17686E+06,   1.17686E+06
C:/temp/Job-11.odb,Step-1,Increment      1: Step Time =    1.000,"P-11-1",          1415,       164.822,       134.546,            0.,NA,NA,"",   1.06494E+06,   1.04704E+06,   1.04704E+06
C:/temp/Job-11.odb,Step-1,Increment      1: Step Time =    1.000,"P-11-1",          1416,       39.7335,       63.8150,            0.,NA,NA,"",   976.678E+03,   995.147E+03,   995.147E+03
C:/temp/Job-11.odb,Step-1,Increment      1: Step Time =    1.000,"P-11-1",          1417,       135.480,       166.388,            0.,NA,NA,"",   1.13111E+06,   1.11430E+06,   1.11430E+06
C:/temp/Job-11.odb,Step-1,Increment      1: Step Time =    1.000,"P-11-1",          1418,       163.743,       63.2989,            0.,NA,NA,"",   1.08298E+06,   1.05958E+06,   1.05958E+06
C:/temp/Job-11.odb,Step-1,Increment      1: Step Time =    1.000,"P-11-1",          1419,       136.743,       36.5364,            0.,NA,NA,"",   1.15166E+06,   1.13001E+06,   1.13001E+06
C:/temp/Job-11.odb,Step-1,Increment      1: Step Time =    1.000,"P-11-1",          1420,       37.4352,       55.8158,            0.,NA,NA,"",   1.02657E+06,   1.04583E+06,   1.04583E+06
C:/temp/Job-11.odb,Step-1,Increment      1: Step Time =    1.000,"P-11-1",          1421,       52.6019,       36.4848,            0.,NA,NA,"",   1.17282E+06,   1.15837E+06,   1.15837E+06
C:/temp/Job-11.odb,Step-1,Increment      1: Step Time =    1.000,"P-11-1",          1422,       166.675,       144.889,            0.,NA,NA,"",   1.08458E+06,   1.06725E+06,   1.06725E+06
C:/temp/Job-11.odb,Step-1,Increment      1: Step Time =    1.000,"P-11-1",          1423,       144.227,       164.212,            0.,NA,NA,"",   1.13741E+06,   1.11144E+06,   1.11144E+06
C:/temp/Job-11.odb,Step-1,Increment      1: Step Time =    1.000,"P-11-1",          1424,       163.652,       54.6822,            0.,NA,NA,"",   1.10392E+06,   1.07930E+06,   1.07930E+06
C:/temp/Job-11.odb,Step-1,Increment      1: Step Time =    1.000,"P-11-1",          1425,       147.016,       35.4091,            0.,NA,NA,"",   1.13007E+06,   1.10428E+06,   1.10428E+06
C:/temp/Job-11.odb,Step-1,Increment      1: Step Time =    1.000,"P-11-1",          1426,       34.7392,       148.807,            0.,NA,NA,"",   1.03698E+06,   1.06166E+06,   1.06166E+06
C:/temp/Job-11.odb,Step-1,Increment      1: Step Time =    1.000,"P-11-1",          1427,       54.6621,       136.643,            0.,NA,NA,"",   1.14550E+06,   1.10660E+06,   1.10660E+06
C:/temp/Job-11.odb,Step-1,Increment      1: Step Time =    1.000,"P-11-1",          1428,       48.0288,       103.546,            0.,NA,NA,"",   542.345E+03,   595.512E+03,   595.512E+03
C:/temp/Job-11.odb,Step-1,Increment      1: Step Time =    1.000,"P-11-1",          1429,       152.675,       95.7097,            0.,NA,NA,"",   698.220E+03,   715.799E+03,   715.799E+03
C:/temp/Job-11.odb,Step-1,Increment      1: Step Time =    1.000,"P-11-1",          1430,       65.5960,       122.910,            0.,NA,NA,"",   1.13036E+06,   1.02187E+06,   1.02187E+06
C:/temp/Job-11.odb,Step-1,Increment      1: Step Time =    1.000,"P-11-1",          1431,       47.4148,       98.9683,            0.,NA,NA,"",   531.751E+03,   588.375E+03,   588.375E+03
C:/temp/Job-11.odb,Step-1,Increment      1: Step Time =    1.000,"P-11-1",          1432,       153.070,       100.622,            0.,NA,NA,"",   678.845E+03,   702.634E+03,   702.634E+03
C:/temp/Job-11.odb,Step-1,Increment      1: Step Time =    1.000,"P-11-1",          1433,       45.5622,       113.393,            0.,NA,NA,"",   693.679E+03,   730.804E+03,   730.804E+03
C:/temp/Job-11.odb,Step-1,Increment      1: Step Time =    1.000,"P-11-1",          1434,       156.130,       85.4201,            0.,NA,NA,"",   876.534E+03,   869.044E+03,   869.044E+03
C:/temp/Job-11.odb,Step-1,Increment      1: Step Time =    1.000,"P-11-1",          1435,       47.9358,       116.873,            0.,NA,NA,"",   754.722E+03,   775.016E+03,   775.016E+03
C:/temp/Job-11.odb,Step-1,Increment      1: Step Time =    1.000,"P-11-1",          1436,       152.195,       80.4096,            0.,NA,NA,"",   977.589E+03,   935.171E+03,   935.171E+03
C:/temp/Job-11.odb,Step-1,Increment      1: Step Time =    1.000,"P-11-1",          1437,       78.1340,       164.768,            0.,NA,NA,"",   1.14267E+06,   1.15301E+06,   1.15301E+06
C:/temp/Job-11.odb,Step-1,Increment      1: Step Time =    1.000,"P-11-1",          1438,       36.4313,       90.3771,            0.,NA,NA,"",   655.370E+03,   720.862E+03,   720.862E+03
C:/temp/Job-11.odb,Step-1,Increment      1: Step Time =    1.000,"P-11-1",          1439,       163.979,       108.731,            0.,NA,NA,"",   833.881E+03,   862.614E+03,   862.614E+03
C:/temp/Job-11.odb,Step-1,Increment      1: Step Time =    1.000,"P-11-1",          1440,       47.5484,       164.513,            0.,NA,NA,"",   1.15924E+06,   1.15104E+06,   1.15104E+06
C:/temp/Job-11.odb,Step-1,Increment      1: Step Time =    1.000,"P-11-1",          1441,       159.275,       140.640,            0.,NA,NA,"",   1.12674E+06,   1.08935E+06,   1.08935E+06
C:/temp/Job-11.odb,Step-1,Increment      1: Step Time =    1.000,"P-11-1",          1442,       40.3912,       59.2032,            0.,NA,NA,"",   1.02406E+06,   1.03606E+06,   1.03606E+06
C:/temp/Job-11.odb,Step-1,Increment      1: Step Time =    1.000,"P-11-1",          1443,       47.8826,       33.7604,            0.,NA,NA,"",   1.15887E+06,   1.15072E+06,   1.15072E+06
C:/temp/Job-11.odb,Step-1,Increment      1: Step Time =    1.000,"P-11-1",          1444,       57.2356,       39.4059,            0.,NA,NA,"",   1.18933E+06,   1.17003E+06,   1.17003E+06
C:/temp/Job-11.odb,Step-1,Increment      1: Step Time =    1.000,"P-11-1",          1445,       149.849,       164.997,            0.,NA,NA,"",   1.11948E+06,   1.09496E+06,   1.09496E+06
C:/temp/Job-11.odb,Step-1,Increment      1: Step Time =    1.000,"P-11-1",          1446,       140.114,       160.081,            0.,NA,NA,"",   1.17108E+06,   1.14072E+06,   1.14072E+06
C:/temp/Job-11.odb,Step-1,Increment      1: Step Time =    1.000,"P-11-1",          1447,       65.1721,       162.786,            0.,NA,NA,"",   1.18356E+06,   1.16996E+06,   1.16996E+06
C:/temp/Job-11.odb,Step-1,Increment      1: Step Time =    1.000,"P-11-1",          1448,       131.241,       32.8169,            0.,NA,NA,"",   1.12166E+06,   1.11263E+06,   1.11263E+06
C:/temp/Job-11.odb,Step-1,Increment      1: Step Time =    1.000,"P-11-1",          1449,       146.686,       40.3247,            0.,NA,NA,"",   1.15825E+06,   1.12504E+06,   1.12504E+06
C:/temp/Job-11.odb,Step-1,Increment      1: Step Time =    1.000,"P-11-1",          1450,       164.604,       49.1454,            0.,NA,NA,"",   1.09864E+06,   1.07779E+06,   1.07779E+06
C:/temp/Job-11.odb,Step-1,Increment      1: Step Time =    1.000,"P-11-1",          1451,       159.666,       59.1173,            0.,NA,NA,"",   1.12630E+06,   1.08941E+06,   1.08941E+06
C:/temp/Job-11.odb,Step-1,Increment      1: Step Time =    1.000,"P-11-1",          1452,       156.348,       129.043,            0.,NA,NA,"",   1.08593E+06,   1.04231E+06,   1.04231E+06
C:/temp/Job-11.odb,Step-1,Increment      1: Step Time =    1.000,"P-11-1",          1453,       43.7645,       71.1383,            0.,NA,NA,"",   934.038E+03,   945.196E+03,   945.196E+03
C:/temp/Job-11.odb,Step-1,Increment      1: Step Time =    1.000,"P-11-1",          1454,       143.995,       142.520,            0.,NA,NA,"",   1.25218E+06,   1.18067E+06,   1.18067E+06
C:/temp/Job-11.odb,Step-1,Increment      1: Step Time =    1.000,"P-11-1",          1455,       39.0209,       144.519,            0.,NA,NA,"",   1.04079E+06,   1.05497E+06,   1.05497E+06
C:/temp/Job-11.odb,Step-1,Increment      1: Step Time =    1.000,"P-11-1",          1456,       32.7573,       153.738,            0.,NA,NA,"",   1.05515E+06,   1.08232E+06,   1.08232E+06
C:/temp/Job-11.odb,Step-1,Increment      1: Step Time =    1.000,"P-11-1",          1457,       55.1848,       56.7539,            0.,NA,NA,"",   1.18247E+06,   1.14789E+06,   1.14789E+06
C:/temp/Job-11.odb,Step-1,Increment      1: Step Time =    1.000,"P-11-1",          1458,       140.523,       47.2867,            0.,NA,NA,"",   1.22075E+06,   1.17535E+06,   1.17535E+06
C:/temp/Job-11.odb,Step-1,Increment      1: Step Time =    1.000,"P-11-1",          1459,       46.1554,       160.723,            0.,NA,NA,"",   1.15384E+06,   1.14679E+06,   1.14679E+06
C:/temp/Job-11.odb,Step-1,Increment      1: Step Time =    1.000,"P-11-1",          1460,       151.578,       41.0220,            0.,NA,NA,"",   1.14362E+06,   1.11173E+06,   1.11173E+06
C:/temp/Job-11.odb,Step-1,Increment      1: Step Time =    1.000,"P-11-1",          1461,       147.054,       68.4540,            0.,NA,NA,"",   1.20155E+06,   1.11525E+06,   1.11525E+06
C:/temp/Job-11.odb,Step-1,Increment      1: Step Time =    1.000,"P-11-1",          1462,       54.8667,       140.650,            0.,NA,NA,"",   1.16966E+06,   1.13295E+06,   1.13295E+06
C:/temp/Job-11.odb,Step-1,Increment      1: Step Time =    1.000,"P-11-1",          1463,       55.4511,       126.949,            0.,NA,NA,"",   1.03796E+06,   993.451E+03,   993.451E+03
C:/temp/Job-11.odb,Step-1,Increment      1: Step Time =    1.000,"P-11-1",          1464,       160.241,       128.974,            0.,NA,NA,"",   1.05785E+06,   1.02968E+06,   1.02968E+06
C:/temp/Job-11.odb,Step-1,Increment      1: Step Time =    1.000,"P-11-1",          1465,       161.729,       155.691,            0.,NA,NA,"",   1.10745E+06,   1.08408E+06,   1.08408E+06
C:/temp/Job-11.odb,Step-1,Increment      1: Step Time =    1.000,"P-11-1",          1466,       36.9123,       46.2168,            0.,NA,NA,"",   1.08140E+06,   1.09702E+06,   1.09702E+06
C:/temp/Job-11.odb,Step-1,Increment      1: Step Time =    1.000,"P-11-1",          1467,       57.0345,       167.640,            0.,NA,NA,"",   1.16847E+06,   1.15500E+06,   1.15500E+06
C:/temp/Job-11.odb,Step-1,Increment      1: Step Time =    1.000,"P-11-1",          1468,       165.013,       154.069,            0.,NA,NA,"",   1.09319E+06,   1.07442E+06,   1.07442E+06
C:/temp/Job-11.odb,Step-1,Increment      1: Step Time =    1.000,"P-11-1",          1469,       38.8151,       49.9175,            0.,NA,NA,"",   1.07696E+06,   1.08838E+06,   1.08838E+06
C:/temp/Job-11.odb,Step-1,Increment      1: Step Time =    1.000,"P-11-1",          1470,       110.175,       154.886,            0.,NA,NA,"",   1.12374E+06,   1.18108E+06,   1.18108E+06
C:/temp/Job-11.odb,Step-1,Increment      1: Step Time =    1.000,"P-11-1",          1471,       92.4287,       43.1633,            0.,NA,NA,"",   1.11387E+06,   1.17310E+06,   1.17310E+06
C:/temp/Job-11.odb,Step-1,Increment      1: Step Time =    1.000,"P-11-1",          1472,       43.9070,       135.367,            0.,NA,NA,"",   1.00662E+06,   1.00997E+06,   1.00997E+06
C:/temp/Job-11.odb,Step-1,Increment      1: Step Time =    1.000,"P-11-1",          1473,       139.302,       153.554,            0.,NA,NA,"",   1.21902E+06,   1.17569E+06,   1.17569E+06
C:/temp/Job-11.odb,Step-1,Increment      1: Step Time =    1.000,"P-11-1",          1474,       60.1697,       46.1953,            0.,NA,NA,"",   1.21438E+06,   1.18716E+06,   1.18716E+06
C:/temp/Job-11.odb,Step-1,Increment      1: Step Time =    1.000,"P-11-1",          1475,       36.4351,       156.149,            0.,NA,NA,"",   1.08801E+06,   1.10472E+06,   1.10472E+06
C:/temp/Job-11.odb,Step-1,Increment      1: Step Time =    1.000,"P-11-1",          1476,       46.3760,       120.389,            0.,NA,NA,"",   819.651E+03,   834.842E+03,   834.842E+03
C:/temp/Job-11.odb,Step-1,Increment      1: Step Time =    1.000,"P-11-1",          1477,       159.805,       45.3459,            0.,NA,NA,"",   1.11616E+06,   1.08987E+06,   1.08987E+06
C:/temp/Job-11.odb,Step-1,Increment      1: Step Time =    1.000,"P-11-1",          1478,       156.194,       153.696,            0.,NA,NA,"",   1.14228E+06,   1.10802E+06,   1.10802E+06
C:/temp/Job-11.odb,Step-1,Increment      1: Step Time =    1.000,"P-11-1",          1479,       42.5214,       47.9109,            0.,NA,NA,"",   1.11149E+06,   1.11264E+06,   1.11264E+06
C:/temp/Job-11.odb,Step-1,Increment      1: Step Time =    1.000,"P-11-1",          1480,       50.9767,       144.150,            0.,NA,NA,"",   1.14588E+06,   1.12237E+06,   1.12237E+06
C:/temp/Job-11.odb,Step-1,Increment      1: Step Time =    1.000,"P-11-1",          1481,       148.325,       141.322,            0.,NA,NA,"",   1.21742E+06,   1.15054E+06,   1.15054E+06
C:/temp/Job-11.odb,Step-1,Increment      1: Step Time =    1.000,"P-11-1",          1482,       145.204,       146.988,            0.,NA,NA,"",   1.22713E+06,   1.16814E+06,   1.16814E+06
C:/temp/Job-11.odb,Step-1,Increment      1: Step Time =    1.000,"P-11-1",          1483,       50.8530,       58.7314,            0.,NA,NA,"",   1.12804E+06,   1.10468E+06,   1.10468E+06
C:/temp/Job-11.odb,Step-1,Increment      1: Step Time =    1.000,"P-11-1",          1484,       38.4855,       71.0606,            0.,NA,NA,"",   892.459E+03,   922.731E+03,   922.731E+03
C:/temp/Job-11.odb,Step-1,Increment      1: Step Time =    1.000,"P-11-1",          1485,       151.956,       134.801,            0.,NA,NA,"",   1.16416E+06,   1.10131E+06,   1.10131E+06
C:/temp/Job-11.odb,Step-1,Increment      1: Step Time =    1.000,"P-11-1",          1486,       48.6649,       65.8789,            0.,NA,NA,"",   1.04113E+06,   1.02721E+06,   1.02721E+06
C:/temp/Job-11.odb,Step-1,Increment      1: Step Time =    1.000,"P-11-1",          1487,       149.408,       74.5203,            0.,NA,NA,"",   1.10363E+06,   1.03051E+06,   1.03051E+06
C:/temp/Job-11.odb,Step-1,Increment      1: Step Time =    1.000,"P-11-1",          1488,       39.5037,       152.245,            0.,NA,NA,"",   1.09019E+06,   1.09939E+06,   1.09939E+06
C:/temp/Job-11.odb,Step-1,Increment      1: Step Time =    1.000,"P-11-1",          1489,       51.7064,       120.280,            0.,NA,NA,"",   865.545E+03,   853.522E+03,   853.522E+03
C:/temp/Job-11.odb,Step-1,Increment      1: Step Time =    1.000,"P-11-1",          1490,       156.844,       68.5141,            0.,NA,NA,"",   1.10473E+06,   1.05862E+06,   1.05862E+06
C:/temp/Job-11.odb,Step-1,Increment      1: Step Time =    1.000,"P-11-1",          1491,       80.2546,       169.293,            0.,NA,NA,"",   1.10656E+06,   1.12001E+06,   1.12001E+06
C:/temp/Job-11.odb,Step-1,Increment      1: Step Time =    1.000,"P-11-1",          1492,       53.3253,       132.865,            0.,NA,NA,"",   1.09713E+06,   1.06169E+06,   1.06169E+06
C:/temp/Job-11.odb,Step-1,Increment      1: Step Time =    1.000,"P-11-1",          1493,       49.3398,       29.1323,            0.,NA,NA,"",   1.15725E+06,   1.14895E+06,   1.14895E+06
C:/temp/Job-11.odb,Step-1,Increment      1: Step Time =    1.000,"P-11-1",          1494,       45.8157,       37.5804,            0.,NA,NA,"",   1.15259E+06,   1.14652E+06,   1.14652E+06
C:/temp/Job-11.odb,Step-1,Increment      1: Step Time =    1.000,"P-11-1",          1495,       149.892,       160.281,            0.,NA,NA,"",   1.14384E+06,   1.11292E+06,   1.11292E+06
C:/temp/Job-11.odb,Step-1,Increment      1: Step Time =    1.000,"P-11-1",          1496,       150.306,       170.287,            0.,NA,NA,"",   1.09318E+06,   1.07487E+06,   1.07487E+06
C:/temp/Job-11.odb,Step-1,Increment      1: Step Time =    1.000,"P-11-1",          1497,       158.151,       47.3989,            0.,NA,NA,"",   1.12925E+06,   1.09828E+06,   1.09828E+06
C:/temp/Job-11.odb,Step-1,Increment      1: Step Time =    1.000,"P-11-1",          1498,       169.779,       48.8067,            0.,NA,NA,"",   1.07109E+06,   1.06050E+06,   1.06050E+06
C:/temp/Job-11.odb,Step-1,Increment      1: Step Time =    1.000,"P-11-1",          1499,       131.344,       37.9321,            0.,NA,NA,"",   1.15915E+06,   1.14579E+06,   1.14579E+06
C:/temp/Job-11.odb,Step-1,Increment      1: Step Time =    1.000,"P-11-1",          1500,       28.2936,       156.270,            0.,NA,NA,"",   1.04673E+06,   1.08383E+06,   1.08383E+06
C:/temp/Job-11.odb,Step-1,Increment      1: Step Time =    1.000,"P-11-1",          1501,       144.469,       55.4320,            0.,NA,NA,"",   1.24329E+06,   1.17827E+06,   1.17827E+06
C:/temp/Job-11.odb,Step-1,Increment      1: Step Time =    1.000,"P-11-1",          1502,       151.230,       70.4638,            0.,NA,NA,"",   1.13768E+06,   1.06915E+06,   1.06915E+06
C:/temp/Job-11.odb,Step-1,Increment      1: Step Time =    1.000,"P-11-1",          1503,       58.4984,       145.457,            0.,NA,NA,"",   1.21854E+06,   1.18047E+06,   1.18047E+06
C:/temp/Job-11.odb,Step-1,Increment      1: Step Time =    1.000,"P-11-1",          1504,       57.7427,       162.324,            0.,NA,NA,"",   1.18392E+06,   1.16717E+06,   1.16717E+06
C:/temp/Job-11.odb,Step-1,Increment      1: Step Time =    1.000,"P-11-1",          1505,       61.4162,       164.266,            0.,NA,NA,"",   1.18118E+06,   1.16599E+06,   1.16599E+06
C:/temp/Job-11.odb,Step-1,Increment      1: Step Time =    1.000,"P-11-1",          1506,       44.9535,       143.709,            0.,NA,NA,"",   1.08748E+06,   1.08203E+06,   1.08203E+06
C:/temp/Job-11.odb,Step-1,Increment      1: Step Time =    1.000,"P-11-1",          1507,       48.7448,       125.127,            0.,NA,NA,"",   927.829E+03,   920.426E+03,   920.426E+03
C:/temp/Job-11.odb,Step-1,Increment      1: Step Time =    1.000,"P-11-1",          1508,       56.8542,       149.556,            0.,NA,NA,"",   1.20686E+06,   1.17679E+06,   1.17679E+06
C:/temp/Job-11.odb,Step-1,Increment      1: Step Time =    1.000,"P-11-1",          1509,       41.1752,       37.8250,            0.,NA,NA,"",   1.13492E+06,   1.13724E+06,   1.13724E+06
C:/temp/Job-11.odb,Step-1,Increment      1: Step Time =    1.000,"P-11-1",          1510,       153.769,       159.624,            0.,NA,NA,"",   1.13182E+06,   1.10269E+06,   1.10269E+06
C:/temp/Job-11.odb,Step-1,Increment      1: Step Time =    1.000,"P-11-1",          1511,       44.6571,       43.0712,            0.,NA,NA,"",   1.13658E+06,   1.13293E+06,   1.13293E+06
C:/temp/Job-11.odb,Step-1,Increment      1: Step Time =    1.000,"P-11-1",          1512,       152.381,       155.076,            0.,NA,NA,"",   1.15749E+06,   1.12049E+06,   1.12049E+06
C:/temp/Job-11.odb,Step-1,Increment      1: Step Time =    1.000,"P-11-1",          1513,       154.778,       48.0419,            0.,NA,NA,"",   1.15333E+06,   1.11510E+06,   1.11510E+06
C:/temp/Job-11.odb,Step-1,Increment      1: Step Time =    1.000,"P-11-1",          1514,       154.645,       149.285,            0.,NA,NA,"",   1.16144E+06,   1.11951E+06,   1.11951E+06
C:/temp/Job-11.odb,Step-1,Increment      1: Step Time =    1.000,"P-11-1",          1515,       48.3324,       54.2740,            0.,NA,NA,"",   1.12574E+06,   1.11158E+06,   1.11158E+06
C:/temp/Job-11.odb,Step-1,Increment      1: Step Time =    1.000,"P-11-1",          1516,       165.096,       129.516,            0.,NA,NA,"",   1.03339E+06,   1.02137E+06,   1.02137E+06
C:/temp/Job-11.odb,Step-1,Increment      1: Step Time =    1.000,"P-11-1",          1517,       52.3321,       116.465,            0.,NA,NA,"",   776.569E+03,   775.480E+03,   775.480E+03
C:/temp/Job-11.odb,Step-1,Increment      1: Step Time =    1.000,"P-11-1",          1518,       46.5098,       150.594,            0.,NA,NA,"",   1.13487E+06,   1.12478E+06,   1.12478E+06
C:/temp/Job-11.odb,Step-1,Increment      1: Step Time =    1.000,"P-11-1",          1519,       59.0886,       50.9622,            0.,NA,NA,"",   1.21790E+06,   1.18502E+06,   1.18502E+06
C:/temp/Job-11.odb,Step-1,Increment      1: Step Time =    1.000,"P-11-1",          1520,       142.005,       151.194,            0.,NA,NA,"",   1.22478E+06,   1.17469E+06,   1.17469E+06
C:/temp/Job-11.odb,Step-1,Increment      1: Step Time =    1.000,"P-11-1",          1521,       44.2389,       139.279,            0.,NA,NA,"",   1.04794E+06,   1.04682E+06,   1.04682E+06
C:/temp/Job-11.odb,Step-1,Increment      1: Step Time =    1.000,"P-11-1",          1522,       155.337,       72.2257,            0.,NA,NA,"",   1.08137E+06,   1.03342E+06,   1.03342E+06
C:/temp/Job-11.odb,Step-1,Increment      1: Step Time =    1.000,"P-11-1",          1523,       34.9523,       65.2379,            0.,NA,NA,"",   926.524E+03,   961.498E+03,   961.498E+03
C:/temp/Job-11.odb,Step-1,Increment      1: Step Time =    1.000,"P-11-1",          1524,       46.6369,       61.0256,            0.,NA,NA,"",   1.06602E+06,   1.05791E+06,   1.05791E+06
C:/temp/Job-11.odb,Step-1,Increment      1: Step Time =    1.000,"P-11-1",          1525,       153.187,       140.211,            0.,NA,NA,"",   1.17321E+06,   1.11816E+06,   1.11816E+06
C:/temp/Job-11.odb,Step-1,Increment      1: Step Time =    1.000,"P-11-1",          1526,       48.4584,       134.381,            0.,NA,NA,"",   1.05042E+06,   1.03534E+06,   1.03534E+06
C:/temp/Job-11.odb,Step-1,Increment      1: Step Time =    1.000,"P-11-1",          1527,       145.720,       44.9978,            0.,NA,NA,"",   1.18682E+06,   1.14551E+06,   1.14551E+06
C:/temp/Job-11.odb,Step-1,Increment      1: Step Time =    1.000,"P-11-1",          1528,       55.0535,       153.118,            0.,NA,NA,"",   1.19495E+06,   1.17087E+06,   1.17087E+06
C:/temp/Job-11.odb,Step-1,Increment      1: Step Time =    1.000,"P-11-1",          1529,       152.433,       60.1469,            0.,NA,NA,"",   1.18273E+06,   1.12418E+06,   1.12418E+06
C:/temp/Job-11.odb,Step-1,Increment      1: Step Time =    1.000,"P-11-1",          1530,       150.022,       46.2946,            0.,NA,NA,"",   1.17347E+06,   1.13231E+06,   1.13231E+06
C:/temp/Job-11.odb,Step-1,Increment      1: Step Time =    1.000,"P-11-1",          1531,       155.546,       56.0263,            0.,NA,NA,"",   1.16026E+06,   1.11452E+06,   1.11452E+06
C:/temp/Job-11.odb,Step-1,Increment      1: Step Time =    1.000,"P-11-1",          1532,       141.954,       44.1430,            0.,NA,NA,"",   1.19647E+06,   1.15682E+06,   1.15682E+06
C:/temp/Job-11.odb,Step-1,Increment      1: Step Time =    1.000,"P-11-1",          1533,       142.881,       156.527,            0.,NA,NA,"",   1.18605E+06,   1.14805E+06,   1.14805E+06
C:/temp/Job-11.odb,Step-1,Increment      1: Step Time =    1.000,"P-11-1",          1534,       55.3178,       121.490,            0.,NA,NA,"",   929.121E+03,   892.208E+03,   892.208E+03
C:/temp/Job-11.odb,Step-1,Increment      1: Step Time =    1.000,"P-11-1",          1535,       49.8420,       155.899,            0.,NA,NA,"",   1.16880E+06,   1.15329E+06,   1.15329E+06
C:/temp/Job-11.odb,Step-1,Increment      1: Step Time =    1.000,"P-11-1",          1536,       147.713,       78.6071,            0.,NA,NA,"",   1.04493E+06,   970.896E+03,   970.896E+03
C:/temp/Job-11.odb,Step-1,Increment      1: Step Time =    1.000,"P-11-1",          1537,       55.0424,       44.4020,            0.,NA,NA,"",   1.18930E+06,   1.16752E+06,   1.16752E+06
C:/temp/Job-11.odb,Step-1,Increment      1: Step Time =    1.000,"P-11-1",          1538,       145.994,       152.338,            0.,NA,NA,"",   1.19894E+06,   1.15243E+06,   1.15243E+06
C:/temp/Job-11.odb,Step-1,Increment      1: Step Time =    1.000,"P-11-1",          1539,       151.498,       53.2458,            0.,NA,NA,"",   1.18799E+06,   1.13694E+06,   1.13694E+06
C:/temp/Job-11.odb,Step-1,Increment      1: Step Time =    1.000,"P-11-1",          1540,       148.434,       57.7245,            0.,NA,NA,"",   1.21792E+06,   1.15335E+06,   1.15335E+06
C:/temp/Job-11.odb,Step-1,Increment      1: Step Time =    1.000,"P-11-1",          1541,       157.047,       144.448,            0.,NA,NA,"",   1.14939E+06,   1.10765E+06,   1.10765E+06
C:/temp/Job-11.odb,Step-1,Increment      1: Step Time =    1.000,"P-11-1",          1542,       44.1529,       56.9477,            0.,NA,NA,"",   1.07401E+06,   1.07278E+06,   1.07278E+06
C:/temp/Job-11.odb,Step-1,Increment      1: Step Time =    1.000,"P-11-1",          1543,       50.9444,       151.975,            0.,NA,NA,"",   1.17086E+06,   1.15152E+06,   1.15152E+06
C:/temp/Job-11.odb,Step-1,Increment      1: Step Time =    1.000,"P-11-1",          1544,       60.9970,       151.086,            0.,NA,NA,"",   1.22844E+06,   1.19816E+06,   1.19816E+06
C:/temp/Job-11.odb,Step-1,Increment      1: Step Time =    1.000,"P-11-1",          1545,       143.016,       76.7706,            0.,NA,NA,"",   1.13850E+06,   1.02917E+06,   1.02917E+06
C:/temp/Job-11.odb,Step-1,Increment      1: Step Time =    1.000,"P-11-1",          1546,       150.595,       150.609,            0.,NA,NA,"",   1.18159E+06,   1.13585E+06,   1.13585E+06
C:/temp/Job-11.odb,Step-1,Increment      1: Step Time =    1.000,"P-11-1",          1547,       48.4448,       47.3308,            0.,NA,NA,"",   1.14939E+06,   1.13698E+06,   1.13698E+06
C:/temp/Job-11.odb,Step-1,Increment      1: Step Time =    1.000,"P-11-1",          1548,       19.1323,       123.338,            0.,NA,NA,"",   749.280E+03,   828.982E+03,   828.982E+03
C:/temp/Job-11.odb,Step-1,Increment      1: Step Time =    1.000,"P-11-1",          1549,       159.261,       65.7154,            0.,NA,NA,"",   1.10448E+06,   1.06608E+06,   1.06608E+06
C:/temp/Job-11.odb,Step-1,Increment      1: Step Time =    1.000,"P-11-1",          1550,       133.342,       160.553,            0.,NA,NA,"",   1.17296E+06,   1.15177E+06,   1.15177E+06
C:/temp/Job-11.odb,Step-1,Increment      1: Step Time =    1.000,"P-11-1",          1551,       67.2256,       39.3176,            0.,NA,NA,"",   1.19953E+06,   1.18576E+06,   1.18576E+06
C:/temp/Job-11.odb,Step-1,Increment      1: Step Time =    1.000,"P-11-1",          1552,       144.920,       190.142,            0.,NA,NA,"",   1.00029E+06,   997.511E+03,   997.511E+03
C:/temp/Job-11.odb,Step-1,Increment      1: Step Time =    1.000,"P-11-1",          1553,       55.2012,       9.67820,            0.,NA,NA,"",   1.08304E+06,   1.08062E+06,   1.08062E+06
C:/temp/Job-11.odb,Step-1,Increment      1: Step Time =    1.000,"P-11-1",          1554,       190.096,       54.9165,            0.,NA,NA,"",   976.235E+03,   1.00907E+06,   1.00907E+06
C:/temp/Job-11.odb,Step-1,Increment      1: Step Time =    1.000,"P-11-1",          1555,       9.37181,       145.213,            0.,NA,NA,"",   859.638E+03,   950.996E+03,   950.996E+03
C:/temp/Job-11.odb,Step-1,Increment      1: Step Time =    1.000,"P-11-1",          1556,       62.9293,       127.226,            0.,NA,NA,"",   1.16064E+06,   1.07486E+06,   1.07486E+06
C:/temp/Job-11.odb,Step-1,Increment      1: Step Time =    1.000,"P-11-1",          1557,       5.14809,       5.14725,            0.,NA,NA,"",   1.45528E+06,   1.51163E+06,   1.51163E+06
C:/temp/Job-11.odb,Step-1,Increment      1: Step Time =    1.000,"P-11-1",          1558,       190.827,       149.054,            0.,NA,NA,"",   980.346E+03,   1.00803E+06,   1.00803E+06
C:/temp/Job-11.odb,Step-1,Increment      1: Step Time =    1.000,"P-11-1",          1559,       51.2017,       190.787,            0.,NA,NA,"",   1.09460E+06,   1.09264E+06,   1.09264E+06
C:/temp/Job-11.odb,Step-1,Increment      1: Step Time =    1.000,"P-11-1",          1560,       183.769,       160.695,            0.,NA,NA,"",   1.01091E+06,   1.01915E+06,   1.01915E+06
C:/temp/Job-11.odb,Step-1,Increment      1: Step Time =    1.000,"P-11-1",          1561,       39.6026,       183.514,            0.,NA,NA,"",   1.14836E+06,   1.14849E+06,   1.14849E+06
C:/temp/Job-11.odb,Step-1,Increment      1: Step Time =    1.000,"P-11-1",          1562,       74.6972,       137.004,            0.,NA,NA,"",   1.36973E+06,   1.32965E+06,   1.32965E+06
C:/temp/Job-11.odb,Step-1,Increment      1: Step Time =    1.000,"P-11-1",          1563,       128.641,       125.524,            0.,NA,NA,"",   1.40483E+06,   1.25234E+06,   1.25234E+06
C:/temp/Job-11.odb,Step-1,Increment      1: Step Time =    1.000,"P-11-1",          1564,       125.577,       129.985,            0.,NA,NA,"",   1.45510E+06,   1.35360E+06,   1.35360E+06
C:/temp/Job-11.odb,Step-1,Increment      1: Step Time =    1.000,"P-11-1",          1565,       71.4292,       74.3682,            0.,NA,NA,"",   1.30585E+06,   1.18999E+06,   1.18999E+06
C:/temp/Job-11.odb,Step-1,Increment      1: Step Time =    1.000,"P-11-1",          1566,       74.4954,       69.7191,            0.,NA,NA,"",   1.38717E+06,   1.30969E+06,   1.30969E+06
C:/temp/Job-11.odb,Step-1,Increment      1: Step Time =    1.000,"P-11-1",          1567,       42.7056,       182.752,            0.,NA,NA,"",   1.14142E+06,   1.13988E+06,   1.13988E+06
C:/temp/Job-11.odb,Step-1,Increment      1: Step Time =    1.000,"P-11-1",          1568,       182.961,       157.702,            0.,NA,NA,"",   1.01176E+06,   1.02138E+06,   1.02138E+06
C:/temp/Job-11.odb,Step-1,Increment      1: Step Time =    1.000,"P-11-1",          1569,       179.738,       156.604,            0.,NA,NA,"",   1.02303E+06,   1.02918E+06,   1.02918E+06
C:/temp/Job-11.odb,Step-1,Increment      1: Step Time =    1.000,"P-11-1",          1570,       43.9483,       179.486,            0.,NA,NA,"",   1.14530E+06,   1.14231E+06,   1.14231E+06
C:/temp/Job-11.odb,Step-1,Increment      1: Step Time =    1.000,"P-11-1",          1571,       14.0095,       53.3699,            0.,NA,NA,"",   891.390E+03,   974.125E+03,   974.125E+03
C:/temp/Job-11.odb,Step-1,Increment      1: Step Time =    1.000,"P-11-1",          1572,       19.3533,       44.4816,            0.,NA,NA,"",   980.322E+03,   1.04638E+06,   1.04638E+06
C:/temp/Job-11.odb,Step-1,Increment      1: Step Time =    1.000,"P-11-1",          1573,       179.942,       54.4833,            0.,NA,NA,"",   1.01583E+06,   1.02939E+06,   1.02939E+06
C:/temp/Job-11.odb,Step-1,Increment      1: Step Time =    1.000,"P-11-1",          1574,       144.996,       180.165,            0.,NA,NA,"",   1.04730E+06,   1.03828E+06,   1.03828E+06
C:/temp/Job-11.odb,Step-1,Increment      1: Step Time =    1.000,"P-11-1",          1575,       181.249,       153.537,            0.,NA,NA,"",   1.01666E+06,   1.02679E+06,   1.02679E+06
C:/temp/Job-11.odb,Step-1,Increment      1: Step Time =    1.000,"P-11-1",          1576,       47.0257,       181.112,            0.,NA,NA,"",   1.13624E+06,   1.13193E+06,   1.13193E+06
C:/temp/Job-11.odb,Step-1,Increment      1: Step Time =    1.000,"P-11-1",          1577,       167.578,       25.1460,            0.,NA,NA,"",   1.04031E+06,   1.03409E+06,   1.03409E+06
C:/temp/Job-11.odb,Step-1,Increment      1: Step Time =    1.000,"P-11-1",          1578,       173.897,       168.964,            0.,NA,NA,"",   1.03552E+06,   1.03240E+06,   1.03240E+06
C:/temp/Job-11.odb,Step-1,Increment      1: Step Time =    1.000,"P-11-1",          1579,       58.4440,       130.726,            0.,NA,NA,"",   1.14209E+06,   1.08177E+06,   1.08177E+06
C:/temp/Job-11.odb,Step-1,Increment      1: Step Time =    1.000,"P-11-1",          1580,       18.0954,       56.8192,            0.,NA,NA,"",   892.053E+03,   965.286E+03,   965.286E+03
C:/temp/Job-11.odb,Step-1,Increment      1: Step Time =    1.000,"P-11-1",          1581,       19.2703,       49.3794,            0.,NA,NA,"",   947.753E+03,   1.01561E+06,   1.01561E+06
C:/temp/Job-11.odb,Step-1,Increment      1: Step Time =    1.000,"P-11-1",          1582,       31.2176,       173.097,            0.,NA,NA,"",   1.14154E+06,   1.15911E+06,   1.15911E+06
C:/temp/Job-11.odb,Step-1,Increment      1: Step Time =    1.000,"P-11-1",          1583,       80.5795,       149.871,            0.,NA,NA,"",   1.24324E+06,   1.25993E+06,   1.25993E+06
C:/temp/Job-11.odb,Step-1,Increment      1: Step Time =    1.000,"P-11-1",          1584,       97.9306,       53.2077,            0.,NA,NA,"",   1.16160E+06,   1.25846E+06,   1.25846E+06
C:/temp/Job-11.odb,Step-1,Increment      1: Step Time =    1.000,"P-11-1",          1585,       69.7308,       59.9935,            0.,NA,NA,"",   1.31921E+06,   1.26645E+06,   1.26645E+06
C:/temp/Job-11.odb,Step-1,Increment      1: Step Time =    1.000,"P-11-1",          1586,       71.8021,       55.9001,            0.,NA,NA,"",   1.31003E+06,   1.27553E+06,   1.27553E+06
C:/temp/Job-11.odb,Step-1,Increment      1: Step Time =    1.000,"P-11-1",          1587,       59.5282,       75.7705,            0.,NA,NA,"",   1.05801E+06,   990.216E+03,   990.216E+03
C:/temp/Job-11.odb,Step-1,Increment      1: Step Time =    1.000,"P-11-1",          1588,       57.4710,       79.9728,            0.,NA,NA,"",   931.152E+03,   883.818E+03,   883.818E+03
C:/temp/Job-11.odb,Step-1,Increment      1: Step Time =    1.000,"P-11-1",          1589,       129.695,       139.808,            0.,NA,NA,"",   1.36769E+06,   1.29734E+06,   1.29734E+06
C:/temp/Job-11.odb,Step-1,Increment      1: Step Time =    1.000,"P-11-1",          1590,       127.158,       143.754,            0.,NA,NA,"",   1.33199E+06,   1.29160E+06,   1.29160E+06
C:/temp/Job-11.odb,Step-1,Increment      1: Step Time =    1.000,"P-11-1",          1591,       140.561,       124.315,            0.,NA,NA,"",   1.19406E+06,   1.07315E+06,   1.07315E+06
C:/temp/Job-11.odb,Step-1,Increment      1: Step Time =    1.000,"P-11-1",          1592,       142.630,       120.087,            0.,NA,NA,"",   1.07686E+06,   974.262E+03,   974.262E+03
C:/temp/Job-11.odb,Step-1,Increment      1: Step Time =    1.000,"P-11-1",          1593,       176.264,       29.0609,            0.,NA,NA,"",   1.02666E+06,   1.02563E+06,   1.02563E+06
C:/temp/Job-11.odb,Step-1,Increment      1: Step Time =    1.000,"P-11-1",          1594,       139.200,       101.606,            0.,NA,NA,"",   418.253E+03,   404.123E+03,   404.123E+03
C:/temp/Job-11.odb,Step-1,Increment      1: Step Time =    1.000,"P-11-1",          1595,       143.051,       101.566,            0.,NA,NA,"",   503.685E+03,   505.276E+03,   505.276E+03
C:/temp/Job-11.odb,Step-1,Increment      1: Step Time =    1.000,"P-11-1",          1596,       61.0456,       98.4433,            0.,NA,NA,"",   323.340E+03,   342.801E+03,   342.801E+03
C:/temp/Job-11.odb,Step-1,Increment      1: Step Time =    1.000,"P-11-1",          1597,       57.2709,       98.3761,            0.,NA,NA,"",   392.822E+03,   426.650E+03,   426.650E+03
C:/temp/Job-11.odb,Step-1,Increment      1: Step Time =    1.000,"P-11-1",          1598,       117.179,       140.382,            0.,NA,NA,"",   1.34955E+06,   1.37931E+06,   1.37931E+06
C:/temp/Job-11.odb,Step-1,Increment      1: Step Time =    1.000,"P-11-1",          1599,       20.8224,       47.5512,            0.,NA,NA,"",   967.823E+03,   1.03105E+06,   1.03105E+06
C:/temp/Job-11.odb,Step-1,Increment      1: Step Time =    1.000,"P-11-1",          1600,       17.5676,       169.125,            0.,NA,NA,"",   1.06920E+06,   1.13149E+06,   1.13149E+06
C:/temp/Job-11.odb,Step-1,Increment      1: Step Time =    1.000,"P-11-1",          1601,       20.7671,       169.127,            0.,NA,NA,"",   1.08793E+06,   1.13802E+06,   1.13802E+06
C:/temp/Job-11.odb,Step-1,Increment      1: Step Time =    1.000,"P-11-1",          1602,       85.2000,       57.4291,            0.,NA,NA,"",   1.30220E+06,   1.34992E+06,   1.34992E+06
C:/temp/Job-11.odb,Step-1,Increment      1: Step Time =    1.000,"P-11-1",          1603,       144.045,       17.2836,            0.,NA,NA,"",   1.03422E+06,   1.02709E+06,   1.02709E+06
C:/temp/Job-11.odb,Step-1,Increment      1: Step Time =    1.000,"P-11-1",          1604,       111.295,       49.7644,            0.,NA,NA,"",   1.17174E+06,   1.23343E+06,   1.23343E+06
C:/temp/Job-11.odb,Step-1,Increment      1: Step Time =    1.000,"P-11-1",          1605,       135.791,       19.2215,            0.,NA,NA,"",   1.03801E+06,   1.03272E+06,   1.03272E+06
C:/temp/Job-11.odb,Step-1,Increment      1: Step Time =    1.000,"P-11-1",          1606,       55.2108,       19.6075,            0.,NA,NA,"",   1.12452E+06,   1.11768E+06,   1.11768E+06
C:/temp/Job-11.odb,Step-1,Increment      1: Step Time =    1.000,"P-11-1",          1607,       51.2027,       128.990,            0.,NA,NA,"",   1.01936E+06,   995.268E+03,   995.268E+03
C:/temp/Job-11.odb,Step-1,Increment      1: Step Time =    1.000,"P-11-1",          1608,       25.2423,       31.2229,            0.,NA,NA,"",   1.10279E+06,   1.13982E+06,   1.13982E+06
C:/temp/Job-11.odb,Step-1,Increment      1: Step Time =    1.000,"P-11-1",          1609,       17.3877,       50.7901,            0.,NA,NA,"",   929.476E+03,   1.00219E+06,   1.00219E+06
C:/temp/Job-11.odb,Step-1,Increment      1: Step Time =    1.000,"P-11-1",          1610,       172.080,       153.642,            0.,NA,NA,"",   1.05717E+06,   1.05137E+06,   1.05137E+06
C:/temp/Job-11.odb,Step-1,Increment      1: Step Time =    1.000,"P-11-1",          1611,       171.325,       177.285,            0.,NA,NA,"",   1.02792E+06,   1.02465E+06,   1.02465E+06
C:/temp/Job-11.odb,Step-1,Increment      1: Step Time =    1.000,"P-11-1",          1612,       23.5651,       169.228,            0.,NA,NA,"",   1.10103E+06,   1.14216E+06,   1.14216E+06
C:/temp/Job-11.odb,Step-1,Increment      1: Step Time =    1.000,"P-11-1",          1613,       19.9138,       92.0803,            0.,NA,NA,"",   667.480E+03,   750.646E+03,   750.646E+03
C:/temp/Job-11.odb,Step-1,Increment      1: Step Time =    1.000,"P-11-1",          1614,       19.6360,       96.3541,            0.,NA,NA,"",   657.875E+03,   741.791E+03,   741.791E+03
C:/temp/Job-11.odb,Step-1,Increment      1: Step Time =    1.000,"P-11-1",          1615,       18.4403,       127.385,            0.,NA,NA,"",   776.753E+03,   855.838E+03,   855.838E+03
C:/temp/Job-11.odb,Step-1,Increment      1: Step Time =    1.000,"P-11-1",          1616,       19.5211,       154.585,            0.,NA,NA,"",   976.334E+03,   1.04190E+06,   1.04190E+06
C:/temp/Job-11.odb,Step-1,Increment      1: Step Time =    1.000,"P-11-1",          1617,       105.905,       46.2313,            0.,NA,NA,"",   1.11395E+06,   1.18639E+06,   1.18639E+06
C:/temp/Job-11.odb,Step-1,Increment      1: Step Time =    1.000,"P-11-1",          1618,       146.178,       122.584,            0.,NA,NA,"",   1.09357E+06,   1.00968E+06,   1.00968E+06
C:/temp/Job-11.odb,Step-1,Increment      1: Step Time =    1.000,"P-11-1",          1619,       53.9543,       77.4586,            0.,NA,NA,"",   945.120E+03,   916.493E+03,   916.493E+03
C:/temp/Job-11.odb,Step-1,Increment      1: Step Time =    1.000,"P-11-1",          1620,       131.091,       49.4646,            0.,NA,NA,"",   1.25852E+06,   1.22386E+06,   1.22386E+06
C:/temp/Job-11.odb,Step-1,Increment      1: Step Time =    1.000,"P-11-1",          1621,       56.5109,       176.823,            0.,NA,NA,"",   1.13473E+06,   1.12668E+06,   1.12668E+06
C:/temp/Job-11.odb,Step-1,Increment      1: Step Time =    1.000,"P-11-1",          1622,       28.8607,       23.4506,            0.,NA,NA,"",   1.15146E+06,   1.17091E+06,   1.17091E+06
C:/temp/Job-11.odb,Step-1,Increment      1: Step Time =    1.000,"P-11-1",          1623,       178.569,       36.0098,            0.,NA,NA,"",   1.02714E+06,   1.02854E+06,   1.02854E+06
C:/temp/Job-11.odb,Step-1,Increment      1: Step Time =    1.000,"P-11-1",          1624,       82.2631,       45.5680,            0.,NA,NA,"",   1.19268E+06,   1.21963E+06,   1.21963E+06
C:/temp/Job-11.odb,Step-1,Increment      1: Step Time =    1.000,"P-11-1",          1625,       164.758,       175.753,            0.,NA,NA,"",   1.04308E+06,   1.03579E+06,   1.03579E+06
C:/temp/Job-11.odb,Step-1,Increment      1: Step Time =    1.000,"P-11-1",          1626,       147.378,       96.4998,            0.,NA,NA,"",   621.210E+03,   628.585E+03,   628.585E+03
C:/temp/Job-11.odb,Step-1,Increment      1: Step Time =    1.000,"P-11-1",          1627,       20.9987,       166.225,            0.,NA,NA,"",   1.06515E+06,   1.11794E+06,   1.11794E+06
C:/temp/Job-11.odb,Step-1,Increment      1: Step Time =    1.000,"P-11-1",          1628,       149.554,       64.2666,            0.,NA,NA,"",   1.19810E+06,   1.12581E+06,   1.12581E+06
C:/temp/Job-11.odb,Step-1,Increment      1: Step Time =    1.000,"P-11-1",          1629,       52.7580,       148.312,            0.,NA,NA,"",   1.17654E+06,   1.15157E+06,   1.15157E+06
C:/temp/Job-11.odb,Step-1,Increment      1: Step Time =    1.000,"P-11-1",          1630,       66.0840,       176.957,            0.,NA,NA,"",   1.11525E+06,   1.10923E+06,   1.10923E+06
C:/temp/Job-11.odb,Step-1,Increment      1: Step Time =    1.000,"P-11-1",          1631,       17.9520,       53.6340,            0.,NA,NA,"",   912.633E+03,   985.309E+03,   985.309E+03
C:/temp/Job-11.odb,Step-1,Increment      1: Step Time =    1.000,"P-11-1",          1632,       127.357,       41.3307,            0.,NA,NA,"",   1.17848E+06,   1.17149E+06,   1.17149E+06
C:/temp/Job-11.odb,Step-1,Increment      1: Step Time =    1.000,"P-11-1",          1633,       98.9038,       160.283,            0.,NA,NA,"",   1.07872E+06,   1.13700E+06,   1.13700E+06
C:/temp/Job-11.odb,Step-1,Increment      1: Step Time =    1.000,"P-11-1",          1634,       47.0225,       130.637,            0.,NA,NA,"",   992.466E+03,   986.628E+03,   986.628E+03
C:/temp/Job-11.odb,Step-1,Increment      1: Step Time =    1.000,"P-11-1",          1635,       44.6321,       127.087,            0.,NA,NA,"",   915.568E+03,   924.969E+03,   924.969E+03
C:/temp/Job-11.odb,Step-1,Increment      1: Step Time =    1.000,"P-11-1",          1636,       45.1183,       168.191,            0.,NA,NA,"",   1.15434E+06,   1.14983E+06,   1.14983E+06
C:/temp/Job-11.odb,Step-1,Increment      1: Step Time =    1.000,"P-11-1",          1637,       48.1333,       168.112,            0.,NA,NA,"",   1.15905E+06,   1.15103E+06,   1.15103E+06
C:/temp/Job-11.odb,Step-1,Increment      1: Step Time =    1.000,"P-11-1",          1638,       168.650,       155.999,            0.,NA,NA,"",   1.07261E+06,   1.06089E+06,   1.06089E+06
C:/temp/Job-11.odb,Step-1,Increment      1: Step Time =    1.000,"P-11-1",          1639,       167.775,       149.441,            0.,NA,NA,"",   1.08085E+06,   1.06627E+06,   1.06627E+06
C:/temp/Job-11.odb,Step-1,Increment      1: Step Time =    1.000,"P-11-1",          1640,       153.391,       66.4762,            0.,NA,NA,"",   1.14828E+06,   1.08855E+06,   1.08855E+06
C:/temp/Job-11.odb,Step-1,Increment      1: Step Time =    1.000,"P-11-1",          1641,       23.0138,       77.9591,            0.,NA,NA,"",   748.342E+03,   824.044E+03,   824.044E+03
C:/temp/Job-11.odb,Step-1,Increment      1: Step Time =    1.000,"P-11-1",          1642,       24.5369,       96.3064,            0.,NA,NA,"",   652.035E+03,   732.703E+03,   732.703E+03
C:/temp/Job-11.odb,Step-1,Increment      1: Step Time =    1.000,"P-11-1",          1643,       25.2889,       100.539,            0.,NA,NA,"",   647.598E+03,   727.881E+03,   727.881E+03
C:/temp/Job-11.odb,Step-1,Increment      1: Step Time =    1.000,"P-11-1",          1644,       22.5619,       132.078,            0.,NA,NA,"",   829.265E+03,   898.771E+03,   898.771E+03
C:/temp/Job-11.odb,Step-1,Increment      1: Step Time =    1.000,"P-11-1",          1645,       22.7106,       136.218,            0.,NA,NA,"",   862.699E+03,   929.564E+03,   929.564E+03
C:/temp/Job-11.odb,Step-1,Increment      1: Step Time =    1.000,"P-11-1",          1646,       30.5973,       39.0704,            0.,NA,NA,"",   1.08229E+06,   1.11131E+06,   1.11131E+06
C:/temp/Job-11.odb,Step-1,Increment      1: Step Time =    1.000,"P-11-1",          1647,       32.7286,       47.6184,            0.,NA,NA,"",   1.04596E+06,   1.07451E+06,   1.07451E+06
C:/temp/Job-11.odb,Step-1,Increment      1: Step Time =    1.000,"P-11-1",          1648,       134.610,       28.4269,            0.,NA,NA,"",   1.09543E+06,   1.08512E+06,   1.08512E+06
C:/temp/Job-11.odb,Step-1,Increment      1: Step Time =    1.000,"P-11-1",          1649,       52.3513,       74.5082,            0.,NA,NA,"",   972.589E+03,   949.621E+03,   949.621E+03
C:/temp/Job-11.odb,Step-1,Increment      1: Step Time =    1.000,"P-11-1",          1650,       62.9204,       55.3391,            0.,NA,NA,"",   1.25038E+06,   1.20753E+06,   1.20753E+06
C:/temp/Job-11.odb,Step-1,Increment      1: Step Time =    1.000,"P-11-1",          1651,       58.8018,       155.223,            0.,NA,NA,"",   1.20669E+06,   1.18244E+06,   1.18244E+06
C:/temp/Job-11.odb,Step-1,Increment      1: Step Time =    1.000,"P-11-1",          1652,       147.870,       125.604,            0.,NA,NA,"",   1.11801E+06,   1.04078E+06,   1.04078E+06
C:/temp/Job-11.odb,Step-1,Increment      1: Step Time =    1.000,"P-11-1",          1653,       136.624,       144.785,            0.,NA,NA,"",   1.28937E+06,   1.22436E+06,   1.22436E+06
C:/temp/Job-11.odb,Step-1,Increment      1: Step Time =    1.000,"P-11-1",          1654,       137.491,       50.2573,            0.,NA,NA,"",   1.24962E+06,   1.19933E+06,   1.19933E+06
C:/temp/Job-11.odb,Step-1,Increment      1: Step Time =    1.000,"P-11-1",          1655,       83.2330,       41.1299,            0.,NA,NA,"",   1.15204E+06,   1.18108E+06,   1.18108E+06
C:/temp/Job-11.odb,Step-1,Increment      1: Step Time =    1.000,"P-11-1",          1656,       50.0283,       141.436,            0.,NA,NA,"",   1.12401E+06,   1.10189E+06,   1.10189E+06
C:/temp/Job-11.odb,Step-1,Increment      1: Step Time =    1.000,"P-11-1",          1657,       27.9192,       121.545,            0.,NA,NA,"",   759.212E+03,   826.957E+03,   826.957E+03
C:/temp/Job-11.odb,Step-1,Increment      1: Step Time =    1.000,"P-11-1",          1658,       37.5307,       23.0745,            0.,NA,NA,"",   1.15303E+06,   1.15713E+06,   1.15713E+06
C:/temp/Job-11.odb,Step-1,Increment      1: Step Time =    1.000,"P-11-1",          1659,       55.0722,       114.197,            0.,NA,NA,"",   733.731E+03,   724.324E+03,   724.324E+03
C:/temp/Job-11.odb,Step-1,Increment      1: Step Time =    1.000,"P-11-1",          1660,       67.5624,       173.107,            0.,NA,NA,"",   1.13034E+06,   1.12461E+06,   1.12461E+06
C:/temp/Job-11.odb,Step-1,Increment      1: Step Time =    1.000,"P-11-1",          1661,       82.4124,       172.183,            0.,NA,NA,"",   1.08155E+06,   1.09639E+06,   1.09639E+06
C:/temp/Job-11.odb,Step-1,Increment      1: Step Time =    1.000,"P-11-1",          1662,       86.1903,       171.695,            0.,NA,NA,"",   1.06996E+06,   1.09035E+06,   1.09035E+06
C:/temp/Job-11.odb,Step-1,Increment      1: Step Time =    1.000,"P-11-1",          1663,       96.2004,       170.679,            0.,NA,NA,"",   1.04219E+06,    1.0768E+06,    1.0768E+06
C:/temp/Job-11.odb,Step-1,Increment      1: Step Time =    1.000,"P-11-1",          1664,       158.084,       89.6378,            0.,NA,NA,"",   823.612E+03,   834.663E+03,   834.663E+03
C:/temp/Job-11.odb,Step-1,Increment      1: Step Time =    1.000,"P-11-1",          1665,       48.1594,       70.9552,            0.,NA,NA,"",   975.432E+03,   969.082E+03,   969.082E+03
C:/temp/Job-11.odb,Step-1,Increment      1: Step Time =    1.000,"P-11-1",          1666,       152.228,       129.425,            0.,NA,NA,"",   1.11790E+06,   1.05877E+06,   1.05877E+06
C:/temp/Job-11.odb,Step-1,Increment      1: Step Time =    1.000,"P-11-1",          1667,       163.757,       150.348,            0.,NA,NA,"",   1.10269E+06,   1.08008E+06,   1.08008E+06
C:/temp/Job-11.odb,Step-1,Increment      1: Step Time =    1.000,"P-11-1",          1668,       162.239,       145.981,            0.,NA,NA,"",   1.11302E+06,   1.08493E+06,   1.08493E+06
C:/temp/Job-11.odb,Step-1,Increment      1: Step Time =    1.000,"P-11-1",          1669,       140.941,       147.747,            0.,NA,NA,"",   1.24615E+06,   1.18840E+06,   1.18840E+06
C:/temp/Job-11.odb,Step-1,Increment      1: Step Time =    1.000,"P-11-1",          1670,       26.6308,       79.1499,            0.,NA,NA,"",   746.994E+03,   816.940E+03,   816.940E+03
C:/temp/Job-11.odb,Step-1,Increment      1: Step Time =    1.000,"P-11-1",          1671,       43.7235,       108.927,            0.,NA,NA,"",   628.813E+03,   681.564E+03,   681.564E+03
C:/temp/Job-11.odb,Step-1,Increment      1: Step Time =    1.000,"P-11-1",          1672,       124.770,       38.2555,            0.,NA,NA,"",   1.14513E+06,   1.14777E+06,   1.14777E+06
C:/temp/Job-11.odb,Step-1,Increment      1: Step Time =    1.000,"P-11-1",          1673,       127.458,       36.3304,            0.,NA,NA,"",   1.13949E+06,   1.13678E+06,   1.13678E+06
C:/temp/Job-11.odb,Step-1,Increment      1: Step Time =    1.000,"P-11-1",          1674,       170.216,       124.719,            0.,NA,NA,"",   977.164E+03,   989.761E+03,   989.761E+03
C:/temp/Job-11.odb,Step-1,Increment      1: Step Time =    1.000,"P-11-1",          1675,       158.299,       163.608,            0.,NA,NA,"",   1.09728E+06,   1.07705E+06,   1.07705E+06
C:/temp/Job-11.odb,Step-1,Increment      1: Step Time =    1.000,"P-11-1",          1676,       28.4492,       152.964,            0.,NA,NA,"",   1.02692E+06,   1.06603E+06,   1.06603E+06
C:/temp/Job-11.odb,Step-1,Increment      1: Step Time =    1.000,"P-11-1",          1677,       28.4613,       144.418,            0.,NA,NA,"",   962.011E+03,   1.00808E+06,   1.00808E+06
C:/temp/Job-11.odb,Step-1,Increment      1: Step Time =    1.000,"P-11-1",          1678,       26.8749,       128.625,            0.,NA,NA,"",   820.394E+03,   883.463E+03,   883.463E+03
C:/temp/Job-11.odb,Step-1,Increment      1: Step Time =    1.000,"P-11-1",          1679,       99.9226,       166.835,            0.,NA,NA,"",   1.05152E+06,   1.09552E+06,   1.09552E+06
C:/temp/Job-11.odb,Step-1,Increment      1: Step Time =    1.000,"P-11-1",          1680,       51.9735,       163.617,            0.,NA,NA,"",   1.16974E+06,   1.15688E+06,   1.15688E+06
C:/temp/Job-11.odb,Step-1,Increment      1: Step Time =    1.000,"P-11-1",          1681,       48.7408,       146.786,            0.,NA,NA,"",   1.13779E+06,   1.12105E+06,   1.12105E+06
C:/temp/Job-11.odb,Step-1,Increment      1: Step Time =    1.000,"P-11-1",          1682,       43.6983,       132.112,            0.,NA,NA,"",   972.566E+03,   979.281E+03,   979.281E+03
C:/temp/Job-11.odb,Step-1,Increment      1: Step Time =    1.000,"P-11-1",          1683,       31.8754,       117.484,            0.,NA,NA,"",   728.041E+03,   792.909E+03,   792.909E+03
C:/temp/Job-11.odb,Step-1,Increment      1: Step Time =    1.000,"P-11-1",          1684,       35.5221,       42.4339,            0.,NA,NA,"",   1.09082E+06,   1.10858E+06,   1.10858E+06
C:/temp/Job-11.odb,Step-1,Increment      1: Step Time =    1.000,"P-11-1",          1685,       142.041,       40.1331,            0.,NA,NA,"",   1.17088E+06,   1.13826E+06,   1.13826E+06
C:/temp/Job-11.odb,Step-1,Increment      1: Step Time =    1.000,"P-11-1",          1686,       137.599,       40.9460,            0.,NA,NA,"",   1.18499E+06,   1.15457E+06,   1.15457E+06
C:/temp/Job-11.odb,Step-1,Increment      1: Step Time =    1.000,"P-11-1",          1687,       143.696,       49.1720,            0.,NA,NA,"",   1.21784E+06,   1.16774E+06,   1.16774E+06
C:/temp/Job-11.odb,Step-1,Increment      1: Step Time =    1.000,"P-11-1",          1688,       33.8146,       58.6686,            0.,NA,NA,"",   975.246E+03,   1.00767E+06,   1.00767E+06
C:/temp/Job-11.odb,Step-1,Increment      1: Step Time =    1.000,"P-11-1",          1689,       55.2680,       158.437,            0.,NA,NA,"",   1.18837E+06,   1.16894E+06,   1.16894E+06
C:/temp/Job-11.odb,Step-1,Increment      1: Step Time =    1.000,"P-11-1",          1690,       153.791,       76.1719,            0.,NA,NA,"",   1.04201E+06,   994.462E+03,   994.462E+03
C:/temp/Job-11.odb,Step-1,Increment      1: Step Time =    1.000,"P-11-1",          1691,       122.672,       160.600,            0.,NA,NA,"",   1.14506E+06,   1.15409E+06,   1.15409E+06
C:/temp/Job-11.odb,Step-1,Increment      1: Step Time =    1.000,"P-11-1",          1692,       126.612,       33.0821,            0.,NA,NA,"",   1.11538E+06,   1.11533E+06,   1.11533E+06
C:/temp/Job-11.odb,Step-1,Increment      1: Step Time =    1.000,"P-11-1",          1693,       50.7362,       159.757,            0.,NA,NA,"",   1.17014E+06,   1.15631E+06,   1.15631E+06
C:/temp/Job-11.odb,Step-1,Increment      1: Step Time =    1.000,"P-11-1",          1694,       161.456,       160.230,            0.,NA,NA,"",   1.09558E+06,   1.07593E+06,   1.07593E+06
C:/temp/Job-11.odb,Step-1,Increment      1: Step Time =    1.000,"P-11-1",          1695,       93.6805,       38.5901,            0.,NA,NA,"",   1.08721E+06,   1.13819E+06,   1.13819E+06
C:/temp/Job-11.odb,Step-1,Increment      1: Step Time =    1.000,"P-11-1",          1696,       149.362,       145.899,            0.,NA,NA,"",   1.20111E+06,   1.14561E+06,   1.14561E+06
C:/temp/Job-11.odb,Step-1,Increment      1: Step Time =    1.000,"P-11-1",          1697,       106.476,       165.095,            0.,NA,NA,"",   1.06202E+06,   1.10465E+06,   1.10465E+06
C:/temp/Job-11.odb,Step-1,Increment      1: Step Time =    1.000,"P-11-1",          1698,       113.913,       158.782,            0.,NA,NA,"",   1.11704E+06,   1.15706E+06,   1.15706E+06
C:/temp/Job-11.odb,Step-1,Increment      1: Step Time =    1.000,"P-11-1",          1699,       121.193,       34.9182,            0.,NA,NA,"",   1.10919E+06,   1.12195E+06,   1.12195E+06
C:/temp/Job-11.odb,Step-1,Increment      1: Step Time =    1.000,"P-11-1",          1700,       42.7120,       62.7025,            0.,NA,NA,"",   1.01171E+06,   1.01905E+06,   1.01905E+06
C:/temp/Job-11.odb,Step-1,Increment      1: Step Time =    1.000,"P-11-1",          1701,       39.1665,       66.8625,            0.,NA,NA,"",   942.272E+03,   965.945E+03,   965.945E+03
C:/temp/Job-11.odb,Step-1,Increment      1: Step Time =    1.000,"P-11-1",          1702,       29.8454,       79.4550,            0.,NA,NA,"",   750.979E+03,   816.725E+03,   816.725E+03
C:/temp/Job-11.odb,Step-1,Increment      1: Step Time =    1.000,"P-11-1",          1703,       31.7881,       89.7271,            0.,NA,NA,"",   669.161E+03,   740.269E+03,   740.269E+03
C:/temp/Job-11.odb,Step-1,Increment      1: Step Time =    1.000,"P-11-1",          1704,       39.4183,       135.168,            0.,NA,NA,"",   963.077E+03,   983.682E+03,   983.682E+03
C:/temp/Job-11.odb,Step-1,Increment      1: Step Time =    1.000,"P-11-1",          1705,       36.1842,       117.309,            0.,NA,NA,"",   726.216E+03,   783.638E+03,   783.638E+03
C:/temp/Job-11.odb,Step-1,Increment      1: Step Time =    1.000,"P-11-1",          1706,       36.6244,       121.099,            0.,NA,NA,"",   778.739E+03,   827.739E+03,   827.739E+03
C:/temp/Job-11.odb,Step-1,Increment      1: Step Time =    1.000,"P-11-1",          1707,       164.185,       44.2808,            0.,NA,NA,"",   1.09508E+06,   1.07582E+06,   1.07582E+06
C:/temp/Job-11.odb,Step-1,Increment      1: Step Time =    1.000,"P-11-1",          1708,       154.559,       164.664,            0.,NA,NA,"",   1.10671E+06,   1.08432E+06,   1.08432E+06
C:/temp/Job-11.odb,Step-1,Increment      1: Step Time =    1.000,"P-11-1",          1709,       114.956,       30.2296,            0.,NA,NA,"",   1.06030E+06,   1.08286E+06,   1.08286E+06
C:/temp/Job-11.odb,Step-1,Increment      1: Step Time =    1.000,"P-11-1",          1710,       160.248,       69.3205,            0.,NA,NA,"",   1.07176E+06,   1.04040E+06,   1.04040E+06
C:/temp/Job-11.odb,Step-1,Increment      1: Step Time =    1.000,"P-11-1",          1711,       137.112,       163.086,            0.,NA,NA,"",   1.15318E+06,   1.13028E+06,   1.13028E+06
C:/temp/Job-11.odb,Step-1,Increment      1: Step Time =    1.000,"P-11-1",          1712,       38.2557,       27.2636,            0.,NA,NA,"",   1.14789E+06,   1.15304E+06,   1.15304E+06
C:/temp/Job-11.odb,Step-1,Increment      1: Step Time =    1.000,"P-11-1",          1713,       38.2834,       38.1798,            0.,NA,NA,"",   1.12273E+06,   1.13115E+06,   1.13115E+06
C:/temp/Job-11.odb,Step-1,Increment      1: Step Time =    1.000,"P-11-1",          1714,       40.7415,       44.6698,            0.,NA,NA,"",   1.11031E+06,   1.11586E+06,   1.11586E+06
C:/temp/Job-11.odb,Step-1,Increment      1: Step Time =    1.000,"P-11-1",          1715,       45.1947,       50.8626,            0.,NA,NA,"",   1.11893E+06,   1.11293E+06,   1.11293E+06
C:/temp/Job-11.odb,Step-1,Increment      1: Step Time =    1.000,"P-11-1",          1716,       49.5922,       41.7284,            0.,NA,NA,"",   1.16368E+06,   1.15078E+06,   1.15078E+06
C:/temp/Job-11.odb,Step-1,Increment      1: Step Time =    1.000,"P-11-1",          1717,       90.0425,       35.1291,            0.,NA,NA,"",   1.08679E+06,   1.12532E+06,   1.12532E+06
C:/temp/Job-11.odb,Step-1,Increment      1: Step Time =    1.000,"P-11-1",          1718,       153.509,       144.820,            0.,NA,NA,"",   1.17146E+06,   1.12311E+06,   1.12311E+06
C:/temp/Job-11.odb,Step-1,Increment      1: Step Time =    1.000,"P-11-1",          1719,       160.022,       151.927,            0.,NA,NA,"",   1.12346E+06,   1.09413E+06,   1.09413E+06
C:/temp/Job-11.odb,Step-1,Increment      1: Step Time =    1.000,"P-11-1",          1720,       159.911,       82.3237,            0.,NA,NA,"",   920.419E+03,   917.404E+03,   917.404E+03
C:/temp/Job-11.odb,Step-1,Increment      1: Step Time =    1.000,"P-11-1",          1721,       90.1395,       31.3795,            0.,NA,NA,"",   1.06791E+06,   1.09913E+06,   1.09913E+06
C:/temp/Job-11.odb,Step-1,Increment      1: Step Time =    1.000,"P-11-1",          1722,       112.163,       162.451,            0.,NA,NA,"",   1.08955E+06,   1.12732E+06,   1.12732E+06
C:/temp/Job-11.odb,Step-1,Increment      1: Step Time =    1.000,"P-11-1",          1723,       160.180,       48.7954,            0.,NA,NA,"",   1.12008E+06,   1.09194E+06,   1.09194E+06
C:/temp/Job-11.odb,Step-1,Increment      1: Step Time =    1.000,"P-11-1",          1724,       45.2545,       46.0163,            0.,NA,NA,"",   1.13363E+06,   1.12839E+06,   1.12839E+06
C:/temp/Job-11.odb,Step-1,Increment      1: Step Time =    1.000,"P-11-1",          1725,       42.8666,       40.0325,            0.,NA,NA,"",   1.13680E+06,   1.13619E+06,   1.13619E+06
C:/temp/Job-11.odb,Step-1,Increment      1: Step Time =    1.000,"P-11-1",          1726,       30.2724,       129.104,            0.,NA,NA,"",   840.030E+03,   895.665E+03,   895.665E+03
C:/temp/Job-11.odb,Step-1,Increment      1: Step Time =    1.000,"P-11-1",          1727,       31.5094,       135.364,            0.,NA,NA,"",   904.984E+03,   950.945E+03,   950.945E+03
C:/temp/Job-11.odb,Step-1,Increment      1: Step Time =    1.000,"P-11-1",          1728,       33.7262,       143.964,            0.,NA,NA,"",   994.259E+03,   1.02575E+06,   1.02575E+06
C:/temp/Job-11.odb,Step-1,Increment      1: Step Time =    1.000,"P-11-1",          1729,       63.0768,       32.1251,            0.,NA,NA,"",   1.16538E+06,   1.15322E+06,   1.15322E+06
C:/temp/Job-11.odb,Step-1,Increment      1: Step Time =    1.000,"P-11-1",          1730,       43.0466,       31.8188,            0.,NA,NA,"",   1.14889E+06,   1.14745E+06,   1.14745E+06
C:/temp/Job-11.odb,Step-1,Increment      1: Step Time =    1.000,"P-11-1",          1731,       42.1260,       35.3880,            0.,NA,NA,"",   1.14212E+06,   1.14266E+06,   1.14266E+06
C:/temp/Job-11.odb,Step-1,Increment      1: Step Time =    1.000,"P-11-1",          1732,       148.812,       156.543,            0.,NA,NA,"",   1.16671E+06,   1.12932E+06,   1.12932E+06
