ODB Name,Step,Frame,Part Instance Name,    Node Label,X,Y,Z,Section Name,Material Name,Section Point,       S-Mises,S-Max. In-Plane Principal (Abs),S-Max. Principal (Abs)
C:/temp/Job-12.odb,Step-1,Increment      1: Step Time =    1.000,"P-12-1",             1,       85.1309,       175.551,            0.,NA,NA,"",   5.04946E+06,   5.07913E+06,   5.07913E+06
C:/temp/Job-12.odb,Step-1,Increment      1: Step Time =    1.000,"P-12-1",             2,       70.8216,       171.257,            0.,NA,NA,"",   1.23229E+06,  -138.309E+03,  -138.309E+03
C:/temp/Job-12.odb,Step-1,Increment      1: Step Time =    1.000,"P-12-1",             3,       57.6107,       164.282,            0.,NA,NA,"",   3.06037E+06,  -3.07366E+06,  -3.07366E+06
C:/temp/Job-12.odb,Step-1,Increment      1: Step Time =    1.000,"P-12-1",             4,       45.9954,       154.886,            0.,NA,NA,"",   3.79757E+06,  -3.86775E+06,  -3.86775E+06
C:/temp/Job-12.odb,Step-1,Increment      1: Step Time =    1.000,"P-12-1",             5,       36.4131,       143.425,            0.,NA,NA,"",   3.24456E+06,  -3.28006E+06,  -3.28006E+06
C:/temp/Job-12.odb,Step-1,Increment      1: Step Time =    1.000,"P-12-1",             6,       29.2244,       130.328,            0.,NA,NA,"",   1.87331E+06,  -1.89305E+06,  -1.89305E+06
C:/temp/Job-12.odb,Step-1,Increment      1: Step Time =    1.000,"P-12-1",             7,       24.7000,       116.090,            0.,NA,NA,"",   946.412E+03,  -966.239E+03,  -966.239E+03
C:/temp/Job-12.odb,Step-1,Increment      1: Step Time =    1.000,"P-12-1",             8,       23.0101,       101.247,            0.,NA,NA,"",   685.500E+03,  -697.624E+03,  -697.624E+03
C:/temp/Job-12.odb,Step-1,Increment      1: Step Time =    1.000,"P-12-1",             9,       23.4942,       91.2902,            0.,NA,NA,"",   746.057E+03,  -760.285E+03,  -760.285E+03
C:/temp/Job-12.odb,Step-1,Increment      1: Step Time =    1.000,"P-12-1",            10,       26.6161,       76.6805,            0.,NA,NA,"",   1.31128E+06,  -1.33802E+06,  -1.33802E+06
C:/temp/Job-12.odb,Step-1,Increment      1: Step Time =    1.000,"P-12-1",            11,       32.5004,       62.9487,            0.,NA,NA,"",   2.58338E+06,  -2.61560E+06,  -2.61560E+06
C:/temp/Job-12.odb,Step-1,Increment      1: Step Time =    1.000,"P-12-1",            12,       40.9256,       50.6116,            0.,NA,NA,"",   3.75697E+06,  -3.78939E+06,  -3.78939E+06
C:/temp/Job-12.odb,Step-1,Increment      1: Step Time =    1.000,"P-12-1",            13,       51.5746,       40.1336,            0.,NA,NA,"",   3.70981E+06,  -3.76029E+06,  -3.76029E+06
C:/temp/Job-12.odb,Step-1,Increment      1: Step Time =    1.000,"P-12-1",            14,       64.0466,       31.9092,            0.,NA,NA,"",   2.29322E+06,  -2.23298E+06,  -2.23298E+06
C:/temp/Job-12.odb,Step-1,Increment      1: Step Time =    1.000,"P-12-1",            15,       77.8719,       26.2481,            0.,NA,NA,"",   2.77989E+06,   2.60837E+06,   2.60837E+06
C:/temp/Job-12.odb,Step-1,Increment      1: Step Time =    1.000,"P-12-1",            16,       92.5302,       23.3632,            0.,NA,NA,"",   8.12592E+06,   8.17724E+06,   8.17724E+06
C:/temp/Job-12.odb,Step-1,Increment      1: Step Time =    1.000,"P-12-1",            17,       107.470,       23.3632,            0.,NA,NA,"",   12.0746E+06,   12.1921E+06,   12.1921E+06
C:/temp/Job-12.odb,Step-1,Increment      1: Step Time =    1.000,"P-12-1",            18,       122.128,       26.2481,            0.,NA,NA,"",   11.8989E+06,   12.0422E+06,   12.0422E+06
C:/temp/Job-12.odb,Step-1,Increment      1: Step Time =    1.000,"P-12-1",            19,       135.953,       31.9092,            0.,NA,NA,"",   9.18689E+06,   9.29894E+06,   9.29894E+06
C:/temp/Job-12.odb,Step-1,Increment      1: Step Time =    1.000,"P-12-1",            20,       148.425,       40.1336,            0.,NA,NA,"",   5.95906E+06,   6.03559E+06,   6.03559E+06
C:/temp/Job-12.odb,Step-1,Increment      1: Step Time =    1.000,"P-12-1",            21,       159.074,       50.6116,            0.,NA,NA,"",   3.39949E+06,   3.42816E+06,   3.42816E+06
C:/temp/Job-12.odb,Step-1,Increment      1: Step Time =    1.000,"P-12-1",            22,       167.500,       62.9487,            0.,NA,NA,"",   1.10420E+06,   893.623E+03,   893.623E+03
C:/temp/Job-12.odb,Step-1,Increment      1: Step Time =    1.000,"P-12-1",            23,       173.384,       76.6805,            0.,NA,NA,"",   3.31996E+06,  -3.25698E+06,  -3.25698E+06
C:/temp/Job-12.odb,Step-1,Increment      1: Step Time =    1.000,"P-12-1",            24,       176.506,       91.2902,            0.,NA,NA,"",   7.37932E+06,  -7.43056E+06,  -7.43056E+06
C:/temp/Job-12.odb,Step-1,Increment      1: Step Time =    1.000,"P-12-1",            25,       176.990,       101.247,            0.,NA,NA,"",   8.21819E+06,  -8.27705E+06,  -8.27705E+06
C:/temp/Job-12.odb,Step-1,Increment      1: Step Time =    1.000,"P-12-1",            26,       175.300,       116.090,            0.,NA,NA,"",   5.71490E+06,  -5.69643E+06,  -5.69643E+06
C:/temp/Job-12.odb,Step-1,Increment      1: Step Time =    1.000,"P-12-1",            27,       170.776,       130.328,            0.,NA,NA,"",   1.62623E+06,  -1.51552E+06,  -1.51552E+06
C:/temp/Job-12.odb,Step-1,Increment      1: Step Time =    1.000,"P-12-1",            28,       163.587,       143.425,            0.,NA,NA,"",   2.13543E+06,   2.11819E+06,   2.11819E+06
C:/temp/Job-12.odb,Step-1,Increment      1: Step Time =    1.000,"P-12-1",            29,       154.005,       154.886,            0.,NA,NA,"",   4.73776E+06,   4.80657E+06,   4.80657E+06
C:/temp/Job-12.odb,Step-1,Increment      1: Step Time =    1.000,"P-12-1",            30,       142.389,       164.282,            0.,NA,NA,"",   7.52832E+06,   7.64267E+06,   7.64267E+06
C:/temp/Job-12.odb,Step-1,Increment      1: Step Time =    1.000,"P-12-1",            31,       129.178,       171.257,            0.,NA,NA,"",   10.8405E+06,   10.9640E+06,   10.9640E+06
C:/temp/Job-12.odb,Step-1,Increment      1: Step Time =    1.000,"P-12-1",            32,       114.869,       175.551,            0.,NA,NA,"",   12.4116E+06,   12.5427E+06,   12.5427E+06
C:/temp/Job-12.odb,Step-1,Increment      1: Step Time =    1.000,"P-12-1",            33,          100.,          177.,            0.,NA,NA,"",   10.6816E+06,   10.7346E+06,   10.7346E+06
C:/temp/Job-12.odb,Step-1,Increment      1: Step Time =    1.000,"P-12-1",            34,          190.,            0.,            0.,NA,NA,"",   856.823E+03,   843.962E+03,   843.962E+03
C:/temp/Job-12.odb,Step-1,Increment      1: Step Time =    1.000,"P-12-1",            35,          180.,            0.,            0.,NA,NA,"",   492.714E+03,   474.706E+03,   474.706E+03
C:/temp/Job-12.odb,Step-1,Increment      1: Step Time =    1.000,"P-12-1",            36,          170.,            0.,            0.,NA,NA,"",   307.568E+03,  -82.6052E+03,  -82.6052E+03
C:/temp/Job-12.odb,Step-1,Increment      1: Step Time =    1.000,"P-12-1",            37,          160.,            0.,            0.,NA,NA,"",   854.241E+03,  -841.864E+03,  -841.864E+03
C:/temp/Job-12.odb,Step-1,Increment      1: Step Time =    1.000,"P-12-1",            38,          150.,            0.,            0.,NA,NA,"",   1.71893E+06,  -1.70504E+06,  -1.70504E+06
C:/temp/Job-12.odb,Step-1,Increment      1: Step Time =    1.000,"P-12-1",            39,          140.,            0.,            0.,NA,NA,"",   2.62850E+06,  -2.62194E+06,  -2.62194E+06
C:/temp/Job-12.odb,Step-1,Increment      1: Step Time =    1.000,"P-12-1",            40,          130.,            0.,            0.,NA,NA,"",   3.43412E+06,  -3.40589E+06,  -3.40589E+06
C:/temp/Job-12.odb,Step-1,Increment      1: Step Time =    1.000,"P-12-1",            41,          120.,            0.,            0.,NA,NA,"",   3.65541E+06,  -3.61881E+06,  -3.61881E+06
C:/temp/Job-12.odb,Step-1,Increment      1: Step Time =    1.000,"P-12-1",            42,          110.,            0.,            0.,NA,NA,"",   2.99971E+06,  -2.94453E+06,  -2.94453E+06
C:/temp/Job-12.odb,Step-1,Increment      1: Step Time =    1.000,"P-12-1",            43,          100.,            0.,            0.,NA,NA,"",   1.56668E+06,  -1.37664E+06,  -1.37664E+06
C:/temp/Job-12.odb,Step-1,Increment      1: Step Time =    1.000,"P-12-1",            44,           90.,            0.,            0.,NA,NA,"",   1.87173E+06,   1.69907E+06,   1.69907E+06
C:/temp/Job-12.odb,Step-1,Increment      1: Step Time =    1.000,"P-12-1",            45,           80.,            0.,            0.,NA,NA,"",   4.08084E+06,   4.01669E+06,   4.01669E+06
C:/temp/Job-12.odb,Step-1,Increment      1: Step Time =    1.000,"P-12-1",            46,           70.,            0.,            0.,NA,NA,"",   5.95370E+06,   5.91717E+06,   5.91717E+06
C:/temp/Job-12.odb,Step-1,Increment      1: Step Time =    1.000,"P-12-1",            47,           60.,            0.,            0.,NA,NA,"",   7.08927E+06,   7.05606E+06,   7.05606E+06
C:/temp/Job-12.odb,Step-1,Increment      1: Step Time =    1.000,"P-12-1",            48,           50.,            0.,            0.,NA,NA,"",   7.40713E+06,   7.39851E+06,   7.39851E+06
C:/temp/Job-12.odb,Step-1,Increment      1: Step Time =    1.000,"P-12-1",            49,           40.,            0.,            0.,NA,NA,"",   7.32333E+06,   7.31311E+06,   7.31311E+06
C:/temp/Job-12.odb,Step-1,Increment      1: Step Time =    1.000,"P-12-1",            50,           30.,            0.,            0.,NA,NA,"",   6.97996E+06,   6.97882E+06,   6.97882E+06
C:/temp/Job-12.odb,Step-1,Increment      1: Step Time =    1.000,"P-12-1",            51,           20.,            0.,            0.,NA,NA,"",   6.61159E+06,   6.60680E+06,   6.60680E+06
C:/temp/Job-12.odb,Step-1,Increment      1: Step Time =    1.000,"P-12-1",            52,           10.,            0.,            0.,NA,NA,"",   6.34725E+06,   6.34370E+06,   6.34370E+06
C:/temp/Job-12.odb,Step-1,Increment      1: Step Time =    1.000,"P-12-1",            53,          200.,            0.,            0.,NA,NA,"",   990.644E+03,   980.182E+03,   980.182E+03
C:/temp/Job-12.odb,Step-1,Increment      1: Step Time =    1.000,"P-12-1",            54,            0.,            0.,            0.,NA,NA,"",   6.64307E+06,   6.98823E+06,   6.98823E+06
C:/temp/Job-12.odb,Step-1,Increment      1: Step Time =    1.000,"P-12-1",            55,          200.,          190.,            0.,NA,NA,"",   1.07602E+06,   989.727E+03,   989.727E+03
C:/temp/Job-12.odb,Step-1,Increment      1: Step Time =    1.000,"P-12-1",            56,          200.,          180.,            0.,NA,NA,"",   1.29047E+06,   1.01719E+06,   1.01719E+06
C:/temp/Job-12.odb,Step-1,Increment      1: Step Time =    1.000,"P-12-1",            57,          200.,          170.,            0.,NA,NA,"",   1.36987E+06,   1.03177E+06,   1.03177E+06
C:/temp/Job-12.odb,Step-1,Increment      1: Step Time =    1.000,"P-12-1",            58,          200.,          160.,            0.,NA,NA,"",   1.15966E+06,   1.06859E+06,   1.06859E+06
C:/temp/Job-12.odb,Step-1,Increment      1: Step Time =    1.000,"P-12-1",            59,          200.,          150.,            0.,NA,NA,"",   1.19520E+06,   1.37451E+06,   1.37451E+06
C:/temp/Job-12.odb,Step-1,Increment      1: Step Time =    1.000,"P-12-1",            60,          200.,          140.,            0.,NA,NA,"",   2.42812E+06,   2.74855E+06,   2.74855E+06
C:/temp/Job-12.odb,Step-1,Increment      1: Step Time =    1.000,"P-12-1",            61,          200.,          130.,            0.,NA,NA,"",   4.49581E+06,   4.88877E+06,   4.88877E+06
C:/temp/Job-12.odb,Step-1,Increment      1: Step Time =    1.000,"P-12-1",            62,          200.,          120.,            0.,NA,NA,"",   6.71762E+06,   7.13425E+06,   7.13425E+06
C:/temp/Job-12.odb,Step-1,Increment      1: Step Time =    1.000,"P-12-1",            63,          200.,          110.,            0.,NA,NA,"",   8.43464E+06,   8.85250E+06,   8.85250E+06
C:/temp/Job-12.odb,Step-1,Increment      1: Step Time =    1.000,"P-12-1",            64,          200.,          100.,            0.,NA,NA,"",   9.22739E+06,   9.64387E+06,   9.64387E+06
C:/temp/Job-12.odb,Step-1,Increment      1: Step Time =    1.000,"P-12-1",            65,          200.,           90.,            0.,NA,NA,"",   8.56193E+06,   8.99845E+06,   8.99845E+06
C:/temp/Job-12.odb,Step-1,Increment      1: Step Time =    1.000,"P-12-1",            66,          200.,           80.,            0.,NA,NA,"",   6.80340E+06,   7.21564E+06,   7.21564E+06
C:/temp/Job-12.odb,Step-1,Increment      1: Step Time =    1.000,"P-12-1",            67,          200.,           70.,            0.,NA,NA,"",   4.57522E+06,   4.97263E+06,   4.97263E+06
C:/temp/Job-12.odb,Step-1,Increment      1: Step Time =    1.000,"P-12-1",            68,          200.,           60.,            0.,NA,NA,"",   2.42087E+06,   2.74309E+06,   2.74309E+06
C:/temp/Job-12.odb,Step-1,Increment      1: Step Time =    1.000,"P-12-1",            69,          200.,           50.,            0.,NA,NA,"",   1.17884E+06,   1.35536E+06,   1.35536E+06
C:/temp/Job-12.odb,Step-1,Increment      1: Step Time =    1.000,"P-12-1",            70,          200.,           40.,            0.,NA,NA,"",   1.15092E+06,   1.08162E+06,   1.08162E+06
C:/temp/Job-12.odb,Step-1,Increment      1: Step Time =    1.000,"P-12-1",            71,          200.,           30.,            0.,NA,NA,"",   1.37016E+06,   1.03873E+06,   1.03873E+06
C:/temp/Job-12.odb,Step-1,Increment      1: Step Time =    1.000,"P-12-1",            72,          200.,           20.,            0.,NA,NA,"",   1.30275E+06,   1.01948E+06,   1.01948E+06
C:/temp/Job-12.odb,Step-1,Increment      1: Step Time =    1.000,"P-12-1",            73,          200.,           10.,            0.,NA,NA,"",   1.08154E+06,   992.063E+03,   992.063E+03
C:/temp/Job-12.odb,Step-1,Increment      1: Step Time =    1.000,"P-12-1",            74,          200.,          200.,            0.,NA,NA,"",   992.814E+03,   984.964E+03,   984.964E+03
C:/temp/Job-12.odb,Step-1,Increment      1: Step Time =    1.000,"P-12-1",            75,           10.,          200.,            0.,NA,NA,"",   6.35130E+06,   6.34934E+06,   6.34934E+06
C:/temp/Job-12.odb,Step-1,Increment      1: Step Time =    1.000,"P-12-1",            76,           20.,          200.,            0.,NA,NA,"",   6.62029E+06,   6.61916E+06,   6.61916E+06
C:/temp/Job-12.odb,Step-1,Increment      1: Step Time =    1.000,"P-12-1",            77,           30.,          200.,            0.,NA,NA,"",   7.03007E+06,   7.02715E+06,   7.02715E+06
C:/temp/Job-12.odb,Step-1,Increment      1: Step Time =    1.000,"P-12-1",            78,           40.,          200.,            0.,NA,NA,"",   7.39111E+06,   7.38352E+06,   7.38352E+06
C:/temp/Job-12.odb,Step-1,Increment      1: Step Time =    1.000,"P-12-1",            79,           50.,          200.,            0.,NA,NA,"",   7.48755E+06,   7.46554E+06,   7.46554E+06
C:/temp/Job-12.odb,Step-1,Increment      1: Step Time =    1.000,"P-12-1",            80,           60.,          200.,            0.,NA,NA,"",   7.04563E+06,   7.01587E+06,   7.01587E+06
C:/temp/Job-12.odb,Step-1,Increment      1: Step Time =    1.000,"P-12-1",            81,           70.,          200.,            0.,NA,NA,"",   5.86956E+06,   5.82368E+06,   5.82368E+06
C:/temp/Job-12.odb,Step-1,Increment      1: Step Time =    1.000,"P-12-1",            82,           80.,          200.,            0.,NA,NA,"",   4.00296E+06,   3.92250E+06,   3.92250E+06
C:/temp/Job-12.odb,Step-1,Increment      1: Step Time =    1.000,"P-12-1",            83,           90.,          200.,            0.,NA,NA,"",   1.79159E+06,   1.62540E+06,   1.62540E+06
C:/temp/Job-12.odb,Step-1,Increment      1: Step Time =    1.000,"P-12-1",            84,          100.,          200.,            0.,NA,NA,"",   1.59120E+06,  -1.42331E+06,  -1.42331E+06
C:/temp/Job-12.odb,Step-1,Increment      1: Step Time =    1.000,"P-12-1",            85,          110.,          200.,            0.,NA,NA,"",   3.07523E+06,  -3.01981E+06,  -3.01981E+06
C:/temp/Job-12.odb,Step-1,Increment      1: Step Time =    1.000,"P-12-1",            86,          120.,          200.,            0.,NA,NA,"",   3.74432E+06,  -3.72401E+06,  -3.72401E+06
C:/temp/Job-12.odb,Step-1,Increment      1: Step Time =    1.000,"P-12-1",            87,          130.,          200.,            0.,NA,NA,"",   3.47075E+06,  -3.44175E+06,  -3.44175E+06
C:/temp/Job-12.odb,Step-1,Increment      1: Step Time =    1.000,"P-12-1",            88,          140.,          200.,            0.,NA,NA,"",   2.52309E+06,  -2.48624E+06,  -2.48624E+06
C:/temp/Job-12.odb,Step-1,Increment      1: Step Time =    1.000,"P-12-1",            89,          150.,          200.,            0.,NA,NA,"",   1.55308E+06,  -1.55811E+06,  -1.55811E+06
C:/temp/Job-12.odb,Step-1,Increment      1: Step Time =    1.000,"P-12-1",            90,          160.,          200.,            0.,NA,NA,"",   846.979E+03,  -827.726E+03,  -827.726E+03
C:/temp/Job-12.odb,Step-1,Increment      1: Step Time =    1.000,"P-12-1",            91,          170.,          200.,            0.,NA,NA,"",   322.287E+03,  -82.8816E+03,  -82.8816E+03
C:/temp/Job-12.odb,Step-1,Increment      1: Step Time =    1.000,"P-12-1",            92,          180.,          200.,            0.,NA,NA,"",   513.264E+03,   487.560E+03,   487.560E+03
C:/temp/Job-12.odb,Step-1,Increment      1: Step Time =    1.000,"P-12-1",            93,          190.,          200.,            0.,NA,NA,"",   868.655E+03,   856.879E+03,   856.879E+03
C:/temp/Job-12.odb,Step-1,Increment      1: Step Time =    1.000,"P-12-1",            94,            0.,          200.,            0.,NA,NA,"",   6.64766E+06,   6.98416E+06,   6.98416E+06
C:/temp/Job-12.odb,Step-1,Increment      1: Step Time =    1.000,"P-12-1",            95,            0.,           10.,            0.,NA,NA,"",   4.48415E+06,   4.94346E+06,   4.94346E+06
C:/temp/Job-12.odb,Step-1,Increment      1: Step Time =    1.000,"P-12-1",            96,            0.,           20.,            0.,NA,NA,"",   2.83767E+06,   3.16604E+06,   3.16604E+06
C:/temp/Job-12.odb,Step-1,Increment      1: Step Time =    1.000,"P-12-1",            97,            0.,           30.,            0.,NA,NA,"",   1.43370E+06,   1.60809E+06,   1.60809E+06
C:/temp/Job-12.odb,Step-1,Increment      1: Step Time =    1.000,"P-12-1",            98,            0.,           40.,            0.,NA,NA,"",   335.212E+03,   367.166E+03,   367.166E+03
C:/temp/Job-12.odb,Step-1,Increment      1: Step Time =    1.000,"P-12-1",            99,            0.,           50.,            0.,NA,NA,"",   564.562E+03,  -567.545E+03,  -567.545E+03
C:/temp/Job-12.odb,Step-1,Increment      1: Step Time =    1.000,"P-12-1",           100,            0.,           60.,            0.,NA,NA,"",   969.399E+03,  -999.545E+03,  -999.545E+03
C:/temp/Job-12.odb,Step-1,Increment      1: Step Time =    1.000,"P-12-1",           101,            0.,           70.,            0.,NA,NA,"",   1.00771E+06,  -1.02938E+06,  -1.02938E+06
C:/temp/Job-12.odb,Step-1,Increment      1: Step Time =    1.000,"P-12-1",           102,            0.,           80.,            0.,NA,NA,"",   799.669E+03,  -822.800E+03,  -822.800E+03
C:/temp/Job-12.odb,Step-1,Increment      1: Step Time =    1.000,"P-12-1",           103,            0.,           90.,            0.,NA,NA,"",   494.264E+03,  -541.485E+03,  -541.485E+03
C:/temp/Job-12.odb,Step-1,Increment      1: Step Time =    1.000,"P-12-1",           104,            0.,          100.,            0.,NA,NA,"",   317.496E+03,  -364.584E+03,  -364.584E+03
C:/temp/Job-12.odb,Step-1,Increment      1: Step Time =    1.000,"P-12-1",           105,            0.,          110.,            0.,NA,NA,"",   510.631E+03,  -556.657E+03,  -556.657E+03
C:/temp/Job-12.odb,Step-1,Increment      1: Step Time =    1.000,"P-12-1",           106,            0.,          120.,            0.,NA,NA,"",   808.476E+03,  -829.356E+03,  -829.356E+03
C:/temp/Job-12.odb,Step-1,Increment      1: Step Time =    1.000,"P-12-1",           107,            0.,          130.,            0.,NA,NA,"",   1.01149E+06,  -1.03148E+06,  -1.03148E+06
C:/temp/Job-12.odb,Step-1,Increment      1: Step Time =    1.000,"P-12-1",           108,            0.,          140.,            0.,NA,NA,"",   946.045E+03,  -973.598E+03,  -973.598E+03
C:/temp/Job-12.odb,Step-1,Increment      1: Step Time =    1.000,"P-12-1",           109,            0.,          150.,            0.,NA,NA,"",   534.685E+03,  -538.915E+03,  -538.915E+03
C:/temp/Job-12.odb,Step-1,Increment      1: Step Time =    1.000,"P-12-1",           110,            0.,          160.,            0.,NA,NA,"",   334.765E+03,   373.726E+03,   373.726E+03
C:/temp/Job-12.odb,Step-1,Increment      1: Step Time =    1.000,"P-12-1",           111,            0.,          170.,            0.,NA,NA,"",   1.42832E+06,   1.60144E+06,   1.60144E+06
C:/temp/Job-12.odb,Step-1,Increment      1: Step Time =    1.000,"P-12-1",           112,            0.,          180.,            0.,NA,NA,"",   2.83860E+06,   3.16750E+06,   3.16750E+06
C:/temp/Job-12.odb,Step-1,Increment      1: Step Time =    1.000,"P-12-1",           113,            0.,          190.,            0.,NA,NA,"",   4.48828E+06,   4.94942E+06,   4.94942E+06
C:/temp/Job-12.odb,Step-1,Increment      1: Step Time =    1.000,"P-12-1",           114,       190.757,       20.7904,            0.,NA,NA,"",   1.29230E+06,   1.13636E+06,   1.13636E+06
C:/temp/Job-12.odb,Step-1,Increment      1: Step Time =    1.000,"P-12-1",           115,       189.308,       180.008,            0.,NA,NA,"",   1.29383E+06,   1.15104E+06,   1.15104E+06
C:/temp/Job-12.odb,Step-1,Increment      1: Step Time =    1.000,"P-12-1",           116,       177.985,       177.522,            0.,NA,NA,"",   1.66708E+06,   1.57586E+06,   1.57586E+06
C:/temp/Job-12.odb,Step-1,Increment      1: Step Time =    1.000,"P-12-1",           117,       169.103,       177.263,            0.,NA,NA,"",   2.07016E+06,   2.00212E+06,   2.00212E+06
C:/temp/Job-12.odb,Step-1,Increment      1: Step Time =    1.000,"P-12-1",           118,       158.362,       177.608,            0.,NA,NA,"",   2.80377E+06,   2.81843E+06,   2.81843E+06
C:/temp/Job-12.odb,Step-1,Increment      1: Step Time =    1.000,"P-12-1",           119,       148.794,       179.400,            0.,NA,NA,"",   3.30590E+06,   3.38646E+06,   3.38646E+06
C:/temp/Job-12.odb,Step-1,Increment      1: Step Time =    1.000,"P-12-1",           120,       137.953,       178.772,            0.,NA,NA,"",   5.27864E+06,   5.49237E+06,   5.49237E+06
C:/temp/Job-12.odb,Step-1,Increment      1: Step Time =    1.000,"P-12-1",           121,       126.090,       176.967,            0.,NA,NA,"",   9.90997E+06,   10.0949E+06,   10.0949E+06
C:/temp/Job-12.odb,Step-1,Increment      1: Step Time =    1.000,"P-12-1",           122,       116.900,       179.826,            0.,NA,NA,"",   10.1540E+06,   10.3571E+06,   10.3571E+06
C:/temp/Job-12.odb,Step-1,Increment      1: Step Time =    1.000,"P-12-1",           123,       83.7564,       180.554,            0.,NA,NA,"",   5.13264E+06,   4.98141E+06,   4.98141E+06
C:/temp/Job-12.odb,Step-1,Increment      1: Step Time =    1.000,"P-12-1",           124,       74.3007,       177.183,            0.,NA,NA,"",   2.65127E+06,   2.32001E+06,   2.32001E+06
C:/temp/Job-12.odb,Step-1,Increment      1: Step Time =    1.000,"P-12-1",           125,       63.7297,       179.374,            0.,NA,NA,"",   3.18399E+06,   2.45626E+06,   2.45626E+06
C:/temp/Job-12.odb,Step-1,Increment      1: Step Time =    1.000,"P-12-1",           126,       51.8497,       180.012,            0.,NA,NA,"",   3.13964E+06,   2.66150E+06,   2.66150E+06
C:/temp/Job-12.odb,Step-1,Increment      1: Step Time =    1.000,"P-12-1",           127,       43.4404,       177.325,            0.,NA,NA,"",   2.39809E+06,   2.03535E+06,   2.03535E+06
C:/temp/Job-12.odb,Step-1,Increment      1: Step Time =    1.000,"P-12-1",           128,       32.4839,       180.303,            0.,NA,NA,"",   3.20128E+06,   3.13066E+06,   3.13066E+06
C:/temp/Job-12.odb,Step-1,Increment      1: Step Time =    1.000,"P-12-1",           129,       21.2992,       178.384,            0.,NA,NA,"",   2.80784E+06,   2.87558E+06,   2.87558E+06
C:/temp/Job-12.odb,Step-1,Increment      1: Step Time =    1.000,"P-12-1",           130,       10.0535,       179.751,            0.,NA,NA,"",   2.99131E+06,   3.21446E+06,   3.21446E+06
C:/temp/Job-12.odb,Step-1,Increment      1: Step Time =    1.000,"P-12-1",           131,       9.44488,       170.072,            0.,NA,NA,"",   1.32049E+06,   1.48843E+06,   1.48843E+06
C:/temp/Job-12.odb,Step-1,Increment      1: Step Time =    1.000,"P-12-1",           132,       18.1320,       169.926,            0.,NA,NA,"",   1.24284E+06,   1.35590E+06,   1.35590E+06
C:/temp/Job-12.odb,Step-1,Increment      1: Step Time =    1.000,"P-12-1",           133,       29.1978,       165.605,            0.,NA,NA,"",   730.520E+03,   202.889E+03,   202.889E+03
C:/temp/Job-12.odb,Step-1,Increment      1: Step Time =    1.000,"P-12-1",           134,       37.9779,       170.703,            0.,NA,NA,"",   1.37663E+06,   317.492E+03,   317.492E+03
C:/temp/Job-12.odb,Step-1,Increment      1: Step Time =    1.000,"P-12-1",           135,       54.5895,       170.094,            0.,NA,NA,"",   2.38707E+06,  -2.11128E+06,  -2.11128E+06
C:/temp/Job-12.odb,Step-1,Increment      1: Step Time =    1.000,"P-12-1",           136,       149.494,       165.866,            0.,NA,NA,"",   5.73388E+06,   5.86105E+06,   5.86105E+06
C:/temp/Job-12.odb,Step-1,Increment      1: Step Time =    1.000,"P-12-1",           137,       161.084,       168.680,            0.,NA,NA,"",   3.35697E+06,   3.38932E+06,   3.38932E+06
C:/temp/Job-12.odb,Step-1,Increment      1: Step Time =    1.000,"P-12-1",           138,       167.588,       167.399,            0.,NA,NA,"",   2.86723E+06,   2.81894E+06,   2.81894E+06
C:/temp/Job-12.odb,Step-1,Increment      1: Step Time =    1.000,"P-12-1",           139,       176.367,       166.873,            0.,NA,NA,"",   2.30562E+06,   2.19159E+06,   2.19159E+06
C:/temp/Job-12.odb,Step-1,Increment      1: Step Time =    1.000,"P-12-1",           140,       189.780,       169.533,            0.,NA,NA,"",   1.41321E+06,   1.28942E+06,   1.28942E+06
C:/temp/Job-12.odb,Step-1,Increment      1: Step Time =    1.000,"P-12-1",           141,       159.674,       154.867,            0.,NA,NA,"",   3.81766E+06,   3.84797E+06,   3.84797E+06
C:/temp/Job-12.odb,Step-1,Increment      1: Step Time =    1.000,"P-12-1",           142,       168.703,       156.381,            0.,NA,NA,"",   3.05717E+06,   2.93943E+06,   2.93943E+06
C:/temp/Job-12.odb,Step-1,Increment      1: Step Time =    1.000,"P-12-1",           143,       182.741,       157.798,            0.,NA,NA,"",   2.38161E+06,   2.16218E+06,   2.16218E+06
C:/temp/Job-12.odb,Step-1,Increment      1: Step Time =    1.000,"P-12-1",           144,       190.986,       159.778,            0.,NA,NA,"",   1.60154E+06,   1.51869E+06,   1.51869E+06
C:/temp/Job-12.odb,Step-1,Increment      1: Step Time =    1.000,"P-12-1",           145,       168.153,       145.839,            0.,NA,NA,"",   2.40363E+06,   2.26084E+06,   2.26084E+06
C:/temp/Job-12.odb,Step-1,Increment      1: Step Time =    1.000,"P-12-1",           146,       179.122,       146.715,            0.,NA,NA,"",   3.01688E+06,   2.51080E+06,   2.51080E+06
C:/temp/Job-12.odb,Step-1,Increment      1: Step Time =    1.000,"P-12-1",           147,       190.101,       149.774,            0.,NA,NA,"",   2.18628E+06,   2.09555E+06,   2.09555E+06
C:/temp/Job-12.odb,Step-1,Increment      1: Step Time =    1.000,"P-12-1",           148,       179.047,       135.305,            0.,NA,NA,"",   2.81449E+06,   1.07112E+06,   1.07112E+06
C:/temp/Job-12.odb,Step-1,Increment      1: Step Time =    1.000,"P-12-1",           149,       191.007,       135.008,            0.,NA,NA,"",   3.19800E+06,   3.15910E+06,   3.15910E+06
C:/temp/Job-12.odb,Step-1,Increment      1: Step Time =    1.000,"P-12-1",           150,       179.955,       122.462,            0.,NA,NA,"",   3.34094E+06,  -2.93272E+06,  -2.93272E+06
C:/temp/Job-12.odb,Step-1,Increment      1: Step Time =    1.000,"P-12-1",           151,       190.752,       125.779,            0.,NA,NA,"",   3.70900E+06,   3.65698E+06,   3.65698E+06
C:/temp/Job-12.odb,Step-1,Increment      1: Step Time =    1.000,"P-12-1",           152,       180.063,       111.804,            0.,NA,NA,"",   5.34424E+06,  -5.34497E+06,  -5.34497E+06
C:/temp/Job-12.odb,Step-1,Increment      1: Step Time =    1.000,"P-12-1",           153,       188.944,       115.195,            0.,NA,NA,"",   2.99416E+06,   2.74887E+06,   2.74887E+06
C:/temp/Job-12.odb,Step-1,Increment      1: Step Time =    1.000,"P-12-1",           154,       190.465,       93.4088,            0.,NA,NA,"",   3.23469E+06,   3.34088E+06,   3.34088E+06
C:/temp/Job-12.odb,Step-1,Increment      1: Step Time =    1.000,"P-12-1",           155,       190.140,       103.572,            0.,NA,NA,"",   2.80881E+06,   2.94263E+06,   2.94263E+06
C:/temp/Job-12.odb,Step-1,Increment      1: Step Time =    1.000,"P-12-1",           156,       180.512,       81.9813,            0.,NA,NA,"",   3.84305E+06,  -3.60127E+06,  -3.60127E+06
C:/temp/Job-12.odb,Step-1,Increment      1: Step Time =    1.000,"P-12-1",           157,       191.065,       84.1031,            0.,NA,NA,"",   3.84210E+06,   3.90625E+06,   3.90625E+06
C:/temp/Job-12.odb,Step-1,Increment      1: Step Time =    1.000,"P-12-1",           158,       178.390,       71.5303,            0.,NA,NA,"",   2.79096E+06,  -489.744E+03,  -489.744E+03
C:/temp/Job-12.odb,Step-1,Increment      1: Step Time =    1.000,"P-12-1",           159,       189.536,       74.5247,            0.,NA,NA,"",   3.42734E+06,   3.21392E+06,   3.21392E+06
C:/temp/Job-12.odb,Step-1,Increment      1: Step Time =    1.000,"P-12-1",           160,       168.335,       55.8454,            0.,NA,NA,"",   2.13173E+06,   1.98269E+06,   1.98269E+06
C:/temp/Job-12.odb,Step-1,Increment      1: Step Time =    1.000,"P-12-1",           161,       181.271,       50.9136,            0.,NA,NA,"",   2.97521E+06,   2.54301E+06,   2.54301E+06
C:/temp/Job-12.odb,Step-1,Increment      1: Step Time =    1.000,"P-12-1",           162,       190.678,       51.7268,            0.,NA,NA,"",   2.25072E+06,   2.17202E+06,   2.17202E+06
C:/temp/Job-12.odb,Step-1,Increment      1: Step Time =    1.000,"P-12-1",           163,       192.402,       64.9025,            0.,NA,NA,"",   3.18208E+06,   3.25280E+06,   3.25280E+06
C:/temp/Job-12.odb,Step-1,Increment      1: Step Time =    1.000,"P-12-1",           164,       179.514,       64.6196,            0.,NA,NA,"",   2.93025E+06,   1.22016E+06,   1.22016E+06
C:/temp/Job-12.odb,Step-1,Increment      1: Step Time =    1.000,"P-12-1",           165,       159.737,       43.3519,            0.,NA,NA,"",   3.92752E+06,   3.97925E+06,   3.97925E+06
C:/temp/Job-12.odb,Step-1,Increment      1: Step Time =    1.000,"P-12-1",           166,       170.861,       42.1337,            0.,NA,NA,"",   2.98967E+06,   2.82493E+06,   2.82493E+06
C:/temp/Job-12.odb,Step-1,Increment      1: Step Time =    1.000,"P-12-1",           167,       179.708,       40.8793,            0.,NA,NA,"",   2.47368E+06,   2.26613E+06,   2.26613E+06
C:/temp/Job-12.odb,Step-1,Increment      1: Step Time =    1.000,"P-12-1",           168,       188.178,       40.9842,            0.,NA,NA,"",   1.83765E+06,   1.72137E+06,   1.72137E+06
C:/temp/Job-12.odb,Step-1,Increment      1: Step Time =    1.000,"P-12-1",           169,       146.851,       32.5972,            0.,NA,NA,"",   6.22463E+06,   6.33694E+06,   6.33694E+06
C:/temp/Job-12.odb,Step-1,Increment      1: Step Time =    1.000,"P-12-1",           170,       158.763,       32.0149,            0.,NA,NA,"",   3.62774E+06,   3.70465E+06,   3.70465E+06
C:/temp/Job-12.odb,Step-1,Increment      1: Step Time =    1.000,"P-12-1",           171,       170.990,       30.4705,            0.,NA,NA,"",   2.47216E+06,   2.40171E+06,   2.40171E+06
C:/temp/Job-12.odb,Step-1,Increment      1: Step Time =    1.000,"P-12-1",           172,       178.515,       27.9382,            0.,NA,NA,"",   1.91721E+06,   1.82928E+06,   1.82928E+06
C:/temp/Job-12.odb,Step-1,Increment      1: Step Time =    1.000,"P-12-1",           173,       189.916,       30.2491,            0.,NA,NA,"",   1.39640E+06,   1.27226E+06,   1.27226E+06
C:/temp/Job-12.odb,Step-1,Increment      1: Step Time =    1.000,"P-12-1",           174,       123.832,       21.4646,            0.,NA,NA,"",   9.54499E+06,   9.75729E+06,   9.75729E+06
C:/temp/Job-12.odb,Step-1,Increment      1: Step Time =    1.000,"P-12-1",           175,       10.2037,       20.4698,            0.,NA,NA,"",   2.95716E+06,   3.17861E+06,   3.17861E+06
C:/temp/Job-12.odb,Step-1,Increment      1: Step Time =    1.000,"P-12-1",           176,       21.7637,       21.5055,            0.,NA,NA,"",   2.88217E+06,   2.93726E+06,   2.93726E+06
C:/temp/Job-12.odb,Step-1,Increment      1: Step Time =    1.000,"P-12-1",           177,       33.2376,       21.9770,            0.,NA,NA,"",   2.65707E+06,   2.54004E+06,   2.54004E+06
C:/temp/Job-12.odb,Step-1,Increment      1: Step Time =    1.000,"P-12-1",           178,       42.3341,       19.9143,            0.,NA,NA,"",   3.09772E+06,   2.85219E+06,   2.85219E+06
C:/temp/Job-12.odb,Step-1,Increment      1: Step Time =    1.000,"P-12-1",           179,       56.8139,       19.3207,            0.,NA,NA,"",   3.36481E+06,   2.82403E+06,   2.82403E+06
C:/temp/Job-12.odb,Step-1,Increment      1: Step Time =    1.000,"P-12-1",           180,       63.0747,       21.9520,            0.,NA,NA,"",   2.91798E+06,   1.54966E+06,   1.54966E+06
C:/temp/Job-12.odb,Step-1,Increment      1: Step Time =    1.000,"P-12-1",           181,       71.1724,       21.5597,            0.,NA,NA,"",   2.95111E+06,   2.07163E+06,   2.07163E+06
C:/temp/Job-12.odb,Step-1,Increment      1: Step Time =    1.000,"P-12-1",           182,       82.5484,       20.0989,            0.,NA,NA,"",   4.77459E+06,   4.58718E+06,   4.58718E+06
C:/temp/Job-12.odb,Step-1,Increment      1: Step Time =    1.000,"P-12-1",           183,       113.389,       19.5096,            0.,NA,NA,"",   10.1488E+06,   10.3386E+06,   10.3386E+06
C:/temp/Job-12.odb,Step-1,Increment      1: Step Time =    1.000,"P-12-1",           184,       136.650,       20.1752,            0.,NA,NA,"",   5.21283E+06,   5.42205E+06,   5.42205E+06
C:/temp/Job-12.odb,Step-1,Increment      1: Step Time =    1.000,"P-12-1",           185,       144.983,       21.7872,            0.,NA,NA,"",   4.16936E+06,   4.30665E+06,   4.30665E+06
C:/temp/Job-12.odb,Step-1,Increment      1: Step Time =    1.000,"P-12-1",           186,       158.777,       20.0429,            0.,NA,NA,"",   2.44504E+06,   2.40547E+06,   2.40547E+06
C:/temp/Job-12.odb,Step-1,Increment      1: Step Time =    1.000,"P-12-1",           187,       168.062,       21.4136,            0.,NA,NA,"",   2.08671E+06,   2.00168E+06,   2.00168E+06
C:/temp/Job-12.odb,Step-1,Increment      1: Step Time =    1.000,"P-12-1",           188,       52.8916,       32.7554,            0.,NA,NA,"",   2.72965E+06,  -2.67351E+06,  -2.67351E+06
C:/temp/Job-12.odb,Step-1,Increment      1: Step Time =    1.000,"P-12-1",           189,       41.6644,       31.3740,            0.,NA,NA,"",   1.49303E+06,  -322.009E+03,  -322.009E+03
C:/temp/Job-12.odb,Step-1,Increment      1: Step Time =    1.000,"P-12-1",           190,       33.1516,       32.7599,            0.,NA,NA,"",   895.083E+03,  -12.7175E+03,  -12.7175E+03
C:/temp/Job-12.odb,Step-1,Increment      1: Step Time =    1.000,"P-12-1",           191,       18.2698,       31.3478,            0.,NA,NA,"",   1.01219E+06,   1.11009E+06,   1.11009E+06
C:/temp/Job-12.odb,Step-1,Increment      1: Step Time =    1.000,"P-12-1",           192,       9.43015,       30.1217,            0.,NA,NA,"",   1.31214E+06,   1.48010E+06,   1.48010E+06
C:/temp/Job-12.odb,Step-1,Increment      1: Step Time =    1.000,"P-12-1",           193,       40.1212,       43.3475,            0.,NA,NA,"",   3.13167E+06,  -3.19326E+06,  -3.19326E+06
C:/temp/Job-12.odb,Step-1,Increment      1: Step Time =    1.000,"P-12-1",           194,       32.0684,       39.5194,            0.,NA,NA,"",   1.15150E+06,  -1.13241E+06,  -1.13241E+06
C:/temp/Job-12.odb,Step-1,Increment      1: Step Time =    1.000,"P-12-1",           195,       19.8755,       42.9622,            0.,NA,NA,"",   770.811E+03,  -505.202E+03,  -505.202E+03
C:/temp/Job-12.odb,Step-1,Increment      1: Step Time =    1.000,"P-12-1",           196,       9.44863,       39.9000,            0.,NA,NA,"",   405.720E+03,   372.775E+03,   372.775E+03
C:/temp/Job-12.odb,Step-1,Increment      1: Step Time =    1.000,"P-12-1",           197,       30.8815,       55.7276,            0.,NA,NA,"",   2.64838E+06,  -2.68044E+06,  -2.68044E+06
C:/temp/Job-12.odb,Step-1,Increment      1: Step Time =    1.000,"P-12-1",           198,       18.5370,       53.8710,            0.,NA,NA,"",   1.43223E+06,  -1.37140E+06,  -1.37140E+06
C:/temp/Job-12.odb,Step-1,Increment      1: Step Time =    1.000,"P-12-1",           199,       11.1172,       50.4915,            0.,NA,NA,"",   976.722E+03,  -866.368E+03,  -866.368E+03
C:/temp/Job-12.odb,Step-1,Increment      1: Step Time =    1.000,"P-12-1",           200,       19.5630,       66.9074,            0.,NA,NA,"",   1.46100E+06,  -1.47733E+06,  -1.47733E+06
C:/temp/Job-12.odb,Step-1,Increment      1: Step Time =    1.000,"P-12-1",           201,       9.80927,       60.4761,            0.,NA,NA,"",   1.20418E+06,  -1.17630E+06,  -1.17630E+06
C:/temp/Job-12.odb,Step-1,Increment      1: Step Time =    1.000,"P-12-1",           202,       9.70587,       70.2130,            0.,NA,NA,"",   1.09456E+06,  -1.11692E+06,  -1.11692E+06
C:/temp/Job-12.odb,Step-1,Increment      1: Step Time =    1.000,"P-12-1",           203,       20.7424,       74.5383,            0.,NA,NA,"",   1.24240E+06,  -1.27561E+06,  -1.27561E+06
C:/temp/Job-12.odb,Step-1,Increment      1: Step Time =    1.000,"P-12-1",           204,       19.5126,       85.6660,            0.,NA,NA,"",   826.675E+03,  -855.954E+03,  -855.954E+03
C:/temp/Job-12.odb,Step-1,Increment      1: Step Time =    1.000,"P-12-1",           205,       9.85615,       85.1741,            0.,NA,NA,"",   673.249E+03,  -730.753E+03,  -730.753E+03
C:/temp/Job-12.odb,Step-1,Increment      1: Step Time =    1.000,"P-12-1",           206,       9.73620,       95.4707,            0.,NA,NA,"",   467.367E+03,  -527.817E+03,  -527.817E+03
C:/temp/Job-12.odb,Step-1,Increment      1: Step Time =    1.000,"P-12-1",           207,       9.93088,       105.803,            0.,NA,NA,"",   484.015E+03,  -544.984E+03,  -544.984E+03
C:/temp/Job-12.odb,Step-1,Increment      1: Step Time =    1.000,"P-12-1",           208,       21.8346,       122.655,            0.,NA,NA,"",   1.17116E+06,  -1.19662E+06,  -1.19662E+06
C:/temp/Job-12.odb,Step-1,Increment      1: Step Time =    1.000,"P-12-1",           209,       8.62883,       126.473,            0.,NA,NA,"",   980.662E+03,  -1.01288E+06,  -1.01288E+06
C:/temp/Job-12.odb,Step-1,Increment      1: Step Time =    1.000,"P-12-1",           210,       10.6206,       116.724,            0.,NA,NA,"",   747.765E+03,  -800.378E+03,  -800.378E+03
C:/temp/Job-12.odb,Step-1,Increment      1: Step Time =    1.000,"P-12-1",           211,       19.8653,       114.988,            0.,NA,NA,"",   850.652E+03,  -881.397E+03,  -881.397E+03
C:/temp/Job-12.odb,Step-1,Increment      1: Step Time =    1.000,"P-12-1",           212,       22.0161,       133.724,            0.,NA,NA,"",   1.63538E+06,  -1.65534E+06,  -1.65534E+06
C:/temp/Job-12.odb,Step-1,Increment      1: Step Time =    1.000,"P-12-1",           213,       9.29401,       135.615,            0.,NA,NA,"",   1.18337E+06,  -1.17558E+06,  -1.17558E+06
C:/temp/Job-12.odb,Step-1,Increment      1: Step Time =    1.000,"P-12-1",           214,       31.7358,       145.433,            0.,NA,NA,"",   2.77568E+06,  -2.81045E+06,  -2.81045E+06
C:/temp/Job-12.odb,Step-1,Increment      1: Step Time =    1.000,"P-12-1",           215,       19.9382,       146.785,            0.,NA,NA,"",   1.48882E+06,  -1.43168E+06,  -1.43168E+06
C:/temp/Job-12.odb,Step-1,Increment      1: Step Time =    1.000,"P-12-1",           216,       9.59852,       150.648,            0.,NA,NA,"",   844.425E+03,  -725.135E+03,  -725.135E+03
C:/temp/Job-12.odb,Step-1,Increment      1: Step Time =    1.000,"P-12-1",           217,       40.6828,       159.639,            0.,NA,NA,"",   2.63550E+06,  -2.68985E+06,  -2.68985E+06
C:/temp/Job-12.odb,Step-1,Increment      1: Step Time =    1.000,"P-12-1",           218,       28.2790,       157.271,            0.,NA,NA,"",   1.23170E+06,  -1.21168E+06,  -1.21168E+06
C:/temp/Job-12.odb,Step-1,Increment      1: Step Time =    1.000,"P-12-1",           219,       18.9333,       161.205,            0.,NA,NA,"",   493.344E+03,   197.194E+03,   197.194E+03
C:/temp/Job-12.odb,Step-1,Increment      1: Step Time =    1.000,"P-12-1",           220,       9.40866,       160.453,            0.,NA,NA,"",   396.421E+03,   392.739E+03,   392.739E+03
C:/temp/Job-12.odb,Step-1,Increment      1: Step Time =    1.000,"P-12-1",           221,       188.969,       11.1087,            0.,NA,NA,"",   1.07949E+06,   986.165E+03,   986.165E+03
C:/temp/Job-12.odb,Step-1,Increment      1: Step Time =    1.000,"P-12-1",           222,       178.845,       9.51952,            0.,NA,NA,"",   996.237E+03,   899.064E+03,   899.064E+03
C:/temp/Job-12.odb,Step-1,Increment      1: Step Time =    1.000,"P-12-1",           223,       169.485,       9.43425,            0.,NA,NA,"",   969.073E+03,   808.332E+03,   808.332E+03
C:/temp/Job-12.odb,Step-1,Increment      1: Step Time =    1.000,"P-12-1",           224,       160.400,       9.36512,            0.,NA,NA,"",   1.05164E+06,   566.296E+03,   566.296E+03
C:/temp/Job-12.odb,Step-1,Increment      1: Step Time =    1.000,"P-12-1",           225,       150.032,       11.1316,            0.,NA,NA,"",   1.40243E+06,   744.718E+03,   744.718E+03
C:/temp/Job-12.odb,Step-1,Increment      1: Step Time =    1.000,"P-12-1",           226,       135.295,       9.61578,            0.,NA,NA,"",   1.27993E+06,   510.298E+03,   510.298E+03
C:/temp/Job-12.odb,Step-1,Increment      1: Step Time =    1.000,"P-12-1",           227,       125.304,       10.4162,            0.,NA,NA,"",   1.83444E+06,   1.69976E+06,   1.69976E+06
C:/temp/Job-12.odb,Step-1,Increment      1: Step Time =    1.000,"P-12-1",           228,       114.616,       10.1201,            0.,NA,NA,"",   2.64646E+06,   2.68198E+06,   2.68198E+06
C:/temp/Job-12.odb,Step-1,Increment      1: Step Time =    1.000,"P-12-1",           229,       104.069,       9.77605,            0.,NA,NA,"",   3.63435E+06,   3.46765E+06,   3.46765E+06
C:/temp/Job-12.odb,Step-1,Increment      1: Step Time =    1.000,"P-12-1",           230,       93.7113,       9.80466,            0.,NA,NA,"",   4.45643E+06,   4.11681E+06,   4.11681E+06
C:/temp/Job-12.odb,Step-1,Increment      1: Step Time =    1.000,"P-12-1",           231,       83.5163,       10.0300,            0.,NA,NA,"",   4.92429E+06,   4.48980E+06,   4.48980E+06
C:/temp/Job-12.odb,Step-1,Increment      1: Step Time =    1.000,"P-12-1",           232,       73.6944,       9.86793,            0.,NA,NA,"",   5.11918E+06,   4.74836E+06,   4.74836E+06
C:/temp/Job-12.odb,Step-1,Increment      1: Step Time =    1.000,"P-12-1",           233,       64.4711,       9.03634,            0.,NA,NA,"",   5.37786E+06,   5.14391E+06,   5.14391E+06
C:/temp/Job-12.odb,Step-1,Increment      1: Step Time =    1.000,"P-12-1",           234,       54.6452,       11.4923,            0.,NA,NA,"",   5.00339E+06,   4.79060E+06,   4.79060E+06
C:/temp/Job-12.odb,Step-1,Increment      1: Step Time =    1.000,"P-12-1",           235,       41.1888,       11.9462,            0.,NA,NA,"",   4.99999E+06,   4.90656E+06,   4.90656E+06
C:/temp/Job-12.odb,Step-1,Increment      1: Step Time =    1.000,"P-12-1",           236,       30.1552,       10.4680,            0.,NA,NA,"",   5.24193E+06,   5.21852E+06,   5.21852E+06
C:/temp/Job-12.odb,Step-1,Increment      1: Step Time =    1.000,"P-12-1",           237,       20.2889,       10.3148,            0.,NA,NA,"",   5.17642E+06,   5.20141E+06,   5.20141E+06
C:/temp/Job-12.odb,Step-1,Increment      1: Step Time =    1.000,"P-12-1",           238,       10.2741,       10.3242,            0.,NA,NA,"",   5.04899E+06,   5.19279E+06,   5.19279E+06
C:/temp/Job-12.odb,Step-1,Increment      1: Step Time =    1.000,"P-12-1",           239,       190.030,       190.209,            0.,NA,NA,"",   1.03629E+06,   954.537E+03,   954.537E+03
C:/temp/Job-12.odb,Step-1,Increment      1: Step Time =    1.000,"P-12-1",           240,       175.278,       189.095,            0.,NA,NA,"",   1.10810E+06,   981.475E+03,   981.475E+03
C:/temp/Job-12.odb,Step-1,Increment      1: Step Time =    1.000,"P-12-1",           241,       165.001,       190.417,            0.,NA,NA,"",   1.03944E+06,   832.457E+03,   832.457E+03
C:/temp/Job-12.odb,Step-1,Increment      1: Step Time =    1.000,"P-12-1",           242,       156.148,       190.485,            0.,NA,NA,"",   1.17039E+06,   312.643E+03,   312.643E+03
C:/temp/Job-12.odb,Step-1,Increment      1: Step Time =    1.000,"P-12-1",           243,       148.615,       187.591,            0.,NA,NA,"",   1.68547E+06,   1.53206E+06,   1.53206E+06
C:/temp/Job-12.odb,Step-1,Increment      1: Step Time =    1.000,"P-12-1",           244,       133.948,       189.913,            0.,NA,NA,"",   1.44626E+06,   765.208E+03,   765.208E+03
C:/temp/Job-12.odb,Step-1,Increment      1: Step Time =    1.000,"P-12-1",           245,       124.819,       191.060,            0.,NA,NA,"",   1.46598E+06,   679.977E+03,   679.977E+03
C:/temp/Job-12.odb,Step-1,Increment      1: Step Time =    1.000,"P-12-1",           246,       115.892,       191.097,            0.,NA,NA,"",   1.88064E+06,   1.57474E+06,   1.57474E+06
C:/temp/Job-12.odb,Step-1,Increment      1: Step Time =    1.000,"P-12-1",           247,       105.406,       189.902,            0.,NA,NA,"",   3.68998E+06,   3.57361E+06,   3.57361E+06
C:/temp/Job-12.odb,Step-1,Increment      1: Step Time =    1.000,"P-12-1",           248,       95.4426,       190.342,            0.,NA,NA,"",   4.28201E+06,   3.96658E+06,   3.96658E+06
C:/temp/Job-12.odb,Step-1,Increment      1: Step Time =    1.000,"P-12-1",           249,       85.3350,       188.375,            0.,NA,NA,"",   5.09066E+06,   4.71361E+06,   4.71361E+06
C:/temp/Job-12.odb,Step-1,Increment      1: Step Time =    1.000,"P-12-1",           250,       74.6568,       188.386,            0.,NA,NA,"",   5.04576E+06,   4.58873E+06,   4.58873E+06
C:/temp/Job-12.odb,Step-1,Increment      1: Step Time =    1.000,"P-12-1",           251,       64.1605,       189.730,            0.,NA,NA,"",   5.19793E+06,   4.91596E+06,   4.91596E+06
C:/temp/Job-12.odb,Step-1,Increment      1: Step Time =    1.000,"P-12-1",           252,       49.6415,       190.083,            0.,NA,NA,"",   5.40923E+06,   5.28302E+06,   5.28302E+06
C:/temp/Job-12.odb,Step-1,Increment      1: Step Time =    1.000,"P-12-1",           253,       40.0122,       190.669,            0.,NA,NA,"",   5.56040E+06,   5.50666E+06,   5.50666E+06
C:/temp/Job-12.odb,Step-1,Increment      1: Step Time =    1.000,"P-12-1",           254,       30.4873,       190.288,            0.,NA,NA,"",   5.39706E+06,   5.37664E+06,   5.37664E+06
C:/temp/Job-12.odb,Step-1,Increment      1: Step Time =    1.000,"P-12-1",           255,       20.5156,       189.652,            0.,NA,NA,"",   5.17153E+06,   5.19556E+06,   5.19556E+06
C:/temp/Job-12.odb,Step-1,Increment      1: Step Time =    1.000,"P-12-1",           256,       10.2491,       189.717,            0.,NA,NA,"",   5.04868E+06,   5.19320E+06,   5.19320E+06
C:/temp/Job-12.odb,Step-1,Increment      1: Step Time =    1.000,"P-12-1",           257,       95.0158,       176.839,            0.,NA,NA,"",   8.89903E+06,   8.92312E+06,   8.92312E+06
C:/temp/Job-12.odb,Step-1,Increment      1: Step Time =    1.000,"P-12-1",           258,       90.0525,       176.355,            0.,NA,NA,"",   6.95853E+06,   6.99813E+06,   6.99813E+06
C:/temp/Job-12.odb,Step-1,Increment      1: Step Time =    1.000,"P-12-1",           259,       80.2717,       174.430,            0.,NA,NA,"",   3.21763E+06,   3.17731E+06,   3.17731E+06
C:/temp/Job-12.odb,Step-1,Increment      1: Step Time =    1.000,"P-12-1",           260,       75.4953,       172.997,            0.,NA,NA,"",   1.76138E+06,   1.59125E+06,   1.59125E+06
C:/temp/Job-12.odb,Step-1,Increment      1: Step Time =    1.000,"P-12-1",           261,       66.2703,       169.219,            0.,NA,NA,"",   1.71195E+06,  -1.61761E+06,  -1.61761E+06
C:/temp/Job-12.odb,Step-1,Increment      1: Step Time =    1.000,"P-12-1",           262,       61.8605,       166.891,            0.,NA,NA,"",   2.45573E+06,  -2.43313E+06,  -2.43313E+06
C:/temp/Job-12.odb,Step-1,Increment      1: Step Time =    1.000,"P-12-1",           263,       53.5386,       161.403,            0.,NA,NA,"",   3.54251E+06,  -3.55177E+06,  -3.55177E+06
C:/temp/Job-12.odb,Step-1,Increment      1: Step Time =    1.000,"P-12-1",           264,       49.6614,       158.267,            0.,NA,NA,"",   3.78418E+06,  -3.81767E+06,  -3.81767E+06
C:/temp/Job-12.odb,Step-1,Increment      1: Step Time =    1.000,"P-12-1",           265,       42.5559,       151.275,            0.,NA,NA,"",   3.74504E+06,  -3.79528E+06,  -3.79528E+06
C:/temp/Job-12.odb,Step-1,Increment      1: Step Time =    1.000,"P-12-1",           266,       39.3573,       147.450,            0.,NA,NA,"",   3.56957E+06,  -3.60504E+06,  -3.60504E+06
C:/temp/Job-12.odb,Step-1,Increment      1: Step Time =    1.000,"P-12-1",           267,       33.7356,       139.218,            0.,NA,NA,"",   2.81273E+06,  -2.84383E+06,  -2.84383E+06
C:/temp/Job-12.odb,Step-1,Increment      1: Step Time =    1.000,"P-12-1",           268,       31.3360,       134.846,            0.,NA,NA,"",   2.32836E+06,  -2.35333E+06,  -2.35333E+06
C:/temp/Job-12.odb,Step-1,Increment      1: Step Time =    1.000,"P-12-1",           269,       27.4097,       125.684,            0.,NA,NA,"",   1.49885E+06,  -1.51660E+06,  -1.51660E+06
C:/temp/Job-12.odb,Step-1,Increment      1: Step Time =    1.000,"P-12-1",           270,       25.8994,       120.931,            0.,NA,NA,"",   1.19602E+06,  -1.21319E+06,  -1.21319E+06
C:/temp/Job-12.odb,Step-1,Increment      1: Step Time =    1.000,"P-12-1",           271,       23.8163,       111.183,            0.,NA,NA,"",    801.42E+03,  -815.698E+03,  -815.698E+03
C:/temp/Job-12.odb,Step-1,Increment      1: Step Time =    1.000,"P-12-1",           272,       23.2523,       106.228,            0.,NA,NA,"",   719.672E+03,  -730.987E+03,  -730.987E+03
C:/temp/Job-12.odb,Step-1,Increment      1: Step Time =    1.000,"P-12-1",           273,       23.0908,       96.2607,            0.,NA,NA,"",   693.573E+03,  -705.803E+03,  -705.803E+03
C:/temp/Job-12.odb,Step-1,Increment      1: Step Time =    1.000,"P-12-1",           274,       24.2184,       86.3563,            0.,NA,NA,"",   853.222E+03,  -870.671E+03,  -870.671E+03
C:/temp/Job-12.odb,Step-1,Increment      1: Step Time =    1.000,"P-12-1",           275,       25.2605,       81.4796,            0.,NA,NA,"",   1.03805E+06,  -1.06464E+06,  -1.06464E+06
C:/temp/Job-12.odb,Step-1,Increment      1: Step Time =    1.000,"P-12-1",           276,       30.2436,       67.3956,            0.,NA,NA,"",   2.11414E+06,  -2.13909E+06,  -2.13909E+06
C:/temp/Job-12.odb,Step-1,Increment      1: Step Time =    1.000,"P-12-1",           277,       35.0403,       58.6571,            0.,NA,NA,"",   3.06264E+06,  -3.09575E+06,  -3.09575E+06
C:/temp/Job-12.odb,Step-1,Increment      1: Step Time =    1.000,"P-12-1",           278,       37.8526,       54.5390,            0.,NA,NA,"",   3.48248E+06,  -3.51352E+06,  -3.51352E+06
C:/temp/Job-12.odb,Step-1,Increment      1: Step Time =    1.000,"P-12-1",           279,       44.2464,       46.8913,            0.,NA,NA,"",   3.84455E+06,  -3.89623E+06,  -3.89623E+06
C:/temp/Job-12.odb,Step-1,Increment      1: Step Time =    1.000,"P-12-1",           280,       47.8011,       43.3937,            0.,NA,NA,"",   3.80951E+06,  -3.87753E+06,  -3.87753E+06
C:/temp/Job-12.odb,Step-1,Increment      1: Step Time =    1.000,"P-12-1",           281,       59.7145,       34.3793,            0.,NA,NA,"",   3.00596E+06,  -3.00727E+06,  -3.00727E+06
C:/temp/Job-12.odb,Step-1,Increment      1: Step Time =    1.000,"P-12-1",           282,       68.5295,       29.7248,            0.,NA,NA,"",   1.67483E+06,  -1.30988E+06,  -1.30988E+06
C:/temp/Job-12.odb,Step-1,Increment      1: Step Time =    1.000,"P-12-1",           283,       73.1444,       27.8351,            0.,NA,NA,"",   1.76995E+06,   486.298E+03,   486.298E+03
C:/temp/Job-12.odb,Step-1,Increment      1: Step Time =    1.000,"P-12-1",           284,       82.6923,       24.9704,            0.,NA,NA,"",   4.37895E+06,   4.33818E+06,   4.33818E+06
C:/temp/Job-12.odb,Step-1,Increment      1: Step Time =    1.000,"P-12-1",           285,       87.5852,       24.0074,            0.,NA,NA,"",   6.24194E+06,   6.25812E+06,   6.25812E+06
C:/temp/Job-12.odb,Step-1,Increment      1: Step Time =    1.000,"P-12-1",           286,       97.5066,       23.0404,            0.,NA,NA,"",   9.83504E+06,   9.91325E+06,   9.91325E+06
C:/temp/Job-12.odb,Step-1,Increment      1: Step Time =    1.000,"P-12-1",           287,       102.493,       23.0404,            0.,NA,NA,"",   11.1924E+06,   11.2925E+06,   11.2925E+06
C:/temp/Job-12.odb,Step-1,Increment      1: Step Time =    1.000,"P-12-1",           288,       112.415,       24.0074,            0.,NA,NA,"",   12.4390E+06,   12.5740E+06,   12.5740E+06
C:/temp/Job-12.odb,Step-1,Increment      1: Step Time =    1.000,"P-12-1",           289,       117.308,       24.9704,            0.,NA,NA,"",   12.3460E+06,   12.4956E+06,   12.4956E+06
C:/temp/Job-12.odb,Step-1,Increment      1: Step Time =    1.000,"P-12-1",           290,       126.856,       27.8351,            0.,NA,NA,"",   11.1316E+06,   11.2824E+06,   11.2824E+06
C:/temp/Job-12.odb,Step-1,Increment      1: Step Time =    1.000,"P-12-1",           291,       131.471,       29.7248,            0.,NA,NA,"",   10.2051E+06,   10.3461E+06,   10.3461E+06
C:/temp/Job-12.odb,Step-1,Increment      1: Step Time =    1.000,"P-12-1",           292,       140.286,       34.3793,            0.,NA,NA,"",   8.06325E+06,   8.15923E+06,   8.15923E+06
C:/temp/Job-12.odb,Step-1,Increment      1: Step Time =    1.000,"P-12-1",           293,       144.449,       37.1246,            0.,NA,NA,"",   6.99043E+06,   7.05958E+06,   7.05958E+06
C:/temp/Job-12.odb,Step-1,Increment      1: Step Time =    1.000,"P-12-1",           294,       152.199,       43.3937,            0.,NA,NA,"",   5.00336E+06,   5.10846E+06,   5.10846E+06
C:/temp/Job-12.odb,Step-1,Increment      1: Step Time =    1.000,"P-12-1",           295,       155.754,       46.8913,            0.,NA,NA,"",   4.17394E+06,   4.25183E+06,   4.25183E+06
C:/temp/Job-12.odb,Step-1,Increment      1: Step Time =    1.000,"P-12-1",           296,       162.147,       54.5390,            0.,NA,NA,"",   2.61139E+06,   2.61499E+06,   2.61499E+06
C:/temp/Job-12.odb,Step-1,Increment      1: Step Time =    1.000,"P-12-1",           297,       164.960,       58.6571,            0.,NA,NA,"",   1.77910E+06,   1.73876E+06,   1.73876E+06
C:/temp/Job-12.odb,Step-1,Increment      1: Step Time =    1.000,"P-12-1",           298,       169.756,       67.3956,            0.,NA,NA,"",   1.12653E+06,  -400.643E+03,  -400.643E+03
C:/temp/Job-12.odb,Step-1,Increment      1: Step Time =    1.000,"P-12-1",           299,       171.721,       71.9793,            0.,NA,NA,"",   2.07550E+06,  -2.02772E+06,  -2.02772E+06
C:/temp/Job-12.odb,Step-1,Increment      1: Step Time =    1.000,"P-12-1",           300,       174.740,       81.4796,            0.,NA,NA,"",   5.07742E+06,  -5.08314E+06,  -5.08314E+06
C:/temp/Job-12.odb,Step-1,Increment      1: Step Time =    1.000,"P-12-1",           301,       175.782,       86.3563,            0.,NA,NA,"",   6.34843E+06,  -6.37214E+06,  -6.37214E+06
C:/temp/Job-12.odb,Step-1,Increment      1: Step Time =    1.000,"P-12-1",           302,       176.909,       96.2607,            0.,NA,NA,"",   8.03117E+06,  -8.09580E+06,  -8.09580E+06
C:/temp/Job-12.odb,Step-1,Increment      1: Step Time =    1.000,"P-12-1",           303,       176.748,       106.228,            0.,NA,NA,"",   7.87038E+06,  -7.93572E+06,  -7.93572E+06
C:/temp/Job-12.odb,Step-1,Increment      1: Step Time =    1.000,"P-12-1",           304,       176.184,       111.183,            0.,NA,NA,"",   7.05229E+06,  -7.07743E+06,  -7.07743E+06
C:/temp/Job-12.odb,Step-1,Increment      1: Step Time =    1.000,"P-12-1",           305,       174.101,       120.931,            0.,NA,NA,"",   4.19683E+06,  -4.19980E+06,  -4.19980E+06
C:/temp/Job-12.odb,Step-1,Increment      1: Step Time =    1.000,"P-12-1",           306,       172.590,       125.684,            0.,NA,NA,"",   2.82595E+06,  -2.81142E+06,  -2.81142E+06
C:/temp/Job-12.odb,Step-1,Increment      1: Step Time =    1.000,"P-12-1",           307,       168.664,       134.846,            0.,NA,NA,"",   1.06313E+06,  -53.6397E+03,  -53.6397E+03
C:/temp/Job-12.odb,Step-1,Increment      1: Step Time =    1.000,"P-12-1",           308,       166.264,       139.218,            0.,NA,NA,"",   1.36625E+06,   1.25563E+06,   1.25563E+06
C:/temp/Job-12.odb,Step-1,Increment      1: Step Time =    1.000,"P-12-1",           309,       160.643,       147.450,            0.,NA,NA,"",   3.06791E+06,   3.07573E+06,   3.07573E+06
C:/temp/Job-12.odb,Step-1,Increment      1: Step Time =    1.000,"P-12-1",           310,       157.444,       151.275,            0.,NA,NA,"",   3.93891E+06,   3.97517E+06,   3.97517E+06
C:/temp/Job-12.odb,Step-1,Increment      1: Step Time =    1.000,"P-12-1",           311,       150.339,       158.267,            0.,NA,NA,"",   5.61089E+06,   5.69634E+06,   5.69634E+06
C:/temp/Job-12.odb,Step-1,Increment      1: Step Time =    1.000,"P-12-1",           312,       146.461,       161.403,            0.,NA,NA,"",   6.53742E+06,   6.63423E+06,   6.63423E+06
C:/temp/Job-12.odb,Step-1,Increment      1: Step Time =    1.000,"P-12-1",           313,       138.139,       166.891,            0.,NA,NA,"",   8.65302E+06,   8.76574E+06,   8.76574E+06
C:/temp/Job-12.odb,Step-1,Increment      1: Step Time =    1.000,"P-12-1",           314,       133.730,       169.219,            0.,NA,NA,"",   9.77936E+06,   9.90325E+06,   9.90325E+06
C:/temp/Job-12.odb,Step-1,Increment      1: Step Time =    1.000,"P-12-1",           315,       124.505,       172.997,            0.,NA,NA,"",   11.7471E+06,   11.8684E+06,   11.8684E+06
C:/temp/Job-12.odb,Step-1,Increment      1: Step Time =    1.000,"P-12-1",           316,       119.728,       174.430,            0.,NA,NA,"",   12.3162E+06,   12.4308E+06,   12.4308E+06
C:/temp/Job-12.odb,Step-1,Increment      1: Step Time =    1.000,"P-12-1",           317,       109.947,       176.355,            0.,NA,NA,"",   11.7806E+06,   11.9435E+06,   11.9435E+06
C:/temp/Job-12.odb,Step-1,Increment      1: Step Time =    1.000,"P-12-1",           318,       104.984,       176.839,            0.,NA,NA,"",   11.9362E+06,   12.0288E+06,   12.0288E+06
C:/temp/Job-12.odb,Step-1,Increment      1: Step Time =    1.000,"P-12-1",           319,          195.,            0.,            0.,NA,NA,"",   956.688E+03,   945.055E+03,   945.055E+03
C:/temp/Job-12.odb,Step-1,Increment      1: Step Time =    1.000,"P-12-1",           320,          185.,            0.,            0.,NA,NA,"",   695.531E+03,   682.327E+03,   682.327E+03
C:/temp/Job-12.odb,Step-1,Increment      1: Step Time =    1.000,"P-12-1",           321,          175.,            0.,            0.,NA,NA,"",   316.474E+03,   260.865E+03,   260.865E+03
C:/temp/Job-12.odb,Step-1,Increment      1: Step Time =    1.000,"P-12-1",           322,          165.,            0.,            0.,NA,NA,"",   510.411E+03,  -484.645E+03,  -484.645E+03
C:/temp/Job-12.odb,Step-1,Increment      1: Step Time =    1.000,"P-12-1",           323,          155.,            0.,            0.,NA,NA,"",   1.27059E+06,  -1.25729E+06,  -1.25729E+06
C:/temp/Job-12.odb,Step-1,Increment      1: Step Time =    1.000,"P-12-1",           324,          145.,            0.,            0.,NA,NA,"",   2.18569E+06,  -2.16342E+06,  -2.16342E+06
C:/temp/Job-12.odb,Step-1,Increment      1: Step Time =    1.000,"P-12-1",           325,          135.,            0.,            0.,NA,NA,"",   3.07723E+06,  -3.06146E+06,  -3.06146E+06
C:/temp/Job-12.odb,Step-1,Increment      1: Step Time =    1.000,"P-12-1",           326,          125.,            0.,            0.,NA,NA,"",   3.61331E+06,  -3.59693E+06,  -3.59693E+06
C:/temp/Job-12.odb,Step-1,Increment      1: Step Time =    1.000,"P-12-1",           327,          115.,            0.,            0.,NA,NA,"",   3.46304E+06,  -3.41578E+06,  -3.41578E+06
C:/temp/Job-12.odb,Step-1,Increment      1: Step Time =    1.000,"P-12-1",           328,          105.,            0.,            0.,NA,NA,"",   2.31768E+06,  -2.23125E+06,  -2.23125E+06
C:/temp/Job-12.odb,Step-1,Increment      1: Step Time =    1.000,"P-12-1",           329,           95.,            0.,            0.,NA,NA,"",   1.28866E+06,   100.773E+03,   100.773E+03
C:/temp/Job-12.odb,Step-1,Increment      1: Step Time =    1.000,"P-12-1",           330,           85.,            0.,            0.,NA,NA,"",   2.95581E+06,   2.86236E+06,   2.86236E+06
C:/temp/Job-12.odb,Step-1,Increment      1: Step Time =    1.000,"P-12-1",           331,           75.,            0.,            0.,NA,NA,"",   5.10334E+06,   5.05275E+06,   5.05275E+06
C:/temp/Job-12.odb,Step-1,Increment      1: Step Time =    1.000,"P-12-1",           332,           65.,            0.,            0.,NA,NA,"",   6.61658E+06,   6.59171E+06,   6.59171E+06
C:/temp/Job-12.odb,Step-1,Increment      1: Step Time =    1.000,"P-12-1",           333,           55.,            0.,            0.,NA,NA,"",   7.31875E+06,   7.30199E+06,   7.30199E+06
C:/temp/Job-12.odb,Step-1,Increment      1: Step Time =    1.000,"P-12-1",           334,           45.,            0.,            0.,NA,NA,"",   7.41851E+06,   7.40201E+06,   7.40201E+06
C:/temp/Job-12.odb,Step-1,Increment      1: Step Time =    1.000,"P-12-1",           335,           35.,            0.,            0.,NA,NA,"",   7.16266E+06,   7.15951E+06,   7.15951E+06
C:/temp/Job-12.odb,Step-1,Increment      1: Step Time =    1.000,"P-12-1",           336,           25.,            0.,            0.,NA,NA,"",   6.79071E+06,   6.79290E+06,   6.79290E+06
C:/temp/Job-12.odb,Step-1,Increment      1: Step Time =    1.000,"P-12-1",           337,           15.,            0.,            0.,NA,NA,"",   6.42910E+06,   6.44662E+06,   6.44662E+06
C:/temp/Job-12.odb,Step-1,Increment      1: Step Time =    1.000,"P-12-1",           338,            5.,            0.,            0.,NA,NA,"",   6.50559E+06,   6.64739E+06,   6.64739E+06
C:/temp/Job-12.odb,Step-1,Increment      1: Step Time =    1.000,"P-12-1",           339,          200.,          195.,            0.,NA,NA,"",   1.00981E+06,   983.012E+03,   983.012E+03
C:/temp/Job-12.odb,Step-1,Increment      1: Step Time =    1.000,"P-12-1",           340,          200.,          185.,            0.,NA,NA,"",   1.18437E+06,   1.00613E+06,   1.00613E+06
C:/temp/Job-12.odb,Step-1,Increment      1: Step Time =    1.000,"P-12-1",           341,          200.,          175.,            0.,NA,NA,"",   1.36166E+06,   1.02532E+06,   1.02532E+06
C:/temp/Job-12.odb,Step-1,Increment      1: Step Time =    1.000,"P-12-1",           342,          200.,          165.,            0.,NA,NA,"",   1.30017E+06,   1.04445E+06,   1.04445E+06
C:/temp/Job-12.odb,Step-1,Increment      1: Step Time =    1.000,"P-12-1",           343,          200.,          155.,            0.,NA,NA,"",   1.05546E+06,   1.13463E+06,   1.13463E+06
C:/temp/Job-12.odb,Step-1,Increment      1: Step Time =    1.000,"P-12-1",           344,          200.,          145.,            0.,NA,NA,"",   1.66777E+06,   1.91505E+06,   1.91505E+06
C:/temp/Job-12.odb,Step-1,Increment      1: Step Time =    1.000,"P-12-1",           345,          200.,          135.,            0.,NA,NA,"",   3.41255E+06,   3.77384E+06,   3.77384E+06
C:/temp/Job-12.odb,Step-1,Increment      1: Step Time =    1.000,"P-12-1",           346,          200.,          125.,            0.,NA,NA,"",   5.61586E+06,   6.03365E+06,   6.03365E+06
C:/temp/Job-12.odb,Step-1,Increment      1: Step Time =    1.000,"P-12-1",           347,          200.,          115.,            0.,NA,NA,"",   7.66353E+06,   8.08526E+06,   8.08526E+06
C:/temp/Job-12.odb,Step-1,Increment      1: Step Time =    1.000,"P-12-1",           348,          200.,          105.,            0.,NA,NA,"",   8.98596E+06,   9.40366E+06,   9.40366E+06
C:/temp/Job-12.odb,Step-1,Increment      1: Step Time =    1.000,"P-12-1",           349,          200.,           95.,            0.,NA,NA,"",   9.08432E+06,   9.50423E+06,   9.50423E+06
C:/temp/Job-12.odb,Step-1,Increment      1: Step Time =    1.000,"P-12-1",           350,          200.,           85.,            0.,NA,NA,"",   7.79467E+06,    8.2135E+06,    8.2135E+06
C:/temp/Job-12.odb,Step-1,Increment      1: Step Time =    1.000,"P-12-1",           351,          200.,           75.,            0.,NA,NA,"",   5.69139E+06,   6.10976E+06,   6.10976E+06
C:/temp/Job-12.odb,Step-1,Increment      1: Step Time =    1.000,"P-12-1",           352,          200.,           65.,            0.,NA,NA,"",   3.44150E+06,   3.81301E+06,   3.81301E+06
C:/temp/Job-12.odb,Step-1,Increment      1: Step Time =    1.000,"P-12-1",           353,          200.,           55.,            0.,NA,NA,"",   1.64884E+06,   1.89453E+06,   1.89453E+06
C:/temp/Job-12.odb,Step-1,Increment      1: Step Time =    1.000,"P-12-1",           354,          200.,           45.,            0.,NA,NA,"",   1.05819E+06,   1.14190E+06,   1.14190E+06
C:/temp/Job-12.odb,Step-1,Increment      1: Step Time =    1.000,"P-12-1",           355,          200.,           35.,            0.,NA,NA,"",   1.28420E+06,   1.05387E+06,   1.05387E+06
C:/temp/Job-12.odb,Step-1,Increment      1: Step Time =    1.000,"P-12-1",           356,          200.,           25.,            0.,NA,NA,"",   1.36886E+06,   1.02368E+06,   1.02368E+06
C:/temp/Job-12.odb,Step-1,Increment      1: Step Time =    1.000,"P-12-1",           357,          200.,           15.,            0.,NA,NA,"",   1.18989E+06,   1.00715E+06,   1.00715E+06
C:/temp/Job-12.odb,Step-1,Increment      1: Step Time =    1.000,"P-12-1",           358,          200.,            5.,            0.,NA,NA,"",   1.01315E+06,   982.728E+03,   982.728E+03
C:/temp/Job-12.odb,Step-1,Increment      1: Step Time =    1.000,"P-12-1",           359,            5.,          200.,            0.,NA,NA,"",   6.50498E+06,   6.64697E+06,   6.64697E+06
C:/temp/Job-12.odb,Step-1,Increment      1: Step Time =    1.000,"P-12-1",           360,           15.,          200.,            0.,NA,NA,"",    6.4405E+06,   6.45548E+06,   6.45548E+06
C:/temp/Job-12.odb,Step-1,Increment      1: Step Time =    1.000,"P-12-1",           361,           25.,          200.,            0.,NA,NA,"",   6.81799E+06,   6.81893E+06,   6.81893E+06
C:/temp/Job-12.odb,Step-1,Increment      1: Step Time =    1.000,"P-12-1",           362,           35.,          200.,            0.,NA,NA,"",   7.23101E+06,   7.22540E+06,   7.22540E+06
C:/temp/Job-12.odb,Step-1,Increment      1: Step Time =    1.000,"P-12-1",           363,           45.,          200.,            0.,NA,NA,"",   7.48558E+06,   7.47636E+06,   7.47636E+06
C:/temp/Job-12.odb,Step-1,Increment      1: Step Time =    1.000,"P-12-1",           364,           55.,          200.,            0.,NA,NA,"",   7.33304E+06,   7.31701E+06,   7.31701E+06
C:/temp/Job-12.odb,Step-1,Increment      1: Step Time =    1.000,"P-12-1",           365,           65.,          200.,            0.,NA,NA,"",   6.56644E+06,   6.52293E+06,   6.52293E+06
C:/temp/Job-12.odb,Step-1,Increment      1: Step Time =    1.000,"P-12-1",           366,           75.,          200.,            0.,NA,NA,"",   5.02502E+06,   4.95553E+06,   4.95553E+06
C:/temp/Job-12.odb,Step-1,Increment      1: Step Time =    1.000,"P-12-1",           367,           85.,          200.,            0.,NA,NA,"",   2.87296E+06,   2.77092E+06,   2.77092E+06
C:/temp/Job-12.odb,Step-1,Increment      1: Step Time =    1.000,"P-12-1",           368,           95.,          200.,            0.,NA,NA,"",   1.22307E+06,   52.3255E+03,   52.3255E+03
C:/temp/Job-12.odb,Step-1,Increment      1: Step Time =    1.000,"P-12-1",           369,          105.,          200.,            0.,NA,NA,"",   2.39306E+06,  -2.29874E+06,  -2.29874E+06
C:/temp/Job-12.odb,Step-1,Increment      1: Step Time =    1.000,"P-12-1",           370,          115.,          200.,            0.,NA,NA,"",   3.55002E+06,  -3.50362E+06,  -3.50362E+06
C:/temp/Job-12.odb,Step-1,Increment      1: Step Time =    1.000,"P-12-1",           371,          125.,          200.,            0.,NA,NA,"",   3.71938E+06,  -3.69252E+06,  -3.69252E+06
C:/temp/Job-12.odb,Step-1,Increment      1: Step Time =    1.000,"P-12-1",           372,          135.,          200.,            0.,NA,NA,"",   3.04652E+06,  -3.01238E+06,  -3.01238E+06
C:/temp/Job-12.odb,Step-1,Increment      1: Step Time =    1.000,"P-12-1",           373,          145.,          200.,            0.,NA,NA,"",   1.98356E+06,  -1.98962E+06,  -1.98962E+06
C:/temp/Job-12.odb,Step-1,Increment      1: Step Time =    1.000,"P-12-1",           374,          155.,          200.,            0.,NA,NA,"",   1.18446E+06,  -1.17344E+06,  -1.17344E+06
C:/temp/Job-12.odb,Step-1,Increment      1: Step Time =    1.000,"P-12-1",           375,          165.,          200.,            0.,NA,NA,"",   531.089E+03,  -500.428E+03,  -500.428E+03
C:/temp/Job-12.odb,Step-1,Increment      1: Step Time =    1.000,"P-12-1",           376,          175.,          200.,            0.,NA,NA,"",   338.379E+03,   276.985E+03,   276.985E+03
C:/temp/Job-12.odb,Step-1,Increment      1: Step Time =    1.000,"P-12-1",           377,          185.,          200.,            0.,NA,NA,"",   709.379E+03,   695.557E+03,   695.557E+03
C:/temp/Job-12.odb,Step-1,Increment      1: Step Time =    1.000,"P-12-1",           378,          195.,          200.,            0.,NA,NA,"",   962.751E+03,   953.664E+03,   953.664E+03
C:/temp/Job-12.odb,Step-1,Increment      1: Step Time =    1.000,"P-12-1",           379,            0.,            5.,            0.,NA,NA,"",   5.76876E+06,   6.18438E+06,   6.18438E+06
C:/temp/Job-12.odb,Step-1,Increment      1: Step Time =    1.000,"P-12-1",           380,            0.,           15.,            0.,NA,NA,"",   3.63393E+06,   4.03459E+06,   4.03459E+06
C:/temp/Job-12.odb,Step-1,Increment      1: Step Time =    1.000,"P-12-1",           381,            0.,           25.,            0.,NA,NA,"",   2.11723E+06,   2.36746E+06,   2.36746E+06
C:/temp/Job-12.odb,Step-1,Increment      1: Step Time =    1.000,"P-12-1",           382,            0.,           35.,            0.,NA,NA,"",   820.756E+03,   925.330E+03,   925.330E+03
C:/temp/Job-12.odb,Step-1,Increment      1: Step Time =    1.000,"P-12-1",           383,            0.,           45.,            0.,NA,NA,"",   283.435E+03,  -139.947E+03,  -139.947E+03
C:/temp/Job-12.odb,Step-1,Increment      1: Step Time =    1.000,"P-12-1",           384,            0.,           55.,            0.,NA,NA,"",   813.415E+03,  -835.419E+03,  -835.419E+03
C:/temp/Job-12.odb,Step-1,Increment      1: Step Time =    1.000,"P-12-1",           385,            0.,           65.,            0.,NA,NA,"",   1.02503E+06,  -1.05312E+06,  -1.05312E+06
C:/temp/Job-12.odb,Step-1,Increment      1: Step Time =    1.000,"P-12-1",           386,            0.,           75.,            0.,NA,NA,"",   927.910E+03,  -947.130E+03,  -947.130E+03
C:/temp/Job-12.odb,Step-1,Increment      1: Step Time =    1.000,"P-12-1",           387,            0.,           85.,            0.,NA,NA,"",   648.274E+03,  -681.747E+03,  -681.747E+03
C:/temp/Job-12.odb,Step-1,Increment      1: Step Time =    1.000,"P-12-1",           388,            0.,           95.,            0.,NA,NA,"",   366.508E+03,  -416.812E+03,  -416.812E+03
C:/temp/Job-12.odb,Step-1,Increment      1: Step Time =    1.000,"P-12-1",           389,            0.,          105.,            0.,NA,NA,"",   377.722E+03,  -428.321E+03,  -428.321E+03
C:/temp/Job-12.odb,Step-1,Increment      1: Step Time =    1.000,"P-12-1",           390,            0.,          115.,            0.,NA,NA,"",   659.540E+03,  -691.349E+03,  -691.349E+03
C:/temp/Job-12.odb,Step-1,Increment      1: Step Time =    1.000,"P-12-1",           391,            0.,          125.,            0.,NA,NA,"",    935.73E+03,  -952.398E+03,  -952.398E+03
C:/temp/Job-12.odb,Step-1,Increment      1: Step Time =    1.000,"P-12-1",           392,            0.,          135.,            0.,NA,NA,"",   1.01904E+06,  -1.04477E+06,  -1.04477E+06
C:/temp/Job-12.odb,Step-1,Increment      1: Step Time =    1.000,"P-12-1",           393,            0.,          145.,            0.,NA,NA,"",   784.360E+03,  -807.299E+03,  -807.299E+03
C:/temp/Job-12.odb,Step-1,Increment      1: Step Time =    1.000,"P-12-1",           394,            0.,          155.,            0.,NA,NA,"",   265.012E+03,  -117.201E+03,  -117.201E+03
C:/temp/Job-12.odb,Step-1,Increment      1: Step Time =    1.000,"P-12-1",           395,            0.,          165.,            0.,NA,NA,"",   822.362E+03,   926.845E+03,   926.845E+03
C:/temp/Job-12.odb,Step-1,Increment      1: Step Time =    1.000,"P-12-1",           396,            0.,          175.,            0.,NA,NA,"",   2.11037E+06,   2.35968E+06,   2.35968E+06
C:/temp/Job-12.odb,Step-1,Increment      1: Step Time =    1.000,"P-12-1",           397,            0.,          185.,            0.,NA,NA,"",   3.63828E+06,   4.03873E+06,   4.03873E+06
C:/temp/Job-12.odb,Step-1,Increment      1: Step Time =    1.000,"P-12-1",           398,            0.,          195.,            0.,NA,NA,"",   5.77281E+06,   6.18620E+06,   6.18620E+06
C:/temp/Job-12.odb,Step-1,Increment      1: Step Time =    1.000,"P-12-1",           399,       28.2794,       71.9793,            0.,NA,NA,"",   1.67778E+06,  -1.69774E+06,  -1.69774E+06
C:/temp/Job-12.odb,Step-1,Increment      1: Step Time =    1.000,"P-12-1",           400,       55.5513,       37.1246,            0.,NA,NA,"",   3.47968E+06,  -3.49959E+06,  -3.49959E+06
C:/temp/Job-12.odb,Step-1,Increment      1: Step Time =    1.000,"P-12-1",           401,       46.0455,       162.657,            0.,NA,NA,"",   2.94502E+06,  -2.97399E+06,  -2.97399E+06
C:/temp/Job-12.odb,Step-1,Increment      1: Step Time =    1.000,"P-12-1",           402,       99.9054,       181.172,            0.,NA,NA,"",   9.09643E+06,   9.15323E+06,   9.15323E+06
C:/temp/Job-12.odb,Step-1,Increment      1: Step Time =    1.000,"P-12-1",           403,       180.183,       77.8806,            0.,NA,NA,"",   3.22966E+06,  -2.76792E+06,  -2.76792E+06
C:/temp/Job-12.odb,Step-1,Increment      1: Step Time =    1.000,"P-12-1",           404,       174.971,       132.667,            0.,NA,NA,"",   2.05523E+06,  -828.504E+03,  -828.504E+03
C:/temp/Job-12.odb,Step-1,Increment      1: Step Time =    1.000,"P-12-1",           405,       173.453,       64.2809,            0.,NA,NA,"",   1.78554E+06,  -164.616E+03,  -164.616E+03
C:/temp/Job-12.odb,Step-1,Increment      1: Step Time =    1.000,"P-12-1",           406,       27.6432,       136.242,            0.,NA,NA,"",   2.15105E+06,  -2.17657E+06,  -2.17657E+06
C:/temp/Job-12.odb,Step-1,Increment      1: Step Time =    1.000,"P-12-1",           407,       151.543,       35.1336,            0.,NA,NA,"",   5.29345E+06,   5.40238E+06,   5.40238E+06
C:/temp/Job-12.odb,Step-1,Increment      1: Step Time =    1.000,"P-12-1",           408,       181.048,       91.7488,            0.,NA,NA,"",   5.20356E+06,  -5.22349E+06,  -5.22349E+06
C:/temp/Job-12.odb,Step-1,Increment      1: Step Time =    1.000,"P-12-1",           409,       61.6184,       28.0008,            0.,NA,NA,"",   2.17463E+06,  -1.83779E+06,  -1.83779E+06
C:/temp/Job-12.odb,Step-1,Increment      1: Step Time =    1.000,"P-12-1",           410,       145.104,       168.655,            0.,NA,NA,"",   6.54304E+06,   6.68908E+06,   6.68908E+06
C:/temp/Job-12.odb,Step-1,Increment      1: Step Time =    1.000,"P-12-1",           411,       180.749,       106.923,            0.,NA,NA,"",   5.72074E+06,  -5.77046E+06,  -5.77046E+06
C:/temp/Job-12.odb,Step-1,Increment      1: Step Time =    1.000,"P-12-1",           412,       18.8227,       101.037,            0.,NA,NA,"",   652.945E+03,  -677.466E+03,  -677.466E+03
C:/temp/Job-12.odb,Step-1,Increment      1: Step Time =    1.000,"P-12-1",           413,       48.3626,       35.2534,            0.,NA,NA,"",   2.81367E+06,  -2.81462E+06,  -2.81462E+06
C:/temp/Job-12.odb,Step-1,Increment      1: Step Time =    1.000,"P-12-1",           414,       37.7663,       154.326,            0.,NA,NA,"",   3.04850E+06,  -3.10379E+06,  -3.10379E+06
C:/temp/Job-12.odb,Step-1,Increment      1: Step Time =    1.000,"P-12-1",           415,       135.781,       173.649,            0.,NA,NA,"",   8.26015E+06,   8.44027E+06,   8.44027E+06
C:/temp/Job-12.odb,Step-1,Increment      1: Step Time =    1.000,"P-12-1",           416,       94.9243,       181.463,            0.,NA,NA,"",   7.83121E+06,   7.83378E+06,   7.83378E+06
C:/temp/Job-12.odb,Step-1,Increment      1: Step Time =    1.000,"P-12-1",           417,       66.0826,       25.3682,            0.,NA,NA,"",   2.10310E+06,  -431.135E+03,  -431.135E+03
C:/temp/Job-12.odb,Step-1,Increment      1: Step Time =    1.000,"P-12-1",           418,       128.785,       23.2671,            0.,NA,NA,"",   9.08322E+06,    9.2962E+06,    9.2962E+06
C:/temp/Job-12.odb,Step-1,Increment      1: Step Time =    1.000,"P-12-1",           419,       170.361,       141.614,            0.,NA,NA,"",   1.90484E+06,   1.63329E+06,   1.63329E+06
C:/temp/Job-12.odb,Step-1,Increment      1: Step Time =    1.000,"P-12-1",           420,       118.608,       20.2742,            0.,NA,NA,"",   9.92814E+06,   10.1406E+06,   10.1406E+06
C:/temp/Job-12.odb,Step-1,Increment      1: Step Time =    1.000,"P-12-1",           421,       77.2658,       20.8139,            0.,NA,NA,"",   3.66216E+06,   3.33252E+06,   3.33252E+06
C:/temp/Job-12.odb,Step-1,Increment      1: Step Time =    1.000,"P-12-1",           422,       25.8558,       64.8086,            0.,NA,NA,"",   1.95642E+06,  -1.97996E+06,  -1.97996E+06
C:/temp/Job-12.odb,Step-1,Increment      1: Step Time =    1.000,"P-12-1",           423,       107.807,       180.576,            0.,NA,NA,"",   10.3820E+06,   10.5504E+06,   10.5504E+06
C:/temp/Job-12.odb,Step-1,Increment      1: Step Time =    1.000,"P-12-1",           424,       103.037,       18.7830,            0.,NA,NA,"",   9.46539E+06,   9.57746E+06,   9.57746E+06
C:/temp/Job-12.odb,Step-1,Increment      1: Step Time =    1.000,"P-12-1",           425,       23.2406,       127.339,            0.,NA,NA,"",   1.43926E+06,  -1.46331E+06,  -1.46331E+06
C:/temp/Job-12.odb,Step-1,Increment      1: Step Time =    1.000,"P-12-1",           426,       156.744,       158.408,            0.,NA,NA,"",   4.39168E+06,   4.46587E+06,   4.46587E+06
C:/temp/Job-12.odb,Step-1,Increment      1: Step Time =    1.000,"P-12-1",           427,       180.826,       86.7489,            0.,NA,NA,"",   4.53269E+06,  -4.44309E+06,  -4.44309E+06
C:/temp/Job-12.odb,Step-1,Increment      1: Step Time =    1.000,"P-12-1",           428,       92.7748,       19.0264,            0.,NA,NA,"",   7.39090E+06,   7.38438E+06,   7.38438E+06
C:/temp/Job-12.odb,Step-1,Increment      1: Step Time =    1.000,"P-12-1",           429,       175.886,       68.2586,            0.,NA,NA,"",   2.41871E+06,  -959.617E+03,  -959.617E+03
C:/temp/Job-12.odb,Step-1,Increment      1: Step Time =    1.000,"P-12-1",           430,       97.8925,       18.7921,            0.,NA,NA,"",   8.56357E+06,   8.62217E+06,   8.62217E+06
C:/temp/Job-12.odb,Step-1,Increment      1: Step Time =    1.000,"P-12-1",           431,       19.0686,       106.084,            0.,NA,NA,"",   688.437E+03,  -712.707E+03,  -712.707E+03
C:/temp/Job-12.odb,Step-1,Increment      1: Step Time =    1.000,"P-12-1",           432,       181.105,       101.883,            0.,NA,NA,"",   5.84521E+06,  -5.90330E+06,  -5.90330E+06
C:/temp/Job-12.odb,Step-1,Increment      1: Step Time =    1.000,"P-12-1",           433,       108.191,       19.0258,            0.,NA,NA,"",   10.0075E+06,   10.1629E+06,   10.1629E+06
C:/temp/Job-12.odb,Step-1,Increment      1: Step Time =    1.000,"P-12-1",           434,       172.663,       137.212,            0.,NA,NA,"",   1.69670E+06,   786.896E+03,   786.896E+03
C:/temp/Job-12.odb,Step-1,Increment      1: Step Time =    1.000,"P-12-1",           435,       18.8336,       95.9421,            0.,NA,NA,"",   662.898E+03,  -687.921E+03,  -687.921E+03
C:/temp/Job-12.odb,Step-1,Increment      1: Step Time =    1.000,"P-12-1",           436,       50.4143,       165.718,            0.,NA,NA,"",   2.79904E+06,  -2.78196E+06,  -2.78196E+06
C:/temp/Job-12.odb,Step-1,Increment      1: Step Time =    1.000,"P-12-1",           437,       165.606,       51.6782,            0.,NA,NA,"",   2.71217E+06,   2.65344E+06,   2.65344E+06
C:/temp/Job-12.odb,Step-1,Increment      1: Step Time =    1.000,"P-12-1",           438,       153.334,       162.233,            0.,NA,NA,"",   5.02704E+06,   5.13065E+06,   5.13065E+06
C:/temp/Job-12.odb,Step-1,Increment      1: Step Time =    1.000,"P-12-1",           439,       23.7450,       69.5166,            0.,NA,NA,"",   1.60111E+06,  -1.62433E+06,  -1.62433E+06
C:/temp/Job-12.odb,Step-1,Increment      1: Step Time =    1.000,"P-12-1",           440,       177.367,       127.922,            0.,NA,NA,"",   2.76449E+06,  -2.32918E+06,  -2.32918E+06
C:/temp/Job-12.odb,Step-1,Increment      1: Step Time =    1.000,"P-12-1",           441,       170.955,       60.1096,            0.,NA,NA,"",   1.70500E+06,   1.36488E+06,   1.36488E+06
C:/temp/Job-12.odb,Step-1,Increment      1: Step Time =    1.000,"P-12-1",           442,       87.6704,       19.4763,            0.,NA,NA,"",   6.07490E+06,   5.99104E+06,   5.99104E+06
C:/temp/Job-12.odb,Step-1,Increment      1: Step Time =    1.000,"P-12-1",           443,       161.858,       152.341,            0.,NA,NA,"",   3.39869E+06,   3.40240E+06,   3.40240E+06
C:/temp/Job-12.odb,Step-1,Increment      1: Step Time =    1.000,"P-12-1",           444,       57.2859,       30.3616,            0.,NA,NA,"",   2.47284E+06,  -2.32912E+06,  -2.32912E+06
C:/temp/Job-12.odb,Step-1,Increment      1: Step Time =    1.000,"P-12-1",           445,       64.6781,       174.128,            0.,NA,NA,"",   2.11284E+06,   32.2748E+03,   32.2748E+03
C:/temp/Job-12.odb,Step-1,Increment      1: Step Time =    1.000,"P-12-1",           446,       181.177,       96.8067,            0.,NA,NA,"",   5.66870E+06,  -5.73298E+06,  -5.73298E+06
C:/temp/Job-12.odb,Step-1,Increment      1: Step Time =    1.000,"P-12-1",           447,       19.4895,       110.884,            0.,NA,NA,"",   761.525E+03,  -788.312E+03,  -788.312E+03
C:/temp/Job-12.odb,Step-1,Increment      1: Step Time =    1.000,"P-12-1",           448,       162.746,       47.5291,            0.,NA,NA,"",   3.33714E+06,   3.33192E+06,   3.33192E+06
C:/temp/Job-12.odb,Step-1,Increment      1: Step Time =    1.000,"P-12-1",           449,       133.763,       25.2659,            0.,NA,NA,"",   8.54246E+06,   8.73752E+06,   8.73752E+06
C:/temp/Job-12.odb,Step-1,Increment      1: Step Time =    1.000,"P-12-1",           450,       25.5094,       131.837,            0.,NA,NA,"",   1.77171E+06,  -1.79552E+06,  -1.79552E+06
C:/temp/Job-12.odb,Step-1,Increment      1: Step Time =    1.000,"P-12-1",           451,       156.660,       38.1626,            0.,NA,NA,"",   4.33436E+06,   4.42946E+06,   4.42946E+06
C:/temp/Job-12.odb,Step-1,Increment      1: Step Time =    1.000,"P-12-1",           452,       37.0754,       47.6308,            0.,NA,NA,"",   3.17455E+06,  -3.21681E+06,  -3.21681E+06
C:/temp/Job-12.odb,Step-1,Increment      1: Step Time =    1.000,"P-12-1",           453,       138.157,       27.9652,            0.,NA,NA,"",   7.95834E+06,   8.11894E+06,   8.11894E+06
C:/temp/Job-12.odb,Step-1,Increment      1: Step Time =    1.000,"P-12-1",           454,       29.5797,       140.884,            0.,NA,NA,"",   2.49514E+06,  -2.52479E+06,  -2.52479E+06
C:/temp/Job-12.odb,Step-1,Increment      1: Step Time =    1.000,"P-12-1",           455,       140.482,       171.176,            0.,NA,NA,"",   7.41179E+06,   7.57313E+06,   7.57313E+06
C:/temp/Job-12.odb,Step-1,Increment      1: Step Time =    1.000,"P-12-1",           456,       43.1583,       37.9951,            0.,NA,NA,"",   2.58943E+06,  -2.62661E+06,  -2.62661E+06
C:/temp/Job-12.odb,Step-1,Increment      1: Step Time =    1.000,"P-12-1",           457,       104.437,       180.847,            0.,NA,NA,"",   9.95183E+06,   10.0680E+06,   10.0680E+06
C:/temp/Job-12.odb,Step-1,Increment      1: Step Time =    1.000,"P-12-1",           458,       125.013,       195.530,            0.,NA,NA,"",   2.32534E+06,  -2.24940E+06,  -2.24940E+06
C:/temp/Job-12.odb,Step-1,Increment      1: Step Time =    1.000,"P-12-1",           459,       195.380,       125.282,            0.,NA,NA,"",   4.85390E+06,   5.15569E+06,   5.15569E+06
C:/temp/Job-12.odb,Step-1,Increment      1: Step Time =    1.000,"P-12-1",           460,       195.577,       135.046,            0.,NA,NA,"",   3.28661E+06,   3.54332E+06,   3.54332E+06
C:/temp/Job-12.odb,Step-1,Increment      1: Step Time =    1.000,"P-12-1",           461,       134.669,       194.884,            0.,NA,NA,"",   1.94528E+06,  -1.82522E+06,  -1.82522E+06
C:/temp/Job-12.odb,Step-1,Increment      1: Step Time =    1.000,"P-12-1",           462,       115.262,       195.386,            0.,NA,NA,"",   2.27175E+06,  -1.62861E+06,  -1.62861E+06
C:/temp/Job-12.odb,Step-1,Increment      1: Step Time =    1.000,"P-12-1",           463,       105.311,       194.912,            0.,NA,NA,"",   2.37101E+06,  -100.059E+03,  -100.059E+03
C:/temp/Job-12.odb,Step-1,Increment      1: Step Time =    1.000,"P-12-1",           464,       195.247,       94.2691,            0.,NA,NA,"",   7.04214E+06,   7.38145E+06,   7.38145E+06
C:/temp/Job-12.odb,Step-1,Increment      1: Step Time =    1.000,"P-12-1",           465,       194.935,       104.347,            0.,NA,NA,"",   6.82822E+06,   7.16494E+06,   7.16494E+06
C:/temp/Job-12.odb,Step-1,Increment      1: Step Time =    1.000,"P-12-1",           466,       195.528,       84.5761,            0.,NA,NA,"",   6.30180E+06,   6.63152E+06,   6.63152E+06
C:/temp/Job-12.odb,Step-1,Increment      1: Step Time =    1.000,"P-12-1",           467,       195.178,       74.8336,            0.,NA,NA,"",   4.84103E+06,   5.13718E+06,   5.13718E+06
C:/temp/Job-12.odb,Step-1,Increment      1: Step Time =    1.000,"P-12-1",           468,       196.060,       65.0243,            0.,NA,NA,"",   3.29616E+06,   3.58182E+06,   3.58182E+06
C:/temp/Job-12.odb,Step-1,Increment      1: Step Time =    1.000,"P-12-1",           469,       145.068,       4.88840,            0.,NA,NA,"",   1.59493E+06,  -1.43830E+06,  -1.43830E+06
C:/temp/Job-12.odb,Step-1,Increment      1: Step Time =    1.000,"P-12-1",           470,       104.543,       4.99655,            0.,NA,NA,"",   2.33408E+06,  -94.7829E+03,  -94.7829E+03
C:/temp/Job-12.odb,Step-1,Increment      1: Step Time =    1.000,"P-12-1",           471,       114.858,       5.14732,            0.,NA,NA,"",   2.27637E+06,  -1.21124E+06,  -1.21124E+06
C:/temp/Job-12.odb,Step-1,Increment      1: Step Time =    1.000,"P-12-1",           472,       195.189,       25.3575,            0.,NA,NA,"",   1.33290E+06,   1.06958E+06,   1.06958E+06
C:/temp/Job-12.odb,Step-1,Increment      1: Step Time =    1.000,"P-12-1",           473,       194.743,       35.3111,            0.,NA,NA,"",   1.34161E+06,   1.17055E+06,   1.17055E+06
C:/temp/Job-12.odb,Step-1,Increment      1: Step Time =    1.000,"P-12-1",           474,       94.3323,       4.97180,            0.,NA,NA,"",   2.43357E+06,   1.63687E+06,   1.63687E+06
C:/temp/Job-12.odb,Step-1,Increment      1: Step Time =    1.000,"P-12-1",           475,       84.2547,       4.99913,            0.,NA,NA,"",   3.74153E+06,   3.50239E+06,   3.50239E+06
C:/temp/Job-12.odb,Step-1,Increment      1: Step Time =    1.000,"P-12-1",           476,       4.95556,       85.0852,            0.,NA,NA,"",   643.458E+03,  -689.154E+03,  -689.154E+03
C:/temp/Job-12.odb,Step-1,Increment      1: Step Time =    1.000,"P-12-1",           477,       4.35799,       125.678,            0.,NA,NA,"",   946.266E+03,  -969.374E+03,  -969.374E+03
C:/temp/Job-12.odb,Step-1,Increment      1: Step Time =    1.000,"P-12-1",           478,       5.12535,       115.747,            0.,NA,NA,"",   672.072E+03,  -715.072E+03,  -715.072E+03
C:/temp/Job-12.odb,Step-1,Increment      1: Step Time =    1.000,"P-12-1",           479,       44.9651,       4.97938,            0.,NA,NA,"",   6.68562E+06,   6.64755E+06,   6.64755E+06
C:/temp/Job-12.odb,Step-1,Increment      1: Step Time =    1.000,"P-12-1",           480,       4.70401,       34.9984,            0.,NA,NA,"",   761.664E+03,   860.528E+03,   860.528E+03
C:/temp/Job-12.odb,Step-1,Increment      1: Step Time =    1.000,"P-12-1",           481,       4.89408,       25.0954,            0.,NA,NA,"",   2.10652E+06,   2.34543E+06,   2.34543E+06
C:/temp/Job-12.odb,Step-1,Increment      1: Step Time =    1.000,"P-12-1",           482,       35.2460,       5.48761,            0.,NA,NA,"",   6.46575E+06,   6.45339E+06,   6.45339E+06
C:/temp/Job-12.odb,Step-1,Increment      1: Step Time =    1.000,"P-12-1",           483,       4.89474,       75.0698,            0.,NA,NA,"",   928.788E+03,  -956.298E+03,  -956.298E+03
C:/temp/Job-12.odb,Step-1,Increment      1: Step Time =    1.000,"P-12-1",           484,       4.54048,       135.418,            0.,NA,NA,"",   1.06549E+06,  -1.07719E+06,  -1.07719E+06
C:/temp/Job-12.odb,Step-1,Increment      1: Step Time =    1.000,"P-12-1",           485,       5.07994,       184.865,            0.,NA,NA,"",   3.74771E+06,   4.08554E+06,   4.08554E+06
C:/temp/Job-12.odb,Step-1,Increment      1: Step Time =    1.000,"P-12-1",           486,       5.08610,       194.904,            0.,NA,NA,"",   5.90041E+06,   6.13382E+06,   6.13382E+06
C:/temp/Job-12.odb,Step-1,Increment      1: Step Time =    1.000,"P-12-1",           487,       74.8485,       194.349,            0.,NA,NA,"",   5.05277E+06,   4.85193E+06,   4.85193E+06
C:/temp/Job-12.odb,Step-1,Increment      1: Step Time =    1.000,"P-12-1",           488,       85.0888,       194.454,            0.,NA,NA,"",   3.70000E+06,   3.45731E+06,   3.45731E+06
C:/temp/Job-12.odb,Step-1,Increment      1: Step Time =    1.000,"P-12-1",           489,       5.10057,       5.10833,            0.,NA,NA,"",   5.89924E+06,   6.13233E+06,   6.13233E+06
C:/temp/Job-12.odb,Step-1,Increment      1: Step Time =    1.000,"P-12-1",           490,       5.13939,       15.2138,            0.,NA,NA,"",   3.73709E+06,   4.07377E+06,   4.07377E+06
C:/temp/Job-12.odb,Step-1,Increment      1: Step Time =    1.000,"P-12-1",           491,       15.1670,       5.18424,            0.,NA,NA,"",   6.02315E+06,   6.04722E+06,   6.04722E+06
C:/temp/Job-12.odb,Step-1,Increment      1: Step Time =    1.000,"P-12-1",           492,       25.1300,       5.18256,            0.,NA,NA,"",   6.27529E+06,   6.27232E+06,   6.27232E+06
C:/temp/Job-12.odb,Step-1,Increment      1: Step Time =    1.000,"P-12-1",           493,       74.4249,       4.84710,            0.,NA,NA,"",   5.13128E+06,   4.97459E+06,   4.97459E+06
C:/temp/Job-12.odb,Step-1,Increment      1: Step Time =    1.000,"P-12-1",           494,       54.6505,       5.33354,            0.,NA,NA,"",   6.56853E+06,   6.50480E+06,   6.50480E+06
C:/temp/Job-12.odb,Step-1,Increment      1: Step Time =    1.000,"P-12-1",           495,       64.6759,       4.65691,            0.,NA,NA,"",   6.15375E+06,   6.06760E+06,   6.06760E+06
C:/temp/Job-12.odb,Step-1,Increment      1: Step Time =    1.000,"P-12-1",           496,       125.096,       5.15780,            0.,NA,NA,"",   2.03595E+06,  -1.81387E+06,  -1.81387E+06
C:/temp/Job-12.odb,Step-1,Increment      1: Step Time =    1.000,"P-12-1",           497,       135.072,       4.81637,            0.,NA,NA,"",   1.97926E+06,  -1.89089E+06,  -1.89089E+06
C:/temp/Job-12.odb,Step-1,Increment      1: Step Time =    1.000,"P-12-1",           498,       155.120,       5.03415,            0.,NA,NA,"",   1.07186E+06,  -885.920E+03,  -885.920E+03
C:/temp/Job-12.odb,Step-1,Increment      1: Step Time =    1.000,"P-12-1",           499,       194.747,       5.27589,            0.,NA,NA,"",   989.453E+03,   955.057E+03,   955.057E+03
C:/temp/Job-12.odb,Step-1,Increment      1: Step Time =    1.000,"P-12-1",           500,       195.121,       15.4831,            0.,NA,NA,"",   1.19152E+06,   1.02632E+06,   1.02632E+06
C:/temp/Job-12.odb,Step-1,Increment      1: Step Time =    1.000,"P-12-1",           501,       174.593,       4.69625,            0.,NA,NA,"",   543.423E+03,   459.790E+03,   459.790E+03
C:/temp/Job-12.odb,Step-1,Increment      1: Step Time =    1.000,"P-12-1",           502,       194.798,       45.5975,            0.,NA,NA,"",   1.38339E+06,   1.41667E+06,   1.41667E+06
C:/temp/Job-12.odb,Step-1,Increment      1: Step Time =    1.000,"P-12-1",           503,       195.706,       55.4964,            0.,NA,NA,"",   1.93395E+06,   2.11617E+06,   2.11617E+06
C:/temp/Job-12.odb,Step-1,Increment      1: Step Time =    1.000,"P-12-1",           504,       194.604,       114.988,            0.,NA,NA,"",   5.92704E+06,   6.23077E+06,   6.23077E+06
C:/temp/Job-12.odb,Step-1,Increment      1: Step Time =    1.000,"P-12-1",           505,       195.284,       144.908,            0.,NA,NA,"",   1.94936E+06,   2.11162E+06,   2.11162E+06
C:/temp/Job-12.odb,Step-1,Increment      1: Step Time =    1.000,"P-12-1",           506,       195.263,       154.858,            0.,NA,NA,"",   1.33286E+06,   1.36724E+06,   1.36724E+06
C:/temp/Job-12.odb,Step-1,Increment      1: Step Time =    1.000,"P-12-1",           507,       145.211,       192.845,            0.,NA,NA,"",   1.48502E+06,  -249.199E+03,  -249.199E+03
C:/temp/Job-12.odb,Step-1,Increment      1: Step Time =    1.000,"P-12-1",           508,       195.131,       164.866,            0.,NA,NA,"",   1.31921E+06,   1.13535E+06,   1.13535E+06
C:/temp/Job-12.odb,Step-1,Increment      1: Step Time =    1.000,"P-12-1",           509,       155.468,       195.074,            0.,NA,NA,"",   1.03726E+06,  -885.904E+03,  -885.904E+03
C:/temp/Job-12.odb,Step-1,Increment      1: Step Time =    1.000,"P-12-1",           510,       194.755,       174.945,            0.,NA,NA,"",   1.33026E+06,   1.07643E+06,   1.07643E+06
C:/temp/Job-12.odb,Step-1,Increment      1: Step Time =    1.000,"P-12-1",           511,       165.069,       195.222,            0.,NA,NA,"",   652.653E+03,   14.9747E+03,   14.9747E+03
C:/temp/Job-12.odb,Step-1,Increment      1: Step Time =    1.000,"P-12-1",           512,       194.850,       184.997,            0.,NA,NA,"",   1.18094E+06,   1.02374E+06,   1.02374E+06
C:/temp/Job-12.odb,Step-1,Increment      1: Step Time =    1.000,"P-12-1",           513,       175.140,       194.835,            0.,NA,NA,"",   605.210E+03,   514.628E+03,   514.628E+03
C:/temp/Job-12.odb,Step-1,Increment      1: Step Time =    1.000,"P-12-1",           514,       195.022,       195.053,            0.,NA,NA,"",   984.481E+03,   955.061E+03,   955.061E+03
C:/temp/Job-12.odb,Step-1,Increment      1: Step Time =    1.000,"P-12-1",           515,       185.151,       195.184,            0.,NA,NA,"",   810.421E+03,   771.602E+03,   771.602E+03
C:/temp/Job-12.odb,Step-1,Increment      1: Step Time =    1.000,"P-12-1",           516,       95.1887,       195.039,            0.,NA,NA,"",   2.30520E+06,   1.52834E+06,   1.52834E+06
C:/temp/Job-12.odb,Step-1,Increment      1: Step Time =    1.000,"P-12-1",           517,       64.6324,       194.819,            0.,NA,NA,"",   6.06757E+06,   5.95491E+06,   5.95491E+06
C:/temp/Job-12.odb,Step-1,Increment      1: Step Time =    1.000,"P-12-1",           518,       54.7974,       194.958,            0.,NA,NA,"",   6.64309E+06,   6.58083E+06,   6.58083E+06
C:/temp/Job-12.odb,Step-1,Increment      1: Step Time =    1.000,"P-12-1",           519,       15.2064,       194.810,            0.,NA,NA,"",   6.02771E+06,   6.04996E+06,   6.04996E+06
C:/temp/Job-12.odb,Step-1,Increment      1: Step Time =    1.000,"P-12-1",           520,       4.85006,       175.008,            0.,NA,NA,"",   2.10844E+06,   2.34719E+06,   2.34719E+06
C:/temp/Job-12.odb,Step-1,Increment      1: Step Time =    1.000,"P-12-1",           521,       4.68874,       165.137,            0.,NA,NA,"",   768.922E+03,   871.141E+03,   871.141E+03
C:/temp/Job-12.odb,Step-1,Increment      1: Step Time =    1.000,"P-12-1",           522,       4.73137,       155.268,            0.,NA,NA,"",   361.159E+03,  -111.981E+03,  -111.981E+03
C:/temp/Job-12.odb,Step-1,Increment      1: Step Time =    1.000,"P-12-1",           523,       4.78399,       145.324,            0.,NA,NA,"",   880.099E+03,  -864.046E+03,  -864.046E+03
C:/temp/Job-12.odb,Step-1,Increment      1: Step Time =    1.000,"P-12-1",           524,       5.06105,       105.480,            0.,NA,NA,"",   402.086E+03,  -458.405E+03,  -458.405E+03
C:/temp/Job-12.odb,Step-1,Increment      1: Step Time =    1.000,"P-12-1",           525,       4.94739,       95.2521,            0.,NA,NA,"",   388.132E+03,  -443.762E+03,  -443.762E+03
C:/temp/Job-12.odb,Step-1,Increment      1: Step Time =    1.000,"P-12-1",           526,       4.84713,       65.1247,            0.,NA,NA,"",   1.07266E+06,  -1.08786E+06,  -1.08786E+06
C:/temp/Job-12.odb,Step-1,Increment      1: Step Time =    1.000,"P-12-1",           527,       4.97056,       55.3290,            0.,NA,NA,"",   919.485E+03,  -907.840E+03,  -907.840E+03
C:/temp/Job-12.odb,Step-1,Increment      1: Step Time =    1.000,"P-12-1",           528,       5.11051,       45.1223,            0.,NA,NA,"",   407.106E+03,  -148.488E+03,  -148.488E+03
C:/temp/Job-12.odb,Step-1,Increment      1: Step Time =    1.000,"P-12-1",           529,       25.2107,       194.977,            0.,NA,NA,"",   6.30806E+06,   6.30773E+06,   6.30773E+06
C:/temp/Job-12.odb,Step-1,Increment      1: Step Time =    1.000,"P-12-1",           530,       184.475,       5.04865,            0.,NA,NA,"",   807.964E+03,   767.532E+03,   767.532E+03
C:/temp/Job-12.odb,Step-1,Increment      1: Step Time =    1.000,"P-12-1",           531,       164.962,       4.61088,            0.,NA,NA,"",   632.334E+03,   12.6239E+03,   12.6239E+03
C:/temp/Job-12.odb,Step-1,Increment      1: Step Time =    1.000,"P-12-1",           532,       44.9369,       195.239,            0.,NA,NA,"",   6.79908E+06,   6.76859E+06,   6.76859E+06
C:/temp/Job-12.odb,Step-1,Increment      1: Step Time =    1.000,"P-12-1",           533,       35.0933,       195.285,            0.,NA,NA,"",   6.64609E+06,   6.63129E+06,   6.63129E+06
C:/temp/Job-12.odb,Step-1,Increment      1: Step Time =    1.000,"P-12-1",           534,       189.556,       5.37893,            0.,NA,NA,"",   920.189E+03,   881.533E+03,   881.533E+03
C:/temp/Job-12.odb,Step-1,Increment      1: Step Time =    1.000,"P-12-1",           535,       179.479,       4.79838,            0.,NA,NA,"",   668.605E+03,   617.927E+03,   617.927E+03
C:/temp/Job-12.odb,Step-1,Increment      1: Step Time =    1.000,"P-12-1",           536,       169.778,       4.62470,            0.,NA,NA,"",   522.970E+03,   246.779E+03,   246.779E+03
C:/temp/Job-12.odb,Step-1,Increment      1: Step Time =    1.000,"P-12-1",           537,       160.092,       4.73112,            0.,NA,NA,"",   820.017E+03,  -420.144E+03,  -420.144E+03
C:/temp/Job-12.odb,Step-1,Increment      1: Step Time =    1.000,"P-12-1",           538,       150.105,       5.23408,            0.,NA,NA,"",   1.33301E+06,  -1.14305E+06,  -1.14305E+06
C:/temp/Job-12.odb,Step-1,Increment      1: Step Time =    1.000,"P-12-1",           539,       140.010,       4.73346,            0.,NA,NA,"",   1.81846E+06,  -1.72227E+06,  -1.72227E+06
C:/temp/Job-12.odb,Step-1,Increment      1: Step Time =    1.000,"P-12-1",           540,       130.097,       4.98710,            0.,NA,NA,"",   2.06618E+06,  -1.94753E+06,  -1.94753E+06
C:/temp/Job-12.odb,Step-1,Increment      1: Step Time =    1.000,"P-12-1",           541,       120.005,       5.20803,            0.,NA,NA,"",   2.10657E+06,  -1.54544E+06,  -1.54544E+06
C:/temp/Job-12.odb,Step-1,Increment      1: Step Time =    1.000,"P-12-1",           542,       109.693,       5.06025,            0.,NA,NA,"",   2.35268E+06,  -725.997E+03,  -725.997E+03
C:/temp/Job-12.odb,Step-1,Increment      1: Step Time =    1.000,"P-12-1",           543,       99.4191,       4.96779,            0.,NA,NA,"",   2.27655E+06,   618.788E+03,   618.788E+03
C:/temp/Job-12.odb,Step-1,Increment      1: Step Time =    1.000,"P-12-1",           544,       89.2742,       4.99200,            0.,NA,NA,"",   2.98615E+06,   2.69393E+06,   2.69393E+06
C:/temp/Job-12.odb,Step-1,Increment      1: Step Time =    1.000,"P-12-1",           545,       79.2979,       4.95643,            0.,NA,NA,"",   4.47175E+06,   4.27525E+06,   4.27525E+06
C:/temp/Job-12.odb,Step-1,Increment      1: Step Time =    1.000,"P-12-1",           546,       69.5931,       4.69677,            0.,NA,NA,"",   5.70883E+06,   5.59091E+06,   5.59091E+06
C:/temp/Job-12.odb,Step-1,Increment      1: Step Time =    1.000,"P-12-1",           547,       59.6086,       4.89254,            0.,NA,NA,"",   6.43092E+06,   6.35016E+06,   6.35016E+06
C:/temp/Job-12.odb,Step-1,Increment      1: Step Time =    1.000,"P-12-1",           548,       49.8143,       5.20548,            0.,NA,NA,"",   6.66538E+06,   6.62800E+06,   6.62800E+06
C:/temp/Job-12.odb,Step-1,Increment      1: Step Time =    1.000,"P-12-1",           549,       40.2217,       5.47713,            0.,NA,NA,"",   6.57371E+06,   6.54586E+06,   6.54586E+06
C:/temp/Job-12.odb,Step-1,Increment      1: Step Time =    1.000,"P-12-1",           550,       30.1683,       5.30020,            0.,NA,NA,"",   6.38914E+06,   6.38159E+06,   6.38159E+06
C:/temp/Job-12.odb,Step-1,Increment      1: Step Time =    1.000,"P-12-1",           551,       20.1355,       5.16386,            0.,NA,NA,"",   6.14257E+06,   6.14791E+06,   6.14791E+06
C:/temp/Job-12.odb,Step-1,Increment      1: Step Time =    1.000,"P-12-1",           552,       10.1493,       5.16444,            0.,NA,NA,"",   5.99870E+06,   6.04127E+06,   6.04127E+06
C:/temp/Job-12.odb,Step-1,Increment      1: Step Time =    1.000,"P-12-1",           553,       194.965,       190.056,            0.,NA,NA,"",   1.06602E+06,   980.937E+03,   980.937E+03
C:/temp/Job-12.odb,Step-1,Increment      1: Step Time =    1.000,"P-12-1",           554,       194.730,       179.971,            0.,NA,NA,"",   1.27377E+06,   1.05350E+06,   1.05350E+06
C:/temp/Job-12.odb,Step-1,Increment      1: Step Time =    1.000,"P-12-1",           555,       194.898,       169.868,            0.,NA,NA,"",   1.34114E+06,   1.09719E+06,   1.09719E+06
C:/temp/Job-12.odb,Step-1,Increment      1: Step Time =    1.000,"P-12-1",           556,       195.339,       159.899,            0.,NA,NA,"",   1.29456E+06,   1.21721E+06,   1.21721E+06
C:/temp/Job-12.odb,Step-1,Increment      1: Step Time =    1.000,"P-12-1",           557,       195.176,       149.872,            0.,NA,NA,"",   1.52913E+06,   1.63853E+06,   1.63853E+06
C:/temp/Job-12.odb,Step-1,Increment      1: Step Time =    1.000,"P-12-1",           558,       195.453,       139.939,            0.,NA,NA,"",   2.55570E+06,   2.77381E+06,   2.77381E+06
C:/temp/Job-12.odb,Step-1,Increment      1: Step Time =    1.000,"P-12-1",           559,       195.582,       130.172,            0.,NA,NA,"",   4.09780E+06,   4.37757E+06,   4.37757E+06
C:/temp/Job-12.odb,Step-1,Increment      1: Step Time =    1.000,"P-12-1",           560,       195.060,       120.275,            0.,NA,NA,"",   5.45413E+06,   5.75441E+06,   5.75441E+06
C:/temp/Job-12.odb,Step-1,Increment      1: Step Time =    1.000,"P-12-1",           561,       194.721,       109.611,            0.,NA,NA,"",   6.40575E+06,   6.72570E+06,   6.72570E+06
C:/temp/Job-12.odb,Step-1,Increment      1: Step Time =    1.000,"P-12-1",           562,       195.106,       99.2537,            0.,NA,NA,"",   7.04390E+06,   7.38468E+06,   7.38468E+06
C:/temp/Job-12.odb,Step-1,Increment      1: Step Time =    1.000,"P-12-1",           563,       195.406,       89.3904,            0.,NA,NA,"",   6.80008E+06,   7.15118E+06,   7.15118E+06
C:/temp/Job-12.odb,Step-1,Increment      1: Step Time =    1.000,"P-12-1",           564,       195.401,       79.8024,            0.,NA,NA,"",   5.58091E+06,   5.89046E+06,   5.89046E+06
C:/temp/Job-12.odb,Step-1,Increment      1: Step Time =    1.000,"P-12-1",           565,       195.652,       69.9122,            0.,NA,NA,"",   4.11234E+06,   4.39664E+06,   4.39664E+06
C:/temp/Job-12.odb,Step-1,Increment      1: Step Time =    1.000,"P-12-1",           566,       196.027,       60.2199,            0.,NA,NA,"",   2.52692E+06,   2.77706E+06,   2.77706E+06
C:/temp/Job-12.odb,Step-1,Increment      1: Step Time =    1.000,"P-12-1",           567,       195.295,       50.6566,            0.,NA,NA,"",   1.55320E+06,   1.66501E+06,   1.66501E+06
C:/temp/Job-12.odb,Step-1,Increment      1: Step Time =    1.000,"P-12-1",           568,       194.435,       40.5132,            0.,NA,NA,"",   1.34465E+06,   1.27757E+06,   1.27757E+06
C:/temp/Job-12.odb,Step-1,Increment      1: Step Time =    1.000,"P-12-1",           569,       194.992,       30.2400,            0.,NA,NA,"",   1.34276E+06,   1.09917E+06,   1.09917E+06
C:/temp/Job-12.odb,Step-1,Increment      1: Step Time =    1.000,"P-12-1",           570,       195.286,       20.4323,            0.,NA,NA,"",   1.28568E+06,   1.05316E+06,   1.05316E+06
C:/temp/Job-12.odb,Step-1,Increment      1: Step Time =    1.000,"P-12-1",           571,       194.702,       10.4316,            0.,NA,NA,"",   1.07865E+06,   987.312E+03,   987.312E+03
C:/temp/Job-12.odb,Step-1,Increment      1: Step Time =    1.000,"P-12-1",           572,       10.1486,       194.839,            0.,NA,NA,"",   5.99805E+06,   6.04162E+06,   6.04162E+06
C:/temp/Job-12.odb,Step-1,Increment      1: Step Time =    1.000,"P-12-1",           573,       20.2218,       194.857,            0.,NA,NA,"",   6.15243E+06,   6.16001E+06,   6.16001E+06
C:/temp/Job-12.odb,Step-1,Increment      1: Step Time =    1.000,"P-12-1",           574,       30.1646,       195.152,            0.,NA,NA,"",   6.48547E+06,   6.47781E+06,   6.47781E+06
C:/temp/Job-12.odb,Step-1,Increment      1: Step Time =    1.000,"P-12-1",           575,       40.0159,       195.322,            0.,NA,NA,"",   6.75954E+06,   6.73984E+06,   6.73984E+06
C:/temp/Job-12.odb,Step-1,Increment      1: Step Time =    1.000,"P-12-1",           576,       49.8907,       195.086,            0.,NA,NA,"",   6.76147E+06,   6.71286E+06,   6.71286E+06
C:/temp/Job-12.odb,Step-1,Increment      1: Step Time =    1.000,"P-12-1",           577,       59.6845,       194.909,            0.,NA,NA,"",   6.42101E+06,   6.33378E+06,   6.33378E+06
C:/temp/Job-12.odb,Step-1,Increment      1: Step Time =    1.000,"P-12-1",           578,       69.6848,       194.619,            0.,NA,NA,"",   5.59870E+06,   5.45080E+06,   5.45080E+06
C:/temp/Job-12.odb,Step-1,Increment      1: Step Time =    1.000,"P-12-1",           579,       80.0384,       194.460,            0.,NA,NA,"",   4.42066E+06,   4.19015E+06,   4.19015E+06
C:/temp/Job-12.odb,Step-1,Increment      1: Step Time =    1.000,"P-12-1",           580,       90.1005,       194.809,            0.,NA,NA,"",   2.90085E+06,   2.63437E+06,   2.63437E+06
C:/temp/Job-12.odb,Step-1,Increment      1: Step Time =    1.000,"P-12-1",           581,       100.225,       195.036,            0.,NA,NA,"",   2.22514E+06,   536.041E+03,   536.041E+03
C:/temp/Job-12.odb,Step-1,Increment      1: Step Time =    1.000,"P-12-1",           582,       110.356,       194.897,            0.,NA,NA,"",   2.35100E+06,  -769.114E+03,  -769.114E+03
C:/temp/Job-12.odb,Step-1,Increment      1: Step Time =    1.000,"P-12-1",           583,       120.187,       195.619,            0.,NA,NA,"",   2.31163E+06,  -2.21491E+06,  -2.21491E+06
C:/temp/Job-12.odb,Step-1,Increment      1: Step Time =    1.000,"P-12-1",           584,       129.833,       195.272,            0.,NA,NA,"",   2.18147E+06,  -2.08807E+06,  -2.08807E+06
C:/temp/Job-12.odb,Step-1,Increment      1: Step Time =    1.000,"P-12-1",           585,       139.622,       194.238,            0.,NA,NA,"",   1.66915E+06,  -1.24010E+06,  -1.24010E+06
C:/temp/Job-12.odb,Step-1,Increment      1: Step Time =    1.000,"P-12-1",           586,       150.568,       194.419,            0.,NA,NA,"",   1.30124E+06,  -770.122E+03,  -770.122E+03
C:/temp/Job-12.odb,Step-1,Increment      1: Step Time =    1.000,"P-12-1",           587,       160.262,       195.258,            0.,NA,NA,"",   816.749E+03,  -423.880E+03,  -423.880E+03
C:/temp/Job-12.odb,Step-1,Increment      1: Step Time =    1.000,"P-12-1",           588,       170.056,       195.085,            0.,NA,NA,"",   574.828E+03,   286.423E+03,   286.423E+03
C:/temp/Job-12.odb,Step-1,Increment      1: Step Time =    1.000,"P-12-1",           589,       180.151,       195.084,            0.,NA,NA,"",   700.152E+03,   645.223E+03,   645.223E+03
C:/temp/Job-12.odb,Step-1,Increment      1: Step Time =    1.000,"P-12-1",           590,       190.066,       195.133,            0.,NA,NA,"",   912.439E+03,   879.527E+03,   879.527E+03
C:/temp/Job-12.odb,Step-1,Increment      1: Step Time =    1.000,"P-12-1",           591,       5.14571,       10.1742,            0.,NA,NA,"",   4.73163E+06,   5.07084E+06,   5.07084E+06
C:/temp/Job-12.odb,Step-1,Increment      1: Step Time =    1.000,"P-12-1",           592,       5.04212,       20.1740,            0.,NA,NA,"",   2.88862E+06,   3.18304E+06,   3.18304E+06
C:/temp/Job-12.odb,Step-1,Increment      1: Step Time =    1.000,"P-12-1",           593,       4.74552,       30.0116,            0.,NA,NA,"",   1.39577E+06,   1.57072E+06,   1.57072E+06
C:/temp/Job-12.odb,Step-1,Increment      1: Step Time =    1.000,"P-12-1",           594,       4.83657,       40.0504,            0.,NA,NA,"",   358.043E+03,   366.992E+03,   366.992E+03
C:/temp/Job-12.odb,Step-1,Increment      1: Step Time =    1.000,"P-12-1",           595,       5.29935,       50.2142,            0.,NA,NA,"",   702.699E+03,  -656.610E+03,  -656.610E+03
C:/temp/Job-12.odb,Step-1,Increment      1: Step Time =    1.000,"P-12-1",           596,       4.86085,       60.2413,            0.,NA,NA,"",   1.03930E+06,  -1.04692E+06,  -1.04692E+06
C:/temp/Job-12.odb,Step-1,Increment      1: Step Time =    1.000,"P-12-1",           597,       4.85664,       70.1057,            0.,NA,NA,"",   1.03108E+06,  -1.05201E+06,  -1.05201E+06
C:/temp/Job-12.odb,Step-1,Increment      1: Step Time =    1.000,"P-12-1",           598,       4.93690,       80.0606,            0.,NA,NA,"",   791.933E+03,  -827.568E+03,  -827.568E+03
C:/temp/Job-12.odb,Step-1,Increment      1: Step Time =    1.000,"P-12-1",           599,       4.94732,       90.1552,            0.,NA,NA,"",   499.857E+03,  -555.248E+03,  -555.248E+03
C:/temp/Job-12.odb,Step-1,Increment      1: Step Time =    1.000,"P-12-1",           600,       4.98051,       100.359,            0.,NA,NA,"",   348.043E+03,  -400.587E+03,  -400.587E+03
C:/temp/Job-12.odb,Step-1,Increment      1: Step Time =    1.000,"P-12-1",           601,       5.15845,       110.613,            0.,NA,NA,"",   526.381E+03,  -580.455E+03,  -580.455E+03
C:/temp/Job-12.odb,Step-1,Increment      1: Step Time =    1.000,"P-12-1",           602,       4.65997,       120.762,            0.,NA,NA,"",   815.788E+03,  -847.653E+03,  -847.653E+03
C:/temp/Job-12.odb,Step-1,Increment      1: Step Time =    1.000,"P-12-1",           603,       4.32243,       130.585,            0.,NA,NA,"",   1.03803E+06,  -1.05514E+06,  -1.05514E+06
C:/temp/Job-12.odb,Step-1,Increment      1: Step Time =    1.000,"P-12-1",           604,       4.72437,       140.338,            0.,NA,NA,"",   1.01647E+06,  -1.01858E+06,  -1.01858E+06
C:/temp/Job-12.odb,Step-1,Increment      1: Step Time =    1.000,"P-12-1",           605,       4.76823,       150.301,            0.,NA,NA,"",   642.894E+03,  -596.944E+03,  -596.944E+03
C:/temp/Job-12.odb,Step-1,Increment      1: Step Time =    1.000,"P-12-1",           606,       4.68696,       160.209,            0.,NA,NA,"",   356.122E+03,   380.779E+03,   380.779E+03
C:/temp/Job-12.odb,Step-1,Increment      1: Step Time =    1.000,"P-12-1",           607,       4.72999,       170.072,            0.,NA,NA,"",   1.39183E+06,   1.56653E+06,   1.56653E+06
C:/temp/Job-12.odb,Step-1,Increment      1: Step Time =    1.000,"P-12-1",           608,       4.97376,       179.932,            0.,NA,NA,"",   2.90116E+06,   3.19570E+06,   3.19570E+06
C:/temp/Job-12.odb,Step-1,Increment      1: Step Time =    1.000,"P-12-1",           609,       5.10990,       189.862,            0.,NA,NA,"",   4.73587E+06,   5.07620E+06,   5.07620E+06
C:/temp/Job-12.odb,Step-1,Increment      1: Step Time =    1.000,"P-12-1",           610,       20.1009,       80.3983,            0.,NA,NA,"",   993.924E+03,  -1.02867E+06,  -1.02867E+06
C:/temp/Job-12.odb,Step-1,Increment      1: Step Time =    1.000,"P-12-1",           611,       78.9598,       178.848,            0.,NA,NA,"",   3.84196E+06,   3.62626E+06,   3.62626E+06
C:/temp/Job-12.odb,Step-1,Increment      1: Step Time =    1.000,"P-12-1",           612,       121.381,       178.368,            0.,NA,NA,"",   10.3502E+06,   10.5345E+06,   10.5345E+06
C:/temp/Job-12.odb,Step-1,Increment      1: Step Time =    1.000,"P-12-1",           613,       59.8037,       172.446,            0.,NA,NA,"",   2.35593E+06,  -1.18818E+06,  -1.18818E+06
C:/temp/Job-12.odb,Step-1,Increment      1: Step Time =    1.000,"P-12-1",           614,       24.9499,       142.011,            0.,NA,NA,"",   1.96410E+06,  -1.97616E+06,  -1.97616E+06
C:/temp/Job-12.odb,Step-1,Increment      1: Step Time =    1.000,"P-12-1",           615,       174.655,       144.060,            0.,NA,NA,"",   2.72916E+06,   2.23700E+06,   2.23700E+06
C:/temp/Job-12.odb,Step-1,Increment      1: Step Time =    1.000,"P-12-1",           616,       153.878,       29.8729,            0.,NA,NA,"",   4.18116E+06,   4.29554E+06,   4.29554E+06
C:/temp/Job-12.odb,Step-1,Increment      1: Step Time =    1.000,"P-12-1",           617,       160.103,       161.728,            0.,NA,NA,"",   3.80850E+06,   3.86130E+06,   3.86130E+06
C:/temp/Job-12.odb,Step-1,Increment      1: Step Time =    1.000,"P-12-1",           618,       39.2372,       165.634,            0.,NA,NA,"",   1.38539E+06,  -1.26313E+06,  -1.26313E+06
C:/temp/Job-12.odb,Step-1,Increment      1: Step Time =    1.000,"P-12-1",           619,       186.442,       82.1978,            0.,NA,NA,"",   2.78883E+06,   792.511E+03,   792.511E+03
C:/temp/Job-12.odb,Step-1,Increment      1: Step Time =    1.000,"P-12-1",           620,       182.069,       74.2359,            0.,NA,NA,"",   2.83485E+06,  -259.890E+03,  -259.890E+03
C:/temp/Job-12.odb,Step-1,Increment      1: Step Time =    1.000,"P-12-1",           621,       33.8665,       51.4753,            0.,NA,NA,"",   2.94764E+06,  -2.98036E+06,  -2.98036E+06
C:/temp/Job-12.odb,Step-1,Increment      1: Step Time =    1.000,"P-12-1",           622,       164.128,       40.5593,            0.,NA,NA,"",   3.40804E+06,   3.39805E+06,   3.39805E+06
C:/temp/Job-12.odb,Step-1,Increment      1: Step Time =    1.000,"P-12-1",           623,       46.1831,       29.8568,            0.,NA,NA,"",   1.80559E+06,  -399.161E+03,  -399.161E+03
C:/temp/Job-12.odb,Step-1,Increment      1: Step Time =    1.000,"P-12-1",           624,       166.739,       44.6610,            0.,NA,NA,"",   3.18551E+06,   3.09763E+06,   3.09763E+06
C:/temp/Job-12.odb,Step-1,Increment      1: Step Time =    1.000,"P-12-1",           625,       114.127,       14.8940,            0.,NA,NA,"",   6.03090E+06,   6.23691E+06,   6.23691E+06
C:/temp/Job-12.odb,Step-1,Increment      1: Step Time =    1.000,"P-12-1",           626,       35.9096,       41.1129,            0.,NA,NA,"",   1.91694E+06,  -1.96759E+06,  -1.96759E+06
C:/temp/Job-12.odb,Step-1,Increment      1: Step Time =    1.000,"P-12-1",           627,       185.896,       87.4851,            0.,NA,NA,"",   2.44577E+06,  -226.852E+03,  -226.852E+03
C:/temp/Job-12.odb,Step-1,Increment      1: Step Time =    1.000,"P-12-1",           628,       181.721,       130.963,            0.,NA,NA,"",   2.98583E+06,   307.007E+03,   307.007E+03
C:/temp/Job-12.odb,Step-1,Increment      1: Step Time =    1.000,"P-12-1",           629,       18.2571,       129.428,            0.,NA,NA,"",   1.32514E+06,  -1.34894E+06,  -1.34894E+06
C:/temp/Job-12.odb,Step-1,Increment      1: Step Time =    1.000,"P-12-1",           630,       69.5128,       175.632,            0.,NA,NA,"",   2.05433E+06,   1.04586E+06,   1.04586E+06
C:/temp/Job-12.odb,Step-1,Increment      1: Step Time =    1.000,"P-12-1",           631,       112.942,       181.610,            0.,NA,NA,"",   9.06111E+06,   9.28282E+06,   9.28282E+06
C:/temp/Job-12.odb,Step-1,Increment      1: Step Time =    1.000,"P-12-1",           632,       130.930,       175.452,            0.,NA,NA,"",   9.12934E+06,   9.31618E+06,   9.31618E+06
C:/temp/Job-12.odb,Step-1,Increment      1: Step Time =    1.000,"P-12-1",           633,       142.379,       30.6601,            0.,NA,NA,"",   7.16791E+06,   7.30434E+06,   7.30434E+06
C:/temp/Job-12.odb,Step-1,Increment      1: Step Time =    1.000,"P-12-1",           634,       28.1870,       60.2041,            0.,NA,NA,"",   2.31041E+06,  -2.33881E+06,  -2.33881E+06
C:/temp/Job-12.odb,Step-1,Increment      1: Step Time =    1.000,"P-12-1",           635,       166.340,       149.766,            0.,NA,NA,"",   2.84896E+06,   2.77106E+06,   2.77106E+06
C:/temp/Job-12.odb,Step-1,Increment      1: Step Time =    1.000,"P-12-1",           636,       142.729,       175.348,            0.,NA,NA,"",   5.35888E+06,   5.54647E+06,   5.54647E+06
C:/temp/Job-12.odb,Step-1,Increment      1: Step Time =    1.000,"P-12-1",           637,       130.348,       9.97076,            0.,NA,NA,"",   1.49919E+06,   981.618E+03,   981.618E+03
C:/temp/Job-12.odb,Step-1,Increment      1: Step Time =    1.000,"P-12-1",           638,       119.945,       10.3739,            0.,NA,NA,"",   2.19492E+06,   2.28566E+06,   2.28566E+06
C:/temp/Job-12.odb,Step-1,Increment      1: Step Time =    1.000,"P-12-1",           639,       109.302,       9.90255,            0.,NA,NA,"",   3.13976E+06,   3.07608E+06,   3.07608E+06
C:/temp/Job-12.odb,Step-1,Increment      1: Step Time =    1.000,"P-12-1",           640,       59.7733,       9.35232,            0.,NA,NA,"",   5.38276E+06,   5.18797E+06,   5.18797E+06
C:/temp/Job-12.odb,Step-1,Increment      1: Step Time =    1.000,"P-12-1",           641,       190.816,       139.699,            0.,NA,NA,"",   2.86530E+06,   2.80440E+06,   2.80440E+06
C:/temp/Job-12.odb,Step-1,Increment      1: Step Time =    1.000,"P-12-1",           642,       191.230,       130.367,            0.,NA,NA,"",   3.51026E+06,   3.47261E+06,   3.47261E+06
C:/temp/Job-12.odb,Step-1,Increment      1: Step Time =    1.000,"P-12-1",           643,       189.793,       109.005,            0.,NA,NA,"",   2.89076E+06,   2.90036E+06,   2.90036E+06
C:/temp/Job-12.odb,Step-1,Increment      1: Step Time =    1.000,"P-12-1",           644,       190.333,       98.4184,            0.,NA,NA,"",   2.92318E+06,   3.07542E+06,   3.07542E+06
C:/temp/Job-12.odb,Step-1,Increment      1: Step Time =    1.000,"P-12-1",           645,       59.3333,       189.731,            0.,NA,NA,"",   5.23656E+06,   5.00149E+06,   5.00149E+06
C:/temp/Job-12.odb,Step-1,Increment      1: Step Time =    1.000,"P-12-1",           646,       69.0857,       189.538,            0.,NA,NA,"",   5.14103E+06,   4.77869E+06,   4.77869E+06
C:/temp/Job-12.odb,Step-1,Increment      1: Step Time =    1.000,"P-12-1",           647,       100.308,       190.252,            0.,NA,NA,"",   3.90936E+06,   3.66905E+06,   3.66905E+06
C:/temp/Job-12.odb,Step-1,Increment      1: Step Time =    1.000,"P-12-1",           648,       111.046,       189.157,            0.,NA,NA,"",   3.59188E+06,   3.62716E+06,   3.62716E+06
C:/temp/Job-12.odb,Step-1,Increment      1: Step Time =    1.000,"P-12-1",           649,       120.357,       191.408,            0.,NA,NA,"",   1.43552E+06,   716.772E+03,   716.772E+03
C:/temp/Job-12.odb,Step-1,Increment      1: Step Time =    1.000,"P-12-1",           650,       9.62502,       55.9274,            0.,NA,NA,"",   1.12333E+06,  -1.05909E+06,  -1.05909E+06
C:/temp/Job-12.odb,Step-1,Increment      1: Step Time =    1.000,"P-12-1",           651,       9.80853,       65.2609,            0.,NA,NA,"",   1.18915E+06,  -1.18817E+06,  -1.18817E+06
C:/temp/Job-12.odb,Step-1,Increment      1: Step Time =    1.000,"P-12-1",           652,       9.81634,       75.1662,            0.,NA,NA,"",   956.774E+03,  -995.955E+03,  -995.955E+03
C:/temp/Job-12.odb,Step-1,Increment      1: Step Time =    1.000,"P-12-1",           653,       9.77756,       100.632,            0.,NA,NA,"",   444.710E+03,  -503.550E+03,  -503.550E+03
C:/temp/Job-12.odb,Step-1,Increment      1: Step Time =    1.000,"P-12-1",           654,       10.1519,       111.010,            0.,NA,NA,"",   583.814E+03,  -644.062E+03,  -644.062E+03
C:/temp/Job-12.odb,Step-1,Increment      1: Step Time =    1.000,"P-12-1",           655,       9.13330,       121.889,            0.,NA,NA,"",   869.365E+03,  -912.538E+03,  -912.538E+03
C:/temp/Job-12.odb,Step-1,Increment      1: Step Time =    1.000,"P-12-1",           656,       139.990,       9.26565,            0.,NA,NA,"",   1.22970E+06,   310.399E+03,   310.399E+03
C:/temp/Job-12.odb,Step-1,Increment      1: Step Time =    1.000,"P-12-1",           657,       98.8620,       9.75089,            0.,NA,NA,"",   4.08286E+06,   3.82264E+06,   3.82264E+06
C:/temp/Job-12.odb,Step-1,Increment      1: Step Time =    1.000,"P-12-1",           658,       88.5927,       9.91895,            0.,NA,NA,"",   4.73802E+06,   4.33670E+06,   4.33670E+06
C:/temp/Job-12.odb,Step-1,Increment      1: Step Time =    1.000,"P-12-1",           659,       78.5220,       10.0482,            0.,NA,NA,"",   5.03152E+06,   4.60977E+06,   4.60977E+06
C:/temp/Job-12.odb,Step-1,Increment      1: Step Time =    1.000,"P-12-1",           660,       69.0746,       9.41810,            0.,NA,NA,"",   5.24030E+06,   4.93439E+06,   4.93439E+06
C:/temp/Job-12.odb,Step-1,Increment      1: Step Time =    1.000,"P-12-1",           661,       190.511,       120.949,            0.,NA,NA,"",   3.59031E+06,   3.51309E+06,   3.51309E+06
C:/temp/Job-12.odb,Step-1,Increment      1: Step Time =    1.000,"P-12-1",           662,       190.661,       88.5654,            0.,NA,NA,"",   3.60641E+06,   3.68212E+06,   3.68212E+06
C:/temp/Job-12.odb,Step-1,Increment      1: Step Time =    1.000,"P-12-1",           663,       190.880,       80.0036,            0.,NA,NA,"",   3.71588E+06,   3.71593E+06,   3.71593E+06
C:/temp/Job-12.odb,Step-1,Increment      1: Step Time =    1.000,"P-12-1",           664,       191.450,       69.3125,            0.,NA,NA,"",   3.50452E+06,   3.49240E+06,   3.49240E+06
C:/temp/Job-12.odb,Step-1,Increment      1: Step Time =    1.000,"P-12-1",           665,       192.082,       60.6884,            0.,NA,NA,"",   2.83830E+06,   2.87012E+06,   2.87012E+06
C:/temp/Job-12.odb,Step-1,Increment      1: Step Time =    1.000,"P-12-1",           666,       80.1433,       189.297,            0.,NA,NA,"",   5.06228E+06,   4.61319E+06,   4.61319E+06
C:/temp/Job-12.odb,Step-1,Increment      1: Step Time =    1.000,"P-12-1",           667,       90.5072,       189.918,            0.,NA,NA,"",   4.72549E+06,   4.38454E+06,   4.38454E+06
C:/temp/Job-12.odb,Step-1,Increment      1: Step Time =    1.000,"P-12-1",           668,       129.371,       190.524,            0.,NA,NA,"",   1.44484E+06,   713.226E+03,   713.226E+03
C:/temp/Job-12.odb,Step-1,Increment      1: Step Time =    1.000,"P-12-1",           669,       138.345,       189.202,            0.,NA,NA,"",   1.48837E+06,   1.12821E+06,   1.12821E+06
C:/temp/Job-12.odb,Step-1,Increment      1: Step Time =    1.000,"P-12-1",           670,       9.78147,       90.3117,            0.,NA,NA,"",   550.463E+03,  -611.876E+03,  -611.876E+03
C:/temp/Job-12.odb,Step-1,Increment      1: Step Time =    1.000,"P-12-1",           671,       8.55226,       131.036,            0.,NA,NA,"",   1.10157E+06,  -1.11664E+06,  -1.11664E+06
C:/temp/Job-12.odb,Step-1,Increment      1: Step Time =    1.000,"P-12-1",           672,       9.63197,       140.603,            0.,NA,NA,"",   1.17486E+06,  -1.13850E+06,  -1.13850E+06
C:/temp/Job-12.odb,Step-1,Increment      1: Step Time =    1.000,"P-12-1",           673,       53.6403,       176.222,            0.,NA,NA,"",   2.41141E+06,   500.725E+03,   500.725E+03
C:/temp/Job-12.odb,Step-1,Increment      1: Step Time =    1.000,"P-12-1",           674,       147.557,       173.447,            0.,NA,NA,"",   4.85628E+06,   5.01294E+06,   5.01294E+06
C:/temp/Job-12.odb,Step-1,Increment      1: Step Time =    1.000,"P-12-1",           675,       82.8920,       15.0836,            0.,NA,NA,"",   5.24578E+06,   4.83668E+06,   4.83668E+06
C:/temp/Job-12.odb,Step-1,Increment      1: Step Time =    1.000,"P-12-1",           676,       118.808,       183.713,            0.,NA,NA,"",   6.42895E+06,   6.68784E+06,   6.68784E+06
C:/temp/Job-12.odb,Step-1,Increment      1: Step Time =    1.000,"P-12-1",           677,       81.4831,       185.193,            0.,NA,NA,"",   5.25101E+06,   4.82613E+06,   4.82613E+06
C:/temp/Job-12.odb,Step-1,Increment      1: Step Time =    1.000,"P-12-1",           678,       104.849,       185.228,            0.,NA,NA,"",   6.49924E+06,   6.57793E+06,   6.57793E+06
C:/temp/Job-12.odb,Step-1,Increment      1: Step Time =    1.000,"P-12-1",           679,       140.979,       24.2822,            0.,NA,NA,"",   5.78270E+06,   5.97977E+06,   5.97977E+06
C:/temp/Job-12.odb,Step-1,Increment      1: Step Time =    1.000,"P-12-1",           680,       14.4073,       100.844,            0.,NA,NA,"",   565.609E+03,  -613.909E+03,  -613.909E+03
C:/temp/Job-12.odb,Step-1,Increment      1: Step Time =    1.000,"P-12-1",           681,       100.153,       185.620,            0.,NA,NA,"",   6.23544E+06,   6.20729E+06,   6.20729E+06
C:/temp/Job-12.odb,Step-1,Increment      1: Step Time =    1.000,"P-12-1",           682,       103.557,       14.3687,            0.,NA,NA,"",   6.32829E+06,   6.37801E+06,   6.37801E+06
C:/temp/Job-12.odb,Step-1,Increment      1: Step Time =    1.000,"P-12-1",           683,       185.151,       107.871,            0.,NA,NA,"",   2.48788E+06,  -1.20168E+06,  -1.20168E+06
C:/temp/Job-12.odb,Step-1,Increment      1: Step Time =    1.000,"P-12-1",           684,       185.529,       102.696,            0.,NA,NA,"",   2.20969E+06,  -1.28525E+06,  -1.28525E+06
C:/temp/Job-12.odb,Step-1,Increment      1: Step Time =    1.000,"P-12-1",           685,       98.3446,       14.3620,            0.,NA,NA,"",   6.23570E+06,   6.18108E+06,   6.18108E+06
C:/temp/Job-12.odb,Step-1,Increment      1: Step Time =    1.000,"P-12-1",           686,       14.5751,       105.950,            0.,NA,NA,"",   599.391E+03,  -647.952E+03,  -647.952E+03
C:/temp/Job-12.odb,Step-1,Increment      1: Step Time =    1.000,"P-12-1",           687,       14.3764,       95.6868,            0.,NA,NA,"",   578.600E+03,  -627.480E+03,  -627.480E+03
C:/temp/Job-12.odb,Step-1,Increment      1: Step Time =    1.000,"P-12-1",           688,       185.688,       97.5672,            0.,NA,NA,"",   2.14608E+06,  -1.17240E+06,  -1.17240E+06
C:/temp/Job-12.odb,Step-1,Increment      1: Step Time =    1.000,"P-12-1",           689,       169.299,       48.9238,            0.,NA,NA,"",   2.91363E+06,   2.72660E+06,   2.72660E+06
C:/temp/Job-12.odb,Step-1,Increment      1: Step Time =    1.000,"P-12-1",           690,       77.1998,       183.374,            0.,NA,NA,"",   4.74817E+06,    4.2767E+06,    4.2767E+06
C:/temp/Job-12.odb,Step-1,Increment      1: Step Time =    1.000,"P-12-1",           691,       122.975,       182.421,            0.,NA,NA,"",   6.68198E+06,   6.93375E+06,   6.93375E+06
C:/temp/Job-12.odb,Step-1,Increment      1: Step Time =    1.000,"P-12-1",           692,       14.9345,       80.1721,            0.,NA,NA,"",   895.560E+03,  -943.328E+03,  -943.328E+03
C:/temp/Job-12.odb,Step-1,Increment      1: Step Time =    1.000,"P-12-1",           693,       161.630,       37.4685,            0.,NA,NA,"",   3.53476E+06,   3.57872E+06,   3.57872E+06
C:/temp/Job-12.odb,Step-1,Increment      1: Step Time =    1.000,"P-12-1",           694,       88.0310,       14.7604,            0.,NA,NA,"",   5.64167E+06,   5.35429E+06,   5.35429E+06
C:/temp/Job-12.odb,Step-1,Increment      1: Step Time =    1.000,"P-12-1",           695,       108.794,       14.5501,            0.,NA,NA,"",   6.25715E+06,   6.39667E+06,   6.39667E+06
C:/temp/Job-12.odb,Step-1,Increment      1: Step Time =    1.000,"P-12-1",           696,       68.5625,       180.176,            0.,NA,NA,"",   3.50271E+06,   2.86179E+06,   2.86179E+06
C:/temp/Job-12.odb,Step-1,Increment      1: Step Time =    1.000,"P-12-1",           697,       132.382,       179.976,            0.,NA,NA,"",   6.06419E+06,   6.30263E+06,   6.30263E+06
C:/temp/Job-12.odb,Step-1,Increment      1: Step Time =    1.000,"P-12-1",           698,       186.449,       139.281,            0.,NA,NA,"",   3.21884E+06,   2.79720E+06,   2.79720E+06
C:/temp/Job-12.odb,Step-1,Increment      1: Step Time =    1.000,"P-12-1",           699,       140.351,       13.6588,            0.,NA,NA,"",   2.19615E+06,   2.24499E+06,   2.24499E+06
C:/temp/Job-12.odb,Step-1,Increment      1: Step Time =    1.000,"P-12-1",           700,       59.1798,       184.476,            0.,NA,NA,"",   4.18712E+06,   3.75002E+06,   3.75002E+06
C:/temp/Job-12.odb,Step-1,Increment      1: Step Time =    1.000,"P-12-1",           701,       188.296,       61.9210,            0.,NA,NA,"",   3.18640E+06,   2.90467E+06,   2.90467E+06
C:/temp/Job-12.odb,Step-1,Increment      1: Step Time =    1.000,"P-12-1",           702,       14.6852,       140.903,            0.,NA,NA,"",   1.35975E+06,  -1.31239E+06,  -1.31239E+06
C:/temp/Job-12.odb,Step-1,Increment      1: Step Time =    1.000,"P-12-1",           703,       91.6555,       186.112,            0.,NA,NA,"",   5.73254E+06,   5.50133E+06,   5.50133E+06
C:/temp/Job-12.odb,Step-1,Increment      1: Step Time =    1.000,"P-12-1",           704,       170.539,       152.173,            0.,NA,NA,"",   2.91863E+06,   2.71065E+06,   2.71065E+06
C:/temp/Job-12.odb,Step-1,Increment      1: Step Time =    1.000,"P-12-1",           705,       14.4986,       90.5120,            0.,NA,NA,"",   642.267E+03,  -691.438E+03,  -691.438E+03
C:/temp/Job-12.odb,Step-1,Increment      1: Step Time =    1.000,"P-12-1",           706,       60.6563,       12.3491,            0.,NA,NA,"",   4.78679E+06,   4.47402E+06,   4.47402E+06
C:/temp/Job-12.odb,Step-1,Increment      1: Step Time =    1.000,"P-12-1",           707,       77.7349,       15.3372,            0.,NA,NA,"",   4.87240E+06,   4.37121E+06,   4.37121E+06
C:/temp/Job-12.odb,Step-1,Increment      1: Step Time =    1.000,"P-12-1",           708,       119.611,       15.4197,            0.,NA,NA,"",   5.67119E+06,   5.91454E+06,   5.91454E+06
C:/temp/Job-12.odb,Step-1,Increment      1: Step Time =    1.000,"P-12-1",           709,       172.539,       148.163,            0.,NA,NA,"",   2.81425E+06,   2.48583E+06,   2.48583E+06
C:/temp/Job-12.odb,Step-1,Increment      1: Step Time =    1.000,"P-12-1",           710,       26.2572,       147.590,            0.,NA,NA,"",   1.93763E+06,  -1.93687E+06,  -1.93687E+06
C:/temp/Job-12.odb,Step-1,Increment      1: Step Time =    1.000,"P-12-1",           711,       187.836,       67.4709,            0.,NA,NA,"",   3.32102E+06,   2.94593E+06,   2.94593E+06
C:/temp/Job-12.odb,Step-1,Increment      1: Step Time =    1.000,"P-12-1",           712,       130.858,       14.7439,            0.,NA,NA,"",   3.46351E+06,   3.65810E+06,   3.65810E+06
C:/temp/Job-12.odb,Step-1,Increment      1: Step Time =    1.000,"P-12-1",           713,       71.9399,       184.785,            0.,NA,NA,"",   4.70889E+06,   4.14220E+06,   4.14220E+06
C:/temp/Job-12.odb,Step-1,Increment      1: Step Time =    1.000,"P-12-1",           714,       12.1193,       131.022,            0.,NA,NA,"",   1.17237E+06,  -1.18854E+06,  -1.18854E+06
C:/temp/Job-12.odb,Step-1,Increment      1: Step Time =    1.000,"P-12-1",           715,       187.506,       130.497,            0.,NA,NA,"",   3.32181E+06,   2.92153E+06,   2.92153E+06
C:/temp/Job-12.odb,Step-1,Increment      1: Step Time =    1.000,"P-12-1",           716,       128.607,       185.762,            0.,NA,NA,"",   3.48436E+06,   3.68709E+06,   3.68709E+06
C:/temp/Job-12.odb,Step-1,Increment      1: Step Time =    1.000,"P-12-1",           717,       68.1416,       14.1568,            0.,NA,NA,"",   4.56935E+06,   4.08389E+06,   4.08389E+06
C:/temp/Job-12.odb,Step-1,Increment      1: Step Time =    1.000,"P-12-1",           718,       148.477,       26.8851,            0.,NA,NA,"",   4.77352E+06,   4.91273E+06,   4.91273E+06
C:/temp/Job-12.odb,Step-1,Increment      1: Step Time =    1.000,"P-12-1",           719,       162.868,       157.896,            0.,NA,NA,"",   3.53537E+06,   3.53763E+06,   3.53763E+06
C:/temp/Job-12.odb,Step-1,Increment      1: Step Time =    1.000,"P-12-1",           720,       34.1636,       160.652,            0.,NA,NA,"",   1.41112E+06,  -1.42519E+06,  -1.42519E+06
C:/temp/Job-12.odb,Step-1,Increment      1: Step Time =    1.000,"P-12-1",           721,       14.3411,       70.4352,            0.,NA,NA,"",   1.19655E+06,  -1.22235E+06,  -1.22235E+06
C:/temp/Job-12.odb,Step-1,Increment      1: Step Time =    1.000,"P-12-1",           722,       44.3171,       24.5555,            0.,NA,NA,"",   2.18745E+06,   1.73124E+06,   1.73124E+06
C:/temp/Job-12.odb,Step-1,Increment      1: Step Time =    1.000,"P-12-1",           723,       141.990,       17.7734,            0.,NA,NA,"",   3.39013E+06,   3.51075E+06,   3.51075E+06
C:/temp/Job-12.odb,Step-1,Increment      1: Step Time =    1.000,"P-12-1",           724,       185.311,       70.9804,            0.,NA,NA,"",   3.02308E+06,   2.30205E+06,   2.30205E+06
C:/temp/Job-12.odb,Step-1,Increment      1: Step Time =    1.000,"P-12-1",           725,       185.169,       126.424,            0.,NA,NA,"",   3.07931E+06,   1.01028E+06,   1.01028E+06
C:/temp/Job-12.odb,Step-1,Increment      1: Step Time =    1.000,"P-12-1",           726,       17.6930,       123.707,            0.,NA,NA,"",   1.10449E+06,  -1.14014E+06,  -1.14014E+06
C:/temp/Job-12.odb,Step-1,Increment      1: Step Time =    1.000,"P-12-1",           727,       184.836,       77.3289,            0.,NA,NA,"",   2.85988E+06,   150.981E+03,   150.981E+03
C:/temp/Job-12.odb,Step-1,Increment      1: Step Time =    1.000,"P-12-1",           728,       16.8886,       119.296,            0.,NA,NA,"",   924.574E+03,  -967.086E+03,  -967.086E+03
C:/temp/Job-12.odb,Step-1,Increment      1: Step Time =    1.000,"P-12-1",           729,       33.5396,       44.9233,            0.,NA,NA,"",   2.17424E+06,  -2.21814E+06,  -2.21814E+06
C:/temp/Job-12.odb,Step-1,Increment      1: Step Time =    1.000,"P-12-1",           730,       153.257,       171.192,            0.,NA,NA,"",   4.13809E+06,   4.25759E+06,   4.25759E+06
C:/temp/Job-12.odb,Step-1,Increment      1: Step Time =    1.000,"P-12-1",           731,       50.4910,       171.493,            0.,NA,NA,"",   1.85562E+06,  -1.44419E+06,  -1.44419E+06
C:/temp/Job-12.odb,Step-1,Increment      1: Step Time =    1.000,"P-12-1",           732,       88.9965,       182.491,            0.,NA,NA,"",   6.25409E+06,   6.13559E+06,   6.13559E+06
C:/temp/Job-12.odb,Step-1,Increment      1: Step Time =    1.000,"P-12-1",           733,       184.259,       112.756,            0.,NA,NA,"",   2.79765E+06,  -1.13512E+06,  -1.13512E+06
C:/temp/Job-12.odb,Step-1,Increment      1: Step Time =    1.000,"P-12-1",           734,       109.274,       184.093,            0.,NA,NA,"",   7.46562E+06,   7.64736E+06,   7.64736E+06
C:/temp/Job-12.odb,Step-1,Increment      1: Step Time =    1.000,"P-12-1",           735,       14.8701,       110.866,            0.,NA,NA,"",   673.564E+03,  -722.399E+03,  -722.399E+03
C:/temp/Job-12.odb,Step-1,Increment      1: Step Time =    1.000,"P-12-1",           736,       171.885,       53.0683,            0.,NA,NA,"",   2.70551E+06,   2.38353E+06,   2.38353E+06
C:/temp/Job-12.odb,Step-1,Increment      1: Step Time =    1.000,"P-12-1",           737,       125.742,       16.1530,            0.,NA,NA,"",   5.13769E+06,   5.39258E+06,   5.39258E+06
C:/temp/Job-12.odb,Step-1,Increment      1: Step Time =    1.000,"P-12-1",           738,       72.7203,       15.2018,            0.,NA,NA,"",   4.61577E+06,   4.09213E+06,   4.09213E+06
C:/temp/Job-12.odb,Step-1,Increment      1: Step Time =    1.000,"P-12-1",           739,       21.1680,       62.1855,            0.,NA,NA,"",   1.65953E+06,  -1.66439E+06,  -1.66439E+06
C:/temp/Job-12.odb,Step-1,Increment      1: Step Time =    1.000,"P-12-1",           740,       37.4562,       36.8235,            0.,NA,NA,"",   1.42607E+06,  -1.41583E+06,  -1.41583E+06
C:/temp/Job-12.odb,Step-1,Increment      1: Step Time =    1.000,"P-12-1",           741,       14.7208,       85.3365,            0.,NA,NA,"",   753.992E+03,  -803.091E+03,  -803.091E+03
C:/temp/Job-12.odb,Step-1,Increment      1: Step Time =    1.000,"P-12-1",           742,       173.027,       46.4414,            0.,NA,NA,"",   2.98725E+06,   2.71423E+06,   2.71423E+06
C:/temp/Job-12.odb,Step-1,Increment      1: Step Time =    1.000,"P-12-1",           743,       66.3394,       18.5543,            0.,NA,NA,"",   3.67321E+06,   3.06220E+06,   3.06220E+06
C:/temp/Job-12.odb,Step-1,Increment      1: Step Time =    1.000,"P-12-1",           744,       130.565,       18.8632,            0.,NA,NA,"",   5.83084E+06,   6.08691E+06,   6.08691E+06
C:/temp/Job-12.odb,Step-1,Increment      1: Step Time =    1.000,"P-12-1",           745,       182.074,       67.8477,            0.,NA,NA,"",   2.96327E+06,   2.02943E+06,   2.02943E+06
C:/temp/Job-12.odb,Step-1,Increment      1: Step Time =    1.000,"P-12-1",           746,       29.6739,       47.7986,            0.,NA,NA,"",   1.97368E+06,  -1.98557E+06,  -1.98557E+06
C:/temp/Job-12.odb,Step-1,Increment      1: Step Time =    1.000,"P-12-1",           747,       114.944,       185.545,            0.,NA,NA,"",   5.47043E+06,   5.69082E+06,   5.69082E+06
C:/temp/Job-12.odb,Step-1,Increment      1: Step Time =    1.000,"P-12-1",           748,       14.9135,       134.885,            0.,NA,NA,"",   1.34359E+06,  -1.33856E+06,  -1.33856E+06
C:/temp/Job-12.odb,Step-1,Increment      1: Step Time =    1.000,"P-12-1",           749,       185.219,       64.6366,            0.,NA,NA,"",   3.22567E+06,   2.61877E+06,   2.61877E+06
C:/temp/Job-12.odb,Step-1,Increment      1: Step Time =    1.000,"P-12-1",           750,       63.7683,       184.617,            0.,NA,NA,"",   4.34070E+06,   3.83770E+06,   3.83770E+06
C:/temp/Job-12.odb,Step-1,Increment      1: Step Time =    1.000,"P-12-1",           751,       135.817,       14.5720,            0.,NA,NA,"",   2.79882E+06,   2.91973E+06,   2.91973E+06
C:/temp/Job-12.odb,Step-1,Increment      1: Step Time =    1.000,"P-12-1",           752,       185.898,       134.532,            0.,NA,NA,"",   3.29441E+06,   2.75493E+06,   2.75493E+06
C:/temp/Job-12.odb,Step-1,Increment      1: Step Time =    1.000,"P-12-1",           753,       133.134,       184.909,            0.,NA,NA,"",   3.37932E+06,   3.55271E+06,   3.55271E+06
C:/temp/Job-12.odb,Step-1,Increment      1: Step Time =    1.000,"P-12-1",           754,       143.918,       27.3891,            0.,NA,NA,"",   5.91667E+06,   6.09491E+06,   6.09491E+06
C:/temp/Job-12.odb,Step-1,Increment      1: Step Time =    1.000,"P-12-1",           755,       30.5178,       151.843,            0.,NA,NA,"",   2.10086E+06,  -2.12720E+06,  -2.12720E+06
C:/temp/Job-12.odb,Step-1,Increment      1: Step Time =    1.000,"P-12-1",           756,       156.376,       25.1471,            0.,NA,NA,"",   3.31859E+06,   3.36793E+06,   3.36793E+06
C:/temp/Job-12.odb,Step-1,Increment      1: Step Time =    1.000,"P-12-1",           757,       34.2756,       165.296,            0.,NA,NA,"",   1.00931E+06,  -603.171E+03,  -603.171E+03
C:/temp/Job-12.odb,Step-1,Increment      1: Step Time =    1.000,"P-12-1",           758,       163.841,       164.571,            0.,NA,NA,"",   3.33808E+06,   3.33386E+06,   3.33386E+06
C:/temp/Job-12.odb,Step-1,Increment      1: Step Time =    1.000,"P-12-1",           759,       165.018,       153.928,            0.,NA,NA,"",   3.22213E+06,   3.18233E+06,   3.18233E+06
C:/temp/Job-12.odb,Step-1,Increment      1: Step Time =    1.000,"P-12-1",           760,       62.4002,       16.4379,            0.,NA,NA,"",   3.96683E+06,   3.43556E+06,   3.43556E+06
C:/temp/Job-12.odb,Step-1,Increment      1: Step Time =    1.000,"P-12-1",           761,       19.0780,       90.8198,            0.,NA,NA,"",   717.558E+03,  -744.210E+03,  -744.210E+03
C:/temp/Job-12.odb,Step-1,Increment      1: Step Time =    1.000,"P-12-1",           762,       15.5375,       115.332,            0.,NA,NA,"",   780.955E+03,  -827.514E+03,  -827.514E+03
C:/temp/Job-12.odb,Step-1,Increment      1: Step Time =    1.000,"P-12-1",           763,       156.930,       165.962,            0.,NA,NA,"",   4.05921E+06,   4.15342E+06,   4.15342E+06
C:/temp/Job-12.odb,Step-1,Increment      1: Step Time =    1.000,"P-12-1",           764,       14.7655,       65.5417,            0.,NA,NA,"",   1.32778E+06,  -1.32874E+06,  -1.32874E+06
C:/temp/Job-12.odb,Step-1,Increment      1: Step Time =    1.000,"P-12-1",           765,       174.272,       154.422,            0.,NA,NA,"",   2.91973E+06,   2.64735E+06,   2.64735E+06
C:/temp/Job-12.odb,Step-1,Increment      1: Step Time =    1.000,"P-12-1",           766,       175.060,       40.8615,            0.,NA,NA,"",   2.74755E+06,   2.54912E+06,   2.54912E+06
C:/temp/Job-12.odb,Step-1,Increment      1: Step Time =    1.000,"P-12-1",           767,       33.4025,       36.1248,            0.,NA,NA,"",   930.898E+03,  -836.808E+03,  -836.808E+03
C:/temp/Job-12.odb,Step-1,Increment      1: Step Time =    1.000,"P-12-1",           768,       175.468,       50.3263,            0.,NA,NA,"",   2.98201E+06,   2.58490E+06,   2.58490E+06
C:/temp/Job-12.odb,Step-1,Increment      1: Step Time =    1.000,"P-12-1",           769,       168.829,       36.5650,            0.,NA,NA,"",   2.90187E+06,   2.82886E+06,   2.82886E+06
C:/temp/Job-12.odb,Step-1,Increment      1: Step Time =    1.000,"P-12-1",           770,       39.9479,       26.0747,            0.,NA,NA,"",   1.86953E+06,   1.51448E+06,   1.51448E+06
C:/temp/Job-12.odb,Step-1,Increment      1: Step Time =    1.000,"P-12-1",           771,       50.6398,       27.9378,            0.,NA,NA,"",   2.01980E+06,  -275.563E+03,  -275.563E+03
C:/temp/Job-12.odb,Step-1,Increment      1: Step Time =    1.000,"P-12-1",           772,       15.5522,       59.9109,            0.,NA,NA,"",   1.40341E+06,  -1.36888E+06,  -1.36888E+06
C:/temp/Job-12.odb,Step-1,Increment      1: Step Time =    1.000,"P-12-1",           773,       174.519,       57.1090,            0.,NA,NA,"",   2.63248E+06,   2.11453E+06,   2.11453E+06
C:/temp/Job-12.odb,Step-1,Increment      1: Step Time =    1.000,"P-12-1",           774,       37.0689,       32.0239,            0.,NA,NA,"",   1.16073E+06,  -145.620E+03,  -145.620E+03
C:/temp/Job-12.odb,Step-1,Increment      1: Step Time =    1.000,"P-12-1",           775,       182.730,       116.303,            0.,NA,NA,"",   2.91625E+06,  -1.62903E+06,  -1.62903E+06
C:/temp/Job-12.odb,Step-1,Increment      1: Step Time =    1.000,"P-12-1",           776,       47.5990,       169.296,            0.,NA,NA,"",   1.87919E+06,  -1.59427E+06,  -1.59427E+06
C:/temp/Job-12.odb,Step-1,Increment      1: Step Time =    1.000,"P-12-1",           777,       59.1105,       24.0526,            0.,NA,NA,"",   2.44498E+06,   359.553E+03,   359.553E+03
C:/temp/Job-12.odb,Step-1,Increment      1: Step Time =    1.000,"P-12-1",           778,       172.489,       158.520,            0.,NA,NA,"",   2.89270E+06,   2.71141E+06,   2.71141E+06
C:/temp/Job-12.odb,Step-1,Increment      1: Step Time =    1.000,"P-12-1",           779,       40.7857,       175.107,            0.,NA,NA,"",   2.01928E+06,   1.67860E+06,   1.67860E+06
C:/temp/Job-12.odb,Step-1,Increment      1: Step Time =    1.000,"P-12-1",           780,       159.014,       173.095,            0.,NA,NA,"",   3.15989E+06,   3.20158E+06,   3.20158E+06
C:/temp/Job-12.odb,Step-1,Increment      1: Step Time =    1.000,"P-12-1",           781,       60.8703,       19.2035,            0.,NA,NA,"",   3.45276E+06,   2.83763E+06,   2.83763E+06
C:/temp/Job-12.odb,Step-1,Increment      1: Step Time =    1.000,"P-12-1",           782,       55.0183,       26.0206,            0.,NA,NA,"",   2.18074E+06,   15.6270E+03,   15.6270E+03
C:/temp/Job-12.odb,Step-1,Increment      1: Step Time =    1.000,"P-12-1",           783,       182.925,       137.950,            0.,NA,NA,"",   3.26756E+06,   2.53419E+06,   2.53419E+06
C:/temp/Job-12.odb,Step-1,Increment      1: Step Time =    1.000,"P-12-1",           784,       152.088,       22.7813,            0.,NA,NA,"",   3.34767E+06,   3.40979E+06,   3.40979E+06
C:/temp/Job-12.odb,Step-1,Increment      1: Step Time =    1.000,"P-12-1",           785,       166.568,       160.645,            0.,NA,NA,"",   3.20634E+06,   3.15324E+06,   3.15324E+06
C:/temp/Job-12.odb,Step-1,Increment      1: Step Time =    1.000,"P-12-1",           786,       30.3764,       43.2051,            0.,NA,NA,"",   1.49442E+06,  -1.49631E+06,  -1.49631E+06
C:/temp/Job-12.odb,Step-1,Increment      1: Step Time =    1.000,"P-12-1",           787,       179.372,       116.635,            0.,NA,NA,"",   4.49436E+06,  -4.40548E+06,  -4.40548E+06
C:/temp/Job-12.odb,Step-1,Increment      1: Step Time =    1.000,"P-12-1",           788,       13.3474,       123.316,            0.,NA,NA,"",   989.158E+03,  -1.02968E+06,  -1.02968E+06
C:/temp/Job-12.odb,Step-1,Increment      1: Step Time =    1.000,"P-12-1",           789,       116.929,       188.031,            0.,NA,NA,"",   3.50836E+06,   3.67811E+06,   3.67811E+06
C:/temp/Job-12.odb,Step-1,Increment      1: Step Time =    1.000,"P-12-1",           790,       35.3253,       27.2004,            0.,NA,NA,"",   1.61788E+06,   1.35368E+06,   1.35368E+06
C:/temp/Job-12.odb,Step-1,Increment      1: Step Time =    1.000,"P-12-1",           791,       177.500,       156.528,            0.,NA,NA,"",   2.76824E+06,   2.49895E+06,   2.49895E+06
C:/temp/Job-12.odb,Step-1,Increment      1: Step Time =    1.000,"P-12-1",           792,       161.027,       27.1268,            0.,NA,NA,"",   3.03823E+06,   3.05496E+06,   3.05496E+06
C:/temp/Job-12.odb,Step-1,Increment      1: Step Time =    1.000,"P-12-1",           793,       30.5624,       34.6539,            0.,NA,NA,"",   736.497E+03,  -57.1994E+03,  -57.1994E+03
C:/temp/Job-12.odb,Step-1,Increment      1: Step Time =    1.000,"P-12-1",           794,       18.1426,       70.5230,            0.,NA,NA,"",   1.29841E+06,  -1.32707E+06,  -1.32707E+06
C:/temp/Job-12.odb,Step-1,Increment      1: Step Time =    1.000,"P-12-1",           795,       179.109,       47.5085,            0.,NA,NA,"",   2.90490E+06,   2.54141E+06,   2.54141E+06
C:/temp/Job-12.odb,Step-1,Increment      1: Step Time =    1.000,"P-12-1",           796,       164.990,       170.915,            0.,NA,NA,"",    2.8192E+06,   2.79995E+06,   2.79995E+06
C:/temp/Job-12.odb,Step-1,Increment      1: Step Time =    1.000,"P-12-1",           797,       33.8716,       169.937,            0.,NA,NA,"",   1.20515E+06,   635.545E+03,   635.545E+03
C:/temp/Job-12.odb,Step-1,Increment      1: Step Time =    1.000,"P-12-1",           798,       177.142,       60.9885,            0.,NA,NA,"",   2.76385E+06,   1.22801E+06,   1.22801E+06
C:/temp/Job-12.odb,Step-1,Increment      1: Step Time =    1.000,"P-12-1",           799,       20.6166,       118.466,            0.,NA,NA,"",   972.185E+03,  -1.00110E+06,  -1.00110E+06
C:/temp/Job-12.odb,Step-1,Increment      1: Step Time =    1.000,"P-12-1",           800,       140.604,       184.474,            0.,NA,NA,"",   2.83753E+06,   2.95381E+06,   2.95381E+06
C:/temp/Job-12.odb,Step-1,Increment      1: Step Time =    1.000,"P-12-1",           801,       183.044,       61.5501,            0.,NA,NA,"",   3.15590E+06,   2.49551E+06,   2.49551E+06
C:/temp/Job-12.odb,Step-1,Increment      1: Step Time =    1.000,"P-12-1",           802,       20.0598,       137.014,            0.,NA,NA,"",   1.61267E+06,  -1.61412E+06,  -1.61412E+06
C:/temp/Job-12.odb,Step-1,Increment      1: Step Time =    1.000,"P-12-1",           803,       14.3577,       53.7528,            0.,NA,NA,"",   1.24601E+06,  -1.15763E+06,  -1.15763E+06
C:/temp/Job-12.odb,Step-1,Increment      1: Step Time =    1.000,"P-12-1",           804,       48.6623,       22.6734,            0.,NA,NA,"",   2.55304E+06,   1.99114E+06,   1.99114E+06
C:/temp/Job-12.odb,Step-1,Increment      1: Step Time =    1.000,"P-12-1",           805,       186.740,       121.980,            0.,NA,NA,"",   2.87457E+06,   1.20667E+06,   1.20667E+06
C:/temp/Job-12.odb,Step-1,Increment      1: Step Time =    1.000,"P-12-1",           806,       31.0869,       29.0227,            0.,NA,NA,"",   1.28998E+06,   1.13135E+06,   1.13135E+06
C:/temp/Job-12.odb,Step-1,Increment      1: Step Time =    1.000,"P-12-1",           807,       38.4896,       21.4795,            0.,NA,NA,"",   2.73493E+06,   2.52671E+06,   2.52671E+06
C:/temp/Job-12.odb,Step-1,Increment      1: Step Time =    1.000,"P-12-1",           808,       185.556,       144.057,            0.,NA,NA,"",   3.00722E+06,    2.6145E+06,    2.6145E+06
C:/temp/Job-12.odb,Step-1,Increment      1: Step Time =    1.000,"P-12-1",           809,       145.602,       184.287,            0.,NA,NA,"",   2.36428E+06,   2.38433E+06,   2.38433E+06
C:/temp/Job-12.odb,Step-1,Increment      1: Step Time =    1.000,"P-12-1",           810,       54.3320,       183.760,            0.,NA,NA,"",   3.94921E+06,   3.56918E+06,   3.56918E+06
C:/temp/Job-12.odb,Step-1,Increment      1: Step Time =    1.000,"P-12-1",           811,       186.381,       58.0372,            0.,NA,NA,"",   3.03974E+06,   2.65153E+06,   2.65153E+06
C:/temp/Job-12.odb,Step-1,Increment      1: Step Time =    1.000,"P-12-1",           812,       14.6575,       146.113,            0.,NA,NA,"",   1.25283E+06,  -1.16521E+06,  -1.16521E+06
C:/temp/Job-12.odb,Step-1,Increment      1: Step Time =    1.000,"P-12-1",           813,       176.803,       139.718,            0.,NA,NA,"",   2.69823E+06,   1.98077E+06,   1.98077E+06
C:/temp/Job-12.odb,Step-1,Increment      1: Step Time =    1.000,"P-12-1",           814,       142.281,       181.575,            0.,NA,NA,"",   3.50122E+06,   3.63778E+06,   3.63778E+06
C:/temp/Job-12.odb,Step-1,Increment      1: Step Time =    1.000,"P-12-1",           815,       23.9865,       137.350,            0.,NA,NA,"",   1.85745E+06,  -1.87576E+06,  -1.87576E+06
C:/temp/Job-12.odb,Step-1,Increment      1: Step Time =    1.000,"P-12-1",           816,       45.5893,       173.376,            0.,NA,NA,"",   1.86305E+06,   191.652E+03,   191.652E+03
C:/temp/Job-12.odb,Step-1,Increment      1: Step Time =    1.000,"P-12-1",           817,       153.805,       177.608,            0.,NA,NA,"",   3.14436E+06,   3.20135E+06,   3.20135E+06
C:/temp/Job-12.odb,Step-1,Increment      1: Step Time =    1.000,"P-12-1",           818,       28.6046,       37.7853,            0.,NA,NA,"",   735.561E+03,  -419.606E+03,  -419.606E+03
C:/temp/Job-12.odb,Step-1,Increment      1: Step Time =    1.000,"P-12-1",           819,       24.2122,       152.498,            0.,NA,NA,"",   1.40770E+06,  -1.35773E+06,  -1.35773E+06
C:/temp/Job-12.odb,Step-1,Increment      1: Step Time =    1.000,"P-12-1",           820,       163.737,       33.5363,            0.,NA,NA,"",   3.19805E+06,   3.21578E+06,   3.21578E+06
C:/temp/Job-12.odb,Step-1,Increment      1: Step Time =    1.000,"P-12-1",           821,       24.7046,       45.5481,            0.,NA,NA,"",   1.27777E+06,  -1.22021E+06,  -1.22021E+06
C:/temp/Job-12.odb,Step-1,Increment      1: Step Time =    1.000,"P-12-1",           822,       46.8228,       16.4825,            0.,NA,NA,"",   3.86570E+06,   3.61520E+06,   3.61520E+06
C:/temp/Job-12.odb,Step-1,Increment      1: Step Time =    1.000,"P-12-1",           823,       52.5713,       16.9769,            0.,NA,NA,"",   3.76198E+06,   3.39743E+06,   3.39743E+06
C:/temp/Job-12.odb,Step-1,Increment      1: Step Time =    1.000,"P-12-1",           824,       15.8853,       48.7360,            0.,NA,NA,"",   1.06095E+06,  -937.797E+03,  -937.797E+03
C:/temp/Job-12.odb,Step-1,Increment      1: Step Time =    1.000,"P-12-1",           825,       154.477,       19.6941,            0.,NA,NA,"",   2.63740E+06,   2.63638E+06,   2.63638E+06
C:/temp/Job-12.odb,Step-1,Increment      1: Step Time =    1.000,"P-12-1",           826,       49.1321,       10.7204,            0.,NA,NA,"",   5.29408E+06,   5.17464E+06,   5.17464E+06
C:/temp/Job-12.odb,Step-1,Increment      1: Step Time =    1.000,"P-12-1",           827,       17.5431,       38.7408,            0.,NA,NA,"",   443.074E+03,   218.984E+03,   218.984E+03
C:/temp/Job-12.odb,Step-1,Increment      1: Step Time =    1.000,"P-12-1",           828,       54.5585,       189.691,            0.,NA,NA,"",    5.2887E+06,   5.10340E+06,   5.10340E+06
C:/temp/Job-12.odb,Step-1,Increment      1: Step Time =    1.000,"P-12-1",           829,       190.391,       144.683,            0.,NA,NA,"",   2.52518E+06,   2.44317E+06,   2.44317E+06
C:/temp/Job-12.odb,Step-1,Increment      1: Step Time =    1.000,"P-12-1",           830,       181.321,       57.6618,            0.,NA,NA,"",   3.11785E+06,   2.51270E+06,   2.51270E+06
C:/temp/Job-12.odb,Step-1,Increment      1: Step Time =    1.000,"P-12-1",           831,       166.048,       28.3653,            0.,NA,NA,"",   2.72787E+06,   2.70075E+06,   2.70075E+06
C:/temp/Job-12.odb,Step-1,Increment      1: Step Time =    1.000,"P-12-1",           832,       19.0846,       156.493,            0.,NA,NA,"",   794.158E+03,  -480.038E+03,  -480.038E+03
C:/temp/Job-12.odb,Step-1,Increment      1: Step Time =    1.000,"P-12-1",           833,       146.233,       15.2424,            0.,NA,NA,"",   2.30141E+06,   2.31037E+06,   2.31037E+06
C:/temp/Job-12.odb,Step-1,Increment      1: Step Time =    1.000,"P-12-1",           834,       25.3457,       35.4911,            0.,NA,NA,"",   597.024E+03,   291.613E+03,   291.613E+03
C:/temp/Job-12.odb,Step-1,Increment      1: Step Time =    1.000,"P-12-1",           835,       10.0903,       44.9177,            0.,NA,NA,"",   594.921E+03,  -165.802E+03,  -165.802E+03
C:/temp/Job-12.odb,Step-1,Increment      1: Step Time =    1.000,"P-12-1",           836,       26.5900,       52.7059,            0.,NA,NA,"",   1.95521E+06,  -1.95608E+06,  -1.95608E+06
C:/temp/Job-12.odb,Step-1,Increment      1: Step Time =    1.000,"P-12-1",           837,       155.168,       182.172,            0.,NA,NA,"",   2.36511E+06,   2.32323E+06,   2.32323E+06
C:/temp/Job-12.odb,Step-1,Increment      1: Step Time =    1.000,"P-12-1",           838,       38.9365,       17.1853,            0.,NA,NA,"",   3.68390E+06,   3.52961E+06,   3.52961E+06
C:/temp/Job-12.odb,Step-1,Increment      1: Step Time =    1.000,"P-12-1",           839,       32.8906,       156.204,            0.,NA,NA,"",   1.90090E+06,  -1.93983E+06,  -1.93983E+06
C:/temp/Job-12.odb,Step-1,Increment      1: Step Time =    1.000,"P-12-1",           840,       14.4882,       151.064,            0.,NA,NA,"",   1.01793E+06,  -885.899E+03,  -885.899E+03
C:/temp/Job-12.odb,Step-1,Increment      1: Step Time =    1.000,"P-12-1",           841,       49.0447,       185.130,            0.,NA,NA,"",   4.27933E+06,   4.04103E+06,   4.04103E+06
C:/temp/Job-12.odb,Step-1,Increment      1: Step Time =    1.000,"P-12-1",           842,       184.275,       149.914,            0.,NA,NA,"",   2.72913E+06,   2.40146E+06,   2.40146E+06
C:/temp/Job-12.odb,Step-1,Increment      1: Step Time =    1.000,"P-12-1",           843,       151.523,       183.849,            0.,NA,NA,"",   2.20270E+06,   2.16014E+06,   2.16014E+06
C:/temp/Job-12.odb,Step-1,Increment      1: Step Time =    1.000,"P-12-1",           844,       19.3407,       47.2609,            0.,NA,NA,"",   1.11151E+06,  -999.172E+03,  -999.172E+03
C:/temp/Job-12.odb,Step-1,Increment      1: Step Time =    1.000,"P-12-1",           845,       58.5166,       14.8760,            0.,NA,NA,"",   4.26382E+06,   3.87202E+06,   3.87202E+06
C:/temp/Job-12.odb,Step-1,Increment      1: Step Time =    1.000,"P-12-1",           846,       168.253,       173.049,            0.,NA,NA,"",   2.43632E+06,   2.37924E+06,   2.37924E+06
C:/temp/Job-12.odb,Step-1,Increment      1: Step Time =    1.000,"P-12-1",           847,       29.5956,       169.635,            0.,NA,NA,"",   1.12370E+06,   996.145E+03,   996.145E+03
C:/temp/Job-12.odb,Step-1,Increment      1: Step Time =    1.000,"P-12-1",           848,       162.490,       22.9801,            0.,NA,NA,"",   2.57898E+06,   2.54716E+06,   2.54716E+06
C:/temp/Job-12.odb,Step-1,Increment      1: Step Time =    1.000,"P-12-1",           849,       34.7584,       149.758,            0.,NA,NA,"",   3.01284E+06,  -3.05187E+06,  -3.05187E+06
C:/temp/Job-12.odb,Step-1,Increment      1: Step Time =    1.000,"P-12-1",           850,       9.36014,       165.256,            0.,NA,NA,"",   697.646E+03,   795.966E+03,   795.966E+03
C:/temp/Job-12.odb,Step-1,Increment      1: Step Time =    1.000,"P-12-1",           851,       164.941,       9.21128,            0.,NA,NA,"",   983.935E+03,   781.977E+03,   781.977E+03
C:/temp/Job-12.odb,Step-1,Increment      1: Step Time =    1.000,"P-12-1",           852,       9.22024,       34.9821,            0.,NA,NA,"",   675.765E+03,   766.703E+03,   766.703E+03
C:/temp/Job-12.odb,Step-1,Increment      1: Step Time =    1.000,"P-12-1",           853,       35.2388,       11.0080,            0.,NA,NA,"",   5.19722E+06,   5.15930E+06,   5.15930E+06
C:/temp/Job-12.odb,Step-1,Increment      1: Step Time =    1.000,"P-12-1",           854,       190.301,       164.426,            0.,NA,NA,"",   1.48026E+06,   1.37695E+06,   1.37695E+06
C:/temp/Job-12.odb,Step-1,Increment      1: Step Time =    1.000,"P-12-1",           855,       160.485,       190.532,            0.,NA,NA,"",   1.06318E+06,     567.5E+03,     567.5E+03
C:/temp/Job-12.odb,Step-1,Increment      1: Step Time =    1.000,"P-12-1",           856,       189.740,       35.1756,            0.,NA,NA,"",   1.51330E+06,   1.41016E+06,   1.41016E+06
C:/temp/Job-12.odb,Step-1,Increment      1: Step Time =    1.000,"P-12-1",           857,       35.2801,       190.623,            0.,NA,NA,"",   5.51261E+06,   5.47487E+06,   5.47487E+06
C:/temp/Job-12.odb,Step-1,Increment      1: Step Time =    1.000,"P-12-1",           858,       25.1607,       10.2328,            0.,NA,NA,"",   5.22928E+06,   5.22502E+06,   5.22502E+06
C:/temp/Job-12.odb,Step-1,Increment      1: Step Time =    1.000,"P-12-1",           859,       9.83355,       25.3121,            0.,NA,NA,"",   2.08828E+06,   2.29574E+06,   2.29574E+06
C:/temp/Job-12.odb,Step-1,Increment      1: Step Time =    1.000,"P-12-1",           860,       9.69666,       174.913,            0.,NA,NA,"",   2.11038E+06,   2.31806E+06,   2.31806E+06
C:/temp/Job-12.odb,Step-1,Increment      1: Step Time =    1.000,"P-12-1",           861,       174.107,       9.46768,            0.,NA,NA,"",   979.775E+03,   858.833E+03,   858.833E+03
C:/temp/Job-12.odb,Step-1,Increment      1: Step Time =    1.000,"P-12-1",           862,       190.320,       25.5065,            0.,NA,NA,"",   1.34579E+06,   1.19852E+06,   1.19852E+06
C:/temp/Job-12.odb,Step-1,Increment      1: Step Time =    1.000,"P-12-1",           863,       25.5458,       189.922,            0.,NA,NA,"",   5.27271E+06,   5.27307E+06,   5.27307E+06
C:/temp/Job-12.odb,Step-1,Increment      1: Step Time =    1.000,"P-12-1",           864,       169.773,       190.459,            0.,NA,NA,"",   1.03745E+06,   873.906E+03,   873.906E+03
C:/temp/Job-12.odb,Step-1,Increment      1: Step Time =    1.000,"P-12-1",           865,       189.469,       174.798,            0.,NA,NA,"",   1.35956E+06,   1.22029E+06,   1.22029E+06
C:/temp/Job-12.odb,Step-1,Increment      1: Step Time =    1.000,"P-12-1",           866,       153.372,       186.558,            0.,NA,NA,"",   1.75155E+06,   1.60141E+06,   1.60141E+06
C:/temp/Job-12.odb,Step-1,Increment      1: Step Time =    1.000,"P-12-1",           867,       185.836,       34.5060,            0.,NA,NA,"",   1.70298E+06,   1.60302E+06,   1.60302E+06
C:/temp/Job-12.odb,Step-1,Increment      1: Step Time =    1.000,"P-12-1",           868,       35.5942,       186.156,            0.,NA,NA,"",   4.44105E+06,   4.37176E+06,   4.37176E+06
C:/temp/Job-12.odb,Step-1,Increment      1: Step Time =    1.000,"P-12-1",           869,       14.0049,       165.397,            0.,NA,NA,"",   667.955E+03,   760.728E+03,   760.728E+03
C:/temp/Job-12.odb,Step-1,Increment      1: Step Time =    1.000,"P-12-1",           870,       164.719,       13.6767,            0.,NA,NA,"",   1.47410E+06,   1.32148E+06,   1.32148E+06
C:/temp/Job-12.odb,Step-1,Increment      1: Step Time =    1.000,"P-12-1",           871,       185.107,       162.999,            0.,NA,NA,"",   1.88218E+06,   1.75945E+06,   1.75945E+06
C:/temp/Job-12.odb,Step-1,Increment      1: Step Time =    1.000,"P-12-1",           872,       160.302,       185.797,            0.,NA,NA,"",   1.69806E+06,   1.55291E+06,   1.55291E+06
C:/temp/Job-12.odb,Step-1,Increment      1: Step Time =    1.000,"P-12-1",           873,       13.4421,       35.0263,            0.,NA,NA,"",   622.819E+03,   710.734E+03,   710.734E+03
C:/temp/Job-12.odb,Step-1,Increment      1: Step Time =    1.000,"P-12-1",           874,       34.3342,       16.2753,            0.,NA,NA,"",   3.97228E+06,   3.89169E+06,   3.89169E+06
C:/temp/Job-12.odb,Step-1,Increment      1: Step Time =    1.000,"P-12-1",           875,       144.760,       9.40021,            0.,NA,NA,"",   1.22212E+06,   330.602E+03,   330.602E+03
C:/temp/Job-12.odb,Step-1,Increment      1: Step Time =    1.000,"P-12-1",           876,       14.2948,       155.975,            0.,NA,NA,"",   666.124E+03,  -194.016E+03,  -194.016E+03
C:/temp/Job-12.odb,Step-1,Increment      1: Step Time =    1.000,"P-12-1",           877,       26.0694,       184.846,            0.,NA,NA,"",   4.19319E+06,   4.19282E+06,   4.19282E+06
C:/temp/Job-12.odb,Step-1,Increment      1: Step Time =    1.000,"P-12-1",           878,       173.716,       14.3085,            0.,NA,NA,"",   1.37121E+06,   1.25030E+06,   1.25030E+06
C:/temp/Job-12.odb,Step-1,Increment      1: Step Time =    1.000,"P-12-1",           879,       14.4536,       174.594,            0.,NA,NA,"",   2.05698E+06,   2.21758E+06,   2.21758E+06
C:/temp/Job-12.odb,Step-1,Increment      1: Step Time =    1.000,"P-12-1",           880,       185.372,       25.1237,            0.,NA,NA,"",   1.47132E+06,   1.36754E+06,   1.36754E+06
C:/temp/Job-12.odb,Step-1,Increment      1: Step Time =    1.000,"P-12-1",           881,       172.145,       184.832,            0.,NA,NA,"",   1.49033E+06,   1.35581E+06,   1.35581E+06
C:/temp/Job-12.odb,Step-1,Increment      1: Step Time =    1.000,"P-12-1",           882,       184.336,       174.402,            0.,NA,NA,"",   1.52432E+06,   1.42606E+06,   1.42606E+06
C:/temp/Job-12.odb,Step-1,Increment      1: Step Time =    1.000,"P-12-1",           883,       14.8582,       25.7808,            0.,NA,NA,"",   2.00105E+06,   2.16026E+06,   2.16026E+06
C:/temp/Job-12.odb,Step-1,Increment      1: Step Time =    1.000,"P-12-1",           884,       25.1334,       15.0065,            0.,NA,NA,"",   4.18967E+06,   4.19715E+06,   4.19715E+06
C:/temp/Job-12.odb,Step-1,Increment      1: Step Time =    1.000,"P-12-1",           885,       14.7341,       44.0684,            0.,NA,NA,"",   681.953E+03,  -346.513E+03,  -346.513E+03
C:/temp/Job-12.odb,Step-1,Increment      1: Step Time =    1.000,"P-12-1",           886,       44.7797,       190.521,            0.,NA,NA,"",   5.53005E+06,   5.44497E+06,   5.44497E+06
C:/temp/Job-12.odb,Step-1,Increment      1: Step Time =    1.000,"P-12-1",           887,       29.8037,       15.4171,            0.,NA,NA,"",   4.15438E+06,   4.12761E+06,   4.12761E+06
C:/temp/Job-12.odb,Step-1,Increment      1: Step Time =    1.000,"P-12-1",           888,       23.5683,       57.2888,            0.,NA,NA,"",   1.83322E+06,  -1.83163E+06,  -1.83163E+06
C:/temp/Job-12.odb,Step-1,Increment      1: Step Time =    1.000,"P-12-1",           889,       180.299,       153.621,            0.,NA,NA,"",   2.78150E+06,   2.45454E+06,   2.45454E+06
C:/temp/Job-12.odb,Step-1,Increment      1: Step Time =    1.000,"P-12-1",           890,       9.49450,       155.577,            0.,NA,NA,"",   532.262E+03,  -130.357E+03,  -130.357E+03
C:/temp/Job-12.odb,Step-1,Increment      1: Step Time =    1.000,"P-12-1",           891,       47.5402,       180.026,            0.,NA,NA,"",   3.09322E+06,   2.70619E+06,   2.70619E+06
C:/temp/Job-12.odb,Step-1,Increment      1: Step Time =    1.000,"P-12-1",           892,       26.2002,       169.970,            0.,NA,NA,"",   1.15851E+06,   1.13388E+06,   1.13388E+06
C:/temp/Job-12.odb,Step-1,Increment      1: Step Time =    1.000,"P-12-1",           893,       36.8857,       176.197,            0.,NA,NA,"",   2.26299E+06,   2.05500E+06,   2.05500E+06
C:/temp/Job-12.odb,Step-1,Increment      1: Step Time =    1.000,"P-12-1",           894,       163.266,       174.838,            0.,NA,NA,"",   2.65175E+06,   2.63049E+06,   2.63049E+06
C:/temp/Job-12.odb,Step-1,Increment      1: Step Time =    1.000,"P-12-1",           895,       170.785,       170.718,            0.,NA,NA,"",   2.42347E+06,   2.35180E+06,   2.35180E+06
C:/temp/Job-12.odb,Step-1,Increment      1: Step Time =    1.000,"P-12-1",           896,       24.3904,       29.0568,            0.,NA,NA,"",   1.33530E+06,   1.35814E+06,   1.35814E+06
C:/temp/Job-12.odb,Step-1,Increment      1: Step Time =    1.000,"P-12-1",           897,       58.2719,       178.839,            0.,NA,NA,"",   3.00561E+06,   1.80476E+06,   1.80476E+06
C:/temp/Job-12.odb,Step-1,Increment      1: Step Time =    1.000,"P-12-1",           898,       156.988,       14.8830,            0.,NA,NA,"",   1.77718E+06,   1.64981E+06,   1.64981E+06
C:/temp/Job-12.odb,Step-1,Increment      1: Step Time =    1.000,"P-12-1",           899,       155.593,       10.0272,            0.,NA,NA,"",   1.17148E+06,   388.155E+03,   388.155E+03
C:/temp/Job-12.odb,Step-1,Increment      1: Step Time =    1.000,"P-12-1",           900,       159.004,       181.408,            0.,NA,NA,"",   2.32921E+06,   2.27222E+06,   2.27222E+06
C:/temp/Job-12.odb,Step-1,Increment      1: Step Time =    1.000,"P-12-1",           901,       13.9572,       169.987,            0.,NA,NA,"",   1.25646E+06,   1.39991E+06,   1.39991E+06
C:/temp/Job-12.odb,Step-1,Increment      1: Step Time =    1.000,"P-12-1",           902,       183.996,       30.3436,            0.,NA,NA,"",   1.68756E+06,   1.59208E+06,   1.59208E+06
C:/temp/Job-12.odb,Step-1,Increment      1: Step Time =    1.000,"P-12-1",           903,       31.0839,       185.461,            0.,NA,NA,"",   4.33444E+06,   4.29833E+06,   4.29833E+06
C:/temp/Job-12.odb,Step-1,Increment      1: Step Time =    1.000,"P-12-1",           904,       169.020,       14.6125,            0.,NA,NA,"",   1.46531E+06,   1.32431E+06,   1.32431E+06
C:/temp/Job-12.odb,Step-1,Increment      1: Step Time =    1.000,"P-12-1",           905,       184.788,       168.977,            0.,NA,NA,"",   1.65883E+06,   1.56181E+06,   1.56181E+06
C:/temp/Job-12.odb,Step-1,Increment      1: Step Time =    1.000,"P-12-1",           906,       165.068,       185.034,            0.,NA,NA,"",   1.64210E+06,   1.50805E+06,   1.50805E+06
C:/temp/Job-12.odb,Step-1,Increment      1: Step Time =    1.000,"P-12-1",           907,       13.9854,       30.4691,            0.,NA,NA,"",   1.19418E+06,   1.33731E+06,   1.33731E+06
C:/temp/Job-12.odb,Step-1,Increment      1: Step Time =    1.000,"P-12-1",           908,       44.4579,       186.042,            0.,NA,NA,"",   4.42980E+06,   4.27341E+06,   4.27341E+06
C:/temp/Job-12.odb,Step-1,Increment      1: Step Time =    1.000,"P-12-1",           909,       20.8433,       184.311,            0.,NA,NA,"",   4.08832E+06,   4.13293E+06,   4.13293E+06
C:/temp/Job-12.odb,Step-1,Increment      1: Step Time =    1.000,"P-12-1",           910,       178.075,       18.2044,            0.,NA,NA,"",   1.45340E+06,   1.34650E+06,   1.34650E+06
C:/temp/Job-12.odb,Step-1,Increment      1: Step Time =    1.000,"P-12-1",           911,       15.3017,       179.367,            0.,NA,NA,"",   2.99548E+06,   3.14543E+06,   3.14543E+06
C:/temp/Job-12.odb,Step-1,Increment      1: Step Time =    1.000,"P-12-1",           912,       182.697,       18.8505,            0.,NA,NA,"",   1.37738E+06,   1.26818E+06,   1.26818E+06
C:/temp/Job-12.odb,Step-1,Increment      1: Step Time =    1.000,"P-12-1",           913,       178.731,       184.305,            0.,NA,NA,"",   1.35205E+06,   1.23328E+06,   1.23328E+06
C:/temp/Job-12.odb,Step-1,Increment      1: Step Time =    1.000,"P-12-1",           914,       183.190,       180.249,            0.,NA,NA,"",   1.40878E+06,   1.29804E+06,   1.29804E+06
C:/temp/Job-12.odb,Step-1,Increment      1: Step Time =    1.000,"P-12-1",           915,       15.5756,       20.8755,            0.,NA,NA,"",   2.96526E+06,   3.11289E+06,   3.11289E+06
C:/temp/Job-12.odb,Step-1,Increment      1: Step Time =    1.000,"P-12-1",           916,       20.5643,       15.5390,            0.,NA,NA,"",   4.11850E+06,   4.16019E+06,   4.16019E+06
C:/temp/Job-12.odb,Step-1,Increment      1: Step Time =    1.000,"P-12-1",           917,       186.276,       155.580,            0.,NA,NA,"",   2.20308E+06,   2.02102E+06,   2.02102E+06
C:/temp/Job-12.odb,Step-1,Increment      1: Step Time =    1.000,"P-12-1",           918,       40.0225,       186.077,            0.,NA,NA,"",   4.47796E+06,   4.37798E+06,   4.37798E+06
C:/temp/Job-12.odb,Step-1,Increment      1: Step Time =    1.000,"P-12-1",           919,       23.8136,       166.681,            0.,NA,NA,"",   777.549E+03,   763.737E+03,   763.737E+03
C:/temp/Job-12.odb,Step-1,Increment      1: Step Time =    1.000,"P-12-1",           920,       29.1249,       173.256,            0.,NA,NA,"",   1.65654E+06,   1.58915E+06,   1.58915E+06
C:/temp/Job-12.odb,Step-1,Increment      1: Step Time =    1.000,"P-12-1",           921,       173.642,       168.396,            0.,NA,NA,"",   2.37544E+06,   2.27983E+06,   2.27983E+06
C:/temp/Job-12.odb,Step-1,Increment      1: Step Time =    1.000,"P-12-1",           922,       25.3059,       18.8799,            0.,NA,NA,"",   3.42490E+06,   3.43728E+06,   3.43728E+06
C:/temp/Job-12.odb,Step-1,Increment      1: Step Time =    1.000,"P-12-1",           923,       19.8963,       26.8219,            0.,NA,NA,"",   1.75137E+06,   1.84623E+06,   1.84623E+06
C:/temp/Job-12.odb,Step-1,Increment      1: Step Time =    1.000,"P-12-1",           924,       40.0429,       180.831,            0.,NA,NA,"",   3.31004E+06,   3.13081E+06,   3.13081E+06
C:/temp/Job-12.odb,Step-1,Increment      1: Step Time =    1.000,"P-12-1",           925,       170.300,       175.082,            0.,NA,NA,"",   2.16544E+06,   2.09300E+06,   2.09300E+06
C:/temp/Job-12.odb,Step-1,Increment      1: Step Time =    1.000,"P-12-1",           926,       163.053,       17.3516,            0.,NA,NA,"",   1.90560E+06,   1.78951E+06,   1.78951E+06
C:/temp/Job-12.odb,Step-1,Increment      1: Step Time =    1.000,"P-12-1",           927,       152.055,       189.775,            0.,NA,NA,"",   1.35082E+06,   743.126E+03,   743.126E+03
C:/temp/Job-12.odb,Step-1,Increment      1: Step Time =    1.000,"P-12-1",           928,       173.604,       174.784,            0.,NA,NA,"",   1.99989E+06,   1.92132E+06,   1.92132E+06
C:/temp/Job-12.odb,Step-1,Increment      1: Step Time =    1.000,"P-12-1",           929,       26.8104,       180.079,            0.,NA,NA,"",   3.18244E+06,   3.17546E+06,   3.17546E+06
C:/temp/Job-12.odb,Step-1,Increment      1: Step Time =    1.000,"P-12-1",           930,       171.792,       179.051,            0.,NA,NA,"",   1.84220E+06,   1.75654E+06,   1.75654E+06
C:/temp/Job-12.odb,Step-1,Increment      1: Step Time =    1.000,"P-12-1",           931,       162.583,       179.584,            0.,NA,NA,"",   2.31546E+06,   2.26273E+06,   2.26273E+06
C:/temp/Job-12.odb,Step-1,Increment      1: Step Time =    1.000,"P-12-1",           932,       18.7162,       165.724,            0.,NA,NA,"",   670.348E+03,   745.551E+03,   745.551E+03
C:/temp/Job-12.odb,Step-1,Increment      1: Step Time =    1.000,"P-12-1",           933,       180.413,       34.3461,            0.,NA,NA,"",   2.08933E+06,   1.96526E+06,   1.96526E+06
C:/temp/Job-12.odb,Step-1,Increment      1: Step Time =    1.000,"P-12-1",           934,       179.440,       159.457,            0.,NA,NA,"",   2.49727E+06,   2.28130E+06,   2.28130E+06
C:/temp/Job-12.odb,Step-1,Increment      1: Step Time =    1.000,"P-12-1",           935,       15.5023,       184.424,            0.,NA,NA,"",   4.04616E+06,   4.15648E+06,   4.15648E+06
C:/temp/Job-12.odb,Step-1,Increment      1: Step Time =    1.000,"P-12-1",           936,       185.975,       14.3305,            0.,NA,NA,"",   1.17990E+06,   1.07112E+06,   1.07112E+06
C:/temp/Job-12.odb,Step-1,Increment      1: Step Time =    1.000,"P-12-1",           937,       18.7138,       173.699,            0.,NA,NA,"",   1.88083E+06,   1.99595E+06,   1.99595E+06
C:/temp/Job-12.odb,Step-1,Increment      1: Step Time =    1.000,"P-12-1",           938,       186.685,       17.3075,            0.,NA,NA,"",   1.25982E+06,   1.13919E+06,   1.13919E+06
C:/temp/Job-12.odb,Step-1,Increment      1: Step Time =    1.000,"P-12-1",           939,       180.755,       23.5847,            0.,NA,NA,"",   1.62680E+06,   1.53256E+06,   1.53256E+06
C:/temp/Job-12.odb,Step-1,Increment      1: Step Time =    1.000,"P-12-1",           940,       181.364,       186.707,            0.,NA,NA,"",   1.19546E+06,   1.08320E+06,   1.08320E+06
C:/temp/Job-12.odb,Step-1,Increment      1: Step Time =    1.000,"P-12-1",           941,       184.999,       185.612,            0.,NA,NA,"",   1.20054E+06,   1.08784E+06,   1.08784E+06
C:/temp/Job-12.odb,Step-1,Increment      1: Step Time =    1.000,"P-12-1",           942,       21.5253,       171.059,            0.,NA,NA,"",   1.42554E+06,   1.50656E+06,   1.50656E+06
C:/temp/Job-12.odb,Step-1,Increment      1: Step Time =    1.000,"P-12-1",           943,       171.074,       163.640,            0.,NA,NA,"",   2.80283E+06,   2.69486E+06,   2.69486E+06
C:/temp/Job-12.odb,Step-1,Increment      1: Step Time =    1.000,"P-12-1",           944,       176.440,       171.552,            0.,NA,NA,"",   2.00767E+06,   1.92581E+06,   1.92581E+06
C:/temp/Job-12.odb,Step-1,Increment      1: Step Time =    1.000,"P-12-1",           945,       15.5234,       15.6458,            0.,NA,NA,"",   4.04690E+06,   4.15597E+06,   4.15597E+06
C:/temp/Job-12.odb,Step-1,Increment      1: Step Time =    1.000,"P-12-1",           946,       27.7868,       24.6526,            0.,NA,NA,"",   2.13953E+06,   2.11199E+06,   2.11199E+06
C:/temp/Job-12.odb,Step-1,Increment      1: Step Time =    1.000,"P-12-1",           947,       161.052,       13.7009,            0.,NA,NA,"",   1.55778E+06,   1.39761E+06,   1.39761E+06
C:/temp/Job-12.odb,Step-1,Increment      1: Step Time =    1.000,"P-12-1",           948,       13.7559,       39.5249,            0.,NA,NA,"",   445.127E+03,   223.846E+03,   223.846E+03
C:/temp/Job-12.odb,Step-1,Increment      1: Step Time =    1.000,"P-12-1",           949,       179.736,       173.396,            0.,NA,NA,"",   1.74665E+06,   1.66340E+06,   1.66340E+06
C:/temp/Job-12.odb,Step-1,Increment      1: Step Time =    1.000,"P-12-1",           950,       173.994,       18.7411,            0.,NA,NA,"",   1.63823E+06,   1.53033E+06,   1.53033E+06
C:/temp/Job-12.odb,Step-1,Increment      1: Step Time =    1.000,"P-12-1",           951,       28.7843,       161.351,            0.,NA,NA,"",   838.658E+03,  -614.182E+03,  -614.182E+03
C:/temp/Job-12.odb,Step-1,Increment      1: Step Time =    1.000,"P-12-1",           952,       176.039,       163.443,            0.,NA,NA,"",   2.49457E+06,   2.34433E+06,   2.34433E+06
C:/temp/Job-12.odb,Step-1,Increment      1: Step Time =    1.000,"P-12-1",           953,       178.248,       37.2443,            0.,NA,NA,"",   2.34368E+06,   2.18521E+06,   2.18521E+06
C:/temp/Job-12.odb,Step-1,Increment      1: Step Time =    1.000,"P-12-1",           954,       176.573,       21.6852,            0.,NA,NA,"",   1.71441E+06,   1.61531E+06,   1.61531E+06
C:/temp/Job-12.odb,Step-1,Increment      1: Step Time =    1.000,"P-12-1",           955,       14.1311,       160.757,            0.,NA,NA,"",   441.987E+03,   399.730E+03,   399.730E+03
C:/temp/Job-12.odb,Step-1,Increment      1: Step Time =    1.000,"P-12-1",           956,       175.270,       181.467,            0.,NA,NA,"",   1.59537E+06,   1.48423E+06,   1.48423E+06
C:/temp/Job-12.odb,Step-1,Increment      1: Step Time =    1.000,"P-12-1",           957,       183.573,       37.6751,            0.,NA,NA,"",   1.99635E+06,   1.85921E+06,   1.85921E+06
C:/temp/Job-12.odb,Step-1,Increment      1: Step Time =    1.000,"P-12-1",           958,       15.3894,       189.627,            0.,NA,NA,"",   5.11768E+06,   5.17276E+06,   5.17276E+06
C:/temp/Job-12.odb,Step-1,Increment      1: Step Time =    1.000,"P-12-1",           959,       183.660,       9.78571,            0.,NA,NA,"",   1.02064E+06,   935.112E+03,   935.112E+03
C:/temp/Job-12.odb,Step-1,Increment      1: Step Time =    1.000,"P-12-1",           960,       189.747,       185.123,            0.,NA,NA,"",   1.18720E+06,   1.06178E+06,   1.06178E+06
C:/temp/Job-12.odb,Step-1,Increment      1: Step Time =    1.000,"P-12-1",           961,       15.3263,       10.3705,            0.,NA,NA,"",   5.12708E+06,   5.18244E+06,   5.18244E+06
C:/temp/Job-12.odb,Step-1,Increment      1: Step Time =    1.000,"P-12-1",           962,       190.584,       16.2368,            0.,NA,NA,"",   1.20697E+06,   1.07070E+06,   1.07070E+06
C:/temp/Job-12.odb,Step-1,Increment      1: Step Time =    1.000,"P-12-1",           963,       180.514,       190.431,            0.,NA,NA,"",   1.00786E+06,   911.689E+03,   911.689E+03
C:/temp/Job-12.odb,Step-1,Increment      1: Step Time =    1.000,"P-12-1",           964,       10.2232,       184.675,            0.,NA,NA,"",   3.94630E+06,   4.15880E+06,   4.15880E+06
C:/temp/Job-12.odb,Step-1,Increment      1: Step Time =    1.000,"P-12-1",           965,       10.3049,       15.4414,            0.,NA,NA,"",   3.92929E+06,   4.14013E+06,   4.14013E+06
C:/temp/Job-12.odb,Step-1,Increment      1: Step Time =    1.000,"P-12-1",           966,       23.7363,       161.595,            0.,NA,NA,"",   585.492E+03,  -117.632E+03,  -117.632E+03
C:/temp/Job-12.odb,Step-1,Increment      1: Step Time =    1.000,"P-12-1",           967,       156.315,       186.261,            0.,NA,NA,"",   1.73411E+06,   1.57203E+06,   1.57203E+06
C:/temp/Job-12.odb,Step-1,Increment      1: Step Time =    1.000,"P-12-1",           968,       176.040,       32.2262,            0.,NA,NA,"",   2.24128E+06,   2.13988E+06,   2.13988E+06
C:/temp/Job-12.odb,Step-1,Increment      1: Step Time =    1.000,"P-12-1",           969,       183.057,       44.5058,            0.,NA,NA,"",   2.48118E+06,   2.23468E+06,   2.23468E+06
C:/temp/Job-12.odb,Step-1,Increment      1: Step Time =    1.000,"P-12-1",           970,       185.153,       48.5504,            0.,NA,NA,"",   2.56900E+06,   2.30353E+06,   2.30353E+06
C:/temp/Job-12.odb,Step-1,Increment      1: Step Time =    1.000,"P-12-1",           971,       174.518,       36.6952,            0.,NA,NA,"",    2.5431E+06,   2.40538E+06,   2.40538E+06
C:/temp/Job-12.odb,Step-1,Increment      1: Step Time =    1.000,"P-12-1",           972,       189.734,       46.6485,            0.,NA,NA,"",   2.01456E+06,   1.91308E+06,   1.91308E+06
C:/temp/Job-12.odb,Step-1,Increment      1: Step Time =    1.000,"P-12-1",           973,       173.483,       25.4790,            0.,NA,NA,"",   2.06844E+06,   1.98585E+06,   1.98585E+06
C:/temp/Job-12.odb,Step-1,Increment      1: Step Time =    1.000,"P-12-1",           974,       190.629,       154.866,            0.,NA,NA,"",   1.84660E+06,   1.76652E+06,   1.76652E+06
C:/temp/Job-12.odb,Step-1,Increment      1: Step Time =    1.000,"P-12-1",           975,       9.66665,       145.664,            0.,NA,NA,"",   1.06778E+06,  -994.508E+03,  -994.508E+03
C:/temp/Job-12.odb,Step-1,Increment      1: Step Time =    1.000,"P-12-1",           976,       191.278,       56.4570,            0.,NA,NA,"",   2.52975E+06,   2.49520E+06,   2.49520E+06
C:/temp/Job-12.odb,Step-1,Increment      1: Step Time =    1.000,"P-12-1",           977,       142.390,       187.777,            0.,NA,NA,"",   1.76191E+06,   1.72278E+06,   1.72278E+06
C:/temp/Job-12.odb,Step-1,Increment      1: Step Time =    1.000,"P-12-1",           978,       187.593,       159.505,            0.,NA,NA,"",   1.86825E+06,   1.74921E+06,   1.74921E+06
C:/temp/Job-12.odb,Step-1,Increment      1: Step Time =    1.000,"P-12-1",           979,       45.1491,       9.28298,            0.,NA,NA,"",   5.59530E+06,   5.51730E+06,   5.51730E+06
C:/temp/Job-12.odb,Step-1,Increment      1: Step Time =    1.000,"P-12-1",           980,       9.88334,       80.1243,            0.,NA,NA,"",   812.758E+03,  -863.147E+03,  -863.147E+03
C:/temp/Job-12.odb,Step-1,Increment      1: Step Time =    1.000,"P-12-1",           981,       185.266,       190.454,            0.,NA,NA,"",   1.00214E+06,   918.748E+03,   918.748E+03
C:/temp/Job-12.odb,Step-1,Increment      1: Step Time =    1.000,"P-12-1",           982,       73.1168,       181.368,            0.,NA,NA,"",   4.05034E+06,   3.50838E+06,   3.50838E+06
C:/temp/Job-12.odb,Step-1,Increment      1: Step Time =    1.000,"P-12-1",           983,       13.7502,       119.884,            0.,NA,NA,"",   887.875E+03,  -935.168E+03,  -935.168E+03
C:/temp/Job-12.odb,Step-1,Increment      1: Step Time =    1.000,"P-12-1",           984,       120.125,       187.448,            0.,NA,NA,"",   3.47680E+06,   3.67179E+06,   3.67179E+06
C:/temp/Job-12.odb,Step-1,Increment      1: Step Time =    1.000,"P-12-1",           985,       13.1454,       127.617,            0.,NA,NA,"",   1.09854E+06,  -1.12798E+06,  -1.12798E+06
C:/temp/Job-12.odb,Step-1,Increment      1: Step Time =    1.000,"P-12-1",           986,       124.167,       186.658,            0.,NA,NA,"",   3.49018E+06,   3.69777E+06,   3.69777E+06
C:/temp/Job-12.odb,Step-1,Increment      1: Step Time =    1.000,"P-12-1",           987,       127.507,       181.220,            0.,NA,NA,"",   6.52203E+06,   6.76731E+06,   6.76731E+06
C:/temp/Job-12.odb,Step-1,Increment      1: Step Time =    1.000,"P-12-1",           988,       95.5331,       185.803,            0.,NA,NA,"",   5.97003E+06,   5.83663E+06,   5.83663E+06
C:/temp/Job-12.odb,Step-1,Increment      1: Step Time =    1.000,"P-12-1",           989,       68.2931,       184.879,            0.,NA,NA,"",   4.54164E+06,   3.98651E+06,   3.98651E+06
C:/temp/Job-12.odb,Step-1,Increment      1: Step Time =    1.000,"P-12-1",           990,       43.6660,       167.147,            0.,NA,NA,"",   1.72223E+06,  -1.55671E+06,  -1.55671E+06
C:/temp/Job-12.odb,Step-1,Increment      1: Step Time =    1.000,"P-12-1",           991,       49.3701,       175.249,            0.,NA,NA,"",   2.11294E+06,   287.097E+03,   287.097E+03
C:/temp/Job-12.odb,Step-1,Increment      1: Step Time =    1.000,"P-12-1",           992,       185.770,       92.5142,            0.,NA,NA,"",   2.24861E+06,  -796.672E+03,  -796.672E+03
C:/temp/Job-12.odb,Step-1,Increment      1: Step Time =    1.000,"P-12-1",           993,       184.600,       119.069,            0.,NA,NA,"",   2.60171E+06,  -167.516E+03,  -167.516E+03
C:/temp/Job-12.odb,Step-1,Increment      1: Step Time =    1.000,"P-12-1",           994,       14.8594,       75.2170,            0.,NA,NA,"",   1.04470E+06,  -1.08619E+06,  -1.08619E+06
C:/temp/Job-12.odb,Step-1,Increment      1: Step Time =    1.000,"P-12-1",           995,       169.129,       186.876,            0.,NA,NA,"",   1.37683E+06,   1.22382E+06,   1.22382E+06
C:/temp/Job-12.odb,Step-1,Increment      1: Step Time =    1.000,"P-12-1",           996,       182.650,       14.0827,            0.,NA,NA,"",   1.20023E+06,   1.09409E+06,   1.09409E+06
C:/temp/Job-12.odb,Step-1,Increment      1: Step Time =    1.000,"P-12-1",           997,       178.329,       14.0122,            0.,NA,NA,"",   1.25584E+06,   1.14728E+06,   1.14728E+06
C:/temp/Job-12.odb,Step-1,Increment      1: Step Time =    1.000,"P-12-1",           998,       152.672,       16.1344,            0.,NA,NA,"",   2.15575E+06,   2.11318E+06,   2.11318E+06
C:/temp/Job-12.odb,Step-1,Increment      1: Step Time =    1.000,"P-12-1",           999,       93.1738,       14.5026,            0.,NA,NA,"",   5.99513E+06,   5.82609E+06,   5.82609E+06
C:/temp/Job-12.odb,Step-1,Increment      1: Step Time =    1.000,"P-12-1",          1000,       143.865,       12.7600,            0.,NA,NA,"",   1.76424E+06,   1.73837E+06,   1.73837E+06
C:/temp/Job-12.odb,Step-1,Increment      1: Step Time =    1.000,"P-12-1",          1001,       148.869,       18.9521,            0.,NA,NA,"",   2.95655E+06,   3.00348E+06,   3.00348E+06
C:/temp/Job-12.odb,Step-1,Increment      1: Step Time =    1.000,"P-12-1",          1002,       63.9733,       13.0097,            0.,NA,NA,"",   4.67749E+06,   4.27938E+06,   4.27938E+06
C:/temp/Job-12.odb,Step-1,Increment      1: Step Time =    1.000,"P-12-1",          1003,       189.600,       64.7488,            0.,NA,NA,"",   3.26392E+06,   3.09272E+06,   3.09272E+06
C:/temp/Job-12.odb,Step-1,Increment      1: Step Time =    1.000,"P-12-1",          1004,       186.598,       20.6394,            0.,NA,NA,"",   1.35371E+06,   1.23261E+06,   1.23261E+06
C:/temp/Job-12.odb,Step-1,Increment      1: Step Time =    1.000,"P-12-1",          1005,       19.8453,       141.754,            0.,NA,NA,"",   1.60366E+06,  -1.57895E+06,  -1.57895E+06
C:/temp/Job-12.odb,Step-1,Increment      1: Step Time =    1.000,"P-12-1",          1006,       176.649,       150.632,            0.,NA,NA,"",   2.94404E+06,   2.56292E+06,   2.56292E+06
C:/temp/Job-12.odb,Step-1,Increment      1: Step Time =    1.000,"P-12-1",          1007,       144.532,       178.747,            0.,NA,NA,"",   4.06791E+06,   4.21402E+06,   4.21402E+06
C:/temp/Job-12.odb,Step-1,Increment      1: Step Time =    1.000,"P-12-1",          1008,       19.4571,       151.606,            0.,NA,NA,"",   1.20619E+06,  -1.10701E+06,  -1.10701E+06
C:/temp/Job-12.odb,Step-1,Increment      1: Step Time =    1.000,"P-12-1",          1009,       186.364,       53.0535,            0.,NA,NA,"",   2.76840E+06,   2.46483E+06,   2.46483E+06
C:/temp/Job-12.odb,Step-1,Increment      1: Step Time =    1.000,"P-12-1",          1010,       53.0553,       21.4298,            0.,NA,NA,"",   2.84222E+06,   2.25486E+06,   2.25486E+06
C:/temp/Job-12.odb,Step-1,Increment      1: Step Time =    1.000,"P-12-1",          1011,       137.376,       184.386,            0.,NA,NA,"",   3.15445E+06,   3.30208E+06,   3.30208E+06
C:/temp/Job-12.odb,Step-1,Increment      1: Step Time =    1.000,"P-12-1",          1012,       168.892,       181.973,            0.,NA,NA,"",   1.80476E+06,   1.70039E+06,   1.70039E+06
C:/temp/Job-12.odb,Step-1,Increment      1: Step Time =    1.000,"P-12-1",          1013,       41.9043,       171.551,            0.,NA,NA,"",   1.58331E+06,   230.714E+03,   230.714E+03
C:/temp/Job-12.odb,Step-1,Increment      1: Step Time =    1.000,"P-12-1",          1014,       22.4139,       49.8491,            0.,NA,NA,"",   1.45260E+06,  -1.39064E+06,  -1.39064E+06
C:/temp/Job-12.odb,Step-1,Increment      1: Step Time =    1.000,"P-12-1",          1015,       26.6039,       41.5310,            0.,NA,NA,"",   971.830E+03,  -899.053E+03,  -899.053E+03
C:/temp/Job-12.odb,Step-1,Increment      1: Step Time =    1.000,"P-12-1",          1016,       176.185,       159.622,            0.,NA,NA,"",   2.67184E+06,   2.46804E+06,   2.46804E+06
C:/temp/Job-12.odb,Step-1,Increment      1: Step Time =    1.000,"P-12-1",          1017,       13.1461,       56.4289,            0.,NA,NA,"",   1.27340E+06,  -1.19591E+06,  -1.19591E+06
C:/temp/Job-12.odb,Step-1,Increment      1: Step Time =    1.000,"P-12-1",          1018,       23.0087,       39.2008,            0.,NA,NA,"",   576.125E+03,  -124.191E+03,  -124.191E+03
C:/temp/Job-12.odb,Step-1,Increment      1: Step Time =    1.000,"P-12-1",          1019,       181.106,       142.225,            0.,NA,NA,"",   3.13062E+06,   2.49248E+06,   2.49248E+06
C:/temp/Job-12.odb,Step-1,Increment      1: Step Time =    1.000,"P-12-1",          1020,       44.0430,       182.387,            0.,NA,NA,"",   3.65602E+06,   3.43691E+06,   3.43691E+06
C:/temp/Job-12.odb,Step-1,Increment      1: Step Time =    1.000,"P-12-1",          1021,       178.017,       54.0481,            0.,NA,NA,"",   3.04606E+06,   2.50330E+06,   2.50330E+06
C:/temp/Job-12.odb,Step-1,Increment      1: Step Time =    1.000,"P-12-1",          1022,       35.9762,       182.431,            0.,NA,NA,"",   3.63811E+06,   3.53876E+06,   3.53876E+06
C:/temp/Job-12.odb,Step-1,Increment      1: Step Time =    1.000,"P-12-1",          1023,       166.721,       175.845,            0.,NA,NA,"",   2.33939E+06,   2.28240E+06,   2.28240E+06
C:/temp/Job-12.odb,Step-1,Increment      1: Step Time =    1.000,"P-12-1",          1024,       180.285,       163.652,            0.,NA,NA,"",   2.19727E+06,   2.04997E+06,   2.04997E+06
C:/temp/Job-12.odb,Step-1,Increment      1: Step Time =    1.000,"P-12-1",          1025,       179.810,       168.708,            0.,NA,NA,"",   1.97015E+06,   1.87236E+06,   1.87236E+06
C:/temp/Job-12.odb,Step-1,Increment      1: Step Time =    1.000,"P-12-1",          1026,       23.7203,       157.044,            0.,NA,NA,"",   938.421E+03,  -841.000E+03,  -841.000E+03
C:/temp/Job-12.odb,Step-1,Increment      1: Step Time =    1.000,"P-12-1",          1027,       27.7561,       153.839,            0.,NA,NA,"",   1.56077E+06,  -1.55564E+06,  -1.55564E+06
C:/temp/Job-12.odb,Step-1,Increment      1: Step Time =    1.000,"P-12-1",          1028,       32.9322,       174.138,            0.,NA,NA,"",   1.87592E+06,   1.73930E+06,   1.73930E+06
C:/temp/Job-12.odb,Step-1,Increment      1: Step Time =    1.000,"P-12-1",          1029,       20.0888,       36.5815,            0.,NA,NA,"",   472.031E+03,   455.310E+03,   455.310E+03
C:/temp/Job-12.odb,Step-1,Increment      1: Step Time =    1.000,"P-12-1",          1030,       17.1848,       35.2591,            0.,NA,NA,"",   549.842E+03,   622.623E+03,   622.623E+03
C:/temp/Job-12.odb,Step-1,Increment      1: Step Time =    1.000,"P-12-1",          1031,       166.795,       178.877,            0.,NA,NA,"",   2.09193E+06,   2.02279E+06,   2.02279E+06
C:/temp/Job-12.odb,Step-1,Increment      1: Step Time =    1.000,"P-12-1",          1032,       183.069,       53.7401,            0.,NA,NA,"",   3.04143E+06,   2.58484E+06,   2.58484E+06
C:/temp/Job-12.odb,Step-1,Increment      1: Step Time =    1.000,"P-12-1",          1033,       176.653,       44.2031,            0.,NA,NA,"",   2.84772E+06,   2.57152E+06,   2.57152E+06
C:/temp/Job-12.odb,Step-1,Increment      1: Step Time =    1.000,"P-12-1",          1034,       22.0426,       33.0818,            0.,NA,NA,"",   756.641E+03,   787.458E+03,   787.458E+03
C:/temp/Job-12.odb,Step-1,Increment      1: Step Time =    1.000,"P-12-1",          1035,       27.8165,       31.9452,            0.,NA,NA,"",   893.032E+03,   800.877E+03,   800.877E+03
C:/temp/Job-12.odb,Step-1,Increment      1: Step Time =    1.000,"P-12-1",          1036,       24.9990,       173.748,            0.,NA,NA,"",   1.79192E+06,   1.80817E+06,   1.80817E+06
C:/temp/Job-12.odb,Step-1,Increment      1: Step Time =    1.000,"P-12-1",          1037,       28.9533,       20.0860,            0.,NA,NA,"",   3.16534E+06,   3.14683E+06,   3.14683E+06
C:/temp/Job-12.odb,Step-1,Increment      1: Step Time =    1.000,"P-12-1",          1038,       31.1984,       176.949,            0.,NA,NA,"",   2.43493E+06,   2.35649E+06,   2.35649E+06
C:/temp/Job-12.odb,Step-1,Increment      1: Step Time =    1.000,"P-12-1",          1039,       28.0361,       176.256,            0.,NA,NA,"",   2.30150E+06,   2.27247E+06,   2.27247E+06
