ODB Name,Step,Frame,Part Instance Name,    Node Label,X,Y,Z,Section Name,Material Name,Section Point,       S-Mises,S-Max. In-Plane Principal (Abs),S-Max. Principal (Abs)
C:/temp/Job-13.odb,Step-1,Increment      1: Step Time =    1.000,"P-13-1",             1,       85.0404,       196.851,            0.,NA,NA,"",   278.151E+06,  -275.272E+06,  -275.272E+06
C:/temp/Job-13.odb,Step-1,Increment      1: Step Time =    1.000,"P-13-1",             2,       70.4314,       193.433,            0.,NA,NA,"",   160.278E+06,  -160.623E+06,  -160.623E+06
C:/temp/Job-13.odb,Step-1,Increment      1: Step Time =    1.000,"P-13-1",             3,       56.5155,       187.824,            0.,NA,NA,"",   74.5337E+06,  -74.3526E+06,  -74.3526E+06
C:/temp/Job-13.odb,Step-1,Increment      1: Step Time =    1.000,"P-13-1",             4,       43.6188,       180.157,            0.,NA,NA,"",   39.4436E+06,  -39.9384E+06,  -39.9384E+06
C:/temp/Job-13.odb,Step-1,Increment      1: Step Time =    1.000,"P-13-1",             5,       32.0436,       170.611,            0.,NA,NA,"",   25.0612E+06,  -25.2389E+06,  -25.2389E+06
C:/temp/Job-13.odb,Step-1,Increment      1: Step Time =    1.000,"P-13-1",             6,       22.0613,       159.410,            0.,NA,NA,"",   12.9994E+06,  -13.0363E+06,  -13.0363E+06
C:/temp/Job-13.odb,Step-1,Increment      1: Step Time =    1.000,"P-13-1",             7,       13.9058,       146.817,            0.,NA,NA,"",   4.88204E+06,  -4.93289E+06,  -4.93289E+06
C:/temp/Job-13.odb,Step-1,Increment      1: Step Time =    1.000,"P-13-1",             8,       9.58000,       137.792,            0.,NA,NA,"",   2.56117E+06,  -2.57414E+06,  -2.57414E+06
C:/temp/Job-13.odb,Step-1,Increment      1: Step Time =    1.000,"P-13-1",             9,       4.87079,       123.546,            0.,NA,NA,"",   605.236E+03,  -601.978E+03,  -601.978E+03
C:/temp/Job-13.odb,Step-1,Increment      1: Step Time =    1.000,"P-13-1",            10,       2.39132,       108.749,            0.,NA,NA,"",   5.97168E+03,  -5.73281E+03,  -5.73281E+03
C:/temp/Job-13.odb,Step-1,Increment      1: Step Time =    1.000,"P-13-1",            11,       2.19972,       93.7466,            0.,NA,NA,"",   5.27450E+03,   1.40766E+03,   1.40766E+03
C:/temp/Job-13.odb,Step-1,Increment      1: Step Time =    1.000,"P-13-1",            12,       4.30047,       78.8908,            0.,NA,NA,"",   399.350E+03,  -393.209E+03,  -393.209E+03
C:/temp/Job-13.odb,Step-1,Increment      1: Step Time =    1.000,"P-13-1",            13,       8.64434,       64.5297,            0.,NA,NA,"",   2.25607E+06,  -2.25329E+06,  -2.25329E+06
C:/temp/Job-13.odb,Step-1,Increment      1: Step Time =    1.000,"P-13-1",            14,       15.1295,           51.,            0.,NA,NA,"",   5.67648E+06,  -5.76321E+06,  -5.76321E+06
C:/temp/Job-13.odb,Step-1,Increment      1: Step Time =    1.000,"P-13-1",            15,       23.6040,       38.6188,            0.,NA,NA,"",   14.0641E+06,  -13.9081E+06,  -13.9081E+06
C:/temp/Job-13.odb,Step-1,Increment      1: Step Time =    1.000,"P-13-1",            16,       33.8691,       27.6764,            0.,NA,NA,"",   26.1537E+06,  -26.3483E+06,  -26.3483E+06
C:/temp/Job-13.odb,Step-1,Increment      1: Step Time =    1.000,"P-13-1",            17,       45.6843,       18.4292,            0.,NA,NA,"",   42.3807E+06,  -38.3265E+06,  -38.3265E+06
C:/temp/Job-13.odb,Step-1,Increment      1: Step Time =    1.000,"P-13-1",            18,       58.7725,       11.0939,            0.,NA,NA,"",   71.4394E+06,  -21.5255E+06,  -21.5255E+06
C:/temp/Job-13.odb,Step-1,Increment      1: Step Time =    1.000,"P-13-1",            19,       72.8272,       5.84249,            0.,NA,NA,"",   88.2851E+06,  -25.6844E+06,  -25.6844E+06
C:/temp/Job-13.odb,Step-1,Increment      1: Step Time =    1.000,"P-13-1",            20,       87.5187,       2.79806,            0.,NA,NA,"",   76.5592E+06,   19.3920E+06,   19.3920E+06
C:/temp/Job-13.odb,Step-1,Increment      1: Step Time =    1.000,"P-13-1",            21,       102.503,       2.03196,            0.,NA,NA,"",   159.652E+06,  -11.1635E+06,  -11.1635E+06
C:/temp/Job-13.odb,Step-1,Increment      1: Step Time =    1.000,"P-13-1",            22,       112.481,       2.79806,            0.,NA,NA,"",   150.373E+06,  -4.29904E+06,  -4.29904E+06
C:/temp/Job-13.odb,Step-1,Increment      1: Step Time =    1.000,"P-13-1",            23,       127.173,       5.84249,            0.,NA,NA,"",   151.109E+06,   126.575E+06,   126.575E+06
C:/temp/Job-13.odb,Step-1,Increment      1: Step Time =    1.000,"P-13-1",            24,       141.227,       11.0939,            0.,NA,NA,"",   79.9583E+06,   71.6599E+06,   71.6599E+06
C:/temp/Job-13.odb,Step-1,Increment      1: Step Time =    1.000,"P-13-1",            25,       154.316,       18.4292,            0.,NA,NA,"",   37.2902E+06,   36.5817E+06,   36.5817E+06
C:/temp/Job-13.odb,Step-1,Increment      1: Step Time =    1.000,"P-13-1",            26,       166.131,       27.6764,            0.,NA,NA,"",   20.6975E+06,   19.0404E+06,   19.0404E+06
C:/temp/Job-13.odb,Step-1,Increment      1: Step Time =    1.000,"P-13-1",            27,       176.396,       38.6188,            0.,NA,NA,"",   15.5582E+06,   16.0420E+06,   16.0420E+06
C:/temp/Job-13.odb,Step-1,Increment      1: Step Time =    1.000,"P-13-1",            28,       184.870,           51.,            0.,NA,NA,"",   21.6522E+06,   22.1608E+06,   22.1608E+06
C:/temp/Job-13.odb,Step-1,Increment      1: Step Time =    1.000,"P-13-1",            29,       191.356,       64.5297,            0.,NA,NA,"",   25.7313E+06,   27.3821E+06,   27.3821E+06
C:/temp/Job-13.odb,Step-1,Increment      1: Step Time =    1.000,"P-13-1",            30,       195.700,       78.8908,            0.,NA,NA,"",   18.0143E+06,   15.3565E+06,   15.3565E+06
C:/temp/Job-13.odb,Step-1,Increment      1: Step Time =    1.000,"P-13-1",            31,       197.800,       93.7466,            0.,NA,NA,"",   25.5300E+06,   23.9393E+06,   23.9393E+06
C:/temp/Job-13.odb,Step-1,Increment      1: Step Time =    1.000,"P-13-1",            32,       197.609,       108.749,            0.,NA,NA,"",   18.6233E+06,   18.1120E+06,   18.1120E+06
C:/temp/Job-13.odb,Step-1,Increment      1: Step Time =    1.000,"P-13-1",            33,       195.129,       123.546,            0.,NA,NA,"",   12.6379E+06,   10.5730E+06,   10.5730E+06
C:/temp/Job-13.odb,Step-1,Increment      1: Step Time =    1.000,"P-13-1",            34,       190.420,       137.792,            0.,NA,NA,"",   22.7159E+06,   20.4753E+06,   20.4753E+06
C:/temp/Job-13.odb,Step-1,Increment      1: Step Time =    1.000,"P-13-1",            35,       183.591,       151.151,            0.,NA,NA,"",   16.6124E+06,   16.8286E+06,   16.8286E+06
C:/temp/Job-13.odb,Step-1,Increment      1: Step Time =    1.000,"P-13-1",            36,       177.939,       159.410,            0.,NA,NA,"",   15.0732E+06,   15.2746E+06,   15.2746E+06
C:/temp/Job-13.odb,Step-1,Increment      1: Step Time =    1.000,"P-13-1",            37,       167.956,       170.611,            0.,NA,NA,"",   15.8662E+06,   15.5334E+06,   15.5334E+06
C:/temp/Job-13.odb,Step-1,Increment      1: Step Time =    1.000,"P-13-1",            38,       156.381,       180.157,            0.,NA,NA,"",   27.7411E+06,   27.4053E+06,   27.4053E+06
C:/temp/Job-13.odb,Step-1,Increment      1: Step Time =    1.000,"P-13-1",            39,       143.485,       187.824,            0.,NA,NA,"",   57.9626E+06,   53.1903E+06,   53.1903E+06
C:/temp/Job-13.odb,Step-1,Increment      1: Step Time =    1.000,"P-13-1",            40,       129.569,       193.433,            0.,NA,NA,"",   81.7014E+06,   35.4526E+06,   35.4526E+06
C:/temp/Job-13.odb,Step-1,Increment      1: Step Time =    1.000,"P-13-1",            41,       114.960,       196.851,            0.,NA,NA,"",   50.0816E+06,   40.6878E+06,   40.6878E+06
C:/temp/Job-13.odb,Step-1,Increment      1: Step Time =    1.000,"P-13-1",            42,          100.,          198.,            0.,NA,NA,"",   68.5714E+06,   58.8328E+06,   58.8328E+06
C:/temp/Job-13.odb,Step-1,Increment      1: Step Time =    1.000,"P-13-1",            43,          190.,            0.,            0.,NA,NA,"",   1.90657E+06,  -1.05280E+06,  -1.05280E+06
C:/temp/Job-13.odb,Step-1,Increment      1: Step Time =    1.000,"P-13-1",            44,          180.,            0.,            0.,NA,NA,"",   7.42466E+06,  -6.56519E+06,  -6.56519E+06
C:/temp/Job-13.odb,Step-1,Increment      1: Step Time =    1.000,"P-13-1",            45,          170.,            0.,            0.,NA,NA,"",   11.7791E+06,  -11.4425E+06,  -11.4425E+06
C:/temp/Job-13.odb,Step-1,Increment      1: Step Time =    1.000,"P-13-1",            46,          160.,            0.,            0.,NA,NA,"",   19.3933E+06,  -19.6451E+06,  -19.6451E+06
C:/temp/Job-13.odb,Step-1,Increment      1: Step Time =    1.000,"P-13-1",            47,          150.,            0.,            0.,NA,NA,"",   28.2887E+06,  -27.9990E+06,  -27.9990E+06
C:/temp/Job-13.odb,Step-1,Increment      1: Step Time =    1.000,"P-13-1",            48,          140.,            0.,            0.,NA,NA,"",   79.1880E+06,  -66.1599E+06,  -66.1599E+06
C:/temp/Job-13.odb,Step-1,Increment      1: Step Time =    1.000,"P-13-1",            49,          130.,            0.,            0.,NA,NA,"",   218.562E+06,  -203.069E+06,  -203.069E+06
C:/temp/Job-13.odb,Step-1,Increment      1: Step Time =    1.000,"P-13-1",            50,          120.,            0.,            0.,NA,NA,"",   144.326E+06,  -514.904E+03,  -514.904E+03
C:/temp/Job-13.odb,Step-1,Increment      1: Step Time =    1.000,"P-13-1",            51,          110.,            0.,            0.,NA,NA,"",   169.835E+06,   15.5008E+06,   15.5008E+06
C:/temp/Job-13.odb,Step-1,Increment      1: Step Time =    1.000,"P-13-1",            52,          100.,            0.,            0.,NA,NA,"",   155.332E+06,  -107.834E+06,  -107.834E+06
C:/temp/Job-13.odb,Step-1,Increment      1: Step Time =    1.000,"P-13-1",            53,           90.,            0.,            0.,NA,NA,"",   89.8179E+06,   32.1001E+06,   32.1001E+06
C:/temp/Job-13.odb,Step-1,Increment      1: Step Time =    1.000,"P-13-1",            54,           80.,            0.,            0.,NA,NA,"",   73.7498E+06,   19.1610E+06,   19.1610E+06
C:/temp/Job-13.odb,Step-1,Increment      1: Step Time =    1.000,"P-13-1",            55,           70.,            0.,            0.,NA,NA,"",   123.904E+06,   54.2179E+06,   54.2179E+06
C:/temp/Job-13.odb,Step-1,Increment      1: Step Time =    1.000,"P-13-1",            56,           60.,            0.,            0.,NA,NA,"",   109.024E+06,   88.6451E+06,   88.6451E+06
C:/temp/Job-13.odb,Step-1,Increment      1: Step Time =    1.000,"P-13-1",            57,           50.,            0.,            0.,NA,NA,"",   60.5737E+06,   58.8115E+06,   58.8115E+06
C:/temp/Job-13.odb,Step-1,Increment      1: Step Time =    1.000,"P-13-1",            58,           40.,            0.,            0.,NA,NA,"",   48.4331E+06,   48.1608E+06,   48.1608E+06
C:/temp/Job-13.odb,Step-1,Increment      1: Step Time =    1.000,"P-13-1",            59,           30.,            0.,            0.,NA,NA,"",   34.5776E+06,   34.9968E+06,   34.9968E+06
C:/temp/Job-13.odb,Step-1,Increment      1: Step Time =    1.000,"P-13-1",            60,           20.,            0.,            0.,NA,NA,"",   26.2055E+06,   26.5151E+06,   26.5151E+06
C:/temp/Job-13.odb,Step-1,Increment      1: Step Time =    1.000,"P-13-1",            61,           10.,            0.,            0.,NA,NA,"",   21.4258E+06,   21.3892E+06,   21.3892E+06
C:/temp/Job-13.odb,Step-1,Increment      1: Step Time =    1.000,"P-13-1",            62,          200.,            0.,            0.,NA,NA,"",   1.22582E+06,   732.558E+03,   732.558E+03
C:/temp/Job-13.odb,Step-1,Increment      1: Step Time =    1.000,"P-13-1",            63,            0.,            0.,            0.,NA,NA,"",   19.5215E+06,   20.1272E+06,   20.1272E+06
C:/temp/Job-13.odb,Step-1,Increment      1: Step Time =    1.000,"P-13-1",            64,          200.,          190.,            0.,NA,NA,"",   2.57015E+06,  -1.90514E+06,  -1.90514E+06
C:/temp/Job-13.odb,Step-1,Increment      1: Step Time =    1.000,"P-13-1",            65,          200.,          180.,            0.,NA,NA,"",   5.96972E+06,  -5.27419E+06,  -5.27419E+06
C:/temp/Job-13.odb,Step-1,Increment      1: Step Time =    1.000,"P-13-1",            66,          200.,          170.,            0.,NA,NA,"",   8.46368E+06,  -7.87579E+06,  -7.87579E+06
C:/temp/Job-13.odb,Step-1,Increment      1: Step Time =    1.000,"P-13-1",            67,          200.,          160.,            0.,NA,NA,"",   9.85537E+06,  -9.35949E+06,  -9.35949E+06
C:/temp/Job-13.odb,Step-1,Increment      1: Step Time =    1.000,"P-13-1",            68,          200.,          150.,            0.,NA,NA,"",   11.6275E+06,  -10.9542E+06,  -10.9542E+06
C:/temp/Job-13.odb,Step-1,Increment      1: Step Time =    1.000,"P-13-1",            69,          200.,          140.,            0.,NA,NA,"",   8.12553E+06,  -7.30094E+06,  -7.30094E+06
C:/temp/Job-13.odb,Step-1,Increment      1: Step Time =    1.000,"P-13-1",            70,          200.,          130.,            0.,NA,NA,"",   13.5735E+06,   5.74674E+06,   5.74674E+06
C:/temp/Job-13.odb,Step-1,Increment      1: Step Time =    1.000,"P-13-1",            71,          200.,          120.,            0.,NA,NA,"",   14.0795E+06,   12.5720E+06,   12.5720E+06
C:/temp/Job-13.odb,Step-1,Increment      1: Step Time =    1.000,"P-13-1",            72,          200.,          110.,            0.,NA,NA,"",   18.6233E+06,   18.1120E+06,   18.1120E+06
C:/temp/Job-13.odb,Step-1,Increment      1: Step Time =    1.000,"P-13-1",            73,          200.,          100.,            0.,NA,NA,"",   25.4237E+06,   24.2142E+06,   24.2142E+06
C:/temp/Job-13.odb,Step-1,Increment      1: Step Time =    1.000,"P-13-1",            74,          200.,           90.,            0.,NA,NA,"",   23.5898E+06,   21.4344E+06,   21.4344E+06
C:/temp/Job-13.odb,Step-1,Increment      1: Step Time =    1.000,"P-13-1",            75,          200.,           80.,            0.,NA,NA,"",   18.0143E+06,   15.3565E+06,   15.3565E+06
C:/temp/Job-13.odb,Step-1,Increment      1: Step Time =    1.000,"P-13-1",            76,          200.,           70.,            0.,NA,NA,"",   14.4743E+06,   595.147E+03,   595.147E+03
C:/temp/Job-13.odb,Step-1,Increment      1: Step Time =    1.000,"P-13-1",            77,          200.,           60.,            0.,NA,NA,"",   25.0595E+06,  -20.3389E+06,  -20.3389E+06
C:/temp/Job-13.odb,Step-1,Increment      1: Step Time =    1.000,"P-13-1",            78,          200.,           50.,            0.,NA,NA,"",   14.0044E+06,  -13.2778E+06,  -13.2778E+06
C:/temp/Job-13.odb,Step-1,Increment      1: Step Time =    1.000,"P-13-1",            79,          200.,           40.,            0.,NA,NA,"",   11.9810E+06,  -11.4064E+06,  -11.4064E+06
C:/temp/Job-13.odb,Step-1,Increment      1: Step Time =    1.000,"P-13-1",            80,          200.,           30.,            0.,NA,NA,"",   10.9565E+06,  -9.97267E+06,  -9.97267E+06
C:/temp/Job-13.odb,Step-1,Increment      1: Step Time =    1.000,"P-13-1",            81,          200.,           20.,            0.,NA,NA,"",   7.46743E+06,  -6.38967E+06,  -6.38967E+06
C:/temp/Job-13.odb,Step-1,Increment      1: Step Time =    1.000,"P-13-1",            82,          200.,           10.,            0.,NA,NA,"",   3.03183E+06,  -1.00876E+06,  -1.00876E+06
C:/temp/Job-13.odb,Step-1,Increment      1: Step Time =    1.000,"P-13-1",            83,          200.,          200.,            0.,NA,NA,"",   1.00857E+06,   817.219E+03,   817.219E+03
C:/temp/Job-13.odb,Step-1,Increment      1: Step Time =    1.000,"P-13-1",            84,           10.,          200.,            0.,NA,NA,"",   22.2246E+06,   22.1719E+06,   22.1719E+06
C:/temp/Job-13.odb,Step-1,Increment      1: Step Time =    1.000,"P-13-1",            85,           20.,          200.,            0.,NA,NA,"",   27.6183E+06,   27.6542E+06,   27.6542E+06
C:/temp/Job-13.odb,Step-1,Increment      1: Step Time =    1.000,"P-13-1",            86,           30.,          200.,            0.,NA,NA,"",   36.7420E+06,   36.7648E+06,   36.7648E+06
C:/temp/Job-13.odb,Step-1,Increment      1: Step Time =    1.000,"P-13-1",            87,           40.,          200.,            0.,NA,NA,"",   51.4412E+06,   51.6833E+06,   51.6833E+06
C:/temp/Job-13.odb,Step-1,Increment      1: Step Time =    1.000,"P-13-1",            88,           50.,          200.,            0.,NA,NA,"",   75.0302E+06,   74.4742E+06,   74.4742E+06
C:/temp/Job-13.odb,Step-1,Increment      1: Step Time =    1.000,"P-13-1",            89,           60.,          200.,            0.,NA,NA,"",   102.602E+06,   104.166E+06,   104.166E+06
C:/temp/Job-13.odb,Step-1,Increment      1: Step Time =    1.000,"P-13-1",            90,           70.,          200.,            0.,NA,NA,"",   178.209E+06,   177.778E+06,   177.778E+06
C:/temp/Job-13.odb,Step-1,Increment      1: Step Time =    1.000,"P-13-1",            91,           80.,          200.,            0.,NA,NA,"",   313.240E+06,   312.867E+06,   312.867E+06
C:/temp/Job-13.odb,Step-1,Increment      1: Step Time =    1.000,"P-13-1",            92,           90.,          200.,            0.,NA,NA,"",   357.297E+06,   183.876E+06,   183.876E+06
C:/temp/Job-13.odb,Step-1,Increment      1: Step Time =    1.000,"P-13-1",            93,          100.,          200.,            0.,NA,NA,"",   68.5714E+06,   58.8328E+06,   58.8328E+06
C:/temp/Job-13.odb,Step-1,Increment      1: Step Time =    1.000,"P-13-1",            94,          110.,          200.,            0.,NA,NA,"",   57.4627E+06,   48.3817E+06,   48.3817E+06
C:/temp/Job-13.odb,Step-1,Increment      1: Step Time =    1.000,"P-13-1",            95,          120.,          200.,            0.,NA,NA,"",   42.4370E+06,   5.50404E+06,   5.50404E+06
C:/temp/Job-13.odb,Step-1,Increment      1: Step Time =    1.000,"P-13-1",            96,          130.,          200.,            0.,NA,NA,"",   49.7697E+06,  -21.0255E+06,  -21.0255E+06
C:/temp/Job-13.odb,Step-1,Increment      1: Step Time =    1.000,"P-13-1",            97,          140.,          200.,            0.,NA,NA,"",   65.1190E+06,  -26.3557E+06,  -26.3557E+06
C:/temp/Job-13.odb,Step-1,Increment      1: Step Time =    1.000,"P-13-1",            98,          150.,          200.,            0.,NA,NA,"",   28.9030E+06,  -26.5933E+06,  -26.5933E+06
C:/temp/Job-13.odb,Step-1,Increment      1: Step Time =    1.000,"P-13-1",            99,          160.,          200.,            0.,NA,NA,"",   16.3342E+06,  -15.8372E+06,  -15.8372E+06
C:/temp/Job-13.odb,Step-1,Increment      1: Step Time =    1.000,"P-13-1",           100,          170.,          200.,            0.,NA,NA,"",   10.3345E+06,  -9.97719E+06,  -9.97719E+06
C:/temp/Job-13.odb,Step-1,Increment      1: Step Time =    1.000,"P-13-1",           101,          180.,          200.,            0.,NA,NA,"",   5.25562E+06,  -5.15997E+06,  -5.15997E+06
C:/temp/Job-13.odb,Step-1,Increment      1: Step Time =    1.000,"P-13-1",           102,          190.,          200.,            0.,NA,NA,"",   1.75037E+06,  -1.52396E+06,  -1.52396E+06
C:/temp/Job-13.odb,Step-1,Increment      1: Step Time =    1.000,"P-13-1",           103,            0.,          200.,            0.,NA,NA,"",     19.88E+06,   20.7425E+06,   20.7425E+06
C:/temp/Job-13.odb,Step-1,Increment      1: Step Time =    1.000,"P-13-1",           104,            0.,           10.,            0.,NA,NA,"",   11.3847E+06,   12.4719E+06,   12.4719E+06
C:/temp/Job-13.odb,Step-1,Increment      1: Step Time =    1.000,"P-13-1",           105,            0.,           20.,            0.,NA,NA,"",   3.55045E+06,   3.48003E+06,   3.48003E+06
C:/temp/Job-13.odb,Step-1,Increment      1: Step Time =    1.000,"P-13-1",           106,            0.,           30.,            0.,NA,NA,"",   4.05295E+06,  -4.19135E+06,  -4.19135E+06
C:/temp/Job-13.odb,Step-1,Increment      1: Step Time =    1.000,"P-13-1",           107,            0.,           40.,            0.,NA,NA,"",   5.97314E+06,  -6.09918E+06,  -6.09918E+06
C:/temp/Job-13.odb,Step-1,Increment      1: Step Time =    1.000,"P-13-1",           108,            0.,           50.,            0.,NA,NA,"",   5.07101E+06,  -4.95413E+06,  -4.95413E+06
C:/temp/Job-13.odb,Step-1,Increment      1: Step Time =    1.000,"P-13-1",           109,            0.,           60.,            0.,NA,NA,"",   2.75902E+06,  -2.58097E+06,  -2.58097E+06
C:/temp/Job-13.odb,Step-1,Increment      1: Step Time =    1.000,"P-13-1",           110,            0.,           70.,            0.,NA,NA,"",   1.15233E+06,  -1.05103E+06,  -1.05103E+06
C:/temp/Job-13.odb,Step-1,Increment      1: Step Time =    1.000,"P-13-1",           111,            0.,           80.,            0.,NA,NA,"",   309.042E+03,  -283.976E+03,  -283.976E+03
C:/temp/Job-13.odb,Step-1,Increment      1: Step Time =    1.000,"P-13-1",           112,            0.,           90.,            0.,NA,NA,"",   24.1206E+03,  -17.6160E+03,  -17.6160E+03
C:/temp/Job-13.odb,Step-1,Increment      1: Step Time =    1.000,"P-13-1",           113,            0.,          100.,            0.,NA,NA,"",   3.02973E+03,      -869.148,      -869.148
C:/temp/Job-13.odb,Step-1,Increment      1: Step Time =    1.000,"P-13-1",           114,            0.,          110.,            0.,NA,NA,"",   5.97168E+03,  -5.73281E+03,  -5.73281E+03
C:/temp/Job-13.odb,Step-1,Increment      1: Step Time =    1.000,"P-13-1",           115,            0.,          120.,            0.,NA,NA,"",   214.004E+03,  -214.742E+03,  -214.742E+03
C:/temp/Job-13.odb,Step-1,Increment      1: Step Time =    1.000,"P-13-1",           116,            0.,          130.,            0.,NA,NA,"",   1.32076E+06,  -1.24171E+06,  -1.24171E+06
C:/temp/Job-13.odb,Step-1,Increment      1: Step Time =    1.000,"P-13-1",           117,            0.,          140.,            0.,NA,NA,"",   3.10521E+06,  -2.90907E+06,  -2.90907E+06
C:/temp/Job-13.odb,Step-1,Increment      1: Step Time =    1.000,"P-13-1",           118,            0.,          150.,            0.,NA,NA,"",   5.46585E+06,  -5.34118E+06,  -5.34118E+06
C:/temp/Job-13.odb,Step-1,Increment      1: Step Time =    1.000,"P-13-1",           119,            0.,          160.,            0.,NA,NA,"",   6.27796E+06,  -6.45409E+06,  -6.45409E+06
C:/temp/Job-13.odb,Step-1,Increment      1: Step Time =    1.000,"P-13-1",           120,            0.,          170.,            0.,NA,NA,"",   4.41040E+06,  -4.47102E+06,  -4.47102E+06
C:/temp/Job-13.odb,Step-1,Increment      1: Step Time =    1.000,"P-13-1",           121,            0.,          180.,            0.,NA,NA,"",   3.73240E+06,   3.66449E+06,   3.66449E+06
C:/temp/Job-13.odb,Step-1,Increment      1: Step Time =    1.000,"P-13-1",           122,            0.,          190.,            0.,NA,NA,"",   11.7251E+06,   12.8172E+06,   12.8172E+06
C:/temp/Job-13.odb,Step-1,Increment      1: Step Time =    1.000,"P-13-1",           123,       9.99627,       189.947,            0.,NA,NA,"",   13.4427E+06,   13.7998E+06,   13.7998E+06
C:/temp/Job-13.odb,Step-1,Increment      1: Step Time =    1.000,"P-13-1",           124,       19.8115,       190.186,            0.,NA,NA,"",   14.7827E+06,   14.8088E+06,   14.8088E+06
C:/temp/Job-13.odb,Step-1,Increment      1: Step Time =    1.000,"P-13-1",           125,       31.3067,       189.697,            0.,NA,NA,"",   15.1752E+06,   12.5185E+06,   12.5185E+06
C:/temp/Job-13.odb,Step-1,Increment      1: Step Time =    1.000,"P-13-1",           126,       40.2293,       190.438,            0.,NA,NA,"",   18.2987E+06,   8.77685E+06,   8.77685E+06
C:/temp/Job-13.odb,Step-1,Increment      1: Step Time =    1.000,"P-13-1",           127,       49.0576,       190.217,            0.,NA,NA,"",   32.1406E+06,  -17.8107E+06,  -17.8107E+06
C:/temp/Job-13.odb,Step-1,Increment      1: Step Time =    1.000,"P-13-1",           128,       150.131,       188.425,            0.,NA,NA,"",   32.0944E+06,   30.7616E+06,   30.7616E+06
C:/temp/Job-13.odb,Step-1,Increment      1: Step Time =    1.000,"P-13-1",           129,       157.061,       189.989,            0.,NA,NA,"",   17.4667E+06,   11.6978E+06,   11.6978E+06
C:/temp/Job-13.odb,Step-1,Increment      1: Step Time =    1.000,"P-13-1",           130,       170.874,       191.709,            0.,NA,NA,"",   5.16854E+06,  -2.75117E+06,  -2.75117E+06
C:/temp/Job-13.odb,Step-1,Increment      1: Step Time =    1.000,"P-13-1",           131,       179.313,       191.969,            0.,NA,NA,"",   5.03474E+06,  -542.699E+03,  -542.699E+03
C:/temp/Job-13.odb,Step-1,Increment      1: Step Time =    1.000,"P-13-1",           132,       188.728,       189.119,            0.,NA,NA,"",   4.35750E+06,  -1.66686E+06,  -1.66686E+06
C:/temp/Job-13.odb,Step-1,Increment      1: Step Time =    1.000,"P-13-1",           133,       167.706,       180.464,            0.,NA,NA,"",   17.3393E+06,   16.5155E+06,   16.5155E+06
C:/temp/Job-13.odb,Step-1,Increment      1: Step Time =    1.000,"P-13-1",           134,       180.363,       177.797,            0.,NA,NA,"",   4.07770E+06,   4.44923E+06,   4.44923E+06
C:/temp/Job-13.odb,Step-1,Increment      1: Step Time =    1.000,"P-13-1",           135,       190.995,       179.278,            0.,NA,NA,"",   4.74641E+06,  -1.62909E+06,  -1.62909E+06
C:/temp/Job-13.odb,Step-1,Increment      1: Step Time =    1.000,"P-13-1",           136,       181.813,       170.661,            0.,NA,NA,"",   5.30114E+06,   5.87938E+06,   5.87938E+06
C:/temp/Job-13.odb,Step-1,Increment      1: Step Time =    1.000,"P-13-1",           137,       189.502,       168.831,            0.,NA,NA,"",   3.26064E+06,   312.319E+03,   312.319E+03
C:/temp/Job-13.odb,Step-1,Increment      1: Step Time =    1.000,"P-13-1",           138,       191.373,       158.288,            0.,NA,NA,"",   3.51262E+06,   2.04598E+06,   2.04598E+06
C:/temp/Job-13.odb,Step-1,Increment      1: Step Time =    1.000,"P-13-1",           139,       189.444,       41.8786,            0.,NA,NA,"",   7.77212E+06,   6.06829E+06,   6.06829E+06
C:/temp/Job-13.odb,Step-1,Increment      1: Step Time =    1.000,"P-13-1",           140,       191.060,       52.9100,            0.,NA,NA,"",   14.5753E+06,   13.9456E+06,   13.9456E+06
C:/temp/Job-13.odb,Step-1,Increment      1: Step Time =    1.000,"P-13-1",           141,       181.219,       34.3658,            0.,NA,NA,"",   10.8004E+06,   11.1626E+06,   11.1626E+06
C:/temp/Job-13.odb,Step-1,Increment      1: Step Time =    1.000,"P-13-1",           142,       191.373,       30.2022,            0.,NA,NA,"",   5.45499E+06,  -1.11397E+06,  -1.11397E+06
C:/temp/Job-13.odb,Step-1,Increment      1: Step Time =    1.000,"P-13-1",           143,       168.909,       24.0004,            0.,NA,NA,"",   18.7371E+06,   17.2553E+06,   17.2553E+06
C:/temp/Job-13.odb,Step-1,Increment      1: Step Time =    1.000,"P-13-1",           144,       182.409,       21.9795,            0.,NA,NA,"",   14.4820E+06,  -397.864E+03,  -397.864E+03
C:/temp/Job-13.odb,Step-1,Increment      1: Step Time =    1.000,"P-13-1",           145,       190.405,       20.3354,            0.,NA,NA,"",   7.06502E+06,  -2.04619E+06,  -2.04619E+06
C:/temp/Job-13.odb,Step-1,Increment      1: Step Time =    1.000,"P-13-1",           146,       160.304,       10.3067,            0.,NA,NA,"",   15.7716E+06,  -256.115E+03,  -256.115E+03
C:/temp/Job-13.odb,Step-1,Increment      1: Step Time =    1.000,"P-13-1",           147,       170.094,       9.27692,            0.,NA,NA,"",   10.1439E+06,   985.785E+03,   985.785E+03
C:/temp/Job-13.odb,Step-1,Increment      1: Step Time =    1.000,"P-13-1",           148,       179.695,       10.6565,            0.,NA,NA,"",   6.59152E+06,  -3.87023E+06,  -3.87023E+06
C:/temp/Job-13.odb,Step-1,Increment      1: Step Time =    1.000,"P-13-1",           149,       189.932,       10.2708,            0.,NA,NA,"",   5.38984E+06,  -1.47104E+06,  -1.47104E+06
C:/temp/Job-13.odb,Step-1,Increment      1: Step Time =    1.000,"P-13-1",           150,       42.2632,       13.1610,            0.,NA,NA,"",   65.4031E+06,  -28.4438E+06,  -28.4438E+06
C:/temp/Job-13.odb,Step-1,Increment      1: Step Time =    1.000,"P-13-1",           151,       34.9836,       9.63863,            0.,NA,NA,"",   14.8913E+06,   11.2489E+06,   11.2489E+06
C:/temp/Job-13.odb,Step-1,Increment      1: Step Time =    1.000,"P-13-1",           152,       24.5729,       10.0025,            0.,NA,NA,"",   14.6604E+06,   14.4720E+06,   14.4720E+06
C:/temp/Job-13.odb,Step-1,Increment      1: Step Time =    1.000,"P-13-1",           153,       10.1266,       10.0705,            0.,NA,NA,"",   13.1035E+06,   13.5001E+06,   13.5001E+06
C:/temp/Job-13.odb,Step-1,Increment      1: Step Time =    1.000,"P-13-1",           154,       31.2559,       24.0193,            0.,NA,NA,"",   20.5588E+06,  -20.3990E+06,  -20.3990E+06
C:/temp/Job-13.odb,Step-1,Increment      1: Step Time =    1.000,"P-13-1",           155,       21.4275,       21.0608,            0.,NA,NA,"",   5.86654E+06,  -3.92269E+06,  -3.92269E+06
C:/temp/Job-13.odb,Step-1,Increment      1: Step Time =    1.000,"P-13-1",           156,       11.1216,       21.4863,            0.,NA,NA,"",   4.38734E+06,   317.322E+03,   317.322E+03
C:/temp/Job-13.odb,Step-1,Increment      1: Step Time =    1.000,"P-13-1",           157,       19.8881,       34.3101,            0.,NA,NA,"",   12.3054E+06,  -12.1509E+06,  -12.1509E+06
C:/temp/Job-13.odb,Step-1,Increment      1: Step Time =    1.000,"P-13-1",           158,       8.92397,       31.6895,            0.,NA,NA,"",   6.67087E+06,  -6.06686E+06,  -6.06686E+06
C:/temp/Job-13.odb,Step-1,Increment      1: Step Time =    1.000,"P-13-1",           159,       9.56881,       39.9470,            0.,NA,NA,"",   7.43918E+06,  -7.25671E+06,  -7.25671E+06
C:/temp/Job-13.odb,Step-1,Increment      1: Step Time =    1.000,"P-13-1",           160,       8.83045,       51.5393,            0.,NA,NA,"",   4.64017E+06,  -4.64087E+06,  -4.64087E+06
C:/temp/Job-13.odb,Step-1,Increment      1: Step Time =    1.000,"P-13-1",           161,       8.33795,       154.652,            0.,NA,NA,"",   6.70109E+06,  -6.69526E+06,  -6.69526E+06
C:/temp/Job-13.odb,Step-1,Increment      1: Step Time =    1.000,"P-13-1",           162,       20.2216,       169.902,            0.,NA,NA,"",   12.1397E+06,  -11.8407E+06,  -11.8407E+06
C:/temp/Job-13.odb,Step-1,Increment      1: Step Time =    1.000,"P-13-1",           163,       8.46982,       169.836,            0.,NA,NA,"",   6.98326E+06,  -6.31175E+06,  -6.31175E+06
C:/temp/Job-13.odb,Step-1,Increment      1: Step Time =    1.000,"P-13-1",           164,       30.3276,       179.183,            0.,NA,NA,"",   14.0639E+06,  -14.2579E+06,  -14.2579E+06
C:/temp/Job-13.odb,Step-1,Increment      1: Step Time =    1.000,"P-13-1",           165,       20.5397,       176.065,            0.,NA,NA,"",   8.72822E+06,  -7.96067E+06,  -7.96067E+06
C:/temp/Job-13.odb,Step-1,Increment      1: Step Time =    1.000,"P-13-1",           166,       9.85918,       179.492,            0.,NA,NA,"",   4.02368E+06,   1.94970E+06,   1.94970E+06
C:/temp/Job-13.odb,Step-1,Increment      1: Step Time =    1.000,"P-13-1",           167,       94.9961,       197.872,            0.,NA,NA,"",   66.0289E+06,   55.7907E+06,   55.7907E+06
C:/temp/Job-13.odb,Step-1,Increment      1: Step Time =    1.000,"P-13-1",           168,       90.0052,       197.489,            0.,NA,NA,"",   163.032E+06,  -97.2943E+06,  -97.2943E+06
C:/temp/Job-13.odb,Step-1,Increment      1: Step Time =    1.000,"P-13-1",           169,       80.1146,       195.961,            0.,NA,NA,"",   275.654E+06,  -275.879E+06,  -275.879E+06
C:/temp/Job-13.odb,Step-1,Increment      1: Step Time =    1.000,"P-13-1",           170,       75.2407,       194.821,            0.,NA,NA,"",   212.757E+06,  -213.653E+06,  -213.653E+06
C:/temp/Job-13.odb,Step-1,Increment      1: Step Time =    1.000,"P-13-1",           171,       65.6992,       191.801,            0.,NA,NA,"",   119.637E+06,  -120.131E+06,  -120.131E+06
C:/temp/Job-13.odb,Step-1,Increment      1: Step Time =    1.000,"P-13-1",           172,       61.0565,       189.930,            0.,NA,NA,"",   91.8891E+06,  -93.3012E+06,  -93.3012E+06
C:/temp/Job-13.odb,Step-1,Increment      1: Step Time =    1.000,"P-13-1",           173,       52.0878,       185.489,            0.,NA,NA,"",   56.7413E+06,  -58.1126E+06,  -58.1126E+06
C:/temp/Job-13.odb,Step-1,Increment      1: Step Time =    1.000,"P-13-1",           174,       47.7852,       182.931,            0.,NA,NA,"",   46.3293E+06,  -47.1194E+06,  -47.1194E+06
C:/temp/Job-13.odb,Step-1,Increment      1: Step Time =    1.000,"P-13-1",           175,       39.5994,       177.174,            0.,NA,NA,"",   34.2726E+06,  -34.5661E+06,  -34.5661E+06
C:/temp/Job-13.odb,Step-1,Increment      1: Step Time =    1.000,"P-13-1",           176,       35.7377,       173.989,            0.,NA,NA,"",   29.4690E+06,  -29.7311E+06,  -29.7311E+06
C:/temp/Job-13.odb,Step-1,Increment      1: Step Time =    1.000,"P-13-1",           177,       28.5268,       167.049,            0.,NA,NA,"",   20.9732E+06,  -21.1097E+06,  -21.1097E+06
C:/temp/Job-13.odb,Step-1,Increment      1: Step Time =    1.000,"P-13-1",           178,       25.1965,       163.312,            0.,NA,NA,"",   16.9642E+06,  -16.9967E+06,  -16.9967E+06
C:/temp/Job-13.odb,Step-1,Increment      1: Step Time =    1.000,"P-13-1",           179,       19.1294,       155.353,            0.,NA,NA,"",   9.67951E+06,  -9.74421E+06,  -9.74421E+06
C:/temp/Job-13.odb,Step-1,Increment      1: Step Time =    1.000,"P-13-1",           180,       16.4086,       151.151,            0.,NA,NA,"",   6.89388E+06,  -7.03587E+06,  -7.03587E+06
C:/temp/Job-13.odb,Step-1,Increment      1: Step Time =    1.000,"P-13-1",           181,       11.6276,       142.359,            0.,NA,NA,"",   3.55712E+06,  -3.58649E+06,  -3.58649E+06
C:/temp/Job-13.odb,Step-1,Increment      1: Step Time =    1.000,"P-13-1",           182,       7.76828,       133.126,            0.,NA,NA,"",   1.79121E+06,  -1.76784E+06,  -1.76784E+06
C:/temp/Job-13.odb,Step-1,Increment      1: Step Time =    1.000,"P-13-1",           183,       6.19717,       128.373,            0.,NA,NA,"",   1.11997E+06,  -1.08616E+06,  -1.08616E+06
C:/temp/Job-13.odb,Step-1,Increment      1: Step Time =    1.000,"P-13-1",           184,       3.79258,       118.658,            0.,NA,NA,"",   214.004E+03,  -214.742E+03,  -214.742E+03
C:/temp/Job-13.odb,Step-1,Increment      1: Step Time =    1.000,"P-13-1",           185,       2.96538,       113.722,            0.,NA,NA,"",   46.3301E+03,  -45.9691E+03,  -45.9691E+03
C:/temp/Job-13.odb,Step-1,Increment      1: Step Time =    1.000,"P-13-1",           186,       2.07191,       103.754,            0.,NA,NA,"",   1.86095E+03,       521.023,       521.023
C:/temp/Job-13.odb,Step-1,Increment      1: Step Time =    1.000,"P-13-1",           187,       2.00799,       98.7485,            0.,NA,NA,"",   3.02973E+03,      -869.148,      -869.148
C:/temp/Job-13.odb,Step-1,Increment      1: Step Time =    1.000,"P-13-1",           188,       2.64660,       88.7610,            0.,NA,NA,"",   24.1206E+03,  -17.6160E+03,  -17.6160E+03
C:/temp/Job-13.odb,Step-1,Increment      1: Step Time =    1.000,"P-13-1",           189,       3.34746,       83.8048,            0.,NA,NA,"",   93.1328E+03,  -92.3402E+03,  -92.3402E+03
C:/temp/Job-13.odb,Step-1,Increment      1: Step Time =    1.000,"P-13-1",           190,       5.50316,       74.0318,            0.,NA,NA,"",   862.097E+03,  -856.025E+03,  -856.025E+03
C:/temp/Job-13.odb,Step-1,Increment      1: Step Time =    1.000,"P-13-1",           191,       6.95237,       69.2406,            0.,NA,NA,"",   1.44161E+06,  -1.46154E+06,  -1.46154E+06
C:/temp/Job-13.odb,Step-1,Increment      1: Step Time =    1.000,"P-13-1",           192,       10.5746,       59.9113,            0.,NA,NA,"",   3.04813E+06,  -3.10932E+06,  -3.10932E+06
C:/temp/Job-13.odb,Step-1,Increment      1: Step Time =    1.000,"P-13-1",           193,       12.7382,       55.3975,            0.,NA,NA,"",   4.21812E+06,  -4.16713E+06,  -4.16713E+06
C:/temp/Job-13.odb,Step-1,Increment      1: Step Time =    1.000,"P-13-1",           194,       17.7422,       46.7304,            0.,NA,NA,"",   8.01480E+06,  -7.93746E+06,  -7.93746E+06
C:/temp/Job-13.odb,Step-1,Increment      1: Step Time =    1.000,"P-13-1",           195,       20.5695,       42.5997,            0.,NA,NA,"",   10.5264E+06,  -10.6512E+06,  -10.6512E+06
C:/temp/Job-13.odb,Step-1,Increment      1: Step Time =    1.000,"P-13-1",           196,       26.8378,       34.7981,            0.,NA,NA,"",   17.5758E+06,  -17.6204E+06,  -17.6204E+06
C:/temp/Job-13.odb,Step-1,Increment      1: Step Time =    1.000,"P-13-1",           197,       30.2625,       31.1474,            0.,NA,NA,"",   21.7268E+06,  -21.7700E+06,  -21.7700E+06
C:/temp/Job-13.odb,Step-1,Increment      1: Step Time =    1.000,"P-13-1",           198,       37.6482,       24.3941,            0.,NA,NA,"",   30.8137E+06,  -30.2726E+06,  -30.2726E+06
C:/temp/Job-13.odb,Step-1,Increment      1: Step Time =    1.000,"P-13-1",           199,       41.5901,       21.3090,            0.,NA,NA,"",   34.4849E+06,  -35.0363E+06,  -35.0363E+06
C:/temp/Job-13.odb,Step-1,Increment      1: Step Time =    1.000,"P-13-1",           200,       49.9202,       15.7622,            0.,NA,NA,"",   43.0990E+06,  -39.9312E+06,  -39.9312E+06
C:/temp/Job-13.odb,Step-1,Increment      1: Step Time =    1.000,"P-13-1",           201,       54.2867,       13.3150,            0.,NA,NA,"",   52.6846E+06,    17.992E+03,    17.992E+03
C:/temp/Job-13.odb,Step-1,Increment      1: Step Time =    1.000,"P-13-1",           202,       63.3659,       9.10476,            0.,NA,NA,"",   142.181E+06,   19.1604E+06,   19.1604E+06
C:/temp/Job-13.odb,Step-1,Increment      1: Step Time =    1.000,"P-13-1",           203,       68.0549,       7.35277,            0.,NA,NA,"",   159.059E+06,   -34.472E+03,   -34.472E+03
C:/temp/Job-13.odb,Step-1,Increment      1: Step Time =    1.000,"P-13-1",           204,       77.6704,       4.57785,            0.,NA,NA,"",   64.2925E+06,   10.6031E+06,   10.6031E+06
C:/temp/Job-13.odb,Step-1,Increment      1: Step Time =    1.000,"P-13-1",           205,       82.5718,       3.56216,            0.,NA,NA,"",   73.7498E+06,   19.1610E+06,   19.1610E+06
C:/temp/Job-13.odb,Step-1,Increment      1: Step Time =    1.000,"P-13-1",           206,       92.4982,       2.28755,            0.,NA,NA,"",   89.8179E+06,   32.1001E+06,   32.1001E+06
C:/temp/Job-13.odb,Step-1,Increment      1: Step Time =    1.000,"P-13-1",           207,       97.4972,       2.03196,            0.,NA,NA,"",   91.7552E+06,   31.9147E+06,   31.9147E+06
C:/temp/Job-13.odb,Step-1,Increment      1: Step Time =    1.000,"P-13-1",           208,       107.502,       2.28755,            0.,NA,NA,"",   169.835E+06,   15.5008E+06,   15.5008E+06
C:/temp/Job-13.odb,Step-1,Increment      1: Step Time =    1.000,"P-13-1",           209,       117.428,       3.56216,            0.,NA,NA,"",   144.326E+06,  -514.904E+03,  -514.904E+03
C:/temp/Job-13.odb,Step-1,Increment      1: Step Time =    1.000,"P-13-1",           210,       122.330,       4.57785,            0.,NA,NA,"",   139.529E+06,  -3.02808E+06,  -3.02808E+06
C:/temp/Job-13.odb,Step-1,Increment      1: Step Time =    1.000,"P-13-1",           211,       131.945,       7.35277,            0.,NA,NA,"",   144.446E+06,   118.880E+06,   118.880E+06
C:/temp/Job-13.odb,Step-1,Increment      1: Step Time =    1.000,"P-13-1",           212,       136.634,       9.10476,            0.,NA,NA,"",   101.904E+06,   96.6330E+06,   96.6330E+06
C:/temp/Job-13.odb,Step-1,Increment      1: Step Time =    1.000,"P-13-1",           213,       145.713,       13.3150,            0.,NA,NA,"",   71.1464E+06,   64.2473E+06,   64.2473E+06
C:/temp/Job-13.odb,Step-1,Increment      1: Step Time =    1.000,"P-13-1",           214,       150.080,       15.7622,            0.,NA,NA,"",   59.6607E+06,   50.7244E+06,   50.7244E+06
C:/temp/Job-13.odb,Step-1,Increment      1: Step Time =    1.000,"P-13-1",           215,       158.410,       21.3090,            0.,NA,NA,"",   27.4555E+06,   25.4957E+06,   25.4957E+06
C:/temp/Job-13.odb,Step-1,Increment      1: Step Time =    1.000,"P-13-1",           216,       162.352,       24.3941,            0.,NA,NA,"",   23.0356E+06,   21.8417E+06,   21.8417E+06
C:/temp/Job-13.odb,Step-1,Increment      1: Step Time =    1.000,"P-13-1",           217,       169.738,       31.1474,            0.,NA,NA,"",   16.1180E+06,   16.5198E+06,   16.5198E+06
C:/temp/Job-13.odb,Step-1,Increment      1: Step Time =    1.000,"P-13-1",           218,       173.162,       34.7981,            0.,NA,NA,"",   15.8443E+06,   15.6613E+06,   15.6613E+06
C:/temp/Job-13.odb,Step-1,Increment      1: Step Time =    1.000,"P-13-1",           219,       179.431,       42.5997,            0.,NA,NA,"",   17.1453E+06,   17.3859E+06,   17.3859E+06
C:/temp/Job-13.odb,Step-1,Increment      1: Step Time =    1.000,"P-13-1",           220,       182.258,       46.7304,            0.,NA,NA,"",   19.2347E+06,   19.3053E+06,   19.3053E+06
C:/temp/Job-13.odb,Step-1,Increment      1: Step Time =    1.000,"P-13-1",           221,       187.262,       55.3975,            0.,NA,NA,"",   25.4177E+06,   24.7274E+06,   24.7274E+06
C:/temp/Job-13.odb,Step-1,Increment      1: Step Time =    1.000,"P-13-1",           222,       189.425,       59.9113,            0.,NA,NA,"",   23.6425E+06,   22.8058E+06,   22.8058E+06
C:/temp/Job-13.odb,Step-1,Increment      1: Step Time =    1.000,"P-13-1",           223,       193.048,       69.2406,            0.,NA,NA,"",   20.4196E+06,   11.9073E+06,   11.9073E+06
C:/temp/Job-13.odb,Step-1,Increment      1: Step Time =    1.000,"P-13-1",           224,       194.497,       74.0318,            0.,NA,NA,"",   16.2344E+06,   13.4932E+06,   13.4932E+06
C:/temp/Job-13.odb,Step-1,Increment      1: Step Time =    1.000,"P-13-1",           225,       196.653,       83.8048,            0.,NA,NA,"",   20.7006E+06,   18.4253E+06,   18.4253E+06
C:/temp/Job-13.odb,Step-1,Increment      1: Step Time =    1.000,"P-13-1",           226,       197.353,       88.7610,            0.,NA,NA,"",   23.5898E+06,   21.4344E+06,   21.4344E+06
C:/temp/Job-13.odb,Step-1,Increment      1: Step Time =    1.000,"P-13-1",           227,       197.992,       98.7485,            0.,NA,NA,"",   25.4237E+06,   24.2142E+06,   24.2142E+06
C:/temp/Job-13.odb,Step-1,Increment      1: Step Time =    1.000,"P-13-1",           228,       197.928,       103.754,            0.,NA,NA,"",   23.1592E+06,   22.7480E+06,   22.7480E+06
C:/temp/Job-13.odb,Step-1,Increment      1: Step Time =    1.000,"P-13-1",           229,       197.035,       113.722,            0.,NA,NA,"",   16.4904E+06,   15.4464E+06,   15.4464E+06
C:/temp/Job-13.odb,Step-1,Increment      1: Step Time =    1.000,"P-13-1",           230,       196.207,       118.658,            0.,NA,NA,"",   14.0795E+06,   12.5720E+06,   12.5720E+06
C:/temp/Job-13.odb,Step-1,Increment      1: Step Time =    1.000,"P-13-1",           231,       193.803,       128.373,            0.,NA,NA,"",   15.3111E+06,   13.7294E+06,   13.7294E+06
C:/temp/Job-13.odb,Step-1,Increment      1: Step Time =    1.000,"P-13-1",           232,       192.232,       133.126,            0.,NA,NA,"",   21.8830E+06,   19.9918E+06,   19.9918E+06
C:/temp/Job-13.odb,Step-1,Increment      1: Step Time =    1.000,"P-13-1",           233,       188.372,       142.359,            0.,NA,NA,"",   15.8636E+06,   16.4825E+06,   16.4825E+06
C:/temp/Job-13.odb,Step-1,Increment      1: Step Time =    1.000,"P-13-1",           234,       186.094,       146.817,            0.,NA,NA,"",   17.1248E+06,   17.2766E+06,   17.2766E+06
C:/temp/Job-13.odb,Step-1,Increment      1: Step Time =    1.000,"P-13-1",           235,       180.871,       155.353,            0.,NA,NA,"",   16.1415E+06,   16.1688E+06,   16.1688E+06
C:/temp/Job-13.odb,Step-1,Increment      1: Step Time =    1.000,"P-13-1",           236,       174.804,       163.312,            0.,NA,NA,"",   14.5127E+06,    14.637E+06,    14.637E+06
C:/temp/Job-13.odb,Step-1,Increment      1: Step Time =    1.000,"P-13-1",           237,       171.473,       167.049,            0.,NA,NA,"",   14.4389E+06,   14.7302E+06,   14.7302E+06
C:/temp/Job-13.odb,Step-1,Increment      1: Step Time =    1.000,"P-13-1",           238,       164.262,       173.989,            0.,NA,NA,"",   17.6982E+06,   17.8431E+06,   17.8431E+06
C:/temp/Job-13.odb,Step-1,Increment      1: Step Time =    1.000,"P-13-1",           239,       160.401,       177.174,            0.,NA,NA,"",   22.3975E+06,   21.3269E+06,   21.3269E+06
C:/temp/Job-13.odb,Step-1,Increment      1: Step Time =    1.000,"P-13-1",           240,       152.215,       182.931,            0.,NA,NA,"",   36.1685E+06,   33.2305E+06,   33.2305E+06
C:/temp/Job-13.odb,Step-1,Increment      1: Step Time =    1.000,"P-13-1",           241,       147.912,       185.489,            0.,NA,NA,"",   44.6710E+06,   43.0492E+06,   43.0492E+06
C:/temp/Job-13.odb,Step-1,Increment      1: Step Time =    1.000,"P-13-1",           242,       138.943,       189.930,            0.,NA,NA,"",   54.2581E+06,   48.7265E+06,   48.7265E+06
C:/temp/Job-13.odb,Step-1,Increment      1: Step Time =    1.000,"P-13-1",           243,       134.301,       191.801,            0.,NA,NA,"",   91.6499E+06,   95.4361E+06,   95.4361E+06
C:/temp/Job-13.odb,Step-1,Increment      1: Step Time =    1.000,"P-13-1",           244,       124.759,       194.821,            0.,NA,NA,"",   39.3694E+06,   1.96937E+06,   1.96937E+06
C:/temp/Job-13.odb,Step-1,Increment      1: Step Time =    1.000,"P-13-1",           245,       119.885,       195.961,            0.,NA,NA,"",   42.4370E+06,   5.50404E+06,   5.50404E+06
C:/temp/Job-13.odb,Step-1,Increment      1: Step Time =    1.000,"P-13-1",           246,       109.995,       197.489,            0.,NA,NA,"",   57.4627E+06,   48.3817E+06,   48.3817E+06
C:/temp/Job-13.odb,Step-1,Increment      1: Step Time =    1.000,"P-13-1",           247,       105.004,       197.872,            0.,NA,NA,"",   65.7334E+06,   56.0330E+06,   56.0330E+06
C:/temp/Job-13.odb,Step-1,Increment      1: Step Time =    1.000,"P-13-1",           248,          195.,            0.,            0.,NA,NA,"",   1.13627E+06,   817.222E+03,   817.222E+03
C:/temp/Job-13.odb,Step-1,Increment      1: Step Time =    1.000,"P-13-1",           249,          185.,            0.,            0.,NA,NA,"",    4.7808E+06,  -4.35779E+06,  -4.35779E+06
C:/temp/Job-13.odb,Step-1,Increment      1: Step Time =    1.000,"P-13-1",           250,          175.,            0.,            0.,NA,NA,"",   8.40077E+06,  -8.52810E+06,  -8.52810E+06
C:/temp/Job-13.odb,Step-1,Increment      1: Step Time =    1.000,"P-13-1",           251,          165.,            0.,            0.,NA,NA,"",   15.1616E+06,  -14.8699E+06,  -14.8699E+06
C:/temp/Job-13.odb,Step-1,Increment      1: Step Time =    1.000,"P-13-1",           252,          155.,            0.,            0.,NA,NA,"",   25.5046E+06,  -24.8235E+06,  -24.8235E+06
C:/temp/Job-13.odb,Step-1,Increment      1: Step Time =    1.000,"P-13-1",           253,          145.,            0.,            0.,NA,NA,"",   39.0545E+06,  -41.6329E+06,  -41.6329E+06
C:/temp/Job-13.odb,Step-1,Increment      1: Step Time =    1.000,"P-13-1",           254,          135.,            0.,            0.,NA,NA,"",   101.673E+06,  -92.8687E+06,  -92.8687E+06
C:/temp/Job-13.odb,Step-1,Increment      1: Step Time =    1.000,"P-13-1",           255,          125.,            0.,            0.,NA,NA,"",   207.315E+06,  -101.555E+06,  -101.555E+06
C:/temp/Job-13.odb,Step-1,Increment      1: Step Time =    1.000,"P-13-1",           256,          115.,            0.,            0.,NA,NA,"",   150.373E+06,  -4.29904E+06,  -4.29904E+06
C:/temp/Job-13.odb,Step-1,Increment      1: Step Time =    1.000,"P-13-1",           257,          105.,            0.,            0.,NA,NA,"",   205.131E+06,   8.39621E+06,   8.39621E+06
C:/temp/Job-13.odb,Step-1,Increment      1: Step Time =    1.000,"P-13-1",           258,           95.,            0.,            0.,NA,NA,"",   91.7552E+06,   31.9147E+06,   31.9147E+06
C:/temp/Job-13.odb,Step-1,Increment      1: Step Time =    1.000,"P-13-1",           259,           85.,            0.,            0.,NA,NA,"",   76.5592E+06,   19.3920E+06,   19.3920E+06
C:/temp/Job-13.odb,Step-1,Increment      1: Step Time =    1.000,"P-13-1",           260,           75.,            0.,            0.,NA,NA,"",   64.2925E+06,   10.6031E+06,   10.6031E+06
C:/temp/Job-13.odb,Step-1,Increment      1: Step Time =    1.000,"P-13-1",           261,           65.,            0.,            0.,NA,NA,"",   156.361E+06,   144.773E+06,   144.773E+06
C:/temp/Job-13.odb,Step-1,Increment      1: Step Time =    1.000,"P-13-1",           262,           55.,            0.,            0.,NA,NA,"",   78.5176E+06,   81.7936E+06,   81.7936E+06
C:/temp/Job-13.odb,Step-1,Increment      1: Step Time =    1.000,"P-13-1",           263,           45.,            0.,            0.,NA,NA,"",   57.4458E+06,   55.2418E+06,   55.2418E+06
C:/temp/Job-13.odb,Step-1,Increment      1: Step Time =    1.000,"P-13-1",           264,           35.,            0.,            0.,NA,NA,"",   41.3021E+06,   39.9199E+06,   39.9199E+06
C:/temp/Job-13.odb,Step-1,Increment      1: Step Time =    1.000,"P-13-1",           265,           25.,            0.,            0.,NA,NA,"",   30.6049E+06,   30.1285E+06,   30.1285E+06
C:/temp/Job-13.odb,Step-1,Increment      1: Step Time =    1.000,"P-13-1",           266,           15.,            0.,            0.,NA,NA,"",   23.5628E+06,   23.5130E+06,   23.5130E+06
C:/temp/Job-13.odb,Step-1,Increment      1: Step Time =    1.000,"P-13-1",           267,            5.,            0.,            0.,NA,NA,"",   19.7766E+06,   20.2231E+06,   20.2231E+06
C:/temp/Job-13.odb,Step-1,Increment      1: Step Time =    1.000,"P-13-1",           268,          200.,          195.,            0.,NA,NA,"",   1.45758E+06,  -162.497E+03,  -162.497E+03
C:/temp/Job-13.odb,Step-1,Increment      1: Step Time =    1.000,"P-13-1",           269,          200.,          185.,            0.,NA,NA,"",   4.31559E+06,  -3.55048E+06,  -3.55048E+06
C:/temp/Job-13.odb,Step-1,Increment      1: Step Time =    1.000,"P-13-1",           270,          200.,          175.,            0.,NA,NA,"",   7.41977E+06,  -6.76423E+06,  -6.76423E+06
C:/temp/Job-13.odb,Step-1,Increment      1: Step Time =    1.000,"P-13-1",           271,          200.,          165.,            0.,NA,NA,"",   9.33166E+06,  -8.70710E+06,  -8.70710E+06
C:/temp/Job-13.odb,Step-1,Increment      1: Step Time =    1.000,"P-13-1",           272,          200.,          155.,            0.,NA,NA,"",   10.6631E+06,  -10.0764E+06,  -10.0764E+06
C:/temp/Job-13.odb,Step-1,Increment      1: Step Time =    1.000,"P-13-1",           273,          200.,          145.,            0.,NA,NA,"",   11.3343E+06,  -10.4947E+06,  -10.4947E+06
C:/temp/Job-13.odb,Step-1,Increment      1: Step Time =    1.000,"P-13-1",           274,          200.,          135.,            0.,NA,NA,"",   7.64337E+06,  -7.61499E+06,  -7.61499E+06
C:/temp/Job-13.odb,Step-1,Increment      1: Step Time =    1.000,"P-13-1",           275,          200.,          125.,            0.,NA,NA,"",   12.6379E+06,   10.5730E+06,   10.5730E+06
C:/temp/Job-13.odb,Step-1,Increment      1: Step Time =    1.000,"P-13-1",           276,          200.,          115.,            0.,NA,NA,"",   16.4904E+06,   15.4464E+06,   15.4464E+06
C:/temp/Job-13.odb,Step-1,Increment      1: Step Time =    1.000,"P-13-1",           277,          200.,          105.,            0.,NA,NA,"",   23.1592E+06,   22.7480E+06,   22.7480E+06
C:/temp/Job-13.odb,Step-1,Increment      1: Step Time =    1.000,"P-13-1",           278,          200.,           95.,            0.,NA,NA,"",   25.5300E+06,   23.9393E+06,   23.9393E+06
C:/temp/Job-13.odb,Step-1,Increment      1: Step Time =    1.000,"P-13-1",           279,          200.,           85.,            0.,NA,NA,"",   20.7006E+06,   18.4253E+06,   18.4253E+06
C:/temp/Job-13.odb,Step-1,Increment      1: Step Time =    1.000,"P-13-1",           280,          200.,           75.,            0.,NA,NA,"",   16.2344E+06,   13.4932E+06,   13.4932E+06
C:/temp/Job-13.odb,Step-1,Increment      1: Step Time =    1.000,"P-13-1",           281,          200.,           65.,            0.,NA,NA,"",   22.7357E+06,  -17.9878E+06,  -17.9878E+06
C:/temp/Job-13.odb,Step-1,Increment      1: Step Time =    1.000,"P-13-1",           282,          200.,           55.,            0.,NA,NA,"",   17.0828E+06,  -16.9946E+06,  -16.9946E+06
C:/temp/Job-13.odb,Step-1,Increment      1: Step Time =    1.000,"P-13-1",           283,          200.,           45.,            0.,NA,NA,"",   12.3817E+06,  -12.0534E+06,  -12.0534E+06
C:/temp/Job-13.odb,Step-1,Increment      1: Step Time =    1.000,"P-13-1",           284,          200.,           35.,            0.,NA,NA,"",   11.3891E+06,  -10.9304E+06,  -10.9304E+06
C:/temp/Job-13.odb,Step-1,Increment      1: Step Time =    1.000,"P-13-1",           285,          200.,           25.,            0.,NA,NA,"",   8.69887E+06,  -8.19455E+06,  -8.19455E+06
C:/temp/Job-13.odb,Step-1,Increment      1: Step Time =    1.000,"P-13-1",           286,          200.,           15.,            0.,NA,NA,"",   5.97828E+06,  -4.69217E+06,  -4.69217E+06
C:/temp/Job-13.odb,Step-1,Increment      1: Step Time =    1.000,"P-13-1",           287,          200.,            5.,            0.,NA,NA,"",   1.81838E+06,   1.23700E+06,   1.23700E+06
C:/temp/Job-13.odb,Step-1,Increment      1: Step Time =    1.000,"P-13-1",           288,            5.,          200.,            0.,NA,NA,"",   20.5150E+06,   20.9305E+06,   20.9305E+06
C:/temp/Job-13.odb,Step-1,Increment      1: Step Time =    1.000,"P-13-1",           289,           15.,          200.,            0.,NA,NA,"",   24.4494E+06,   24.5489E+06,   24.5489E+06
C:/temp/Job-13.odb,Step-1,Increment      1: Step Time =    1.000,"P-13-1",           290,           25.,          200.,            0.,NA,NA,"",   31.6027E+06,   31.6627E+06,   31.6627E+06
C:/temp/Job-13.odb,Step-1,Increment      1: Step Time =    1.000,"P-13-1",           291,           35.,          200.,            0.,NA,NA,"",   43.3656E+06,   43.2690E+06,   43.2690E+06
C:/temp/Job-13.odb,Step-1,Increment      1: Step Time =    1.000,"P-13-1",           292,           45.,          200.,            0.,NA,NA,"",   63.0047E+06,   62.9094E+06,   62.9094E+06
C:/temp/Job-13.odb,Step-1,Increment      1: Step Time =    1.000,"P-13-1",           293,           55.,          200.,            0.,NA,NA,"",   85.5707E+06,   85.9267E+06,   85.9267E+06
C:/temp/Job-13.odb,Step-1,Increment      1: Step Time =    1.000,"P-13-1",           294,           65.,          200.,            0.,NA,NA,"",   135.264E+06,   134.273E+06,   134.273E+06
C:/temp/Job-13.odb,Step-1,Increment      1: Step Time =    1.000,"P-13-1",           295,           75.,          200.,            0.,NA,NA,"",   237.754E+06,   236.662E+06,   236.662E+06
C:/temp/Job-13.odb,Step-1,Increment      1: Step Time =    1.000,"P-13-1",           296,           85.,          200.,            0.,NA,NA,"",   548.434E+06,   550.858E+06,   550.858E+06
C:/temp/Job-13.odb,Step-1,Increment      1: Step Time =    1.000,"P-13-1",           297,           95.,          200.,            0.,NA,NA,"",   66.0289E+06,   55.7907E+06,   55.7907E+06
C:/temp/Job-13.odb,Step-1,Increment      1: Step Time =    1.000,"P-13-1",           298,          105.,          200.,            0.,NA,NA,"",   65.7334E+06,   56.0330E+06,   56.0330E+06
C:/temp/Job-13.odb,Step-1,Increment      1: Step Time =    1.000,"P-13-1",           299,          115.,          200.,            0.,NA,NA,"",   50.0816E+06,   40.6878E+06,   40.6878E+06
C:/temp/Job-13.odb,Step-1,Increment      1: Step Time =    1.000,"P-13-1",           300,          125.,          200.,            0.,NA,NA,"",   39.3694E+06,   1.96937E+06,   1.96937E+06
C:/temp/Job-13.odb,Step-1,Increment      1: Step Time =    1.000,"P-13-1",           301,          135.,          200.,            0.,NA,NA,"",   90.6763E+06,  -75.0256E+06,  -75.0256E+06
C:/temp/Job-13.odb,Step-1,Increment      1: Step Time =    1.000,"P-13-1",           302,          145.,          200.,            0.,NA,NA,"",   35.4241E+06,  -35.1467E+06,  -35.1467E+06
C:/temp/Job-13.odb,Step-1,Increment      1: Step Time =    1.000,"P-13-1",           303,          155.,          200.,            0.,NA,NA,"",   20.4853E+06,  -21.1157E+06,  -21.1157E+06
C:/temp/Job-13.odb,Step-1,Increment      1: Step Time =    1.000,"P-13-1",           304,          165.,          200.,            0.,NA,NA,"",   13.5676E+06,  -13.1254E+06,  -13.1254E+06
C:/temp/Job-13.odb,Step-1,Increment      1: Step Time =    1.000,"P-13-1",           305,          175.,          200.,            0.,NA,NA,"",   8.12480E+06,  -7.45888E+06,  -7.45888E+06
C:/temp/Job-13.odb,Step-1,Increment      1: Step Time =    1.000,"P-13-1",           306,          185.,          200.,            0.,NA,NA,"",   3.54547E+06,  -3.06989E+06,  -3.06989E+06
C:/temp/Job-13.odb,Step-1,Increment      1: Step Time =    1.000,"P-13-1",           307,          195.,          200.,            0.,NA,NA,"",   1.00016E+06,   102.220E+03,   102.220E+03
C:/temp/Job-13.odb,Step-1,Increment      1: Step Time =    1.000,"P-13-1",           308,            0.,            5.,            0.,NA,NA,"",   16.5564E+06,   17.5711E+06,   17.5711E+06
C:/temp/Job-13.odb,Step-1,Increment      1: Step Time =    1.000,"P-13-1",           309,            0.,           15.,            0.,NA,NA,"",   6.91997E+06,   7.52375E+06,   7.52375E+06
C:/temp/Job-13.odb,Step-1,Increment      1: Step Time =    1.000,"P-13-1",           310,            0.,           25.,            0.,NA,NA,"",   2.87005E+06,  -696.840E+03,  -696.840E+03
C:/temp/Job-13.odb,Step-1,Increment      1: Step Time =    1.000,"P-13-1",           311,            0.,           35.,            0.,NA,NA,"",   5.59273E+06,  -5.76879E+06,  -5.76879E+06
C:/temp/Job-13.odb,Step-1,Increment      1: Step Time =    1.000,"P-13-1",           312,            0.,           45.,            0.,NA,NA,"",   5.95649E+06,  -5.95306E+06,  -5.95306E+06
C:/temp/Job-13.odb,Step-1,Increment      1: Step Time =    1.000,"P-13-1",           313,            0.,           55.,            0.,NA,NA,"",   3.63709E+06,  -3.54186E+06,  -3.54186E+06
C:/temp/Job-13.odb,Step-1,Increment      1: Step Time =    1.000,"P-13-1",           314,            0.,           65.,            0.,NA,NA,"",   1.80153E+06,  -1.65718E+06,  -1.65718E+06
C:/temp/Job-13.odb,Step-1,Increment      1: Step Time =    1.000,"P-13-1",           315,            0.,           75.,            0.,NA,NA,"",   606.674E+03,  -550.813E+03,  -550.813E+03
C:/temp/Job-13.odb,Step-1,Increment      1: Step Time =    1.000,"P-13-1",           316,            0.,           85.,            0.,NA,NA,"",   93.1328E+03,  -92.3402E+03,  -92.3402E+03
C:/temp/Job-13.odb,Step-1,Increment      1: Step Time =    1.000,"P-13-1",           317,            0.,           95.,            0.,NA,NA,"",   5.27450E+03,   1.40766E+03,   1.40766E+03
C:/temp/Job-13.odb,Step-1,Increment      1: Step Time =    1.000,"P-13-1",           318,            0.,          105.,            0.,NA,NA,"",   1.86095E+03,       521.023,       521.023
C:/temp/Job-13.odb,Step-1,Increment      1: Step Time =    1.000,"P-13-1",           319,            0.,          115.,            0.,NA,NA,"",   46.3301E+03,  -45.9691E+03,  -45.9691E+03
C:/temp/Job-13.odb,Step-1,Increment      1: Step Time =    1.000,"P-13-1",           320,            0.,          125.,            0.,NA,NA,"",   605.236E+03,  -601.978E+03,  -601.978E+03
C:/temp/Job-13.odb,Step-1,Increment      1: Step Time =    1.000,"P-13-1",           321,            0.,          135.,            0.,NA,NA,"",   2.12143E+06,  -1.96044E+06,  -1.96044E+06
C:/temp/Job-13.odb,Step-1,Increment      1: Step Time =    1.000,"P-13-1",           322,            0.,          145.,            0.,NA,NA,"",   4.34848E+06,  -4.14384E+06,  -4.14384E+06
C:/temp/Job-13.odb,Step-1,Increment      1: Step Time =    1.000,"P-13-1",           323,            0.,          155.,            0.,NA,NA,"",   6.14203E+06,  -6.18484E+06,  -6.18484E+06
C:/temp/Job-13.odb,Step-1,Increment      1: Step Time =    1.000,"P-13-1",           324,            0.,          165.,            0.,NA,NA,"",   5.79391E+06,  -6.02522E+06,  -6.02522E+06
C:/temp/Job-13.odb,Step-1,Increment      1: Step Time =    1.000,"P-13-1",           325,            0.,          175.,            0.,NA,NA,"",   2.75654E+06,  -897.876E+03,  -897.876E+03
C:/temp/Job-13.odb,Step-1,Increment      1: Step Time =    1.000,"P-13-1",           326,            0.,          185.,            0.,NA,NA,"",   7.46877E+06,   8.07259E+06,   8.07259E+06
C:/temp/Job-13.odb,Step-1,Increment      1: Step Time =    1.000,"P-13-1",           327,            0.,          195.,            0.,NA,NA,"",   16.8869E+06,   18.0409E+06,   18.0409E+06
C:/temp/Job-13.odb,Step-1,Increment      1: Step Time =    1.000,"P-13-1",           328,       188.857,       48.4335,            0.,NA,NA,"",   14.0812E+06,   14.4836E+06,   14.4836E+06
C:/temp/Job-13.odb,Step-1,Increment      1: Step Time =    1.000,"P-13-1",           329,       11.6727,       47.7211,            0.,NA,NA,"",   5.95268E+06,  -6.00372E+06,  -6.00372E+06
C:/temp/Job-13.odb,Step-1,Increment      1: Step Time =    1.000,"P-13-1",           330,       137.063,       195.314,            0.,NA,NA,"",   85.1314E+06,   38.5169E+06,   38.5169E+06
C:/temp/Job-13.odb,Step-1,Increment      1: Step Time =    1.000,"P-13-1",           331,       155.762,       195.224,            0.,NA,NA,"",   15.2978E+06,  -11.5387E+06,  -11.5387E+06
C:/temp/Job-13.odb,Step-1,Increment      1: Step Time =    1.000,"P-13-1",           332,       145.408,       196.519,            0.,NA,NA,"",   33.0344E+06,  -17.0536E+06,  -17.0536E+06
C:/temp/Job-13.odb,Step-1,Increment      1: Step Time =    1.000,"P-13-1",           333,       195.204,       164.291,            0.,NA,NA,"",   6.50923E+06,  -5.79309E+06,  -5.79309E+06
C:/temp/Job-13.odb,Step-1,Increment      1: Step Time =    1.000,"P-13-1",           334,       195.189,       174.563,            0.,NA,NA,"",   6.07900E+06,  -5.17578E+06,  -5.17578E+06
C:/temp/Job-13.odb,Step-1,Increment      1: Step Time =    1.000,"P-13-1",           335,       165.704,       195.986,            0.,NA,NA,"",   9.61939E+06,  -9.11361E+06,  -9.11361E+06
C:/temp/Job-13.odb,Step-1,Increment      1: Step Time =    1.000,"P-13-1",           336,       193.625,       143.113,            0.,NA,NA,"",   13.4269E+06,   7.55951E+06,   7.55951E+06
C:/temp/Job-13.odb,Step-1,Increment      1: Step Time =    1.000,"P-13-1",           337,       195.272,       148.012,            0.,NA,NA,"",   9.75832E+06,   794.323E+03,   794.323E+03
C:/temp/Job-13.odb,Step-1,Increment      1: Step Time =    1.000,"P-13-1",           338,       195.184,       153.531,            0.,NA,NA,"",   6.46675E+06,  -4.00935E+06,  -4.00935E+06
C:/temp/Job-13.odb,Step-1,Increment      1: Step Time =    1.000,"P-13-1",           339,       196.409,       64.8874,            0.,NA,NA,"",   25.9272E+06,  -481.374E+03,  -481.374E+03
C:/temp/Job-13.odb,Step-1,Increment      1: Step Time =    1.000,"P-13-1",           340,       194.964,       5.06184,            0.,NA,NA,"",   2.52266E+06,  -98.8161E+03,  -98.8161E+03
C:/temp/Job-13.odb,Step-1,Increment      1: Step Time =    1.000,"P-13-1",           341,       184.875,       5.20083,            0.,NA,NA,"",   4.18917E+06,  -3.52026E+06,  -3.52026E+06
C:/temp/Job-13.odb,Step-1,Increment      1: Step Time =    1.000,"P-13-1",           342,       175.040,       4.93150,            0.,NA,NA,"",   9.62558E+06,  -8.20027E+06,  -8.20027E+06
C:/temp/Job-13.odb,Step-1,Increment      1: Step Time =    1.000,"P-13-1",           343,       165.152,       4.63501,            0.,NA,NA,"",   10.8932E+06,  -7.71850E+06,  -7.71850E+06
C:/temp/Job-13.odb,Step-1,Increment      1: Step Time =    1.000,"P-13-1",           344,       5.05766,       5.03090,            0.,NA,NA,"",   17.3487E+06,   17.9747E+06,   17.9747E+06
C:/temp/Job-13.odb,Step-1,Increment      1: Step Time =    1.000,"P-13-1",           345,       48.2199,       4.73705,            0.,NA,NA,"",   49.0816E+06,   46.7575E+06,   46.7575E+06
C:/temp/Job-13.odb,Step-1,Increment      1: Step Time =    1.000,"P-13-1",           346,       4.02398,       35.4340,            0.,NA,NA,"",   6.15736E+06,  -6.14472E+06,  -6.14472E+06
C:/temp/Job-13.odb,Step-1,Increment      1: Step Time =    1.000,"P-13-1",           347,       4.65347,       25.7049,            0.,NA,NA,"",   3.59987E+06,  -1.08803E+06,  -1.08803E+06
C:/temp/Job-13.odb,Step-1,Increment      1: Step Time =    1.000,"P-13-1",           348,       5.56934,       55.7881,            0.,NA,NA,"",   3.61393E+06,  -3.56457E+06,  -3.56457E+06
C:/temp/Job-13.odb,Step-1,Increment      1: Step Time =    1.000,"P-13-1",           349,       5.08014,       46.5363,            0.,NA,NA,"",   5.78941E+06,  -5.75180E+06,  -5.75180E+06
C:/temp/Job-13.odb,Step-1,Increment      1: Step Time =    1.000,"P-13-1",           350,       5.01059,       194.990,            0.,NA,NA,"",   17.9277E+06,   18.5339E+06,   18.5339E+06
C:/temp/Job-13.odb,Step-1,Increment      1: Step Time =    1.000,"P-13-1",           351,       14.9321,       195.023,            0.,NA,NA,"",   21.1166E+06,   21.2054E+06,   21.2054E+06
C:/temp/Job-13.odb,Step-1,Increment      1: Step Time =    1.000,"P-13-1",           352,       25.0931,       194.986,            0.,NA,NA,"",   26.0237E+06,   25.9830E+06,   25.9830E+06
C:/temp/Job-13.odb,Step-1,Increment      1: Step Time =    1.000,"P-13-1",           353,       35.2011,       195.722,            0.,NA,NA,"",   34.2378E+06,   33.9387E+06,   33.9387E+06
C:/temp/Job-13.odb,Step-1,Increment      1: Step Time =    1.000,"P-13-1",           354,       54.5330,       195.592,            0.,NA,NA,"",   59.6951E+06,   56.5572E+06,   56.5572E+06
C:/temp/Job-13.odb,Step-1,Increment      1: Step Time =    1.000,"P-13-1",           355,       14.9593,       4.91792,            0.,NA,NA,"",   20.4663E+06,   20.4441E+06,   20.4441E+06
C:/temp/Job-13.odb,Step-1,Increment      1: Step Time =    1.000,"P-13-1",           356,       24.7690,       4.87242,            0.,NA,NA,"",   25.0859E+06,   24.7480E+06,   24.7480E+06
C:/temp/Job-13.odb,Step-1,Increment      1: Step Time =    1.000,"P-13-1",           357,       34.5881,       4.41111,            0.,NA,NA,"",   33.2410E+06,   32.5108E+06,   32.5108E+06
C:/temp/Job-13.odb,Step-1,Increment      1: Step Time =    1.000,"P-13-1",           358,       43.8196,       4.03368,            0.,NA,NA,"",   42.3724E+06,   40.1544E+06,   40.1544E+06
C:/temp/Job-13.odb,Step-1,Increment      1: Step Time =    1.000,"P-13-1",           359,       144.684,       6.16719,            0.,NA,NA,"",   55.4262E+06,   6.17015E+06,   6.17015E+06
C:/temp/Job-13.odb,Step-1,Increment      1: Step Time =    1.000,"P-13-1",           360,       195.058,       15.1081,            0.,NA,NA,"",   5.49889E+06,  -4.09089E+06,  -4.09089E+06
C:/temp/Job-13.odb,Step-1,Increment      1: Step Time =    1.000,"P-13-1",           361,       195.269,       25.1681,            0.,NA,NA,"",   7.66483E+06,  -6.75970E+06,  -6.75970E+06
C:/temp/Job-13.odb,Step-1,Increment      1: Step Time =    1.000,"P-13-1",           362,       195.605,       34.7945,            0.,NA,NA,"",   8.66384E+06,  -7.96041E+06,  -7.96041E+06
C:/temp/Job-13.odb,Step-1,Increment      1: Step Time =    1.000,"P-13-1",           363,       193.778,       45.2368,            0.,NA,NA,"",   8.42898E+06,  -2.79164E+06,  -2.79164E+06
C:/temp/Job-13.odb,Step-1,Increment      1: Step Time =    1.000,"P-13-1",           364,       196.228,       55.8173,            0.,NA,NA,"",   16.2165E+06,  -1.33616E+06,  -1.33616E+06
C:/temp/Job-13.odb,Step-1,Increment      1: Step Time =    1.000,"P-13-1",           365,       195.056,       184.687,            0.,NA,NA,"",   4.56888E+06,  -3.47383E+06,  -3.47383E+06
C:/temp/Job-13.odb,Step-1,Increment      1: Step Time =    1.000,"P-13-1",           366,       175.030,       196.056,            0.,NA,NA,"",   6.76007E+06,  -6.09523E+06,  -6.09523E+06
C:/temp/Job-13.odb,Step-1,Increment      1: Step Time =    1.000,"P-13-1",           367,       194.747,       194.805,            0.,NA,NA,"",   1.87338E+06,  -874.157E+03,  -874.157E+03
C:/temp/Job-13.odb,Step-1,Increment      1: Step Time =    1.000,"P-13-1",           368,       184.616,       195.435,            0.,NA,NA,"",   4.10027E+06,  -3.25406E+06,  -3.25406E+06
C:/temp/Job-13.odb,Step-1,Increment      1: Step Time =    1.000,"P-13-1",           369,       4.99515,       184.895,            0.,NA,NA,"",   7.10583E+06,   7.71544E+06,   7.71544E+06
C:/temp/Job-13.odb,Step-1,Increment      1: Step Time =    1.000,"P-13-1",           370,       4.53211,       174.929,            0.,NA,NA,"",   3.59081E+06,  -1.06965E+06,  -1.06965E+06
C:/temp/Job-13.odb,Step-1,Increment      1: Step Time =    1.000,"P-13-1",           371,       4.39692,       164.892,            0.,NA,NA,"",   6.44714E+06,  -6.43172E+06,  -6.43172E+06
C:/temp/Job-13.odb,Step-1,Increment      1: Step Time =    1.000,"P-13-1",           372,       4.06813,       155.025,            0.,NA,NA,"",   6.31281E+06,  -6.31284E+06,  -6.31284E+06
C:/temp/Job-13.odb,Step-1,Increment      1: Step Time =    1.000,"P-13-1",           373,       3.60747,       145.683,            0.,NA,NA,"",   4.31420E+06,  -4.20458E+06,  -4.20458E+06
C:/temp/Job-13.odb,Step-1,Increment      1: Step Time =    1.000,"P-13-1",           374,       5.30905,       15.3234,            0.,NA,NA,"",   6.78677E+06,   7.33008E+06,   7.33008E+06
C:/temp/Job-13.odb,Step-1,Increment      1: Step Time =    1.000,"P-13-1",           375,       44.8864,       195.878,            0.,NA,NA,"",   43.3849E+06,   42.5157E+06,   42.5157E+06
C:/temp/Job-13.odb,Step-1,Increment      1: Step Time =    1.000,"P-13-1",           376,       150.548,       5.22199,            0.,NA,NA,"",   27.4629E+06,  -17.2364E+06,  -17.2364E+06
C:/temp/Job-13.odb,Step-1,Increment      1: Step Time =    1.000,"P-13-1",           377,       3.65600,       150.273,            0.,NA,NA,"",   5.47583E+06,  -5.39756E+06,  -5.39756E+06
C:/temp/Job-13.odb,Step-1,Increment      1: Step Time =    1.000,"P-13-1",           378,       4.24587,       136.434,            0.,NA,NA,"",   2.21134E+06,  -2.15272E+06,  -2.15272E+06
C:/temp/Job-13.odb,Step-1,Increment      1: Step Time =    1.000,"P-13-1",           379,       63.2807,       4.86510,            0.,NA,NA,"",   149.271E+06,   81.9668E+06,   81.9668E+06
C:/temp/Job-13.odb,Step-1,Increment      1: Step Time =    1.000,"P-13-1",           380,       189.922,       5.14553,            0.,NA,NA,"",   3.58973E+06,  -2.49277E+06,  -2.49277E+06
C:/temp/Job-13.odb,Step-1,Increment      1: Step Time =    1.000,"P-13-1",           381,       179.925,       5.15795,            0.,NA,NA,"",   7.20151E+06,  -5.71503E+06,  -5.71503E+06
C:/temp/Job-13.odb,Step-1,Increment      1: Step Time =    1.000,"P-13-1",           382,       170.136,       4.69550,            0.,NA,NA,"",   9.90314E+06,  -9.24336E+06,  -9.24336E+06
C:/temp/Job-13.odb,Step-1,Increment      1: Step Time =    1.000,"P-13-1",           383,       160.266,       4.78387,            0.,NA,NA,"",   14.6191E+06,  -10.7109E+06,  -10.7109E+06
C:/temp/Job-13.odb,Step-1,Increment      1: Step Time =    1.000,"P-13-1",           384,       155.415,       4.61057,            0.,NA,NA,"",   19.4680E+06,  -10.6531E+06,  -10.6531E+06
C:/temp/Job-13.odb,Step-1,Increment      1: Step Time =    1.000,"P-13-1",           385,       138.890,       4.74164,            0.,NA,NA,"",   90.5459E+06,   15.2365E+06,   15.2365E+06
C:/temp/Job-13.odb,Step-1,Increment      1: Step Time =    1.000,"P-13-1",           386,       57.5620,       6.24257,            0.,NA,NA,"",   94.6618E+06,   4.75317E+06,   4.75317E+06
C:/temp/Job-13.odb,Step-1,Increment      1: Step Time =    1.000,"P-13-1",           387,       52.5526,       5.48214,            0.,NA,NA,"",   80.0214E+06,   25.6877E+06,   25.6877E+06
C:/temp/Job-13.odb,Step-1,Increment      1: Step Time =    1.000,"P-13-1",           388,       39.1918,       3.80789,            0.,NA,NA,"",   39.4765E+06,   39.2635E+06,   39.2635E+06
C:/temp/Job-13.odb,Step-1,Increment      1: Step Time =    1.000,"P-13-1",           389,       29.7365,       4.71162,            0.,NA,NA,"",   27.7342E+06,   27.8333E+06,   27.8333E+06
C:/temp/Job-13.odb,Step-1,Increment      1: Step Time =    1.000,"P-13-1",           390,       19.8750,       4.88851,            0.,NA,NA,"",   22.0412E+06,   22.2382E+06,   22.2382E+06
C:/temp/Job-13.odb,Step-1,Increment      1: Step Time =    1.000,"P-13-1",           391,       10.0269,       4.98503,            0.,NA,NA,"",   18.7114E+06,   18.8184E+06,   18.8184E+06
C:/temp/Job-13.odb,Step-1,Increment      1: Step Time =    1.000,"P-13-1",           392,       194.648,       189.686,            0.,NA,NA,"",   3.32173E+06,  -2.39145E+06,  -2.39145E+06
C:/temp/Job-13.odb,Step-1,Increment      1: Step Time =    1.000,"P-13-1",           393,       195.306,       179.637,            0.,NA,NA,"",   5.47126E+06,  -4.46123E+06,  -4.46123E+06
C:/temp/Job-13.odb,Step-1,Increment      1: Step Time =    1.000,"P-13-1",           394,       194.959,       169.404,            0.,NA,NA,"",   6.41922E+06,  -5.58474E+06,  -5.58474E+06
C:/temp/Job-13.odb,Step-1,Increment      1: Step Time =    1.000,"P-13-1",           395,       195.305,       158.924,            0.,NA,NA,"",   6.24646E+06,  -5.00651E+06,  -5.00651E+06
C:/temp/Job-13.odb,Step-1,Increment      1: Step Time =    1.000,"P-13-1",           396,       195.360,       137.923,            0.,NA,NA,"",   14.8288E+06,   2.78696E+06,   2.78696E+06
C:/temp/Job-13.odb,Step-1,Increment      1: Step Time =    1.000,"P-13-1",           397,       195.506,       60.8061,            0.,NA,NA,"",   25.8451E+06,   8.16769E+06,   8.16769E+06
C:/temp/Job-13.odb,Step-1,Increment      1: Step Time =    1.000,"P-13-1",           398,       195.252,       50.8893,            0.,NA,NA,"",   8.86864E+06,  -5.05705E+06,  -5.05705E+06
C:/temp/Job-13.odb,Step-1,Increment      1: Step Time =    1.000,"P-13-1",           399,       195.203,       39.6795,            0.,NA,NA,"",   8.64751E+06,  -7.95043E+06,  -7.95043E+06
C:/temp/Job-13.odb,Step-1,Increment      1: Step Time =    1.000,"P-13-1",           400,       195.599,       29.9816,            0.,NA,NA,"",   8.34173E+06,  -7.28042E+06,  -7.28042E+06
C:/temp/Job-13.odb,Step-1,Increment      1: Step Time =    1.000,"P-13-1",           401,       195.155,       20.1567,            0.,NA,NA,"",   7.11502E+06,  -5.57191E+06,  -5.57191E+06
C:/temp/Job-13.odb,Step-1,Increment      1: Step Time =    1.000,"P-13-1",           402,       194.984,       10.1046,            0.,NA,NA,"",   3.85062E+06,  -2.29724E+06,  -2.29724E+06
C:/temp/Job-13.odb,Step-1,Increment      1: Step Time =    1.000,"P-13-1",           403,       9.98594,       195.003,            0.,NA,NA,"",   19.5820E+06,   19.6549E+06,   19.6549E+06
C:/temp/Job-13.odb,Step-1,Increment      1: Step Time =    1.000,"P-13-1",           404,       19.9340,       195.026,            0.,NA,NA,"",   23.2696E+06,   23.3117E+06,   23.3117E+06
C:/temp/Job-13.odb,Step-1,Increment      1: Step Time =    1.000,"P-13-1",           405,       30.2927,       195.125,            0.,NA,NA,"",   29.4554E+06,   29.3886E+06,   29.3886E+06
C:/temp/Job-13.odb,Step-1,Increment      1: Step Time =    1.000,"P-13-1",           406,       40.0683,       195.623,            0.,NA,NA,"",   39.1469E+06,   39.1575E+06,   39.1575E+06
C:/temp/Job-13.odb,Step-1,Increment      1: Step Time =    1.000,"P-13-1",           407,       49.6650,       195.484,            0.,NA,NA,"",   47.5846E+06,   45.4233E+06,   45.4233E+06
C:/temp/Job-13.odb,Step-1,Increment      1: Step Time =    1.000,"P-13-1",           408,       59.3258,       194.634,            0.,NA,NA,"",   87.5147E+06,   12.1171E+06,   12.1171E+06
C:/temp/Job-13.odb,Step-1,Increment      1: Step Time =    1.000,"P-13-1",           409,       134.202,       196.483,            0.,NA,NA,"",   108.972E+06,  -547.539E+03,  -547.539E+03
C:/temp/Job-13.odb,Step-1,Increment      1: Step Time =    1.000,"P-13-1",           410,       141.637,       194.255,            0.,NA,NA,"",   43.8149E+06,   21.9492E+06,   21.9492E+06
C:/temp/Job-13.odb,Step-1,Increment      1: Step Time =    1.000,"P-13-1",           411,       150.001,       194.815,            0.,NA,NA,"",   20.8445E+06,  -3.99947E+06,  -3.99947E+06
C:/temp/Job-13.odb,Step-1,Increment      1: Step Time =    1.000,"P-13-1",           412,       160.774,       195.661,            0.,NA,NA,"",   12.7369E+06,  -11.7869E+06,  -11.7869E+06
C:/temp/Job-13.odb,Step-1,Increment      1: Step Time =    1.000,"P-13-1",           413,       170.396,       196.053,            0.,NA,NA,"",   8.32094E+06,  -7.85865E+06,  -7.85865E+06
C:/temp/Job-13.odb,Step-1,Increment      1: Step Time =    1.000,"P-13-1",           414,       179.761,       195.926,            0.,NA,NA,"",   5.24899E+06,  -4.71497E+06,  -4.71497E+06
C:/temp/Job-13.odb,Step-1,Increment      1: Step Time =    1.000,"P-13-1",           415,       189.571,       194.838,            0.,NA,NA,"",   2.53196E+06,  -1.86741E+06,  -1.86741E+06
C:/temp/Job-13.odb,Step-1,Increment      1: Step Time =    1.000,"P-13-1",           416,       5.16522,       10.1143,            0.,NA,NA,"",   12.1493E+06,   12.8959E+06,   12.8959E+06
C:/temp/Job-13.odb,Step-1,Increment      1: Step Time =    1.000,"P-13-1",           417,       5.30359,       20.5640,            0.,NA,NA,"",   3.50328E+06,   3.24813E+06,   3.24813E+06
C:/temp/Job-13.odb,Step-1,Increment      1: Step Time =    1.000,"P-13-1",           418,       4.30844,       30.6100,            0.,NA,NA,"",   5.03361E+06,  -4.84293E+06,  -4.84293E+06
C:/temp/Job-13.odb,Step-1,Increment      1: Step Time =    1.000,"P-13-1",           419,       4.58209,       40.4288,            0.,NA,NA,"",   6.43698E+06,  -6.44872E+06,  -6.44872E+06
C:/temp/Job-13.odb,Step-1,Increment      1: Step Time =    1.000,"P-13-1",           420,       3.36915,       50.4716,            0.,NA,NA,"",   4.94707E+06,  -4.80958E+06,  -4.80958E+06
C:/temp/Job-13.odb,Step-1,Increment      1: Step Time =    1.000,"P-13-1",           421,       4.43987,       61.6567,            0.,NA,NA,"",   2.50754E+06,  -2.41713E+06,  -2.41713E+06
C:/temp/Job-13.odb,Step-1,Increment      1: Step Time =    1.000,"P-13-1",           422,       4.91644,       140.874,            0.,NA,NA,"",   3.07087E+06,  -3.00505E+06,  -3.00505E+06
C:/temp/Job-13.odb,Step-1,Increment      1: Step Time =    1.000,"P-13-1",           423,       4.36420,       159.916,            0.,NA,NA,"",   6.66360E+06,  -6.71511E+06,  -6.71511E+06
C:/temp/Job-13.odb,Step-1,Increment      1: Step Time =    1.000,"P-13-1",           424,       4.35358,       169.920,            0.,NA,NA,"",   5.38595E+06,  -5.11585E+06,  -5.11585E+06
C:/temp/Job-13.odb,Step-1,Increment      1: Step Time =    1.000,"P-13-1",           425,       4.83971,       179.883,            0.,NA,NA,"",   3.64212E+06,   3.56644E+06,   3.56644E+06
C:/temp/Job-13.odb,Step-1,Increment      1: Step Time =    1.000,"P-13-1",           426,       5.02170,       189.956,            0.,NA,NA,"",   12.4341E+06,   13.2159E+06,   13.2159E+06
C:/temp/Job-13.odb,Step-1,Increment      1: Step Time =    1.000,"P-13-1",           427,       181.139,       162.707,            0.,NA,NA,"",   11.8318E+06,   12.1730E+06,   12.1730E+06
C:/temp/Job-13.odb,Step-1,Increment      1: Step Time =    1.000,"P-13-1",           428,       154.449,       186.043,            0.,NA,NA,"",   29.8672E+06,   27.5146E+06,   27.5146E+06
C:/temp/Job-13.odb,Step-1,Increment      1: Step Time =    1.000,"P-13-1",           429,       4.35914,       133.439,            0.,NA,NA,"",   1.76825E+06,  -1.69616E+06,  -1.69616E+06
C:/temp/Job-13.odb,Step-1,Increment      1: Step Time =    1.000,"P-13-1",           430,       12.5083,       153.525,            0.,NA,NA,"",   6.90623E+06,  -6.99277E+06,  -6.99277E+06
C:/temp/Job-13.odb,Step-1,Increment      1: Step Time =    1.000,"P-13-1",           431,       147.448,       10.2489,            0.,NA,NA,"",   60.4661E+06,   33.0971E+06,   33.0971E+06
C:/temp/Job-13.odb,Step-1,Increment      1: Step Time =    1.000,"P-13-1",           432,       186.532,       154.878,            0.,NA,NA,"",   12.5411E+06,   12.7559E+06,   12.7559E+06
C:/temp/Job-13.odb,Step-1,Increment      1: Step Time =    1.000,"P-13-1",           433,       64.8991,       195.713,            0.,NA,NA,"",   127.451E+06,   7.07096E+06,   7.07096E+06
C:/temp/Job-13.odb,Step-1,Increment      1: Step Time =    1.000,"P-13-1",           434,       186.010,       44.3360,            0.,NA,NA,"",   14.2043E+06,   14.4025E+06,   14.4025E+06
C:/temp/Job-13.odb,Step-1,Increment      1: Step Time =    1.000,"P-13-1",           435,       44.3689,       186.655,            0.,NA,NA,"",   29.0087E+06,  -29.1601E+06,  -29.1601E+06
C:/temp/Job-13.odb,Step-1,Increment      1: Step Time =    1.000,"P-13-1",           436,       29.5354,       173.282,            0.,NA,NA,"",   21.3836E+06,  -21.5727E+06,  -21.5727E+06
C:/temp/Job-13.odb,Step-1,Increment      1: Step Time =    1.000,"P-13-1",           437,       14.5386,       159.338,            0.,NA,NA,"",   9.22087E+06,  -9.15466E+06,  -9.15466E+06
C:/temp/Job-13.odb,Step-1,Increment      1: Step Time =    1.000,"P-13-1",           438,       133.881,       3.66006,            0.,NA,NA,"",   123.060E+06,   13.0057E+06,   13.0057E+06
C:/temp/Job-13.odb,Step-1,Increment      1: Step Time =    1.000,"P-13-1",           439,       44.1232,       15.4188,            0.,NA,NA,"",   52.2945E+06,  -32.1115E+06,  -32.1115E+06
C:/temp/Job-13.odb,Step-1,Increment      1: Step Time =    1.000,"P-13-1",           440,       162.359,       179.761,            0.,NA,NA,"",   21.5819E+06,   20.2869E+06,   20.2869E+06
C:/temp/Job-13.odb,Step-1,Increment      1: Step Time =    1.000,"P-13-1",           441,       170.517,       174.466,            0.,NA,NA,"",   13.5337E+06,   13.7964E+06,   13.7964E+06
C:/temp/Job-13.odb,Step-1,Increment      1: Step Time =    1.000,"P-13-1",           442,       164.950,       20.9426,            0.,NA,NA,"",   22.2953E+06,   19.8527E+06,   19.8527E+06
C:/temp/Job-13.odb,Step-1,Increment      1: Step Time =    1.000,"P-13-1",           443,       190.217,       152.039,            0.,NA,NA,"",   9.05724E+06,   9.12722E+06,   9.12722E+06
C:/temp/Job-13.odb,Step-1,Increment      1: Step Time =    1.000,"P-13-1",           444,       39.8676,       18.2186,            0.,NA,NA,"",   33.2585E+06,  -15.9686E+06,  -15.9686E+06
C:/temp/Job-13.odb,Step-1,Increment      1: Step Time =    1.000,"P-13-1",           445,       160.942,       17.7595,            0.,NA,NA,"",   27.6580E+06,   25.2013E+06,   25.2013E+06
C:/temp/Job-13.odb,Step-1,Increment      1: Step Time =    1.000,"P-13-1",           446,       191.520,       147.891,            0.,NA,NA,"",   10.9484E+06,   11.1012E+06,   11.1012E+06
C:/temp/Job-13.odb,Step-1,Increment      1: Step Time =    1.000,"P-13-1",           447,       14.0832,       43.3300,            0.,NA,NA,"",   8.02798E+06,  -7.92829E+06,  -7.92829E+06
C:/temp/Job-13.odb,Step-1,Increment      1: Step Time =    1.000,"P-13-1",           448,       8.57822,       144.572,            0.,NA,NA,"",   3.82541E+06,  -3.85448E+06,  -3.85448E+06
C:/temp/Job-13.odb,Step-1,Increment      1: Step Time =    1.000,"P-13-1",           449,       176.670,       30.5840,            0.,NA,NA,"",   12.8411E+06,   12.9805E+06,   12.9805E+06
C:/temp/Job-13.odb,Step-1,Increment      1: Step Time =    1.000,"P-13-1",           450,       10.6920,       148.776,            0.,NA,NA,"",   5.09564E+06,  -5.13954E+06,  -5.13954E+06
C:/temp/Job-13.odb,Step-1,Increment      1: Step Time =    1.000,"P-13-1",           451,       156.938,       14.4367,            0.,NA,NA,"",   30.6273E+06,   21.9341E+06,   21.9341E+06
C:/temp/Job-13.odb,Step-1,Increment      1: Step Time =    1.000,"P-13-1",           452,       49.2489,       11.2188,            0.,NA,NA,"",   66.5859E+06,  -44.9909E+06,  -44.9909E+06
C:/temp/Job-13.odb,Step-1,Increment      1: Step Time =    1.000,"P-13-1",           453,       40.3744,       183.392,            0.,NA,NA,"",   28.1936E+06,  -28.6139E+06,  -28.6139E+06
C:/temp/Job-13.odb,Step-1,Increment      1: Step Time =    1.000,"P-13-1",           454,       26.0512,       169.855,            0.,NA,NA,"",   18.2943E+06,  -18.4216E+06,  -18.4216E+06
C:/temp/Job-13.odb,Step-1,Increment      1: Step Time =    1.000,"P-13-1",           455,       53.4111,       10.6421,            0.,NA,NA,"",   72.5840E+06,  -36.8125E+06,  -36.8125E+06
C:/temp/Job-13.odb,Step-1,Increment      1: Step Time =    1.000,"P-13-1",           456,       152.195,       10.8356,            0.,NA,NA,"",   38.2320E+06,   14.0391E+06,   14.0391E+06
C:/temp/Job-13.odb,Step-1,Increment      1: Step Time =    1.000,"P-13-1",           457,       36.7236,       180.025,            0.,NA,NA,"",   26.1506E+06,  -26.4865E+06,  -26.4865E+06
C:/temp/Job-13.odb,Step-1,Increment      1: Step Time =    1.000,"P-13-1",           458,       195.507,       133.869,            0.,NA,NA,"",   17.9547E+06,   9.92168E+06,   9.92168E+06
C:/temp/Job-13.odb,Step-1,Increment      1: Step Time =    1.000,"P-13-1",           459,       183.800,       158.619,            0.,NA,NA,"",   12.8729E+06,   13.0280E+06,   13.0280E+06
C:/temp/Job-13.odb,Step-1,Increment      1: Step Time =    1.000,"P-13-1",           460,       35.3799,       20.7328,            0.,NA,NA,"",   25.2771E+06,  -25.1339E+06,  -25.1339E+06
C:/temp/Job-13.odb,Step-1,Increment      1: Step Time =    1.000,"P-13-1",           461,       24.1788,       31.1364,            0.,NA,NA,"",   15.3758E+06,  -15.2935E+06,  -15.2935E+06
C:/temp/Job-13.odb,Step-1,Increment      1: Step Time =    1.000,"P-13-1",           462,       183.441,       39.9590,            0.,NA,NA,"",   13.1773E+06,   13.5102E+06,   13.5102E+06
C:/temp/Job-13.odb,Step-1,Increment      1: Step Time =    1.000,"P-13-1",           463,       174.434,       170.892,            0.,NA,NA,"",   11.4843E+06,   11.9184E+06,   11.9184E+06
C:/temp/Job-13.odb,Step-1,Increment      1: Step Time =    1.000,"P-13-1",           464,       172.769,       27.1324,            0.,NA,NA,"",   15.0913E+06,   14.5661E+06,   14.5661E+06
C:/temp/Job-13.odb,Step-1,Increment      1: Step Time =    1.000,"P-13-1",           465,       18.9979,       162.941,            0.,NA,NA,"",   12.2710E+06,  -12.1954E+06,  -12.1954E+06
C:/temp/Job-13.odb,Step-1,Increment      1: Step Time =    1.000,"P-13-1",           466,       158.498,       182.921,            0.,NA,NA,"",   24.3882E+06,   23.4268E+06,   23.4268E+06
C:/temp/Job-13.odb,Step-1,Increment      1: Step Time =    1.000,"P-13-1",           467,       67.0383,       4.34008,            0.,NA,NA,"",   171.087E+06,   71.3178E+06,   71.3178E+06
C:/temp/Job-13.odb,Step-1,Increment      1: Step Time =    1.000,"P-13-1",           468,       26.7972,       176.248,            0.,NA,NA,"",   13.9441E+06,  -14.0466E+06,  -14.0466E+06
C:/temp/Job-13.odb,Step-1,Increment      1: Step Time =    1.000,"P-13-1",           469,       173.106,       179.705,            0.,NA,NA,"",   7.66415E+06,   7.99103E+06,   7.99103E+06
C:/temp/Job-13.odb,Step-1,Increment      1: Step Time =    1.000,"P-13-1",           470,       184.761,       165.794,            0.,NA,NA,"",   5.64236E+06,   6.07911E+06,   6.07911E+06
C:/temp/Job-13.odb,Step-1,Increment      1: Step Time =    1.000,"P-13-1",           471,       16.7314,       167.148,            0.,NA,NA,"",   10.5831E+06,  -10.1923E+06,  -10.1923E+06
C:/temp/Job-13.odb,Step-1,Increment      1: Step Time =    1.000,"P-13-1",           472,       155.865,       8.53143,            0.,NA,NA,"",   15.1423E+06,  -3.75703E+06,  -3.75703E+06
C:/temp/Job-13.odb,Step-1,Increment      1: Step Time =    1.000,"P-13-1",           473,       179.526,       25.9324,            0.,NA,NA,"",   9.35418E+06,   6.94385E+06,   6.94385E+06
C:/temp/Job-13.odb,Step-1,Increment      1: Step Time =    1.000,"P-13-1",           474,       54.8531,       191.771,            0.,NA,NA,"",   54.1766E+06,  -23.5825E+06,  -23.5825E+06
C:/temp/Job-13.odb,Step-1,Increment      1: Step Time =    1.000,"P-13-1",           475,       16.8087,       39.0367,            0.,NA,NA,"",   9.94415E+06,  -9.92209E+06,  -9.92209E+06
C:/temp/Job-13.odb,Step-1,Increment      1: Step Time =    1.000,"P-13-1",           476,       166.299,       177.052,            0.,NA,NA,"",   16.7039E+06,   15.8945E+06,   15.8945E+06
C:/temp/Job-13.odb,Step-1,Increment      1: Step Time =    1.000,"P-13-1",           477,       33.1265,       176.600,            0.,NA,NA,"",   24.0520E+06,  -24.3662E+06,  -24.3662E+06
C:/temp/Job-13.odb,Step-1,Increment      1: Step Time =    1.000,"P-13-1",           478,       22.6280,       166.401,            0.,NA,NA,"",   15.3068E+06,  -15.2699E+06,  -15.2699E+06
C:/temp/Job-13.odb,Step-1,Increment      1: Step Time =    1.000,"P-13-1",           479,       27.6226,       27.6263,            0.,NA,NA,"",   18.0851E+06,  -18.0979E+06,  -18.0979E+06
C:/temp/Job-13.odb,Step-1,Increment      1: Step Time =    1.000,"P-13-1",           480,       178.096,       166.916,            0.,NA,NA,"",   11.2607E+06,   11.6537E+06,   11.6537E+06
C:/temp/Job-13.odb,Step-1,Increment      1: Step Time =    1.000,"P-13-1",           481,       21.8294,       27.5237,            0.,NA,NA,"",   11.1741E+06,  -10.9950E+06,  -10.9950E+06
C:/temp/Job-13.odb,Step-1,Increment      1: Step Time =    1.000,"P-13-1",           482,       187.409,       38.5296,            0.,NA,NA,"",   7.23242E+06,   7.61011E+06,   7.61011E+06
C:/temp/Job-13.odb,Step-1,Increment      1: Step Time =    1.000,"P-13-1",           483,       12.7598,       35.7159,            0.,NA,NA,"",   8.78873E+06,  -8.35938E+06,  -8.35938E+06
C:/temp/Job-13.odb,Step-1,Increment      1: Step Time =    1.000,"P-13-1",           484,       163.599,       14.5659,            0.,NA,NA,"",   24.0379E+06,   16.1915E+06,   16.1915E+06
C:/temp/Job-13.odb,Step-1,Increment      1: Step Time =    1.000,"P-13-1",           485,       38.6616,       15.0865,            0.,NA,NA,"",   42.3491E+06,  -20.5249E+06,  -20.5249E+06
C:/temp/Job-13.odb,Step-1,Increment      1: Step Time =    1.000,"P-13-1",           486,       45.6309,       9.44031,            0.,NA,NA,"",   49.0838E+06,   4.44175E+06,   4.44175E+06
C:/temp/Job-13.odb,Step-1,Increment      1: Step Time =    1.000,"P-13-1",           487,       36.3873,       186.475,            0.,NA,NA,"",   13.4841E+06,  -6.66324E+06,  -6.66324E+06
C:/temp/Job-13.odb,Step-1,Increment      1: Step Time =    1.000,"P-13-1",           488,       160.962,       185.503,            0.,NA,NA,"",   18.4995E+06,   16.2629E+06,   16.2629E+06
C:/temp/Job-13.odb,Step-1,Increment      1: Step Time =    1.000,"P-13-1",           489,       33.3470,       182.744,            0.,NA,NA,"",   12.6428E+06,  -12.6892E+06,  -12.6892E+06
C:/temp/Job-13.odb,Step-1,Increment      1: Step Time =    1.000,"P-13-1",           490,       164.250,       182.262,            0.,NA,NA,"",   21.4320E+06,   19.8863E+06,   19.8863E+06
C:/temp/Job-13.odb,Step-1,Increment      1: Step Time =    1.000,"P-13-1",           491,       35.5110,       192.119,            0.,NA,NA,"",   21.5439E+06,   20.7465E+06,   20.7465E+06
C:/temp/Job-13.odb,Step-1,Increment      1: Step Time =    1.000,"P-13-1",           492,       161.947,       191.397,            0.,NA,NA,"",   10.8003E+06,  -279.816E+03,  -279.816E+03
C:/temp/Job-13.odb,Step-1,Increment      1: Step Time =    1.000,"P-13-1",           493,       27.9149,       181.372,            0.,NA,NA,"",   8.10753E+06,  -7.94276E+06,  -7.94276E+06
C:/temp/Job-13.odb,Step-1,Increment      1: Step Time =    1.000,"P-13-1",           494,       170.945,       186.299,            0.,NA,NA,"",   6.81251E+06,   5.12186E+06,   5.12186E+06
C:/temp/Job-13.odb,Step-1,Increment      1: Step Time =    1.000,"P-13-1",           495,       14.8912,       171.068,            0.,NA,NA,"",   8.63341E+06,  -7.86526E+06,  -7.86526E+06
C:/temp/Job-13.odb,Step-1,Increment      1: Step Time =    1.000,"P-13-1",           496,       186.086,       171.511,            0.,NA,NA,"",   2.93743E+06,   3.19958E+06,   3.19958E+06
C:/temp/Job-13.odb,Step-1,Increment      1: Step Time =    1.000,"P-13-1",           497,       175.713,       22.5726,            0.,NA,NA,"",   12.4693E+06,   8.81229E+06,   8.81229E+06
C:/temp/Job-13.odb,Step-1,Increment      1: Step Time =    1.000,"P-13-1",           498,       38.9203,       7.01147,            0.,NA,NA,"",   23.1277E+06,   18.0072E+06,   18.0072E+06
C:/temp/Job-13.odb,Step-1,Increment      1: Step Time =    1.000,"P-13-1",           499,       44.7631,       192.341,            0.,NA,NA,"",   18.1575E+06,   12.8903E+06,   12.8903E+06
C:/temp/Job-13.odb,Step-1,Increment      1: Step Time =    1.000,"P-13-1",           500,       19.5025,       29.8858,            0.,NA,NA,"",   10.3205E+06,  -10.2839E+06,  -10.2839E+06
C:/temp/Job-13.odb,Step-1,Increment      1: Step Time =    1.000,"P-13-1",           501,       7.32919,       35.5604,            0.,NA,NA,"",   6.91863E+06,  -6.63003E+06,  -6.63003E+06
C:/temp/Job-13.odb,Step-1,Increment      1: Step Time =    1.000,"P-13-1",           502,       33.2397,       16.0438,            0.,NA,NA,"",   12.9715E+06,  -7.17477E+06,  -7.17477E+06
C:/temp/Job-13.odb,Step-1,Increment      1: Step Time =    1.000,"P-13-1",           503,       191.016,       38.5709,            0.,NA,NA,"",   5.28479E+06,   545.724E+03,   545.724E+03
C:/temp/Job-13.odb,Step-1,Increment      1: Step Time =    1.000,"P-13-1",           504,       167.458,       17.4008,            0.,NA,NA,"",   21.3894E+06,   17.8023E+06,   17.8023E+06
C:/temp/Job-13.odb,Step-1,Increment      1: Step Time =    1.000,"P-13-1",           505,       24.7994,       24.1247,            0.,NA,NA,"",   11.0834E+06,  -10.8035E+06,  -10.8035E+06
C:/temp/Job-13.odb,Step-1,Increment      1: Step Time =    1.000,"P-13-1",           506,       23.4264,       172.960,            0.,NA,NA,"",   13.1820E+06,  -13.0837E+06,  -13.0837E+06
C:/temp/Job-13.odb,Step-1,Increment      1: Step Time =    1.000,"P-13-1",           507,       177.349,       174.754,            0.,NA,NA,"",   6.44646E+06,   6.98319E+06,   6.98319E+06
C:/temp/Job-13.odb,Step-1,Increment      1: Step Time =    1.000,"P-13-1",           508,       17.8191,       173.500,            0.,NA,NA,"",   8.64378E+06,  -7.94679E+06,  -7.94679E+06
C:/temp/Job-13.odb,Step-1,Increment      1: Step Time =    1.000,"P-13-1",           509,       28.4063,       20.2155,            0.,NA,NA,"",   10.9724E+06,  -10.2728E+06,  -10.2728E+06
C:/temp/Job-13.odb,Step-1,Increment      1: Step Time =    1.000,"P-13-1",           510,       171.607,       19.8722,            0.,NA,NA,"",   15.6422E+06,   13.7373E+06,   13.7373E+06
C:/temp/Job-13.odb,Step-1,Increment      1: Step Time =    1.000,"P-13-1",           511,       166.535,       192.004,            0.,NA,NA,"",   5.19159E+06,  -2.89200E+06,  -2.89200E+06
C:/temp/Job-13.odb,Step-1,Increment      1: Step Time =    1.000,"P-13-1",           512,       178.516,       182.661,            0.,NA,NA,"",   4.75630E+06,   4.48878E+06,   4.48878E+06
C:/temp/Job-13.odb,Step-1,Increment      1: Step Time =    1.000,"P-13-1",           513,       15.1517,       31.9970,            0.,NA,NA,"",   9.41409E+06,  -8.81887E+06,  -8.81887E+06
C:/temp/Job-13.odb,Step-1,Increment      1: Step Time =    1.000,"P-13-1",           514,       183.479,       28.5407,            0.,NA,NA,"",   7.06378E+06,   6.18028E+06,   6.18028E+06
C:/temp/Job-13.odb,Step-1,Increment      1: Step Time =    1.000,"P-13-1",           515,       24.5908,       16.0737,            0.,NA,NA,"",   7.80858E+06,   648.017E+03,   648.017E+03
C:/temp/Job-13.odb,Step-1,Increment      1: Step Time =    1.000,"P-13-1",           516,       18.3118,       24.5065,            0.,NA,NA,"",   7.58689E+06,  -5.81758E+06,  -5.81758E+06
C:/temp/Job-13.odb,Step-1,Increment      1: Step Time =    1.000,"P-13-1",           517,       179.284,       17.1908,            0.,NA,NA,"",   9.87408E+06,   3.98406E+06,   3.98406E+06
C:/temp/Job-13.odb,Step-1,Increment      1: Step Time =    1.000,"P-13-1",           518,       23.8268,       180.060,            0.,NA,NA,"",   7.63455E+06,  -5.33067E+06,  -5.33067E+06
C:/temp/Job-13.odb,Step-1,Increment      1: Step Time =    1.000,"P-13-1",           519,       183.542,       178.745,            0.,NA,NA,"",   3.60930E+06,   3.52424E+06,   3.52424E+06
C:/temp/Job-13.odb,Step-1,Increment      1: Step Time =    1.000,"P-13-1",           520,       165.406,       9.03387,            0.,NA,NA,"",   8.57065E+06,  -1.55443E+06,  -1.55443E+06
C:/temp/Job-13.odb,Step-1,Increment      1: Step Time =    1.000,"P-13-1",           521,       29.3101,       13.8519,            0.,NA,NA,"",   9.01908E+06,   1.90954E+06,   1.90954E+06
C:/temp/Job-13.odb,Step-1,Increment      1: Step Time =    1.000,"P-13-1",           522,       183.221,       182.149,            0.,NA,NA,"",   4.80629E+06,   1.82953E+06,   1.82953E+06
C:/temp/Job-13.odb,Step-1,Increment      1: Step Time =    1.000,"P-13-1",           523,       15.6776,       178.355,            0.,NA,NA,"",   5.48560E+06,  -2.18892E+06,  -2.18892E+06
C:/temp/Job-13.odb,Step-1,Increment      1: Step Time =    1.000,"P-13-1",           524,       173.870,       15.1976,            0.,NA,NA,"",   11.5668E+06,   9.17886E+06,   9.17886E+06
C:/temp/Job-13.odb,Step-1,Increment      1: Step Time =    1.000,"P-13-1",           525,       24.4488,       185.406,            0.,NA,NA,"",   8.18626E+06,   5.12504E+06,   5.12504E+06
C:/temp/Job-13.odb,Step-1,Increment      1: Step Time =    1.000,"P-13-1",           526,       178.908,       188.677,            0.,NA,NA,"",   5.16467E+06,   3.31341E+06,   3.31341E+06
C:/temp/Job-13.odb,Step-1,Increment      1: Step Time =    1.000,"P-13-1",           527,       186.848,       175.051,            0.,NA,NA,"",   3.16521E+06,   2.90367E+06,   2.90367E+06
C:/temp/Job-13.odb,Step-1,Increment      1: Step Time =    1.000,"P-13-1",           528,       12.5868,       173.670,            0.,NA,NA,"",   6.80720E+06,  -5.70697E+06,  -5.70697E+06
C:/temp/Job-13.odb,Step-1,Increment      1: Step Time =    1.000,"P-13-1",           529,       19.6592,       185.455,            0.,NA,NA,"",   7.52969E+06,   7.24262E+06,   7.24262E+06
C:/temp/Job-13.odb,Step-1,Increment      1: Step Time =    1.000,"P-13-1",           530,       16.8755,       28.4256,            0.,NA,NA,"",   9.49962E+06,  -8.49377E+06,  -8.49377E+06
C:/temp/Job-13.odb,Step-1,Increment      1: Step Time =    1.000,"P-13-1",           531,       16.8794,       19.3851,            0.,NA,NA,"",   4.96107E+06,   1.30434E+06,   1.30434E+06
C:/temp/Job-13.odb,Step-1,Increment      1: Step Time =    1.000,"P-13-1",           532,       185.605,       24.3392,            0.,NA,NA,"",   11.7371E+06,  -1.47670E+06,  -1.47670E+06
C:/temp/Job-13.odb,Step-1,Increment      1: Step Time =    1.000,"P-13-1",           533,       19.3328,       14.8008,            0.,NA,NA,"",   8.20064E+06,   5.89563E+06,   5.89563E+06
C:/temp/Job-13.odb,Step-1,Increment      1: Step Time =    1.000,"P-13-1",           534,       184.831,       185.331,            0.,NA,NA,"",   5.39105E+06,  -237.522E+03,  -237.522E+03
C:/temp/Job-13.odb,Step-1,Increment      1: Step Time =    1.000,"P-13-1",           535,       14.9135,       184.772,            0.,NA,NA,"",   7.15072E+06,   7.31499E+06,   7.31499E+06
C:/temp/Job-13.odb,Step-1,Increment      1: Step Time =    1.000,"P-13-1",           536,       15.1685,       14.7246,            0.,NA,NA,"",   7.48618E+06,   7.89290E+06,   7.89290E+06
C:/temp/Job-13.odb,Step-1,Increment      1: Step Time =    1.000,"P-13-1",           537,       190.150,       25.7265,            0.,NA,NA,"",   6.17874E+06,   354.136E+03,   354.136E+03
C:/temp/Job-13.odb,Step-1,Increment      1: Step Time =    1.000,"P-13-1",           538,       190.787,       174.482,            0.,NA,NA,"",   4.14539E+06,  -477.793E+03,  -477.793E+03
C:/temp/Job-13.odb,Step-1,Increment      1: Step Time =    1.000,"P-13-1",           539,       8.87305,       174.597,            0.,NA,NA,"",   5.19809E+06,  -2.97739E+06,  -2.97739E+06
C:/temp/Job-13.odb,Step-1,Increment      1: Step Time =    1.000,"P-13-1",           540,       174.815,       10.0303,            0.,NA,NA,"",   9.73817E+06,  -759.551E+03,  -759.551E+03
C:/temp/Job-13.odb,Step-1,Increment      1: Step Time =    1.000,"P-13-1",           541,       25.0802,       190.128,            0.,NA,NA,"",   15.7376E+06,   15.3917E+06,   15.3917E+06
C:/temp/Job-13.odb,Step-1,Increment      1: Step Time =    1.000,"P-13-1",           542,       175.091,       191.860,            0.,NA,NA,"",   5.19141E+06,  -1.96211E+06,  -1.96211E+06
C:/temp/Job-13.odb,Step-1,Increment      1: Step Time =    1.000,"P-13-1",           543,       185.997,       20.4317,            0.,NA,NA,"",   13.7305E+06,  -1.86094E+06,  -1.86094E+06
C:/temp/Job-13.odb,Step-1,Increment      1: Step Time =    1.000,"P-13-1",           544,       186.568,       182.589,            0.,NA,NA,"",   5.10533E+06,   173.137E+03,   173.137E+03
C:/temp/Job-13.odb,Step-1,Increment      1: Step Time =    1.000,"P-13-1",           545,       29.6195,       9.53976,            0.,NA,NA,"",   14.8039E+06,   13.9259E+06,   13.9259E+06
C:/temp/Job-13.odb,Step-1,Increment      1: Step Time =    1.000,"P-13-1",           546,       185.026,       15.7955,            0.,NA,NA,"",   9.74816E+06,   1.66019E+06,   1.66019E+06
C:/temp/Job-13.odb,Step-1,Increment      1: Step Time =    1.000,"P-13-1",           547,       190.471,       183.993,            0.,NA,NA,"",   4.63808E+06,  -1.48153E+06,  -1.48153E+06
C:/temp/Job-13.odb,Step-1,Increment      1: Step Time =    1.000,"P-13-1",           548,       190.125,       15.3226,            0.,NA,NA,"",   5.98327E+06,  -2.08561E+06,  -2.08561E+06
C:/temp/Job-13.odb,Step-1,Increment      1: Step Time =    1.000,"P-13-1",           549,       184.788,       10.5297,            0.,NA,NA,"",   6.04053E+06,  -1.90677E+06,  -1.90677E+06
C:/temp/Job-13.odb,Step-1,Increment      1: Step Time =    1.000,"P-13-1",           550,       183.694,       191.052,            0.,NA,NA,"",   4.58949E+06,  -2.20888E+06,  -2.20888E+06
C:/temp/Job-13.odb,Step-1,Increment      1: Step Time =    1.000,"P-13-1",           551,       8.82625,       26.7675,            0.,NA,NA,"",   4.81112E+06,  -2.86514E+06,  -2.86514E+06
C:/temp/Job-13.odb,Step-1,Increment      1: Step Time =    1.000,"P-13-1",           552,       8.65417,       44.9305,            0.,NA,NA,"",   6.45580E+06,  -6.37070E+06,  -6.37070E+06
C:/temp/Job-13.odb,Step-1,Increment      1: Step Time =    1.000,"P-13-1",           553,       152.167,       191.016,            0.,NA,NA,"",   15.4267E+06,   14.6125E+06,   14.6125E+06
C:/temp/Job-13.odb,Step-1,Increment      1: Step Time =    1.000,"P-13-1",           554,       8.77753,       164.842,            0.,NA,NA,"",   7.79626E+06,  -7.43786E+06,  -7.43786E+06
C:/temp/Job-13.odb,Step-1,Increment      1: Step Time =    1.000,"P-13-1",           555,       190.874,       163.418,            0.,NA,NA,"",   2.99362E+06,  -140.178E+03,  -140.178E+03
C:/temp/Job-13.odb,Step-1,Increment      1: Step Time =    1.000,"P-13-1",           556,       10.0289,       184.734,            0.,NA,NA,"",   6.97209E+06,   7.41587E+06,   7.41587E+06
C:/temp/Job-13.odb,Step-1,Increment      1: Step Time =    1.000,"P-13-1",           557,       14.9825,       9.86479,            0.,NA,NA,"",   13.2857E+06,   13.5068E+06,   13.5068E+06
C:/temp/Job-13.odb,Step-1,Increment      1: Step Time =    1.000,"P-13-1",           558,       10.4316,       15.4119,            0.,NA,NA,"",   7.05970E+06,   7.44571E+06,   7.44571E+06
C:/temp/Job-13.odb,Step-1,Increment      1: Step Time =    1.000,"P-13-1",           559,       14.8709,       190.024,            0.,NA,NA,"",   14.1693E+06,   14.3330E+06,   14.3330E+06
C:/temp/Job-13.odb,Step-1,Increment      1: Step Time =    1.000,"P-13-1",           560,       146.145,       191.221,            0.,NA,NA,"",   38.7742E+06,   33.1701E+06,   33.1701E+06
C:/temp/Job-13.odb,Step-1,Increment      1: Step Time =    1.000,"P-13-1",           561,       7.32308,       150.084,            0.,NA,NA,"",   5.39753E+06,  -5.40006E+06,  -5.40006E+06
C:/temp/Job-13.odb,Step-1,Increment      1: Step Time =    1.000,"P-13-1",           562,       12.9485,       165.293,            0.,NA,NA,"",   9.12100E+06,  -8.68778E+06,  -8.68778E+06
C:/temp/Job-13.odb,Step-1,Increment      1: Step Time =    1.000,"P-13-1",           563,       3.55959,       66.7209,            0.,NA,NA,"",   1.62157E+06,  -1.55936E+06,  -1.55936E+06
C:/temp/Job-13.odb,Step-1,Increment      1: Step Time =    1.000,"P-13-1",           564,       186.956,       161.594,            0.,NA,NA,"",   5.95242E+06,   6.24303E+06,   6.24303E+06
C:/temp/Job-13.odb,Step-1,Increment      1: Step Time =    1.000,"P-13-1",           565,       129.104,       2.53430,            0.,NA,NA,"",   184.836E+06,  -38.2471E+06,  -38.2471E+06
C:/temp/Job-13.odb,Step-1,Increment      1: Step Time =    1.000,"P-13-1",           566,       196.778,       144.173,            0.,NA,NA,"",   11.4706E+06,  -5.68084E+06,  -5.68084E+06
C:/temp/Job-13.odb,Step-1,Increment      1: Step Time =    1.000,"P-13-1",           567,       197.524,       140.476,            0.,NA,NA,"",   9.89216E+06,  -8.79591E+06,  -8.79591E+06
C:/temp/Job-13.odb,Step-1,Increment      1: Step Time =    1.000,"P-13-1",           568,       69.9515,       196.590,            0.,NA,NA,"",   169.243E+06,   8.57783E+06,   8.57783E+06
C:/temp/Job-13.odb,Step-1,Increment      1: Step Time =    1.000,"P-13-1",           569,       74.9404,       197.325,            0.,NA,NA,"",   225.255E+06,   11.5044E+06,   11.5044E+06
C:/temp/Job-13.odb,Step-1,Increment      1: Step Time =    1.000,"P-13-1",           570,       79.9448,       197.930,            0.,NA,NA,"",   294.447E+06,   18.4942E+06,   18.4942E+06
C:/temp/Job-13.odb,Step-1,Increment      1: Step Time =    1.000,"P-13-1",           571,       85.0391,       198.457,            0.,NA,NA,"",   413.293E+06,   137.793E+06,   137.793E+06
C:/temp/Job-13.odb,Step-1,Increment      1: Step Time =    1.000,"P-13-1",           572,       2.75994,       71.3850,            0.,NA,NA,"",   1.00721E+06,  -953.525E+03,  -953.525E+03
C:/temp/Job-13.odb,Step-1,Increment      1: Step Time =    1.000,"P-13-1",           573,       2.06741,       75.0231,            0.,NA,NA,"",   597.771E+03,  -571.101E+03,  -571.101E+03
C:/temp/Job-13.odb,Step-1,Increment      1: Step Time =    1.000,"P-13-1",           574,       192.936,       57.2786,            0.,NA,NA,"",   19.4964E+06,   18.5640E+06,   18.5640E+06
C:/temp/Job-13.odb,Step-1,Increment      1: Step Time =    1.000,"P-13-1",           575,       6.47887,       146.598,            0.,NA,NA,"",   4.35988E+06,  -4.35719E+06,  -4.35719E+06
C:/temp/Job-13.odb,Step-1,Increment      1: Step Time =    1.000,"P-13-1",           576,       41.9956,       8.11998,            0.,NA,NA,"",   25.1040E+06,   19.0096E+06,   19.0096E+06
C:/temp/Job-13.odb,Step-1,Increment      1: Step Time =    1.000,"P-13-1",           577,       9.03019,       159.672,            0.,NA,NA,"",   7.64306E+06,  -7.50533E+06,  -7.50533E+06
C:/temp/Job-13.odb,Step-1,Increment      1: Step Time =    1.000,"P-13-1",           578,       19.7472,       9.87821,            0.,NA,NA,"",   13.8828E+06,   13.7846E+06,   13.7846E+06
C:/temp/Job-13.odb,Step-1,Increment      1: Step Time =    1.000,"P-13-1",           579,       188.499,       158.275,            0.,NA,NA,"",   6.40640E+06,   6.62993E+06,   6.62993E+06
C:/temp/Job-13.odb,Step-1,Increment      1: Step Time =    1.000,"P-13-1",           580,       39.4546,       11.5152,            0.,NA,NA,"",   37.7875E+06,  -15.5984E+06,  -15.5984E+06
C:/temp/Job-13.odb,Step-1,Increment      1: Step Time =    1.000,"P-13-1",           581,       11.9117,       29.0415,            0.,NA,NA,"",   6.52083E+06,  -5.77351E+06,  -5.77351E+06
C:/temp/Job-13.odb,Step-1,Increment      1: Step Time =    1.000,"P-13-1",           582,       14.3865,       25.9502,            0.,NA,NA,"",   7.30327E+06,  -6.00781E+06,  -6.00781E+06
C:/temp/Job-13.odb,Step-1,Increment      1: Step Time =    1.000,"P-13-1",           583,       29.1989,       184.905,            0.,NA,NA,"",   7.83515E+06,  -2.02510E+06,  -2.02510E+06
C:/temp/Job-13.odb,Step-1,Increment      1: Step Time =    1.000,"P-13-1",           584,       11.9975,       169.874,            0.,NA,NA,"",   8.17527E+06,  -7.30797E+06,  -7.30797E+06
C:/temp/Job-13.odb,Step-1,Increment      1: Step Time =    1.000,"P-13-1",           585,       191.272,       34.4863,            0.,NA,NA,"",   4.24132E+06,  -2.41751E+06,  -2.41751E+06
C:/temp/Job-13.odb,Step-1,Increment      1: Step Time =    1.000,"P-13-1",           586,       186.867,       34.3141,            0.,NA,NA,"",   4.90678E+06,   4.12920E+06,   4.12920E+06
C:/temp/Job-13.odb,Step-1,Increment      1: Step Time =    1.000,"P-13-1",           587,       187.080,       178.923,            0.,NA,NA,"",   3.97326E+06,   1.69991E+06,   1.69991E+06
C:/temp/Job-13.odb,Step-1,Increment      1: Step Time =    1.000,"P-13-1",           588,       166.055,       12.3894,            0.,NA,NA,"",   16.7414E+06,   7.38974E+06,   7.38974E+06
C:/temp/Job-13.odb,Step-1,Increment      1: Step Time =    1.000,"P-13-1",           589,       164.122,       187.305,            0.,NA,NA,"",   12.9595E+06,   9.06925E+06,   9.06925E+06
C:/temp/Job-13.odb,Step-1,Increment      1: Step Time =    1.000,"P-13-1",           590,       167.006,       188.651,            0.,NA,NA,"",   8.13129E+06,   4.40652E+06,   4.40652E+06
C:/temp/Job-13.odb,Step-1,Increment      1: Step Time =    1.000,"P-13-1",           591,       181.580,       186.970,            0.,NA,NA,"",   4.80381E+06,   1.33641E+06,   1.33641E+06
C:/temp/Job-13.odb,Step-1,Increment      1: Step Time =    1.000,"P-13-1",           592,       169.438,       13.5918,            0.,NA,NA,"",   16.7423E+06,   13.3784E+06,   13.3784E+06
C:/temp/Job-13.odb,Step-1,Increment      1: Step Time =    1.000,"P-13-1",           593,       187.649,       29.8715,            0.,NA,NA,"",   4.63077E+06,   2.24699E+06,   2.24699E+06
C:/temp/Job-13.odb,Step-1,Increment      1: Step Time =    1.000,"P-13-1",           594,       183.269,       175.451,            0.,NA,NA,"",   3.39927E+06,   3.77532E+06,   3.77532E+06
C:/temp/Job-13.odb,Step-1,Increment      1: Step Time =    1.000,"P-13-1",           595,       166.804,       184.107,            0.,NA,NA,"",   16.2134E+06,   15.0233E+06,   15.0233E+06
C:/temp/Job-13.odb,Step-1,Increment      1: Step Time =    1.000,"P-13-1",           596,       19.8282,       181.402,            0.,NA,NA,"",   5.31816E+06,   618.022E+03,   618.022E+03
C:/temp/Job-13.odb,Step-1,Increment      1: Step Time =    1.000,"P-13-1",           597,       175.726,       187.269,            0.,NA,NA,"",   5.28984E+06,   2.81954E+06,   2.81954E+06
