ODB Name,Step,Frame,Part Instance Name,    Node Label,X,Y,Z,Section Name,Material Name,Section Point,       S-Mises,S-Max. In-Plane Principal (Abs),S-Max. Principal (Abs)
C:/temp/Job-15.odb,Step-1,Increment      1: Step Time =    1.000,"P-15-1",             1,       90.1833,       129.405,            0.,NA,NA,"",   2.40897E+06,   2.47178E+06,   2.47178E+06
C:/temp/Job-15.odb,Step-1,Increment      1: Step Time =    1.000,"P-15-1",             2,       77.6427,       121.474,            0.,NA,NA,"",   896.328E+03,   877.065E+03,   877.065E+03
C:/temp/Job-15.odb,Step-1,Increment      1: Step Time =    1.000,"P-15-1",             3,       71.9930,       113.289,            0.,NA,NA,"",   469.084E+03,  -373.560E+03,  -373.560E+03
C:/temp/Job-15.odb,Step-1,Increment      1: Step Time =    1.000,"P-15-1",             4,       69.2260,       103.737,            0.,NA,NA,"",   810.326E+03,  -824.001E+03,  -824.001E+03
C:/temp/Job-15.odb,Step-1,Increment      1: Step Time =    1.000,"P-15-1",             5,       69.6265,       93.7992,            0.,NA,NA,"",   696.231E+03,  -696.235E+03,  -696.235E+03
C:/temp/Job-15.odb,Step-1,Increment      1: Step Time =    1.000,"P-15-1",             6,       75.9872,       80.3942,            0.,NA,NA,"",   636.991E+03,   604.050E+03,   604.050E+03
C:/temp/Job-15.odb,Step-1,Increment      1: Step Time =    1.000,"P-15-1",             7,       83.4316,       73.7991,            0.,NA,NA,"",   1.66634E+06,   1.69209E+06,   1.69209E+06
C:/temp/Job-15.odb,Step-1,Increment      1: Step Time =    1.000,"P-15-1",             8,       92.5812,       69.9008,            0.,NA,NA,"",   2.53118E+06,   2.61218E+06,   2.61218E+06
C:/temp/Job-15.odb,Step-1,Increment      1: Step Time =    1.000,"P-15-1",             9,       107.419,       69.9008,            0.,NA,NA,"",   2.63488E+06,   2.73048E+06,   2.73048E+06
C:/temp/Job-15.odb,Step-1,Increment      1: Step Time =    1.000,"P-15-1",            10,       116.568,       73.7991,            0.,NA,NA,"",   1.98245E+06,   2.01756E+06,   2.01756E+06
C:/temp/Job-15.odb,Step-1,Increment      1: Step Time =    1.000,"P-15-1",            11,       124.013,       80.3942,            0.,NA,NA,"",   804.083E+03,   781.988E+03,   781.988E+03
C:/temp/Job-15.odb,Step-1,Increment      1: Step Time =    1.000,"P-15-1",            12,       130.374,       93.7992,            0.,NA,NA,"",   813.388E+03,  -816.184E+03,  -816.184E+03
C:/temp/Job-15.odb,Step-1,Increment      1: Step Time =    1.000,"P-15-1",            13,       130.774,       103.737,            0.,NA,NA,"",   945.059E+03,  -950.887E+03,  -950.887E+03
C:/temp/Job-15.odb,Step-1,Increment      1: Step Time =    1.000,"P-15-1",            14,       128.007,       113.289,            0.,NA,NA,"",   572.028E+03,  -107.390E+03,  -107.390E+03
C:/temp/Job-15.odb,Step-1,Increment      1: Step Time =    1.000,"P-15-1",            15,       122.357,       121.474,            0.,NA,NA,"",   1.12579E+06,   1.10147E+06,   1.10147E+06
C:/temp/Job-15.odb,Step-1,Increment      1: Step Time =    1.000,"P-15-1",            16,       109.817,       129.405,            0.,NA,NA,"",   2.65456E+06,   2.73295E+06,   2.73295E+06
C:/temp/Job-15.odb,Step-1,Increment      1: Step Time =    1.000,"P-15-1",            17,          100.,          131.,            0.,NA,NA,"",   2.90782E+06,   2.99690E+06,   2.99690E+06
C:/temp/Job-15.odb,Step-1,Increment      1: Step Time =    1.000,"P-15-1",            18,          190.,            0.,            0.,NA,NA,"",   997.982E+03,   998.095E+03,   998.095E+03
C:/temp/Job-15.odb,Step-1,Increment      1: Step Time =    1.000,"P-15-1",            19,          180.,            0.,            0.,NA,NA,"",   998.171E+03,   998.232E+03,   998.232E+03
C:/temp/Job-15.odb,Step-1,Increment      1: Step Time =    1.000,"P-15-1",            20,          170.,            0.,            0.,NA,NA,"",   1.00006E+06,   999.723E+03,   999.723E+03
C:/temp/Job-15.odb,Step-1,Increment      1: Step Time =    1.000,"P-15-1",            21,          160.,            0.,            0.,NA,NA,"",   993.597E+03,   993.132E+03,   993.132E+03
C:/temp/Job-15.odb,Step-1,Increment      1: Step Time =    1.000,"P-15-1",            22,          150.,            0.,            0.,NA,NA,"",   971.267E+03,   970.762E+03,   970.762E+03
C:/temp/Job-15.odb,Step-1,Increment      1: Step Time =    1.000,"P-15-1",            23,          140.,            0.,            0.,NA,NA,"",   926.527E+03,   926.159E+03,   926.159E+03
C:/temp/Job-15.odb,Step-1,Increment      1: Step Time =    1.000,"P-15-1",            24,          130.,            0.,            0.,NA,NA,"",   868.483E+03,   868.262E+03,   868.262E+03
C:/temp/Job-15.odb,Step-1,Increment      1: Step Time =    1.000,"P-15-1",            25,          120.,            0.,            0.,NA,NA,"",   814.561E+03,   815.073E+03,   815.073E+03
C:/temp/Job-15.odb,Step-1,Increment      1: Step Time =    1.000,"P-15-1",            26,          110.,            0.,            0.,NA,NA,"",   783.311E+03,   784.508E+03,   784.508E+03
C:/temp/Job-15.odb,Step-1,Increment      1: Step Time =    1.000,"P-15-1",            27,          100.,            0.,            0.,NA,NA,"",   789.276E+03,   790.733E+03,   790.733E+03
C:/temp/Job-15.odb,Step-1,Increment      1: Step Time =    1.000,"P-15-1",            28,           90.,            0.,            0.,NA,NA,"",   842.897E+03,   843.836E+03,   843.836E+03
C:/temp/Job-15.odb,Step-1,Increment      1: Step Time =    1.000,"P-15-1",            29,           80.,            0.,            0.,NA,NA,"",   934.047E+03,   934.221E+03,   934.221E+03
C:/temp/Job-15.odb,Step-1,Increment      1: Step Time =    1.000,"P-15-1",            30,           70.,            0.,            0.,NA,NA,"",   1.04415E+06,   1.04400E+06,   1.04400E+06
C:/temp/Job-15.odb,Step-1,Increment      1: Step Time =    1.000,"P-15-1",            31,           60.,            0.,            0.,NA,NA,"",   1.15611E+06,   1.15603E+06,   1.15603E+06
C:/temp/Job-15.odb,Step-1,Increment      1: Step Time =    1.000,"P-15-1",            32,           50.,            0.,            0.,NA,NA,"",   1.24767E+06,   1.24502E+06,   1.24502E+06
C:/temp/Job-15.odb,Step-1,Increment      1: Step Time =    1.000,"P-15-1",            33,           40.,            0.,            0.,NA,NA,"",   1.31470E+06,   1.31379E+06,   1.31379E+06
C:/temp/Job-15.odb,Step-1,Increment      1: Step Time =    1.000,"P-15-1",            34,           30.,            0.,            0.,NA,NA,"",   1.36423E+06,   1.36339E+06,   1.36339E+06
C:/temp/Job-15.odb,Step-1,Increment      1: Step Time =    1.000,"P-15-1",            35,           20.,            0.,            0.,NA,NA,"",   1.42069E+06,   1.42143E+06,   1.42143E+06
C:/temp/Job-15.odb,Step-1,Increment      1: Step Time =    1.000,"P-15-1",            36,           10.,            0.,            0.,NA,NA,"",   1.56024E+06,   1.56453E+06,   1.56453E+06
C:/temp/Job-15.odb,Step-1,Increment      1: Step Time =    1.000,"P-15-1",            37,          200.,            0.,            0.,NA,NA,"",   999.804E+03,   999.607E+03,   999.607E+03
C:/temp/Job-15.odb,Step-1,Increment      1: Step Time =    1.000,"P-15-1",            38,            0.,            0.,            0.,NA,NA,"",   1.92175E+06,   2.01091E+06,   2.01091E+06
C:/temp/Job-15.odb,Step-1,Increment      1: Step Time =    1.000,"P-15-1",            39,          200.,          190.,            0.,NA,NA,"",   1.00122E+06,   1.00037E+06,   1.00037E+06
C:/temp/Job-15.odb,Step-1,Increment      1: Step Time =    1.000,"P-15-1",            40,          200.,          180.,            0.,NA,NA,"",   1.00024E+06,   1.00111E+06,   1.00111E+06
C:/temp/Job-15.odb,Step-1,Increment      1: Step Time =    1.000,"P-15-1",            41,          200.,          170.,            0.,NA,NA,"",   991.079E+03,   1.00217E+06,   1.00217E+06
C:/temp/Job-15.odb,Step-1,Increment      1: Step Time =    1.000,"P-15-1",            42,          200.,          160.,            0.,NA,NA,"",   969.735E+03,   1.00185E+06,   1.00185E+06
C:/temp/Job-15.odb,Step-1,Increment      1: Step Time =    1.000,"P-15-1",            43,          200.,          150.,            0.,NA,NA,"",   937.270E+03,   1.00162E+06,   1.00162E+06
C:/temp/Job-15.odb,Step-1,Increment      1: Step Time =    1.000,"P-15-1",            44,          200.,          140.,            0.,NA,NA,"",   901.659E+03,   1.00229E+06,   1.00229E+06
C:/temp/Job-15.odb,Step-1,Increment      1: Step Time =    1.000,"P-15-1",            45,          200.,          130.,            0.,NA,NA,"",   875.629E+03,   1.00189E+06,   1.00189E+06
C:/temp/Job-15.odb,Step-1,Increment      1: Step Time =    1.000,"P-15-1",            46,          200.,          120.,            0.,NA,NA,"",   866.432E+03,   999.807E+03,   999.807E+03
C:/temp/Job-15.odb,Step-1,Increment      1: Step Time =    1.000,"P-15-1",            47,          200.,          110.,            0.,NA,NA,"",   870.288E+03,   997.172E+03,   997.172E+03
C:/temp/Job-15.odb,Step-1,Increment      1: Step Time =    1.000,"P-15-1",            48,          200.,          100.,            0.,NA,NA,"",   874.203E+03,   995.804E+03,   995.804E+03
C:/temp/Job-15.odb,Step-1,Increment      1: Step Time =    1.000,"P-15-1",            49,          200.,           90.,            0.,NA,NA,"",   870.903E+03,   997.283E+03,   997.283E+03
C:/temp/Job-15.odb,Step-1,Increment      1: Step Time =    1.000,"P-15-1",            50,          200.,           80.,            0.,NA,NA,"",   866.499E+03,   999.751E+03,   999.751E+03
C:/temp/Job-15.odb,Step-1,Increment      1: Step Time =    1.000,"P-15-1",            51,          200.,           70.,            0.,NA,NA,"",   874.193E+03,   1.00062E+06,   1.00062E+06
C:/temp/Job-15.odb,Step-1,Increment      1: Step Time =    1.000,"P-15-1",            52,          200.,           60.,            0.,NA,NA,"",   901.896E+03,   1.00063E+06,   1.00063E+06
C:/temp/Job-15.odb,Step-1,Increment      1: Step Time =    1.000,"P-15-1",            53,          200.,           50.,            0.,NA,NA,"",   943.982E+03,   1.00714E+06,   1.00714E+06
C:/temp/Job-15.odb,Step-1,Increment      1: Step Time =    1.000,"P-15-1",            54,          200.,           40.,            0.,NA,NA,"",   971.273E+03,   1.00190E+06,   1.00190E+06
C:/temp/Job-15.odb,Step-1,Increment      1: Step Time =    1.000,"P-15-1",            55,          200.,           30.,            0.,NA,NA,"",   991.193E+03,   1.00126E+06,   1.00126E+06
C:/temp/Job-15.odb,Step-1,Increment      1: Step Time =    1.000,"P-15-1",            56,          200.,           20.,            0.,NA,NA,"",   1.00029E+06,   1.00081E+06,   1.00081E+06
C:/temp/Job-15.odb,Step-1,Increment      1: Step Time =    1.000,"P-15-1",            57,          200.,           10.,            0.,NA,NA,"",   1.00122E+06,   1.00028E+06,   1.00028E+06
C:/temp/Job-15.odb,Step-1,Increment      1: Step Time =    1.000,"P-15-1",            58,          200.,          200.,            0.,NA,NA,"",   999.801E+03,   999.608E+03,   999.608E+03
C:/temp/Job-15.odb,Step-1,Increment      1: Step Time =    1.000,"P-15-1",            59,           10.,          200.,            0.,NA,NA,"",   1.56491E+06,   1.56787E+06,   1.56787E+06
C:/temp/Job-15.odb,Step-1,Increment      1: Step Time =    1.000,"P-15-1",            60,           20.,          200.,            0.,NA,NA,"",   1.42293E+06,   1.42388E+06,   1.42388E+06
C:/temp/Job-15.odb,Step-1,Increment      1: Step Time =    1.000,"P-15-1",            61,           30.,          200.,            0.,NA,NA,"",   1.36233E+06,   1.36170E+06,   1.36170E+06
C:/temp/Job-15.odb,Step-1,Increment      1: Step Time =    1.000,"P-15-1",            62,           40.,          200.,            0.,NA,NA,"",   1.30986E+06,   1.30899E+06,   1.30899E+06
C:/temp/Job-15.odb,Step-1,Increment      1: Step Time =    1.000,"P-15-1",            63,           50.,          200.,            0.,NA,NA,"",   1.24194E+06,   1.24142E+06,   1.24142E+06
C:/temp/Job-15.odb,Step-1,Increment      1: Step Time =    1.000,"P-15-1",            64,           60.,          200.,            0.,NA,NA,"",   1.15068E+06,   1.14995E+06,   1.14995E+06
C:/temp/Job-15.odb,Step-1,Increment      1: Step Time =    1.000,"P-15-1",            65,           70.,          200.,            0.,NA,NA,"",   1.04432E+06,   1.04371E+06,   1.04371E+06
C:/temp/Job-15.odb,Step-1,Increment      1: Step Time =    1.000,"P-15-1",            66,           80.,          200.,            0.,NA,NA,"",    936.16E+03,   936.178E+03,   936.178E+03
C:/temp/Job-15.odb,Step-1,Increment      1: Step Time =    1.000,"P-15-1",            67,           90.,          200.,            0.,NA,NA,"",   846.601E+03,   847.510E+03,   847.510E+03
C:/temp/Job-15.odb,Step-1,Increment      1: Step Time =    1.000,"P-15-1",            68,          100.,          200.,            0.,NA,NA,"",   792.520E+03,   793.940E+03,   793.940E+03
C:/temp/Job-15.odb,Step-1,Increment      1: Step Time =    1.000,"P-15-1",            69,          110.,          200.,            0.,NA,NA,"",   781.990E+03,   783.281E+03,   783.281E+03
C:/temp/Job-15.odb,Step-1,Increment      1: Step Time =    1.000,"P-15-1",            70,          120.,          200.,            0.,NA,NA,"",   812.777E+03,   813.427E+03,   813.427E+03
C:/temp/Job-15.odb,Step-1,Increment      1: Step Time =    1.000,"P-15-1",            71,          130.,          200.,            0.,NA,NA,"",   870.091E+03,   870.197E+03,   870.197E+03
C:/temp/Job-15.odb,Step-1,Increment      1: Step Time =    1.000,"P-15-1",            72,          140.,          200.,            0.,NA,NA,"",   932.261E+03,   931.930E+03,   931.930E+03
C:/temp/Job-15.odb,Step-1,Increment      1: Step Time =    1.000,"P-15-1",            73,          150.,          200.,            0.,NA,NA,"",   975.070E+03,   973.581E+03,   973.581E+03
C:/temp/Job-15.odb,Step-1,Increment      1: Step Time =    1.000,"P-15-1",            74,          160.,          200.,            0.,NA,NA,"",   994.197E+03,   993.857E+03,   993.857E+03
C:/temp/Job-15.odb,Step-1,Increment      1: Step Time =    1.000,"P-15-1",            75,          170.,          200.,            0.,NA,NA,"",   999.529E+03,   999.334E+03,   999.334E+03
C:/temp/Job-15.odb,Step-1,Increment      1: Step Time =    1.000,"P-15-1",            76,          180.,          200.,            0.,NA,NA,"",   998.018E+03,   998.050E+03,   998.050E+03
C:/temp/Job-15.odb,Step-1,Increment      1: Step Time =    1.000,"P-15-1",            77,          190.,          200.,            0.,NA,NA,"",   997.955E+03,   998.061E+03,   998.061E+03
C:/temp/Job-15.odb,Step-1,Increment      1: Step Time =    1.000,"P-15-1",            78,            0.,          200.,            0.,NA,NA,"",   1.92472E+06,   2.01853E+06,   2.01853E+06
C:/temp/Job-15.odb,Step-1,Increment      1: Step Time =    1.000,"P-15-1",            79,            0.,           10.,            0.,NA,NA,"",   1.38632E+06,   1.51344E+06,   1.51344E+06
C:/temp/Job-15.odb,Step-1,Increment      1: Step Time =    1.000,"P-15-1",            80,            0.,           20.,            0.,NA,NA,"",   1.17001E+06,   1.29763E+06,   1.29763E+06
C:/temp/Job-15.odb,Step-1,Increment      1: Step Time =    1.000,"P-15-1",            81,            0.,           30.,            0.,NA,NA,"",   1.04218E+06,   1.16489E+06,   1.16489E+06
C:/temp/Job-15.odb,Step-1,Increment      1: Step Time =    1.000,"P-15-1",            82,            0.,           40.,            0.,NA,NA,"",   940.993E+03,   1.05574E+06,   1.05574E+06
C:/temp/Job-15.odb,Step-1,Increment      1: Step Time =    1.000,"P-15-1",            83,            0.,           50.,            0.,NA,NA,"",   847.412E+03,   952.522E+03,   952.522E+03
C:/temp/Job-15.odb,Step-1,Increment      1: Step Time =    1.000,"P-15-1",            84,            0.,           60.,            0.,NA,NA,"",   754.721E+03,   849.118E+03,   849.118E+03
C:/temp/Job-15.odb,Step-1,Increment      1: Step Time =    1.000,"P-15-1",            85,            0.,           70.,            0.,NA,NA,"",   663.284E+03,   747.212E+03,   747.212E+03
C:/temp/Job-15.odb,Step-1,Increment      1: Step Time =    1.000,"P-15-1",            86,            0.,           80.,            0.,NA,NA,"",   580.283E+03,   655.677E+03,   655.677E+03
C:/temp/Job-15.odb,Step-1,Increment      1: Step Time =    1.000,"P-15-1",            87,            0.,           90.,            0.,NA,NA,"",   518.559E+03,   588.518E+03,   588.518E+03
C:/temp/Job-15.odb,Step-1,Increment      1: Step Time =    1.000,"P-15-1",            88,            0.,          100.,            0.,NA,NA,"",   494.912E+03,   563.013E+03,   563.013E+03
C:/temp/Job-15.odb,Step-1,Increment      1: Step Time =    1.000,"P-15-1",            89,            0.,          110.,            0.,NA,NA,"",   518.709E+03,   588.708E+03,   588.708E+03
C:/temp/Job-15.odb,Step-1,Increment      1: Step Time =    1.000,"P-15-1",            90,            0.,          120.,            0.,NA,NA,"",   579.822E+03,   655.173E+03,   655.173E+03
C:/temp/Job-15.odb,Step-1,Increment      1: Step Time =    1.000,"P-15-1",            91,            0.,          130.,            0.,NA,NA,"",   662.502E+03,   746.044E+03,   746.044E+03
C:/temp/Job-15.odb,Step-1,Increment      1: Step Time =    1.000,"P-15-1",            92,            0.,          140.,            0.,NA,NA,"",   759.610E+03,   852.097E+03,   852.097E+03
C:/temp/Job-15.odb,Step-1,Increment      1: Step Time =    1.000,"P-15-1",            93,            0.,          150.,            0.,NA,NA,"",   854.822E+03,   959.393E+03,   959.393E+03
C:/temp/Job-15.odb,Step-1,Increment      1: Step Time =    1.000,"P-15-1",            94,            0.,          160.,            0.,NA,NA,"",   945.966E+03,   1.06099E+06,   1.06099E+06
C:/temp/Job-15.odb,Step-1,Increment      1: Step Time =    1.000,"P-15-1",            95,            0.,          170.,            0.,NA,NA,"",   1.04477E+06,   1.16790E+06,   1.16790E+06
C:/temp/Job-15.odb,Step-1,Increment      1: Step Time =    1.000,"P-15-1",            96,            0.,          180.,            0.,NA,NA,"",   1.16833E+06,   1.29777E+06,   1.29777E+06
C:/temp/Job-15.odb,Step-1,Increment      1: Step Time =    1.000,"P-15-1",            97,            0.,          190.,            0.,NA,NA,"",   1.38606E+06,   1.51589E+06,   1.51589E+06
C:/temp/Job-15.odb,Step-1,Increment      1: Step Time =    1.000,"P-15-1",            98,       96.0040,       62.0029,            0.,NA,NA,"",   2.21268E+06,   2.34883E+06,   2.34883E+06
C:/temp/Job-15.odb,Step-1,Increment      1: Step Time =    1.000,"P-15-1",            99,       189.971,       66.4581,            0.,NA,NA,"",   925.653E+03,   1.02032E+06,   1.02032E+06
C:/temp/Job-15.odb,Step-1,Increment      1: Step Time =    1.000,"P-15-1",           100,       190.781,       134.828,            0.,NA,NA,"",   925.711E+03,   1.02036E+06,   1.02036E+06
C:/temp/Job-15.odb,Step-1,Increment      1: Step Time =    1.000,"P-15-1",           101,       181.237,       135.257,            0.,NA,NA,"",   1.00442E+06,   1.05404E+06,   1.05404E+06
C:/temp/Job-15.odb,Step-1,Increment      1: Step Time =    1.000,"P-15-1",           102,       158.121,       139.953,            0.,NA,NA,"",   1.29805E+06,   1.20200E+06,   1.20200E+06
C:/temp/Job-15.odb,Step-1,Increment      1: Step Time =    1.000,"P-15-1",           103,       146.948,       139.058,            0.,NA,NA,"",   1.46047E+06,   1.31013E+06,   1.31013E+06
C:/temp/Job-15.odb,Step-1,Increment      1: Step Time =    1.000,"P-15-1",           104,       137.758,       137.872,            0.,NA,NA,"",   1.57444E+06,   1.41620E+06,   1.41620E+06
C:/temp/Job-15.odb,Step-1,Increment      1: Step Time =    1.000,"P-15-1",           105,       124.768,       136.053,            0.,NA,NA,"",   1.68245E+06,   1.65143E+06,   1.65143E+06
C:/temp/Job-15.odb,Step-1,Increment      1: Step Time =    1.000,"P-15-1",           106,       114.492,       138.069,            0.,NA,NA,"",   1.88421E+06,   1.98577E+06,   1.98577E+06
C:/temp/Job-15.odb,Step-1,Increment      1: Step Time =    1.000,"P-15-1",           107,       106.325,       136.596,            0.,NA,NA,"",   2.33276E+06,   2.46972E+06,   2.46972E+06
C:/temp/Job-15.odb,Step-1,Increment      1: Step Time =    1.000,"P-15-1",           108,       94.7859,       135.610,            0.,NA,NA,"",   2.42849E+06,   2.53443E+06,   2.53443E+06
C:/temp/Job-15.odb,Step-1,Increment      1: Step Time =    1.000,"P-15-1",           109,       84.3184,       140.531,            0.,NA,NA,"",   1.69972E+06,   1.76272E+06,   1.76272E+06
C:/temp/Job-15.odb,Step-1,Increment      1: Step Time =    1.000,"P-15-1",           110,       70.9946,       138.201,            0.,NA,NA,"",   1.52327E+06,   1.43951E+06,   1.43951E+06
C:/temp/Job-15.odb,Step-1,Increment      1: Step Time =    1.000,"P-15-1",           111,       62.0398,       138.070,            0.,NA,NA,"",   1.40072E+06,   1.28122E+06,   1.28122E+06
C:/temp/Job-15.odb,Step-1,Increment      1: Step Time =    1.000,"P-15-1",           112,       53.1815,       135.169,            0.,NA,NA,"",   1.18894E+06,   1.08485E+06,   1.08485E+06
C:/temp/Job-15.odb,Step-1,Increment      1: Step Time =    1.000,"P-15-1",           113,       41.5201,       136.861,            0.,NA,NA,"",   1.02750E+06,   993.322E+03,   993.322E+03
C:/temp/Job-15.odb,Step-1,Increment      1: Step Time =    1.000,"P-15-1",           114,       31.5175,       135.603,            0.,NA,NA,"",   886.111E+03,   903.329E+03,   903.329E+03
C:/temp/Job-15.odb,Step-1,Increment      1: Step Time =    1.000,"P-15-1",           115,       20.9638,       133.931,            0.,NA,NA,"",   774.840E+03,   832.888E+03,   832.888E+03
C:/temp/Job-15.odb,Step-1,Increment      1: Step Time =    1.000,"P-15-1",           116,       9.98347,       133.497,            0.,NA,NA,"",   716.754E+03,   796.256E+03,   796.256E+03
C:/temp/Job-15.odb,Step-1,Increment      1: Step Time =    1.000,"P-15-1",           117,       9.38498,       124.280,            0.,NA,NA,"",   616.410E+03,   693.248E+03,   693.248E+03
C:/temp/Job-15.odb,Step-1,Increment      1: Step Time =    1.000,"P-15-1",           118,       18.8285,       124.126,            0.,NA,NA,"",   632.902E+03,   700.482E+03,   700.482E+03
C:/temp/Job-15.odb,Step-1,Increment      1: Step Time =    1.000,"P-15-1",           119,       32.7719,       126.781,            0.,NA,NA,"",   741.175E+03,   765.455E+03,   765.455E+03
C:/temp/Job-15.odb,Step-1,Increment      1: Step Time =    1.000,"P-15-1",           120,       45.1983,       126.171,            0.,NA,NA,"",   866.486E+03,   817.403E+03,   817.403E+03
C:/temp/Job-15.odb,Step-1,Increment      1: Step Time =    1.000,"P-15-1",           121,       50.4822,       127.097,            0.,NA,NA,"",   970.604E+03,   878.378E+03,   878.378E+03
C:/temp/Job-15.odb,Step-1,Increment      1: Step Time =    1.000,"P-15-1",           122,       60.8893,       128.286,            0.,NA,NA,"",   1.17416E+06,   1.01941E+06,   1.01941E+06
C:/temp/Job-15.odb,Step-1,Increment      1: Step Time =    1.000,"P-15-1",           123,       72.3863,       126.215,            0.,NA,NA,"",   1.11975E+06,   1.03426E+06,   1.03426E+06
C:/temp/Job-15.odb,Step-1,Increment      1: Step Time =    1.000,"P-15-1",           124,       127.128,       125.329,            0.,NA,NA,"",   1.30923E+06,   1.22000E+06,   1.22000E+06
C:/temp/Job-15.odb,Step-1,Increment      1: Step Time =    1.000,"P-15-1",           125,       138.794,       124.994,            0.,NA,NA,"",   1.35383E+06,   1.10706E+06,   1.10706E+06
C:/temp/Job-15.odb,Step-1,Increment      1: Step Time =    1.000,"P-15-1",           126,       146.287,       126.697,            0.,NA,NA,"",   1.32334E+06,   1.11292E+06,   1.11292E+06
C:/temp/Job-15.odb,Step-1,Increment      1: Step Time =    1.000,"P-15-1",           127,       154.924,       127.697,            0.,NA,NA,"",   1.21382E+06,   1.08673E+06,   1.08673E+06
C:/temp/Job-15.odb,Step-1,Increment      1: Step Time =    1.000,"P-15-1",           128,       167.108,       125.223,            0.,NA,NA,"",   1.04128E+06,   1.01820E+06,   1.01820E+06
C:/temp/Job-15.odb,Step-1,Increment      1: Step Time =    1.000,"P-15-1",           129,       180.839,       125.439,            0.,NA,NA,"",   945.579E+03,   1.01527E+06,   1.01527E+06
C:/temp/Job-15.odb,Step-1,Increment      1: Step Time =    1.000,"P-15-1",           130,       190.332,       125.102,            0.,NA,NA,"",   894.220E+03,   1.00899E+06,   1.00899E+06
C:/temp/Job-15.odb,Step-1,Increment      1: Step Time =    1.000,"P-15-1",           131,       136.463,       116.428,            0.,NA,NA,"",   956.426E+03,   436.403E+03,   436.403E+03
C:/temp/Job-15.odb,Step-1,Increment      1: Step Time =    1.000,"P-15-1",           132,       147.880,       114.482,            0.,NA,NA,"",   897.433E+03,   712.074E+03,   712.074E+03
C:/temp/Job-15.odb,Step-1,Increment      1: Step Time =    1.000,"P-15-1",           133,       158.333,       112.415,            0.,NA,NA,"",   775.627E+03,   743.119E+03,   743.119E+03
C:/temp/Job-15.odb,Step-1,Increment      1: Step Time =    1.000,"P-15-1",           134,       167.988,       114.518,            0.,NA,NA,"",   831.595E+03,   860.555E+03,   860.555E+03
C:/temp/Job-15.odb,Step-1,Increment      1: Step Time =    1.000,"P-15-1",           135,       180.143,       115.491,            0.,NA,NA,"",   860.759E+03,   951.205E+03,   951.205E+03
C:/temp/Job-15.odb,Step-1,Increment      1: Step Time =    1.000,"P-15-1",           136,       190.101,       115.177,            0.,NA,NA,"",   861.506E+03,   987.500E+03,   987.500E+03
C:/temp/Job-15.odb,Step-1,Increment      1: Step Time =    1.000,"P-15-1",           137,       136.620,       103.451,            0.,NA,NA,"",   717.876E+03,  -695.267E+03,  -695.267E+03
C:/temp/Job-15.odb,Step-1,Increment      1: Step Time =    1.000,"P-15-1",           138,       147.685,       103.832,            0.,NA,NA,"",   423.413E+03,   324.260E+03,   324.260E+03
C:/temp/Job-15.odb,Step-1,Increment      1: Step Time =    1.000,"P-15-1",           139,       157.917,       104.011,            0.,NA,NA,"",   551.431E+03,   566.705E+03,   566.705E+03
C:/temp/Job-15.odb,Step-1,Increment      1: Step Time =    1.000,"P-15-1",           140,       167.677,       104.061,            0.,NA,NA,"",   678.920E+03,   739.145E+03,   739.145E+03
C:/temp/Job-15.odb,Step-1,Increment      1: Step Time =    1.000,"P-15-1",           141,       179.916,       105.332,            0.,NA,NA,"",   789.478E+03,   892.961E+03,   892.961E+03
C:/temp/Job-15.odb,Step-1,Increment      1: Step Time =    1.000,"P-15-1",           142,       190.060,       105.253,            0.,NA,NA,"",   841.169E+03,   969.393E+03,   969.393E+03
C:/temp/Job-15.odb,Step-1,Increment      1: Step Time =    1.000,"P-15-1",           143,       137.155,       91.5439,            0.,NA,NA,"",   729.696E+03,  -431.929E+03,  -431.929E+03
C:/temp/Job-15.odb,Step-1,Increment      1: Step Time =    1.000,"P-15-1",           144,       149.029,       94.1302,            0.,NA,NA,"",   503.198E+03,   412.790E+03,   412.790E+03
C:/temp/Job-15.odb,Step-1,Increment      1: Step Time =    1.000,"P-15-1",           145,       158.663,       95.7201,            0.,NA,NA,"",   560.956E+03,   580.544E+03,   580.544E+03
C:/temp/Job-15.odb,Step-1,Increment      1: Step Time =    1.000,"P-15-1",           146,       167.354,       94.8182,            0.,NA,NA,"",   675.823E+03,   732.803E+03,   732.803E+03
C:/temp/Job-15.odb,Step-1,Increment      1: Step Time =    1.000,"P-15-1",           147,       180.984,       95.2705,            0.,NA,NA,"",   791.005E+03,   898.010E+03,   898.010E+03
C:/temp/Job-15.odb,Step-1,Increment      1: Step Time =    1.000,"P-15-1",           148,       190.217,       95.2276,            0.,NA,NA,"",   839.609E+03,   967.936E+03,   967.936E+03
C:/temp/Job-15.odb,Step-1,Increment      1: Step Time =    1.000,"P-15-1",           149,       137.391,       82.7566,            0.,NA,NA,"",   1.03075E+06,   457.201E+03,   457.201E+03
C:/temp/Job-15.odb,Step-1,Increment      1: Step Time =    1.000,"P-15-1",           150,       148.527,       82.8886,            0.,NA,NA,"",   996.692E+03,   809.169E+03,   809.169E+03
C:/temp/Job-15.odb,Step-1,Increment      1: Step Time =    1.000,"P-15-1",           151,       157.229,       86.0492,            0.,NA,NA,"",   819.621E+03,   763.739E+03,   763.739E+03
C:/temp/Job-15.odb,Step-1,Increment      1: Step Time =    1.000,"P-15-1",           152,       167.513,       85.8727,            0.,NA,NA,"",   825.449E+03,   853.919E+03,   853.919E+03
C:/temp/Job-15.odb,Step-1,Increment      1: Step Time =    1.000,"P-15-1",           153,       180.669,       85.3540,            0.,NA,NA,"",   851.912E+03,   947.140E+03,   947.140E+03
C:/temp/Job-15.odb,Step-1,Increment      1: Step Time =    1.000,"P-15-1",           154,       190.414,       85.2418,            0.,NA,NA,"",   860.098E+03,   987.246E+03,   987.246E+03
C:/temp/Job-15.odb,Step-1,Increment      1: Step Time =    1.000,"P-15-1",           155,       124.411,       73.3795,            0.,NA,NA,"",   1.44953E+06,   1.41439E+06,   1.41439E+06
C:/temp/Job-15.odb,Step-1,Increment      1: Step Time =    1.000,"P-15-1",           156,       137.104,       75.9563,            0.,NA,NA,"",   1.35743E+06,   1.09059E+06,   1.09059E+06
C:/temp/Job-15.odb,Step-1,Increment      1: Step Time =    1.000,"P-15-1",           157,       149.445,       72.4634,            0.,NA,NA,"",   1.30514E+06,   1.12358E+06,   1.12358E+06
C:/temp/Job-15.odb,Step-1,Increment      1: Step Time =    1.000,"P-15-1",           158,       158.042,       74.9694,            0.,NA,NA,"",   1.12831E+06,   1.02770E+06,   1.02770E+06
C:/temp/Job-15.odb,Step-1,Increment      1: Step Time =    1.000,"P-15-1",           159,       168.493,       76.0791,            0.,NA,NA,"",   1.00285E+06,   996.379E+03,   996.379E+03
C:/temp/Job-15.odb,Step-1,Increment      1: Step Time =    1.000,"P-15-1",           160,       181.482,       75.9755,            0.,NA,NA,"",   932.092E+03,   1.00851E+06,   1.00851E+06
C:/temp/Job-15.odb,Step-1,Increment      1: Step Time =    1.000,"P-15-1",           161,       190.618,       75.6304,            0.,NA,NA,"",   889.386E+03,   1.00670E+06,   1.00670E+06
C:/temp/Job-15.odb,Step-1,Increment      1: Step Time =    1.000,"P-15-1",           162,       107.009,       62.8630,            0.,NA,NA,"",   2.26964E+06,   2.40283E+06,   2.40283E+06
C:/temp/Job-15.odb,Step-1,Increment      1: Step Time =    1.000,"P-15-1",           163,       118.024,       62.4301,            0.,NA,NA,"",   1.77238E+06,   1.83733E+06,   1.83733E+06
C:/temp/Job-15.odb,Step-1,Increment      1: Step Time =    1.000,"P-15-1",           164,       8.99424,       65.3436,            0.,NA,NA,"",   725.959E+03,   807.283E+03,   807.283E+03
C:/temp/Job-15.odb,Step-1,Increment      1: Step Time =    1.000,"P-15-1",           165,       17.7542,       65.8051,            0.,NA,NA,"",   758.815E+03,   824.296E+03,   824.296E+03
C:/temp/Job-15.odb,Step-1,Increment      1: Step Time =    1.000,"P-15-1",           166,       35.5071,       59.9253,            0.,NA,NA,"",   1.00308E+06,   996.748E+03,   996.748E+03
C:/temp/Job-15.odb,Step-1,Increment      1: Step Time =    1.000,"P-15-1",           167,       50.9005,       65.7086,            0.,NA,NA,"",   1.12574E+06,   1.03473E+06,   1.03473E+06
C:/temp/Job-15.odb,Step-1,Increment      1: Step Time =    1.000,"P-15-1",           168,       61.5410,       62.8193,            0.,NA,NA,"",   1.36556E+06,   1.24018E+06,   1.24018E+06
C:/temp/Job-15.odb,Step-1,Increment      1: Step Time =    1.000,"P-15-1",           169,       73.6200,       62.5419,            0.,NA,NA,"",   1.56317E+06,   1.49676E+06,   1.49676E+06
C:/temp/Job-15.odb,Step-1,Increment      1: Step Time =    1.000,"P-15-1",           170,       83.4140,       63.2918,            0.,NA,NA,"",   1.77599E+06,   1.82271E+06,   1.82271E+06
C:/temp/Job-15.odb,Step-1,Increment      1: Step Time =    1.000,"P-15-1",           171,       126.106,       62.2683,            0.,NA,NA,"",   1.66044E+06,   1.61464E+06,   1.61464E+06
C:/temp/Job-15.odb,Step-1,Increment      1: Step Time =    1.000,"P-15-1",           172,       135.952,       64.0066,            0.,NA,NA,"",   1.59621E+06,   1.43050E+06,   1.43050E+06
C:/temp/Job-15.odb,Step-1,Increment      1: Step Time =    1.000,"P-15-1",           173,       146.798,       63.7157,            0.,NA,NA,"",   1.45007E+06,   1.28494E+06,   1.28494E+06
C:/temp/Job-15.odb,Step-1,Increment      1: Step Time =    1.000,"P-15-1",           174,       157.760,       63.4238,            0.,NA,NA,"",   1.28954E+06,   1.18387E+06,   1.18387E+06
C:/temp/Job-15.odb,Step-1,Increment      1: Step Time =    1.000,"P-15-1",           175,       167.506,       65.5338,            0.,NA,NA,"",   1.14343E+06,   1.10689E+06,   1.10689E+06
C:/temp/Job-15.odb,Step-1,Increment      1: Step Time =    1.000,"P-15-1",           176,       178.772,       66.3895,            0.,NA,NA,"",   1.01488E+06,   1.05524E+06,   1.05524E+06
C:/temp/Job-15.odb,Step-1,Increment      1: Step Time =    1.000,"P-15-1",           177,       75.4503,       72.3903,            0.,NA,NA,"",   1.26078E+06,   1.21947E+06,   1.21947E+06
C:/temp/Job-15.odb,Step-1,Increment      1: Step Time =    1.000,"P-15-1",           178,       63.6524,       72.3980,            0.,NA,NA,"",   1.19245E+06,   1.02451E+06,   1.02451E+06
C:/temp/Job-15.odb,Step-1,Increment      1: Step Time =    1.000,"P-15-1",           179,       51.7056,       73.3275,            0.,NA,NA,"",   985.798E+03,   882.656E+03,   882.656E+03
C:/temp/Job-15.odb,Step-1,Increment      1: Step Time =    1.000,"P-15-1",           180,       45.6266,       72.5006,            0.,NA,NA,"",   908.552E+03,   852.822E+03,   852.822E+03
C:/temp/Job-15.odb,Step-1,Increment      1: Step Time =    1.000,"P-15-1",           181,       33.1622,       78.3626,            0.,NA,NA,"",   644.668E+03,   676.750E+03,   676.750E+03
C:/temp/Job-15.odb,Step-1,Increment      1: Step Time =    1.000,"P-15-1",           182,       18.4362,       75.4620,            0.,NA,NA,"",   633.091E+03,   700.982E+03,   700.982E+03
C:/temp/Job-15.odb,Step-1,Increment      1: Step Time =    1.000,"P-15-1",           183,       9.33962,       75.2050,            0.,NA,NA,"",   620.956E+03,   697.969E+03,   697.969E+03
C:/temp/Job-15.odb,Step-1,Increment      1: Step Time =    1.000,"P-15-1",           184,       61.8334,       82.4659,            0.,NA,NA,"",   749.558E+03,   543.684E+03,   543.684E+03
C:/temp/Job-15.odb,Step-1,Increment      1: Step Time =    1.000,"P-15-1",           185,       53.7203,       86.5524,            0.,NA,NA,"",   560.124E+03,   449.808E+03,   449.808E+03
C:/temp/Job-15.odb,Step-1,Increment      1: Step Time =    1.000,"P-15-1",           186,       40.9624,       85.9084,            0.,NA,NA,"",   520.465E+03,   535.658E+03,   535.658E+03
C:/temp/Job-15.odb,Step-1,Increment      1: Step Time =    1.000,"P-15-1",           187,       29.8229,       86.0956,            0.,NA,NA,"",     506.4E+03,   561.239E+03,   561.239E+03
C:/temp/Job-15.odb,Step-1,Increment      1: Step Time =    1.000,"P-15-1",           188,       19.0807,       85.1573,            0.,NA,NA,"",   522.939E+03,   592.504E+03,   592.504E+03
C:/temp/Job-15.odb,Step-1,Increment      1: Step Time =    1.000,"P-15-1",           189,       9.59269,       85.0056,            0.,NA,NA,"",   532.989E+03,   606.487E+03,   606.487E+03
C:/temp/Job-15.odb,Step-1,Increment      1: Step Time =    1.000,"P-15-1",           190,       65.4000,       93.0274,            0.,NA,NA,"",   570.364E+03,  -553.256E+03,  -553.256E+03
C:/temp/Job-15.odb,Step-1,Increment      1: Step Time =    1.000,"P-15-1",           191,       52.8315,       96.2180,            0.,NA,NA,"",   231.819E+03,   193.792E+03,   193.792E+03
C:/temp/Job-15.odb,Step-1,Increment      1: Step Time =    1.000,"P-15-1",           192,       42.5615,       93.8002,            0.,NA,NA,"",   338.257E+03,   368.666E+03,   368.666E+03
C:/temp/Job-15.odb,Step-1,Increment      1: Step Time =    1.000,"P-15-1",           193,       28.8186,       98.3187,            0.,NA,NA,"",   397.783E+03,   457.697E+03,   457.697E+03
C:/temp/Job-15.odb,Step-1,Increment      1: Step Time =    1.000,"P-15-1",           194,       18.9118,       94.7194,            0.,NA,NA,"",   451.897E+03,   519.682E+03,   519.682E+03
C:/temp/Job-15.odb,Step-1,Increment      1: Step Time =    1.000,"P-15-1",           195,       9.67937,       94.8222,            0.,NA,NA,"",   479.193E+03,   549.790E+03,   549.790E+03
C:/temp/Job-15.odb,Step-1,Increment      1: Step Time =    1.000,"P-15-1",           196,       65.2663,       103.101,            0.,NA,NA,"",   612.908E+03,  -625.867E+03,  -625.867E+03
C:/temp/Job-15.odb,Step-1,Increment      1: Step Time =    1.000,"P-15-1",           197,       53.1783,       102.388,            0.,NA,NA,"",   212.352E+03,   106.524E+03,   106.524E+03
C:/temp/Job-15.odb,Step-1,Increment      1: Step Time =    1.000,"P-15-1",           198,       43.4749,       105.045,            0.,NA,NA,"",   316.010E+03,   344.954E+03,   344.954E+03
C:/temp/Job-15.odb,Step-1,Increment      1: Step Time =    1.000,"P-15-1",           199,       30.3725,       104.867,            0.,NA,NA,"",   403.245E+03,   461.966E+03,   461.966E+03
C:/temp/Job-15.odb,Step-1,Increment      1: Step Time =    1.000,"P-15-1",           200,       19.1866,       104.424,            0.,NA,NA,"",   447.151E+03,   514.589E+03,   514.589E+03
C:/temp/Job-15.odb,Step-1,Increment      1: Step Time =    1.000,"P-15-1",           201,       9.70904,       104.729,            0.,NA,NA,"",   478.035E+03,   548.577E+03,   548.577E+03
C:/temp/Job-15.odb,Step-1,Increment      1: Step Time =    1.000,"P-15-1",           202,       62.7491,       114.130,            0.,NA,NA,"",   570.268E+03,   44.7318E+03,   44.7318E+03
C:/temp/Job-15.odb,Step-1,Increment      1: Step Time =    1.000,"P-15-1",           203,       50.8682,       113.969,            0.,NA,NA,"",   554.483E+03,   478.446E+03,   478.446E+03
C:/temp/Job-15.odb,Step-1,Increment      1: Step Time =    1.000,"P-15-1",           204,       41.7879,       114.076,            0.,NA,NA,"",   524.001E+03,   531.966E+03,   531.966E+03
C:/temp/Job-15.odb,Step-1,Increment      1: Step Time =    1.000,"P-15-1",           205,       31.8668,       114.374,            0.,NA,NA,"",   517.193E+03,   566.749E+03,   566.749E+03
C:/temp/Job-15.odb,Step-1,Increment      1: Step Time =    1.000,"P-15-1",           206,       19.4455,       114.527,            0.,NA,NA,"",   521.273E+03,   590.369E+03,   590.369E+03
C:/temp/Job-15.odb,Step-1,Increment      1: Step Time =    1.000,"P-15-1",           207,       9.60385,       114.661,            0.,NA,NA,"",   531.243E+03,   604.694E+03,   604.694E+03
C:/temp/Job-15.odb,Step-1,Increment      1: Step Time =    1.000,"P-15-1",           208,       189.091,       11.2147,            0.,NA,NA,"",   1.00286E+06,   1.00428E+06,   1.00428E+06
C:/temp/Job-15.odb,Step-1,Increment      1: Step Time =    1.000,"P-15-1",           209,       179.002,       9.70802,            0.,NA,NA,"",   1.00978E+06,   1.01006E+06,   1.01006E+06
C:/temp/Job-15.odb,Step-1,Increment      1: Step Time =    1.000,"P-15-1",           210,       169.345,       9.92348,            0.,NA,NA,"",   1.01976E+06,   1.01770E+06,   1.01770E+06
C:/temp/Job-15.odb,Step-1,Increment      1: Step Time =    1.000,"P-15-1",           211,       158.361,       11.6009,            0.,NA,NA,"",   1.03453E+06,   1.02841E+06,   1.02841E+06
C:/temp/Job-15.odb,Step-1,Increment      1: Step Time =    1.000,"P-15-1",           212,       147.705,       12.8783,            0.,NA,NA,"",   1.04034E+06,   1.03194E+06,   1.03194E+06
C:/temp/Job-15.odb,Step-1,Increment      1: Step Time =    1.000,"P-15-1",           213,       135.072,       8.82388,            0.,NA,NA,"",   971.571E+03,   968.875E+03,   968.875E+03
C:/temp/Job-15.odb,Step-1,Increment      1: Step Time =    1.000,"P-15-1",           214,       125.559,       9.81194,            0.,NA,NA,"",   947.564E+03,   949.252E+03,   949.252E+03
C:/temp/Job-15.odb,Step-1,Increment      1: Step Time =    1.000,"P-15-1",           215,       115.462,       10.7429,            0.,NA,NA,"",   927.615E+03,   936.122E+03,   936.122E+03
C:/temp/Job-15.odb,Step-1,Increment      1: Step Time =    1.000,"P-15-1",           216,       105.336,       10.1598,            0.,NA,NA,"",   912.446E+03,   923.923E+03,   923.923E+03
C:/temp/Job-15.odb,Step-1,Increment      1: Step Time =    1.000,"P-15-1",           217,       95.3796,       9.73440,            0.,NA,NA,"",   934.537E+03,   944.315E+03,   944.315E+03
C:/temp/Job-15.odb,Step-1,Increment      1: Step Time =    1.000,"P-15-1",           218,       85.5186,       9.84483,            0.,NA,NA,"",   996.616E+03,   1.00072E+06,   1.00072E+06
C:/temp/Job-15.odb,Step-1,Increment      1: Step Time =    1.000,"P-15-1",           219,       75.8702,       9.68435,            0.,NA,NA,"",   1.07233E+06,   1.07071E+06,   1.07071E+06
C:/temp/Job-15.odb,Step-1,Increment      1: Step Time =    1.000,"P-15-1",           220,       66.4947,       10.1265,            0.,NA,NA,"",   1.15441E+06,   1.14807E+06,   1.14807E+06
C:/temp/Job-15.odb,Step-1,Increment      1: Step Time =    1.000,"P-15-1",           221,       51.9679,       11.7470,            0.,NA,NA,"",   1.26064E+06,   1.24996E+06,   1.24996E+06
C:/temp/Job-15.odb,Step-1,Increment      1: Step Time =    1.000,"P-15-1",           222,       39.3724,       9.27892,            0.,NA,NA,"",   1.31444E+06,   1.31031E+06,   1.31031E+06
C:/temp/Job-15.odb,Step-1,Increment      1: Step Time =    1.000,"P-15-1",           223,       30.1179,       8.96913,            0.,NA,NA,"",   1.36344E+06,   1.36368E+06,   1.36368E+06
C:/temp/Job-15.odb,Step-1,Increment      1: Step Time =    1.000,"P-15-1",           224,       21.2673,       8.22159,            0.,NA,NA,"",   1.41552E+06,   1.42260E+06,   1.42260E+06
C:/temp/Job-15.odb,Step-1,Increment      1: Step Time =    1.000,"P-15-1",           225,       12.2710,       11.7485,            0.,NA,NA,"",   1.44065E+06,   1.48512E+06,   1.48512E+06
C:/temp/Job-15.odb,Step-1,Increment      1: Step Time =    1.000,"P-15-1",           226,       191.211,       20.8389,            0.,NA,NA,"",   1.00231E+06,   1.00729E+06,   1.00729E+06
C:/temp/Job-15.odb,Step-1,Increment      1: Step Time =    1.000,"P-15-1",           227,       177.394,       24.1351,            0.,NA,NA,"",   1.04305E+06,   1.04259E+06,   1.04259E+06
C:/temp/Job-15.odb,Step-1,Increment      1: Step Time =    1.000,"P-15-1",           228,       168.981,       23.6751,            0.,NA,NA,"",   1.07715E+06,   1.06701E+06,   1.06701E+06
C:/temp/Job-15.odb,Step-1,Increment      1: Step Time =    1.000,"P-15-1",           229,       156.644,       19.0812,            0.,NA,NA,"",   1.08528E+06,   1.07073E+06,   1.07073E+06
C:/temp/Job-15.odb,Step-1,Increment      1: Step Time =    1.000,"P-15-1",           230,       144.936,       21.4281,            0.,NA,NA,"",   1.12218E+06,   1.10329E+06,   1.10329E+06
C:/temp/Job-15.odb,Step-1,Increment      1: Step Time =    1.000,"P-15-1",           231,       136.759,       21.3834,            0.,NA,NA,"",   1.12142E+06,   1.10844E+06,   1.10844E+06
C:/temp/Job-15.odb,Step-1,Increment      1: Step Time =    1.000,"P-15-1",           232,       127.578,       20.7225,            0.,NA,NA,"",   1.09393E+06,   1.09638E+06,   1.09638E+06
C:/temp/Job-15.odb,Step-1,Increment      1: Step Time =    1.000,"P-15-1",           233,       113.247,       22.4825,            0.,NA,NA,"",   1.06573E+06,   1.09908E+06,   1.09908E+06
C:/temp/Job-15.odb,Step-1,Increment      1: Step Time =    1.000,"P-15-1",           234,       104.524,       20.4194,            0.,NA,NA,"",   1.03626E+06,   1.07212E+06,   1.07212E+06
C:/temp/Job-15.odb,Step-1,Increment      1: Step Time =    1.000,"P-15-1",           235,       95.7952,       18.5940,            0.,NA,NA,"",   1.04317E+06,   1.07052E+06,   1.07052E+06
C:/temp/Job-15.odb,Step-1,Increment      1: Step Time =    1.000,"P-15-1",           236,       86.7402,       21.2840,            0.,NA,NA,"",   1.12618E+06,   1.14729E+06,   1.14729E+06
C:/temp/Job-15.odb,Step-1,Increment      1: Step Time =    1.000,"P-15-1",           237,       76.1730,       19.6667,            0.,NA,NA,"",   1.18874E+06,   1.18526E+06,   1.18526E+06
C:/temp/Job-15.odb,Step-1,Increment      1: Step Time =    1.000,"P-15-1",           238,       66.0113,       21.3673,            0.,NA,NA,"",   1.26172E+06,   1.24173E+06,   1.24173E+06
C:/temp/Job-15.odb,Step-1,Increment      1: Step Time =    1.000,"P-15-1",           239,       52.9152,       21.9423,            0.,NA,NA,"",   1.30578E+06,   1.27986E+06,   1.27986E+06
C:/temp/Job-15.odb,Step-1,Increment      1: Step Time =    1.000,"P-15-1",           240,       42.9753,       19.7445,            0.,NA,NA,"",   1.31451E+06,   1.29818E+06,   1.29818E+06
C:/temp/Job-15.odb,Step-1,Increment      1: Step Time =    1.000,"P-15-1",           241,       31.0344,       19.0598,            0.,NA,NA,"",   1.32859E+06,   1.32995E+06,   1.32995E+06
C:/temp/Job-15.odb,Step-1,Increment      1: Step Time =    1.000,"P-15-1",           242,       24.2033,       22.9640,            0.,NA,NA,"",   1.29886E+06,   1.32185E+06,   1.32185E+06
C:/temp/Job-15.odb,Step-1,Increment      1: Step Time =    1.000,"P-15-1",           243,       10.0477,       22.0293,            0.,NA,NA,"",   1.22597E+06,   1.31442E+06,   1.31442E+06
C:/temp/Job-15.odb,Step-1,Increment      1: Step Time =    1.000,"P-15-1",           244,       190.950,       30.1120,            0.,NA,NA,"",   998.181E+03,   1.01173E+06,   1.01173E+06
C:/temp/Job-15.odb,Step-1,Increment      1: Step Time =    1.000,"P-15-1",           245,       180.890,       30.1162,            0.,NA,NA,"",   1.03735E+06,   1.04264E+06,   1.04264E+06
C:/temp/Job-15.odb,Step-1,Increment      1: Step Time =    1.000,"P-15-1",           246,       171.756,       32.5704,            0.,NA,NA,"",   1.09706E+06,   1.08627E+06,   1.08627E+06
C:/temp/Job-15.odb,Step-1,Increment      1: Step Time =    1.000,"P-15-1",           247,       159.379,       31.3271,            0.,NA,NA,"",   1.16685E+06,   1.13596E+06,   1.13596E+06
C:/temp/Job-15.odb,Step-1,Increment      1: Step Time =    1.000,"P-15-1",           248,       149.551,       30.6777,            0.,NA,NA,"",   1.20777E+06,   1.17085E+06,   1.17085E+06
C:/temp/Job-15.odb,Step-1,Increment      1: Step Time =    1.000,"P-15-1",           249,       136.085,       33.9396,            0.,NA,NA,"",   1.28082E+06,   1.25147E+06,   1.25147E+06
C:/temp/Job-15.odb,Step-1,Increment      1: Step Time =    1.000,"P-15-1",           250,       125.515,       32.4141,            0.,NA,NA,"",   1.23374E+06,   1.24616E+06,   1.24616E+06
C:/temp/Job-15.odb,Step-1,Increment      1: Step Time =    1.000,"P-15-1",           251,       112.399,       32.3668,            0.,NA,NA,"",   1.17144E+06,   1.23155E+06,   1.23155E+06
C:/temp/Job-15.odb,Step-1,Increment      1: Step Time =    1.000,"P-15-1",           252,       103.666,       31.8453,            0.,NA,NA,"",   1.15109E+06,   1.22527E+06,   1.22527E+06
C:/temp/Job-15.odb,Step-1,Increment      1: Step Time =    1.000,"P-15-1",           253,       94.8455,       30.6750,            0.,NA,NA,"",   1.16914E+06,   1.23252E+06,   1.23252E+06
C:/temp/Job-15.odb,Step-1,Increment      1: Step Time =    1.000,"P-15-1",           254,       84.2855,       32.1689,            0.,NA,NA,"",   1.26959E+06,   1.30007E+06,   1.30007E+06
C:/temp/Job-15.odb,Step-1,Increment      1: Step Time =    1.000,"P-15-1",           255,       73.9577,       34.3835,            0.,NA,NA,"",   1.36038E+06,   1.34600E+06,   1.34600E+06
C:/temp/Job-15.odb,Step-1,Increment      1: Step Time =    1.000,"P-15-1",           256,       64.4468,       32.1509,            0.,NA,NA,"",   1.36145E+06,   1.32325E+06,   1.32325E+06
C:/temp/Job-15.odb,Step-1,Increment      1: Step Time =    1.000,"P-15-1",           257,       55.1007,       31.7157,            0.,NA,NA,"",   1.34959E+06,   1.30626E+06,   1.30626E+06
C:/temp/Job-15.odb,Step-1,Increment      1: Step Time =    1.000,"P-15-1",           258,       41.0935,       28.8482,            0.,NA,NA,"",   1.31044E+06,   1.28942E+06,   1.28942E+06
C:/temp/Job-15.odb,Step-1,Increment      1: Step Time =    1.000,"P-15-1",           259,       31.9634,       28.9083,            0.,NA,NA,"",   1.27891E+06,   1.27951E+06,   1.27951E+06
C:/temp/Job-15.odb,Step-1,Increment      1: Step Time =    1.000,"P-15-1",           260,       22.5440,       34.7440,            0.,NA,NA,"",   1.17287E+06,   1.21121E+06,   1.21121E+06
C:/temp/Job-15.odb,Step-1,Increment      1: Step Time =    1.000,"P-15-1",           261,       9.16224,       31.5923,            0.,NA,NA,"",   1.09249E+06,   1.18837E+06,   1.18837E+06
C:/temp/Job-15.odb,Step-1,Increment      1: Step Time =    1.000,"P-15-1",           262,       190.755,       39.4262,            0.,NA,NA,"",   988.200E+03,   1.01712E+06,   1.01712E+06
C:/temp/Job-15.odb,Step-1,Increment      1: Step Time =    1.000,"P-15-1",           263,       180.399,       43.1977,            0.,NA,NA,"",   1.05433E+06,   1.06590E+06,   1.06590E+06
C:/temp/Job-15.odb,Step-1,Increment      1: Step Time =    1.000,"P-15-1",           264,       170.799,       41.6842,            0.,NA,NA,"",   1.13306E+06,   1.11542E+06,   1.11542E+06
C:/temp/Job-15.odb,Step-1,Increment      1: Step Time =    1.000,"P-15-1",           265,       156.987,       40.4430,            0.,NA,NA,"",   1.24829E+06,   1.19543E+06,   1.19543E+06
C:/temp/Job-15.odb,Step-1,Increment      1: Step Time =    1.000,"P-15-1",           266,       147.588,       40.5156,            0.,NA,NA,"",   1.32266E+06,   1.25838E+06,   1.25838E+06
C:/temp/Job-15.odb,Step-1,Increment      1: Step Time =    1.000,"P-15-1",           267,       136.919,       40.3879,            0.,NA,NA,"",   1.36470E+06,   1.31747E+06,   1.31747E+06
C:/temp/Job-15.odb,Step-1,Increment      1: Step Time =    1.000,"P-15-1",           268,       124.900,       41.2570,            0.,NA,NA,"",   1.35981E+06,   1.37179E+06,   1.37179E+06
C:/temp/Job-15.odb,Step-1,Increment      1: Step Time =    1.000,"P-15-1",           269,       112.398,       42.1571,            0.,NA,NA,"",   1.30006E+06,   1.38820E+06,   1.38820E+06
C:/temp/Job-15.odb,Step-1,Increment      1: Step Time =    1.000,"P-15-1",           270,       103.638,       42.1132,            0.,NA,NA,"",   1.27699E+06,   1.38828E+06,   1.38828E+06
C:/temp/Job-15.odb,Step-1,Increment      1: Step Time =    1.000,"P-15-1",           271,       92.9816,       40.7561,            0.,NA,NA,"",   1.30430E+06,   1.39384E+06,   1.39384E+06
C:/temp/Job-15.odb,Step-1,Increment      1: Step Time =    1.000,"P-15-1",           272,       82.1991,       41.3866,            0.,NA,NA,"",   1.39774E+06,   1.42651E+06,   1.42651E+06
C:/temp/Job-15.odb,Step-1,Increment      1: Step Time =    1.000,"P-15-1",           273,       71.8577,       43.2563,            0.,NA,NA,"",   1.45529E+06,   1.42252E+06,   1.42252E+06
C:/temp/Job-15.odb,Step-1,Increment      1: Step Time =    1.000,"P-15-1",           274,       63.4848,       41.6437,            0.,NA,NA,"",   1.42293E+06,   1.36532E+06,   1.36532E+06
C:/temp/Job-15.odb,Step-1,Increment      1: Step Time =    1.000,"P-15-1",           275,       52.1754,       41.0753,            0.,NA,NA,"",   1.35827E+06,   1.30011E+06,   1.30011E+06
C:/temp/Job-15.odb,Step-1,Increment      1: Step Time =    1.000,"P-15-1",           276,       41.7199,       39.6898,            0.,NA,NA,"",   1.27673E+06,   1.24519E+06,   1.24519E+06
C:/temp/Job-15.odb,Step-1,Increment      1: Step Time =    1.000,"P-15-1",           277,       31.5610,       39.3544,            0.,NA,NA,"",   1.19939E+06,   1.20347E+06,   1.20347E+06
C:/temp/Job-15.odb,Step-1,Increment      1: Step Time =    1.000,"P-15-1",           278,       22.5131,       43.4872,            0.,NA,NA,"",   1.07843E+06,   1.12043E+06,   1.12043E+06
C:/temp/Job-15.odb,Step-1,Increment      1: Step Time =    1.000,"P-15-1",           279,       8.82563,       41.1891,            0.,NA,NA,"",   984.834E+03,   1.07900E+06,   1.07900E+06
C:/temp/Job-15.odb,Step-1,Increment      1: Step Time =    1.000,"P-15-1",           280,       188.291,       52.0145,            0.,NA,NA,"",   984.772E+03,   1.03459E+06,   1.03459E+06
C:/temp/Job-15.odb,Step-1,Increment      1: Step Time =    1.000,"P-15-1",           281,       178.054,       53.0757,            0.,NA,NA,"",   1.07168E+06,   1.08463E+06,   1.08463E+06
C:/temp/Job-15.odb,Step-1,Increment      1: Step Time =    1.000,"P-15-1",           282,       168.039,       55.1572,            0.,NA,NA,"",   1.18065E+06,   1.14549E+06,   1.14549E+06
C:/temp/Job-15.odb,Step-1,Increment      1: Step Time =    1.000,"P-15-1",           283,       158.190,       50.7785,            0.,NA,NA,"",   1.29462E+06,   1.21971E+06,   1.21971E+06
C:/temp/Job-15.odb,Step-1,Increment      1: Step Time =    1.000,"P-15-1",           284,       147.926,       48.7758,            0.,NA,NA,"",   1.39219E+06,   1.29829E+06,   1.29829E+06
C:/temp/Job-15.odb,Step-1,Increment      1: Step Time =    1.000,"P-15-1",           285,       136.822,       50.8006,            0.,NA,NA,"",   1.49632E+06,   1.40919E+06,   1.40919E+06
C:/temp/Job-15.odb,Step-1,Increment      1: Step Time =    1.000,"P-15-1",           286,       125.744,       50.9951,            0.,NA,NA,"",   1.53034E+06,   1.52011E+06,   1.52011E+06
C:/temp/Job-15.odb,Step-1,Increment      1: Step Time =    1.000,"P-15-1",           287,       116.814,       51.7320,            0.,NA,NA,"",   1.52330E+06,   1.60069E+06,   1.60069E+06
C:/temp/Job-15.odb,Step-1,Increment      1: Step Time =    1.000,"P-15-1",           288,       103.689,       51.6582,            0.,NA,NA,"",   1.49583E+06,   1.64599E+06,   1.64599E+06
C:/temp/Job-15.odb,Step-1,Increment      1: Step Time =    1.000,"P-15-1",           289,       93.5316,       53.0228,            0.,NA,NA,"",   1.58281E+06,   1.71469E+06,   1.71469E+06
C:/temp/Job-15.odb,Step-1,Increment      1: Step Time =    1.000,"P-15-1",           290,       83.1554,       50.9350,            0.,NA,NA,"",   1.53683E+06,   1.57918E+06,   1.57918E+06
C:/temp/Job-15.odb,Step-1,Increment      1: Step Time =    1.000,"P-15-1",           291,       72.5822,       53.8728,            0.,NA,NA,"",   1.54798E+06,   1.49814E+06,   1.49814E+06
C:/temp/Job-15.odb,Step-1,Increment      1: Step Time =    1.000,"P-15-1",           292,       61.2178,       54.0541,            0.,NA,NA,"",   1.43422E+06,   1.33911E+06,   1.33911E+06
C:/temp/Job-15.odb,Step-1,Increment      1: Step Time =    1.000,"P-15-1",           293,       49.9056,       52.0876,            0.,NA,NA,"",   1.29193E+06,   1.22223E+06,   1.22223E+06
C:/temp/Job-15.odb,Step-1,Increment      1: Step Time =    1.000,"P-15-1",           294,       46.3293,       49.5575,            0.,NA,NA,"",   1.26830E+06,   1.21413E+06,   1.21413E+06
C:/temp/Job-15.odb,Step-1,Increment      1: Step Time =    1.000,"P-15-1",           295,       33.0186,       49.7670,            0.,NA,NA,"",   1.11480E+06,   1.11371E+06,   1.11371E+06
C:/temp/Job-15.odb,Step-1,Increment      1: Step Time =    1.000,"P-15-1",           296,       22.3006,       52.5157,            0.,NA,NA,"",   969.187E+03,   1.01498E+06,   1.01498E+06
C:/temp/Job-15.odb,Step-1,Increment      1: Step Time =    1.000,"P-15-1",           297,       13.1756,       51.2423,            0.,NA,NA,"",   909.598E+03,   986.443E+03,   986.443E+03
C:/temp/Job-15.odb,Step-1,Increment      1: Step Time =    1.000,"P-15-1",           298,       187.593,       148.386,            0.,NA,NA,"",   987.675E+03,   1.03526E+06,   1.03526E+06
C:/temp/Job-15.odb,Step-1,Increment      1: Step Time =    1.000,"P-15-1",           299,       180.266,       144.507,            0.,NA,NA,"",   1.04295E+06,   1.07104E+06,   1.07104E+06
C:/temp/Job-15.odb,Step-1,Increment      1: Step Time =    1.000,"P-15-1",           300,       167.632,       149.176,            0.,NA,NA,"",   1.18665E+06,   1.15047E+06,   1.15047E+06
C:/temp/Job-15.odb,Step-1,Increment      1: Step Time =    1.000,"P-15-1",           301,       159.265,       148.568,            0.,NA,NA,"",   1.28309E+06,   1.21123E+06,   1.21123E+06
C:/temp/Job-15.odb,Step-1,Increment      1: Step Time =    1.000,"P-15-1",           302,       147.600,       146.335,            0.,NA,NA,"",   1.43233E+06,   1.31763E+06,   1.31763E+06
C:/temp/Job-15.odb,Step-1,Increment      1: Step Time =    1.000,"P-15-1",           303,       135.446,       149.254,            0.,NA,NA,"",   1.50103E+06,   1.42148E+06,   1.42148E+06
C:/temp/Job-15.odb,Step-1,Increment      1: Step Time =    1.000,"P-15-1",           304,       127.684,       147.445,            0.,NA,NA,"",   1.54336E+06,   1.51228E+06,   1.51228E+06
C:/temp/Job-15.odb,Step-1,Increment      1: Step Time =    1.000,"P-15-1",           305,       111.109,       147.646,            0.,NA,NA,"",   1.52706E+06,   1.65283E+06,   1.65283E+06
C:/temp/Job-15.odb,Step-1,Increment      1: Step Time =    1.000,"P-15-1",           306,       105.582,       148.057,            0.,NA,NA,"",   1.51590E+06,   1.66261E+06,   1.66261E+06
C:/temp/Job-15.odb,Step-1,Increment      1: Step Time =    1.000,"P-15-1",           307,       93.7517,       146.486,            0.,NA,NA,"",   1.58332E+06,   1.71794E+06,   1.71794E+06
C:/temp/Job-15.odb,Step-1,Increment      1: Step Time =    1.000,"P-15-1",           308,       85.3221,       151.052,            0.,NA,NA,"",   1.49143E+06,   1.55359E+06,   1.55359E+06
C:/temp/Job-15.odb,Step-1,Increment      1: Step Time =    1.000,"P-15-1",           309,       71.4421,       149.325,            0.,NA,NA,"",   1.51559E+06,   1.46410E+06,   1.46410E+06
C:/temp/Job-15.odb,Step-1,Increment      1: Step Time =    1.000,"P-15-1",           310,       63.6257,       149.653,            0.,NA,NA,"",   1.45817E+06,   1.38032E+06,   1.38032E+06
C:/temp/Job-15.odb,Step-1,Increment      1: Step Time =    1.000,"P-15-1",           311,       55.8485,       146.836,            0.,NA,NA,"",   1.36808E+06,   1.27994E+06,   1.27994E+06
C:/temp/Job-15.odb,Step-1,Increment      1: Step Time =    1.000,"P-15-1",           312,       42.5837,       143.349,            0.,NA,NA,"",   1.14133E+06,   1.09844E+06,   1.09844E+06
C:/temp/Job-15.odb,Step-1,Increment      1: Step Time =    1.000,"P-15-1",           313,       31.4321,       144.586,            0.,NA,NA,"",   1.02188E+06,   1.03197E+06,   1.03197E+06
C:/temp/Job-15.odb,Step-1,Increment      1: Step Time =    1.000,"P-15-1",           314,       21.6876,       146.728,            0.,NA,NA,"",   953.667E+03,   1.00314E+06,   1.00314E+06
C:/temp/Job-15.odb,Step-1,Increment      1: Step Time =    1.000,"P-15-1",           315,       11.7038,       147.983,            0.,NA,NA,"",   894.393E+03,   974.340E+03,   974.340E+03
C:/temp/Job-15.odb,Step-1,Increment      1: Step Time =    1.000,"P-15-1",           316,       188.457,       158.057,            0.,NA,NA,"",   996.830E+03,   1.02683E+06,   1.02683E+06
C:/temp/Job-15.odb,Step-1,Increment      1: Step Time =    1.000,"P-15-1",           317,       180.341,       153.875,            0.,NA,NA,"",   1.05270E+06,     1.068E+06,     1.068E+06
C:/temp/Job-15.odb,Step-1,Increment      1: Step Time =    1.000,"P-15-1",           318,       167.972,       157.575,            0.,NA,NA,"",   1.15999E+06,   1.13316E+06,   1.13316E+06
C:/temp/Job-15.odb,Step-1,Increment      1: Step Time =    1.000,"P-15-1",           319,       158.710,       160.112,            0.,NA,NA,"",   1.23066E+06,   1.18226E+06,   1.18226E+06
C:/temp/Job-15.odb,Step-1,Increment      1: Step Time =    1.000,"P-15-1",           320,       149.946,       159.917,            0.,NA,NA,"",   1.30196E+06,   1.23964E+06,   1.23964E+06
C:/temp/Job-15.odb,Step-1,Increment      1: Step Time =    1.000,"P-15-1",           321,       137.045,       159.804,            0.,NA,NA,"",   1.35955E+06,   1.31400E+06,   1.31400E+06
C:/temp/Job-15.odb,Step-1,Increment      1: Step Time =    1.000,"P-15-1",           322,       128.760,       158.725,            0.,NA,NA,"",   1.37191E+06,   1.35903E+06,   1.35903E+06
C:/temp/Job-15.odb,Step-1,Increment      1: Step Time =    1.000,"P-15-1",           323,       114.632,       157.115,            0.,NA,NA,"",   1.32806E+06,   1.40660E+06,   1.40660E+06
C:/temp/Job-15.odb,Step-1,Increment      1: Step Time =    1.000,"P-15-1",           324,       103.699,       156.680,            0.,NA,NA,"",   1.30281E+06,   1.41993E+06,   1.41993E+06
C:/temp/Job-15.odb,Step-1,Increment      1: Step Time =    1.000,"P-15-1",           325,       94.1210,       156.172,            0.,NA,NA,"",   1.34807E+06,   1.45011E+06,   1.45011E+06
C:/temp/Job-15.odb,Step-1,Increment      1: Step Time =    1.000,"P-15-1",           326,       85.3377,       159.920,            0.,NA,NA,"",   1.35505E+06,   1.40182E+06,   1.40182E+06
C:/temp/Job-15.odb,Step-1,Increment      1: Step Time =    1.000,"P-15-1",           327,       78.6160,       161.128,            0.,NA,NA,"",   1.38539E+06,   1.39511E+06,   1.39511E+06
C:/temp/Job-15.odb,Step-1,Increment      1: Step Time =    1.000,"P-15-1",           328,       61.2322,       159.712,            0.,NA,NA,"",   1.41066E+06,   1.35243E+06,   1.35243E+06
C:/temp/Job-15.odb,Step-1,Increment      1: Step Time =    1.000,"P-15-1",           329,       54.9824,       158.817,            0.,NA,NA,"",   1.37858E+06,   1.31801E+06,   1.31801E+06
C:/temp/Job-15.odb,Step-1,Increment      1: Step Time =    1.000,"P-15-1",           330,       40.2081,       158.242,            0.,NA,NA,"",   1.25612E+06,   1.22841E+06,   1.22841E+06
C:/temp/Job-15.odb,Step-1,Increment      1: Step Time =    1.000,"P-15-1",           331,       27.1705,       155.829,            0.,NA,NA,"",   1.11153E+06,   1.13503E+06,   1.13503E+06
C:/temp/Job-15.odb,Step-1,Increment      1: Step Time =    1.000,"P-15-1",           332,       20.4119,       156.714,            0.,NA,NA,"",   1.06090E+06,   1.11093E+06,   1.11093E+06
C:/temp/Job-15.odb,Step-1,Increment      1: Step Time =    1.000,"P-15-1",           333,       9.42405,       160.609,            0.,NA,NA,"",   1.00914E+06,   1.10170E+06,   1.10170E+06
C:/temp/Job-15.odb,Step-1,Increment      1: Step Time =    1.000,"P-15-1",           334,       189.793,       169.127,            0.,NA,NA,"",   1.00196E+06,   1.01567E+06,   1.01567E+06
C:/temp/Job-15.odb,Step-1,Increment      1: Step Time =    1.000,"P-15-1",           335,       175.341,       169.298,            0.,NA,NA,"",   1.06715E+06,   1.06413E+06,   1.06413E+06
C:/temp/Job-15.odb,Step-1,Increment      1: Step Time =    1.000,"P-15-1",           336,       165.423,       173.335,            0.,NA,NA,"",   1.10670E+06,   1.08991E+06,   1.08991E+06
C:/temp/Job-15.odb,Step-1,Increment      1: Step Time =    1.000,"P-15-1",           337,       155.099,       168.922,            0.,NA,NA,"",   1.18758E+06,   1.15243E+06,   1.15243E+06
C:/temp/Job-15.odb,Step-1,Increment      1: Step Time =    1.000,"P-15-1",           338,       145.820,       169.550,            0.,NA,NA,"",   1.21711E+06,   1.18138E+06,   1.18138E+06
C:/temp/Job-15.odb,Step-1,Increment      1: Step Time =    1.000,"P-15-1",           339,       136.395,       169.124,            0.,NA,NA,"",   1.23609E+06,   1.21207E+06,   1.21207E+06
C:/temp/Job-15.odb,Step-1,Increment      1: Step Time =    1.000,"P-15-1",           340,       128.890,       168.428,            0.,NA,NA,"",   1.23678E+06,   1.23291E+06,   1.23291E+06
C:/temp/Job-15.odb,Step-1,Increment      1: Step Time =    1.000,"P-15-1",           341,       113.618,       168.825,            0.,NA,NA,"",   1.16237E+06,   1.21772E+06,   1.21772E+06
C:/temp/Job-15.odb,Step-1,Increment      1: Step Time =    1.000,"P-15-1",           342,       103.284,       169.495,            0.,NA,NA,"",   1.13656E+06,   1.20637E+06,   1.20637E+06
C:/temp/Job-15.odb,Step-1,Increment      1: Step Time =    1.000,"P-15-1",           343,       93.6214,       167.083,            0.,NA,NA,"",   1.20332E+06,   1.26842E+06,   1.26842E+06
C:/temp/Job-15.odb,Step-1,Increment      1: Step Time =    1.000,"P-15-1",           344,       82.4910,       169.287,            0.,NA,NA,"",   1.26147E+06,   1.28162E+06,   1.28162E+06
C:/temp/Job-15.odb,Step-1,Increment      1: Step Time =    1.000,"P-15-1",           345,       73.5427,       170.014,            0.,NA,NA,"",   1.31056E+06,   1.29937E+06,   1.29937E+06
C:/temp/Job-15.odb,Step-1,Increment      1: Step Time =    1.000,"P-15-1",           346,       61.7213,       169.052,            0.,NA,NA,"",   1.35188E+06,   1.31287E+06,   1.31287E+06
C:/temp/Job-15.odb,Step-1,Increment      1: Step Time =    1.000,"P-15-1",           347,       54.2499,       169.206,            0.,NA,NA,"",   1.34650E+06,   1.30459E+06,   1.30459E+06
C:/temp/Job-15.odb,Step-1,Increment      1: Step Time =    1.000,"P-15-1",           348,       43.6887,       167.611,            0.,NA,NA,"",   1.31015E+06,   1.28114E+06,   1.28114E+06
C:/temp/Job-15.odb,Step-1,Increment      1: Step Time =    1.000,"P-15-1",           349,       29.4404,       169.918,            0.,NA,NA,"",   1.26003E+06,   1.26997E+06,   1.26997E+06
C:/temp/Job-15.odb,Step-1,Increment      1: Step Time =    1.000,"P-15-1",           350,       19.4724,       170.424,            0.,NA,NA,"",   1.20548E+06,   1.25344E+06,   1.25344E+06
C:/temp/Job-15.odb,Step-1,Increment      1: Step Time =    1.000,"P-15-1",           351,       9.15898,       169.951,            0.,NA,NA,"",   1.11222E+06,   1.20818E+06,   1.20818E+06
C:/temp/Job-15.odb,Step-1,Increment      1: Step Time =    1.000,"P-15-1",           352,       190.169,       178.945,            0.,NA,NA,"",   1.00359E+06,   1.00879E+06,   1.00879E+06
C:/temp/Job-15.odb,Step-1,Increment      1: Step Time =    1.000,"P-15-1",           353,       175.481,       177.710,            0.,NA,NA,"",   1.04576E+06,   1.04349E+06,   1.04349E+06
C:/temp/Job-15.odb,Step-1,Increment      1: Step Time =    1.000,"P-15-1",           354,       169.884,       181.213,            0.,NA,NA,"",   1.05068E+06,   1.04512E+06,   1.04512E+06
C:/temp/Job-15.odb,Step-1,Increment      1: Step Time =    1.000,"P-15-1",           355,       156.856,       178.798,            0.,NA,NA,"",   1.10199E+06,   1.08456E+06,   1.08456E+06
C:/temp/Job-15.odb,Step-1,Increment      1: Step Time =    1.000,"P-15-1",           356,       147.439,       179.172,            0.,NA,NA,"",   1.11389E+06,   1.09508E+06,   1.09508E+06
C:/temp/Job-15.odb,Step-1,Increment      1: Step Time =    1.000,"P-15-1",           357,       134.491,       179.254,            0.,NA,NA,"",   1.10672E+06,   1.09718E+06,   1.09718E+06
C:/temp/Job-15.odb,Step-1,Increment      1: Step Time =    1.000,"P-15-1",           358,       124.974,       181.215,            0.,NA,NA,"",   1.06168E+06,   1.06704E+06,   1.06704E+06
C:/temp/Job-15.odb,Step-1,Increment      1: Step Time =    1.000,"P-15-1",           359,       115.887,       179.770,            0.,NA,NA,"",   1.04792E+06,   1.07304E+06,   1.07304E+06
C:/temp/Job-15.odb,Step-1,Increment      1: Step Time =    1.000,"P-15-1",           360,       105.458,       179.007,            0.,NA,NA,"",   1.04388E+06,   1.08220E+06,   1.08220E+06
C:/temp/Job-15.odb,Step-1,Increment      1: Step Time =    1.000,"P-15-1",           361,       94.5177,       178.628,            0.,NA,NA,"",   1.07971E+06,   1.11324E+06,   1.11324E+06
C:/temp/Job-15.odb,Step-1,Increment      1: Step Time =    1.000,"P-15-1",           362,       74.5292,       180.766,            0.,NA,NA,"",   1.19282E+06,   1.18699E+06,   1.18699E+06
C:/temp/Job-15.odb,Step-1,Increment      1: Step Time =    1.000,"P-15-1",           363,       65.3910,       177.324,            0.,NA,NA,"",   1.27866E+06,   1.25613E+06,   1.25613E+06
C:/temp/Job-15.odb,Step-1,Increment      1: Step Time =    1.000,"P-15-1",           364,       53.4150,       182.988,            0.,NA,NA,"",   1.28056E+06,   1.26207E+06,   1.26207E+06
C:/temp/Job-15.odb,Step-1,Increment      1: Step Time =    1.000,"P-15-1",           365,       44.0959,       178.112,            0.,NA,NA,"",   1.31358E+06,   1.29435E+06,   1.29435E+06
C:/temp/Job-15.odb,Step-1,Increment      1: Step Time =    1.000,"P-15-1",           366,       29.5758,       177.660,            0.,NA,NA,"",   1.31224E+06,   1.31736E+06,   1.31736E+06
C:/temp/Job-15.odb,Step-1,Increment      1: Step Time =    1.000,"P-15-1",           367,       22.2325,       176.747,            0.,NA,NA,"",   1.28690E+06,   1.31707E+06,   1.31707E+06
C:/temp/Job-15.odb,Step-1,Increment      1: Step Time =    1.000,"P-15-1",           368,       8.75046,       179.248,            0.,NA,NA,"",   1.23407E+06,   1.32810E+06,   1.32810E+06
C:/temp/Job-15.odb,Step-1,Increment      1: Step Time =    1.000,"P-15-1",           369,       188.765,       189.077,            0.,NA,NA,"",   1.00310E+06,   1.00442E+06,   1.00442E+06
C:/temp/Job-15.odb,Step-1,Increment      1: Step Time =    1.000,"P-15-1",           370,       179.144,       191.217,            0.,NA,NA,"",   1.00859E+06,   1.00883E+06,   1.00883E+06
C:/temp/Job-15.odb,Step-1,Increment      1: Step Time =    1.000,"P-15-1",           371,       169.794,       190.893,            0.,NA,NA,"",   1.01673E+06,   1.01512E+06,   1.01512E+06
C:/temp/Job-15.odb,Step-1,Increment      1: Step Time =    1.000,"P-15-1",           372,       160.348,       190.548,            0.,NA,NA,"",   1.02179E+06,   1.01806E+06,   1.01806E+06
C:/temp/Job-15.odb,Step-1,Increment      1: Step Time =    1.000,"P-15-1",           373,       148.033,       188.563,            0.,NA,NA,"",   1.02879E+06,   1.02157E+06,   1.02157E+06
C:/temp/Job-15.odb,Step-1,Increment      1: Step Time =    1.000,"P-15-1",           374,       133.704,       190.093,            0.,NA,NA,"",   979.791E+03,   977.171E+03,   977.171E+03
C:/temp/Job-15.odb,Step-1,Increment      1: Step Time =    1.000,"P-15-1",           375,       124.570,       190.587,            0.,NA,NA,"",   939.136E+03,   941.317E+03,   941.317E+03
C:/temp/Job-15.odb,Step-1,Increment      1: Step Time =    1.000,"P-15-1",           376,       114.988,       190.160,            0.,NA,NA,"",   914.555E+03,   922.740E+03,   922.740E+03
C:/temp/Job-15.odb,Step-1,Increment      1: Step Time =    1.000,"P-15-1",           377,       104.998,       189.704,            0.,NA,NA,"",   914.574E+03,   926.567E+03,   926.567E+03
C:/temp/Job-15.odb,Step-1,Increment      1: Step Time =    1.000,"P-15-1",           378,       94.7934,       189.580,            0.,NA,NA,"",   947.588E+03,   957.631E+03,   957.631E+03
C:/temp/Job-15.odb,Step-1,Increment      1: Step Time =    1.000,"P-15-1",           379,       84.7189,       189.929,            0.,NA,NA,"",   1.00592E+06,   1.00980E+06,   1.00980E+06
C:/temp/Job-15.odb,Step-1,Increment      1: Step Time =    1.000,"P-15-1",           380,       74.9585,       190.533,            0.,NA,NA,"",   1.07714E+06,   1.07471E+06,   1.07471E+06
C:/temp/Job-15.odb,Step-1,Increment      1: Step Time =    1.000,"P-15-1",           381,       65.4330,       191.042,            0.,NA,NA,"",   1.15051E+06,   1.14471E+06,   1.14471E+06
C:/temp/Job-15.odb,Step-1,Increment      1: Step Time =    1.000,"P-15-1",           382,       52.7027,       186.634,            0.,NA,NA,"",   1.26283E+06,   1.25050E+06,   1.25050E+06
C:/temp/Job-15.odb,Step-1,Increment      1: Step Time =    1.000,"P-15-1",           383,       41.6616,       187.525,            0.,NA,NA,"",   1.30683E+06,   1.29922E+06,   1.29922E+06
C:/temp/Job-15.odb,Step-1,Increment      1: Step Time =    1.000,"P-15-1",           384,       30.5624,       189.928,            0.,NA,NA,"",   1.35732E+06,   1.35736E+06,   1.35736E+06
C:/temp/Job-15.odb,Step-1,Increment      1: Step Time =    1.000,"P-15-1",           385,       20.8076,       190.417,            0.,NA,NA,"",   1.41257E+06,   1.42288E+06,   1.42288E+06
C:/temp/Job-15.odb,Step-1,Increment      1: Step Time =    1.000,"P-15-1",           386,       10.8095,       188.857,            0.,NA,NA,"",   1.45357E+06,   1.50542E+06,   1.50542E+06
C:/temp/Job-15.odb,Step-1,Increment      1: Step Time =    1.000,"P-15-1",           387,       95.0273,       130.599,            0.,NA,NA,"",   2.77491E+06,   2.84450E+06,   2.84450E+06
C:/temp/Job-15.odb,Step-1,Increment      1: Step Time =    1.000,"P-15-1",           388,       85.5936,       127.449,            0.,NA,NA,"",   1.92510E+06,   1.97999E+06,   1.97999E+06
C:/temp/Job-15.odb,Step-1,Increment      1: Step Time =    1.000,"P-15-1",           389,       81.3770,       124.783,            0.,NA,NA,"",   1.39906E+06,   1.42122E+06,   1.42122E+06
C:/temp/Job-15.odb,Step-1,Increment      1: Step Time =    1.000,"P-15-1",           390,       74.4875,       117.610,            0.,NA,NA,"",   534.442E+03,   200.354E+03,   200.354E+03
C:/temp/Job-15.odb,Step-1,Increment      1: Step Time =    1.000,"P-15-1",           391,       70.2239,       108.625,            0.,NA,NA,"",   657.370E+03,  -655.271E+03,  -655.271E+03
C:/temp/Job-15.odb,Step-1,Increment      1: Step Time =    1.000,"P-15-1",           392,       69.0251,       98.7518,            0.,NA,NA,"",   821.565E+03,  -834.447E+03,  -834.447E+03
C:/temp/Job-15.odb,Step-1,Increment      1: Step Time =    1.000,"P-15-1",           393,       71.0145,       89.0072,            0.,NA,NA,"",   495.105E+03,  -467.420E+03,  -467.420E+03
C:/temp/Job-15.odb,Step-1,Increment      1: Step Time =    1.000,"P-15-1",           394,       73.1532,          84.5,            0.,NA,NA,"",   395.861E+03,  -5.66608E+03,  -5.66608E+03
C:/temp/Job-15.odb,Step-1,Increment      1: Step Time =    1.000,"P-15-1",           395,       79.4432,       76.7962,            0.,NA,NA,"",   1.13198E+06,   1.13700E+06,   1.13700E+06
C:/temp/Job-15.odb,Step-1,Increment      1: Step Time =    1.000,"P-15-1",           396,       87.8490,       71.4806,            0.,NA,NA,"",   2.17083E+06,   2.21832E+06,   2.21832E+06
C:/temp/Job-15.odb,Step-1,Increment      1: Step Time =    1.000,"P-15-1",           397,       97.5055,       69.1005,            0.,NA,NA,"",   2.73669E+06,   2.84624E+06,   2.84624E+06
C:/temp/Job-15.odb,Step-1,Increment      1: Step Time =    1.000,"P-15-1",           398,       102.494,       69.1005,            0.,NA,NA,"",   2.80853E+06,   2.91053E+06,   2.91053E+06
C:/temp/Job-15.odb,Step-1,Increment      1: Step Time =    1.000,"P-15-1",           399,       112.151,       71.4806,            0.,NA,NA,"",   2.46986E+06,   2.52570E+06,   2.52570E+06
C:/temp/Job-15.odb,Step-1,Increment      1: Step Time =    1.000,"P-15-1",           400,       120.557,       76.7962,            0.,NA,NA,"",   1.40164E+06,   1.42098E+06,   1.42098E+06
C:/temp/Job-15.odb,Step-1,Increment      1: Step Time =    1.000,"P-15-1",           401,       126.847,          84.5,            0.,NA,NA,"",   462.078E+03,   54.8741E+03,   54.8741E+03
C:/temp/Job-15.odb,Step-1,Increment      1: Step Time =    1.000,"P-15-1",           402,       128.986,       89.0072,            0.,NA,NA,"",   564.908E+03,  -524.008E+03,  -524.008E+03
C:/temp/Job-15.odb,Step-1,Increment      1: Step Time =    1.000,"P-15-1",           403,       130.975,       98.7518,            0.,NA,NA,"",   963.156E+03,  -970.932E+03,  -970.932E+03
C:/temp/Job-15.odb,Step-1,Increment      1: Step Time =    1.000,"P-15-1",           404,       129.776,       108.625,            0.,NA,NA,"",   717.109E+03,  -694.235E+03,  -694.235E+03
C:/temp/Job-15.odb,Step-1,Increment      1: Step Time =    1.000,"P-15-1",           405,       125.512,       117.610,            0.,NA,NA,"",   695.504E+03,   589.573E+03,   589.573E+03
C:/temp/Job-15.odb,Step-1,Increment      1: Step Time =    1.000,"P-15-1",           406,       118.623,       124.783,            0.,NA,NA,"",   1.73808E+06,   1.76239E+06,   1.76239E+06
C:/temp/Job-15.odb,Step-1,Increment      1: Step Time =    1.000,"P-15-1",           407,       114.406,       127.449,            0.,NA,NA,"",   2.29985E+06,   2.34657E+06,   2.34657E+06
C:/temp/Job-15.odb,Step-1,Increment      1: Step Time =    1.000,"P-15-1",           408,       104.973,       130.599,            0.,NA,NA,"",   2.84512E+06,   2.94898E+06,   2.94898E+06
C:/temp/Job-15.odb,Step-1,Increment      1: Step Time =    1.000,"P-15-1",           409,          195.,            0.,            0.,NA,NA,"",   999.170E+03,   999.093E+03,   999.093E+03
C:/temp/Job-15.odb,Step-1,Increment      1: Step Time =    1.000,"P-15-1",           410,          185.,            0.,            0.,NA,NA,"",   997.445E+03,   997.635E+03,   997.635E+03
C:/temp/Job-15.odb,Step-1,Increment      1: Step Time =    1.000,"P-15-1",           411,          175.,            0.,            0.,NA,NA,"",   999.465E+03,   999.371E+03,   999.371E+03
C:/temp/Job-15.odb,Step-1,Increment      1: Step Time =    1.000,"P-15-1",           412,          165.,            0.,            0.,NA,NA,"",   998.366E+03,   997.896E+03,   997.896E+03
C:/temp/Job-15.odb,Step-1,Increment      1: Step Time =    1.000,"P-15-1",           413,          155.,            0.,            0.,NA,NA,"",   985.173E+03,   984.592E+03,   984.592E+03
C:/temp/Job-15.odb,Step-1,Increment      1: Step Time =    1.000,"P-15-1",           414,          145.,            0.,            0.,NA,NA,"",   951.467E+03,   950.979E+03,   950.979E+03
C:/temp/Job-15.odb,Step-1,Increment      1: Step Time =    1.000,"P-15-1",           415,          135.,            0.,            0.,NA,NA,"",   898.393E+03,   897.992E+03,   897.992E+03
C:/temp/Job-15.odb,Step-1,Increment      1: Step Time =    1.000,"P-15-1",           416,          125.,            0.,            0.,NA,NA,"",   839.304E+03,   839.620E+03,   839.620E+03
C:/temp/Job-15.odb,Step-1,Increment      1: Step Time =    1.000,"P-15-1",           417,          115.,            0.,            0.,NA,NA,"",   795.410E+03,   796.271E+03,   796.271E+03
C:/temp/Job-15.odb,Step-1,Increment      1: Step Time =    1.000,"P-15-1",           418,          105.,            0.,            0.,NA,NA,"",   780.431E+03,   781.936E+03,   781.936E+03
C:/temp/Job-15.odb,Step-1,Increment      1: Step Time =    1.000,"P-15-1",           419,           95.,            0.,            0.,NA,NA,"",   810.398E+03,   811.646E+03,   811.646E+03
C:/temp/Job-15.odb,Step-1,Increment      1: Step Time =    1.000,"P-15-1",           420,           85.,            0.,            0.,NA,NA,"",   884.939E+03,   885.497E+03,   885.497E+03
C:/temp/Job-15.odb,Step-1,Increment      1: Step Time =    1.000,"P-15-1",           421,           75.,            0.,            0.,NA,NA,"",   987.773E+03,   987.785E+03,   987.785E+03
C:/temp/Job-15.odb,Step-1,Increment      1: Step Time =    1.000,"P-15-1",           422,           65.,            0.,            0.,NA,NA,"",   1.10085E+06,   1.10098E+06,   1.10098E+06
C:/temp/Job-15.odb,Step-1,Increment      1: Step Time =    1.000,"P-15-1",           423,           55.,            0.,            0.,NA,NA,"",   1.20485E+06,   1.20314E+06,   1.20314E+06
C:/temp/Job-15.odb,Step-1,Increment      1: Step Time =    1.000,"P-15-1",           424,           45.,            0.,            0.,NA,NA,"",   1.28446E+06,   1.28332E+06,   1.28332E+06
C:/temp/Job-15.odb,Step-1,Increment      1: Step Time =    1.000,"P-15-1",           425,           35.,            0.,            0.,NA,NA,"",   1.33948E+06,   1.33973E+06,   1.33973E+06
C:/temp/Job-15.odb,Step-1,Increment      1: Step Time =    1.000,"P-15-1",           426,           25.,            0.,            0.,NA,NA,"",   1.38749E+06,   1.38860E+06,   1.38860E+06
C:/temp/Job-15.odb,Step-1,Increment      1: Step Time =    1.000,"P-15-1",           427,           15.,            0.,            0.,NA,NA,"",   1.47114E+06,   1.47677E+06,   1.47677E+06
C:/temp/Job-15.odb,Step-1,Increment      1: Step Time =    1.000,"P-15-1",           428,            5.,            0.,            0.,NA,NA,"",   1.77274E+06,   1.81334E+06,   1.81334E+06
C:/temp/Job-15.odb,Step-1,Increment      1: Step Time =    1.000,"P-15-1",           429,          200.,          195.,            0.,NA,NA,"",   1.00031E+06,   999.870E+03,   999.870E+03
C:/temp/Job-15.odb,Step-1,Increment      1: Step Time =    1.000,"P-15-1",           430,          200.,          185.,            0.,NA,NA,"",   1.00152E+06,   1.00082E+06,   1.00082E+06
C:/temp/Job-15.odb,Step-1,Increment      1: Step Time =    1.000,"P-15-1",           431,          200.,          175.,            0.,NA,NA,"",   996.979E+03,   1.00159E+06,   1.00159E+06
C:/temp/Job-15.odb,Step-1,Increment      1: Step Time =    1.000,"P-15-1",           432,          200.,          165.,            0.,NA,NA,"",   981.498E+03,   1.00190E+06,   1.00190E+06
C:/temp/Job-15.odb,Step-1,Increment      1: Step Time =    1.000,"P-15-1",           433,          200.,          155.,            0.,NA,NA,"",   955.581E+03,   1.00227E+06,   1.00227E+06
C:/temp/Job-15.odb,Step-1,Increment      1: Step Time =    1.000,"P-15-1",           434,          200.,          145.,            0.,NA,NA,"",   918.816E+03,   1.00192E+06,   1.00192E+06
C:/temp/Job-15.odb,Step-1,Increment      1: Step Time =    1.000,"P-15-1",           435,          200.,          135.,            0.,NA,NA,"",   886.773E+03,   1.00224E+06,   1.00224E+06
C:/temp/Job-15.odb,Step-1,Increment      1: Step Time =    1.000,"P-15-1",           436,          200.,          125.,            0.,NA,NA,"",   868.563E+03,   1.00074E+06,   1.00074E+06
C:/temp/Job-15.odb,Step-1,Increment      1: Step Time =    1.000,"P-15-1",           437,          200.,          115.,            0.,NA,NA,"",   867.450E+03,   998.406E+03,   998.406E+03
C:/temp/Job-15.odb,Step-1,Increment      1: Step Time =    1.000,"P-15-1",           438,          200.,          105.,            0.,NA,NA,"",   873.117E+03,   996.364E+03,   996.364E+03
C:/temp/Job-15.odb,Step-1,Increment      1: Step Time =    1.000,"P-15-1",           439,          200.,           95.,            0.,NA,NA,"",   873.260E+03,   996.063E+03,   996.063E+03
C:/temp/Job-15.odb,Step-1,Increment      1: Step Time =    1.000,"P-15-1",           440,          200.,           85.,            0.,NA,NA,"",   867.676E+03,   998.189E+03,   998.189E+03
C:/temp/Job-15.odb,Step-1,Increment      1: Step Time =    1.000,"P-15-1",           441,          200.,           75.,            0.,NA,NA,"",   867.818E+03,   1.00017E+06,   1.00017E+06
C:/temp/Job-15.odb,Step-1,Increment      1: Step Time =    1.000,"P-15-1",           442,          200.,           65.,            0.,NA,NA,"",   885.357E+03,   1.00035E+06,   1.00035E+06
C:/temp/Job-15.odb,Step-1,Increment      1: Step Time =    1.000,"P-15-1",           443,          200.,           55.,            0.,NA,NA,"",   924.470E+03,   1.00574E+06,   1.00574E+06
C:/temp/Job-15.odb,Step-1,Increment      1: Step Time =    1.000,"P-15-1",           444,          200.,           45.,            0.,NA,NA,"",   958.124E+03,   1.00346E+06,   1.00346E+06
C:/temp/Job-15.odb,Step-1,Increment      1: Step Time =    1.000,"P-15-1",           445,          200.,           35.,            0.,NA,NA,"",   982.754E+03,   1.00165E+06,   1.00165E+06
C:/temp/Job-15.odb,Step-1,Increment      1: Step Time =    1.000,"P-15-1",           446,          200.,           25.,            0.,NA,NA,"",   997.018E+03,   1.00106E+06,   1.00106E+06
C:/temp/Job-15.odb,Step-1,Increment      1: Step Time =    1.000,"P-15-1",           447,          200.,           15.,            0.,NA,NA,"",   1.00162E+06,   1.00071E+06,   1.00071E+06
C:/temp/Job-15.odb,Step-1,Increment      1: Step Time =    1.000,"P-15-1",           448,          200.,            5.,            0.,NA,NA,"",   1.00031E+06,   999.855E+03,   999.855E+03
C:/temp/Job-15.odb,Step-1,Increment      1: Step Time =    1.000,"P-15-1",           449,            5.,          200.,            0.,NA,NA,"",   1.77737E+06,   1.81948E+06,   1.81948E+06
C:/temp/Job-15.odb,Step-1,Increment      1: Step Time =    1.000,"P-15-1",           450,           15.,          200.,            0.,NA,NA,"",   1.47329E+06,   1.47929E+06,   1.47929E+06
C:/temp/Job-15.odb,Step-1,Increment      1: Step Time =    1.000,"P-15-1",           451,           25.,          200.,            0.,NA,NA,"",   1.38870E+06,   1.38956E+06,   1.38956E+06
C:/temp/Job-15.odb,Step-1,Increment      1: Step Time =    1.000,"P-15-1",           452,           35.,          200.,            0.,NA,NA,"",   1.33562E+06,   1.33557E+06,   1.33557E+06
C:/temp/Job-15.odb,Step-1,Increment      1: Step Time =    1.000,"P-15-1",           453,           45.,          200.,            0.,NA,NA,"",   1.27917E+06,   1.27867E+06,   1.27867E+06
C:/temp/Job-15.odb,Step-1,Increment      1: Step Time =    1.000,"P-15-1",           454,           55.,          200.,            0.,NA,NA,"",   1.19836E+06,   1.19801E+06,   1.19801E+06
C:/temp/Job-15.odb,Step-1,Increment      1: Step Time =    1.000,"P-15-1",           455,           65.,          200.,            0.,NA,NA,"",   1.09867E+06,   1.09814E+06,   1.09814E+06
C:/temp/Job-15.odb,Step-1,Increment      1: Step Time =    1.000,"P-15-1",           456,           75.,          200.,            0.,NA,NA,"",   989.065E+03,   988.854E+03,   988.854E+03
C:/temp/Job-15.odb,Step-1,Increment      1: Step Time =    1.000,"P-15-1",           457,           85.,          200.,            0.,NA,NA,"",   887.857E+03,   888.317E+03,   888.317E+03
C:/temp/Job-15.odb,Step-1,Increment      1: Step Time =    1.000,"P-15-1",           458,           95.,          200.,            0.,NA,NA,"",   814.432E+03,   815.655E+03,   815.655E+03
C:/temp/Job-15.odb,Step-1,Increment      1: Step Time =    1.000,"P-15-1",           459,          105.,          200.,            0.,NA,NA,"",   781.608E+03,   783.082E+03,   783.082E+03
C:/temp/Job-15.odb,Step-1,Increment      1: Step Time =    1.000,"P-15-1",           460,          115.,          200.,            0.,NA,NA,"",   792.904E+03,   793.891E+03,   793.891E+03
C:/temp/Job-15.odb,Step-1,Increment      1: Step Time =    1.000,"P-15-1",           461,          125.,          200.,            0.,NA,NA,"",   839.416E+03,   839.768E+03,   839.768E+03
C:/temp/Job-15.odb,Step-1,Increment      1: Step Time =    1.000,"P-15-1",           462,          135.,          200.,            0.,NA,NA,"",   901.868E+03,   901.959E+03,   901.959E+03
C:/temp/Job-15.odb,Step-1,Increment      1: Step Time =    1.000,"P-15-1",           463,          145.,          200.,            0.,NA,NA,"",   957.258E+03,   955.685E+03,   955.685E+03
C:/temp/Job-15.odb,Step-1,Increment      1: Step Time =    1.000,"P-15-1",           464,          155.,          200.,            0.,NA,NA,"",   987.054E+03,   986.474E+03,   986.474E+03
C:/temp/Job-15.odb,Step-1,Increment      1: Step Time =    1.000,"P-15-1",           465,          165.,          200.,            0.,NA,NA,"",   998.108E+03,   997.847E+03,   997.847E+03
C:/temp/Job-15.odb,Step-1,Increment      1: Step Time =    1.000,"P-15-1",           466,          175.,          200.,            0.,NA,NA,"",   999.129E+03,   999.055E+03,   999.055E+03
C:/temp/Job-15.odb,Step-1,Increment      1: Step Time =    1.000,"P-15-1",           467,          185.,          200.,            0.,NA,NA,"",   997.359E+03,   997.529E+03,   997.529E+03
C:/temp/Job-15.odb,Step-1,Increment      1: Step Time =    1.000,"P-15-1",           468,          195.,          200.,            0.,NA,NA,"",   999.175E+03,   999.095E+03,   999.095E+03
C:/temp/Job-15.odb,Step-1,Increment      1: Step Time =    1.000,"P-15-1",           469,            0.,            5.,            0.,NA,NA,"",   1.68508E+06,   1.79261E+06,   1.79261E+06
C:/temp/Job-15.odb,Step-1,Increment      1: Step Time =    1.000,"P-15-1",           470,            0.,           15.,            0.,NA,NA,"",   1.26475E+06,   1.39301E+06,   1.39301E+06
C:/temp/Job-15.odb,Step-1,Increment      1: Step Time =    1.000,"P-15-1",           471,            0.,           25.,            0.,NA,NA,"",   1.10139E+06,   1.22716E+06,   1.22716E+06
C:/temp/Job-15.odb,Step-1,Increment      1: Step Time =    1.000,"P-15-1",           472,            0.,           35.,            0.,NA,NA,"",   990.249E+03,   1.10919E+06,   1.10919E+06
C:/temp/Job-15.odb,Step-1,Increment      1: Step Time =    1.000,"P-15-1",           473,            0.,           45.,            0.,NA,NA,"",   893.979E+03,   1.00408E+06,   1.00408E+06
C:/temp/Job-15.odb,Step-1,Increment      1: Step Time =    1.000,"P-15-1",           474,            0.,           55.,            0.,NA,NA,"",   801.192E+03,   901.020E+03,   901.020E+03
C:/temp/Job-15.odb,Step-1,Increment      1: Step Time =    1.000,"P-15-1",           475,            0.,           65.,            0.,NA,NA,"",   708.601E+03,   797.632E+03,   797.632E+03
C:/temp/Job-15.odb,Step-1,Increment      1: Step Time =    1.000,"P-15-1",           476,            0.,           75.,            0.,NA,NA,"",   620.074E+03,   699.414E+03,   699.414E+03
C:/temp/Job-15.odb,Step-1,Increment      1: Step Time =    1.000,"P-15-1",           477,            0.,           85.,            0.,NA,NA,"",   545.772E+03,   618.040E+03,   618.040E+03
C:/temp/Job-15.odb,Step-1,Increment      1: Step Time =    1.000,"P-15-1",           478,            0.,           95.,            0.,NA,NA,"",   501.007E+03,   569.574E+03,   569.574E+03
C:/temp/Job-15.odb,Step-1,Increment      1: Step Time =    1.000,"P-15-1",           479,            0.,          105.,            0.,NA,NA,"",   501.104E+03,   569.685E+03,   569.685E+03
C:/temp/Job-15.odb,Step-1,Increment      1: Step Time =    1.000,"P-15-1",           480,            0.,          115.,            0.,NA,NA,"",   545.755E+03,   617.999E+03,   617.999E+03
C:/temp/Job-15.odb,Step-1,Increment      1: Step Time =    1.000,"P-15-1",           481,            0.,          125.,            0.,NA,NA,"",   619.237E+03,   698.401E+03,   698.401E+03
C:/temp/Job-15.odb,Step-1,Increment      1: Step Time =    1.000,"P-15-1",           482,            0.,          135.,            0.,NA,NA,"",   709.059E+03,   797.146E+03,   797.146E+03
C:/temp/Job-15.odb,Step-1,Increment      1: Step Time =    1.000,"P-15-1",           483,            0.,          145.,            0.,NA,NA,"",   808.376E+03,   906.220E+03,   906.220E+03
C:/temp/Job-15.odb,Step-1,Increment      1: Step Time =    1.000,"P-15-1",           484,            0.,          155.,            0.,NA,NA,"",   900.878E+03,   1.01147E+06,   1.01147E+06
C:/temp/Job-15.odb,Step-1,Increment      1: Step Time =    1.000,"P-15-1",           485,            0.,          165.,            0.,NA,NA,"",   994.036E+03,   1.11356E+06,   1.11356E+06
C:/temp/Job-15.odb,Step-1,Increment      1: Step Time =    1.000,"P-15-1",           486,            0.,          175.,            0.,NA,NA,"",   1.10200E+06,   1.22906E+06,   1.22906E+06
C:/temp/Job-15.odb,Step-1,Increment      1: Step Time =    1.000,"P-15-1",           487,            0.,          185.,            0.,NA,NA,"",   1.26295E+06,   1.39342E+06,   1.39342E+06
C:/temp/Job-15.odb,Step-1,Increment      1: Step Time =    1.000,"P-15-1",           488,            0.,          195.,            0.,NA,NA,"",   1.68700E+06,   1.79777E+06,   1.79777E+06
C:/temp/Job-15.odb,Step-1,Increment      1: Step Time =    1.000,"P-15-1",           489,       132.934,       112.356,            0.,NA,NA,"",   671.306E+03,  -543.498E+03,  -543.498E+03
C:/temp/Job-15.odb,Step-1,Increment      1: Step Time =    1.000,"P-15-1",           490,       72.1064,       77.4457,            0.,NA,NA,"",   832.338E+03,   744.277E+03,   744.277E+03
C:/temp/Job-15.odb,Step-1,Increment      1: Step Time =    1.000,"P-15-1",           491,       80.9540,       69.7845,            0.,NA,NA,"",   1.64068E+06,   1.65850E+06,   1.65850E+06
C:/temp/Job-15.odb,Step-1,Increment      1: Step Time =    1.000,"P-15-1",           492,       115.312,       67.7725,            0.,NA,NA,"",   2.16846E+06,   2.23854E+06,   2.23854E+06
C:/temp/Job-15.odb,Step-1,Increment      1: Step Time =    1.000,"P-15-1",           493,       89.2811,       134.842,            0.,NA,NA,"",   2.16067E+06,   2.24808E+06,   2.24808E+06
C:/temp/Job-15.odb,Step-1,Increment      1: Step Time =    1.000,"P-15-1",           494,       130.443,       82.2282,            0.,NA,NA,"",   732.070E+03,   395.927E+03,   395.927E+03
C:/temp/Job-15.odb,Step-1,Increment      1: Step Time =    1.000,"P-15-1",           495,       69.6531,       121.132,            0.,NA,NA,"",   767.640E+03,   508.282E+03,   508.282E+03
C:/temp/Job-15.odb,Step-1,Increment      1: Step Time =    1.000,"P-15-1",           496,       136.890,       98.0476,            0.,NA,NA,"",   711.976E+03,  -698.826E+03,  -698.826E+03
C:/temp/Job-15.odb,Step-1,Increment      1: Step Time =    1.000,"P-15-1",           497,       65.2792,       98.2469,            0.,NA,NA,"",   628.345E+03,  -641.829E+03,  -641.829E+03
C:/temp/Job-15.odb,Step-1,Increment      1: Step Time =    1.000,"P-15-1",           498,       111.827,       66.4467,            0.,NA,NA,"",   2.33133E+06,   2.43213E+06,   2.43213E+06
C:/temp/Job-15.odb,Step-1,Increment      1: Step Time =    1.000,"P-15-1",           499,       111.494,       133.819,            0.,NA,NA,"",   2.34436E+06,   2.44129E+06,   2.44129E+06
C:/temp/Job-15.odb,Step-1,Increment      1: Step Time =    1.000,"P-15-1",           500,       115.656,       131.417,            0.,NA,NA,"",   2.14713E+06,   2.20197E+06,   2.20197E+06
C:/temp/Job-15.odb,Step-1,Increment      1: Step Time =    1.000,"P-15-1",           501,       65.5105,       87.0313,            0.,NA,NA,"",   547.061E+03,  -94.7674E+03,  -94.7674E+03
C:/temp/Job-15.odb,Step-1,Increment      1: Step Time =    1.000,"P-15-1",           502,       64.9310,       110.970,            0.,NA,NA,"",   496.363E+03,  -406.135E+03,  -406.135E+03
C:/temp/Job-15.odb,Step-1,Increment      1: Step Time =    1.000,"P-15-1",           503,       102.142,       62.6808,            0.,NA,NA,"",   2.36298E+06,   2.50157E+06,   2.50157E+06
C:/temp/Job-15.odb,Step-1,Increment      1: Step Time =    1.000,"P-15-1",           504,       130.994,       121.375,            0.,NA,NA,"",   1.03474E+06,   846.731E+03,   846.731E+03
C:/temp/Job-15.odb,Step-1,Increment      1: Step Time =    1.000,"P-15-1",           505,       82.9393,       133.953,            0.,NA,NA,"",   1.78455E+06,   1.82980E+06,   1.82980E+06
C:/temp/Job-15.odb,Step-1,Increment      1: Step Time =    1.000,"P-15-1",           506,       133.550,       86.5286,            0.,NA,NA,"",   728.428E+03,  -242.282E+03,  -242.282E+03
C:/temp/Job-15.odb,Step-1,Increment      1: Step Time =    1.000,"P-15-1",           507,       68.9776,       82.0051,            0.,NA,NA,"",   598.225E+03,   294.456E+03,   294.456E+03
C:/temp/Job-15.odb,Step-1,Increment      1: Step Time =    1.000,"P-15-1",           508,       85.7646,       67.3868,            0.,NA,NA,"",   2.01217E+06,   2.06643E+06,   2.06643E+06
C:/temp/Job-15.odb,Step-1,Increment      1: Step Time =    1.000,"P-15-1",           509,       90.5912,       64.9591,            0.,NA,NA,"",   2.24389E+06,   2.33881E+06,   2.33881E+06
C:/temp/Job-15.odb,Step-1,Increment      1: Step Time =    1.000,"P-15-1",           510,       119.586,       70.1550,            0.,NA,NA,"",   1.85645E+06,   1.88609E+06,   1.88609E+06
C:/temp/Job-15.odb,Step-1,Increment      1: Step Time =    1.000,"P-15-1",           511,       118.587,       129.644,            0.,NA,NA,"",   1.92516E+06,   1.95889E+06,   1.95889E+06
C:/temp/Job-15.odb,Step-1,Increment      1: Step Time =    1.000,"P-15-1",           512,       66.8949,       117.344,            0.,NA,NA,"",   616.738E+03,   153.528E+03,   153.528E+03
C:/temp/Job-15.odb,Step-1,Increment      1: Step Time =    1.000,"P-15-1",           513,       127.359,       78.1497,            0.,NA,NA,"",   999.409E+03,   912.037E+03,   912.037E+03
C:/temp/Job-15.odb,Step-1,Increment      1: Step Time =    1.000,"P-15-1",           514,       131.975,       115.783,            0.,NA,NA,"",   731.490E+03,   25.3282E+03,   25.3282E+03
C:/temp/Job-15.odb,Step-1,Increment      1: Step Time =    1.000,"P-15-1",           515,       85.2528,       4.85897,            0.,NA,NA,"",   923.765E+03,   925.091E+03,   925.091E+03
C:/temp/Job-15.odb,Step-1,Increment      1: Step Time =    1.000,"P-15-1",           516,       4.79856,       85.0092,            0.,NA,NA,"",   540.942E+03,   613.931E+03,   613.931E+03
C:/temp/Job-15.odb,Step-1,Increment      1: Step Time =    1.000,"P-15-1",           517,       4.67630,       75.1162,            0.,NA,NA,"",   619.790E+03,   698.614E+03,   698.614E+03
C:/temp/Job-15.odb,Step-1,Increment      1: Step Time =    1.000,"P-15-1",           518,       75.4298,       4.81543,            0.,NA,NA,"",   1.01576E+06,   1.01515E+06,   1.01515E+06
C:/temp/Job-15.odb,Step-1,Increment      1: Step Time =    1.000,"P-15-1",           519,       4.85543,       94.9130,            0.,NA,NA,"",   493.287E+03,   562.920E+03,   562.920E+03
C:/temp/Job-15.odb,Step-1,Increment      1: Step Time =    1.000,"P-15-1",           520,       195.155,       44.5775,            0.,NA,NA,"",   963.683E+03,   1.00789E+06,   1.00789E+06
C:/temp/Job-15.odb,Step-1,Increment      1: Step Time =    1.000,"P-15-1",           521,       195.504,       34.9166,            0.,NA,NA,"",   984.604E+03,   1.00483E+06,   1.00483E+06
C:/temp/Job-15.odb,Step-1,Increment      1: Step Time =    1.000,"P-15-1",           522,       4.68629,       124.637,            0.,NA,NA,"",   617.629E+03,   696.255E+03,   696.255E+03
C:/temp/Job-15.odb,Step-1,Increment      1: Step Time =    1.000,"P-15-1",           523,       4.77954,       114.802,            0.,NA,NA,"",   540.362E+03,   613.327E+03,   613.327E+03
C:/temp/Job-15.odb,Step-1,Increment      1: Step Time =    1.000,"P-15-1",           524,       7.06808,       144.880,            0.,NA,NA,"",   829.834E+03,   919.848E+03,   919.848E+03
C:/temp/Job-15.odb,Step-1,Increment      1: Step Time =    1.000,"P-15-1",           525,       5.11173,       134.435,            0.,NA,NA,"",   711.656E+03,   797.092E+03,   797.092E+03
C:/temp/Job-15.odb,Step-1,Increment      1: Step Time =    1.000,"P-15-1",           526,       5.54430,       5.46500,            0.,NA,NA,"",   1.64413E+06,   1.70757E+06,   1.70757E+06
C:/temp/Job-15.odb,Step-1,Increment      1: Step Time =    1.000,"P-15-1",           527,       5.50815,       15.8609,            0.,NA,NA,"",   1.28340E+06,   1.39291E+06,   1.39291E+06
C:/temp/Job-15.odb,Step-1,Increment      1: Step Time =    1.000,"P-15-1",           528,       4.78237,       25.7931,            0.,NA,NA,"",   1.11919E+06,   1.23476E+06,   1.23476E+06
C:/temp/Job-15.odb,Step-1,Increment      1: Step Time =    1.000,"P-15-1",           529,       4.45541,       35.6440,            0.,NA,NA,"",   1.00556E+06,   1.11717E+06,   1.11717E+06
C:/temp/Job-15.odb,Step-1,Increment      1: Step Time =    1.000,"P-15-1",           530,       4.34502,       45.4535,            0.,NA,NA,"",   907.079E+03,   1.01151E+06,   1.01151E+06
C:/temp/Job-15.odb,Step-1,Increment      1: Step Time =    1.000,"P-15-1",           531,       4.50429,       65.1870,            0.,NA,NA,"",   713.865E+03,   800.576E+03,   800.576E+03
C:/temp/Job-15.odb,Step-1,Increment      1: Step Time =    1.000,"P-15-1",           532,       15.6832,       4.82822,            0.,NA,NA,"",   1.46394E+06,   1.47340E+06,   1.47340E+06
C:/temp/Job-15.odb,Step-1,Increment      1: Step Time =    1.000,"P-15-1",           533,       25.3851,       4.21621,            0.,NA,NA,"",   1.38865E+06,   1.38980E+06,   1.38980E+06
C:/temp/Job-15.odb,Step-1,Increment      1: Step Time =    1.000,"P-15-1",           534,       34.9081,       4.47841,            0.,NA,NA,"",   1.33932E+06,   1.33859E+06,   1.33859E+06
C:/temp/Job-15.odb,Step-1,Increment      1: Step Time =    1.000,"P-15-1",           535,       44.5544,       4.86096,            0.,NA,NA,"",   1.28528E+06,   1.28276E+06,   1.28276E+06
C:/temp/Job-15.odb,Step-1,Increment      1: Step Time =    1.000,"P-15-1",           536,       55.1030,       7.10174,            0.,NA,NA,"",   1.22043E+06,   1.21501E+06,   1.21501E+06
C:/temp/Job-15.odb,Step-1,Increment      1: Step Time =    1.000,"P-15-1",           537,       65.5673,       5.17926,            0.,NA,NA,"",   1.11762E+06,   1.11578E+06,   1.11578E+06
C:/temp/Job-15.odb,Step-1,Increment      1: Step Time =    1.000,"P-15-1",           538,       95.2018,       4.90369,            0.,NA,NA,"",   854.939E+03,   858.455E+03,   858.455E+03
C:/temp/Job-15.odb,Step-1,Increment      1: Step Time =    1.000,"P-15-1",           539,       105.232,       5.07293,            0.,NA,NA,"",   828.142E+03,   832.281E+03,   832.281E+03
C:/temp/Job-15.odb,Step-1,Increment      1: Step Time =    1.000,"P-15-1",           540,       115.214,       5.22555,            0.,NA,NA,"",   841.036E+03,   843.762E+03,   843.762E+03
C:/temp/Job-15.odb,Step-1,Increment      1: Step Time =    1.000,"P-15-1",           541,       125.154,       4.85102,            0.,NA,NA,"",   876.303E+03,   877.014E+03,   877.014E+03
C:/temp/Job-15.odb,Step-1,Increment      1: Step Time =    1.000,"P-15-1",           542,       134.954,       4.38653,            0.,NA,NA,"",      922.E+03,   921.001E+03,   921.001E+03
C:/temp/Job-15.odb,Step-1,Increment      1: Step Time =    1.000,"P-15-1",           543,       144.653,       4.27295,            0.,NA,NA,"",   965.271E+03,   963.798E+03,   963.798E+03
C:/temp/Job-15.odb,Step-1,Increment      1: Step Time =    1.000,"P-15-1",           544,       194.769,       5.28410,            0.,NA,NA,"",   999.945E+03,   999.853E+03,   999.853E+03
C:/temp/Job-15.odb,Step-1,Increment      1: Step Time =    1.000,"P-15-1",           545,       195.262,       15.5019,            0.,NA,NA,"",   1.00129E+06,   1.00194E+06,   1.00194E+06
C:/temp/Job-15.odb,Step-1,Increment      1: Step Time =    1.000,"P-15-1",           546,       174.565,       4.90817,            0.,NA,NA,"",   1.00414E+06,   1.00388E+06,   1.00388E+06
C:/temp/Job-15.odb,Step-1,Increment      1: Step Time =    1.000,"P-15-1",           547,       195.584,       25.2598,            0.,NA,NA,"",   997.026E+03,   1.00317E+06,   1.00317E+06
C:/temp/Job-15.odb,Step-1,Increment      1: Step Time =    1.000,"P-15-1",           548,       194.708,       194.763,            0.,NA,NA,"",   999.949E+03,   999.869E+03,   999.869E+03
C:/temp/Job-15.odb,Step-1,Increment      1: Step Time =    1.000,"P-15-1",           549,       194.840,       184.513,            0.,NA,NA,"",   1.00145E+06,   1.00231E+06,   1.00231E+06
C:/temp/Job-15.odb,Step-1,Increment      1: Step Time =    1.000,"P-15-1",           550,       194.992,       174.492,            0.,NA,NA,"",   997.672E+03,   1.00433E+06,   1.00433E+06
C:/temp/Job-15.odb,Step-1,Increment      1: Step Time =    1.000,"P-15-1",           551,       194.658,       164.326,            0.,NA,NA,"",   985.612E+03,   1.00715E+06,   1.00715E+06
C:/temp/Job-15.odb,Step-1,Increment      1: Step Time =    1.000,"P-15-1",           552,       195.241,       154.466,            0.,NA,NA,"",   960.614E+03,   1.00731E+06,   1.00731E+06
C:/temp/Job-15.odb,Step-1,Increment      1: Step Time =    1.000,"P-15-1",           553,       192.917,       55.1244,            0.,NA,NA,"",   945.351E+03,   1.01715E+06,   1.01715E+06
C:/temp/Job-15.odb,Step-1,Increment      1: Step Time =    1.000,"P-15-1",           554,       195.311,       75.3092,            0.,NA,NA,"",   874.243E+03,   1.00279E+06,   1.00279E+06
C:/temp/Job-15.odb,Step-1,Increment      1: Step Time =    1.000,"P-15-1",           555,       195.217,       85.1489,            0.,NA,NA,"",   864.616E+03,   995.931E+03,   995.931E+03
C:/temp/Job-15.odb,Step-1,Increment      1: Step Time =    1.000,"P-15-1",           556,       195.088,       95.1315,            0.,NA,NA,"",   861.845E+03,   988.868E+03,   988.868E+03
C:/temp/Job-15.odb,Step-1,Increment      1: Step Time =    1.000,"P-15-1",           557,       195.035,       105.130,            0.,NA,NA,"",   862.088E+03,   989.423E+03,   989.423E+03
C:/temp/Job-15.odb,Step-1,Increment      1: Step Time =    1.000,"P-15-1",           558,       195.061,       115.076,            0.,NA,NA,"",   864.848E+03,   996.177E+03,   996.177E+03
C:/temp/Job-15.odb,Step-1,Increment      1: Step Time =    1.000,"P-15-1",           559,       195.182,       125.016,            0.,NA,NA,"",   875.973E+03,   1.00372E+06,   1.00372E+06
C:/temp/Job-15.odb,Step-1,Increment      1: Step Time =    1.000,"P-15-1",           560,       195.426,       134.862,            0.,NA,NA,"",   898.078E+03,   1.00754E+06,   1.00754E+06
C:/temp/Job-15.odb,Step-1,Increment      1: Step Time =    1.000,"P-15-1",           561,       195.662,       144.608,            0.,NA,NA,"",   927.192E+03,   1.00685E+06,   1.00685E+06
C:/temp/Job-15.odb,Step-1,Increment      1: Step Time =    1.000,"P-15-1",           562,       184.492,       195.258,            0.,NA,NA,"",   1.00019E+06,   1.00055E+06,   1.00055E+06
C:/temp/Job-15.odb,Step-1,Increment      1: Step Time =    1.000,"P-15-1",           563,       174.712,       195.560,            0.,NA,NA,"",   1.00341E+06,   1.00319E+06,   1.00319E+06
C:/temp/Job-15.odb,Step-1,Increment      1: Step Time =    1.000,"P-15-1",           564,       164.995,       195.437,            0.,NA,NA,"",   1.00451E+06,   1.00363E+06,   1.00363E+06
C:/temp/Job-15.odb,Step-1,Increment      1: Step Time =    1.000,"P-15-1",           565,       155.393,       195.194,            0.,NA,NA,"",   995.758E+03,   994.257E+03,   994.257E+03
C:/temp/Job-15.odb,Step-1,Increment      1: Step Time =    1.000,"P-15-1",           566,       144.915,       193.087,            0.,NA,NA,"",   986.641E+03,   982.919E+03,   982.919E+03
C:/temp/Job-15.odb,Step-1,Increment      1: Step Time =    1.000,"P-15-1",           567,       134.523,       194.939,            0.,NA,NA,"",   927.226E+03,   926.473E+03,   926.473E+03
C:/temp/Job-15.odb,Step-1,Increment      1: Step Time =    1.000,"P-15-1",           568,       124.762,       195.300,            0.,NA,NA,"",   873.470E+03,   874.240E+03,   874.240E+03
C:/temp/Job-15.odb,Step-1,Increment      1: Step Time =    1.000,"P-15-1",           569,       114.929,       195.122,            0.,NA,NA,"",   835.465E+03,   838.377E+03,   838.377E+03
C:/temp/Job-15.odb,Step-1,Increment      1: Step Time =    1.000,"P-15-1",           570,       104.954,       194.894,            0.,NA,NA,"",   829.273E+03,   833.472E+03,   833.472E+03
C:/temp/Job-15.odb,Step-1,Increment      1: Step Time =    1.000,"P-15-1",           571,       94.9014,       194.826,            0.,NA,NA,"",   861.825E+03,   865.325E+03,   865.325E+03
C:/temp/Job-15.odb,Step-1,Increment      1: Step Time =    1.000,"P-15-1",           572,       84.9089,       194.997,            0.,NA,NA,"",   928.884E+03,   930.136E+03,   930.136E+03
C:/temp/Job-15.odb,Step-1,Increment      1: Step Time =    1.000,"P-15-1",           573,       75.0326,       195.305,            0.,NA,NA,"",   1.01843E+06,   1.01748E+06,   1.01748E+06
C:/temp/Job-15.odb,Step-1,Increment      1: Step Time =    1.000,"P-15-1",           574,       65.2439,       195.560,            0.,NA,NA,"",   1.11462E+06,   1.11259E+06,   1.11259E+06
C:/temp/Job-15.odb,Step-1,Increment      1: Step Time =    1.000,"P-15-1",           575,       55.5045,       195.551,            0.,NA,NA,"",   1.20308E+06,   1.20105E+06,   1.20105E+06
C:/temp/Job-15.odb,Step-1,Increment      1: Step Time =    1.000,"P-15-1",           576,       45.6163,       194.770,            0.,NA,NA,"",   1.27712E+06,   1.27473E+06,   1.27473E+06
C:/temp/Job-15.odb,Step-1,Increment      1: Step Time =    1.000,"P-15-1",           577,       35.6292,       194.504,            0.,NA,NA,"",   1.33442E+06,   1.33294E+06,   1.33294E+06
C:/temp/Job-15.odb,Step-1,Increment      1: Step Time =    1.000,"P-15-1",           578,       25.3944,       195.073,            0.,NA,NA,"",   1.38944E+06,   1.39075E+06,   1.39075E+06
C:/temp/Job-15.odb,Step-1,Increment      1: Step Time =    1.000,"P-15-1",           579,       15.3876,       194.928,            0.,NA,NA,"",   1.46764E+06,   1.47814E+06,   1.47814E+06
C:/temp/Job-15.odb,Step-1,Increment      1: Step Time =    1.000,"P-15-1",           580,       5.20739,       194.740,            0.,NA,NA,"",   1.65139E+06,   1.71756E+06,   1.71756E+06
C:/temp/Job-15.odb,Step-1,Increment      1: Step Time =    1.000,"P-15-1",           581,       4.70900,       184.525,            0.,NA,NA,"",   1.28232E+06,   1.39690E+06,   1.39690E+06
C:/temp/Job-15.odb,Step-1,Increment      1: Step Time =    1.000,"P-15-1",           582,       4.42950,       174.766,            0.,NA,NA,"",   1.12305E+06,   1.24041E+06,   1.24041E+06
C:/temp/Job-15.odb,Step-1,Increment      1: Step Time =    1.000,"P-15-1",           583,       4.55654,       165.094,            0.,NA,NA,"",   1.01461E+06,   1.12647E+06,   1.12647E+06
C:/temp/Job-15.odb,Step-1,Increment      1: Step Time =    1.000,"P-15-1",           584,       4.88866,       155.451,            0.,NA,NA,"",   920.929E+03,   1.02515E+06,   1.02515E+06
C:/temp/Job-15.odb,Step-1,Increment      1: Step Time =    1.000,"P-15-1",           585,       4.86275,       104.860,            0.,NA,NA,"",   493.050E+03,   562.683E+03,   562.683E+03
C:/temp/Job-15.odb,Step-1,Increment      1: Step Time =    1.000,"P-15-1",           586,       4.36756,       55.2898,            0.,NA,NA,"",   811.024E+03,   906.757E+03,   906.757E+03
C:/temp/Job-15.odb,Step-1,Increment      1: Step Time =    1.000,"P-15-1",           587,       194.880,       65.5320,            0.,NA,NA,"",   897.503E+03,   1.00657E+06,   1.00657E+06
C:/temp/Job-15.odb,Step-1,Increment      1: Step Time =    1.000,"P-15-1",           588,       184.538,       5.12031,            0.,NA,NA,"",   1.00041E+06,   1.00083E+06,   1.00083E+06
C:/temp/Job-15.odb,Step-1,Increment      1: Step Time =    1.000,"P-15-1",           589,       164.430,       5.28192,            0.,NA,NA,"",   1.00701E+06,   1.00559E+06,   1.00559E+06
C:/temp/Job-15.odb,Step-1,Increment      1: Step Time =    1.000,"P-15-1",           590,       154.429,       4.96179,            0.,NA,NA,"",   996.340E+03,   994.463E+03,   994.463E+03
C:/temp/Job-15.odb,Step-1,Increment      1: Step Time =    1.000,"P-15-1",           591,       189.605,       5.41535,            0.,NA,NA,"",   999.659E+03,   1.00006E+06,   1.00006E+06
C:/temp/Job-15.odb,Step-1,Increment      1: Step Time =    1.000,"P-15-1",           592,       179.536,       4.92574,            0.,NA,NA,"",   1.00208E+06,   1.00220E+06,   1.00220E+06
C:/temp/Job-15.odb,Step-1,Increment      1: Step Time =    1.000,"P-15-1",           593,       169.548,       5.04501,            0.,NA,NA,"",   1.00622E+06,   1.00541E+06,   1.00541E+06
C:/temp/Job-15.odb,Step-1,Increment      1: Step Time =    1.000,"P-15-1",           594,       159.296,       5.42244,            0.,NA,NA,"",   1.00436E+06,   1.00255E+06,   1.00255E+06
C:/temp/Job-15.odb,Step-1,Increment      1: Step Time =    1.000,"P-15-1",           595,       149.522,       4.49569,            0.,NA,NA,"",   982.728E+03,   981.090E+03,   981.090E+03
C:/temp/Job-15.odb,Step-1,Increment      1: Step Time =    1.000,"P-15-1",           596,       139.812,       4.25534,            0.,NA,NA,"",   944.775E+03,   943.486E+03,   943.486E+03
C:/temp/Job-15.odb,Step-1,Increment      1: Step Time =    1.000,"P-15-1",           597,       130.062,       4.60055,            0.,NA,NA,"",   898.744E+03,   898.292E+03,   898.292E+03
C:/temp/Job-15.odb,Step-1,Increment      1: Step Time =    1.000,"P-15-1",           598,       120.187,       5.09320,            0.,NA,NA,"",   856.558E+03,   858.368E+03,   858.368E+03
C:/temp/Job-15.odb,Step-1,Increment      1: Step Time =    1.000,"P-15-1",           599,       110.239,       5.19307,            0.,NA,NA,"",   830.711E+03,   834.390E+03,   834.390E+03
C:/temp/Job-15.odb,Step-1,Increment      1: Step Time =    1.000,"P-15-1",           600,       100.228,       4.96624,            0.,NA,NA,"",   835.792E+03,   839.814E+03,   839.814E+03
C:/temp/Job-15.odb,Step-1,Increment      1: Step Time =    1.000,"P-15-1",           601,       90.1877,       4.87513,            0.,NA,NA,"",   885.200E+03,   887.738E+03,   887.738E+03
C:/temp/Job-15.odb,Step-1,Increment      1: Step Time =    1.000,"P-15-1",           602,       80.3443,       4.83543,            0.,NA,NA,"",   967.813E+03,   968.031E+03,   968.031E+03
C:/temp/Job-15.odb,Step-1,Increment      1: Step Time =    1.000,"P-15-1",           603,       70.5036,       4.89953,            0.,NA,NA,"",   1.06660E+06,   1.06526E+06,   1.06526E+06
C:/temp/Job-15.odb,Step-1,Increment      1: Step Time =    1.000,"P-15-1",           604,       60.5930,       5.84374,            0.,NA,NA,"",   1.16765E+06,   1.16485E+06,   1.16485E+06
C:/temp/Job-15.odb,Step-1,Increment      1: Step Time =    1.000,"P-15-1",           605,       49.4844,       5.49849,            0.,NA,NA,"",   1.25429E+06,   1.25045E+06,   1.25045E+06
C:/temp/Job-15.odb,Step-1,Increment      1: Step Time =    1.000,"P-15-1",           606,       39.7355,       4.61018,            0.,NA,NA,"",   1.31394E+06,   1.31230E+06,   1.31230E+06
C:/temp/Job-15.odb,Step-1,Increment      1: Step Time =    1.000,"P-15-1",           607,       30.1340,       4.34224,            0.,NA,NA,"",   1.36352E+06,   1.36329E+06,   1.36329E+06
C:/temp/Job-15.odb,Step-1,Increment      1: Step Time =    1.000,"P-15-1",           608,       20.5585,       4.27462,            0.,NA,NA,"",   1.42221E+06,   1.42492E+06,   1.42492E+06
C:/temp/Job-15.odb,Step-1,Increment      1: Step Time =    1.000,"P-15-1",           609,       10.8582,       5.50025,            0.,NA,NA,"",   1.54384E+06,   1.56155E+06,   1.56155E+06
C:/temp/Job-15.odb,Step-1,Increment      1: Step Time =    1.000,"P-15-1",           610,       194.565,       189.590,            0.,NA,NA,"",   1.00119E+06,   1.00127E+06,   1.00127E+06
C:/temp/Job-15.odb,Step-1,Increment      1: Step Time =    1.000,"P-15-1",           611,       195.002,       179.487,            0.,NA,NA,"",   1.00027E+06,   1.00314E+06,   1.00314E+06
C:/temp/Job-15.odb,Step-1,Increment      1: Step Time =    1.000,"P-15-1",           612,       194.845,       169.448,            0.,NA,NA,"",   993.178E+03,   1.00591E+06,   1.00591E+06
C:/temp/Job-15.odb,Step-1,Increment      1: Step Time =    1.000,"P-15-1",           613,       194.649,       159.272,            0.,NA,NA,"",   975.208E+03,   1.00791E+06,   1.00791E+06
C:/temp/Job-15.odb,Step-1,Increment      1: Step Time =    1.000,"P-15-1",           614,       195.609,       149.490,            0.,NA,NA,"",   943.207E+03,   1.00626E+06,   1.00626E+06
C:/temp/Job-15.odb,Step-1,Increment      1: Step Time =    1.000,"P-15-1",           615,       195.573,       139.742,            0.,NA,NA,"",   912.219E+03,   1.00771E+06,   1.00771E+06
C:/temp/Job-15.odb,Step-1,Increment      1: Step Time =    1.000,"P-15-1",           616,       195.298,       129.957,            0.,NA,NA,"",   885.847E+03,   1.00631E+06,   1.00631E+06
C:/temp/Job-15.odb,Step-1,Increment      1: Step Time =    1.000,"P-15-1",           617,       195.114,       120.045,            0.,NA,NA,"",   868.977E+03,   1.00016E+06,   1.00016E+06
C:/temp/Job-15.odb,Step-1,Increment      1: Step Time =    1.000,"P-15-1",           618,       195.042,       110.104,            0.,NA,NA,"",   862.861E+03,   992.355E+03,   992.355E+03
C:/temp/Job-15.odb,Step-1,Increment      1: Step Time =    1.000,"P-15-1",           619,       195.057,       100.144,            0.,NA,NA,"",   861.672E+03,   987.914E+03,   987.914E+03
C:/temp/Job-15.odb,Step-1,Increment      1: Step Time =    1.000,"P-15-1",           620,       195.150,       90.1217,            0.,NA,NA,"",   862.742E+03,   991.957E+03,   991.957E+03
C:/temp/Job-15.odb,Step-1,Increment      1: Step Time =    1.000,"P-15-1",           621,       195.289,       80.2094,            0.,NA,NA,"",   868.234E+03,   999.865E+03,   999.865E+03
C:/temp/Job-15.odb,Step-1,Increment      1: Step Time =    1.000,"P-15-1",           622,       195.202,       70.4189,            0.,NA,NA,"",   883.995E+03,   1.00507E+06,   1.00507E+06
C:/temp/Job-15.odb,Step-1,Increment      1: Step Time =    1.000,"P-15-1",           623,       194.189,       60.5913,            0.,NA,NA,"",   916.410E+03,   1.00941E+06,   1.00941E+06
C:/temp/Job-15.odb,Step-1,Increment      1: Step Time =    1.000,"P-15-1",           624,       194.520,       49.5027,            0.,NA,NA,"",   953.550E+03,   1.01211E+06,   1.01211E+06
C:/temp/Job-15.odb,Step-1,Increment      1: Step Time =    1.000,"P-15-1",           625,       195.402,       39.7590,            0.,NA,NA,"",   974.654E+03,   1.00572E+06,   1.00572E+06
C:/temp/Job-15.odb,Step-1,Increment      1: Step Time =    1.000,"P-15-1",           626,       195.561,       30.0777,            0.,NA,NA,"",   991.977E+03,   1.00394E+06,   1.00394E+06
C:/temp/Job-15.odb,Step-1,Increment      1: Step Time =    1.000,"P-15-1",           627,       195.553,       20.3945,            0.,NA,NA,"",   999.993E+03,   1.00249E+06,   1.00249E+06
C:/temp/Job-15.odb,Step-1,Increment      1: Step Time =    1.000,"P-15-1",           628,       194.766,       10.4561,            0.,NA,NA,"",   1.00114E+06,   1.00115E+06,   1.00115E+06
C:/temp/Job-15.odb,Step-1,Increment      1: Step Time =    1.000,"P-15-1",           629,       10.3363,       194.628,            0.,NA,NA,"",   1.55317E+06,   1.57185E+06,   1.57185E+06
C:/temp/Job-15.odb,Step-1,Increment      1: Step Time =    1.000,"P-15-1",           630,       20.3923,       195.109,            0.,NA,NA,"",   1.42413E+06,   1.42795E+06,   1.42795E+06
C:/temp/Job-15.odb,Step-1,Increment      1: Step Time =    1.000,"P-15-1",           631,       30.4635,       194.842,            0.,NA,NA,"",   1.36177E+06,   1.36138E+06,   1.36138E+06
C:/temp/Job-15.odb,Step-1,Increment      1: Step Time =    1.000,"P-15-1",           632,       40.7295,       194.274,            0.,NA,NA,"",   1.30700E+06,   1.30476E+06,   1.30476E+06
C:/temp/Job-15.odb,Step-1,Increment      1: Step Time =    1.000,"P-15-1",           633,       50.6075,       195.282,            0.,NA,NA,"",   1.24199E+06,   1.23996E+06,   1.23996E+06
C:/temp/Job-15.odb,Step-1,Increment      1: Step Time =    1.000,"P-15-1",           634,       60.3704,       195.613,            0.,NA,NA,"",   1.16062E+06,   1.15841E+06,   1.15841E+06
C:/temp/Job-15.odb,Step-1,Increment      1: Step Time =    1.000,"P-15-1",           635,       70.1310,       195.451,            0.,NA,NA,"",   1.06672E+06,   1.06504E+06,   1.06504E+06
C:/temp/Job-15.odb,Step-1,Increment      1: Step Time =    1.000,"P-15-1",           636,       79.9531,       195.150,            0.,NA,NA,"",   971.756E+03,   971.825E+03,   971.825E+03
C:/temp/Job-15.odb,Step-1,Increment      1: Step Time =    1.000,"P-15-1",           637,       89.8913,       194.883,            0.,NA,NA,"",   891.750E+03,   894.234E+03,   894.234E+03
C:/temp/Job-15.odb,Step-1,Increment      1: Step Time =    1.000,"P-15-1",           638,       99.9298,       194.827,            0.,NA,NA,"",   840.671E+03,   844.791E+03,   844.791E+03
C:/temp/Job-15.odb,Step-1,Increment      1: Step Time =    1.000,"P-15-1",           639,       109.960,       194.992,            0.,NA,NA,"",   827.696E+03,   831.449E+03,   831.449E+03
C:/temp/Job-15.odb,Step-1,Increment      1: Step Time =    1.000,"P-15-1",           640,       119.860,       195.236,            0.,NA,NA,"",   851.453E+03,   853.253E+03,   853.253E+03
C:/temp/Job-15.odb,Step-1,Increment      1: Step Time =    1.000,"P-15-1",           641,       129.640,       195.229,            0.,NA,NA,"",   899.497E+03,   899.425E+03,   899.425E+03
C:/temp/Job-15.odb,Step-1,Increment      1: Step Time =    1.000,"P-15-1",           642,       139.458,       194.303,            0.,NA,NA,"",   955.397E+03,   953.586E+03,   953.586E+03
C:/temp/Job-15.odb,Step-1,Increment      1: Step Time =    1.000,"P-15-1",           643,       150.534,       194.681,            0.,NA,NA,"",   989.160E+03,   986.571E+03,   986.571E+03
C:/temp/Job-15.odb,Step-1,Increment      1: Step Time =    1.000,"P-15-1",           644,       160.157,       195.354,            0.,NA,NA,"",   1.00150E+06,   1.00042E+06,   1.00042E+06
C:/temp/Job-15.odb,Step-1,Increment      1: Step Time =    1.000,"P-15-1",           645,       169.863,       195.514,            0.,NA,NA,"",   1.00483E+06,   1.00425E+06,   1.00425E+06
C:/temp/Job-15.odb,Step-1,Increment      1: Step Time =    1.000,"P-15-1",           646,       179.591,       195.544,            0.,NA,NA,"",   1.00156E+06,   1.00167E+06,   1.00167E+06
C:/temp/Job-15.odb,Step-1,Increment      1: Step Time =    1.000,"P-15-1",           647,       189.536,       194.761,            0.,NA,NA,"",   999.642E+03,   1.00001E+06,   1.00001E+06
C:/temp/Job-15.odb,Step-1,Increment      1: Step Time =    1.000,"P-15-1",           648,       5.85161,       10.8313,            0.,NA,NA,"",   1.42388E+06,   1.52008E+06,   1.52008E+06
C:/temp/Job-15.odb,Step-1,Increment      1: Step Time =    1.000,"P-15-1",           649,       5.10200,       20.8546,            0.,NA,NA,"",   1.19213E+06,   1.30661E+06,   1.30661E+06
C:/temp/Job-15.odb,Step-1,Increment      1: Step Time =    1.000,"P-15-1",           650,       4.58087,       30.7302,            0.,NA,NA,"",   1.05964E+06,   1.17378E+06,   1.17378E+06
C:/temp/Job-15.odb,Step-1,Increment      1: Step Time =    1.000,"P-15-1",           651,       4.37593,       40.5602,            0.,NA,NA,"",   955.633E+03,   1.06390E+06,   1.06390E+06
C:/temp/Job-15.odb,Step-1,Increment      1: Step Time =    1.000,"P-15-1",           652,       4.33725,       50.3743,            0.,NA,NA,"",   859.191E+03,   959.388E+03,   959.388E+03
C:/temp/Job-15.odb,Step-1,Increment      1: Step Time =    1.000,"P-15-1",           653,       4.42174,       60.2244,            0.,NA,NA,"",   762.600E+03,   853.768E+03,   853.768E+03
C:/temp/Job-15.odb,Step-1,Increment      1: Step Time =    1.000,"P-15-1",           654,       4.58374,       70.1476,            0.,NA,NA,"",   665.829E+03,   748.375E+03,   748.375E+03
C:/temp/Job-15.odb,Step-1,Increment      1: Step Time =    1.000,"P-15-1",           655,       4.73521,       80.0642,            0.,NA,NA,"",   577.551E+03,   653.179E+03,   653.179E+03
C:/temp/Job-15.odb,Step-1,Increment      1: Step Time =    1.000,"P-15-1",           656,       4.82257,       89.9545,            0.,NA,NA,"",   512.087E+03,   583.045E+03,   583.045E+03
C:/temp/Job-15.odb,Step-1,Increment      1: Step Time =    1.000,"P-15-1",           657,       4.85633,       99.8832,            0.,NA,NA,"",    486.65E+03,   555.815E+03,   555.815E+03
C:/temp/Job-15.odb,Step-1,Increment      1: Step Time =    1.000,"P-15-1",           658,       4.82858,       109.840,            0.,NA,NA,"",   511.671E+03,   582.629E+03,   582.629E+03
C:/temp/Job-15.odb,Step-1,Increment      1: Step Time =    1.000,"P-15-1",           659,       4.71466,       119.737,            0.,NA,NA,"",   576.385E+03,   651.927E+03,   651.927E+03
C:/temp/Job-15.odb,Step-1,Increment      1: Step Time =    1.000,"P-15-1",           660,       4.78964,       129.527,            0.,NA,NA,"",   663.003E+03,   745.051E+03,   745.051E+03
C:/temp/Job-15.odb,Step-1,Increment      1: Step Time =    1.000,"P-15-1",           661,       5.79589,       139.394,            0.,NA,NA,"",   764.519E+03,   852.853E+03,   852.853E+03
C:/temp/Job-15.odb,Step-1,Increment      1: Step Time =    1.000,"P-15-1",           662,       5.49819,       150.518,            0.,NA,NA,"",   876.857E+03,   975.446E+03,   975.446E+03
C:/temp/Job-15.odb,Step-1,Increment      1: Step Time =    1.000,"P-15-1",           663,       4.66411,       160.263,            0.,NA,NA,"",   966.260E+03,   1.07459E+06,   1.07459E+06
C:/temp/Job-15.odb,Step-1,Increment      1: Step Time =    1.000,"P-15-1",           664,       4.48605,       169.940,            0.,NA,NA,"",   1.06694E+06,   1.18185E+06,   1.18185E+06
C:/temp/Job-15.odb,Step-1,Increment      1: Step Time =    1.000,"P-15-1",           665,       4.43354,       179.637,            0.,NA,NA,"",   1.19268E+06,   1.31077E+06,   1.31077E+06
C:/temp/Job-15.odb,Step-1,Increment      1: Step Time =    1.000,"P-15-1",           666,       5.19803,       189.578,            0.,NA,NA,"",   1.42813E+06,   1.52895E+06,   1.52895E+06
C:/temp/Job-15.odb,Step-1,Increment      1: Step Time =    1.000,"P-15-1",           667,       89.3760,       140.519,            0.,NA,NA,"",   1.79942E+06,   1.90912E+06,   1.90912E+06
C:/temp/Job-15.odb,Step-1,Increment      1: Step Time =    1.000,"P-15-1",           668,       110.827,       140.987,            0.,NA,NA,"",   1.80065E+06,   1.93744E+06,   1.93744E+06
C:/temp/Job-15.odb,Step-1,Increment      1: Step Time =    1.000,"P-15-1",           669,       65.8270,       127.157,            0.,NA,NA,"",   1.19167E+06,   1.03022E+06,   1.03022E+06
C:/temp/Job-15.odb,Step-1,Increment      1: Step Time =    1.000,"P-15-1",           670,       134.734,       127.026,            0.,NA,NA,"",   1.44626E+06,   1.23042E+06,   1.23042E+06
C:/temp/Job-15.odb,Step-1,Increment      1: Step Time =    1.000,"P-15-1",           671,       142.631,       98.3658,            0.,NA,NA,"",   404.993E+03,  -97.6864E+03,  -97.6864E+03
C:/temp/Job-15.odb,Step-1,Increment      1: Step Time =    1.000,"P-15-1",           672,       60.3099,       102.584,            0.,NA,NA,"",   320.242E+03,  -300.396E+03,  -300.396E+03
C:/temp/Job-15.odb,Step-1,Increment      1: Step Time =    1.000,"P-15-1",           673,       100.169,       135.952,            0.,NA,NA,"",   2.51544E+06,   2.64129E+06,   2.64129E+06
C:/temp/Job-15.odb,Step-1,Increment      1: Step Time =    1.000,"P-15-1",           674,       65.6266,       107.486,            0.,NA,NA,"",   541.864E+03,  -525.329E+03,  -525.329E+03
C:/temp/Job-15.odb,Step-1,Increment      1: Step Time =    1.000,"P-15-1",           675,       124.101,       128.751,            0.,NA,NA,"",   1.57865E+06,   1.54923E+06,   1.54923E+06
C:/temp/Job-15.odb,Step-1,Increment      1: Step Time =    1.000,"P-15-1",           676,       136.555,       107.998,            0.,NA,NA,"",   699.346E+03,  -607.041E+03,  -607.041E+03
C:/temp/Job-15.odb,Step-1,Increment      1: Step Time =    1.000,"P-15-1",           677,       139.701,       8.52532,            0.,NA,NA,"",   983.959E+03,   980.238E+03,   980.238E+03
C:/temp/Job-15.odb,Step-1,Increment      1: Step Time =    1.000,"P-15-1",           678,       130.345,       9.28287,            0.,NA,NA,"",   959.255E+03,   958.265E+03,   958.265E+03
C:/temp/Job-15.odb,Step-1,Increment      1: Step Time =    1.000,"P-15-1",           679,       120.582,       10.3458,            0.,NA,NA,"",   937.181E+03,   942.495E+03,   942.495E+03
C:/temp/Job-15.odb,Step-1,Increment      1: Step Time =    1.000,"P-15-1",           680,       110.371,       10.5301,            0.,NA,NA,"",   917.722E+03,   928.479E+03,   928.479E+03
C:/temp/Job-15.odb,Step-1,Increment      1: Step Time =    1.000,"P-15-1",           681,       100.372,       9.87182,            0.,NA,NA,"",   917.535E+03,   928.537E+03,   928.537E+03
C:/temp/Job-15.odb,Step-1,Increment      1: Step Time =    1.000,"P-15-1",           682,       90.3732,       9.76141,            0.,NA,NA,"",   962.441E+03,   969.754E+03,   969.754E+03
C:/temp/Job-15.odb,Step-1,Increment      1: Step Time =    1.000,"P-15-1",           683,       62.1546,       11.1700,            0.,NA,NA,"",   1.19473E+06,   1.18586E+06,   1.18586E+06
C:/temp/Job-15.odb,Step-1,Increment      1: Step Time =    1.000,"P-15-1",           684,       191.115,       139.565,            0.,NA,NA,"",   938.462E+03,   1.02120E+06,   1.02120E+06
C:/temp/Job-15.odb,Step-1,Increment      1: Step Time =    1.000,"P-15-1",           685,       190.544,       130.007,            0.,NA,NA,"",   910.833E+03,   1.01633E+06,   1.01633E+06
C:/temp/Job-15.odb,Step-1,Increment      1: Step Time =    1.000,"P-15-1",           686,       190.210,       120.131,            0.,NA,NA,"",   877.149E+03,   998.841E+03,   998.841E+03
C:/temp/Job-15.odb,Step-1,Increment      1: Step Time =    1.000,"P-15-1",           687,       190.065,       110.216,            0.,NA,NA,"",   849.388E+03,   977.294E+03,   977.294E+03
C:/temp/Job-15.odb,Step-1,Increment      1: Step Time =    1.000,"P-15-1",           688,       190.138,       100.277,            0.,NA,NA,"",   837.543E+03,   965.718E+03,   965.718E+03
C:/temp/Job-15.odb,Step-1,Increment      1: Step Time =    1.000,"P-15-1",           689,       190.325,       90.1996,            0.,NA,NA,"",   847.897E+03,   976.243E+03,   976.243E+03
C:/temp/Job-15.odb,Step-1,Increment      1: Step Time =    1.000,"P-15-1",           690,       190.553,       80.3890,            0.,NA,NA,"",   873.861E+03,   997.506E+03,   997.506E+03
C:/temp/Job-15.odb,Step-1,Increment      1: Step Time =    1.000,"P-15-1",           691,       188.875,       62.1836,            0.,NA,NA,"",   948.779E+03,   1.02778E+06,   1.02778E+06
C:/temp/Job-15.odb,Step-1,Increment      1: Step Time =    1.000,"P-15-1",           692,       60.7552,       191.182,            0.,NA,NA,"",   1.18512E+06,   1.17885E+06,   1.17885E+06
C:/temp/Job-15.odb,Step-1,Increment      1: Step Time =    1.000,"P-15-1",           693,       70.1861,       190.817,            0.,NA,NA,"",   1.11415E+06,   1.10963E+06,   1.10963E+06
C:/temp/Job-15.odb,Step-1,Increment      1: Step Time =    1.000,"P-15-1",           694,       79.8085,       190.230,            0.,NA,NA,"",   1.04076E+06,   1.04120E+06,   1.04120E+06
C:/temp/Job-15.odb,Step-1,Increment      1: Step Time =    1.000,"P-15-1",           695,       89.7330,       189.698,            0.,NA,NA,"",   974.198E+03,   981.454E+03,   981.454E+03
C:/temp/Job-15.odb,Step-1,Increment      1: Step Time =    1.000,"P-15-1",           696,       99.9009,       189.570,            0.,NA,NA,"",   927.192E+03,   938.972E+03,   938.972E+03
C:/temp/Job-15.odb,Step-1,Increment      1: Step Time =    1.000,"P-15-1",           697,       110.054,       189.891,            0.,NA,NA,"",   910.733E+03,   921.419E+03,   921.419E+03
C:/temp/Job-15.odb,Step-1,Increment      1: Step Time =    1.000,"P-15-1",           698,       119.835,       190.411,            0.,NA,NA,"",   924.201E+03,   929.401E+03,   929.401E+03
C:/temp/Job-15.odb,Step-1,Increment      1: Step Time =    1.000,"P-15-1",           699,       129.191,       190.535,            0.,NA,NA,"",   958.113E+03,   957.690E+03,   957.690E+03
C:/temp/Job-15.odb,Step-1,Increment      1: Step Time =    1.000,"P-15-1",           700,       138.000,       189.099,            0.,NA,NA,"",   1.00419E+06,    999.31E+03,    999.31E+03
C:/temp/Job-15.odb,Step-1,Increment      1: Step Time =    1.000,"P-15-1",           701,       8.84908,       60.4544,            0.,NA,NA,"",   779.435E+03,   863.365E+03,   863.365E+03
C:/temp/Job-15.odb,Step-1,Increment      1: Step Time =    1.000,"P-15-1",           702,       9.14385,       70.2832,            0.,NA,NA,"",   672.434E+03,   751.458E+03,   751.458E+03
C:/temp/Job-15.odb,Step-1,Increment      1: Step Time =    1.000,"P-15-1",           703,       9.46204,       80.1235,            0.,NA,NA,"",   573.749E+03,   648.949E+03,   648.949E+03
C:/temp/Job-15.odb,Step-1,Increment      1: Step Time =    1.000,"P-15-1",           704,       9.66538,       109.710,            0.,NA,NA,"",   499.020E+03,   570.845E+03,   570.845E+03
C:/temp/Job-15.odb,Step-1,Increment      1: Step Time =    1.000,"P-15-1",           705,       9.47239,       119.522,            0.,NA,NA,"",   571.479E+03,   646.628E+03,   646.628E+03
C:/temp/Job-15.odb,Step-1,Increment      1: Step Time =    1.000,"P-15-1",           706,       11.0629,       137.810,            0.,NA,NA,"",   771.481E+03,   850.546E+03,   850.546E+03
C:/temp/Job-15.odb,Step-1,Increment      1: Step Time =    1.000,"P-15-1",           707,       80.7072,       9.80593,            0.,NA,NA,"",   1.03324E+06,   1.03438E+06,   1.03438E+06
C:/temp/Job-15.odb,Step-1,Increment      1: Step Time =    1.000,"P-15-1",           708,       71.1327,       9.73235,            0.,NA,NA,"",   1.11315E+06,   1.10900E+06,   1.10900E+06
C:/temp/Job-15.odb,Step-1,Increment      1: Step Time =    1.000,"P-15-1",           709,       190.480,       70.9873,            0.,NA,NA,"",   906.434E+03,   1.01406E+06,   1.01406E+06
C:/temp/Job-15.odb,Step-1,Increment      1: Step Time =    1.000,"P-15-1",           710,       9.62073,       89.9057,            0.,NA,NA,"",   500.634E+03,   572.517E+03,   572.517E+03
C:/temp/Job-15.odb,Step-1,Increment      1: Step Time =    1.000,"P-15-1",           711,       9.67645,       99.7700,            0.,NA,NA,"",   471.170E+03,   541.231E+03,   541.231E+03
C:/temp/Job-15.odb,Step-1,Increment      1: Step Time =    1.000,"P-15-1",           712,       9.49622,       128.934,            0.,NA,NA,"",   664.856E+03,   743.250E+03,   743.250E+03
C:/temp/Job-15.odb,Step-1,Increment      1: Step Time =    1.000,"P-15-1",           713,       133.941,       79.3649,            0.,NA,NA,"",   1.15556E+06,   880.942E+03,   880.942E+03
C:/temp/Job-15.odb,Step-1,Increment      1: Step Time =    1.000,"P-15-1",           714,       65.0469,       78.9326,            0.,NA,NA,"",   909.006E+03,   711.023E+03,   711.023E+03
C:/temp/Job-15.odb,Step-1,Increment      1: Step Time =    1.000,"P-15-1",           715,       142.195,       108.365,            0.,NA,NA,"",   630.670E+03,  -19.3144E+03,  -19.3144E+03
C:/temp/Job-15.odb,Step-1,Increment      1: Step Time =    1.000,"P-15-1",           716,       60.3609,       108.633,            0.,NA,NA,"",   428.235E+03,  -197.588E+03,  -197.588E+03
C:/temp/Job-15.odb,Step-1,Increment      1: Step Time =    1.000,"P-15-1",           717,       98.0498,       55.6704,            0.,NA,NA,"",   1.67970E+06,   1.83776E+06,   1.83776E+06
C:/temp/Job-15.odb,Step-1,Increment      1: Step Time =    1.000,"P-15-1",           718,       59.9158,       88.8795,            0.,NA,NA,"",   492.714E+03,   30.5845E+03,   30.5845E+03
C:/temp/Job-15.odb,Step-1,Increment      1: Step Time =    1.000,"P-15-1",           719,       74.6855,       66.7389,            0.,NA,NA,"",   1.50439E+06,   1.44554E+06,   1.44554E+06
C:/temp/Job-15.odb,Step-1,Increment      1: Step Time =    1.000,"P-15-1",           720,       126.635,       68.5532,            0.,NA,NA,"",   1.60708E+06,   1.53352E+06,   1.53352E+06
C:/temp/Job-15.odb,Step-1,Increment      1: Step Time =    1.000,"P-15-1",           721,       79.0939,       65.3966,            0.,NA,NA,"",   1.62942E+06,   1.62441E+06,   1.62441E+06
C:/temp/Job-15.odb,Step-1,Increment      1: Step Time =    1.000,"P-15-1",           722,       122.517,       65.9455,            0.,NA,NA,"",   1.70580E+06,   1.70488E+06,   1.70488E+06
C:/temp/Job-15.odb,Step-1,Increment      1: Step Time =    1.000,"P-15-1",           723,       87.4940,       60.6608,            0.,NA,NA,"",   1.81940E+06,   1.91276E+06,   1.91276E+06
C:/temp/Job-15.odb,Step-1,Increment      1: Step Time =    1.000,"P-15-1",           724,       60.2588,       17.6372,            0.,NA,NA,"",   1.25665E+06,   1.23769E+06,   1.23769E+06
C:/temp/Job-15.odb,Step-1,Increment      1: Step Time =    1.000,"P-15-1",           725,       13.2469,       60.7346,            0.,NA,NA,"",   798.578E+03,    873.67E+03,    873.67E+03
C:/temp/Job-15.odb,Step-1,Increment      1: Step Time =    1.000,"P-15-1",           726,       182.344,       60.4083,            0.,NA,NA,"",   1.01261E+06,   1.05743E+06,   1.05743E+06
C:/temp/Job-15.odb,Step-1,Increment      1: Step Time =    1.000,"P-15-1",           727,       61.0652,       186.735,            0.,NA,NA,"",   1.21757E+06,   1.20551E+06,   1.20551E+06
C:/temp/Job-15.odb,Step-1,Increment      1: Step Time =    1.000,"P-15-1",           728,       17.4677,       139.640,            0.,NA,NA,"",   828.978E+03,   892.742E+03,   892.742E+03
C:/temp/Job-15.odb,Step-1,Increment      1: Step Time =    1.000,"P-15-1",           729,       139.746,       12.7838,            0.,NA,NA,"",   1.02726E+06,   1.02017E+06,   1.02017E+06
C:/temp/Job-15.odb,Step-1,Increment      1: Step Time =    1.000,"P-15-1",           730,       186.711,       139.555,            0.,NA,NA,"",   973.300E+03,   1.03870E+06,   1.03870E+06
C:/temp/Job-15.odb,Step-1,Increment      1: Step Time =    1.000,"P-15-1",           731,       140.001,       182.842,            0.,NA,NA,"",   1.07776E+06,   1.06633E+06,   1.06633E+06
C:/temp/Job-15.odb,Step-1,Increment      1: Step Time =    1.000,"P-15-1",           732,       127.938,       132.877,            0.,NA,NA,"",   1.61671E+06,   1.52027E+06,   1.52027E+06
C:/temp/Job-15.odb,Step-1,Increment      1: Step Time =    1.000,"P-15-1",           733,       71.7134,       14.4431,            0.,NA,NA,"",   1.16045E+06,   1.15335E+06,   1.15335E+06
C:/temp/Job-15.odb,Step-1,Increment      1: Step Time =    1.000,"P-15-1",           734,       14.0334,       128.390,            0.,NA,NA,"",   670.077E+03,   743.630E+03,   743.630E+03
C:/temp/Job-15.odb,Step-1,Increment      1: Step Time =    1.000,"P-15-1",           735,       13.6334,       70.4335,            0.,NA,NA,"",   682.511E+03,   756.329E+03,   756.329E+03
C:/temp/Job-15.odb,Step-1,Increment      1: Step Time =    1.000,"P-15-1",           736,       130.940,       14.0129,            0.,NA,NA,"",   1.02096E+06,   1.01876E+06,   1.01876E+06
C:/temp/Job-15.odb,Step-1,Increment      1: Step Time =    1.000,"P-15-1",           737,       185.756,       130.165,            0.,NA,NA,"",   943.214E+03,   1.02767E+06,   1.02767E+06
C:/temp/Job-15.odb,Step-1,Increment      1: Step Time =    1.000,"P-15-1",           738,       70.1581,       186.112,            0.,NA,NA,"",   1.16456E+06,   1.15639E+06,   1.15639E+06
C:/temp/Job-15.odb,Step-1,Increment      1: Step Time =    1.000,"P-15-1",           739,       128.823,       186.018,            0.,NA,NA,"",   1.01360E+06,   1.01298E+06,   1.01298E+06
C:/temp/Job-15.odb,Step-1,Increment      1: Step Time =    1.000,"P-15-1",           740,       185.943,       71.5806,            0.,NA,NA,"",   932.421E+03,   1.02233E+06,   1.02233E+06
C:/temp/Job-15.odb,Step-1,Increment      1: Step Time =    1.000,"P-15-1",           741,       94.9302,       141.293,            0.,NA,NA,"",   1.85268E+06,   2.00116E+06,   2.00116E+06
C:/temp/Job-15.odb,Step-1,Increment      1: Step Time =    1.000,"P-15-1",           742,       104.068,       141.911,            0.,NA,NA,"",   1.81946E+06,   1.98492E+06,   1.98492E+06
C:/temp/Job-15.odb,Step-1,Increment      1: Step Time =    1.000,"P-15-1",           743,       70.2270,       131.893,            0.,NA,NA,"",   1.41366E+06,   1.30212E+06,   1.30212E+06
C:/temp/Job-15.odb,Step-1,Increment      1: Step Time =    1.000,"P-15-1",           744,       136.484,       120.731,            0.,NA,NA,"",   1.17864E+06,   906.040E+03,   906.040E+03
C:/temp/Job-15.odb,Step-1,Increment      1: Step Time =    1.000,"P-15-1",           745,       131.174,       129.791,            0.,NA,NA,"",   1.53545E+06,   1.37362E+06,   1.37362E+06
C:/temp/Job-15.odb,Step-1,Increment      1: Step Time =    1.000,"P-15-1",           746,       142.318,       103.524,            0.,NA,NA,"",   446.974E+03,  -94.0003E+03,  -94.0003E+03
C:/temp/Job-15.odb,Step-1,Increment      1: Step Time =    1.000,"P-15-1",           747,       56.7445,       105.659,            0.,NA,NA,"",   306.283E+03,   6.59024E+03,   6.59024E+03
C:/temp/Job-15.odb,Step-1,Increment      1: Step Time =    1.000,"P-15-1",           748,       140.634,       78.6583,            0.,NA,NA,"",   1.23693E+06,   964.658E+03,   964.658E+03
C:/temp/Job-15.odb,Step-1,Increment      1: Step Time =    1.000,"P-15-1",           749,       58.3973,       78.8839,            0.,NA,NA,"",   898.935E+03,   736.588E+03,   736.588E+03
C:/temp/Job-15.odb,Step-1,Increment      1: Step Time =    1.000,"P-15-1",           750,       14.1547,       80.2043,            0.,NA,NA,"",   572.701E+03,   645.796E+03,   645.796E+03
C:/temp/Job-15.odb,Step-1,Increment      1: Step Time =    1.000,"P-15-1",           751,       121.401,       15.5828,            0.,NA,NA,"",   1.01034E+06,   1.01972E+06,   1.01972E+06
C:/temp/Job-15.odb,Step-1,Increment      1: Step Time =    1.000,"P-15-1",           752,       14.2925,       119.408,            0.,NA,NA,"",   570.558E+03,   643.571E+03,   643.571E+03
C:/temp/Job-15.odb,Step-1,Increment      1: Step Time =    1.000,"P-15-1",           753,       81.0420,       15.0055,            0.,NA,NA,"",   1.09743E+06,   1.10122E+06,   1.10122E+06
C:/temp/Job-15.odb,Step-1,Increment      1: Step Time =    1.000,"P-15-1",           754,       185.324,       120.258,            0.,NA,NA,"",   889.535E+03,   993.467E+03,   993.467E+03
C:/temp/Job-15.odb,Step-1,Increment      1: Step Time =    1.000,"P-15-1",           755,       79.5676,       185.243,            0.,NA,NA,"",   1.10526E+06,   1.10684E+06,   1.10684E+06
C:/temp/Job-15.odb,Step-1,Increment      1: Step Time =    1.000,"P-15-1",           756,       185.823,       80.4996,            0.,NA,NA,"",   881.835E+03,   989.652E+03,   989.652E+03
C:/temp/Job-15.odb,Step-1,Increment      1: Step Time =    1.000,"P-15-1",           757,       120.028,       185.520,            0.,NA,NA,"",   990.487E+03,   1.00078E+06,   1.00078E+06
C:/temp/Job-15.odb,Step-1,Increment      1: Step Time =    1.000,"P-15-1",           758,       141.950,       112.958,            0.,NA,NA,"",   854.533E+03,   347.253E+03,   347.253E+03
C:/temp/Job-15.odb,Step-1,Increment      1: Step Time =    1.000,"P-15-1",           759,       56.3618,       114.366,            0.,NA,NA,"",   597.923E+03,   451.733E+03,   451.733E+03
C:/temp/Job-15.odb,Step-1,Increment      1: Step Time =    1.000,"P-15-1",           760,       67.7924,       74.9335,            0.,NA,NA,"",   1.10307E+06,   943.586E+03,   943.586E+03
C:/temp/Job-15.odb,Step-1,Increment      1: Step Time =    1.000,"P-15-1",           761,       130.858,       76.0545,            0.,NA,NA,"",   1.29247E+06,   1.10594E+06,   1.10594E+06
C:/temp/Job-15.odb,Step-1,Increment      1: Step Time =    1.000,"P-15-1",           762,       90.9910,       57.4238,            0.,NA,NA,"",   1.73426E+06,   1.85733E+06,   1.85733E+06
C:/temp/Job-15.odb,Step-1,Increment      1: Step Time =    1.000,"P-15-1",           763,       65.5956,       68.8926,            0.,NA,NA,"",   1.30950E+06,   1.16228E+06,   1.16228E+06
C:/temp/Job-15.odb,Step-1,Increment      1: Step Time =    1.000,"P-15-1",           764,       128.667,       73.2630,            0.,NA,NA,"",   1.41053E+06,   1.28234E+06,   1.28234E+06
C:/temp/Job-15.odb,Step-1,Increment      1: Step Time =    1.000,"P-15-1",           765,       14.3463,       89.8781,            0.,NA,NA,"",   491.138E+03,   562.215E+03,   562.215E+03
C:/temp/Job-15.odb,Step-1,Increment      1: Step Time =    1.000,"P-15-1",           766,       110.117,       15.9746,            0.,NA,NA,"",   987.581E+03,   1.00909E+06,   1.00909E+06
C:/temp/Job-15.odb,Step-1,Increment      1: Step Time =    1.000,"P-15-1",           767,       90.6533,       14.6044,            0.,NA,NA,"",   1.02559E+06,   1.04056E+06,   1.04056E+06
C:/temp/Job-15.odb,Step-1,Increment      1: Step Time =    1.000,"P-15-1",           768,       14.4759,       109.591,            0.,NA,NA,"",   487.733E+03,   558.646E+03,   558.646E+03
C:/temp/Job-15.odb,Step-1,Increment      1: Step Time =    1.000,"P-15-1",           769,       185.071,       110.331,            0.,NA,NA,"",   835.445E+03,   951.426E+03,   951.426E+03
C:/temp/Job-15.odb,Step-1,Increment      1: Step Time =    1.000,"P-15-1",           770,       89.5181,       184.410,            0.,NA,NA,"",   1.04451E+06,   1.05941E+06,   1.05941E+06
C:/temp/Job-15.odb,Step-1,Increment      1: Step Time =    1.000,"P-15-1",           771,       185.576,       90.2607,            0.,NA,NA,"",   833.269E+03,   951.108E+03,   951.108E+03
C:/temp/Job-15.odb,Step-1,Increment      1: Step Time =    1.000,"P-15-1",           772,       110.337,       184.646,            0.,NA,NA,"",   980.362E+03,   1.00120E+06,   1.00120E+06
C:/temp/Job-15.odb,Step-1,Increment      1: Step Time =    1.000,"P-15-1",           773,       102.781,       56.8710,            0.,NA,NA,"",   1.74511E+06,   1.91248E+06,   1.91248E+06
C:/temp/Job-15.odb,Step-1,Increment      1: Step Time =    1.000,"P-15-1",           774,       100.375,       14.6466,            0.,NA,NA,"",   980.779E+03,   1.00191E+06,   1.00191E+06
C:/temp/Job-15.odb,Step-1,Increment      1: Step Time =    1.000,"P-15-1",           775,       14.4070,       99.6592,            0.,NA,NA,"",   456.406E+03,   525.481E+03,   525.481E+03
C:/temp/Job-15.odb,Step-1,Increment      1: Step Time =    1.000,"P-15-1",           776,       185.279,       100.382,            0.,NA,NA,"",   812.560E+03,   932.073E+03,   932.073E+03
C:/temp/Job-15.odb,Step-1,Increment      1: Step Time =    1.000,"P-15-1",           777,       99.9113,       184.171,            0.,NA,NA,"",   997.215E+03,   1.02066E+06,   1.02066E+06
C:/temp/Job-15.odb,Step-1,Increment      1: Step Time =    1.000,"P-15-1",           778,       84.1890,       56.8464,            0.,NA,NA,"",   1.63843E+06,   1.69607E+06,   1.69607E+06
C:/temp/Job-15.odb,Step-1,Increment      1: Step Time =    1.000,"P-15-1",           779,       148.114,       98.9526,            0.,NA,NA,"",   374.902E+03,   301.284E+03,   301.284E+03
C:/temp/Job-15.odb,Step-1,Increment      1: Step Time =    1.000,"P-15-1",           780,       99.7482,       140.647,            0.,NA,NA,"",   1.92327E+06,   2.08831E+06,   2.08831E+06
C:/temp/Job-15.odb,Step-1,Increment      1: Step Time =    1.000,"P-15-1",           781,       99.5028,       50.5463,            0.,NA,NA,"",   1.46833E+06,   1.61202E+06,   1.61202E+06
C:/temp/Job-15.odb,Step-1,Increment      1: Step Time =    1.000,"P-15-1",           782,       143.596,       93.0361,            0.,NA,NA,"",   547.797E+03,   183.789E+03,   183.789E+03
C:/temp/Job-15.odb,Step-1,Increment      1: Step Time =    1.000,"P-15-1",           783,       107.408,       57.2741,            0.,NA,NA,"",   1.76057E+06,   1.91548E+06,   1.91548E+06
C:/temp/Job-15.odb,Step-1,Increment      1: Step Time =    1.000,"P-15-1",           784,       13.3931,       65.5907,            0.,NA,NA,"",   740.908E+03,   815.254E+03,   815.254E+03
C:/temp/Job-15.odb,Step-1,Increment      1: Step Time =    1.000,"P-15-1",           785,       63.8629,       16.1181,            0.,NA,NA,"",   1.22555E+06,   1.21082E+06,   1.21082E+06
C:/temp/Job-15.odb,Step-1,Increment      1: Step Time =    1.000,"P-15-1",           786,       183.953,       63.9915,            0.,NA,NA,"",   981.745E+03,   1.04377E+06,   1.04377E+06
C:/temp/Job-15.odb,Step-1,Increment      1: Step Time =    1.000,"P-15-1",           787,       65.5722,       186.473,            0.,NA,NA,"",   1.19193E+06,   1.18119E+06,   1.18119E+06
C:/temp/Job-15.odb,Step-1,Increment      1: Step Time =    1.000,"P-15-1",           788,       135.416,       13.2408,            0.,NA,NA,"",   1.02381E+06,   1.01839E+06,   1.01839E+06
C:/temp/Job-15.odb,Step-1,Increment      1: Step Time =    1.000,"P-15-1",           789,       15.8965,       136.080,            0.,NA,NA,"",   773.406E+03,   842.605E+03,   842.605E+03
C:/temp/Job-15.odb,Step-1,Increment      1: Step Time =    1.000,"P-15-1",           790,       186.148,       134.902,            0.,NA,NA,"",   961.208E+03,   1.03597E+06,   1.03597E+06
C:/temp/Job-15.odb,Step-1,Increment      1: Step Time =    1.000,"P-15-1",           791,       136.438,       184.303,            0.,NA,NA,"",   1.05394E+06,   1.04626E+06,   1.04626E+06
C:/temp/Job-15.odb,Step-1,Increment      1: Step Time =    1.000,"P-15-1",           792,       126.357,       14.9391,            0.,NA,NA,"",   1.01655E+06,   1.01909E+06,   1.01909E+06
C:/temp/Job-15.odb,Step-1,Increment      1: Step Time =    1.000,"P-15-1",           793,       14.0918,       124.039,            0.,NA,NA,"",   620.382E+03,   693.859E+03,   693.859E+03
C:/temp/Job-15.odb,Step-1,Increment      1: Step Time =    1.000,"P-15-1",           794,       13.8868,       75.3642,            0.,NA,NA,"",   625.193E+03,   698.702E+03,   698.702E+03
C:/temp/Job-15.odb,Step-1,Increment      1: Step Time =    1.000,"P-15-1",           795,       76.2422,       14.6651,            0.,NA,NA,"",   1.13022E+06,   1.12782E+06,   1.12782E+06
C:/temp/Job-15.odb,Step-1,Increment      1: Step Time =    1.000,"P-15-1",           796,       74.8286,       185.697,            0.,NA,NA,"",   1.13575E+06,   1.13170E+06,   1.13170E+06
C:/temp/Job-15.odb,Step-1,Increment      1: Step Time =    1.000,"P-15-1",           797,       186.005,       75.9210,            0.,NA,NA,"",   908.079E+03,   1.00764E+06,   1.00764E+06
C:/temp/Job-15.odb,Step-1,Increment      1: Step Time =    1.000,"P-15-1",           798,       185.553,       125.246,            0.,NA,NA,"",   918.143E+03,   1.01271E+06,   1.01271E+06
C:/temp/Job-15.odb,Step-1,Increment      1: Step Time =    1.000,"P-15-1",           799,       124.580,       185.887,            0.,NA,NA,"",   1.00139E+06,   1.00553E+06,   1.00553E+06
C:/temp/Job-15.odb,Step-1,Increment      1: Step Time =    1.000,"P-15-1",           800,       107.895,       144.396,            0.,NA,NA,"",   1.66438E+06,   1.81490E+06,   1.81490E+06
C:/temp/Job-15.odb,Step-1,Increment      1: Step Time =    1.000,"P-15-1",           801,       89.3848,       145.982,            0.,NA,NA,"",   1.60355E+06,   1.70620E+06,   1.70620E+06
C:/temp/Job-15.odb,Step-1,Increment      1: Step Time =    1.000,"P-15-1",           802,       74.3306,       134.167,            0.,NA,NA,"",   1.51890E+06,   1.45763E+06,   1.45763E+06
C:/temp/Job-15.odb,Step-1,Increment      1: Step Time =    1.000,"P-15-1",           803,       138.108,       131.393,            0.,NA,NA,"",   1.52383E+06,   1.32376E+06,   1.32376E+06
C:/temp/Job-15.odb,Step-1,Increment      1: Step Time =    1.000,"P-15-1",           804,       65.4300,       131.074,            0.,NA,NA,"",   1.32111E+06,   1.17423E+06,   1.17423E+06
C:/temp/Job-15.odb,Step-1,Increment      1: Step Time =    1.000,"P-15-1",           805,       55.9618,       99.6957,            0.,NA,NA,"",   196.699E+03,  -22.1441E+03,  -22.1441E+03
C:/temp/Job-15.odb,Step-1,Increment      1: Step Time =    1.000,"P-15-1",           806,       57.9533,       84.9239,            0.,NA,NA,"",   638.825E+03,   464.779E+03,   464.779E+03
C:/temp/Job-15.odb,Step-1,Increment      1: Step Time =    1.000,"P-15-1",           807,       144.409,       80.9823,            0.,NA,NA,"",   1.11069E+06,    869.85E+03,    869.85E+03
C:/temp/Job-15.odb,Step-1,Increment      1: Step Time =    1.000,"P-15-1",           808,       14.4526,       114.570,            0.,NA,NA,"",   525.236E+03,   597.426E+03,   597.426E+03
C:/temp/Job-15.odb,Step-1,Increment      1: Step Time =    1.000,"P-15-1",           809,       85.9199,       15.1190,            0.,NA,NA,"",   1.06187E+06,   1.07196E+06,   1.07196E+06
C:/temp/Job-15.odb,Step-1,Increment      1: Step Time =    1.000,"P-15-1",           810,       14.2737,       85.0645,            0.,NA,NA,"",   527.555E+03,   599.835E+03,   599.835E+03
C:/temp/Job-15.odb,Step-1,Increment      1: Step Time =    1.000,"P-15-1",           811,       115.750,       17.0637,            0.,NA,NA,"",   1.01158E+06,   1.03033E+06,   1.03033E+06
C:/temp/Job-15.odb,Step-1,Increment      1: Step Time =    1.000,"P-15-1",           812,       185.628,       85.3267,            0.,NA,NA,"",   856.973E+03,   970.924E+03,   970.924E+03
C:/temp/Job-15.odb,Step-1,Increment      1: Step Time =    1.000,"P-15-1",           813,       115.280,       185.041,            0.,NA,NA,"",   983.045E+03,   998.998E+03,   998.998E+03
C:/temp/Job-15.odb,Step-1,Increment      1: Step Time =    1.000,"P-15-1",           814,       185.165,       115.302,            0.,NA,NA,"",   860.557E+03,   971.683E+03,   971.683E+03
C:/temp/Job-15.odb,Step-1,Increment      1: Step Time =    1.000,"P-15-1",           815,       84.4889,       184.789,            0.,NA,NA,"",   1.07437E+06,   1.08256E+06,   1.08256E+06
C:/temp/Job-15.odb,Step-1,Increment      1: Step Time =    1.000,"P-15-1",           816,       147.668,       108.802,            0.,NA,NA,"",   628.464E+03,   480.081E+03,   480.081E+03
C:/temp/Job-15.odb,Step-1,Increment      1: Step Time =    1.000,"P-15-1",           817,       140.907,       117.039,            0.,NA,NA,"",   1.05454E+06,   768.846E+03,   768.846E+03
C:/temp/Job-15.odb,Step-1,Increment      1: Step Time =    1.000,"P-15-1",           818,       59.5294,       117.102,            0.,NA,NA,"",   720.810E+03,   540.778E+03,   540.778E+03
C:/temp/Job-15.odb,Step-1,Increment      1: Step Time =    1.000,"P-15-1",           819,       130.445,       70.5009,            0.,NA,NA,"",   1.51793E+06,   1.36711E+06,   1.36711E+06
C:/temp/Job-15.odb,Step-1,Increment      1: Step Time =    1.000,"P-15-1",           820,       95.5827,       14.3633,            0.,NA,NA,"",   996.156E+03,   1.01457E+06,   1.01457E+06
C:/temp/Job-15.odb,Step-1,Increment      1: Step Time =    1.000,"P-15-1",           821,       14.4425,       104.604,            0.,NA,NA,"",   463.615E+03,   533.206E+03,   533.206E+03
C:/temp/Job-15.odb,Step-1,Increment      1: Step Time =    1.000,"P-15-1",           822,       185.501,       95.2941,            0.,NA,NA,"",   816.575E+03,   936.004E+03,   936.004E+03
C:/temp/Job-15.odb,Step-1,Increment      1: Step Time =    1.000,"P-15-1",           823,       105.171,       184.344,            0.,NA,NA,"",   984.271E+03,   1.00817E+06,   1.00817E+06
C:/temp/Job-15.odb,Step-1,Increment      1: Step Time =    1.000,"P-15-1",           824,       105.159,       15.2490,            0.,NA,NA,"",   978.389E+03,   1.00065E+06,   1.00065E+06
C:/temp/Job-15.odb,Step-1,Increment      1: Step Time =    1.000,"P-15-1",           825,       14.3289,       94.7677,            0.,NA,NA,"",   466.181E+03,   535.933E+03,   535.933E+03
C:/temp/Job-15.odb,Step-1,Increment      1: Step Time =    1.000,"P-15-1",           826,       185.096,       105.343,            0.,NA,NA,"",   819.465E+03,   938.081E+03,   938.081E+03
C:/temp/Job-15.odb,Step-1,Increment      1: Step Time =    1.000,"P-15-1",           827,       94.6942,       184.182,            0.,NA,NA,"",   1.01795E+06,   1.03816E+06,   1.03816E+06
C:/temp/Job-15.odb,Step-1,Increment      1: Step Time =    1.000,"P-15-1",           828,       80.8261,       59.2586,            0.,NA,NA,"",   1.65437E+06,   1.67329E+06,   1.67329E+06
C:/temp/Job-15.odb,Step-1,Increment      1: Step Time =    1.000,"P-15-1",           829,       86.9516,       53.8784,            0.,NA,NA,"",   1.58682E+06,   1.66921E+06,   1.66921E+06
C:/temp/Job-15.odb,Step-1,Increment      1: Step Time =    1.000,"P-15-1",           830,       61.1353,       131.070,            0.,NA,NA,"",   1.25409E+06,   1.10267E+06,   1.10267E+06
C:/temp/Job-15.odb,Step-1,Increment      1: Step Time =    1.000,"P-15-1",           831,       153.244,       99.4806,            0.,NA,NA,"",   438.472E+03,   430.705E+03,   430.705E+03
C:/temp/Job-15.odb,Step-1,Increment      1: Step Time =    1.000,"P-15-1",           832,       49.7815,       99.0572,            0.,NA,NA,"",   212.769E+03,   217.030E+03,   217.030E+03
C:/temp/Job-15.odb,Step-1,Increment      1: Step Time =    1.000,"P-15-1",           833,       109.046,       21.3774,            0.,NA,NA,"",   1.04698E+06,   1.08334E+06,   1.08334E+06
C:/temp/Job-15.odb,Step-1,Increment      1: Step Time =    1.000,"P-15-1",           834,       18.9702,       89.9316,            0.,NA,NA,"",   481.755E+03,   550.748E+03,   550.748E+03
C:/temp/Job-15.odb,Step-1,Increment      1: Step Time =    1.000,"P-15-1",           835,       180.102,       110.462,            0.,NA,NA,"",   818.556E+03,   916.684E+03,   916.684E+03
C:/temp/Job-15.odb,Step-1,Increment      1: Step Time =    1.000,"P-15-1",           836,       89.2160,       178.976,            0.,NA,NA,"",   1.10807E+06,   1.13241E+06,   1.13241E+06
C:/temp/Job-15.odb,Step-1,Increment      1: Step Time =    1.000,"P-15-1",           837,       100.034,       19.1805,            0.,NA,NA,"",   1.03346E+06,   1.06637E+06,   1.06637E+06
C:/temp/Job-15.odb,Step-1,Increment      1: Step Time =    1.000,"P-15-1",           838,       19.0166,       99.5295,            0.,NA,NA,"",   440.087E+03,   507.099E+03,   507.099E+03
C:/temp/Job-15.odb,Step-1,Increment      1: Step Time =    1.000,"P-15-1",           839,       180.530,       100.370,            0.,NA,NA,"",   783.655E+03,   890.313E+03,   890.313E+03
C:/temp/Job-15.odb,Step-1,Increment      1: Step Time =    1.000,"P-15-1",           840,       99.9610,       178.550,            0.,NA,NA,"",   1.05700E+06,   1.09561E+06,   1.09561E+06
C:/temp/Job-15.odb,Step-1,Increment      1: Step Time =    1.000,"P-15-1",           841,       134.628,       134.061,            0.,NA,NA,"",   1.58657E+06,   1.41958E+06,   1.41958E+06
C:/temp/Job-15.odb,Step-1,Increment      1: Step Time =    1.000,"P-15-1",           842,       133.018,       67.3092,            0.,NA,NA,"",   1.59651E+06,   1.42908E+06,   1.42908E+06
C:/temp/Job-15.odb,Step-1,Increment      1: Step Time =    1.000,"P-15-1",           843,       140.996,       135.312,            0.,NA,NA,"",   1.52839E+06,   1.34873E+06,   1.34873E+06
C:/temp/Job-15.odb,Step-1,Increment      1: Step Time =    1.000,"P-15-1",           844,       132.811,       61.3717,            0.,NA,NA,"",   1.61835E+06,   1.49666E+06,   1.49666E+06
C:/temp/Job-15.odb,Step-1,Increment      1: Step Time =    1.000,"P-15-1",           845,       141.217,       85.7575,            0.,NA,NA,"",   903.410E+03,   358.036E+03,   358.036E+03
C:/temp/Job-15.odb,Step-1,Increment      1: Step Time =    1.000,"P-15-1",           846,       62.0898,       21.5149,            0.,NA,NA,"",   1.27897E+06,   1.25507E+06,   1.25507E+06
C:/temp/Job-15.odb,Step-1,Increment      1: Step Time =    1.000,"P-15-1",           847,       17.6236,       61.1214,            0.,NA,NA,"",   819.828E+03,   884.267E+03,   884.267E+03
C:/temp/Job-15.odb,Step-1,Increment      1: Step Time =    1.000,"P-15-1",           848,       61.1899,       182.251,            0.,NA,NA,"",   1.25351E+06,   1.23478E+06,   1.23478E+06
C:/temp/Job-15.odb,Step-1,Increment      1: Step Time =    1.000,"P-15-1",           849,       178.469,       62.3836,            0.,NA,NA,"",   1.04024E+06,   1.06990E+06,   1.06990E+06
C:/temp/Job-15.odb,Step-1,Increment      1: Step Time =    1.000,"P-15-1",           850,       21.1826,       137.822,            0.,NA,NA,"",   830.024E+03,   885.115E+03,   885.115E+03
C:/temp/Job-15.odb,Step-1,Increment      1: Step Time =    1.000,"P-15-1",           851,       143.761,       16.7640,            0.,NA,NA,"",   1.07266E+06,   1.06045E+06,   1.06045E+06
C:/temp/Job-15.odb,Step-1,Increment      1: Step Time =    1.000,"P-15-1",           852,       182.535,       139.886,            0.,NA,NA,"",   1.01258E+06,   1.05768E+06,   1.05768E+06
C:/temp/Job-15.odb,Step-1,Increment      1: Step Time =    1.000,"P-15-1",           853,       138.367,       179.169,            0.,NA,NA,"",   1.11375E+06,   1.09976E+06,   1.09976E+06
C:/temp/Job-15.odb,Step-1,Increment      1: Step Time =    1.000,"P-15-1",           854,       68.5081,       18.4548,            0.,NA,NA,"",   1.22140E+06,   1.20741E+06,   1.20741E+06
C:/temp/Job-15.odb,Step-1,Increment      1: Step Time =    1.000,"P-15-1",           855,       18.0260,       70.6226,            0.,NA,NA,"",   696.457E+03,   763.058E+03,   763.058E+03
C:/temp/Job-15.odb,Step-1,Increment      1: Step Time =    1.000,"P-15-1",           856,       181.845,       68.6715,            0.,NA,NA,"",   975.941E+03,   1.03935E+06,   1.03935E+06
C:/temp/Job-15.odb,Step-1,Increment      1: Step Time =    1.000,"P-15-1",           857,       180.937,       130.412,            0.,NA,NA,"",   982.107E+03,   1.04005E+06,   1.04005E+06
C:/temp/Job-15.odb,Step-1,Increment      1: Step Time =    1.000,"P-15-1",           858,       131.982,       182.136,            0.,NA,NA,"",   1.06827E+06,   1.06345E+06,   1.06345E+06
C:/temp/Job-15.odb,Step-1,Increment      1: Step Time =    1.000,"P-15-1",           859,       131.993,       18.6478,            0.,NA,NA,"",   1.08036E+06,   1.07541E+06,   1.07541E+06
C:/temp/Job-15.odb,Step-1,Increment      1: Step Time =    1.000,"P-15-1",           860,       18.0058,       131.484,            0.,NA,NA,"",   725.664E+03,   792.014E+03,   792.014E+03
C:/temp/Job-15.odb,Step-1,Increment      1: Step Time =    1.000,"P-15-1",           861,       70.0299,       181.340,            0.,NA,NA,"",   1.21535E+06,   1.20330E+06,   1.20330E+06
C:/temp/Job-15.odb,Step-1,Increment      1: Step Time =    1.000,"P-15-1",           862,       63.8593,       134.813,            0.,NA,NA,"",   1.39230E+06,   1.26025E+06,   1.26025E+06
C:/temp/Job-15.odb,Step-1,Increment      1: Step Time =    1.000,"P-15-1",           863,       114.277,       145.055,            0.,NA,NA,"",   1.59803E+06,   1.70242E+06,   1.70242E+06
C:/temp/Job-15.odb,Step-1,Increment      1: Step Time =    1.000,"P-15-1",           864,       84.9351,       146.089,            0.,NA,NA,"",   1.59906E+06,   1.66318E+06,   1.66318E+06
C:/temp/Job-15.odb,Step-1,Increment      1: Step Time =    1.000,"P-15-1",           865,       77.7277,       129.757,            0.,NA,NA,"",   1.45134E+06,   1.44125E+06,   1.44125E+06
C:/temp/Job-15.odb,Step-1,Increment      1: Step Time =    1.000,"P-15-1",           866,       57.9236,       97.3074,            0.,NA,NA,"",   233.230E+03,  -108.884E+03,  -108.884E+03
C:/temp/Job-15.odb,Step-1,Increment      1: Step Time =    1.000,"P-15-1",           867,       54.9714,       75.9110,            0.,NA,NA,"",   961.961E+03,   831.839E+03,   831.839E+03
C:/temp/Job-15.odb,Step-1,Increment      1: Step Time =    1.000,"P-15-1",           868,       147.176,       76.6046,            0.,NA,NA,"",   1.23350E+06,   1.02621E+06,   1.02621E+06
C:/temp/Job-15.odb,Step-1,Increment      1: Step Time =    1.000,"P-15-1",           869,       18.8339,       80.3301,            0.,NA,NA,"",   573.287E+03,   642.377E+03,   642.377E+03
C:/temp/Job-15.odb,Step-1,Increment      1: Step Time =    1.000,"P-15-1",           870,       118.833,       21.5742,            0.,NA,NA,"",   1.07367E+06,   1.09532E+06,   1.09532E+06
C:/temp/Job-15.odb,Step-1,Increment      1: Step Time =    1.000,"P-15-1",           871,       180.522,       120.461,            0.,NA,NA,"",   903.810E+03,   984.865E+03,   984.865E+03
C:/temp/Job-15.odb,Step-1,Increment      1: Step Time =    1.000,"P-15-1",           872,       84.1328,       179.554,            0.,NA,NA,"",   1.13810E+06,   1.15170E+06,   1.15170E+06
C:/temp/Job-15.odb,Step-1,Increment      1: Step Time =    1.000,"P-15-1",           873,       62.4232,       120.197,            0.,NA,NA,"",   869.311E+03,   682.624E+03,   682.624E+03
C:/temp/Job-15.odb,Step-1,Increment      1: Step Time =    1.000,"P-15-1",           874,       100.821,       46.8074,            0.,NA,NA,"",   1.37090E+06,   1.50263E+06,   1.50263E+06
C:/temp/Job-15.odb,Step-1,Increment      1: Step Time =    1.000,"P-15-1",           875,       91.2997,       24.7050,            0.,NA,NA,"",   1.13019E+06,   1.16841E+06,   1.16841E+06
C:/temp/Job-15.odb,Step-1,Increment      1: Step Time =    1.000,"P-15-1",           876,       23.5368,       109.111,            0.,NA,NA,"",   460.584E+03,   525.942E+03,   525.942E+03
C:/temp/Job-15.odb,Step-1,Increment      1: Step Time =    1.000,"P-15-1",           877,       176.709,       90.9744,            0.,NA,NA,"",   786.869E+03,   875.081E+03,   875.081E+03
C:/temp/Job-15.odb,Step-1,Increment      1: Step Time =    1.000,"P-15-1",           878,       111.384,       173.557,            0.,NA,NA,"",   1.10379E+06,   1.15159E+06,   1.15159E+06
C:/temp/Job-15.odb,Step-1,Increment      1: Step Time =    1.000,"P-15-1",           879,       23.6116,       80.4087,            0.,NA,NA,"",   577.455E+03,   639.809E+03,   639.809E+03
C:/temp/Job-15.odb,Step-1,Increment      1: Step Time =    1.000,"P-15-1",           880,       120.500,       25.2661,            0.,NA,NA,"",   1.12073E+06,   1.14285E+06,   1.14285E+06
C:/temp/Job-15.odb,Step-1,Increment      1: Step Time =    1.000,"P-15-1",           881,       24.1120,       119.912,            0.,NA,NA,"",   590.206E+03,   650.865E+03,   650.865E+03
C:/temp/Job-15.odb,Step-1,Increment      1: Step Time =    1.000,"P-15-1",           882,       80.3756,       25.6649,            0.,NA,NA,"",   1.22506E+06,   1.23395E+06,   1.23395E+06
C:/temp/Job-15.odb,Step-1,Increment      1: Step Time =    1.000,"P-15-1",           883,       175.910,       120.907,            0.,NA,NA,"",   922.966E+03,   978.031E+03,   978.031E+03
C:/temp/Job-15.odb,Step-1,Increment      1: Step Time =    1.000,"P-15-1",           884,       78.6510,       175.153,            0.,NA,NA,"",   1.22729E+06,   1.23096E+06,   1.23096E+06
C:/temp/Job-15.odb,Step-1,Increment      1: Step Time =    1.000,"P-15-1",           885,       176.832,       79.7924,            0.,NA,NA,"",   911.018E+03,   971.750E+03,   971.750E+03
C:/temp/Job-15.odb,Step-1,Increment      1: Step Time =    1.000,"P-15-1",           886,       121.672,       176.134,            0.,NA,NA,"",   1.11447E+06,   1.13156E+06,   1.13156E+06
C:/temp/Job-15.odb,Step-1,Increment      1: Step Time =    1.000,"P-15-1",           887,       79.6121,       141.952,            0.,NA,NA,"",   1.62015E+06,   1.62999E+06,   1.62999E+06
C:/temp/Job-15.odb,Step-1,Increment      1: Step Time =    1.000,"P-15-1",           888,       117.752,       142.186,            0.,NA,NA,"",   1.66528E+06,   1.73624E+06,   1.73624E+06
C:/temp/Job-15.odb,Step-1,Increment      1: Step Time =    1.000,"P-15-1",           889,       176.181,       99.8827,            0.,NA,NA,"",   750.447E+03,   843.850E+03,   843.850E+03
C:/temp/Job-15.odb,Step-1,Increment      1: Step Time =    1.000,"P-15-1",           890,       100.203,       172.425,            0.,NA,NA,"",   1.11687E+06,   1.17505E+06,   1.17505E+06
C:/temp/Job-15.odb,Step-1,Increment      1: Step Time =    1.000,"P-15-1",           891,       98.9563,       23.0829,            0.,NA,NA,"",   1.07640E+06,   1.12000E+06,   1.12000E+06
C:/temp/Job-15.odb,Step-1,Increment      1: Step Time =    1.000,"P-15-1",           892,       23.5728,       99.2360,            0.,NA,NA,"",   420.801E+03,   484.925E+03,   484.925E+03
C:/temp/Job-15.odb,Step-1,Increment      1: Step Time =    1.000,"P-15-1",           893,       25.0422,       140.250,            0.,NA,NA,"",   894.016E+03,   934.439E+03,   934.439E+03
C:/temp/Job-15.odb,Step-1,Increment      1: Step Time =    1.000,"P-15-1",           894,       140.442,       21.4204,            0.,NA,NA,"",   1.12280E+06,   1.10639E+06,   1.10639E+06
C:/temp/Job-15.odb,Step-1,Increment      1: Step Time =    1.000,"P-15-1",           895,       59.6022,       25.4204,            0.,NA,NA,"",   1.31411E+06,   1.28273E+06,   1.28273E+06
C:/temp/Job-15.odb,Step-1,Increment      1: Step Time =    1.000,"P-15-1",           896,       22.1286,       57.0491,            0.,NA,NA,"",   907.795E+03,   956.276E+03,   956.276E+03
C:/temp/Job-15.odb,Step-1,Increment      1: Step Time =    1.000,"P-15-1",           897,       179.040,       140.938,            0.,NA,NA,"",   1.04717E+06,   1.07410E+06,   1.07410E+06
C:/temp/Job-15.odb,Step-1,Increment      1: Step Time =    1.000,"P-15-1",           898,       140.964,       175.489,            0.,NA,NA,"",   1.15575E+06,   1.13489E+06,   1.13489E+06
C:/temp/Job-15.odb,Step-1,Increment      1: Step Time =    1.000,"P-15-1",           899,       56.5520,       178.150,            0.,NA,NA,"",   1.29770E+06,   1.27103E+06,   1.27103E+06
C:/temp/Job-15.odb,Step-1,Increment      1: Step Time =    1.000,"P-15-1",           900,       174.450,       59.9864,            0.,NA,NA,"",   1.09276E+06,   1.09563E+06,   1.09563E+06
C:/temp/Job-15.odb,Step-1,Increment      1: Step Time =    1.000,"P-15-1",           901,       22.6383,       129.258,            0.,NA,NA,"",   718.746E+03,   775.237E+03,   775.237E+03
C:/temp/Job-15.odb,Step-1,Increment      1: Step Time =    1.000,"P-15-1",           902,       70.8564,       23.4020,            0.,NA,NA,"",   1.26081E+06,   1.24563E+06,   1.24563E+06
C:/temp/Job-15.odb,Step-1,Increment      1: Step Time =    1.000,"P-15-1",           903,       130.043,       177.559,            0.,NA,NA,"",   1.12177E+06,   1.11840E+06,   1.11840E+06
C:/temp/Job-15.odb,Step-1,Increment      1: Step Time =    1.000,"P-15-1",           904,       177.366,       71.3395,            0.,NA,NA,"",   994.308E+03,   1.03713E+06,   1.03713E+06
C:/temp/Job-15.odb,Step-1,Increment      1: Step Time =    1.000,"P-15-1",           905,       55.7488,       127.467,            0.,NA,NA,"",   1.06557E+06,   936.745E+03,   936.745E+03
C:/temp/Job-15.odb,Step-1,Increment      1: Step Time =    1.000,"P-15-1",           906,       46.7160,       102.069,            0.,NA,NA,"",   246.855E+03,   268.799E+03,   268.799E+03
C:/temp/Job-15.odb,Step-1,Increment      1: Step Time =    1.000,"P-15-1",           907,       152.875,       103.975,            0.,NA,NA,"",   480.503E+03,   457.298E+03,   457.298E+03
C:/temp/Job-15.odb,Step-1,Increment      1: Step Time =    1.000,"P-15-1",           908,       145.858,       87.7830,            0.,NA,NA,"",   786.099E+03,   574.489E+03,   574.489E+03
C:/temp/Job-15.odb,Step-1,Increment      1: Step Time =    1.000,"P-15-1",           909,       141.972,       129.147,            0.,NA,NA,"",   1.44372E+06,   1.22571E+06,   1.22571E+06
C:/temp/Job-15.odb,Step-1,Increment      1: Step Time =    1.000,"P-15-1",           910,       126.926,       56.3895,            0.,NA,NA,"",   1.60044E+06,   1.56296E+06,   1.56296E+06
C:/temp/Job-15.odb,Step-1,Increment      1: Step Time =    1.000,"P-15-1",           911,       54.6888,       15.4986,            0.,NA,NA,"",   1.26522E+06,   1.24922E+06,   1.24922E+06
C:/temp/Job-15.odb,Step-1,Increment      1: Step Time =    1.000,"P-15-1",           912,       13.1808,       55.9797,            0.,NA,NA,"",   854.875E+03,   930.830E+03,   930.830E+03
C:/temp/Job-15.odb,Step-1,Increment      1: Step Time =    1.000,"P-15-1",           913,       184.526,       54.7871,            0.,NA,NA,"",   1.00688E+06,   1.05056E+06,   1.05056E+06
C:/temp/Job-15.odb,Step-1,Increment      1: Step Time =    1.000,"P-15-1",           914,       187.280,       144.083,            0.,NA,NA,"",   981.799E+03,   1.03804E+06,   1.03804E+06
C:/temp/Job-15.odb,Step-1,Increment      1: Step Time =    1.000,"P-15-1",           915,       145.395,       185.100,            0.,NA,NA,"",   1.05676E+06,   1.04600E+06,   1.04600E+06
C:/temp/Job-15.odb,Step-1,Increment      1: Step Time =    1.000,"P-15-1",           916,       56.7542,       186.862,            0.,NA,NA,"",   1.24060E+06,   1.22829E+06,   1.22829E+06
C:/temp/Job-15.odb,Step-1,Increment      1: Step Time =    1.000,"P-15-1",           917,       143.821,       12.5884,            0.,NA,NA,"",   1.03197E+06,   1.02430E+06,   1.02430E+06
C:/temp/Job-15.odb,Step-1,Increment      1: Step Time =    1.000,"P-15-1",           918,       15.3876,       145.185,            0.,NA,NA,"",   885.452E+03,   955.596E+03,   955.596E+03
C:/temp/Job-15.odb,Step-1,Increment      1: Step Time =    1.000,"P-15-1",           919,       67.9375,       141.818,            0.,NA,NA,"",   1.50000E+06,   1.41081E+06,   1.41081E+06
C:/temp/Job-15.odb,Step-1,Increment      1: Step Time =    1.000,"P-15-1",           920,       143.368,       74.6910,            0.,NA,NA,"",   1.33708E+06,   1.10381E+06,   1.10381E+06
C:/temp/Job-15.odb,Step-1,Increment      1: Step Time =    1.000,"P-15-1",           921,       104.142,       46.7890,            0.,NA,NA,"",   1.36546E+06,   1.49584E+06,   1.49584E+06
C:/temp/Job-15.odb,Step-1,Increment      1: Step Time =    1.000,"P-15-1",           922,       56.6055,       94.1768,            0.,NA,NA,"",   298.273E+03,  -26.4612E+03,  -26.4612E+03
C:/temp/Job-15.odb,Step-1,Increment      1: Step Time =    1.000,"P-15-1",           923,       136.426,       69.8989,            0.,NA,NA,"",   1.52108E+06,   1.30695E+06,   1.30695E+06
C:/temp/Job-15.odb,Step-1,Increment      1: Step Time =    1.000,"P-15-1",           924,       131.347,       137.055,            0.,NA,NA,"",   1.63354E+06,   1.51260E+06,   1.51260E+06
C:/temp/Job-15.odb,Step-1,Increment      1: Step Time =    1.000,"P-15-1",           925,       70.4033,       66.6580,            0.,NA,NA,"",   1.44266E+06,   1.33665E+06,   1.33665E+06
C:/temp/Job-15.odb,Step-1,Increment      1: Step Time =    1.000,"P-15-1",           926,       19.2164,       119.476,            0.,NA,NA,"",   575.439E+03,   644.026E+03,   644.026E+03
C:/temp/Job-15.odb,Step-1,Increment      1: Step Time =    1.000,"P-15-1",           927,       120.595,       180.628,            0.,NA,NA,"",   1.05464E+06,   1.06956E+06,   1.06956E+06
C:/temp/Job-15.odb,Step-1,Increment      1: Step Time =    1.000,"P-15-1",           928,       181.158,       80.4357,            0.,NA,NA,"",    891.94E+03,   977.989E+03,   977.989E+03
C:/temp/Job-15.odb,Step-1,Increment      1: Step Time =    1.000,"P-15-1",           929,       81.1196,       20.4385,            0.,NA,NA,"",   1.16124E+06,   1.16817E+06,   1.16817E+06
C:/temp/Job-15.odb,Step-1,Increment      1: Step Time =    1.000,"P-15-1",           930,       102.051,       146.161,            0.,NA,NA,"",   1.58544E+06,   1.74062E+06,   1.74062E+06
C:/temp/Job-15.odb,Step-1,Increment      1: Step Time =    1.000,"P-15-1",           931,       80.9921,       53.3824,            0.,NA,NA,"",   1.57432E+06,   1.59745E+06,   1.59745E+06
C:/temp/Job-15.odb,Step-1,Increment      1: Step Time =    1.000,"P-15-1",           932,       59.8501,       125.465,            0.,NA,NA,"",   1.06874E+06,   911.355E+03,   911.355E+03
C:/temp/Job-15.odb,Step-1,Increment      1: Step Time =    1.000,"P-15-1",           933,       64.5475,       123.525,            0.,NA,NA,"",   1.03497E+06,   858.062E+03,   858.062E+03
C:/temp/Job-15.odb,Step-1,Increment      1: Step Time =    1.000,"P-15-1",           934,       118.227,       135.287,            0.,NA,NA,"",   1.88252E+06,   1.93632E+06,   1.93632E+06
C:/temp/Job-15.odb,Step-1,Increment      1: Step Time =    1.000,"P-15-1",           935,       112.026,       62.2133,            0.,NA,NA,"",   2.00461E+06,   2.12386E+06,   2.12386E+06
C:/temp/Job-15.odb,Step-1,Increment      1: Step Time =    1.000,"P-15-1",           936,       53.7083,       108.950,            0.,NA,NA,"",   400.148E+03,   310.591E+03,   310.591E+03
C:/temp/Job-15.odb,Step-1,Increment      1: Step Time =    1.000,"P-15-1",           937,       151.204,       78.2455,            0.,NA,NA,"",   1.13165E+06,   967.067E+03,   967.067E+03
C:/temp/Job-15.odb,Step-1,Increment      1: Step Time =    1.000,"P-15-1",           938,       49.2117,       75.7680,            0.,NA,NA,"",   877.994E+03,   796.339E+03,   796.339E+03
C:/temp/Job-15.odb,Step-1,Increment      1: Step Time =    1.000,"P-15-1",           939,       77.6819,       137.551,            0.,NA,NA,"",   1.59822E+06,   1.58163E+06,   1.58163E+06
C:/temp/Job-15.odb,Step-1,Increment      1: Step Time =    1.000,"P-15-1",           940,       89.6010,       151.055,            0.,NA,NA,"",   1.46785E+06,   1.56073E+06,   1.56073E+06
C:/temp/Job-15.odb,Step-1,Increment      1: Step Time =    1.000,"P-15-1",           941,       54.0507,       124.872,            0.,NA,NA,"",   969.515E+03,   848.400E+03,   848.400E+03
C:/temp/Job-15.odb,Step-1,Increment      1: Step Time =    1.000,"P-15-1",           942,       78.1007,       55.4955,            0.,NA,NA,"",   1.58726E+06,   1.58211E+06,   1.58211E+06
C:/temp/Job-15.odb,Step-1,Increment      1: Step Time =    1.000,"P-15-1",           943,       78.7211,       49.3556,            0.,NA,NA,"",   1.51935E+06,   1.52364E+06,   1.52364E+06
C:/temp/Job-15.odb,Step-1,Increment      1: Step Time =    1.000,"P-15-1",           944,       62.1510,       67.1483,            0.,NA,NA,"",   1.29817E+06,   1.15362E+06,   1.15362E+06
C:/temp/Job-15.odb,Step-1,Increment      1: Step Time =    1.000,"P-15-1",           945,       69.3675,       62.4809,            0.,NA,NA,"",   1.50417E+06,   1.40410E+06,   1.40410E+06
C:/temp/Job-15.odb,Step-1,Increment      1: Step Time =    1.000,"P-15-1",           946,       8.76286,       55.6234,            0.,NA,NA,"",   831.957E+03,   918.656E+03,   918.656E+03
C:/temp/Job-15.odb,Step-1,Increment      1: Step Time =    1.000,"P-15-1",           947,       56.1542,       191.151,            0.,NA,NA,"",   1.21781E+06,   1.21144E+06,   1.21144E+06
C:/temp/Job-15.odb,Step-1,Increment      1: Step Time =    1.000,"P-15-1",           948,       144.224,       8.48073,            0.,NA,NA,"",   996.266E+03,   992.161E+03,   992.161E+03
C:/temp/Job-15.odb,Step-1,Increment      1: Step Time =    1.000,"P-15-1",           949,       191.405,       144.234,            0.,NA,NA,"",   949.971E+03,   1.02011E+06,   1.02011E+06
C:/temp/Job-15.odb,Step-1,Increment      1: Step Time =    1.000,"P-15-1",           950,       24.0408,       104.284,            0.,NA,NA,"",   427.022E+03,   491.174E+03,   491.174E+03
C:/temp/Job-15.odb,Step-1,Increment      1: Step Time =    1.000,"P-15-1",           951,       95.7941,       22.2357,            0.,NA,NA,"",   1.08064E+06,   1.11764E+06,   1.11764E+06
C:/temp/Job-15.odb,Step-1,Increment      1: Step Time =    1.000,"P-15-1",           952,       176.888,       95.1154,            0.,NA,NA,"",   763.592E+03,   857.957E+03,   857.957E+03
C:/temp/Job-15.odb,Step-1,Increment      1: Step Time =    1.000,"P-15-1",           953,       105.858,       174.076,            0.,NA,NA,"",   1.09108E+06,   1.14343E+06,   1.14343E+06
C:/temp/Job-15.odb,Step-1,Increment      1: Step Time =    1.000,"P-15-1",           954,       112.179,       57.1974,            0.,NA,NA,"",   1.72036E+06,   1.84221E+06,   1.84221E+06
C:/temp/Job-15.odb,Step-1,Increment      1: Step Time =    1.000,"P-15-1",           955,       24.0349,       85.4841,            0.,NA,NA,"",   516.790E+03,   581.429E+03,   581.429E+03
C:/temp/Job-15.odb,Step-1,Increment      1: Step Time =    1.000,"P-15-1",           956,       117.163,       27.8566,            0.,NA,NA,"",   1.13844E+06,   1.17295E+06,   1.17295E+06
C:/temp/Job-15.odb,Step-1,Increment      1: Step Time =    1.000,"P-15-1",           957,       24.8773,       114.361,            0.,NA,NA,"",   515.981E+03,   578.601E+03,   578.601E+03
C:/temp/Job-15.odb,Step-1,Increment      1: Step Time =    1.000,"P-15-1",           958,       85.2759,       27.0565,            0.,NA,NA,"",   1.20326E+06,   1.22962E+06,   1.22962E+06
C:/temp/Job-15.odb,Step-1,Increment      1: Step Time =    1.000,"P-15-1",           959,       174.711,       115.765,            0.,NA,NA,"",   862.150E+03,   926.265E+03,   926.265E+03
C:/temp/Job-15.odb,Step-1,Increment      1: Step Time =    1.000,"P-15-1",           960,       175.038,       85.4326,            0.,NA,NA,"",   843.619E+03,   911.925E+03,   911.925E+03
C:/temp/Job-15.odb,Step-1,Increment      1: Step Time =    1.000,"P-15-1",           961,       117.131,       174.154,            0.,NA,NA,"",   1.11839E+06,   1.15154E+06,   1.15154E+06
C:/temp/Job-15.odb,Step-1,Increment      1: Step Time =    1.000,"P-15-1",           962,       80.5043,       146.868,            0.,NA,NA,"",   1.57762E+06,   1.59923E+06,   1.59923E+06
C:/temp/Job-15.odb,Step-1,Increment      1: Step Time =    1.000,"P-15-1",           963,       26.2742,       134.984,            0.,NA,NA,"",   827.051E+03,   866.632E+03,   866.632E+03
C:/temp/Job-15.odb,Step-1,Increment      1: Step Time =    1.000,"P-15-1",           964,       136.314,       24.6003,            0.,NA,NA,"",   1.16127E+06,   1.14579E+06,   1.14579E+06
C:/temp/Job-15.odb,Step-1,Increment      1: Step Time =    1.000,"P-15-1",           965,       26.5165,       62.2903,            0.,NA,NA,"",   869.974E+03,   906.036E+03,   906.036E+03
C:/temp/Job-15.odb,Step-1,Increment      1: Step Time =    1.000,"P-15-1",           966,       65.0143,       26.8968,            0.,NA,NA,"",   1.31673E+06,   1.28764E+06,   1.28764E+06
C:/temp/Job-15.odb,Step-1,Increment      1: Step Time =    1.000,"P-15-1",           967,       175.538,       136.240,            0.,NA,NA,"",   1.06271E+06,   1.07805E+06,   1.07805E+06
C:/temp/Job-15.odb,Step-1,Increment      1: Step Time =    1.000,"P-15-1",           968,       135.730,       174.151,            0.,NA,NA,"",   1.17276E+06,   1.15672E+06,   1.15672E+06
C:/temp/Job-15.odb,Step-1,Increment      1: Step Time =    1.000,"P-15-1",           969,       61.2169,       173.439,            0.,NA,NA,"",   1.32049E+06,   1.28808E+06,   1.28808E+06
C:/temp/Job-15.odb,Step-1,Increment      1: Step Time =    1.000,"P-15-1",           970,       173.114,       65.8481,            0.,NA,NA,"",   1.07738E+06,   1.07931E+06,   1.07931E+06
C:/temp/Job-15.odb,Step-1,Increment      1: Step Time =    1.000,"P-15-1",           971,       52.5095,       130.466,            0.,NA,NA,"",   1.08095E+06,   976.190E+03,   976.190E+03
C:/temp/Job-15.odb,Step-1,Increment      1: Step Time =    1.000,"P-15-1",           972,       43.5604,       99.2672,            0.,NA,NA,"",   271.871E+03,   306.624E+03,   306.624E+03
C:/temp/Job-15.odb,Step-1,Increment      1: Step Time =    1.000,"P-15-1",           973,       49.1954,       110.827,            0.,NA,NA,"",   443.157E+03,   404.949E+03,   404.949E+03
C:/temp/Job-15.odb,Step-1,Increment      1: Step Time =    1.000,"P-15-1",           974,       152.888,       108.555,            0.,NA,NA,"",   633.568E+03,   572.789E+03,   572.789E+03
C:/temp/Job-15.odb,Step-1,Increment      1: Step Time =    1.000,"P-15-1",           975,       158.180,       99.8294,            0.,NA,NA,"",   515.149E+03,   540.687E+03,   540.687E+03
C:/temp/Job-15.odb,Step-1,Increment      1: Step Time =    1.000,"P-15-1",           976,       139.944,       120.101,            0.,NA,NA,"",   1.17628E+06,   902.604E+03,   902.604E+03
C:/temp/Job-15.odb,Step-1,Increment      1: Step Time =    1.000,"P-15-1",           977,       144.759,       133.714,            0.,NA,NA,"",   1.46355E+06,   1.27819E+06,   1.27819E+06
C:/temp/Job-15.odb,Step-1,Increment      1: Step Time =    1.000,"P-15-1",           978,       123.183,       59.2661,            0.,NA,NA,"",   1.64772E+06,   1.64761E+06,   1.64761E+06
C:/temp/Job-15.odb,Step-1,Increment      1: Step Time =    1.000,"P-15-1",           979,       133.184,       55.0053,            0.,NA,NA,"",   1.56252E+06,   1.47445E+06,   1.47445E+06
C:/temp/Job-15.odb,Step-1,Increment      1: Step Time =    1.000,"P-15-1",           980,       62.5707,       142.474,            0.,NA,NA,"",   1.43604E+06,   1.33442E+06,   1.33442E+06
C:/temp/Job-15.odb,Step-1,Increment      1: Step Time =    1.000,"P-15-1",           981,       67.7206,       136.205,            0.,NA,NA,"",   1.46921E+06,   1.35724E+06,   1.35724E+06
C:/temp/Job-15.odb,Step-1,Increment      1: Step Time =    1.000,"P-15-1",           982,       98.2656,       42.8640,            0.,NA,NA,"",   1.30690E+06,   1.41959E+06,   1.41959E+06
C:/temp/Job-15.odb,Step-1,Increment      1: Step Time =    1.000,"P-15-1",           983,       108.172,       46.9679,            0.,NA,NA,"",   1.37204E+06,   1.49274E+06,   1.49274E+06
C:/temp/Job-15.odb,Step-1,Increment      1: Step Time =    1.000,"P-15-1",           984,       49.5698,       92.0017,            0.,NA,NA,"",   357.642E+03,   332.172E+03,   332.172E+03
C:/temp/Job-15.odb,Step-1,Increment      1: Step Time =    1.000,"P-15-1",           985,       134.681,       141.067,            0.,NA,NA,"",   1.58849E+06,   1.46684E+06,   1.46684E+06
C:/temp/Job-15.odb,Step-1,Increment      1: Step Time =    1.000,"P-15-1",           986,       117.051,       56.7508,            0.,NA,NA,"",   1.65510E+06,   1.73118E+06,   1.73118E+06
C:/temp/Job-15.odb,Step-1,Increment      1: Step Time =    1.000,"P-15-1",           987,       152.906,       84.5249,            0.,NA,NA,"",   894.984E+03,   774.859E+03,   774.859E+03
C:/temp/Job-15.odb,Step-1,Increment      1: Step Time =    1.000,"P-15-1",           988,       49.1634,       82.0006,            0.,NA,NA,"",   687.193E+03,   616.379E+03,   616.379E+03
C:/temp/Job-15.odb,Step-1,Increment      1: Step Time =    1.000,"P-15-1",           989,       75.5604,       24.5748,            0.,NA,NA,"",   1.24661E+06,   1.24112E+06,   1.24112E+06
C:/temp/Job-15.odb,Step-1,Increment      1: Step Time =    1.000,"P-15-1",           990,       125.903,       176.757,            0.,NA,NA,"",   1.12012E+06,   1.12546E+06,   1.12546E+06
C:/temp/Job-15.odb,Step-1,Increment      1: Step Time =    1.000,"P-15-1",           991,       177.341,       75.8397,            0.,NA,NA,"",   956.622E+03,   1.00892E+06,   1.00892E+06
C:/temp/Job-15.odb,Step-1,Increment      1: Step Time =    1.000,"P-15-1",           992,       23.4606,       124.720,            0.,NA,NA,"",   656.826E+03,   714.876E+03,   714.876E+03
C:/temp/Job-15.odb,Step-1,Increment      1: Step Time =    1.000,"P-15-1",           993,       142.483,       122.770,            0.,NA,NA,"",   1.25321E+06,   999.935E+03,   999.935E+03
C:/temp/Job-15.odb,Step-1,Increment      1: Step Time =    1.000,"P-15-1",           994,       75.2050,       143.808,            0.,NA,NA,"",   1.57000E+06,   1.53362E+06,   1.53362E+06
C:/temp/Job-15.odb,Step-1,Increment      1: Step Time =    1.000,"P-15-1",           995,       52.0244,       122.001,            0.,NA,NA,"",   851.888E+03,   748.327E+03,   748.327E+03
C:/temp/Job-15.odb,Step-1,Increment      1: Step Time =    1.000,"P-15-1",           996,       76.6071,       152.571,            0.,NA,NA,"",   1.49922E+06,   1.49083E+06,   1.49083E+06
C:/temp/Job-15.odb,Step-1,Increment      1: Step Time =    1.000,"P-15-1",           997,       131.167,       24.9041,            0.,NA,NA,"",   1.15537E+06,   1.14921E+06,   1.14921E+06
C:/temp/Job-15.odb,Step-1,Increment      1: Step Time =    1.000,"P-15-1",           998,       69.7072,       176.544,            0.,NA,NA,"",   1.26634E+06,   1.24968E+06,   1.24968E+06
C:/temp/Job-15.odb,Step-1,Increment      1: Step Time =    1.000,"P-15-1",           999,       22.3309,       70.8118,            0.,NA,NA,"",   714.749E+03,   771.856E+03,   771.856E+03
C:/temp/Job-15.odb,Step-1,Increment      1: Step Time =    1.000,"P-15-1",          1000,       176.116,       130.427,            0.,NA,NA,"",   1.02117E+06,   1.05063E+06,   1.05063E+06
C:/temp/Job-15.odb,Step-1,Increment      1: Step Time =    1.000,"P-15-1",          1001,       175.412,       110.738,            0.,NA,NA,"",   806.089E+03,   885.626E+03,   885.626E+03
C:/temp/Job-15.odb,Step-1,Increment      1: Step Time =    1.000,"P-15-1",          1002,       108.199,       26.7329,            0.,NA,NA,"",   1.10097E+06,   1.15418E+06,   1.15418E+06
C:/temp/Job-15.odb,Step-1,Increment      1: Step Time =    1.000,"P-15-1",          1003,       23.5543,       90.2121,            0.,NA,NA,"",   469.344E+03,   534.996E+03,   534.996E+03
C:/temp/Job-15.odb,Step-1,Increment      1: Step Time =    1.000,"P-15-1",          1004,       54.9417,       90.3789,            0.,NA,NA,"",   421.708E+03,   190.298E+03,   190.298E+03
C:/temp/Job-15.odb,Step-1,Increment      1: Step Time =    1.000,"P-15-1",          1005,       80.6659,       45.3203,            0.,NA,NA,"",   1.45897E+06,   1.47857E+06,   1.47857E+06
C:/temp/Job-15.odb,Step-1,Increment      1: Step Time =    1.000,"P-15-1",          1006,       74.9862,       57.4771,            0.,NA,NA,"",   1.58275E+06,   1.54279E+06,   1.54279E+06
C:/temp/Job-15.odb,Step-1,Increment      1: Step Time =    1.000,"P-15-1",          1007,       27.0109,       107.582,            0.,NA,NA,"",   437.389E+03,   499.592E+03,   499.592E+03
C:/temp/Job-15.odb,Step-1,Increment      1: Step Time =    1.000,"P-15-1",          1008,       90.0654,       29.0099,            0.,NA,NA,"",   1.18434E+06,   1.23047E+06,   1.23047E+06
C:/temp/Job-15.odb,Step-1,Increment      1: Step Time =    1.000,"P-15-1",          1009,       167.770,       91.0006,            0.,NA,NA,"",   729.179E+03,   779.702E+03,   779.702E+03
C:/temp/Job-15.odb,Step-1,Increment      1: Step Time =    1.000,"P-15-1",          1010,       109.413,       170.317,            0.,NA,NA,"",   1.13271E+06,   1.19360E+06,   1.19360E+06
C:/temp/Job-15.odb,Step-1,Increment      1: Step Time =    1.000,"P-15-1",          1011,       120.424,       29.7349,            0.,NA,NA,"",   1.17753E+06,   1.20586E+06,   1.20586E+06
C:/temp/Job-15.odb,Step-1,Increment      1: Step Time =    1.000,"P-15-1",          1012,       29.3708,       120.731,            0.,NA,NA,"",   616.301E+03,   662.400E+03,   662.400E+03
C:/temp/Job-15.odb,Step-1,Increment      1: Step Time =    1.000,"P-15-1",          1013,       79.4992,       30.6950,            0.,NA,NA,"",   1.28827E+06,   1.29707E+06,   1.29707E+06
C:/temp/Job-15.odb,Step-1,Increment      1: Step Time =    1.000,"P-15-1",          1014,       28.3363,       80.1159,            0.,NA,NA,"",   593.915E+03,   645.531E+03,   645.531E+03
C:/temp/Job-15.odb,Step-1,Increment      1: Step Time =    1.000,"P-15-1",          1015,       171.394,       122.408,            0.,NA,NA,"",   962.692E+03,   985.282E+03,   985.282E+03
C:/temp/Job-15.odb,Step-1,Increment      1: Step Time =    1.000,"P-15-1",          1016,       78.1133,       170.456,            0.,NA,NA,"",   1.27843E+06,   1.28201E+06,   1.28201E+06
C:/temp/Job-15.odb,Step-1,Increment      1: Step Time =    1.000,"P-15-1",          1017,       170.418,       82.0428,            0.,NA,NA,"",   893.707E+03,   923.534E+03,   923.534E+03
C:/temp/Job-15.odb,Step-1,Increment      1: Step Time =    1.000,"P-15-1",          1018,       120.921,       170.387,            0.,NA,NA,"",   1.17946E+06,   1.20436E+06,   1.20436E+06
C:/temp/Job-15.odb,Step-1,Increment      1: Step Time =    1.000,"P-15-1",          1019,       138.447,       30.0446,            0.,NA,NA,"",   1.22946E+06,   1.20258E+06,   1.20258E+06
C:/temp/Job-15.odb,Step-1,Increment      1: Step Time =    1.000,"P-15-1",          1020,       31.0657,       140.187,            0.,NA,NA,"",   955.633E+03,   969.849E+03,   969.849E+03
C:/temp/Job-15.odb,Step-1,Increment      1: Step Time =    1.000,"P-15-1",          1021,       31.8331,       54.4512,            0.,NA,NA,"",   1.03952E+06,   1.04592E+06,   1.04592E+06
C:/temp/Job-15.odb,Step-1,Increment      1: Step Time =    1.000,"P-15-1",          1022,       59.7224,       31.4675,            0.,NA,NA,"",   1.35617E+06,   1.31380E+06,   1.31380E+06
C:/temp/Job-15.odb,Step-1,Increment      1: Step Time =    1.000,"P-15-1",          1023,       173.094,       141.280,            0.,NA,NA,"",   1.11318E+06,   1.10570E+06,   1.10570E+06
C:/temp/Job-15.odb,Step-1,Increment      1: Step Time =    1.000,"P-15-1",          1024,       141.066,       169.686,            0.,NA,NA,"",   1.22729E+06,   1.19584E+06,   1.19584E+06
C:/temp/Job-15.odb,Step-1,Increment      1: Step Time =    1.000,"P-15-1",          1025,       57.3755,       173.432,            0.,NA,NA,"",   1.32501E+06,   1.29103E+06,   1.29103E+06
C:/temp/Job-15.odb,Step-1,Increment      1: Step Time =    1.000,"P-15-1",          1026,       168.263,       60.1033,            0.,NA,NA,"",   1.16823E+06,   1.13281E+06,   1.13281E+06
C:/temp/Job-15.odb,Step-1,Increment      1: Step Time =    1.000,"P-15-1",          1027,       57.7042,       132.309,            0.,NA,NA,"",   1.21981E+06,   1.08582E+06,   1.08582E+06
C:/temp/Job-15.odb,Step-1,Increment      1: Step Time =    1.000,"P-15-1",          1028,       154.010,       95.0120,            0.,NA,NA,"",   517.235E+03,   498.878E+03,   498.878E+03
C:/temp/Job-15.odb,Step-1,Increment      1: Step Time =    1.000,"P-15-1",          1029,       157.900,       108.203,            0.,NA,NA,"",   652.341E+03,   644.634E+03,   644.634E+03
C:/temp/Job-15.odb,Step-1,Increment      1: Step Time =    1.000,"P-15-1",          1030,       57.7318,       137.773,            0.,NA,NA,"",   1.32673E+06,   1.20990E+06,   1.20990E+06
C:/temp/Job-15.odb,Step-1,Increment      1: Step Time =    1.000,"P-15-1",          1031,       66.3662,       147.093,            0.,NA,NA,"",   1.48694E+06,   1.40868E+06,   1.40868E+06
C:/temp/Job-15.odb,Step-1,Increment      1: Step Time =    1.000,"P-15-1",          1032,       153.345,       9.84828,            0.,NA,NA,"",   1.02168E+06,   1.01643E+06,   1.01643E+06
C:/temp/Job-15.odb,Step-1,Increment      1: Step Time =    1.000,"P-15-1",          1033,       46.7973,       189.671,            0.,NA,NA,"",   1.27764E+06,   1.27055E+06,   1.27055E+06
C:/temp/Job-15.odb,Step-1,Increment      1: Step Time =    1.000,"P-15-1",          1034,       190.800,       153.422,            0.,NA,NA,"",   974.661E+03,   1.01953E+06,   1.01953E+06
C:/temp/Job-15.odb,Step-1,Increment      1: Step Time =    1.000,"P-15-1",          1035,       8.75351,       45.9794,            0.,NA,NA,"",   934.269E+03,   1.02627E+06,   1.02627E+06
C:/temp/Job-15.odb,Step-1,Increment      1: Step Time =    1.000,"P-15-1",          1036,       95.5088,       48.0947,            0.,NA,NA,"",   1.42940E+06,   1.55532E+06,   1.55532E+06
C:/temp/Job-15.odb,Step-1,Increment      1: Step Time =    1.000,"P-15-1",          1037,       108.085,       42.0788,            0.,NA,NA,"",   1.28236E+06,   1.38555E+06,   1.38555E+06
C:/temp/Job-15.odb,Step-1,Increment      1: Step Time =    1.000,"P-15-1",          1038,       44.2442,       90.3446,            0.,NA,NA,"",   410.053E+03,   421.133E+03,   421.133E+03
C:/temp/Job-15.odb,Step-1,Increment      1: Step Time =    1.000,"P-15-1",          1039,       131.435,       144.476,            0.,NA,NA,"",   1.57718E+06,   1.49996E+06,   1.49996E+06
C:/temp/Job-15.odb,Step-1,Increment      1: Step Time =    1.000,"P-15-1",          1040,       140.880,       141.094,            0.,NA,NA,"",   1.53014E+06,   1.38490E+06,   1.38490E+06
C:/temp/Job-15.odb,Step-1,Increment      1: Step Time =    1.000,"P-15-1",          1041,       150.704,       89.2785,            0.,NA,NA,"",   702.923E+03,   590.432E+03,   590.432E+03
C:/temp/Job-15.odb,Step-1,Increment      1: Step Time =    1.000,"P-15-1",          1042,       155.418,       79.8437,            0.,NA,NA,"",   1.03703E+06,   922.887E+03,   922.887E+03
C:/temp/Job-15.odb,Step-1,Increment      1: Step Time =    1.000,"P-15-1",          1043,       44.9198,       86.5614,            0.,NA,NA,"",   514.685E+03,   503.053E+03,   503.053E+03
C:/temp/Job-15.odb,Step-1,Increment      1: Step Time =    1.000,"P-15-1",          1044,       46.7195,       77.9564,            0.,NA,NA,"",   781.721E+03,   726.241E+03,   726.241E+03
C:/temp/Job-15.odb,Step-1,Increment      1: Step Time =    1.000,"P-15-1",          1045,       69.9051,       28.2106,            0.,NA,NA,"",   1.31295E+06,   1.29143E+06,   1.29143E+06
C:/temp/Job-15.odb,Step-1,Increment      1: Step Time =    1.000,"P-15-1",          1046,       131.214,       173.131,            0.,NA,NA,"",   1.17888E+06,   1.17102E+06,   1.17102E+06
C:/temp/Job-15.odb,Step-1,Increment      1: Step Time =    1.000,"P-15-1",          1047,       172.523,       71.2187,            0.,NA,NA,"",   1.03556E+06,   1.04556E+06,   1.04556E+06
C:/temp/Job-15.odb,Step-1,Increment      1: Step Time =    1.000,"P-15-1",          1048,       27.2281,       130.285,            0.,NA,NA,"",   760.189E+03,   801.765E+03,   801.765E+03
C:/temp/Job-15.odb,Step-1,Increment      1: Step Time =    1.000,"P-15-1",          1049,       94.0729,       151.199,            0.,NA,NA,"",   1.44150E+06,   1.55978E+06,   1.55978E+06
C:/temp/Job-15.odb,Step-1,Increment      1: Step Time =    1.000,"P-15-1",          1050,       40.0346,       89.0178,            0.,NA,NA,"",   450.493E+03,   480.069E+03,   480.069E+03
C:/temp/Job-15.odb,Step-1,Increment      1: Step Time =    1.000,"P-15-1",          1051,       151.243,       14.2521,            0.,NA,NA,"",   1.05253E+06,   1.04270E+06,   1.04270E+06
C:/temp/Job-15.odb,Step-1,Increment      1: Step Time =    1.000,"P-15-1",          1052,       13.2250,       46.5892,            0.,NA,NA,"",   962.688E+03,   1.04031E+06,   1.04031E+06
C:/temp/Job-15.odb,Step-1,Increment      1: Step Time =    1.000,"P-15-1",          1053,       187.741,       151.791,            0.,NA,NA,"",   990.382E+03,   1.03184E+06,   1.03184E+06
C:/temp/Job-15.odb,Step-1,Increment      1: Step Time =    1.000,"P-15-1",          1054,       48.8886,       185.565,            0.,NA,NA,"",   1.28372E+06,   1.27098E+06,   1.27098E+06
C:/temp/Job-15.odb,Step-1,Increment      1: Step Time =    1.000,"P-15-1",          1055,       112.388,       47.0283,            0.,NA,NA,"",   1.39199E+06,   1.49355E+06,   1.49355E+06
C:/temp/Job-15.odb,Step-1,Increment      1: Step Time =    1.000,"P-15-1",          1056,       108.005,       37.1409,            0.,NA,NA,"",   1.21379E+06,   1.30082E+06,   1.30082E+06
C:/temp/Job-15.odb,Step-1,Increment      1: Step Time =    1.000,"P-15-1",          1057,       48.4484,       124.102,            0.,NA,NA,"",   860.646E+03,   787.710E+03,   787.710E+03
C:/temp/Job-15.odb,Step-1,Increment      1: Step Time =    1.000,"P-15-1",          1058,       89.2364,       50.1001,            0.,NA,NA,"",   1.50680E+06,   1.60151E+06,   1.60151E+06
C:/temp/Job-15.odb,Step-1,Increment      1: Step Time =    1.000,"P-15-1",          1059,       85.5363,       155.690,            0.,NA,NA,"",   1.41007E+06,   1.46576E+06,   1.46576E+06
C:/temp/Job-15.odb,Step-1,Increment      1: Step Time =    1.000,"P-15-1",          1060,       77.2035,       61.1755,            0.,NA,NA,"",   1.62389E+06,   1.59737E+06,   1.59737E+06
C:/temp/Job-15.odb,Step-1,Increment      1: Step Time =    1.000,"P-15-1",          1061,       26.9655,       75.4723,            0.,NA,NA,"",   668.656E+03,   717.333E+03,   717.333E+03
C:/temp/Job-15.odb,Step-1,Increment      1: Step Time =    1.000,"P-15-1",          1062,       176.584,       125.607,            0.,NA,NA,"",   972.981E+03,   1.01705E+06,   1.01705E+06
C:/temp/Job-15.odb,Step-1,Increment      1: Step Time =    1.000,"P-15-1",          1063,       125.577,       25.2581,            0.,NA,NA,"",   1.14316E+06,   1.15332E+06,   1.15332E+06
C:/temp/Job-15.odb,Step-1,Increment      1: Step Time =    1.000,"P-15-1",          1064,       74.1317,       175.692,            0.,NA,NA,"",   1.24996E+06,   1.24191E+06,   1.24191E+06
C:/temp/Job-15.odb,Step-1,Increment      1: Step Time =    1.000,"P-15-1",          1065,       173.710,       104.989,            0.,NA,NA,"",   742.897E+03,   824.312E+03,   824.312E+03
C:/temp/Job-15.odb,Step-1,Increment      1: Step Time =    1.000,"P-15-1",          1066,       94.2012,       172.863,            0.,NA,NA,"",   1.14031E+06,   1.18911E+06,   1.18911E+06
C:/temp/Job-15.odb,Step-1,Increment      1: Step Time =    1.000,"P-15-1",          1067,       103.162,       26.0228,            0.,NA,NA,"",   1.09634E+06,   1.14995E+06,   1.14995E+06
C:/temp/Job-15.odb,Step-1,Increment      1: Step Time =    1.000,"P-15-1",          1068,       23.1288,       94.7635,            0.,NA,NA,"",   436.216E+03,   501.299E+03,   501.299E+03
C:/temp/Job-15.odb,Step-1,Increment      1: Step Time =    1.000,"P-15-1",          1069,       153.454,       113.097,            0.,NA,NA,"",   810.431E+03,   717.434E+03,   717.434E+03
C:/temp/Job-15.odb,Step-1,Increment      1: Step Time =    1.000,"P-15-1",          1070,       76.6894,       43.0416,            0.,NA,NA,"",   1.44665E+06,   1.44112E+06,   1.44112E+06
C:/temp/Job-15.odb,Step-1,Increment      1: Step Time =    1.000,"P-15-1",          1071,       68.8968,       55.8695,            0.,NA,NA,"",   1.52772E+06,   1.45144E+06,   1.45144E+06
C:/temp/Job-15.odb,Step-1,Increment      1: Step Time =    1.000,"P-15-1",          1072,       162.450,       107.979,            0.,NA,NA,"",   682.404E+03,   707.638E+03,   707.638E+03
C:/temp/Job-15.odb,Step-1,Increment      1: Step Time =    1.000,"P-15-1",          1073,       143.791,       26.7361,            0.,NA,NA,"",   1.18222E+06,   1.15489E+06,   1.15489E+06
C:/temp/Job-15.odb,Step-1,Increment      1: Step Time =    1.000,"P-15-1",          1074,       26.3537,       145.155,            0.,NA,NA,"",   979.279E+03,   1.01068E+06,   1.01068E+06
C:/temp/Job-15.odb,Step-1,Increment      1: Step Time =    1.000,"P-15-1",          1075,       54.4346,       26.7525,            0.,NA,NA,"",   1.32730E+06,   1.29273E+06,   1.29273E+06
C:/temp/Job-15.odb,Step-1,Increment      1: Step Time =    1.000,"P-15-1",          1076,       27.0957,       53.3564,            0.,NA,NA,"",   1.00448E+06,   1.03119E+06,   1.03119E+06
C:/temp/Job-15.odb,Step-1,Increment      1: Step Time =    1.000,"P-15-1",          1077,       146.312,       174.500,            0.,NA,NA,"",   1.16227E+06,   1.13611E+06,   1.13611E+06
C:/temp/Job-15.odb,Step-1,Increment      1: Step Time =    1.000,"P-15-1",          1078,       172.129,       145.818,            0.,NA,NA,"",   1.13714E+06,   1.12048E+06,   1.12048E+06
C:/temp/Job-15.odb,Step-1,Increment      1: Step Time =    1.000,"P-15-1",          1079,       53.0536,       179.821,            0.,NA,NA,"",   1.29458E+06,   1.27130E+06,   1.27130E+06
C:/temp/Job-15.odb,Step-1,Increment      1: Step Time =    1.000,"P-15-1",          1080,       173.130,       54.6210,            0.,NA,NA,"",   1.12291E+06,   1.11355E+06,   1.11355E+06
C:/temp/Job-15.odb,Step-1,Increment      1: Step Time =    1.000,"P-15-1",          1081,       70.7045,       144.650,            0.,NA,NA,"",   1.52979E+06,   1.46226E+06,   1.46226E+06
C:/temp/Job-15.odb,Step-1,Increment      1: Step Time =    1.000,"P-15-1",          1082,       60.4022,       147.578,            0.,NA,NA,"",   1.42388E+06,   1.33640E+06,   1.33640E+06
C:/temp/Job-15.odb,Step-1,Increment      1: Step Time =    1.000,"P-15-1",          1083,       46.4841,       96.0247,            0.,NA,NA,"",   276.644E+03,   295.243E+03,   295.243E+03
C:/temp/Job-15.odb,Step-1,Increment      1: Step Time =    1.000,"P-15-1",          1084,       153.603,       73.5485,            0.,NA,NA,"",   1.21847E+06,   1.07374E+06,   1.07374E+06
C:/temp/Job-15.odb,Step-1,Increment      1: Step Time =    1.000,"P-15-1",          1085,       89.7032,       155.960,            0.,NA,NA,"",   1.37927E+06,   1.46078E+06,   1.46078E+06
C:/temp/Job-15.odb,Step-1,Increment      1: Step Time =    1.000,"P-15-1",          1086,       97.1121,       146.964,            0.,NA,NA,"",   1.56057E+06,   1.70901E+06,   1.70901E+06
C:/temp/Job-15.odb,Step-1,Increment      1: Step Time =    1.000,"P-15-1",          1087,       138.250,       144.540,            0.,NA,NA,"",   1.53304E+06,   1.41585E+06,   1.41585E+06
C:/temp/Job-15.odb,Step-1,Increment      1: Step Time =    1.000,"P-15-1",          1088,       165.033,       89.3183,            0.,NA,NA,"",   742.581E+03,   772.303E+03,   772.303E+03
C:/temp/Job-15.odb,Step-1,Increment      1: Step Time =    1.000,"P-15-1",          1089,       107.122,       166.085,            0.,NA,NA,"",   1.17097E+06,   1.25064E+06,   1.25064E+06
C:/temp/Job-15.odb,Step-1,Increment      1: Step Time =    1.000,"P-15-1",          1090,       33.1424,       108.168,            0.,NA,NA,"",   420.275E+03,   473.577E+03,   473.577E+03
C:/temp/Job-15.odb,Step-1,Increment      1: Step Time =    1.000,"P-15-1",          1091,       89.1093,       33.8904,            0.,NA,NA,"",   1.24791E+06,   1.30263E+06,   1.30263E+06
C:/temp/Job-15.odb,Step-1,Increment      1: Step Time =    1.000,"P-15-1",          1092,       44.2688,       109.900,            0.,NA,NA,"",   417.550E+03,   426.624E+03,   426.624E+03
C:/temp/Job-15.odb,Step-1,Increment      1: Step Time =    1.000,"P-15-1",          1093,       124.821,       54.3785,            0.,NA,NA,"",   1.58102E+06,   1.57022E+06,   1.57022E+06
C:/temp/Job-15.odb,Step-1,Increment      1: Step Time =    1.000,"P-15-1",          1094,       130.457,       151.818,            0.,NA,NA,"",   1.47677E+06,   1.43761E+06,   1.43761E+06
C:/temp/Job-15.odb,Step-1,Increment      1: Step Time =    1.000,"P-15-1",          1095,       141.895,       63.5307,            0.,NA,NA,"",   1.52296E+06,   1.34702E+06,   1.34702E+06
C:/temp/Job-15.odb,Step-1,Increment      1: Step Time =    1.000,"P-15-1",          1096,       165.218,       119.985,            0.,NA,NA,"",   955.185E+03,   937.357E+03,   937.357E+03
C:/temp/Job-15.odb,Step-1,Increment      1: Step Time =    1.000,"P-15-1",          1097,       118.762,       167.361,            0.,NA,NA,"",   1.20507E+06,   1.24413E+06,   1.24413E+06
C:/temp/Job-15.odb,Step-1,Increment      1: Step Time =    1.000,"P-15-1",          1098,       120.734,       33.1238,            0.,NA,NA,"",   1.21816E+06,   1.24973E+06,   1.24973E+06
C:/temp/Job-15.odb,Step-1,Increment      1: Step Time =    1.000,"P-15-1",          1099,       33.9605,       118.114,            0.,NA,NA,"",   585.084E+03,   620.469E+03,   620.469E+03
C:/temp/Job-15.odb,Step-1,Increment      1: Step Time =    1.000,"P-15-1",          1100,       78.6478,       35.4444,            0.,NA,NA,"",   1.34913E+06,   1.35576E+06,   1.35576E+06
C:/temp/Job-15.odb,Step-1,Increment      1: Step Time =    1.000,"P-15-1",          1101,       34.5539,       83.8273,            0.,NA,NA,"",   546.033E+03,   584.293E+03,   584.293E+03
C:/temp/Job-15.odb,Step-1,Increment      1: Step Time =    1.000,"P-15-1",          1102,       77.4190,       156.941,            0.,NA,NA,"",   1.44233E+06,   1.44334E+06,   1.44334E+06
C:/temp/Job-15.odb,Step-1,Increment      1: Step Time =    1.000,"P-15-1",          1103,       121.319,       139.185,            0.,NA,NA,"",   1.70493E+06,   1.73081E+06,   1.73081E+06
C:/temp/Job-15.odb,Step-1,Increment      1: Step Time =    1.000,"P-15-1",          1104,       32.2273,       131.057,            0.,NA,NA,"",   814.187E+03,   834.301E+03,   834.301E+03
C:/temp/Job-15.odb,Step-1,Increment      1: Step Time =    1.000,"P-15-1",          1105,       132.138,       168.571,            0.,NA,NA,"",   1.23995E+06,   1.22620E+06,   1.22620E+06
C:/temp/Job-15.odb,Step-1,Increment      1: Step Time =    1.000,"P-15-1",          1106,       166.293,       71.7433,            0.,NA,NA,"",   1.08504E+06,   1.05025E+06,   1.05025E+06
C:/temp/Job-15.odb,Step-1,Increment      1: Step Time =    1.000,"P-15-1",          1107,       69.2386,       33.2575,            0.,NA,NA,"",   1.36410E+06,   1.33471E+06,   1.33471E+06
C:/temp/Job-15.odb,Step-1,Increment      1: Step Time =    1.000,"P-15-1",          1108,       48.8273,       70.8748,            0.,NA,NA,"",   1.00536E+06,   922.486E+03,   922.486E+03
C:/temp/Job-15.odb,Step-1,Increment      1: Step Time =    1.000,"P-15-1",          1109,       40.1582,       101.900,            0.,NA,NA,"",   310.924E+03,   353.223E+03,   353.223E+03
C:/temp/Job-15.odb,Step-1,Increment      1: Step Time =    1.000,"P-15-1",          1110,       142.205,       69.0146,            0.,NA,NA,"",   1.46741E+06,   1.25819E+06,   1.25819E+06
C:/temp/Job-15.odb,Step-1,Increment      1: Step Time =    1.000,"P-15-1",          1111,       124.527,       143.267,            0.,NA,NA,"",   1.60906E+06,   1.60027E+06,   1.60027E+06
C:/temp/Job-15.odb,Step-1,Increment      1: Step Time =    1.000,"P-15-1",          1112,       120.824,       146.343,            0.,NA,NA,"",   1.55598E+06,   1.59462E+06,   1.59462E+06
C:/temp/Job-15.odb,Step-1,Increment      1: Step Time =    1.000,"P-15-1",          1113,       48.7560,       23.3033,            0.,NA,NA,"",   1.31652E+06,   1.29065E+06,   1.29065E+06
C:/temp/Job-15.odb,Step-1,Increment      1: Step Time =    1.000,"P-15-1",          1114,       22.4931,       48.0567,            0.,NA,NA,"",   1.02559E+06,   1.06928E+06,   1.06928E+06
C:/temp/Job-15.odb,Step-1,Increment      1: Step Time =    1.000,"P-15-1",          1115,       151.922,       25.9123,            0.,NA,NA,"",   1.15655E+06,   1.12898E+06,   1.12898E+06
C:/temp/Job-15.odb,Step-1,Increment      1: Step Time =    1.000,"P-15-1",          1116,       23.0478,       150.522,            0.,NA,NA,"",   1.01648E+06,   1.05844E+06,   1.05844E+06
C:/temp/Job-15.odb,Step-1,Increment      1: Step Time =    1.000,"P-15-1",          1117,       176.734,       48.8783,            0.,NA,NA,"",   1.08831E+06,   1.09141E+06,   1.09141E+06
C:/temp/Job-15.odb,Step-1,Increment      1: Step Time =    1.000,"P-15-1",          1118,       151.920,       178.653,            0.,NA,NA,"",   1.11339E+06,   1.09408E+06,   1.09408E+06
C:/temp/Job-15.odb,Step-1,Increment      1: Step Time =    1.000,"P-15-1",          1119,       175.686,       151.128,            0.,NA,NA,"",   1.09904E+06,   1.09796E+06,   1.09796E+06
C:/temp/Job-15.odb,Step-1,Increment      1: Step Time =    1.000,"P-15-1",          1120,       48.9182,       177.230,            0.,NA,NA,"",   1.31219E+06,   1.28702E+06,   1.28702E+06
C:/temp/Job-15.odb,Step-1,Increment      1: Step Time =    1.000,"P-15-1",          1121,       159.638,       91.7057,            0.,NA,NA,"",   657.338E+03,   663.483E+03,   663.483E+03
C:/temp/Job-15.odb,Step-1,Increment      1: Step Time =    1.000,"P-15-1",          1122,       54.3384,       141.637,            0.,NA,NA,"",   1.31117E+06,   1.21409E+06,   1.21409E+06
C:/temp/Job-15.odb,Step-1,Increment      1: Step Time =    1.000,"P-15-1",          1123,       58.0514,       151.562,            0.,NA,NA,"",   1.40046E+06,   1.32318E+06,   1.32318E+06
C:/temp/Job-15.odb,Step-1,Increment      1: Step Time =    1.000,"P-15-1",          1124,       50.5787,       68.6902,            0.,NA,NA,"",   1.07773E+06,   983.186E+03,   983.186E+03
C:/temp/Job-15.odb,Step-1,Increment      1: Step Time =    1.000,"P-15-1",          1125,       150.721,       68.7327,            0.,NA,NA,"",   1.34885E+06,   1.18345E+06,   1.18345E+06
C:/temp/Job-15.odb,Step-1,Increment      1: Step Time =    1.000,"P-15-1",          1126,       121.338,       51.0916,            0.,NA,NA,"",   1.52470E+06,   1.55876E+06,   1.55876E+06
C:/temp/Job-15.odb,Step-1,Increment      1: Step Time =    1.000,"P-15-1",          1127,       122.656,       20.2860,            0.,NA,NA,"",   1.07280E+06,   1.08540E+06,   1.08540E+06
C:/temp/Job-15.odb,Step-1,Increment      1: Step Time =    1.000,"P-15-1",          1128,       79.2283,       180.196,            0.,NA,NA,"",   1.16711E+06,   1.17008E+06,   1.17008E+06
C:/temp/Job-15.odb,Step-1,Increment      1: Step Time =    1.000,"P-15-1",          1129,       45.5600,       112.749,            0.,NA,NA,"",   490.231E+03,   477.824E+03,   477.824E+03
C:/temp/Job-15.odb,Step-1,Increment      1: Step Time =    1.000,"P-15-1",          1130,       144.338,       143.250,            0.,NA,NA,"",   1.48351E+06,   1.35179E+06,   1.35179E+06
C:/temp/Job-15.odb,Step-1,Increment      1: Step Time =    1.000,"P-15-1",          1131,       40.2950,       109.143,            0.,NA,NA,"",   411.164E+03,   441.367E+03,   441.367E+03
C:/temp/Job-15.odb,Step-1,Increment      1: Step Time =    1.000,"P-15-1",          1132,       103.512,       37.0478,            0.,NA,NA,"",   1.20943E+06,   1.30249E+06,   1.30249E+06
C:/temp/Job-15.odb,Step-1,Increment      1: Step Time =    1.000,"P-15-1",          1133,       46.0940,       121.078,            0.,NA,NA,"",   748.783E+03,   699.300E+03,   699.300E+03
C:/temp/Job-15.odb,Step-1,Increment      1: Step Time =    1.000,"P-15-1",          1134,       47.5384,       131.555,            0.,NA,NA,"",   1.02926E+06,   956.334E+03,   956.334E+03
C:/temp/Job-15.odb,Step-1,Increment      1: Step Time =    1.000,"P-15-1",          1135,       140.804,       150.605,            0.,NA,NA,"",   1.45570E+06,   1.36423E+06,   1.36423E+06
C:/temp/Job-15.odb,Step-1,Increment      1: Step Time =    1.000,"P-15-1",          1136,       31.0247,       67.4693,            0.,NA,NA,"",   827.736E+03,   851.125E+03,   851.125E+03
C:/temp/Job-15.odb,Step-1,Increment      1: Step Time =    1.000,"P-15-1",          1137,       168.761,       133.891,            0.,NA,NA,"",   1.12225E+06,   1.09490E+06,   1.09490E+06
C:/temp/Job-15.odb,Step-1,Increment      1: Step Time =    1.000,"P-15-1",          1138,       132.250,       31.3064,            0.,NA,NA,"",   1.24151E+06,   1.22767E+06,   1.22767E+06
C:/temp/Job-15.odb,Step-1,Increment      1: Step Time =    1.000,"P-15-1",          1139,       64.5140,       169.834,            0.,NA,NA,"",   1.34574E+06,   1.31080E+06,   1.31080E+06
C:/temp/Job-15.odb,Step-1,Increment      1: Step Time =    1.000,"P-15-1",          1140,       169.865,       109.335,            0.,NA,NA,"",   759.306E+03,   815.770E+03,   815.770E+03
C:/temp/Job-15.odb,Step-1,Increment      1: Step Time =    1.000,"P-15-1",          1141,       88.7131,       173.301,            0.,NA,NA,"",   1.17149E+06,   1.20593E+06,   1.20593E+06
C:/temp/Job-15.odb,Step-1,Increment      1: Step Time =    1.000,"P-15-1",          1142,       28.0956,       91.2754,            0.,NA,NA,"",   446.456E+03,   507.785E+03,   507.785E+03
C:/temp/Job-15.odb,Step-1,Increment      1: Step Time =    1.000,"P-15-1",          1143,       74.5489,       46.2280,            0.,NA,NA,"",   1.48030E+06,   1.45887E+06,   1.45887E+06
C:/temp/Job-15.odb,Step-1,Increment      1: Step Time =    1.000,"P-15-1",          1144,       65.1211,       58.7700,            0.,NA,NA,"",   1.47750E+06,   1.37219E+06,   1.37219E+06
C:/temp/Job-15.odb,Step-1,Increment      1: Step Time =    1.000,"P-15-1",          1145,       162.783,       103.930,            0.,NA,NA,"",   616.998E+03,   657.145E+03,   657.145E+03
C:/temp/Job-15.odb,Step-1,Increment      1: Step Time =    1.000,"P-15-1",          1146,       136.416,       155.087,            0.,NA,NA,"",   1.42442E+06,   1.36469E+06,   1.36469E+06
C:/temp/Job-15.odb,Step-1,Increment      1: Step Time =    1.000,"P-15-1",          1147,       139.213,       60.7694,            0.,NA,NA,"",   1.55724E+06,   1.40264E+06,   1.40264E+06
C:/temp/Job-15.odb,Step-1,Increment      1: Step Time =    1.000,"P-15-1",          1148,       163.749,       115.802,            0.,NA,NA,"",   863.910E+03,   856.709E+03,   856.709E+03
C:/temp/Job-15.odb,Step-1,Increment      1: Step Time =    1.000,"P-15-1",          1149,       83.7688,       163.226,            0.,NA,NA,"",   1.32730E+06,   1.36167E+06,   1.36167E+06
C:/temp/Job-15.odb,Step-1,Increment      1: Step Time =    1.000,"P-15-1",          1150,       37.6860,       85.0141,            0.,NA,NA,"",   530.154E+03,   559.671E+03,   559.671E+03
C:/temp/Job-15.odb,Step-1,Increment      1: Step Time =    1.000,"P-15-1",          1151,       116.563,       37.4291,            0.,NA,NA,"",   1.25308E+06,   1.30983E+06,   1.30983E+06
C:/temp/Job-15.odb,Step-1,Increment      1: Step Time =    1.000,"P-15-1",          1152,       71.8644,       154.091,            0.,NA,NA,"",   1.48416E+06,   1.44722E+06,   1.44722E+06
C:/temp/Job-15.odb,Step-1,Increment      1: Step Time =    1.000,"P-15-1",          1153,       36.7844,       105.078,            0.,NA,NA,"",   365.470E+03,   413.269E+03,   413.269E+03
C:/temp/Job-15.odb,Step-1,Increment      1: Step Time =    1.000,"P-15-1",          1154,       116.776,       46.8841,            0.,NA,NA,"",   1.41454E+06,   1.48728E+06,   1.48728E+06
C:/temp/Job-15.odb,Step-1,Increment      1: Step Time =    1.000,"P-15-1",          1155,       98.6629,       166.601,            0.,NA,NA,"",   1.18045E+06,   1.25695E+06,   1.25695E+06
C:/temp/Job-15.odb,Step-1,Increment      1: Step Time =    1.000,"P-15-1",          1156,       99.5498,       27.9944,            0.,NA,NA,"",   1.12429E+06,   1.18424E+06,   1.18424E+06
C:/temp/Job-15.odb,Step-1,Increment      1: Step Time =    1.000,"P-15-1",          1157,       27.8308,       102.542,            0.,NA,NA,"",   403.784E+03,   464.716E+03,   464.716E+03
C:/temp/Job-15.odb,Step-1,Increment      1: Step Time =    1.000,"P-15-1",          1158,       163.556,       92.8089,            0.,NA,NA,"",   663.970E+03,   699.731E+03,   699.731E+03
C:/temp/Job-15.odb,Step-1,Increment      1: Step Time =    1.000,"P-15-1",          1159,       103.261,       161.361,            0.,NA,NA,"",   1.22934E+06,   1.32840E+06,   1.32840E+06
C:/temp/Job-15.odb,Step-1,Increment      1: Step Time =    1.000,"P-15-1",          1160,       94.0048,       35.5798,            0.,NA,NA,"",   1.22828E+06,   1.30501E+06,   1.30501E+06
C:/temp/Job-15.odb,Step-1,Increment      1: Step Time =    1.000,"P-15-1",          1161,       161.327,       87.6200,            0.,NA,NA,"",   771.370E+03,   765.394E+03,   765.394E+03
C:/temp/Job-15.odb,Step-1,Increment      1: Step Time =    1.000,"P-15-1",          1162,       112.369,       162.644,            0.,NA,NA,"",   1.23081E+06,   1.30659E+06,   1.30659E+06
C:/temp/Job-15.odb,Step-1,Increment      1: Step Time =    1.000,"P-15-1",          1163,       83.3334,       36.9506,            0.,NA,NA,"",   1.33412E+06,   1.36601E+06,   1.36601E+06
C:/temp/Job-15.odb,Step-1,Increment      1: Step Time =    1.000,"P-15-1",          1164,       37.9102,       115.909,            0.,NA,NA,"",   554.439E+03,   577.875E+03,   577.875E+03
C:/temp/Job-15.odb,Step-1,Increment      1: Step Time =    1.000,"P-15-1",          1165,       151.471,       118.970,            0.,NA,NA,"",   1.03526E+06,   883.700E+03,   883.700E+03
C:/temp/Job-15.odb,Step-1,Increment      1: Step Time =    1.000,"P-15-1",          1166,       127.447,       165.142,            0.,NA,NA,"",   1.27286E+06,   1.27322E+06,   1.27322E+06
C:/temp/Job-15.odb,Step-1,Increment      1: Step Time =    1.000,"P-15-1",          1167,       162.342,       76.9500,            0.,NA,NA,"",   1.03994E+06,   984.904E+03,   984.904E+03
C:/temp/Job-15.odb,Step-1,Increment      1: Step Time =    1.000,"P-15-1",          1168,       73.4773,       39.5907,            0.,NA,NA,"",   1.41826E+06,   1.39754E+06,   1.39754E+06
C:/temp/Job-15.odb,Step-1,Increment      1: Step Time =    1.000,"P-15-1",          1169,       38.4046,       126.683,            0.,NA,NA,"",   798.053E+03,   792.222E+03,   792.222E+03
C:/temp/Job-15.odb,Step-1,Increment      1: Step Time =    1.000,"P-15-1",          1170,       86.6767,       43.3430,            0.,NA,NA,"",   1.39511E+06,   1.45607E+06,   1.45607E+06
C:/temp/Job-15.odb,Step-1,Increment      1: Step Time =    1.000,"P-15-1",          1171,       99.2336,       150.704,            0.,NA,NA,"",   1.44481E+06,   1.58160E+06,   1.58160E+06
C:/temp/Job-15.odb,Step-1,Increment      1: Step Time =    1.000,"P-15-1",          1172,       136.672,       164.280,            0.,NA,NA,"",   1.29893E+06,   1.26508E+06,   1.26508E+06
C:/temp/Job-15.odb,Step-1,Increment      1: Step Time =    1.000,"P-15-1",          1173,       64.1303,       37.1735,            0.,NA,NA,"",   1.39821E+06,   1.35027E+06,   1.35027E+06
C:/temp/Job-15.odb,Step-1,Increment      1: Step Time =    1.000,"P-15-1",          1174,       162.266,       64.7030,            0.,NA,NA,"",   1.21786E+06,   1.14291E+06,   1.14291E+06
C:/temp/Job-15.odb,Step-1,Increment      1: Step Time =    1.000,"P-15-1",          1175,       36.6394,       136.000,            0.,NA,NA,"",   950.181E+03,   942.258E+03,   942.258E+03
C:/temp/Job-15.odb,Step-1,Increment      1: Step Time =    1.000,"P-15-1",          1176,       36.8824,       97.3534,            0.,NA,NA,"",   345.228E+03,   393.585E+03,   393.585E+03
C:/temp/Job-15.odb,Step-1,Increment      1: Step Time =    1.000,"P-15-1",          1177,       41.9145,       75.8293,            0.,NA,NA,"",   780.410E+03,   755.534E+03,   755.534E+03
C:/temp/Job-15.odb,Step-1,Increment      1: Step Time =    1.000,"P-15-1",          1178,       124.531,       37.3966,            0.,NA,NA,"",   1.29920E+06,   1.31552E+06,   1.31552E+06
C:/temp/Job-15.odb,Step-1,Increment      1: Step Time =    1.000,"P-15-1",          1179,       74.7150,       162.871,            0.,NA,NA,"",   1.38334E+06,   1.37303E+06,   1.37303E+06
C:/temp/Job-15.odb,Step-1,Increment      1: Step Time =    1.000,"P-15-1",          1180,       126.301,       154.532,            0.,NA,NA,"",    1.4301E+06,   1.42740E+06,   1.42740E+06
C:/temp/Job-15.odb,Step-1,Increment      1: Step Time =    1.000,"P-15-1",          1181,       73.5747,       140.764,            0.,NA,NA,"",   1.55823E+06,   1.50138E+06,   1.50138E+06
C:/temp/Job-15.odb,Step-1,Increment      1: Step Time =    1.000,"P-15-1",          1182,       91.2062,       45.6086,            0.,NA,NA,"",   1.40227E+06,   1.49893E+06,   1.49893E+06
C:/temp/Job-15.odb,Step-1,Increment      1: Step Time =    1.000,"P-15-1",          1183,       98.8420,       156.242,            0.,NA,NA,"",   1.32148E+06,   1.43593E+06,   1.43593E+06
C:/temp/Job-15.odb,Step-1,Increment      1: Step Time =    1.000,"P-15-1",          1184,       71.2693,       49.4243,            0.,NA,NA,"",   1.50791E+06,   1.46156E+06,   1.46156E+06
C:/temp/Job-15.odb,Step-1,Increment      1: Step Time =    1.000,"P-15-1",          1185,       57.6220,       58.2296,            0.,NA,NA,"",   1.35616E+06,   1.25103E+06,   1.25103E+06
C:/temp/Job-15.odb,Step-1,Increment      1: Step Time =    1.000,"P-15-1",          1186,       121.451,       46.4933,            0.,NA,NA,"",   1.43379E+06,   1.46980E+06,   1.46980E+06
C:/temp/Job-15.odb,Step-1,Increment      1: Step Time =    1.000,"P-15-1",          1187,       47.4768,       18.8990,            0.,NA,NA,"",   1.30446E+06,   1.28579E+06,   1.28579E+06
C:/temp/Job-15.odb,Step-1,Increment      1: Step Time =    1.000,"P-15-1",          1188,       49.8171,       27.8508,            0.,NA,NA,"",   1.32856E+06,   1.29482E+06,   1.29482E+06
C:/temp/Job-15.odb,Step-1,Increment      1: Step Time =    1.000,"P-15-1",          1189,       151.250,       20.1506,            0.,NA,NA,"",   1.10380E+06,   1.08611E+06,   1.08611E+06
C:/temp/Job-15.odb,Step-1,Increment      1: Step Time =    1.000,"P-15-1",          1190,       18.9782,       152.168,            0.,NA,NA,"",   994.922E+03,   1.05254E+06,   1.05254E+06
C:/temp/Job-15.odb,Step-1,Increment      1: Step Time =    1.000,"P-15-1",          1191,       27.2609,       149.263,            0.,NA,NA,"",   1.04224E+06,   1.06713E+06,   1.06713E+06
C:/temp/Job-15.odb,Step-1,Increment      1: Step Time =    1.000,"P-15-1",          1192,       181.163,       47.6098,            0.,NA,NA,"",   1.04731E+06,   1.06608E+06,   1.06608E+06
C:/temp/Job-15.odb,Step-1,Increment      1: Step Time =    1.000,"P-15-1",          1193,       172.122,       49.9555,            0.,NA,NA,"",   1.13532E+06,   1.11999E+06,   1.11999E+06
C:/temp/Job-15.odb,Step-1,Increment      1: Step Time =    1.000,"P-15-1",          1194,       151.771,       182.902,            0.,NA,NA,"",   1.07819E+06,   1.06477E+06,   1.06477E+06
C:/temp/Job-15.odb,Step-1,Increment      1: Step Time =    1.000,"P-15-1",          1195,       180.365,       148.708,            0.,NA,NA,"",   1.04754E+06,   1.07028E+06,   1.07028E+06
C:/temp/Job-15.odb,Step-1,Increment      1: Step Time =    1.000,"P-15-1",          1196,       151.166,       173.944,            0.,NA,NA,"",   1.15740E+06,   1.13002E+06,   1.13002E+06
C:/temp/Job-15.odb,Step-1,Increment      1: Step Time =    1.000,"P-15-1",          1197,       49.5311,       180.672,            0.,NA,NA,"",   1.29714E+06,   1.27711E+06,   1.27711E+06
C:/temp/Job-15.odb,Step-1,Increment      1: Step Time =    1.000,"P-15-1",          1198,       84.9337,       47.4391,            0.,NA,NA,"",   1.47356E+06,   1.52826E+06,   1.52826E+06
C:/temp/Job-15.odb,Step-1,Increment      1: Step Time =    1.000,"P-15-1",          1199,       61.7066,       153.426,            0.,NA,NA,"",   1.43411E+06,   1.36105E+06,   1.36105E+06
C:/temp/Job-15.odb,Step-1,Increment      1: Step Time =    1.000,"P-15-1",          1200,       47.9036,       66.3065,            0.,NA,NA,"",   1.06747E+06,   995.261E+03,   995.261E+03
C:/temp/Job-15.odb,Step-1,Increment      1: Step Time =    1.000,"P-15-1",          1201,       54.0040,       70.1724,            0.,NA,NA,"",   1.09630E+06,   981.297E+03,   981.297E+03
C:/temp/Job-15.odb,Step-1,Increment      1: Step Time =    1.000,"P-15-1",          1202,       108.003,       32.0078,            0.,NA,NA,"",   1.15503E+06,   1.22510E+06,   1.22510E+06
C:/temp/Job-15.odb,Step-1,Increment      1: Step Time =    1.000,"P-15-1",          1203,       98.8119,       36.8102,            0.,NA,NA,"",   1.21601E+06,   1.30591E+06,   1.30591E+06
C:/temp/Job-15.odb,Step-1,Increment      1: Step Time =    1.000,"P-15-1",          1204,       47.4557,       115.905,            0.,NA,NA,"",   602.844E+03,   556.721E+03,   556.721E+03
C:/temp/Job-15.odb,Step-1,Increment      1: Step Time =    1.000,"P-15-1",          1205,       163.027,       99.9084,            0.,NA,NA,"",   592.333E+03,   638.506E+03,   638.506E+03
C:/temp/Job-15.odb,Step-1,Increment      1: Step Time =    1.000,"P-15-1",          1206,       166.626,       107.985,            0.,NA,NA,"",   720.407E+03,   766.929E+03,   766.929E+03
C:/temp/Job-15.odb,Step-1,Increment      1: Step Time =    1.000,"P-15-1",          1207,       145.230,       60.9174,            0.,NA,NA,"",   1.48081E+06,   1.32538E+06,   1.32538E+06
C:/temp/Job-15.odb,Step-1,Increment      1: Step Time =    1.000,"P-15-1",          1208,       136.301,       57.8454,            0.,NA,NA,"",   1.56920E+06,   1.44567E+06,   1.44567E+06
C:/temp/Job-15.odb,Step-1,Increment      1: Step Time =    1.000,"P-15-1",          1209,       87.7291,       166.932,            0.,NA,NA,"",   1.25014E+06,   1.29484E+06,   1.29484E+06
C:/temp/Job-15.odb,Step-1,Increment      1: Step Time =    1.000,"P-15-1",          1210,       160.511,       120.902,            0.,NA,NA,"",   1.01313E+06,   948.619E+03,   948.619E+03
C:/temp/Job-15.odb,Step-1,Increment      1: Step Time =    1.000,"P-15-1",          1211,       80.4972,       165.184,            0.,NA,NA,"",   1.32442E+06,   1.34114E+06,   1.34114E+06
C:/temp/Job-15.odb,Step-1,Increment      1: Step Time =    1.000,"P-15-1",          1212,       40.5103,       79.7005,            0.,NA,NA,"",   665.717E+03,   658.814E+03,   658.814E+03
C:/temp/Job-15.odb,Step-1,Increment      1: Step Time =    1.000,"P-15-1",          1213,       120.692,       37.4311,            0.,NA,NA,"",   1.27601E+06,   1.31155E+06,   1.31155E+06
C:/temp/Job-15.odb,Step-1,Increment      1: Step Time =    1.000,"P-15-1",          1214,       34.1692,       90.0172,            0.,NA,NA,"",   440.401E+03,   489.611E+03,   489.611E+03
C:/temp/Job-15.odb,Step-1,Increment      1: Step Time =    1.000,"P-15-1",          1215,       99.2975,       31.8343,            0.,NA,NA,"",   1.15828E+06,   1.23033E+06,   1.23033E+06
C:/temp/Job-15.odb,Step-1,Increment      1: Step Time =    1.000,"P-15-1",          1216,       33.3445,       101.334,            0.,NA,NA,"",   367.325E+03,   421.868E+03,   421.868E+03
C:/temp/Job-15.odb,Step-1,Increment      1: Step Time =    1.000,"P-15-1",          1217,       167.776,       99.6466,            0.,NA,NA,"",   662.407E+03,   726.531E+03,   726.531E+03
C:/temp/Job-15.odb,Step-1,Increment      1: Step Time =    1.000,"P-15-1",          1218,       98.5673,       161.405,            0.,NA,NA,"",   1.24375E+06,   1.33848E+06,   1.33848E+06
C:/temp/Job-15.odb,Step-1,Increment      1: Step Time =    1.000,"P-15-1",          1219,       107.998,       161.683,            0.,NA,NA,"",   1.22743E+06,   1.31966E+06,   1.31966E+06
C:/temp/Job-15.odb,Step-1,Increment      1: Step Time =    1.000,"P-15-1",          1220,       88.0534,       38.7485,            0.,NA,NA,"",   1.31789E+06,   1.37841E+06,   1.37841E+06
C:/temp/Job-15.odb,Step-1,Increment      1: Step Time =    1.000,"P-15-1",          1221,       118.657,       160.775,            0.,NA,NA,"",   1.29272E+06,   1.34083E+06,   1.34083E+06
C:/temp/Job-15.odb,Step-1,Increment      1: Step Time =    1.000,"P-15-1",          1222,       159.580,       81.5840,            0.,NA,NA,"",   950.811E+03,   889.510E+03,   889.510E+03
C:/temp/Job-15.odb,Step-1,Increment      1: Step Time =    1.000,"P-15-1",          1223,       77.9442,       39.7899,            0.,NA,NA,"",   1.40323E+06,   1.40579E+06,   1.40579E+06
C:/temp/Job-15.odb,Step-1,Increment      1: Step Time =    1.000,"P-15-1",          1224,       40.0904,       119.844,            0.,NA,NA,"",   659.602E+03,   659.498E+03,   659.498E+03
C:/temp/Job-15.odb,Step-1,Increment      1: Step Time =    1.000,"P-15-1",          1225,       131.746,       163.286,            0.,NA,NA,"",   1.31246E+06,   1.29216E+06,   1.29216E+06
C:/temp/Job-15.odb,Step-1,Increment      1: Step Time =    1.000,"P-15-1",          1226,       141.121,       164.639,            0.,NA,NA,"",   1.28847E+06,   1.24582E+06,   1.24582E+06
C:/temp/Job-15.odb,Step-1,Increment      1: Step Time =    1.000,"P-15-1",          1227,       68.6600,       38.3413,            0.,NA,NA,"",   1.40942E+06,   1.37041E+06,   1.37041E+06
C:/temp/Job-15.odb,Step-1,Increment      1: Step Time =    1.000,"P-15-1",          1228,       59.7198,       36.4525,            0.,NA,NA,"",   1.38368E+06,   1.33207E+06,   1.33207E+06
C:/temp/Job-15.odb,Step-1,Increment      1: Step Time =    1.000,"P-15-1",          1229,       160.526,       69.8314,            0.,NA,NA,"",   1.18532E+06,   1.09873E+06,   1.09873E+06
C:/temp/Job-15.odb,Step-1,Increment      1: Step Time =    1.000,"P-15-1",          1230,       163.149,       59.7507,            0.,NA,NA,"",   1.23446E+06,   1.16799E+06,   1.16799E+06
C:/temp/Job-15.odb,Step-1,Increment      1: Step Time =    1.000,"P-15-1",          1231,       36.1481,       140.262,            0.,NA,NA,"",   1.01631E+06,   1.00538E+06,   1.00538E+06
C:/temp/Job-15.odb,Step-1,Increment      1: Step Time =    1.000,"P-15-1",          1232,       37.4899,       131.622,            0.,NA,NA,"",   883.823E+03,   876.778E+03,   876.778E+03
C:/temp/Job-15.odb,Step-1,Increment      1: Step Time =    1.000,"P-15-1",          1233,       38.3869,       92.4879,            0.,NA,NA,"",   389.741E+03,   431.527E+03,   431.527E+03
C:/temp/Job-15.odb,Step-1,Increment      1: Step Time =    1.000,"P-15-1",          1234,       35.8550,       73.3601,            0.,NA,NA,"",   768.825E+03,   776.943E+03,   776.943E+03
C:/temp/Job-15.odb,Step-1,Increment      1: Step Time =    1.000,"P-15-1",          1235,       129.827,       35.0524,            0.,NA,NA,"",   1.28900E+06,   1.27950E+06,   1.27950E+06
C:/temp/Job-15.odb,Step-1,Increment      1: Step Time =    1.000,"P-15-1",          1236,       162.053,       129.924,            0.,NA,NA,"",   1.16157E+06,   1.08988E+06,   1.08988E+06
C:/temp/Job-15.odb,Step-1,Increment      1: Step Time =    1.000,"P-15-1",          1237,       70.7919,       165.162,            0.,NA,NA,"",   1.37282E+06,   1.34806E+06,   1.34806E+06
C:/temp/Job-15.odb,Step-1,Increment      1: Step Time =    1.000,"P-15-1",          1238,       132.327,       156.315,            0.,NA,NA,"",   1.41158E+06,   1.37300E+06,   1.37300E+06
C:/temp/Job-15.odb,Step-1,Increment      1: Step Time =    1.000,"P-15-1",          1239,       123.643,       150.468,            0.,NA,NA,"",   1.48698E+06,   1.50015E+06,   1.50015E+06
C:/temp/Job-15.odb,Step-1,Increment      1: Step Time =    1.000,"P-15-1",          1240,       148.800,       122.137,            0.,NA,NA,"",   1.16435E+06,   972.682E+03,   972.682E+03
C:/temp/Job-15.odb,Step-1,Increment      1: Step Time =    1.000,"P-15-1",          1241,       43.0970,       132.729,            0.,NA,NA,"",   979.093E+03,   936.805E+03,   936.805E+03
C:/temp/Job-15.odb,Step-1,Increment      1: Step Time =    1.000,"P-15-1",          1242,       150.516,       143.756,            0.,NA,NA,"",   1.40694E+06,   1.28729E+06,   1.28729E+06
C:/temp/Job-15.odb,Step-1,Increment      1: Step Time =    1.000,"P-15-1",          1243,       121.536,       55.4448,            0.,NA,NA,"",   1.60490E+06,   1.62983E+06,   1.62983E+06
C:/temp/Job-15.odb,Step-1,Increment      1: Step Time =    1.000,"P-15-1",          1244,       120.929,       41.9322,            0.,NA,NA,"",   1.34985E+06,   1.38694E+06,   1.38694E+06
C:/temp/Job-15.odb,Step-1,Increment      1: Step Time =    1.000,"P-15-1",          1245,       140.787,       155.145,            0.,NA,NA,"",   1.40992E+06,   1.33681E+06,   1.33681E+06
C:/temp/Job-15.odb,Step-1,Increment      1: Step Time =    1.000,"P-15-1",          1246,       27.7940,       152.759,            0.,NA,NA,"",   1.08505E+06,   1.10658E+06,   1.10658E+06
C:/temp/Job-15.odb,Step-1,Increment      1: Step Time =    1.000,"P-15-1",          1247,       155.648,       173.472,            0.,NA,NA,"",   1.14778E+06,   1.12136E+06,   1.12136E+06
C:/temp/Job-15.odb,Step-1,Increment      1: Step Time =    1.000,"P-15-1",          1248,       45.4986,       28.6786,            0.,NA,NA,"",   1.32168E+06,   1.29204E+06,   1.29204E+06
C:/temp/Job-15.odb,Step-1,Increment      1: Step Time =    1.000,"P-15-1",          1249,       171.339,       45.6886,            0.,NA,NA,"",   1.13730E+06,   1.11985E+06,   1.11985E+06
C:/temp/Job-15.odb,Step-1,Increment      1: Step Time =    1.000,"P-15-1",          1250,       45.0679,       64.3364,            0.,NA,NA,"",   1.05794E+06,   1.00271E+06,   1.00271E+06
C:/temp/Job-15.odb,Step-1,Increment      1: Step Time =    1.000,"P-15-1",          1251,       31.8410,       148.759,            0.,NA,NA,"",   1.07934E+06,   1.08559E+06,   1.08559E+06
C:/temp/Job-15.odb,Step-1,Increment      1: Step Time =    1.000,"P-15-1",          1252,       150.546,       169.272,            0.,NA,NA,"",   1.20472E+06,   1.16771E+06,   1.16771E+06
C:/temp/Job-15.odb,Step-1,Increment      1: Step Time =    1.000,"P-15-1",          1253,       167.433,       50.4729,            0.,NA,NA,"",   1.18586E+06,   1.15060E+06,   1.15060E+06
C:/temp/Job-15.odb,Step-1,Increment      1: Step Time =    1.000,"P-15-1",          1254,       50.5095,       32.4113,            0.,NA,NA,"",   1.33924E+06,   1.29779E+06,   1.29779E+06
C:/temp/Job-15.odb,Step-1,Increment      1: Step Time =    1.000,"P-15-1",          1255,       149.706,       59.0644,            0.,NA,NA,"",   1.41779E+06,   1.28411E+06,   1.28411E+06
C:/temp/Job-15.odb,Step-1,Increment      1: Step Time =    1.000,"P-15-1",          1256,       44.5803,       68.5354,            0.,NA,NA,"",   979.010E+03,   928.426E+03,   928.426E+03
C:/temp/Job-15.odb,Step-1,Increment      1: Step Time =    1.000,"P-15-1",          1257,       93.8487,       161.475,            0.,NA,NA,"",   1.27004E+06,   1.35328E+06,   1.35328E+06
C:/temp/Job-15.odb,Step-1,Increment      1: Step Time =    1.000,"P-15-1",          1258,       66.5290,       51.6705,            0.,NA,NA,"",   1.49092E+06,   1.41580E+06,   1.41580E+06
C:/temp/Job-15.odb,Step-1,Increment      1: Step Time =    1.000,"P-15-1",          1259,       55.9951,       65.6766,            0.,NA,NA,"",   1.21784E+06,   1.10040E+06,   1.10040E+06
C:/temp/Job-15.odb,Step-1,Increment      1: Step Time =    1.000,"P-15-1",          1260,       126.988,       45.8436,            0.,NA,NA,"",   1.44344E+06,   1.43502E+06,   1.43502E+06
C:/temp/Job-15.odb,Step-1,Increment      1: Step Time =    1.000,"P-15-1",          1261,       152.279,       124.570,            0.,NA,NA,"",   1.19781E+06,   1.04331E+06,   1.04331E+06
C:/temp/Job-15.odb,Step-1,Increment      1: Step Time =    1.000,"P-15-1",          1262,       50.0458,       14.6465,            0.,NA,NA,"",   1.28154E+06,   1.26737E+06,   1.26737E+06
C:/temp/Job-15.odb,Step-1,Increment      1: Step Time =    1.000,"P-15-1",          1263,       17.6901,       51.8385,            0.,NA,NA,"",   937.854E+03,   1.00020E+06,   1.00020E+06
C:/temp/Job-15.odb,Step-1,Increment      1: Step Time =    1.000,"P-15-1",          1264,       148.665,       18.0480,            0.,NA,NA,"",   1.08630E+06,   1.07160E+06,   1.07160E+06
C:/temp/Job-15.odb,Step-1,Increment      1: Step Time =    1.000,"P-15-1",          1265,       14.6354,       149.828,            0.,NA,NA,"",   934.504E+03,   1.00660E+06,   1.00660E+06
C:/temp/Job-15.odb,Step-1,Increment      1: Step Time =    1.000,"P-15-1",          1266,       185.404,       50.1264,            0.,NA,NA,"",   1.01013E+06,   1.04687E+06,   1.04687E+06
C:/temp/Job-15.odb,Step-1,Increment      1: Step Time =    1.000,"P-15-1",          1267,       150.259,       185.541,            0.,NA,NA,"",   1.05408E+06,   1.04407E+06,   1.04407E+06
C:/temp/Job-15.odb,Step-1,Increment      1: Step Time =    1.000,"P-15-1",          1268,       184.024,       148.652,            0.,NA,NA,"",   1.01694E+06,   1.05265E+06,   1.05265E+06
C:/temp/Job-15.odb,Step-1,Increment      1: Step Time =    1.000,"P-15-1",          1269,       50.5805,       183.006,            0.,NA,NA,"",   1.28777E+06,   1.27053E+06,   1.27053E+06
C:/temp/Job-15.odb,Step-1,Increment      1: Step Time =    1.000,"P-15-1",          1270,       67.0158,       150.458,            0.,NA,NA,"",   1.48464E+06,   1.41686E+06,   1.41686E+06
C:/temp/Job-15.odb,Step-1,Increment      1: Step Time =    1.000,"P-15-1",          1271,       58.6312,       156.744,            0.,NA,NA,"",   1.40713E+06,   1.34017E+06,   1.34017E+06
C:/temp/Job-15.odb,Step-1,Increment      1: Step Time =    1.000,"P-15-1",          1272,       57.4730,       72.7419,            0.,NA,NA,"",   1.09113E+06,   949.721E+03,   949.721E+03
C:/temp/Job-15.odb,Step-1,Increment      1: Step Time =    1.000,"P-15-1",          1273,       143.976,       51.9111,            0.,NA,NA,"",   1.45461E+06,   1.34693E+06,   1.34693E+06
C:/temp/Job-15.odb,Step-1,Increment      1: Step Time =    1.000,"P-15-1",          1274,       89.3266,       161.069,            0.,NA,NA,"",   1.31032E+06,   1.37636E+06,   1.37636E+06
C:/temp/Job-15.odb,Step-1,Increment      1: Step Time =    1.000,"P-15-1",          1275,       36.5045,       87.1508,            0.,NA,NA,"",   488.197E+03,   526.827E+03,   526.827E+03
C:/temp/Job-15.odb,Step-1,Increment      1: Step Time =    1.000,"P-15-1",          1276,       141.081,       159.874,            0.,NA,NA,"",   1.34958E+06,   1.29340E+06,   1.29340E+06
C:/temp/Job-15.odb,Step-1,Increment      1: Step Time =    1.000,"P-15-1",          1277,       59.5480,       40.8058,            0.,NA,NA,"",   1.40248E+06,   1.34273E+06,   1.34273E+06
C:/temp/Job-15.odb,Step-1,Increment      1: Step Time =    1.000,"P-15-1",          1278,       158.777,       59.1547,            0.,NA,NA,"",   1.29666E+06,   1.20392E+06,   1.20392E+06
C:/temp/Job-15.odb,Step-1,Increment      1: Step Time =    1.000,"P-15-1",          1279,       40.1931,       140.119,            0.,NA,NA,"",   1.06140E+06,   1.03169E+06,   1.03169E+06
C:/temp/Job-15.odb,Step-1,Increment      1: Step Time =    1.000,"P-15-1",          1280,       32.0326,       94.1176,            0.,NA,NA,"",   404.313E+03,   460.336E+03,   460.336E+03
C:/temp/Job-15.odb,Step-1,Increment      1: Step Time =    1.000,"P-15-1",          1281,       122.348,       157.472,            0.,NA,NA,"",   1.36540E+06,   1.39284E+06,   1.39284E+06
C:/temp/Job-15.odb,Step-1,Increment      1: Step Time =    1.000,"P-15-1",          1282,       47.4637,       134.640,            0.,NA,NA,"",   1.08288E+06,   1.01196E+06,   1.01196E+06
C:/temp/Job-15.odb,Step-1,Increment      1: Step Time =    1.000,"P-15-1",          1283,       163.008,       96.0545,            0.,NA,NA,"",   611.703E+03,   654.808E+03,   654.808E+03
C:/temp/Job-15.odb,Step-1,Increment      1: Step Time =    1.000,"P-15-1",          1284,       153.364,       147.931,            0.,NA,NA,"",   1.35225E+06,   1.25793E+06,   1.25793E+06
C:/temp/Job-15.odb,Step-1,Increment      1: Step Time =    1.000,"P-15-1",          1285,       155.438,       121.734,            0.,NA,NA,"",   1.08385E+06,   967.736E+03,   967.736E+03
C:/temp/Job-15.odb,Step-1,Increment      1: Step Time =    1.000,"P-15-1",          1286,       145.296,       151.345,            0.,NA,NA,"",   1.41602E+06,   1.32153E+06,   1.32153E+06
C:/temp/Job-15.odb,Step-1,Increment      1: Step Time =    1.000,"P-15-1",          1287,       59.7469,       69.4558,            0.,NA,NA,"",   1.21549E+06,   1.06929E+06,   1.06929E+06
C:/temp/Job-15.odb,Step-1,Increment      1: Step Time =    1.000,"P-15-1",          1288,       112.310,       37.2784,            0.,NA,NA,"",   1.23095E+06,   1.30527E+06,   1.30527E+06
C:/temp/Job-15.odb,Step-1,Increment      1: Step Time =    1.000,"P-15-1",          1289,       162.754,       111.837,            0.,NA,NA,"",   770.902E+03,   778.347E+03,   778.347E+03
C:/temp/Job-15.odb,Step-1,Increment      1: Step Time =    1.000,"P-15-1",          1290,       127.661,       38.8533,            0.,NA,NA,"",   1.33642E+06,   1.33407E+06,   1.33407E+06
C:/temp/Job-15.odb,Step-1,Increment      1: Step Time =    1.000,"P-15-1",          1291,       157.948,       129.731,            0.,NA,NA,"",   1.20487E+06,   1.10179E+06,   1.10179E+06
C:/temp/Job-15.odb,Step-1,Increment      1: Step Time =    1.000,"P-15-1",          1292,       68.2811,       160.687,            0.,NA,NA,"",   1.41999E+06,   1.38025E+06,   1.38025E+06
C:/temp/Job-15.odb,Step-1,Increment      1: Step Time =    1.000,"P-15-1",          1293,       162.552,       134.604,            0.,NA,NA,"",   1.20719E+06,   1.13557E+06,   1.13557E+06
C:/temp/Job-15.odb,Step-1,Increment      1: Step Time =    1.000,"P-15-1",          1294,       63.2926,       164.128,            0.,NA,NA,"",   1.38883E+06,   1.34302E+06,   1.34302E+06
C:/temp/Job-15.odb,Step-1,Increment      1: Step Time =    1.000,"P-15-1",          1295,       133.473,       37.7858,            0.,NA,NA,"",   1.33223E+06,   1.30247E+06,   1.30247E+06
C:/temp/Job-15.odb,Step-1,Increment      1: Step Time =    1.000,"P-15-1",          1296,       119.501,       153.603,            0.,NA,NA,"",   1.41595E+06,   1.46545E+06,   1.46545E+06
C:/temp/Job-15.odb,Step-1,Increment      1: Step Time =    1.000,"P-15-1",          1297,       156.415,       134.452,            0.,NA,NA,"",   1.28704E+06,   1.17130E+06,   1.17130E+06
C:/temp/Job-15.odb,Step-1,Increment      1: Step Time =    1.000,"P-15-1",          1298,       66.1077,       155.817,            0.,NA,NA,"",   1.45277E+06,   1.39525E+06,   1.39525E+06
C:/temp/Job-15.odb,Step-1,Increment      1: Step Time =    1.000,"P-15-1",          1299,       55.4653,       36.3549,            0.,NA,NA,"",   1.36839E+06,   1.31651E+06,   1.31651E+06
C:/temp/Job-15.odb,Step-1,Increment      1: Step Time =    1.000,"P-15-1",          1300,       163.161,       55.1499,            0.,NA,NA,"",   1.24068E+06,   1.17988E+06,   1.17988E+06
C:/temp/Job-15.odb,Step-1,Increment      1: Step Time =    1.000,"P-15-1",          1301,       145.620,       164.699,            0.,NA,NA,"",   1.27426E+06,   1.22659E+06,   1.22659E+06
C:/temp/Job-15.odb,Step-1,Increment      1: Step Time =    1.000,"P-15-1",          1302,       36.6195,       144.309,            0.,NA,NA,"",   1.07894E+06,   1.06455E+06,   1.06455E+06
C:/temp/Job-15.odb,Step-1,Increment      1: Step Time =    1.000,"P-15-1",          1303,       59.2226,       45.1281,            0.,NA,NA,"",   1.41866E+06,   1.34859E+06,   1.34859E+06
C:/temp/Job-15.odb,Step-1,Increment      1: Step Time =    1.000,"P-15-1",          1304,       153.909,       61.5092,            0.,NA,NA,"",   1.35431E+06,   1.23067E+06,   1.23067E+06
C:/temp/Job-15.odb,Step-1,Increment      1: Step Time =    1.000,"P-15-1",          1305,       45.6925,       138.600,            0.,NA,NA,"",   1.12365E+06,   1.06251E+06,   1.06251E+06
C:/temp/Job-15.odb,Step-1,Increment      1: Step Time =    1.000,"P-15-1",          1306,       152.388,       130.409,            0.,NA,NA,"",   1.29963E+06,   1.14560E+06,   1.14560E+06
C:/temp/Job-15.odb,Step-1,Increment      1: Step Time =    1.000,"P-15-1",          1307,       36.7515,       148.565,            0.,NA,NA,"",   1.13206E+06,   1.11650E+06,   1.11650E+06
C:/temp/Job-15.odb,Step-1,Increment      1: Step Time =    1.000,"P-15-1",          1308,       150.170,       164.615,            0.,NA,NA,"",   1.25338E+06,   1.20491E+06,   1.20491E+06
C:/temp/Job-15.odb,Step-1,Increment      1: Step Time =    1.000,"P-15-1",          1309,       162.770,       50.6250,            0.,NA,NA,"",   1.24030E+06,   1.18430E+06,   1.18430E+06
C:/temp/Job-15.odb,Step-1,Increment      1: Step Time =    1.000,"P-15-1",          1310,       51.2212,       36.8400,            0.,NA,NA,"",   1.34998E+06,   1.30044E+06,   1.30044E+06
C:/temp/Job-15.odb,Step-1,Increment      1: Step Time =    1.000,"P-15-1",          1311,       104.185,       152.153,            0.,NA,NA,"",   1.39474E+06,   1.52818E+06,   1.52818E+06
C:/temp/Job-15.odb,Step-1,Increment      1: Step Time =    1.000,"P-15-1",          1312,       148.542,       65.2987,            0.,NA,NA,"",   1.41329E+06,   1.24814E+06,   1.24814E+06
C:/temp/Job-15.odb,Step-1,Increment      1: Step Time =    1.000,"P-15-1",          1313,       43.2648,       14.3632,            0.,NA,NA,"",   1.30388E+06,   1.29311E+06,   1.29311E+06
C:/temp/Job-15.odb,Step-1,Increment      1: Step Time =    1.000,"P-15-1",          1314,       14.6545,       156.674,            0.,NA,NA,"",   1.00976E+06,   1.08204E+06,   1.08204E+06
C:/temp/Job-15.odb,Step-1,Increment      1: Step Time =    1.000,"P-15-1",          1315,       185.687,       43.3764,            0.,NA,NA,"",   1.01258E+06,   1.03985E+06,   1.03985E+06
C:/temp/Job-15.odb,Step-1,Increment      1: Step Time =    1.000,"P-15-1",          1316,       155.716,       184.995,            0.,NA,NA,"",   1.05789E+06,   1.04775E+06,   1.04775E+06
C:/temp/Job-15.odb,Step-1,Increment      1: Step Time =    1.000,"P-15-1",          1317,       56.5001,       154.552,            0.,NA,NA,"",   1.39177E+06,   1.32101E+06,   1.32101E+06
C:/temp/Job-15.odb,Step-1,Increment      1: Step Time =    1.000,"P-15-1",          1318,       61.1878,       75.7571,            0.,NA,NA,"",   1.04984E+06,   876.441E+03,   876.441E+03
C:/temp/Job-15.odb,Step-1,Increment      1: Step Time =    1.000,"P-15-1",          1319,       156.272,       145.649,            0.,NA,NA,"",   1.32437E+06,   1.23336E+06,   1.23336E+06
C:/temp/Job-15.odb,Step-1,Increment      1: Step Time =    1.000,"P-15-1",          1320,       43.6571,       60.3518,            0.,NA,NA,"",   1.10925E+06,   1.06025E+06,   1.06025E+06
C:/temp/Job-15.odb,Step-1,Increment      1: Step Time =    1.000,"P-15-1",          1321,       25.2447,       159.113,            0.,NA,NA,"",   1.13210E+06,   1.16112E+06,   1.16112E+06
C:/temp/Job-15.odb,Step-1,Increment      1: Step Time =    1.000,"P-15-1",          1322,       160.121,       172.745,            0.,NA,NA,"",   1.13321E+06,   1.10988E+06,   1.10988E+06
C:/temp/Job-15.odb,Step-1,Increment      1: Step Time =    1.000,"P-15-1",          1323,       39.8296,       23.4669,            0.,NA,NA,"",   1.31874E+06,   1.30285E+06,   1.30285E+06
C:/temp/Job-15.odb,Step-1,Increment      1: Step Time =    1.000,"P-15-1",          1324,       177.687,       40.6563,            0.,NA,NA,"",   1.07446E+06,   1.07658E+06,   1.07658E+06
C:/temp/Job-15.odb,Step-1,Increment      1: Step Time =    1.000,"P-15-1",          1325,       150.117,       150.853,            0.,NA,NA,"",   1.37273E+06,   1.28081E+06,   1.28081E+06
C:/temp/Job-15.odb,Step-1,Increment      1: Step Time =    1.000,"P-15-1",          1326,       130.697,       41.7326,            0.,NA,NA,"",   1.38621E+06,   1.36119E+06,   1.36119E+06
C:/temp/Job-15.odb,Step-1,Increment      1: Step Time =    1.000,"P-15-1",          1327,       50.3690,       139.959,            0.,NA,NA,"",   1.22232E+06,   1.13880E+06,   1.13880E+06
C:/temp/Job-15.odb,Step-1,Increment      1: Step Time =    1.000,"P-15-1",          1328,       64.4560,       47.4021,            0.,NA,NA,"",   1.45716E+06,   1.38702E+06,   1.38702E+06
C:/temp/Job-15.odb,Step-1,Increment      1: Step Time =    1.000,"P-15-1",          1329,       39.9668,       64.3916,            0.,NA,NA,"",   989.758E+03,   963.620E+03,   963.620E+03
C:/temp/Job-15.odb,Step-1,Increment      1: Step Time =    1.000,"P-15-1",          1330,       53.6461,       60.9361,            0.,NA,NA,"",   1.26297E+06,   1.16306E+06,   1.16306E+06
C:/temp/Job-15.odb,Step-1,Increment      1: Step Time =    1.000,"P-15-1",          1331,       36.4405,       153.014,            0.,NA,NA,"",   1.17546E+06,   1.16121E+06,   1.16121E+06
C:/temp/Job-15.odb,Step-1,Increment      1: Step Time =    1.000,"P-15-1",          1332,       154.571,       164.480,            0.,NA,NA,"",   1.22726E+06,   1.18214E+06,   1.18214E+06
C:/temp/Job-15.odb,Step-1,Increment      1: Step Time =    1.000,"P-15-1",          1333,       46.7669,       37.8272,            0.,NA,NA,"",   1.32224E+06,   1.27902E+06,   1.27902E+06
C:/temp/Job-15.odb,Step-1,Increment      1: Step Time =    1.000,"P-15-1",          1334,       162.296,       45.9990,            0.,NA,NA,"",   1.22995E+06,   1.18002E+06,   1.18002E+06
C:/temp/Job-15.odb,Step-1,Increment      1: Step Time =    1.000,"P-15-1",          1335,       50.3291,       149.640,            0.,NA,NA,"",   1.30951E+06,   1.24051E+06,   1.24051E+06
C:/temp/Job-15.odb,Step-1,Increment      1: Step Time =    1.000,"P-15-1",          1336,       151.479,       136.840,            0.,NA,NA,"",   1.38468E+06,   1.24273E+06,   1.24273E+06
C:/temp/Job-15.odb,Step-1,Increment      1: Step Time =    1.000,"P-15-1",          1337,       53.6939,       54.8417,            0.,NA,NA,"",   1.32553E+06,   1.23915E+06,   1.23915E+06
C:/temp/Job-15.odb,Step-1,Increment      1: Step Time =    1.000,"P-15-1",          1338,       47.4065,       59.3687,            0.,NA,NA,"",   1.18650E+06,   1.11679E+06,   1.11679E+06
C:/temp/Job-15.odb,Step-1,Increment      1: Step Time =    1.000,"P-15-1",          1339,       156.339,       150.941,            0.,NA,NA,"",   1.30499E+06,   1.22942E+06,   1.22942E+06
C:/temp/Job-15.odb,Step-1,Increment      1: Step Time =    1.000,"P-15-1",          1340,       159.354,       144.476,            0.,NA,NA,"",   1.28861E+06,   1.20824E+06,   1.20824E+06
C:/temp/Job-15.odb,Step-1,Increment      1: Step Time =    1.000,"P-15-1",          1341,       134.280,       44.3141,            0.,NA,NA,"",   1.42328E+06,   1.37330E+06,   1.37330E+06
C:/temp/Job-15.odb,Step-1,Increment      1: Step Time =    1.000,"P-15-1",          1342,       67.9214,       44.0005,            0.,NA,NA,"",   1.45336E+06,   1.40266E+06,   1.40266E+06
C:/temp/Job-15.odb,Step-1,Increment      1: Step Time =    1.000,"P-15-1",          1343,       145.307,       155.386,            0.,NA,NA,"",   1.37820E+06,   1.29986E+06,   1.29986E+06
C:/temp/Job-15.odb,Step-1,Increment      1: Step Time =    1.000,"P-15-1",          1344,       47.9846,       144.435,            0.,NA,NA,"",   1.23627E+06,   1.16927E+06,   1.16927E+06
C:/temp/Job-15.odb,Step-1,Increment      1: Step Time =    1.000,"P-15-1",          1345,       60.7680,       48.8741,            0.,NA,NA,"",   1.43724E+06,   1.35681E+06,   1.35681E+06
C:/temp/Job-15.odb,Step-1,Increment      1: Step Time =    1.000,"P-15-1",          1346,       154.021,       141.492,            0.,NA,NA,"",   1.36027E+06,   1.24624E+06,   1.24624E+06
C:/temp/Job-15.odb,Step-1,Increment      1: Step Time =    1.000,"P-15-1",          1347,       42.2244,       55.9215,            0.,NA,NA,"",   1.15128E+06,   1.10958E+06,   1.10958E+06
C:/temp/Job-15.odb,Step-1,Increment      1: Step Time =    1.000,"P-15-1",          1348,       29.6116,       160.682,            0.,NA,NA,"",   1.18394E+06,   1.19528E+06,   1.19528E+06
C:/temp/Job-15.odb,Step-1,Increment      1: Step Time =    1.000,"P-15-1",          1349,       159.781,       168.565,            0.,NA,NA,"",   1.16453E+06,   1.13416E+06,   1.13416E+06
C:/temp/Job-15.odb,Step-1,Increment      1: Step Time =    1.000,"P-15-1",          1350,       36.2968,       26.9771,            0.,NA,NA,"",   1.30114E+06,   1.29062E+06,   1.29062E+06
C:/temp/Job-15.odb,Step-1,Increment      1: Step Time =    1.000,"P-15-1",          1351,       170.520,       37.9362,            0.,NA,NA,"",   1.12711E+06,   1.10966E+06,   1.10966E+06
C:/temp/Job-15.odb,Step-1,Increment      1: Step Time =    1.000,"P-15-1",          1352,       139.831,       36.5360,            0.,NA,NA,"",   1.31071E+06,   1.26654E+06,   1.26654E+06
C:/temp/Job-15.odb,Step-1,Increment      1: Step Time =    1.000,"P-15-1",          1353,       163.085,       139.513,            0.,NA,NA,"",   1.22976E+06,   1.16249E+06,   1.16249E+06
C:/temp/Job-15.odb,Step-1,Increment      1: Step Time =    1.000,"P-15-1",          1354,       58.2068,       165.147,            0.,NA,NA,"",   1.37186E+06,   1.32284E+06,   1.32284E+06
C:/temp/Job-15.odb,Step-1,Increment      1: Step Time =    1.000,"P-15-1",          1355,       34.0047,       161.729,            0.,NA,NA,"",   1.22834E+06,   1.22366E+06,   1.22366E+06
C:/temp/Job-15.odb,Step-1,Increment      1: Step Time =    1.000,"P-15-1",          1356,       158.876,       164.400,            0.,NA,NA,"",   1.19946E+06,   1.16029E+06,   1.16029E+06
C:/temp/Job-15.odb,Step-1,Increment      1: Step Time =    1.000,"P-15-1",          1357,       40.9005,       33.6609,            0.,NA,NA,"",   1.29633E+06,   1.27157E+06,   1.27157E+06
C:/temp/Job-15.odb,Step-1,Increment      1: Step Time =    1.000,"P-15-1",          1358,       163.492,       36.3807,            0.,NA,NA,"",   1.17117E+06,   1.13982E+06,   1.13982E+06
C:/temp/Job-15.odb,Step-1,Increment      1: Step Time =    1.000,"P-15-1",          1359,       39.4674,       57.6328,            0.,NA,NA,"",   1.08968E+06,   1.06199E+06,   1.06199E+06
C:/temp/Job-15.odb,Step-1,Increment      1: Step Time =    1.000,"P-15-1",          1360,       155.271,       68.1316,            0.,NA,NA,"",   1.28503E+06,   1.15565E+06,   1.15565E+06
C:/temp/Job-15.odb,Step-1,Increment      1: Step Time =    1.000,"P-15-1",          1361,       152.538,       186.935,            0.,NA,NA,"",   1.04283E+06,   1.03452E+06,   1.03452E+06
C:/temp/Job-15.odb,Step-1,Increment      1: Step Time =    1.000,"P-15-1",          1362,       35.4637,       22.2923,            0.,NA,NA,"",   1.31459E+06,   1.30623E+06,   1.30623E+06
C:/temp/Job-15.odb,Step-1,Increment      1: Step Time =    1.000,"P-15-1",          1363,       23.6348,       162.530,            0.,NA,NA,"",   1.15426E+06,   1.18872E+06,   1.18872E+06
C:/temp/Job-15.odb,Step-1,Increment      1: Step Time =    1.000,"P-15-1",          1364,       160.110,       176.202,            0.,NA,NA,"",   1.11049E+06,   1.09187E+06,   1.09187E+06
C:/temp/Job-15.odb,Step-1,Increment      1: Step Time =    1.000,"P-15-1",          1365,       165.828,       129.624,            0.,NA,NA,"",   1.11832E+06,   1.07437E+06,   1.07437E+06
C:/temp/Job-15.odb,Step-1,Increment      1: Step Time =    1.000,"P-15-1",          1366,       66.9981,       167.646,            0.,NA,NA,"",   1.35894E+06,   1.32638E+06,   1.32638E+06
C:/temp/Job-15.odb,Step-1,Increment      1: Step Time =    1.000,"P-15-1",          1367,       52.2155,       155.351,            0.,NA,NA,"",   1.35556E+06,   1.29183E+06,   1.29183E+06
C:/temp/Job-15.odb,Step-1,Increment      1: Step Time =    1.000,"P-15-1",          1368,       57.2154,       48.1302,            0.,NA,NA,"",   1.40499E+06,   1.32566E+06,   1.32566E+06
C:/temp/Job-15.odb,Step-1,Increment      1: Step Time =    1.000,"P-15-1",          1369,       163.577,       148.777,            0.,NA,NA,"",   1.23445E+06,   1.18003E+06,   1.18003E+06
C:/temp/Job-15.odb,Step-1,Increment      1: Step Time =    1.000,"P-15-1",          1370,       163.454,       144.343,            0.,NA,NA,"",   1.23907E+06,   1.17803E+06,   1.17803E+06
C:/temp/Job-15.odb,Step-1,Increment      1: Step Time =    1.000,"P-15-1",          1371,       142.826,       39.6401,            0.,NA,NA,"",   1.33606E+06,   1.27827E+06,   1.27827E+06
C:/temp/Job-15.odb,Step-1,Increment      1: Step Time =    1.000,"P-15-1",          1372,       47.7383,       54.5515,            0.,NA,NA,"",   1.24192E+06,   1.17629E+06,   1.17629E+06
C:/temp/Job-15.odb,Step-1,Increment      1: Step Time =    1.000,"P-15-1",          1373,       34.8012,       18.2562,            0.,NA,NA,"",   1.32740E+06,   1.32205E+06,   1.32205E+06
C:/temp/Job-15.odb,Step-1,Increment      1: Step Time =    1.000,"P-15-1",          1374,       27.8610,       165.084,            0.,NA,NA,"",   1.21041E+06,   1.22644E+06,   1.22644E+06
C:/temp/Job-15.odb,Step-1,Increment      1: Step Time =    1.000,"P-15-1",          1375,       18.6420,       165.583,            0.,NA,NA,"",   1.14627E+06,   1.20019E+06,   1.20019E+06
C:/temp/Job-15.odb,Step-1,Increment      1: Step Time =    1.000,"P-15-1",          1376,       182.135,       34.6568,            0.,NA,NA,"",   1.03548E+06,   1.04535E+06,   1.04535E+06
C:/temp/Job-15.odb,Step-1,Increment      1: Step Time =    1.000,"P-15-1",          1377,       174.412,       36.6736,            0.,NA,NA,"",   1.09289E+06,   1.08594E+06,   1.08594E+06
C:/temp/Job-15.odb,Step-1,Increment      1: Step Time =    1.000,"P-15-1",          1378,       162.983,       177.376,            0.,NA,NA,"",   1.09441E+06,   1.07928E+06,   1.07928E+06
C:/temp/Job-15.odb,Step-1,Increment      1: Step Time =    1.000,"P-15-1",          1379,       165.448,       181.898,            0.,NA,NA,"",   1.05986E+06,   1.05137E+06,   1.05137E+06
C:/temp/Job-15.odb,Step-1,Increment      1: Step Time =    1.000,"P-15-1",          1380,       37.9002,       52.7358,            0.,NA,NA,"",   1.13362E+06,   1.11203E+06,   1.11203E+06
C:/temp/Job-15.odb,Step-1,Increment      1: Step Time =    1.000,"P-15-1",          1381,       159.636,       152.383,            0.,NA,NA,"",   1.26222E+06,   1.20117E+06,   1.20117E+06
C:/temp/Job-15.odb,Step-1,Increment      1: Step Time =    1.000,"P-15-1",          1382,       35.5838,       68.2601,            0.,NA,NA,"",   865.633E+03,   867.475E+03,   867.475E+03
C:/temp/Job-15.odb,Step-1,Increment      1: Step Time =    1.000,"P-15-1",          1383,       162.487,       164.136,            0.,NA,NA,"",   1.17654E+06,   1.14328E+06,   1.14328E+06
C:/temp/Job-15.odb,Step-1,Increment      1: Step Time =    1.000,"P-15-1",          1384,       32.1308,       164.944,            0.,NA,NA,"",   1.23985E+06,   1.24080E+06,   1.24080E+06
C:/temp/Job-15.odb,Step-1,Increment      1: Step Time =    1.000,"P-15-1",          1385,       169.770,       35.2794,            0.,NA,NA,"",   1.12135E+06,   1.10448E+06,   1.10448E+06
C:/temp/Job-15.odb,Step-1,Increment      1: Step Time =    1.000,"P-15-1",          1386,       35.3974,       33.0437,            0.,NA,NA,"",   1.26902E+06,   1.25935E+06,   1.25935E+06
C:/temp/Job-15.odb,Step-1,Increment      1: Step Time =    1.000,"P-15-1",          1387,       131.913,       48.3666,            0.,NA,NA,"",   1.48523E+06,   1.43285E+06,   1.43285E+06
C:/temp/Job-15.odb,Step-1,Increment      1: Step Time =    1.000,"P-15-1",          1388,       47.1806,       153.381,            0.,NA,NA,"",   1.29276E+06,   1.23914E+06,   1.23914E+06
C:/temp/Job-15.odb,Step-1,Increment      1: Step Time =    1.000,"P-15-1",          1389,       164.298,       27.4934,            0.,NA,NA,"",   1.11740E+06,   1.09820E+06,   1.09820E+06
C:/temp/Job-15.odb,Step-1,Increment      1: Step Time =    1.000,"P-15-1",          1390,       34.0732,       167.767,            0.,NA,NA,"",   1.26747E+06,   1.26278E+06,   1.26278E+06
C:/temp/Job-15.odb,Step-1,Increment      1: Step Time =    1.000,"P-15-1",          1391,       171.206,       165.722,            0.,NA,NA,"",   1.10674E+06,   1.09375E+06,   1.09375E+06
C:/temp/Job-15.odb,Step-1,Increment      1: Step Time =    1.000,"P-15-1",          1392,       30.7120,       34.7231,            0.,NA,NA,"",   1.23043E+06,   1.23670E+06,   1.23670E+06
C:/temp/Job-15.odb,Step-1,Increment      1: Step Time =    1.000,"P-15-1",          1393,       49.2724,       159.640,            0.,NA,NA,"",   1.33686E+06,   1.28528E+06,   1.28528E+06
C:/temp/Job-15.odb,Step-1,Increment      1: Step Time =    1.000,"P-15-1",          1394,       36.3000,       47.6426,            0.,NA,NA,"",   1.17154E+06,   1.15591E+06,   1.15591E+06
C:/temp/Job-15.odb,Step-1,Increment      1: Step Time =    1.000,"P-15-1",          1395,       146.305,       37.0557,            0.,NA,NA,"",   1.29497E+06,   1.24107E+06,   1.24107E+06
C:/temp/Job-15.odb,Step-1,Increment      1: Step Time =    1.000,"P-15-1",          1396,       140.114,       42.8741,            0.,NA,NA,"",   1.38880E+06,   1.32467E+06,   1.32467E+06
C:/temp/Job-15.odb,Step-1,Increment      1: Step Time =    1.000,"P-15-1",          1397,       36.1904,       56.0694,            0.,NA,NA,"",   1.06961E+06,   1.05642E+06,   1.05642E+06
C:/temp/Job-15.odb,Step-1,Increment      1: Step Time =    1.000,"P-15-1",          1398,       163.338,       160.895,            0.,NA,NA,"",   1.18687E+06,   1.15081E+06,   1.15081E+06
C:/temp/Job-15.odb,Step-1,Increment      1: Step Time =    1.000,"P-15-1",          1399,       38.5591,       163.926,            0.,NA,NA,"",   1.27486E+06,   1.25534E+06,   1.25534E+06
C:/temp/Job-15.odb,Step-1,Increment      1: Step Time =    1.000,"P-15-1",          1400,       158.959,       35.8230,            0.,NA,NA,"",   1.20169E+06,   1.16165E+06,   1.16165E+06
C:/temp/Job-15.odb,Step-1,Increment      1: Step Time =    1.000,"P-15-1",          1401,       36.2006,       39.0045,            0.,NA,NA,"",   1.23731E+06,   1.22391E+06,   1.22391E+06
C:/temp/Job-15.odb,Step-1,Increment      1: Step Time =    1.000,"P-15-1",          1402,       167.706,       153.375,            0.,NA,NA,"",   1.17691E+06,   1.14497E+06,   1.14497E+06
C:/temp/Job-15.odb,Step-1,Increment      1: Step Time =    1.000,"P-15-1",          1403,       48.3945,       47.0248,            0.,NA,NA,"",   1.30927E+06,   1.25010E+06,   1.25010E+06
C:/temp/Job-15.odb,Step-1,Increment      1: Step Time =    1.000,"P-15-1",          1404,       168.252,       27.7905,            0.,NA,NA,"",   1.09920E+06,   1.08509E+06,   1.08509E+06
C:/temp/Job-15.odb,Step-1,Increment      1: Step Time =    1.000,"P-15-1",          1405,       32.0045,       173.228,            0.,NA,NA,"",   1.29278E+06,   1.29366E+06,   1.29366E+06
C:/temp/Job-15.odb,Step-1,Increment      1: Step Time =    1.000,"P-15-1",          1406,       170.504,       168.951,            0.,NA,NA,"",   1.09774E+06,   1.08578E+06,   1.08578E+06
C:/temp/Job-15.odb,Step-1,Increment      1: Step Time =    1.000,"P-15-1",          1407,       28.6174,       30.6705,            0.,NA,NA,"",   1.25013E+06,   1.26198E+06,   1.26198E+06
C:/temp/Job-15.odb,Step-1,Increment      1: Step Time =    1.000,"P-15-1",          1408,       52.4646,       164.223,            0.,NA,NA,"",   1.35352E+06,   1.30483E+06,   1.30483E+06
C:/temp/Job-15.odb,Step-1,Increment      1: Step Time =    1.000,"P-15-1",          1409,       40.0338,       44.6084,            0.,NA,NA,"",   1.23349E+06,   1.20440E+06,   1.20440E+06
C:/temp/Job-15.odb,Step-1,Increment      1: Step Time =    1.000,"P-15-1",          1410,       143.594,       32.2757,            0.,NA,NA,"",   1.24853E+06,   1.20987E+06,   1.20987E+06
C:/temp/Job-15.odb,Step-1,Increment      1: Step Time =    1.000,"P-15-1",          1411,       145.261,       42.5204,            0.,NA,NA,"",   1.35665E+06,   1.28607E+06,   1.28607E+06
C:/temp/Job-15.odb,Step-1,Increment      1: Step Time =    1.000,"P-15-1",          1412,       36.0920,       43.8849,            0.,NA,NA,"",   1.20096E+06,   1.18621E+06,   1.18621E+06
C:/temp/Job-15.odb,Step-1,Increment      1: Step Time =    1.000,"P-15-1",          1413,       43.8526,       163.451,            0.,NA,NA,"",   1.30566E+06,   1.27139E+06,   1.27139E+06
C:/temp/Job-15.odb,Step-1,Increment      1: Step Time =    1.000,"P-15-1",          1414,       163.572,       156.927,            0.,NA,NA,"",   1.20174E+06,   1.16124E+06,   1.16124E+06
C:/temp/Job-15.odb,Step-1,Increment      1: Step Time =    1.000,"P-15-1",          1415,       171.474,       153.615,            0.,NA,NA,"",   1.13708E+06,   1.11993E+06,   1.11993E+06
C:/temp/Job-15.odb,Step-1,Increment      1: Step Time =    1.000,"P-15-1",          1416,       41.4273,       153.222,            0.,NA,NA,"",   1.23144E+06,   1.19728E+06,   1.19728E+06
C:/temp/Job-15.odb,Step-1,Increment      1: Step Time =    1.000,"P-15-1",          1417,       53.4750,       45.5762,            0.,NA,NA,"",   1.36667E+06,   1.29803E+06,   1.29803E+06
C:/temp/Job-15.odb,Step-1,Increment      1: Step Time =    1.000,"P-15-1",          1418,       141.592,       48.6334,            0.,NA,NA,"",   1.44581E+06,   1.35489E+06,   1.35489E+06
C:/temp/Job-15.odb,Step-1,Increment      1: Step Time =    1.000,"P-15-1",          1419,       145.011,       46.9424,            0.,NA,NA,"",   1.40828E+06,   1.31800E+06,   1.31800E+06
C:/temp/Job-15.odb,Step-1,Increment      1: Step Time =    1.000,"P-15-1",          1420,       165.293,       23.6410,            0.,NA,NA,"",   1.09175E+06,   1.07765E+06,   1.07765E+06
C:/temp/Job-15.odb,Step-1,Increment      1: Step Time =    1.000,"P-15-1",          1421,       175.227,       31.4907,            0.,NA,NA,"",   1.07152E+06,   1.06788E+06,   1.06788E+06
C:/temp/Job-15.odb,Step-1,Increment      1: Step Time =    1.000,"P-15-1",          1422,       32.7386,       176.770,            0.,NA,NA,"",   1.31334E+06,   1.31035E+06,   1.31035E+06
C:/temp/Job-15.odb,Step-1,Increment      1: Step Time =    1.000,"P-15-1",          1423,       29.5010,       174.828,            0.,NA,NA,"",   1.29586E+06,   1.30291E+06,   1.30291E+06
C:/temp/Job-15.odb,Step-1,Increment      1: Step Time =    1.000,"P-15-1",          1424,       174.832,       165.226,            0.,NA,NA,"",   1.08419E+06,   1.07866E+06,   1.07866E+06
C:/temp/Job-15.odb,Step-1,Increment      1: Step Time =    1.000,"P-15-1",          1425,       26.6312,       35.3725,            0.,NA,NA,"",   1.19842E+06,   1.22028E+06,   1.22028E+06
C:/temp/Job-15.odb,Step-1,Increment      1: Step Time =    1.000,"P-15-1",          1426,       29.2471,       24.9702,            0.,NA,NA,"",   1.29445E+06,   1.30226E+06,   1.30226E+06
C:/temp/Job-15.odb,Step-1,Increment      1: Step Time =    1.000,"P-15-1",          1427,       54.8564,       166.173,            0.,NA,NA,"",   1.35825E+06,   1.31105E+06,   1.31105E+06
C:/temp/Job-15.odb,Step-1,Increment      1: Step Time =    1.000,"P-15-1",          1428,       31.9433,       44.1795,            0.,NA,NA,"",   1.15846E+06,   1.16144E+06,   1.16144E+06
C:/temp/Job-15.odb,Step-1,Increment      1: Step Time =    1.000,"P-15-1",          1429,       47.1762,       168.019,            0.,NA,NA,"",   1.32626E+06,   1.29042E+06,   1.29042E+06
C:/temp/Job-15.odb,Step-1,Increment      1: Step Time =    1.000,"P-15-1",          1430,       50.0626,       44.9672,            0.,NA,NA,"",   1.33215E+06,   1.27197E+06,   1.27197E+06
C:/temp/Job-15.odb,Step-1,Increment      1: Step Time =    1.000,"P-15-1",          1431,       55.9094,       51.6564,            0.,NA,NA,"",   1.37274E+06,   1.28800E+06,   1.28800E+06
C:/temp/Job-15.odb,Step-1,Increment      1: Step Time =    1.000,"P-15-1",          1432,       151.258,       41.8339,            0.,NA,NA,"",   1.31088E+06,   1.24425E+06,   1.24425E+06
C:/temp/Job-15.odb,Step-1,Increment      1: Step Time =    1.000,"P-15-1",          1433,       160.038,       26.4649,            0.,NA,NA,"",   1.12934E+06,   1.10682E+06,   1.10682E+06
C:/temp/Job-15.odb,Step-1,Increment      1: Step Time =    1.000,"P-15-1",          1434,       172.283,       28.0525,            0.,NA,NA,"",   1.07919E+06,   1.07088E+06,   1.07088E+06
C:/temp/Job-15.odb,Step-1,Increment      1: Step Time =    1.000,"P-15-1",          1435,       42.6958,       171.142,            0.,NA,NA,"",   1.31296E+06,   1.28942E+06,   1.28942E+06
C:/temp/Job-15.odb,Step-1,Increment      1: Step Time =    1.000,"P-15-1",          1436,       27.1456,       173.783,            0.,NA,NA,"",   1.28302E+06,   1.29783E+06,   1.29783E+06
C:/temp/Job-15.odb,Step-1,Increment      1: Step Time =    1.000,"P-15-1",          1437,       173.414,       161.317,            0.,NA,NA,"",   1.10459E+06,   1.09494E+06,   1.09494E+06
C:/temp/Job-15.odb,Step-1,Increment      1: Step Time =    1.000,"P-15-1",          1438,       170.544,       173.034,            0.,NA,NA,"",   1.08262E+06,   1.07277E+06,   1.07277E+06
C:/temp/Job-15.odb,Step-1,Increment      1: Step Time =    1.000,"P-15-1",          1439,       27.0016,       39.4671,            0.,NA,NA,"",   1.16183E+06,   1.18394E+06,   1.18394E+06
C:/temp/Job-15.odb,Step-1,Increment      1: Step Time =    1.000,"P-15-1",          1440,       25.0079,       26.8846,            0.,NA,NA,"",   1.26711E+06,   1.28983E+06,   1.28983E+06
C:/temp/Job-15.odb,Step-1,Increment      1: Step Time =    1.000,"P-15-1",          1441,       56.8732,       161.959,            0.,NA,NA,"",   1.38084E+06,   1.32570E+06,   1.32570E+06
C:/temp/Job-15.odb,Step-1,Increment      1: Step Time =    1.000,"P-15-1",          1442,       27.3030,       44.0591,            0.,NA,NA,"",   1.11677E+06,   1.13899E+06,   1.13899E+06
C:/temp/Job-15.odb,Step-1,Increment      1: Step Time =    1.000,"P-15-1",          1443,       45.9299,       172.422,            0.,NA,NA,"",   1.32050E+06,   1.29273E+06,   1.29273E+06
C:/temp/Job-15.odb,Step-1,Increment      1: Step Time =    1.000,"P-15-1",          1444,       48.5709,       41.8872,            0.,NA,NA,"",   1.32603E+06,   1.27363E+06,   1.27363E+06
C:/temp/Job-15.odb,Step-1,Increment      1: Step Time =    1.000,"P-15-1",          1445,       23.6312,       172.815,            0.,NA,NA,"",   1.25562E+06,   1.28378E+06,   1.28378E+06
C:/temp/Job-15.odb,Step-1,Increment      1: Step Time =    1.000,"P-15-1",          1446,       170.933,       177.080,            0.,NA,NA,"",   1.06458E+06,   1.05746E+06,   1.05746E+06
C:/temp/Job-15.odb,Step-1,Increment      1: Step Time =    1.000,"P-15-1",          1447,       26.7530,       20.4690,            0.,NA,NA,"",   1.32248E+06,   1.33564E+06,   1.33564E+06
C:/temp/Job-15.odb,Step-1,Increment      1: Step Time =    1.000,"P-15-1",          1448,       176.374,       28.3339,            0.,NA,NA,"",   1.05810E+06,   1.05631E+06,   1.05631E+06
C:/temp/Job-15.odb,Step-1,Increment      1: Step Time =    1.000,"P-15-1",          1449,       174.576,       153.620,            0.,NA,NA,"",   1.10610E+06,   1.10081E+06,   1.10081E+06
C:/temp/Job-15.odb,Step-1,Increment      1: Step Time =    1.000,"P-15-1",          1450,       155.655,       26.9331,            0.,NA,NA,"",   1.15092E+06,   1.12381E+06,   1.12381E+06
C:/temp/Job-15.odb,Step-1,Increment      1: Step Time =    1.000,"P-15-1",          1451,       25.7159,       181.541,            0.,NA,NA,"",   1.33606E+06,   1.34852E+06,   1.34852E+06
C:/temp/Job-15.odb,Step-1,Increment      1: Step Time =    1.000,"P-15-1",          1452,       180.364,       173.694,            0.,NA,NA,"",   1.03401E+06,   1.03730E+06,   1.03730E+06
C:/temp/Job-15.odb,Step-1,Increment      1: Step Time =    1.000,"P-15-1",          1453,       19.6354,       25.3458,            0.,NA,NA,"",   1.25674E+06,   1.29932E+06,   1.29932E+06
C:/temp/Job-15.odb,Step-1,Increment      1: Step Time =    1.000,"P-15-1",          1454,       173.629,       19.1868,            0.,NA,NA,"",   1.04276E+06,   1.03952E+06,   1.03952E+06
C:/temp/Job-15.odb,Step-1,Increment      1: Step Time =    1.000,"P-15-1",          1455,       150.562,       36.2147,            0.,NA,NA,"",   1.26019E+06,   1.20984E+06,   1.20984E+06
C:/temp/Job-15.odb,Step-1,Increment      1: Step Time =    1.000,"P-15-1",          1456,       152.783,       46.8906,            0.,NA,NA,"",   1.33176E+06,   1.25203E+06,   1.25203E+06
C:/temp/Job-15.odb,Step-1,Increment      1: Step Time =    1.000,"P-15-1",          1457,       155.079,       35.7405,            0.,NA,NA,"",   1.22935E+06,   1.18337E+06,   1.18337E+06
C:/temp/Job-15.odb,Step-1,Increment      1: Step Time =    1.000,"P-15-1",          1458,       53.5497,       173.132,            0.,NA,NA,"",   1.32787E+06,   1.29340E+06,   1.29340E+06
C:/temp/Job-15.odb,Step-1,Increment      1: Step Time =    1.000,"P-15-1",          1459,       27.4777,       48.8688,            0.,NA,NA,"",   1.06447E+06,   1.08788E+06,   1.08788E+06
C:/temp/Job-15.odb,Step-1,Increment      1: Step Time =    1.000,"P-15-1",          1460,       58.0044,       169.157,            0.,NA,NA,"",   1.35199E+06,   1.31023E+06,   1.31023E+06
C:/temp/Job-15.odb,Step-1,Increment      1: Step Time =    1.000,"P-15-1",          1461,       154.978,       31.1784,            0.,NA,NA,"",   1.18964E+06,   1.15406E+06,   1.15406E+06
C:/temp/Job-15.odb,Step-1,Increment      1: Step Time =    1.000,"P-15-1",          1462,       29.8337,       181.344,            0.,NA,NA,"",   1.33101E+06,   1.33432E+06,   1.33432E+06
C:/temp/Job-15.odb,Step-1,Increment      1: Step Time =    1.000,"P-15-1",          1463,       180.059,       169.245,            0.,NA,NA,"",   1.04212E+06,   1.04653E+06,   1.04653E+06
C:/temp/Job-15.odb,Step-1,Increment      1: Step Time =    1.000,"P-15-1",          1464,       13.7230,       32.5957,            0.,NA,NA,"",   1.12277E+06,   1.19876E+06,   1.19876E+06
C:/temp/Job-15.odb,Step-1,Increment      1: Step Time =    1.000,"P-15-1",          1465,       169.362,       19.2009,            0.,NA,NA,"",   1.05564E+06,   1.04890E+06,   1.04890E+06
C:/temp/Job-15.odb,Step-1,Increment      1: Step Time =    1.000,"P-15-1",          1466,       26.6145,       16.6998,            0.,NA,NA,"",   1.34983E+06,   1.35958E+06,   1.35958E+06
C:/temp/Job-15.odb,Step-1,Increment      1: Step Time =    1.000,"P-15-1",          1467,       17.9908,       175.642,            0.,NA,NA,"",   1.25602E+06,   1.30499E+06,   1.30499E+06
C:/temp/Job-15.odb,Step-1,Increment      1: Step Time =    1.000,"P-15-1",          1468,       181.941,       24.8489,            0.,NA,NA,"",   1.02611E+06,   1.03031E+06,   1.03031E+06
C:/temp/Job-15.odb,Step-1,Increment      1: Step Time =    1.000,"P-15-1",          1469,       175.052,       182.116,            0.,NA,NA,"",   1.03403E+06,   1.03230E+06,   1.03230E+06
C:/temp/Job-15.odb,Step-1,Increment      1: Step Time =    1.000,"P-15-1",          1470,       33.7514,       180.344,            0.,NA,NA,"",   1.32414E+06,   1.32019E+06,   1.32019E+06
C:/temp/Job-15.odb,Step-1,Increment      1: Step Time =    1.000,"P-15-1",          1471,       179.351,       164.768,            0.,NA,NA,"",   1.05350E+06,   1.05820E+06,   1.05820E+06
C:/temp/Job-15.odb,Step-1,Increment      1: Step Time =    1.000,"P-15-1",          1472,       17.9774,       38.1482,            0.,NA,NA,"",   1.09723E+06,   1.15642E+06,   1.15642E+06
C:/temp/Job-15.odb,Step-1,Increment      1: Step Time =    1.000,"P-15-1",          1473,       14.1736,       28.0072,            0.,NA,NA,"",   1.18274E+06,   1.25438E+06,   1.25438E+06
C:/temp/Job-15.odb,Step-1,Increment      1: Step Time =    1.000,"P-15-1",          1474,       165.344,       19.5104,            0.,NA,NA,"",   1.06860E+06,   1.05861E+06,   1.05861E+06
C:/temp/Job-15.odb,Step-1,Increment      1: Step Time =    1.000,"P-15-1",          1475,       180.444,       183.167,            0.,NA,NA,"",   1.01905E+06,   1.02042E+06,   1.02042E+06
C:/temp/Job-15.odb,Step-1,Increment      1: Step Time =    1.000,"P-15-1",          1476,       183.102,       19.4815,            0.,NA,NA,"",   1.01644E+06,   1.01959E+06,   1.01959E+06
C:/temp/Job-15.odb,Step-1,Increment      1: Step Time =    1.000,"P-15-1",          1477,       16.6860,       180.837,            0.,NA,NA,"",   1.32004E+06,   1.36738E+06,   1.36738E+06
C:/temp/Job-15.odb,Step-1,Increment      1: Step Time =    1.000,"P-15-1",          1478,       21.9692,       11.1508,            0.,NA,NA,"",   1.40444E+06,   1.41407E+06,   1.41407E+06
C:/temp/Job-15.odb,Step-1,Increment      1: Step Time =    1.000,"P-15-1",          1479,       186.164,       30.0433,            0.,NA,NA,"",   1.01333E+06,   1.02445E+06,   1.02445E+06
C:/temp/Job-15.odb,Step-1,Increment      1: Step Time =    1.000,"P-15-1",          1480,       169.863,       186.194,            0.,NA,NA,"",   1.03166E+06,   1.02848E+06,   1.02848E+06
C:/temp/Job-15.odb,Step-1,Increment      1: Step Time =    1.000,"P-15-1",          1481,       29.6429,       14.1727,            0.,NA,NA,"",   1.35334E+06,   1.35601E+06,   1.35601E+06
C:/temp/Job-15.odb,Step-1,Increment      1: Step Time =    1.000,"P-15-1",          1482,       14.0566,       170.147,            0.,NA,NA,"",   1.15954E+06,   1.23284E+06,   1.23284E+06
C:/temp/Job-15.odb,Step-1,Increment      1: Step Time =    1.000,"P-15-1",          1483,       174.565,       186.566,            0.,NA,NA,"",   1.02305E+06,   1.02187E+06,   1.02187E+06
C:/temp/Job-15.odb,Step-1,Increment      1: Step Time =    1.000,"P-15-1",          1484,       180.426,       178.268,            0.,NA,NA,"",   1.02705E+06,   1.02917E+06,   1.02917E+06
C:/temp/Job-15.odb,Step-1,Increment      1: Step Time =    1.000,"P-15-1",          1485,       178.167,       19.3280,            0.,NA,NA,"",   1.02962E+06,   1.02984E+06,   1.02984E+06
C:/temp/Job-15.odb,Step-1,Increment      1: Step Time =    1.000,"P-15-1",          1486,       186.501,       25.3896,            0.,NA,NA,"",   1.01134E+06,   1.01889E+06,   1.01889E+06
C:/temp/Job-15.odb,Step-1,Increment      1: Step Time =    1.000,"P-15-1",          1487,       21.4038,       181.253,            0.,NA,NA,"",   1.33421E+06,   1.36057E+06,   1.36057E+06
C:/temp/Job-15.odb,Step-1,Increment      1: Step Time =    1.000,"P-15-1",          1488,       13.5242,       174.844,            0.,NA,NA,"",   1.21664E+06,   1.28891E+06,   1.28891E+06
C:/temp/Job-15.odb,Step-1,Increment      1: Step Time =    1.000,"P-15-1",          1489,       25.1792,       12.1673,            0.,NA,NA,"",   1.38428E+06,   1.39080E+06,   1.39080E+06
C:/temp/Job-15.odb,Step-1,Increment      1: Step Time =    1.000,"P-15-1",          1490,       20.4585,       21.5246,            0.,NA,NA,"",   1.30317E+06,   1.33604E+06,   1.33604E+06
C:/temp/Job-15.odb,Step-1,Increment      1: Step Time =    1.000,"P-15-1",          1491,       184.178,       164.218,            0.,NA,NA,"",   1.02380E+06,   1.03799E+06,   1.03799E+06
C:/temp/Job-15.odb,Step-1,Increment      1: Step Time =    1.000,"P-15-1",          1492,       34.9231,       184.313,            0.,NA,NA,"",   1.32969E+06,   1.32548E+06,   1.32548E+06
C:/temp/Job-15.odb,Step-1,Increment      1: Step Time =    1.000,"P-15-1",          1493,       164.798,       15.1488,            0.,NA,NA,"",   1.04715E+06,   1.04041E+06,   1.04041E+06
C:/temp/Job-15.odb,Step-1,Increment      1: Step Time =    1.000,"P-15-1",          1494,       13.4644,       37.2578,            0.,NA,NA,"",   1.06759E+06,   1.14533E+06,   1.14533E+06
C:/temp/Job-15.odb,Step-1,Increment      1: Step Time =    1.000,"P-15-1",          1495,       39.5513,       182.090,            0.,NA,NA,"",   1.31797E+06,   1.30734E+06,   1.30734E+06
C:/temp/Job-15.odb,Step-1,Increment      1: Step Time =    1.000,"P-15-1",          1496,       182.860,       159.244,            0.,NA,NA,"",   1.03331E+06,   1.04980E+06,   1.04980E+06
C:/temp/Job-15.odb,Step-1,Increment      1: Step Time =    1.000,"P-15-1",          1497,       17.8745,       42.7132,            0.,NA,NA,"",   1.04554E+06,   1.10615E+06,   1.10615E+06
C:/temp/Job-15.odb,Step-1,Increment      1: Step Time =    1.000,"P-15-1",          1498,       160.363,       16.4704,            0.,NA,NA,"",   1.06267E+06,   1.05256E+06,   1.05256E+06
C:/temp/Job-15.odb,Step-1,Increment      1: Step Time =    1.000,"P-15-1",          1499,       35.7843,       188.997,            0.,NA,NA,"",   1.33277E+06,   1.32927E+06,   1.32927E+06
C:/temp/Job-15.odb,Step-1,Increment      1: Step Time =    1.000,"P-15-1",          1500,       189.231,       163.885,            0.,NA,NA,"",   999.850E+03,   1.02039E+06,   1.02039E+06
C:/temp/Job-15.odb,Step-1,Increment      1: Step Time =    1.000,"P-15-1",          1501,       8.94659,       36.4123,            0.,NA,NA,"",   1.03689E+06,   1.13251E+06,   1.13251E+06
C:/temp/Job-15.odb,Step-1,Increment      1: Step Time =    1.000,"P-15-1",          1502,       164.219,       10.4880,            0.,NA,NA,"",   1.02574E+06,   1.02200E+06,   1.02200E+06
C:/temp/Job-15.odb,Step-1,Increment      1: Step Time =    1.000,"P-15-1",          1503,       14.8681,       23.6139,            0.,NA,NA,"",   1.24579E+06,   1.30974E+06,   1.30974E+06
C:/temp/Job-15.odb,Step-1,Increment      1: Step Time =    1.000,"P-15-1",          1504,       186.313,       34.5930,            0.,NA,NA,"",   1.01322E+06,   1.02920E+06,   1.02920E+06
C:/temp/Job-15.odb,Step-1,Increment      1: Step Time =    1.000,"P-15-1",          1505,       165.239,       186.117,            0.,NA,NA,"",   1.03989E+06,   1.03448E+06,   1.03448E+06
C:/temp/Job-15.odb,Step-1,Increment      1: Step Time =    1.000,"P-15-1",          1506,       34.5324,       13.8385,            0.,NA,NA,"",   1.33448E+06,   1.33088E+06,   1.33088E+06
C:/temp/Job-15.odb,Step-1,Increment      1: Step Time =    1.000,"P-15-1",          1507,       14.0957,       165.491,            0.,NA,NA,"",   1.10663E+06,   1.18049E+06,   1.18049E+06
C:/temp/Job-15.odb,Step-1,Increment      1: Step Time =    1.000,"P-15-1",          1508,       186.154,       14.5611,            0.,NA,NA,"",   1.00671E+06,   1.00917E+06,   1.00917E+06
C:/temp/Job-15.odb,Step-1,Increment      1: Step Time =    1.000,"P-15-1",          1509,       185.400,       186.159,            0.,NA,NA,"",   1.00760E+06,   1.00958E+06,   1.00958E+06
C:/temp/Job-15.odb,Step-1,Increment      1: Step Time =    1.000,"P-15-1",          1510,       17.4810,       15.7674,            0.,NA,NA,"",   1.37466E+06,   1.40802E+06,   1.40802E+06
C:/temp/Job-15.odb,Step-1,Increment      1: Step Time =    1.000,"P-15-1",          1511,       13.6904,       185.597,            0.,NA,NA,"",   1.39169E+06,   1.44044E+06,   1.44044E+06
C:/temp/Job-15.odb,Step-1,Increment      1: Step Time =    1.000,"P-15-1",          1512,       25.6387,       8.36148,            0.,NA,NA,"",   1.38950E+06,   1.39196E+06,   1.39196E+06
C:/temp/Job-15.odb,Step-1,Increment      1: Step Time =    1.000,"P-15-1",          1513,       191.105,       25.4391,            0.,NA,NA,"",   1.00066E+06,   1.00924E+06,   1.00924E+06
C:/temp/Job-15.odb,Step-1,Increment      1: Step Time =    1.000,"P-15-1",          1514,       8.92493,       174.653,            0.,NA,NA,"",   1.16855E+06,   1.26521E+06,   1.26521E+06
C:/temp/Job-15.odb,Step-1,Increment      1: Step Time =    1.000,"P-15-1",          1515,       174.517,       191.094,            0.,NA,NA,"",   1.01274E+06,   1.01208E+06,   1.01208E+06
C:/temp/Job-15.odb,Step-1,Increment      1: Step Time =    1.000,"P-15-1",          1516,       185.502,       182.837,            0.,NA,NA,"",   1.00995E+06,   1.01286E+06,   1.01286E+06
C:/temp/Job-15.odb,Step-1,Increment      1: Step Time =    1.000,"P-15-1",          1517,       182.831,       14.4222,            0.,NA,NA,"",   1.01134E+06,   1.01319E+06,   1.01319E+06
C:/temp/Job-15.odb,Step-1,Increment      1: Step Time =    1.000,"P-15-1",          1518,       16.9450,       185.791,            0.,NA,NA,"",   1.39142E+06,   1.42279E+06,   1.42279E+06
C:/temp/Job-15.odb,Step-1,Increment      1: Step Time =    1.000,"P-15-1",          1519,       15.8817,       19.3885,            0.,NA,NA,"",   1.31422E+06,   1.36489E+06,   1.36489E+06
C:/temp/Job-15.odb,Step-1,Increment      1: Step Time =    1.000,"P-15-1",          1520,       190.910,       34.7552,            0.,NA,NA,"",   994.257E+03,   1.01448E+06,   1.01448E+06
C:/temp/Job-15.odb,Step-1,Increment      1: Step Time =    1.000,"P-15-1",          1521,       165.072,       190.763,            0.,NA,NA,"",   1.02028E+06,   1.01759E+06,   1.01759E+06
C:/temp/Job-15.odb,Step-1,Increment      1: Step Time =    1.000,"P-15-1",          1522,       34.7026,       9.12330,            0.,NA,NA,"",   1.33915E+06,   1.33677E+06,   1.33677E+06
C:/temp/Job-15.odb,Step-1,Increment      1: Step Time =    1.000,"P-15-1",          1523,       9.27732,       165.279,            0.,NA,NA,"",   1.05933E+06,   1.15380E+06,   1.15380E+06
C:/temp/Job-15.odb,Step-1,Increment      1: Step Time =    1.000,"P-15-1",          1524,       17.7916,       47.2964,            0.,NA,NA,"",   992.681E+03,   1.05420E+06,   1.05420E+06
C:/temp/Job-15.odb,Step-1,Increment      1: Step Time =    1.000,"P-15-1",          1525,       154.302,       16.2717,            0.,NA,NA,"",   1.06726E+06,   1.05547E+06,   1.05547E+06
C:/temp/Job-15.odb,Step-1,Increment      1: Step Time =    1.000,"P-15-1",          1526,       45.9670,       182.894,            0.,NA,NA,"",   1.29986E+06,   1.28520E+06,   1.28520E+06
C:/temp/Job-15.odb,Step-1,Increment      1: Step Time =    1.000,"P-15-1",          1527,       185.048,       153.171,            0.,NA,NA,"",   1.01167E+06,   1.04364E+06,   1.04364E+06
C:/temp/Job-15.odb,Step-1,Increment      1: Step Time =    1.000,"P-15-1",          1528,       183.796,       9.95465,            0.,NA,NA,"",   1.00593E+06,   1.00692E+06,   1.00692E+06
C:/temp/Job-15.odb,Step-1,Increment      1: Step Time =    1.000,"P-15-1",          1529,       189.980,       183.767,            0.,NA,NA,"",   1.00360E+06,   1.00646E+06,   1.00646E+06
C:/temp/Job-15.odb,Step-1,Increment      1: Step Time =    1.000,"P-15-1",          1530,       16.0446,       190.164,            0.,NA,NA,"",   1.44832E+06,   1.46769E+06,   1.46769E+06
C:/temp/Job-15.odb,Step-1,Increment      1: Step Time =    1.000,"P-15-1",          1531,       10.8777,       17.1631,            0.,NA,NA,"",   1.31073E+06,   1.38709E+06,   1.38709E+06
C:/temp/Job-15.odb,Step-1,Increment      1: Step Time =    1.000,"P-15-1",          1532,       153.803,       22.2025,            0.,NA,NA,"",   1.11685E+06,   1.09660E+06,   1.09660E+06
C:/temp/Job-15.odb,Step-1,Increment      1: Step Time =    1.000,"P-15-1",          1533,       148.711,       132.123,            0.,NA,NA,"",   1.38759E+06,   1.21164E+06,   1.21164E+06
C:/temp/Job-15.odb,Step-1,Increment      1: Step Time =    1.000,"P-15-1",          1534,       46.7876,       148.754,            0.,NA,NA,"",   1.25498E+06,   1.19825E+06,   1.19825E+06
C:/temp/Job-15.odb,Step-1,Increment      1: Step Time =    1.000,"P-15-1",          1535,       142.887,       138.552,            0.,NA,NA,"",   1.51796E+06,   1.35499E+06,   1.35499E+06
C:/temp/Job-15.odb,Step-1,Increment      1: Step Time =    1.000,"P-15-1",          1536,       82.1349,       159.944,            0.,NA,NA,"",   1.37999E+06,   1.40891E+06,   1.40891E+06
C:/temp/Job-15.odb,Step-1,Increment      1: Step Time =    1.000,"P-15-1",          1537,       91.3721,       19.0553,            0.,NA,NA,"",   1.07094E+06,   1.09489E+06,   1.09489E+06
C:/temp/Job-15.odb,Step-1,Increment      1: Step Time =    1.000,"P-15-1",          1538,       19.1967,       109.429,            0.,NA,NA,"",   475.521E+03,   544.063E+03,   544.063E+03
C:/temp/Job-15.odb,Step-1,Increment      1: Step Time =    1.000,"P-15-1",          1539,       180.970,       90.4117,            0.,NA,NA,"",   814.109E+03,   916.837E+03,   916.837E+03
C:/temp/Job-15.odb,Step-1,Increment      1: Step Time =    1.000,"P-15-1",          1540,       110.840,       179.217,            0.,NA,NA,"",   1.04261E+06,   1.07584E+06,   1.07584E+06
C:/temp/Job-15.odb,Step-1,Increment      1: Step Time =    1.000,"P-15-1",          1541,       174.222,       9.70592,            0.,NA,NA,"",   1.01450E+06,   1.01376E+06,   1.01376E+06
C:/temp/Job-15.odb,Step-1,Increment      1: Step Time =    1.000,"P-15-1",          1542,       9.51702,       26.8154,            0.,NA,NA,"",   1.15397E+06,   1.24803E+06,   1.24803E+06
C:/temp/Job-15.odb,Step-1,Increment      1: Step Time =    1.000,"P-15-1",          1543,       190.081,       174.099,            0.,NA,NA,"",   1.00327E+06,   1.01194E+06,   1.01194E+06
C:/temp/Job-15.odb,Step-1,Increment      1: Step Time =    1.000,"P-15-1",          1544,       25.6044,       190.347,            0.,NA,NA,"",   1.38457E+06,   1.38834E+06,   1.38834E+06
C:/temp/Job-15.odb,Step-1,Increment      1: Step Time =    1.000,"P-15-1",          1545,       160.534,       185.637,            0.,NA,NA,"",   1.04896E+06,   1.04107E+06,   1.04107E+06
C:/temp/Job-15.odb,Step-1,Increment      1: Step Time =    1.000,"P-15-1",          1546,       14.3513,       160.922,            0.,NA,NA,"",   1.05579E+06,   1.12910E+06,   1.12910E+06
C:/temp/Job-15.odb,Step-1,Increment      1: Step Time =    1.000,"P-15-1",          1547,       186.131,       39.1272,            0.,NA,NA,"",   1.01272E+06,   1.03437E+06,   1.03437E+06
C:/temp/Job-15.odb,Step-1,Increment      1: Step Time =    1.000,"P-15-1",          1548,       39.0629,       13.9453,            0.,NA,NA,"",   1.31891E+06,   1.31120E+06,   1.31120E+06
C:/temp/Job-15.odb,Step-1,Increment      1: Step Time =    1.000,"P-15-1",          1549,       154.266,       159.803,            0.,NA,NA,"",   1.26899E+06,   1.21148E+06,   1.21148E+06
C:/temp/Job-15.odb,Step-1,Increment      1: Step Time =    1.000,"P-15-1",          1550,       155.330,       90.5443,            0.,NA,NA,"",   663.456E+03,   623.834E+03,   623.834E+03
C:/temp/Job-15.odb,Step-1,Increment      1: Step Time =    1.000,"P-15-1",          1551,       153.798,       51.1684,            0.,NA,NA,"",   1.34492E+06,   1.25414E+06,   1.25414E+06
C:/temp/Job-15.odb,Step-1,Increment      1: Step Time =    1.000,"P-15-1",          1552,       108.515,       149.474,            0.,NA,NA,"",   1.46951E+06,   1.60361E+06,   1.60361E+06
C:/temp/Job-15.odb,Step-1,Increment      1: Step Time =    1.000,"P-15-1",          1553,       35.7997,       111.837,            0.,NA,NA,"",   471.835E+03,   513.641E+03,   513.641E+03
C:/temp/Job-15.odb,Step-1,Increment      1: Step Time =    1.000,"P-15-1",          1554,       157.546,       46.0173,            0.,NA,NA,"",   1.27943E+06,   1.21437E+06,   1.21437E+06
C:/temp/Job-15.odb,Step-1,Increment      1: Step Time =    1.000,"P-15-1",          1555,       9.07698,       183.721,            0.,NA,NA,"",   1.31620E+06,   1.40161E+06,   1.40161E+06
C:/temp/Job-15.odb,Step-1,Increment      1: Step Time =    1.000,"P-15-1",          1556,       17.0178,       9.38617,            0.,NA,NA,"",   1.44034E+06,   1.45566E+06,   1.45566E+06
C:/temp/Job-15.odb,Step-1,Increment      1: Step Time =    1.000,"P-15-1",          1557,       183.629,       190.851,            0.,NA,NA,"",   1.00517E+06,   1.00606E+06,   1.00606E+06
C:/temp/Job-15.odb,Step-1,Increment      1: Step Time =    1.000,"P-15-1",          1558,       190.847,       16.3552,            0.,NA,NA,"",   1.00275E+06,   1.00548E+06,   1.00548E+06
C:/temp/Job-15.odb,Step-1,Increment      1: Step Time =    1.000,"P-15-1",          1559,       55.8084,       119.696,            0.,NA,NA,"",   819.887E+03,   679.823E+03,   679.823E+03
C:/temp/Job-15.odb,Step-1,Increment      1: Step Time =    1.000,"P-15-1",          1560,       116.996,       149.328,            0.,NA,NA,"",   1.48913E+06,   1.56334E+06,   1.56334E+06
C:/temp/Job-15.odb,Step-1,Increment      1: Step Time =    1.000,"P-15-1",          1561,       144.430,       66.0117,            0.,NA,NA,"",   1.46754E+06,   1.28309E+06,   1.28309E+06
C:/temp/Job-15.odb,Step-1,Increment      1: Step Time =    1.000,"P-15-1",          1562,       61.2656,       97.8504,            0.,NA,NA,"",   341.664E+03,  -338.768E+03,  -338.768E+03
C:/temp/Job-15.odb,Step-1,Increment      1: Step Time =    1.000,"P-15-1",          1563,       187.141,       58.2492,            0.,NA,NA,"",   976.438E+03,   1.03801E+06,   1.03801E+06
C:/temp/Job-15.odb,Step-1,Increment      1: Step Time =    1.000,"P-15-1",          1564,       58.1824,       12.8755,            0.,NA,NA,"",   1.23195E+06,   1.21981E+06,   1.21981E+06
C:/temp/Job-15.odb,Step-1,Increment      1: Step Time =    1.000,"P-15-1",          1565,       141.960,       187.522,            0.,NA,NA,"",   1.03042E+06,   1.02286E+06,   1.02286E+06
C:/temp/Job-15.odb,Step-1,Increment      1: Step Time =    1.000,"P-15-1",          1566,       12.7697,       141.757,            0.,NA,NA,"",   827.855E+03,   903.794E+03,   903.794E+03
C:/temp/Job-15.odb,Step-1,Increment      1: Step Time =    1.000,"P-15-1",          1567,       48.1008,       10.1754,            0.,NA,NA,"",   1.27140E+06,   1.26377E+06,   1.26377E+06
C:/temp/Job-15.odb,Step-1,Increment      1: Step Time =    1.000,"P-15-1",          1568,       189.860,       48.1498,            0.,NA,NA,"",   978.773E+03,   1.02559E+06,   1.02559E+06
C:/temp/Job-15.odb,Step-1,Increment      1: Step Time =    1.000,"P-15-1",          1569,       151.869,       190.244,            0.,NA,NA,"",   1.01944E+06,   1.01391E+06,   1.01391E+06
C:/temp/Job-15.odb,Step-1,Increment      1: Step Time =    1.000,"P-15-1",          1570,       10.2063,       151.875,            0.,NA,NA,"",   923.029E+03,   1.00906E+06,   1.00906E+06
C:/temp/Job-15.odb,Step-1,Increment      1: Step Time =    1.000,"P-15-1",          1571,       113.031,       151.754,            0.,NA,NA,"",   1.42381E+06,   1.52526E+06,   1.52526E+06
C:/temp/Job-15.odb,Step-1,Increment      1: Step Time =    1.000,"P-15-1",          1572,       154.079,       154.644,            0.,NA,NA,"",   1.30734E+06,   1.23548E+06,   1.23548E+06
C:/temp/Job-15.odb,Step-1,Increment      1: Step Time =    1.000,"P-15-1",          1573,       153.545,       55.3713,            0.,NA,NA,"",   1.36309E+06,   1.25699E+06,   1.25699E+06
C:/temp/Job-15.odb,Step-1,Increment      1: Step Time =    1.000,"P-15-1",          1574,       121.530,       132.280,            0.,NA,NA,"",   1.77134E+06,   1.78454E+06,   1.78454E+06
C:/temp/Job-15.odb,Step-1,Increment      1: Step Time =    1.000,"P-15-1",          1575,       136.927,       112.250,            0.,NA,NA,"",   763.728E+03,  -235.643E+03,  -235.643E+03
C:/temp/Job-15.odb,Step-1,Increment      1: Step Time =    1.000,"P-15-1",          1576,       43.8462,       9.57294,            0.,NA,NA,"",   1.29155E+06,   1.28579E+06,   1.28579E+06
C:/temp/Job-15.odb,Step-1,Increment      1: Step Time =    1.000,"P-15-1",          1577,       8.72871,       50.7980,            0.,NA,NA,"",   883.439E+03,   972.892E+03,   972.892E+03
C:/temp/Job-15.odb,Step-1,Increment      1: Step Time =    1.000,"P-15-1",          1578,       190.459,       43.9078,            0.,NA,NA,"",   981.838E+03,   1.02042E+06,   1.02042E+06
C:/temp/Job-15.odb,Step-1,Increment      1: Step Time =    1.000,"P-15-1",          1579,       148.754,       8.84540,            0.,NA,NA,"",   1.00894E+06,   1.00441E+06,   1.00441E+06
C:/temp/Job-15.odb,Step-1,Increment      1: Step Time =    1.000,"P-15-1",          1580,       155.945,       190.431,            0.,NA,NA,"",   1.02027E+06,   1.01569E+06,   1.01569E+06
C:/temp/Job-15.odb,Step-1,Increment      1: Step Time =    1.000,"P-15-1",          1581,       191.452,       148.824,            0.,NA,NA,"",   960.770E+03,   1.01842E+06,   1.01842E+06
C:/temp/Job-15.odb,Step-1,Increment      1: Step Time =    1.000,"P-15-1",          1582,       9.68803,       156.148,            0.,NA,NA,"",   963.472E+03,   1.05342E+06,   1.05342E+06
C:/temp/Job-15.odb,Step-1,Increment      1: Step Time =    1.000,"P-15-1",          1583,       51.5586,       190.759,            0.,NA,NA,"",   1.24771E+06,   1.24147E+06,   1.24147E+06
C:/temp/Job-15.odb,Step-1,Increment      1: Step Time =    1.000,"P-15-1",          1584,       58.4397,       111.424,            0.,NA,NA,"",   499.478E+03,   158.523E+03,   158.523E+03
C:/temp/Job-15.odb,Step-1,Increment      1: Step Time =    1.000,"P-15-1",          1585,       61.9769,       106.398,            0.,NA,NA,"",   400.072E+03,  -358.848E+03,  -358.848E+03
C:/temp/Job-15.odb,Step-1,Increment      1: Step Time =    1.000,"P-15-1",          1586,       60.9420,       93.2653,            0.,NA,NA,"",   392.901E+03,  -325.655E+03,  -325.655E+03
C:/temp/Job-15.odb,Step-1,Increment      1: Step Time =    1.000,"P-15-1",          1587,       69.7685,       70.7912,            0.,NA,NA,"",   1.29260E+06,   1.17022E+06,   1.17022E+06
C:/temp/Job-15.odb,Step-1,Increment      1: Step Time =    1.000,"P-15-1",          1588,       12.8539,       182.568,            0.,NA,NA,"",   1.33292E+06,   1.39611E+06,   1.39611E+06
C:/temp/Job-15.odb,Step-1,Increment      1: Step Time =    1.000,"P-15-1",          1589,       21.1506,       185.873,            0.,NA,NA,"",   1.37985E+06,   1.39822E+06,   1.39822E+06
C:/temp/Job-15.odb,Step-1,Increment      1: Step Time =    1.000,"P-15-1",          1590,       13.3182,       41.9345,            0.,NA,NA,"",   1.01477E+06,   1.09285E+06,   1.09285E+06
C:/temp/Job-15.odb,Step-1,Increment      1: Step Time =    1.000,"P-15-1",          1591,       187.007,       17.5993,            0.,NA,NA,"",   1.00760E+06,   1.01093E+06,   1.01093E+06
C:/temp/Job-15.odb,Step-1,Increment      1: Step Time =    1.000,"P-15-1",          1592,       178.511,       14.4332,            0.,NA,NA,"",   1.01867E+06,   1.01903E+06,   1.01903E+06
C:/temp/Job-15.odb,Step-1,Increment      1: Step Time =    1.000,"P-15-1",          1593,       182.365,       187.034,            0.,NA,NA,"",   1.01022E+06,   1.01177E+06,   1.01177E+06
C:/temp/Job-15.odb,Step-1,Increment      1: Step Time =    1.000,"P-15-1",          1594,       185.392,       178.495,            0.,NA,NA,"",   1.01294E+06,   1.01764E+06,   1.01764E+06
C:/temp/Job-15.odb,Step-1,Increment      1: Step Time =    1.000,"P-15-1",          1595,       58.0900,       122.588,            0.,NA,NA,"",   952.082E+03,   796.058E+03,   796.058E+03
C:/temp/Job-15.odb,Step-1,Increment      1: Step Time =    1.000,"P-15-1",          1596,       53.2245,       116.842,            0.,NA,NA,"",   684.587E+03,   573.208E+03,   573.208E+03
C:/temp/Job-15.odb,Step-1,Increment      1: Step Time =    1.000,"P-15-1",          1597,       128.021,       140.196,            0.,NA,NA,"",   1.64171E+06,   1.57619E+06,   1.57619E+06
C:/temp/Job-15.odb,Step-1,Increment      1: Step Time =    1.000,"P-15-1",          1598,       143.511,       180.690,            0.,NA,NA,"",   1.10066E+06,   1.08489E+06,   1.08489E+06
C:/temp/Job-15.odb,Step-1,Increment      1: Step Time =    1.000,"P-15-1",          1599,       132.843,       185.630,            0.,NA,NA,"",   1.03161E+06,   1.02735E+06,   1.02735E+06
C:/temp/Job-15.odb,Step-1,Increment      1: Step Time =    1.000,"P-15-1",          1600,       19.8384,       143.045,            0.,NA,NA,"",   890.460E+03,   947.290E+03,   947.290E+03
C:/temp/Job-15.odb,Step-1,Increment      1: Step Time =    1.000,"P-15-1",          1601,       14.4945,       132.472,            0.,NA,NA,"",   721.729E+03,   794.015E+03,   794.015E+03
C:/temp/Job-15.odb,Step-1,Increment      1: Step Time =    1.000,"P-15-1",          1602,       56.7680,       20.0647,            0.,NA,NA,"",   1.28524E+06,   1.26193E+06,   1.26193E+06
C:/temp/Job-15.odb,Step-1,Increment      1: Step Time =    1.000,"P-15-1",          1603,       67.5398,       14.8024,            0.,NA,NA,"",   1.19296E+06,   1.18205E+06,   1.18205E+06
C:/temp/Job-15.odb,Step-1,Increment      1: Step Time =    1.000,"P-15-1",          1604,       179.908,       56.9599,            0.,NA,NA,"",   1.04567E+06,   1.07282E+06,   1.07282E+06
C:/temp/Job-15.odb,Step-1,Increment      1: Step Time =    1.000,"P-15-1",          1605,       185.404,       67.5526,            0.,NA,NA,"",   955.942E+03,   1.03314E+06,   1.03314E+06
C:/temp/Job-15.odb,Step-1,Increment      1: Step Time =    1.000,"P-15-1",          1606,       185.234,       173.864,            0.,NA,NA,"",   1.01600E+06,   1.02323E+06,   1.02323E+06
C:/temp/Job-15.odb,Step-1,Increment      1: Step Time =    1.000,"P-15-1",          1607,       184.872,       169.113,            0.,NA,NA,"",   1.01908E+06,   1.02963E+06,   1.02963E+06
C:/temp/Job-15.odb,Step-1,Increment      1: Step Time =    1.000,"P-15-1",          1608,       25.6457,       185.858,            0.,NA,NA,"",   1.36464E+06,   1.37294E+06,   1.37294E+06
C:/temp/Job-15.odb,Step-1,Increment      1: Step Time =    1.000,"P-15-1",          1609,       30.2508,       185.432,            0.,NA,NA,"",   1.34746E+06,   1.34857E+06,   1.34857E+06
C:/temp/Job-15.odb,Step-1,Increment      1: Step Time =    1.000,"P-15-1",          1610,       173.959,       14.4331,            0.,NA,NA,"",   1.02718E+06,   1.02552E+06,   1.02552E+06
C:/temp/Job-15.odb,Step-1,Increment      1: Step Time =    1.000,"P-15-1",          1611,       169.386,       14.5975,            0.,NA,NA,"",   1.03616E+06,   1.03214E+06,   1.03214E+06
C:/temp/Job-15.odb,Step-1,Increment      1: Step Time =    1.000,"P-15-1",          1612,       107.876,       52.0246,            0.,NA,NA,"",   1.50957E+06,   1.65029E+06,   1.65029E+06
C:/temp/Job-15.odb,Step-1,Increment      1: Step Time =    1.000,"P-15-1",          1613,       112.277,       52.0271,            0.,NA,NA,"",   1.51855E+06,   1.63295E+06,   1.63295E+06
C:/temp/Job-15.odb,Step-1,Increment      1: Step Time =    1.000,"P-15-1",          1614,       53.6277,       112.383,            0.,NA,NA,"",   516.970E+03,   412.416E+03,   412.416E+03
C:/temp/Job-15.odb,Step-1,Increment      1: Step Time =    1.000,"P-15-1",          1615,       145.118,       119.117,            0.,NA,NA,"",   1.11382E+06,   875.562E+03,   875.562E+03
C:/temp/Job-15.odb,Step-1,Increment      1: Step Time =    1.000,"P-15-1",          1616,       75.9473,       148.149,            0.,NA,NA,"",   1.54880E+06,   1.52816E+06,   1.52816E+06
C:/temp/Job-15.odb,Step-1,Increment      1: Step Time =    1.000,"P-15-1",          1617,       182.294,       51.4596,            0.,NA,NA,"",   1.03235E+06,   1.06107E+06,   1.06107E+06
C:/temp/Job-15.odb,Step-1,Increment      1: Step Time =    1.000,"P-15-1",          1618,       148.517,       183.194,            0.,NA,NA,"",   1.07661E+06,   1.06328E+06,   1.06328E+06
C:/temp/Job-15.odb,Step-1,Increment      1: Step Time =    1.000,"P-15-1",          1619,       17.6558,       148.422,            0.,NA,NA,"",   940.959E+03,   1.00440E+06,   1.00440E+06
C:/temp/Job-15.odb,Step-1,Increment      1: Step Time =    1.000,"P-15-1",          1620,       51.3403,       17.7417,            0.,NA,NA,"",   1.29019E+06,   1.27132E+06,   1.27132E+06
C:/temp/Job-15.odb,Step-1,Increment      1: Step Time =    1.000,"P-15-1",          1621,       19.8365,       13.0353,            0.,NA,NA,"",   1.40174E+06,   1.41938E+06,   1.41938E+06
C:/temp/Job-15.odb,Step-1,Increment      1: Step Time =    1.000,"P-15-1",          1622,       187.169,       20.9419,            0.,NA,NA,"",   1.00899E+06,   1.01396E+06,   1.01396E+06
C:/temp/Job-15.odb,Step-1,Increment      1: Step Time =    1.000,"P-15-1",          1623,       179.025,       187.215,            0.,NA,NA,"",   1.01520E+06,   1.01571E+06,   1.01571E+06
C:/temp/Job-15.odb,Step-1,Increment      1: Step Time =    1.000,"P-15-1",          1624,       12.7398,       179.252,            0.,NA,NA,"",   1.27851E+06,   1.34884E+06,   1.34884E+06
C:/temp/Job-15.odb,Step-1,Increment      1: Step Time =    1.000,"P-15-1",          1625,       129.555,       64.8607,            0.,NA,NA,"",   1.64574E+06,   1.53954E+06,   1.53954E+06
C:/temp/Job-15.odb,Step-1,Increment      1: Step Time =    1.000,"P-15-1",          1626,       60.0745,       134.010,            0.,NA,NA,"",   1.30011E+06,   1.16214E+06,   1.16214E+06
C:/temp/Job-15.odb,Step-1,Increment      1: Step Time =    1.000,"P-15-1",          1627,       185.555,       47.2084,            0.,NA,NA,"",   1.01180E+06,   1.04443E+06,   1.04443E+06
C:/temp/Job-15.odb,Step-1,Increment      1: Step Time =    1.000,"P-15-1",          1628,       14.5978,       152.762,            0.,NA,NA,"",   965.856E+03,   1.03790E+06,   1.03790E+06
C:/temp/Job-15.odb,Step-1,Increment      1: Step Time =    1.000,"P-15-1",          1629,       47.1117,       14.4927,            0.,NA,NA,"",   1.29060E+06,   1.27766E+06,   1.27766E+06
C:/temp/Job-15.odb,Step-1,Increment      1: Step Time =    1.000,"P-15-1",          1630,       129.746,       58.7820,            0.,NA,NA,"",   1.61562E+06,   1.53962E+06,   1.53962E+06
C:/temp/Job-15.odb,Step-1,Increment      1: Step Time =    1.000,"P-15-1",          1631,       49.7100,       118.989,            0.,NA,NA,"",   728.600E+03,   649.609E+03,   649.609E+03
C:/temp/Job-15.odb,Step-1,Increment      1: Step Time =    1.000,"P-15-1",          1632,       56.7671,       129.812,            0.,NA,NA,"",   1.14513E+06,   1.01509E+06,   1.01509E+06
C:/temp/Job-15.odb,Step-1,Increment      1: Step Time =    1.000,"P-15-1",          1633,       21.9324,       18.3048,            0.,NA,NA,"",   1.33751E+06,   1.36117E+06,   1.36117E+06
C:/temp/Job-15.odb,Step-1,Increment      1: Step Time =    1.000,"P-15-1",          1634,       18.7986,       29.3478,            0.,NA,NA,"",   1.20381E+06,   1.25439E+06,   1.25439E+06
C:/temp/Job-15.odb,Step-1,Increment      1: Step Time =    1.000,"P-15-1",          1635,       18.2311,       33.6950,            0.,NA,NA,"",   1.14963E+06,   1.20577E+06,   1.20577E+06
C:/temp/Job-15.odb,Step-1,Increment      1: Step Time =    1.000,"P-15-1",          1636,       65.1723,       139.723,            0.,NA,NA,"",   1.45594E+06,   1.34892E+06,   1.34892E+06
C:/temp/Job-15.odb,Step-1,Increment      1: Step Time =    1.000,"P-15-1",          1637,       81.0477,       151.582,            0.,NA,NA,"",   1.50212E+06,   1.52848E+06,   1.52848E+06
C:/temp/Job-15.odb,Step-1,Increment      1: Step Time =    1.000,"P-15-1",          1638,       66.7112,       65.2815,            0.,NA,NA,"",   1.41358E+06,   1.28544E+06,   1.28544E+06
C:/temp/Job-15.odb,Step-1,Increment      1: Step Time =    1.000,"P-15-1",          1639,       161.595,       20.4607,            0.,NA,NA,"",   1.08586E+06,   1.07201E+06,   1.07201E+06
C:/temp/Job-15.odb,Step-1,Increment      1: Step Time =    1.000,"P-15-1",          1640,       158.524,       22.4004,            0.,NA,NA,"",   1.10670E+06,   1.08846E+06,   1.08846E+06
C:/temp/Job-15.odb,Step-1,Increment      1: Step Time =    1.000,"P-15-1",          1641,       178.111,       160.439,            0.,NA,NA,"",   1.06899E+06,   1.07224E+06,   1.07224E+06
C:/temp/Job-15.odb,Step-1,Increment      1: Step Time =    1.000,"P-15-1",          1642,       176.412,       156.434,            0.,NA,NA,"",   1.08779E+06,   1.08743E+06,   1.08743E+06
C:/temp/Job-15.odb,Step-1,Increment      1: Step Time =    1.000,"P-15-1",          1643,       37.4469,       178.290,            0.,NA,NA,"",   1.31774E+06,   1.30735E+06,   1.30735E+06
C:/temp/Job-15.odb,Step-1,Increment      1: Step Time =    1.000,"P-15-1",          1644,       40.2928,       174.992,            0.,NA,NA,"",   1.31475E+06,   1.29739E+06,   1.29739E+06
C:/temp/Job-15.odb,Step-1,Increment      1: Step Time =    1.000,"P-15-1",          1645,       50.1059,       105.144,            0.,NA,NA,"",   282.691E+03,   266.161E+03,   266.161E+03
C:/temp/Job-15.odb,Step-1,Increment      1: Step Time =    1.000,"P-15-1",          1646,       154.904,       117.400,            0.,NA,NA,"",   954.856E+03,   850.041E+03,   850.041E+03
C:/temp/Job-15.odb,Step-1,Increment      1: Step Time =    1.000,"P-15-1",          1647,       55.4135,       81.4291,            0.,NA,NA,"",   766.638E+03,   628.551E+03,   628.551E+03
C:/temp/Job-15.odb,Step-1,Increment      1: Step Time =    1.000,"P-15-1",          1648,       46.7493,       107.643,            0.,NA,NA,"",   361.669E+03,   361.708E+03,   361.708E+03
C:/temp/Job-15.odb,Step-1,Increment      1: Step Time =    1.000,"P-15-1",          1649,       146.729,       16.0183,            0.,NA,NA,"",   1.06839E+06,   1.05641E+06,   1.05641E+06
C:/temp/Job-15.odb,Step-1,Increment      1: Step Time =    1.000,"P-15-1",          1650,       98.6465,       144.043,            0.,NA,NA,"",   1.66220E+06,   1.82227E+06,   1.82227E+06
C:/temp/Job-15.odb,Step-1,Increment      1: Step Time =    1.000,"P-15-1",          1651,       133.788,       73.1354,            0.,NA,NA,"",   1.44374E+06,   1.22244E+06,   1.22244E+06
C:/temp/Job-15.odb,Step-1,Increment      1: Step Time =    1.000,"P-15-1",          1652,       23.4120,       15.2171,            0.,NA,NA,"",   1.36525E+06,   1.37968E+06,   1.37968E+06
C:/temp/Job-15.odb,Step-1,Increment      1: Step Time =    1.000,"P-15-1",          1653,       140.055,       17.1079,            0.,NA,NA,"",   1.07390E+06,   1.06256E+06,   1.06256E+06
C:/temp/Job-15.odb,Step-1,Increment      1: Step Time =    1.000,"P-15-1",          1654,       136.040,       17.5348,            0.,NA,NA,"",   1.07465E+06,   1.06565E+06,   1.06565E+06
C:/temp/Job-15.odb,Step-1,Increment      1: Step Time =    1.000,"P-15-1",          1655,       155.972,       23.7802,            0.,NA,NA,"",   1.12401E+06,   1.10226E+06,   1.10226E+06
C:/temp/Job-15.odb,Step-1,Increment      1: Step Time =    1.000,"P-15-1",          1656,       57.0581,       182.629,            0.,NA,NA,"",   1.26823E+06,   1.24916E+06,   1.24916E+06
C:/temp/Job-15.odb,Step-1,Increment      1: Step Time =    1.000,"P-15-1",          1657,       108.714,       152.726,            0.,NA,NA,"",   1.38769E+06,   1.50919E+06,   1.50919E+06
C:/temp/Job-15.odb,Step-1,Increment      1: Step Time =    1.000,"P-15-1",          1658,       183.538,       144.222,            0.,NA,NA,"",   1.01528E+06,   1.05626E+06,   1.05626E+06
C:/temp/Job-15.odb,Step-1,Increment      1: Step Time =    1.000,"P-15-1",          1659,       52.8797,       176.990,            0.,NA,NA,"",   1.30886E+06,   1.28090E+06,   1.28090E+06
C:/temp/Job-15.odb,Step-1,Increment      1: Step Time =    1.000,"P-15-1",          1660,       129.624,       52.5731,            0.,NA,NA,"",   1.54525E+06,   1.49476E+06,   1.49476E+06
C:/temp/Job-15.odb,Step-1,Increment      1: Step Time =    1.000,"P-15-1",          1661,       65.5715,       181.866,            0.,NA,NA,"",   1.23578E+06,   1.21937E+06,   1.21937E+06
C:/temp/Job-15.odb,Step-1,Increment      1: Step Time =    1.000,"P-15-1",          1662,       26.0677,       177.524,            0.,NA,NA,"",   1.30694E+06,   1.32228E+06,   1.32228E+06
C:/temp/Job-15.odb,Step-1,Increment      1: Step Time =    1.000,"P-15-1",          1663,       35.5202,       175.795,            0.,NA,NA,"",   1.31256E+06,   1.30422E+06,   1.30422E+06
C:/temp/Job-15.odb,Step-1,Increment      1: Step Time =    1.000,"P-15-1",          1664,       36.4081,       171.898,            0.,NA,NA,"",   1.29901E+06,   1.28861E+06,   1.28861E+06
C:/temp/Job-15.odb,Step-1,Increment      1: Step Time =    1.000,"P-15-1",          1665,       173.078,       23.7774,            0.,NA,NA,"",   1.06065E+06,   1.05510E+06,   1.05510E+06
C:/temp/Job-15.odb,Step-1,Increment      1: Step Time =    1.000,"P-15-1",          1666,       162.446,       23.4409,            0.,NA,NA,"",   1.10141E+06,   1.08483E+06,   1.08483E+06
C:/temp/Job-15.odb,Step-1,Increment      1: Step Time =    1.000,"P-15-1",          1667,       175.476,       173.422,            0.,NA,NA,"",   1.05642E+06,   1.05390E+06,   1.05390E+06
C:/temp/Job-15.odb,Step-1,Increment      1: Step Time =    1.000,"P-15-1",          1668,       172.223,       157.375,            0.,NA,NA,"",   1.12269E+06,   1.10894E+06,   1.10894E+06
C:/temp/Job-15.odb,Step-1,Increment      1: Step Time =    1.000,"P-15-1",          1669,       18.4543,       128.279,            0.,NA,NA,"",   687.044E+03,   753.767E+03,   753.767E+03
C:/temp/Job-15.odb,Step-1,Increment      1: Step Time =    1.000,"P-15-1",          1670,       17.6279,       56.4736,            0.,NA,NA,"",   879.866E+03,   943.232E+03,   943.232E+03
C:/temp/Job-15.odb,Step-1,Increment      1: Step Time =    1.000,"P-15-1",          1671,       64.4709,       144.760,            0.,NA,NA,"",   1.46901E+06,   1.37866E+06,   1.37866E+06
C:/temp/Job-15.odb,Step-1,Increment      1: Step Time =    1.000,"P-15-1",          1672,       60.0033,       140.517,            0.,NA,NA,"",   1.39083E+06,   1.28085E+06,   1.28085E+06
C:/temp/Job-15.odb,Step-1,Increment      1: Step Time =    1.000,"P-15-1",          1673,       49.6218,       172.878,            0.,NA,NA,"",   1.32590E+06,   1.29387E+06,   1.29387E+06
C:/temp/Job-15.odb,Step-1,Increment      1: Step Time =    1.000,"P-15-1",          1674,       40.2043,       168.564,            0.,NA,NA,"",   1.29976E+06,   1.27899E+06,   1.27899E+06
C:/temp/Job-15.odb,Step-1,Increment      1: Step Time =    1.000,"P-15-1",          1675,       19.1899,       161.300,            0.,NA,NA,"",   1.10246E+06,   1.15641E+06,   1.15641E+06
C:/temp/Job-15.odb,Step-1,Increment      1: Step Time =    1.000,"P-15-1",          1676,       38.7483,       18.2875,            0.,NA,NA,"",   1.31947E+06,   1.30925E+06,   1.30925E+06
C:/temp/Job-15.odb,Step-1,Increment      1: Step Time =    1.000,"P-15-1",          1677,       181.896,       38.7549,            0.,NA,NA,"",   1.03938E+06,   1.05199E+06,   1.05199E+06
C:/temp/Job-15.odb,Step-1,Increment      1: Step Time =    1.000,"P-15-1",          1678,       161.348,       181.099,            0.,NA,NA,"",   1.07478E+06,   1.06273E+06,   1.06273E+06
C:/temp/Job-15.odb,Step-1,Increment      1: Step Time =    1.000,"P-15-1",          1679,       23.1121,       30.7518,            0.,NA,NA,"",   1.21918E+06,   1.25210E+06,   1.25210E+06
C:/temp/Job-15.odb,Step-1,Increment      1: Step Time =    1.000,"P-15-1",          1680,       22.4679,       38.9837,            0.,NA,NA,"",   1.12816E+06,   1.16856E+06,   1.16856E+06
C:/temp/Job-15.odb,Step-1,Increment      1: Step Time =    1.000,"P-15-1",          1681,       148.803,       23.7046,            0.,NA,NA,"",   1.14554E+06,   1.12133E+06,   1.12133E+06
C:/temp/Job-15.odb,Step-1,Increment      1: Step Time =    1.000,"P-15-1",          1682,       176.335,       147.408,            0.,NA,NA,"",   1.08927E+06,   1.09390E+06,   1.09390E+06
C:/temp/Job-15.odb,Step-1,Increment      1: Step Time =    1.000,"P-15-1",          1683,       177.112,       143.570,            0.,NA,NA,"",   1.07232E+06,   1.08606E+06,   1.08606E+06
C:/temp/Job-15.odb,Step-1,Increment      1: Step Time =    1.000,"P-15-1",          1684,       43.8482,       117.782,            0.,NA,NA,"",   636.066E+03,   615.302E+03,   615.302E+03
C:/temp/Job-15.odb,Step-1,Increment      1: Step Time =    1.000,"P-15-1",          1685,       52.2427,       78.7173,            0.,NA,NA,"",   836.435E+03,   728.872E+03,   728.872E+03
C:/temp/Job-15.odb,Step-1,Increment      1: Step Time =    1.000,"P-15-1",          1686,       24.3921,       153.780,            0.,NA,NA,"",   1.06695E+06,   1.10163E+06,   1.10163E+06
C:/temp/Job-15.odb,Step-1,Increment      1: Step Time =    1.000,"P-15-1",          1687,       44.9270,       24.3707,            0.,NA,NA,"",   1.31964E+06,   1.29588E+06,   1.29588E+06
C:/temp/Job-15.odb,Step-1,Increment      1: Step Time =    1.000,"P-15-1",          1688,       175.692,       44.9047,            0.,NA,NA,"",   1.09643E+06,   1.09385E+06,   1.09385E+06
C:/temp/Job-15.odb,Step-1,Increment      1: Step Time =    1.000,"P-15-1",          1689,       81.5542,       155.985,            0.,NA,NA,"",   1.43324E+06,   1.46129E+06,   1.46129E+06
C:/temp/Job-15.odb,Step-1,Increment      1: Step Time =    1.000,"P-15-1",          1690,       72.9966,       158.553,            0.,NA,NA,"",   1.43751E+06,   1.41417E+06,   1.41417E+06
C:/temp/Job-15.odb,Step-1,Increment      1: Step Time =    1.000,"P-15-1",          1691,       49.3172,       86.9082,            0.,NA,NA,"",   520.533E+03,   469.790E+03,   469.790E+03
C:/temp/Job-15.odb,Step-1,Increment      1: Step Time =    1.000,"P-15-1",          1692,       150.312,       127.117,            0.,NA,NA,"",   1.28030E+06,   1.10467E+06,   1.10467E+06
C:/temp/Job-15.odb,Step-1,Increment      1: Step Time =    1.000,"P-15-1",          1693,       159.364,       116.655,            0.,NA,NA,"",   901.161E+03,   848.431E+03,   848.431E+03
C:/temp/Job-15.odb,Step-1,Increment      1: Step Time =    1.000,"P-15-1",          1694,       116.628,       42.1290,            0.,NA,NA,"",   1.32528E+06,   1.39068E+06,   1.39068E+06
C:/temp/Job-15.odb,Step-1,Increment      1: Step Time =    1.000,"P-15-1",          1695,       139.795,       72.4280,            0.,NA,NA,"",   1.43293E+06,   1.19707E+06,   1.19707E+06
C:/temp/Job-15.odb,Step-1,Increment      1: Step Time =    1.000,"P-15-1",          1696,       139.049,       66.6210,            0.,NA,NA,"",   1.54191E+06,   1.34574E+06,   1.34574E+06
C:/temp/Job-15.odb,Step-1,Increment      1: Step Time =    1.000,"P-15-1",          1697,       116.315,       23.7742,            0.,NA,NA,"",   1.08691E+06,   1.11631E+06,   1.11631E+06
C:/temp/Job-15.odb,Step-1,Increment      1: Step Time =    1.000,"P-15-1",          1698,       52.8754,       83.3754,            0.,NA,NA,"",   671.390E+03,   562.846E+03,   562.846E+03
C:/temp/Job-15.odb,Step-1,Increment      1: Step Time =    1.000,"P-15-1",          1699,       108.759,       157.031,            0.,NA,NA,"",   1.30251E+06,   1.40898E+06,   1.40898E+06
C:/temp/Job-15.odb,Step-1,Increment      1: Step Time =    1.000,"P-15-1",          1700,       22.0586,       61.6379,            0.,NA,NA,"",   843.142E+03,   894.766E+03,   894.766E+03
C:/temp/Job-15.odb,Step-1,Increment      1: Step Time =    1.000,"P-15-1",          1701,       22.1088,       66.2107,            0.,NA,NA,"",   778.902E+03,   833.511E+03,   833.511E+03
C:/temp/Job-15.odb,Step-1,Increment      1: Step Time =    1.000,"P-15-1",          1702,       61.0937,       177.836,            0.,NA,NA,"",   1.28876E+06,   1.26304E+06,   1.26304E+06
C:/temp/Job-15.odb,Step-1,Increment      1: Step Time =    1.000,"P-15-1",          1703,       31.8562,       152.795,            0.,NA,NA,"",   1.12442E+06,   1.12962E+06,   1.12962E+06
C:/temp/Job-15.odb,Step-1,Increment      1: Step Time =    1.000,"P-15-1",          1704,       45.8783,       33.1893,            0.,NA,NA,"",   1.32141E+06,   1.28565E+06,   1.28565E+06
C:/temp/Job-15.odb,Step-1,Increment      1: Step Time =    1.000,"P-15-1",          1705,       166.861,       46.0088,            0.,NA,NA,"",   1.18160E+06,   1.14807E+06,   1.14807E+06
C:/temp/Job-15.odb,Step-1,Increment      1: Step Time =    1.000,"P-15-1",          1706,       71.7866,       59.4170,            0.,NA,NA,"",   1.55333E+06,   1.48110E+06,   1.48110E+06
C:/temp/Job-15.odb,Step-1,Increment      1: Step Time =    1.000,"P-15-1",          1707,       140.003,       54.5688,            0.,NA,NA,"",   1.51178E+06,   1.39451E+06,   1.39451E+06
C:/temp/Job-15.odb,Step-1,Increment      1: Step Time =    1.000,"P-15-1",          1708,       142.861,       57.8410,            0.,NA,NA,"",   1.50460E+06,   1.36451E+06,   1.36451E+06
C:/temp/Job-15.odb,Step-1,Increment      1: Step Time =    1.000,"P-15-1",          1709,       157.607,       125.990,            0.,NA,NA,"",   1.14893E+06,   1.04726E+06,   1.04726E+06
C:/temp/Job-15.odb,Step-1,Increment      1: Step Time =    1.000,"P-15-1",          1710,       171.624,       149.817,            0.,NA,NA,"",   1.14303E+06,   1.12451E+06,   1.12451E+06
C:/temp/Job-15.odb,Step-1,Increment      1: Step Time =    1.000,"P-15-1",          1711,       142.016,       146.649,            0.,NA,NA,"",   1.48276E+06,   1.37061E+06,   1.37061E+06
C:/temp/Job-15.odb,Step-1,Increment      1: Step Time =    1.000,"P-15-1",          1712,       145.581,       71.0133,            0.,NA,NA,"",   1.38772E+06,   1.18306E+06,   1.18306E+06
C:/temp/Job-15.odb,Step-1,Increment      1: Step Time =    1.000,"P-15-1",          1713,       168.263,       162.540,            0.,NA,NA,"",   1.13872E+06,   1.11711E+06,   1.11711E+06
C:/temp/Job-15.odb,Step-1,Increment      1: Step Time =    1.000,"P-15-1",          1714,       57.4481,       143.388,            0.,NA,NA,"",   1.37975E+06,   1.27968E+06,   1.27968E+06
C:/temp/Job-15.odb,Step-1,Increment      1: Step Time =    1.000,"P-15-1",          1715,       125.112,       161.345,            0.,NA,NA,"",   1.31815E+06,   1.32862E+06,   1.32862E+06
C:/temp/Job-15.odb,Step-1,Increment      1: Step Time =    1.000,"P-15-1",          1716,       121.705,       164.254,            0.,NA,NA,"",   1.26216E+06,   1.28981E+06,   1.28981E+06
C:/temp/Job-15.odb,Step-1,Increment      1: Step Time =    1.000,"P-15-1",          1717,       26.2469,       32.2272,            0.,NA,NA,"",   1.22583E+06,   1.24690E+06,   1.24690E+06
C:/temp/Job-15.odb,Step-1,Increment      1: Step Time =    1.000,"P-15-1",          1718,       26.7387,       57.8546,            0.,NA,NA,"",   938.298E+03,   969.596E+03,   969.596E+03
C:/temp/Job-15.odb,Step-1,Increment      1: Step Time =    1.000,"P-15-1",          1719,       46.7653,       128.647,            0.,NA,NA,"",   956.030E+03,   890.173E+03,   890.173E+03
C:/temp/Job-15.odb,Step-1,Increment      1: Step Time =    1.000,"P-15-1",          1720,       42.4017,       123.379,            0.,NA,NA,"",   769.010E+03,   743.048E+03,   743.048E+03
C:/temp/Job-15.odb,Step-1,Increment      1: Step Time =    1.000,"P-15-1",          1721,       60.0402,       144.582,            0.,NA,NA,"",   1.41711E+06,   1.32006E+06,   1.32006E+06
C:/temp/Job-15.odb,Step-1,Increment      1: Step Time =    1.000,"P-15-1",          1722,       50.7577,       168.600,            0.,NA,NA,"",   1.33796E+06,   1.29811E+06,   1.29811E+06
C:/temp/Job-15.odb,Step-1,Increment      1: Step Time =    1.000,"P-15-1",          1723,       165.441,       178.872,            0.,NA,NA,"",   1.07742E+06,   1.06601E+06,   1.06601E+06
C:/temp/Job-15.odb,Step-1,Increment      1: Step Time =    1.000,"P-15-1",          1724,       167.801,       177.550,            0.,NA,NA,"",   1.07524E+06,   1.06503E+06,   1.06503E+06
C:/temp/Job-15.odb,Step-1,Increment      1: Step Time =    1.000,"P-15-1",          1725,       38.0127,       21.4843,            0.,NA,NA,"",   1.31846E+06,   1.30607E+06,   1.30607E+06
C:/temp/Job-15.odb,Step-1,Increment      1: Step Time =    1.000,"P-15-1",          1726,       41.9031,       25.4731,            0.,NA,NA,"",   1.31838E+06,   1.29831E+06,   1.29831E+06
C:/temp/Job-15.odb,Step-1,Increment      1: Step Time =    1.000,"P-15-1",          1727,       32.6998,       23.3110,            0.,NA,NA,"",   1.30699E+06,   1.30565E+06,   1.30565E+06
C:/temp/Job-15.odb,Step-1,Increment      1: Step Time =    1.000,"P-15-1",          1728,       122.924,       23.6415,            0.,NA,NA,"",   1.11205E+06,   1.12729E+06,   1.12729E+06
C:/temp/Job-15.odb,Step-1,Increment      1: Step Time =    1.000,"P-15-1",          1729,       133.827,       22.3936,            0.,NA,NA,"",   1.13013E+06,   1.12058E+06,   1.12058E+06
C:/temp/Job-15.odb,Step-1,Increment      1: Step Time =    1.000,"P-15-1",          1730,       128.686,       28.3764,            0.,NA,NA,"",   1.19224E+06,   1.19231E+06,   1.19231E+06
C:/temp/Job-15.odb,Step-1,Increment      1: Step Time =    1.000,"P-15-1",          1731,       147.211,       27.0182,            0.,NA,NA,"",   1.18136E+06,   1.15154E+06,   1.15154E+06
C:/temp/Job-15.odb,Step-1,Increment      1: Step Time =    1.000,"P-15-1",          1732,       139.887,       25.7942,            0.,NA,NA,"",   1.17616E+06,   1.15406E+06,   1.15406E+06
C:/temp/Job-15.odb,Step-1,Increment      1: Step Time =    1.000,"P-15-1",          1733,       22.1504,       165.296,            0.,NA,NA,"",   1.17213E+06,   1.21133E+06,   1.21133E+06
C:/temp/Job-15.odb,Step-1,Increment      1: Step Time =    1.000,"P-15-1",          1734,       23.8319,       167.674,            0.,NA,NA,"",   1.20603E+06,   1.23757E+06,   1.23757E+06
C:/temp/Job-15.odb,Step-1,Increment      1: Step Time =    1.000,"P-15-1",          1735,       31.0936,       156.743,            0.,NA,NA,"",   1.15855E+06,   1.16595E+06,   1.16595E+06
C:/temp/Job-15.odb,Step-1,Increment      1: Step Time =    1.000,"P-15-1",          1736,       179.159,       35.2650,            0.,NA,NA,"",   1.05592E+06,   1.05992E+06,   1.05992E+06
C:/temp/Job-15.odb,Step-1,Increment      1: Step Time =    1.000,"P-15-1",          1737,       177.346,       33.3782,            0.,NA,NA,"",   1.06467E+06,   1.06440E+06,   1.06440E+06
C:/temp/Job-15.odb,Step-1,Increment      1: Step Time =    1.000,"P-15-1",          1738,       174.639,       41.1471,            0.,NA,NA,"",   1.09870E+06,   1.09264E+06,   1.09264E+06
C:/temp/Job-15.odb,Step-1,Increment      1: Step Time =    1.000,"P-15-1",          1739,       166.617,       41.7933,            0.,NA,NA,"",   1.16977E+06,   1.13967E+06,   1.13967E+06
C:/temp/Job-15.odb,Step-1,Increment      1: Step Time =    1.000,"P-15-1",          1740,       75.4284,       51.9708,            0.,NA,NA,"",   1.54482E+06,   1.51960E+06,   1.51960E+06
C:/temp/Job-15.odb,Step-1,Increment      1: Step Time =    1.000,"P-15-1",          1741,       138.030,       46.4076,            0.,NA,NA,"",   1.44176E+06,   1.36945E+06,   1.36945E+06
C:/temp/Job-15.odb,Step-1,Increment      1: Step Time =    1.000,"P-15-1",          1742,       115.806,       164.708,            0.,NA,NA,"",   1.22435E+06,   1.28165E+06,   1.28165E+06
C:/temp/Job-15.odb,Step-1,Increment      1: Step Time =    1.000,"P-15-1",          1743,       44.7390,       82.6981,            0.,NA,NA,"",   624.702E+03,   597.702E+03,   597.702E+03
C:/temp/Job-15.odb,Step-1,Increment      1: Step Time =    1.000,"P-15-1",          1744,       161.763,       125.388,            0.,NA,NA,"",   1.09605E+06,   1.02691E+06,   1.02691E+06
C:/temp/Job-15.odb,Step-1,Increment      1: Step Time =    1.000,"P-15-1",          1745,       163.601,       83.5857,            0.,NA,NA,"",   879.546E+03,   867.568E+03,   867.568E+03
C:/temp/Job-15.odb,Step-1,Increment      1: Step Time =    1.000,"P-15-1",          1746,       166.152,       79.5933,            0.,NA,NA,"",   959.293E+03,   948.496E+03,   948.496E+03
C:/temp/Job-15.odb,Step-1,Increment      1: Step Time =    1.000,"P-15-1",          1747,       25.4819,       170.010,            0.,NA,NA,"",   1.23895E+06,   1.26264E+06,   1.26264E+06
C:/temp/Job-15.odb,Step-1,Increment      1: Step Time =    1.000,"P-15-1",          1748,       162.302,       41.2620,            0.,NA,NA,"",   1.20666E+06,   1.16503E+06,   1.16503E+06
C:/temp/Job-15.odb,Step-1,Increment      1: Step Time =    1.000,"P-15-1",          1749,       128.918,       181.658,            0.,NA,NA,"",   1.06645E+06,   1.06538E+06,   1.06538E+06
C:/temp/Job-15.odb,Step-1,Increment      1: Step Time =    1.000,"P-15-1",          1750,       41.1102,       96.7672,            0.,NA,NA,"",   307.067E+03,   346.982E+03,   346.982E+03
C:/temp/Job-15.odb,Step-1,Increment      1: Step Time =    1.000,"P-15-1",          1751,       165.284,       167.643,            0.,NA,NA,"",   1.13876E+06,   1.11535E+06,   1.11535E+06
C:/temp/Job-15.odb,Step-1,Increment      1: Step Time =    1.000,"P-15-1",          1752,       167.461,       31.7193,            0.,NA,NA,"",   1.11922E+06,   1.10124E+06,   1.10124E+06
C:/temp/Job-15.odb,Step-1,Increment      1: Step Time =    1.000,"P-15-1",          1753,       163.568,       31.6262,            0.,NA,NA,"",   1.14250E+06,   1.11782E+06,   1.11782E+06
C:/temp/Job-15.odb,Step-1,Increment      1: Step Time =    1.000,"P-15-1",          1754,       71.8616,       19.0632,            0.,NA,NA,"",   1.20970E+06,   1.19922E+06,   1.19922E+06
C:/temp/Job-15.odb,Step-1,Increment      1: Step Time =    1.000,"P-15-1",          1755,       35.5317,       157.464,            0.,NA,NA,"",   1.20703E+06,   1.19663E+06,   1.19663E+06
C:/temp/Job-15.odb,Step-1,Increment      1: Step Time =    1.000,"P-15-1",          1756,       26.5154,       66.7431,            0.,NA,NA,"",    800.34E+03,   841.528E+03,   841.528E+03
C:/temp/Job-15.odb,Step-1,Increment      1: Step Time =    1.000,"P-15-1",          1757,       181.580,       71.9062,            0.,NA,NA,"",   961.379E+03,   1.02984E+06,   1.02984E+06
C:/temp/Job-15.odb,Step-1,Increment      1: Step Time =    1.000,"P-15-1",          1758,       145.047,       148.124,            0.,NA,NA,"",   1.44335E+06,   1.33628E+06,   1.33628E+06
C:/temp/Job-15.odb,Step-1,Increment      1: Step Time =    1.000,"P-15-1",          1759,       147.203,       67.8286,            0.,NA,NA,"",   1.40751E+06,   1.22502E+06,   1.22502E+06
C:/temp/Job-15.odb,Step-1,Increment      1: Step Time =    1.000,"P-15-1",          1760,       43.5443,       79.0569,            0.,NA,NA,"",   708.752E+03,   679.792E+03,   679.792E+03
C:/temp/Job-15.odb,Step-1,Increment      1: Step Time =    1.000,"P-15-1",          1761,       167.814,       144.735,            0.,NA,NA,"",   1.18534E+06,   1.14722E+06,   1.14722E+06
C:/temp/Job-15.odb,Step-1,Increment      1: Step Time =    1.000,"P-15-1",          1762,       168.236,       139.756,            0.,NA,NA,"",   1.16523E+06,   1.13020E+06,   1.13020E+06
C:/temp/Job-15.odb,Step-1,Increment      1: Step Time =    1.000,"P-15-1",          1763,       116.566,       32.7433,            0.,NA,NA,"",   1.19525E+06,   1.24221E+06,   1.24221E+06
C:/temp/Job-15.odb,Step-1,Increment      1: Step Time =    1.000,"P-15-1",          1764,       48.1004,       163.823,            0.,NA,NA,"",   1.32948E+06,   1.28663E+06,   1.28663E+06
C:/temp/Job-15.odb,Step-1,Increment      1: Step Time =    1.000,"P-15-1",          1765,       122.995,       28.1660,            0.,NA,NA,"",   1.16813E+06,   1.18781E+06,   1.18781E+06
C:/temp/Job-15.odb,Step-1,Increment      1: Step Time =    1.000,"P-15-1",          1766,       52.0923,       145.602,            0.,NA,NA,"",   1.30832E+06,   1.22704E+06,   1.22704E+06
C:/temp/Job-15.odb,Step-1,Increment      1: Step Time =    1.000,"P-15-1",          1767,       31.2427,       58.8254,            0.,NA,NA,"",   969.689E+03,   982.493E+03,   982.493E+03
C:/temp/Job-15.odb,Step-1,Increment      1: Step Time =    1.000,"P-15-1",          1768,       31.0304,       63.1363,            0.,NA,NA,"",   901.285E+03,   919.268E+03,   919.268E+03
C:/temp/Job-15.odb,Step-1,Increment      1: Step Time =    1.000,"P-15-1",          1769,       65.0493,       173.148,            0.,NA,NA,"",   1.31724E+06,   1.28809E+06,   1.28809E+06
C:/temp/Job-15.odb,Step-1,Increment      1: Step Time =    1.000,"P-15-1",          1770,       68.9420,       171.898,            0.,NA,NA,"",   1.31519E+06,   1.29233E+06,   1.29233E+06
C:/temp/Job-15.odb,Step-1,Increment      1: Step Time =    1.000,"P-15-1",          1771,       26.5759,       71.0775,            0.,NA,NA,"",   735.301E+03,   780.969E+03,   780.969E+03
C:/temp/Job-15.odb,Step-1,Increment      1: Step Time =    1.000,"P-15-1",          1772,       22.8390,       75.6037,            0.,NA,NA,"",   646.781E+03,   706.403E+03,   706.403E+03
C:/temp/Job-15.odb,Step-1,Increment      1: Step Time =    1.000,"P-15-1",          1773,       83.5865,       174.292,            0.,NA,NA,"",   1.20039E+06,   1.21902E+06,   1.21902E+06
C:/temp/Job-15.odb,Step-1,Increment      1: Step Time =    1.000,"P-15-1",          1774,       53.9990,       150.789,            0.,NA,NA,"",   1.35811E+06,   1.28240E+06,   1.28240E+06
C:/temp/Job-15.odb,Step-1,Increment      1: Step Time =    1.000,"P-15-1",          1775,       173.010,       76.9189,            0.,NA,NA,"",   963.036E+03,   991.010E+03,   991.010E+03
C:/temp/Job-15.odb,Step-1,Increment      1: Step Time =    1.000,"P-15-1",          1776,       92.7618,       22.0738,            0.,NA,NA,"",   1.09458E+06,   1.12687E+06,   1.12687E+06
C:/temp/Job-15.odb,Step-1,Increment      1: Step Time =    1.000,"P-15-1",          1777,       96.0119,       25.9666,            0.,NA,NA,"",   1.11705E+06,   1.16727E+06,   1.16727E+06
C:/temp/Job-15.odb,Step-1,Increment      1: Step Time =    1.000,"P-15-1",          1778,       158.550,       55.0243,            0.,NA,NA,"",   1.30031E+06,   1.21653E+06,   1.21653E+06
C:/temp/Job-15.odb,Step-1,Increment      1: Step Time =    1.000,"P-15-1",          1779,       171.349,       128.912,            0.,NA,NA,"",   1.04443E+06,   1.04772E+06,   1.04772E+06
C:/temp/Job-15.odb,Step-1,Increment      1: Step Time =    1.000,"P-15-1",          1780,       173.125,       125.655,            0.,NA,NA,"",   994.748E+03,   1.01812E+06,   1.01812E+06
C:/temp/Job-15.odb,Step-1,Increment      1: Step Time =    1.000,"P-15-1",          1781,       49.3828,       62.5215,            0.,NA,NA,"",   1.16199E+06,   1.08061E+06,   1.08061E+06
C:/temp/Job-15.odb,Step-1,Increment      1: Step Time =    1.000,"P-15-1",          1782,       178.333,       37.8942,            0.,NA,NA,"",   1.06596E+06,   1.06896E+06,   1.06896E+06
C:/temp/Job-15.odb,Step-1,Increment      1: Step Time =    1.000,"P-15-1",          1783,       76.8461,       166.914,            0.,NA,NA,"",   1.32736E+06,   1.32708E+06,   1.32708E+06
C:/temp/Job-15.odb,Step-1,Increment      1: Step Time =    1.000,"P-15-1",          1784,       43.2201,       128.811,            0.,NA,NA,"",   902.820E+03,   863.735E+03,   863.735E+03
C:/temp/Job-15.odb,Step-1,Increment      1: Step Time =    1.000,"P-15-1",          1785,       36.3440,       121.885,            0.,NA,NA,"",   675.211E+03,   692.153E+03,   692.153E+03
C:/temp/Job-15.odb,Step-1,Increment      1: Step Time =    1.000,"P-15-1",          1786,       29.2751,       111.081,            0.,NA,NA,"",   467.018E+03,   525.492E+03,   525.492E+03
C:/temp/Job-15.odb,Step-1,Increment      1: Step Time =    1.000,"P-15-1",          1787,       133.815,       159.808,            0.,NA,NA,"",   1.36271E+06,   1.32733E+06,   1.32733E+06
C:/temp/Job-15.odb,Step-1,Increment      1: Step Time =    1.000,"P-15-1",          1788,       145.468,       159.955,            0.,NA,NA,"",   1.32961E+06,   1.26757E+06,   1.26757E+06
C:/temp/Job-15.odb,Step-1,Increment      1: Step Time =    1.000,"P-15-1",          1789,       124.147,       167.760,            0.,NA,NA,"",   1.22894E+06,   1.24387E+06,   1.24387E+06
C:/temp/Job-15.odb,Step-1,Increment      1: Step Time =    1.000,"P-15-1",          1790,       126.691,       171.816,            0.,NA,NA,"",   1.18589E+06,   1.19085E+06,   1.19085E+06
C:/temp/Job-15.odb,Step-1,Increment      1: Step Time =    1.000,"P-15-1",          1791,       41.0243,       82.8140,            0.,NA,NA,"",   598.612E+03,   600.012E+03,   600.012E+03
C:/temp/Job-15.odb,Step-1,Increment      1: Step Time =    1.000,"P-15-1",          1792,       41.9343,       148.469,            0.,NA,NA,"",   1.19463E+06,   1.15618E+06,   1.15618E+06
C:/temp/Job-15.odb,Step-1,Increment      1: Step Time =    1.000,"P-15-1",          1793,       55.7862,       40.4867,            0.,NA,NA,"",   1.38349E+06,   1.32294E+06,   1.32294E+06
C:/temp/Job-15.odb,Step-1,Increment      1: Step Time =    1.000,"P-15-1",          1794,       45.4297,       43.7969,            0.,NA,NA,"",   1.29070E+06,   1.24421E+06,   1.24421E+06
C:/temp/Job-15.odb,Step-1,Increment      1: Step Time =    1.000,"P-15-1",          1795,       45.1436,       158.617,            0.,NA,NA,"",   1.30099E+06,   1.25888E+06,   1.25888E+06
C:/temp/Job-15.odb,Step-1,Increment      1: Step Time =    1.000,"P-15-1",          1796,       146.722,       55.2989,            0.,NA,NA,"",   1.44722E+06,   1.32435E+06,   1.32435E+06
C:/temp/Job-15.odb,Step-1,Increment      1: Step Time =    1.000,"P-15-1",          1797,       163.664,       152.915,            0.,NA,NA,"",   1.21986E+06,   1.17271E+06,   1.17271E+06
C:/temp/Job-15.odb,Step-1,Increment      1: Step Time =    1.000,"P-15-1",          1798,       74.7355,       29.4585,            0.,NA,NA,"",   1.30341E+06,   1.29446E+06,   1.29446E+06
C:/temp/Job-15.odb,Step-1,Increment      1: Step Time =    1.000,"P-15-1",          1799,       110.705,       167.034,            0.,NA,NA,"",   1.16954E+06,   1.23736E+06,   1.23736E+06
C:/temp/Job-15.odb,Step-1,Increment      1: Step Time =    1.000,"P-15-1",          1800,       102.942,       165.869,            0.,NA,NA,"",   1.17257E+06,   1.25455E+06,   1.25455E+06
C:/temp/Job-15.odb,Step-1,Increment      1: Step Time =    1.000,"P-15-1",          1801,       28.0676,       125.674,            0.,NA,NA,"",   692.784E+03,   737.202E+03,   737.202E+03
C:/temp/Job-15.odb,Step-1,Increment      1: Step Time =    1.000,"P-15-1",          1802,       134.518,       27.7870,            0.,NA,NA,"",   1.19877E+06,   1.18305E+06,   1.18305E+06
C:/temp/Job-15.odb,Step-1,Increment      1: Step Time =    1.000,"P-15-1",          1803,       166.964,       38.0319,            0.,NA,NA,"",   1.15660E+06,   1.13019E+06,   1.13019E+06
C:/temp/Job-15.odb,Step-1,Increment      1: Step Time =    1.000,"P-15-1",          1804,       169.736,       118.248,            0.,NA,NA,"",   905.199E+03,   929.722E+03,   929.722E+03
C:/temp/Job-15.odb,Step-1,Increment      1: Step Time =    1.000,"P-15-1",          1805,       50.8383,       57.3906,            0.,NA,NA,"",   1.26500E+06,   1.18180E+06,   1.18180E+06
C:/temp/Job-15.odb,Step-1,Increment      1: Step Time =    1.000,"P-15-1",          1806,       142.953,       44.9954,            0.,NA,NA,"",   1.40459E+06,   1.32438E+06,   1.32438E+06
C:/temp/Job-15.odb,Step-1,Increment      1: Step Time =    1.000,"P-15-1",          1807,       170.830,       89.0588,            0.,NA,NA,"",   778.891E+03,   836.358E+03,   836.358E+03
C:/temp/Job-15.odb,Step-1,Increment      1: Step Time =    1.000,"P-15-1",          1808,       32.9179,       123.246,            0.,NA,NA,"",   680.379E+03,   709.428E+03,   709.428E+03
C:/temp/Job-15.odb,Step-1,Increment      1: Step Time =    1.000,"P-15-1",          1809,       62.3939,       44.6815,            0.,NA,NA,"",   1.43369E+06,   1.36811E+06,   1.36811E+06
C:/temp/Job-15.odb,Step-1,Increment      1: Step Time =    1.000,"P-15-1",          1810,       112.636,       27.4234,            0.,NA,NA,"",   1.11759E+06,   1.16430E+06,   1.16430E+06
C:/temp/Job-15.odb,Step-1,Increment      1: Step Time =    1.000,"P-15-1",          1811,       30.9955,       71.7352,            0.,NA,NA,"",   751.684E+03,   782.376E+03,   782.376E+03
C:/temp/Job-15.odb,Step-1,Increment      1: Step Time =    1.000,"P-15-1",          1812,       56.1017,       43.7552,            0.,NA,NA,"",   1.39470E+06,   1.32677E+06,   1.32677E+06
C:/temp/Job-15.odb,Step-1,Increment      1: Step Time =    1.000,"P-15-1",          1813,       116.329,       170.055,            0.,NA,NA,"",   1.15922E+06,   1.20434E+06,   1.20434E+06
C:/temp/Job-15.odb,Step-1,Increment      1: Step Time =    1.000,"P-15-1",          1814,       44.6979,       75.2854,            0.,NA,NA,"",   827.542E+03,   782.918E+03,   782.918E+03
C:/temp/Job-15.odb,Step-1,Increment      1: Step Time =    1.000,"P-15-1",          1815,       52.1488,       160.907,            0.,NA,NA,"",   1.35821E+06,   1.30322E+06,   1.30322E+06
C:/temp/Job-15.odb,Step-1,Increment      1: Step Time =    1.000,"P-15-1",          1816,       149.475,       63.0519,            0.,NA,NA,"",   1.41873E+06,   1.26723E+06,   1.26723E+06
C:/temp/Job-15.odb,Step-1,Increment      1: Step Time =    1.000,"P-15-1",          1817,       150.609,       66.2329,            0.,NA,NA,"",   1.37594E+06,   1.21905E+06,   1.21905E+06
C:/temp/Job-15.odb,Step-1,Increment      1: Step Time =    1.000,"P-15-1",          1818,       152.413,       64.6362,            0.,NA,NA,"",   1.36530E+06,   1.22424E+06,   1.22424E+06
C:/temp/Job-15.odb,Step-1,Increment      1: Step Time =    1.000,"P-15-1",          1819,       155.379,       58.7731,            0.,NA,NA,"",   1.34267E+06,   1.23277E+06,   1.23277E+06
C:/temp/Job-15.odb,Step-1,Increment      1: Step Time =    1.000,"P-15-1",          1820,       123.013,       172.708,            0.,NA,NA,"",   1.15905E+06,   1.17586E+06,   1.17586E+06
C:/temp/Job-15.odb,Step-1,Increment      1: Step Time =    1.000,"P-15-1",          1821,       149.712,       155.395,            0.,NA,NA,"",   1.34212E+06,   1.26556E+06,   1.26556E+06
C:/temp/Job-15.odb,Step-1,Increment      1: Step Time =    1.000,"P-15-1",          1822,       166.724,       111.111,            0.,NA,NA,"",   769.408E+03,   804.020E+03,   804.020E+03
C:/temp/Job-15.odb,Step-1,Increment      1: Step Time =    1.000,"P-15-1",          1823,       167.034,       35.1216,            0.,NA,NA,"",   1.13954E+06,   1.11727E+06,   1.11727E+06
C:/temp/Job-15.odb,Step-1,Increment      1: Step Time =    1.000,"P-15-1",          1824,       28.7271,       116.483,            0.,NA,NA,"",   545.679E+03,   600.159E+03,   600.159E+03
C:/temp/Job-15.odb,Step-1,Increment      1: Step Time =    1.000,"P-15-1",          1825,       158.959,       156.061,            0.,NA,NA,"",   1.24887E+06,   1.19375E+06,   1.19375E+06
C:/temp/Job-15.odb,Step-1,Increment      1: Step Time =    1.000,"P-15-1",          1826,       30.2901,       75.0791,            0.,NA,NA,"",   692.274E+03,   729.918E+03,   729.918E+03
C:/temp/Job-15.odb,Step-1,Increment      1: Step Time =    1.000,"P-15-1",          1827,       172.769,       93.8780,            0.,NA,NA,"",   740.257E+03,   817.601E+03,   817.601E+03
C:/temp/Job-15.odb,Step-1,Increment      1: Step Time =    1.000,"P-15-1",          1828,       43.1326,       46.6148,            0.,NA,NA,"",   1.25179E+06,   1.21122E+06,   1.21122E+06
C:/temp/Job-15.odb,Step-1,Increment      1: Step Time =    1.000,"P-15-1",          1829,       150.249,       52.5640,            0.,NA,NA,"",   1.39388E+06,   1.28781E+06,   1.28781E+06
C:/temp/Job-15.odb,Step-1,Increment      1: Step Time =    1.000,"P-15-1",          1830,       51.8833,       49.1947,            0.,NA,NA,"",   1.33483E+06,   1.26318E+06,   1.26318E+06
C:/temp/Job-15.odb,Step-1,Increment      1: Step Time =    1.000,"P-15-1",          1831,       45.9382,       56.5673,            0.,NA,NA,"",   1.19768E+06,   1.13741E+06,   1.13741E+06
C:/temp/Job-15.odb,Step-1,Increment      1: Step Time =    1.000,"P-15-1",          1832,       37.7397,       82.6760,            0.,NA,NA,"",   581.839E+03,   603.863E+03,   603.863E+03
C:/temp/Job-15.odb,Step-1,Increment      1: Step Time =    1.000,"P-15-1",          1833,       37.4938,       79.4675,            0.,NA,NA,"",   649.767E+03,   661.655E+03,   661.655E+03
C:/temp/Job-15.odb,Step-1,Increment      1: Step Time =    1.000,"P-15-1",          1834,       35.4354,       63.9193,            0.,NA,NA,"",   938.659E+03,   936.560E+03,   936.560E+03
C:/temp/Job-15.odb,Step-1,Increment      1: Step Time =    1.000,"P-15-1",          1835,       171.847,       112.466,            0.,NA,NA,"",   808.251E+03,   866.966E+03,   866.966E+03
C:/temp/Job-15.odb,Step-1,Increment      1: Step Time =    1.000,"P-15-1",          1836,       147.408,       44.9029,            0.,NA,NA,"",   1.36902E+06,   1.28784E+06,   1.28784E+06
C:/temp/Job-15.odb,Step-1,Increment      1: Step Time =    1.000,"P-15-1",          1837,       172.388,       99.4474,            0.,NA,NA,"",   713.436E+03,   793.520E+03,   793.520E+03
C:/temp/Job-15.odb,Step-1,Increment      1: Step Time =    1.000,"P-15-1",          1838,       47.7915,       68.4749,            0.,NA,NA,"",   1.03443E+06,   961.139E+03,   961.139E+03
C:/temp/Job-15.odb,Step-1,Increment      1: Step Time =    1.000,"P-15-1",          1839,       40.1521,       49.0698,            0.,NA,NA,"",   1.19789E+06,   1.16801E+06,   1.16801E+06
C:/temp/Job-15.odb,Step-1,Increment      1: Step Time =    1.000,"P-15-1",          1840,       39.0037,       76.9907,            0.,NA,NA,"",   715.823E+03,   712.751E+03,   712.751E+03
C:/temp/Job-15.odb,Step-1,Increment      1: Step Time =    1.000,"P-15-1",          1841,       26.6237,       94.7443,            0.,NA,NA,"",   423.371E+03,   486.052E+03,   486.052E+03
C:/temp/Job-15.odb,Step-1,Increment      1: Step Time =    1.000,"P-15-1",          1842,       106.383,       170.157,            0.,NA,NA,"",   1.13059E+06,   1.19704E+06,   1.19704E+06
C:/temp/Job-15.odb,Step-1,Increment      1: Step Time =    1.000,"P-15-1",          1843,       39.6753,       60.6645,            0.,NA,NA,"",   1.04872E+06,   1.02147E+06,   1.02147E+06
C:/temp/Job-15.odb,Step-1,Increment      1: Step Time =    1.000,"P-15-1",          1844,       40.2075,       68.3950,            0.,NA,NA,"",   919.650E+03,   895.120E+03,   895.120E+03
C:/temp/Job-15.odb,Step-1,Increment      1: Step Time =    1.000,"P-15-1",          1845,       40.8068,       72.3352,            0.,NA,NA,"",   849.239E+03,   825.855E+03,   825.855E+03
C:/temp/Job-15.odb,Step-1,Increment      1: Step Time =    1.000,"P-15-1",          1846,       44.1076,       52.2351,            0.,NA,NA,"",   1.21522E+06,   1.16794E+06,   1.16794E+06
