ODB Name,Step,Frame,Part Instance Name,    Node Label,X,Y,Z,Section Name,Material Name,Section Point,       S-Mises,S-Max. In-Plane Principal (Abs),S-Max. Principal (Abs)
C:/temp/Job-16.odb,Step-1,Increment      1: Step Time =    1.000,"P-16-1",             1,       85.4580,       135.107,            0.,NA,NA,"",   2.35249E+06,   2.40215E+06,   2.40215E+06
C:/temp/Job-16.odb,Step-1,Increment      1: Step Time =    1.000,"P-16-1",             2,       76.8671,       130.147,            0.,NA,NA,"",   1.29155E+06,   1.30156E+06,   1.30156E+06
C:/temp/Job-16.odb,Step-1,Increment      1: Step Time =    1.000,"P-16-1",             3,       67.0910,          119.,            0.,NA,NA,"",   406.771E+03,  -105.636E+03,  -105.636E+03
C:/temp/Job-16.odb,Step-1,Increment      1: Step Time =    1.000,"P-16-1",             4,       63.2948,       109.835,            0.,NA,NA,"",    722.23E+03,  -732.857E+03,  -732.857E+03
C:/temp/Job-16.odb,Step-1,Increment      1: Step Time =    1.000,"P-16-1",             5,       62.3251,       95.0400,            0.,NA,NA,"",   800.224E+03,  -816.887E+03,  -816.887E+03
C:/temp/Job-16.odb,Step-1,Increment      1: Step Time =    1.000,"P-16-1",             6,       64.8926,       85.4580,            0.,NA,NA,"",   531.061E+03,  -526.136E+03,  -526.136E+03
C:/temp/Job-16.odb,Step-1,Increment      1: Step Time =    1.000,"P-16-1",             7,       73.1299,       73.1299,            0.,NA,NA,"",   809.177E+03,   789.450E+03,   789.450E+03
C:/temp/Job-16.odb,Step-1,Increment      1: Step Time =    1.000,"P-16-1",             8,           81.,       67.0910,            0.,NA,NA,"",   1.83530E+06,   1.86242E+06,   1.86242E+06
C:/temp/Job-16.odb,Step-1,Increment      1: Step Time =    1.000,"P-16-1",             9,       95.0400,       62.3251,            0.,NA,NA,"",   3.12737E+06,   3.20752E+06,   3.20752E+06
C:/temp/Job-16.odb,Step-1,Increment      1: Step Time =    1.000,"P-16-1",            10,       104.960,       62.3251,            0.,NA,NA,"",   3.34359E+06,   3.42761E+06,   3.42761E+06
C:/temp/Job-16.odb,Step-1,Increment      1: Step Time =    1.000,"P-16-1",            11,          119.,       67.0910,            0.,NA,NA,"",   2.47840E+06,   2.51929E+06,   2.51929E+06
C:/temp/Job-16.odb,Step-1,Increment      1: Step Time =    1.000,"P-16-1",            12,       126.870,       73.1299,            0.,NA,NA,"",   1.34201E+06,   1.34012E+06,   1.34012E+06
C:/temp/Job-16.odb,Step-1,Increment      1: Step Time =    1.000,"P-16-1",            13,       135.107,       85.4580,            0.,NA,NA,"",   700.457E+03,  -667.212E+03,  -667.212E+03
C:/temp/Job-16.odb,Step-1,Increment      1: Step Time =    1.000,"P-16-1",            14,       137.675,       95.0400,            0.,NA,NA,"",   1.28969E+06,  -1.30702E+06,  -1.30702E+06
C:/temp/Job-16.odb,Step-1,Increment      1: Step Time =    1.000,"P-16-1",            15,       136.705,       109.835,            0.,NA,NA,"",   1.04669E+06,  -1.05563E+06,  -1.05563E+06
C:/temp/Job-16.odb,Step-1,Increment      1: Step Time =    1.000,"P-16-1",            16,       132.909,          119.,            0.,NA,NA,"",   461.869E+03,  -36.3692E+03,  -36.3692E+03
C:/temp/Job-16.odb,Step-1,Increment      1: Step Time =    1.000,"P-16-1",            17,       123.133,       130.147,            0.,NA,NA,"",   1.81593E+06,   1.84175E+06,   1.84175E+06
C:/temp/Job-16.odb,Step-1,Increment      1: Step Time =    1.000,"P-16-1",            18,       114.542,       135.107,            0.,NA,NA,"",   2.72301E+06,   2.80845E+06,   2.80845E+06
C:/temp/Job-16.odb,Step-1,Increment      1: Step Time =    1.000,"P-16-1",            19,          100.,          138.,            0.,NA,NA,"",   3.37238E+06,   3.44723E+06,   3.44723E+06
C:/temp/Job-16.odb,Step-1,Increment      1: Step Time =    1.000,"P-16-1",            20,          190.,            0.,            0.,NA,NA,"",   996.687E+03,   996.838E+03,   996.838E+03
C:/temp/Job-16.odb,Step-1,Increment      1: Step Time =    1.000,"P-16-1",            21,          180.,            0.,            0.,NA,NA,"",   995.805E+03,   995.916E+03,   995.916E+03
C:/temp/Job-16.odb,Step-1,Increment      1: Step Time =    1.000,"P-16-1",            22,          170.,            0.,            0.,NA,NA,"",   996.673E+03,   996.028E+03,   996.028E+03
C:/temp/Job-16.odb,Step-1,Increment      1: Step Time =    1.000,"P-16-1",            23,          160.,            0.,            0.,NA,NA,"",   983.664E+03,   982.987E+03,   982.987E+03
C:/temp/Job-16.odb,Step-1,Increment      1: Step Time =    1.000,"P-16-1",            24,          150.,            0.,            0.,NA,NA,"",   944.612E+03,   943.848E+03,   943.848E+03
C:/temp/Job-16.odb,Step-1,Increment      1: Step Time =    1.000,"P-16-1",            25,          140.,            0.,            0.,NA,NA,"",   874.557E+03,   873.880E+03,   873.880E+03
C:/temp/Job-16.odb,Step-1,Increment      1: Step Time =    1.000,"P-16-1",            26,          130.,            0.,            0.,NA,NA,"",   790.056E+03,   789.704E+03,   789.704E+03
C:/temp/Job-16.odb,Step-1,Increment      1: Step Time =    1.000,"P-16-1",            27,          120.,            0.,            0.,NA,NA,"",   712.188E+03,   713.265E+03,   713.265E+03
C:/temp/Job-16.odb,Step-1,Increment      1: Step Time =    1.000,"P-16-1",            28,          110.,            0.,            0.,NA,NA,"",   673.742E+03,   675.808E+03,   675.808E+03
C:/temp/Job-16.odb,Step-1,Increment      1: Step Time =    1.000,"P-16-1",            29,          100.,            0.,            0.,NA,NA,"",   700.566E+03,   702.655E+03,   702.655E+03
C:/temp/Job-16.odb,Step-1,Increment      1: Step Time =    1.000,"P-16-1",            30,           90.,            0.,            0.,NA,NA,"",   799.638E+03,   800.664E+03,   800.664E+03
C:/temp/Job-16.odb,Step-1,Increment      1: Step Time =    1.000,"P-16-1",            31,           80.,            0.,            0.,NA,NA,"",   954.194E+03,   953.792E+03,   953.792E+03
C:/temp/Job-16.odb,Step-1,Increment      1: Step Time =    1.000,"P-16-1",            32,           70.,            0.,            0.,NA,NA,"",   1.13054E+06,   1.12957E+06,   1.12957E+06
C:/temp/Job-16.odb,Step-1,Increment      1: Step Time =    1.000,"P-16-1",            33,           60.,            0.,            0.,NA,NA,"",   1.30360E+06,   1.30326E+06,   1.30326E+06
C:/temp/Job-16.odb,Step-1,Increment      1: Step Time =    1.000,"P-16-1",            34,           50.,            0.,            0.,NA,NA,"",   1.44475E+06,   1.44086E+06,   1.44086E+06
C:/temp/Job-16.odb,Step-1,Increment      1: Step Time =    1.000,"P-16-1",            35,           40.,            0.,            0.,NA,NA,"",   1.54369E+06,   1.54245E+06,   1.54245E+06
C:/temp/Job-16.odb,Step-1,Increment      1: Step Time =    1.000,"P-16-1",            36,           30.,            0.,            0.,NA,NA,"",   1.60964E+06,   1.60886E+06,   1.60886E+06
C:/temp/Job-16.odb,Step-1,Increment      1: Step Time =    1.000,"P-16-1",            37,           20.,            0.,            0.,NA,NA,"",   1.67148E+06,   1.67157E+06,   1.67157E+06
C:/temp/Job-16.odb,Step-1,Increment      1: Step Time =    1.000,"P-16-1",            38,           10.,            0.,            0.,NA,NA,"",   1.80810E+06,   1.81052E+06,   1.81052E+06
C:/temp/Job-16.odb,Step-1,Increment      1: Step Time =    1.000,"P-16-1",            39,          200.,            0.,            0.,NA,NA,"",   999.691E+03,   999.381E+03,   999.381E+03
C:/temp/Job-16.odb,Step-1,Increment      1: Step Time =    1.000,"P-16-1",            40,            0.,            0.,            0.,NA,NA,"",   2.19140E+06,   2.29916E+06,   2.29916E+06
C:/temp/Job-16.odb,Step-1,Increment      1: Step Time =    1.000,"P-16-1",            41,          200.,          190.,            0.,NA,NA,"",   1.00215E+06,   1.00058E+06,   1.00058E+06
C:/temp/Job-16.odb,Step-1,Increment      1: Step Time =    1.000,"P-16-1",            42,          200.,          180.,            0.,NA,NA,"",   1.00128E+06,   1.00198E+06,   1.00198E+06
C:/temp/Job-16.odb,Step-1,Increment      1: Step Time =    1.000,"P-16-1",            43,          200.,          170.,            0.,NA,NA,"",   988.063E+03,   1.00358E+06,   1.00358E+06
C:/temp/Job-16.odb,Step-1,Increment      1: Step Time =    1.000,"P-16-1",            44,          200.,          160.,            0.,NA,NA,"",   955.913E+03,   1.00326E+06,   1.00326E+06
C:/temp/Job-16.odb,Step-1,Increment      1: Step Time =    1.000,"P-16-1",            45,          200.,          150.,            0.,NA,NA,"",   911.632E+03,   1.00403E+06,   1.00403E+06
C:/temp/Job-16.odb,Step-1,Increment      1: Step Time =    1.000,"P-16-1",            46,          200.,          140.,            0.,NA,NA,"",   877.498E+03,   1.00589E+06,   1.00589E+06
C:/temp/Job-16.odb,Step-1,Increment      1: Step Time =    1.000,"P-16-1",            47,          200.,          130.,            0.,NA,NA,"",   880.673E+03,   1.00724E+06,   1.00724E+06
C:/temp/Job-16.odb,Step-1,Increment      1: Step Time =    1.000,"P-16-1",            48,          200.,          120.,            0.,NA,NA,"",   926.659E+03,   1.00814E+06,   1.00814E+06
C:/temp/Job-16.odb,Step-1,Increment      1: Step Time =    1.000,"P-16-1",            49,          200.,          110.,            0.,NA,NA,"",   983.943E+03,   1.01323E+06,   1.01323E+06
C:/temp/Job-16.odb,Step-1,Increment      1: Step Time =    1.000,"P-16-1",            50,          200.,          100.,            0.,NA,NA,"",   1.00940E+06,   1.02620E+06,   1.02620E+06
C:/temp/Job-16.odb,Step-1,Increment      1: Step Time =    1.000,"P-16-1",            51,          200.,           90.,            0.,NA,NA,"",   985.031E+03,   1.01317E+06,   1.01317E+06
C:/temp/Job-16.odb,Step-1,Increment      1: Step Time =    1.000,"P-16-1",            52,          200.,           80.,            0.,NA,NA,"",   927.860E+03,   1.00772E+06,   1.00772E+06
C:/temp/Job-16.odb,Step-1,Increment      1: Step Time =    1.000,"P-16-1",            53,          200.,           70.,            0.,NA,NA,"",   879.538E+03,   1.00539E+06,   1.00539E+06
C:/temp/Job-16.odb,Step-1,Increment      1: Step Time =    1.000,"P-16-1",            54,          200.,           60.,            0.,NA,NA,"",   878.807E+03,   1.00492E+06,   1.00492E+06
C:/temp/Job-16.odb,Step-1,Increment      1: Step Time =    1.000,"P-16-1",            55,          200.,           50.,            0.,NA,NA,"",   925.171E+03,   1.01474E+06,   1.01474E+06
C:/temp/Job-16.odb,Step-1,Increment      1: Step Time =    1.000,"P-16-1",            56,          200.,           40.,            0.,NA,NA,"",   959.623E+03,   1.00363E+06,   1.00363E+06
C:/temp/Job-16.odb,Step-1,Increment      1: Step Time =    1.000,"P-16-1",            57,          200.,           30.,            0.,NA,NA,"",   989.215E+03,   1.00182E+06,   1.00182E+06
C:/temp/Job-16.odb,Step-1,Increment      1: Step Time =    1.000,"P-16-1",            58,          200.,           20.,            0.,NA,NA,"",   1.00173E+06,   1.00104E+06,   1.00104E+06
C:/temp/Job-16.odb,Step-1,Increment      1: Step Time =    1.000,"P-16-1",            59,          200.,           10.,            0.,NA,NA,"",   1.00204E+06,   1.00030E+06,   1.00030E+06
C:/temp/Job-16.odb,Step-1,Increment      1: Step Time =    1.000,"P-16-1",            60,          200.,          200.,            0.,NA,NA,"",   999.667E+03,   999.338E+03,   999.338E+03
C:/temp/Job-16.odb,Step-1,Increment      1: Step Time =    1.000,"P-16-1",            61,           10.,          200.,            0.,NA,NA,"",   1.80719E+06,   1.80959E+06,   1.80959E+06
C:/temp/Job-16.odb,Step-1,Increment      1: Step Time =    1.000,"P-16-1",            62,           20.,          200.,            0.,NA,NA,"",   1.67086E+06,   1.67081E+06,   1.67081E+06
C:/temp/Job-16.odb,Step-1,Increment      1: Step Time =    1.000,"P-16-1",            63,           30.,          200.,            0.,NA,NA,"",   1.60596E+06,   1.60520E+06,   1.60520E+06
C:/temp/Job-16.odb,Step-1,Increment      1: Step Time =    1.000,"P-16-1",            64,           40.,          200.,            0.,NA,NA,"",   1.53796E+06,   1.53683E+06,   1.53683E+06
C:/temp/Job-16.odb,Step-1,Increment      1: Step Time =    1.000,"P-16-1",            65,           50.,          200.,            0.,NA,NA,"",   1.43889E+06,   1.43764E+06,   1.43764E+06
C:/temp/Job-16.odb,Step-1,Increment      1: Step Time =    1.000,"P-16-1",            66,           60.,          200.,            0.,NA,NA,"",   1.30129E+06,   1.29957E+06,   1.29957E+06
C:/temp/Job-16.odb,Step-1,Increment      1: Step Time =    1.000,"P-16-1",            67,           70.,          200.,            0.,NA,NA,"",   1.13524E+06,   1.13382E+06,   1.13382E+06
C:/temp/Job-16.odb,Step-1,Increment      1: Step Time =    1.000,"P-16-1",            68,           80.,          200.,            0.,NA,NA,"",   959.633E+03,   959.193E+03,   959.193E+03
C:/temp/Job-16.odb,Step-1,Increment      1: Step Time =    1.000,"P-16-1",            69,           90.,          200.,            0.,NA,NA,"",   803.780E+03,   804.882E+03,   804.882E+03
C:/temp/Job-16.odb,Step-1,Increment      1: Step Time =    1.000,"P-16-1",            70,          100.,          200.,            0.,NA,NA,"",   701.178E+03,   703.287E+03,   703.287E+03
C:/temp/Job-16.odb,Step-1,Increment      1: Step Time =    1.000,"P-16-1",            71,          110.,          200.,            0.,NA,NA,"",   670.093E+03,   672.102E+03,   672.102E+03
C:/temp/Job-16.odb,Step-1,Increment      1: Step Time =    1.000,"P-16-1",            72,          120.,          200.,            0.,NA,NA,"",   707.003E+03,   707.992E+03,   707.992E+03
C:/temp/Job-16.odb,Step-1,Increment      1: Step Time =    1.000,"P-16-1",            73,          130.,          200.,            0.,NA,NA,"",   788.283E+03,   788.701E+03,   788.701E+03
C:/temp/Job-16.odb,Step-1,Increment      1: Step Time =    1.000,"P-16-1",            74,          140.,          200.,            0.,NA,NA,"",   885.522E+03,   884.859E+03,   884.859E+03
C:/temp/Job-16.odb,Step-1,Increment      1: Step Time =    1.000,"P-16-1",            75,          150.,          200.,            0.,NA,NA,"",   954.327E+03,   951.424E+03,   951.424E+03
C:/temp/Job-16.odb,Step-1,Increment      1: Step Time =    1.000,"P-16-1",            76,          160.,          200.,            0.,NA,NA,"",   985.569E+03,   984.988E+03,   984.988E+03
C:/temp/Job-16.odb,Step-1,Increment      1: Step Time =    1.000,"P-16-1",            77,          170.,          200.,            0.,NA,NA,"",   994.641E+03,   994.474E+03,   994.474E+03
C:/temp/Job-16.odb,Step-1,Increment      1: Step Time =    1.000,"P-16-1",            78,          180.,          200.,            0.,NA,NA,"",   993.842E+03,   993.961E+03,   993.961E+03
C:/temp/Job-16.odb,Step-1,Increment      1: Step Time =    1.000,"P-16-1",            79,          190.,          200.,            0.,NA,NA,"",   996.079E+03,   996.171E+03,   996.171E+03
C:/temp/Job-16.odb,Step-1,Increment      1: Step Time =    1.000,"P-16-1",            80,            0.,          200.,            0.,NA,NA,"",   2.18844E+06,   2.29714E+06,   2.29714E+06
C:/temp/Job-16.odb,Step-1,Increment      1: Step Time =    1.000,"P-16-1",            81,            0.,           10.,            0.,NA,NA,"",   1.57342E+06,   1.72164E+06,   1.72164E+06
C:/temp/Job-16.odb,Step-1,Increment      1: Step Time =    1.000,"P-16-1",            82,            0.,           20.,            0.,NA,NA,"",   1.30548E+06,   1.44905E+06,   1.44905E+06
C:/temp/Job-16.odb,Step-1,Increment      1: Step Time =    1.000,"P-16-1",            83,            0.,           30.,            0.,NA,NA,"",   1.12887E+06,   1.26138E+06,   1.26138E+06
C:/temp/Job-16.odb,Step-1,Increment      1: Step Time =    1.000,"P-16-1",            84,            0.,           40.,            0.,NA,NA,"",   982.299E+03,   1.10086E+06,   1.10086E+06
C:/temp/Job-16.odb,Step-1,Increment      1: Step Time =    1.000,"P-16-1",            85,            0.,           50.,            0.,NA,NA,"",   848.308E+03,   950.892E+03,   950.892E+03
C:/temp/Job-16.odb,Step-1,Increment      1: Step Time =    1.000,"P-16-1",            86,            0.,           60.,            0.,NA,NA,"",   710.231E+03,   795.529E+03,   795.529E+03
C:/temp/Job-16.odb,Step-1,Increment      1: Step Time =    1.000,"P-16-1",            87,            0.,           70.,            0.,NA,NA,"",   576.223E+03,   645.144E+03,   645.144E+03
C:/temp/Job-16.odb,Step-1,Increment      1: Step Time =    1.000,"P-16-1",            88,            0.,           80.,            0.,NA,NA,"",   452.842E+03,   509.296E+03,   509.296E+03
C:/temp/Job-16.odb,Step-1,Increment      1: Step Time =    1.000,"P-16-1",            89,            0.,           90.,            0.,NA,NA,"",   357.052E+03,   406.229E+03,   406.229E+03
C:/temp/Job-16.odb,Step-1,Increment      1: Step Time =    1.000,"P-16-1",            90,            0.,          100.,            0.,NA,NA,"",   317.965E+03,   364.454E+03,   364.454E+03
C:/temp/Job-16.odb,Step-1,Increment      1: Step Time =    1.000,"P-16-1",            91,            0.,          110.,            0.,NA,NA,"",   357.255E+03,   406.473E+03,   406.473E+03
C:/temp/Job-16.odb,Step-1,Increment      1: Step Time =    1.000,"P-16-1",            92,            0.,          120.,            0.,NA,NA,"",   452.333E+03,   508.764E+03,   508.764E+03
C:/temp/Job-16.odb,Step-1,Increment      1: Step Time =    1.000,"P-16-1",            93,            0.,          130.,            0.,NA,NA,"",   576.788E+03,   645.545E+03,   645.545E+03
C:/temp/Job-16.odb,Step-1,Increment      1: Step Time =    1.000,"P-16-1",            94,            0.,          140.,            0.,NA,NA,"",   713.981E+03,   798.116E+03,   798.116E+03
C:/temp/Job-16.odb,Step-1,Increment      1: Step Time =    1.000,"P-16-1",            95,            0.,          150.,            0.,NA,NA,"",   851.348E+03,   955.802E+03,   955.802E+03
C:/temp/Job-16.odb,Step-1,Increment      1: Step Time =    1.000,"P-16-1",            96,            0.,          160.,            0.,NA,NA,"",   983.895E+03,   1.10391E+06,   1.10391E+06
C:/temp/Job-16.odb,Step-1,Increment      1: Step Time =    1.000,"P-16-1",            97,            0.,          170.,            0.,NA,NA,"",   1.12663E+06,   1.25948E+06,   1.25948E+06
C:/temp/Job-16.odb,Step-1,Increment      1: Step Time =    1.000,"P-16-1",            98,            0.,          180.,            0.,NA,NA,"",   1.30281E+06,   1.44709E+06,   1.44709E+06
C:/temp/Job-16.odb,Step-1,Increment      1: Step Time =    1.000,"P-16-1",            99,            0.,          190.,            0.,NA,NA,"",   1.57104E+06,   1.71981E+06,   1.71981E+06
C:/temp/Job-16.odb,Step-1,Increment      1: Step Time =    1.000,"P-16-1",           100,       93.1240,       51.3803,            0.,NA,NA,"",   2.09016E+06,   2.22914E+06,   2.22914E+06
C:/temp/Job-16.odb,Step-1,Increment      1: Step Time =    1.000,"P-16-1",           101,       178.941,       144.249,            0.,NA,NA,"",   1.13002E+06,   1.14815E+06,   1.14815E+06
C:/temp/Job-16.odb,Step-1,Increment      1: Step Time =    1.000,"P-16-1",           102,       169.029,       147.852,            0.,NA,NA,"",   1.29410E+06,   1.23551E+06,   1.23551E+06
C:/temp/Job-16.odb,Step-1,Increment      1: Step Time =    1.000,"P-16-1",           103,       157.832,       146.742,            0.,NA,NA,"",   1.49190E+06,   1.35498E+06,   1.35498E+06
C:/temp/Job-16.odb,Step-1,Increment      1: Step Time =    1.000,"P-16-1",           104,       146.084,       148.600,            0.,NA,NA,"",   1.64853E+06,   1.49937E+06,   1.49937E+06
C:/temp/Job-16.odb,Step-1,Increment      1: Step Time =    1.000,"P-16-1",           105,       139.222,       148.493,            0.,NA,NA,"",   1.71080E+06,   1.59198E+06,   1.59198E+06
C:/temp/Job-16.odb,Step-1,Increment      1: Step Time =    1.000,"P-16-1",           106,       129.794,       152.969,            0.,NA,NA,"",   1.69147E+06,   1.67784E+06,   1.67784E+06
C:/temp/Job-16.odb,Step-1,Increment      1: Step Time =    1.000,"P-16-1",           107,       115.254,       147.445,            0.,NA,NA,"",   2.07019E+06,   2.20355E+06,   2.20355E+06
C:/temp/Job-16.odb,Step-1,Increment      1: Step Time =    1.000,"P-16-1",           108,       104.930,       147.686,            0.,NA,NA,"",   2.21212E+06,   2.37865E+06,   2.37865E+06
C:/temp/Job-16.odb,Step-1,Increment      1: Step Time =    1.000,"P-16-1",           109,       94.1547,       146.709,            0.,NA,NA,"",   2.25142E+06,   2.39674E+06,   2.39674E+06
C:/temp/Job-16.odb,Step-1,Increment      1: Step Time =    1.000,"P-16-1",           110,       84.4732,       152.679,            0.,NA,NA,"",   1.80716E+06,   1.87027E+06,   1.87027E+06
C:/temp/Job-16.odb,Step-1,Increment      1: Step Time =    1.000,"P-16-1",           111,       73.7355,       146.637,            0.,NA,NA,"",   1.74038E+06,   1.69623E+06,   1.69623E+06
C:/temp/Job-16.odb,Step-1,Increment      1: Step Time =    1.000,"P-16-1",           112,       62.6186,       148.246,            0.,NA,NA,"",   1.60711E+06,   1.48701E+06,   1.48701E+06
C:/temp/Job-16.odb,Step-1,Increment      1: Step Time =    1.000,"P-16-1",           113,       51.7202,       147.161,            0.,NA,NA,"",   1.40601E+06,   1.28196E+06,   1.28196E+06
C:/temp/Job-16.odb,Step-1,Increment      1: Step Time =    1.000,"P-16-1",           114,       39.3290,       148.323,            0.,NA,NA,"",   1.22533E+06,   1.15996E+06,   1.15996E+06
C:/temp/Job-16.odb,Step-1,Increment      1: Step Time =    1.000,"P-16-1",           115,       33.4042,       150.605,            0.,NA,NA,"",   1.17659E+06,   1.14455E+06,   1.14455E+06
C:/temp/Job-16.odb,Step-1,Increment      1: Step Time =    1.000,"P-16-1",           116,       21.6190,       150.624,            0.,NA,NA,"",   1.02842E+06,   1.06128E+06,   1.06128E+06
C:/temp/Job-16.odb,Step-1,Increment      1: Step Time =    1.000,"P-16-1",           117,       10.1877,       149.985,            0.,NA,NA,"",   908.196E+03,   988.837E+03,   988.837E+03
C:/temp/Job-16.odb,Step-1,Increment      1: Step Time =    1.000,"P-16-1",           118,       9.91419,       134.528,            0.,NA,NA,"",   652.894E+03,   721.102E+03,   721.102E+03
C:/temp/Job-16.odb,Step-1,Increment      1: Step Time =    1.000,"P-16-1",           119,       20.9320,       133.820,            0.,NA,NA,"",   702.807E+03,   742.338E+03,   742.338E+03
C:/temp/Job-16.odb,Step-1,Increment      1: Step Time =    1.000,"P-16-1",           120,       31.6679,       135.764,            0.,NA,NA,"",   851.507E+03,   838.593E+03,   838.593E+03
C:/temp/Job-16.odb,Step-1,Increment      1: Step Time =    1.000,"P-16-1",           121,       41.1890,       136.229,            0.,NA,NA,"",   1.00236E+06,   921.883E+03,   921.883E+03
C:/temp/Job-16.odb,Step-1,Increment      1: Step Time =    1.000,"P-16-1",           122,       52.1692,       136.642,            0.,NA,NA,"",   1.20440E+06,   1.05604E+06,   1.05604E+06
C:/temp/Job-16.odb,Step-1,Increment      1: Step Time =    1.000,"P-16-1",           123,       58.6482,       138.355,            0.,NA,NA,"",   1.33204E+06,   1.17989E+06,   1.17989E+06
C:/temp/Job-16.odb,Step-1,Increment      1: Step Time =    1.000,"P-16-1",           124,       70.9550,       139.420,            0.,NA,NA,"",   1.54924E+06,   1.48059E+06,   1.48059E+06
C:/temp/Job-16.odb,Step-1,Increment      1: Step Time =    1.000,"P-16-1",           125,       127.781,       139.608,            0.,NA,NA,"",   1.86700E+06,   1.85778E+06,   1.85778E+06
C:/temp/Job-16.odb,Step-1,Increment      1: Step Time =    1.000,"P-16-1",           126,       138.631,       135.888,            0.,NA,NA,"",   1.69496E+06,   1.50003E+06,   1.50003E+06
C:/temp/Job-16.odb,Step-1,Increment      1: Step Time =    1.000,"P-16-1",           127,       148.140,       139.795,            0.,NA,NA,"",   1.65056E+06,   1.43690E+06,   1.43690E+06
C:/temp/Job-16.odb,Step-1,Increment      1: Step Time =    1.000,"P-16-1",           128,       159.145,       136.451,            0.,NA,NA,"",   1.44130E+06,   1.27584E+06,   1.27584E+06
C:/temp/Job-16.odb,Step-1,Increment      1: Step Time =    1.000,"P-16-1",           129,       169.116,       137.553,            0.,NA,NA,"",   1.27768E+06,   1.21045E+06,   1.21045E+06
C:/temp/Job-16.odb,Step-1,Increment      1: Step Time =    1.000,"P-16-1",           130,       181.272,       134.668,            0.,NA,NA,"",   1.05698E+06,   1.11541E+06,   1.11541E+06
C:/temp/Job-16.odb,Step-1,Increment      1: Step Time =    1.000,"P-16-1",           131,       190.439,       134.984,            0.,NA,NA,"",   936.491E+03,   1.05624E+06,   1.05624E+06
C:/temp/Job-16.odb,Step-1,Increment      1: Step Time =    1.000,"P-16-1",           132,       137.685,       126.247,            0.,NA,NA,"",   1.24934E+06,   1.00460E+06,   1.00460E+06
C:/temp/Job-16.odb,Step-1,Increment      1: Step Time =    1.000,"P-16-1",           133,       146.690,       127.773,            0.,NA,NA,"",   1.45390E+06,   1.13773E+06,   1.13773E+06
C:/temp/Job-16.odb,Step-1,Increment      1: Step Time =    1.000,"P-16-1",           134,       157.961,       125.996,            0.,NA,NA,"",   1.27299E+06,   1.07357E+06,   1.07357E+06
C:/temp/Job-16.odb,Step-1,Increment      1: Step Time =    1.000,"P-16-1",           135,       169.509,       126.398,            0.,NA,NA,"",   1.12905E+06,   1.08284E+06,   1.08284E+06
C:/temp/Job-16.odb,Step-1,Increment      1: Step Time =    1.000,"P-16-1",           136,       180.567,       125.355,            0.,NA,NA,"",   985.977E+03,   1.06664E+06,   1.06664E+06
C:/temp/Job-16.odb,Step-1,Increment      1: Step Time =    1.000,"P-16-1",           137,       190.284,       125.054,            0.,NA,NA,"",   910.380E+03,   1.04484E+06,   1.04484E+06
C:/temp/Job-16.odb,Step-1,Increment      1: Step Time =    1.000,"P-16-1",           138,       148.826,       114.754,            0.,NA,NA,"",   905.869E+03,   49.3261E+03,   49.3261E+03
C:/temp/Job-16.odb,Step-1,Increment      1: Step Time =    1.000,"P-16-1",           139,       158.553,       116.901,            0.,NA,NA,"",   978.089E+03,   807.977E+03,   807.977E+03
C:/temp/Job-16.odb,Step-1,Increment      1: Step Time =    1.000,"P-16-1",           140,       165.102,       116.540,            0.,NA,NA,"",   925.855E+03,   865.876E+03,   865.876E+03
C:/temp/Job-16.odb,Step-1,Increment      1: Step Time =    1.000,"P-16-1",           141,       180.135,       115.592,            0.,NA,NA,"",   856.914E+03,   962.170E+03,   962.170E+03
C:/temp/Job-16.odb,Step-1,Increment      1: Step Time =    1.000,"P-16-1",           142,       190.049,       115.153,            0.,NA,NA,"",   882.872E+03,   1.00772E+06,   1.00772E+06
C:/temp/Job-16.odb,Step-1,Increment      1: Step Time =    1.000,"P-16-1",           143,       147.854,       106.086,            0.,NA,NA,"",   649.171E+03,  -558.146E+03,  -558.146E+03
C:/temp/Job-16.odb,Step-1,Increment      1: Step Time =    1.000,"P-16-1",           144,       159.933,       105.068,            0.,NA,NA,"",   477.524E+03,   434.011E+03,   434.011E+03
C:/temp/Job-16.odb,Step-1,Increment      1: Step Time =    1.000,"P-16-1",           145,       168.751,       102.356,            0.,NA,NA,"",   534.882E+03,   600.821E+03,   600.821E+03
C:/temp/Job-16.odb,Step-1,Increment      1: Step Time =    1.000,"P-16-1",           146,       179.694,       105.374,            0.,NA,NA,"",   723.366E+03,   832.520E+03,   832.520E+03
C:/temp/Job-16.odb,Step-1,Increment      1: Step Time =    1.000,"P-16-1",           147,       189.907,       105.130,            0.,NA,NA,"",   861.034E+03,   954.969E+03,   954.969E+03
C:/temp/Job-16.odb,Step-1,Increment      1: Step Time =    1.000,"P-16-1",           148,       145.936,       93.9618,            0.,NA,NA,"",   703.848E+03,  -669.404E+03,  -669.404E+03
C:/temp/Job-16.odb,Step-1,Increment      1: Step Time =    1.000,"P-16-1",           149,       156.868,       95.8838,            0.,NA,NA,"",   443.770E+03,   348.770E+03,   348.770E+03
C:/temp/Job-16.odb,Step-1,Increment      1: Step Time =    1.000,"P-16-1",           150,       166.583,       94.3814,            0.,NA,NA,"",   568.361E+03,   608.251E+03,   608.251E+03
C:/temp/Job-16.odb,Step-1,Increment      1: Step Time =    1.000,"P-16-1",           151,       179.853,       94.9734,            0.,NA,NA,"",   726.245E+03,   836.016E+03,   836.016E+03
C:/temp/Job-16.odb,Step-1,Increment      1: Step Time =    1.000,"P-16-1",           152,       189.997,       95.1165,            0.,NA,NA,"",   862.426E+03,   955.592E+03,   955.592E+03
C:/temp/Job-16.odb,Step-1,Increment      1: Step Time =    1.000,"P-16-1",           153,       150.746,       85.7867,            0.,NA,NA,"",   878.826E+03,   291.658E+03,   291.658E+03
C:/temp/Job-16.odb,Step-1,Increment      1: Step Time =    1.000,"P-16-1",           154,       157.606,       84.5743,            0.,NA,NA,"",   908.966E+03,   728.813E+03,   728.813E+03
C:/temp/Job-16.odb,Step-1,Increment      1: Step Time =    1.000,"P-16-1",           155,       168.445,       85.3177,            0.,NA,NA,"",   833.396E+03,   834.197E+03,   834.197E+03
C:/temp/Job-16.odb,Step-1,Increment      1: Step Time =    1.000,"P-16-1",           156,       180.136,       85.0609,            0.,NA,NA,"",   847.523E+03,   955.171E+03,   955.171E+03
C:/temp/Job-16.odb,Step-1,Increment      1: Step Time =    1.000,"P-16-1",           157,       190.273,       85.2128,            0.,NA,NA,"",   883.226E+03,   1.00676E+06,   1.00676E+06
C:/temp/Job-16.odb,Step-1,Increment      1: Step Time =    1.000,"P-16-1",           158,       139.011,       72.8510,            0.,NA,NA,"",   1.34948E+06,   1.09357E+06,   1.09357E+06
C:/temp/Job-16.odb,Step-1,Increment      1: Step Time =    1.000,"P-16-1",           159,       147.893,       71.5632,            0.,NA,NA,"",   1.46878E+06,   1.17070E+06,   1.17070E+06
C:/temp/Job-16.odb,Step-1,Increment      1: Step Time =    1.000,"P-16-1",           160,       160.286,       73.5378,            0.,NA,NA,"",   1.26250E+06,   1.09242E+06,   1.09242E+06
C:/temp/Job-16.odb,Step-1,Increment      1: Step Time =    1.000,"P-16-1",           161,       170.990,       74.3003,            0.,NA,NA,"",   1.10033E+06,   1.07558E+06,   1.07558E+06
C:/temp/Job-16.odb,Step-1,Increment      1: Step Time =    1.000,"P-16-1",           162,       180.666,       75.8309,            0.,NA,NA,"",   971.017E+03,   1.05502E+06,   1.05502E+06
C:/temp/Job-16.odb,Step-1,Increment      1: Step Time =    1.000,"P-16-1",           163,       190.426,       75.6493,            0.,NA,NA,"",   906.214E+03,   1.04108E+06,   1.04108E+06
C:/temp/Job-16.odb,Step-1,Increment      1: Step Time =    1.000,"P-16-1",           164,       127.355,       61.8232,            0.,NA,NA,"",   1.85986E+06,   1.85266E+06,   1.85266E+06
C:/temp/Job-16.odb,Step-1,Increment      1: Step Time =    1.000,"P-16-1",           165,       136.874,       63.6047,            0.,NA,NA,"",   1.69353E+06,   1.52892E+06,   1.52892E+06
C:/temp/Job-16.odb,Step-1,Increment      1: Step Time =    1.000,"P-16-1",           166,       151.287,       62.3544,            0.,NA,NA,"",   1.57830E+06,   1.35638E+06,   1.35638E+06
C:/temp/Job-16.odb,Step-1,Increment      1: Step Time =    1.000,"P-16-1",           167,       158.714,       62.7352,            0.,NA,NA,"",   1.44553E+06,   1.27787E+06,   1.27787E+06
C:/temp/Job-16.odb,Step-1,Increment      1: Step Time =    1.000,"P-16-1",           168,       167.651,       64.1566,            0.,NA,NA,"",   1.28800E+06,   1.20447E+06,   1.20447E+06
C:/temp/Job-16.odb,Step-1,Increment      1: Step Time =    1.000,"P-16-1",           169,       178.411,       65.8111,            0.,NA,NA,"",   1.09409E+06,   1.12865E+06,   1.12865E+06
C:/temp/Job-16.odb,Step-1,Increment      1: Step Time =    1.000,"P-16-1",           170,       189.667,       66.3276,            0.,NA,NA,"",   938.175E+03,   1.05742E+06,   1.05742E+06
C:/temp/Job-16.odb,Step-1,Increment      1: Step Time =    1.000,"P-16-1",           171,       107.315,       51.8679,            0.,NA,NA,"",   2.15609E+06,   2.32226E+06,   2.32226E+06
C:/temp/Job-16.odb,Step-1,Increment      1: Step Time =    1.000,"P-16-1",           172,       10.0119,       50.5233,            0.,NA,NA,"",   896.600E+03,   977.116E+03,   977.116E+03
C:/temp/Job-16.odb,Step-1,Increment      1: Step Time =    1.000,"P-16-1",           173,       19.8935,       52.3038,            0.,NA,NA,"",   955.823E+03,   996.691E+03,   996.691E+03
C:/temp/Job-16.odb,Step-1,Increment      1: Step Time =    1.000,"P-16-1",           174,       31.9780,       55.0356,            0.,NA,NA,"",    1.0458E+06,   1.02457E+06,   1.02457E+06
C:/temp/Job-16.odb,Step-1,Increment      1: Step Time =    1.000,"P-16-1",           175,       41.6932,       54.5761,            0.,NA,NA,"",   1.21190E+06,   1.13222E+06,   1.13222E+06
C:/temp/Job-16.odb,Step-1,Increment      1: Step Time =    1.000,"P-16-1",           176,       51.3055,       52.2517,            0.,NA,NA,"",   1.41161E+06,   1.28887E+06,   1.28887E+06
C:/temp/Job-16.odb,Step-1,Increment      1: Step Time =    1.000,"P-16-1",           177,       64.0266,       49.8195,            0.,NA,NA,"",   1.63815E+06,   1.52679E+06,   1.52679E+06
C:/temp/Job-16.odb,Step-1,Increment      1: Step Time =    1.000,"P-16-1",           178,       69.3366,       53.1178,            0.,NA,NA,"",   1.68578E+06,   1.59900E+06,   1.59900E+06
C:/temp/Job-16.odb,Step-1,Increment      1: Step Time =    1.000,"P-16-1",           179,       84.2815,       50.3949,            0.,NA,NA,"",   1.88313E+06,   1.95092E+06,   1.95092E+06
C:/temp/Job-16.odb,Step-1,Increment      1: Step Time =    1.000,"P-16-1",           180,       115.743,       51.4330,            0.,NA,NA,"",   1.94516E+06,   2.07458E+06,   2.07458E+06
C:/temp/Job-16.odb,Step-1,Increment      1: Step Time =    1.000,"P-16-1",           181,       126.085,       51.6906,            0.,NA,NA,"",   1.81529E+06,   1.83367E+06,   1.83367E+06
C:/temp/Job-16.odb,Step-1,Increment      1: Step Time =    1.000,"P-16-1",           182,       135.408,       50.4146,            0.,NA,NA,"",   1.72994E+06,   1.64848E+06,   1.64848E+06
C:/temp/Job-16.odb,Step-1,Increment      1: Step Time =    1.000,"P-16-1",           183,       147.745,       52.8848,            0.,NA,NA,"",   1.64103E+06,   1.48045E+06,   1.48045E+06
C:/temp/Job-16.odb,Step-1,Increment      1: Step Time =    1.000,"P-16-1",           184,       157.909,       55.5413,            0.,NA,NA,"",   1.49032E+06,   1.34309E+06,   1.34309E+06
C:/temp/Job-16.odb,Step-1,Increment      1: Step Time =    1.000,"P-16-1",           185,       167.536,       54.7208,            0.,NA,NA,"",   1.31982E+06,   1.24804E+06,   1.24804E+06
C:/temp/Job-16.odb,Step-1,Increment      1: Step Time =    1.000,"P-16-1",           186,       176.524,       52.6117,            0.,NA,NA,"",   1.16787E+06,   1.16557E+06,   1.16557E+06
C:/temp/Job-16.odb,Step-1,Increment      1: Step Time =    1.000,"P-16-1",           187,       186.944,       50.5356,            0.,NA,NA,"",   1.01716E+06,   1.07574E+06,   1.07574E+06
C:/temp/Job-16.odb,Step-1,Increment      1: Step Time =    1.000,"P-16-1",           188,       72.6520,       61.5805,            0.,NA,NA,"",   1.54672E+06,   1.49578E+06,   1.49578E+06
C:/temp/Job-16.odb,Step-1,Increment      1: Step Time =    1.000,"P-16-1",           189,       63.2703,       63.1717,            0.,NA,NA,"",   1.33995E+06,   1.19649E+06,   1.19649E+06
C:/temp/Job-16.odb,Step-1,Increment      1: Step Time =    1.000,"P-16-1",           190,       49.7087,       60.4955,            0.,NA,NA,"",   1.22097E+06,   1.08841E+06,   1.08841E+06
C:/temp/Job-16.odb,Step-1,Increment      1: Step Time =    1.000,"P-16-1",           191,       40.8184,       63.7741,            0.,NA,NA,"",   991.435E+03,   916.464E+03,   916.464E+03
C:/temp/Job-16.odb,Step-1,Increment      1: Step Time =    1.000,"P-16-1",           192,       31.5426,       64.3409,            0.,NA,NA,"",   839.756E+03,   827.973E+03,   827.973E+03
C:/temp/Job-16.odb,Step-1,Increment      1: Step Time =    1.000,"P-16-1",           193,       23.1446,       63.6499,            0.,NA,NA,"",   772.520E+03,   802.214E+03,   802.214E+03
C:/temp/Job-16.odb,Step-1,Increment      1: Step Time =    1.000,"P-16-1",           194,       9.36943,       64.9019,            0.,NA,NA,"",   659.784E+03,   728.982E+03,   728.982E+03
C:/temp/Job-16.odb,Step-1,Increment      1: Step Time =    1.000,"P-16-1",           195,       52.1922,       69.2012,            0.,NA,NA,"",   1.00917E+06,   847.258E+03,   847.258E+03
C:/temp/Job-16.odb,Step-1,Increment      1: Step Time =    1.000,"P-16-1",           196,       46.2462,       72.3447,            0.,NA,NA,"",   843.647E+03,   718.678E+03,   718.678E+03
C:/temp/Job-16.odb,Step-1,Increment      1: Step Time =    1.000,"P-16-1",           197,       33.3924,       76.5129,            0.,NA,NA,"",   572.487E+03,   562.887E+03,   562.887E+03
C:/temp/Job-16.odb,Step-1,Increment      1: Step Time =    1.000,"P-16-1",           198,       19.5277,       73.2261,            0.,NA,NA,"",   554.281E+03,   602.491E+03,   602.491E+03
C:/temp/Job-16.odb,Step-1,Increment      1: Step Time =    1.000,"P-16-1",           199,       9.78254,       74.5458,            0.,NA,NA,"",   513.275E+03,   574.884E+03,   574.884E+03
C:/temp/Job-16.odb,Step-1,Increment      1: Step Time =    1.000,"P-16-1",           200,       34.8355,       85.0374,            0.,NA,NA,"",   381.026E+03,   376.665E+03,   376.665E+03
C:/temp/Job-16.odb,Step-1,Increment      1: Step Time =    1.000,"P-16-1",           201,       24.0619,       85.2030,            0.,NA,NA,"",   353.132E+03,   397.185E+03,   397.185E+03
C:/temp/Job-16.odb,Step-1,Increment      1: Step Time =    1.000,"P-16-1",           202,       10.4123,       84.6077,            0.,NA,NA,"",   379.378E+03,   434.097E+03,   434.097E+03
C:/temp/Job-16.odb,Step-1,Increment      1: Step Time =    1.000,"P-16-1",           203,       50.9520,       93.8831,            0.,NA,NA,"",   313.051E+03,  -293.836E+03,  -293.836E+03
C:/temp/Job-16.odb,Step-1,Increment      1: Step Time =    1.000,"P-16-1",           204,       42.6596,       92.4326,            0.,NA,NA,"",   218.090E+03,   93.1355E+03,   93.1355E+03
C:/temp/Job-16.odb,Step-1,Increment      1: Step Time =    1.000,"P-16-1",           205,       33.1063,       94.5471,            0.,NA,NA,"",   188.827E+03,   213.586E+03,   213.586E+03
C:/temp/Job-16.odb,Step-1,Increment      1: Step Time =    1.000,"P-16-1",           206,       23.8135,       93.0121,            0.,NA,NA,"",   260.824E+03,   299.762E+03,   299.762E+03
C:/temp/Job-16.odb,Step-1,Increment      1: Step Time =    1.000,"P-16-1",           207,       10.0169,       94.8649,            0.,NA,NA,"",   297.315E+03,   342.419E+03,   342.419E+03
C:/temp/Job-16.odb,Step-1,Increment      1: Step Time =    1.000,"P-16-1",           208,       52.7986,       106.039,            0.,NA,NA,"",   368.616E+03,  -367.564E+03,  -367.564E+03
C:/temp/Job-16.odb,Step-1,Increment      1: Step Time =    1.000,"P-16-1",           209,       41.4187,       104.905,            0.,NA,NA,"",   156.309E+03,   90.9137E+03,   90.9137E+03
C:/temp/Job-16.odb,Step-1,Increment      1: Step Time =    1.000,"P-16-1",           210,       33.6431,       106.581,            0.,NA,NA,"",   206.844E+03,   229.664E+03,   229.664E+03
C:/temp/Job-16.odb,Step-1,Increment      1: Step Time =    1.000,"P-16-1",           211,       22.4314,       104.058,            0.,NA,NA,"",   245.490E+03,   279.858E+03,   279.858E+03
C:/temp/Job-16.odb,Step-1,Increment      1: Step Time =    1.000,"P-16-1",           212,       10.3533,       104.839,            0.,NA,NA,"",   296.829E+03,   341.743E+03,   341.743E+03
C:/temp/Job-16.odb,Step-1,Increment      1: Step Time =    1.000,"P-16-1",           213,       51.6197,       117.487,            0.,NA,NA,"",   539.051E+03,   205.556E+03,   205.556E+03
C:/temp/Job-16.odb,Step-1,Increment      1: Step Time =    1.000,"P-16-1",           214,       40.5233,       116.488,            0.,NA,NA,"",   442.377E+03,   386.890E+03,   386.890E+03
C:/temp/Job-16.odb,Step-1,Increment      1: Step Time =    1.000,"P-16-1",           215,       31.4957,       118.682,            0.,NA,NA,"",   446.014E+03,   458.046E+03,   458.046E+03
C:/temp/Job-16.odb,Step-1,Increment      1: Step Time =    1.000,"P-16-1",           216,       10.3590,       114.909,            0.,NA,NA,"",   375.426E+03,   429.882E+03,   429.882E+03
C:/temp/Job-16.odb,Step-1,Increment      1: Step Time =    1.000,"P-16-1",           217,       58.5825,       125.316,            0.,NA,NA,"",   794.835E+03,   592.196E+03,   592.196E+03
C:/temp/Job-16.odb,Step-1,Increment      1: Step Time =    1.000,"P-16-1",           218,       51.0285,       127.325,            0.,NA,NA,"",   858.228E+03,   695.308E+03,   695.308E+03
C:/temp/Job-16.odb,Step-1,Increment      1: Step Time =    1.000,"P-16-1",           219,       43.9099,       125.093,            0.,NA,NA,"",   718.708E+03,   617.481E+03,   617.481E+03
C:/temp/Job-16.odb,Step-1,Increment      1: Step Time =    1.000,"P-16-1",           220,       30.3368,       126.273,            0.,NA,NA,"",   612.069E+03,   619.275E+03,   619.275E+03
C:/temp/Job-16.odb,Step-1,Increment      1: Step Time =    1.000,"P-16-1",           221,       23.3969,       127.668,            0.,NA,NA,"",   592.831E+03,   629.072E+03,   629.072E+03
C:/temp/Job-16.odb,Step-1,Increment      1: Step Time =    1.000,"P-16-1",           222,       9.58524,       124.998,            0.,NA,NA,"",   506.940E+03,   568.553E+03,   568.553E+03
C:/temp/Job-16.odb,Step-1,Increment      1: Step Time =    1.000,"P-16-1",           223,       190.246,       10.4319,            0.,NA,NA,"",   1.00246E+06,   1.00401E+06,   1.00401E+06
C:/temp/Job-16.odb,Step-1,Increment      1: Step Time =    1.000,"P-16-1",           224,       179.315,       12.2789,            0.,NA,NA,"",   1.02208E+06,   1.02253E+06,   1.02253E+06
C:/temp/Job-16.odb,Step-1,Increment      1: Step Time =    1.000,"P-16-1",           225,       169.040,       10.1903,            0.,NA,NA,"",   1.03199E+06,   1.02811E+06,   1.02811E+06
C:/temp/Job-16.odb,Step-1,Increment      1: Step Time =    1.000,"P-16-1",           226,       158.482,       10.9460,            0.,NA,NA,"",   1.04526E+06,   1.03697E+06,   1.03697E+06
C:/temp/Job-16.odb,Step-1,Increment      1: Step Time =    1.000,"P-16-1",           227,       149.127,       12.4855,            0.,NA,NA,"",   1.05593E+06,   1.04403E+06,   1.04403E+06
C:/temp/Job-16.odb,Step-1,Increment      1: Step Time =    1.000,"P-16-1",           228,       135.215,       9.58829,            0.,NA,NA,"",   971.040E+03,   966.606E+03,   966.606E+03
C:/temp/Job-16.odb,Step-1,Increment      1: Step Time =    1.000,"P-16-1",           229,       125.196,       10.0852,            0.,NA,NA,"",   930.135E+03,   933.992E+03,   933.992E+03
C:/temp/Job-16.odb,Step-1,Increment      1: Step Time =    1.000,"P-16-1",           230,       115.120,       10.2038,            0.,NA,NA,"",   893.140E+03,   906.696E+03,   906.696E+03
C:/temp/Job-16.odb,Step-1,Increment      1: Step Time =    1.000,"P-16-1",           231,       105.083,       10.1638,            0.,NA,NA,"",   893.744E+03,   911.629E+03,   911.629E+03
C:/temp/Job-16.odb,Step-1,Increment      1: Step Time =    1.000,"P-16-1",           232,       95.1615,       10.0145,            0.,NA,NA,"",   950.842E+03,   963.616E+03,   963.616E+03
C:/temp/Job-16.odb,Step-1,Increment      1: Step Time =    1.000,"P-16-1",           233,       85.3077,       9.79160,            0.,NA,NA,"",   1.05334E+06,   1.05512E+06,   1.05512E+06
C:/temp/Job-16.odb,Step-1,Increment      1: Step Time =    1.000,"P-16-1",           234,       75.5870,       9.63320,            0.,NA,NA,"",   1.17538E+06,   1.16708E+06,   1.16708E+06
C:/temp/Job-16.odb,Step-1,Increment      1: Step Time =    1.000,"P-16-1",           235,       66.1979,       9.72560,            0.,NA,NA,"",   1.29222E+06,   1.27913E+06,   1.27913E+06
C:/temp/Job-16.odb,Step-1,Increment      1: Step Time =    1.000,"P-16-1",           236,       51.4923,       11.4346,            0.,NA,NA,"",   1.44047E+06,   1.42281E+06,   1.42281E+06
C:/temp/Job-16.odb,Step-1,Increment      1: Step Time =    1.000,"P-16-1",           237,       39.2462,       8.99537,            0.,NA,NA,"",   1.51814E+06,   1.51075E+06,   1.51075E+06
C:/temp/Job-16.odb,Step-1,Increment      1: Step Time =    1.000,"P-16-1",           238,       30.0031,       8.75761,            0.,NA,NA,"",   1.57463E+06,   1.57270E+06,   1.57270E+06
C:/temp/Job-16.odb,Step-1,Increment      1: Step Time =    1.000,"P-16-1",           239,       20.3122,       9.09868,            0.,NA,NA,"",   1.63243E+06,   1.64193E+06,   1.64193E+06
C:/temp/Job-16.odb,Step-1,Increment      1: Step Time =    1.000,"P-16-1",           240,       10.2924,       9.83168,            0.,NA,NA,"",   1.69914E+06,   1.75125E+06,   1.75125E+06
C:/temp/Job-16.odb,Step-1,Increment      1: Step Time =    1.000,"P-16-1",           241,       191.903,       24.7519,            0.,NA,NA,"",   1.00100E+06,   1.01220E+06,   1.01220E+06
C:/temp/Job-16.odb,Step-1,Increment      1: Step Time =    1.000,"P-16-1",           242,       179.685,       24.0276,            0.,NA,NA,"",   1.05402E+06,   1.05646E+06,   1.05646E+06
C:/temp/Job-16.odb,Step-1,Increment      1: Step Time =    1.000,"P-16-1",           243,       169.104,       23.8117,            0.,NA,NA,"",   1.12301E+06,   1.10705E+06,   1.10705E+06
C:/temp/Job-16.odb,Step-1,Increment      1: Step Time =    1.000,"P-16-1",           244,       160.583,       20.7720,            0.,NA,NA,"",   1.14182E+06,   1.11935E+06,   1.11935E+06
C:/temp/Job-16.odb,Step-1,Increment      1: Step Time =    1.000,"P-16-1",           245,       145.593,       20.6635,            0.,NA,NA,"",   1.18065E+06,   1.15537E+06,   1.15537E+06
C:/temp/Job-16.odb,Step-1,Increment      1: Step Time =    1.000,"P-16-1",           246,       136.943,       20.2337,            0.,NA,NA,"",   1.17604E+06,   1.16125E+06,   1.16125E+06
C:/temp/Job-16.odb,Step-1,Increment      1: Step Time =    1.000,"P-16-1",           247,       125.543,       20.3160,            0.,NA,NA,"",   1.14646E+06,   1.15968E+06,   1.15968E+06
C:/temp/Job-16.odb,Step-1,Increment      1: Step Time =    1.000,"P-16-1",           248,       115.199,       20.8310,            0.,NA,NA,"",   1.11462E+06,   1.15819E+06,   1.15819E+06
C:/temp/Job-16.odb,Step-1,Increment      1: Step Time =    1.000,"P-16-1",           249,       104.974,       20.5797,            0.,NA,NA,"",   1.11076E+06,   1.16540E+06,   1.16540E+06
C:/temp/Job-16.odb,Step-1,Increment      1: Step Time =    1.000,"P-16-1",           250,       95.0181,       20.4112,            0.,NA,NA,"",   1.16818E+06,   1.21094E+06,   1.21094E+06
C:/temp/Job-16.odb,Step-1,Increment      1: Step Time =    1.000,"P-16-1",           251,       85.5489,       19.9375,            0.,NA,NA,"",   1.26056E+06,   1.27385E+06,   1.27385E+06
C:/temp/Job-16.odb,Step-1,Increment      1: Step Time =    1.000,"P-16-1",           252,       76.2501,       19.5531,            0.,NA,NA,"",   1.35135E+06,   1.33514E+06,   1.33514E+06
C:/temp/Job-16.odb,Step-1,Increment      1: Step Time =    1.000,"P-16-1",           253,       64.7476,       21.6697,            0.,NA,NA,"",   1.46229E+06,   1.41953E+06,   1.41953E+06
C:/temp/Job-16.odb,Step-1,Increment      1: Step Time =    1.000,"P-16-1",           254,       53.8699,       21.1846,            0.,NA,NA,"",   1.48612E+06,   1.44136E+06,   1.44136E+06
C:/temp/Job-16.odb,Step-1,Increment      1: Step Time =    1.000,"P-16-1",           255,       41.2746,       19.3546,            0.,NA,NA,"",   1.49799E+06,   1.47033E+06,   1.47033E+06
C:/temp/Job-16.odb,Step-1,Increment      1: Step Time =    1.000,"P-16-1",           256,       29.6840,       21.3542,            0.,NA,NA,"",   1.49044E+06,   1.48569E+06,   1.48569E+06
C:/temp/Job-16.odb,Step-1,Increment      1: Step Time =    1.000,"P-16-1",           257,       21.8133,       21.4884,            0.,NA,NA,"",   1.46750E+06,   1.49338E+06,   1.49338E+06
C:/temp/Job-16.odb,Step-1,Increment      1: Step Time =    1.000,"P-16-1",           258,       11.4839,       20.6479,            0.,NA,NA,"",   1.40945E+06,   1.49247E+06,   1.49247E+06
C:/temp/Job-16.odb,Step-1,Increment      1: Step Time =    1.000,"P-16-1",           259,       191.747,       33.6762,            0.,NA,NA,"",   990.954E+03,   1.01905E+06,   1.01905E+06
C:/temp/Job-16.odb,Step-1,Increment      1: Step Time =    1.000,"P-16-1",           260,       178.688,       33.1681,            0.,NA,NA,"",   1.09096E+06,   1.09324E+06,   1.09324E+06
C:/temp/Job-16.odb,Step-1,Increment      1: Step Time =    1.000,"P-16-1",           261,       169.299,       32.9764,            0.,NA,NA,"",   1.19141E+06,   1.16335E+06,   1.16335E+06
C:/temp/Job-16.odb,Step-1,Increment      1: Step Time =    1.000,"P-16-1",           262,       158.125,       30.5776,            0.,NA,NA,"",   1.27166E+06,   1.22331E+06,   1.22331E+06
C:/temp/Job-16.odb,Step-1,Increment      1: Step Time =    1.000,"P-16-1",           263,       146.542,       30.6323,            0.,NA,NA,"",   1.34896E+06,   1.29699E+06,   1.29699E+06
C:/temp/Job-16.odb,Step-1,Increment      1: Step Time =    1.000,"P-16-1",           264,       136.269,       30.9166,            0.,NA,NA,"",   1.37519E+06,   1.34938E+06,   1.34938E+06
C:/temp/Job-16.odb,Step-1,Increment      1: Step Time =    1.000,"P-16-1",           265,       124.953,       31.1329,            0.,NA,NA,"",   1.36093E+06,   1.38737E+06,   1.38737E+06
C:/temp/Job-16.odb,Step-1,Increment      1: Step Time =    1.000,"P-16-1",           266,       114.067,       31.1947,            0.,NA,NA,"",   1.31251E+06,   1.39585E+06,   1.39585E+06
C:/temp/Job-16.odb,Step-1,Increment      1: Step Time =    1.000,"P-16-1",           267,       104.903,       30.7643,            0.,NA,NA,"",   1.30044E+06,   1.39800E+06,   1.39800E+06
C:/temp/Job-16.odb,Step-1,Increment      1: Step Time =    1.000,"P-16-1",           268,       96.1816,       31.7559,            0.,NA,NA,"",   1.37491E+06,   1.46534E+06,   1.46534E+06
C:/temp/Job-16.odb,Step-1,Increment      1: Step Time =    1.000,"P-16-1",           269,       83.3838,       30.3864,            0.,NA,NA,"",   1.47610E+06,   1.49705E+06,   1.49705E+06
C:/temp/Job-16.odb,Step-1,Increment      1: Step Time =    1.000,"P-16-1",           270,       72.2788,       30.2942,            0.,NA,NA,"",   1.54470E+06,   1.50578E+06,   1.50578E+06
C:/temp/Job-16.odb,Step-1,Increment      1: Step Time =    1.000,"P-16-1",           271,       66.1861,       32.3426,            0.,NA,NA,"",   1.57913E+06,   1.51528E+06,   1.51528E+06
C:/temp/Job-16.odb,Step-1,Increment      1: Step Time =    1.000,"P-16-1",           272,       50.5405,       34.0999,            0.,NA,NA,"",   1.52473E+06,   1.44784E+06,   1.44784E+06
C:/temp/Job-16.odb,Step-1,Increment      1: Step Time =    1.000,"P-16-1",           273,       40.1137,       29.2939,            0.,NA,NA,"",   1.47125E+06,   1.42831E+06,   1.42831E+06
C:/temp/Job-16.odb,Step-1,Increment      1: Step Time =    1.000,"P-16-1",           274,       30.2664,       28.4525,            0.,NA,NA,"",   1.42204E+06,   1.41226E+06,   1.41226E+06
C:/temp/Job-16.odb,Step-1,Increment      1: Step Time =    1.000,"P-16-1",           275,       22.2787,       31.0299,            0.,NA,NA,"",   1.32571E+06,   1.35363E+06,   1.35363E+06
C:/temp/Job-16.odb,Step-1,Increment      1: Step Time =    1.000,"P-16-1",           276,       9.59626,       35.4713,            0.,NA,NA,"",   1.12469E+06,   1.22049E+06,   1.22049E+06
C:/temp/Job-16.odb,Step-1,Increment      1: Step Time =    1.000,"P-16-1",           277,       190.254,       42.3837,            0.,NA,NA,"",   985.282E+03,   1.03597E+06,   1.03597E+06
C:/temp/Job-16.odb,Step-1,Increment      1: Step Time =    1.000,"P-16-1",           278,       177.732,       41.2952,            0.,NA,NA,"",   1.13434E+06,   1.13269E+06,   1.13269E+06
C:/temp/Job-16.odb,Step-1,Increment      1: Step Time =    1.000,"P-16-1",           279,       170.791,       44.3112,            0.,NA,NA,"",   1.23564E+06,   1.19970E+06,   1.19970E+06
C:/temp/Job-16.odb,Step-1,Increment      1: Step Time =    1.000,"P-16-1",           280,       158.623,       40.1891,            0.,NA,NA,"",   1.37733E+06,   1.29899E+06,   1.29899E+06
C:/temp/Job-16.odb,Step-1,Increment      1: Step Time =    1.000,"P-16-1",           281,       147.248,       40.7784,            0.,NA,NA,"",   1.49887E+06,   1.40839E+06,   1.40839E+06
C:/temp/Job-16.odb,Step-1,Increment      1: Step Time =    1.000,"P-16-1",           282,       137.354,       42.0562,            0.,NA,NA,"",   1.58483E+06,   1.52452E+06,   1.52452E+06
C:/temp/Job-16.odb,Step-1,Increment      1: Step Time =    1.000,"P-16-1",           283,       123.968,       45.7567,            0.,NA,NA,"",   1.68216E+06,   1.72816E+06,   1.72816E+06
C:/temp/Job-16.odb,Step-1,Increment      1: Step Time =    1.000,"P-16-1",           284,       117.709,       43.7369,            0.,NA,NA,"",   1.63130E+06,   1.73020E+06,   1.73020E+06
C:/temp/Job-16.odb,Step-1,Increment      1: Step Time =    1.000,"P-16-1",           285,       105.107,       40.8427,            0.,NA,NA,"",   1.56086E+06,   1.70415E+06,   1.70415E+06
C:/temp/Job-16.odb,Step-1,Increment      1: Step Time =    1.000,"P-16-1",           286,       96.6641,       40.8350,            0.,NA,NA,"",   1.59451E+06,   1.72481E+06,   1.72481E+06
C:/temp/Job-16.odb,Step-1,Increment      1: Step Time =    1.000,"P-16-1",           287,       81.0796,       39.8703,            0.,NA,NA,"",   1.65788E+06,   1.67608E+06,   1.67608E+06
C:/temp/Job-16.odb,Step-1,Increment      1: Step Time =    1.000,"P-16-1",           288,       75.4191,       39.0224,            0.,NA,NA,"",   1.65673E+06,   1.62991E+06,   1.62991E+06
C:/temp/Job-16.odb,Step-1,Increment      1: Step Time =    1.000,"P-16-1",           289,       65.4799,       41.8023,            0.,NA,NA,"",   1.65092E+06,   1.56461E+06,   1.56461E+06
C:/temp/Job-16.odb,Step-1,Increment      1: Step Time =    1.000,"P-16-1",           290,       53.1392,       44.0806,            0.,NA,NA,"",   1.52864E+06,   1.42103E+06,   1.42103E+06
C:/temp/Job-16.odb,Step-1,Increment      1: Step Time =    1.000,"P-16-1",           291,       42.6795,       46.1726,            0.,NA,NA,"",   1.36086E+06,   1.28246E+06,   1.28246E+06
C:/temp/Job-16.odb,Step-1,Increment      1: Step Time =    1.000,"P-16-1",           292,       32.1647,       40.3640,            0.,NA,NA,"",   1.29809E+06,   1.27650E+06,   1.27650E+06
C:/temp/Job-16.odb,Step-1,Increment      1: Step Time =    1.000,"P-16-1",           293,       20.3453,       43.6066,            0.,NA,NA,"",   1.11237E+06,   1.15229E+06,   1.15229E+06
C:/temp/Job-16.odb,Step-1,Increment      1: Step Time =    1.000,"P-16-1",           294,       10.9158,       45.3999,            0.,NA,NA,"",   985.305E+03,   1.06685E+06,   1.06685E+06
C:/temp/Job-16.odb,Step-1,Increment      1: Step Time =    1.000,"P-16-1",           295,       188.874,       157.772,            0.,NA,NA,"",   1.00137E+06,   1.04592E+06,   1.04592E+06
C:/temp/Job-16.odb,Step-1,Increment      1: Step Time =    1.000,"P-16-1",           296,       178.814,       159.804,            0.,NA,NA,"",   1.11487E+06,   1.11850E+06,   1.11850E+06
C:/temp/Job-16.odb,Step-1,Increment      1: Step Time =    1.000,"P-16-1",           297,       168.744,       157.598,            0.,NA,NA,"",   1.25812E+06,   1.21416E+06,   1.21416E+06
C:/temp/Job-16.odb,Step-1,Increment      1: Step Time =    1.000,"P-16-1",           298,       158.499,       157.464,            0.,NA,NA,"",   1.39443E+06,   1.30837E+06,   1.30837E+06
C:/temp/Job-16.odb,Step-1,Increment      1: Step Time =    1.000,"P-16-1",           299,       145.059,       159.240,            0.,NA,NA,"",   1.52055E+06,   1.43093E+06,   1.43093E+06
C:/temp/Job-16.odb,Step-1,Increment      1: Step Time =    1.000,"P-16-1",           300,       136.577,       160.031,            0.,NA,NA,"",   1.55336E+06,   1.50115E+06,   1.50115E+06
C:/temp/Job-16.odb,Step-1,Increment      1: Step Time =    1.000,"P-16-1",           301,       126.817,        158.25,            0.,NA,NA,"",   1.59142E+06,   1.61286E+06,   1.61286E+06
C:/temp/Job-16.odb,Step-1,Increment      1: Step Time =    1.000,"P-16-1",           302,       117.513,       156.725,            0.,NA,NA,"",   1.61813E+06,   1.72184E+06,   1.72184E+06
C:/temp/Job-16.odb,Step-1,Increment      1: Step Time =    1.000,"P-16-1",           303,       105.640,       154.538,            0.,NA,NA,"",   1.76663E+06,   1.92791E+06,   1.92791E+06
C:/temp/Job-16.odb,Step-1,Increment      1: Step Time =    1.000,"P-16-1",           304,       94.3692,       156.984,            0.,NA,NA,"",   1.67566E+06,   1.80336E+06,   1.80336E+06
C:/temp/Job-16.odb,Step-1,Increment      1: Step Time =    1.000,"P-16-1",           305,       86.5347,       161.781,            0.,NA,NA,"",   1.59492E+06,   1.65471E+06,   1.65471E+06
C:/temp/Job-16.odb,Step-1,Increment      1: Step Time =    1.000,"P-16-1",           306,       72.5360,       154.970,            0.,NA,NA,"",   1.70712E+06,   1.65304E+06,   1.65304E+06
C:/temp/Job-16.odb,Step-1,Increment      1: Step Time =    1.000,"P-16-1",           307,       65.7472,       157.874,            0.,NA,NA,"",   1.64695E+06,   1.56137E+06,   1.56137E+06
C:/temp/Job-16.odb,Step-1,Increment      1: Step Time =    1.000,"P-16-1",           308,       51.5369,       158.803,            0.,NA,NA,"",   1.51818E+06,   1.42228E+06,   1.42228E+06
C:/temp/Job-16.odb,Step-1,Increment      1: Step Time =    1.000,"P-16-1",           309,       40.9690,       159.310,            0.,NA,NA,"",   1.39435E+06,   1.33266E+06,   1.33266E+06
C:/temp/Job-16.odb,Step-1,Increment      1: Step Time =    1.000,"P-16-1",           310,       30.1929,       157.488,            0.,NA,NA,"",   1.24769E+06,   1.23435E+06,   1.23435E+06
C:/temp/Job-16.odb,Step-1,Increment      1: Step Time =    1.000,"P-16-1",           311,       19.4769,       160.791,            0.,NA,NA,"",   1.17602E+06,   1.21935E+06,   1.21935E+06
C:/temp/Job-16.odb,Step-1,Increment      1: Step Time =    1.000,"P-16-1",           312,       9.10729,       159.954,            0.,NA,NA,"",   1.04773E+06,   1.14172E+06,   1.14172E+06
C:/temp/Job-16.odb,Step-1,Increment      1: Step Time =    1.000,"P-16-1",           313,       189.651,       168.810,            0.,NA,NA,"",   1.00574E+06,   1.02638E+06,   1.02638E+06
C:/temp/Job-16.odb,Step-1,Increment      1: Step Time =    1.000,"P-16-1",           314,       175.941,       168.748,            0.,NA,NA,"",   1.11032E+06,   1.10516E+06,   1.10516E+06
C:/temp/Job-16.odb,Step-1,Increment      1: Step Time =    1.000,"P-16-1",           315,       166.336,       168.836,            0.,NA,NA,"",   1.20238E+06,   1.17025E+06,   1.17025E+06
C:/temp/Job-16.odb,Step-1,Increment      1: Step Time =    1.000,"P-16-1",           316,       155.684,       171.199,            0.,NA,NA,"",   1.26105E+06,   1.21575E+06,   1.21575E+06
C:/temp/Job-16.odb,Step-1,Increment      1: Step Time =    1.000,"P-16-1",           317,       145.513,       168.411,            0.,NA,NA,"",   1.36758E+06,   1.31249E+06,   1.31249E+06
C:/temp/Job-16.odb,Step-1,Increment      1: Step Time =    1.000,"P-16-1",           318,       136.137,       168.935,            0.,NA,NA,"",   1.38430E+06,   1.35741E+06,   1.35741E+06
C:/temp/Job-16.odb,Step-1,Increment      1: Step Time =    1.000,"P-16-1",           319,       127.111,       168.606,            0.,NA,NA,"",   1.36875E+06,   1.38765E+06,   1.38765E+06
C:/temp/Job-16.odb,Step-1,Increment      1: Step Time =    1.000,"P-16-1",           320,       116.935,       165.276,            0.,NA,NA,"",   1.40360E+06,   1.48570E+06,   1.48570E+06
C:/temp/Job-16.odb,Step-1,Increment      1: Step Time =    1.000,"P-16-1",           321,       105.994,       169.151,            0.,NA,NA,"",   1.30425E+06,   1.40518E+06,   1.40518E+06
C:/temp/Job-16.odb,Step-1,Increment      1: Step Time =    1.000,"P-16-1",           322,       95.7459,       167.445,            0.,NA,NA,"",   1.40154E+06,   1.49016E+06,   1.49016E+06
C:/temp/Job-16.odb,Step-1,Increment      1: Step Time =    1.000,"P-16-1",           323,       82.9655,       168.592,            0.,NA,NA,"",   1.49171E+06,   1.51383E+06,   1.51383E+06
C:/temp/Job-16.odb,Step-1,Increment      1: Step Time =    1.000,"P-16-1",           324,       73.9044,       166.672,            0.,NA,NA,"",   1.58644E+06,   1.55220E+06,   1.55220E+06
C:/temp/Job-16.odb,Step-1,Increment      1: Step Time =    1.000,"P-16-1",           325,       60.4159,       166.660,            0.,NA,NA,"",   1.57543E+06,   1.49756E+06,   1.49756E+06
C:/temp/Job-16.odb,Step-1,Increment      1: Step Time =    1.000,"P-16-1",           326,       54.5838,       169.032,            0.,NA,NA,"",   1.54199E+06,   1.46941E+06,   1.46941E+06
C:/temp/Job-16.odb,Step-1,Increment      1: Step Time =    1.000,"P-16-1",           327,       42.9754,       168.161,            0.,NA,NA,"",   1.47799E+06,   1.42182E+06,   1.42182E+06
C:/temp/Job-16.odb,Step-1,Increment      1: Step Time =    1.000,"P-16-1",           328,       30.9284,       167.959,            0.,NA,NA,"",   1.38313E+06,   1.37188E+06,   1.37188E+06
C:/temp/Job-16.odb,Step-1,Increment      1: Step Time =    1.000,"P-16-1",           329,       19.3485,       169.848,            0.,NA,NA,"",   1.32092E+06,   1.36485E+06,   1.36485E+06
C:/temp/Job-16.odb,Step-1,Increment      1: Step Time =    1.000,"P-16-1",           330,       9.44105,       169.527,            0.,NA,NA,"",   1.20351E+06,   1.30264E+06,   1.30264E+06
C:/temp/Job-16.odb,Step-1,Increment      1: Step Time =    1.000,"P-16-1",           331,       187.645,       179.231,            0.,NA,NA,"",   1.01491E+06,   1.02147E+06,   1.02147E+06
C:/temp/Job-16.odb,Step-1,Increment      1: Step Time =    1.000,"P-16-1",           332,       175.890,       179.534,            0.,NA,NA,"",   1.06168E+06,   1.05884E+06,   1.05884E+06
C:/temp/Job-16.odb,Step-1,Increment      1: Step Time =    1.000,"P-16-1",           333,       166.658,       178.583,            0.,NA,NA,"",   1.11565E+06,   1.09960E+06,   1.09960E+06
C:/temp/Job-16.odb,Step-1,Increment      1: Step Time =    1.000,"P-16-1",           334,       158.629,       177.782,            0.,NA,NA,"",   1.16941E+06,   1.14181E+06,   1.14181E+06
C:/temp/Job-16.odb,Step-1,Increment      1: Step Time =    1.000,"P-16-1",           335,       147.539,       176.841,            0.,NA,NA,"",   1.22047E+06,   1.18730E+06,   1.18730E+06
C:/temp/Job-16.odb,Step-1,Increment      1: Step Time =    1.000,"P-16-1",           336,       134.587,       179.003,            0.,NA,NA,"",   1.18197E+06,   1.17186E+06,   1.17186E+06
C:/temp/Job-16.odb,Step-1,Increment      1: Step Time =    1.000,"P-16-1",           337,       124.804,       181.223,            0.,NA,NA,"",   1.10869E+06,   1.12364E+06,   1.12364E+06
C:/temp/Job-16.odb,Step-1,Increment      1: Step Time =    1.000,"P-16-1",           338,       115.743,       180.646,            0.,NA,NA,"",   1.08452E+06,   1.12144E+06,   1.12144E+06
C:/temp/Job-16.odb,Step-1,Increment      1: Step Time =    1.000,"P-16-1",           339,       106.130,       180.580,            0.,NA,NA,"",   1.08664E+06,   1.13627E+06,   1.13627E+06
C:/temp/Job-16.odb,Step-1,Increment      1: Step Time =    1.000,"P-16-1",           340,       95.9422,       179.447,            0.,NA,NA,"",   1.16514E+06,   1.20905E+06,   1.20905E+06
C:/temp/Job-16.odb,Step-1,Increment      1: Step Time =    1.000,"P-16-1",           341,       85.8208,       180.076,            0.,NA,NA,"",   1.26030E+06,   1.27512E+06,   1.27512E+06
C:/temp/Job-16.odb,Step-1,Increment      1: Step Time =    1.000,"P-16-1",           342,       75.4510,       177.841,            0.,NA,NA,"",   1.39652E+06,   1.37799E+06,   1.37799E+06
C:/temp/Job-16.odb,Step-1,Increment      1: Step Time =    1.000,"P-16-1",           343,       64.4247,       179.825,            0.,NA,NA,"",   1.44482E+06,   1.40561E+06,   1.40561E+06
C:/temp/Job-16.odb,Step-1,Increment      1: Step Time =    1.000,"P-16-1",           344,       54.2126,       180.721,            0.,NA,NA,"",   1.47128E+06,   1.43218E+06,   1.43218E+06
C:/temp/Job-16.odb,Step-1,Increment      1: Step Time =    1.000,"P-16-1",           345,       41.7382,       174.507,            0.,NA,NA,"",   1.49019E+06,    1.4493E+06,    1.4493E+06
C:/temp/Job-16.odb,Step-1,Increment      1: Step Time =    1.000,"P-16-1",           346,       31.0485,       178.945,            0.,NA,NA,"",   1.49363E+06,   1.48473E+06,   1.48473E+06
C:/temp/Job-16.odb,Step-1,Increment      1: Step Time =    1.000,"P-16-1",           347,       21.2368,       177.706,            0.,NA,NA,"",   1.45161E+06,   1.47967E+06,   1.47967E+06
C:/temp/Job-16.odb,Step-1,Increment      1: Step Time =    1.000,"P-16-1",           348,       10.7384,       179.479,            0.,NA,NA,"",   1.40646E+06,   1.49367E+06,   1.49367E+06
C:/temp/Job-16.odb,Step-1,Increment      1: Step Time =    1.000,"P-16-1",           349,       189.551,       190.237,            0.,NA,NA,"",   1.00285E+06,   1.00408E+06,   1.00408E+06
C:/temp/Job-16.odb,Step-1,Increment      1: Step Time =    1.000,"P-16-1",           350,       175.248,       191.890,            0.,NA,NA,"",   1.01419E+06,   1.01367E+06,   1.01367E+06
C:/temp/Job-16.odb,Step-1,Increment      1: Step Time =    1.000,"P-16-1",           351,       166.316,       191.737,            0.,NA,NA,"",   1.02177E+06,   1.01872E+06,   1.01872E+06
C:/temp/Job-16.odb,Step-1,Increment      1: Step Time =    1.000,"P-16-1",           352,       157.603,       190.263,            0.,NA,NA,"",   1.02911E+06,   1.02252E+06,   1.02252E+06
C:/temp/Job-16.odb,Step-1,Increment      1: Step Time =    1.000,"P-16-1",           353,       149.512,       187.006,            0.,NA,NA,"",   1.06884E+06,   1.05495E+06,   1.05495E+06
C:/temp/Job-16.odb,Step-1,Increment      1: Step Time =    1.000,"P-16-1",           354,       133.855,       189.854,            0.,NA,NA,"",   973.642E+03,   970.736E+03,   970.736E+03
C:/temp/Job-16.odb,Step-1,Increment      1: Step Time =    1.000,"P-16-1",           355,       124.613,       190.614,            0.,NA,NA,"",   909.814E+03,   914.172E+03,   914.172E+03
C:/temp/Job-16.odb,Step-1,Increment      1: Step Time =    1.000,"P-16-1",           356,       115.137,       190.467,            0.,NA,NA,"",   876.638E+03,   888.512E+03,   888.512E+03
C:/temp/Job-16.odb,Step-1,Increment      1: Step Time =    1.000,"P-16-1",           357,       105.316,       190.194,            0.,NA,NA,"",   884.199E+03,   901.263E+03,   901.263E+03
C:/temp/Job-16.odb,Step-1,Increment      1: Step Time =    1.000,"P-16-1",           358,       95.3222,       189.955,            0.,NA,NA,"",   951.365E+03,   963.743E+03,   963.743E+03
C:/temp/Job-16.odb,Step-1,Increment      1: Step Time =    1.000,"P-16-1",           359,       85.3099,       189.854,            0.,NA,NA,"",   1.06184E+06,   1.06405E+06,   1.06405E+06
C:/temp/Job-16.odb,Step-1,Increment      1: Step Time =    1.000,"P-16-1",           360,       75.0978,       189.700,            0.,NA,NA,"",   1.19280E+06,   1.18330E+06,   1.18330E+06
C:/temp/Job-16.odb,Step-1,Increment      1: Step Time =    1.000,"P-16-1",           361,       65.1155,       190.076,            0.,NA,NA,"",   1.30469E+06,   1.29056E+06,   1.29056E+06
C:/temp/Job-16.odb,Step-1,Increment      1: Step Time =    1.000,"P-16-1",           362,       50.9505,       186.695,            0.,NA,NA,"",   1.45359E+06,   1.43121E+06,   1.43121E+06
C:/temp/Job-16.odb,Step-1,Increment      1: Step Time =    1.000,"P-16-1",           363,       40.8554,       189.297,            0.,NA,NA,"",   1.50483E+06,   1.49385E+06,   1.49385E+06
C:/temp/Job-16.odb,Step-1,Increment      1: Step Time =    1.000,"P-16-1",           364,       30.3192,       189.573,            0.,NA,NA,"",   1.56324E+06,   1.56059E+06,   1.56059E+06
C:/temp/Job-16.odb,Step-1,Increment      1: Step Time =    1.000,"P-16-1",           365,       20.2823,       189.343,            0.,NA,NA,"",   1.61795E+06,   1.62952E+06,   1.62952E+06
C:/temp/Job-16.odb,Step-1,Increment      1: Step Time =    1.000,"P-16-1",           366,       10.1170,       189.849,            0.,NA,NA,"",   1.68760E+06,   1.74430E+06,   1.74430E+06
C:/temp/Job-16.odb,Step-1,Increment      1: Step Time =    1.000,"P-16-1",           367,       95.0400,       137.675,            0.,NA,NA,"",   3.16085E+06,   3.22966E+06,   3.22966E+06
C:/temp/Job-16.odb,Step-1,Increment      1: Step Time =    1.000,"P-16-1",           368,       90.1649,       136.705,            0.,NA,NA,"",   2.80532E+06,   2.86689E+06,   2.86689E+06
C:/temp/Job-16.odb,Step-1,Increment      1: Step Time =    1.000,"P-16-1",           369,           81.,       132.909,            0.,NA,NA,"",   1.82931E+06,   1.86336E+06,   1.86336E+06
C:/temp/Job-16.odb,Step-1,Increment      1: Step Time =    1.000,"P-16-1",           370,       73.1299,       126.870,            0.,NA,NA,"",   820.698E+03,   794.618E+03,   794.618E+03
C:/temp/Job-16.odb,Step-1,Increment      1: Step Time =    1.000,"P-16-1",           371,       69.8526,       123.133,            0.,NA,NA,"",   486.431E+03,   394.722E+03,   394.722E+03
C:/temp/Job-16.odb,Step-1,Increment      1: Step Time =    1.000,"P-16-1",           372,       64.8926,       114.542,            0.,NA,NA,"",   554.725E+03,  -551.074E+03,  -551.074E+03
C:/temp/Job-16.odb,Step-1,Increment      1: Step Time =    1.000,"P-16-1",           373,       62.3251,       104.960,            0.,NA,NA,"",   815.479E+03,  -832.051E+03,  -832.051E+03
C:/temp/Job-16.odb,Step-1,Increment      1: Step Time =    1.000,"P-16-1",           374,           62.,          100.,            0.,NA,NA,"",   840.233E+03,  -858.375E+03,  -858.375E+03
C:/temp/Job-16.odb,Step-1,Increment      1: Step Time =    1.000,"P-16-1",           375,       63.2948,       90.1649,            0.,NA,NA,"",   695.924E+03,  -705.987E+03,  -705.987E+03
C:/temp/Job-16.odb,Step-1,Increment      1: Step Time =    1.000,"P-16-1",           376,       67.0910,           81.,            0.,NA,NA,"",   364.589E+03,  -299.840E+03,  -299.840E+03
C:/temp/Job-16.odb,Step-1,Increment      1: Step Time =    1.000,"P-16-1",           377,       69.8526,       76.8671,            0.,NA,NA,"",   445.827E+03,   194.044E+03,   194.044E+03
C:/temp/Job-16.odb,Step-1,Increment      1: Step Time =    1.000,"P-16-1",           378,       76.8671,       69.8526,            0.,NA,NA,"",   1.29078E+06,   1.29384E+06,   1.29384E+06
C:/temp/Job-16.odb,Step-1,Increment      1: Step Time =    1.000,"P-16-1",           379,       85.4580,       64.8926,            0.,NA,NA,"",   2.35906E+06,   2.40622E+06,   2.40622E+06
C:/temp/Job-16.odb,Step-1,Increment      1: Step Time =    1.000,"P-16-1",           380,       90.1649,       63.2948,            0.,NA,NA,"",   2.80482E+06,   2.87016E+06,   2.87016E+06
C:/temp/Job-16.odb,Step-1,Increment      1: Step Time =    1.000,"P-16-1",           381,          100.,           62.,            0.,NA,NA,"",   3.30947E+06,   3.39624E+06,   3.39624E+06
C:/temp/Job-16.odb,Step-1,Increment      1: Step Time =    1.000,"P-16-1",           382,       109.835,       63.2948,            0.,NA,NA,"",   3.21582E+06,   3.28865E+06,   3.28865E+06
C:/temp/Job-16.odb,Step-1,Increment      1: Step Time =    1.000,"P-16-1",           383,       114.542,       64.8926,            0.,NA,NA,"",   2.92192E+06,   2.98055E+06,   2.98055E+06
C:/temp/Job-16.odb,Step-1,Increment      1: Step Time =    1.000,"P-16-1",           384,       123.133,       69.8526,            0.,NA,NA,"",   1.92134E+06,   1.93908E+06,   1.93908E+06
C:/temp/Job-16.odb,Step-1,Increment      1: Step Time =    1.000,"P-16-1",           385,       130.147,       76.8671,            0.,NA,NA,"",   785.816E+03,   735.216E+03,   735.216E+03
C:/temp/Job-16.odb,Step-1,Increment      1: Step Time =    1.000,"P-16-1",           386,       132.909,           81.,            0.,NA,NA,"",   514.454E+03,  -23.1750E+03,  -23.1750E+03
C:/temp/Job-16.odb,Step-1,Increment      1: Step Time =    1.000,"P-16-1",           387,       136.705,       90.1649,            0.,NA,NA,"",   1.04188E+06,  -1.04509E+06,  -1.04509E+06
C:/temp/Job-16.odb,Step-1,Increment      1: Step Time =    1.000,"P-16-1",           388,          138.,          100.,            0.,NA,NA,"",   1.37084E+06,  -1.39298E+06,  -1.39298E+06
C:/temp/Job-16.odb,Step-1,Increment      1: Step Time =    1.000,"P-16-1",           389,       137.675,       104.960,            0.,NA,NA,"",   1.28395E+06,  -1.30441E+06,  -1.30441E+06
C:/temp/Job-16.odb,Step-1,Increment      1: Step Time =    1.000,"P-16-1",           390,       135.107,       114.542,            0.,NA,NA,"",   687.902E+03,  -669.077E+03,  -669.077E+03
C:/temp/Job-16.odb,Step-1,Increment      1: Step Time =    1.000,"P-16-1",           391,       130.147,       123.133,            0.,NA,NA,"",   705.981E+03,   667.382E+03,   667.382E+03
C:/temp/Job-16.odb,Step-1,Increment      1: Step Time =    1.000,"P-16-1",           392,       126.870,       126.870,            0.,NA,NA,"",   1.26130E+06,   1.26519E+06,   1.26519E+06
C:/temp/Job-16.odb,Step-1,Increment      1: Step Time =    1.000,"P-16-1",           393,          119.,       132.909,            0.,NA,NA,"",   2.31344E+06,   2.36651E+06,   2.36651E+06
C:/temp/Job-16.odb,Step-1,Increment      1: Step Time =    1.000,"P-16-1",           394,       109.835,       136.705,            0.,NA,NA,"",   3.23376E+06,   3.30386E+06,   3.30386E+06
C:/temp/Job-16.odb,Step-1,Increment      1: Step Time =    1.000,"P-16-1",           395,       104.960,       137.675,            0.,NA,NA,"",   3.40577E+06,   3.47689E+06,   3.47689E+06
C:/temp/Job-16.odb,Step-1,Increment      1: Step Time =    1.000,"P-16-1",           396,          195.,            0.,            0.,NA,NA,"",   998.649E+03,   998.514E+03,   998.514E+03
C:/temp/Job-16.odb,Step-1,Increment      1: Step Time =    1.000,"P-16-1",           397,          185.,            0.,            0.,NA,NA,"",   995.629E+03,   995.829E+03,   995.829E+03
C:/temp/Job-16.odb,Step-1,Increment      1: Step Time =    1.000,"P-16-1",           398,          175.,            0.,            0.,NA,NA,"",   996.652E+03,   996.538E+03,   996.538E+03
C:/temp/Job-16.odb,Step-1,Increment      1: Step Time =    1.000,"P-16-1",           399,          165.,            0.,            0.,NA,NA,"",   992.637E+03,   991.955E+03,   991.955E+03
C:/temp/Job-16.odb,Step-1,Increment      1: Step Time =    1.000,"P-16-1",           400,          155.,            0.,            0.,NA,NA,"",   968.499E+03,   967.609E+03,   967.609E+03
C:/temp/Job-16.odb,Step-1,Increment      1: Step Time =    1.000,"P-16-1",           401,          145.,            0.,            0.,NA,NA,"",   912.874E+03,   911.984E+03,   911.984E+03
C:/temp/Job-16.odb,Step-1,Increment      1: Step Time =    1.000,"P-16-1",           402,          135.,            0.,            0.,NA,NA,"",   832.773E+03,   832.255E+03,   832.255E+03
C:/temp/Job-16.odb,Step-1,Increment      1: Step Time =    1.000,"P-16-1",           403,          125.,            0.,            0.,NA,NA,"",   748.311E+03,   748.716E+03,   748.716E+03
C:/temp/Job-16.odb,Step-1,Increment      1: Step Time =    1.000,"P-16-1",           404,          115.,            0.,            0.,NA,NA,"",   686.053E+03,   687.746E+03,   687.746E+03
C:/temp/Job-16.odb,Step-1,Increment      1: Step Time =    1.000,"P-16-1",           405,          105.,            0.,            0.,NA,NA,"",   677.939E+03,   680.216E+03,   680.216E+03
C:/temp/Job-16.odb,Step-1,Increment      1: Step Time =    1.000,"P-16-1",           406,           95.,            0.,            0.,NA,NA,"",   741.633E+03,   743.276E+03,   743.276E+03
C:/temp/Job-16.odb,Step-1,Increment      1: Step Time =    1.000,"P-16-1",           407,           85.,            0.,            0.,NA,NA,"",   871.807E+03,   872.188E+03,   872.188E+03
C:/temp/Job-16.odb,Step-1,Increment      1: Step Time =    1.000,"P-16-1",           408,           75.,            0.,            0.,NA,NA,"",   1.04161E+06,   1.04094E+06,   1.04094E+06
C:/temp/Job-16.odb,Step-1,Increment      1: Step Time =    1.000,"P-16-1",           409,           65.,            0.,            0.,NA,NA,"",   1.21812E+06,   1.21768E+06,   1.21768E+06
C:/temp/Job-16.odb,Step-1,Increment      1: Step Time =    1.000,"P-16-1",           410,           55.,            0.,            0.,NA,NA,"",   1.37917E+06,   1.37666E+06,   1.37666E+06
C:/temp/Job-16.odb,Step-1,Increment      1: Step Time =    1.000,"P-16-1",           411,           45.,            0.,            0.,NA,NA,"",   1.49982E+06,   1.49826E+06,   1.49826E+06
C:/temp/Job-16.odb,Step-1,Increment      1: Step Time =    1.000,"P-16-1",           412,           35.,            0.,            0.,NA,NA,"",   1.57829E+06,   1.57816E+06,   1.57816E+06
C:/temp/Job-16.odb,Step-1,Increment      1: Step Time =    1.000,"P-16-1",           413,           25.,            0.,            0.,NA,NA,"",   1.63727E+06,   1.63831E+06,   1.63831E+06
C:/temp/Job-16.odb,Step-1,Increment      1: Step Time =    1.000,"P-16-1",           414,           15.,            0.,            0.,NA,NA,"",   1.71697E+06,   1.72312E+06,   1.72312E+06
C:/temp/Job-16.odb,Step-1,Increment      1: Step Time =    1.000,"P-16-1",           415,            5.,            0.,            0.,NA,NA,"",   2.03504E+06,   2.08180E+06,   2.08180E+06
C:/temp/Job-16.odb,Step-1,Increment      1: Step Time =    1.000,"P-16-1",           416,          200.,          195.,            0.,NA,NA,"",   1.00051E+06,   999.719E+03,   999.719E+03
C:/temp/Job-16.odb,Step-1,Increment      1: Step Time =    1.000,"P-16-1",           417,          200.,          185.,            0.,NA,NA,"",   1.00281E+06,   1.00139E+06,   1.00139E+06
C:/temp/Job-16.odb,Step-1,Increment      1: Step Time =    1.000,"P-16-1",           418,          200.,          175.,            0.,NA,NA,"",   997.182E+03,   1.00308E+06,   1.00308E+06
C:/temp/Job-16.odb,Step-1,Increment      1: Step Time =    1.000,"P-16-1",           419,          200.,          165.,            0.,NA,NA,"",   973.132E+03,   1.00284E+06,   1.00284E+06
C:/temp/Job-16.odb,Step-1,Increment      1: Step Time =    1.000,"P-16-1",           420,          200.,          155.,            0.,NA,NA,"",   935.064E+03,   1.00369E+06,   1.00369E+06
C:/temp/Job-16.odb,Step-1,Increment      1: Step Time =    1.000,"P-16-1",           421,          200.,          145.,            0.,NA,NA,"",   891.246E+03,   1.00502E+06,   1.00502E+06
C:/temp/Job-16.odb,Step-1,Increment      1: Step Time =    1.000,"P-16-1",           422,          200.,          135.,            0.,NA,NA,"",   873.235E+03,   1.00655E+06,   1.00655E+06
C:/temp/Job-16.odb,Step-1,Increment      1: Step Time =    1.000,"P-16-1",           423,          200.,          125.,            0.,NA,NA,"",   899.462E+03,   1.00759E+06,   1.00759E+06
C:/temp/Job-16.odb,Step-1,Increment      1: Step Time =    1.000,"P-16-1",           424,          200.,          115.,            0.,NA,NA,"",    957.06E+03,   1.00981E+06,   1.00981E+06
C:/temp/Job-16.odb,Step-1,Increment      1: Step Time =    1.000,"P-16-1",           425,          200.,          105.,            0.,NA,NA,"",   1.00263E+06,   1.02098E+06,   1.02098E+06
C:/temp/Job-16.odb,Step-1,Increment      1: Step Time =    1.000,"P-16-1",           426,          200.,           95.,            0.,NA,NA,"",   1.00304E+06,   1.02115E+06,   1.02115E+06
C:/temp/Job-16.odb,Step-1,Increment      1: Step Time =    1.000,"P-16-1",           427,          200.,           85.,            0.,NA,NA,"",   958.027E+03,   1.00887E+06,   1.00887E+06
C:/temp/Job-16.odb,Step-1,Increment      1: Step Time =    1.000,"P-16-1",           428,          200.,           75.,            0.,NA,NA,"",   899.580E+03,   1.00644E+06,   1.00644E+06
C:/temp/Job-16.odb,Step-1,Increment      1: Step Time =    1.000,"P-16-1",           429,          200.,           65.,            0.,NA,NA,"",   871.203E+03,   1.00391E+06,   1.00391E+06
C:/temp/Job-16.odb,Step-1,Increment      1: Step Time =    1.000,"P-16-1",           430,          200.,           55.,            0.,NA,NA,"",   903.001E+03,   1.01389E+06,   1.01389E+06
C:/temp/Job-16.odb,Step-1,Increment      1: Step Time =    1.000,"P-16-1",           431,          200.,           45.,            0.,NA,NA,"",   941.335E+03,   1.00686E+06,   1.00686E+06
C:/temp/Job-16.odb,Step-1,Increment      1: Step Time =    1.000,"P-16-1",           432,          200.,           35.,            0.,NA,NA,"",   976.408E+03,   1.00253E+06,   1.00253E+06
C:/temp/Job-16.odb,Step-1,Increment      1: Step Time =    1.000,"P-16-1",           433,          200.,           25.,            0.,NA,NA,"",   997.614E+03,   1.00144E+06,   1.00144E+06
C:/temp/Job-16.odb,Step-1,Increment      1: Step Time =    1.000,"P-16-1",           434,          200.,           15.,            0.,NA,NA,"",   1.00290E+06,   1.00077E+06,   1.00077E+06
C:/temp/Job-16.odb,Step-1,Increment      1: Step Time =    1.000,"P-16-1",           435,          200.,            5.,            0.,NA,NA,"",   1.00047E+06,   999.694E+03,   999.694E+03
C:/temp/Job-16.odb,Step-1,Increment      1: Step Time =    1.000,"P-16-1",           436,            5.,          200.,            0.,NA,NA,"",   2.03294E+06,   2.08034E+06,   2.08034E+06
C:/temp/Job-16.odb,Step-1,Increment      1: Step Time =    1.000,"P-16-1",           437,           15.,          200.,            0.,NA,NA,"",   1.71567E+06,   1.72234E+06,   1.72234E+06
C:/temp/Job-16.odb,Step-1,Increment      1: Step Time =    1.000,"P-16-1",           438,           25.,          200.,            0.,NA,NA,"",   1.63540E+06,   1.63645E+06,   1.63645E+06
C:/temp/Job-16.odb,Step-1,Increment      1: Step Time =    1.000,"P-16-1",           439,           35.,          200.,            0.,NA,NA,"",   1.57356E+06,   1.57314E+06,   1.57314E+06
C:/temp/Job-16.odb,Step-1,Increment      1: Step Time =    1.000,"P-16-1",           440,           45.,          200.,            0.,NA,NA,"",   1.49370E+06,   1.49263E+06,   1.49263E+06
C:/temp/Job-16.odb,Step-1,Increment      1: Step Time =    1.000,"P-16-1",           441,           55.,          200.,            0.,NA,NA,"",   1.37419E+06,   1.37280E+06,   1.37280E+06
C:/temp/Job-16.odb,Step-1,Increment      1: Step Time =    1.000,"P-16-1",           442,           65.,          200.,            0.,NA,NA,"",   1.22086E+06,   1.21928E+06,   1.21928E+06
C:/temp/Job-16.odb,Step-1,Increment      1: Step Time =    1.000,"P-16-1",           443,           75.,          200.,            0.,NA,NA,"",   1.04682E+06,   1.04600E+06,   1.04600E+06
C:/temp/Job-16.odb,Step-1,Increment      1: Step Time =    1.000,"P-16-1",           444,           85.,          200.,            0.,NA,NA,"",   876.662E+03,   877.259E+03,   877.259E+03
C:/temp/Job-16.odb,Step-1,Increment      1: Step Time =    1.000,"P-16-1",           445,           95.,          200.,            0.,NA,NA,"",   744.365E+03,   746.008E+03,   746.008E+03
C:/temp/Job-16.odb,Step-1,Increment      1: Step Time =    1.000,"P-16-1",           446,          105.,          200.,            0.,NA,NA,"",   676.443E+03,   678.557E+03,   678.557E+03
C:/temp/Job-16.odb,Step-1,Increment      1: Step Time =    1.000,"P-16-1",           447,          115.,          200.,            0.,NA,NA,"",   681.294E+03,   682.805E+03,   682.805E+03
C:/temp/Job-16.odb,Step-1,Increment      1: Step Time =    1.000,"P-16-1",           448,          125.,          200.,            0.,NA,NA,"",   743.636E+03,   744.388E+03,   744.388E+03
C:/temp/Job-16.odb,Step-1,Increment      1: Step Time =    1.000,"P-16-1",           449,          135.,          200.,            0.,NA,NA,"",   836.899E+03,   837.398E+03,   837.398E+03
C:/temp/Job-16.odb,Step-1,Increment      1: Step Time =    1.000,"P-16-1",           450,          145.,          200.,            0.,NA,NA,"",   925.892E+03,   922.770E+03,   922.770E+03
C:/temp/Job-16.odb,Step-1,Increment      1: Step Time =    1.000,"P-16-1",           451,          155.,          200.,            0.,NA,NA,"",   973.503E+03,   972.456E+03,   972.456E+03
C:/temp/Job-16.odb,Step-1,Increment      1: Step Time =    1.000,"P-16-1",           452,          165.,          200.,            0.,NA,NA,"",   992.304E+03,   991.897E+03,   991.897E+03
C:/temp/Job-16.odb,Step-1,Increment      1: Step Time =    1.000,"P-16-1",           453,          175.,          200.,            0.,NA,NA,"",   994.536E+03,   994.487E+03,   994.487E+03
C:/temp/Job-16.odb,Step-1,Increment      1: Step Time =    1.000,"P-16-1",           454,          185.,          200.,            0.,NA,NA,"",   994.197E+03,   994.385E+03,   994.385E+03
C:/temp/Job-16.odb,Step-1,Increment      1: Step Time =    1.000,"P-16-1",           455,          195.,          200.,            0.,NA,NA,"",   998.514E+03,   998.350E+03,   998.350E+03
C:/temp/Job-16.odb,Step-1,Increment      1: Step Time =    1.000,"P-16-1",           456,            0.,            5.,            0.,NA,NA,"",   1.92476E+06,   2.05269E+06,   2.05269E+06
C:/temp/Job-16.odb,Step-1,Increment      1: Step Time =    1.000,"P-16-1",           457,            0.,           15.,            0.,NA,NA,"",   1.41993E+06,   1.56674E+06,   1.56674E+06
C:/temp/Job-16.odb,Step-1,Increment      1: Step Time =    1.000,"P-16-1",           458,            0.,           25.,            0.,NA,NA,"",   1.21330E+06,   1.35193E+06,   1.35193E+06
C:/temp/Job-16.odb,Step-1,Increment      1: Step Time =    1.000,"P-16-1",           459,            0.,           35.,            0.,NA,NA,"",   1.05366E+06,   1.17971E+06,   1.17971E+06
C:/temp/Job-16.odb,Step-1,Increment      1: Step Time =    1.000,"P-16-1",           460,            0.,           45.,            0.,NA,NA,"",   915.236E+03,   1.02600E+06,   1.02600E+06
C:/temp/Job-16.odb,Step-1,Increment      1: Step Time =    1.000,"P-16-1",           461,            0.,           55.,            0.,NA,NA,"",   779.422E+03,   873.347E+03,   873.347E+03
C:/temp/Job-16.odb,Step-1,Increment      1: Step Time =    1.000,"P-16-1",           462,            0.,           65.,            0.,NA,NA,"",   642.546E+03,   719.404E+03,   719.404E+03
C:/temp/Job-16.odb,Step-1,Increment      1: Step Time =    1.000,"P-16-1",           463,            0.,           75.,            0.,NA,NA,"",   512.312E+03,   574.304E+03,   574.304E+03
C:/temp/Job-16.odb,Step-1,Increment      1: Step Time =    1.000,"P-16-1",           464,            0.,           85.,            0.,NA,NA,"",   400.067E+03,   452.290E+03,   452.290E+03
C:/temp/Job-16.odb,Step-1,Increment      1: Step Time =    1.000,"P-16-1",           465,            0.,           95.,            0.,NA,NA,"",   327.942E+03,   375.154E+03,   375.154E+03
C:/temp/Job-16.odb,Step-1,Increment      1: Step Time =    1.000,"P-16-1",           466,            0.,          105.,            0.,NA,NA,"",   328.886E+03,   376.151E+03,   376.151E+03
C:/temp/Job-16.odb,Step-1,Increment      1: Step Time =    1.000,"P-16-1",           467,            0.,          115.,            0.,NA,NA,"",   399.407E+03,   451.647E+03,   451.647E+03
C:/temp/Job-16.odb,Step-1,Increment      1: Step Time =    1.000,"P-16-1",           468,            0.,          125.,            0.,NA,NA,"",   512.755E+03,    574.65E+03,    574.65E+03
C:/temp/Job-16.odb,Step-1,Increment      1: Step Time =    1.000,"P-16-1",           469,            0.,          135.,            0.,NA,NA,"",   643.096E+03,   719.308E+03,   719.308E+03
C:/temp/Job-16.odb,Step-1,Increment      1: Step Time =    1.000,"P-16-1",           470,            0.,          145.,            0.,NA,NA,"",   783.239E+03,   876.868E+03,   876.868E+03
C:/temp/Job-16.odb,Step-1,Increment      1: Step Time =    1.000,"P-16-1",           471,            0.,          155.,            0.,NA,NA,"",   918.924E+03,   1.03245E+06,   1.03245E+06
C:/temp/Job-16.odb,Step-1,Increment      1: Step Time =    1.000,"P-16-1",           472,            0.,          165.,            0.,NA,NA,"",   1.05284E+06,   1.17968E+06,   1.17968E+06
C:/temp/Job-16.odb,Step-1,Increment      1: Step Time =    1.000,"P-16-1",           473,            0.,          175.,            0.,NA,NA,"",   1.21079E+06,   1.34978E+06,   1.34978E+06
C:/temp/Job-16.odb,Step-1,Increment      1: Step Time =    1.000,"P-16-1",           474,            0.,          185.,            0.,NA,NA,"",   1.41867E+06,   1.56626E+06,   1.56626E+06
C:/temp/Job-16.odb,Step-1,Increment      1: Step Time =    1.000,"P-16-1",           475,            0.,          195.,            0.,NA,NA,"",   1.92090E+06,   2.04926E+06,   2.04926E+06
C:/temp/Job-16.odb,Step-1,Increment      1: Step Time =    1.000,"P-16-1",           476,       139.483,       84.1728,            0.,NA,NA,"",   787.323E+03,  -637.769E+03,  -637.769E+03
C:/temp/Job-16.odb,Step-1,Increment      1: Step Time =    1.000,"P-16-1",           477,       120.425,       139.761,            0.,NA,NA,"",   2.24502E+06,   2.32433E+06,   2.32433E+06
C:/temp/Job-16.odb,Step-1,Increment      1: Step Time =    1.000,"P-16-1",           478,       60.7381,       115.543,            0.,NA,NA,"",   514.559E+03,  -472.638E+03,  -472.638E+03
C:/temp/Job-16.odb,Step-1,Increment      1: Step Time =    1.000,"P-16-1",           479,       138.642,       115.699,            0.,NA,NA,"",   749.845E+03,  -636.620E+03,  -636.620E+03
C:/temp/Job-16.odb,Step-1,Increment      1: Step Time =    1.000,"P-16-1",           480,       109.600,       141.499,            0.,NA,NA,"",   2.84470E+06,   2.95709E+06,   2.95709E+06
C:/temp/Job-16.odb,Step-1,Increment      1: Step Time =    1.000,"P-16-1",           481,       120.909,       63.5301,            0.,NA,NA,"",   2.30349E+06,   2.35721E+06,   2.35721E+06
C:/temp/Job-16.odb,Step-1,Increment      1: Step Time =    1.000,"P-16-1",           482,       111.161,       59.1581,            0.,NA,NA,"",   2.83926E+06,   2.94675E+06,   2.94675E+06
C:/temp/Job-16.odb,Step-1,Increment      1: Step Time =    1.000,"P-16-1",           483,       60.1974,       83.8050,            0.,NA,NA,"",   513.873E+03,  -447.548E+03,  -447.548E+03
C:/temp/Job-16.odb,Step-1,Increment      1: Step Time =    1.000,"P-16-1",           484,       131.308,       69.0461,            0.,NA,NA,"",   1.48258E+06,   1.41479E+06,   1.41479E+06
C:/temp/Job-16.odb,Step-1,Increment      1: Step Time =    1.000,"P-16-1",           485,       130.767,       129.179,            0.,NA,NA,"",   1.34805E+06,   1.29412E+06,   1.29412E+06
C:/temp/Job-16.odb,Step-1,Increment      1: Step Time =    1.000,"P-16-1",           486,       57.1619,       99.9947,            0.,NA,NA,"",   637.394E+03,  -659.054E+03,  -659.054E+03
C:/temp/Job-16.odb,Step-1,Increment      1: Step Time =    1.000,"P-16-1",           487,       58.3785,       89.0272,            0.,NA,NA,"",   565.190E+03,  -553.755E+03,  -553.755E+03
C:/temp/Job-16.odb,Step-1,Increment      1: Step Time =    1.000,"P-16-1",           488,       74.3218,       65.9421,            0.,NA,NA,"",   1.37994E+06,   1.36414E+06,   1.36414E+06
C:/temp/Job-16.odb,Step-1,Increment      1: Step Time =    1.000,"P-16-1",           489,       100.094,       56.9559,            0.,NA,NA,"",   2.85991E+06,   2.98621E+06,   2.98621E+06
C:/temp/Job-16.odb,Step-1,Increment      1: Step Time =    1.000,"P-16-1",           490,       88.9375,       58.9344,            0.,NA,NA,"",   2.51880E+06,   2.60566E+06,   2.60566E+06
C:/temp/Job-16.odb,Step-1,Increment      1: Step Time =    1.000,"P-16-1",           491,       142.304,       99.9143,            0.,NA,NA,"",   1.07601E+06,  -1.09619E+06,  -1.09619E+06
C:/temp/Job-16.odb,Step-1,Increment      1: Step Time =    1.000,"P-16-1",           492,       142.215,       105.424,            0.,NA,NA,"",   1.02220E+06,  -1.02755E+06,  -1.02755E+06
C:/temp/Job-16.odb,Step-1,Increment      1: Step Time =    1.000,"P-16-1",           493,       105.839,       57.4704,            0.,NA,NA,"",   2.89999E+06,   3.02442E+06,   3.02442E+06
C:/temp/Job-16.odb,Step-1,Increment      1: Step Time =    1.000,"P-16-1",           494,       136.275,       120.326,            0.,NA,NA,"",   675.915E+03,    27.626E+03,    27.626E+03
C:/temp/Job-16.odb,Step-1,Increment      1: Step Time =    1.000,"P-16-1",           495,       83.8990,       61.0396,            0.,NA,NA,"",   2.19594E+06,   2.25280E+06,   2.25280E+06
C:/temp/Job-16.odb,Step-1,Increment      1: Step Time =    1.000,"P-16-1",           496,       141.697,       94.5728,            0.,NA,NA,"",   1.04929E+06,  -1.05973E+06,  -1.05973E+06
C:/temp/Job-16.odb,Step-1,Increment      1: Step Time =    1.000,"P-16-1",           497,       57.1667,       94.4740,            0.,NA,NA,"",   606.310E+03,  -621.177E+03,  -621.177E+03
C:/temp/Job-16.odb,Step-1,Increment      1: Step Time =    1.000,"P-16-1",           498,       57.8048,       105.369,            0.,NA,NA,"",   637.514E+03,  -655.405E+03,  -655.405E+03
C:/temp/Job-16.odb,Step-1,Increment      1: Step Time =    1.000,"P-16-1",           499,       89.2051,       141.346,            0.,NA,NA,"",   2.52826E+06,   2.61436E+06,   2.61436E+06
C:/temp/Job-16.odb,Step-1,Increment      1: Step Time =    1.000,"P-16-1",           500,       94.3234,       57.2998,            0.,NA,NA,"",   2.73417E+06,   2.84672E+06,   2.84672E+06
C:/temp/Job-16.odb,Step-1,Increment      1: Step Time =    1.000,"P-16-1",           501,       68.7499,       68.8666,            0.,NA,NA,"",   1.03021E+06,   955.724E+03,   955.724E+03
C:/temp/Job-16.odb,Step-1,Increment      1: Step Time =    1.000,"P-16-1",           502,       140.741,       89.3345,            0.,NA,NA,"",   928.939E+03,  -886.997E+03,  -886.997E+03
C:/temp/Job-16.odb,Step-1,Increment      1: Step Time =    1.000,"P-16-1",           503,       113.785,       141.357,            0.,NA,NA,"",   2.57250E+06,   2.68725E+06,   2.68725E+06
C:/temp/Job-16.odb,Step-1,Increment      1: Step Time =    1.000,"P-16-1",           504,       116.145,       61.2353,            0.,NA,NA,"",   2.64099E+06,   2.72452E+06,   2.72452E+06
C:/temp/Job-16.odb,Step-1,Increment      1: Step Time =    1.000,"P-16-1",           505,       140.730,       110.770,            0.,NA,NA,"",   916.717E+03,  -880.852E+03,  -880.852E+03
C:/temp/Job-16.odb,Step-1,Increment      1: Step Time =    1.000,"P-16-1",           506,       127.147,       133.063,            0.,NA,NA,"",   1.77585E+06,   1.76810E+06,   1.76810E+06
C:/temp/Job-16.odb,Step-1,Increment      1: Step Time =    1.000,"P-16-1",           507,       64.3397,       126.544,            0.,NA,NA,"",   729.313E+03,   586.060E+03,   586.060E+03
C:/temp/Job-16.odb,Step-1,Increment      1: Step Time =    1.000,"P-16-1",           508,       59.0414,       110.540,            0.,NA,NA,"",   592.409E+03,  -592.944E+03,  -592.944E+03
C:/temp/Job-16.odb,Step-1,Increment      1: Step Time =    1.000,"P-16-1",           509,       94.5168,       142.034,            0.,NA,NA,"",   2.80837E+06,   2.91317E+06,   2.91317E+06
C:/temp/Job-16.odb,Step-1,Increment      1: Step Time =    1.000,"P-16-1",           510,       62.8033,       78.9989,            0.,NA,NA,"",   487.359E+03,  -113.403E+03,  -113.403E+03
C:/temp/Job-16.odb,Step-1,Increment      1: Step Time =    1.000,"P-16-1",           511,       78.7114,       137.662,            0.,NA,NA,"",   1.79045E+06,   1.81406E+06,   1.81406E+06
C:/temp/Job-16.odb,Step-1,Increment      1: Step Time =    1.000,"P-16-1",           512,       104.844,       142.230,            0.,NA,NA,"",   2.96281E+06,   3.07912E+06,   3.07912E+06
C:/temp/Job-16.odb,Step-1,Increment      1: Step Time =    1.000,"P-16-1",           513,       68.9741,       131.226,            0.,NA,NA,"",   1.02361E+06,   953.949E+03,   953.949E+03
C:/temp/Job-16.odb,Step-1,Increment      1: Step Time =    1.000,"P-16-1",           514,       134.366,       74.4789,            0.,NA,NA,"",   1.01672E+06,   883.214E+03,   883.214E+03
C:/temp/Job-16.odb,Step-1,Increment      1: Step Time =    1.000,"P-16-1",           515,       99.7631,       142.342,            0.,NA,NA,"",   2.95168E+06,   3.06766E+06,   3.06766E+06
C:/temp/Job-16.odb,Step-1,Increment      1: Step Time =    1.000,"P-16-1",           516,       194.638,       65.4445,            0.,NA,NA,"",   890.779E+03,   1.02188E+06,   1.02188E+06
C:/temp/Job-16.odb,Step-1,Increment      1: Step Time =    1.000,"P-16-1",           517,       184.858,       5.59377,            0.,NA,NA,"",   1.00050E+06,   1.00117E+06,   1.00117E+06
C:/temp/Job-16.odb,Step-1,Increment      1: Step Time =    1.000,"P-16-1",           518,       195.026,       5.09372,            0.,NA,NA,"",   999.698E+03,   999.421E+03,   999.421E+03
C:/temp/Job-16.odb,Step-1,Increment      1: Step Time =    1.000,"P-16-1",           519,       195.427,       15.0531,            0.,NA,NA,"",   1.00221E+06,   1.00236E+06,   1.00236E+06
C:/temp/Job-16.odb,Step-1,Increment      1: Step Time =    1.000,"P-16-1",           520,       195.935,       24.7978,            0.,NA,NA,"",   997.252E+03,   1.00427E+06,   1.00427E+06
C:/temp/Job-16.odb,Step-1,Increment      1: Step Time =    1.000,"P-16-1",           521,       195.209,       75.3103,            0.,NA,NA,"",   898.192E+03,   1.01985E+06,   1.01985E+06
C:/temp/Job-16.odb,Step-1,Increment      1: Step Time =    1.000,"P-16-1",           522,       115.060,       5.07552,            0.,NA,NA,"",   759.011E+03,   763.793E+03,   763.793E+03
C:/temp/Job-16.odb,Step-1,Increment      1: Step Time =    1.000,"P-16-1",           523,       125.073,       5.00938,            0.,NA,NA,"",   810.442E+03,   811.598E+03,   811.598E+03
C:/temp/Job-16.odb,Step-1,Increment      1: Step Time =    1.000,"P-16-1",           524,       85.1728,       4.86978,            0.,NA,NA,"",   934.348E+03,   934.694E+03,   934.694E+03
C:/temp/Job-16.odb,Step-1,Increment      1: Step Time =    1.000,"P-16-1",           525,       95.1016,       4.98375,            0.,NA,NA,"",   815.629E+03,   820.048E+03,   820.048E+03
C:/temp/Job-16.odb,Step-1,Increment      1: Step Time =    1.000,"P-16-1",           526,       5.01614,       134.882,            0.,NA,NA,"",   645.455E+03,   719.482E+03,   719.482E+03
C:/temp/Job-16.odb,Step-1,Increment      1: Step Time =    1.000,"P-16-1",           527,       4.84550,       124.962,            0.,NA,NA,"",   509.464E+03,   571.749E+03,   571.749E+03
C:/temp/Job-16.odb,Step-1,Increment      1: Step Time =    1.000,"P-16-1",           528,       6.28412,       145.670,            0.,NA,NA,"",   812.226E+03,   898.757E+03,   898.757E+03
C:/temp/Job-16.odb,Step-1,Increment      1: Step Time =    1.000,"P-16-1",           529,       4.19813,       155.390,            0.,NA,NA,"",   937.687E+03,   1.04466E+06,   1.04466E+06
C:/temp/Job-16.odb,Step-1,Increment      1: Step Time =    1.000,"P-16-1",           530,       65.1157,       195.092,            0.,NA,NA,"",   1.24576E+06,   1.24065E+06,   1.24065E+06
C:/temp/Job-16.odb,Step-1,Increment      1: Step Time =    1.000,"P-16-1",           531,       55.2381,       195.384,            0.,NA,NA,"",   1.37911E+06,   1.37435E+06,   1.37435E+06
C:/temp/Job-16.odb,Step-1,Increment      1: Step Time =    1.000,"P-16-1",           532,       45.3592,       195.218,            0.,NA,NA,"",   1.48378E+06,   1.48000E+06,   1.48000E+06
C:/temp/Job-16.odb,Step-1,Increment      1: Step Time =    1.000,"P-16-1",           533,       85.1297,       194.923,            0.,NA,NA,"",   941.172E+03,   941.683E+03,   941.683E+03
C:/temp/Job-16.odb,Step-1,Increment      1: Step Time =    1.000,"P-16-1",           534,       95.1377,       194.994,            0.,NA,NA,"",   817.697E+03,   821.994E+03,   821.994E+03
C:/temp/Job-16.odb,Step-1,Increment      1: Step Time =    1.000,"P-16-1",           535,       5.20151,       10.0029,            0.,NA,NA,"",   1.63768E+06,   1.75029E+06,   1.75029E+06
C:/temp/Job-16.odb,Step-1,Increment      1: Step Time =    1.000,"P-16-1",           536,       5.50299,       20.2322,            0.,NA,NA,"",   1.34373E+06,   1.46833E+06,   1.46833E+06
C:/temp/Job-16.odb,Step-1,Increment      1: Step Time =    1.000,"P-16-1",           537,       4.85291,       30.3272,            0.,NA,NA,"",   1.15339E+06,   1.27507E+06,   1.27507E+06
C:/temp/Job-16.odb,Step-1,Increment      1: Step Time =    1.000,"P-16-1",           538,       5.01165,       40.2243,            0.,NA,NA,"",   1.00560E+06,   1.11518E+06,   1.11518E+06
C:/temp/Job-16.odb,Step-1,Increment      1: Step Time =    1.000,"P-16-1",           539,       5.09591,       114.903,            0.,NA,NA,"",   389.733E+03,   443.281E+03,   443.281E+03
C:/temp/Job-16.odb,Step-1,Increment      1: Step Time =    1.000,"P-16-1",           540,       15.0876,       4.74499,            0.,NA,NA,"",   1.70815E+06,   1.71813E+06,   1.71813E+06
C:/temp/Job-16.odb,Step-1,Increment      1: Step Time =    1.000,"P-16-1",           541,       25.0704,       4.43930,            0.,NA,NA,"",   1.62746E+06,   1.62821E+06,   1.62821E+06
C:/temp/Job-16.odb,Step-1,Increment      1: Step Time =    1.000,"P-16-1",           542,       34.8650,       4.35182,            0.,NA,NA,"",   1.56703E+06,   1.56528E+06,   1.56528E+06
C:/temp/Job-16.odb,Step-1,Increment      1: Step Time =    1.000,"P-16-1",           543,       44.4058,       4.62090,            0.,NA,NA,"",   1.49396E+06,   1.49007E+06,   1.49007E+06
C:/temp/Job-16.odb,Step-1,Increment      1: Step Time =    1.000,"P-16-1",           544,       54.8243,       6.63899,            0.,NA,NA,"",   1.39272E+06,   1.38402E+06,   1.38402E+06
C:/temp/Job-16.odb,Step-1,Increment      1: Step Time =    1.000,"P-16-1",           545,       65.5211,       4.90335,            0.,NA,NA,"",   1.23915E+06,   1.23518E+06,   1.23518E+06
C:/temp/Job-16.odb,Step-1,Increment      1: Step Time =    1.000,"P-16-1",           546,       75.2945,       4.77753,            0.,NA,NA,"",   1.08592E+06,   1.08273E+06,   1.08273E+06
C:/temp/Job-16.odb,Step-1,Increment      1: Step Time =    1.000,"P-16-1",           547,       105.056,       5.05866,            0.,NA,NA,"",   754.887E+03,   761.278E+03,   761.278E+03
C:/temp/Job-16.odb,Step-1,Increment      1: Step Time =    1.000,"P-16-1",           548,       135.022,       4.73538,            0.,NA,NA,"",   878.590E+03,   876.889E+03,   876.889E+03
C:/temp/Job-16.odb,Step-1,Increment      1: Step Time =    1.000,"P-16-1",           549,       144.744,       4.40554,            0.,NA,NA,"",   938.979E+03,   936.654E+03,   936.654E+03
C:/temp/Job-16.odb,Step-1,Increment      1: Step Time =    1.000,"P-16-1",           550,       154.538,       4.63221,            0.,NA,NA,"",   986.239E+03,   983.543E+03,   983.543E+03
C:/temp/Job-16.odb,Step-1,Increment      1: Step Time =    1.000,"P-16-1",           551,       164.463,       5.22163,            0.,NA,NA,"",   1.00664E+06,   1.00451E+06,   1.00451E+06
C:/temp/Job-16.odb,Step-1,Increment      1: Step Time =    1.000,"P-16-1",           552,       174.655,       5.46942,            0.,NA,NA,"",   1.00648E+06,   1.00589E+06,   1.00589E+06
C:/temp/Job-16.odb,Step-1,Increment      1: Step Time =    1.000,"P-16-1",           553,       195.856,       34.4265,            0.,NA,NA,"",   979.067E+03,   1.00691E+06,   1.00691E+06
C:/temp/Job-16.odb,Step-1,Increment      1: Step Time =    1.000,"P-16-1",           554,       194.951,       43.9798,            0.,NA,NA,"",   952.926E+03,   1.01510E+06,   1.01510E+06
C:/temp/Job-16.odb,Step-1,Increment      1: Step Time =    1.000,"P-16-1",           555,       192.328,       54.5077,            0.,NA,NA,"",   945.396E+03,   1.04022E+06,   1.04022E+06
C:/temp/Job-16.odb,Step-1,Increment      1: Step Time =    1.000,"P-16-1",           556,       195.170,       85.1405,            0.,NA,NA,"",   928.662E+03,   1.01126E+06,   1.01126E+06
C:/temp/Job-16.odb,Step-1,Increment      1: Step Time =    1.000,"P-16-1",           557,       195.017,       95.0833,            0.,NA,NA,"",   951.905E+03,   999.311E+03,   999.311E+03
C:/temp/Job-16.odb,Step-1,Increment      1: Step Time =    1.000,"P-16-1",           558,       194.971,       105.064,            0.,NA,NA,"",   951.034E+03,   999.074E+03,   999.074E+03
C:/temp/Job-16.odb,Step-1,Increment      1: Step Time =    1.000,"P-16-1",           559,       195.030,       115.053,            0.,NA,NA,"",   927.364E+03,   1.01205E+06,   1.01205E+06
C:/temp/Job-16.odb,Step-1,Increment      1: Step Time =    1.000,"P-16-1",           560,       195.139,       125.008,            0.,NA,NA,"",   898.849E+03,   1.02162E+06,   1.02162E+06
C:/temp/Job-16.odb,Step-1,Increment      1: Step Time =    1.000,"P-16-1",           561,       195.228,       134.983,            0.,NA,NA,"",   890.758E+03,   1.02251E+06,   1.02251E+06
C:/temp/Job-16.odb,Step-1,Increment      1: Step Time =    1.000,"P-16-1",           562,       134.643,       194.723,            0.,NA,NA,"",   882.317E+03,   881.616E+03,   881.616E+03
C:/temp/Job-16.odb,Step-1,Increment      1: Step Time =    1.000,"P-16-1",           563,       124.816,       195.299,            0.,NA,NA,"",   800.849E+03,   802.393E+03,   802.393E+03
C:/temp/Job-16.odb,Step-1,Increment      1: Step Time =    1.000,"P-16-1",           564,       195.474,       144.834,            0.,NA,NA,"",   907.907E+03,   1.01661E+06,   1.01661E+06
C:/temp/Job-16.odb,Step-1,Increment      1: Step Time =    1.000,"P-16-1",           565,       195.449,       154.418,            0.,NA,NA,"",   945.576E+03,   1.01354E+06,   1.01354E+06
C:/temp/Job-16.odb,Step-1,Increment      1: Step Time =    1.000,"P-16-1",           566,       145.548,       192.391,            0.,NA,NA,"",   984.717E+03,   977.742E+03,   977.742E+03
C:/temp/Job-16.odb,Step-1,Increment      1: Step Time =    1.000,"P-16-1",           567,       194.671,       164.266,            0.,NA,NA,"",   979.734E+03,   1.01160E+06,   1.01160E+06
C:/temp/Job-16.odb,Step-1,Increment      1: Step Time =    1.000,"P-16-1",           568,       156.018,       194.959,            0.,NA,NA,"",   990.019E+03,   987.510E+03,   987.510E+03
C:/temp/Job-16.odb,Step-1,Increment      1: Step Time =    1.000,"P-16-1",           569,       194.455,       174.573,            0.,NA,NA,"",   999.348E+03,   1.00866E+06,   1.00866E+06
C:/temp/Job-16.odb,Step-1,Increment      1: Step Time =    1.000,"P-16-1",           570,       165.571,       195.852,            0.,NA,NA,"",   1.00117E+06,   1.00009E+06,   1.00009E+06
C:/temp/Job-16.odb,Step-1,Increment      1: Step Time =    1.000,"P-16-1",           571,       194.377,       184.836,            0.,NA,NA,"",   1.00329E+06,   1.00410E+06,   1.00410E+06
C:/temp/Job-16.odb,Step-1,Increment      1: Step Time =    1.000,"P-16-1",           572,       175.202,       195.931,            0.,NA,NA,"",   1.00082E+06,   1.00069E+06,   1.00069E+06
C:/temp/Job-16.odb,Step-1,Increment      1: Step Time =    1.000,"P-16-1",           573,       194.901,       195.024,            0.,NA,NA,"",   999.706E+03,   999.368E+03,   999.368E+03
C:/temp/Job-16.odb,Step-1,Increment      1: Step Time =    1.000,"P-16-1",           574,       184.943,       195.426,            0.,NA,NA,"",   998.191E+03,   998.698E+03,   998.698E+03
C:/temp/Job-16.odb,Step-1,Increment      1: Step Time =    1.000,"P-16-1",           575,       115.026,       195.260,            0.,NA,NA,"",   749.904E+03,   754.169E+03,   754.169E+03
C:/temp/Job-16.odb,Step-1,Increment      1: Step Time =    1.000,"P-16-1",           576,       105.115,       195.104,            0.,NA,NA,"",   750.709E+03,   756.791E+03,   756.791E+03
C:/temp/Job-16.odb,Step-1,Increment      1: Step Time =    1.000,"P-16-1",           577,       35.2215,       194.790,            0.,NA,NA,"",   1.56007E+06,   1.55752E+06,   1.55752E+06
C:/temp/Job-16.odb,Step-1,Increment      1: Step Time =    1.000,"P-16-1",           578,       25.1411,       194.751,            0.,NA,NA,"",   1.62277E+06,   1.62373E+06,   1.62373E+06
C:/temp/Job-16.odb,Step-1,Increment      1: Step Time =    1.000,"P-16-1",           579,       15.1445,       194.821,            0.,NA,NA,"",   1.70422E+06,   1.71512E+06,   1.71512E+06
C:/temp/Job-16.odb,Step-1,Increment      1: Step Time =    1.000,"P-16-1",           580,       5.06296,       194.939,            0.,NA,NA,"",   1.89173E+06,   1.96735E+06,   1.96735E+06
C:/temp/Job-16.odb,Step-1,Increment      1: Step Time =    1.000,"P-16-1",           581,       5.15032,       184.853,            0.,NA,NA,"",   1.45537E+06,   1.58125E+06,   1.58125E+06
C:/temp/Job-16.odb,Step-1,Increment      1: Step Time =    1.000,"P-16-1",           582,       4.92943,       174.787,            0.,NA,NA,"",   1.23831E+06,   1.36376E+06,   1.36376E+06
C:/temp/Job-16.odb,Step-1,Increment      1: Step Time =    1.000,"P-16-1",           583,       4.57831,       164.920,            0.,NA,NA,"",   1.07568E+06,   1.19325E+06,   1.19325E+06
C:/temp/Job-16.odb,Step-1,Increment      1: Step Time =    1.000,"P-16-1",           584,       5.10859,       104.945,            0.,NA,NA,"",   317.527E+03,   364.779E+03,   364.779E+03
C:/temp/Job-16.odb,Step-1,Increment      1: Step Time =    1.000,"P-16-1",           585,       5.04040,       94.9192,            0.,NA,NA,"",   316.857E+03,   364.032E+03,   364.032E+03
C:/temp/Job-16.odb,Step-1,Increment      1: Step Time =    1.000,"P-16-1",           586,       5.11870,       84.8169,            0.,NA,NA,"",   392.073E+03,   445.724E+03,   445.724E+03
C:/temp/Job-16.odb,Step-1,Increment      1: Step Time =    1.000,"P-16-1",           587,       4.89005,       74.8461,            0.,NA,NA,"",   510.455E+03,   572.848E+03,   572.848E+03
C:/temp/Job-16.odb,Step-1,Increment      1: Step Time =    1.000,"P-16-1",           588,       4.69920,       64.9641,            0.,NA,NA,"",   647.042E+03,   721.801E+03,   721.801E+03
C:/temp/Job-16.odb,Step-1,Increment      1: Step Time =    1.000,"P-16-1",           589,       4.81835,       55.0917,            0.,NA,NA,"",   791.186E+03,   879.909E+03,   879.909E+03
C:/temp/Job-16.odb,Step-1,Increment      1: Step Time =    1.000,"P-16-1",           590,       75.0646,       194.912,            0.,NA,NA,"",   1.09498E+06,   1.09140E+06,   1.09140E+06
C:/temp/Job-16.odb,Step-1,Increment      1: Step Time =    1.000,"P-16-1",           591,       189.996,       5.30232,            0.,NA,NA,"",   998.969E+03,   999.476E+03,   999.476E+03
C:/temp/Job-16.odb,Step-1,Increment      1: Step Time =    1.000,"P-16-1",           592,       179.719,       5.81477,            0.,NA,NA,"",   1.00357E+06,   1.00383E+06,   1.00383E+06
C:/temp/Job-16.odb,Step-1,Increment      1: Step Time =    1.000,"P-16-1",           593,       169.544,       5.24461,            0.,NA,NA,"",   1.00809E+06,   1.00652E+06,   1.00652E+06
C:/temp/Job-16.odb,Step-1,Increment      1: Step Time =    1.000,"P-16-1",           594,       159.432,       5.16318,            0.,NA,NA,"",   1.00022E+06,   997.741E+03,   997.741E+03
C:/temp/Job-16.odb,Step-1,Increment      1: Step Time =    1.000,"P-16-1",           595,       149.579,       4.37881,            0.,NA,NA,"",   964.781E+03,   962.252E+03,   962.252E+03
C:/temp/Job-16.odb,Step-1,Increment      1: Step Time =    1.000,"P-16-1",           596,       139.918,       4.53683,            0.,NA,NA,"",   910.256E+03,   908.164E+03,   908.164E+03
C:/temp/Job-16.odb,Step-1,Increment      1: Step Time =    1.000,"P-16-1",           597,       130.071,       4.90468,            0.,NA,NA,"",   844.412E+03,   843.736E+03,   843.736E+03
C:/temp/Job-16.odb,Step-1,Increment      1: Step Time =    1.000,"P-16-1",           598,       120.061,       5.06067,            0.,NA,NA,"",   780.707E+03,   783.775E+03,   783.775E+03
C:/temp/Job-16.odb,Step-1,Increment      1: Step Time =    1.000,"P-16-1",           599,       110.056,       5.07768,            0.,NA,NA,"",   749.368E+03,   755.358E+03,   755.358E+03
C:/temp/Job-16.odb,Step-1,Increment      1: Step Time =    1.000,"P-16-1",           600,       100.077,       5.02846,            0.,NA,NA,"",   777.023E+03,   782.862E+03,   782.862E+03
C:/temp/Job-16.odb,Step-1,Increment      1: Step Time =    1.000,"P-16-1",           601,       90.1338,       4.92700,            0.,NA,NA,"",   869.071E+03,   871.568E+03,   871.568E+03
C:/temp/Job-16.odb,Step-1,Increment      1: Step Time =    1.000,"P-16-1",           602,       80.2236,       4.81347,            0.,NA,NA,"",   1.00796E+06,   1.00628E+06,   1.00628E+06
C:/temp/Job-16.odb,Step-1,Increment      1: Step Time =    1.000,"P-16-1",           603,       70.3900,       4.79390,            0.,NA,NA,"",   1.16399E+06,   1.15993E+06,   1.15993E+06
C:/temp/Job-16.odb,Step-1,Increment      1: Step Time =    1.000,"P-16-1",           604,       60.5249,       5.33854,            0.,NA,NA,"",   1.31432E+06,   1.30952E+06,   1.30952E+06
C:/temp/Job-16.odb,Step-1,Increment      1: Step Time =    1.000,"P-16-1",           605,       49.2787,       5.17001,            0.,NA,NA,"",   1.44827E+06,   1.44204E+06,   1.44204E+06
C:/temp/Job-16.odb,Step-1,Increment      1: Step Time =    1.000,"P-16-1",           606,       39.6689,       4.41748,            0.,NA,NA,"",   1.53282E+06,   1.53032E+06,   1.53032E+06
C:/temp/Job-16.odb,Step-1,Increment      1: Step Time =    1.000,"P-16-1",           607,       29.9867,       4.35669,            0.,NA,NA,"",   1.59782E+06,   1.59705E+06,   1.59705E+06
C:/temp/Job-16.odb,Step-1,Increment      1: Step Time =    1.000,"P-16-1",           608,       20.0912,       4.57179,            0.,NA,NA,"",   1.66358E+06,   1.66679E+06,   1.66679E+06
C:/temp/Job-16.odb,Step-1,Increment      1: Step Time =    1.000,"P-16-1",           609,       10.0879,       4.89388,            0.,NA,NA,"",   1.79984E+06,   1.81765E+06,   1.81765E+06
C:/temp/Job-16.odb,Step-1,Increment      1: Step Time =    1.000,"P-16-1",           610,       194.682,       189.987,            0.,NA,NA,"",   1.00198E+06,   1.00160E+06,   1.00160E+06
C:/temp/Job-16.odb,Step-1,Increment      1: Step Time =    1.000,"P-16-1",           611,       194.131,       179.663,            0.,NA,NA,"",   1.00281E+06,   1.00660E+06,   1.00660E+06
C:/temp/Job-16.odb,Step-1,Increment      1: Step Time =    1.000,"P-16-1",           612,       194.652,       169.411,            0.,NA,NA,"",   991.462E+03,   1.00998E+06,   1.00998E+06
C:/temp/Job-16.odb,Step-1,Increment      1: Step Time =    1.000,"P-16-1",           613,       194.790,       159.176,            0.,NA,NA,"",   965.156E+03,   1.01350E+06,   1.01350E+06
C:/temp/Job-16.odb,Step-1,Increment      1: Step Time =    1.000,"P-16-1",           614,       195.672,       149.647,            0.,NA,NA,"",   924.376E+03,   1.01390E+06,   1.01390E+06
C:/temp/Job-16.odb,Step-1,Increment      1: Step Time =    1.000,"P-16-1",           615,       195.313,       139.965,            0.,NA,NA,"",   896.778E+03,   1.02007E+06,   1.02007E+06
C:/temp/Job-16.odb,Step-1,Increment      1: Step Time =    1.000,"P-16-1",           616,       195.189,       129.987,            0.,NA,NA,"",   891.101E+03,   1.02296E+06,   1.02296E+06
C:/temp/Job-16.odb,Step-1,Increment      1: Step Time =    1.000,"P-16-1",           617,       195.087,       120.034,            0.,NA,NA,"",   912.055E+03,   1.01806E+06,   1.01806E+06
C:/temp/Job-16.odb,Step-1,Increment      1: Step Time =    1.000,"P-16-1",           618,       194.986,       110.060,            0.,NA,NA,"",   941.186E+03,   1.00451E+06,   1.00451E+06
C:/temp/Job-16.odb,Step-1,Increment      1: Step Time =    1.000,"P-16-1",           619,       194.979,       100.078,            0.,NA,NA,"",   954.869E+03,   997.551E+03,   997.551E+03
C:/temp/Job-16.odb,Step-1,Increment      1: Step Time =    1.000,"P-16-1",           620,       195.088,       90.0986,            0.,NA,NA,"",   942.770E+03,   1.00455E+06,   1.00455E+06
C:/temp/Job-16.odb,Step-1,Increment      1: Step Time =    1.000,"P-16-1",           621,       195.222,       80.2156,            0.,NA,NA,"",   912.686E+03,   1.01688E+06,   1.01688E+06
C:/temp/Job-16.odb,Step-1,Increment      1: Step Time =    1.000,"P-16-1",           622,       195.044,       70.3999,            0.,NA,NA,"",   889.791E+03,   1.02123E+06,   1.02123E+06
C:/temp/Job-16.odb,Step-1,Increment      1: Step Time =    1.000,"P-16-1",           623,       193.830,       60.3591,            0.,NA,NA,"",   906.608E+03,   1.02628E+06,   1.02628E+06
C:/temp/Job-16.odb,Step-1,Increment      1: Step Time =    1.000,"P-16-1",           624,       194.028,       48.9152,            0.,NA,NA,"",   945.707E+03,   1.02619E+06,   1.02619E+06
C:/temp/Job-16.odb,Step-1,Increment      1: Step Time =    1.000,"P-16-1",           625,       195.524,       39.2007,            0.,NA,NA,"",   965.629E+03,   1.00939E+06,   1.00939E+06
C:/temp/Job-16.odb,Step-1,Increment      1: Step Time =    1.000,"P-16-1",           626,       196.012,       29.6212,            0.,NA,NA,"",   989.910E+03,   1.00533E+06,   1.00533E+06
C:/temp/Job-16.odb,Step-1,Increment      1: Step Time =    1.000,"P-16-1",           627,       195.721,       19.9527,            0.,NA,NA,"",   1.00101E+06,   1.00329E+06,   1.00329E+06
C:/temp/Job-16.odb,Step-1,Increment      1: Step Time =    1.000,"P-16-1",           628,       195.181,       10.1137,            0.,NA,NA,"",   1.00152E+06,   1.00111E+06,   1.00111E+06
C:/temp/Job-16.odb,Step-1,Increment      1: Step Time =    1.000,"P-16-1",           629,       10.0881,       194.892,            0.,NA,NA,"",   1.79527E+06,   1.81464E+06,   1.81464E+06
C:/temp/Job-16.odb,Step-1,Increment      1: Step Time =    1.000,"P-16-1",           630,       20.1610,       194.738,            0.,NA,NA,"",   1.65917E+06,   1.66310E+06,   1.66310E+06
C:/temp/Job-16.odb,Step-1,Increment      1: Step Time =    1.000,"P-16-1",           631,       30.1540,       194.772,            0.,NA,NA,"",   1.59225E+06,   1.59124E+06,   1.59124E+06
C:/temp/Job-16.odb,Step-1,Increment      1: Step Time =    1.000,"P-16-1",           632,       40.3111,       194.822,            0.,NA,NA,"",   1.52479E+06,   1.52140E+06,   1.52140E+06
C:/temp/Job-16.odb,Step-1,Increment      1: Step Time =    1.000,"P-16-1",           633,       50.3433,       195.412,            0.,NA,NA,"",   1.43509E+06,   1.43100E+06,   1.43100E+06
C:/temp/Job-16.odb,Step-1,Increment      1: Step Time =    1.000,"P-16-1",           634,       60.1537,       195.242,            0.,NA,NA,"",   1.31549E+06,   1.31038E+06,   1.31038E+06
C:/temp/Job-16.odb,Step-1,Increment      1: Step Time =    1.000,"P-16-1",           635,       70.0939,       194.972,            0.,NA,NA,"",   1.17203E+06,   1.16728E+06,   1.16728E+06
C:/temp/Job-16.odb,Step-1,Increment      1: Step Time =    1.000,"P-16-1",           636,       80.0790,       194.895,            0.,NA,NA,"",   1.01664E+06,   1.01487E+06,   1.01487E+06
C:/temp/Job-16.odb,Step-1,Increment      1: Step Time =    1.000,"P-16-1",           637,       90.1510,       194.955,            0.,NA,NA,"",   873.591E+03,   876.136E+03,   876.136E+03
C:/temp/Job-16.odb,Step-1,Increment      1: Step Time =    1.000,"P-16-1",           638,       100.121,       195.040,            0.,NA,NA,"",   776.118E+03,   781.771E+03,   781.771E+03
C:/temp/Job-16.odb,Step-1,Increment      1: Step Time =    1.000,"P-16-1",           639,       110.087,       195.186,            0.,NA,NA,"",   742.352E+03,   747.953E+03,   747.953E+03
C:/temp/Job-16.odb,Step-1,Increment      1: Step Time =    1.000,"P-16-1",           640,       119.933,       195.316,            0.,NA,NA,"",   770.354E+03,   773.120E+03,   773.120E+03
C:/temp/Job-16.odb,Step-1,Increment      1: Step Time =    1.000,"P-16-1",           641,       129.706,       195.137,            0.,NA,NA,"",   839.343E+03,   839.734E+03,   839.734E+03
C:/temp/Job-16.odb,Step-1,Increment      1: Step Time =    1.000,"P-16-1",           642,       139.713,       193.912,            0.,NA,NA,"",   929.056E+03,   926.020E+03,   926.020E+03
C:/temp/Job-16.odb,Step-1,Increment      1: Step Time =    1.000,"P-16-1",           643,       151.098,       194.055,            0.,NA,NA,"",   983.104E+03,   978.294E+03,   978.294E+03
C:/temp/Job-16.odb,Step-1,Increment      1: Step Time =    1.000,"P-16-1",           644,       160.796,       195.525,            0.,NA,NA,"",   997.361E+03,   995.786E+03,   995.786E+03
C:/temp/Job-16.odb,Step-1,Increment      1: Step Time =    1.000,"P-16-1",           645,       170.378,       196.007,            0.,NA,NA,"",   1.00198E+06,   1.00140E+06,   1.00140E+06
C:/temp/Job-16.odb,Step-1,Increment      1: Step Time =    1.000,"P-16-1",           646,       180.046,       195.718,            0.,NA,NA,"",   999.144E+03,   999.434E+03,   999.434E+03
C:/temp/Job-16.odb,Step-1,Increment      1: Step Time =    1.000,"P-16-1",           647,       189.880,       195.179,            0.,NA,NA,"",   998.432E+03,   998.770E+03,   998.770E+03
C:/temp/Job-16.odb,Step-1,Increment      1: Step Time =    1.000,"P-16-1",           648,       5.39983,       15.0946,            0.,NA,NA,"",   1.45952E+06,   1.58323E+06,   1.58323E+06
C:/temp/Job-16.odb,Step-1,Increment      1: Step Time =    1.000,"P-16-1",           649,       5.12351,       25.3193,            0.,NA,NA,"",   1.23995E+06,   1.36440E+06,   1.36440E+06
C:/temp/Job-16.odb,Step-1,Increment      1: Step Time =    1.000,"P-16-1",           650,       4.84729,       35.2893,            0.,NA,NA,"",   1.07687E+06,   1.19339E+06,   1.19339E+06
C:/temp/Job-16.odb,Step-1,Increment      1: Step Time =    1.000,"P-16-1",           651,       5.19689,       45.1982,            0.,NA,NA,"",   936.073E+03,   1.03852E+06,   1.03852E+06
C:/temp/Job-16.odb,Step-1,Increment      1: Step Time =    1.000,"P-16-1",           652,       5.00921,       50.1353,            0.,NA,NA,"",   865.081E+03,   960.648E+03,   960.648E+03
C:/temp/Job-16.odb,Step-1,Increment      1: Step Time =    1.000,"P-16-1",           653,       4.70720,       60.0364,            0.,NA,NA,"",   718.304E+03,   800.053E+03,   800.053E+03
C:/temp/Job-16.odb,Step-1,Increment      1: Step Time =    1.000,"P-16-1",           654,       4.76138,       69.8946,            0.,NA,NA,"",   577.805E+03,   645.967E+03,   645.967E+03
C:/temp/Job-16.odb,Step-1,Increment      1: Step Time =    1.000,"P-16-1",           655,       5.03338,       79.8366,            0.,NA,NA,"",   447.209E+03,   504.841E+03,   504.841E+03
C:/temp/Job-16.odb,Step-1,Increment      1: Step Time =    1.000,"P-16-1",           656,       5.08899,       89.8459,            0.,NA,NA,"",   347.151E+03,   397.265E+03,   397.265E+03
C:/temp/Job-16.odb,Step-1,Increment      1: Step Time =    1.000,"P-16-1",           657,       5.06535,       99.9564,            0.,NA,NA,"",   306.712E+03,   352.715E+03,   352.715E+03
C:/temp/Job-16.odb,Step-1,Increment      1: Step Time =    1.000,"P-16-1",           658,       5.14497,       109.921,            0.,NA,NA,"",   346.515E+03,   396.608E+03,   396.608E+03
C:/temp/Job-16.odb,Step-1,Increment      1: Step Time =    1.000,"P-16-1",           659,       4.95898,       119.921,            0.,NA,NA,"",   445.244E+03,   502.733E+03,   502.733E+03
C:/temp/Job-16.odb,Step-1,Increment      1: Step Time =    1.000,"P-16-1",           660,       4.85752,       129.944,            0.,NA,NA,"",   576.664E+03,   644.597E+03,   644.597E+03
C:/temp/Job-16.odb,Step-1,Increment      1: Step Time =    1.000,"P-16-1",           661,       5.42979,       139.955,            0.,NA,NA,"",   719.533E+03,   799.835E+03,   799.835E+03
C:/temp/Job-16.odb,Step-1,Increment      1: Step Time =    1.000,"P-16-1",           662,       4.42004,       150.686,            0.,NA,NA,"",   874.049E+03,   973.129E+03,   973.129E+03
C:/temp/Job-16.odb,Step-1,Increment      1: Step Time =    1.000,"P-16-1",           663,       4.40701,       160.102,            0.,NA,NA,"",   1.00477E+06,   1.11726E+06,   1.11726E+06
C:/temp/Job-16.odb,Step-1,Increment      1: Step Time =    1.000,"P-16-1",           664,       4.71576,       169.820,            0.,NA,NA,"",   1.15290E+06,   1.27499E+06,   1.27499E+06
C:/temp/Job-16.odb,Step-1,Increment      1: Step Time =    1.000,"P-16-1",           665,       5.19573,       179.794,            0.,NA,NA,"",   1.34048E+06,   1.46693E+06,   1.46693E+06
C:/temp/Job-16.odb,Step-1,Increment      1: Step Time =    1.000,"P-16-1",           666,       5.09107,       189.911,            0.,NA,NA,"",   1.63157E+06,   1.74629E+06,   1.74629E+06
C:/temp/Job-16.odb,Step-1,Increment      1: Step Time =    1.000,"P-16-1",           667,       137.133,       79.2599,            0.,NA,NA,"",   764.461E+03,   61.6009E+03,   61.6009E+03
C:/temp/Job-16.odb,Step-1,Increment      1: Step Time =    1.000,"P-16-1",           668,       62.6096,       120.532,            0.,NA,NA,"",   494.395E+03,  -25.7000E+03,  -25.7000E+03
C:/temp/Job-16.odb,Step-1,Increment      1: Step Time =    1.000,"P-16-1",           669,       65.6432,       74.2509,            0.,NA,NA,"",   633.720E+03,   424.120E+03,   424.120E+03
C:/temp/Job-16.odb,Step-1,Increment      1: Step Time =    1.000,"P-16-1",           670,       125.695,       66.0710,            0.,NA,NA,"",   1.88619E+06,   1.89810E+06,   1.89810E+06
C:/temp/Job-16.odb,Step-1,Increment      1: Step Time =    1.000,"P-16-1",           671,       133.666,       124.851,            0.,NA,NA,"",   916.134E+03,   798.309E+03,   798.309E+03
C:/temp/Job-16.odb,Step-1,Increment      1: Step Time =    1.000,"P-16-1",           672,       123.472,       136.555,            0.,NA,NA,"",   2.11927E+06,   2.15486E+06,   2.15486E+06
C:/temp/Job-16.odb,Step-1,Increment      1: Step Time =    1.000,"P-16-1",           673,       139.993,       9.14910,            0.,NA,NA,"",   987.434E+03,   981.445E+03,   981.445E+03
C:/temp/Job-16.odb,Step-1,Increment      1: Step Time =    1.000,"P-16-1",           674,       130.266,       9.90958,            0.,NA,NA,"",   951.850E+03,   950.879E+03,   950.879E+03
C:/temp/Job-16.odb,Step-1,Increment      1: Step Time =    1.000,"P-16-1",           675,       120.137,       10.1831,            0.,NA,NA,"",   909.233E+03,   918.136E+03,   918.136E+03
C:/temp/Job-16.odb,Step-1,Increment      1: Step Time =    1.000,"P-16-1",           676,       100.103,       10.1068,            0.,NA,NA,"",   915.860E+03,   932.114E+03,   932.114E+03
C:/temp/Job-16.odb,Step-1,Increment      1: Step Time =    1.000,"P-16-1",           677,       90.2268,       9.89616,            0.,NA,NA,"",   997.369E+03,   1.00510E+06,   1.00510E+06
C:/temp/Job-16.odb,Step-1,Increment      1: Step Time =    1.000,"P-16-1",           678,       70.8137,       9.67202,            0.,NA,NA,"",   1.23643E+06,   1.22507E+06,   1.22507E+06
C:/temp/Job-16.odb,Step-1,Increment      1: Step Time =    1.000,"P-16-1",           679,       61.8123,       9.96431,            0.,NA,NA,"",   1.34411E+06,   1.32921E+06,   1.32921E+06
C:/temp/Job-16.odb,Step-1,Increment      1: Step Time =    1.000,"P-16-1",           680,       190.486,       140.032,            0.,NA,NA,"",   949.024E+03,   1.05475E+06,   1.05475E+06
C:/temp/Job-16.odb,Step-1,Increment      1: Step Time =    1.000,"P-16-1",           681,       190.394,       129.985,            0.,NA,NA,"",   923.109E+03,   1.05298E+06,   1.05298E+06
C:/temp/Job-16.odb,Step-1,Increment      1: Step Time =    1.000,"P-16-1",           682,       190.172,       120.119,            0.,NA,NA,"",   897.156E+03,   1.03023E+06,   1.03023E+06
C:/temp/Job-16.odb,Step-1,Increment      1: Step Time =    1.000,"P-16-1",           683,       189.960,       110.149,            0.,NA,NA,"",   869.832E+03,   980.155E+03,   980.155E+03
C:/temp/Job-16.odb,Step-1,Increment      1: Step Time =    1.000,"P-16-1",           684,       189.919,       100.127,            0.,NA,NA,"",   858.441E+03,   944.458E+03,   944.458E+03
C:/temp/Job-16.odb,Step-1,Increment      1: Step Time =    1.000,"P-16-1",           685,       190.129,       90.1239,            0.,NA,NA,"",   871.430E+03,   980.433E+03,   980.433E+03
C:/temp/Job-16.odb,Step-1,Increment      1: Step Time =    1.000,"P-16-1",           686,       190.386,       80.3929,            0.,NA,NA,"",   894.953E+03,   1.02728E+06,   1.02728E+06
C:/temp/Job-16.odb,Step-1,Increment      1: Step Time =    1.000,"P-16-1",           687,       190.235,       70.9706,            0.,NA,NA,"",   919.132E+03,   1.04981E+06,   1.04981E+06
C:/temp/Job-16.odb,Step-1,Increment      1: Step Time =    1.000,"P-16-1",           688,       60.1594,       190.407,            0.,NA,NA,"",   1.35383E+06,   1.33954E+06,   1.33954E+06
C:/temp/Job-16.odb,Step-1,Increment      1: Step Time =    1.000,"P-16-1",           689,       80.1734,       189.753,            0.,NA,NA,"",   1.12851E+06,   1.12450E+06,   1.12450E+06
C:/temp/Job-16.odb,Step-1,Increment      1: Step Time =    1.000,"P-16-1",           690,       110.277,       190.342,            0.,NA,NA,"",   873.893E+03,   889.150E+03,   889.150E+03
C:/temp/Job-16.odb,Step-1,Increment      1: Step Time =    1.000,"P-16-1",           691,       119.925,       190.583,            0.,NA,NA,"",   888.842E+03,   897.047E+03,   897.047E+03
C:/temp/Job-16.odb,Step-1,Increment      1: Step Time =    1.000,"P-16-1",           692,       129.255,       190.435,            0.,NA,NA,"",   938.159E+03,   939.062E+03,   939.062E+03
C:/temp/Job-16.odb,Step-1,Increment      1: Step Time =    1.000,"P-16-1",           693,       9.35255,       60.1317,            0.,NA,NA,"",   737.166E+03,   810.372E+03,   810.372E+03
C:/temp/Job-16.odb,Step-1,Increment      1: Step Time =    1.000,"P-16-1",           694,       9.51323,       69.6911,            0.,NA,NA,"",   585.654E+03,   650.948E+03,   650.948E+03
C:/temp/Job-16.odb,Step-1,Increment      1: Step Time =    1.000,"P-16-1",           695,       10.1398,       79.5426,            0.,NA,NA,"",   441.998E+03,   500.238E+03,   500.238E+03
C:/temp/Job-16.odb,Step-1,Increment      1: Step Time =    1.000,"P-16-1",           696,       10.1611,       89.7365,            0.,NA,NA,"",   330.040E+03,   380.171E+03,   380.171E+03
C:/temp/Job-16.odb,Step-1,Increment      1: Step Time =    1.000,"P-16-1",           697,       10.1718,       99.8784,            0.,NA,NA,"",   286.662E+03,   329.382E+03,   329.382E+03
C:/temp/Job-16.odb,Step-1,Increment      1: Step Time =    1.000,"P-16-1",           698,       10.4689,       109.857,            0.,NA,NA,"",   327.373E+03,   377.194E+03,   377.194E+03
C:/temp/Job-16.odb,Step-1,Increment      1: Step Time =    1.000,"P-16-1",           699,       9.86036,       119.988,            0.,NA,NA,"",   436.973E+03,   495.140E+03,   495.140E+03
C:/temp/Job-16.odb,Step-1,Increment      1: Step Time =    1.000,"P-16-1",           700,       9.66262,       129.837,            0.,NA,NA,"",   579.723E+03,   644.678E+03,   644.678E+03
C:/temp/Job-16.odb,Step-1,Increment      1: Step Time =    1.000,"P-16-1",           701,       110.095,       10.2073,            0.,NA,NA,"",   886.456E+03,   903.433E+03,   903.433E+03
C:/temp/Job-16.odb,Step-1,Increment      1: Step Time =    1.000,"P-16-1",           702,       80.4359,       9.69370,            0.,NA,NA,"",   1.11386E+06,   1.10995E+06,   1.10995E+06
C:/temp/Job-16.odb,Step-1,Increment      1: Step Time =    1.000,"P-16-1",           703,       188.476,       61.8368,            0.,NA,NA,"",   968.062E+03,   1.06865E+06,   1.06865E+06
C:/temp/Job-16.odb,Step-1,Increment      1: Step Time =    1.000,"P-16-1",           704,       70.1213,       189.799,            0.,NA,NA,"",   1.25074E+06,   1.23810E+06,   1.23810E+06
C:/temp/Job-16.odb,Step-1,Increment      1: Step Time =    1.000,"P-16-1",           705,       90.3611,       189.894,            0.,NA,NA,"",   1.00199E+06,   1.00968E+06,   1.00968E+06
C:/temp/Job-16.odb,Step-1,Increment      1: Step Time =    1.000,"P-16-1",           706,       100.309,       190.059,            0.,NA,NA,"",   910.702E+03,   926.565E+03,   926.565E+03
C:/temp/Job-16.odb,Step-1,Increment      1: Step Time =    1.000,"P-16-1",           707,       138.321,       188.670,            0.,NA,NA,"",   1.01642E+06,   1.00899E+06,   1.00899E+06
C:/temp/Job-16.odb,Step-1,Increment      1: Step Time =    1.000,"P-16-1",           708,       10.4330,       139.188,            0.,NA,NA,"",   731.072E+03,   801.624E+03,   801.624E+03
C:/temp/Job-16.odb,Step-1,Increment      1: Step Time =    1.000,"P-16-1",           709,       137.421,       68.0883,            0.,NA,NA,"",   1.54958E+06,   1.35208E+06,   1.35208E+06
C:/temp/Job-16.odb,Step-1,Increment      1: Step Time =    1.000,"P-16-1",           710,       131.352,       135.882,            0.,NA,NA,"",   1.74219E+06,   1.66589E+06,   1.66589E+06
C:/temp/Job-16.odb,Step-1,Increment      1: Step Time =    1.000,"P-16-1",           711,       135.765,       131.574,            0.,NA,NA,"",   1.53263E+06,   1.35982E+06,   1.35982E+06
C:/temp/Job-16.odb,Step-1,Increment      1: Step Time =    1.000,"P-16-1",           712,       64.7776,       136.621,            0.,NA,NA,"",   1.33920E+06,   1.20948E+06,   1.20948E+06
C:/temp/Job-16.odb,Step-1,Increment      1: Step Time =    1.000,"P-16-1",           713,       60.8152,       131.571,            0.,NA,NA,"",   1.09190E+06,   926.345E+03,   926.345E+03
C:/temp/Job-16.odb,Step-1,Increment      1: Step Time =    1.000,"P-16-1",           714,       67.9284,       63.1316,            0.,NA,NA,"",   1.40270E+06,   1.30083E+06,   1.30083E+06
C:/temp/Job-16.odb,Step-1,Increment      1: Step Time =    1.000,"P-16-1",           715,       132.127,       63.3843,            0.,NA,NA,"",   1.73241E+06,   1.64552E+06,   1.64552E+06
C:/temp/Job-16.odb,Step-1,Increment      1: Step Time =    1.000,"P-16-1",           716,       62.7555,       67.7453,            0.,NA,NA,"",   1.12965E+06,   974.322E+03,   974.322E+03
C:/temp/Job-16.odb,Step-1,Increment      1: Step Time =    1.000,"P-16-1",           717,       82.1025,       57.0833,            0.,NA,NA,"",   1.96528E+06,   2.01954E+06,   2.01954E+06
C:/temp/Job-16.odb,Step-1,Increment      1: Step Time =    1.000,"P-16-1",           718,       117.976,       143.819,            0.,NA,NA,"",   2.17935E+06,   2.29125E+06,   2.29125E+06
C:/temp/Job-16.odb,Step-1,Increment      1: Step Time =    1.000,"P-16-1",           719,       146.941,       99.4401,            0.,NA,NA,"",   636.028E+03,  -624.323E+03,  -624.323E+03
C:/temp/Job-16.odb,Step-1,Increment      1: Step Time =    1.000,"P-16-1",           720,       113.009,       55.0971,            0.,NA,NA,"",   2.26388E+06,   2.40630E+06,   2.40630E+06
C:/temp/Job-16.odb,Step-1,Increment      1: Step Time =    1.000,"P-16-1",           721,       56.2143,       116.386,            0.,NA,NA,"",   497.839E+03,  -184.474E+03,  -184.474E+03
C:/temp/Job-16.odb,Step-1,Increment      1: Step Time =    1.000,"P-16-1",           722,       142.382,       117.127,            0.,NA,NA,"",   907.145E+03,  -283.758E+03,  -283.758E+03
C:/temp/Job-16.odb,Step-1,Increment      1: Step Time =    1.000,"P-16-1",           723,       145.030,       82.8720,            0.,NA,NA,"",   970.334E+03,  -59.2311E+03,  -59.2311E+03
C:/temp/Job-16.odb,Step-1,Increment      1: Step Time =    1.000,"P-16-1",           724,       51.9308,       100.350,            0.,NA,NA,"",   325.958E+03,  -340.090E+03,  -340.090E+03
C:/temp/Job-16.odb,Step-1,Increment      1: Step Time =    1.000,"P-16-1",           725,       82.2898,       146.228,            0.,NA,NA,"",   1.91264E+06,   1.96493E+06,   1.96493E+06
C:/temp/Job-16.odb,Step-1,Increment      1: Step Time =    1.000,"P-16-1",           726,       109.757,       145.867,            0.,NA,NA,"",   2.28309E+06,   2.43864E+06,   2.43864E+06
C:/temp/Job-16.odb,Step-1,Increment      1: Step Time =    1.000,"P-16-1",           727,       53.3007,       87.7093,            0.,NA,NA,"",   417.718E+03,  -337.872E+03,  -337.872E+03
C:/temp/Job-16.odb,Step-1,Increment      1: Step Time =    1.000,"P-16-1",           728,       144.876,       112.215,            0.,NA,NA,"",   810.021E+03,  -634.163E+03,  -634.163E+03
C:/temp/Job-16.odb,Step-1,Increment      1: Step Time =    1.000,"P-16-1",           729,       54.8643,       81.6435,            0.,NA,NA,"",   557.894E+03,  -24.1289E+03,  -24.1289E+03
C:/temp/Job-16.odb,Step-1,Increment      1: Step Time =    1.000,"P-16-1",           730,       117.940,       57.5144,            0.,NA,NA,"",   2.20904E+06,   2.31543E+06,   2.31543E+06
C:/temp/Job-16.odb,Step-1,Increment      1: Step Time =    1.000,"P-16-1",           731,       54.3757,       111.375,            0.,NA,NA,"",   422.386E+03,  -373.890E+03,  -373.890E+03
C:/temp/Job-16.odb,Step-1,Increment      1: Step Time =    1.000,"P-16-1",           732,       87.1520,       54.5090,            0.,NA,NA,"",   2.09635E+06,   2.19525E+06,   2.19525E+06
C:/temp/Job-16.odb,Step-1,Increment      1: Step Time =    1.000,"P-16-1",           733,       144.973,       88.7938,            0.,NA,NA,"",   792.983E+03,  -646.629E+03,  -646.629E+03
C:/temp/Job-16.odb,Step-1,Increment      1: Step Time =    1.000,"P-16-1",           734,       88.6657,       146.444,            0.,NA,NA,"",   2.11044E+06,   2.22148E+06,   2.22148E+06
C:/temp/Job-16.odb,Step-1,Increment      1: Step Time =    1.000,"P-16-1",           735,       100.269,       51.7385,            0.,NA,NA,"",   2.18800E+06,   2.35610E+06,   2.35610E+06
C:/temp/Job-16.odb,Step-1,Increment      1: Step Time =    1.000,"P-16-1",           736,       99.4060,       147.039,            0.,NA,NA,"",   2.29865E+06,   2.46191E+06,   2.46191E+06
C:/temp/Job-16.odb,Step-1,Increment      1: Step Time =    1.000,"P-16-1",           737,       9.32961,       164.748,            0.,NA,NA,"",   1.12496E+06,   1.22178E+06,   1.22178E+06
C:/temp/Job-16.odb,Step-1,Increment      1: Step Time =    1.000,"P-16-1",           738,       164.045,       10.3608,            0.,NA,NA,"",   1.03767E+06,   1.03192E+06,   1.03192E+06
C:/temp/Job-16.odb,Step-1,Increment      1: Step Time =    1.000,"P-16-1",           739,       34.6921,       8.80606,            0.,NA,NA,"",   1.54754E+06,   1.54241E+06,   1.54241E+06
C:/temp/Job-16.odb,Step-1,Increment      1: Step Time =    1.000,"P-16-1",           740,       10.0133,       40.2239,            0.,NA,NA,"",   1.05562E+06,   1.14561E+06,   1.14561E+06
C:/temp/Job-16.odb,Step-1,Increment      1: Step Time =    1.000,"P-16-1",           741,       189.436,       163.642,            0.,NA,NA,"",   1.00271E+06,   1.03355E+06,   1.03355E+06
C:/temp/Job-16.odb,Step-1,Increment      1: Step Time =    1.000,"P-16-1",           742,       161.938,       191.135,            0.,NA,NA,"",   1.02467E+06,   1.02021E+06,   1.02021E+06
C:/temp/Job-16.odb,Step-1,Increment      1: Step Time =    1.000,"P-16-1",           743,       191.138,       38.0489,            0.,NA,NA,"",   985.652E+03,   1.02512E+06,   1.02512E+06
C:/temp/Job-16.odb,Step-1,Increment      1: Step Time =    1.000,"P-16-1",           744,       35.3718,       189.602,            0.,NA,NA,"",   1.53714E+06,   1.53020E+06,   1.53020E+06
C:/temp/Job-16.odb,Step-1,Increment      1: Step Time =    1.000,"P-16-1",           745,       60.0238,       15.4626,            0.,NA,NA,"",   1.40996E+06,   1.38111E+06,   1.38111E+06
C:/temp/Job-16.odb,Step-1,Increment      1: Step Time =    1.000,"P-16-1",           746,       13.8587,       60.2629,            0.,NA,NA,"",   760.950E+03,   822.939E+03,   822.939E+03
C:/temp/Job-16.odb,Step-1,Increment      1: Step Time =    1.000,"P-16-1",           747,       59.9084,       185.487,            0.,NA,NA,"",   1.40576E+06,   1.37878E+06,   1.37878E+06
C:/temp/Job-16.odb,Step-1,Increment      1: Step Time =    1.000,"P-16-1",           748,       181.794,       59.8327,            0.,NA,NA,"",   1.07631E+06,   1.12362E+06,   1.12362E+06
C:/temp/Job-16.odb,Step-1,Increment      1: Step Time =    1.000,"P-16-1",           749,       140.284,       13.6552,            0.,NA,NA,"",   1.06563E+06,   1.05433E+06,   1.05433E+06
C:/temp/Job-16.odb,Step-1,Increment      1: Step Time =    1.000,"P-16-1",           750,       15.2170,       138.399,            0.,NA,NA,"",   747.255E+03,   805.261E+03,   805.261E+03
C:/temp/Job-16.odb,Step-1,Increment      1: Step Time =    1.000,"P-16-1",           751,       185.636,       140.076,            0.,NA,NA,"",   1.01805E+06,   1.09467E+06,   1.09467E+06
C:/temp/Job-16.odb,Step-1,Increment      1: Step Time =    1.000,"P-16-1",           752,       140.389,       182.126,            0.,NA,NA,"",   1.14141E+06,   1.12458E+06,   1.12458E+06
C:/temp/Job-16.odb,Step-1,Increment      1: Step Time =    1.000,"P-16-1",           753,       61.0441,       72.3373,            0.,NA,NA,"",   901.218E+03,   719.843E+03,   719.843E+03
C:/temp/Job-16.odb,Step-1,Increment      1: Step Time =    1.000,"P-16-1",           754,       122.653,       59.7353,            0.,NA,NA,"",   2.04658E+06,   2.10481E+06,   2.10481E+06
C:/temp/Job-16.odb,Step-1,Increment      1: Step Time =    1.000,"P-16-1",           755,       139.971,       121.619,            0.,NA,NA,"",   1.03260E+06,   452.505E+03,   452.505E+03
C:/temp/Job-16.odb,Step-1,Increment      1: Step Time =    1.000,"P-16-1",           756,       124.772,       143.215,            0.,NA,NA,"",   1.90186E+06,   1.94258E+06,   1.94258E+06
C:/temp/Job-16.odb,Step-1,Increment      1: Step Time =    1.000,"P-16-1",           757,       141.537,       77.4956,            0.,NA,NA,"",   1.14837E+06,   537.905E+03,   537.905E+03
C:/temp/Job-16.odb,Step-1,Increment      1: Step Time =    1.000,"P-16-1",           758,       57.8201,       121.051,            0.,NA,NA,"",   629.298E+03,   253.707E+03,   253.707E+03
C:/temp/Job-16.odb,Step-1,Increment      1: Step Time =    1.000,"P-16-1",           759,       49.5151,       112.630,            0.,NA,NA,"",   391.853E+03,  -18.0945E+03,  -18.0945E+03
C:/temp/Job-16.odb,Step-1,Increment      1: Step Time =    1.000,"P-16-1",           760,       111.593,       149.535,            0.,NA,NA,"",   1.98076E+06,   2.13106E+06,   2.13106E+06
C:/temp/Job-16.odb,Step-1,Increment      1: Step Time =    1.000,"P-16-1",           761,       148.745,       88.9810,            0.,NA,NA,"",   756.082E+03,  -233.260E+03,  -233.260E+03
C:/temp/Job-16.odb,Step-1,Increment      1: Step Time =    1.000,"P-16-1",           762,       88.1882,       47.1461,            0.,NA,NA,"",   1.82709E+06,   1.92356E+06,   1.92356E+06
C:/temp/Job-16.odb,Step-1,Increment      1: Step Time =    1.000,"P-16-1",           763,       14.1728,       164.693,            0.,NA,NA,"",   1.18006E+06,   1.25197E+06,   1.25197E+06
C:/temp/Job-16.odb,Step-1,Increment      1: Step Time =    1.000,"P-16-1",           764,       164.277,       15.2095,            0.,NA,NA,"",   1.07500E+06,   1.06421E+06,   1.06421E+06
C:/temp/Job-16.odb,Step-1,Increment      1: Step Time =    1.000,"P-16-1",           765,       34.4435,       13.2949,            0.,NA,NA,"",   1.53126E+06,   1.52201E+06,   1.52201E+06
C:/temp/Job-16.odb,Step-1,Increment      1: Step Time =    1.000,"P-16-1",           766,       14.8357,       39.7975,            0.,NA,NA,"",   1.11260E+06,   1.18017E+06,   1.18017E+06
C:/temp/Job-16.odb,Step-1,Increment      1: Step Time =    1.000,"P-16-1",           767,       184.564,       163.774,            0.,NA,NA,"",   1.04262E+06,   1.06338E+06,   1.06338E+06
C:/temp/Job-16.odb,Step-1,Increment      1: Step Time =    1.000,"P-16-1",           768,       163.360,       186.897,            0.,NA,NA,"",   1.05673E+06,   1.04819E+06,   1.04819E+06
C:/temp/Job-16.odb,Step-1,Increment      1: Step Time =    1.000,"P-16-1",           769,       186.908,       36.6024,            0.,NA,NA,"",   1.01743E+06,   1.04650E+06,   1.04650E+06
C:/temp/Job-16.odb,Step-1,Increment      1: Step Time =    1.000,"P-16-1",           770,       35.2202,       184.414,            0.,NA,NA,"",   1.51747E+06,   1.50528E+06,   1.50528E+06
C:/temp/Job-16.odb,Step-1,Increment      1: Step Time =    1.000,"P-16-1",           771,       14.2528,       69.3460,            0.,NA,NA,"",   603.483E+03,   662.548E+03,   662.548E+03
C:/temp/Job-16.odb,Step-1,Increment      1: Step Time =    1.000,"P-16-1",           772,       130.596,       15.0240,            0.,NA,NA,"",   1.05931E+06,   1.05795E+06,   1.05795E+06
C:/temp/Job-16.odb,Step-1,Increment      1: Step Time =    1.000,"P-16-1",           773,       71.2506,       14.6741,            0.,NA,NA,"",   1.31388E+06,   1.29435E+06,   1.29435E+06
C:/temp/Job-16.odb,Step-1,Increment      1: Step Time =    1.000,"P-16-1",           774,       14.4889,       129.656,            0.,NA,NA,"",   588.418E+03,   646.646E+03,   646.646E+03
C:/temp/Job-16.odb,Step-1,Increment      1: Step Time =    1.000,"P-16-1",           775,       185.661,       129.982,            0.,NA,NA,"",   970.714E+03,   1.07756E+06,   1.07756E+06
C:/temp/Job-16.odb,Step-1,Increment      1: Step Time =    1.000,"P-16-1",           776,       70.0462,       184.370,            0.,NA,NA,"",   1.33827E+06,   1.31622E+06,   1.31622E+06
C:/temp/Job-16.odb,Step-1,Increment      1: Step Time =    1.000,"P-16-1",           777,       185.595,       71.5181,            0.,NA,NA,"",   960.511E+03,   1.07072E+06,   1.07072E+06
C:/temp/Job-16.odb,Step-1,Increment      1: Step Time =    1.000,"P-16-1",           778,       128.843,       185.942,            0.,NA,NA,"",   1.02961E+06,   1.03197E+06,   1.03197E+06
C:/temp/Job-16.odb,Step-1,Increment      1: Step Time =    1.000,"P-16-1",           779,       53.2905,       121.825,            0.,NA,NA,"",   687.759E+03,   487.013E+03,   487.013E+03
C:/temp/Job-16.odb,Step-1,Increment      1: Step Time =    1.000,"P-16-1",           780,       119.976,       53.7512,            0.,NA,NA,"",   1.96280E+06,   2.05506E+06,   2.05506E+06
C:/temp/Job-16.odb,Step-1,Increment      1: Step Time =    1.000,"P-16-1",           781,       148.929,       78.7441,            0.,NA,NA,"",   1.20450E+06,   866.204E+03,   866.204E+03
C:/temp/Job-16.odb,Step-1,Increment      1: Step Time =    1.000,"P-16-1",           782,       121.793,       147.163,            0.,NA,NA,"",   1.88987E+06,   1.96938E+06,   1.96938E+06
C:/temp/Job-16.odb,Step-1,Increment      1: Step Time =    1.000,"P-16-1",           783,       79.9132,       53.0351,            0.,NA,NA,"",   1.85762E+06,   1.88150E+06,   1.88150E+06
C:/temp/Job-16.odb,Step-1,Increment      1: Step Time =    1.000,"P-16-1",           784,       52.3066,       77.1883,            0.,NA,NA,"",   722.286E+03,   532.695E+03,   532.695E+03
C:/temp/Job-16.odb,Step-1,Increment      1: Step Time =    1.000,"P-16-1",           785,       146.349,       119.048,            0.,NA,NA,"",   1.08628E+06,   428.213E+03,   428.213E+03
C:/temp/Job-16.odb,Step-1,Increment      1: Step Time =    1.000,"P-16-1",           786,       77.8306,       150.021,            0.,NA,NA,"",   1.77991E+06,   1.77711E+06,   1.77711E+06
C:/temp/Job-16.odb,Step-1,Increment      1: Step Time =    1.000,"P-16-1",           787,       120.228,       15.4173,            0.,NA,NA,"",   1.02291E+06,   1.04101E+06,   1.04101E+06
C:/temp/Job-16.odb,Step-1,Increment      1: Step Time =    1.000,"P-16-1",           788,       15.2144,       78.9228,            0.,NA,NA,"",   451.637E+03,   507.103E+03,   507.103E+03
C:/temp/Job-16.odb,Step-1,Increment      1: Step Time =    1.000,"P-16-1",           789,       14.4336,       120.449,            0.,NA,NA,"",   440.081E+03,   496.338E+03,   496.338E+03
C:/temp/Job-16.odb,Step-1,Increment      1: Step Time =    1.000,"P-16-1",           790,       80.6496,       14.6509,            0.,NA,NA,"",   1.21358E+06,   1.20920E+06,   1.20920E+06
C:/temp/Job-16.odb,Step-1,Increment      1: Step Time =    1.000,"P-16-1",           791,       185.259,       120.283,            0.,NA,NA,"",   904.983E+03,   1.02962E+06,   1.02962E+06
C:/temp/Job-16.odb,Step-1,Increment      1: Step Time =    1.000,"P-16-1",           792,       80.3669,       184.621,            0.,NA,NA,"",   1.23245E+06,   1.22766E+06,   1.22766E+06
C:/temp/Job-16.odb,Step-1,Increment      1: Step Time =    1.000,"P-16-1",           793,       185.445,       80.4712,            0.,NA,NA,"",   896.821E+03,   1.02331E+06,   1.02331E+06
C:/temp/Job-16.odb,Step-1,Increment      1: Step Time =    1.000,"P-16-1",           794,       120.053,       185.782,            0.,NA,NA,"",   995.018E+03,   1.01170E+06,   1.01170E+06
C:/temp/Job-16.odb,Step-1,Increment      1: Step Time =    1.000,"P-16-1",           795,       141.384,       130.702,            0.,NA,NA,"",   1.54021E+06,    1.2695E+06,    1.2695E+06
C:/temp/Job-16.odb,Step-1,Increment      1: Step Time =    1.000,"P-16-1",           796,       56.9747,       128.524,            0.,NA,NA,"",   937.815E+03,   750.097E+03,   750.097E+03
C:/temp/Job-16.odb,Step-1,Increment      1: Step Time =    1.000,"P-16-1",           797,       71.0946,       57.1853,            0.,NA,NA,"",   1.65233E+06,   1.57725E+06,   1.57725E+06
C:/temp/Job-16.odb,Step-1,Increment      1: Step Time =    1.000,"P-16-1",           798,       128.760,       57.5247,            0.,NA,NA,"",   1.85502E+06,   1.82790E+06,   1.82790E+06
C:/temp/Job-16.odb,Step-1,Increment      1: Step Time =    1.000,"P-16-1",           799,       143.314,       71.5132,            0.,NA,NA,"",   1.47784E+06,   1.17481E+06,   1.17481E+06
C:/temp/Job-16.odb,Step-1,Increment      1: Step Time =    1.000,"P-16-1",           800,       131.714,       142.555,            0.,NA,NA,"",   1.80332E+06,   1.73856E+06,   1.73856E+06
C:/temp/Job-16.odb,Step-1,Increment      1: Step Time =    1.000,"P-16-1",           801,       56.5591,       70.6186,            0.,NA,NA,"",   1.00026E+06,   812.769E+03,   812.769E+03
C:/temp/Job-16.odb,Step-1,Increment      1: Step Time =    1.000,"P-16-1",           802,       76.3901,       142.431,            0.,NA,NA,"",   1.75205E+06,   1.74460E+06,   1.74460E+06
C:/temp/Job-16.odb,Step-1,Increment      1: Step Time =    1.000,"P-16-1",           803,       77.3359,       59.4126,            0.,NA,NA,"",   1.75643E+06,   1.76050E+06,   1.76050E+06
C:/temp/Job-16.odb,Step-1,Increment      1: Step Time =    1.000,"P-16-1",           804,       14.9960,       89.9062,            0.,NA,NA,"",   315.593E+03,   363.600E+03,   363.600E+03
C:/temp/Job-16.odb,Step-1,Increment      1: Step Time =    1.000,"P-16-1",           805,       110.101,       15.4150,            0.,NA,NA,"",   1.00169E+06,   1.03480E+06,   1.03480E+06
C:/temp/Job-16.odb,Step-1,Increment      1: Step Time =    1.000,"P-16-1",           806,       90.2711,       14.8993,            0.,NA,NA,"",   1.10914E+06,   1.12647E+06,   1.12647E+06
C:/temp/Job-16.odb,Step-1,Increment      1: Step Time =    1.000,"P-16-1",           807,       16.0240,       109.753,            0.,NA,NA,"",   310.142E+03,   357.128E+03,   357.128E+03
C:/temp/Job-16.odb,Step-1,Increment      1: Step Time =    1.000,"P-16-1",           808,       90.6274,       184.780,            0.,NA,NA,"",   1.11075E+06,   1.12819E+06,   1.12819E+06
C:/temp/Job-16.odb,Step-1,Increment      1: Step Time =    1.000,"P-16-1",           809,       184.930,       110.297,            0.,NA,NA,"",   819.597E+03,   941.778E+03,   941.778E+03
C:/temp/Job-16.odb,Step-1,Increment      1: Step Time =    1.000,"P-16-1",           810,       185.103,       90.0525,            0.,NA,NA,"",   820.514E+03,   942.663E+03,   942.663E+03
C:/temp/Job-16.odb,Step-1,Increment      1: Step Time =    1.000,"P-16-1",           811,       110.581,       185.485,            0.,NA,NA,"",   983.691E+03,   1.01244E+06,   1.01244E+06
C:/temp/Job-16.odb,Step-1,Increment      1: Step Time =    1.000,"P-16-1",           812,       45.3518,       96.3877,            0.,NA,NA,"",   160.378E+03,  -78.1307E+03,  -78.1307E+03
C:/temp/Job-16.odb,Step-1,Increment      1: Step Time =    1.000,"P-16-1",           813,       105.724,       46.0250,            0.,NA,NA,"",   1.77957E+06,   1.94273E+06,   1.94273E+06
C:/temp/Job-16.odb,Step-1,Increment      1: Step Time =    1.000,"P-16-1",           814,       153.418,       103.041,            0.,NA,NA,"",   433.349E+03,  -53.2799E+03,  -53.2799E+03
C:/temp/Job-16.odb,Step-1,Increment      1: Step Time =    1.000,"P-16-1",           815,       98.7380,       151.852,            0.,NA,NA,"",   1.91560E+06,   2.07811E+06,   2.07811E+06
C:/temp/Job-16.odb,Step-1,Increment      1: Step Time =    1.000,"P-16-1",           816,       100.551,       46.4056,            0.,NA,NA,"",   1.81448E+06,   1.97584E+06,   1.97584E+06
C:/temp/Job-16.odb,Step-1,Increment      1: Step Time =    1.000,"P-16-1",           817,       46.7068,       101.284,            0.,NA,NA,"",   164.983E+03,  -145.229E+03,  -145.229E+03
C:/temp/Job-16.odb,Step-1,Increment      1: Step Time =    1.000,"P-16-1",           818,       102.786,       152.391,            0.,NA,NA,"",   1.87702E+06,   2.04546E+06,   2.04546E+06
C:/temp/Job-16.odb,Step-1,Increment      1: Step Time =    1.000,"P-16-1",           819,       151.904,       97.8179,            0.,NA,NA,"",   452.824E+03,   -91.184E+03,   -91.184E+03
C:/temp/Job-16.odb,Step-1,Increment      1: Step Time =    1.000,"P-16-1",           820,       100.059,       15.2738,            0.,NA,NA,"",   1.03149E+06,   1.06318E+06,   1.06318E+06
C:/temp/Job-16.odb,Step-1,Increment      1: Step Time =    1.000,"P-16-1",           821,       15.3628,       99.6275,            0.,NA,NA,"",   267.505E+03,   304.455E+03,   304.455E+03
C:/temp/Job-16.odb,Step-1,Increment      1: Step Time =    1.000,"P-16-1",           822,       184.791,       100.163,            0.,NA,NA,"",   779.201E+03,   886.505E+03,   886.505E+03
C:/temp/Job-16.odb,Step-1,Increment      1: Step Time =    1.000,"P-16-1",           823,       100.587,       185.071,            0.,NA,NA,"",   1.02117E+06,   1.05279E+06,   1.05279E+06
C:/temp/Job-16.odb,Step-1,Increment      1: Step Time =    1.000,"P-16-1",           824,       102.763,       156.163,            0.,NA,NA,"",   1.69204E+06,   1.84819E+06,   1.84819E+06
C:/temp/Job-16.odb,Step-1,Increment      1: Step Time =    1.000,"P-16-1",           825,       41.8769,       101.468,            0.,NA,NA,"",   111.396E+03,   24.7303E+03,   24.7303E+03
C:/temp/Job-16.odb,Step-1,Increment      1: Step Time =    1.000,"P-16-1",           826,       100.824,       41.1502,            0.,NA,NA,"",   1.58397E+06,   1.72513E+06,   1.72513E+06
C:/temp/Job-16.odb,Step-1,Increment      1: Step Time =    1.000,"P-16-1",           827,       13.9573,       64.7713,            0.,NA,NA,"",   681.507E+03,   742.059E+03,   742.059E+03
C:/temp/Job-16.odb,Step-1,Increment      1: Step Time =    1.000,"P-16-1",           828,       66.3488,       15.1522,            0.,NA,NA,"",   1.36662E+06,   1.34129E+06,   1.34129E+06
C:/temp/Job-16.odb,Step-1,Increment      1: Step Time =    1.000,"P-16-1",           829,       64.9342,       184.908,            0.,NA,NA,"",   1.37531E+06,   1.34911E+06,   1.34911E+06
C:/temp/Job-16.odb,Step-1,Increment      1: Step Time =    1.000,"P-16-1",           830,       183.563,       63.5799,            0.,NA,NA,"",   1.03097E+06,   1.10378E+06,   1.10378E+06
C:/temp/Job-16.odb,Step-1,Increment      1: Step Time =    1.000,"P-16-1",           831,       15.0390,       134.114,            0.,NA,NA,"",   668.873E+03,   727.281E+03,   727.281E+03
C:/temp/Job-16.odb,Step-1,Increment      1: Step Time =    1.000,"P-16-1",           832,       135.702,       14.6417,            0.,NA,NA,"",   1.06713E+06,   1.05885E+06,   1.05885E+06
C:/temp/Job-16.odb,Step-1,Increment      1: Step Time =    1.000,"P-16-1",           833,       185.777,       134.895,            0.,NA,NA,"",   995.223E+03,   1.08865E+06,   1.08865E+06
C:/temp/Job-16.odb,Step-1,Increment      1: Step Time =    1.000,"P-16-1",           834,       136.680,       183.921,            0.,NA,NA,"",   1.09811E+06,   1.08810E+06,   1.08810E+06
C:/temp/Job-16.odb,Step-1,Increment      1: Step Time =    1.000,"P-16-1",           835,       14.1964,       169.371,            0.,NA,NA,"",   1.25886E+06,   1.33195E+06,   1.33195E+06
C:/temp/Job-16.odb,Step-1,Increment      1: Step Time =    1.000,"P-16-1",           836,       168.637,       14.8427,            0.,NA,NA,"",   1.05966E+06,   1.05254E+06,   1.05254E+06
C:/temp/Job-16.odb,Step-1,Increment      1: Step Time =    1.000,"P-16-1",           837,       18.3193,       31.5011,            0.,NA,NA,"",   1.28895E+06,   1.33728E+06,   1.33728E+06
C:/temp/Job-16.odb,Step-1,Increment      1: Step Time =    1.000,"P-16-1",           838,       29.8647,       17.3481,            0.,NA,NA,"",   1.52244E+06,   1.51816E+06,   1.51816E+06
C:/temp/Job-16.odb,Step-1,Increment      1: Step Time =    1.000,"P-16-1",           839,       184.978,       168.343,            0.,NA,NA,"",   1.03368E+06,   1.04950E+06,   1.04950E+06
C:/temp/Job-16.odb,Step-1,Increment      1: Step Time =    1.000,"P-16-1",           840,       167.237,       187.836,            0.,NA,NA,"",   1.04548E+06,   1.03966E+06,   1.03966E+06
C:/temp/Job-16.odb,Step-1,Increment      1: Step Time =    1.000,"P-16-1",           841,       187.861,       32.7379,            0.,NA,NA,"",   1.01277E+06,   1.03589E+06,   1.03589E+06
C:/temp/Job-16.odb,Step-1,Increment      1: Step Time =    1.000,"P-16-1",           842,       30.5549,       184.259,            0.,NA,NA,"",   1.53134E+06,   1.52557E+06,   1.52557E+06
C:/temp/Job-16.odb,Step-1,Increment      1: Step Time =    1.000,"P-16-1",           843,       14.6354,       74.0086,            0.,NA,NA,"",   528.336E+03,   585.865E+03,   585.865E+03
C:/temp/Job-16.odb,Step-1,Increment      1: Step Time =    1.000,"P-16-1",           844,       75.9287,       14.5855,            0.,NA,NA,"",   1.26480E+06,   1.25197E+06,   1.25197E+06
C:/temp/Job-16.odb,Step-1,Increment      1: Step Time =    1.000,"P-16-1",           845,       14.1631,       125.083,            0.,NA,NA,"",   510.603E+03,   568.392E+03,   568.392E+03
C:/temp/Job-16.odb,Step-1,Increment      1: Step Time =    1.000,"P-16-1",           846,       125.351,       15.2419,            0.,NA,NA,"",   1.04161E+06,   1.05009E+06,   1.05009E+06
C:/temp/Job-16.odb,Step-1,Increment      1: Step Time =    1.000,"P-16-1",           847,       185.580,       75.8921,            0.,NA,NA,"",   930.595E+03,   1.05089E+06,   1.05089E+06
C:/temp/Job-16.odb,Step-1,Increment      1: Step Time =    1.000,"P-16-1",           848,       75.1519,       184.154,            0.,NA,NA,"",   1.29243E+06,   1.27719E+06,   1.27719E+06
C:/temp/Job-16.odb,Step-1,Increment      1: Step Time =    1.000,"P-16-1",           849,       185.470,       125.150,            0.,NA,NA,"",   941.531E+03,   1.05884E+06,   1.05884E+06
C:/temp/Job-16.odb,Step-1,Increment      1: Step Time =    1.000,"P-16-1",           850,       124.552,       185.938,            0.,NA,NA,"",   1.00945E+06,   1.01897E+06,   1.01897E+06
C:/temp/Job-16.odb,Step-1,Increment      1: Step Time =    1.000,"P-16-1",           851,       46.9941,       118.966,            0.,NA,NA,"",   562.899E+03,   423.587E+03,   423.587E+03
C:/temp/Job-16.odb,Step-1,Increment      1: Step Time =    1.000,"P-16-1",           852,       118.369,       48.0166,            0.,NA,NA,"",   1.76397E+06,   1.86586E+06,   1.86586E+06
C:/temp/Job-16.odb,Step-1,Increment      1: Step Time =    1.000,"P-16-1",           853,       153.303,       81.8711,            0.,NA,NA,"",   1.04872E+06,   769.978E+03,   769.978E+03
C:/temp/Job-16.odb,Step-1,Increment      1: Step Time =    1.000,"P-16-1",           854,       118.212,       151.646,            0.,NA,NA,"",   1.79632E+06,   1.90578E+06,   1.90578E+06
C:/temp/Job-16.odb,Step-1,Increment      1: Step Time =    1.000,"P-16-1",           855,       77.4261,       48.9800,            0.,NA,NA,"",   1.78402E+06,   1.77541E+06,   1.77541E+06
C:/temp/Job-16.odb,Step-1,Increment      1: Step Time =    1.000,"P-16-1",           856,       44.5754,       81.3012,            0.,NA,NA,"",   521.931E+03,   416.739E+03,   416.739E+03
C:/temp/Job-16.odb,Step-1,Increment      1: Step Time =    1.000,"P-16-1",           857,       152.745,       117.587,            0.,NA,NA,"",   1.03222E+06,   749.363E+03,   749.363E+03
C:/temp/Job-16.odb,Step-1,Increment      1: Step Time =    1.000,"P-16-1",           858,       80.3093,       154.656,            0.,NA,NA,"",   1.75155E+06,   1.77020E+06,   1.77020E+06
C:/temp/Job-16.odb,Step-1,Increment      1: Step Time =    1.000,"P-16-1",           859,       16.2067,       115.279,            0.,NA,NA,"",   372.359E+03,   424.855E+03,   424.855E+03
C:/temp/Job-16.odb,Step-1,Increment      1: Step Time =    1.000,"P-16-1",           860,       85.4385,       14.7826,            0.,NA,NA,"",   1.16120E+06,   1.16724E+06,   1.16724E+06
C:/temp/Job-16.odb,Step-1,Increment      1: Step Time =    1.000,"P-16-1",           861,       115.176,       15.4704,            0.,NA,NA,"",   1.00811E+06,   1.03492E+06,   1.03492E+06
C:/temp/Job-16.odb,Step-1,Increment      1: Step Time =    1.000,"P-16-1",           862,       16.4169,       84.4272,            0.,NA,NA,"",   371.714E+03,   423.845E+03,   423.845E+03
C:/temp/Job-16.odb,Step-1,Increment      1: Step Time =    1.000,"P-16-1",           863,       185.266,       85.1886,            0.,NA,NA,"",   859.129E+03,   986.662E+03,   986.662E+03
C:/temp/Job-16.odb,Step-1,Increment      1: Step Time =    1.000,"P-16-1",           864,       115.392,       185.616,            0.,NA,NA,"",   985.726E+03,   1.00883E+06,   1.00883E+06
C:/temp/Job-16.odb,Step-1,Increment      1: Step Time =    1.000,"P-16-1",           865,       185.091,       115.332,            0.,NA,NA,"",   862.261E+03,   989.292E+03,   989.292E+03
C:/temp/Job-16.odb,Step-1,Increment      1: Step Time =    1.000,"P-16-1",           866,       85.5892,       184.826,            0.,NA,NA,"",   1.16680E+06,   1.17442E+06,   1.17442E+06
C:/temp/Job-16.odb,Step-1,Increment      1: Step Time =    1.000,"P-16-1",           867,       67.0196,       58.6241,            0.,NA,NA,"",   1.55619E+06,   1.44509E+06,   1.44509E+06
C:/temp/Job-16.odb,Step-1,Increment      1: Step Time =    1.000,"P-16-1",           868,       56.4664,       134.400,            0.,NA,NA,"",   1.19603E+06,   1.03109E+06,   1.03109E+06
C:/temp/Job-16.odb,Step-1,Increment      1: Step Time =    1.000,"P-16-1",           869,       142.348,       67.0420,            0.,NA,NA,"",   1.59698E+06,   1.33966E+06,   1.33966E+06
C:/temp/Job-16.odb,Step-1,Increment      1: Step Time =    1.000,"P-16-1",           870,       134.997,       139.062,            0.,NA,NA,"",   1.75667E+06,   1.62788E+06,   1.62788E+06
C:/temp/Job-16.odb,Step-1,Increment      1: Step Time =    1.000,"P-16-1",           871,       79.1070,       63.3687,            0.,NA,NA,"",   1.79397E+06,   1.81768E+06,   1.81768E+06
C:/temp/Job-16.odb,Step-1,Increment      1: Step Time =    1.000,"P-16-1",           872,       95.1556,       15.1211,            0.,NA,NA,"",   1.06475E+06,   1.09072E+06,   1.09072E+06
C:/temp/Job-16.odb,Step-1,Increment      1: Step Time =    1.000,"P-16-1",           873,       15.9879,       104.603,            0.,NA,NA,"",   275.749E+03,   315.592E+03,   315.592E+03
C:/temp/Job-16.odb,Step-1,Increment      1: Step Time =    1.000,"P-16-1",           874,       184.919,       95.0874,            0.,NA,NA,"",   790.374E+03,   902.751E+03,   902.751E+03
C:/temp/Job-16.odb,Step-1,Increment      1: Step Time =    1.000,"P-16-1",           875,       105.668,       185.326,            0.,NA,NA,"",   993.609E+03,   1.02615E+06,   1.02615E+06
C:/temp/Job-16.odb,Step-1,Increment      1: Step Time =    1.000,"P-16-1",           876,       46.4671,       90.1317,            0.,NA,NA,"",   298.340E+03,   13.3781E+03,   13.3781E+03
C:/temp/Job-16.odb,Step-1,Increment      1: Step Time =    1.000,"P-16-1",           877,       94.0702,       151.744,            0.,NA,NA,"",   1.90711E+06,   2.05073E+06,   2.05073E+06
C:/temp/Job-16.odb,Step-1,Increment      1: Step Time =    1.000,"P-16-1",           878,       95.3495,       45.6112,            0.,NA,NA,"",   1.78631E+06,   1.92867E+06,   1.92867E+06
C:/temp/Job-16.odb,Step-1,Increment      1: Step Time =    1.000,"P-16-1",           879,       46.8111,       107.101,            0.,NA,NA,"",   244.697E+03,  -48.2289E+03,  -48.2289E+03
C:/temp/Job-16.odb,Step-1,Increment      1: Step Time =    1.000,"P-16-1",           880,       108.043,       151.532,            0.,NA,NA,"",   1.88271E+06,   2.04205E+06,   2.04205E+06
C:/temp/Job-16.odb,Step-1,Increment      1: Step Time =    1.000,"P-16-1",           881,       105.046,       15.3609,            0.,NA,NA,"",   1.00926E+06,   1.04399E+06,   1.04399E+06
C:/temp/Job-16.odb,Step-1,Increment      1: Step Time =    1.000,"P-16-1",           882,       14.8997,       94.7867,            0.,NA,NA,"",   281.461E+03,   322.733E+03,   322.733E+03
C:/temp/Job-16.odb,Step-1,Increment      1: Step Time =    1.000,"P-16-1",           883,       184.817,       105.223,            0.,NA,NA,"",   789.335E+03,   901.990E+03,   901.990E+03
C:/temp/Job-16.odb,Step-1,Increment      1: Step Time =    1.000,"P-16-1",           884,       95.5911,       184.825,            0.,NA,NA,"",   1.06298E+06,   1.08839E+06,   1.08839E+06
C:/temp/Job-16.odb,Step-1,Increment      1: Step Time =    1.000,"P-16-1",           885,       81.1035,       46.3888,            0.,NA,NA,"",   1.76588E+06,   1.79336E+06,   1.79336E+06
C:/temp/Job-16.odb,Step-1,Increment      1: Step Time =    1.000,"P-16-1",           886,       113.315,       153.239,            0.,NA,NA,"",   1.76711E+06,   1.90394E+06,   1.90394E+06
C:/temp/Job-16.odb,Step-1,Increment      1: Step Time =    1.000,"P-16-1",           887,       44.9771,       114.595,            0.,NA,NA,"",   417.846E+03,   308.068E+03,   308.068E+03
C:/temp/Job-16.odb,Step-1,Increment      1: Step Time =    1.000,"P-16-1",           888,       74.6549,       152.958,            0.,NA,NA,"",   1.72906E+06,   1.69161E+06,   1.69161E+06
C:/temp/Job-16.odb,Step-1,Increment      1: Step Time =    1.000,"P-16-1",           889,       74.7649,       44.9511,            0.,NA,NA,"",   1.72349E+06,   1.68973E+06,   1.68973E+06
C:/temp/Job-16.odb,Step-1,Increment      1: Step Time =    1.000,"P-16-1",           890,       73.7093,       134.683,            0.,NA,NA,"",   1.38806E+06,   1.36782E+06,   1.36782E+06
C:/temp/Job-16.odb,Step-1,Increment      1: Step Time =    1.000,"P-16-1",           891,       57.8267,       66.5434,            0.,NA,NA,"",   1.15941E+06,   986.423E+03,   986.423E+03
C:/temp/Job-16.odb,Step-1,Increment      1: Step Time =    1.000,"P-16-1",           892,       142.559,       133.721,            0.,NA,NA,"",   1.63172E+06,   1.37953E+06,   1.37953E+06
C:/temp/Job-16.odb,Step-1,Increment      1: Step Time =    1.000,"P-16-1",           893,       133.080,       58.8938,            0.,NA,NA,"",   1.80170E+06,   1.71075E+06,   1.71075E+06
C:/temp/Job-16.odb,Step-1,Increment      1: Step Time =    1.000,"P-16-1",           894,       53.6092,       130.917,            0.,NA,NA,"",   1.03274E+06,   862.395E+03,   862.395E+03
C:/temp/Job-16.odb,Step-1,Increment      1: Step Time =    1.000,"P-16-1",           895,       130.159,       53.3129,            0.,NA,NA,"",   1.80723E+06,   1.77111E+06,   1.77111E+06
C:/temp/Job-16.odb,Step-1,Increment      1: Step Time =    1.000,"P-16-1",           896,       64.7184,       54.7031,            0.,NA,NA,"",   1.59576E+06,   1.47663E+06,   1.47663E+06
C:/temp/Job-16.odb,Step-1,Increment      1: Step Time =    1.000,"P-16-1",           897,       145.193,       131.277,            0.,NA,NA,"",   1.55310E+06,   1.26360E+06,   1.26360E+06
C:/temp/Job-16.odb,Step-1,Increment      1: Step Time =    1.000,"P-16-1",           898,       53.2873,       65.3761,            0.,NA,NA,"",   1.14421E+06,   985.347E+03,   985.347E+03
C:/temp/Job-16.odb,Step-1,Increment      1: Step Time =    1.000,"P-16-1",           899,       135.522,       145.522,            0.,NA,NA,"",   1.76987E+06,   1.66563E+06,   1.66563E+06
C:/temp/Job-16.odb,Step-1,Increment      1: Step Time =    1.000,"P-16-1",           900,       146.969,       66.6279,            0.,NA,NA,"",   1.58601E+06,   1.31745E+06,   1.31745E+06
C:/temp/Job-16.odb,Step-1,Increment      1: Step Time =    1.000,"P-16-1",           901,       63.7739,       143.068,            0.,NA,NA,"",   1.54026E+06,   1.41213E+06,   1.41213E+06
C:/temp/Job-16.odb,Step-1,Increment      1: Step Time =    1.000,"P-16-1",           902,       54.5088,       139.240,            0.,NA,NA,"",   1.29464E+06,   1.14730E+06,   1.14730E+06
C:/temp/Job-16.odb,Step-1,Increment      1: Step Time =    1.000,"P-16-1",           903,       138.441,       55.8022,            0.,NA,NA,"",   1.75696E+06,   1.61909E+06,   1.61909E+06
C:/temp/Job-16.odb,Step-1,Increment      1: Step Time =    1.000,"P-16-1",           904,       63.4343,       58.8676,            0.,NA,NA,"",   1.49059E+06,   1.35596E+06,   1.35596E+06
C:/temp/Job-16.odb,Step-1,Increment      1: Step Time =    1.000,"P-16-1",           905,       141.843,       139.272,            0.,NA,NA,"",   1.71697E+06,   1.52103E+06,   1.52103E+06
C:/temp/Job-16.odb,Step-1,Increment      1: Step Time =    1.000,"P-16-1",           906,       58.6155,       62.3817,            0.,NA,NA,"",   1.30904E+06,   1.14858E+06,   1.14858E+06
C:/temp/Job-16.odb,Step-1,Increment      1: Step Time =    1.000,"P-16-1",           907,       138.635,       142.300,            0.,NA,NA,"",   1.75551E+06,   1.60239E+06,   1.60239E+06
C:/temp/Job-16.odb,Step-1,Increment      1: Step Time =    1.000,"P-16-1",           908,       58.4628,       142.971,            0.,NA,NA,"",   1.44730E+06,   1.30513E+06,   1.30513E+06
C:/temp/Job-16.odb,Step-1,Increment      1: Step Time =    1.000,"P-16-1",           909,       141.484,       61.9174,            0.,NA,NA,"",   1.69568E+06,   1.49006E+06,   1.49006E+06
C:/temp/Job-16.odb,Step-1,Increment      1: Step Time =    1.000,"P-16-1",           910,       110.034,       20.6670,            0.,NA,NA,"",   1.10406E+06,   1.15632E+06,   1.15632E+06
C:/temp/Job-16.odb,Step-1,Increment      1: Step Time =    1.000,"P-16-1",           911,       20.4259,       87.3761,            0.,NA,NA,"",   331.359E+03,   379.588E+03,   379.588E+03
C:/temp/Job-16.odb,Step-1,Increment      1: Step Time =    1.000,"P-16-1",           912,       179.946,       110.547,            0.,NA,NA,"",   782.896E+03,   893.988E+03,   893.988E+03
C:/temp/Job-16.odb,Step-1,Increment      1: Step Time =    1.000,"P-16-1",           913,       90.8183,       179.464,            0.,NA,NA,"",   1.21392E+06,   1.24517E+06,   1.24517E+06
C:/temp/Job-16.odb,Step-1,Increment      1: Step Time =    1.000,"P-16-1",           914,       99.9215,       20.5707,            0.,NA,NA,"",   1.13508E+06,   1.18612E+06,   1.18612E+06
C:/temp/Job-16.odb,Step-1,Increment      1: Step Time =    1.000,"P-16-1",           915,       20.5668,       98.7800,            0.,NA,NA,"",   246.110E+03,   278.313E+03,   278.313E+03
C:/temp/Job-16.odb,Step-1,Increment      1: Step Time =    1.000,"P-16-1",           916,       179.544,       100.191,            0.,NA,NA,"",   702.720E+03,   809.488E+03,   809.488E+03
C:/temp/Job-16.odb,Step-1,Increment      1: Step Time =    1.000,"P-16-1",           917,       101.029,       180.165,            0.,NA,NA,"",   1.11694E+06,   1.16734E+06,   1.16734E+06
C:/temp/Job-16.odb,Step-1,Increment      1: Step Time =    1.000,"P-16-1",           918,       81.7723,       159.486,            0.,NA,NA,"",   1.67131E+06,   1.69799E+06,   1.69799E+06
C:/temp/Job-16.odb,Step-1,Increment      1: Step Time =    1.000,"P-16-1",           919,       48.4922,       86.1842,            0.,NA,NA,"",   409.119E+03,   12.2668E+03,   12.2668E+03
C:/temp/Job-16.odb,Step-1,Increment      1: Step Time =    1.000,"P-16-1",           920,       89.1973,       151.922,            0.,NA,NA,"",   1.86333E+06,   1.97136E+06,   1.97136E+06
C:/temp/Job-16.odb,Step-1,Increment      1: Step Time =    1.000,"P-16-1",           921,       42.4928,       110.586,            0.,NA,NA,"",   294.505E+03,   229.810E+03,   229.810E+03
C:/temp/Job-16.odb,Step-1,Increment      1: Step Time =    1.000,"P-16-1",           922,       110.089,       154.202,            0.,NA,NA,"",   1.74811E+06,   1.89577E+06,   1.89577E+06
C:/temp/Job-16.odb,Step-1,Increment      1: Step Time =    1.000,"P-16-1",           923,       155.548,       89.8645,            0.,NA,NA,"",   683.872E+03,   495.867E+03,   495.867E+03
C:/temp/Job-16.odb,Step-1,Increment      1: Step Time =    1.000,"P-16-1",           924,       90.8646,       43.2515,            0.,NA,NA,"",   1.71264E+06,   1.82109E+06,   1.82109E+06
C:/temp/Job-16.odb,Step-1,Increment      1: Step Time =    1.000,"P-16-1",           925,       18.1413,       60.3183,            0.,NA,NA,"",   791.914E+03,   840.452E+03,   840.452E+03
C:/temp/Job-16.odb,Step-1,Increment      1: Step Time =    1.000,"P-16-1",           926,       59.4162,       21.3973,            0.,NA,NA,"",   1.47736E+06,   1.43117E+06,   1.43117E+06
C:/temp/Job-16.odb,Step-1,Increment      1: Step Time =    1.000,"P-16-1",           927,       59.3998,       180.686,            0.,NA,NA,"",   1.45592E+06,   1.41577E+06,   1.41577E+06
C:/temp/Job-16.odb,Step-1,Increment      1: Step Time =    1.000,"P-16-1",           928,       178.085,       61.7777,            0.,NA,NA,"",   1.12413E+06,   1.14614E+06,   1.14614E+06
C:/temp/Job-16.odb,Step-1,Increment      1: Step Time =    1.000,"P-16-1",           929,       19.9628,       138.344,            0.,NA,NA,"",   786.359E+03,   828.854E+03,   828.854E+03
C:/temp/Job-16.odb,Step-1,Increment      1: Step Time =    1.000,"P-16-1",           930,       180.996,       139.381,            0.,NA,NA,"",   1.08557E+06,   1.12894E+06,   1.12894E+06
C:/temp/Job-16.odb,Step-1,Increment      1: Step Time =    1.000,"P-16-1",           931,       138.537,       178.633,            0.,NA,NA,"",   1.19810E+06,   1.17909E+06,   1.17909E+06
C:/temp/Job-16.odb,Step-1,Increment      1: Step Time =    1.000,"P-16-1",           932,       172.581,       15.0879,            0.,NA,NA,"",   1.05014E+06,   1.04583E+06,   1.04583E+06
C:/temp/Job-16.odb,Step-1,Increment      1: Step Time =    1.000,"P-16-1",           933,       13.9740,       173.634,            0.,NA,NA,"",   1.32966E+06,   1.40099E+06,   1.40099E+06
C:/temp/Job-16.odb,Step-1,Increment      1: Step Time =    1.000,"P-16-1",           934,       18.7828,       165.172,            0.,NA,NA,"",   1.23894E+06,   1.28620E+06,   1.28620E+06
C:/temp/Job-16.odb,Step-1,Increment      1: Step Time =    1.000,"P-16-1",           935,       164.687,       19.8820,            0.,NA,NA,"",   1.11513E+06,   1.09828E+06,   1.09828E+06
C:/temp/Job-16.odb,Step-1,Increment      1: Step Time =    1.000,"P-16-1",           936,       34.0140,       17.6910,            0.,NA,NA,"",   1.51410E+06,   1.50028E+06,   1.50028E+06
C:/temp/Job-16.odb,Step-1,Increment      1: Step Time =    1.000,"P-16-1",           937,       19.0441,       35.3975,            0.,NA,NA,"",   1.23149E+06,   1.27723E+06,   1.27723E+06
C:/temp/Job-16.odb,Step-1,Increment      1: Step Time =    1.000,"P-16-1",           938,       14.3000,       27.3458,            0.,NA,NA,"",   1.31954E+06,   1.38984E+06,   1.38984E+06
C:/temp/Job-16.odb,Step-1,Increment      1: Step Time =    1.000,"P-16-1",           939,       25.3943,       13.1559,            0.,NA,NA,"",   1.56918E+06,   1.57356E+06,   1.57356E+06
C:/temp/Job-16.odb,Step-1,Increment      1: Step Time =    1.000,"P-16-1",           940,       179.857,       164.172,            0.,NA,NA,"",   1.08955E+06,   1.09578E+06,   1.09578E+06
C:/temp/Job-16.odb,Step-1,Increment      1: Step Time =    1.000,"P-16-1",           941,       161.071,       181.929,            0.,NA,NA,"",   1.10973E+06,   1.09272E+06,   1.09272E+06
C:/temp/Job-16.odb,Step-1,Increment      1: Step Time =    1.000,"P-16-1",           942,       171.078,       188.437,            0.,NA,NA,"",   1.03596E+06,   1.03264E+06,   1.03264E+06
C:/temp/Job-16.odb,Step-1,Increment      1: Step Time =    1.000,"P-16-1",           943,       184.758,       172.405,            0.,NA,NA,"",   1.03175E+06,   1.04281E+06,   1.04281E+06
C:/temp/Job-16.odb,Step-1,Increment      1: Step Time =    1.000,"P-16-1",           944,       181.929,       38.8508,            0.,NA,NA,"",   1.07204E+06,   1.08818E+06,   1.08818E+06
C:/temp/Job-16.odb,Step-1,Increment      1: Step Time =    1.000,"P-16-1",           945,       35.5991,       179.088,            0.,NA,NA,"",   1.49648E+06,   1.47694E+06,   1.47694E+06
C:/temp/Job-16.odb,Step-1,Increment      1: Step Time =    1.000,"P-16-1",           946,       25.5685,       183.926,            0.,NA,NA,"",   1.53953E+06,   1.54564E+06,   1.54564E+06
C:/temp/Job-16.odb,Step-1,Increment      1: Step Time =    1.000,"P-16-1",           947,       188.466,       28.9140,            0.,NA,NA,"",   1.01198E+06,   1.02889E+06,   1.02889E+06
C:/temp/Job-16.odb,Step-1,Increment      1: Step Time =    1.000,"P-16-1",           948,       19.0664,       68.8021,            0.,NA,NA,"",   634.999E+03,   682.867E+03,   682.867E+03
C:/temp/Job-16.odb,Step-1,Increment      1: Step Time =    1.000,"P-16-1",           949,       68.1616,       20.1269,            0.,NA,NA,"",   1.42421E+06,   1.39019E+06,   1.39019E+06
C:/temp/Job-16.odb,Step-1,Increment      1: Step Time =    1.000,"P-16-1",           950,       180.962,       130.038,            0.,NA,NA,"",   1.02751E+06,   1.09666E+06,   1.09666E+06
C:/temp/Job-16.odb,Step-1,Increment      1: Step Time =    1.000,"P-16-1",           951,       132.055,       182.009,            0.,NA,NA,"",   1.12021E+06,   1.11613E+06,   1.11613E+06
C:/temp/Job-16.odb,Step-1,Increment      1: Step Time =    1.000,"P-16-1",           952,       130.922,       20.0122,            0.,NA,NA,"",   1.15868E+06,   1.15659E+06,   1.15659E+06
C:/temp/Job-16.odb,Step-1,Increment      1: Step Time =    1.000,"P-16-1",           953,       19.2433,       129.085,            0.,NA,NA,"",   594.793E+03,   643.271E+03,   643.271E+03
C:/temp/Job-16.odb,Step-1,Increment      1: Step Time =    1.000,"P-16-1",           954,       69.6377,       178.615,            0.,NA,NA,"",   1.42950E+06,   1.39627E+06,   1.39627E+06
C:/temp/Job-16.odb,Step-1,Increment      1: Step Time =    1.000,"P-16-1",           955,       181.489,       68.3454,            0.,NA,NA,"",   1.03341E+06,   1.10336E+06,   1.10336E+06
C:/temp/Job-16.odb,Step-1,Increment      1: Step Time =    1.000,"P-16-1",           956,       48.7622,       123.226,            0.,NA,NA,"",   706.614E+03,   553.440E+03,   553.440E+03
C:/temp/Job-16.odb,Step-1,Increment      1: Step Time =    1.000,"P-16-1",           957,       122.047,       49.8934,            0.,NA,NA,"",   1.80071E+06,   1.86888E+06,   1.86888E+06
C:/temp/Job-16.odb,Step-1,Increment      1: Step Time =    1.000,"P-16-1",           958,       152.156,       74.9846,            0.,NA,NA,"",   1.33276E+06,   1.05492E+06,   1.05492E+06
C:/temp/Job-16.odb,Step-1,Increment      1: Step Time =    1.000,"P-16-1",           959,       122.991,       154.209,            0.,NA,NA,"",   1.68228E+06,   1.74503E+06,   1.74503E+06
C:/temp/Job-16.odb,Step-1,Increment      1: Step Time =    1.000,"P-16-1",           960,       49.5937,       75.0550,            0.,NA,NA,"",   792.608E+03,   634.666E+03,   634.666E+03
C:/temp/Job-16.odb,Step-1,Increment      1: Step Time =    1.000,"P-16-1",           961,       150.915,       122.169,            0.,NA,NA,"",   1.23678E+06,   927.135E+03,   927.135E+03
C:/temp/Job-16.odb,Step-1,Increment      1: Step Time =    1.000,"P-16-1",           962,       120.386,       20.8773,            0.,NA,NA,"",   1.13254E+06,   1.16210E+06,   1.16210E+06
C:/temp/Job-16.odb,Step-1,Increment      1: Step Time =    1.000,"P-16-1",           963,       21.6143,       81.6649,            0.,NA,NA,"",   410.045E+03,   456.365E+03,   456.365E+03
C:/temp/Job-16.odb,Step-1,Increment      1: Step Time =    1.000,"P-16-1",           964,       18.9268,       118.181,            0.,NA,NA,"",   407.979E+03,   459.583E+03,   459.583E+03
C:/temp/Job-16.odb,Step-1,Increment      1: Step Time =    1.000,"P-16-1",           965,       180.327,       120.554,            0.,NA,NA,"",   928.087E+03,   1.02164E+06,   1.02164E+06
C:/temp/Job-16.odb,Step-1,Increment      1: Step Time =    1.000,"P-16-1",           966,       80.9367,       179.873,            0.,NA,NA,"",   1.31532E+06,   1.31260E+06,   1.31260E+06
C:/temp/Job-16.odb,Step-1,Increment      1: Step Time =    1.000,"P-16-1",           967,       21.6249,       109.606,            0.,NA,NA,"",   295.200E+03,   338.994E+03,   338.994E+03
C:/temp/Job-16.odb,Step-1,Increment      1: Step Time =    1.000,"P-16-1",           968,       69.8402,       154.215,            0.,NA,NA,"",   1.69321E+06,   1.62123E+06,   1.62123E+06
C:/temp/Job-16.odb,Step-1,Increment      1: Step Time =    1.000,"P-16-1",           969,       71.4361,       47.3233,            0.,NA,NA,"",   1.72192E+06,   1.65794E+06,   1.65794E+06
C:/temp/Job-16.odb,Step-1,Increment      1: Step Time =    1.000,"P-16-1",           970,       99.5291,       161.435,            0.,NA,NA,"",   1.51598E+06,   1.64237E+06,   1.64237E+06
C:/temp/Job-16.odb,Step-1,Increment      1: Step Time =    1.000,"P-16-1",           971,       162.886,       99.4680,            0.,NA,NA,"",   438.749E+03,   459.851E+03,   459.851E+03
C:/temp/Job-16.odb,Step-1,Increment      1: Step Time =    1.000,"P-16-1",           972,       100.871,       36.1025,            0.,NA,NA,"",   1.44207E+06,   1.56072E+06,   1.56072E+06
C:/temp/Job-16.odb,Step-1,Increment      1: Step Time =    1.000,"P-16-1",           973,       38.0529,       101.370,            0.,NA,NA,"",   118.806E+03,   133.262E+03,   133.262E+03
C:/temp/Job-16.odb,Step-1,Increment      1: Step Time =    1.000,"P-16-1",           974,       158.341,       110.979,            0.,NA,NA,"",   717.401E+03,   582.270E+03,   582.270E+03
C:/temp/Job-16.odb,Step-1,Increment      1: Step Time =    1.000,"P-16-1",           975,       89.9778,       157.332,            0.,NA,NA,"",   1.68267E+06,   1.78152E+06,   1.78152E+06
C:/temp/Job-16.odb,Step-1,Increment      1: Step Time =    1.000,"P-16-1",           976,       113.742,       42.8755,            0.,NA,NA,"",   1.62109E+06,   1.74760E+06,   1.74760E+06
C:/temp/Job-16.odb,Step-1,Increment      1: Step Time =    1.000,"P-16-1",           977,       43.6504,       87.8951,            0.,NA,NA,"",   340.199E+03,   256.990E+03,   256.990E+03
C:/temp/Job-16.odb,Step-1,Increment      1: Step Time =    1.000,"P-16-1",           978,       90.1190,       24.0207,            0.,NA,NA,"",   1.28303E+06,   1.32290E+06,   1.32290E+06
C:/temp/Job-16.odb,Step-1,Increment      1: Step Time =    1.000,"P-16-1",           979,       26.5440,       114.376,            0.,NA,NA,"",   352.690E+03,   389.509E+03,   389.509E+03
C:/temp/Job-16.odb,Step-1,Increment      1: Step Time =    1.000,"P-16-1",           980,       175.092,       89.6910,            0.,NA,NA,"",   748.095E+03,   834.332E+03,   834.332E+03
C:/temp/Job-16.odb,Step-1,Increment      1: Step Time =    1.000,"P-16-1",           981,       111.167,       175.701,            0.,NA,NA,"",   1.17150E+06,   1.23522E+06,   1.23522E+06
C:/temp/Job-16.odb,Step-1,Increment      1: Step Time =    1.000,"P-16-1",           982,       25.7303,       79.5838,            0.,NA,NA,"",   463.028E+03,   497.811E+03,   497.811E+03
C:/temp/Job-16.odb,Step-1,Increment      1: Step Time =    1.000,"P-16-1",           983,       22.2346,       121.309,            0.,NA,NA,"",   465.316E+03,   510.728E+03,   510.728E+03
C:/temp/Job-16.odb,Step-1,Increment      1: Step Time =    1.000,"P-16-1",           984,       80.8251,       24.6125,            0.,NA,NA,"",   1.39835E+06,   1.39867E+06,   1.39867E+06
C:/temp/Job-16.odb,Step-1,Increment      1: Step Time =    1.000,"P-16-1",           985,       175.329,       120.898,            0.,NA,NA,"",   965.489E+03,   1.01026E+06,   1.01026E+06
C:/temp/Job-16.odb,Step-1,Increment      1: Step Time =    1.000,"P-16-1",           986,       78.9234,       174.956,            0.,NA,NA,"",   1.41708E+06,   1.41036E+06,   1.41036E+06
C:/temp/Job-16.odb,Step-1,Increment      1: Step Time =    1.000,"P-16-1",           987,       175.021,       80.0659,            0.,NA,NA,"",   945.503E+03,   991.332E+03,   991.332E+03
C:/temp/Job-16.odb,Step-1,Increment      1: Step Time =    1.000,"P-16-1",           988,       121.118,       175.822,            0.,NA,NA,"",   1.20033E+06,   1.23631E+06,   1.23631E+06
C:/temp/Job-16.odb,Step-1,Increment      1: Step Time =    1.000,"P-16-1",           989,       142.717,       56.8694,            0.,NA,NA,"",   1.71738E+06,   1.54010E+06,   1.54010E+06
C:/temp/Job-16.odb,Step-1,Increment      1: Step Time =    1.000,"P-16-1",           990,       59.2167,       58.1498,            0.,NA,NA,"",   1.44149E+06,   1.29346E+06,   1.29346E+06
C:/temp/Job-16.odb,Step-1,Increment      1: Step Time =    1.000,"P-16-1",           991,       173.873,       100.170,            0.,NA,NA,"",   613.821E+03,   704.493E+03,   704.493E+03
C:/temp/Job-16.odb,Step-1,Increment      1: Step Time =    1.000,"P-16-1",           992,       101.853,       175.764,            0.,NA,NA,"",   1.19131E+06,   1.25937E+06,   1.25937E+06
C:/temp/Job-16.odb,Step-1,Increment      1: Step Time =    1.000,"P-16-1",           993,       27.3174,       100.560,            0.,NA,NA,"",   201.305E+03,   228.063E+03,   228.063E+03
C:/temp/Job-16.odb,Step-1,Increment      1: Step Time =    1.000,"P-16-1",           994,       141.389,       24.0339,            0.,NA,NA,"",   1.24769E+06,   1.21962E+06,   1.21962E+06
C:/temp/Job-16.odb,Step-1,Increment      1: Step Time =    1.000,"P-16-1",           995,       24.7784,       140.168,            0.,NA,NA,"",   861.616E+03,   882.321E+03,   882.321E+03
C:/temp/Job-16.odb,Step-1,Increment      1: Step Time =    1.000,"P-16-1",           996,       59.2002,       27.5793,            0.,NA,NA,"",   1.53004E+06,   1.46704E+06,   1.46704E+06
C:/temp/Job-16.odb,Step-1,Increment      1: Step Time =    1.000,"P-16-1",           997,       22.2233,       59.8202,            0.,NA,NA,"",   842.608E+03,   874.156E+03,   874.156E+03
C:/temp/Job-16.odb,Step-1,Increment      1: Step Time =    1.000,"P-16-1",           998,       55.4324,       175.957,            0.,NA,NA,"",   1.50351E+06,   1.45046E+06,   1.45046E+06
C:/temp/Job-16.odb,Step-1,Increment      1: Step Time =    1.000,"P-16-1",           999,       173.969,       59.3336,            0.,NA,NA,"",   1.20082E+06,   1.18238E+06,   1.18238E+06
C:/temp/Job-16.odb,Step-1,Increment      1: Step Time =    1.000,"P-16-1",          1000,       175.147,       140.115,            0.,NA,NA,"",   1.18322E+06,   1.17448E+06,   1.17448E+06
C:/temp/Job-16.odb,Step-1,Increment      1: Step Time =    1.000,"P-16-1",          1001,       140.934,       174.609,            0.,NA,NA,"",   1.26933E+06,   1.23922E+06,   1.23922E+06
C:/temp/Job-16.odb,Step-1,Increment      1: Step Time =    1.000,"P-16-1",          1002,       152.165,       128.549,            0.,NA,NA,"",   1.42142E+06,   1.15262E+06,   1.15262E+06
C:/temp/Job-16.odb,Step-1,Increment      1: Step Time =    1.000,"P-16-1",          1003,       48.2746,       68.2665,            0.,NA,NA,"",   984.749E+03,   850.391E+03,   850.391E+03
C:/temp/Job-16.odb,Step-1,Increment      1: Step Time =    1.000,"P-16-1",          1004,       155.022,       71.2032,            0.,NA,NA,"",   1.39826E+06,   1.16553E+06,   1.16553E+06
C:/temp/Job-16.odb,Step-1,Increment      1: Step Time =    1.000,"P-16-1",          1005,       133.734,       155.047,            0.,NA,NA,"",   1.64467E+06,   1.59834E+06,   1.59834E+06
C:/temp/Job-16.odb,Step-1,Increment      1: Step Time =    1.000,"P-16-1",          1006,       127.772,       47.5814,            0.,NA,NA,"",   1.71351E+06,   1.71829E+06,   1.71829E+06
C:/temp/Job-16.odb,Step-1,Increment      1: Step Time =    1.000,"P-16-1",          1007,       25.2116,       130.975,            0.,NA,NA,"",   673.415E+03,   698.080E+03,   698.080E+03
C:/temp/Job-16.odb,Step-1,Increment      1: Step Time =    1.000,"P-16-1",          1008,       176.661,       70.6330,            0.,NA,NA,"",   1.07959E+06,   1.10746E+06,   1.10746E+06
C:/temp/Job-16.odb,Step-1,Increment      1: Step Time =    1.000,"P-16-1",          1009,       66.1868,       24.3528,            0.,NA,NA,"",   1.48888E+06,   1.44190E+06,   1.44190E+06
C:/temp/Job-16.odb,Step-1,Increment      1: Step Time =    1.000,"P-16-1",          1010,       129.969,       177.458,            0.,NA,NA,"",   1.20403E+06,   1.20588E+06,   1.20588E+06
C:/temp/Job-16.odb,Step-1,Increment      1: Step Time =    1.000,"P-16-1",          1011,       33.4574,       21.7227,            0.,NA,NA,"",   1.48893E+06,    1.4735E+06,    1.4735E+06
C:/temp/Job-16.odb,Step-1,Increment      1: Step Time =    1.000,"P-16-1",          1012,       23.5876,       34.5598,            0.,NA,NA,"",   1.28832E+06,   1.31088E+06,   1.31088E+06
C:/temp/Job-16.odb,Step-1,Increment      1: Step Time =    1.000,"P-16-1",          1013,       23.6860,       162.732,            0.,NA,NA,"",   1.25505E+06,   1.27731E+06,   1.27731E+06
C:/temp/Job-16.odb,Step-1,Increment      1: Step Time =    1.000,"P-16-1",          1014,       165.125,       24.3446,            0.,NA,NA,"",   1.15178E+06,   1.12890E+06,   1.12890E+06
C:/temp/Job-16.odb,Step-1,Increment      1: Step Time =    1.000,"P-16-1",          1015,       177.912,       37.6610,            0.,NA,NA,"",   1.11638E+06,   1.11617E+06,   1.11617E+06
C:/temp/Job-16.odb,Step-1,Increment      1: Step Time =    1.000,"P-16-1",          1016,       36.4648,       173.723,            0.,NA,NA,"",   1.46878E+06,   1.44087E+06,   1.44087E+06
C:/temp/Job-16.odb,Step-1,Increment      1: Step Time =    1.000,"P-16-1",          1017,       175.347,       164.649,            0.,NA,NA,"",   1.13453E+06,   1.12609E+06,   1.12609E+06
C:/temp/Job-16.odb,Step-1,Increment      1: Step Time =    1.000,"P-16-1",          1018,       162.170,       177.902,            0.,NA,NA,"",   1.14633E+06,   1.12357E+06,   1.12357E+06
C:/temp/Job-16.odb,Step-1,Increment      1: Step Time =    1.000,"P-16-1",          1019,       14.1033,       55.7432,            0.,NA,NA,"",   844.057E+03,   906.780E+03,   906.780E+03
C:/temp/Job-16.odb,Step-1,Increment      1: Step Time =    1.000,"P-16-1",          1020,       54.4091,       14.6137,            0.,NA,NA,"",   1.43871E+06,   1.41245E+06,   1.41245E+06
C:/temp/Job-16.odb,Step-1,Increment      1: Step Time =    1.000,"P-16-1",          1021,       185.413,       145.615,            0.,NA,NA,"",   1.03275E+06,   1.09222E+06,   1.09222E+06
C:/temp/Job-16.odb,Step-1,Increment      1: Step Time =    1.000,"P-16-1",          1022,       146.427,       183.535,            0.,NA,NA,"",   1.11756E+06,   1.09821E+06,   1.09821E+06
C:/temp/Job-16.odb,Step-1,Increment      1: Step Time =    1.000,"P-16-1",          1023,       55.2288,       186.024,            0.,NA,NA,"",   1.43092E+06,   1.40568E+06,   1.40568E+06
C:/temp/Job-16.odb,Step-1,Increment      1: Step Time =    1.000,"P-16-1",          1024,       183.356,       53.6900,            0.,NA,NA,"",   1.06178E+06,   1.10821E+06,   1.10821E+06
C:/temp/Job-16.odb,Step-1,Increment      1: Step Time =    1.000,"P-16-1",          1025,       144.614,       13.7238,            0.,NA,NA,"",   1.07403E+06,   1.06017E+06,   1.06017E+06
C:/temp/Job-16.odb,Step-1,Increment      1: Step Time =    1.000,"P-16-1",          1026,       14.0324,       148.210,            0.,NA,NA,"",   911.395E+03,   977.169E+03,   977.169E+03
C:/temp/Job-16.odb,Step-1,Increment      1: Step Time =    1.000,"P-16-1",          1027,       173.954,       10.6549,            0.,NA,NA,"",   1.02738E+06,   1.02533E+06,   1.02533E+06
C:/temp/Job-16.odb,Step-1,Increment      1: Step Time =    1.000,"P-16-1",          1028,       17.5621,       174.427,            0.,NA,NA,"",   1.37283E+06,   1.42434E+06,   1.42434E+06
C:/temp/Job-16.odb,Step-1,Increment      1: Step Time =    1.000,"P-16-1",          1029,       172.411,       18.8446,            0.,NA,NA,"",   1.07147E+06,   1.06500E+06,   1.06500E+06
C:/temp/Job-16.odb,Step-1,Increment      1: Step Time =    1.000,"P-16-1",          1030,       14.3969,       159.318,            0.,NA,NA,"",   1.09525E+06,   1.16381E+06,   1.16381E+06
C:/temp/Job-16.odb,Step-1,Increment      1: Step Time =    1.000,"P-16-1",          1031,       159.814,       16.1736,            0.,NA,NA,"",   1.09583E+06,   1.08062E+06,   1.08062E+06
C:/temp/Job-16.odb,Step-1,Increment      1: Step Time =    1.000,"P-16-1",          1032,       38.7464,       13.7214,            0.,NA,NA,"",   1.51163E+06,   1.49734E+06,   1.49734E+06
C:/temp/Job-16.odb,Step-1,Increment      1: Step Time =    1.000,"P-16-1",          1033,       25.5537,       17.3021,            0.,NA,NA,"",   1.53010E+06,   1.53624E+06,   1.53624E+06
C:/temp/Job-16.odb,Step-1,Increment      1: Step Time =    1.000,"P-16-1",          1034,       18.2356,       28.0645,            0.,NA,NA,"",   1.34238E+06,   1.38961E+06,   1.38961E+06
C:/temp/Job-16.odb,Step-1,Increment      1: Step Time =    1.000,"P-16-1",          1035,       15.4853,       43.8007,            0.,NA,NA,"",   1.05598E+06,   1.11981E+06,   1.11981E+06
C:/temp/Job-16.odb,Step-1,Increment      1: Step Time =    1.000,"P-16-1",          1036,       9.53294,       30.8113,            0.,NA,NA,"",   1.19929E+06,   1.29805E+06,   1.29805E+06
C:/temp/Job-16.odb,Step-1,Increment      1: Step Time =    1.000,"P-16-1",          1037,       180.970,       172.198,            0.,NA,NA,"",   1.05728E+06,   1.06289E+06,   1.06289E+06
C:/temp/Job-16.odb,Step-1,Increment      1: Step Time =    1.000,"P-16-1",          1038,       171.256,       185.579,            0.,NA,NA,"",   1.05142E+06,   1.04641E+06,   1.04641E+06
C:/temp/Job-16.odb,Step-1,Increment      1: Step Time =    1.000,"P-16-1",          1039,       189.229,       173.810,            0.,NA,NA,"",   1.01022E+06,   1.02304E+06,   1.02304E+06
C:/temp/Job-16.odb,Step-1,Increment      1: Step Time =    1.000,"P-16-1",          1040,       159.403,       186.003,            0.,NA,NA,"",   1.07175E+06,   1.05995E+06,   1.05995E+06
C:/temp/Job-16.odb,Step-1,Increment      1: Step Time =    1.000,"P-16-1",          1041,       183.515,       158.985,            0.,NA,NA,"",   1.06068E+06,   1.08386E+06,   1.08386E+06
C:/temp/Job-16.odb,Step-1,Increment      1: Step Time =    1.000,"P-16-1",          1042,       25.2838,       189.391,            0.,NA,NA,"",   1.59036E+06,   1.59311E+06,   1.59311E+06
C:/temp/Job-16.odb,Step-1,Increment      1: Step Time =    1.000,"P-16-1",          1043,       185.634,       28.7204,            0.,NA,NA,"",   1.02786E+06,   1.04164E+06,   1.04164E+06
C:/temp/Job-16.odb,Step-1,Increment      1: Step Time =    1.000,"P-16-1",          1044,       26.2272,       178.690,            0.,NA,NA,"",   1.47960E+06,   1.48606E+06,   1.48606E+06
C:/temp/Job-16.odb,Step-1,Increment      1: Step Time =    1.000,"P-16-1",          1045,       185.996,       40.5598,            0.,NA,NA,"",   1.02828E+06,   1.06182E+06,   1.06182E+06
C:/temp/Job-16.odb,Step-1,Increment      1: Step Time =    1.000,"P-16-1",          1046,       39.5704,       179.516,            0.,NA,NA,"",   1.49762E+06,   1.47072E+06,   1.47072E+06
C:/temp/Job-16.odb,Step-1,Increment      1: Step Time =    1.000,"P-16-1",          1047,       120.347,       44.3601,            0.,NA,NA,"",   1.64841E+06,   1.72680E+06,   1.72680E+06
C:/temp/Job-16.odb,Step-1,Increment      1: Step Time =    1.000,"P-16-1",          1048,       42.2946,       120.491,            0.,NA,NA,"",   567.251E+03,   484.482E+03,   484.482E+03
C:/temp/Job-16.odb,Step-1,Increment      1: Step Time =    1.000,"P-16-1",          1049,       156.329,       77.8162,            0.,NA,NA,"",   1.19065E+06,   964.068E+03,   964.068E+03
C:/temp/Job-16.odb,Step-1,Increment      1: Step Time =    1.000,"P-16-1",          1050,       120.774,       157.094,            0.,NA,NA,"",   1.61373E+06,   1.69391E+06,   1.69391E+06
C:/temp/Job-16.odb,Step-1,Increment      1: Step Time =    1.000,"P-16-1",          1051,       44.9837,       77.1045,            0.,NA,NA,"",   666.619E+03,   549.828E+03,   549.828E+03
C:/temp/Job-16.odb,Step-1,Increment      1: Step Time =    1.000,"P-16-1",          1052,       156.312,       120.860,            0.,NA,NA,"",   1.14217E+06,   922.646E+03,   922.646E+03
C:/temp/Job-16.odb,Step-1,Increment      1: Step Time =    1.000,"P-16-1",          1053,       67.2473,       149.051,            0.,NA,NA,"",   1.67391E+06,   1.57646E+06,   1.57646E+06
C:/temp/Job-16.odb,Step-1,Increment      1: Step Time =    1.000,"P-16-1",          1054,       67.9085,       49.1979,            0.,NA,NA,"",   1.68874E+06,   1.59773E+06,   1.59773E+06
C:/temp/Job-16.odb,Step-1,Increment      1: Step Time =    1.000,"P-16-1",          1055,       49.0304,       64.4339,            0.,NA,NA,"",   1.10464E+06,   970.829E+03,   970.829E+03
C:/temp/Job-16.odb,Step-1,Increment      1: Step Time =    1.000,"P-16-1",          1056,       132.624,       149.014,            0.,NA,NA,"",   1.74928E+06,   1.69423E+06,   1.69423E+06
C:/temp/Job-16.odb,Step-1,Increment      1: Step Time =    1.000,"P-16-1",          1057,       151.340,       66.3206,            0.,NA,NA,"",   1.53255E+06,   1.28613E+06,   1.28613E+06
C:/temp/Job-16.odb,Step-1,Increment      1: Step Time =    1.000,"P-16-1",          1058,       131.526,       49.1338,            0.,NA,NA,"",   1.73065E+06,   1.69172E+06,   1.69172E+06
C:/temp/Job-16.odb,Step-1,Increment      1: Step Time =    1.000,"P-16-1",          1059,       47.1070,       129.266,            0.,NA,NA,"",   891.909E+03,   762.316E+03,   762.316E+03
C:/temp/Job-16.odb,Step-1,Increment      1: Step Time =    1.000,"P-16-1",          1060,       148.744,       133.443,            0.,NA,NA,"",   1.57469E+06,   1.30947E+06,   1.30947E+06
C:/temp/Job-16.odb,Step-1,Increment      1: Step Time =    1.000,"P-16-1",          1061,       161.655,       108.707,            0.,NA,NA,"",   622.923E+03,   573.011E+03,   573.011E+03
C:/temp/Job-16.odb,Step-1,Increment      1: Step Time =    1.000,"P-16-1",          1062,       90.2622,       162.972,            0.,NA,NA,"",   1.54042E+06,   1.62067E+06,   1.62067E+06
C:/temp/Job-16.odb,Step-1,Increment      1: Step Time =    1.000,"P-16-1",          1063,       109.105,       35.5333,            0.,NA,NA,"",   1.40066E+06,   1.51641E+06,   1.51641E+06
C:/temp/Job-16.odb,Step-1,Increment      1: Step Time =    1.000,"P-16-1",          1064,       40.2521,       88.8706,            0.,NA,NA,"",   305.662E+03,   260.904E+03,   260.904E+03
C:/temp/Job-16.odb,Step-1,Increment      1: Step Time =    1.000,"P-16-1",          1065,       77.7108,       161.016,            0.,NA,NA,"",   1.65735E+06,   1.64807E+06,   1.64807E+06
C:/temp/Job-16.odb,Step-1,Increment      1: Step Time =    1.000,"P-16-1",          1066,       180.317,       80.3854,            0.,NA,NA,"",   912.647E+03,   1.00934E+06,   1.00934E+06
C:/temp/Job-16.odb,Step-1,Increment      1: Step Time =    1.000,"P-16-1",          1067,       18.3244,       121.214,            0.,NA,NA,"",   451.854E+03,   503.553E+03,   503.553E+03
C:/temp/Job-16.odb,Step-1,Increment      1: Step Time =    1.000,"P-16-1",          1068,       120.414,       180.863,            0.,NA,NA,"",   1.09580E+06,   1.12264E+06,   1.12264E+06
C:/temp/Job-16.odb,Step-1,Increment      1: Step Time =    1.000,"P-16-1",          1069,       80.8602,       19.6991,            0.,NA,NA,"",   1.30869E+06,   1.30639E+06,   1.30639E+06
C:/temp/Job-16.odb,Step-1,Increment      1: Step Time =    1.000,"P-16-1",          1070,       143.847,       122.910,            0.,NA,NA,"",   1.25318E+06,   898.617E+03,   898.617E+03
C:/temp/Job-16.odb,Step-1,Increment      1: Step Time =    1.000,"P-16-1",          1071,       54.7243,       74.3966,            0.,NA,NA,"",   836.657E+03,   643.126E+03,   643.126E+03
C:/temp/Job-16.odb,Step-1,Increment      1: Step Time =    1.000,"P-16-1",          1072,       124.353,       55.7667,            0.,NA,NA,"",   1.91577E+06,   1.95397E+06,   1.95397E+06
C:/temp/Job-16.odb,Step-1,Increment      1: Step Time =    1.000,"P-16-1",          1073,       161.680,       90.1322,            0.,NA,NA,"",   666.410E+03,   614.453E+03,   614.453E+03
C:/temp/Job-16.odb,Step-1,Increment      1: Step Time =    1.000,"P-16-1",          1074,       108.766,       158.163,            0.,NA,NA,"",   1.60846E+06,   1.74938E+06,   1.74938E+06
C:/temp/Job-16.odb,Step-1,Increment      1: Step Time =    1.000,"P-16-1",          1075,       38.4014,       112.808,            0.,NA,NA,"",   338.581E+03,   313.889E+03,   313.889E+03
C:/temp/Job-16.odb,Step-1,Increment      1: Step Time =    1.000,"P-16-1",          1076,       87.1076,       40.1149,            0.,NA,NA,"",   1.64021E+06,   1.70921E+06,   1.70921E+06
C:/temp/Job-16.odb,Step-1,Increment      1: Step Time =    1.000,"P-16-1",          1077,       38.6488,       94.1320,            0.,NA,NA,"",   169.208E+03,   163.809E+03,   163.809E+03
C:/temp/Job-16.odb,Step-1,Increment      1: Step Time =    1.000,"P-16-1",          1078,       104.952,       35.7752,            0.,NA,NA,"",   1.41594E+06,   1.53608E+06,   1.53608E+06
C:/temp/Job-16.odb,Step-1,Increment      1: Step Time =    1.000,"P-16-1",          1079,       164.260,       103.585,            0.,NA,NA,"",   482.596E+03,   510.435E+03,   510.435E+03
C:/temp/Job-16.odb,Step-1,Increment      1: Step Time =    1.000,"P-16-1",          1080,       94.9306,       162.243,            0.,NA,NA,"",   1.52302E+06,   1.63132E+06,   1.63132E+06
C:/temp/Job-16.odb,Step-1,Increment      1: Step Time =    1.000,"P-16-1",          1081,       97.1312,       36.3231,            0.,NA,NA,"",   1.46903E+06,   1.58150E+06,   1.58150E+06
C:/temp/Job-16.odb,Step-1,Increment      1: Step Time =    1.000,"P-16-1",          1082,       36.9613,       104.342,            0.,NA,NA,"",   156.769E+03,   171.135E+03,   171.135E+03
C:/temp/Job-16.odb,Step-1,Increment      1: Step Time =    1.000,"P-16-1",          1083,       161.908,       94.9047,            0.,NA,NA,"",   506.790E+03,   496.838E+03,   496.838E+03
C:/temp/Job-16.odb,Step-1,Increment      1: Step Time =    1.000,"P-16-1",          1084,       105.575,       164.852,            0.,NA,NA,"",   1.40109E+06,   1.52004E+06,   1.52004E+06
C:/temp/Job-16.odb,Step-1,Increment      1: Step Time =    1.000,"P-16-1",          1085,       44.9491,       63.9093,            0.,NA,NA,"",   1.04812E+06,   943.121E+03,   943.121E+03
C:/temp/Job-16.odb,Step-1,Increment      1: Step Time =    1.000,"P-16-1",          1086,       155.728,       133.080,            0.,NA,NA,"",   1.46118E+06,   1.24946E+06,   1.24946E+06
C:/temp/Job-16.odb,Step-1,Increment      1: Step Time =    1.000,"P-16-1",          1087,       136.770,       156.677,            0.,NA,NA,"",   1.60897E+06,   1.54568E+06,   1.54568E+06
C:/temp/Job-16.odb,Step-1,Increment      1: Step Time =    1.000,"P-16-1",          1088,       156.254,       66.4800,            0.,NA,NA,"",   1.45093E+06,   1.25076E+06,   1.25076E+06
C:/temp/Job-16.odb,Step-1,Increment      1: Step Time =    1.000,"P-16-1",          1089,       43.5856,       131.308,            0.,NA,NA,"",   904.607E+03,   806.519E+03,   806.519E+03
C:/temp/Job-16.odb,Step-1,Increment      1: Step Time =    1.000,"P-16-1",          1090,       132.770,       44.9296,            0.,NA,NA,"",   1.64655E+06,   1.60905E+06,   1.60905E+06
C:/temp/Job-16.odb,Step-1,Increment      1: Step Time =    1.000,"P-16-1",          1091,       9.53887,       55.3392,            0.,NA,NA,"",   815.929E+03,   893.176E+03,   893.176E+03
C:/temp/Job-16.odb,Step-1,Increment      1: Step Time =    1.000,"P-16-1",          1092,       55.3772,       190.741,            0.,NA,NA,"",   1.39778E+06,   1.38439E+06,   1.38439E+06
C:/temp/Job-16.odb,Step-1,Increment      1: Step Time =    1.000,"P-16-1",          1093,       144.562,       8.89694,            0.,NA,NA,"",   1.00045E+06,   993.621E+03,   993.621E+03
C:/temp/Job-16.odb,Step-1,Increment      1: Step Time =    1.000,"P-16-1",          1094,       190.731,       144.872,            0.,NA,NA,"",   955.177E+03,   1.04711E+06,   1.04711E+06
C:/temp/Job-16.odb,Step-1,Increment      1: Step Time =    1.000,"P-16-1",          1095,       94.2594,       26.4321,            0.,NA,NA,"",   1.28709E+06,   1.34870E+06,   1.34870E+06
C:/temp/Job-16.odb,Step-1,Increment      1: Step Time =    1.000,"P-16-1",          1096,       27.6665,       106.819,            0.,NA,NA,"",   237.873E+03,   271.934E+03,   271.934E+03
C:/temp/Job-16.odb,Step-1,Increment      1: Step Time =    1.000,"P-16-1",          1097,       175.072,       94.6424,            0.,NA,NA,"",   672.771E+03,   767.865E+03,   767.865E+03
C:/temp/Job-16.odb,Step-1,Increment      1: Step Time =    1.000,"P-16-1",          1098,       106.639,       176.146,            0.,NA,NA,"",   1.16621E+06,   1.23249E+06,   1.23249E+06
C:/temp/Job-16.odb,Step-1,Increment      1: Step Time =    1.000,"P-16-1",          1099,       68.8576,       144.369,            0.,NA,NA,"",   1.64465E+06,   1.55178E+06,   1.55178E+06
C:/temp/Job-16.odb,Step-1,Increment      1: Step Time =    1.000,"P-16-1",          1100,       26.6534,       118.390,            0.,NA,NA,"",   426.842E+03,   460.505E+03,   460.505E+03
C:/temp/Job-16.odb,Step-1,Increment      1: Step Time =    1.000,"P-16-1",          1101,       29.0845,       83.8266,            0.,NA,NA,"",   389.941E+03,   415.731E+03,   415.731E+03
C:/temp/Job-16.odb,Step-1,Increment      1: Step Time =    1.000,"P-16-1",          1102,       114.987,       26.2071,            0.,NA,NA,"",   1.21549E+06,   1.27806E+06,   1.27806E+06
C:/temp/Job-16.odb,Step-1,Increment      1: Step Time =    1.000,"P-16-1",          1103,       85.9891,       25.8465,            0.,NA,NA,"",   1.36125E+06,   1.38837E+06,   1.38837E+06
C:/temp/Job-16.odb,Step-1,Increment      1: Step Time =    1.000,"P-16-1",          1104,       175.251,       115.922,            0.,NA,NA,"",   864.414E+03,   930.924E+03,   930.924E+03
C:/temp/Job-16.odb,Step-1,Increment      1: Step Time =    1.000,"P-16-1",          1105,       83.2725,       173.261,            0.,NA,NA,"",   1.40894E+06,   1.42367E+06,   1.42367E+06
C:/temp/Job-16.odb,Step-1,Increment      1: Step Time =    1.000,"P-16-1",          1106,       174.728,       84.9505,            0.,NA,NA,"",   841.720E+03,   907.694E+03,   907.694E+03
C:/temp/Job-16.odb,Step-1,Increment      1: Step Time =    1.000,"P-16-1",          1107,       116.496,       170.278,            0.,NA,NA,"",   1.29344E+06,   1.36210E+06,   1.36210E+06
C:/temp/Job-16.odb,Step-1,Increment      1: Step Time =    1.000,"P-16-1",          1108,       145.242,       142.325,            0.,NA,NA,"",   1.69269E+06,   1.50398E+06,   1.50398E+06
C:/temp/Job-16.odb,Step-1,Increment      1: Step Time =    1.000,"P-16-1",          1109,       139.375,       51.4961,            0.,NA,NA,"",   1.71539E+06,   1.59479E+06,   1.59479E+06
C:/temp/Job-16.odb,Step-1,Increment      1: Step Time =    1.000,"P-16-1",          1110,       57.3508,       147.890,            0.,NA,NA,"",   1.51885E+06,   1.38836E+06,   1.38836E+06
C:/temp/Job-16.odb,Step-1,Increment      1: Step Time =    1.000,"P-16-1",          1111,       54.1214,       61.4096,            0.,NA,NA,"",   1.27164E+06,   1.11950E+06,   1.11950E+06
C:/temp/Job-16.odb,Step-1,Increment      1: Step Time =    1.000,"P-16-1",          1112,       25.7781,       136.281,            0.,NA,NA,"",   796.758E+03,   815.543E+03,   815.543E+03
C:/temp/Job-16.odb,Step-1,Increment      1: Step Time =    1.000,"P-16-1",          1113,       135.026,       25.2451,            0.,NA,NA,"",   1.27126E+06,   1.25604E+06,   1.25604E+06
C:/temp/Job-16.odb,Step-1,Increment      1: Step Time =    1.000,"P-16-1",          1114,       27.7278,       62.3470,            0.,NA,NA,"",   842.239E+03,   850.143E+03,   850.143E+03
C:/temp/Job-16.odb,Step-1,Increment      1: Step Time =    1.000,"P-16-1",          1115,       64.6509,       26.9178,            0.,NA,NA,"",   1.52019E+06,   1.46513E+06,   1.46513E+06
C:/temp/Job-16.odb,Step-1,Increment      1: Step Time =    1.000,"P-16-1",          1116,       60.8405,       171.724,            0.,NA,NA,"",   1.54022E+06,   1.47583E+06,   1.47583E+06
C:/temp/Job-16.odb,Step-1,Increment      1: Step Time =    1.000,"P-16-1",          1117,       172.875,       64.7669,            0.,NA,NA,"",   1.19284E+06,   1.16661E+06,   1.16661E+06
C:/temp/Job-16.odb,Step-1,Increment      1: Step Time =    1.000,"P-16-1",          1118,       173.107,       135.911,            0.,NA,NA,"",   1.19858E+06,   1.17364E+06,   1.17364E+06
C:/temp/Job-16.odb,Step-1,Increment      1: Step Time =    1.000,"P-16-1",          1119,       135.657,       173.788,            0.,NA,NA,"",   1.28798E+06,   1.27059E+06,   1.27059E+06
C:/temp/Job-16.odb,Step-1,Increment      1: Step Time =    1.000,"P-16-1",          1120,       25.6799,       29.1403,            0.,NA,NA,"",   1.37903E+06,   1.39029E+06,   1.39029E+06
C:/temp/Job-16.odb,Step-1,Increment      1: Step Time =    1.000,"P-16-1",          1121,       29.6257,       25.0849,            0.,NA,NA,"",   1.45695E+06,   1.45014E+06,   1.45014E+06
C:/temp/Job-16.odb,Step-1,Increment      1: Step Time =    1.000,"P-16-1",          1122,       23.1579,       166.594,            0.,NA,NA,"",   1.30434E+06,   1.32808E+06,   1.32808E+06
C:/temp/Job-16.odb,Step-1,Increment      1: Step Time =    1.000,"P-16-1",          1123,       168.983,       28.3382,            0.,NA,NA,"",   1.15365E+06,   1.13291E+06,   1.13291E+06
C:/temp/Job-16.odb,Step-1,Increment      1: Step Time =    1.000,"P-16-1",          1124,       174.182,       31.7069,            0.,NA,NA,"",   1.13398E+06,   1.12153E+06,   1.12153E+06
C:/temp/Job-16.odb,Step-1,Increment      1: Step Time =    1.000,"P-16-1",          1125,       31.4572,       173.625,            0.,NA,NA,"",   1.44753E+06,   1.43628E+06,   1.43628E+06
C:/temp/Job-16.odb,Step-1,Increment      1: Step Time =    1.000,"P-16-1",          1126,       171.248,       168.581,            0.,NA,NA,"",   1.15204E+06,   1.13427E+06,   1.13427E+06
C:/temp/Job-16.odb,Step-1,Increment      1: Step Time =    1.000,"P-16-1",          1127,       167.927,       173.948,            0.,NA,NA,"",   1.14806E+06,   1.12748E+06,   1.12748E+06
C:/temp/Job-16.odb,Step-1,Increment      1: Step Time =    1.000,"P-16-1",          1128,       166.097,       111.750,            0.,NA,NA,"",   744.327E+03,   734.927E+03,   734.927E+03
C:/temp/Job-16.odb,Step-1,Increment      1: Step Time =    1.000,"P-16-1",          1129,       34.9788,       90.2764,            0.,NA,NA,"",   260.067E+03,   266.436E+03,   266.436E+03
C:/temp/Job-16.odb,Step-1,Increment      1: Step Time =    1.000,"P-16-1",          1130,       109.448,       30.7487,            0.,NA,NA,"",   1.29321E+06,   1.38721E+06,   1.38721E+06
C:/temp/Job-16.odb,Step-1,Increment      1: Step Time =    1.000,"P-16-1",          1131,       14.9705,       176.892,            0.,NA,NA,"",   1.39553E+06,   1.45948E+06,   1.45948E+06
C:/temp/Job-16.odb,Step-1,Increment      1: Step Time =    1.000,"P-16-1",          1132,       175.612,       16.7745,            0.,NA,NA,"",   1.04878E+06,   1.04635E+06,   1.04635E+06
C:/temp/Job-16.odb,Step-1,Increment      1: Step Time =    1.000,"P-16-1",          1133,       15.4430,       23.9417,            0.,NA,NA,"",   1.38626E+06,   1.44740E+06,   1.44740E+06
C:/temp/Job-16.odb,Step-1,Increment      1: Step Time =    1.000,"P-16-1",          1134,       183.082,       175.465,            0.,NA,NA,"",   1.03814E+06,   1.04460E+06,   1.04460E+06
C:/temp/Job-16.odb,Step-1,Increment      1: Step Time =    1.000,"P-16-1",          1135,       174.966,       188.057,            0.,NA,NA,"",   1.02869E+06,   1.02741E+06,   1.02741E+06
C:/temp/Job-16.odb,Step-1,Increment      1: Step Time =    1.000,"P-16-1",          1136,       188.091,       25.0263,            0.,NA,NA,"",   1.01217E+06,   1.02395E+06,   1.02395E+06
C:/temp/Job-16.odb,Step-1,Increment      1: Step Time =    1.000,"P-16-1",          1137,       20.1378,       183.390,            0.,NA,NA,"",   1.54340E+06,   1.56656E+06,   1.56656E+06
C:/temp/Job-16.odb,Step-1,Increment      1: Step Time =    1.000,"P-16-1",          1138,       66.1154,       153.521,            0.,NA,NA,"",   1.66372E+06,   1.57101E+06,   1.57101E+06
C:/temp/Job-16.odb,Step-1,Increment      1: Step Time =    1.000,"P-16-1",          1139,       68.9202,       43.9335,            0.,NA,NA,"",   1.68470E+06,   1.60875E+06,   1.60875E+06
C:/temp/Job-16.odb,Step-1,Increment      1: Step Time =    1.000,"P-16-1",          1140,       45.2442,       59.7949,            0.,NA,NA,"",   1.15814E+06,   1.05351E+06,   1.05351E+06
C:/temp/Job-16.odb,Step-1,Increment      1: Step Time =    1.000,"P-16-1",          1141,       136.393,       151.699,            0.,NA,NA,"",   1.69236E+06,   1.61183E+06,   1.61183E+06
C:/temp/Job-16.odb,Step-1,Increment      1: Step Time =    1.000,"P-16-1",          1142,       154.509,       63.0412,            0.,NA,NA,"",   1.52061E+06,   1.31644E+06,   1.31644E+06
C:/temp/Job-16.odb,Step-1,Increment      1: Step Time =    1.000,"P-16-1",          1143,       136.463,       46.0440,            0.,NA,NA,"",    1.6566E+06,   1.58551E+06,   1.58551E+06
C:/temp/Job-16.odb,Step-1,Increment      1: Step Time =    1.000,"P-16-1",          1144,       45.6748,       135.201,            0.,NA,NA,"",   1.04683E+06,   933.100E+03,   933.100E+03
C:/temp/Job-16.odb,Step-1,Increment      1: Step Time =    1.000,"P-16-1",          1145,       152.149,       136.848,            0.,NA,NA,"",   1.57341E+06,   1.34790E+06,   1.34790E+06
C:/temp/Job-16.odb,Step-1,Increment      1: Step Time =    1.000,"P-16-1",          1146,       83.4000,       164.474,            0.,NA,NA,"",   1.55950E+06,   1.59198E+06,   1.59198E+06
C:/temp/Job-16.odb,Step-1,Increment      1: Step Time =    1.000,"P-16-1",          1147,       35.6879,       100.045,            0.,NA,NA,"",   135.252E+03,   155.601E+03,   155.601E+03
C:/temp/Job-16.odb,Step-1,Increment      1: Step Time =    1.000,"P-16-1",          1148,       100.424,       31.0048,            0.,NA,NA,"",   1.32868E+06,   1.42388E+06,   1.42388E+06
C:/temp/Job-16.odb,Step-1,Increment      1: Step Time =    1.000,"P-16-1",          1149,       167.227,       98.5273,            0.,NA,NA,"",   514.608E+03,   572.800E+03,   572.800E+03
C:/temp/Job-16.odb,Step-1,Increment      1: Step Time =    1.000,"P-16-1",          1150,       100.459,       166.081,            0.,NA,NA,"",   1.39363E+06,   1.50226E+06,   1.50226E+06
C:/temp/Job-16.odb,Step-1,Increment      1: Step Time =    1.000,"P-16-1",          1151,       162.926,       78.0684,            0.,NA,NA,"",   1.10653E+06,   984.963E+03,   984.963E+03
C:/temp/Job-16.odb,Step-1,Increment      1: Step Time =    1.000,"P-16-1",          1152,       121.858,       160.399,            0.,NA,NA,"",   1.53622E+06,   1.60118E+06,   1.60118E+06
C:/temp/Job-16.odb,Step-1,Increment      1: Step Time =    1.000,"P-16-1",          1153,       37.5420,       121.631,            0.,NA,NA,"",   561.594E+03,   523.594E+03,   523.594E+03
C:/temp/Job-16.odb,Step-1,Increment      1: Step Time =    1.000,"P-16-1",          1154,       76.4827,       24.6585,            0.,NA,NA,"",   1.43573E+06,   1.41725E+06,   1.41725E+06
C:/temp/Job-16.odb,Step-1,Increment      1: Step Time =    1.000,"P-16-1",          1155,       125.568,       176.649,            0.,NA,NA,"",   1.20659E+06,   1.22404E+06,   1.22404E+06
C:/temp/Job-16.odb,Step-1,Increment      1: Step Time =    1.000,"P-16-1",          1156,       27.7969,       128.979,            0.,NA,NA,"",   656.172E+03,   672.003E+03,   672.003E+03
C:/temp/Job-16.odb,Step-1,Increment      1: Step Time =    1.000,"P-16-1",          1157,       175.758,       75.2529,            0.,NA,NA,"",   1.02907E+06,   1.06204E+06,   1.06204E+06
C:/temp/Job-16.odb,Step-1,Increment      1: Step Time =    1.000,"P-16-1",          1158,       43.7364,       186.279,            0.,NA,NA,"",   1.48809E+06,   1.46974E+06,   1.46974E+06
C:/temp/Job-16.odb,Step-1,Increment      1: Step Time =    1.000,"P-16-1",          1159,       185.466,       152.911,            0.,NA,NA,"",   1.03855E+06,   1.08190E+06,   1.08190E+06
C:/temp/Job-16.odb,Step-1,Increment      1: Step Time =    1.000,"P-16-1",          1160,       15.4526,       47.3420,            0.,NA,NA,"",   997.249E+03,   1.05934E+06,   1.05934E+06
C:/temp/Job-16.odb,Step-1,Increment      1: Step Time =    1.000,"P-16-1",          1161,       154.219,       14.3171,            0.,NA,NA,"",   1.08187E+06,   1.06771E+06,   1.06771E+06
C:/temp/Job-16.odb,Step-1,Increment      1: Step Time =    1.000,"P-16-1",          1162,       104.885,       25.7188,            0.,NA,NA,"",   1.20364E+06,   1.27940E+06,   1.27940E+06
C:/temp/Job-16.odb,Step-1,Increment      1: Step Time =    1.000,"P-16-1",          1163,       29.5269,       94.6138,            0.,NA,NA,"",   208.726E+03,   238.665E+03,   238.665E+03
C:/temp/Job-16.odb,Step-1,Increment      1: Step Time =    1.000,"P-16-1",          1164,       174.682,       105.756,            0.,NA,NA,"",   663.742E+03,   755.432E+03,   755.432E+03
C:/temp/Job-16.odb,Step-1,Increment      1: Step Time =    1.000,"P-16-1",          1165,       96.8219,       173.351,            0.,NA,NA,"",   1.27187E+06,   1.34132E+06,   1.34132E+06
C:/temp/Job-16.odb,Step-1,Increment      1: Step Time =    1.000,"P-16-1",          1166,       83.8301,       36.8151,            0.,NA,NA,"",   1.59156E+06,   1.62698E+06,   1.62698E+06
C:/temp/Job-16.odb,Step-1,Increment      1: Step Time =    1.000,"P-16-1",          1167,       36.0476,       117.938,            0.,NA,NA,"",   452.393E+03,   434.643E+03,   434.643E+03
C:/temp/Job-16.odb,Step-1,Increment      1: Step Time =    1.000,"P-16-1",          1168,       162.458,       85.8362,            0.,NA,NA,"",   835.666E+03,   753.081E+03,   753.081E+03
C:/temp/Job-16.odb,Step-1,Increment      1: Step Time =    1.000,"P-16-1",          1169,       114.064,       160.676,            0.,NA,NA,"",   1.50981E+06,   1.62170E+06,   1.62170E+06
C:/temp/Job-16.odb,Step-1,Increment      1: Step Time =    1.000,"P-16-1",          1170,       85.7411,       157.851,            0.,NA,NA,"",   1.68378E+06,   1.74688E+06,   1.74688E+06
C:/temp/Job-16.odb,Step-1,Increment      1: Step Time =    1.000,"P-16-1",          1171,       155.338,       113.987,            0.,NA,NA,"",   859.810E+03,   642.563E+03,   642.563E+03
C:/temp/Job-16.odb,Step-1,Increment      1: Step Time =    1.000,"P-16-1",          1172,       115.473,       45.8375,            0.,NA,NA,"",   1.70329E+06,   1.82354E+06,   1.82354E+06
C:/temp/Job-16.odb,Step-1,Increment      1: Step Time =    1.000,"P-16-1",          1173,       44.1459,       85.0209,            0.,NA,NA,"",   413.289E+03,   320.477E+03,   320.477E+03
C:/temp/Job-16.odb,Step-1,Increment      1: Step Time =    1.000,"P-16-1",          1174,       181.156,       42.3908,            0.,NA,NA,"",   1.09089E+06,   1.10626E+06,   1.10626E+06
C:/temp/Job-16.odb,Step-1,Increment      1: Step Time =    1.000,"P-16-1",          1175,       157.569,       181.186,            0.,NA,NA,"",   1.13172E+06,   1.11054E+06,   1.11054E+06
C:/temp/Job-16.odb,Step-1,Increment      1: Step Time =    1.000,"P-16-1",          1176,       43.1502,       14.4373,            0.,NA,NA,"",   1.49197E+06,   1.47196E+06,   1.47196E+06
C:/temp/Job-16.odb,Step-1,Increment      1: Step Time =    1.000,"P-16-1",          1177,       18.0316,       156.628,            0.,NA,NA,"",   1.09038E+06,   1.14091E+06,   1.14091E+06
C:/temp/Job-16.odb,Step-1,Increment      1: Step Time =    1.000,"P-16-1",          1178,       171.568,       180.618,            0.,NA,NA,"",   1.07895E+06,   1.07081E+06,   1.07081E+06
C:/temp/Job-16.odb,Step-1,Increment      1: Step Time =    1.000,"P-16-1",          1179,       176.225,       173.475,            0.,NA,NA,"",   1.08913E+06,   1.08512E+06,   1.08512E+06
C:/temp/Job-16.odb,Step-1,Increment      1: Step Time =    1.000,"P-16-1",          1180,       180.749,       28.3394,            0.,NA,NA,"",   1.06075E+06,   1.06604E+06,   1.06604E+06
C:/temp/Job-16.odb,Step-1,Increment      1: Step Time =    1.000,"P-16-1",          1181,       26.9461,       173.967,            0.,NA,NA,"",   1.42790E+06,   1.43321E+06,   1.43321E+06
C:/temp/Job-16.odb,Step-1,Increment      1: Step Time =    1.000,"P-16-1",          1182,       23.2736,       172.964,            0.,NA,NA,"",   1.39311E+06,   1.41495E+06,   1.41495E+06
C:/temp/Job-16.odb,Step-1,Increment      1: Step Time =    1.000,"P-16-1",          1183,       173.724,       23.5670,            0.,NA,NA,"",   1.09323E+06,   1.08512E+06,   1.08512E+06
C:/temp/Job-16.odb,Step-1,Increment      1: Step Time =    1.000,"P-16-1",          1184,       25.7164,       21.2853,            0.,NA,NA,"",   1.48617E+06,   1.49398E+06,   1.49398E+06
C:/temp/Job-16.odb,Step-1,Increment      1: Step Time =    1.000,"P-16-1",          1185,       22.1166,       24.9987,            0.,NA,NA,"",   1.41245E+06,   1.44042E+06,   1.44042E+06
C:/temp/Job-16.odb,Step-1,Increment      1: Step Time =    1.000,"P-16-1",          1186,       140.383,       47.1596,            0.,NA,NA,"",   1.65380E+06,   1.55135E+06,   1.55135E+06
C:/temp/Job-16.odb,Step-1,Increment      1: Step Time =    1.000,"P-16-1",          1187,       50.4585,       56.4158,            0.,NA,NA,"",   1.32347E+06,   1.19497E+06,   1.19497E+06
C:/temp/Job-16.odb,Step-1,Increment      1: Step Time =    1.000,"P-16-1",          1188,       56.4455,       152.947,            0.,NA,NA,"",   1.55152E+06,   1.43501E+06,   1.43501E+06
C:/temp/Job-16.odb,Step-1,Increment      1: Step Time =    1.000,"P-16-1",          1189,       28.6536,       89.9056,            0.,NA,NA,"",   278.512E+03,   312.176E+03,   312.176E+03
C:/temp/Job-16.odb,Step-1,Increment      1: Step Time =    1.000,"P-16-1",          1190,       170.379,       111.442,            0.,NA,NA,"",   748.201E+03,   790.039E+03,   790.039E+03
C:/temp/Job-16.odb,Step-1,Increment      1: Step Time =    1.000,"P-16-1",          1191,       91.2801,       167.851,            0.,NA,NA,"",   1.42851E+06,   1.49841E+06,   1.49841E+06
C:/temp/Job-16.odb,Step-1,Increment      1: Step Time =    1.000,"P-16-1",          1192,       130.761,       24.7262,            0.,NA,NA,"",   1.24833E+06,   1.24580E+06,   1.24580E+06
C:/temp/Job-16.odb,Step-1,Increment      1: Step Time =    1.000,"P-16-1",          1193,       68.2214,       172.408,            0.,NA,NA,"",   1.52395E+06,   1.47516E+06,   1.47516E+06
C:/temp/Job-16.odb,Step-1,Increment      1: Step Time =    1.000,"P-16-1",          1194,       23.9142,       67.9863,            0.,NA,NA,"",   686.004E+03,   715.539E+03,   715.539E+03
C:/temp/Job-16.odb,Step-1,Increment      1: Step Time =    1.000,"P-16-1",          1195,       176.196,       130.401,            0.,NA,NA,"",   1.09709E+06,   1.11656E+06,   1.11656E+06
C:/temp/Job-16.odb,Step-1,Increment      1: Step Time =    1.000,"P-16-1",          1196,       20.6422,       13.4688,            0.,NA,NA,"",   1.58558E+06,   1.60077E+06,   1.60077E+06
C:/temp/Job-16.odb,Step-1,Increment      1: Step Time =    1.000,"P-16-1",          1197,       14.4604,       181.515,            0.,NA,NA,"",   1.47802E+06,   1.53922E+06,   1.53922E+06
C:/temp/Job-16.odb,Step-1,Increment      1: Step Time =    1.000,"P-16-1",          1198,       187.235,       20.8234,            0.,NA,NA,"",   1.01322E+06,   1.02082E+06,   1.02082E+06
C:/temp/Job-16.odb,Step-1,Increment      1: Step Time =    1.000,"P-16-1",          1199,       179.164,       187.197,            0.,NA,NA,"",   1.02284E+06,   1.02339E+06,   1.02339E+06
C:/temp/Job-16.odb,Step-1,Increment      1: Step Time =    1.000,"P-16-1",          1200,       89.8288,       29.9468,            0.,NA,NA,"",   1.40096E+06,   1.45924E+06,   1.45924E+06
C:/temp/Job-16.odb,Step-1,Increment      1: Step Time =    1.000,"P-16-1",          1201,       31.0935,       114.917,            0.,NA,NA,"",   364.523E+03,   385.299E+03,   385.299E+03
C:/temp/Job-16.odb,Step-1,Increment      1: Step Time =    1.000,"P-16-1",          1202,       170.498,       89.9931,            0.,NA,NA,"",   713.452E+03,   768.071E+03,   768.071E+03
C:/temp/Job-16.odb,Step-1,Increment      1: Step Time =    1.000,"P-16-1",          1203,       110.535,       170.309,            0.,NA,NA,"",   1.27652E+06,   1.36382E+06,   1.36382E+06
C:/temp/Job-16.odb,Step-1,Increment      1: Step Time =    1.000,"P-16-1",          1204,       31.6811,       79.4038,            0.,NA,NA,"",   499.442E+03,   504.325E+03,   504.325E+03
C:/temp/Job-16.odb,Step-1,Increment      1: Step Time =    1.000,"P-16-1",          1205,       120.841,       27.0891,            0.,NA,NA,"",   1.25880E+06,   1.30051E+06,   1.30051E+06
C:/temp/Job-16.odb,Step-1,Increment      1: Step Time =    1.000,"P-16-1",          1206,       26.2908,       122.495,            0.,NA,NA,"",   505.625E+03,   536.676E+03,   536.676E+03
C:/temp/Job-16.odb,Step-1,Increment      1: Step Time =    1.000,"P-16-1",          1207,       80.4262,       28.3672,            0.,NA,NA,"",   1.46415E+06,   1.46605E+06,   1.46605E+06
C:/temp/Job-16.odb,Step-1,Increment      1: Step Time =    1.000,"P-16-1",          1208,       170.432,       121.067,            0.,NA,NA,"",   1.00819E+06,   994.596E+03,   994.596E+03
C:/temp/Job-16.odb,Step-1,Increment      1: Step Time =    1.000,"P-16-1",          1209,       79.2889,       170.810,            0.,NA,NA,"",   1.48001E+06,   1.48009E+06,   1.48009E+06
C:/temp/Job-16.odb,Step-1,Increment      1: Step Time =    1.000,"P-16-1",          1210,       169.533,       79.3755,            0.,NA,NA,"",   1.00345E+06,   977.763E+03,   977.763E+03
C:/temp/Job-16.odb,Step-1,Increment      1: Step Time =    1.000,"P-16-1",          1211,       122.477,       170.330,            0.,NA,NA,"",   1.31593E+06,   1.35625E+06,   1.35625E+06
C:/temp/Job-16.odb,Step-1,Increment      1: Step Time =    1.000,"P-16-1",          1212,       138.597,       27.6006,            0.,NA,NA,"",   1.31264E+06,   1.28365E+06,   1.28365E+06
C:/temp/Job-16.odb,Step-1,Increment      1: Step Time =    1.000,"P-16-1",          1213,       28.5571,       138.341,            0.,NA,NA,"",   868.254E+03,   870.976E+03,   870.976E+03
C:/temp/Job-16.odb,Step-1,Increment      1: Step Time =    1.000,"P-16-1",          1214,       60.5285,       33.7380,            0.,NA,NA,"",   1.57987E+06,   1.50088E+06,   1.50088E+06
C:/temp/Job-16.odb,Step-1,Increment      1: Step Time =    1.000,"P-16-1",          1215,       26.2753,       57.8044,            0.,NA,NA,"",   917.354E+03,   930.414E+03,   930.414E+03
C:/temp/Job-16.odb,Step-1,Increment      1: Step Time =    1.000,"P-16-1",          1216,       168.055,       59.4141,            0.,NA,NA,"",   1.30864E+06,   1.23258E+06,   1.23258E+06
C:/temp/Job-16.odb,Step-1,Increment      1: Step Time =    1.000,"P-16-1",          1217,       57.5240,       173.280,            0.,NA,NA,"",   1.52324E+06,   1.46248E+06,   1.46248E+06
C:/temp/Job-16.odb,Step-1,Increment      1: Step Time =    1.000,"P-16-1",          1218,       171.237,       141.905,            0.,NA,NA,"",   1.25440E+06,   1.20953E+06,   1.20953E+06
C:/temp/Job-16.odb,Step-1,Increment      1: Step Time =    1.000,"P-16-1",          1219,       140.805,       169.032,            0.,NA,NA,"",   1.37772E+06,   1.33386E+06,   1.33386E+06
C:/temp/Job-16.odb,Step-1,Increment      1: Step Time =    1.000,"P-16-1",          1220,       16.5915,       18.4810,            0.,NA,NA,"",   1.49392E+06,   1.54044E+06,   1.54044E+06
C:/temp/Job-16.odb,Step-1,Increment      1: Step Time =    1.000,"P-16-1",          1221,       181.686,       17.6610,            0.,NA,NA,"",   1.02773E+06,   1.03067E+06,   1.03067E+06
C:/temp/Job-16.odb,Step-1,Increment      1: Step Time =    1.000,"P-16-1",          1222,       14.8722,       184.950,            0.,NA,NA,"",   1.55857E+06,   1.60573E+06,   1.60573E+06
C:/temp/Job-16.odb,Step-1,Increment      1: Step Time =    1.000,"P-16-1",          1223,       182.285,       181.597,            0.,NA,NA,"",   1.02809E+06,   1.03115E+06,   1.03115E+06
C:/temp/Job-16.odb,Step-1,Increment      1: Step Time =    1.000,"P-16-1",          1224,       32.6697,       24.7209,            0.,NA,NA,"",   1.47005E+06,   1.45426E+06,   1.45426E+06
C:/temp/Job-16.odb,Step-1,Increment      1: Step Time =    1.000,"P-16-1",          1225,       28.5399,       35.8260,            0.,NA,NA,"",   1.32138E+06,   1.31656E+06,   1.31656E+06
C:/temp/Job-16.odb,Step-1,Increment      1: Step Time =    1.000,"P-16-1",          1226,       165.401,       28.6488,            0.,NA,NA,"",   1.18641E+06,   1.15726E+06,   1.15726E+06
C:/temp/Job-16.odb,Step-1,Increment      1: Step Time =    1.000,"P-16-1",          1227,       26.8894,       164.493,            0.,NA,NA,"",   1.31045E+06,   1.31625E+06,   1.31625E+06
C:/temp/Job-16.odb,Step-1,Increment      1: Step Time =    1.000,"P-16-1",          1228,       36.9284,       168.395,            0.,NA,NA,"",   1.43389E+06,   1.39855E+06,   1.39855E+06
C:/temp/Job-16.odb,Step-1,Increment      1: Step Time =    1.000,"P-16-1",          1229,       173.691,       37.5316,            0.,NA,NA,"",   1.16802E+06,   1.15063E+06,   1.15063E+06
C:/temp/Job-16.odb,Step-1,Increment      1: Step Time =    1.000,"P-16-1",          1230,       170.903,       164.959,            0.,NA,NA,"",   1.17939E+06,   1.15653E+06,   1.15653E+06
C:/temp/Job-16.odb,Step-1,Increment      1: Step Time =    1.000,"P-16-1",          1231,       162.099,       173.636,            0.,NA,NA,"",   1.19270E+06,   1.16106E+06,   1.16106E+06
C:/temp/Job-16.odb,Step-1,Increment      1: Step Time =    1.000,"P-16-1",          1232,       161.218,       114.045,            0.,NA,NA,"",   839.920E+03,   734.689E+03,   734.689E+03
C:/temp/Job-16.odb,Step-1,Increment      1: Step Time =    1.000,"P-16-1",          1233,       39.7507,       84.9825,            0.,NA,NA,"",   396.935E+03,   352.233E+03,   352.233E+03
C:/temp/Job-16.odb,Step-1,Increment      1: Step Time =    1.000,"P-16-1",          1234,       113.156,       35.5866,            0.,NA,NA,"",   1.40898E+06,   1.51292E+06,   1.51292E+06
C:/temp/Job-16.odb,Step-1,Increment      1: Step Time =    1.000,"P-16-1",          1235,       69.5590,       158.103,            0.,NA,NA,"",   1.66977E+06,   1.60085E+06,   1.60085E+06
C:/temp/Job-16.odb,Step-1,Increment      1: Step Time =    1.000,"P-16-1",          1236,       153.709,       8.90215,            0.,NA,NA,"",   1.02148E+06,   1.01478E+06,   1.01478E+06
C:/temp/Job-16.odb,Step-1,Increment      1: Step Time =    1.000,"P-16-1",          1237,       191.208,       153.335,            0.,NA,NA,"",   969.977E+03,   1.03510E+06,   1.03510E+06
C:/temp/Job-16.odb,Step-1,Increment      1: Step Time =    1.000,"P-16-1",          1238,       46.0344,       190.697,            0.,NA,NA,"",   1.47391E+06,   1.46295E+06,   1.46295E+06
C:/temp/Job-16.odb,Step-1,Increment      1: Step Time =    1.000,"P-16-1",          1239,       142.575,       151.459,            0.,NA,NA,"",   1.65092E+06,   1.53242E+06,   1.53242E+06
C:/temp/Job-16.odb,Step-1,Increment      1: Step Time =    1.000,"P-16-1",          1240,       152.943,       57.4362,            0.,NA,NA,"",   1.57386E+06,   1.38921E+06,   1.38921E+06
C:/temp/Job-16.odb,Step-1,Increment      1: Step Time =    1.000,"P-16-1",          1241,       47.7127,       140.121,            0.,NA,NA,"",   1.19922E+06,   1.08065E+06,   1.08065E+06
C:/temp/Job-16.odb,Step-1,Increment      1: Step Time =    1.000,"P-16-1",          1242,       78.4887,       165.756,            0.,NA,NA,"",   1.57623E+06,   1.57206E+06,   1.57206E+06
C:/temp/Job-16.odb,Step-1,Increment      1: Step Time =    1.000,"P-16-1",          1243,       68.0693,       28.6622,            0.,NA,NA,"",   1.53456E+06,   1.48332E+06,   1.48332E+06
C:/temp/Job-16.odb,Step-1,Increment      1: Step Time =    1.000,"P-16-1",          1244,       131.025,       173.073,            0.,NA,NA,"",   1.29066E+06,   1.28990E+06,   1.28990E+06
C:/temp/Job-16.odb,Step-1,Increment      1: Step Time =    1.000,"P-16-1",          1245,       31.6436,       129.801,            0.,NA,NA,"",   702.247E+03,   697.224E+03,   697.224E+03
C:/temp/Job-16.odb,Step-1,Increment      1: Step Time =    1.000,"P-16-1",          1246,       171.897,       69.6079,            0.,NA,NA,"",   1.15707E+06,   1.13003E+06,   1.13003E+06
C:/temp/Job-16.odb,Step-1,Increment      1: Step Time =    1.000,"P-16-1",          1247,       109.827,       25.7983,            0.,NA,NA,"",   1.19812E+06,   1.27087E+06,   1.27087E+06
C:/temp/Job-16.odb,Step-1,Increment      1: Step Time =    1.000,"P-16-1",          1248,       22.2882,       89.9546,            0.,NA,NA,"",   298.500E+03,   342.825E+03,   342.825E+03
C:/temp/Job-16.odb,Step-1,Increment      1: Step Time =    1.000,"P-16-1",          1249,       99.8629,       25.8804,            0.,NA,NA,"",   1.23164E+06,   1.30398E+06,   1.30398E+06
C:/temp/Job-16.odb,Step-1,Increment      1: Step Time =    1.000,"P-16-1",          1250,       33.5567,       101.732,            0.,NA,NA,"",   160.872E+03,   184.251E+03,   184.251E+03
C:/temp/Job-16.odb,Step-1,Increment      1: Step Time =    1.000,"P-16-1",          1251,       101.541,       170.221,            0.,NA,NA,"",   1.29708E+06,   1.39034E+06,   1.39034E+06
C:/temp/Job-16.odb,Step-1,Increment      1: Step Time =    1.000,"P-16-1",          1252,       170.609,       97.5571,            0.,NA,NA,"",   568.598E+03,   645.780E+03,   645.780E+03
C:/temp/Job-16.odb,Step-1,Increment      1: Step Time =    1.000,"P-16-1",          1253,       175.090,       110.936,            0.,NA,NA,"",   759.179E+03,   843.370E+03,   843.370E+03
C:/temp/Job-16.odb,Step-1,Increment      1: Step Time =    1.000,"P-16-1",          1254,       90.2623,       173.534,            0.,NA,NA,"",   1.33533E+06,   1.38093E+06,   1.38093E+06
C:/temp/Job-16.odb,Step-1,Increment      1: Step Time =    1.000,"P-16-1",          1255,       78.0733,       36.4505,            0.,NA,NA,"",   1.61636E+06,   1.60778E+06,   1.60778E+06
C:/temp/Job-16.odb,Step-1,Increment      1: Step Time =    1.000,"P-16-1",          1256,       86.6416,       33.4355,            0.,NA,NA,"",   1.50258E+06,   1.55123E+06,   1.55123E+06
C:/temp/Job-16.odb,Step-1,Increment      1: Step Time =    1.000,"P-16-1",          1257,       34.6436,       114.479,            0.,NA,NA,"",   363.023E+03,   364.149E+03,   364.149E+03
C:/temp/Job-16.odb,Step-1,Increment      1: Step Time =    1.000,"P-16-1",          1258,       166.598,       90.1964,            0.,NA,NA,"",   681.336E+03,   698.826E+03,   698.826E+03
C:/temp/Job-16.odb,Step-1,Increment      1: Step Time =    1.000,"P-16-1",          1259,       111.106,       163.968,            0.,NA,NA,"",   1.42705E+06,   1.53779E+06,   1.53779E+06
C:/temp/Job-16.odb,Step-1,Increment      1: Step Time =    1.000,"P-16-1",          1260,       25.8007,       25.1332,            0.,NA,NA,"",   1.43476E+06,   1.44442E+06,   1.44442E+06
C:/temp/Job-16.odb,Step-1,Increment      1: Step Time =    1.000,"P-16-1",          1261,       172.121,       28.0203,            0.,NA,NA,"",   1.12945E+06,   1.11506E+06,   1.11506E+06
C:/temp/Job-16.odb,Step-1,Increment      1: Step Time =    1.000,"P-16-1",          1262,       171.613,       171.829,            0.,NA,NA,"",   1.13189E+06,   1.11750E+06,   1.11750E+06
C:/temp/Job-16.odb,Step-1,Increment      1: Step Time =    1.000,"P-16-1",          1263,       156.171,       60.6743,            0.,NA,NA,"",   1.50879E+06,   1.32393E+06,   1.32393E+06
C:/temp/Job-16.odb,Step-1,Increment      1: Step Time =    1.000,"P-16-1",          1264,       140.120,       154.871,            0.,NA,NA,"",   1.62130E+06,   1.53221E+06,   1.53221E+06
C:/temp/Job-16.odb,Step-1,Increment      1: Step Time =    1.000,"P-16-1",          1265,       46.0346,       55.5542,            0.,NA,NA,"",   1.26320E+06,   1.15733E+06,   1.15733E+06
C:/temp/Job-16.odb,Step-1,Increment      1: Step Time =    1.000,"P-16-1",          1266,       155.919,       141.172,            0.,NA,NA,"",   1.52236E+06,   1.35006E+06,   1.35006E+06
C:/temp/Job-16.odb,Step-1,Increment      1: Step Time =    1.000,"P-16-1",          1267,       141.577,       42.8518,            0.,NA,NA,"",   1.57910E+06,   1.49331E+06,   1.49331E+06
C:/temp/Job-16.odb,Step-1,Increment      1: Step Time =    1.000,"P-16-1",          1268,       41.8521,       139.966,            0.,NA,NA,"",   1.09333E+06,   1.01160E+06,   1.01160E+06
C:/temp/Job-16.odb,Step-1,Increment      1: Step Time =    1.000,"P-16-1",          1269,       131.660,       164.024,            0.,NA,NA,"",   1.47881E+06,   1.46809E+06,   1.46809E+06
C:/temp/Job-16.odb,Step-1,Increment      1: Step Time =    1.000,"P-16-1",          1270,       161.547,       68.2051,            0.,NA,NA,"",   1.34387E+06,   1.19268E+06,   1.19268E+06
C:/temp/Job-16.odb,Step-1,Increment      1: Step Time =    1.000,"P-16-1",          1271,       39.8353,       132.896,            0.,NA,NA,"",   897.107E+03,   827.983E+03,   827.983E+03
C:/temp/Job-16.odb,Step-1,Increment      1: Step Time =    1.000,"P-16-1",          1272,       39.2163,       125.254,            0.,NA,NA,"",   671.073E+03,   612.093E+03,   612.093E+03
C:/temp/Job-16.odb,Step-1,Increment      1: Step Time =    1.000,"P-16-1",          1273,       126.919,       164.026,            0.,NA,NA,"",   1.46313E+06,   1.48390E+06,   1.48390E+06
C:/temp/Job-16.odb,Step-1,Increment      1: Step Time =    1.000,"P-16-1",          1274,       166.196,       73.2378,            0.,NA,NA,"",   1.18232E+06,   1.09104E+06,   1.09104E+06
C:/temp/Job-16.odb,Step-1,Increment      1: Step Time =    1.000,"P-16-1",          1275,       154.753,       179.994,            0.,NA,NA,"",   1.15801E+06,   1.13233E+06,   1.13233E+06
C:/temp/Job-16.odb,Step-1,Increment      1: Step Time =    1.000,"P-16-1",          1276,       179.772,       149.596,            0.,NA,NA,"",   1.11474E+06,   1.13346E+06,   1.13346E+06
C:/temp/Job-16.odb,Step-1,Increment      1: Step Time =    1.000,"P-16-1",          1277,       47.2261,       181.849,            0.,NA,NA,"",   1.48250E+06,   1.45127E+06,   1.45127E+06
C:/temp/Job-16.odb,Step-1,Increment      1: Step Time =    1.000,"P-16-1",          1278,       179.929,       45.2488,            0.,NA,NA,"",   1.11428E+06,   1.12554E+06,   1.12554E+06
C:/temp/Job-16.odb,Step-1,Increment      1: Step Time =    1.000,"P-16-1",          1279,       21.8692,       155.407,            0.,NA,NA,"",   1.11612E+06,   1.14797E+06,   1.14797E+06
C:/temp/Job-16.odb,Step-1,Increment      1: Step Time =    1.000,"P-16-1",          1280,       150.979,       19.5871,            0.,NA,NA,"",   1.15766E+06,   1.13289E+06,   1.13289E+06
C:/temp/Job-16.odb,Step-1,Increment      1: Step Time =    1.000,"P-16-1",          1281,       48.6700,       20.2849,            0.,NA,NA,"",   1.49117E+06,   1.45187E+06,   1.45187E+06
C:/temp/Job-16.odb,Step-1,Increment      1: Step Time =    1.000,"P-16-1",          1282,       20.2011,       47.7867,            0.,NA,NA,"",   1.03644E+06,   1.07695E+06,   1.07695E+06
C:/temp/Job-16.odb,Step-1,Increment      1: Step Time =    1.000,"P-16-1",          1283,       155.674,       184.835,            0.,NA,NA,"",   1.09268E+06,   1.07702E+06,   1.07702E+06
C:/temp/Job-16.odb,Step-1,Increment      1: Step Time =    1.000,"P-16-1",          1284,       188.297,       150.440,            0.,NA,NA,"",   996.215E+03,   1.05976E+06,   1.05976E+06
C:/temp/Job-16.odb,Step-1,Increment      1: Step Time =    1.000,"P-16-1",          1285,       184.807,       44.3122,            0.,NA,NA,"",   1.04619E+06,   1.08102E+06,   1.08102E+06
C:/temp/Job-16.odb,Step-1,Increment      1: Step Time =    1.000,"P-16-1",          1286,       46.9665,       186.597,            0.,NA,NA,"",   1.47444E+06,   1.45428E+06,   1.45428E+06
C:/temp/Job-16.odb,Step-1,Increment      1: Step Time =    1.000,"P-16-1",          1287,       152.475,       11.9219,            0.,NA,NA,"",   1.05133E+06,   1.04091E+06,   1.04091E+06
C:/temp/Job-16.odb,Step-1,Increment      1: Step Time =    1.000,"P-16-1",          1288,       12.4116,       154.359,            0.,NA,NA,"",   995.471E+03,   1.07127E+06,   1.07127E+06
C:/temp/Job-16.odb,Step-1,Increment      1: Step Time =    1.000,"P-16-1",          1289,       46.6760,       13.0561,            0.,NA,NA,"",   1.47415E+06,   1.45449E+06,   1.45449E+06
C:/temp/Job-16.odb,Step-1,Increment      1: Step Time =    1.000,"P-16-1",          1290,       46.0859,       145.343,            0.,NA,NA,"",   1.27961E+06,   1.17775E+06,   1.17775E+06
C:/temp/Job-16.odb,Step-1,Increment      1: Step Time =    1.000,"P-16-1",          1291,       144.471,       154.723,            0.,NA,NA,"",   1.59079E+06,   1.48312E+06,   1.48312E+06
C:/temp/Job-16.odb,Step-1,Increment      1: Step Time =    1.000,"P-16-1",          1292,       152.150,       52.0887,            0.,NA,NA,"",   1.57131E+06,   1.41844E+06,   1.41844E+06
C:/temp/Job-16.odb,Step-1,Increment      1: Step Time =    1.000,"P-16-1",          1293,       78.0710,       42.5830,            0.,NA,NA,"",   1.70109E+06,   1.69575E+06,   1.69575E+06
C:/temp/Job-16.odb,Step-1,Increment      1: Step Time =    1.000,"P-16-1",          1294,       69.7114,       162.191,            0.,NA,NA,"",   1.63820E+06,   1.57596E+06,   1.57596E+06
C:/temp/Job-16.odb,Step-1,Increment      1: Step Time =    1.000,"P-16-1",          1295,       61.6968,       153.113,            0.,NA,NA,"",   1.61862E+06,   1.50860E+06,   1.50860E+06
C:/temp/Job-16.odb,Step-1,Increment      1: Step Time =    1.000,"P-16-1",          1296,       25.0635,       72.8112,            0.,NA,NA,"",   586.924E+03,   616.996E+03,   616.996E+03
C:/temp/Job-16.odb,Step-1,Increment      1: Step Time =    1.000,"P-16-1",          1297,       175.448,       125.754,            0.,NA,NA,"",   1.04586E+06,   1.07371E+06,   1.07371E+06
C:/temp/Job-16.odb,Step-1,Increment      1: Step Time =    1.000,"P-16-1",          1298,       126.069,       25.0757,            0.,NA,NA,"",   1.24197E+06,   1.25713E+06,   1.25713E+06
C:/temp/Job-16.odb,Step-1,Increment      1: Step Time =    1.000,"P-16-1",          1299,       74.0689,       171.903,            0.,NA,NA,"",   1.50618E+06,   1.47844E+06,   1.47844E+06
C:/temp/Job-16.odb,Step-1,Increment      1: Step Time =    1.000,"P-16-1",          1300,       21.1635,       17.5868,            0.,NA,NA,"",   1.52945E+06,   1.55068E+06,   1.55068E+06
C:/temp/Job-16.odb,Step-1,Increment      1: Step Time =    1.000,"P-16-1",          1301,       177.701,       20.4384,            0.,NA,NA,"",   1.05190E+06,   1.05145E+06,   1.05145E+06
C:/temp/Job-16.odb,Step-1,Increment      1: Step Time =    1.000,"P-16-1",          1302,       179.440,       177.542,            0.,NA,NA,"",   1.04992E+06,   1.05153E+06,   1.05153E+06
C:/temp/Job-16.odb,Step-1,Increment      1: Step Time =    1.000,"P-16-1",          1303,       31.3533,       145.791,            0.,NA,NA,"",   1.05297E+06,   1.03533E+06,   1.03533E+06
C:/temp/Job-16.odb,Step-1,Increment      1: Step Time =    1.000,"P-16-1",          1304,       144.327,       27.5387,            0.,NA,NA,"",   1.30118E+06,   1.26106E+06,   1.26106E+06
C:/temp/Job-16.odb,Step-1,Increment      1: Step Time =    1.000,"P-16-1",          1305,       23.0037,       54.9643,            0.,NA,NA,"",   935.908E+03,    963.87E+03,    963.87E+03
C:/temp/Job-16.odb,Step-1,Increment      1: Step Time =    1.000,"P-16-1",          1306,       52.0997,       28.5261,            0.,NA,NA,"",   1.52078E+06,   1.45722E+06,   1.45722E+06
C:/temp/Job-16.odb,Step-1,Increment      1: Step Time =    1.000,"P-16-1",          1307,       172.280,       54.1771,            0.,NA,NA,"",   1.23943E+06,   1.20511E+06,   1.20511E+06
C:/temp/Job-16.odb,Step-1,Increment      1: Step Time =    1.000,"P-16-1",          1308,       51.4832,       173.462,            0.,NA,NA,"",   1.51379E+06,   1.45564E+06,   1.45564E+06
C:/temp/Job-16.odb,Step-1,Increment      1: Step Time =    1.000,"P-16-1",          1309,       146.036,       172.850,            0.,NA,NA,"",   1.29114E+06,   1.24848E+06,   1.24848E+06
C:/temp/Job-16.odb,Step-1,Increment      1: Step Time =    1.000,"P-16-1",          1310,       173.658,       146.223,            0.,NA,NA,"",   1.21817E+06,   1.19392E+06,   1.19392E+06
C:/temp/Job-16.odb,Step-1,Increment      1: Step Time =    1.000,"P-16-1",          1311,       10.6744,       14.9192,            0.,NA,NA,"",   1.53781E+06,   1.61502E+06,   1.61502E+06
C:/temp/Job-16.odb,Step-1,Increment      1: Step Time =    1.000,"P-16-1",          1312,       185.100,       11.0999,            0.,NA,NA,"",   1.00838E+06,   1.01033E+06,   1.01033E+06
C:/temp/Job-16.odb,Step-1,Increment      1: Step Time =    1.000,"P-16-1",          1313,       15.1595,       189.705,            0.,NA,NA,"",   1.65652E+06,   1.68170E+06,   1.68170E+06
C:/temp/Job-16.odb,Step-1,Increment      1: Step Time =    1.000,"P-16-1",          1314,       188.859,       185.067,            0.,NA,NA,"",   1.00721E+06,   1.01042E+06,   1.01042E+06
C:/temp/Job-16.odb,Step-1,Increment      1: Step Time =    1.000,"P-16-1",          1315,       36.8417,       22.9218,            0.,NA,NA,"",   1.48893E+06,   1.46283E+06,   1.46283E+06
C:/temp/Job-16.odb,Step-1,Increment      1: Step Time =    1.000,"P-16-1",          1316,       22.1822,       158.561,            0.,NA,NA,"",   1.16975E+06,   1.20089E+06,   1.20089E+06
C:/temp/Job-16.odb,Step-1,Increment      1: Step Time =    1.000,"P-16-1",          1317,       174.387,       41.8078,            0.,NA,NA,"",   1.18145E+06,   1.16340E+06,   1.16340E+06
C:/temp/Job-16.odb,Step-1,Increment      1: Step Time =    1.000,"P-16-1",          1318,       158.091,       174.514,            0.,NA,NA,"",   1.21278E+06,   1.17683E+06,   1.17683E+06
C:/temp/Job-16.odb,Step-1,Increment      1: Step Time =    1.000,"P-16-1",          1319,       159.016,       59.3663,            0.,NA,NA,"",   1.46578E+06,   1.30975E+06,   1.30975E+06
C:/temp/Job-16.odb,Step-1,Increment      1: Step Time =    1.000,"P-16-1",          1320,       140.750,       159.687,            0.,NA,NA,"",   1.54073E+06,   1.46651E+06,   1.46651E+06
C:/temp/Job-16.odb,Step-1,Increment      1: Step Time =    1.000,"P-16-1",          1321,       40.2549,       59.3640,            0.,NA,NA,"",   1.08392E+06,   1.01292E+06,   1.01292E+06
C:/temp/Job-16.odb,Step-1,Increment      1: Step Time =    1.000,"P-16-1",          1322,       160.958,       141.896,            0.,NA,NA,"",   1.43935E+06,   1.30377E+06,   1.30377E+06
C:/temp/Job-16.odb,Step-1,Increment      1: Step Time =    1.000,"P-16-1",          1323,       142.791,       37.6461,            0.,NA,NA,"",   1.48069E+06,   1.41317E+06,   1.41317E+06
C:/temp/Job-16.odb,Step-1,Increment      1: Step Time =    1.000,"P-16-1",          1324,       36.5866,       141.107,            0.,NA,NA,"",   1.03122E+06,   982.707E+03,   982.707E+03
C:/temp/Job-16.odb,Step-1,Increment      1: Step Time =    1.000,"P-16-1",          1325,       32.2447,       123.144,            0.,NA,NA,"",   557.000E+03,   556.138E+03,   556.138E+03
C:/temp/Job-16.odb,Step-1,Increment      1: Step Time =    1.000,"P-16-1",          1326,       122.145,       164.984,            0.,NA,NA,"",   1.42817E+06,   1.48105E+06,   1.48105E+06
C:/temp/Job-16.odb,Step-1,Increment      1: Step Time =    1.000,"P-16-1",          1327,       165.638,       81.2989,            0.,NA,NA,"",   974.352E+03,   904.942E+03,   904.942E+03
C:/temp/Job-16.odb,Step-1,Increment      1: Step Time =    1.000,"P-16-1",          1328,       156.271,       177.818,            0.,NA,NA,"",   1.18255E+06,   1.15258E+06,   1.15258E+06
C:/temp/Job-16.odb,Step-1,Increment      1: Step Time =    1.000,"P-16-1",          1329,       172.903,       156.359,            0.,NA,NA,"",   1.20469E+06,   1.18047E+06,   1.18047E+06
C:/temp/Job-16.odb,Step-1,Increment      1: Step Time =    1.000,"P-16-1",          1330,       183.404,       149.252,            0.,NA,NA,"",   1.06841E+06,   1.10708E+06,   1.10708E+06
C:/temp/Job-16.odb,Step-1,Increment      1: Step Time =    1.000,"P-16-1",          1331,       152.439,       183.086,            0.,NA,NA,"",   1.12151E+06,   1.10130E+06,   1.10130E+06
C:/temp/Job-16.odb,Step-1,Increment      1: Step Time =    1.000,"P-16-1",          1332,       50.7506,       183.131,            0.,NA,NA,"",   1.46767E+06,   1.43704E+06,   1.43704E+06
C:/temp/Job-16.odb,Step-1,Increment      1: Step Time =    1.000,"P-16-1",          1333,       183.017,       47.5909,            0.,NA,NA,"",   1.07222E+06,   1.10337E+06,   1.10337E+06
C:/temp/Job-16.odb,Step-1,Increment      1: Step Time =    1.000,"P-16-1",          1334,       177.738,       43.7071,            0.,NA,NA,"",   1.14332E+06,   1.14152E+06,   1.14152E+06
C:/temp/Job-16.odb,Step-1,Increment      1: Step Time =    1.000,"P-16-1",          1335,       47.0760,       176.665,            0.,NA,NA,"",   1.49940E+06,   1.45403E+06,   1.45403E+06
C:/temp/Job-16.odb,Step-1,Increment      1: Step Time =    1.000,"P-16-1",          1336,       26.1772,       156.070,            0.,NA,NA,"",   1.17296E+06,   1.18249E+06,   1.18249E+06
C:/temp/Job-16.odb,Step-1,Increment      1: Step Time =    1.000,"P-16-1",          1337,       153.331,       27.5675,            0.,NA,NA,"",   1.26374E+06,   1.22003E+06,   1.22003E+06
C:/temp/Job-16.odb,Step-1,Increment      1: Step Time =    1.000,"P-16-1",          1338,       150.235,       15.9455,            0.,NA,NA,"",   1.10614E+06,   1.08844E+06,   1.08844E+06
C:/temp/Job-16.odb,Step-1,Increment      1: Step Time =    1.000,"P-16-1",          1339,       16.4084,       152.525,            0.,NA,NA,"",   1.00706E+06,   1.06504E+06,   1.06504E+06
C:/temp/Job-16.odb,Step-1,Increment      1: Step Time =    1.000,"P-16-1",          1340,       46.2319,       22.3952,            0.,NA,NA,"",   1.49871E+06,   1.45663E+06,   1.45663E+06
C:/temp/Job-16.odb,Step-1,Increment      1: Step Time =    1.000,"P-16-1",          1341,       24.9270,       48.1620,            0.,NA,NA,"",   1.08286E+06,   1.09863E+06,   1.09863E+06
C:/temp/Job-16.odb,Step-1,Increment      1: Step Time =    1.000,"P-16-1",          1342,       14.7669,       51.3971,            0.,NA,NA,"",   926.319E+03,   988.647E+03,   988.647E+03
C:/temp/Job-16.odb,Step-1,Increment      1: Step Time =    1.000,"P-16-1",          1343,       48.9378,       14.9876,            0.,NA,NA,"",   1.47167E+06,   1.44680E+06,   1.44680E+06
C:/temp/Job-16.odb,Step-1,Increment      1: Step Time =    1.000,"P-16-1",          1344,       38.4282,       139.298,            0.,NA,NA,"",   1.02670E+06,   968.012E+03,   968.012E+03
C:/temp/Job-16.odb,Step-1,Increment      1: Step Time =    1.000,"P-16-1",          1345,       136.327,       164.297,            0.,NA,NA,"",   1.47544E+06,   1.43673E+06,   1.43673E+06
C:/temp/Job-16.odb,Step-1,Increment      1: Step Time =    1.000,"P-16-1",          1346,       162.767,       63.6676,            0.,NA,NA,"",   1.37674E+06,   1.24353E+06,   1.24353E+06
C:/temp/Job-16.odb,Step-1,Increment      1: Step Time =    1.000,"P-16-1",          1347,       80.6024,       33.5649,            0.,NA,NA,"",   1.55559E+06,   1.56351E+06,   1.56351E+06
C:/temp/Job-16.odb,Step-1,Increment      1: Step Time =    1.000,"P-16-1",          1348,       26.0799,       170.213,            0.,NA,NA,"",   1.37522E+06,   1.38517E+06,   1.38517E+06
C:/temp/Job-16.odb,Step-1,Increment      1: Step Time =    1.000,"P-16-1",          1349,       166.512,       120.628,            0.,NA,NA,"",   1.03931E+06,   978.179E+03,   978.179E+03
C:/temp/Job-16.odb,Step-1,Increment      1: Step Time =    1.000,"P-16-1",          1350,       122.957,       35.0657,            0.,NA,NA,"",   1.43421E+06,   1.47716E+06,   1.47716E+06
C:/temp/Job-16.odb,Step-1,Increment      1: Step Time =    1.000,"P-16-1",          1351,       35.7783,       80.6169,            0.,NA,NA,"",   490.885E+03,   472.308E+03,   472.308E+03
C:/temp/Job-16.odb,Step-1,Increment      1: Step Time =    1.000,"P-16-1",          1352,       166.813,       68.8570,            0.,NA,NA,"",   1.24706E+06,   1.15661E+06,   1.15661E+06
C:/temp/Job-16.odb,Step-1,Increment      1: Step Time =    1.000,"P-16-1",          1353,       35.5115,       133.164,            0.,NA,NA,"",   843.697E+03,   805.572E+03,   805.572E+03
C:/temp/Job-16.odb,Step-1,Increment      1: Step Time =    1.000,"P-16-1",          1354,       131.521,       168.671,            0.,NA,NA,"",   1.38337E+06,   1.37883E+06,   1.37883E+06
C:/temp/Job-16.odb,Step-1,Increment      1: Step Time =    1.000,"P-16-1",          1355,       69.6849,       34.4434,            0.,NA,NA,"",   1.60452E+06,   1.54929E+06,   1.54929E+06
C:/temp/Job-16.odb,Step-1,Increment      1: Step Time =    1.000,"P-16-1",          1356,       37.2630,       163.698,            0.,NA,NA,"",   1.39645E+06,   1.35474E+06,   1.35474E+06
C:/temp/Job-16.odb,Step-1,Increment      1: Step Time =    1.000,"P-16-1",          1357,       168.883,       38.6679,            0.,NA,NA,"",   1.23713E+06,   1.19814E+06,   1.19814E+06
C:/temp/Job-16.odb,Step-1,Increment      1: Step Time =    1.000,"P-16-1",          1358,       167.042,       161.931,            0.,NA,NA,"",   1.25173E+06,   1.20841E+06,   1.20841E+06
C:/temp/Job-16.odb,Step-1,Increment      1: Step Time =    1.000,"P-16-1",          1359,       160.385,       168.661,            0.,NA,NA,"",   1.25724E+06,   1.21126E+06,   1.21126E+06
C:/temp/Job-16.odb,Step-1,Increment      1: Step Time =    1.000,"P-16-1",          1360,       34.1970,       31.6367,            0.,NA,NA,"",   1.42002E+06,   1.39343E+06,   1.39343E+06
C:/temp/Job-16.odb,Step-1,Increment      1: Step Time =    1.000,"P-16-1",          1361,       34.9159,       27.3731,            0.,NA,NA,"",   1.45759E+06,   1.43278E+06,   1.43278E+06
C:/temp/Job-16.odb,Step-1,Increment      1: Step Time =    1.000,"P-16-1",          1362,       162.340,       32.4381,            0.,NA,NA,"",   1.25375E+06,   1.20877E+06,   1.20877E+06
C:/temp/Job-16.odb,Step-1,Increment      1: Step Time =    1.000,"P-16-1",          1363,       32.7497,       162.993,            0.,NA,NA,"",   1.34693E+06,   1.32368E+06,   1.32368E+06
C:/temp/Job-16.odb,Step-1,Increment      1: Step Time =    1.000,"P-16-1",          1364,       24.2341,       52.1522,            0.,NA,NA,"",   999.500E+03,   1.02124E+06,   1.02124E+06
C:/temp/Job-16.odb,Step-1,Increment      1: Step Time =    1.000,"P-16-1",          1365,       50.6559,       23.8540,            0.,NA,NA,"",   1.50094E+06,   1.45189E+06,   1.45189E+06
C:/temp/Job-16.odb,Step-1,Increment      1: Step Time =    1.000,"P-16-1",          1366,       175.473,       150.721,            0.,NA,NA,"",   1.18087E+06,   1.17067E+06,   1.17067E+06
C:/temp/Job-16.odb,Step-1,Increment      1: Step Time =    1.000,"P-16-1",          1367,       152.636,       177.875,            0.,NA,NA,"",   1.19287E+06,   1.16157E+06,   1.16157E+06
C:/temp/Job-16.odb,Step-1,Increment      1: Step Time =    1.000,"P-16-1",          1368,       147.866,       25.0993,            0.,NA,NA,"",   1.25141E+06,   1.21437E+06,   1.21437E+06
C:/temp/Job-16.odb,Step-1,Increment      1: Step Time =    1.000,"P-16-1",          1369,       27.2074,       152.386,            0.,NA,NA,"",   1.12512E+06,   1.12818E+06,   1.12818E+06
C:/temp/Job-16.odb,Step-1,Increment      1: Step Time =    1.000,"P-16-1",          1370,       50.0745,       178.118,            0.,NA,NA,"",   1.49340E+06,   1.44924E+06,   1.44924E+06
C:/temp/Job-16.odb,Step-1,Increment      1: Step Time =    1.000,"P-16-1",          1371,       177.723,       47.4194,            0.,NA,NA,"",   1.14629E+06,   1.14778E+06,   1.14778E+06
C:/temp/Job-16.odb,Step-1,Increment      1: Step Time =    1.000,"P-16-1",          1372,       75.0889,       33.5928,            0.,NA,NA,"",   1.58569E+06,   1.55759E+06,   1.55759E+06
C:/temp/Job-16.odb,Step-1,Increment      1: Step Time =    1.000,"P-16-1",          1373,       160.869,       162.807,            0.,NA,NA,"",   1.31418E+06,   1.25276E+06,   1.25276E+06
C:/temp/Job-16.odb,Step-1,Increment      1: Step Time =    1.000,"P-16-1",          1374,       165.848,       41.7964,            0.,NA,NA,"",   1.29677E+06,   1.23939E+06,   1.23939E+06
C:/temp/Job-16.odb,Step-1,Increment      1: Step Time =    1.000,"P-16-1",          1375,       37.5762,       159.876,            0.,NA,NA,"",   1.36359E+06,   1.31589E+06,   1.31589E+06
C:/temp/Job-16.odb,Step-1,Increment      1: Step Time =    1.000,"P-16-1",          1376,       37.5689,       35.8913,            0.,NA,NA,"",   1.40506E+06,   1.36302E+06,   1.36302E+06
C:/temp/Job-16.odb,Step-1,Increment      1: Step Time =    1.000,"P-16-1",          1377,       19.9382,       77.6120,            0.,NA,NA,"",   478.010E+03,   526.118E+03,   526.118E+03
C:/temp/Job-16.odb,Step-1,Increment      1: Step Time =    1.000,"P-16-1",          1378,       73.6411,       161.971,            0.,NA,NA,"",   1.64805E+06,   1.60761E+06,   1.60761E+06
C:/temp/Job-16.odb,Step-1,Increment      1: Step Time =    1.000,"P-16-1",          1379,       30.1540,       70.2118,            0.,NA,NA,"",   689.090E+03,   691.026E+03,   691.026E+03
C:/temp/Job-16.odb,Step-1,Increment      1: Step Time =    1.000,"P-16-1",          1380,       171.528,       131.477,            0.,NA,NA,"",   1.18037E+06,   1.14435E+06,   1.14435E+06
C:/temp/Job-16.odb,Step-1,Increment      1: Step Time =    1.000,"P-16-1",          1381,       130.824,       29.6393,            0.,NA,NA,"",   1.34707E+06,   1.34377E+06,   1.34377E+06
C:/temp/Job-16.odb,Step-1,Increment      1: Step Time =    1.000,"P-16-1",          1382,       37.2878,       62.9436,            0.,NA,NA,"",   958.466E+03,   907.357E+03,   907.357E+03
C:/temp/Job-16.odb,Step-1,Increment      1: Step Time =    1.000,"P-16-1",          1383,       164.065,       138.957,            0.,NA,NA,"",   1.37416E+06,   1.25824E+06,   1.25824E+06
C:/temp/Job-16.odb,Step-1,Increment      1: Step Time =    1.000,"P-16-1",          1384,       136.763,       35.5068,            0.,NA,NA,"",   1.46844E+06,   1.42903E+06,   1.42903E+06
C:/temp/Job-16.odb,Step-1,Increment      1: Step Time =    1.000,"P-16-1",          1385,       174.390,       160.529,            0.,NA,NA,"",   1.16602E+06,   1.15157E+06,   1.15157E+06
C:/temp/Job-16.odb,Step-1,Increment      1: Step Time =    1.000,"P-16-1",          1386,       161.167,       25.1391,            0.,NA,NA,"",   1.18605E+06,   1.15559E+06,   1.15559E+06
C:/temp/Job-16.odb,Step-1,Increment      1: Step Time =    1.000,"P-16-1",          1387,       26.0569,       38.9867,            0.,NA,NA,"",   1.25165E+06,   1.26136E+06,   1.26136E+06
C:/temp/Job-16.odb,Step-1,Increment      1: Step Time =    1.000,"P-16-1",          1388,       161.086,       119.738,            0.,NA,NA,"",   1.06759E+06,   927.037E+03,   927.037E+03
C:/temp/Job-16.odb,Step-1,Increment      1: Step Time =    1.000,"P-16-1",          1389,       115.716,       39.1295,            0.,NA,NA,"",   1.51146E+06,   1.61372E+06,   1.61372E+06
C:/temp/Job-16.odb,Step-1,Increment      1: Step Time =    1.000,"P-16-1",          1390,       40.1306,       80.9566,            0.,NA,NA,"",   502.794E+03,   447.835E+03,   447.835E+03
C:/temp/Job-16.odb,Step-1,Increment      1: Step Time =    1.000,"P-16-1",          1391,       120.828,       39.5891,            0.,NA,NA,"",   1.53062E+06,   1.59658E+06,   1.59658E+06
C:/temp/Job-16.odb,Step-1,Increment      1: Step Time =    1.000,"P-16-1",          1392,       183.803,       186.110,            0.,NA,NA,"",   1.01517E+06,   1.01766E+06,   1.01766E+06
C:/temp/Job-16.odb,Step-1,Increment      1: Step Time =    1.000,"P-16-1",          1393,       186.149,       16.1706,            0.,NA,NA,"",   1.01270E+06,   1.01687E+06,   1.01687E+06
C:/temp/Job-16.odb,Step-1,Increment      1: Step Time =    1.000,"P-16-1",          1394,       15.7118,       14.1209,            0.,NA,NA,"",   1.58621E+06,   1.62331E+06,   1.62331E+06
C:/temp/Job-16.odb,Step-1,Increment      1: Step Time =    1.000,"P-16-1",          1395,       56.5612,       157.957,            0.,NA,NA,"",   1.56728E+06,   1.46498E+06,   1.46498E+06
C:/temp/Job-16.odb,Step-1,Increment      1: Step Time =    1.000,"P-16-1",          1396,       149.296,       153.046,            0.,NA,NA,"",   1.55879E+06,   1.43426E+06,   1.43426E+06
C:/temp/Job-16.odb,Step-1,Increment      1: Step Time =    1.000,"P-16-1",          1397,       44.2858,       149.969,            0.,NA,NA,"",   1.32637E+06,   1.23896E+06,   1.23896E+06
C:/temp/Job-16.odb,Step-1,Increment      1: Step Time =    1.000,"P-16-1",          1398,       72.9178,       36.6179,            0.,NA,NA,"",   1.62695E+06,   1.58521E+06,   1.58521E+06
C:/temp/Job-16.odb,Step-1,Increment      1: Step Time =    1.000,"P-16-1",          1399,       64.1141,       36.0301,            0.,NA,NA,"",   1.60967E+06,   1.53188E+06,   1.53188E+06
C:/temp/Job-16.odb,Step-1,Increment      1: Step Time =    1.000,"P-16-1",          1400,       36.5490,       76.5548,            0.,NA,NA,"",   596.964E+03,   566.767E+03,   566.767E+03
C:/temp/Job-16.odb,Step-1,Increment      1: Step Time =    1.000,"P-16-1",          1401,       163.719,       124.252,            0.,NA,NA,"",   1.14854E+06,   1.03596E+06,   1.03596E+06
C:/temp/Job-16.odb,Step-1,Increment      1: Step Time =    1.000,"P-16-1",          1402,       36.1786,       144.945,            0.,NA,NA,"",   1.10900E+06,   1.06145E+06,   1.06145E+06
C:/temp/Job-16.odb,Step-1,Increment      1: Step Time =    1.000,"P-16-1",          1403,       144.212,       33.3161,            0.,NA,NA,"",   1.40607E+06,   1.34915E+06,   1.34915E+06
C:/temp/Job-16.odb,Step-1,Increment      1: Step Time =    1.000,"P-16-1",          1404,       162.469,       145.430,            0.,NA,NA,"",   1.41547E+06,   1.30091E+06,   1.30091E+06
C:/temp/Job-16.odb,Step-1,Increment      1: Step Time =    1.000,"P-16-1",          1405,       37.7296,       52.9169,            0.,NA,NA,"",   1.17457E+06,   1.11971E+06,   1.11971E+06
C:/temp/Job-16.odb,Step-1,Increment      1: Step Time =    1.000,"P-16-1",          1406,       162.701,       54.9561,            0.,NA,NA,"",   1.40528E+06,   1.29514E+06,   1.29514E+06
C:/temp/Job-16.odb,Step-1,Increment      1: Step Time =    1.000,"P-16-1",          1407,       145.320,       163.878,            0.,NA,NA,"",   1.44460E+06,   1.37416E+06,   1.37416E+06
C:/temp/Job-16.odb,Step-1,Increment      1: Step Time =    1.000,"P-16-1",          1408,       149.657,       28.8951,            0.,NA,NA,"",   1.30290E+06,   1.25499E+06,   1.25499E+06
C:/temp/Job-16.odb,Step-1,Increment      1: Step Time =    1.000,"P-16-1",          1409,       31.6608,       153.972,            0.,NA,NA,"",   1.21153E+06,   1.18898E+06,   1.18898E+06
C:/temp/Job-16.odb,Step-1,Increment      1: Step Time =    1.000,"P-16-1",          1410,       171.049,       152.095,            0.,NA,NA,"",   1.24990E+06,   1.21058E+06,   1.21058E+06
C:/temp/Job-16.odb,Step-1,Increment      1: Step Time =    1.000,"P-16-1",          1411,       150.598,       171.553,            0.,NA,NA,"",   1.28776E+06,   1.24032E+06,   1.24032E+06
C:/temp/Job-16.odb,Step-1,Increment      1: Step Time =    1.000,"P-16-1",          1412,       46.0209,       28.2665,            0.,NA,NA,"",   1.50151E+06,   1.44631E+06,   1.44631E+06
C:/temp/Job-16.odb,Step-1,Increment      1: Step Time =    1.000,"P-16-1",          1413,       29.5103,       49.2769,            0.,NA,NA,"",   1.12188E+06,   1.11302E+06,   1.11302E+06
C:/temp/Job-16.odb,Step-1,Increment      1: Step Time =    1.000,"P-16-1",          1414,       171.047,       49.5689,            0.,NA,NA,"",   1.25052E+06,   1.21076E+06,   1.21076E+06
C:/temp/Job-16.odb,Step-1,Increment      1: Step Time =    1.000,"P-16-1",          1415,       190.801,       15.3980,            0.,NA,NA,"",   1.00403E+06,   1.00742E+06,   1.00742E+06
C:/temp/Job-16.odb,Step-1,Increment      1: Step Time =    1.000,"P-16-1",          1416,       184.590,       190.789,            0.,NA,NA,"",   1.00578E+06,   1.00722E+06,   1.00722E+06
C:/temp/Job-16.odb,Step-1,Increment      1: Step Time =    1.000,"P-16-1",          1417,       15.2946,       9.45994,            0.,NA,NA,"",   1.67019E+06,   1.69163E+06,   1.69163E+06
C:/temp/Job-16.odb,Step-1,Increment      1: Step Time =    1.000,"P-16-1",          1418,       10.0920,       184.872,            0.,NA,NA,"",   1.52562E+06,   1.60863E+06,   1.60863E+06
C:/temp/Job-16.odb,Step-1,Increment      1: Step Time =    1.000,"P-16-1",          1419,       155.277,       167.404,            0.,NA,NA,"",   1.31632E+06,   1.25839E+06,   1.25839E+06
C:/temp/Job-16.odb,Step-1,Increment      1: Step Time =    1.000,"P-16-1",          1420,       33.9990,       158.943,            0.,NA,NA,"",   1.31478E+06,   1.28210E+06,   1.28210E+06
C:/temp/Job-16.odb,Step-1,Increment      1: Step Time =    1.000,"P-16-1",          1421,       166.442,       45.4495,            0.,NA,NA,"",   1.30917E+06,   1.24696E+06,   1.24696E+06
C:/temp/Job-16.odb,Step-1,Increment      1: Step Time =    1.000,"P-16-1",          1422,       41.4307,       34.1664,            0.,NA,NA,"",   1.45430E+06,   1.39753E+06,   1.39753E+06
C:/temp/Job-16.odb,Step-1,Increment      1: Step Time =    1.000,"P-16-1",          1423,       56.9643,       162.520,            0.,NA,NA,"",   1.57215E+06,   1.48202E+06,   1.48202E+06
C:/temp/Job-16.odb,Step-1,Increment      1: Step Time =    1.000,"P-16-1",          1424,       161.920,       133.065,            0.,NA,NA,"",   1.36526E+06,   1.21772E+06,   1.21772E+06
C:/temp/Job-16.odb,Step-1,Increment      1: Step Time =    1.000,"P-16-1",          1425,       132.757,       39.9325,            0.,NA,NA,"",   1.55499E+06,   1.52906E+06,   1.52906E+06
C:/temp/Job-16.odb,Step-1,Increment      1: Step Time =    1.000,"P-16-1",          1426,       58.6438,       37.5059,            0.,NA,NA,"",   1.58634E+06,   1.49546E+06,   1.49546E+06
C:/temp/Job-16.odb,Step-1,Increment      1: Step Time =    1.000,"P-16-1",          1427,       67.6912,       38.2050,            0.,NA,NA,"",   1.63878E+06,   1.56853E+06,   1.56853E+06
C:/temp/Job-16.odb,Step-1,Increment      1: Step Time =    1.000,"P-16-1",          1428,       127.535,       37.4759,            0.,NA,NA,"",   1.49840E+06,   1.51234E+06,   1.51234E+06
C:/temp/Job-16.odb,Step-1,Increment      1: Step Time =    1.000,"P-16-1",          1429,       36.1773,       72.4595,            0.,NA,NA,"",   698.157E+03,   663.874E+03,   663.874E+03
C:/temp/Job-16.odb,Step-1,Increment      1: Step Time =    1.000,"P-16-1",          1430,       164.664,       129.476,            0.,NA,NA,"",   1.26089E+06,   1.14242E+06,   1.14242E+06
C:/temp/Job-16.odb,Step-1,Increment      1: Step Time =    1.000,"P-16-1",          1431,       37.5060,       151.985,            0.,NA,NA,"",   1.26300E+06,   1.20776E+06,   1.20776E+06
C:/temp/Job-16.odb,Step-1,Increment      1: Step Time =    1.000,"P-16-1",          1432,       34.0379,       138.482,            0.,NA,NA,"",   941.427E+03,   909.733E+03,   909.733E+03
C:/temp/Job-16.odb,Step-1,Increment      1: Step Time =    1.000,"P-16-1",          1433,       150.408,       37.3214,            0.,NA,NA,"",   1.42310E+06,   1.34670E+06,   1.34670E+06
C:/temp/Job-16.odb,Step-1,Increment      1: Step Time =    1.000,"P-16-1",          1434,       139.242,       33.5329,            0.,NA,NA,"",   1.42471E+06,   1.38123E+06,   1.38123E+06
C:/temp/Job-16.odb,Step-1,Increment      1: Step Time =    1.000,"P-16-1",          1435,       160.196,       151.161,            0.,NA,NA,"",   1.42818E+06,   1.32351E+06,   1.32351E+06
C:/temp/Job-16.odb,Step-1,Increment      1: Step Time =    1.000,"P-16-1",          1436,       166.799,       143.577,            0.,NA,NA,"",   1.33236E+06,   1.25107E+06,   1.25107E+06
C:/temp/Job-16.odb,Step-1,Increment      1: Step Time =    1.000,"P-16-1",          1437,       33.7850,       60.8245,            0.,NA,NA,"",   949.409E+03,   919.317E+03,   919.317E+03
C:/temp/Job-16.odb,Step-1,Increment      1: Step Time =    1.000,"P-16-1",          1438,       39.5596,       49.0565,            0.,NA,NA,"",   1.27432E+06,   1.20910E+06,   1.20910E+06
C:/temp/Job-16.odb,Step-1,Increment      1: Step Time =    1.000,"P-16-1",          1439,       163.162,       59.3117,            0.,NA,NA,"",   1.39485E+06,   1.27491E+06,   1.27491E+06
C:/temp/Job-16.odb,Step-1,Increment      1: Step Time =    1.000,"P-16-1",          1440,       162.046,       50.3574,            0.,NA,NA,"",   1.40243E+06,   1.30291E+06,   1.30291E+06
C:/temp/Job-16.odb,Step-1,Increment      1: Step Time =    1.000,"P-16-1",          1441,       140.811,       164.244,            0.,NA,NA,"",   1.46316E+06,   1.40493E+06,   1.40493E+06
C:/temp/Job-16.odb,Step-1,Increment      1: Step Time =    1.000,"P-16-1",          1442,       150.015,       163.462,            0.,NA,NA,"",   1.41803E+06,   1.34163E+06,   1.34163E+06
C:/temp/Job-16.odb,Step-1,Increment      1: Step Time =    1.000,"P-16-1",          1443,       77.0147,       30.0612,            0.,NA,NA,"",   1.51857E+06,   1.50274E+06,   1.50274E+06
C:/temp/Job-16.odb,Step-1,Increment      1: Step Time =    1.000,"P-16-1",          1444,       69.4663,       166.672,            0.,NA,NA,"",   1.59289E+06,   1.53703E+06,   1.53703E+06
C:/temp/Job-16.odb,Step-1,Increment      1: Step Time =    1.000,"P-16-1",          1445,       38.7446,       41.4669,            0.,NA,NA,"",   1.36494E+06,   1.30965E+06,   1.30965E+06
C:/temp/Job-16.odb,Step-1,Increment      1: Step Time =    1.000,"P-16-1",          1446,       42.0290,       163.099,            0.,NA,NA,"",   1.43724E+06,   1.37604E+06,   1.37604E+06
C:/temp/Job-16.odb,Step-1,Increment      1: Step Time =    1.000,"P-16-1",          1447,       159.651,       35.2297,            0.,NA,NA,"",   1.30726E+06,   1.24935E+06,   1.24935E+06
C:/temp/Job-16.odb,Step-1,Increment      1: Step Time =    1.000,"P-16-1",          1448,       164.717,       159.378,            0.,NA,NA,"",   1.29532E+06,   1.23874E+06,   1.23874E+06
C:/temp/Job-16.odb,Step-1,Increment      1: Step Time =    1.000,"P-16-1",          1449,       153.368,       149.064,            0.,NA,NA,"",   1.54364E+06,   1.40287E+06,   1.40287E+06
C:/temp/Job-16.odb,Step-1,Increment      1: Step Time =    1.000,"P-16-1",          1450,       150.472,       46.9394,            0.,NA,NA,"",   1.55057E+06,   1.42706E+06,   1.42706E+06
C:/temp/Job-16.odb,Step-1,Increment      1: Step Time =    1.000,"P-16-1",          1451,       41.5468,       153.877,            0.,NA,NA,"",   1.34564E+06,   1.27414E+06,   1.27414E+06
C:/temp/Job-16.odb,Step-1,Increment      1: Step Time =    1.000,"P-16-1",          1452,       154.089,       158.628,            0.,NA,NA,"",   1.43921E+06,   1.34582E+06,   1.34582E+06
C:/temp/Job-16.odb,Step-1,Increment      1: Step Time =    1.000,"P-16-1",          1453,       156.252,       45.2359,            0.,NA,NA,"",   1.45860E+06,   1.35309E+06,   1.35309E+06
C:/temp/Job-16.odb,Step-1,Increment      1: Step Time =    1.000,"P-16-1",          1454,       166.854,       50.0296,            0.,NA,NA,"",   1.31935E+06,   1.25182E+06,   1.25182E+06
C:/temp/Job-16.odb,Step-1,Increment      1: Step Time =    1.000,"P-16-1",          1455,       45.9617,       33.5651,            0.,NA,NA,"",   1.49371E+06,   1.42611E+06,   1.42611E+06
C:/temp/Job-16.odb,Step-1,Increment      1: Step Time =    1.000,"P-16-1",          1456,       35.7598,       46.5135,            0.,NA,NA,"",   1.25228E+06,   1.20896E+06,   1.20896E+06
C:/temp/Job-16.odb,Step-1,Increment      1: Step Time =    1.000,"P-16-1",          1457,       150.271,       167.745,            0.,NA,NA,"",   1.34988E+06,   1.28961E+06,   1.28961E+06
C:/temp/Job-16.odb,Step-1,Increment      1: Step Time =    1.000,"P-16-1",          1458,       166.708,       153.661,            0.,NA,NA,"",   1.30917E+06,   1.24717E+06,   1.24717E+06
C:/temp/Job-16.odb,Step-1,Increment      1: Step Time =    1.000,"P-16-1",          1459,       155.033,       35.8236,            0.,NA,NA,"",   1.36614E+06,   1.29684E+06,   1.29684E+06
C:/temp/Job-16.odb,Step-1,Increment      1: Step Time =    1.000,"P-16-1",          1460,       35.5488,       155.430,            0.,NA,NA,"",   1.28851E+06,   1.24525E+06,   1.24525E+06
C:/temp/Job-16.odb,Step-1,Increment      1: Step Time =    1.000,"P-16-1",          1461,       149.915,       144.441,            0.,NA,NA,"",   1.62494E+06,   1.44739E+06,   1.44739E+06
C:/temp/Job-16.odb,Step-1,Increment      1: Step Time =    1.000,"P-16-1",          1462,       144.201,       48.3097,            0.,NA,NA,"",   1.63726E+06,   1.51124E+06,   1.51124E+06
C:/temp/Job-16.odb,Step-1,Increment      1: Step Time =    1.000,"P-16-1",          1463,       65.4394,       165.424,            0.,NA,NA,"",   1.59598E+06,   1.52441E+06,   1.52441E+06
C:/temp/Job-16.odb,Step-1,Increment      1: Step Time =    1.000,"P-16-1",          1464,       161.757,       45.6832,            0.,NA,NA,"",   1.38217E+06,   1.29581E+06,   1.29581E+06
C:/temp/Job-16.odb,Step-1,Increment      1: Step Time =    1.000,"P-16-1",          1465,       155.111,       163.173,            0.,NA,NA,"",   1.37549E+06,   1.30182E+06,   1.30182E+06
C:/temp/Job-16.odb,Step-1,Increment      1: Step Time =    1.000,"P-16-1",          1466,       38.8977,       156.995,            0.,NA,NA,"",   1.34943E+06,   1.29265E+06,   1.29265E+06
C:/temp/Job-16.odb,Step-1,Increment      1: Step Time =    1.000,"P-16-1",          1467,       61.9161,       39.9354,            0.,NA,NA,"",   1.61902E+06,   1.52670E+06,   1.52670E+06
C:/temp/Job-16.odb,Step-1,Increment      1: Step Time =    1.000,"P-16-1",          1468,       153.125,       41.2131,            0.,NA,NA,"",   1.45470E+06,   1.36166E+06,   1.36166E+06
C:/temp/Job-16.odb,Step-1,Increment      1: Step Time =    1.000,"P-16-1",          1469,       156.310,       152.985,            0.,NA,NA,"",   1.46736E+06,   1.35637E+06,   1.35637E+06
C:/temp/Job-16.odb,Step-1,Increment      1: Step Time =    1.000,"P-16-1",          1470,       42.8397,       50.4817,            0.,NA,NA,"",   1.30255E+06,   1.21793E+06,   1.21793E+06
C:/temp/Job-16.odb,Step-1,Increment      1: Step Time =    1.000,"P-16-1",          1471,       44.8664,       156.829,            0.,NA,NA,"",   1.41900E+06,   1.33902E+06,   1.33902E+06
C:/temp/Job-16.odb,Step-1,Increment      1: Step Time =    1.000,"P-16-1",          1472,       35.1625,       67.6796,            0.,NA,NA,"",   813.722E+03,   779.919E+03,   779.919E+03
C:/temp/Job-16.odb,Step-1,Increment      1: Step Time =    1.000,"P-16-1",          1473,       133.189,       34.0658,            0.,NA,NA,"",   1.43811E+06,   1.41958E+06,   1.41958E+06
C:/temp/Job-16.odb,Step-1,Increment      1: Step Time =    1.000,"P-16-1",          1474,       167.552,       133.396,            0.,NA,NA,"",   1.27467E+06,   1.18472E+06,   1.18472E+06
C:/temp/Job-16.odb,Step-1,Increment      1: Step Time =    1.000,"P-16-1",          1475,       40.7885,       72.3332,            0.,NA,NA,"",   766.467E+03,   692.523E+03,   692.523E+03
C:/temp/Job-16.odb,Step-1,Increment      1: Step Time =    1.000,"P-16-1",          1476,       125.570,       41.4722,            0.,NA,NA,"",   1.58409E+06,   1.61172E+06,   1.61172E+06
C:/temp/Job-16.odb,Step-1,Increment      1: Step Time =    1.000,"P-16-1",          1477,       44.8041,       67.9546,            0.,NA,NA,"",   944.223E+03,   835.084E+03,   835.084E+03
C:/temp/Job-16.odb,Step-1,Increment      1: Step Time =    1.000,"P-16-1",          1478,       129.491,       43.5560,            0.,NA,NA,"",   1.62560E+06,   1.61924E+06,   1.61924E+06
C:/temp/Job-16.odb,Step-1,Increment      1: Step Time =    1.000,"P-16-1",          1479,       159.776,       130.284,            0.,NA,NA,"",   1.35152E+06,   1.17723E+06,   1.17723E+06
C:/temp/Job-16.odb,Step-1,Increment      1: Step Time =    1.000,"P-16-1",          1480,       53.5180,       39.9332,            0.,NA,NA,"",   1.54961E+06,   1.45319E+06,   1.45319E+06
C:/temp/Job-16.odb,Step-1,Increment      1: Step Time =    1.000,"P-16-1",          1481,       58.7885,       44.7618,            0.,NA,NA,"",   1.59380E+06,   1.48414E+06,   1.48414E+06
C:/temp/Job-16.odb,Step-1,Increment      1: Step Time =    1.000,"P-16-1",          1482,       162.477,       155.512,            0.,NA,NA,"",   1.35674E+06,   1.27958E+06,   1.27958E+06
C:/temp/Job-16.odb,Step-1,Increment      1: Step Time =    1.000,"P-16-1",          1483,       155.630,       39.1099,            0.,NA,NA,"",   1.40379E+06,   1.32204E+06,   1.32204E+06
C:/temp/Job-16.odb,Step-1,Increment      1: Step Time =    1.000,"P-16-1",          1484,       63.7682,       169.005,            0.,NA,NA,"",   1.56645E+06,   1.49911E+06,   1.49911E+06
C:/temp/Job-16.odb,Step-1,Increment      1: Step Time =    1.000,"P-16-1",          1485,       46.9525,       51.2981,            0.,NA,NA,"",   1.35131E+06,   1.24753E+06,   1.24753E+06
C:/temp/Job-16.odb,Step-1,Increment      1: Step Time =    1.000,"P-16-1",          1486,       49.8602,       153.044,            0.,NA,NA,"",   1.45279E+06,   1.34835E+06,   1.34835E+06
C:/temp/Job-16.odb,Step-1,Increment      1: Step Time =    1.000,"P-16-1",          1487,       46.7846,       160.955,            0.,NA,NA,"",   1.47583E+06,   1.39515E+06,   1.39515E+06
C:/temp/Job-16.odb,Step-1,Increment      1: Step Time =    1.000,"P-16-1",          1488,       48.3472,       165.270,            0.,NA,NA,"",   1.50921E+06,   1.43409E+06,   1.43409E+06
C:/temp/Job-16.odb,Step-1,Increment      1: Step Time =    1.000,"P-16-1",          1489,       66.8709,       46.2433,            0.,NA,NA,"",   1.68151E+06,   1.59049E+06,   1.59049E+06
C:/temp/Job-16.odb,Step-1,Increment      1: Step Time =    1.000,"P-16-1",          1490,       47.6728,       47.1588,            0.,NA,NA,"",   1.41957E+06,   1.32038E+06,   1.32038E+06
C:/temp/Job-16.odb,Step-1,Increment      1: Step Time =    1.000,"P-16-1",          1491,       33.7310,       50.9136,            0.,NA,NA,"",   1.14850E+06,   1.11659E+06,   1.11659E+06
C:/temp/Job-16.odb,Step-1,Increment      1: Step Time =    1.000,"P-16-1",          1492,       150.688,       32.7464,            0.,NA,NA,"",   1.35531E+06,   1.29505E+06,   1.29505E+06
C:/temp/Job-16.odb,Step-1,Increment      1: Step Time =    1.000,"P-16-1",          1493,       164.559,       149.521,            0.,NA,NA,"",   1.36724E+06,   1.28046E+06,   1.28046E+06
C:/temp/Job-16.odb,Step-1,Increment      1: Step Time =    1.000,"P-16-1",          1494,       49.4965,       38.9612,            0.,NA,NA,"",   1.50906E+06,   1.42090E+06,   1.42090E+06
C:/temp/Job-16.odb,Step-1,Increment      1: Step Time =    1.000,"P-16-1",          1495,       61.8651,       162.755,            0.,NA,NA,"",   1.59979E+06,   1.51420E+06,   1.51420E+06
C:/temp/Job-16.odb,Step-1,Increment      1: Step Time =    1.000,"P-16-1",          1496,       57.3729,       165.869,            0.,NA,NA,"",   1.56864E+06,   1.48653E+06,   1.48653E+06
C:/temp/Job-16.odb,Step-1,Increment      1: Step Time =    1.000,"P-16-1",          1497,       60.0280,       49.6762,            0.,NA,NA,"",   1.58642E+06,   1.46397E+06,   1.46397E+06
C:/temp/Job-16.odb,Step-1,Increment      1: Step Time =    1.000,"P-16-1",          1498,       48.5915,       43.1999,            0.,NA,NA,"",   1.47328E+06,   1.37815E+06,   1.37815E+06
C:/temp/Job-16.odb,Step-1,Increment      1: Step Time =    1.000,"P-16-1",          1499,       58.8008,       169.167,            0.,NA,NA,"",   1.55806E+06,   1.48546E+06,   1.48546E+06
C:/temp/Job-16.odb,Step-1,Increment      1: Step Time =    1.000,"P-16-1",          1500,       52.7328,       163.743,            0.,NA,NA,"",   1.54082E+06,   1.45536E+06,   1.45536E+06
C:/temp/Job-16.odb,Step-1,Increment      1: Step Time =    1.000,"P-16-1",          1501,       45.4260,       38.3064,            0.,NA,NA,"",   1.46817E+06,   1.39249E+06,   1.39249E+06
C:/temp/Job-16.odb,Step-1,Increment      1: Step Time =    1.000,"P-16-1",          1502,       52.2187,       48.0875,            0.,NA,NA,"",   1.48227E+06,   1.36618E+06,   1.36618E+06
C:/temp/Job-16.odb,Step-1,Increment      1: Step Time =    1.000,"P-16-1",          1503,       71.7997,       40.6417,            0.,NA,NA,"",   1.66942E+06,   1.61746E+06,   1.61746E+06
C:/temp/Job-16.odb,Step-1,Increment      1: Step Time =    1.000,"P-16-1",          1504,       59.8558,       54.0092,            0.,NA,NA,"",   1.53478E+06,   1.40023E+06,   1.40023E+06
C:/temp/Job-16.odb,Step-1,Increment      1: Step Time =    1.000,"P-16-1",          1505,       53.1622,       142.556,            0.,NA,NA,"",   1.34409E+06,   1.20635E+06,   1.20635E+06
C:/temp/Job-16.odb,Step-1,Increment      1: Step Time =    1.000,"P-16-1",          1506,       147.555,       57.3079,            0.,NA,NA,"",   1.65703E+06,   1.46432E+06,   1.46432E+06
C:/temp/Job-16.odb,Step-1,Increment      1: Step Time =    1.000,"P-16-1",          1507,       142.371,       145.453,            0.,NA,NA,"",   1.71430E+06,   1.55594E+06,   1.55594E+06
C:/temp/Job-16.odb,Step-1,Increment      1: Step Time =    1.000,"P-16-1",          1508,       90.2505,       19.8285,            0.,NA,NA,"",   1.21018E+06,   1.23983E+06,   1.23983E+06
C:/temp/Job-16.odb,Step-1,Increment      1: Step Time =    1.000,"P-16-1",          1509,       21.7891,       114.101,            0.,NA,NA,"",   351.066E+03,   397.901E+03,   397.901E+03
C:/temp/Job-16.odb,Step-1,Increment      1: Step Time =    1.000,"P-16-1",          1510,       180.048,       89.8812,            0.,NA,NA,"",   780.514E+03,   892.705E+03,   892.705E+03
C:/temp/Job-16.odb,Step-1,Increment      1: Step Time =    1.000,"P-16-1",          1511,       110.956,       180.625,            0.,NA,NA,"",   1.07860E+06,   1.12347E+06,   1.12347E+06
C:/temp/Job-16.odb,Step-1,Increment      1: Step Time =    1.000,"P-16-1",          1512,       56.4531,       49.1107,            0.,NA,NA,"",   1.53663E+06,   1.41264E+06,   1.41264E+06
C:/temp/Job-16.odb,Step-1,Increment      1: Step Time =    1.000,"P-16-1",          1513,       25.1986,       8.84280,            0.,NA,NA,"",   1.60392E+06,   1.60560E+06,   1.60560E+06
C:/temp/Job-16.odb,Step-1,Increment      1: Step Time =    1.000,"P-16-1",          1514,       9.66821,       174.360,            0.,NA,NA,"",   1.28954E+06,   1.38763E+06,   1.38763E+06
C:/temp/Job-16.odb,Step-1,Increment      1: Step Time =    1.000,"P-16-1",          1515,       192.107,       29.2450,            0.,NA,NA,"",   996.704E+03,   1.01508E+06,   1.01508E+06
C:/temp/Job-16.odb,Step-1,Increment      1: Step Time =    1.000,"P-16-1",          1516,       170.751,       192.092,            0.,NA,NA,"",   1.01802E+06,   1.01631E+06,   1.01631E+06
C:/temp/Job-16.odb,Step-1,Increment      1: Step Time =    1.000,"P-16-1",          1517,       87.6430,       166.713,            0.,NA,NA,"",   1.48181E+06,   1.53544E+06,   1.53544E+06
C:/temp/Job-16.odb,Step-1,Increment      1: Step Time =    1.000,"P-16-1",          1518,       128.750,       146.237,            0.,NA,NA,"",   1.81431E+06,   1.80097E+06,   1.80097E+06
C:/temp/Job-16.odb,Step-1,Increment      1: Step Time =    1.000,"P-16-1",          1519,       145.281,       75.1122,            0.,NA,NA,"",   1.34669E+06,   1.00917E+06,   1.00917E+06
C:/temp/Job-16.odb,Step-1,Increment      1: Step Time =    1.000,"P-16-1",          1520,       54.6871,       125.623,            0.,NA,NA,"",   818.634E+03,   623.390E+03,   623.390E+03
C:/temp/Job-16.odb,Step-1,Increment      1: Step Time =    1.000,"P-16-1",          1521,       186.547,       57.5391,            0.,NA,NA,"",   1.01010E+06,   1.08571E+06,   1.08571E+06
C:/temp/Job-16.odb,Step-1,Increment      1: Step Time =    1.000,"P-16-1",          1522,       57.7422,       11.6436,            0.,NA,NA,"",   1.39286E+06,   1.37386E+06,   1.37386E+06
C:/temp/Job-16.odb,Step-1,Increment      1: Step Time =    1.000,"P-16-1",          1523,       142.609,       186.744,            0.,NA,NA,"",   1.06526E+06,   1.05259E+06,   1.05259E+06
C:/temp/Job-16.odb,Step-1,Increment      1: Step Time =    1.000,"P-16-1",          1524,       11.6318,       143.830,            0.,NA,NA,"",   816.709E+03,   886.901E+03,   886.901E+03
C:/temp/Job-16.odb,Step-1,Increment      1: Step Time =    1.000,"P-16-1",          1525,       47.7303,       9.66018,            0.,NA,NA,"",   1.45929E+06,   1.44670E+06,   1.44670E+06
C:/temp/Job-16.odb,Step-1,Increment      1: Step Time =    1.000,"P-16-1",          1526,       189.003,       46.6515,            0.,NA,NA,"",   994.257E+03,   1.05277E+06,   1.05277E+06
C:/temp/Job-16.odb,Step-1,Increment      1: Step Time =    1.000,"P-16-1",          1527,       153.354,       189.034,            0.,NA,NA,"",   1.04171E+06,   1.03191E+06,   1.03191E+06
C:/temp/Job-16.odb,Step-1,Increment      1: Step Time =    1.000,"P-16-1",          1528,       7.71145,       151.925,            0.,NA,NA,"",   913.938E+03,   1.00423E+06,   1.00423E+06
C:/temp/Job-16.odb,Step-1,Increment      1: Step Time =    1.000,"P-16-1",          1529,       5.06880,       4.99024,            0.,NA,NA,"",   1.89661E+06,   1.97083E+06,   1.97083E+06
C:/temp/Job-16.odb,Step-1,Increment      1: Step Time =    1.000,"P-16-1",          1530,       83.8770,       140.128,            0.,NA,NA,"",   2.17908E+06,   2.23768E+06,   2.23768E+06
C:/temp/Job-16.odb,Step-1,Increment      1: Step Time =    1.000,"P-16-1",          1531,       43.5681,       9.25441,            0.,NA,NA,"",   1.48838E+06,   1.47868E+06,   1.47868E+06
C:/temp/Job-16.odb,Step-1,Increment      1: Step Time =    1.000,"P-16-1",          1532,       9.97497,       26.0396,            0.,NA,NA,"",   1.28665E+06,   1.38364E+06,   1.38364E+06
C:/temp/Job-16.odb,Step-1,Increment      1: Step Time =    1.000,"P-16-1",          1533,       50.7289,       190.945,            0.,NA,NA,"",   1.43756E+06,   1.42567E+06,   1.42567E+06
C:/temp/Job-16.odb,Step-1,Increment      1: Step Time =    1.000,"P-16-1",          1534,       149.116,       8.60236,            0.,NA,NA,"",   1.00888E+06,   1.00203E+06,   1.00203E+06
C:/temp/Job-16.odb,Step-1,Increment      1: Step Time =    1.000,"P-16-1",          1535,       191.546,       149.418,            0.,NA,NA,"",   957.627E+03,   1.03708E+06,   1.03708E+06
C:/temp/Job-16.odb,Step-1,Increment      1: Step Time =    1.000,"P-16-1",          1536,       191.443,       20.1817,            0.,NA,NA,"",   1.00359E+06,   1.01000E+06,   1.01000E+06
C:/temp/Job-16.odb,Step-1,Increment      1: Step Time =    1.000,"P-16-1",          1537,       179.813,       191.428,            0.,NA,NA,"",   1.01000E+06,   1.01063E+06,   1.01063E+06
C:/temp/Job-16.odb,Step-1,Increment      1: Step Time =    1.000,"P-16-1",          1538,       8.38436,       155.473,            0.,NA,NA,"",   972.944E+03,   1.06471E+06,   1.06471E+06
C:/temp/Job-16.odb,Step-1,Increment      1: Step Time =    1.000,"P-16-1",          1539,       112.920,       144.923,            0.,NA,NA,"",   2.27752E+06,   2.41933E+06,   2.41933E+06
C:/temp/Job-16.odb,Step-1,Increment      1: Step Time =    1.000,"P-16-1",          1540,       39.4037,       184.158,            0.,NA,NA,"",   1.50447E+06,   1.48647E+06,   1.48647E+06
C:/temp/Job-16.odb,Step-1,Increment      1: Step Time =    1.000,"P-16-1",          1541,       58.5209,       76.8837,            0.,NA,NA,"",   701.130E+03,   326.249E+03,   326.249E+03
C:/temp/Job-16.odb,Step-1,Increment      1: Step Time =    1.000,"P-16-1",          1542,       143.881,       179.323,            0.,NA,NA,"",   1.18630E+06,   1.16089E+06,   1.16089E+06
C:/temp/Job-16.odb,Step-1,Increment      1: Step Time =    1.000,"P-16-1",          1543,       132.966,       185.428,            0.,NA,NA,"",   1.06035E+06,   1.05613E+06,   1.05613E+06
C:/temp/Job-16.odb,Step-1,Increment      1: Step Time =    1.000,"P-16-1",          1544,       62.6624,       13.5382,            0.,NA,NA,"",   1.37265E+06,   1.34954E+06,   1.34954E+06
C:/temp/Job-16.odb,Step-1,Increment      1: Step Time =    1.000,"P-16-1",          1545,       56.9651,       18.1879,            0.,NA,NA,"",   1.45397E+06,   1.41697E+06,   1.41697E+06
C:/temp/Job-16.odb,Step-1,Increment      1: Step Time =    1.000,"P-16-1",          1546,       178.961,       56.2972,            0.,NA,NA,"",   1.12666E+06,   1.14673E+06,   1.14673E+06
C:/temp/Job-16.odb,Step-1,Increment      1: Step Time =    1.000,"P-16-1",          1547,       185.067,       67.3349,            0.,NA,NA,"",   993.551E+03,   1.08751E+06,   1.08751E+06
C:/temp/Job-16.odb,Step-1,Increment      1: Step Time =    1.000,"P-16-1",          1548,       181.582,       154.301,            0.,NA,NA,"",   1.08959E+06,   1.11049E+06,   1.11049E+06
C:/temp/Job-16.odb,Step-1,Increment      1: Step Time =    1.000,"P-16-1",          1549,       155.464,       17.9260,            0.,NA,NA,"",   1.12493E+06,   1.10451E+06,   1.10451E+06
C:/temp/Job-16.odb,Step-1,Increment      1: Step Time =    1.000,"P-16-1",          1550,       125.830,       150.199,            0.,NA,NA,"",   1.76767E+06,   1.79672E+06,   1.79672E+06
C:/temp/Job-16.odb,Step-1,Increment      1: Step Time =    1.000,"P-16-1",          1551,       14.0155,       31.3198,            0.,NA,NA,"",   1.24390E+06,   1.31747E+06,   1.31747E+06
C:/temp/Job-16.odb,Step-1,Increment      1: Step Time =    1.000,"P-16-1",          1552,       14.3014,       35.5604,            0.,NA,NA,"",   1.17608E+06,   1.24757E+06,   1.24757E+06
C:/temp/Job-16.odb,Step-1,Increment      1: Step Time =    1.000,"P-16-1",          1553,       51.4695,       17.7579,            0.,NA,NA,"",   1.47319E+06,   1.43957E+06,   1.43957E+06
C:/temp/Job-16.odb,Step-1,Increment      1: Step Time =    1.000,"P-16-1",          1554,       18.1363,       22.0717,            0.,NA,NA,"",   1.43258E+06,   1.47859E+06,   1.47859E+06
C:/temp/Job-16.odb,Step-1,Increment      1: Step Time =    1.000,"P-16-1",          1555,       183.255,       22.1455,            0.,NA,NA,"",   1.03101E+06,   1.03694E+06,   1.03694E+06
C:/temp/Job-16.odb,Step-1,Increment      1: Step Time =    1.000,"P-16-1",          1556,       177.816,       183.164,            0.,NA,NA,"",   1.03990E+06,   1.03949E+06,   1.03949E+06
C:/temp/Job-16.odb,Step-1,Increment      1: Step Time =    1.000,"P-16-1",          1557,       149.714,       180.411,            0.,NA,NA,"",   1.16224E+06,   1.13635E+06,   1.13635E+06
C:/temp/Job-16.odb,Step-1,Increment      1: Step Time =    1.000,"P-16-1",          1558,       180.237,       50.3784,            0.,NA,NA,"",   1.11028E+06,   1.13044E+06,   1.13044E+06
C:/temp/Job-16.odb,Step-1,Increment      1: Step Time =    1.000,"P-16-1",          1559,       46.2732,       17.5719,            0.,NA,NA,"",   1.48961E+06,   1.45910E+06,   1.45910E+06
C:/temp/Job-16.odb,Step-1,Increment      1: Step Time =    1.000,"P-16-1",          1560,       62.6265,       18.4861,            0.,NA,NA,"",   1.43301E+06,   1.39654E+06,   1.39654E+06
C:/temp/Job-16.odb,Step-1,Increment      1: Step Time =    1.000,"P-16-1",          1561,       56.2227,       24.6833,            0.,NA,NA,"",   1.50741E+06,   1.45197E+06,   1.45197E+06
C:/temp/Job-16.odb,Step-1,Increment      1: Step Time =    1.000,"P-16-1",          1562,       29.9578,       13.0960,            0.,NA,NA,"",   1.55176E+06,   1.54790E+06,   1.54790E+06
C:/temp/Job-16.odb,Step-1,Increment      1: Step Time =    1.000,"P-16-1",          1563,       16.0081,       142.518,            0.,NA,NA,"",   826.907E+03,   882.826E+03,   882.826E+03
C:/temp/Job-16.odb,Step-1,Increment      1: Step Time =    1.000,"P-16-1",          1564,       18.3152,       146.391,            0.,NA,NA,"",   915.623E+03,   964.494E+03,   964.494E+03
C:/temp/Job-16.odb,Step-1,Increment      1: Step Time =    1.000,"P-16-1",          1565,       42.3884,       180.318,            0.,NA,NA,"",   1.49563E+06,   1.46523E+06,   1.46523E+06
C:/temp/Job-16.odb,Step-1,Increment      1: Step Time =    1.000,"P-16-1",          1566,       76.5753,       156.661,            0.,NA,NA,"",   1.71170E+06,   1.69238E+06,   1.69238E+06
C:/temp/Job-16.odb,Step-1,Increment      1: Step Time =    1.000,"P-16-1",          1567,       71.3331,       150.541,            0.,NA,NA,"",   1.71602E+06,   1.64993E+06,   1.64993E+06
C:/temp/Job-16.odb,Step-1,Increment      1: Step Time =    1.000,"P-16-1",          1568,       98.7624,       156.651,            0.,NA,NA,"",   1.67405E+06,   1.81957E+06,   1.81957E+06
C:/temp/Job-16.odb,Step-1,Increment      1: Step Time =    1.000,"P-16-1",          1569,       20.0027,       39.5300,            0.,NA,NA,"",   1.17596E+06,   1.21761E+06,   1.21761E+06
C:/temp/Job-16.odb,Step-1,Increment      1: Step Time =    1.000,"P-16-1",          1570,       156.380,       22.0324,            0.,NA,NA,"",   1.17349E+06,   1.14516E+06,   1.14516E+06
C:/temp/Job-16.odb,Step-1,Increment      1: Step Time =    1.000,"P-16-1",          1571,       137.311,       59.8551,            0.,NA,NA,"",   1.75872E+06,   1.60993E+06,   1.60993E+06
C:/temp/Job-16.odb,Step-1,Increment      1: Step Time =    1.000,"P-16-1",          1572,       112.117,       48.4553,            0.,NA,NA,"",   1.84881E+06,   1.99693E+06,   1.99693E+06
C:/temp/Job-16.odb,Step-1,Increment      1: Step Time =    1.000,"P-16-1",          1573,       49.1757,       81.8737,            0.,NA,NA,"",   540.417E+03,   233.050E+03,   233.050E+03
C:/temp/Job-16.odb,Step-1,Increment      1: Step Time =    1.000,"P-16-1",          1574,       75.4919,       55.2781,            0.,NA,NA,"",   1.76360E+06,   1.73744E+06,   1.73744E+06
C:/temp/Job-16.odb,Step-1,Increment      1: Step Time =    1.000,"P-16-1",          1575,       48.8554,       77.8622,            0.,NA,NA,"",   683.639E+03,   518.872E+03,   518.872E+03
C:/temp/Job-16.odb,Step-1,Increment      1: Step Time =    1.000,"P-16-1",          1576,       110.098,       44.4984,            0.,NA,NA,"",   1.69740E+06,   1.84660E+06,   1.84660E+06
C:/temp/Job-16.odb,Step-1,Increment      1: Step Time =    1.000,"P-16-1",          1577,       152.078,       23.4569,            0.,NA,NA,"",   1.21007E+06,   1.17664E+06,   1.17664E+06
C:/temp/Job-16.odb,Step-1,Increment      1: Step Time =    1.000,"P-16-1",          1578,       177.249,       155.296,            0.,NA,NA,"",   1.14570E+06,   1.14425E+06,   1.14425E+06
C:/temp/Job-16.odb,Step-1,Increment      1: Step Time =    1.000,"P-16-1",          1579,       17.4258,       179.764,            0.,NA,NA,"",   1.47472E+06,   1.52101E+06,   1.52101E+06
C:/temp/Job-16.odb,Step-1,Increment      1: Step Time =    1.000,"P-16-1",          1580,       146.800,       16.7544,            0.,NA,NA,"",   1.11736E+06,   1.09852E+06,   1.09852E+06
C:/temp/Job-16.odb,Step-1,Increment      1: Step Time =    1.000,"P-16-1",          1581,       182.817,       34.9078,            0.,NA,NA,"",   1.05355E+06,   1.06944E+06,   1.06944E+06
C:/temp/Job-16.odb,Step-1,Increment      1: Step Time =    1.000,"P-16-1",          1582,       184.424,       26.0125,            0.,NA,NA,"",   1.03148E+06,   1.04122E+06,   1.04122E+06
C:/temp/Job-16.odb,Step-1,Increment      1: Step Time =    1.000,"P-16-1",          1583,       165.004,       182.779,            0.,NA,NA,"",   1.08739E+06,   1.07493E+06,   1.07493E+06
C:/temp/Job-16.odb,Step-1,Increment      1: Step Time =    1.000,"P-16-1",          1584,       173.954,       184.346,            0.,NA,NA,"",   1.04866E+06,   1.04526E+06,   1.04526E+06
C:/temp/Job-16.odb,Step-1,Increment      1: Step Time =    1.000,"P-16-1",          1585,       168.724,       184.108,            0.,NA,NA,"",   1.06686E+06,   1.05868E+06,   1.05868E+06
C:/temp/Job-16.odb,Step-1,Increment      1: Step Time =    1.000,"P-16-1",          1586,       184.171,       31.2146,            0.,NA,NA,"",   1.03811E+06,   1.05302E+06,   1.05302E+06
C:/temp/Job-16.odb,Step-1,Increment      1: Step Time =    1.000,"P-16-1",          1587,       151.136,       174.957,            0.,NA,NA,"",   1.23621E+06,   1.19792E+06,   1.19792E+06
C:/temp/Job-16.odb,Step-1,Increment      1: Step Time =    1.000,"P-16-1",          1588,       18.5813,       24.9354,            0.,NA,NA,"",   1.38740E+06,   1.43246E+06,   1.43246E+06
C:/temp/Job-16.odb,Step-1,Increment      1: Step Time =    1.000,"P-16-1",          1589,       174.646,       48.9776,            0.,NA,NA,"",   1.19241E+06,   1.17619E+06,   1.17619E+06
C:/temp/Job-16.odb,Step-1,Increment      1: Step Time =    1.000,"P-16-1",          1590,       180.448,       168.357,            0.,NA,NA,"",   1.07124E+06,   1.07744E+06,   1.07744E+06
C:/temp/Job-16.odb,Step-1,Increment      1: Step Time =    1.000,"P-16-1",          1591,       168.697,       19.3423,            0.,NA,NA,"",   1.09180E+06,   1.08044E+06,   1.08044E+06
C:/temp/Job-16.odb,Step-1,Increment      1: Step Time =    1.000,"P-16-1",          1592,       18.2622,       56.3345,            0.,NA,NA,"",   871.235E+03,   918.173E+03,   918.173E+03
C:/temp/Job-16.odb,Step-1,Increment      1: Step Time =    1.000,"P-16-1",          1593,       18.5349,       64.4386,            0.,NA,NA,"",   716.285E+03,   764.329E+03,   764.329E+03
C:/temp/Job-16.odb,Step-1,Increment      1: Step Time =    1.000,"P-16-1",          1594,       128.884,       181.577,            0.,NA,NA,"",   1.11816E+06,   1.12127E+06,   1.12127E+06
C:/temp/Job-16.odb,Step-1,Increment      1: Step Time =    1.000,"P-16-1",          1595,       181.024,       71.6320,            0.,NA,NA,"",   1.01322E+06,   1.08782E+06,   1.08782E+06
C:/temp/Job-16.odb,Step-1,Increment      1: Step Time =    1.000,"P-16-1",          1596,       43.0921,       183.219,            0.,NA,NA,"",   1.49102E+06,   1.46704E+06,   1.46704E+06
C:/temp/Job-16.odb,Step-1,Increment      1: Step Time =    1.000,"P-16-1",          1597,       39.3519,       107.488,            0.,NA,NA,"",   206.963E+03,   191.094E+03,   191.094E+03
C:/temp/Job-16.odb,Step-1,Increment      1: Step Time =    1.000,"P-16-1",          1598,       40.9874,       97.7102,            0.,NA,NA,"",   109.945E+03,   70.6576E+03,   70.6576E+03
C:/temp/Job-16.odb,Step-1,Increment      1: Step Time =    1.000,"P-16-1",          1599,       37.8114,       18.4010,            0.,NA,NA,"",   1.50518E+06,   1.48390E+06,   1.48390E+06
C:/temp/Job-16.odb,Step-1,Increment      1: Step Time =    1.000,"P-16-1",          1600,       142.171,       126.993,            0.,NA,NA,"",   1.41452E+06,   1.10551E+06,   1.10551E+06
C:/temp/Job-16.odb,Step-1,Increment      1: Step Time =    1.000,"P-16-1",          1601,       145.284,       136.625,            0.,NA,NA,"",   1.66489E+06,   1.42684E+06,   1.42684E+06
C:/temp/Job-16.odb,Step-1,Increment      1: Step Time =    1.000,"P-16-1",          1602,       151.883,       110.459,            0.,NA,NA,"",   714.130E+03,   53.4745E+03,   53.4745E+03
C:/temp/Job-16.odb,Step-1,Increment      1: Step Time =    1.000,"P-16-1",          1603,       19.1281,       90.5639,            0.,NA,NA,"",   300.992E+03,   346.656E+03,   346.656E+03
C:/temp/Job-16.odb,Step-1,Increment      1: Step Time =    1.000,"P-16-1",          1604,       19.5167,       94.3942,            0.,NA,NA,"",   267.940E+03,   307.061E+03,   307.061E+03
C:/temp/Job-16.odb,Step-1,Increment      1: Step Time =    1.000,"P-16-1",          1605,       18.4202,       124.956,            0.,NA,NA,"",   517.069E+03,   568.383E+03,   568.383E+03
C:/temp/Job-16.odb,Step-1,Increment      1: Step Time =    1.000,"P-16-1",          1606,       19.2831,       141.499,            0.,NA,NA,"",   837.437E+03,   882.602E+03,   882.602E+03
C:/temp/Job-16.odb,Step-1,Increment      1: Step Time =    1.000,"P-16-1",          1607,       21.8614,       143.786,            0.,NA,NA,"",   901.166E+03,   935.421E+03,   935.421E+03
C:/temp/Job-16.odb,Step-1,Increment      1: Step Time =    1.000,"P-16-1",          1608,       25.0347,       146.636,            0.,NA,NA,"",   989.343E+03,   1.00571E+06,   1.00571E+06
C:/temp/Job-16.odb,Step-1,Increment      1: Step Time =    1.000,"P-16-1",          1609,       49.6850,       133.125,            0.,NA,NA,"",   1.06281E+06,   918.423E+03,   918.423E+03
C:/temp/Job-16.odb,Step-1,Increment      1: Step Time =    1.000,"P-16-1",          1610,       73.1225,       157.946,            0.,NA,NA,"",   1.68867E+06,   1.64102E+06,   1.64102E+06
C:/temp/Job-16.odb,Step-1,Increment      1: Step Time =    1.000,"P-16-1",          1611,       50.9174,       72.5714,            0.,NA,NA,"",   883.023E+03,   725.598E+03,   725.598E+03
C:/temp/Job-16.odb,Step-1,Increment      1: Step Time =    1.000,"P-16-1",          1612,       54.8562,       57.3242,            0.,NA,NA,"",   1.38502E+06,   1.24082E+06,   1.24082E+06
C:/temp/Job-16.odb,Step-1,Increment      1: Step Time =    1.000,"P-16-1",          1613,       73.5107,       51.2073,            0.,NA,NA,"",   1.75460E+06,   1.70575E+06,   1.70575E+06
C:/temp/Job-16.odb,Step-1,Increment      1: Step Time =    1.000,"P-16-1",          1614,       84.3570,       43.3962,            0.,NA,NA,"",   1.71538E+06,   1.76823E+06,   1.76823E+06
C:/temp/Job-16.odb,Step-1,Increment      1: Step Time =    1.000,"P-16-1",          1615,       92.8542,       39.4260,            0.,NA,NA,"",   1.58021E+06,   1.68892E+06,   1.68892E+06
C:/temp/Job-16.odb,Step-1,Increment      1: Step Time =    1.000,"P-16-1",          1616,       109.183,       40.0742,            0.,NA,NA,"",   1.53444E+06,   1.67047E+06,   1.67047E+06
C:/temp/Job-16.odb,Step-1,Increment      1: Step Time =    1.000,"P-16-1",          1617,       112.856,       39.3970,            0.,NA,NA,"",   1.51624E+06,   1.63608E+06,   1.63608E+06
C:/temp/Job-16.odb,Step-1,Increment      1: Step Time =    1.000,"P-16-1",          1618,       132.067,       159.410,            0.,NA,NA,"",   1.56915E+06,   1.54655E+06,   1.54655E+06
C:/temp/Job-16.odb,Step-1,Increment      1: Step Time =    1.000,"P-16-1",          1619,       113.424,       157.246,            0.,NA,NA,"",   1.60848E+06,   1.73220E+06,   1.73220E+06
C:/temp/Job-16.odb,Step-1,Increment      1: Step Time =    1.000,"P-16-1",          1620,       44.6372,       178.342,            0.,NA,NA,"",   1.49621E+06,   1.45858E+06,   1.45858E+06
C:/temp/Job-16.odb,Step-1,Increment      1: Step Time =    1.000,"P-16-1",          1621,       25.6003,       43.7796,            0.,NA,NA,"",   1.16749E+06,   1.17950E+06,   1.17950E+06
C:/temp/Job-16.odb,Step-1,Increment      1: Step Time =    1.000,"P-16-1",          1622,       104.244,       160.269,            0.,NA,NA,"",   1.53510E+06,   1.67375E+06,   1.67375E+06
C:/temp/Job-16.odb,Step-1,Increment      1: Step Time =    1.000,"P-16-1",          1623,       134.247,       54.6271,            0.,NA,NA,"",   1.78520E+06,   1.69729E+06,   1.69729E+06
C:/temp/Job-16.odb,Step-1,Increment      1: Step Time =    1.000,"P-16-1",          1624,       155.750,       107.340,            0.,NA,NA,"",   557.747E+03,   237.543E+03,   237.543E+03
C:/temp/Job-16.odb,Step-1,Increment      1: Step Time =    1.000,"P-16-1",          1625,       55.6198,       53.2269,            0.,NA,NA,"",   1.47218E+06,   1.33756E+06,   1.33756E+06
C:/temp/Job-16.odb,Step-1,Increment      1: Step Time =    1.000,"P-16-1",          1626,       157.228,       26.2667,            0.,NA,NA,"",   1.22416E+06,   1.18637E+06,   1.18637E+06
C:/temp/Job-16.odb,Step-1,Increment      1: Step Time =    1.000,"P-16-1",          1627,       61.8771,       24.3715,            0.,NA,NA,"",   1.49956E+06,   1.44720E+06,   1.44720E+06
C:/temp/Job-16.odb,Step-1,Increment      1: Step Time =    1.000,"P-16-1",          1628,       56.5743,       31.3254,            0.,NA,NA,"",   1.54949E+06,   1.47507E+06,   1.47507E+06
C:/temp/Job-16.odb,Step-1,Increment      1: Step Time =    1.000,"P-16-1",          1629,       72.0356,       19.6529,            0.,NA,NA,"",   1.38858E+06,   1.36231E+06,   1.36231E+06
C:/temp/Job-16.odb,Step-1,Increment      1: Step Time =    1.000,"P-16-1",          1630,       141.704,       17.3358,            0.,NA,NA,"",   1.12860E+06,   1.11128E+06,   1.11128E+06
C:/temp/Job-16.odb,Step-1,Increment      1: Step Time =    1.000,"P-16-1",          1631,       44.2598,       20.5804,            0.,NA,NA,"",   1.49503E+06,   1.46144E+06,   1.46144E+06
C:/temp/Job-16.odb,Step-1,Increment      1: Step Time =    1.000,"P-16-1",          1632,       89.6569,       36.6681,            0.,NA,NA,"",   1.54257E+06,   1.62174E+06,   1.62174E+06
C:/temp/Job-16.odb,Step-1,Increment      1: Step Time =    1.000,"P-16-1",          1633,       177.019,       26.8069,            0.,NA,NA,"",   1.08397E+06,   1.08132E+06,   1.08132E+06
C:/temp/Job-16.odb,Step-1,Increment      1: Step Time =    1.000,"P-16-1",          1634,       173.018,       176.815,            0.,NA,NA,"",   1.09293E+06,   1.08448E+06,   1.08448E+06
C:/temp/Job-16.odb,Step-1,Increment      1: Step Time =    1.000,"P-16-1",          1635,       155.302,       175.999,            0.,NA,NA,"",   1.21126E+06,   1.17600E+06,   1.17600E+06
C:/temp/Job-16.odb,Step-1,Increment      1: Step Time =    1.000,"P-16-1",          1636,       175.841,       44.6949,            0.,NA,NA,"",   1.17243E+06,   1.16069E+06,   1.16069E+06
C:/temp/Job-16.odb,Step-1,Increment      1: Step Time =    1.000,"P-16-1",          1637,       21.9787,       28.1471,            0.,NA,NA,"",   1.36423E+06,   1.39348E+06,   1.39348E+06
C:/temp/Job-16.odb,Step-1,Increment      1: Step Time =    1.000,"P-16-1",          1638,       47.7726,       24.7872,            0.,NA,NA,"",   1.50404E+06,   1.45344E+06,   1.45344E+06
C:/temp/Job-16.odb,Step-1,Increment      1: Step Time =    1.000,"P-16-1",          1639,       40.4723,       23.9573,            0.,NA,NA,"",   1.49316E+06,   1.45752E+06,   1.45752E+06
C:/temp/Job-16.odb,Step-1,Increment      1: Step Time =    1.000,"P-16-1",          1640,       27.9852,       143.400,            0.,NA,NA,"",   962.621E+03,   964.313E+03,   964.313E+03
C:/temp/Job-16.odb,Step-1,Increment      1: Step Time =    1.000,"P-16-1",          1641,       35.9501,       109.613,            0.,NA,NA,"",   256.252E+03,   259.888E+03,   259.888E+03
C:/temp/Job-16.odb,Step-1,Increment      1: Step Time =    1.000,"P-16-1",          1642,       22.4542,       124.333,            0.,NA,NA,"",   518.937E+03,   562.038E+03,   562.038E+03
C:/temp/Job-16.odb,Step-1,Increment      1: Step Time =    1.000,"P-16-1",          1643,       28.5905,       133.300,            0.,NA,NA,"",   757.728E+03,   765.704E+03,   765.704E+03
C:/temp/Job-16.odb,Step-1,Increment      1: Step Time =    1.000,"P-16-1",          1644,       22.3912,       117.901,            0.,NA,NA,"",   411.245E+03,   457.523E+03,   457.523E+03
C:/temp/Job-16.odb,Step-1,Increment      1: Step Time =    1.000,"P-16-1",          1645,       41.1395,       128.117,            0.,NA,NA,"",   778.329E+03,   700.659E+03,   700.659E+03
C:/temp/Job-16.odb,Step-1,Increment      1: Step Time =    1.000,"P-16-1",          1646,       86.0168,       170.492,            0.,NA,NA,"",   1.43601E+06,   1.46949E+06,   1.46949E+06
C:/temp/Job-16.odb,Step-1,Increment      1: Step Time =    1.000,"P-16-1",          1647,       37.7370,       98.7283,            0.,NA,NA,"",   113.866E+03,   128.661E+03,   128.661E+03
C:/temp/Job-16.odb,Step-1,Increment      1: Step Time =    1.000,"P-16-1",          1648,       35.8945,       96.2278,            0.,NA,NA,"",   149.547E+03,   167.934E+03,   167.934E+03
C:/temp/Job-16.odb,Step-1,Increment      1: Step Time =    1.000,"P-16-1",          1649,       25.3041,       96.7532,            0.,NA,NA,"",   225.146E+03,   256.176E+03,   256.176E+03
C:/temp/Job-16.odb,Step-1,Increment      1: Step Time =    1.000,"P-16-1",          1650,       30.4758,       103.884,            0.,NA,NA,"",   193.539E+03,   221.656E+03,   221.656E+03
C:/temp/Job-16.odb,Step-1,Increment      1: Step Time =    1.000,"P-16-1",          1651,       23.5663,       76.7232,            0.,NA,NA,"",   504.588E+03,   544.393E+03,   544.393E+03
C:/temp/Job-16.odb,Step-1,Increment      1: Step Time =    1.000,"P-16-1",          1652,       21.2077,       57.0086,            0.,NA,NA,"",   889.466E+03,   923.694E+03,   923.694E+03
C:/temp/Job-16.odb,Step-1,Increment      1: Step Time =    1.000,"P-16-1",          1653,       161.697,       29.2163,            0.,NA,NA,"",   1.22646E+06,   1.18769E+06,   1.18769E+06
C:/temp/Job-16.odb,Step-1,Increment      1: Step Time =    1.000,"P-16-1",          1654,       154.336,       31.7755,            0.,NA,NA,"",   1.31687E+06,   1.26100E+06,   1.26100E+06
C:/temp/Job-16.odb,Step-1,Increment      1: Step Time =    1.000,"P-16-1",          1655,       170.307,       161.258,            0.,NA,NA,"",   1.21487E+06,   1.18362E+06,   1.18362E+06
C:/temp/Job-16.odb,Step-1,Increment      1: Step Time =    1.000,"P-16-1",          1656,       40.6287,       76.6908,            0.,NA,NA,"",   633.717E+03,   566.084E+03,   566.084E+03
C:/temp/Job-16.odb,Step-1,Increment      1: Step Time =    1.000,"P-16-1",          1657,       94.2453,       36.4758,            0.,NA,NA,"",   1.49084E+06,   1.59493E+06,   1.59493E+06
C:/temp/Job-16.odb,Step-1,Increment      1: Step Time =    1.000,"P-16-1",          1658,       92.4614,       33.6201,            0.,NA,NA,"",   1.44622E+06,   1.53151E+06,   1.53151E+06
C:/temp/Job-16.odb,Step-1,Increment      1: Step Time =    1.000,"P-16-1",          1659,       117.109,       36.5656,            0.,NA,NA,"",   1.45059E+06,   1.53706E+06,   1.53706E+06
C:/temp/Job-16.odb,Step-1,Increment      1: Step Time =    1.000,"P-16-1",          1660,       61.4614,       157.875,            0.,NA,NA,"",   1.61412E+06,   1.51577E+06,   1.51577E+06
C:/temp/Job-16.odb,Step-1,Increment      1: Step Time =    1.000,"P-16-1",          1661,       143.421,       52.4440,            0.,NA,NA,"",   1.68990E+06,   1.54033E+06,   1.54033E+06
C:/temp/Job-16.odb,Step-1,Increment      1: Step Time =    1.000,"P-16-1",          1662,       27.1595,       32.8874,            0.,NA,NA,"",   1.34721E+06,   1.34934E+06,   1.34934E+06
C:/temp/Job-16.odb,Step-1,Increment      1: Step Time =    1.000,"P-16-1",          1663,       30.8823,       44.8374,            0.,NA,NA,"",   1.21600E+06,   1.19941E+06,   1.19941E+06
C:/temp/Job-16.odb,Step-1,Increment      1: Step Time =    1.000,"P-16-1",          1664,       28.1032,       53.5367,            0.,NA,NA,"",   1.02248E+06,   1.02355E+06,   1.02355E+06
C:/temp/Job-16.odb,Step-1,Increment      1: Step Time =    1.000,"P-16-1",          1665,       62.6054,       30.1638,            0.,NA,NA,"",   1.55411E+06,   1.48783E+06,   1.48783E+06
C:/temp/Job-16.odb,Step-1,Increment      1: Step Time =    1.000,"P-16-1",          1666,       158.259,       100.875,            0.,NA,NA,"",   384.532E+03,   336.334E+03,   336.334E+03
C:/temp/Job-16.odb,Step-1,Increment      1: Step Time =    1.000,"P-16-1",          1667,       117.530,       160.991,            0.,NA,NA,"",   1.50884E+06,   1.60259E+06,   1.60259E+06
C:/temp/Job-16.odb,Step-1,Increment      1: Step Time =    1.000,"P-16-1",          1668,       46.6816,       173.687,            0.,NA,NA,"",   1.50234E+06,   1.45005E+06,   1.45005E+06
C:/temp/Job-16.odb,Step-1,Increment      1: Step Time =    1.000,"P-16-1",          1669,       29.1567,       148.924,            0.,NA,NA,"",   1.08354E+06,   1.07740E+06,   1.07740E+06
C:/temp/Job-16.odb,Step-1,Increment      1: Step Time =    1.000,"P-16-1",          1670,       146.855,       62.0082,            0.,NA,NA,"",   1.64258E+06,   1.41332E+06,   1.41332E+06
C:/temp/Job-16.odb,Step-1,Increment      1: Step Time =    1.000,"P-16-1",          1671,       159.807,       80.7228,            0.,NA,NA,"",   1.04876E+06,   890.773E+03,   890.773E+03
C:/temp/Job-16.odb,Step-1,Increment      1: Step Time =    1.000,"P-16-1",          1672,       46.5591,       170.457,            0.,NA,NA,"",   1.50478E+06,   1.44521E+06,   1.44521E+06
C:/temp/Job-16.odb,Step-1,Increment      1: Step Time =    1.000,"P-16-1",          1673,       177.688,       138.168,            0.,NA,NA,"",   1.13529E+06,   1.15206E+06,   1.15206E+06
C:/temp/Job-16.odb,Step-1,Increment      1: Step Time =    1.000,"P-16-1",          1674,       177.060,       134.729,            0.,NA,NA,"",   1.12632E+06,   1.14288E+06,   1.14288E+06
C:/temp/Job-16.odb,Step-1,Increment      1: Step Time =    1.000,"P-16-1",          1675,       24.9946,       88.2459,            0.,NA,NA,"",   311.260E+03,   353.837E+03,   353.837E+03
C:/temp/Job-16.odb,Step-1,Increment      1: Step Time =    1.000,"P-16-1",          1676,       43.9189,       23.8965,            0.,NA,NA,"",   1.49801E+06,   1.45686E+06,   1.45686E+06
C:/temp/Job-16.odb,Step-1,Increment      1: Step Time =    1.000,"P-16-1",          1677,       32.7507,       35.5632,            0.,NA,NA,"",   1.36690E+06,   1.34441E+06,   1.34441E+06
C:/temp/Job-16.odb,Step-1,Increment      1: Step Time =    1.000,"P-16-1",          1678,       150.539,       92.7289,            0.,NA,NA,"",   604.618E+03,  -81.7118E+03,  -81.7118E+03
C:/temp/Job-16.odb,Step-1,Increment      1: Step Time =    1.000,"P-16-1",          1679,       173.826,       45.9555,            0.,NA,NA,"",   1.20059E+06,   1.17911E+06,   1.17911E+06
C:/temp/Job-16.odb,Step-1,Increment      1: Step Time =    1.000,"P-16-1",          1680,       154.095,       174.124,            0.,NA,NA,"",   1.23698E+06,   1.19705E+06,   1.19705E+06
C:/temp/Job-16.odb,Step-1,Increment      1: Step Time =    1.000,"P-16-1",          1681,       25.2143,       159.648,            0.,NA,NA,"",   1.21907E+06,   1.23507E+06,   1.23507E+06
C:/temp/Job-16.odb,Step-1,Increment      1: Step Time =    1.000,"P-16-1",          1682,       147.094,       124.394,            0.,NA,NA,"",   1.35342E+06,   1.01469E+06,   1.01469E+06
C:/temp/Job-16.odb,Step-1,Increment      1: Step Time =    1.000,"P-16-1",          1683,       126.694,       172.352,            0.,NA,NA,"",   1.29258E+06,   1.31025E+06,   1.31025E+06
C:/temp/Job-16.odb,Step-1,Increment      1: Step Time =    1.000,"P-16-1",          1684,       65.8905,       161.966,            0.,NA,NA,"",   1.62460E+06,   1.54678E+06,   1.54678E+06
C:/temp/Job-16.odb,Step-1,Increment      1: Step Time =    1.000,"P-16-1",          1685,       72.5239,       24.7163,            0.,NA,NA,"",   1.46455E+06,   1.43253E+06,   1.43253E+06
C:/temp/Job-16.odb,Step-1,Increment      1: Step Time =    1.000,"P-16-1",          1686,       59.0538,       176.495,            0.,NA,NA,"",   1.49557E+06,   1.44451E+06,   1.44451E+06
C:/temp/Job-16.odb,Step-1,Increment      1: Step Time =    1.000,"P-16-1",          1687,       63.1926,       175.216,            0.,NA,NA,"",   1.50062E+06,   1.44892E+06,   1.44892E+06
C:/temp/Job-16.odb,Step-1,Increment      1: Step Time =    1.000,"P-16-1",          1688,       26.7805,       110.563,            0.,NA,NA,"",   290.403E+03,   327.758E+03,   327.758E+03
C:/temp/Job-16.odb,Step-1,Increment      1: Step Time =    1.000,"P-16-1",          1689,       116.987,       41.3291,            0.,NA,NA,"",   1.56956E+06,   1.66943E+06,   1.66943E+06
C:/temp/Job-16.odb,Step-1,Increment      1: Step Time =    1.000,"P-16-1",          1690,       149.548,       158.776,            0.,NA,NA,"",   1.48652E+06,   1.39017E+06,   1.39017E+06
C:/temp/Job-16.odb,Step-1,Increment      1: Step Time =    1.000,"P-16-1",          1691,       28.5728,       76.4518,            0.,NA,NA,"",   537.474E+03,   556.008E+03,   556.008E+03
C:/temp/Job-16.odb,Step-1,Increment      1: Step Time =    1.000,"P-16-1",          1692,       30.9405,       31.8315,            0.,NA,NA,"",   1.39505E+06,   1.38038E+06,   1.38038E+06
C:/temp/Job-16.odb,Step-1,Increment      1: Step Time =    1.000,"P-16-1",          1693,       81.9095,       176.146,            0.,NA,NA,"",   1.37480E+06,   1.37748E+06,   1.37748E+06
C:/temp/Job-16.odb,Step-1,Increment      1: Step Time =    1.000,"P-16-1",          1694,       85.4500,       175.998,            0.,NA,NA,"",   1.34103E+06,   1.35986E+06,   1.35986E+06
C:/temp/Job-16.odb,Step-1,Increment      1: Step Time =    1.000,"P-16-1",          1695,       116.157,       175.506,            0.,NA,NA,"",   1.18663E+06,   1.23945E+06,   1.23945E+06
C:/temp/Job-16.odb,Step-1,Increment      1: Step Time =    1.000,"P-16-1",          1696,       141.526,       30.5860,            0.,NA,NA,"",   1.36295E+06,   1.31970E+06,   1.31970E+06
C:/temp/Job-16.odb,Step-1,Increment      1: Step Time =    1.000,"P-16-1",          1697,       31.0134,       140.803,            0.,NA,NA,"",   946.276E+03,   932.187E+03,   932.187E+03
C:/temp/Job-16.odb,Step-1,Increment      1: Step Time =    1.000,"P-16-1",          1698,       33.8313,       143.099,            0.,NA,NA,"",   1.03770E+06,   1.00500E+06,   1.00500E+06
C:/temp/Job-16.odb,Step-1,Increment      1: Step Time =    1.000,"P-16-1",          1699,       54.7133,       35.5712,            0.,NA,NA,"",   1.55456E+06,   1.46975E+06,   1.46975E+06
C:/temp/Job-16.odb,Step-1,Increment      1: Step Time =    1.000,"P-16-1",          1700,       37.9871,       130.168,            0.,NA,NA,"",   797.197E+03,   743.130E+03,   743.130E+03
C:/temp/Job-16.odb,Step-1,Increment      1: Step Time =    1.000,"P-16-1",          1701,       31.9123,       111.565,            0.,NA,NA,"",   297.406E+03,   318.952E+03,   318.952E+03
C:/temp/Job-16.odb,Step-1,Increment      1: Step Time =    1.000,"P-16-1",          1702,       165.353,       32.9232,            0.,NA,NA,"",   1.23011E+06,   1.19130E+06,   1.19130E+06
C:/temp/Job-16.odb,Step-1,Increment      1: Step Time =    1.000,"P-16-1",          1703,       166.252,       164.800,            0.,NA,NA,"",   1.23517E+06,   1.19567E+06,   1.19567E+06
C:/temp/Job-16.odb,Step-1,Increment      1: Step Time =    1.000,"P-16-1",          1704,       35.1637,       147.497,            0.,NA,NA,"",   1.13894E+06,   1.09792E+06,   1.09792E+06
C:/temp/Job-16.odb,Step-1,Increment      1: Step Time =    1.000,"P-16-1",          1705,       34.3688,       98.0936,            0.,NA,NA,"",   149.016E+03,   171.242E+03,   171.242E+03
C:/temp/Job-16.odb,Step-1,Increment      1: Step Time =    1.000,"P-16-1",          1706,       31.4394,       98.0749,            0.,NA,NA,"",   172.362E+03,   197.079E+03,   197.079E+03
C:/temp/Job-16.odb,Step-1,Increment      1: Step Time =    1.000,"P-16-1",          1707,       40.1806,       143.930,            0.,NA,NA,"",   1.14943E+06,   1.07945E+06,   1.07945E+06
C:/temp/Job-16.odb,Step-1,Increment      1: Step Time =    1.000,"P-16-1",          1708,       31.2156,       108.402,            0.,NA,NA,"",   241.933E+03,   271.186E+03,   271.186E+03
C:/temp/Job-16.odb,Step-1,Increment      1: Step Time =    1.000,"P-16-1",          1709,       157.010,       50.8426,            0.,NA,NA,"",   1.49049E+06,   1.36012E+06,   1.36012E+06
C:/temp/Job-16.odb,Step-1,Increment      1: Step Time =    1.000,"P-16-1",          1710,       35.3080,       127.140,            0.,NA,NA,"",   682.415E+03,   651.101E+03,   651.101E+03
C:/temp/Job-16.odb,Step-1,Increment      1: Step Time =    1.000,"P-16-1",          1711,       147.472,       49.3962,            0.,NA,NA,"",   1.61679E+06,   1.47786E+06,   1.47786E+06
C:/temp/Job-16.odb,Step-1,Increment      1: Step Time =    1.000,"P-16-1",          1712,       162.677,       82.7409,            0.,NA,NA,"",   950.905E+03,   850.215E+03,   850.215E+03
C:/temp/Job-16.odb,Step-1,Increment      1: Step Time =    1.000,"P-16-1",          1713,       163.013,       111.536,            0.,NA,NA,"",   740.817E+03,   686.860E+03,   686.860E+03
C:/temp/Job-16.odb,Step-1,Increment      1: Step Time =    1.000,"P-16-1",          1714,       118.718,       32.4830,            0.,NA,NA,"",   1.36393E+06,   1.42973E+06,   1.42973E+06
C:/temp/Job-16.odb,Step-1,Increment      1: Step Time =    1.000,"P-16-1",          1715,       165.510,       107.539,            0.,NA,NA,"",   593.594E+03,   611.434E+03,   611.434E+03
C:/temp/Job-16.odb,Step-1,Increment      1: Step Time =    1.000,"P-16-1",          1716,       30.1974,       58.9084,            0.,NA,NA,"",   942.732E+03,   934.393E+03,   934.393E+03
C:/temp/Job-16.odb,Step-1,Increment      1: Step Time =    1.000,"P-16-1",          1717,       68.8975,       24.4807,            0.,NA,NA,"",   1.48110E+06,   1.43945E+06,   1.43945E+06
C:/temp/Job-16.odb,Step-1,Increment      1: Step Time =    1.000,"P-16-1",          1718,       27.0086,       126.284,            0.,NA,NA,"",   596.488E+03,   617.619E+03,   617.619E+03
C:/temp/Job-16.odb,Step-1,Increment      1: Step Time =    1.000,"P-16-1",          1719,       40.4246,       68.0558,            0.,NA,NA,"",   883.413E+03,   808.847E+03,   808.847E+03
C:/temp/Job-16.odb,Step-1,Increment      1: Step Time =    1.000,"P-16-1",          1720,       103.159,       172.772,            0.,NA,NA,"",   1.23589E+06,   1.31752E+06,   1.31752E+06
C:/temp/Job-16.odb,Step-1,Increment      1: Step Time =    1.000,"P-16-1",          1721,       166.091,       76.7352,            0.,NA,NA,"",   1.11144E+06,   1.02589E+06,   1.02589E+06
C:/temp/Job-16.odb,Step-1,Increment      1: Step Time =    1.000,"P-16-1",          1722,       50.0133,       169.236,            0.,NA,NA,"",   1.52139E+06,   1.45390E+06,   1.45390E+06
C:/temp/Job-16.odb,Step-1,Increment      1: Step Time =    1.000,"P-16-1",          1723,       106.533,       172.359,            0.,NA,NA,"",   1.23337E+06,   1.31671E+06,   1.31671E+06
C:/temp/Job-16.odb,Step-1,Increment      1: Step Time =    1.000,"P-16-1",          1724,       147.993,       32.9092,            0.,NA,NA,"",   1.38050E+06,   1.31911E+06,   1.31911E+06
C:/temp/Job-16.odb,Step-1,Increment      1: Step Time =    1.000,"P-16-1",          1725,       146.565,       35.3803,            0.,NA,NA,"",   1.42611E+06,   1.35835E+06,   1.35835E+06
C:/temp/Job-16.odb,Step-1,Increment      1: Step Time =    1.000,"P-16-1",          1726,       28.7949,       161.209,            0.,NA,NA,"",   1.28553E+06,   1.28141E+06,   1.28141E+06
C:/temp/Job-16.odb,Step-1,Increment      1: Step Time =    1.000,"P-16-1",          1727,       164.136,       36.9900,            0.,NA,NA,"",   1.27975E+06,   1.22826E+06,   1.22826E+06
C:/temp/Job-16.odb,Step-1,Increment      1: Step Time =    1.000,"P-16-1",          1728,       63.7585,       45.6339,            0.,NA,NA,"",   1.65040E+06,   1.54929E+06,   1.54929E+06
C:/temp/Job-16.odb,Step-1,Increment      1: Step Time =    1.000,"P-16-1",          1729,       151.417,       69.5989,            0.,NA,NA,"",   1.47802E+06,   1.21770E+06,   1.21770E+06
C:/temp/Job-16.odb,Step-1,Increment      1: Step Time =    1.000,"P-16-1",          1730,       31.9779,       73.8010,            0.,NA,NA,"",   622.956E+03,   618.295E+03,   618.295E+03
C:/temp/Job-16.odb,Step-1,Increment      1: Step Time =    1.000,"P-16-1",          1731,       28.3584,       66.5595,            0.,NA,NA,"",   755.227E+03,   763.038E+03,   763.038E+03
C:/temp/Job-16.odb,Step-1,Increment      1: Step Time =    1.000,"P-16-1",          1732,       153.339,       154.856,            0.,NA,NA,"",   1.48821E+06,   1.37736E+06,   1.37736E+06
C:/temp/Job-16.odb,Step-1,Increment      1: Step Time =    1.000,"P-16-1",          1733,       37.3107,       136.749,            0.,NA,NA,"",   957.471E+03,   905.816E+03,   905.816E+03
C:/temp/Job-16.odb,Step-1,Increment      1: Step Time =    1.000,"P-16-1",          1734,       128.974,       33.3351,            0.,NA,NA,"",   1.42239E+06,   1.42747E+06,   1.42747E+06
C:/temp/Job-16.odb,Step-1,Increment      1: Step Time =    1.000,"P-16-1",          1735,       169.883,       106.675,            0.,NA,NA,"",   617.917E+03,   679.315E+03,   679.315E+03
C:/temp/Job-16.odb,Step-1,Increment      1: Step Time =    1.000,"P-16-1",          1736,       56.9134,       40.6301,            0.,NA,NA,"",   1.57980E+06,   1.48038E+06,   1.48038E+06
C:/temp/Job-16.odb,Step-1,Increment      1: Step Time =    1.000,"P-16-1",          1737,       42.0232,       37.8583,            0.,NA,NA,"",   1.43647E+06,   1.37165E+06,   1.37165E+06
C:/temp/Job-16.odb,Step-1,Increment      1: Step Time =    1.000,"P-16-1",          1738,       164.491,       135.084,            0.,NA,NA,"",   1.34691E+06,   1.22298E+06,   1.22298E+06
C:/temp/Job-16.odb,Step-1,Increment      1: Step Time =    1.000,"P-16-1",          1739,       145.684,       44.5631,            0.,NA,NA,"",   1.57069E+06,   1.46407E+06,   1.46407E+06
C:/temp/Job-16.odb,Step-1,Increment      1: Step Time =    1.000,"P-16-1",          1740,       170.402,       116.212,            0.,NA,NA,"",   883.154E+03,   897.902E+03,   897.902E+03
C:/temp/Job-16.odb,Step-1,Increment      1: Step Time =    1.000,"P-16-1",          1741,       35.9364,       57.0064,            0.,NA,NA,"",   1.06741E+06,   1.02235E+06,   1.02235E+06
C:/temp/Job-16.odb,Step-1,Increment      1: Step Time =    1.000,"P-16-1",          1742,       162.526,       41.0873,            0.,NA,NA,"",   1.33545E+06,   1.26688E+06,   1.26688E+06
C:/temp/Job-16.odb,Step-1,Increment      1: Step Time =    1.000,"P-16-1",          1743,       44.2179,       42.2272,            0.,NA,NA,"",   1.42591E+06,   1.34731E+06,   1.34731E+06
C:/temp/Job-16.odb,Step-1,Increment      1: Step Time =    1.000,"P-16-1",          1744,       150.415,       42.9486,            0.,NA,NA,"",   1.49852E+06,   1.39697E+06,   1.39697E+06
C:/temp/Job-16.odb,Step-1,Increment      1: Step Time =    1.000,"P-16-1",          1745,       37.1526,       32.3059,            0.,NA,NA,"",   1.43411E+06,   1.39825E+06,   1.39825E+06
C:/temp/Job-16.odb,Step-1,Increment      1: Step Time =    1.000,"P-16-1",          1746,       127.179,       28.6447,            0.,NA,NA,"",   1.31453E+06,   1.32797E+06,   1.32797E+06
C:/temp/Job-16.odb,Step-1,Increment      1: Step Time =    1.000,"P-16-1",          1747,       133.997,       28.6735,            0.,NA,NA,"",   1.33403E+06,   1.31912E+06,   1.31912E+06
C:/temp/Job-16.odb,Step-1,Increment      1: Step Time =    1.000,"P-16-1",          1748,       170.816,       94.1459,            0.,NA,NA,"",   622.817E+03,   694.489E+03,   694.489E+03
C:/temp/Job-16.odb,Step-1,Increment      1: Step Time =    1.000,"P-16-1",          1749,       137.492,       38.6786,            0.,NA,NA,"",   1.52104E+06,   1.47116E+06,   1.47116E+06
