ODB Name,Step,Frame,Part Instance Name,    Node Label,X,Y,Z,Section Name,Material Name,Section Point,       S-Mises,S-Max. In-Plane Principal (Abs),S-Max. Principal (Abs)
C:/temp/Job-17.odb,Step-1,Increment      1: Step Time =    1.000,"P-17-1",             1,       85.1161,       190.788,            0.,NA,NA,"",   11.5060E+06,  -9.87067E+06,  -9.87067E+06
C:/temp/Job-17.odb,Step-1,Increment      1: Step Time =    1.000,"P-17-1",             2,       70.6243,       187.184,            0.,NA,NA,"",   23.8026E+06,  -23.9026E+06,  -23.9026E+06
C:/temp/Job-17.odb,Step-1,Increment      1: Step Time =    1.000,"P-17-1",             3,       56.9064,       181.283,            0.,NA,NA,"",   23.0184E+06,  -23.1341E+06,  -23.1341E+06
C:/temp/Job-17.odb,Step-1,Increment      1: Step Time =    1.000,"P-17-1",             4,       44.3240,       173.241,            0.,NA,NA,"",   16.7713E+06,  -17.0841E+06,  -17.0841E+06
C:/temp/Job-17.odb,Step-1,Increment      1: Step Time =    1.000,"P-17-1",             5,       33.2084,       163.268,            0.,NA,NA,"",   12.4153E+06,  -12.5100E+06,  -12.5100E+06
C:/temp/Job-17.odb,Step-1,Increment      1: Step Time =    1.000,"P-17-1",             6,       23.8526,       151.629,            0.,NA,NA,"",   6.72275E+06,  -6.81820E+06,  -6.81820E+06
C:/temp/Job-17.odb,Step-1,Increment      1: Step Time =    1.000,"P-17-1",             7,       16.5031,       138.630,            0.,NA,NA,"",   2.72442E+06,  -2.76731E+06,  -2.76731E+06
C:/temp/Job-17.odb,Step-1,Increment      1: Step Time =    1.000,"P-17-1",             8,       11.3534,       124.613,            0.,NA,NA,"",   1.12056E+06,  -1.11937E+06,  -1.11937E+06
C:/temp/Job-17.odb,Step-1,Increment      1: Step Time =    1.000,"P-17-1",             9,       8.53931,       109.947,            0.,NA,NA,"",   339.651E+03,  -344.576E+03,  -344.576E+03
C:/temp/Job-17.odb,Step-1,Increment      1: Step Time =    1.000,"P-17-1",            10,       8.13493,       95.0192,            0.,NA,NA,"",   212.921E+03,  -218.280E+03,  -218.280E+03
C:/temp/Job-17.odb,Step-1,Increment      1: Step Time =    1.000,"P-17-1",            11,       10.1509,       80.2227,            0.,NA,NA,"",   815.383E+03,  -817.442E+03,  -817.442E+03
C:/temp/Job-17.odb,Step-1,Increment      1: Step Time =    1.000,"P-17-1",            12,       14.5341,       65.9473,            0.,NA,NA,"",   2.14447E+06,  -2.17989E+06,  -2.17989E+06
C:/temp/Job-17.odb,Step-1,Increment      1: Step Time =    1.000,"P-17-1",            13,       21.1691,       52.5690,            0.,NA,NA,"",   5.06142E+06,  -5.11042E+06,  -5.11042E+06
C:/temp/Job-17.odb,Step-1,Increment      1: Step Time =    1.000,"P-17-1",            14,       29.8811,       40.4405,            0.,NA,NA,"",   10.5463E+06,  -10.6011E+06,  -10.6011E+06
C:/temp/Job-17.odb,Step-1,Increment      1: Step Time =    1.000,"P-17-1",            15,       40.4405,       29.8811,            0.,NA,NA,"",   16.0803E+06,  -16.2473E+06,  -16.2473E+06
C:/temp/Job-17.odb,Step-1,Increment      1: Step Time =    1.000,"P-17-1",            16,       52.5690,       21.1691,            0.,NA,NA,"",   21.1029E+06,  -21.3975E+06,  -21.3975E+06
C:/temp/Job-17.odb,Step-1,Increment      1: Step Time =    1.000,"P-17-1",            17,       65.9473,       14.5341,            0.,NA,NA,"",   26.3545E+06,  -26.5464E+06,  -26.5464E+06
C:/temp/Job-17.odb,Step-1,Increment      1: Step Time =    1.000,"P-17-1",            18,       80.2227,       10.1509,            0.,NA,NA,"",   17.3829E+06,  -17.0534E+06,  -17.0534E+06
C:/temp/Job-17.odb,Step-1,Increment      1: Step Time =    1.000,"P-17-1",            19,       95.0192,       8.13493,            0.,NA,NA,"",   18.7683E+06,   17.8993E+06,   17.8993E+06
C:/temp/Job-17.odb,Step-1,Increment      1: Step Time =    1.000,"P-17-1",            20,       104.981,       8.13493,            0.,NA,NA,"",   41.1511E+06,   41.0909E+06,   41.0909E+06
C:/temp/Job-17.odb,Step-1,Increment      1: Step Time =    1.000,"P-17-1",            21,       119.777,       10.1509,            0.,NA,NA,"",   49.0267E+06,   49.6618E+06,   49.6618E+06
C:/temp/Job-17.odb,Step-1,Increment      1: Step Time =    1.000,"P-17-1",            22,       134.053,       14.5341,            0.,NA,NA,"",   34.3500E+06,   34.9947E+06,   34.9947E+06
C:/temp/Job-17.odb,Step-1,Increment      1: Step Time =    1.000,"P-17-1",            23,       147.431,       21.1691,            0.,NA,NA,"",   21.4036E+06,   21.5880E+06,   21.5880E+06
C:/temp/Job-17.odb,Step-1,Increment      1: Step Time =    1.000,"P-17-1",            24,       159.560,       29.8811,            0.,NA,NA,"",   12.6048E+06,   12.8778E+06,   12.8778E+06
C:/temp/Job-17.odb,Step-1,Increment      1: Step Time =    1.000,"P-17-1",            25,       170.119,       40.4405,            0.,NA,NA,"",   9.40139E+06,   9.52838E+06,   9.52838E+06
C:/temp/Job-17.odb,Step-1,Increment      1: Step Time =    1.000,"P-17-1",            26,       178.831,       52.5690,            0.,NA,NA,"",   8.26570E+06,   8.33158E+06,   8.33158E+06
C:/temp/Job-17.odb,Step-1,Increment      1: Step Time =    1.000,"P-17-1",            27,       185.466,       65.9473,            0.,NA,NA,"",   3.32411E+06,   3.28229E+06,   3.28229E+06
C:/temp/Job-17.odb,Step-1,Increment      1: Step Time =    1.000,"P-17-1",            28,       189.849,       80.2227,            0.,NA,NA,"",   9.90693E+06,  -9.94432E+06,  -9.94432E+06
C:/temp/Job-17.odb,Step-1,Increment      1: Step Time =    1.000,"P-17-1",            29,       191.865,       95.0192,            0.,NA,NA,"",   24.1827E+06,  -24.2011E+06,  -24.2011E+06
C:/temp/Job-17.odb,Step-1,Increment      1: Step Time =    1.000,"P-17-1",            30,       191.461,       109.947,            0.,NA,NA,"",   20.2971E+06,  -20.2881E+06,  -20.2881E+06
C:/temp/Job-17.odb,Step-1,Increment      1: Step Time =    1.000,"P-17-1",            31,       188.647,       124.613,            0.,NA,NA,"",   5.24877E+06,  -4.83877E+06,  -4.83877E+06
C:/temp/Job-17.odb,Step-1,Increment      1: Step Time =    1.000,"P-17-1",            32,       183.497,       138.630,            0.,NA,NA,"",   6.28063E+06,   6.21311E+06,   6.21311E+06
C:/temp/Job-17.odb,Step-1,Increment      1: Step Time =    1.000,"P-17-1",            33,       176.147,       151.629,            0.,NA,NA,"",   8.60791E+06,   8.70920E+06,   8.70920E+06
C:/temp/Job-17.odb,Step-1,Increment      1: Step Time =    1.000,"P-17-1",            34,       166.792,       163.268,            0.,NA,NA,"",   10.0941E+06,   10.2099E+06,   10.2099E+06
C:/temp/Job-17.odb,Step-1,Increment      1: Step Time =    1.000,"P-17-1",            35,       155.676,       173.241,            0.,NA,NA,"",   14.9903E+06,   15.2238E+06,   15.2238E+06
C:/temp/Job-17.odb,Step-1,Increment      1: Step Time =    1.000,"P-17-1",            36,       143.094,       181.283,            0.,NA,NA,"",   25.7140E+06,   26.0815E+06,   26.0815E+06
C:/temp/Job-17.odb,Step-1,Increment      1: Step Time =    1.000,"P-17-1",            37,       129.376,       187.184,            0.,NA,NA,"",   42.5658E+06,   42.3284E+06,   42.3284E+06
C:/temp/Job-17.odb,Step-1,Increment      1: Step Time =    1.000,"P-17-1",            38,       114.884,       190.788,            0.,NA,NA,"",   51.0636E+06,   51.2906E+06,   51.2906E+06
C:/temp/Job-17.odb,Step-1,Increment      1: Step Time =    1.000,"P-17-1",            39,          100.,          192.,            0.,NA,NA,"",   31.7016E+06,   31.4013E+06,   31.4013E+06
C:/temp/Job-17.odb,Step-1,Increment      1: Step Time =    1.000,"P-17-1",            40,          190.,            0.,            0.,NA,NA,"",   850.906E+03,  -35.0333E+03,  -35.0333E+03
C:/temp/Job-17.odb,Step-1,Increment      1: Step Time =    1.000,"P-17-1",            41,          180.,            0.,            0.,NA,NA,"",   2.26490E+06,  -2.19953E+06,  -2.19953E+06
C:/temp/Job-17.odb,Step-1,Increment      1: Step Time =    1.000,"P-17-1",            42,          170.,            0.,            0.,NA,NA,"",   4.89335E+06,  -4.85729E+06,  -4.85729E+06
C:/temp/Job-17.odb,Step-1,Increment      1: Step Time =    1.000,"P-17-1",            43,          160.,            0.,            0.,NA,NA,"",   8.16397E+06,  -8.14569E+06,  -8.14569E+06
C:/temp/Job-17.odb,Step-1,Increment      1: Step Time =    1.000,"P-17-1",            44,          150.,            0.,            0.,NA,NA,"",   13.1634E+06,  -12.9857E+06,  -12.9857E+06
C:/temp/Job-17.odb,Step-1,Increment      1: Step Time =    1.000,"P-17-1",            45,          140.,            0.,            0.,NA,NA,"",   18.9860E+06,  -18.9279E+06,  -18.9279E+06
C:/temp/Job-17.odb,Step-1,Increment      1: Step Time =    1.000,"P-17-1",            46,          130.,            0.,            0.,NA,NA,"",   26.1739E+06,  -25.8433E+06,  -25.8433E+06
C:/temp/Job-17.odb,Step-1,Increment      1: Step Time =    1.000,"P-17-1",            47,          120.,            0.,            0.,NA,NA,"",   25.9873E+06,  -26.2302E+06,  -26.2302E+06
C:/temp/Job-17.odb,Step-1,Increment      1: Step Time =    1.000,"P-17-1",            48,          110.,            0.,            0.,NA,NA,"",   22.6782E+06,  -22.1001E+06,  -22.1001E+06
C:/temp/Job-17.odb,Step-1,Increment      1: Step Time =    1.000,"P-17-1",            49,          100.,            0.,            0.,NA,NA,"",   11.1935E+06,  -2.73030E+06,  -2.73030E+06
C:/temp/Job-17.odb,Step-1,Increment      1: Step Time =    1.000,"P-17-1",            50,           90.,            0.,            0.,NA,NA,"",   20.9667E+06,   20.1498E+06,   20.1498E+06
C:/temp/Job-17.odb,Step-1,Increment      1: Step Time =    1.000,"P-17-1",            51,           80.,            0.,            0.,NA,NA,"",   33.0435E+06,   32.7871E+06,   32.7871E+06
C:/temp/Job-17.odb,Step-1,Increment      1: Step Time =    1.000,"P-17-1",            52,           70.,            0.,            0.,NA,NA,"",   38.1984E+06,   38.0796E+06,   38.0796E+06
C:/temp/Job-17.odb,Step-1,Increment      1: Step Time =    1.000,"P-17-1",            53,           60.,            0.,            0.,NA,NA,"",   36.3374E+06,   36.2038E+06,   36.2038E+06
C:/temp/Job-17.odb,Step-1,Increment      1: Step Time =    1.000,"P-17-1",            54,           50.,            0.,            0.,NA,NA,"",   30.6784E+06,   30.6627E+06,   30.6627E+06
C:/temp/Job-17.odb,Step-1,Increment      1: Step Time =    1.000,"P-17-1",            55,           40.,            0.,            0.,NA,NA,"",   25.0134E+06,   24.9899E+06,   24.9899E+06
C:/temp/Job-17.odb,Step-1,Increment      1: Step Time =    1.000,"P-17-1",            56,           30.,            0.,            0.,NA,NA,"",   20.3127E+06,   20.3231E+06,   20.3231E+06
C:/temp/Job-17.odb,Step-1,Increment      1: Step Time =    1.000,"P-17-1",            57,           20.,            0.,            0.,NA,NA,"",   16.6566E+06,   16.6683E+06,   16.6683E+06
C:/temp/Job-17.odb,Step-1,Increment      1: Step Time =    1.000,"P-17-1",            58,           10.,            0.,            0.,NA,NA,"",   14.3940E+06,   14.3777E+06,   14.3777E+06
C:/temp/Job-17.odb,Step-1,Increment      1: Step Time =    1.000,"P-17-1",            59,          200.,            0.,            0.,NA,NA,"",   971.842E+03,   915.424E+03,   915.424E+03
C:/temp/Job-17.odb,Step-1,Increment      1: Step Time =    1.000,"P-17-1",            60,            0.,            0.,            0.,NA,NA,"",   13.5387E+06,   14.2765E+06,   14.2765E+06
C:/temp/Job-17.odb,Step-1,Increment      1: Step Time =    1.000,"P-17-1",            61,          200.,          190.,            0.,NA,NA,"",   1.69647E+06,  -197.083E+03,  -197.083E+03
C:/temp/Job-17.odb,Step-1,Increment      1: Step Time =    1.000,"P-17-1",            62,          200.,          180.,            0.,NA,NA,"",   3.41793E+06,  -2.72213E+06,  -2.72213E+06
C:/temp/Job-17.odb,Step-1,Increment      1: Step Time =    1.000,"P-17-1",            63,          200.,          170.,            0.,NA,NA,"",   4.62957E+06,  -3.98209E+06,  -3.98209E+06
C:/temp/Job-17.odb,Step-1,Increment      1: Step Time =    1.000,"P-17-1",            64,          200.,          160.,            0.,NA,NA,"",   4.65939E+06,  -4.02246E+06,  -4.02246E+06
C:/temp/Job-17.odb,Step-1,Increment      1: Step Time =    1.000,"P-17-1",            65,          200.,          150.,            0.,NA,NA,"",   3.38090E+06,  -2.69746E+06,  -2.69746E+06
C:/temp/Job-17.odb,Step-1,Increment      1: Step Time =    1.000,"P-17-1",            66,          200.,          140.,            0.,NA,NA,"",   2.40342E+06,   2.14646E+06,   2.14646E+06
C:/temp/Job-17.odb,Step-1,Increment      1: Step Time =    1.000,"P-17-1",            67,          200.,          130.,            0.,NA,NA,"",   7.59406E+06,   7.80981E+06,   7.80981E+06
C:/temp/Job-17.odb,Step-1,Increment      1: Step Time =    1.000,"P-17-1",            68,          200.,          120.,            0.,NA,NA,"",   16.5859E+06,   17.0983E+06,   17.0983E+06
C:/temp/Job-17.odb,Step-1,Increment      1: Step Time =    1.000,"P-17-1",            69,          200.,          110.,            0.,NA,NA,"",   28.1830E+06,   28.3642E+06,   28.3642E+06
C:/temp/Job-17.odb,Step-1,Increment      1: Step Time =    1.000,"P-17-1",            70,          200.,          100.,            0.,NA,NA,"",   33.8288E+06,   34.0214E+06,   34.0214E+06
C:/temp/Job-17.odb,Step-1,Increment      1: Step Time =    1.000,"P-17-1",            71,          200.,           90.,            0.,NA,NA,"",   28.2360E+06,   28.4141E+06,   28.4141E+06
C:/temp/Job-17.odb,Step-1,Increment      1: Step Time =    1.000,"P-17-1",            72,          200.,           80.,            0.,NA,NA,"",   16.6594E+06,   17.0734E+06,   17.0734E+06
C:/temp/Job-17.odb,Step-1,Increment      1: Step Time =    1.000,"P-17-1",            73,          200.,           70.,            0.,NA,NA,"",   6.73194E+06,   7.06486E+06,   7.06486E+06
C:/temp/Job-17.odb,Step-1,Increment      1: Step Time =    1.000,"P-17-1",            74,          200.,           60.,            0.,NA,NA,"",   1.95074E+06,   1.71559E+06,   1.71559E+06
C:/temp/Job-17.odb,Step-1,Increment      1: Step Time =    1.000,"P-17-1",            75,          200.,           50.,            0.,NA,NA,"",   3.58761E+06,  -2.93187E+06,  -2.93187E+06
C:/temp/Job-17.odb,Step-1,Increment      1: Step Time =    1.000,"P-17-1",            76,          200.,           40.,            0.,NA,NA,"",   4.77684E+06,  -4.14994E+06,  -4.14994E+06
C:/temp/Job-17.odb,Step-1,Increment      1: Step Time =    1.000,"P-17-1",            77,          200.,           30.,            0.,NA,NA,"",   4.65087E+06,  -3.98740E+06,  -3.98740E+06
C:/temp/Job-17.odb,Step-1,Increment      1: Step Time =    1.000,"P-17-1",            78,          200.,           20.,            0.,NA,NA,"",   3.33017E+06,  -2.64190E+06,  -2.64190E+06
C:/temp/Job-17.odb,Step-1,Increment      1: Step Time =    1.000,"P-17-1",            79,          200.,           10.,            0.,NA,NA,"",   1.68850E+06,  -210.356E+03,  -210.356E+03
C:/temp/Job-17.odb,Step-1,Increment      1: Step Time =    1.000,"P-17-1",            80,          200.,          200.,            0.,NA,NA,"",   971.168E+03,   915.293E+03,   915.293E+03
C:/temp/Job-17.odb,Step-1,Increment      1: Step Time =    1.000,"P-17-1",            81,           10.,          200.,            0.,NA,NA,"",   14.3178E+06,   14.3097E+06,   14.3097E+06
C:/temp/Job-17.odb,Step-1,Increment      1: Step Time =    1.000,"P-17-1",            82,           20.,          200.,            0.,NA,NA,"",   16.6106E+06,   16.6282E+06,   16.6282E+06
C:/temp/Job-17.odb,Step-1,Increment      1: Step Time =    1.000,"P-17-1",            83,           30.,          200.,            0.,NA,NA,"",   20.0435E+06,   20.0452E+06,   20.0452E+06
C:/temp/Job-17.odb,Step-1,Increment      1: Step Time =    1.000,"P-17-1",            84,           40.,          200.,            0.,NA,NA,"",   24.3309E+06,   24.3702E+06,   24.3702E+06
C:/temp/Job-17.odb,Step-1,Increment      1: Step Time =    1.000,"P-17-1",            85,           50.,          200.,            0.,NA,NA,"",   30.1098E+06,   29.9651E+06,   29.9651E+06
C:/temp/Job-17.odb,Step-1,Increment      1: Step Time =    1.000,"P-17-1",            86,           60.,          200.,            0.,NA,NA,"",   35.4764E+06,   35.4136E+06,   35.4136E+06
C:/temp/Job-17.odb,Step-1,Increment      1: Step Time =    1.000,"P-17-1",            87,           70.,          200.,            0.,NA,NA,"",   38.8035E+06,   38.5152E+06,   38.5152E+06
C:/temp/Job-17.odb,Step-1,Increment      1: Step Time =    1.000,"P-17-1",            88,           80.,          200.,            0.,NA,NA,"",   32.5845E+06,   32.4519E+06,   32.4519E+06
C:/temp/Job-17.odb,Step-1,Increment      1: Step Time =    1.000,"P-17-1",            89,           90.,          200.,            0.,NA,NA,"",   20.2928E+06,   19.4176E+06,   19.4176E+06
C:/temp/Job-17.odb,Step-1,Increment      1: Step Time =    1.000,"P-17-1",            90,          100.,          200.,            0.,NA,NA,"",   11.4434E+06,  -3.46131E+06,  -3.46131E+06
C:/temp/Job-17.odb,Step-1,Increment      1: Step Time =    1.000,"P-17-1",            91,          110.,          200.,            0.,NA,NA,"",   23.3853E+06,  -22.8701E+06,  -22.8701E+06
C:/temp/Job-17.odb,Step-1,Increment      1: Step Time =    1.000,"P-17-1",            92,          120.,          200.,            0.,NA,NA,"",   26.2333E+06,  -26.2647E+06,  -26.2647E+06
C:/temp/Job-17.odb,Step-1,Increment      1: Step Time =    1.000,"P-17-1",            93,          130.,          200.,            0.,NA,NA,"",   24.5669E+06,  -24.4382E+06,  -24.4382E+06
C:/temp/Job-17.odb,Step-1,Increment      1: Step Time =    1.000,"P-17-1",            94,          140.,          200.,            0.,NA,NA,"",   19.8040E+06,  -19.7196E+06,  -19.7196E+06
C:/temp/Job-17.odb,Step-1,Increment      1: Step Time =    1.000,"P-17-1",            95,          150.,          200.,            0.,NA,NA,"",   13.8261E+06,  -13.8157E+06,  -13.8157E+06
C:/temp/Job-17.odb,Step-1,Increment      1: Step Time =    1.000,"P-17-1",            96,          160.,          200.,            0.,NA,NA,"",   8.94710E+06,  -8.91847E+06,  -8.91847E+06
C:/temp/Job-17.odb,Step-1,Increment      1: Step Time =    1.000,"P-17-1",            97,          170.,          200.,            0.,NA,NA,"",   5.17381E+06,   -5.1101E+06,   -5.1101E+06
C:/temp/Job-17.odb,Step-1,Increment      1: Step Time =    1.000,"P-17-1",            98,          180.,          200.,            0.,NA,NA,"",   2.42744E+06,  -2.30794E+06,  -2.30794E+06
C:/temp/Job-17.odb,Step-1,Increment      1: Step Time =    1.000,"P-17-1",            99,          190.,          200.,            0.,NA,NA,"",   913.899E+03,  -76.9765E+03,  -76.9765E+03
C:/temp/Job-17.odb,Step-1,Increment      1: Step Time =    1.000,"P-17-1",           100,            0.,          200.,            0.,NA,NA,"",   13.5239E+06,   14.2224E+06,   14.2224E+06
C:/temp/Job-17.odb,Step-1,Increment      1: Step Time =    1.000,"P-17-1",           101,            0.,           10.,            0.,NA,NA,"",   8.48830E+06,    9.3226E+06,    9.3226E+06
C:/temp/Job-17.odb,Step-1,Increment      1: Step Time =    1.000,"P-17-1",           102,            0.,           20.,            0.,NA,NA,"",   3.50849E+06,   3.84493E+06,   3.84493E+06
C:/temp/Job-17.odb,Step-1,Increment      1: Step Time =    1.000,"P-17-1",           103,            0.,           30.,            0.,NA,NA,"",   1.37910E+06,  -581.679E+03,  -581.679E+03
C:/temp/Job-17.odb,Step-1,Increment      1: Step Time =    1.000,"P-17-1",           104,            0.,           40.,            0.,NA,NA,"",   3.22569E+06,  -3.32758E+06,  -3.32758E+06
C:/temp/Job-17.odb,Step-1,Increment      1: Step Time =    1.000,"P-17-1",           105,            0.,           50.,            0.,NA,NA,"",   3.67215E+06,  -3.68985E+06,  -3.68985E+06
C:/temp/Job-17.odb,Step-1,Increment      1: Step Time =    1.000,"P-17-1",           106,            0.,           60.,            0.,NA,NA,"",   2.87327E+06,  -2.75862E+06,  -2.75862E+06
C:/temp/Job-17.odb,Step-1,Increment      1: Step Time =    1.000,"P-17-1",           107,            0.,           70.,            0.,NA,NA,"",   1.75144E+06,  -1.60727E+06,  -1.60727E+06
C:/temp/Job-17.odb,Step-1,Increment      1: Step Time =    1.000,"P-17-1",           108,            0.,           80.,            0.,NA,NA,"",   839.711E+03,  -775.052E+03,  -775.052E+03
C:/temp/Job-17.odb,Step-1,Increment      1: Step Time =    1.000,"P-17-1",           109,            0.,           90.,            0.,NA,NA,"",   314.071E+03,  -297.154E+03,  -297.154E+03
C:/temp/Job-17.odb,Step-1,Increment      1: Step Time =    1.000,"P-17-1",           110,            0.,          100.,            0.,NA,NA,"",   98.2506E+03,  -110.767E+03,  -110.767E+03
C:/temp/Job-17.odb,Step-1,Increment      1: Step Time =    1.000,"P-17-1",           111,            0.,          110.,            0.,NA,NA,"",   316.603E+03,  -298.815E+03,  -298.815E+03
C:/temp/Job-17.odb,Step-1,Increment      1: Step Time =    1.000,"P-17-1",           112,            0.,          120.,            0.,NA,NA,"",   874.836E+03,  -804.095E+03,  -804.095E+03
C:/temp/Job-17.odb,Step-1,Increment      1: Step Time =    1.000,"P-17-1",           113,            0.,          130.,            0.,NA,NA,"",   1.79803E+06,  -1.64605E+06,  -1.64605E+06
C:/temp/Job-17.odb,Step-1,Increment      1: Step Time =    1.000,"P-17-1",           114,            0.,          140.,            0.,NA,NA,"",   2.86857E+06,  -2.74849E+06,  -2.74849E+06
C:/temp/Job-17.odb,Step-1,Increment      1: Step Time =    1.000,"P-17-1",           115,            0.,          150.,            0.,NA,NA,"",   3.67004E+06,  -3.70442E+06,  -3.70442E+06
C:/temp/Job-17.odb,Step-1,Increment      1: Step Time =    1.000,"P-17-1",           116,            0.,          160.,            0.,NA,NA,"",   3.28560E+06,  -3.38933E+06,  -3.38933E+06
C:/temp/Job-17.odb,Step-1,Increment      1: Step Time =    1.000,"P-17-1",           117,            0.,          170.,            0.,NA,NA,"",   1.41267E+06,  -556.119E+03,  -556.119E+03
C:/temp/Job-17.odb,Step-1,Increment      1: Step Time =    1.000,"P-17-1",           118,            0.,          180.,            0.,NA,NA,"",   3.53863E+06,   3.88483E+06,   3.88483E+06
C:/temp/Job-17.odb,Step-1,Increment      1: Step Time =    1.000,"P-17-1",           119,            0.,          190.,            0.,NA,NA,"",   8.49662E+06,   9.33866E+06,   9.33866E+06
C:/temp/Job-17.odb,Step-1,Increment      1: Step Time =    1.000,"P-17-1",           120,       187.371,       141.039,            0.,NA,NA,"",   5.81540E+06,   5.55683E+06,   5.55683E+06
C:/temp/Job-17.odb,Step-1,Increment      1: Step Time =    1.000,"P-17-1",           121,       11.8935,       134.153,            0.,NA,NA,"",   2.02343E+06,  -2.04216E+06,  -2.04216E+06
C:/temp/Job-17.odb,Step-1,Increment      1: Step Time =    1.000,"P-17-1",           122,       10.4075,       189.916,            0.,NA,NA,"",   9.78683E+06,   10.0386E+06,   10.0386E+06
C:/temp/Job-17.odb,Step-1,Increment      1: Step Time =    1.000,"P-17-1",           123,       20.4025,       190.399,            0.,NA,NA,"",   10.7373E+06,   10.8008E+06,   10.8008E+06
C:/temp/Job-17.odb,Step-1,Increment      1: Step Time =    1.000,"P-17-1",           124,       30.1864,       190.444,            0.,NA,NA,"",   11.3005E+06,   11.1816E+06,   11.1816E+06
C:/temp/Job-17.odb,Step-1,Increment      1: Step Time =    1.000,"P-17-1",           125,       40.0247,       189.958,            0.,NA,NA,"",   10.3529E+06,   10.1515E+06,   10.1515E+06
C:/temp/Job-17.odb,Step-1,Increment      1: Step Time =    1.000,"P-17-1",           126,       51.0053,       189.430,            0.,NA,NA,"",   8.65279E+06,   3.27675E+06,   3.27675E+06
C:/temp/Job-17.odb,Step-1,Increment      1: Step Time =    1.000,"P-17-1",           127,       58.9306,       187.386,            0.,NA,NA,"",   13.3804E+06,  -13.5688E+06,  -13.5688E+06
C:/temp/Job-17.odb,Step-1,Increment      1: Step Time =    1.000,"P-17-1",           128,       134.181,       188.203,            0.,NA,NA,"",   33.1137E+06,   32.9927E+06,   32.9927E+06
C:/temp/Job-17.odb,Step-1,Increment      1: Step Time =    1.000,"P-17-1",           129,       144.756,       193.549,            0.,NA,NA,"",   5.50686E+06,  -2.27947E+06,  -2.27947E+06
C:/temp/Job-17.odb,Step-1,Increment      1: Step Time =    1.000,"P-17-1",           130,       153.766,       191.332,            0.,NA,NA,"",   5.18604E+06,  -63.6793E+03,  -63.6793E+03
C:/temp/Job-17.odb,Step-1,Increment      1: Step Time =    1.000,"P-17-1",           131,       168.264,       190.201,            0.,NA,NA,"",   3.23130E+06,  -280.280E+03,  -280.280E+03
C:/temp/Job-17.odb,Step-1,Increment      1: Step Time =    1.000,"P-17-1",           132,       178.882,       187.861,            0.,NA,NA,"",   3.09839E+06,   638.806E+03,   638.806E+03
C:/temp/Job-17.odb,Step-1,Increment      1: Step Time =    1.000,"P-17-1",           133,       189.974,       189.532,            0.,NA,NA,"",   2.39008E+06,  -71.4452E+03,  -71.4452E+03
C:/temp/Job-17.odb,Step-1,Increment      1: Step Time =    1.000,"P-17-1",           134,       155.056,       180.195,            0.,NA,NA,"",   13.8836E+06,   14.1608E+06,   14.1608E+06
C:/temp/Job-17.odb,Step-1,Increment      1: Step Time =    1.000,"P-17-1",           135,       169.460,       180.350,            0.,NA,NA,"",   4.65146E+06,   4.89302E+06,   4.89302E+06
C:/temp/Job-17.odb,Step-1,Increment      1: Step Time =    1.000,"P-17-1",           136,       178.878,       180.679,            0.,NA,NA,"",   3.03364E+06,   2.77109E+06,   2.77109E+06
C:/temp/Job-17.odb,Step-1,Increment      1: Step Time =    1.000,"P-17-1",           137,       190.273,       179.468,            0.,NA,NA,"",   3.05395E+06,   22.0493E+03,   22.0493E+03
C:/temp/Job-17.odb,Step-1,Increment      1: Step Time =    1.000,"P-17-1",           138,       166.272,       169.601,            0.,NA,NA,"",   9.81560E+06,   10.0670E+06,   10.0670E+06
C:/temp/Job-17.odb,Step-1,Increment      1: Step Time =    1.000,"P-17-1",           139,       175.251,       173.228,            0.,NA,NA,"",   4.24281E+06,   4.64824E+06,   4.64824E+06
C:/temp/Job-17.odb,Step-1,Increment      1: Step Time =    1.000,"P-17-1",           140,       189.681,       169.360,            0.,NA,NA,"",   2.58888E+06,    53.092E+03,    53.092E+03
C:/temp/Job-17.odb,Step-1,Increment      1: Step Time =    1.000,"P-17-1",           141,       178.467,       159.331,            0.,NA,NA,"",   6.59676E+06,   6.85312E+06,   6.85312E+06
C:/temp/Job-17.odb,Step-1,Increment      1: Step Time =    1.000,"P-17-1",           142,       189.847,       159.691,            0.,NA,NA,"",   2.62067E+06,    1.2955E+06,    1.2955E+06
C:/temp/Job-17.odb,Step-1,Increment      1: Step Time =    1.000,"P-17-1",           143,       189.405,       148.907,            0.,NA,NA,"",   4.30955E+06,   3.97533E+06,   3.97533E+06
C:/temp/Job-17.odb,Step-1,Increment      1: Step Time =    1.000,"P-17-1",           144,       188.200,       65.8211,            0.,NA,NA,"",   4.30795E+06,   3.90563E+06,   3.90563E+06
C:/temp/Job-17.odb,Step-1,Increment      1: Step Time =    1.000,"P-17-1",           145,       193.551,       55.2435,            0.,NA,NA,"",   3.66504E+06,   3.07455E+06,   3.07455E+06
C:/temp/Job-17.odb,Step-1,Increment      1: Step Time =    1.000,"P-17-1",           146,       169.619,       33.7207,            0.,NA,NA,"",   8.87148E+06,   9.10827E+06,   9.10827E+06
C:/temp/Job-17.odb,Step-1,Increment      1: Step Time =    1.000,"P-17-1",           147,       180.381,       30.5335,            0.,NA,NA,"",   3.34789E+06,   3.69409E+06,   3.69409E+06
C:/temp/Job-17.odb,Step-1,Increment      1: Step Time =    1.000,"P-17-1",           148,       190.220,       31.7347,            0.,NA,NA,"",   2.58362E+06,  -29.2505E+03,  -29.2505E+03
C:/temp/Job-17.odb,Step-1,Increment      1: Step Time =    1.000,"P-17-1",           149,       191.337,       46.2339,            0.,NA,NA,"",   3.09150E+06,   1.60189E+06,   1.60189E+06
C:/temp/Job-17.odb,Step-1,Increment      1: Step Time =    1.000,"P-17-1",           150,       180.193,       44.9450,            0.,NA,NA,"",   6.98252E+06,   7.13667E+06,   7.13667E+06
C:/temp/Job-17.odb,Step-1,Increment      1: Step Time =    1.000,"P-17-1",           151,       159.363,       21.5210,            0.,NA,NA,"",   10.9280E+06,   11.2231E+06,   11.2231E+06
C:/temp/Job-17.odb,Step-1,Increment      1: Step Time =    1.000,"P-17-1",           152,       173.274,       24.7349,            0.,NA,NA,"",   4.45411E+06,   4.84801E+06,   4.84801E+06
C:/temp/Job-17.odb,Step-1,Increment      1: Step Time =    1.000,"P-17-1",           153,       180.718,       21.1197,            0.,NA,NA,"",   2.99951E+06,   2.76376E+06,   2.76376E+06
C:/temp/Job-17.odb,Step-1,Increment      1: Step Time =    1.000,"P-17-1",           154,       187.893,       21.1160,            0.,NA,NA,"",   2.96126E+06,   581.631E+03,   581.631E+03
C:/temp/Job-17.odb,Step-1,Increment      1: Step Time =    1.000,"P-17-1",           155,       141.053,       12.6234,            0.,NA,NA,"",   21.5925E+06,   21.8338E+06,   21.8338E+06
C:/temp/Job-17.odb,Step-1,Increment      1: Step Time =    1.000,"P-17-1",           156,       148.936,       10.5783,            0.,NA,NA,"",   8.26637E+06,   5.70922E+06,   5.70922E+06
C:/temp/Job-17.odb,Step-1,Increment      1: Step Time =    1.000,"P-17-1",           157,       159.731,       10.1347,            0.,NA,NA,"",   3.99573E+06,   477.931E+03,   477.931E+03
C:/temp/Job-17.odb,Step-1,Increment      1: Step Time =    1.000,"P-17-1",           158,       169.402,       10.3015,            0.,NA,NA,"",   3.20448E+06,  -66.9188E+03,  -66.9188E+03
C:/temp/Job-17.odb,Step-1,Increment      1: Step Time =    1.000,"P-17-1",           159,       179.499,       9.71493,            0.,NA,NA,"",   2.84149E+06,   15.4221E+03,   15.4221E+03
C:/temp/Job-17.odb,Step-1,Increment      1: Step Time =    1.000,"P-17-1",           160,       189.549,       10.0191,            0.,NA,NA,"",   2.31920E+06,  -1.36750E+06,  -1.36750E+06
C:/temp/Job-17.odb,Step-1,Increment      1: Step Time =    1.000,"P-17-1",           161,       65.0520,       10.9692,            0.,NA,NA,"",   15.4990E+06,  -15.7169E+06,  -15.7169E+06
C:/temp/Job-17.odb,Step-1,Increment      1: Step Time =    1.000,"P-17-1",           162,       53.0235,       9.72497,            0.,NA,NA,"",   9.48978E+06,   5.63557E+06,   5.63557E+06
C:/temp/Job-17.odb,Step-1,Increment      1: Step Time =    1.000,"P-17-1",           163,       40.5345,       9.60139,            0.,NA,NA,"",   11.2074E+06,   10.9039E+06,   10.9039E+06
C:/temp/Job-17.odb,Step-1,Increment      1: Step Time =    1.000,"P-17-1",           164,       30.1354,       9.19805,            0.,NA,NA,"",   11.5987E+06,   11.5286E+06,   11.5286E+06
C:/temp/Job-17.odb,Step-1,Increment      1: Step Time =    1.000,"P-17-1",           165,       20.3806,       9.86890,            0.,NA,NA,"",   10.6269E+06,   10.7140E+06,   10.7140E+06
C:/temp/Job-17.odb,Step-1,Increment      1: Step Time =    1.000,"P-17-1",           166,       10.3559,       10.2436,            0.,NA,NA,"",   9.67044E+06,   9.92470E+06,   9.92470E+06
C:/temp/Job-17.odb,Step-1,Increment      1: Step Time =    1.000,"P-17-1",           167,       45.0483,       19.8272,            0.,NA,NA,"",   12.9491E+06,  -13.2881E+06,  -13.2881E+06
C:/temp/Job-17.odb,Step-1,Increment      1: Step Time =    1.000,"P-17-1",           168,       30.3772,       21.1098,            0.,NA,NA,"",   3.05894E+06,  -2.22412E+06,  -2.22412E+06
C:/temp/Job-17.odb,Step-1,Increment      1: Step Time =    1.000,"P-17-1",           169,       22.4320,       20.6696,            0.,NA,NA,"",   2.58119E+06,   1.26374E+06,   1.26374E+06
C:/temp/Job-17.odb,Step-1,Increment      1: Step Time =    1.000,"P-17-1",           170,       10.6891,       20.5437,            0.,NA,NA,"",   2.82237E+06,   3.13089E+06,   3.13089E+06
C:/temp/Job-17.odb,Step-1,Increment      1: Step Time =    1.000,"P-17-1",           171,       33.8291,       30.2717,            0.,NA,NA,"",   12.0233E+06,  -12.1856E+06,  -12.1856E+06
C:/temp/Job-17.odb,Step-1,Increment      1: Step Time =    1.000,"P-17-1",           172,       18.4265,       30.5584,            0.,NA,NA,"",   4.28224E+06,  -3.86606E+06,  -3.86606E+06
C:/temp/Job-17.odb,Step-1,Increment      1: Step Time =    1.000,"P-17-1",           173,       10.1559,       30.4980,            0.,NA,NA,"",   2.82312E+06,  -1.72358E+06,  -1.72358E+06
C:/temp/Job-17.odb,Step-1,Increment      1: Step Time =    1.000,"P-17-1",           174,       21.6024,       40.5819,            0.,NA,NA,"",   7.20410E+06,  -7.19877E+06,  -7.19877E+06
C:/temp/Job-17.odb,Step-1,Increment      1: Step Time =    1.000,"P-17-1",           175,       10.0807,       40.2384,            0.,NA,NA,"",   4.46151E+06,  -4.21598E+06,  -4.21598E+06
C:/temp/Job-17.odb,Step-1,Increment      1: Step Time =    1.000,"P-17-1",           176,       10.5662,       51.0567,            0.,NA,NA,"",   4.16499E+06,  -4.12427E+06,  -4.12427E+06
C:/temp/Job-17.odb,Step-1,Increment      1: Step Time =    1.000,"P-17-1",           177,       12.6199,       58.9470,            0.,NA,NA,"",   3.02589E+06,  -3.04835E+06,  -3.04835E+06
C:/temp/Job-17.odb,Step-1,Increment      1: Step Time =    1.000,"P-17-1",           178,       5.93296,       145.665,            0.,NA,NA,"",   3.42206E+06,  -3.41851E+06,  -3.41851E+06
C:/temp/Job-17.odb,Step-1,Increment      1: Step Time =    1.000,"P-17-1",           179,       18.6408,       154.766,            0.,NA,NA,"",   6.05129E+06,  -6.04089E+06,  -6.04089E+06
C:/temp/Job-17.odb,Step-1,Increment      1: Step Time =    1.000,"P-17-1",           180,       10.5735,       158.026,            0.,NA,NA,"",   4.61014E+06,  -4.43187E+06,  -4.43187E+06
C:/temp/Job-17.odb,Step-1,Increment      1: Step Time =    1.000,"P-17-1",           181,       29.7450,       166.036,            0.,NA,NA,"",   10.5382E+06,  -10.6138E+06,  -10.6138E+06
C:/temp/Job-17.odb,Step-1,Increment      1: Step Time =    1.000,"P-17-1",           182,       19.5490,       168.591,            0.,NA,NA,"",   4.76520E+06,  -4.41290E+06,  -4.41290E+06
C:/temp/Job-17.odb,Step-1,Increment      1: Step Time =    1.000,"P-17-1",           183,       11.8459,       169.308,            0.,NA,NA,"",   3.12222E+06,  -2.09677E+06,  -2.09677E+06
C:/temp/Job-17.odb,Step-1,Increment      1: Step Time =    1.000,"P-17-1",           184,       40.1146,       178.422,            0.,NA,NA,"",   9.75580E+06,  -10.0813E+06,  -10.0813E+06
C:/temp/Job-17.odb,Step-1,Increment      1: Step Time =    1.000,"P-17-1",           185,       29.1724,       181.823,            0.,NA,NA,"",   2.89249E+06,   1.93908E+06,   1.93908E+06
C:/temp/Job-17.odb,Step-1,Increment      1: Step Time =    1.000,"P-17-1",           186,       22.3032,       180.963,            0.,NA,NA,"",   2.91689E+06,   2.90753E+06,   2.90753E+06
C:/temp/Job-17.odb,Step-1,Increment      1: Step Time =    1.000,"P-17-1",           187,       10.9273,       179.914,            0.,NA,NA,"",   3.09326E+06,   3.43118E+06,   3.43118E+06
C:/temp/Job-17.odb,Step-1,Increment      1: Step Time =    1.000,"P-17-1",           188,       95.0192,       191.865,            0.,NA,NA,"",   19.5953E+06,   18.8040E+06,   18.8040E+06
C:/temp/Job-17.odb,Step-1,Increment      1: Step Time =    1.000,"P-17-1",           189,       90.0530,       191.461,            0.,NA,NA,"",   11.3816E+06,   3.10291E+06,   3.10291E+06
C:/temp/Job-17.odb,Step-1,Increment      1: Step Time =    1.000,"P-17-1",           190,       80.2227,       189.849,            0.,NA,NA,"",   17.0392E+06,  -16.6968E+06,  -16.6968E+06
C:/temp/Job-17.odb,Step-1,Increment      1: Step Time =    1.000,"P-17-1",           191,       75.3874,       188.647,            0.,NA,NA,"",   22.0657E+06,  -21.7825E+06,  -21.7825E+06
C:/temp/Job-17.odb,Step-1,Increment      1: Step Time =    1.000,"P-17-1",           192,       65.9473,       185.466,            0.,NA,NA,"",   23.6045E+06,  -24.0067E+06,  -24.0067E+06
C:/temp/Job-17.odb,Step-1,Increment      1: Step Time =    1.000,"P-17-1",           193,       61.3702,       183.497,            0.,NA,NA,"",   23.6847E+06,  -23.8861E+06,  -23.8861E+06
C:/temp/Job-17.odb,Step-1,Increment      1: Step Time =    1.000,"P-17-1",           194,       52.5690,       178.831,            0.,NA,NA,"",   21.0719E+06,  -21.2378E+06,  -21.2378E+06
C:/temp/Job-17.odb,Step-1,Increment      1: Step Time =    1.000,"P-17-1",           195,       48.3708,       176.147,            0.,NA,NA,"",   18.6769E+06,  -18.9185E+06,  -18.9185E+06
C:/temp/Job-17.odb,Step-1,Increment      1: Step Time =    1.000,"P-17-1",           196,       40.4405,       170.119,            0.,NA,NA,"",   15.3131E+06,  -15.5629E+06,  -15.5629E+06
C:/temp/Job-17.odb,Step-1,Increment      1: Step Time =    1.000,"P-17-1",           197,       36.7317,       166.792,            0.,NA,NA,"",   13.9759E+06,  -14.0955E+06,  -14.0955E+06
C:/temp/Job-17.odb,Step-1,Increment      1: Step Time =    1.000,"P-17-1",           198,       29.8811,       159.560,            0.,NA,NA,"",   10.5826E+06,  -10.6344E+06,  -10.6344E+06
C:/temp/Job-17.odb,Step-1,Increment      1: Step Time =    1.000,"P-17-1",           199,       26.7594,       155.676,            0.,NA,NA,"",   8.58609E+06,  -8.63407E+06,  -8.63407E+06
C:/temp/Job-17.odb,Step-1,Increment      1: Step Time =    1.000,"P-17-1",           200,       21.1691,       147.431,            0.,NA,NA,"",   5.12038E+06,  -5.19504E+06,  -5.19504E+06
C:/temp/Job-17.odb,Step-1,Increment      1: Step Time =    1.000,"P-17-1",           201,       18.7169,       143.094,            0.,NA,NA,"",   3.72938E+06,  -3.76463E+06,  -3.76463E+06
C:/temp/Job-17.odb,Step-1,Increment      1: Step Time =    1.000,"P-17-1",           202,       14.5341,       134.053,            0.,NA,NA,"",   2.06361E+06,  -2.08428E+06,  -2.08428E+06
C:/temp/Job-17.odb,Step-1,Increment      1: Step Time =    1.000,"P-17-1",           203,       12.8159,       129.376,            0.,NA,NA,"",   1.58752E+06,  -1.59107E+06,  -1.59107E+06
C:/temp/Job-17.odb,Step-1,Increment      1: Step Time =    1.000,"P-17-1",           204,       10.1509,       119.777,            0.,NA,NA,"",   804.454E+03,  -803.395E+03,  -803.395E+03
C:/temp/Job-17.odb,Step-1,Increment      1: Step Time =    1.000,"P-17-1",           205,       9.21196,       114.884,            0.,NA,NA,"",   549.111E+03,  -554.100E+03,  -554.100E+03
C:/temp/Job-17.odb,Step-1,Increment      1: Step Time =    1.000,"P-17-1",           206,       8.13493,       104.981,            0.,NA,NA,"",   215.761E+03,  -221.087E+03,  -221.087E+03
C:/temp/Job-17.odb,Step-1,Increment      1: Step Time =    1.000,"P-17-1",           207,            8.,          100.,            0.,NA,NA,"",   174.428E+03,  -180.218E+03,  -180.218E+03
C:/temp/Job-17.odb,Step-1,Increment      1: Step Time =    1.000,"P-17-1",           208,       8.53931,       90.0530,            0.,NA,NA,"",   332.365E+03,  -337.180E+03,  -337.180E+03
C:/temp/Job-17.odb,Step-1,Increment      1: Step Time =    1.000,"P-17-1",           209,       9.21196,       85.1161,            0.,NA,NA,"",   540.001E+03,  -545.863E+03,  -545.863E+03
C:/temp/Job-17.odb,Step-1,Increment      1: Step Time =    1.000,"P-17-1",           210,       11.3534,       75.3874,            0.,NA,NA,"",   1.16093E+06,  -1.16331E+06,  -1.16331E+06
C:/temp/Job-17.odb,Step-1,Increment      1: Step Time =    1.000,"P-17-1",           211,       12.8159,       70.6243,            0.,NA,NA,"",   1.60030E+06,  -1.62223E+06,  -1.62223E+06
C:/temp/Job-17.odb,Step-1,Increment      1: Step Time =    1.000,"P-17-1",           212,       16.5031,       61.3702,            0.,NA,NA,"",   2.88671E+06,  -2.90664E+06,  -2.90664E+06
C:/temp/Job-17.odb,Step-1,Increment      1: Step Time =    1.000,"P-17-1",           213,       18.7169,       56.9064,            0.,NA,NA,"",   3.81522E+06,  -3.85374E+06,  -3.85374E+06
C:/temp/Job-17.odb,Step-1,Increment      1: Step Time =    1.000,"P-17-1",           214,       23.8526,       48.3708,            0.,NA,NA,"",   6.69899E+06,  -6.80217E+06,  -6.80217E+06
C:/temp/Job-17.odb,Step-1,Increment      1: Step Time =    1.000,"P-17-1",           215,       26.7594,       44.3240,            0.,NA,NA,"",   8.54502E+06,  -8.64469E+06,  -8.64469E+06
C:/temp/Job-17.odb,Step-1,Increment      1: Step Time =    1.000,"P-17-1",           216,       33.2084,       36.7317,            0.,NA,NA,"",   12.6191E+06,  -12.6845E+06,  -12.6845E+06
C:/temp/Job-17.odb,Step-1,Increment      1: Step Time =    1.000,"P-17-1",           217,       36.7317,       33.2084,            0.,NA,NA,"",   14.4449E+06,  -14.5666E+06,  -14.5666E+06
C:/temp/Job-17.odb,Step-1,Increment      1: Step Time =    1.000,"P-17-1",           218,       44.3240,       26.7594,            0.,NA,NA,"",   17.6616E+06,  -17.8833E+06,  -17.8833E+06
C:/temp/Job-17.odb,Step-1,Increment      1: Step Time =    1.000,"P-17-1",           219,       48.3708,       23.8526,            0.,NA,NA,"",   19.3000E+06,  -19.5649E+06,  -19.5649E+06
C:/temp/Job-17.odb,Step-1,Increment      1: Step Time =    1.000,"P-17-1",           220,       56.9064,       18.7169,            0.,NA,NA,"",   23.1457E+06,  -23.3933E+06,  -23.3933E+06
C:/temp/Job-17.odb,Step-1,Increment      1: Step Time =    1.000,"P-17-1",           221,       61.3702,       16.5031,            0.,NA,NA,"",   25.0580E+06,  -25.2548E+06,  -25.2548E+06
C:/temp/Job-17.odb,Step-1,Increment      1: Step Time =    1.000,"P-17-1",           222,       70.6243,       12.8159,            0.,NA,NA,"",   26.4895E+06,  -26.5385E+06,  -26.5385E+06
C:/temp/Job-17.odb,Step-1,Increment      1: Step Time =    1.000,"P-17-1",           223,       75.3874,       11.3534,            0.,NA,NA,"",   23.1157E+06,  -22.9979E+06,  -22.9979E+06
C:/temp/Job-17.odb,Step-1,Increment      1: Step Time =    1.000,"P-17-1",           224,       85.1161,       9.21196,            0.,NA,NA,"",   11.9035E+06,  -10.4497E+06,  -10.4497E+06
C:/temp/Job-17.odb,Step-1,Increment      1: Step Time =    1.000,"P-17-1",           225,       90.0530,       8.53931,            0.,NA,NA,"",   11.1183E+06,   2.41893E+06,   2.41893E+06
C:/temp/Job-17.odb,Step-1,Increment      1: Step Time =    1.000,"P-17-1",           226,          100.,            8.,            0.,NA,NA,"",   30.6866E+06,   30.3896E+06,   30.3896E+06
C:/temp/Job-17.odb,Step-1,Increment      1: Step Time =    1.000,"P-17-1",           227,       109.947,       8.53931,            0.,NA,NA,"",    47.896E+06,   48.0281E+06,   48.0281E+06
C:/temp/Job-17.odb,Step-1,Increment      1: Step Time =    1.000,"P-17-1",           228,       114.884,       9.21196,            0.,NA,NA,"",   50.3388E+06,   50.5076E+06,   50.5076E+06
C:/temp/Job-17.odb,Step-1,Increment      1: Step Time =    1.000,"P-17-1",           229,       124.613,       11.3534,            0.,NA,NA,"",   46.4212E+06,   46.5676E+06,   46.5676E+06
C:/temp/Job-17.odb,Step-1,Increment      1: Step Time =    1.000,"P-17-1",           230,       129.376,       12.8159,            0.,NA,NA,"",   40.8747E+06,   41.0151E+06,   41.0151E+06
C:/temp/Job-17.odb,Step-1,Increment      1: Step Time =    1.000,"P-17-1",           231,       138.630,       16.5031,            0.,NA,NA,"",   29.7721E+06,   30.1372E+06,   30.1372E+06
C:/temp/Job-17.odb,Step-1,Increment      1: Step Time =    1.000,"P-17-1",           232,       143.094,       18.7169,            0.,NA,NA,"",   25.6490E+06,   25.8375E+06,   25.8375E+06
C:/temp/Job-17.odb,Step-1,Increment      1: Step Time =    1.000,"P-17-1",           233,       151.629,       23.8526,            0.,NA,NA,"",   17.5464E+06,   17.7593E+06,   17.7593E+06
C:/temp/Job-17.odb,Step-1,Increment      1: Step Time =    1.000,"P-17-1",           234,       155.676,       26.7594,            0.,NA,NA,"",   14.7679E+06,   15.0048E+06,   15.0048E+06
C:/temp/Job-17.odb,Step-1,Increment      1: Step Time =    1.000,"P-17-1",           235,       163.268,       33.2084,            0.,NA,NA,"",   11.1163E+06,   11.2589E+06,   11.2589E+06
C:/temp/Job-17.odb,Step-1,Increment      1: Step Time =    1.000,"P-17-1",           236,       166.792,       36.7317,            0.,NA,NA,"",   10.0697E+06,   10.2059E+06,   10.2059E+06
C:/temp/Job-17.odb,Step-1,Increment      1: Step Time =    1.000,"P-17-1",           237,       173.241,       44.3240,            0.,NA,NA,"",   9.01971E+06,   9.14013E+06,   9.14013E+06
C:/temp/Job-17.odb,Step-1,Increment      1: Step Time =    1.000,"P-17-1",           238,       176.147,       48.3708,            0.,NA,NA,"",   8.71023E+06,    8.8169E+06,    8.8169E+06
C:/temp/Job-17.odb,Step-1,Increment      1: Step Time =    1.000,"P-17-1",           239,       181.283,       56.9064,            0.,NA,NA,"",   7.40304E+06,   7.39448E+06,   7.39448E+06
C:/temp/Job-17.odb,Step-1,Increment      1: Step Time =    1.000,"P-17-1",           240,       183.497,       61.3702,            0.,NA,NA,"",   5.89948E+06,   5.84119E+06,   5.84119E+06
C:/temp/Job-17.odb,Step-1,Increment      1: Step Time =    1.000,"P-17-1",           241,       187.184,       70.6243,            0.,NA,NA,"",   3.00697E+06,   868.788E+03,   868.788E+03
C:/temp/Job-17.odb,Step-1,Increment      1: Step Time =    1.000,"P-17-1",           242,       188.647,       75.3874,            0.,NA,NA,"",   5.01364E+06,  -5.04801E+06,  -5.04801E+06
C:/temp/Job-17.odb,Step-1,Increment      1: Step Time =    1.000,"P-17-1",           243,       190.788,       85.1161,            0.,NA,NA,"",   15.3842E+06,  -15.2527E+06,  -15.2527E+06
C:/temp/Job-17.odb,Step-1,Increment      1: Step Time =    1.000,"P-17-1",           244,       191.461,       90.0530,            0.,NA,NA,"",   20.4221E+06,  -20.4188E+06,  -20.4188E+06
C:/temp/Job-17.odb,Step-1,Increment      1: Step Time =    1.000,"P-17-1",           245,          192.,          100.,            0.,NA,NA,"",   25.5452E+06,  -25.5903E+06,  -25.5903E+06
C:/temp/Job-17.odb,Step-1,Increment      1: Step Time =    1.000,"P-17-1",           246,       191.865,       104.981,            0.,NA,NA,"",   24.1344E+06,  -24.1461E+06,  -24.1461E+06
C:/temp/Job-17.odb,Step-1,Increment      1: Step Time =    1.000,"P-17-1",           247,       190.788,       114.884,            0.,NA,NA,"",   15.2031E+06,  -15.0647E+06,  -15.0647E+06
C:/temp/Job-17.odb,Step-1,Increment      1: Step Time =    1.000,"P-17-1",           248,       189.849,       119.777,            0.,NA,NA,"",   9.76787E+06,  -9.73594E+06,  -9.73594E+06
C:/temp/Job-17.odb,Step-1,Increment      1: Step Time =    1.000,"P-17-1",           249,       187.184,       129.376,            0.,NA,NA,"",   3.78155E+06,   377.845E+03,   377.845E+03
C:/temp/Job-17.odb,Step-1,Increment      1: Step Time =    1.000,"P-17-1",           250,       185.466,       134.053,            0.,NA,NA,"",   4.66501E+06,   4.26524E+06,   4.26524E+06
C:/temp/Job-17.odb,Step-1,Increment      1: Step Time =    1.000,"P-17-1",           251,       181.283,       143.094,            0.,NA,NA,"",   7.66202E+06,   7.65404E+06,   7.65404E+06
C:/temp/Job-17.odb,Step-1,Increment      1: Step Time =    1.000,"P-17-1",           252,       178.831,       147.431,            0.,NA,NA,"",   8.35696E+06,   8.40076E+06,   8.40076E+06
C:/temp/Job-17.odb,Step-1,Increment      1: Step Time =    1.000,"P-17-1",           253,       173.241,       155.676,            0.,NA,NA,"",   8.77366E+06,   8.96830E+06,   8.96830E+06
C:/temp/Job-17.odb,Step-1,Increment      1: Step Time =    1.000,"P-17-1",           254,       170.119,       159.560,            0.,NA,NA,"",   9.31438E+06,   9.45223E+06,   9.45223E+06
C:/temp/Job-17.odb,Step-1,Increment      1: Step Time =    1.000,"P-17-1",           255,       163.268,       166.792,            0.,NA,NA,"",   11.1532E+06,   11.2985E+06,   11.2985E+06
C:/temp/Job-17.odb,Step-1,Increment      1: Step Time =    1.000,"P-17-1",           256,       159.560,       170.119,            0.,NA,NA,"",   12.7482E+06,   12.9431E+06,   12.9431E+06
C:/temp/Job-17.odb,Step-1,Increment      1: Step Time =    1.000,"P-17-1",           257,       151.629,       176.147,            0.,NA,NA,"",   17.8155E+06,   18.0645E+06,   18.0645E+06
C:/temp/Job-17.odb,Step-1,Increment      1: Step Time =    1.000,"P-17-1",           258,       147.431,       178.831,            0.,NA,NA,"",   21.2784E+06,   21.5054E+06,   21.5054E+06
C:/temp/Job-17.odb,Step-1,Increment      1: Step Time =    1.000,"P-17-1",           259,       138.630,       183.497,            0.,NA,NA,"",   31.8204E+06,   32.2784E+06,   32.2784E+06
C:/temp/Job-17.odb,Step-1,Increment      1: Step Time =    1.000,"P-17-1",           260,       134.053,       185.466,            0.,NA,NA,"",   40.9397E+06,   40.6828E+06,   40.6828E+06
C:/temp/Job-17.odb,Step-1,Increment      1: Step Time =    1.000,"P-17-1",           261,       124.613,       188.647,            0.,NA,NA,"",   47.9521E+06,   48.4310E+06,   48.4310E+06
C:/temp/Job-17.odb,Step-1,Increment      1: Step Time =    1.000,"P-17-1",           262,       119.777,       189.849,            0.,NA,NA,"",   49.7118E+06,   50.2515E+06,   50.2515E+06
C:/temp/Job-17.odb,Step-1,Increment      1: Step Time =    1.000,"P-17-1",           263,       109.947,       191.461,            0.,NA,NA,"",   48.8516E+06,   48.9527E+06,   48.9527E+06
C:/temp/Job-17.odb,Step-1,Increment      1: Step Time =    1.000,"P-17-1",           264,       104.981,       191.865,            0.,NA,NA,"",   42.1189E+06,   42.0956E+06,   42.0956E+06
C:/temp/Job-17.odb,Step-1,Increment      1: Step Time =    1.000,"P-17-1",           265,          195.,            0.,            0.,NA,NA,"",   876.684E+03,   778.880E+03,   778.880E+03
C:/temp/Job-17.odb,Step-1,Increment      1: Step Time =    1.000,"P-17-1",           266,          185.,            0.,            0.,NA,NA,"",   1.31485E+06,  -1.13739E+06,  -1.13739E+06
C:/temp/Job-17.odb,Step-1,Increment      1: Step Time =    1.000,"P-17-1",           267,          175.,            0.,            0.,NA,NA,"",   3.58665E+06,  -3.49140E+06,  -3.49140E+06
C:/temp/Job-17.odb,Step-1,Increment      1: Step Time =    1.000,"P-17-1",           268,          165.,            0.,            0.,NA,NA,"",   6.40794E+06,  -6.37401E+06,  -6.37401E+06
C:/temp/Job-17.odb,Step-1,Increment      1: Step Time =    1.000,"P-17-1",           269,          155.,            0.,            0.,NA,NA,"",   10.3650E+06,  -10.3985E+06,  -10.3985E+06
C:/temp/Job-17.odb,Step-1,Increment      1: Step Time =    1.000,"P-17-1",           270,          145.,            0.,            0.,NA,NA,"",   15.6998E+06,  -15.7094E+06,  -15.7094E+06
C:/temp/Job-17.odb,Step-1,Increment      1: Step Time =    1.000,"P-17-1",           271,          135.,            0.,            0.,NA,NA,"",   22.6501E+06,  -22.6535E+06,  -22.6535E+06
C:/temp/Job-17.odb,Step-1,Increment      1: Step Time =    1.000,"P-17-1",           272,          125.,            0.,            0.,NA,NA,"",   27.1877E+06,  -26.8061E+06,  -26.8061E+06
C:/temp/Job-17.odb,Step-1,Increment      1: Step Time =    1.000,"P-17-1",           273,          115.,            0.,            0.,NA,NA,"",   25.6426E+06,  -25.2547E+06,  -25.2547E+06
C:/temp/Job-17.odb,Step-1,Increment      1: Step Time =    1.000,"P-17-1",           274,          105.,            0.,            0.,NA,NA,"",   16.4695E+06,  -15.5564E+06,  -15.5564E+06
C:/temp/Job-17.odb,Step-1,Increment      1: Step Time =    1.000,"P-17-1",           275,           95.,            0.,            0.,NA,NA,"",   12.7613E+06,   10.8195E+06,   10.8195E+06
C:/temp/Job-17.odb,Step-1,Increment      1: Step Time =    1.000,"P-17-1",           276,           85.,            0.,            0.,NA,NA,"",   28.3268E+06,   27.7570E+06,   27.7570E+06
C:/temp/Job-17.odb,Step-1,Increment      1: Step Time =    1.000,"P-17-1",           277,           75.,            0.,            0.,NA,NA,"",   36.5794E+06,   36.2910E+06,   36.2910E+06
C:/temp/Job-17.odb,Step-1,Increment      1: Step Time =    1.000,"P-17-1",           278,           65.,            0.,            0.,NA,NA,"",   37.8326E+06,   37.7576E+06,   37.7576E+06
C:/temp/Job-17.odb,Step-1,Increment      1: Step Time =    1.000,"P-17-1",           279,           55.,            0.,            0.,NA,NA,"",   33.8244E+06,   33.7713E+06,   33.7713E+06
C:/temp/Job-17.odb,Step-1,Increment      1: Step Time =    1.000,"P-17-1",           280,           45.,            0.,            0.,NA,NA,"",   27.5734E+06,   27.5846E+06,   27.5846E+06
C:/temp/Job-17.odb,Step-1,Increment      1: Step Time =    1.000,"P-17-1",           281,           35.,            0.,            0.,NA,NA,"",   22.6481E+06,   22.6152E+06,   22.6152E+06
C:/temp/Job-17.odb,Step-1,Increment      1: Step Time =    1.000,"P-17-1",           282,           25.,            0.,            0.,NA,NA,"",   18.2735E+06,   18.3000E+06,   18.3000E+06
C:/temp/Job-17.odb,Step-1,Increment      1: Step Time =    1.000,"P-17-1",           283,           15.,            0.,            0.,NA,NA,"",   15.3597E+06,   15.3935E+06,   15.3935E+06
C:/temp/Job-17.odb,Step-1,Increment      1: Step Time =    1.000,"P-17-1",           284,            5.,            0.,            0.,NA,NA,"",   13.8320E+06,   14.0957E+06,   14.0957E+06
C:/temp/Job-17.odb,Step-1,Increment      1: Step Time =    1.000,"P-17-1",           285,          200.,          195.,            0.,NA,NA,"",   1.13899E+06,   928.333E+03,   928.333E+03
C:/temp/Job-17.odb,Step-1,Increment      1: Step Time =    1.000,"P-17-1",           286,          200.,          185.,            0.,NA,NA,"",   2.52381E+06,  -1.81061E+06,  -1.81061E+06
C:/temp/Job-17.odb,Step-1,Increment      1: Step Time =    1.000,"P-17-1",           287,          200.,          175.,            0.,NA,NA,"",   4.13595E+06,  -3.48123E+06,  -3.48123E+06
C:/temp/Job-17.odb,Step-1,Increment      1: Step Time =    1.000,"P-17-1",           288,          200.,          165.,            0.,NA,NA,"",   4.81274E+06,  -4.16972E+06,  -4.16972E+06
C:/temp/Job-17.odb,Step-1,Increment      1: Step Time =    1.000,"P-17-1",           289,          200.,          155.,            0.,NA,NA,"",   4.24618E+06,  -3.53495E+06,  -3.53495E+06
C:/temp/Job-17.odb,Step-1,Increment      1: Step Time =    1.000,"P-17-1",           290,          200.,          145.,            0.,NA,NA,"",   2.54152E+06,  -252.488E+03,  -252.488E+03
C:/temp/Job-17.odb,Step-1,Increment      1: Step Time =    1.000,"P-17-1",           291,          200.,          135.,            0.,NA,NA,"",   4.05472E+06,   4.28962E+06,   4.28962E+06
C:/temp/Job-17.odb,Step-1,Increment      1: Step Time =    1.000,"P-17-1",           292,          200.,          125.,            0.,NA,NA,"",   11.7066E+06,   12.0507E+06,   12.0507E+06
C:/temp/Job-17.odb,Step-1,Increment      1: Step Time =    1.000,"P-17-1",           293,          200.,          115.,            0.,NA,NA,"",   22.5458E+06,   22.7600E+06,   22.7600E+06
C:/temp/Job-17.odb,Step-1,Increment      1: Step Time =    1.000,"P-17-1",           294,          200.,          105.,            0.,NA,NA,"",   32.2598E+06,   32.4804E+06,   32.4804E+06
C:/temp/Job-17.odb,Step-1,Increment      1: Step Time =    1.000,"P-17-1",           295,          200.,           95.,            0.,NA,NA,"",   32.3056E+06,   32.5211E+06,   32.5211E+06
C:/temp/Job-17.odb,Step-1,Increment      1: Step Time =    1.000,"P-17-1",           296,          200.,           85.,            0.,NA,NA,"",   22.5890E+06,   22.8025E+06,   22.8025E+06
C:/temp/Job-17.odb,Step-1,Increment      1: Step Time =    1.000,"P-17-1",           297,          200.,           75.,            0.,NA,NA,"",   11.2225E+06,   11.6346E+06,   11.6346E+06
C:/temp/Job-17.odb,Step-1,Increment      1: Step Time =    1.000,"P-17-1",           298,          200.,           65.,            0.,NA,NA,"",   3.33903E+06,   3.62368E+06,   3.62368E+06
C:/temp/Job-17.odb,Step-1,Increment      1: Step Time =    1.000,"P-17-1",           299,          200.,           55.,            0.,NA,NA,"",   2.56820E+06,  -526.638E+03,  -526.638E+03
C:/temp/Job-17.odb,Step-1,Increment      1: Step Time =    1.000,"P-17-1",           300,          200.,           45.,            0.,NA,NA,"",   4.34026E+06,  -3.70969E+06,  -3.70969E+06
C:/temp/Job-17.odb,Step-1,Increment      1: Step Time =    1.000,"P-17-1",           301,          200.,           35.,            0.,NA,NA,"",   4.88065E+06,  -4.24958E+06,  -4.24958E+06
C:/temp/Job-17.odb,Step-1,Increment      1: Step Time =    1.000,"P-17-1",           302,          200.,           25.,            0.,NA,NA,"",   4.07989E+06,  -3.40469E+06,  -3.40469E+06
C:/temp/Job-17.odb,Step-1,Increment      1: Step Time =    1.000,"P-17-1",           303,          200.,           15.,            0.,NA,NA,"",   2.53505E+06,  -1.79740E+06,  -1.79740E+06
C:/temp/Job-17.odb,Step-1,Increment      1: Step Time =    1.000,"P-17-1",           304,          200.,            5.,            0.,NA,NA,"",   1.13664E+06,   926.884E+03,   926.884E+03
C:/temp/Job-17.odb,Step-1,Increment      1: Step Time =    1.000,"P-17-1",           305,            5.,          200.,            0.,NA,NA,"",   13.7678E+06,   14.0321E+06,   14.0321E+06
C:/temp/Job-17.odb,Step-1,Increment      1: Step Time =    1.000,"P-17-1",           306,           15.,          200.,            0.,NA,NA,"",   15.3134E+06,   15.3393E+06,   15.3393E+06
C:/temp/Job-17.odb,Step-1,Increment      1: Step Time =    1.000,"P-17-1",           307,           25.,          200.,            0.,NA,NA,"",   18.2146E+06,   18.2193E+06,   18.2193E+06
C:/temp/Job-17.odb,Step-1,Increment      1: Step Time =    1.000,"P-17-1",           308,           35.,          200.,            0.,NA,NA,"",   22.0565E+06,   22.0620E+06,   22.0620E+06
C:/temp/Job-17.odb,Step-1,Increment      1: Step Time =    1.000,"P-17-1",           309,           45.,          200.,            0.,NA,NA,"",   27.0921E+06,   27.1030E+06,   27.1030E+06
C:/temp/Job-17.odb,Step-1,Increment      1: Step Time =    1.000,"P-17-1",           310,           55.,          200.,            0.,NA,NA,"",   32.6916E+06,   32.6820E+06,   32.6820E+06
C:/temp/Job-17.odb,Step-1,Increment      1: Step Time =    1.000,"P-17-1",           311,           65.,          200.,            0.,NA,NA,"",   37.8131E+06,   37.7123E+06,   37.7123E+06
C:/temp/Job-17.odb,Step-1,Increment      1: Step Time =    1.000,"P-17-1",           312,           75.,          200.,            0.,NA,NA,"",   36.9567E+06,   36.5408E+06,   36.5408E+06
C:/temp/Job-17.odb,Step-1,Increment      1: Step Time =    1.000,"P-17-1",           313,           85.,          200.,            0.,NA,NA,"",   27.6600E+06,   27.0888E+06,   27.0888E+06
C:/temp/Job-17.odb,Step-1,Increment      1: Step Time =    1.000,"P-17-1",           314,           95.,          200.,            0.,NA,NA,"",   12.2785E+06,   10.1520E+06,   10.1520E+06
C:/temp/Job-17.odb,Step-1,Increment      1: Step Time =    1.000,"P-17-1",           315,          105.,          200.,            0.,NA,NA,"",   17.2875E+06,  -16.3814E+06,  -16.3814E+06
C:/temp/Job-17.odb,Step-1,Increment      1: Step Time =    1.000,"P-17-1",           316,          115.,          200.,            0.,NA,NA,"",   26.3916E+06,  -25.9370E+06,  -25.9370E+06
C:/temp/Job-17.odb,Step-1,Increment      1: Step Time =    1.000,"P-17-1",           317,          125.,          200.,            0.,NA,NA,"",   25.6699E+06,  -25.5861E+06,  -25.5861E+06
C:/temp/Job-17.odb,Step-1,Increment      1: Step Time =    1.000,"P-17-1",           318,          135.,          200.,            0.,NA,NA,"",   22.2215E+06,  -22.2906E+06,  -22.2906E+06
C:/temp/Job-17.odb,Step-1,Increment      1: Step Time =    1.000,"P-17-1",           319,          145.,          200.,            0.,NA,NA,"",   16.9583E+06,  -16.8931E+06,  -16.8931E+06
C:/temp/Job-17.odb,Step-1,Increment      1: Step Time =    1.000,"P-17-1",           320,          155.,          200.,            0.,NA,NA,"",   11.2347E+06,  -11.1785E+06,  -11.1785E+06
C:/temp/Job-17.odb,Step-1,Increment      1: Step Time =    1.000,"P-17-1",           321,          165.,          200.,            0.,NA,NA,"",   6.95196E+06,  -6.89981E+06,  -6.89981E+06
C:/temp/Job-17.odb,Step-1,Increment      1: Step Time =    1.000,"P-17-1",           322,          175.,          200.,            0.,NA,NA,"",   3.64069E+06,  -3.57386E+06,  -3.57386E+06
C:/temp/Job-17.odb,Step-1,Increment      1: Step Time =    1.000,"P-17-1",           323,          185.,          200.,            0.,NA,NA,"",   1.44616E+06,  -1.26468E+06,  -1.26468E+06
C:/temp/Job-17.odb,Step-1,Increment      1: Step Time =    1.000,"P-17-1",           324,          195.,          200.,            0.,NA,NA,"",   891.522E+03,   775.929E+03,   775.929E+03
C:/temp/Job-17.odb,Step-1,Increment      1: Step Time =    1.000,"P-17-1",           325,            0.,            5.,            0.,NA,NA,"",   11.6323E+06,   12.4641E+06,   12.4641E+06
C:/temp/Job-17.odb,Step-1,Increment      1: Step Time =    1.000,"P-17-1",           326,            0.,           15.,            0.,NA,NA,"",   5.89232E+06,   6.49167E+06,   6.49167E+06
C:/temp/Job-17.odb,Step-1,Increment      1: Step Time =    1.000,"P-17-1",           327,            0.,           25.,            0.,NA,NA,"",   1.70362E+06,   1.66230E+06,   1.66230E+06
C:/temp/Job-17.odb,Step-1,Increment      1: Step Time =    1.000,"P-17-1",           328,            0.,           35.,            0.,NA,NA,"",   2.38636E+06,  -2.41300E+06,  -2.41300E+06
C:/temp/Job-17.odb,Step-1,Increment      1: Step Time =    1.000,"P-17-1",           329,            0.,           45.,            0.,NA,NA,"",   3.61408E+06,  -3.69267E+06,  -3.69267E+06
C:/temp/Job-17.odb,Step-1,Increment      1: Step Time =    1.000,"P-17-1",           330,            0.,           55.,            0.,NA,NA,"",   3.41068E+06,  -3.35733E+06,  -3.35733E+06
C:/temp/Job-17.odb,Step-1,Increment      1: Step Time =    1.000,"P-17-1",           331,            0.,           65.,            0.,NA,NA,"",   2.26997E+06,  -2.12680E+06,  -2.12680E+06
C:/temp/Job-17.odb,Step-1,Increment      1: Step Time =    1.000,"P-17-1",           332,            0.,           75.,            0.,NA,NA,"",   1.27021E+06,  -1.15958E+06,  -1.15958E+06
C:/temp/Job-17.odb,Step-1,Increment      1: Step Time =    1.000,"P-17-1",           333,            0.,           85.,            0.,NA,NA,"",   532.509E+03,  -493.440E+03,  -493.440E+03
C:/temp/Job-17.odb,Step-1,Increment      1: Step Time =    1.000,"P-17-1",           334,            0.,           95.,            0.,NA,NA,"",   158.160E+03,  -161.644E+03,  -161.644E+03
C:/temp/Job-17.odb,Step-1,Increment      1: Step Time =    1.000,"P-17-1",           335,            0.,          105.,            0.,NA,NA,"",   163.086E+03,  -166.110E+03,  -166.110E+03
C:/temp/Job-17.odb,Step-1,Increment      1: Step Time =    1.000,"P-17-1",           336,            0.,          115.,            0.,NA,NA,"",   548.031E+03,  -507.784E+03,  -507.784E+03
C:/temp/Job-17.odb,Step-1,Increment      1: Step Time =    1.000,"P-17-1",           337,            0.,          125.,            0.,NA,NA,"",   1.29940E+06,  -1.18193E+06,  -1.18193E+06
C:/temp/Job-17.odb,Step-1,Increment      1: Step Time =    1.000,"P-17-1",           338,            0.,          135.,            0.,NA,NA,"",   2.32807E+06,  -2.17420E+06,  -2.17420E+06
C:/temp/Job-17.odb,Step-1,Increment      1: Step Time =    1.000,"P-17-1",           339,            0.,          145.,            0.,NA,NA,"",   3.36241E+06,  -3.30987E+06,  -3.30987E+06
C:/temp/Job-17.odb,Step-1,Increment      1: Step Time =    1.000,"P-17-1",           340,            0.,          155.,            0.,NA,NA,"",   3.66718E+06,  -3.77044E+06,  -3.77044E+06
C:/temp/Job-17.odb,Step-1,Increment      1: Step Time =    1.000,"P-17-1",           341,            0.,          165.,            0.,NA,NA,"",   2.42104E+06,  -2.44042E+06,  -2.44042E+06
C:/temp/Job-17.odb,Step-1,Increment      1: Step Time =    1.000,"P-17-1",           342,            0.,          175.,            0.,NA,NA,"",   1.73009E+06,   1.69700E+06,   1.69700E+06
C:/temp/Job-17.odb,Step-1,Increment      1: Step Time =    1.000,"P-17-1",           343,            0.,          185.,            0.,NA,NA,"",   5.93610E+06,   6.54740E+06,   6.54740E+06
C:/temp/Job-17.odb,Step-1,Increment      1: Step Time =    1.000,"P-17-1",           344,            0.,          195.,            0.,NA,NA,"",   11.6177E+06,   12.4380E+06,   12.4380E+06
C:/temp/Job-17.odb,Step-1,Increment      1: Step Time =    1.000,"P-17-1",           345,       136.107,       9.62680,            0.,NA,NA,"",   18.2588E+06,   18.4542E+06,   18.4542E+06
C:/temp/Job-17.odb,Step-1,Increment      1: Step Time =    1.000,"P-17-1",           346,       9.62330,       63.8941,            0.,NA,NA,"",   2.24994E+06,  -2.27022E+06,  -2.27022E+06
C:/temp/Job-17.odb,Step-1,Increment      1: Step Time =    1.000,"P-17-1",           347,       94.9538,       195.832,            0.,NA,NA,"",   15.9369E+06,   14.4780E+06,   14.4780E+06
C:/temp/Job-17.odb,Step-1,Increment      1: Step Time =    1.000,"P-17-1",           348,       12.3754,       139.671,            0.,NA,NA,"",   2.78797E+06,  -2.82114E+06,  -2.82114E+06
C:/temp/Job-17.odb,Step-1,Increment      1: Step Time =    1.000,"P-17-1",           349,       19.6023,       46.0390,            0.,NA,NA,"",   6.25885E+06,  -6.29089E+06,  -6.29089E+06
C:/temp/Job-17.odb,Step-1,Increment      1: Step Time =    1.000,"P-17-1",           350,       26.4071,       37.0192,            0.,NA,NA,"",   9.17399E+06,  -9.21720E+06,  -9.21720E+06
C:/temp/Job-17.odb,Step-1,Increment      1: Step Time =    1.000,"P-17-1",           351,       26.3371,       162.412,            0.,NA,NA,"",   9.24534E+06,  -9.27601E+06,  -9.27601E+06
C:/temp/Job-17.odb,Step-1,Increment      1: Step Time =    1.000,"P-17-1",           352,       17.0410,       149.286,            0.,NA,NA,"",   4.95016E+06,  -4.97810E+06,  -4.97810E+06
C:/temp/Job-17.odb,Step-1,Increment      1: Step Time =    1.000,"P-17-1",           353,       33.1115,       169.723,            0.,NA,NA,"",   11.5421E+06,  -11.6774E+06,  -11.6774E+06
C:/temp/Job-17.odb,Step-1,Increment      1: Step Time =    1.000,"P-17-1",           354,       15.4106,       144.609,            0.,NA,NA,"",   3.79575E+06,  -3.82528E+06,  -3.82528E+06
C:/temp/Job-17.odb,Step-1,Increment      1: Step Time =    1.000,"P-17-1",           355,       50.5040,       182.443,            0.,NA,NA,"",   14.8942E+06,  -15.1518E+06,  -15.1518E+06
C:/temp/Job-17.odb,Step-1,Increment      1: Step Time =    1.000,"P-17-1",           356,       4.81758,       115.314,            0.,NA,NA,"",   548.571E+03,  -530.942E+03,  -530.942E+03
C:/temp/Job-17.odb,Step-1,Increment      1: Step Time =    1.000,"P-17-1",           357,       7.71452,       74.6350,            0.,NA,NA,"",   1.17379E+06,  -1.16428E+06,  -1.16428E+06
C:/temp/Job-17.odb,Step-1,Increment      1: Step Time =    1.000,"P-17-1",           358,       4.09433,       100.001,            0.,NA,NA,"",   136.339E+03,  -145.492E+03,  -145.492E+03
C:/temp/Job-17.odb,Step-1,Increment      1: Step Time =    1.000,"P-17-1",           359,       4.40260,       110.116,            0.,NA,NA,"",   328.127E+03,  -321.695E+03,  -321.695E+03
C:/temp/Job-17.odb,Step-1,Increment      1: Step Time =    1.000,"P-17-1",           360,       5.38743,       79.1430,            0.,NA,NA,"",   865.892E+03,  -836.774E+03,  -836.774E+03
C:/temp/Job-17.odb,Step-1,Increment      1: Step Time =    1.000,"P-17-1",           361,       4.39597,       89.8971,            0.,NA,NA,"",   323.218E+03,  -317.167E+03,  -317.167E+03
C:/temp/Job-17.odb,Step-1,Increment      1: Step Time =    1.000,"P-17-1",           362,       37.3978,       26.8333,            0.,NA,NA,"",   12.8605E+06,  -13.0853E+06,  -13.0853E+06
C:/temp/Job-17.odb,Step-1,Increment      1: Step Time =    1.000,"P-17-1",           363,       54.4776,       185.070,            0.,NA,NA,"",   14.6385E+06,  -14.8233E+06,  -14.8233E+06
C:/temp/Job-17.odb,Step-1,Increment      1: Step Time =    1.000,"P-17-1",           364,       8.28120,       128.435,            0.,NA,NA,"",   1.42762E+06,  -1.41636E+06,  -1.41636E+06
C:/temp/Job-17.odb,Step-1,Increment      1: Step Time =    1.000,"P-17-1",           365,       14.9413,       54.5140,            0.,NA,NA,"",   3.92410E+06,  -3.94474E+06,  -3.94474E+06
C:/temp/Job-17.odb,Step-1,Increment      1: Step Time =    1.000,"P-17-1",           366,       5.45127,       121.271,            0.,NA,NA,"",   903.261E+03,  -869.764E+03,  -869.764E+03
C:/temp/Job-17.odb,Step-1,Increment      1: Step Time =    1.000,"P-17-1",           367,       22.7980,       158.748,            0.,NA,NA,"",   7.73459E+06,  -7.73799E+06,  -7.73799E+06
C:/temp/Job-17.odb,Step-1,Increment      1: Step Time =    1.000,"P-17-1",           368,       4.78963,       84.7627,            0.,NA,NA,"",   536.255E+03,  -519.651E+03,  -519.651E+03
C:/temp/Job-17.odb,Step-1,Increment      1: Step Time =    1.000,"P-17-1",           369,       4.16902,       94.9538,            0.,NA,NA,"",   185.541E+03,  -189.962E+03,  -189.962E+03
C:/temp/Job-17.odb,Step-1,Increment      1: Step Time =    1.000,"P-17-1",           370,       8.61543,       124.942,            0.,NA,NA,"",   1.13295E+06,  -1.12419E+06,  -1.12419E+06
C:/temp/Job-17.odb,Step-1,Increment      1: Step Time =    1.000,"P-17-1",           371,       45.8718,       180.449,            0.,NA,NA,"",   13.3948E+06,  -13.7323E+06,  -13.7323E+06
C:/temp/Job-17.odb,Step-1,Increment      1: Step Time =    1.000,"P-17-1",           372,       4.17250,       105.050,            0.,NA,NA,"",   189.423E+03,  -193.599E+03,  -193.599E+03
C:/temp/Job-17.odb,Step-1,Increment      1: Step Time =    1.000,"P-17-1",           373,       30.2489,       33.6733,            0.,NA,NA,"",   10.8107E+06,  -10.8844E+06,  -10.8844E+06
C:/temp/Job-17.odb,Step-1,Increment      1: Step Time =    1.000,"P-17-1",           374,       8.66861,       69.6634,            0.,NA,NA,"",   1.60959E+06,  -1.61416E+06,  -1.61416E+06
C:/temp/Job-17.odb,Step-1,Increment      1: Step Time =    1.000,"P-17-1",           375,       69.6588,       191.325,            0.,NA,NA,"",   16.1657E+06,  -8.22937E+06,  -8.22937E+06
C:/temp/Job-17.odb,Step-1,Increment      1: Step Time =    1.000,"P-17-1",           376,       36.4568,       173.630,            0.,NA,NA,"",   11.7091E+06,  -11.9593E+06,  -11.9593E+06
C:/temp/Job-17.odb,Step-1,Increment      1: Step Time =    1.000,"P-17-1",           377,       79.1397,       194.615,            0.,NA,NA,"",   21.1491E+06,   7.58371E+06,   7.58371E+06
C:/temp/Job-17.odb,Step-1,Increment      1: Step Time =    1.000,"P-17-1",           378,       17.5680,       50.5764,            0.,NA,NA,"",   5.03693E+06,  -5.05460E+06,  -5.05460E+06
C:/temp/Job-17.odb,Step-1,Increment      1: Step Time =    1.000,"P-17-1",           379,       145.481,       14.9462,            0.,NA,NA,"",   19.5148E+06,   19.7273E+06,   19.7273E+06
C:/temp/Job-17.odb,Step-1,Increment      1: Step Time =    1.000,"P-17-1",           380,       84.7629,       195.214,            0.,NA,NA,"",   19.5830E+06,   8.60905E+06,   8.60905E+06
C:/temp/Job-17.odb,Step-1,Increment      1: Step Time =    1.000,"P-17-1",           381,       162.992,       26.1761,            0.,NA,NA,"",   10.5544E+06,   10.8776E+06,   10.8776E+06
C:/temp/Job-17.odb,Step-1,Increment      1: Step Time =    1.000,"P-17-1",           382,       145.287,       185.067,            0.,NA,NA,"",   19.6812E+06,   20.0690E+06,   20.0690E+06
C:/temp/Job-17.odb,Step-1,Increment      1: Step Time =    1.000,"P-17-1",           383,       191.325,       130.337,            0.,NA,NA,"",   5.11850E+06,   2.91118E+06,   2.91118E+06
C:/temp/Job-17.odb,Step-1,Increment      1: Step Time =    1.000,"P-17-1",           384,       63.8861,       190.378,            0.,NA,NA,"",   14.2358E+06,  -5.53019E+06,  -5.53019E+06
C:/temp/Job-17.odb,Step-1,Increment      1: Step Time =    1.000,"P-17-1",           385,       89.8972,       195.606,            0.,NA,NA,"",   15.8372E+06,   11.2602E+06,   11.2602E+06
C:/temp/Job-17.odb,Step-1,Increment      1: Step Time =    1.000,"P-17-1",           386,       78.6067,       5.42343,            0.,NA,NA,"",   20.9373E+06,   6.76012E+06,   6.76012E+06
C:/temp/Job-17.odb,Step-1,Increment      1: Step Time =    1.000,"P-17-1",           387,       74.6335,       192.284,            0.,NA,NA,"",   14.6419E+06,  -7.60436E+06,  -7.60436E+06
C:/temp/Job-17.odb,Step-1,Increment      1: Step Time =    1.000,"P-17-1",           388,       191.344,       75.0329,            0.,NA,NA,"",   6.19852E+06,  -1.50714E+06,  -1.50714E+06
C:/temp/Job-17.odb,Step-1,Increment      1: Step Time =    1.000,"P-17-1",           389,       176.914,       40.7500,            0.,NA,NA,"",   7.38067E+06,   7.59103E+06,   7.59103E+06
C:/temp/Job-17.odb,Step-1,Increment      1: Step Time =    1.000,"P-17-1",           390,       105.046,       4.16956,            0.,NA,NA,"",   28.8103E+06,   12.7672E+06,   12.7672E+06
C:/temp/Job-17.odb,Step-1,Increment      1: Step Time =    1.000,"P-17-1",           391,       194.614,       120.861,            0.,NA,NA,"",   12.8609E+06,   4.61930E+06,   4.61930E+06
C:/temp/Job-17.odb,Step-1,Increment      1: Step Time =    1.000,"P-17-1",           392,       195.185,       84.6858,            0.,NA,NA,"",   18.9866E+06,   3.77491E+06,   3.77491E+06
C:/temp/Job-17.odb,Step-1,Increment      1: Step Time =    1.000,"P-17-1",           393,       182.768,       49.7958,            0.,NA,NA,"",   6.77905E+06,   6.83706E+06,   6.83706E+06
C:/temp/Job-17.odb,Step-1,Increment      1: Step Time =    1.000,"P-17-1",           394,       195.904,       99.9994,            0.,NA,NA,"",   29.6870E+06,   4.21555E+06,   4.21555E+06
C:/temp/Job-17.odb,Step-1,Increment      1: Step Time =    1.000,"P-17-1",           395,       182.408,       149.393,            0.,NA,NA,"",   7.04429E+06,   7.07434E+06,   7.07434E+06
C:/temp/Job-17.odb,Step-1,Increment      1: Step Time =    1.000,"P-17-1",           396,       173.813,       162.971,            0.,NA,NA,"",   7.90819E+06,   8.16158E+06,   8.16158E+06
C:/temp/Job-17.odb,Step-1,Increment      1: Step Time =    1.000,"P-17-1",           397,       99.9994,       4.09430,            0.,NA,NA,"",   20.9400E+06,   13.8296E+06,   13.8296E+06
C:/temp/Job-17.odb,Step-1,Increment      1: Step Time =    1.000,"P-17-1",           398,       195.829,       94.9505,            0.,NA,NA,"",   28.2442E+06,   4.15998E+06,   4.15998E+06
C:/temp/Job-17.odb,Step-1,Increment      1: Step Time =    1.000,"P-17-1",           399,       153.933,       19.5896,            0.,NA,NA,"",   14.7067E+06,   14.9428E+06,   14.9428E+06
C:/temp/Job-17.odb,Step-1,Increment      1: Step Time =    1.000,"P-17-1",           400,       195.215,       115.240,            0.,NA,NA,"",   18.8745E+06,   3.84765E+06,   3.84765E+06
C:/temp/Job-17.odb,Step-1,Increment      1: Step Time =    1.000,"P-17-1",           401,       187.921,       60.1283,            0.,NA,NA,"",   5.69739E+06,   5.36945E+06,   5.36945E+06
C:/temp/Job-17.odb,Step-1,Increment      1: Step Time =    1.000,"P-17-1",           402,       110.117,       195.600,            0.,NA,NA,"",   36.1184E+06,   13.0413E+06,   13.0413E+06
C:/temp/Job-17.odb,Step-1,Increment      1: Step Time =    1.000,"P-17-1",           403,       120.860,       5.38571,            0.,NA,NA,"",   33.6204E+06,   12.5812E+06,   12.5812E+06
C:/temp/Job-17.odb,Step-1,Increment      1: Step Time =    1.000,"P-17-1",           404,       89.8804,       4.39612,            0.,NA,NA,"",   16.0425E+06,   11.2843E+06,   11.2843E+06
C:/temp/Job-17.odb,Step-1,Increment      1: Step Time =    1.000,"P-17-1",           405,       110.103,       4.39774,            0.,NA,NA,"",   35.2871E+06,   12.9640E+06,   12.9640E+06
C:/temp/Job-17.odb,Step-1,Increment      1: Step Time =    1.000,"P-17-1",           406,       191.736,       71.5656,            0.,NA,NA,"",   5.88360E+06,   3.32273E+06,   3.32273E+06
C:/temp/Job-17.odb,Step-1,Increment      1: Step Time =    1.000,"P-17-1",           407,       84.6699,       4.79357,            0.,NA,NA,"",   20.1151E+06,   8.65366E+06,   8.65366E+06
C:/temp/Job-17.odb,Step-1,Increment      1: Step Time =    1.000,"P-17-1",           408,       121.290,       194.565,            0.,NA,NA,"",   34.0665E+06,   13.3838E+06,   13.3838E+06
C:/temp/Job-17.odb,Step-1,Increment      1: Step Time =    1.000,"P-17-1",           409,       41.1031,       23.2922,            0.,NA,NA,"",   13.0504E+06,  -13.3282E+06,  -13.3282E+06
C:/temp/Job-17.odb,Step-1,Increment      1: Step Time =    1.000,"P-17-1",           410,       54.8112,       14.4016,            0.,NA,NA,"",   13.7754E+06,  -14.0690E+06,  -14.0690E+06
C:/temp/Job-17.odb,Step-1,Increment      1: Step Time =    1.000,"P-17-1",           411,       125.367,       7.71560,            0.,NA,NA,"",   30.4626E+06,   30.1389E+06,   30.1389E+06
C:/temp/Job-17.odb,Step-1,Increment      1: Step Time =    1.000,"P-17-1",           412,       128.443,       191.732,            0.,NA,NA,"",   26.1041E+06,   26.2051E+06,   26.2051E+06
C:/temp/Job-17.odb,Step-1,Increment      1: Step Time =    1.000,"P-17-1",           413,       124.949,       191.395,            0.,NA,NA,"",   38.1154E+06,   38.6024E+06,   38.6024E+06
C:/temp/Job-17.odb,Step-1,Increment      1: Step Time =    1.000,"P-17-1",           414,       115.312,       195.201,            0.,NA,NA,"",   38.7276E+06,   12.6768E+06,   12.6768E+06
C:/temp/Job-17.odb,Step-1,Increment      1: Step Time =    1.000,"P-17-1",           415,       150.213,       182.776,            0.,NA,NA,"",   16.6389E+06,   16.8996E+06,   16.8996E+06
C:/temp/Job-17.odb,Step-1,Increment      1: Step Time =    1.000,"P-17-1",           416,       139.881,       187.928,            0.,NA,NA,"",   20.3656E+06,   20.8336E+06,   20.8336E+06
C:/temp/Job-17.odb,Step-1,Increment      1: Step Time =    1.000,"P-17-1",           417,       195.603,       110.103,            0.,NA,NA,"",   24.2400E+06,   4.03804E+06,   4.03804E+06
C:/temp/Job-17.odb,Step-1,Increment      1: Step Time =    1.000,"P-17-1",           418,       130.338,       8.67398,            0.,NA,NA,"",   24.8546E+06,   25.1408E+06,   25.1408E+06
C:/temp/Job-17.odb,Step-1,Increment      1: Step Time =    1.000,"P-17-1",           419,       173.178,       37.2703,            0.,NA,NA,"",   8.07636E+06,   8.31090E+06,   8.31090E+06
C:/temp/Job-17.odb,Step-1,Increment      1: Step Time =    1.000,"P-17-1",           420,       149.411,       17.5698,            0.,NA,NA,"",   17.4419E+06,   17.6870E+06,   17.6870E+06
C:/temp/Job-17.odb,Step-1,Increment      1: Step Time =    1.000,"P-17-1",           421,       74.7749,       8.77857,            0.,NA,NA,"",   16.6884E+06,  -14.5542E+06,  -14.5542E+06
C:/temp/Job-17.odb,Step-1,Increment      1: Step Time =    1.000,"P-17-1",           422,       185.073,       54.7221,            0.,NA,NA,"",   6.43286E+06,   6.36201E+06,   6.36201E+06
C:/temp/Job-17.odb,Step-1,Increment      1: Step Time =    1.000,"P-17-1",           423,       105.050,       195.827,            0.,NA,NA,"",   29.7032E+06,   12.8571E+06,   12.8571E+06
C:/temp/Job-17.odb,Step-1,Increment      1: Step Time =    1.000,"P-17-1",           424,       195.829,       105.046,            0.,NA,NA,"",   28.1971E+06,   4.16717E+06,   4.16717E+06
C:/temp/Job-17.odb,Step-1,Increment      1: Step Time =    1.000,"P-17-1",           425,       162.732,       173.164,            0.,NA,NA,"",   10.8393E+06,   11.1234E+06,   11.1234E+06
C:/temp/Job-17.odb,Step-1,Increment      1: Step Time =    1.000,"P-17-1",           426,       192.283,       125.367,            0.,NA,NA,"",   7.34818E+06,   1.16030E+06,   1.16030E+06
C:/temp/Job-17.odb,Step-1,Increment      1: Step Time =    1.000,"P-17-1",           427,       194.554,       78.7312,            0.,NA,NA,"",   12.3402E+06,   3.96654E+06,   3.96654E+06
C:/temp/Job-17.odb,Step-1,Increment      1: Step Time =    1.000,"P-17-1",           428,       195.599,       89.8837,            0.,NA,NA,"",   24.3291E+06,   3.99768E+06,   3.99768E+06
C:/temp/Job-17.odb,Step-1,Increment      1: Step Time =    1.000,"P-17-1",           429,       115.239,       4.78881,            0.,NA,NA,"",   37.9907E+06,   12.6264E+06,   12.6264E+06
C:/temp/Job-17.odb,Step-1,Increment      1: Step Time =    1.000,"P-17-1",           430,       70.5204,       8.72380,            0.,NA,NA,"",   14.8763E+06,  -8.28396E+06,  -8.28396E+06
C:/temp/Job-17.odb,Step-1,Increment      1: Step Time =    1.000,"P-17-1",           431,       190.371,       136.101,            0.,NA,NA,"",   5.16030E+06,   4.60301E+06,   4.60301E+06
C:/temp/Job-17.odb,Step-1,Increment      1: Step Time =    1.000,"P-17-1",           432,       59.9920,       12.5815,            0.,NA,NA,"",   15.0364E+06,  -15.2986E+06,  -15.2986E+06
C:/temp/Job-17.odb,Step-1,Increment      1: Step Time =    1.000,"P-17-1",           433,       94.9503,       4.17185,            0.,NA,NA,"",   15.7648E+06,   14.3594E+06,   14.3594E+06
C:/temp/Job-17.odb,Step-1,Increment      1: Step Time =    1.000,"P-17-1",           434,       185.048,       145.460,            0.,NA,NA,"",   6.47269E+06,   6.41525E+06,   6.41525E+06
C:/temp/Job-17.odb,Step-1,Increment      1: Step Time =    1.000,"P-17-1",           435,       166.305,       30.0538,            0.,NA,NA,"",   9.76564E+06,   10.0075E+06,   10.0075E+06
C:/temp/Job-17.odb,Step-1,Increment      1: Step Time =    1.000,"P-17-1",           436,       100.001,       195.901,            0.,NA,NA,"",   21.5725E+06,   13.9700E+06,   13.9700E+06
C:/temp/Job-17.odb,Step-1,Increment      1: Step Time =    1.000,"P-17-1",           437,       194.933,       194.849,            0.,NA,NA,"",   1.20965E+06,   878.677E+03,   878.677E+03
C:/temp/Job-17.odb,Step-1,Increment      1: Step Time =    1.000,"P-17-1",           438,       195.037,       184.770,            0.,NA,NA,"",   2.66696E+06,  -1.78247E+06,  -1.78247E+06
C:/temp/Job-17.odb,Step-1,Increment      1: Step Time =    1.000,"P-17-1",           439,       194.969,       174.648,            0.,NA,NA,"",   3.63073E+06,  -2.77456E+06,  -2.77456E+06
C:/temp/Job-17.odb,Step-1,Increment      1: Step Time =    1.000,"P-17-1",           440,       194.918,       164.778,            0.,NA,NA,"",   3.80679E+06,  -2.98100E+06,  -2.98100E+06
C:/temp/Job-17.odb,Step-1,Increment      1: Step Time =    1.000,"P-17-1",           441,       194.885,       154.795,            0.,NA,NA,"",   3.48868E+06,  -808.532E+03,  -808.532E+03
C:/temp/Job-17.odb,Step-1,Increment      1: Step Time =    1.000,"P-17-1",           442,       195.755,       73.4677,            0.,NA,NA,"",   9.65365E+06,   8.90080E+06,   8.90080E+06
C:/temp/Job-17.odb,Step-1,Increment      1: Step Time =    1.000,"P-17-1",           443,       194.854,       5.06265,            0.,NA,NA,"",   1.19870E+06,   372.239E+03,   372.239E+03
C:/temp/Job-17.odb,Step-1,Increment      1: Step Time =    1.000,"P-17-1",           444,       145.020,       196.794,            0.,NA,NA,"",   12.2384E+06,  -12.0318E+06,  -12.0318E+06
C:/temp/Job-17.odb,Step-1,Increment      1: Step Time =    1.000,"P-17-1",           445,       135.977,       196.492,            0.,NA,NA,"",   13.2718E+06,  -13.1453E+06,  -13.1453E+06
C:/temp/Job-17.odb,Step-1,Increment      1: Step Time =    1.000,"P-17-1",           446,       184.784,       4.95500,            0.,NA,NA,"",   1.83771E+06,  -1.35402E+06,  -1.35402E+06
C:/temp/Job-17.odb,Step-1,Increment      1: Step Time =    1.000,"P-17-1",           447,       174.669,       5.01942,            0.,NA,NA,"",   3.27170E+06,  -2.88025E+06,  -2.88025E+06
C:/temp/Job-17.odb,Step-1,Increment      1: Step Time =    1.000,"P-17-1",           448,       164.802,       5.07079,            0.,NA,NA,"",   4.94471E+06,  -4.63690E+06,  -4.63690E+06
C:/temp/Job-17.odb,Step-1,Increment      1: Step Time =    1.000,"P-17-1",           449,       144.696,       4.46396,            0.,NA,NA,"",   10.3757E+06,  -9.87230E+06,  -9.87230E+06
C:/temp/Job-17.odb,Step-1,Increment      1: Step Time =    1.000,"P-17-1",           450,       154.816,       5.10541,            0.,NA,NA,"",   6.91105E+06,  -6.52086E+06,  -6.52086E+06
C:/temp/Job-17.odb,Step-1,Increment      1: Step Time =    1.000,"P-17-1",           451,       135.258,       4.40521,            0.,NA,NA,"",   13.6535E+06,  -9.12108E+06,  -9.12108E+06
C:/temp/Job-17.odb,Step-1,Increment      1: Step Time =    1.000,"P-17-1",           452,       73.4452,       4.19580,            0.,NA,NA,"",   22.7612E+06,   21.9783E+06,   21.9783E+06
C:/temp/Job-17.odb,Step-1,Increment      1: Step Time =    1.000,"P-17-1",           453,       5.20403,       10.1655,            0.,NA,NA,"",   8.96532E+06,   9.57386E+06,   9.57386E+06
C:/temp/Job-17.odb,Step-1,Increment      1: Step Time =    1.000,"P-17-1",           454,       4.40284,       64.7430,            0.,NA,NA,"",   2.20129E+06,  -2.12893E+06,  -2.12893E+06
C:/temp/Job-17.odb,Step-1,Increment      1: Step Time =    1.000,"P-17-1",           455,       4.37396,       69.6427,            0.,NA,NA,"",   1.68516E+06,  -1.60668E+06,  -1.60668E+06
C:/temp/Job-17.odb,Step-1,Increment      1: Step Time =    1.000,"P-17-1",           456,       4.25906,       126.545,            0.,NA,NA,"",   1.33292E+06,  -1.25930E+06,  -1.25930E+06
C:/temp/Job-17.odb,Step-1,Increment      1: Step Time =    1.000,"P-17-1",           457,       5.11261,       194.936,            0.,NA,NA,"",   12.1958E+06,   12.6344E+06,   12.6344E+06
C:/temp/Job-17.odb,Step-1,Increment      1: Step Time =    1.000,"P-17-1",           458,       15.1905,       195.041,            0.,NA,NA,"",   13.6786E+06,   13.7280E+06,   13.7280E+06
C:/temp/Job-17.odb,Step-1,Increment      1: Step Time =    1.000,"P-17-1",           459,       25.1401,       195.220,            0.,NA,NA,"",   15.8431E+06,   15.8348E+06,   15.8348E+06
C:/temp/Job-17.odb,Step-1,Increment      1: Step Time =    1.000,"P-17-1",           460,       55.2950,       195.536,            0.,NA,NA,"",   24.4902E+06,   24.3364E+06,   24.3364E+06
C:/temp/Job-17.odb,Step-1,Increment      1: Step Time =    1.000,"P-17-1",           461,       45.1269,       194.900,            0.,NA,NA,"",   20.5938E+06,   20.5052E+06,   20.5052E+06
C:/temp/Job-17.odb,Step-1,Increment      1: Step Time =    1.000,"P-17-1",           462,       35.0991,       195.071,            0.,NA,NA,"",   18.3806E+06,   18.3312E+06,   18.3312E+06
C:/temp/Job-17.odb,Step-1,Increment      1: Step Time =    1.000,"P-17-1",           463,       126.543,       195.756,            0.,NA,NA,"",   18.6386E+06,  -6.93825E+06,  -6.93825E+06
C:/temp/Job-17.odb,Step-1,Increment      1: Step Time =    1.000,"P-17-1",           464,       69.6375,       195.619,            0.,NA,NA,"",   23.6661E+06,   22.9795E+06,   22.9795E+06
C:/temp/Job-17.odb,Step-1,Increment      1: Step Time =    1.000,"P-17-1",           465,       64.7394,       195.596,            0.,NA,NA,"",   24.6297E+06,   24.2446E+06,   24.2446E+06
C:/temp/Job-17.odb,Step-1,Increment      1: Step Time =    1.000,"P-17-1",           466,       15.1592,       5.04442,            0.,NA,NA,"",   13.6879E+06,   13.7396E+06,   13.7396E+06
C:/temp/Job-17.odb,Step-1,Increment      1: Step Time =    1.000,"P-17-1",           467,       25.0449,       4.76311,            0.,NA,NA,"",   15.9097E+06,   15.9339E+06,   15.9339E+06
C:/temp/Job-17.odb,Step-1,Increment      1: Step Time =    1.000,"P-17-1",           468,       35.1364,       4.72515,            0.,NA,NA,"",   18.8473E+06,   18.7547E+06,   18.7547E+06
C:/temp/Job-17.odb,Step-1,Increment      1: Step Time =    1.000,"P-17-1",           469,       45.0260,       4.29633,            0.,NA,NA,"",   22.8158E+06,   22.7612E+06,   22.7612E+06
C:/temp/Job-17.odb,Step-1,Increment      1: Step Time =    1.000,"P-17-1",           470,       54.3654,       4.38461,            0.,NA,NA,"",   24.6414E+06,   24.4768E+06,   24.4768E+06
C:/temp/Job-17.odb,Step-1,Increment      1: Step Time =    1.000,"P-17-1",           471,       64.3489,       3.81368,            0.,NA,NA,"",   27.8288E+06,   27.5873E+06,   27.5873E+06
C:/temp/Job-17.odb,Step-1,Increment      1: Step Time =    1.000,"P-17-1",           472,       130.360,       4.37979,            0.,NA,NA,"",   17.5042E+06,  -8.28840E+06,  -8.28840E+06
C:/temp/Job-17.odb,Step-1,Increment      1: Step Time =    1.000,"P-17-1",           473,       194.390,       15.2839,            0.,NA,NA,"",   2.65324E+06,  -1.72960E+06,  -1.72960E+06
C:/temp/Job-17.odb,Step-1,Increment      1: Step Time =    1.000,"P-17-1",           474,       194.529,       25.6674,            0.,NA,NA,"",   3.57626E+06,   -2.6839E+06,   -2.6839E+06
C:/temp/Job-17.odb,Step-1,Increment      1: Step Time =    1.000,"P-17-1",           475,       195.327,       35.6663,            0.,NA,NA,"",   3.89160E+06,  -3.08978E+06,  -3.08978E+06
C:/temp/Job-17.odb,Step-1,Increment      1: Step Time =    1.000,"P-17-1",           476,       195.785,       45.4358,            0.,NA,NA,"",   3.58061E+06,  -1.84385E+06,  -1.84385E+06
C:/temp/Job-17.odb,Step-1,Increment      1: Step Time =    1.000,"P-17-1",           477,       196.796,       54.9800,            0.,NA,NA,"",   2.75227E+06,   875.797E+03,   875.797E+03
C:/temp/Job-17.odb,Step-1,Increment      1: Step Time =    1.000,"P-17-1",           478,       196.492,       64.0256,            0.,NA,NA,"",   4.08999E+06,   4.02059E+06,   4.02059E+06
C:/temp/Job-17.odb,Step-1,Increment      1: Step Time =    1.000,"P-17-1",           479,       195.622,       130.359,            0.,NA,NA,"",   7.02476E+06,   6.62716E+06,   6.62716E+06
C:/temp/Job-17.odb,Step-1,Increment      1: Step Time =    1.000,"P-17-1",           480,       195.595,       135.255,            0.,NA,NA,"",   4.72801E+06,   4.56246E+06,   4.56246E+06
C:/temp/Job-17.odb,Step-1,Increment      1: Step Time =    1.000,"P-17-1",           481,       195.532,       144.687,            0.,NA,NA,"",   3.20362E+06,   1.49652E+06,   1.49652E+06
C:/temp/Job-17.odb,Step-1,Increment      1: Step Time =    1.000,"P-17-1",           482,       184.714,       194.379,            0.,NA,NA,"",   1.99531E+06,  -1.43943E+06,  -1.43943E+06
C:/temp/Job-17.odb,Step-1,Increment      1: Step Time =    1.000,"P-17-1",           483,       174.335,       194.516,            0.,NA,NA,"",   3.40233E+06,  -2.97591E+06,  -2.97591E+06
C:/temp/Job-17.odb,Step-1,Increment      1: Step Time =    1.000,"P-17-1",           484,       164.334,       195.319,            0.,NA,NA,"",   5.43849E+06,  -5.13031E+06,  -5.13031E+06
C:/temp/Job-17.odb,Step-1,Increment      1: Step Time =    1.000,"P-17-1",           485,       154.564,       195.782,            0.,NA,NA,"",   8.31411E+06,  -8.04251E+06,  -8.04251E+06
C:/temp/Job-17.odb,Step-1,Increment      1: Step Time =    1.000,"P-17-1",           486,       5.34512,       184.884,            0.,NA,NA,"",   5.98876E+06,   6.52824E+06,   6.52824E+06
C:/temp/Job-17.odb,Step-1,Increment      1: Step Time =    1.000,"P-17-1",           487,       5.56757,       174.841,            0.,NA,NA,"",   1.75759E+06,   1.65832E+06,   1.65832E+06
C:/temp/Job-17.odb,Step-1,Increment      1: Step Time =    1.000,"P-17-1",           488,       5.35498,       164.515,            0.,NA,NA,"",   3.06688E+06,  -2.90068E+06,  -2.90068E+06
C:/temp/Job-17.odb,Step-1,Increment      1: Step Time =    1.000,"P-17-1",           489,       4.13427,       154.490,            0.,NA,NA,"",   3.85924E+06,  -3.88664E+06,  -3.88664E+06
C:/temp/Job-17.odb,Step-1,Increment      1: Step Time =    1.000,"P-17-1",           490,       2.98094,       145.307,            0.,NA,NA,"",   3.35710E+06,  -3.32639E+06,  -3.32639E+06
C:/temp/Job-17.odb,Step-1,Increment      1: Step Time =    1.000,"P-17-1",           491,       3.59953,       136.021,            0.,NA,NA,"",   2.32338E+06,  -2.23175E+06,  -2.23175E+06
C:/temp/Job-17.odb,Step-1,Increment      1: Step Time =    1.000,"P-17-1",           492,       4.45795,       55.3056,            0.,NA,NA,"",   3.39497E+06,  -3.35767E+06,  -3.35767E+06
C:/temp/Job-17.odb,Step-1,Increment      1: Step Time =    1.000,"P-17-1",           493,       5.29604,       20.2652,            0.,NA,NA,"",   3.24448E+06,   3.58876E+06,   3.58876E+06
C:/temp/Job-17.odb,Step-1,Increment      1: Step Time =    1.000,"P-17-1",           494,       5.10672,       30.2088,            0.,NA,NA,"",   1.88291E+06,  -678.674E+03,  -678.674E+03
C:/temp/Job-17.odb,Step-1,Increment      1: Step Time =    1.000,"P-17-1",           495,       5.05009,       40.1371,            0.,NA,NA,"",   3.65477E+06,  -3.59857E+06,  -3.59857E+06
C:/temp/Job-17.odb,Step-1,Increment      1: Step Time =    1.000,"P-17-1",           496,       189.813,       5.01642,            0.,NA,NA,"",   1.37029E+06,  -581.009E+03,  -581.009E+03
C:/temp/Job-17.odb,Step-1,Increment      1: Step Time =    1.000,"P-17-1",           497,       179.719,       4.94614,            0.,NA,NA,"",   2.46959E+06,  -2.06454E+06,  -2.06454E+06
C:/temp/Job-17.odb,Step-1,Increment      1: Step Time =    1.000,"P-17-1",           498,       169.701,       5.07226,            0.,NA,NA,"",   4.14092E+06,  -3.77901E+06,  -3.77901E+06
C:/temp/Job-17.odb,Step-1,Increment      1: Step Time =    1.000,"P-17-1",           499,       159.855,       5.06746,            0.,NA,NA,"",   5.91158E+06,  -5.62493E+06,  -5.62493E+06
C:/temp/Job-17.odb,Step-1,Increment      1: Step Time =    1.000,"P-17-1",           500,       149.649,       5.05540,            0.,NA,NA,"",   8.53321E+06,  -7.83859E+06,  -7.83859E+06
C:/temp/Job-17.odb,Step-1,Increment      1: Step Time =    1.000,"P-17-1",           501,       139.894,       4.00120,            0.,NA,NA,"",   11.4693E+06,  -10.2313E+06,  -10.2313E+06
C:/temp/Job-17.odb,Step-1,Increment      1: Step Time =    1.000,"P-17-1",           502,       69.0490,       3.55622,            0.,NA,NA,"",   27.3208E+06,   27.0012E+06,   27.0012E+06
C:/temp/Job-17.odb,Step-1,Increment      1: Step Time =    1.000,"P-17-1",           503,       59.3980,       4.26605,            0.,NA,NA,"",   25.9359E+06,   25.6309E+06,   25.6309E+06
C:/temp/Job-17.odb,Step-1,Increment      1: Step Time =    1.000,"P-17-1",           504,       49.7978,       3.96569,            0.,NA,NA,"",   24.2071E+06,   24.1002E+06,   24.1002E+06
C:/temp/Job-17.odb,Step-1,Increment      1: Step Time =    1.000,"P-17-1",           505,       40.1529,       4.64505,            0.,NA,NA,"",   20.6842E+06,   20.5798E+06,   20.5798E+06
C:/temp/Job-17.odb,Step-1,Increment      1: Step Time =    1.000,"P-17-1",           506,       30.0771,       4.68935,            0.,NA,NA,"",   17.2991E+06,   17.2794E+06,   17.2794E+06
C:/temp/Job-17.odb,Step-1,Increment      1: Step Time =    1.000,"P-17-1",           507,       20.1103,       4.90271,            0.,NA,NA,"",   14.6864E+06,   14.7212E+06,   14.7212E+06
C:/temp/Job-17.odb,Step-1,Increment      1: Step Time =    1.000,"P-17-1",           508,       10.1628,       5.10290,            0.,NA,NA,"",   13.0141E+06,   13.0741E+06,   13.0741E+06
C:/temp/Job-17.odb,Step-1,Increment      1: Step Time =    1.000,"P-17-1",           509,       194.977,       189.804,            0.,NA,NA,"",   1.93827E+06,  -241.781E+03,  -241.781E+03
C:/temp/Job-17.odb,Step-1,Increment      1: Step Time =    1.000,"P-17-1",           510,       195.045,       179.701,            0.,NA,NA,"",   3.25630E+06,  -2.36148E+06,  -2.36148E+06
C:/temp/Job-17.odb,Step-1,Increment      1: Step Time =    1.000,"P-17-1",           511,       194.917,       169.679,            0.,NA,NA,"",   3.79819E+06,  -2.97435E+06,  -2.97435E+06
C:/temp/Job-17.odb,Step-1,Increment      1: Step Time =    1.000,"P-17-1",           512,       194.923,       159.834,            0.,NA,NA,"",   3.69873E+06,  -1.99525E+06,  -1.99525E+06
C:/temp/Job-17.odb,Step-1,Increment      1: Step Time =    1.000,"P-17-1",           513,       194.938,       149.635,            0.,NA,NA,"",   3.32154E+06,  -57.0510E+03,  -57.0510E+03
C:/temp/Job-17.odb,Step-1,Increment      1: Step Time =    1.000,"P-17-1",           514,       195.997,       139.889,            0.,NA,NA,"",   3.48208E+06,   3.10449E+06,   3.10449E+06
C:/temp/Job-17.odb,Step-1,Increment      1: Step Time =    1.000,"P-17-1",           515,       196.134,       68.7129,            0.,NA,NA,"",   6.56750E+06,   6.41928E+06,   6.41928E+06
C:/temp/Job-17.odb,Step-1,Increment      1: Step Time =    1.000,"P-17-1",           516,       196.857,       59.4694,            0.,NA,NA,"",   2.83172E+06,   2.48136E+06,   2.48136E+06
C:/temp/Job-17.odb,Step-1,Increment      1: Step Time =    1.000,"P-17-1",           517,       196.296,       50.2719,            0.,NA,NA,"",   3.23850E+06,  -502.175E+03,  -502.175E+03
C:/temp/Job-17.odb,Step-1,Increment      1: Step Time =    1.000,"P-17-1",           518,       195.487,       40.5452,            0.,NA,NA,"",   3.80349E+06,  -2.97522E+06,  -2.97522E+06
C:/temp/Job-17.odb,Step-1,Increment      1: Step Time =    1.000,"P-17-1",           519,       195.008,       30.7004,            0.,NA,NA,"",   3.79503E+06,  -2.97611E+06,  -2.97611E+06
C:/temp/Job-17.odb,Step-1,Increment      1: Step Time =    1.000,"P-17-1",           520,       194.170,       20.5406,            0.,NA,NA,"",   3.22511E+06,  -2.27468E+06,  -2.27468E+06
C:/temp/Job-17.odb,Step-1,Increment      1: Step Time =    1.000,"P-17-1",           521,       194.671,       10.1187,            0.,NA,NA,"",   1.90474E+06,  -723.477E+03,  -723.477E+03
C:/temp/Job-17.odb,Step-1,Increment      1: Step Time =    1.000,"P-17-1",           522,       10.1737,       194.960,            0.,NA,NA,"",   12.9925E+06,   13.0577E+06,   13.0577E+06
C:/temp/Job-17.odb,Step-1,Increment      1: Step Time =    1.000,"P-17-1",           523,       20.1564,       195.170,            0.,NA,NA,"",   14.6715E+06,   14.7001E+06,   14.7001E+06
C:/temp/Job-17.odb,Step-1,Increment      1: Step Time =    1.000,"P-17-1",           524,       30.1353,       195.184,            0.,NA,NA,"",   17.1073E+06,   17.0654E+06,   17.0654E+06
C:/temp/Job-17.odb,Step-1,Increment      1: Step Time =    1.000,"P-17-1",           525,       40.0603,       194.985,            0.,NA,NA,"",   19.5660E+06,   19.5436E+06,   19.5436E+06
C:/temp/Job-17.odb,Step-1,Increment      1: Step Time =    1.000,"P-17-1",           526,       50.3197,       194.941,            0.,NA,NA,"",   22.1146E+06,   21.8845E+06,   21.8845E+06
C:/temp/Job-17.odb,Step-1,Increment      1: Step Time =    1.000,"P-17-1",           527,       60.1019,       196.001,            0.,NA,NA,"",   25.6221E+06,   25.4539E+06,   25.4539E+06
C:/temp/Job-17.odb,Step-1,Increment      1: Step Time =    1.000,"P-17-1",           528,       131.290,       196.133,            0.,NA,NA,"",   13.9582E+06,  -11.4864E+06,  -11.4864E+06
C:/temp/Job-17.odb,Step-1,Increment      1: Step Time =    1.000,"P-17-1",           529,       140.531,       196.857,            0.,NA,NA,"",   13.5746E+06,  -13.3089E+06,  -13.3089E+06
C:/temp/Job-17.odb,Step-1,Increment      1: Step Time =    1.000,"P-17-1",           530,       149.728,       196.293,            0.,NA,NA,"",   10.1835E+06,  -10.0350E+06,  -10.0350E+06
C:/temp/Job-17.odb,Step-1,Increment      1: Step Time =    1.000,"P-17-1",           531,       159.455,       195.482,            0.,NA,NA,"",   6.73111E+06,  -6.45325E+06,  -6.45325E+06
C:/temp/Job-17.odb,Step-1,Increment      1: Step Time =    1.000,"P-17-1",           532,       169.301,       194.997,            0.,NA,NA,"",   4.28265E+06,  -3.95842E+06,  -3.95842E+06
C:/temp/Job-17.odb,Step-1,Increment      1: Step Time =    1.000,"P-17-1",           533,       179.459,       194.158,            0.,NA,NA,"",   2.69599E+06,  -2.15197E+06,  -2.15197E+06
C:/temp/Job-17.odb,Step-1,Increment      1: Step Time =    1.000,"P-17-1",           534,       189.877,       194.663,            0.,NA,NA,"",   1.46737E+06,  -140.790E+03,  -140.790E+03
C:/temp/Job-17.odb,Step-1,Increment      1: Step Time =    1.000,"P-17-1",           535,       5.27899,       15.2323,            0.,NA,NA,"",   5.89441E+06,   6.42230E+06,   6.42230E+06
C:/temp/Job-17.odb,Step-1,Increment      1: Step Time =    1.000,"P-17-1",           536,       5.22871,       25.2468,            0.,NA,NA,"",   1.66187E+06,   1.57727E+06,   1.57727E+06
C:/temp/Job-17.odb,Step-1,Increment      1: Step Time =    1.000,"P-17-1",           537,       5.05023,       35.1858,            0.,NA,NA,"",   2.94167E+06,  -2.77733E+06,  -2.77733E+06
C:/temp/Job-17.odb,Step-1,Increment      1: Step Time =    1.000,"P-17-1",           538,       5.09104,       45.1800,            0.,NA,NA,"",   3.93519E+06,  -3.91884E+06,  -3.91884E+06
C:/temp/Job-17.odb,Step-1,Increment      1: Step Time =    1.000,"P-17-1",           539,       5.04799,       50.3488,            0.,NA,NA,"",   3.80473E+06,  -3.78993E+06,  -3.78993E+06
C:/temp/Job-17.odb,Step-1,Increment      1: Step Time =    1.000,"P-17-1",           540,       3.99714,       60.1078,            0.,NA,NA,"",   2.80520E+06,  -2.74311E+06,  -2.74311E+06
C:/temp/Job-17.odb,Step-1,Increment      1: Step Time =    1.000,"P-17-1",           541,       3.90868,       131.313,            0.,NA,NA,"",   1.80670E+06,  -1.71358E+06,  -1.71358E+06
C:/temp/Job-17.odb,Step-1,Increment      1: Step Time =    1.000,"P-17-1",           542,       3.22458,       140.627,            0.,NA,NA,"",   2.85799E+06,  -2.78573E+06,  -2.78573E+06
C:/temp/Job-17.odb,Step-1,Increment      1: Step Time =    1.000,"P-17-1",           543,       3.26076,       149.795,            0.,NA,NA,"",   3.71212E+06,  -3.73006E+06,  -3.73006E+06
C:/temp/Job-17.odb,Step-1,Increment      1: Step Time =    1.000,"P-17-1",           544,       5.02139,       159.328,            0.,NA,NA,"",   3.71762E+06,  -3.69055E+06,  -3.69055E+06
C:/temp/Job-17.odb,Step-1,Increment      1: Step Time =    1.000,"P-17-1",           545,       5.69645,       169.693,            0.,NA,NA,"",   1.96979E+06,  -701.192E+03,  -701.192E+03
C:/temp/Job-17.odb,Step-1,Increment      1: Step Time =    1.000,"P-17-1",           546,       5.45411,       179.903,            0.,NA,NA,"",   3.37289E+06,   3.73146E+06,   3.73146E+06
C:/temp/Job-17.odb,Step-1,Increment      1: Step Time =    1.000,"P-17-1",           547,       5.22563,       189.906,            0.,NA,NA,"",   9.00626E+06,   9.61566E+06,   9.61566E+06
C:/temp/Job-17.odb,Step-1,Increment      1: Step Time =    1.000,"P-17-1",           548,       169.936,       166.289,            0.,NA,NA,"",   8.84896E+06,   9.07033E+06,   9.07033E+06
C:/temp/Job-17.odb,Step-1,Increment      1: Step Time =    1.000,"P-17-1",           549,       159.245,       176.912,            0.,NA,NA,"",   12.0706E+06,   12.3671E+06,   12.3671E+06
C:/temp/Job-17.odb,Step-1,Increment      1: Step Time =    1.000,"P-17-1",           550,       34.0435,       23.9190,            0.,NA,NA,"",   7.08869E+06,  -7.32821E+06,  -7.32821E+06
C:/temp/Job-17.odb,Step-1,Increment      1: Step Time =    1.000,"P-17-1",           551,       23.9143,       33.1360,            0.,NA,NA,"",   6.65384E+06,  -6.58972E+06,  -6.58972E+06
C:/temp/Job-17.odb,Step-1,Increment      1: Step Time =    1.000,"P-17-1",           552,       175.779,       33.9112,            0.,NA,NA,"",   5.75652E+06,   6.14577E+06,   6.14577E+06
C:/temp/Job-17.odb,Step-1,Increment      1: Step Time =    1.000,"P-17-1",           553,       31.8710,       176.186,            0.,NA,NA,"",   5.49903E+06,  -5.65090E+06,  -5.65090E+06
C:/temp/Job-17.odb,Step-1,Increment      1: Step Time =    1.000,"P-17-1",           554,       22.9306,       165.453,            0.,NA,NA,"",   6.83057E+06,  -6.73585E+06,  -6.73585E+06
C:/temp/Job-17.odb,Step-1,Increment      1: Step Time =    1.000,"P-17-1",           555,       167.086,       23.3024,            0.,NA,NA,"",   6.73775E+06,   7.09901E+06,   7.09901E+06
C:/temp/Job-17.odb,Step-1,Increment      1: Step Time =    1.000,"P-17-1",           556,       166.078,       175.751,            0.,NA,NA,"",   7.65559E+06,   8.04484E+06,   8.04484E+06
C:/temp/Job-17.odb,Step-1,Increment      1: Step Time =    1.000,"P-17-1",           557,       176.683,       167.045,            0.,NA,NA,"",   5.15975E+06,   5.55720E+06,   5.55720E+06
C:/temp/Job-17.odb,Step-1,Increment      1: Step Time =    1.000,"P-17-1",           558,       49.7780,       16.9517,            0.,NA,NA,"",   13.1349E+06,  -13.4888E+06,  -13.4888E+06
C:/temp/Job-17.odb,Step-1,Increment      1: Step Time =    1.000,"P-17-1",           559,       180.399,       153.907,            0.,NA,NA,"",   7.20983E+06,   7.35524E+06,   7.35524E+06
C:/temp/Job-17.odb,Step-1,Increment      1: Step Time =    1.000,"P-17-1",           560,       59.1901,       8.62266,            0.,NA,NA,"",   10.2746E+06,   4.85782E+06,   4.85782E+06
C:/temp/Job-17.odb,Step-1,Increment      1: Step Time =    1.000,"P-17-1",           561,       191.154,       143.609,            0.,NA,NA,"",   4.60794E+06,   4.07304E+06,   4.07304E+06
C:/temp/Job-17.odb,Step-1,Increment      1: Step Time =    1.000,"P-17-1",           562,       193.596,       58.7323,            0.,NA,NA,"",   4.30612E+06,   3.80162E+06,   3.80162E+06
C:/temp/Job-17.odb,Step-1,Increment      1: Step Time =    1.000,"P-17-1",           563,       141.269,       193.595,            0.,NA,NA,"",   6.49447E+06,  -849.659E+03,  -849.659E+03
C:/temp/Job-17.odb,Step-1,Increment      1: Step Time =    1.000,"P-17-1",           564,       8.82958,       56.3752,            0.,NA,NA,"",   3.27216E+06,  -3.27403E+06,  -3.27403E+06
C:/temp/Job-17.odb,Step-1,Increment      1: Step Time =    1.000,"P-17-1",           565,       6.69899,       141.697,            0.,NA,NA,"",   2.97454E+06,  -2.97005E+06,  -2.97005E+06
C:/temp/Job-17.odb,Step-1,Increment      1: Step Time =    1.000,"P-17-1",           566,       143.623,       8.83744,            0.,NA,NA,"",   9.23216E+06,   4.74763E+06,   4.74763E+06
C:/temp/Job-17.odb,Step-1,Increment      1: Step Time =    1.000,"P-17-1",           567,       56.3554,       191.172,            0.,NA,NA,"",   9.68243E+06,   6.36967E+06,   6.36967E+06
C:/temp/Job-17.odb,Step-1,Increment      1: Step Time =    1.000,"P-17-1",           568,       26.1786,       168.825,            0.,NA,NA,"",   7.14642E+06,  -7.11001E+06,  -7.11001E+06
C:/temp/Job-17.odb,Step-1,Increment      1: Step Time =    1.000,"P-17-1",           569,       169.666,       27.1971,            0.,NA,NA,"",   6.91041E+06,   7.30380E+06,   7.30380E+06
C:/temp/Job-17.odb,Step-1,Increment      1: Step Time =    1.000,"P-17-1",           570,       169.206,       172.419,            0.,NA,NA,"",   7.31413E+06,   7.71047E+06,   7.71047E+06
C:/temp/Job-17.odb,Step-1,Increment      1: Step Time =    1.000,"P-17-1",           571,       172.789,       169.641,            0.,NA,NA,"",   6.32383E+06,   6.71595E+06,   6.71595E+06
C:/temp/Job-17.odb,Step-1,Increment      1: Step Time =    1.000,"P-17-1",           572,       30.7216,       27.2627,            0.,NA,NA,"",   7.52956E+06,  -7.67706E+06,  -7.67706E+06
C:/temp/Job-17.odb,Step-1,Increment      1: Step Time =    1.000,"P-17-1",           573,       27.4649,       30.4524,            0.,NA,NA,"",   7.33327E+06,  -7.35479E+06,  -7.35479E+06
C:/temp/Job-17.odb,Step-1,Increment      1: Step Time =    1.000,"P-17-1",           574,       172.454,       30.7780,            0.,NA,NA,"",   6.57472E+06,   6.97021E+06,   6.97021E+06
C:/temp/Job-17.odb,Step-1,Increment      1: Step Time =    1.000,"P-17-1",           575,       29.1891,       172.421,            0.,NA,NA,"",   6.96654E+06,  -7.02136E+06,  -7.02136E+06
C:/temp/Job-17.odb,Step-1,Increment      1: Step Time =    1.000,"P-17-1",           576,       12.1711,       150.070,            0.,NA,NA,"",   4.42186E+06,  -4.37566E+06,  -4.37566E+06
C:/temp/Job-17.odb,Step-1,Increment      1: Step Time =    1.000,"P-17-1",           577,       186.883,       47.4828,            0.,NA,NA,"",   4.32722E+06,   4.26218E+06,   4.26218E+06
C:/temp/Job-17.odb,Step-1,Increment      1: Step Time =    1.000,"P-17-1",           578,       48.7970,       185.600,            0.,NA,NA,"",   6.64689E+06,  -5.44346E+06,  -5.44346E+06
C:/temp/Job-17.odb,Step-1,Increment      1: Step Time =    1.000,"P-17-1",           579,       185.564,       151.081,            0.,NA,NA,"",   5.30663E+06,   5.28429E+06,   5.28429E+06
C:/temp/Job-17.odb,Step-1,Increment      1: Step Time =    1.000,"P-17-1",           580,       152.519,       186.882,            0.,NA,NA,"",   8.48901E+06,   8.53645E+06,   8.53645E+06
C:/temp/Job-17.odb,Step-1,Increment      1: Step Time =    1.000,"P-17-1",           581,       151.107,       14.4138,            0.,NA,NA,"",   11.2416E+06,   11.4223E+06,   11.4223E+06
C:/temp/Job-17.odb,Step-1,Increment      1: Step Time =    1.000,"P-17-1",           582,       14.4035,       48.8738,            0.,NA,NA,"",   4.96976E+06,  -4.92247E+06,  -4.92247E+06
C:/temp/Job-17.odb,Step-1,Increment      1: Step Time =    1.000,"P-17-1",           583,       47.3184,       12.8491,            0.,NA,NA,"",   5.85189E+06,   272.991E+03,   272.991E+03
C:/temp/Job-17.odb,Step-1,Increment      1: Step Time =    1.000,"P-17-1",           584,       13.8141,       154.224,            0.,NA,NA,"",   5.01153E+06,  -4.91543E+06,  -4.91543E+06
C:/temp/Job-17.odb,Step-1,Increment      1: Step Time =    1.000,"P-17-1",           585,       10.3547,       163.784,            0.,NA,NA,"",   4.15518E+06,  -3.77714E+06,  -3.77714E+06
C:/temp/Job-17.odb,Step-1,Increment      1: Step Time =    1.000,"P-17-1",           586,       164.590,       10.1785,            0.,NA,NA,"",   3.57456E+06,   205.719E+03,   205.719E+03
C:/temp/Job-17.odb,Step-1,Increment      1: Step Time =    1.000,"P-17-1",           587,       35.2926,       9.41229,            0.,NA,NA,"",   11.3776E+06,   11.1775E+06,   11.1775E+06
C:/temp/Job-17.odb,Step-1,Increment      1: Step Time =    1.000,"P-17-1",           588,       10.0693,       35.4063,            0.,NA,NA,"",   3.90879E+06,  -3.52172E+06,  -3.52172E+06
C:/temp/Job-17.odb,Step-1,Increment      1: Step Time =    1.000,"P-17-1",           589,       189.804,       164.549,            0.,NA,NA,"",   2.53954E+06,   254.040E+03,   254.040E+03
C:/temp/Job-17.odb,Step-1,Increment      1: Step Time =    1.000,"P-17-1",           590,       163.532,       190.845,            0.,NA,NA,"",   3.55538E+06,  -349.593E+03,  -349.593E+03
C:/temp/Job-17.odb,Step-1,Increment      1: Step Time =    1.000,"P-17-1",           591,       190.858,       36.4663,            0.,NA,NA,"",   2.61648E+06,   108.920E+03,   108.920E+03
C:/temp/Job-17.odb,Step-1,Increment      1: Step Time =    1.000,"P-17-1",           592,       35.0936,       190.158,            0.,NA,NA,"",   11.0260E+06,   10.8354E+06,   10.8354E+06
C:/temp/Job-17.odb,Step-1,Increment      1: Step Time =    1.000,"P-17-1",           593,       164.899,       19.3452,            0.,NA,NA,"",   6.00727E+06,   6.25977E+06,   6.25977E+06
C:/temp/Job-17.odb,Step-1,Increment      1: Step Time =    1.000,"P-17-1",           594,       180.640,       164.851,            0.,NA,NA,"",   4.01235E+06,   4.35947E+06,   4.35947E+06
C:/temp/Job-17.odb,Step-1,Increment      1: Step Time =    1.000,"P-17-1",           595,       19.7597,       35.0456,            0.,NA,NA,"",   5.76334E+06,  -5.57464E+06,  -5.57464E+06
C:/temp/Job-17.odb,Step-1,Increment      1: Step Time =    1.000,"P-17-1",           596,       180.684,       36.2021,            0.,NA,NA,"",   4.30252E+06,   4.61805E+06,   4.61805E+06
C:/temp/Job-17.odb,Step-1,Increment      1: Step Time =    1.000,"P-17-1",           597,       19.5480,       162.294,            0.,NA,NA,"",   6.25057E+06,  -6.09437E+06,  -6.09437E+06
C:/temp/Job-17.odb,Step-1,Increment      1: Step Time =    1.000,"P-17-1",           598,       163.791,       180.665,            0.,NA,NA,"",   6.81361E+06,   7.07478E+06,   7.07478E+06
C:/temp/Job-17.odb,Step-1,Increment      1: Step Time =    1.000,"P-17-1",           599,       37.4829,       20.1587,            0.,NA,NA,"",   5.41432E+06,  -5.61941E+06,  -5.61941E+06
C:/temp/Job-17.odb,Step-1,Increment      1: Step Time =    1.000,"P-17-1",           600,       34.0002,       180.367,            0.,NA,NA,"",   3.36130E+06,  -2.20631E+06,  -2.20631E+06
C:/temp/Job-17.odb,Step-1,Increment      1: Step Time =    1.000,"P-17-1",           601,       14.1083,       163.157,            0.,NA,NA,"",   4.88184E+06,  -4.51479E+06,  -4.51479E+06
C:/temp/Job-17.odb,Step-1,Increment      1: Step Time =    1.000,"P-17-1",           602,       164.261,       15.1805,            0.,NA,NA,"",   4.58335E+06,   4.50038E+06,   4.50038E+06
C:/temp/Job-17.odb,Step-1,Increment      1: Step Time =    1.000,"P-17-1",           603,       15.0724,       35.5641,            0.,NA,NA,"",   4.82880E+06,  -4.46956E+06,  -4.46956E+06
C:/temp/Job-17.odb,Step-1,Increment      1: Step Time =    1.000,"P-17-1",           604,       163.041,       187.096,            0.,NA,NA,"",   3.80166E+06,   3.47074E+06,   3.47074E+06
C:/temp/Job-17.odb,Step-1,Increment      1: Step Time =    1.000,"P-17-1",           605,       184.802,       164.215,            0.,NA,NA,"",   2.87501E+06,   3.03348E+06,   3.03348E+06
C:/temp/Job-17.odb,Step-1,Increment      1: Step Time =    1.000,"P-17-1",           606,       187.112,       36.9548,            0.,NA,NA,"",   2.53788E+06,   2.48693E+06,   2.48693E+06
C:/temp/Job-17.odb,Step-1,Increment      1: Step Time =    1.000,"P-17-1",           607,       34.8547,       185.188,            0.,NA,NA,"",   4.88277E+06,   3.57352E+06,   3.57352E+06
C:/temp/Job-17.odb,Step-1,Increment      1: Step Time =    1.000,"P-17-1",           608,       189.947,       154.734,            0.,NA,NA,"",   3.12442E+06,   2.70441E+06,   2.70441E+06
C:/temp/Job-17.odb,Step-1,Increment      1: Step Time =    1.000,"P-17-1",           609,       49.5509,       7.40102,            0.,NA,NA,"",   14.3979E+06,   14.1260E+06,   14.1260E+06
C:/temp/Job-17.odb,Step-1,Increment      1: Step Time =    1.000,"P-17-1",           610,       148.995,       192.433,            0.,NA,NA,"",   5.43994E+06,  -1.08888E+06,  -1.08888E+06
C:/temp/Job-17.odb,Step-1,Increment      1: Step Time =    1.000,"P-17-1",           611,       192.436,       51.0059,            0.,NA,NA,"",   3.36041E+06,   2.68673E+06,   2.68673E+06
C:/temp/Job-17.odb,Step-1,Increment      1: Step Time =    1.000,"P-17-1",           612,       45.0956,       189.986,            0.,NA,NA,"",   8.96239E+06,   8.61901E+06,   8.61901E+06
C:/temp/Job-17.odb,Step-1,Increment      1: Step Time =    1.000,"P-17-1",           613,       6.34787,       149.069,            0.,NA,NA,"",   3.77661E+06,  -3.76878E+06,  -3.76878E+06
C:/temp/Job-17.odb,Step-1,Increment      1: Step Time =    1.000,"P-17-1",           614,       10.0136,       45.2149,            0.,NA,NA,"",   4.58715E+06,  -4.44646E+06,  -4.44646E+06
C:/temp/Job-17.odb,Step-1,Increment      1: Step Time =    1.000,"P-17-1",           615,       154.766,       10.0366,            0.,NA,NA,"",    4.5732E+06,   1.47273E+06,   1.47273E+06
C:/temp/Job-17.odb,Step-1,Increment      1: Step Time =    1.000,"P-17-1",           616,       175.401,       28.2080,            0.,NA,NA,"",   4.51156E+06,   4.93501E+06,   4.93501E+06
C:/temp/Job-17.odb,Step-1,Increment      1: Step Time =    1.000,"P-17-1",           617,       177.253,       30.9356,            0.,NA,NA,"",   4.38902E+06,   4.81692E+06,   4.81692E+06
C:/temp/Job-17.odb,Step-1,Increment      1: Step Time =    1.000,"P-17-1",           618,       171.779,       175.363,            0.,NA,NA,"",   5.13232E+06,   5.52581E+06,   5.52581E+06
C:/temp/Job-17.odb,Step-1,Increment      1: Step Time =    1.000,"P-17-1",           619,       27.1360,       24.1472,            0.,NA,NA,"",   3.62226E+06,  -3.52254E+06,  -3.52254E+06
C:/temp/Job-17.odb,Step-1,Increment      1: Step Time =    1.000,"P-17-1",           620,       25.1220,       174.956,            0.,NA,NA,"",   3.30544E+06,  -2.83891E+06,  -2.83891E+06
C:/temp/Job-17.odb,Step-1,Increment      1: Step Time =    1.000,"P-17-1",           621,       27.2240,       178.343,            0.,NA,NA,"",   2.24768E+06,  -781.667E+03,  -781.667E+03
C:/temp/Job-17.odb,Step-1,Increment      1: Step Time =    1.000,"P-17-1",           622,       169.054,       177.220,            0.,NA,NA,"",   5.74791E+06,   6.12514E+06,   6.12514E+06
C:/temp/Job-17.odb,Step-1,Increment      1: Step Time =    1.000,"P-17-1",           623,       169.096,       16.0027,            0.,NA,NA,"",   3.68003E+06,   3.55127E+06,   3.55127E+06
C:/temp/Job-17.odb,Step-1,Increment      1: Step Time =    1.000,"P-17-1",           624,       183.982,       169.048,            0.,NA,NA,"",   2.64070E+06,   2.74869E+06,   2.74869E+06
C:/temp/Job-17.odb,Step-1,Increment      1: Step Time =    1.000,"P-17-1",           625,       14.8232,       30.9466,            0.,NA,NA,"",   3.69418E+06,  -3.12870E+06,  -3.12870E+06
C:/temp/Job-17.odb,Step-1,Increment      1: Step Time =    1.000,"P-17-1",           626,       185.528,       33.5140,            0.,NA,NA,"",   2.55335E+06,   2.53086E+06,   2.53086E+06
C:/temp/Job-17.odb,Step-1,Increment      1: Step Time =    1.000,"P-17-1",           627,       16.3193,       165.828,            0.,NA,NA,"",   4.85795E+06,  -4.47404E+06,  -4.47404E+06
C:/temp/Job-17.odb,Step-1,Increment      1: Step Time =    1.000,"P-17-1",           628,       166.483,       185.507,            0.,NA,NA,"",   3.94053E+06,   3.58024E+06,   3.58024E+06
C:/temp/Job-17.odb,Step-1,Increment      1: Step Time =    1.000,"P-17-1",           629,       30.2019,       16.2639,            0.,NA,NA,"",   3.86262E+06,   3.64790E+06,   3.64790E+06
C:/temp/Job-17.odb,Step-1,Increment      1: Step Time =    1.000,"P-17-1",           630,       29.9945,       185.977,            0.,NA,NA,"",   6.12000E+06,   5.96694E+06,   5.96694E+06
C:/temp/Job-17.odb,Step-1,Increment      1: Step Time =    1.000,"P-17-1",           631,       21.1487,       25.7207,            0.,NA,NA,"",   2.75865E+06,  -1.93864E+06,  -1.93864E+06
C:/temp/Job-17.odb,Step-1,Increment      1: Step Time =    1.000,"P-17-1",           632,       175.501,       19.0212,            0.,NA,NA,"",   3.30530E+06,   3.20469E+06,   3.20469E+06
C:/temp/Job-17.odb,Step-1,Increment      1: Step Time =    1.000,"P-17-1",           633,       180.969,       175.455,            0.,NA,NA,"",   2.79567E+06,   2.82842E+06,   2.82842E+06
C:/temp/Job-17.odb,Step-1,Increment      1: Step Time =    1.000,"P-17-1",           634,       25.5665,       183.155,            0.,NA,NA,"",   4.05807E+06,   4.02920E+06,   4.02920E+06
C:/temp/Job-17.odb,Step-1,Increment      1: Step Time =    1.000,"P-17-1",           635,       158.596,       184.924,            0.,NA,NA,"",   6.63398E+06,   6.68243E+06,   6.68243E+06
C:/temp/Job-17.odb,Step-1,Increment      1: Step Time =    1.000,"P-17-1",           636,       15.7470,       159.580,            0.,NA,NA,"",   5.49451E+06,  -5.28881E+06,  -5.28881E+06
C:/temp/Job-17.odb,Step-1,Increment      1: Step Time =    1.000,"P-17-1",           637,       184.932,       41.4022,            0.,NA,NA,"",   3.79381E+06,   3.88691E+06,   3.88691E+06
C:/temp/Job-17.odb,Step-1,Increment      1: Step Time =    1.000,"P-17-1",           638,       41.1268,       15.2902,            0.,NA,NA,"",   5.24528E+06,  -713.553E+03,  -713.553E+03
C:/temp/Job-17.odb,Step-1,Increment      1: Step Time =    1.000,"P-17-1",           639,       15.3273,       40.3549,            0.,NA,NA,"",   5.40575E+06,  -5.19767E+06,  -5.19767E+06
C:/temp/Job-17.odb,Step-1,Increment      1: Step Time =    1.000,"P-17-1",           640,       39.9584,       184.713,            0.,NA,NA,"",   5.02913E+06,   538.674E+03,   538.674E+03
C:/temp/Job-17.odb,Step-1,Increment      1: Step Time =    1.000,"P-17-1",           641,       159.543,       15.3659,            0.,NA,NA,"",   6.39260E+06,   6.41585E+06,   6.41585E+06
C:/temp/Job-17.odb,Step-1,Increment      1: Step Time =    1.000,"P-17-1",           642,       178.953,       26.4221,            0.,NA,NA,"",   3.15225E+06,   3.44350E+06,   3.44350E+06
C:/temp/Job-17.odb,Step-1,Increment      1: Step Time =    1.000,"P-17-1",           643,       173.571,       178.914,            0.,NA,NA,"",   3.69782E+06,   3.90995E+06,   3.90995E+06
C:/temp/Job-17.odb,Step-1,Increment      1: Step Time =    1.000,"P-17-1",           644,       19.1867,       174.082,            0.,NA,NA,"",   2.44580E+06,  -1.45024E+06,  -1.45024E+06
C:/temp/Job-17.odb,Step-1,Increment      1: Step Time =    1.000,"P-17-1",           645,       27.1216,       18.0034,            0.,NA,NA,"",   3.13510E+06,   2.47386E+06,   2.47386E+06
C:/temp/Job-17.odb,Step-1,Increment      1: Step Time =    1.000,"P-17-1",           646,       184.616,       159.504,            0.,NA,NA,"",   3.64244E+06,   3.78769E+06,   3.78769E+06
C:/temp/Job-17.odb,Step-1,Increment      1: Step Time =    1.000,"P-17-1",           647,       185.231,       174.510,            0.,NA,NA,"",   2.58202E+06,   2.28438E+06,   2.28438E+06
C:/temp/Job-17.odb,Step-1,Increment      1: Step Time =    1.000,"P-17-1",           648,       16.2045,       26.3593,            0.,NA,NA,"",   2.44263E+06,  -1.04568E+06,  -1.04568E+06
C:/temp/Job-17.odb,Step-1,Increment      1: Step Time =    1.000,"P-17-1",           649,       174.553,       14.7563,            0.,NA,NA,"",   3.10255E+06,   2.55545E+06,   2.55545E+06
C:/temp/Job-17.odb,Step-1,Increment      1: Step Time =    1.000,"P-17-1",           650,       25.3640,       186.411,            0.,NA,NA,"",   6.90522E+06,   6.89678E+06,   6.89678E+06
C:/temp/Job-17.odb,Step-1,Increment      1: Step Time =    1.000,"P-17-1",           651,       30.2126,       13.1894,            0.,NA,NA,"",   6.88078E+06,   6.77164E+06,   6.77164E+06
C:/temp/Job-17.odb,Step-1,Increment      1: Step Time =    1.000,"P-17-1",           652,       171.149,       184.499,            0.,NA,NA,"",   3.61119E+06,   3.30057E+06,   3.30057E+06
C:/temp/Job-17.odb,Step-1,Increment      1: Step Time =    1.000,"P-17-1",           653,       15.7403,       175.278,            0.,NA,NA,"",   1.90884E+06,   33.1873E+03,   33.1873E+03
C:/temp/Job-17.odb,Step-1,Increment      1: Step Time =    1.000,"P-17-1",           654,       184.528,       28.8491,            0.,NA,NA,"",   2.57168E+06,   2.54204E+06,   2.54204E+06
C:/temp/Job-17.odb,Step-1,Increment      1: Step Time =    1.000,"P-17-1",           655,       20.8843,       185.761,            0.,NA,NA,"",   6.76274E+06,   6.86239E+06,   6.86239E+06
C:/temp/Job-17.odb,Step-1,Increment      1: Step Time =    1.000,"P-17-1",           656,       16.2447,       20.7184,            0.,NA,NA,"",   2.60049E+06,   2.73663E+06,   2.73663E+06
C:/temp/Job-17.odb,Step-1,Increment      1: Step Time =    1.000,"P-17-1",           657,       185.851,       179.400,            0.,NA,NA,"",   2.96062E+06,   2.23591E+06,   2.23591E+06
C:/temp/Job-17.odb,Step-1,Increment      1: Step Time =    1.000,"P-17-1",           658,       179.438,       14.1405,            0.,NA,NA,"",   3.07600E+06,   2.23290E+06,   2.23290E+06
C:/temp/Job-17.odb,Step-1,Increment      1: Step Time =    1.000,"P-17-1",           659,       174.436,       9.99487,            0.,NA,NA,"",   2.96789E+06,  -72.9654E+03,  -72.9654E+03
C:/temp/Job-17.odb,Step-1,Increment      1: Step Time =    1.000,"P-17-1",           660,       10.5533,       25.6055,            0.,NA,NA,"",   1.80271E+06,   652.898E+03,   652.898E+03
C:/temp/Job-17.odb,Step-1,Increment      1: Step Time =    1.000,"P-17-1",           661,       189.991,       174.402,            0.,NA,NA,"",   2.83522E+06,  -23.0761E+03,  -23.0761E+03
C:/temp/Job-17.odb,Step-1,Increment      1: Step Time =    1.000,"P-17-1",           662,       25.2568,       190.630,            0.,NA,NA,"",   11.1650E+06,   11.1505E+06,   11.1505E+06
C:/temp/Job-17.odb,Step-1,Increment      1: Step Time =    1.000,"P-17-1",           663,       183.027,       24.4660,            0.,NA,NA,"",   2.78476E+06,   2.63322E+06,   2.63322E+06
C:/temp/Job-17.odb,Step-1,Increment      1: Step Time =    1.000,"P-17-1",           664,       175.531,       182.992,            0.,NA,NA,"",   3.21416E+06,   2.93597E+06,   2.93597E+06
C:/temp/Job-17.odb,Step-1,Increment      1: Step Time =    1.000,"P-17-1",           665,       25.7130,       13.8925,            0.,NA,NA,"",   6.82034E+06,   6.81623E+06,   6.81623E+06
C:/temp/Job-17.odb,Step-1,Increment      1: Step Time =    1.000,"P-17-1",           666,       16.8739,       179.861,            0.,NA,NA,"",   2.71002E+06,   2.87781E+06,   2.87781E+06
C:/temp/Job-17.odb,Step-1,Increment      1: Step Time =    1.000,"P-17-1",           667,       21.0257,       14.9700,            0.,NA,NA,"",   6.28160E+06,   6.39620E+06,   6.39620E+06
C:/temp/Job-17.odb,Step-1,Increment      1: Step Time =    1.000,"P-17-1",           668,       181.514,       183.278,            0.,NA,NA,"",   3.11872E+06,   2.41233E+06,   2.41233E+06
C:/temp/Job-17.odb,Step-1,Increment      1: Step Time =    1.000,"P-17-1",           669,       183.313,       18.4840,            0.,NA,NA,"",   3.04047E+06,   2.38958E+06,   2.38958E+06
C:/temp/Job-17.odb,Step-1,Increment      1: Step Time =    1.000,"P-17-1",           670,       185.611,       184.178,            0.,NA,NA,"",   3.11417E+06,   2.08208E+06,   2.08208E+06
C:/temp/Job-17.odb,Step-1,Increment      1: Step Time =    1.000,"P-17-1",           671,       184.209,       14.3840,            0.,NA,NA,"",   3.00828E+06,   1.14252E+06,   1.14252E+06
C:/temp/Job-17.odb,Step-1,Increment      1: Step Time =    1.000,"P-17-1",           672,       15.8605,       15.3892,            0.,NA,NA,"",   6.02168E+06,   6.26077E+06,   6.26077E+06
C:/temp/Job-17.odb,Step-1,Increment      1: Step Time =    1.000,"P-17-1",           673,       16.0126,       185.096,            0.,NA,NA,"",   6.40474E+06,   6.63111E+06,   6.63111E+06
C:/temp/Job-17.odb,Step-1,Increment      1: Step Time =    1.000,"P-17-1",           674,       190.226,       184.542,            0.,NA,NA,"",   2.93931E+06,   73.4267E+03,   73.4267E+03
C:/temp/Job-17.odb,Step-1,Increment      1: Step Time =    1.000,"P-17-1",           675,       184.566,       9.76577,            0.,NA,NA,"",   2.63302E+06,  -766.889E+03,  -766.889E+03
C:/temp/Job-17.odb,Step-1,Increment      1: Step Time =    1.000,"P-17-1",           676,       10.5669,       15.3888,            0.,NA,NA,"",   5.93501E+06,   6.31916E+06,   6.31916E+06
C:/temp/Job-17.odb,Step-1,Increment      1: Step Time =    1.000,"P-17-1",           677,       15.4849,       190.109,            0.,NA,NA,"",   10.2489E+06,   10.3739E+06,   10.3739E+06
C:/temp/Job-17.odb,Step-1,Increment      1: Step Time =    1.000,"P-17-1",           678,       189.083,       15.1700,            0.,NA,NA,"",   2.87014E+06,  -747.469E+03,  -747.469E+03
C:/temp/Job-17.odb,Step-1,Increment      1: Step Time =    1.000,"P-17-1",           679,       15.4457,       10.1493,            0.,NA,NA,"",   10.0909E+06,   10.2165E+06,   10.2165E+06
C:/temp/Job-17.odb,Step-1,Increment      1: Step Time =    1.000,"P-17-1",           680,       10.6910,       184.889,            0.,NA,NA,"",   6.14802E+06,   6.53445E+06,   6.53445E+06
C:/temp/Job-17.odb,Step-1,Increment      1: Step Time =    1.000,"P-17-1",           681,       184.825,       189.060,            0.,NA,NA,"",   2.81619E+06,   159.806E+03,   159.806E+03
C:/temp/Job-17.odb,Step-1,Increment      1: Step Time =    1.000,"P-17-1",           682,       25.2309,       9.42045,            0.,NA,NA,"",   11.2488E+06,   11.2687E+06,   11.2687E+06
C:/temp/Job-17.odb,Step-1,Increment      1: Step Time =    1.000,"P-17-1",           683,       10.9607,       174.910,            0.,NA,NA,"",   1.92461E+06,   919.209E+03,   919.209E+03
C:/temp/Job-17.odb,Step-1,Increment      1: Step Time =    1.000,"P-17-1",           684,       189.327,       26.8351,            0.,NA,NA,"",   2.73904E+06,   53.9067E+03,   53.9067E+03
C:/temp/Job-17.odb,Step-1,Increment      1: Step Time =    1.000,"P-17-1",           685,       173.165,       189.302,            0.,NA,NA,"",   3.19888E+06,   50.6133E+03,   50.6133E+03
C:/temp/Job-17.odb,Step-1,Increment      1: Step Time =    1.000,"P-17-1",           686,       125.531,       4.20900,            0.,NA,NA,"",   20.8459E+06,  -6.54794E+06,  -6.54794E+06
C:/temp/Job-17.odb,Step-1,Increment      1: Step Time =    1.000,"P-17-1",           687,       5.10996,       5.08608,            0.,NA,NA,"",   12.2114E+06,   12.6534E+06,   12.6534E+06
C:/temp/Job-17.odb,Step-1,Increment      1: Step Time =    1.000,"P-17-1",           688,       195.787,       125.531,            0.,NA,NA,"",   10.5771E+06,   9.60504E+06,   9.60504E+06
C:/temp/Job-17.odb,Step-1,Increment      1: Step Time =    1.000,"P-17-1",           689,       74.4688,       195.787,            0.,NA,NA,"",   22.0874E+06,   21.5573E+06,   21.5573E+06
C:/temp/Job-17.odb,Step-1,Increment      1: Step Time =    1.000,"P-17-1",           690,       4.20679,       74.4716,            0.,NA,NA,"",   1.22843E+06,  -1.16242E+06,  -1.16242E+06
C:/temp/Job-17.odb,Step-1,Increment      1: Step Time =    1.000,"P-17-1",           691,       192.072,       67.1084,            0.,NA,NA,"",   5.84741E+06,   5.15133E+06,   5.15133E+06
C:/temp/Job-17.odb,Step-1,Increment      1: Step Time =    1.000,"P-17-1",           692,       132.897,       192.069,            0.,NA,NA,"",   14.3186E+06,   13.3839E+06,   13.3839E+06
C:/temp/Job-17.odb,Step-1,Increment      1: Step Time =    1.000,"P-17-1",           693,       68.1968,       6.60995,            0.,NA,NA,"",   12.1343E+06,   9.39056E+06,   9.39056E+06
C:/temp/Job-17.odb,Step-1,Increment      1: Step Time =    1.000,"P-17-1",           694,       7.98656,       132.908,            0.,NA,NA,"",   1.89931E+06,  -1.89057E+06,  -1.89057E+06
C:/temp/Job-17.odb,Step-1,Increment      1: Step Time =    1.000,"P-17-1",           695,       192.559,       62.5131,            0.,NA,NA,"",   5.20656E+06,   4.67776E+06,   4.67776E+06
C:/temp/Job-17.odb,Step-1,Increment      1: Step Time =    1.000,"P-17-1",           696,       7.60741,       137.559,            0.,NA,NA,"",   2.44133E+06,  -2.43640E+06,  -2.43640E+06
C:/temp/Job-17.odb,Step-1,Increment      1: Step Time =    1.000,"P-17-1",           697,       64.2299,       7.59451,            0.,NA,NA,"",   11.2342E+06,   6.26473E+06,   6.26473E+06
C:/temp/Job-17.odb,Step-1,Increment      1: Step Time =    1.000,"P-17-1",           698,       137.492,       192.559,            0.,NA,NA,"",   8.23746E+06,   4.30996E+06,   4.30996E+06
C:/temp/Job-17.odb,Step-1,Increment      1: Step Time =    1.000,"P-17-1",           699,       7.35870,       60.1090,            0.,NA,NA,"",   2.72327E+06,  -2.72814E+06,  -2.72814E+06
C:/temp/Job-17.odb,Step-1,Increment      1: Step Time =    1.000,"P-17-1",           700,       158.772,       190.732,            0.,NA,NA,"",   4.31579E+06,  -41.7951E+03,  -41.7951E+03
C:/temp/Job-17.odb,Step-1,Increment      1: Step Time =    1.000,"P-17-1",           701,       190.740,       41.2280,            0.,NA,NA,"",   2.79171E+06,   438.889E+03,   438.889E+03
C:/temp/Job-17.odb,Step-1,Increment      1: Step Time =    1.000,"P-17-1",           702,       60.0998,       192.643,            0.,NA,NA,"",   10.8709E+06,   9.93237E+06,   9.93237E+06
C:/temp/Job-17.odb,Step-1,Increment      1: Step Time =    1.000,"P-17-1",           703,       192.631,       139.884,            0.,NA,NA,"",   4.93013E+06,   4.31300E+06,   4.31300E+06
C:/temp/Job-17.odb,Step-1,Increment      1: Step Time =    1.000,"P-17-1",           704,       139.891,       7.36402,            0.,NA,NA,"",   7.06162E+06,   3.46313E+06,   3.46313E+06
C:/temp/Job-17.odb,Step-1,Increment      1: Step Time =    1.000,"P-17-1",           705,       10.0725,       143.528,            0.,NA,NA,"",   3.39249E+06,  -3.39927E+06,  -3.39927E+06
C:/temp/Job-17.odb,Step-1,Increment      1: Step Time =    1.000,"P-17-1",           706,       12.7336,       145.921,            0.,NA,NA,"",   3.90926E+06,  -3.91021E+06,  -3.91021E+06
C:/temp/Job-17.odb,Step-1,Increment      1: Step Time =    1.000,"P-17-1",           707,       8.64012,       147.057,            0.,NA,NA,"",   3.74356E+06,  -3.72750E+06,  -3.72750E+06
C:/temp/Job-17.odb,Step-1,Increment      1: Step Time =    1.000,"P-17-1",           708,       143.306,       190.794,            0.,NA,NA,"",   7.16983E+06,   6.98525E+06,   6.98525E+06
C:/temp/Job-17.odb,Step-1,Increment      1: Step Time =    1.000,"P-17-1",           709,       147.510,       188.694,            0.,NA,NA,"",   8.99366E+06,   9.06643E+06,   9.06643E+06
C:/temp/Job-17.odb,Step-1,Increment      1: Step Time =    1.000,"P-17-1",           710,       190.794,       56.6974,            0.,NA,NA,"",   4.83298E+06,   4.36997E+06,   4.36997E+06
C:/temp/Job-17.odb,Step-1,Increment      1: Step Time =    1.000,"P-17-1",           711,       188.697,       52.4942,            0.,NA,NA,"",   4.64706E+06,   4.38775E+06,   4.38775E+06
C:/temp/Job-17.odb,Step-1,Increment      1: Step Time =    1.000,"P-17-1",           712,       154.941,       14.7992,            0.,NA,NA,"",   8.77813E+06,   8.85742E+06,   8.85742E+06
C:/temp/Job-17.odb,Step-1,Increment      1: Step Time =    1.000,"P-17-1",           713,       185.183,       154.910,            0.,NA,NA,"",   4.66471E+06,   4.74611E+06,   4.74611E+06
C:/temp/Job-17.odb,Step-1,Increment      1: Step Time =    1.000,"P-17-1",           714,       14.7847,       45.0148,            0.,NA,NA,"",   5.36836E+06,  -5.26375E+06,  -5.26375E+06
C:/temp/Job-17.odb,Step-1,Increment      1: Step Time =    1.000,"P-17-1",           715,       44.8415,       185.227,            0.,NA,NA,"",   5.97096E+06,  -2.60772E+06,  -2.60772E+06
C:/temp/Job-17.odb,Step-1,Increment      1: Step Time =    1.000,"P-17-1",           716,       8.24510,       153.034,            0.,NA,NA,"",   4.16211E+06,  -4.10073E+06,  -4.10073E+06
C:/temp/Job-17.odb,Step-1,Increment      1: Step Time =    1.000,"P-17-1",           717,       45.6101,       8.72175,            0.,NA,NA,"",   12.2975E+06,   12.0319E+06,   12.0319E+06
C:/temp/Job-17.odb,Step-1,Increment      1: Step Time =    1.000,"P-17-1",           718,       22.5853,       171.594,            0.,NA,NA,"",   4.38492E+06,  -4.12524E+06,  -4.12524E+06
C:/temp/Job-17.odb,Step-1,Increment      1: Step Time =    1.000,"P-17-1",           719,       21.9248,       29.3853,            0.,NA,NA,"",   4.61641E+06,  -4.35470E+06,  -4.35470E+06
C:/temp/Job-17.odb,Step-1,Increment      1: Step Time =    1.000,"P-17-1",           720,       24.6387,       27.3901,            0.,NA,NA,"",   4.40130E+06,  -4.23261E+06,  -4.23261E+06
C:/temp/Job-17.odb,Step-1,Increment      1: Step Time =    1.000,"P-17-1",           721,       33.3665,       17.8571,            0.,NA,NA,"",   2.81177E+06,   226.965E+03,   226.965E+03
C:/temp/Job-17.odb,Step-1,Increment      1: Step Time =    1.000,"P-17-1",           722,       35.0589,       13.8144,            0.,NA,NA,"",   5.22671E+06,   4.60991E+06,   4.60991E+06
C:/temp/Job-17.odb,Step-1,Increment      1: Step Time =    1.000,"P-17-1",           723,       177.160,       177.033,            0.,NA,NA,"",   3.21571E+06,   3.38790E+06,   3.38790E+06
C:/temp/Job-17.odb,Step-1,Increment      1: Step Time =    1.000,"P-17-1",           724,       177.076,       22.8317,            0.,NA,NA,"",   3.26576E+06,   3.42055E+06,   3.42055E+06
C:/temp/Job-17.odb,Step-1,Increment      1: Step Time =    1.000,"P-17-1",           725,       181.967,       179.540,            0.,NA,NA,"",   2.93468E+06,   2.56407E+06,   2.56407E+06
C:/temp/Job-17.odb,Step-1,Increment      1: Step Time =    1.000,"P-17-1",           726,       179.578,       18.0278,            0.,NA,NA,"",   3.09409E+06,   2.65810E+06,   2.65810E+06
C:/temp/Job-17.odb,Step-1,Increment      1: Step Time =    1.000,"P-17-1",           727,       171.210,       20.7332,            0.,NA,NA,"",   4.23575E+06,   4.47041E+06,   4.47041E+06
C:/temp/Job-17.odb,Step-1,Increment      1: Step Time =    1.000,"P-17-1",           728,       179.253,       171.163,            0.,NA,NA,"",   3.31123E+06,   3.64134E+06,   3.64134E+06
C:/temp/Job-17.odb,Step-1,Increment      1: Step Time =    1.000,"P-17-1",           729,       20.9591,       177.288,            0.,NA,NA,"",   1.66123E+06,   327.903E+03,   327.903E+03
C:/temp/Job-17.odb,Step-1,Increment      1: Step Time =    1.000,"P-17-1",           730,       16.5891,       171.665,            0.,NA,NA,"",   3.04090E+06,  -2.38889E+06,  -2.38889E+06
