ODB Name,Step,Frame,Part Instance Name,    Node Label,X,Y,Z,Section Name,Material Name,Section Point,       S-Mises,S-Max. In-Plane Principal (Abs),S-Max. Principal (Abs)
C:/temp/Job-18.odb,Step-1,Increment      1: Step Time =    1.000,"P-18-1",             1,       90.2046,       132.558,            0.,NA,NA,"",   2.62447E+06,   2.69444E+06,   2.69444E+06
C:/temp/Job-18.odb,Step-1,Increment      1: Step Time =    1.000,"P-18-1",             2,       77.3112,       125.322,            0.,NA,NA,"",   1.11469E+06,   1.10528E+06,   1.10528E+06
C:/temp/Job-18.odb,Step-1,Increment      1: Step Time =    1.000,"P-18-1",             3,       70.9778,       117.712,            0.,NA,NA,"",   407.701E+03,   38.5919E+03,   38.5919E+03
C:/temp/Job-18.odb,Step-1,Increment      1: Step Time =    1.000,"P-18-1",             4,       66.2040,       103.719,            0.,NA,NA,"",   740.066E+03,  -755.261E+03,  -755.261E+03
C:/temp/Job-18.odb,Step-1,Increment      1: Step Time =    1.000,"P-18-1",             5,       66.5656,       93.8243,            0.,NA,NA,"",   697.158E+03,  -706.558E+03,  -706.558E+03
C:/temp/Job-18.odb,Step-1,Increment      1: Step Time =    1.000,"P-18-1",             6,       69.7624,       84.4538,            0.,NA,NA,"",   429.473E+03,  -171.574E+03,  -171.574E+03
C:/temp/Job-18.odb,Step-1,Increment      1: Step Time =    1.000,"P-18-1",             7,       79.2201,       73.0891,            0.,NA,NA,"",   1.31373E+06,   1.33164E+06,   1.33164E+06
C:/temp/Job-18.odb,Step-1,Increment      1: Step Time =    1.000,"P-18-1",             8,       87.8541,       68.2435,            0.,NA,NA,"",   2.29470E+06,   2.35587E+06,   2.35587E+06
C:/temp/Job-18.odb,Step-1,Increment      1: Step Time =    1.000,"P-18-1",             9,       97.5182,       66.0907,            0.,NA,NA,"",   3.08733E+06,   3.16534E+06,   3.16534E+06
C:/temp/Job-18.odb,Step-1,Increment      1: Step Time =    1.000,"P-18-1",            10,       112.146,       68.2435,            0.,NA,NA,"",   2.68022E+06,   2.74609E+06,   2.74609E+06
C:/temp/Job-18.odb,Step-1,Increment      1: Step Time =    1.000,"P-18-1",            11,       120.780,       73.0891,            0.,NA,NA,"",   1.71186E+06,   1.74762E+06,   1.74762E+06
C:/temp/Job-18.odb,Step-1,Increment      1: Step Time =    1.000,"P-18-1",            12,       130.238,       84.4538,            0.,NA,NA,"",   514.528E+03,  -86.5511E+03,  -86.5511E+03
C:/temp/Job-18.odb,Step-1,Increment      1: Step Time =    1.000,"P-18-1",            13,       133.434,       93.8243,            0.,NA,NA,"",   1.06428E+06,  -1.06632E+06,  -1.06632E+06
C:/temp/Job-18.odb,Step-1,Increment      1: Step Time =    1.000,"P-18-1",            14,       133.796,       103.719,            0.,NA,NA,"",   973.012E+03,  -992.764E+03,  -992.764E+03
C:/temp/Job-18.odb,Step-1,Increment      1: Step Time =    1.000,"P-18-1",            15,       129.022,       117.712,            0.,NA,NA,"",   531.584E+03,   118.228E+03,   118.228E+03
C:/temp/Job-18.odb,Step-1,Increment      1: Step Time =    1.000,"P-18-1",            16,       122.689,       125.322,            0.,NA,NA,"",   1.52504E+06,   1.54634E+06,   1.54634E+06
C:/temp/Job-18.odb,Step-1,Increment      1: Step Time =    1.000,"P-18-1",            17,       109.795,       132.558,            0.,NA,NA,"",   2.91756E+06,   2.98701E+06,   2.98701E+06
C:/temp/Job-18.odb,Step-1,Increment      1: Step Time =    1.000,"P-18-1",            18,          100.,          134.,            0.,NA,NA,"",   3.12948E+06,   3.20707E+06,   3.20707E+06
C:/temp/Job-18.odb,Step-1,Increment      1: Step Time =    1.000,"P-18-1",            19,          190.,            0.,            0.,NA,NA,"",   997.413E+03,   997.546E+03,   997.546E+03
C:/temp/Job-18.odb,Step-1,Increment      1: Step Time =    1.000,"P-18-1",            20,          180.,            0.,            0.,NA,NA,"",   997.188E+03,   997.274E+03,   997.274E+03
C:/temp/Job-18.odb,Step-1,Increment      1: Step Time =    1.000,"P-18-1",            21,          170.,            0.,            0.,NA,NA,"",   998.716E+03,   998.353E+03,   998.353E+03
C:/temp/Job-18.odb,Step-1,Increment      1: Step Time =    1.000,"P-18-1",            22,          160.,            0.,            0.,NA,NA,"",   990.697E+03,   990.125E+03,   990.125E+03
C:/temp/Job-18.odb,Step-1,Increment      1: Step Time =    1.000,"P-18-1",            23,          150.,            0.,            0.,NA,NA,"",   962.274E+03,   961.513E+03,   961.513E+03
C:/temp/Job-18.odb,Step-1,Increment      1: Step Time =    1.000,"P-18-1",            24,          140.,            0.,            0.,NA,NA,"",   908.609E+03,   907.920E+03,   907.920E+03
C:/temp/Job-18.odb,Step-1,Increment      1: Step Time =    1.000,"P-18-1",            25,          130.,            0.,            0.,NA,NA,"",   840.394E+03,   840.266E+03,   840.266E+03
C:/temp/Job-18.odb,Step-1,Increment      1: Step Time =    1.000,"P-18-1",            26,          120.,            0.,            0.,NA,NA,"",   776.378E+03,   777.103E+03,   777.103E+03
C:/temp/Job-18.odb,Step-1,Increment      1: Step Time =    1.000,"P-18-1",            27,          110.,            0.,            0.,NA,NA,"",   740.630E+03,   742.161E+03,   742.161E+03
C:/temp/Job-18.odb,Step-1,Increment      1: Step Time =    1.000,"P-18-1",            28,          100.,            0.,            0.,NA,NA,"",   753.452E+03,   755.112E+03,   755.112E+03
C:/temp/Job-18.odb,Step-1,Increment      1: Step Time =    1.000,"P-18-1",            29,           90.,            0.,            0.,NA,NA,"",   822.855E+03,   823.786E+03,   823.786E+03
C:/temp/Job-18.odb,Step-1,Increment      1: Step Time =    1.000,"P-18-1",            30,           80.,            0.,            0.,NA,NA,"",   938.542E+03,   938.544E+03,   938.544E+03
C:/temp/Job-18.odb,Step-1,Increment      1: Step Time =    1.000,"P-18-1",            31,           70.,            0.,            0.,NA,NA,"",   1.07561E+06,   1.07533E+06,   1.07533E+06
C:/temp/Job-18.odb,Step-1,Increment      1: Step Time =    1.000,"P-18-1",            32,           60.,            0.,            0.,NA,NA,"",   1.21122E+06,   1.21115E+06,   1.21115E+06
C:/temp/Job-18.odb,Step-1,Increment      1: Step Time =    1.000,"P-18-1",            33,           50.,            0.,            0.,NA,NA,"",   1.32222E+06,   1.31885E+06,   1.31885E+06
C:/temp/Job-18.odb,Step-1,Increment      1: Step Time =    1.000,"P-18-1",            34,           40.,            0.,            0.,NA,NA,"",   1.40278E+06,   1.40173E+06,   1.40173E+06
C:/temp/Job-18.odb,Step-1,Increment      1: Step Time =    1.000,"P-18-1",            35,           30.,            0.,            0.,NA,NA,"",   1.46047E+06,   1.46029E+06,   1.46029E+06
C:/temp/Job-18.odb,Step-1,Increment      1: Step Time =    1.000,"P-18-1",            36,           20.,            0.,            0.,NA,NA,"",   1.52265E+06,   1.52298E+06,   1.52298E+06
C:/temp/Job-18.odb,Step-1,Increment      1: Step Time =    1.000,"P-18-1",            37,           10.,            0.,            0.,NA,NA,"",   1.66039E+06,   1.66276E+06,   1.66276E+06
C:/temp/Job-18.odb,Step-1,Increment      1: Step Time =    1.000,"P-18-1",            38,          200.,            0.,            0.,NA,NA,"",   999.758E+03,   999.513E+03,   999.513E+03
C:/temp/Job-18.odb,Step-1,Increment      1: Step Time =    1.000,"P-18-1",            39,            0.,            0.,            0.,NA,NA,"",   2.03252E+06,   2.13257E+06,   2.13257E+06
C:/temp/Job-18.odb,Step-1,Increment      1: Step Time =    1.000,"P-18-1",            40,          200.,          190.,            0.,NA,NA,"",   1.00156E+06,   1.00044E+06,   1.00044E+06
C:/temp/Job-18.odb,Step-1,Increment      1: Step Time =    1.000,"P-18-1",            41,          200.,          180.,            0.,NA,NA,"",   1.00041E+06,   1.00134E+06,   1.00134E+06
C:/temp/Job-18.odb,Step-1,Increment      1: Step Time =    1.000,"P-18-1",            42,          200.,          170.,            0.,NA,NA,"",   989.715E+03,   1.00256E+06,   1.00256E+06
C:/temp/Job-18.odb,Step-1,Increment      1: Step Time =    1.000,"P-18-1",            43,          200.,          160.,            0.,NA,NA,"",   964.207E+03,   1.00259E+06,   1.00259E+06
C:/temp/Job-18.odb,Step-1,Increment      1: Step Time =    1.000,"P-18-1",            44,          200.,          150.,            0.,NA,NA,"",   926.888E+03,   1.00266E+06,   1.00266E+06
C:/temp/Job-18.odb,Step-1,Increment      1: Step Time =    1.000,"P-18-1",            45,          200.,          140.,            0.,NA,NA,"",    889.55E+03,   1.00348E+06,   1.00348E+06
C:/temp/Job-18.odb,Step-1,Increment      1: Step Time =    1.000,"P-18-1",            46,          200.,          130.,            0.,NA,NA,"",   870.148E+03,   1.00320E+06,   1.00320E+06
C:/temp/Job-18.odb,Step-1,Increment      1: Step Time =    1.000,"P-18-1",            47,          200.,          120.,            0.,NA,NA,"",   877.695E+03,   1.00102E+06,   1.00102E+06
C:/temp/Job-18.odb,Step-1,Increment      1: Step Time =    1.000,"P-18-1",            48,          200.,          110.,            0.,NA,NA,"",   898.872E+03,   996.788E+03,   996.788E+03
C:/temp/Job-18.odb,Step-1,Increment      1: Step Time =    1.000,"P-18-1",            49,          200.,          100.,            0.,NA,NA,"",   910.161E+03,   994.883E+03,   994.883E+03
C:/temp/Job-18.odb,Step-1,Increment      1: Step Time =    1.000,"P-18-1",            50,          200.,           90.,            0.,NA,NA,"",   899.876E+03,   997.453E+03,   997.453E+03
C:/temp/Job-18.odb,Step-1,Increment      1: Step Time =    1.000,"P-18-1",            51,          200.,           80.,            0.,NA,NA,"",   878.096E+03,   1.00071E+06,   1.00071E+06
C:/temp/Job-18.odb,Step-1,Increment      1: Step Time =    1.000,"P-18-1",            52,          200.,           70.,            0.,NA,NA,"",   868.957E+03,   1.00174E+06,   1.00174E+06
C:/temp/Job-18.odb,Step-1,Increment      1: Step Time =    1.000,"P-18-1",            53,          200.,           60.,            0.,NA,NA,"",   889.851E+03,   1.00156E+06,   1.00156E+06
C:/temp/Job-18.odb,Step-1,Increment      1: Step Time =    1.000,"P-18-1",            54,          200.,           50.,            0.,NA,NA,"",   936.339E+03,   1.01022E+06,   1.01022E+06
C:/temp/Job-18.odb,Step-1,Increment      1: Step Time =    1.000,"P-18-1",            55,          200.,           40.,            0.,NA,NA,"",   967.434E+03,   1.00285E+06,   1.00285E+06
C:/temp/Job-18.odb,Step-1,Increment      1: Step Time =    1.000,"P-18-1",            56,          200.,           30.,            0.,NA,NA,"",   990.735E+03,   1.00157E+06,   1.00157E+06
C:/temp/Job-18.odb,Step-1,Increment      1: Step Time =    1.000,"P-18-1",            57,          200.,           20.,            0.,NA,NA,"",   1.00065E+06,   1.00098E+06,   1.00098E+06
C:/temp/Job-18.odb,Step-1,Increment      1: Step Time =    1.000,"P-18-1",            58,          200.,           10.,            0.,NA,NA,"",   1.00154E+06,   1.00036E+06,   1.00036E+06
C:/temp/Job-18.odb,Step-1,Increment      1: Step Time =    1.000,"P-18-1",            59,          200.,          200.,            0.,NA,NA,"",   999.751E+03,   999.502E+03,   999.502E+03
C:/temp/Job-18.odb,Step-1,Increment      1: Step Time =    1.000,"P-18-1",            60,           10.,          200.,            0.,NA,NA,"",   1.66027E+06,   1.66317E+06,   1.66317E+06
C:/temp/Job-18.odb,Step-1,Increment      1: Step Time =    1.000,"P-18-1",            61,           20.,          200.,            0.,NA,NA,"",   1.52242E+06,   1.52293E+06,   1.52293E+06
C:/temp/Job-18.odb,Step-1,Increment      1: Step Time =    1.000,"P-18-1",            62,           30.,          200.,            0.,NA,NA,"",   1.45920E+06,   1.45864E+06,   1.45864E+06
C:/temp/Job-18.odb,Step-1,Increment      1: Step Time =    1.000,"P-18-1",            63,           40.,          200.,            0.,NA,NA,"",   1.39887E+06,   1.39805E+06,   1.39805E+06
C:/temp/Job-18.odb,Step-1,Increment      1: Step Time =    1.000,"P-18-1",            64,           50.,          200.,            0.,NA,NA,"",   1.31806E+06,   1.31714E+06,   1.31714E+06
C:/temp/Job-18.odb,Step-1,Increment      1: Step Time =    1.000,"P-18-1",            65,           60.,          200.,            0.,NA,NA,"",   1.21011E+06,   1.20881E+06,   1.20881E+06
C:/temp/Job-18.odb,Step-1,Increment      1: Step Time =    1.000,"P-18-1",            66,           70.,          200.,            0.,NA,NA,"",   1.08030E+06,   1.07941E+06,   1.07941E+06
C:/temp/Job-18.odb,Step-1,Increment      1: Step Time =    1.000,"P-18-1",            67,           80.,          200.,            0.,NA,NA,"",   944.395E+03,   944.368E+03,   944.368E+03
C:/temp/Job-18.odb,Step-1,Increment      1: Step Time =    1.000,"P-18-1",            68,           90.,          200.,            0.,NA,NA,"",   828.086E+03,   829.103E+03,   829.103E+03
C:/temp/Job-18.odb,Step-1,Increment      1: Step Time =    1.000,"P-18-1",            69,          100.,          200.,            0.,NA,NA,"",   756.111E+03,   757.783E+03,   757.783E+03
C:/temp/Job-18.odb,Step-1,Increment      1: Step Time =    1.000,"P-18-1",            70,          110.,          200.,            0.,NA,NA,"",   739.871E+03,   741.444E+03,   741.444E+03
C:/temp/Job-18.odb,Step-1,Increment      1: Step Time =    1.000,"P-18-1",            71,          120.,          200.,            0.,NA,NA,"",   774.027E+03,   774.883E+03,   774.883E+03
C:/temp/Job-18.odb,Step-1,Increment      1: Step Time =    1.000,"P-18-1",            72,          130.,          200.,            0.,NA,NA,"",   840.826E+03,   841.119E+03,   841.119E+03
C:/temp/Job-18.odb,Step-1,Increment      1: Step Time =    1.000,"P-18-1",            73,          140.,          200.,            0.,NA,NA,"",   916.663E+03,   916.231E+03,   916.231E+03
C:/temp/Job-18.odb,Step-1,Increment      1: Step Time =    1.000,"P-18-1",            74,          150.,          200.,            0.,NA,NA,"",   969.409E+03,   967.230E+03,   967.230E+03
C:/temp/Job-18.odb,Step-1,Increment      1: Step Time =    1.000,"P-18-1",            75,          160.,          200.,            0.,NA,NA,"",   993.005E+03,   992.482E+03,   992.482E+03
C:/temp/Job-18.odb,Step-1,Increment      1: Step Time =    1.000,"P-18-1",            76,          170.,          200.,            0.,NA,NA,"",   998.740E+03,   998.508E+03,   998.508E+03
C:/temp/Job-18.odb,Step-1,Increment      1: Step Time =    1.000,"P-18-1",            77,          180.,          200.,            0.,NA,NA,"",   996.841E+03,   996.944E+03,   996.944E+03
C:/temp/Job-18.odb,Step-1,Increment      1: Step Time =    1.000,"P-18-1",            78,          190.,          200.,            0.,NA,NA,"",   997.323E+03,   997.451E+03,   997.451E+03
C:/temp/Job-18.odb,Step-1,Increment      1: Step Time =    1.000,"P-18-1",            79,            0.,          200.,            0.,NA,NA,"",   2.03014E+06,   2.12859E+06,   2.12859E+06
C:/temp/Job-18.odb,Step-1,Increment      1: Step Time =    1.000,"P-18-1",            80,            0.,           10.,            0.,NA,NA,"",   1.46211E+06,   1.59936E+06,   1.59936E+06
C:/temp/Job-18.odb,Step-1,Increment      1: Step Time =    1.000,"P-18-1",            81,            0.,           20.,            0.,NA,NA,"",   1.22719E+06,   1.36214E+06,   1.36214E+06
C:/temp/Job-18.odb,Step-1,Increment      1: Step Time =    1.000,"P-18-1",            82,            0.,           30.,            0.,NA,NA,"",   1.08158E+06,   1.20849E+06,   1.20849E+06
C:/temp/Job-18.odb,Step-1,Increment      1: Step Time =    1.000,"P-18-1",            83,            0.,           40.,            0.,NA,NA,"",   964.006E+03,   1.08041E+06,   1.08041E+06
C:/temp/Job-18.odb,Step-1,Increment      1: Step Time =    1.000,"P-18-1",            84,            0.,           50.,            0.,NA,NA,"",   852.281E+03,   954.803E+03,   954.803E+03
C:/temp/Job-18.odb,Step-1,Increment      1: Step Time =    1.000,"P-18-1",            85,            0.,           60.,            0.,NA,NA,"",   736.637E+03,   827.254E+03,   827.254E+03
C:/temp/Job-18.odb,Step-1,Increment      1: Step Time =    1.000,"P-18-1",            86,            0.,           70.,            0.,NA,NA,"",     628.1E+03,   706.343E+03,   706.343E+03
C:/temp/Job-18.odb,Step-1,Increment      1: Step Time =    1.000,"P-18-1",            87,            0.,           80.,            0.,NA,NA,"",   528.492E+03,   596.451E+03,   596.451E+03
C:/temp/Job-18.odb,Step-1,Increment      1: Step Time =    1.000,"P-18-1",            88,            0.,           90.,            0.,NA,NA,"",   453.100E+03,   514.786E+03,   514.786E+03
C:/temp/Job-18.odb,Step-1,Increment      1: Step Time =    1.000,"P-18-1",            89,            0.,          100.,            0.,NA,NA,"",   424.893E+03,   484.584E+03,   484.584E+03
C:/temp/Job-18.odb,Step-1,Increment      1: Step Time =    1.000,"P-18-1",            90,            0.,          110.,            0.,NA,NA,"",   454.008E+03,   515.982E+03,   515.982E+03
C:/temp/Job-18.odb,Step-1,Increment      1: Step Time =    1.000,"P-18-1",            91,            0.,          120.,            0.,NA,NA,"",   526.811E+03,   594.855E+03,   594.855E+03
C:/temp/Job-18.odb,Step-1,Increment      1: Step Time =    1.000,"P-18-1",            92,            0.,          130.,            0.,NA,NA,"",   625.327E+03,   703.207E+03,   703.207E+03
C:/temp/Job-18.odb,Step-1,Increment      1: Step Time =    1.000,"P-18-1",            93,            0.,          140.,            0.,NA,NA,"",   739.831E+03,   829.102E+03,   829.102E+03
C:/temp/Job-18.odb,Step-1,Increment      1: Step Time =    1.000,"P-18-1",            94,            0.,          150.,            0.,NA,NA,"",   852.636E+03,   956.682E+03,   956.682E+03
C:/temp/Job-18.odb,Step-1,Increment      1: Step Time =    1.000,"P-18-1",            95,            0.,          160.,            0.,NA,NA,"",   961.937E+03,   1.07912E+06,   1.07912E+06
C:/temp/Job-18.odb,Step-1,Increment      1: Step Time =    1.000,"P-18-1",            96,            0.,          170.,            0.,NA,NA,"",   1.07953E+06,   1.20681E+06,   1.20681E+06
C:/temp/Job-18.odb,Step-1,Increment      1: Step Time =    1.000,"P-18-1",            97,            0.,          180.,            0.,NA,NA,"",   1.22479E+06,   1.36001E+06,   1.36001E+06
C:/temp/Job-18.odb,Step-1,Increment      1: Step Time =    1.000,"P-18-1",            98,            0.,          190.,            0.,NA,NA,"",   1.45961E+06,   1.59694E+06,   1.59694E+06
C:/temp/Job-18.odb,Step-1,Increment      1: Step Time =    1.000,"P-18-1",            99,       103.304,       61.4794,            0.,NA,NA,"",   2.70641E+06,   2.82643E+06,   2.82643E+06
C:/temp/Job-18.odb,Step-1,Increment      1: Step Time =    1.000,"P-18-1",           100,       189.774,       66.3302,            0.,NA,NA,"",   927.726E+03,   1.03365E+06,   1.03365E+06
C:/temp/Job-18.odb,Step-1,Increment      1: Step Time =    1.000,"P-18-1",           101,       61.6200,       92.5704,            0.,NA,NA,"",   560.738E+03,  -550.636E+03,  -550.636E+03
C:/temp/Job-18.odb,Step-1,Increment      1: Step Time =    1.000,"P-18-1",           102,       190.761,       134.894,            0.,NA,NA,"",   924.481E+03,   1.03157E+06,   1.03157E+06
C:/temp/Job-18.odb,Step-1,Increment      1: Step Time =    1.000,"P-18-1",           103,       181.846,       134.621,            0.,NA,NA,"",   1.01468E+06,   1.07406E+06,   1.07406E+06
C:/temp/Job-18.odb,Step-1,Increment      1: Step Time =    1.000,"P-18-1",           104,       168.360,       135.830,            0.,NA,NA,"",   1.18855E+06,   1.14359E+06,   1.14359E+06
C:/temp/Job-18.odb,Step-1,Increment      1: Step Time =    1.000,"P-18-1",           105,       158.234,       137.405,            0.,NA,NA,"",   1.35982E+06,   1.23087E+06,   1.23087E+06
C:/temp/Job-18.odb,Step-1,Increment      1: Step Time =    1.000,"P-18-1",           106,       147.133,       135.955,            0.,NA,NA,"",   1.52379E+06,   1.32245E+06,   1.32245E+06
C:/temp/Job-18.odb,Step-1,Increment      1: Step Time =    1.000,"P-18-1",           107,       139.270,       137.866,            0.,NA,NA,"",   1.63830E+06,   1.45793E+06,   1.45793E+06
C:/temp/Job-18.odb,Step-1,Increment      1: Step Time =    1.000,"P-18-1",           108,       128.202,       138.272,            0.,NA,NA,"",   1.73744E+06,   1.68238E+06,   1.68238E+06
C:/temp/Job-18.odb,Step-1,Increment      1: Step Time =    1.000,"P-18-1",           109,       115.673,       136.168,            0.,NA,NA,"",   2.23241E+06,   2.32359E+06,   2.32359E+06
C:/temp/Job-18.odb,Step-1,Increment      1: Step Time =    1.000,"P-18-1",           110,       82.6918,       140.495,            0.,NA,NA,"",   1.80507E+06,   1.85618E+06,   1.85618E+06
C:/temp/Job-18.odb,Step-1,Increment      1: Step Time =    1.000,"P-18-1",           111,       71.9739,       137.753,            0.,NA,NA,"",   1.56326E+06,   1.48896E+06,   1.48896E+06
C:/temp/Job-18.odb,Step-1,Increment      1: Step Time =    1.000,"P-18-1",           112,       61.8925,       136.977,            0.,NA,NA,"",   1.37334E+06,   1.23507E+06,   1.23507E+06
C:/temp/Job-18.odb,Step-1,Increment      1: Step Time =    1.000,"P-18-1",           113,       52.1145,       132.276,            0.,NA,NA,"",   1.10173E+06,   975.944E+03,   975.944E+03
C:/temp/Job-18.odb,Step-1,Increment      1: Step Time =    1.000,"P-18-1",           114,       41.5691,       136.684,            0.,NA,NA,"",   1.02874E+06,   973.798E+03,   973.798E+03
C:/temp/Job-18.odb,Step-1,Increment      1: Step Time =    1.000,"P-18-1",           115,       32.2380,       136.313,            0.,NA,NA,"",   890.161E+03,   891.113E+03,   891.113E+03
C:/temp/Job-18.odb,Step-1,Increment      1: Step Time =    1.000,"P-18-1",           116,       24.5899,       134.062,            0.,NA,NA,"",   774.043E+03,   812.907E+03,   812.907E+03
C:/temp/Job-18.odb,Step-1,Increment      1: Step Time =    1.000,"P-18-1",           117,       8.97167,       133.505,            0.,NA,NA,"",   680.968E+03,   757.338E+03,   757.338E+03
C:/temp/Job-18.odb,Step-1,Increment      1: Step Time =    1.000,"P-18-1",           118,       9.17068,       124.658,            0.,NA,NA,"",   570.482E+03,   641.787E+03,   641.787E+03
C:/temp/Job-18.odb,Step-1,Increment      1: Step Time =    1.000,"P-18-1",           119,       23.6742,       124.831,            0.,NA,NA,"",    608.28E+03,   658.957E+03,   658.957E+03
C:/temp/Job-18.odb,Step-1,Increment      1: Step Time =    1.000,"P-18-1",           120,       32.7611,       127.989,            0.,NA,NA,"",   734.037E+03,   741.659E+03,   741.659E+03
C:/temp/Job-18.odb,Step-1,Increment      1: Step Time =    1.000,"P-18-1",           121,       42.3065,       127.729,            0.,NA,NA,"",   838.277E+03,   783.905E+03,   783.905E+03
C:/temp/Job-18.odb,Step-1,Increment      1: Step Time =    1.000,"P-18-1",           122,       52.4051,       123.412,            0.,NA,NA,"",   852.545E+03,   710.150E+03,   710.150E+03
C:/temp/Job-18.odb,Step-1,Increment      1: Step Time =    1.000,"P-18-1",           123,       62.7307,       126.662,            0.,NA,NA,"",   1.04127E+06,   868.761E+03,   868.761E+03
C:/temp/Job-18.odb,Step-1,Increment      1: Step Time =    1.000,"P-18-1",           124,       72.4613,       127.624,            0.,NA,NA,"",   1.02453E+06,   974.463E+03,   974.463E+03
C:/temp/Job-18.odb,Step-1,Increment      1: Step Time =    1.000,"P-18-1",           125,       127.030,       127.694,            0.,NA,NA,"",   1.35724E+06,   1.31781E+06,   1.31781E+06
C:/temp/Job-18.odb,Step-1,Increment      1: Step Time =    1.000,"P-18-1",           126,       136.442,       126.200,            0.,NA,NA,"",   1.38522E+06,   1.13121E+06,   1.13121E+06
C:/temp/Job-18.odb,Step-1,Increment      1: Step Time =    1.000,"P-18-1",           127,       151.282,       125.534,            0.,NA,NA,"",   1.29359E+06,   1.07886E+06,   1.07886E+06
C:/temp/Job-18.odb,Step-1,Increment      1: Step Time =    1.000,"P-18-1",           128,       158.886,       125.735,            0.,NA,NA,"",   1.18940E+06,   1.06157E+06,   1.06157E+06
C:/temp/Job-18.odb,Step-1,Increment      1: Step Time =    1.000,"P-18-1",           129,       168.459,       125.842,            0.,NA,NA,"",   1.07295E+06,   1.04425E+06,   1.04425E+06
C:/temp/Job-18.odb,Step-1,Increment      1: Step Time =    1.000,"P-18-1",           130,       181.565,       125.481,            0.,NA,NA,"",   952.016E+03,   1.03303E+06,   1.03303E+06
C:/temp/Job-18.odb,Step-1,Increment      1: Step Time =    1.000,"P-18-1",           131,       190.439,       125.041,            0.,NA,NA,"",   893.175E+03,   1.01928E+06,   1.01928E+06
C:/temp/Job-18.odb,Step-1,Increment      1: Step Time =    1.000,"P-18-1",           132,       134.968,       116.073,            0.,NA,NA,"",   729.458E+03,  -245.886E+03,  -245.886E+03
C:/temp/Job-18.odb,Step-1,Increment      1: Step Time =    1.000,"P-18-1",           133,       147.535,       117.275,            0.,NA,NA,"",   1.02738E+06,   756.774E+03,   756.774E+03
C:/temp/Job-18.odb,Step-1,Increment      1: Step Time =    1.000,"P-18-1",           134,       156.719,       115.952,            0.,NA,NA,"",   915.602E+03,   795.534E+03,   795.534E+03
C:/temp/Job-18.odb,Step-1,Increment      1: Step Time =    1.000,"P-18-1",           135,       169.695,       118.703,            0.,NA,NA,"",   925.408E+03,   937.117E+03,   937.117E+03
C:/temp/Job-18.odb,Step-1,Increment      1: Step Time =    1.000,"P-18-1",           136,       179.979,       115.389,            0.,NA,NA,"",   853.628E+03,   952.315E+03,   952.315E+03
C:/temp/Job-18.odb,Step-1,Increment      1: Step Time =    1.000,"P-18-1",           137,       189.961,       115.022,            0.,NA,NA,"",   860.236E+03,   990.314E+03,   990.314E+03
C:/temp/Job-18.odb,Step-1,Increment      1: Step Time =    1.000,"P-18-1",           138,       147.403,       104.287,            0.,NA,NA,"",   455.193E+03,  -177.577E+03,  -177.577E+03
C:/temp/Job-18.odb,Step-1,Increment      1: Step Time =    1.000,"P-18-1",           139,       160.139,       107.677,            0.,NA,NA,"",   600.390E+03,   591.497E+03,   591.497E+03
C:/temp/Job-18.odb,Step-1,Increment      1: Step Time =    1.000,"P-18-1",           140,       166.313,       108.109,            0.,NA,NA,"",   663.026E+03,   702.846E+03,   702.846E+03
C:/temp/Job-18.odb,Step-1,Increment      1: Step Time =    1.000,"P-18-1",           141,       179.021,       104.985,            0.,NA,NA,"",   746.631E+03,   853.927E+03,   853.927E+03
C:/temp/Job-18.odb,Step-1,Increment      1: Step Time =    1.000,"P-18-1",           142,       189.625,       104.795,            0.,NA,NA,"",   833.994E+03,   957.135E+03,   957.135E+03
C:/temp/Job-18.odb,Step-1,Increment      1: Step Time =    1.000,"P-18-1",           143,       137.465,       84.5053,            0.,NA,NA,"",   818.506E+03,   23.4035E+03,   23.4035E+03
C:/temp/Job-18.odb,Step-1,Increment      1: Step Time =    1.000,"P-18-1",           144,       145.222,       84.3621,            0.,NA,NA,"",   934.637E+03,   624.362E+03,   624.362E+03
C:/temp/Job-18.odb,Step-1,Increment      1: Step Time =    1.000,"P-18-1",           145,       159.999,       83.5368,            0.,NA,NA,"",   912.181E+03,   835.305E+03,   835.305E+03
C:/temp/Job-18.odb,Step-1,Increment      1: Step Time =    1.000,"P-18-1",           146,       167.448,       83.2216,            0.,NA,NA,"",   889.625E+03,   891.327E+03,   891.327E+03
C:/temp/Job-18.odb,Step-1,Increment      1: Step Time =    1.000,"P-18-1",           147,       179.630,       83.9205,            0.,NA,NA,"",   858.682E+03,   952.697E+03,   952.697E+03
C:/temp/Job-18.odb,Step-1,Increment      1: Step Time =    1.000,"P-18-1",           148,       190.066,       84.8800,            0.,NA,NA,"",   860.032E+03,   989.924E+03,   989.924E+03
C:/temp/Job-18.odb,Step-1,Increment      1: Step Time =    1.000,"P-18-1",           149,       189.659,       94.6644,            0.,NA,NA,"",   836.382E+03,   960.039E+03,   960.039E+03
C:/temp/Job-18.odb,Step-1,Increment      1: Step Time =    1.000,"P-18-1",           150,       178.594,       93.7937,            0.,NA,NA,"",   752.120E+03,   856.278E+03,   856.278E+03
C:/temp/Job-18.odb,Step-1,Increment      1: Step Time =    1.000,"P-18-1",           151,       167.609,       96.4453,            0.,NA,NA,"",   625.856E+03,   687.842E+03,   687.842E+03
C:/temp/Job-18.odb,Step-1,Increment      1: Step Time =    1.000,"P-18-1",           152,       159.143,       92.9546,            0.,NA,NA,"",   579.886E+03,   564.584E+03,   564.584E+03
C:/temp/Job-18.odb,Step-1,Increment      1: Step Time =    1.000,"P-18-1",           153,       147.747,       94.2647,            0.,NA,NA,"",   502.856E+03,   5.04603E+03,   5.04603E+03
C:/temp/Job-18.odb,Step-1,Increment      1: Step Time =    1.000,"P-18-1",           154,       137.800,       93.9603,            0.,NA,NA,"",    868.57E+03,  -855.648E+03,  -855.648E+03
C:/temp/Job-18.odb,Step-1,Increment      1: Step Time =    1.000,"P-18-1",           155,       139.456,       71.3887,            0.,NA,NA,"",   1.50059E+06,   1.24400E+06,   1.24400E+06
C:/temp/Job-18.odb,Step-1,Increment      1: Step Time =    1.000,"P-18-1",           156,       145.905,       72.2541,            0.,NA,NA,"",   1.42682E+06,   1.17148E+06,   1.17148E+06
C:/temp/Job-18.odb,Step-1,Increment      1: Step Time =    1.000,"P-18-1",           157,       158.836,       70.7002,            0.,NA,NA,"",   1.25531E+06,   1.12383E+06,   1.12383E+06
C:/temp/Job-18.odb,Step-1,Increment      1: Step Time =    1.000,"P-18-1",           158,       168.953,       73.8593,            0.,NA,NA,"",   1.06946E+06,   1.04735E+06,   1.04735E+06
C:/temp/Job-18.odb,Step-1,Increment      1: Step Time =    1.000,"P-18-1",           159,       180.029,       74.2768,            0.,NA,NA,"",   969.662E+03,   1.03939E+06,   1.03939E+06
C:/temp/Job-18.odb,Step-1,Increment      1: Step Time =    1.000,"P-18-1",           160,       190.439,       75.4265,            0.,NA,NA,"",   891.532E+03,   1.01803E+06,   1.01803E+06
C:/temp/Job-18.odb,Step-1,Increment      1: Step Time =    1.000,"P-18-1",           161,       120.065,       64.9980,            0.,NA,NA,"",   2.00544E+06,   2.05875E+06,   2.05875E+06
C:/temp/Job-18.odb,Step-1,Increment      1: Step Time =    1.000,"P-18-1",           162,       9.29589,       65.1972,            0.,NA,NA,"",   701.543E+03,   777.909E+03,   777.909E+03
C:/temp/Job-18.odb,Step-1,Increment      1: Step Time =    1.000,"P-18-1",           163,       19.6277,       64.9695,            0.,NA,NA,"",   753.167E+03,   808.382E+03,   808.382E+03
C:/temp/Job-18.odb,Step-1,Increment      1: Step Time =    1.000,"P-18-1",           164,       35.0838,       66.7658,            0.,NA,NA,"",   869.048E+03,   856.092E+03,   856.092E+03
C:/temp/Job-18.odb,Step-1,Increment      1: Step Time =    1.000,"P-18-1",           165,       43.9702,       64.0188,            0.,NA,NA,"",   1.03841E+06,   968.661E+03,   968.661E+03
C:/temp/Job-18.odb,Step-1,Increment      1: Step Time =    1.000,"P-18-1",           166,       52.8894,       63.9132,            0.,NA,NA,"",   1.21697E+06,   1.09060E+06,   1.09060E+06
C:/temp/Job-18.odb,Step-1,Increment      1: Step Time =    1.000,"P-18-1",           167,       62.5438,       60.8443,            0.,NA,NA,"",   1.44717E+06,   1.31784E+06,   1.31784E+06
C:/temp/Job-18.odb,Step-1,Increment      1: Step Time =    1.000,"P-18-1",           168,       71.5173,       62.0781,            0.,NA,NA,"",   1.56199E+06,   1.47932E+06,   1.47932E+06
C:/temp/Job-18.odb,Step-1,Increment      1: Step Time =    1.000,"P-18-1",           169,       84.9724,       63.7420,            0.,NA,NA,"",   2.08400E+06,   2.14535E+06,   2.14535E+06
C:/temp/Job-18.odb,Step-1,Increment      1: Step Time =    1.000,"P-18-1",           170,       94.6850,       61.7498,            0.,NA,NA,"",   2.58061E+06,   2.69301E+06,   2.69301E+06
C:/temp/Job-18.odb,Step-1,Increment      1: Step Time =    1.000,"P-18-1",           171,       129.254,       65.3386,            0.,NA,NA,"",   1.68591E+06,   1.60479E+06,   1.60479E+06
C:/temp/Job-18.odb,Step-1,Increment      1: Step Time =    1.000,"P-18-1",           172,       138.812,       62.3933,            0.,NA,NA,"",   1.64127E+06,   1.45579E+06,   1.45579E+06
C:/temp/Job-18.odb,Step-1,Increment      1: Step Time =    1.000,"P-18-1",           173,       146.781,       64.8772,            0.,NA,NA,"",   1.52052E+06,   1.31371E+06,   1.31371E+06
C:/temp/Job-18.odb,Step-1,Increment      1: Step Time =    1.000,"P-18-1",           174,       156.718,       64.6195,            0.,NA,NA,"",   1.36431E+06,   1.22078E+06,   1.22078E+06
C:/temp/Job-18.odb,Step-1,Increment      1: Step Time =    1.000,"P-18-1",           175,       168.144,       64.1083,            0.,NA,NA,"",   1.19305E+06,   1.14660E+06,   1.14660E+06
C:/temp/Job-18.odb,Step-1,Increment      1: Step Time =    1.000,"P-18-1",           176,       178.972,       65.6149,            0.,NA,NA,"",   1.04307E+06,   1.08303E+06,   1.08303E+06
C:/temp/Job-18.odb,Step-1,Increment      1: Step Time =    1.000,"P-18-1",           177,       64.6101,       71.7860,            0.,NA,NA,"",   1.11141E+06,   955.982E+03,   955.982E+03
C:/temp/Job-18.odb,Step-1,Increment      1: Step Time =    1.000,"P-18-1",           178,       51.0829,       75.2380,            0.,NA,NA,"",   872.208E+03,   743.948E+03,   743.948E+03
C:/temp/Job-18.odb,Step-1,Increment      1: Step Time =    1.000,"P-18-1",           179,       43.2609,       73.7700,            0.,NA,NA,"",   815.146E+03,   752.929E+03,   752.929E+03
C:/temp/Job-18.odb,Step-1,Increment      1: Step Time =    1.000,"P-18-1",           180,       29.9495,       76.8979,            0.,NA,NA,"",   605.813E+03,   637.197E+03,   637.197E+03
C:/temp/Job-18.odb,Step-1,Increment      1: Step Time =    1.000,"P-18-1",           181,       19.8181,       72.8362,            0.,NA,NA,"",   630.789E+03,   689.348E+03,   689.348E+03
C:/temp/Job-18.odb,Step-1,Increment      1: Step Time =    1.000,"P-18-1",           182,       9.50530,       74.9996,            0.,NA,NA,"",   574.705E+03,   645.622E+03,   645.622E+03
C:/temp/Job-18.odb,Step-1,Increment      1: Step Time =    1.000,"P-18-1",           183,       63.0418,       83.0259,            0.,NA,NA,"",   566.288E+03,  -132.246E+03,  -132.246E+03
C:/temp/Job-18.odb,Step-1,Increment      1: Step Time =    1.000,"P-18-1",           184,       52.4799,       86.2096,            0.,NA,NA,"",   506.929E+03,   361.486E+03,   361.486E+03
C:/temp/Job-18.odb,Step-1,Increment      1: Step Time =    1.000,"P-18-1",           185,       44.3200,       86.2673,            0.,NA,NA,"",   471.269E+03,   428.232E+03,   428.232E+03
C:/temp/Job-18.odb,Step-1,Increment      1: Step Time =    1.000,"P-18-1",           186,       29.8382,       83.1339,            0.,NA,NA,"",   487.576E+03,   528.870E+03,   528.870E+03
C:/temp/Job-18.odb,Step-1,Increment      1: Step Time =    1.000,"P-18-1",           187,       21.8341,       83.5217,            0.,NA,NA,"",   473.445E+03,   532.489E+03,   532.489E+03
C:/temp/Job-18.odb,Step-1,Increment      1: Step Time =    1.000,"P-18-1",           188,       9.19395,       84.7368,            0.,NA,NA,"",   471.428E+03,   537.865E+03,   537.865E+03
C:/temp/Job-18.odb,Step-1,Increment      1: Step Time =    1.000,"P-18-1",           189,       52.3575,       95.3894,            0.,NA,NA,"",   244.828E+03,  -96.1024E+03,  -96.1024E+03
C:/temp/Job-18.odb,Step-1,Increment      1: Step Time =    1.000,"P-18-1",           190,       41.8456,       92.4151,            0.,NA,NA,"",   303.284E+03,   310.169E+03,   310.169E+03
C:/temp/Job-18.odb,Step-1,Increment      1: Step Time =    1.000,"P-18-1",           191,       32.5635,       93.5087,            0.,NA,NA,"",   321.690E+03,   366.068E+03,   366.068E+03
C:/temp/Job-18.odb,Step-1,Increment      1: Step Time =    1.000,"P-18-1",           192,       19.0369,       93.3197,            0.,NA,NA,"",   382.346E+03,   440.885E+03,   440.885E+03
C:/temp/Job-18.odb,Step-1,Increment      1: Step Time =    1.000,"P-18-1",           193,       9.62359,       94.6502,            0.,NA,NA,"",   406.539E+03,   468.288E+03,   468.288E+03
C:/temp/Job-18.odb,Step-1,Increment      1: Step Time =    1.000,"P-18-1",           194,       60.9317,       117.583,            0.,NA,NA,"",   623.035E+03,   253.372E+03,   253.372E+03
C:/temp/Job-18.odb,Step-1,Increment      1: Step Time =    1.000,"P-18-1",           195,       53.1026,       115.215,            0.,NA,NA,"",   574.195E+03,   256.386E+03,   256.386E+03
C:/temp/Job-18.odb,Step-1,Increment      1: Step Time =    1.000,"P-18-1",           196,       43.1485,       118.567,            0.,NA,NA,"",   606.232E+03,   558.344E+03,   558.344E+03
C:/temp/Job-18.odb,Step-1,Increment      1: Step Time =    1.000,"P-18-1",           197,       31.4596,       118.002,            0.,NA,NA,"",   519.578E+03,   551.955E+03,   551.955E+03
C:/temp/Job-18.odb,Step-1,Increment      1: Step Time =    1.000,"P-18-1",           198,       20.7612,       114.311,            0.,NA,NA,"",   442.527E+03,   503.610E+03,   503.610E+03
C:/temp/Job-18.odb,Step-1,Increment      1: Step Time =    1.000,"P-18-1",           199,       10.0910,       114.793,            0.,NA,NA,"",   467.104E+03,   533.323E+03,   533.323E+03
C:/temp/Job-18.odb,Step-1,Increment      1: Step Time =    1.000,"P-18-1",           200,       9.95823,       104.648,            0.,NA,NA,"",   404.010E+03,   465.528E+03,   465.528E+03
C:/temp/Job-18.odb,Step-1,Increment      1: Step Time =    1.000,"P-18-1",           201,       19.9367,       104.421,            0.,NA,NA,"",   370.439E+03,   427.483E+03,   427.483E+03
C:/temp/Job-18.odb,Step-1,Increment      1: Step Time =    1.000,"P-18-1",           202,       29.8557,       103.986,            0.,NA,NA,"",   313.947E+03,   361.847E+03,   361.847E+03
C:/temp/Job-18.odb,Step-1,Increment      1: Step Time =    1.000,"P-18-1",           203,       39.2685,       104.713,            0.,NA,NA,"",   257.252E+03,   285.871E+03,   285.871E+03
C:/temp/Job-18.odb,Step-1,Increment      1: Step Time =    1.000,"P-18-1",           204,       50.3150,       105.029,            0.,NA,NA,"",   232.518E+03,   23.7371E+03,   23.7371E+03
C:/temp/Job-18.odb,Step-1,Increment      1: Step Time =    1.000,"P-18-1",           205,       189.848,       10.2545,            0.,NA,NA,"",   1.00255E+06,   1.00385E+06,   1.00385E+06
C:/temp/Job-18.odb,Step-1,Increment      1: Step Time =    1.000,"P-18-1",           206,       179.547,       10.4585,            0.,NA,NA,"",   1.01269E+06,   1.01314E+06,   1.01314E+06
C:/temp/Job-18.odb,Step-1,Increment      1: Step Time =    1.000,"P-18-1",           207,       169.540,       10.2836,            0.,NA,NA,"",   1.02511E+06,   1.02249E+06,   1.02249E+06
C:/temp/Job-18.odb,Step-1,Increment      1: Step Time =    1.000,"P-18-1",           208,       158.857,       10.9643,            0.,NA,NA,"",   1.03692E+06,   1.03024E+06,   1.03024E+06
C:/temp/Job-18.odb,Step-1,Increment      1: Step Time =    1.000,"P-18-1",           209,       149.267,       9.11101,            0.,NA,NA,"",   1.01581E+06,   1.00972E+06,   1.00972E+06
C:/temp/Job-18.odb,Step-1,Increment      1: Step Time =    1.000,"P-18-1",           210,       135.048,       9.76665,            0.,NA,NA,"",   978.976E+03,   975.585E+03,   975.585E+03
C:/temp/Job-18.odb,Step-1,Increment      1: Step Time =    1.000,"P-18-1",           211,       125.089,       9.95847,            0.,NA,NA,"",   939.983E+03,   942.590E+03,   942.590E+03
C:/temp/Job-18.odb,Step-1,Increment      1: Step Time =    1.000,"P-18-1",           212,       115.072,       10.0396,            0.,NA,NA,"",   906.387E+03,   916.167E+03,   916.167E+03
C:/temp/Job-18.odb,Step-1,Increment      1: Step Time =    1.000,"P-18-1",           213,       104.986,       9.92729,            0.,NA,NA,"",   899.461E+03,   912.876E+03,   912.876E+03
C:/temp/Job-18.odb,Step-1,Increment      1: Step Time =    1.000,"P-18-1",           214,       94.9911,       9.59517,            0.,NA,NA,"",   934.807E+03,   945.144E+03,   945.144E+03
C:/temp/Job-18.odb,Step-1,Increment      1: Step Time =    1.000,"P-18-1",           215,       85.1926,       9.31457,            0.,NA,NA,"",   1.00918E+06,   1.01238E+06,   1.01238E+06
C:/temp/Job-18.odb,Step-1,Increment      1: Step Time =    1.000,"P-18-1",           216,       75.7174,       9.32206,            0.,NA,NA,"",   1.10489E+06,   1.10085E+06,   1.10085E+06
C:/temp/Job-18.odb,Step-1,Increment      1: Step Time =    1.000,"P-18-1",           217,       66.4903,       10.0692,            0.,NA,NA,"",   1.20493E+06,   1.19629E+06,   1.19629E+06
C:/temp/Job-18.odb,Step-1,Increment      1: Step Time =    1.000,"P-18-1",           218,       51.6004,       11.8930,            0.,NA,NA,"",   1.33099E+06,   1.31738E+06,   1.31738E+06
C:/temp/Job-18.odb,Step-1,Increment      1: Step Time =    1.000,"P-18-1",           219,       39.3207,       9.33497,            0.,NA,NA,"",   1.39289E+06,   1.38726E+06,   1.38726E+06
C:/temp/Job-18.odb,Step-1,Increment      1: Step Time =    1.000,"P-18-1",           220,       30.1748,       9.21916,            0.,NA,NA,"",   1.44076E+06,   1.44028E+06,   1.44028E+06
C:/temp/Job-18.odb,Step-1,Increment      1: Step Time =    1.000,"P-18-1",           221,       20.3549,       10.7373,            0.,NA,NA,"",   1.48677E+06,   1.50009E+06,   1.50009E+06
C:/temp/Job-18.odb,Step-1,Increment      1: Step Time =    1.000,"P-18-1",           222,       9.88334,       9.83994,            0.,NA,NA,"",   1.57225E+06,   1.62430E+06,   1.62430E+06
C:/temp/Job-18.odb,Step-1,Increment      1: Step Time =    1.000,"P-18-1",           223,       190.615,       24.9787,            0.,NA,NA,"",   1.00266E+06,   1.01227E+06,   1.01227E+06
C:/temp/Job-18.odb,Step-1,Increment      1: Step Time =    1.000,"P-18-1",           224,       178.774,       22.2497,            0.,NA,NA,"",   1.04171E+06,   1.04258E+06,   1.04258E+06
C:/temp/Job-18.odb,Step-1,Increment      1: Step Time =    1.000,"P-18-1",           225,       168.686,       20.4396,            0.,NA,NA,"",   1.07819E+06,   1.06815E+06,   1.06815E+06
C:/temp/Job-18.odb,Step-1,Increment      1: Step Time =    1.000,"P-18-1",           226,       159.175,       24.6498,            0.,NA,NA,"",   1.15051E+06,   1.12471E+06,   1.12471E+06
C:/temp/Job-18.odb,Step-1,Increment      1: Step Time =    1.000,"P-18-1",           227,       145.774,       20.0395,            0.,NA,NA,"",   1.13428E+06,   1.11349E+06,   1.11349E+06
C:/temp/Job-18.odb,Step-1,Increment      1: Step Time =    1.000,"P-18-1",           228,       135.072,       19.9287,            0.,NA,NA,"",   1.12677E+06,   1.11692E+06,   1.11692E+06
C:/temp/Job-18.odb,Step-1,Increment      1: Step Time =    1.000,"P-18-1",           229,       124.957,       20.1526,            0.,NA,NA,"",   1.09937E+06,   1.10993E+06,   1.10993E+06
C:/temp/Job-18.odb,Step-1,Increment      1: Step Time =    1.000,"P-18-1",           230,       114.956,       20.1903,            0.,NA,NA,"",   1.06594E+06,   1.09752E+06,   1.09752E+06
C:/temp/Job-18.odb,Step-1,Increment      1: Step Time =    1.000,"P-18-1",           231,       104.462,       19.7903,            0.,NA,NA,"",   1.05250E+06,   1.09358E+06,   1.09358E+06
C:/temp/Job-18.odb,Step-1,Increment      1: Step Time =    1.000,"P-18-1",           232,       94.5042,       18.9663,            0.,NA,NA,"",   1.08492E+06,   1.11656E+06,   1.11656E+06
C:/temp/Job-18.odb,Step-1,Increment      1: Step Time =    1.000,"P-18-1",           233,       85.2321,       18.2570,            0.,NA,NA,"",   1.15275E+06,   1.16615E+06,   1.16615E+06
C:/temp/Job-18.odb,Step-1,Increment      1: Step Time =    1.000,"P-18-1",           234,       76.3735,       18.9351,            0.,NA,NA,"",   1.23805E+06,   1.23069E+06,   1.23069E+06
C:/temp/Job-18.odb,Step-1,Increment      1: Step Time =    1.000,"P-18-1",           235,       66.1658,       21.2742,            0.,NA,NA,"",   1.33011E+06,   1.30361E+06,   1.30361E+06
C:/temp/Job-18.odb,Step-1,Increment      1: Step Time =    1.000,"P-18-1",           236,       53.0425,       21.6914,            0.,NA,NA,"",   1.37715E+06,   1.34395E+06,   1.34395E+06
C:/temp/Job-18.odb,Step-1,Increment      1: Step Time =    1.000,"P-18-1",           237,       41.5598,       20.1261,            0.,NA,NA,"",   1.38849E+06,   1.36697E+06,   1.36697E+06
C:/temp/Job-18.odb,Step-1,Increment      1: Step Time =    1.000,"P-18-1",           238,       32.8758,       21.1839,            0.,NA,NA,"",   1.38542E+06,   1.37848E+06,   1.37848E+06
C:/temp/Job-18.odb,Step-1,Increment      1: Step Time =    1.000,"P-18-1",           239,       20.1605,       21.0691,            0.,NA,NA,"",   1.36842E+06,   1.40383E+06,   1.40383E+06
C:/temp/Job-18.odb,Step-1,Increment      1: Step Time =    1.000,"P-18-1",           240,       10.7721,       20.1722,            0.,NA,NA,"",   1.32206E+06,   1.40556E+06,   1.40556E+06
C:/temp/Job-18.odb,Step-1,Increment      1: Step Time =    1.000,"P-18-1",           241,       191.120,       34.2107,            0.,NA,NA,"",   993.209E+03,   1.01652E+06,   1.01652E+06
C:/temp/Job-18.odb,Step-1,Increment      1: Step Time =    1.000,"P-18-1",           242,       182.410,       34.2707,            0.,NA,NA,"",   1.03960E+06,   1.05221E+06,   1.05221E+06
C:/temp/Job-18.odb,Step-1,Increment      1: Step Time =    1.000,"P-18-1",           243,       157.800,       32.9357,            0.,NA,NA,"",   1.22803E+06,   1.18517E+06,   1.18517E+06
C:/temp/Job-18.odb,Step-1,Increment      1: Step Time =    1.000,"P-18-1",           244,       147.552,       29.5014,            0.,NA,NA,"",   1.24994E+06,   1.20945E+06,   1.20945E+06
C:/temp/Job-18.odb,Step-1,Increment      1: Step Time =    1.000,"P-18-1",           245,       132.519,       30.3785,            0.,NA,NA,"",   1.27914E+06,   1.26823E+06,   1.26823E+06
C:/temp/Job-18.odb,Step-1,Increment      1: Step Time =    1.000,"P-18-1",           246,       125.404,       31.3119,            0.,NA,NA,"",   1.27210E+06,   1.28748E+06,   1.28748E+06
C:/temp/Job-18.odb,Step-1,Increment      1: Step Time =    1.000,"P-18-1",           247,       113.051,       34.4261,            0.,NA,NA,"",   1.26914E+06,   1.34499E+06,   1.34499E+06
C:/temp/Job-18.odb,Step-1,Increment      1: Step Time =    1.000,"P-18-1",           248,       104.544,       34.5663,            0.,NA,NA,"",   1.25524E+06,   1.35315E+06,   1.35315E+06
C:/temp/Job-18.odb,Step-1,Increment      1: Step Time =    1.000,"P-18-1",           249,       96.1298,       30.1916,            0.,NA,NA,"",   1.22074E+06,   1.29411E+06,   1.29411E+06
C:/temp/Job-18.odb,Step-1,Increment      1: Step Time =    1.000,"P-18-1",           250,       85.7485,       31.5694,            0.,NA,NA,"",   1.33384E+06,   1.37107E+06,   1.37107E+06
C:/temp/Job-18.odb,Step-1,Increment      1: Step Time =    1.000,"P-18-1",           251,       74.6089,       33.7017,            0.,NA,NA,"",   1.43767E+06,   1.41976E+06,   1.41976E+06
C:/temp/Job-18.odb,Step-1,Increment      1: Step Time =    1.000,"P-18-1",           252,       64.3529,       31.8459,            0.,NA,NA,"",   1.44161E+06,   1.39340E+06,   1.39340E+06
C:/temp/Job-18.odb,Step-1,Increment      1: Step Time =    1.000,"P-18-1",           253,       54.2347,       30.9287,            0.,NA,NA,"",   1.42123E+06,   1.36778E+06,   1.36778E+06
C:/temp/Job-18.odb,Step-1,Increment      1: Step Time =    1.000,"P-18-1",           254,       43.4920,       31.3391,            0.,NA,NA,"",   1.38214E+06,   1.34276E+06,   1.34276E+06
C:/temp/Job-18.odb,Step-1,Increment      1: Step Time =    1.000,"P-18-1",           255,       31.0929,       30.2944,            0.,NA,NA,"",   1.32323E+06,   1.32052E+06,   1.32052E+06
C:/temp/Job-18.odb,Step-1,Increment      1: Step Time =    1.000,"P-18-1",           256,       21.9364,       33.4030,            0.,NA,NA,"",   1.23102E+06,   1.26783E+06,   1.26783E+06
C:/temp/Job-18.odb,Step-1,Increment      1: Step Time =    1.000,"P-18-1",           257,       9.45095,       34.6437,            0.,NA,NA,"",   1.09280E+06,   1.18802E+06,   1.18802E+06
C:/temp/Job-18.odb,Step-1,Increment      1: Step Time =    1.000,"P-18-1",           258,       190.219,       43.0490,            0.,NA,NA,"",   984.598E+03,   1.02722E+06,   1.02722E+06
C:/temp/Job-18.odb,Step-1,Increment      1: Step Time =    1.000,"P-18-1",           259,       179.221,       37.1292,            0.,NA,NA,"",   1.07112E+06,   1.07679E+06,   1.07679E+06
C:/temp/Job-18.odb,Step-1,Increment      1: Step Time =    1.000,"P-18-1",           260,       169.116,       40.8687,            0.,NA,NA,"",   1.18161E+06,   1.15336E+06,   1.15336E+06
C:/temp/Job-18.odb,Step-1,Increment      1: Step Time =    1.000,"P-18-1",           261,       161.852,       43.7632,            0.,NA,NA,"",   1.27777E+06,   1.21841E+06,   1.21841E+06
C:/temp/Job-18.odb,Step-1,Increment      1: Step Time =    1.000,"P-18-1",           262,       147.612,       43.9741,            0.,NA,NA,"",   1.43011E+06,   1.34032E+06,   1.34032E+06
C:/temp/Job-18.odb,Step-1,Increment      1: Step Time =    1.000,"P-18-1",           263,       134.152,       40.1386,            0.,NA,NA,"",   1.44192E+06,   1.40342E+06,   1.40342E+06
C:/temp/Job-18.odb,Step-1,Increment      1: Step Time =    1.000,"P-18-1",           264,       124.913,       42.1769,            0.,NA,NA,"",   1.45968E+06,   1.48191E+06,   1.48191E+06
C:/temp/Job-18.odb,Step-1,Increment      1: Step Time =    1.000,"P-18-1",           265,       116.700,       38.6514,            0.,NA,NA,"",   1.34779E+06,   1.41895E+06,   1.41895E+06
C:/temp/Job-18.odb,Step-1,Increment      1: Step Time =    1.000,"P-18-1",           266,       104.728,       42.6904,            0.,NA,NA,"",   1.40452E+06,   1.53278E+06,   1.53278E+06
C:/temp/Job-18.odb,Step-1,Increment      1: Step Time =    1.000,"P-18-1",           267,       94.4617,       40.9438,            0.,NA,NA,"",   1.41765E+06,   1.52477E+06,   1.52477E+06
C:/temp/Job-18.odb,Step-1,Increment      1: Step Time =    1.000,"P-18-1",           268,       83.0105,       39.9168,            0.,NA,NA,"",   1.47582E+06,   1.51013E+06,   1.51013E+06
C:/temp/Job-18.odb,Step-1,Increment      1: Step Time =    1.000,"P-18-1",           269,       74.8842,       43.7652,            0.,NA,NA,"",   1.55819E+06,   1.53601E+06,   1.53601E+06
C:/temp/Job-18.odb,Step-1,Increment      1: Step Time =    1.000,"P-18-1",           270,       65.7173,       41.8113,            0.,NA,NA,"",   1.52444E+06,   1.45747E+06,   1.45747E+06
C:/temp/Job-18.odb,Step-1,Increment      1: Step Time =    1.000,"P-18-1",           271,       54.3949,       39.9189,            0.,NA,NA,"",   1.44999E+06,   1.37456E+06,   1.37456E+06
C:/temp/Job-18.odb,Step-1,Increment      1: Step Time =    1.000,"P-18-1",           272,       44.5544,       40.5681,            0.,NA,NA,"",   1.36264E+06,   1.30619E+06,   1.30619E+06
C:/temp/Job-18.odb,Step-1,Increment      1: Step Time =    1.000,"P-18-1",           273,       32.6604,       42.5331,            0.,NA,NA,"",   1.21802E+06,   1.20771E+06,   1.20771E+06
C:/temp/Job-18.odb,Step-1,Increment      1: Step Time =    1.000,"P-18-1",           274,       20.4917,       41.8415,            0.,NA,NA,"",   1.10438E+06,   1.15006E+06,   1.15006E+06
C:/temp/Job-18.odb,Step-1,Increment      1: Step Time =    1.000,"P-18-1",           275,       11.3391,       44.0316,            0.,NA,NA,"",   990.336E+03,   1.07349E+06,   1.07349E+06
C:/temp/Job-18.odb,Step-1,Increment      1: Step Time =    1.000,"P-18-1",           276,       187.067,       50.9911,            0.,NA,NA,"",   999.979E+03,   1.05153E+06,   1.05153E+06
C:/temp/Job-18.odb,Step-1,Increment      1: Step Time =    1.000,"P-18-1",           277,       177.195,       53.1111,            0.,NA,NA,"",   1.10771E+06,   1.11563E+06,   1.11563E+06
C:/temp/Job-18.odb,Step-1,Increment      1: Step Time =    1.000,"P-18-1",           278,       168.115,       53.5698,            0.,NA,NA,"",   1.22992E+06,   1.18398E+06,   1.18398E+06
C:/temp/Job-18.odb,Step-1,Increment      1: Step Time =    1.000,"P-18-1",           279,       161.546,       53.4125,            0.,NA,NA,"",   1.32264E+06,   1.23844E+06,   1.23844E+06
C:/temp/Job-18.odb,Step-1,Increment      1: Step Time =    1.000,"P-18-1",           280,       147.667,       51.2414,            0.,NA,NA,"",   1.50484E+06,   1.37920E+06,   1.37920E+06
C:/temp/Job-18.odb,Step-1,Increment      1: Step Time =    1.000,"P-18-1",           281,       138.095,       52.1900,            0.,NA,NA,"",   1.60911E+06,   1.49956E+06,   1.49956E+06
C:/temp/Job-18.odb,Step-1,Increment      1: Step Time =    1.000,"P-18-1",           282,       126.734,       52.5689,            0.,NA,NA,"",   1.65248E+06,   1.64181E+06,   1.64181E+06
C:/temp/Job-18.odb,Step-1,Increment      1: Step Time =    1.000,"P-18-1",           283,       115.730,       53.1520,            0.,NA,NA,"",   1.71361E+06,   1.82189E+06,   1.82189E+06
C:/temp/Job-18.odb,Step-1,Increment      1: Step Time =    1.000,"P-18-1",           284,       105.900,       51.6995,            0.,NA,NA,"",   1.71816E+06,   1.87721E+06,   1.87721E+06
C:/temp/Job-18.odb,Step-1,Increment      1: Step Time =    1.000,"P-18-1",           285,       94.0172,       50.0181,            0.,NA,NA,"",   1.67852E+06,   1.81375E+06,   1.81375E+06
C:/temp/Job-18.odb,Step-1,Increment      1: Step Time =    1.000,"P-18-1",           286,       82.5431,       52.0514,            0.,NA,NA,"",   1.68727E+06,   1.73476E+06,   1.73476E+06
C:/temp/Job-18.odb,Step-1,Increment      1: Step Time =    1.000,"P-18-1",           287,       72.5376,       53.7640,            0.,NA,NA,"",   1.62443E+06,   1.56752E+06,   1.56752E+06
C:/temp/Job-18.odb,Step-1,Increment      1: Step Time =    1.000,"P-18-1",           288,       61.7149,       51.1546,            0.,NA,NA,"",   1.50873E+06,   1.40896E+06,   1.40896E+06
C:/temp/Job-18.odb,Step-1,Increment      1: Step Time =    1.000,"P-18-1",           289,       56.2457,       49.8309,            0.,NA,NA,"",   1.44848E+06,   1.34985E+06,   1.34985E+06
C:/temp/Job-18.odb,Step-1,Increment      1: Step Time =    1.000,"P-18-1",           290,       43.3526,       54.9803,            0.,NA,NA,"",   1.20606E+06,   1.14112E+06,   1.14112E+06
C:/temp/Job-18.odb,Step-1,Increment      1: Step Time =    1.000,"P-18-1",           291,       32.5997,       54.8354,            0.,NA,NA,"",   1.05213E+06,   1.04475E+06,   1.04475E+06
C:/temp/Job-18.odb,Step-1,Increment      1: Step Time =    1.000,"P-18-1",           292,       19.7936,       56.2890,            0.,NA,NA,"",   889.255E+03,   940.993E+03,   940.993E+03
C:/temp/Job-18.odb,Step-1,Increment      1: Step Time =    1.000,"P-18-1",           293,       9.55324,       53.0327,            0.,NA,NA,"",   858.729E+03,   941.920E+03,   941.920E+03
C:/temp/Job-18.odb,Step-1,Increment      1: Step Time =    1.000,"P-18-1",           294,       190.849,       149.031,            0.,NA,NA,"",   963.224E+03,   1.02863E+06,   1.02863E+06
C:/temp/Job-18.odb,Step-1,Increment      1: Step Time =    1.000,"P-18-1",           295,       181.462,       143.965,            0.,NA,NA,"",   1.04897E+06,   1.08617E+06,   1.08617E+06
C:/temp/Job-18.odb,Step-1,Increment      1: Step Time =    1.000,"P-18-1",           296,       169.559,       148.558,            0.,NA,NA,"",   1.20848E+06,   1.17178E+06,   1.17178E+06
C:/temp/Job-18.odb,Step-1,Increment      1: Step Time =    1.000,"P-18-1",           297,       159.811,       148.227,            0.,NA,NA,"",   1.33824E+06,   1.25072E+06,   1.25072E+06
C:/temp/Job-18.odb,Step-1,Increment      1: Step Time =    1.000,"P-18-1",           298,       147.864,       146.797,            0.,NA,NA,"",   1.51200E+06,   1.37688E+06,   1.37688E+06
C:/temp/Job-18.odb,Step-1,Increment      1: Step Time =    1.000,"P-18-1",           299,       137.112,       148.904,            0.,NA,NA,"",   1.59652E+06,   1.50331E+06,   1.50331E+06
C:/temp/Job-18.odb,Step-1,Increment      1: Step Time =    1.000,"P-18-1",           300,       127.489,       148.956,            0.,NA,NA,"",   1.62676E+06,   1.60970E+06,   1.60970E+06
C:/temp/Job-18.odb,Step-1,Increment      1: Step Time =    1.000,"P-18-1",           301,       114.091,       146.881,            0.,NA,NA,"",   1.73813E+06,   1.85916E+06,   1.85916E+06
C:/temp/Job-18.odb,Step-1,Increment      1: Step Time =    1.000,"P-18-1",           302,       105.125,       147.651,            0.,NA,NA,"",   1.75867E+06,   1.92019E+06,   1.92019E+06
C:/temp/Job-18.odb,Step-1,Increment      1: Step Time =    1.000,"P-18-1",           303,       82.1995,       149.077,            0.,NA,NA,"",   1.66404E+06,   1.70240E+06,   1.70240E+06
C:/temp/Job-18.odb,Step-1,Increment      1: Step Time =    1.000,"P-18-1",           304,       73.8592,       144.421,            0.,NA,NA,"",   1.65829E+06,   1.61166E+06,   1.61166E+06
C:/temp/Job-18.odb,Step-1,Increment      1: Step Time =    1.000,"P-18-1",           305,       64.4560,       150.258,            0.,NA,NA,"",   1.54615E+06,   1.45544E+06,   1.45544E+06
C:/temp/Job-18.odb,Step-1,Increment      1: Step Time =    1.000,"P-18-1",           306,       50.4384,       146.379,            0.,NA,NA,"",   1.33131E+06,   1.23709E+06,   1.23709E+06
C:/temp/Job-18.odb,Step-1,Increment      1: Step Time =    1.000,"P-18-1",           307,       40.5095,       145.051,            0.,NA,NA,"",   1.16118E+06,   1.11092E+06,   1.11092E+06
C:/temp/Job-18.odb,Step-1,Increment      1: Step Time =    1.000,"P-18-1",           308,       31.4395,       145.630,            0.,NA,NA,"",   1.04434E+06,   1.04342E+06,   1.04342E+06
C:/temp/Job-18.odb,Step-1,Increment      1: Step Time =    1.000,"P-18-1",           309,       25.2271,       143.606,            0.,NA,NA,"",   943.542E+03,   971.576E+03,   971.576E+03
C:/temp/Job-18.odb,Step-1,Increment      1: Step Time =    1.000,"P-18-1",           310,       11.5866,       148.126,            0.,NA,NA,"",   890.629E+03,   968.866E+03,   968.866E+03
C:/temp/Job-18.odb,Step-1,Increment      1: Step Time =    1.000,"P-18-1",           311,       188.937,       158.879,            0.,NA,NA,"",   998.182E+03,   1.03235E+06,   1.03235E+06
C:/temp/Job-18.odb,Step-1,Increment      1: Step Time =    1.000,"P-18-1",           312,       175.177,       159.444,            0.,NA,NA,"",   1.11868E+06,   1.11167E+06,   1.11167E+06
C:/temp/Job-18.odb,Step-1,Increment      1: Step Time =    1.000,"P-18-1",           313,       166.557,       158.471,            0.,NA,NA,"",   1.20959E+06,   1.17183E+06,   1.17183E+06
C:/temp/Job-18.odb,Step-1,Increment      1: Step Time =    1.000,"P-18-1",           314,       157.972,       160.213,            0.,NA,NA,"",   1.29513E+06,   1.23297E+06,   1.23297E+06
C:/temp/Job-18.odb,Step-1,Increment      1: Step Time =    1.000,"P-18-1",           315,       147.690,       159.148,            0.,NA,NA,"",   1.39491E+06,   1.31926E+06,   1.31926E+06
C:/temp/Job-18.odb,Step-1,Increment      1: Step Time =    1.000,"P-18-1",           316,       138.608,       158.563,            0.,NA,NA,"",   1.45575E+06,   1.39518E+06,   1.39518E+06
C:/temp/Job-18.odb,Step-1,Increment      1: Step Time =    1.000,"P-18-1",           317,       126.244,       155.621,            0.,NA,NA,"",   1.50319E+06,   1.51012E+06,   1.51012E+06
C:/temp/Job-18.odb,Step-1,Increment      1: Step Time =    1.000,"P-18-1",           318,       116.312,       157.560,            0.,NA,NA,"",   1.42876E+06,   1.51300E+06,   1.51300E+06
C:/temp/Job-18.odb,Step-1,Increment      1: Step Time =    1.000,"P-18-1",           319,       104.971,       156.984,            0.,NA,NA,"",   1.41226E+06,   1.54037E+06,   1.54037E+06
C:/temp/Job-18.odb,Step-1,Increment      1: Step Time =    1.000,"P-18-1",           320,       94.5178,       160.278,            0.,NA,NA,"",   1.38544E+06,   1.48683E+06,   1.48683E+06
C:/temp/Job-18.odb,Step-1,Increment      1: Step Time =    1.000,"P-18-1",           321,       82.3352,       157.180,            0.,NA,NA,"",   1.52969E+06,   1.56244E+06,   1.56244E+06
C:/temp/Job-18.odb,Step-1,Increment      1: Step Time =    1.000,"P-18-1",           322,       74.0844,       157.531,            0.,NA,NA,"",   1.54643E+06,   1.52026E+06,   1.52026E+06
C:/temp/Job-18.odb,Step-1,Increment      1: Step Time =    1.000,"P-18-1",           323,       65.4667,       155.385,            0.,NA,NA,"",   1.53746E+06,   1.46454E+06,   1.46454E+06
C:/temp/Job-18.odb,Step-1,Increment      1: Step Time =    1.000,"P-18-1",           324,       53.2403,       157.269,            0.,NA,NA,"",   1.43616E+06,   1.35729E+06,   1.35729E+06
C:/temp/Job-18.odb,Step-1,Increment      1: Step Time =    1.000,"P-18-1",           325,       42.5947,       154.464,            0.,NA,NA,"",   1.30423E+06,   1.24987E+06,   1.24987E+06
C:/temp/Job-18.odb,Step-1,Increment      1: Step Time =    1.000,"P-18-1",           326,       30.7405,       156.456,            0.,NA,NA,"",   1.18987E+06,   1.18849E+06,   1.18849E+06
C:/temp/Job-18.odb,Step-1,Increment      1: Step Time =    1.000,"P-18-1",           327,       20.1386,       158.683,            0.,NA,NA,"",   1.11083E+06,   1.15660E+06,   1.15660E+06
C:/temp/Job-18.odb,Step-1,Increment      1: Step Time =    1.000,"P-18-1",           328,       9.45031,       160.589,            0.,NA,NA,"",   1.03223E+06,   1.12479E+06,   1.12479E+06
C:/temp/Job-18.odb,Step-1,Increment      1: Step Time =    1.000,"P-18-1",           329,       189.700,       169.546,            0.,NA,NA,"",   1.00388E+06,   1.01981E+06,   1.01981E+06
C:/temp/Job-18.odb,Step-1,Increment      1: Step Time =    1.000,"P-18-1",           330,       179.577,       168.706,            0.,NA,NA,"",   1.05951E+06,   1.06315E+06,   1.06315E+06
C:/temp/Job-18.odb,Step-1,Increment      1: Step Time =    1.000,"P-18-1",           331,       166.821,       168.997,            0.,NA,NA,"",   1.14549E+06,   1.12356E+06,   1.12356E+06
C:/temp/Job-18.odb,Step-1,Increment      1: Step Time =    1.000,"P-18-1",           332,       159.305,       168.717,            0.,NA,NA,"",   1.20467E+06,   1.16746E+06,   1.16746E+06
C:/temp/Job-18.odb,Step-1,Increment      1: Step Time =    1.000,"P-18-1",           333,       146.944,       167.250,            0.,NA,NA,"",   1.29177E+06,   1.24372E+06,   1.24372E+06
C:/temp/Job-18.odb,Step-1,Increment      1: Step Time =    1.000,"P-18-1",           334,       136.578,       167.314,            0.,NA,NA,"",   1.31640E+06,   1.28577E+06,   1.28577E+06
C:/temp/Job-18.odb,Step-1,Increment      1: Step Time =    1.000,"P-18-1",           335,       125.898,       170.769,            0.,NA,NA,"",   1.24118E+06,   1.25399E+06,   1.25399E+06
C:/temp/Job-18.odb,Step-1,Increment      1: Step Time =    1.000,"P-18-1",           336,       116.303,       167.762,            0.,NA,NA,"",   1.24295E+06,   1.30052E+06,   1.30052E+06
C:/temp/Job-18.odb,Step-1,Increment      1: Step Time =    1.000,"P-18-1",           337,       106.122,       167.455,            0.,NA,NA,"",   1.22443E+06,   1.31133E+06,   1.31133E+06
C:/temp/Job-18.odb,Step-1,Increment      1: Step Time =    1.000,"P-18-1",           338,       97.6003,       169.590,            0.,NA,NA,"",   1.21973E+06,   1.29456E+06,   1.29456E+06
C:/temp/Job-18.odb,Step-1,Increment      1: Step Time =    1.000,"P-18-1",           339,       83.9174,       168.766,            0.,NA,NA,"",   1.34090E+06,   1.36882E+06,   1.36882E+06
C:/temp/Job-18.odb,Step-1,Increment      1: Step Time =    1.000,"P-18-1",           340,       71.0487,       167.074,            0.,NA,NA,"",   1.44168E+06,   1.41009E+06,   1.41009E+06
C:/temp/Job-18.odb,Step-1,Increment      1: Step Time =    1.000,"P-18-1",           341,       61.2670,       169.579,            0.,NA,NA,"",   1.43033E+06,   1.38026E+06,   1.38026E+06
C:/temp/Job-18.odb,Step-1,Increment      1: Step Time =    1.000,"P-18-1",           342,       52.0488,       168.346,            0.,NA,NA,"",   1.41887E+06,   1.36556E+06,   1.36556E+06
C:/temp/Job-18.odb,Step-1,Increment      1: Step Time =    1.000,"P-18-1",           343,       43.4334,       169.745,            0.,NA,NA,"",   1.38430E+06,   1.34688E+06,   1.34688E+06
C:/temp/Job-18.odb,Step-1,Increment      1: Step Time =    1.000,"P-18-1",           344,       30.3871,       169.641,            0.,NA,NA,"",   1.32110E+06,   1.32017E+06,   1.32017E+06
C:/temp/Job-18.odb,Step-1,Increment      1: Step Time =    1.000,"P-18-1",           345,       18.3307,       165.561,            0.,NA,NA,"",   1.17792E+06,   1.23225E+06,   1.23225E+06
C:/temp/Job-18.odb,Step-1,Increment      1: Step Time =    1.000,"P-18-1",           346,       9.24857,       169.849,            0.,NA,NA,"",   1.14958E+06,   1.24713E+06,   1.24713E+06
C:/temp/Job-18.odb,Step-1,Increment      1: Step Time =    1.000,"P-18-1",           347,       189.542,       179.549,            0.,NA,NA,"",   1.00593E+06,   1.01174E+06,   1.01174E+06
C:/temp/Job-18.odb,Step-1,Increment      1: Step Time =    1.000,"P-18-1",           348,       177.781,       178.787,            0.,NA,NA,"",   1.04393E+06,   1.04340E+06,   1.04340E+06
C:/temp/Job-18.odb,Step-1,Increment      1: Step Time =    1.000,"P-18-1",           349,       165.760,       182.344,            0.,NA,NA,"",   1.06877E+06,   1.05912E+06,   1.05912E+06
C:/temp/Job-18.odb,Step-1,Increment      1: Step Time =    1.000,"P-18-1",           350,       162.908,       179.073,            0.,NA,NA,"",   1.10060E+06,   1.08514E+06,   1.08514E+06
C:/temp/Job-18.odb,Step-1,Increment      1: Step Time =    1.000,"P-18-1",           351,       146.964,       176.928,            0.,NA,NA,"",   1.17090E+06,   1.14456E+06,   1.14456E+06
C:/temp/Job-18.odb,Step-1,Increment      1: Step Time =    1.000,"P-18-1",           352,       134.160,       178.414,            0.,NA,NA,"",   1.14601E+06,   1.13667E+06,   1.13667E+06
C:/temp/Job-18.odb,Step-1,Increment      1: Step Time =    1.000,"P-18-1",           353,       124.378,       180.802,            0.,NA,NA,"",   1.08358E+06,   1.09316E+06,   1.09316E+06
C:/temp/Job-18.odb,Step-1,Increment      1: Step Time =    1.000,"P-18-1",           354,       114.795,       179.838,            0.,NA,NA,"",   1.06514E+06,   1.09787E+06,   1.09787E+06
C:/temp/Job-18.odb,Step-1,Increment      1: Step Time =    1.000,"P-18-1",           355,       104.403,       179.188,            0.,NA,NA,"",   1.06824E+06,   1.11225E+06,   1.11225E+06
C:/temp/Job-18.odb,Step-1,Increment      1: Step Time =    1.000,"P-18-1",           356,       94.2487,       179.710,            0.,NA,NA,"",   1.10766E+06,   1.14332E+06,   1.14332E+06
C:/temp/Job-18.odb,Step-1,Increment      1: Step Time =    1.000,"P-18-1",           357,       84.3104,       179.828,            0.,NA,NA,"",   1.18587E+06,   1.19864E+06,   1.19864E+06
C:/temp/Job-18.odb,Step-1,Increment      1: Step Time =    1.000,"P-18-1",           358,       74.6305,       180.107,            0.,NA,NA,"",   1.26447E+06,   1.25348E+06,   1.25348E+06
C:/temp/Job-18.odb,Step-1,Increment      1: Step Time =    1.000,"P-18-1",           359,       64.9509,       180.211,            0.,NA,NA,"",   1.32350E+06,   1.29724E+06,   1.29724E+06
C:/temp/Job-18.odb,Step-1,Increment      1: Step Time =    1.000,"P-18-1",           360,       54.3335,       179.853,            0.,NA,NA,"",   1.36336E+06,   1.33372E+06,   1.33372E+06
C:/temp/Job-18.odb,Step-1,Increment      1: Step Time =    1.000,"P-18-1",           361,       39.7771,       177.004,            0.,NA,NA,"",   1.38687E+06,   1.36477E+06,   1.36477E+06
C:/temp/Job-18.odb,Step-1,Increment      1: Step Time =    1.000,"P-18-1",           362,       31.3080,       180.652,            0.,NA,NA,"",   1.40078E+06,   1.39703E+06,   1.39703E+06
C:/temp/Job-18.odb,Step-1,Increment      1: Step Time =    1.000,"P-18-1",           363,       24.1863,       178.918,            0.,NA,NA,"",   1.37920E+06,   1.39658E+06,   1.39658E+06
C:/temp/Job-18.odb,Step-1,Increment      1: Step Time =    1.000,"P-18-1",           364,       9.69550,       179.600,            0.,NA,NA,"",   1.30575E+06,   1.39702E+06,   1.39702E+06
C:/temp/Job-18.odb,Step-1,Increment      1: Step Time =    1.000,"P-18-1",           365,       189.749,       189.852,            0.,NA,NA,"",   1.00275E+06,   1.00399E+06,   1.00399E+06
C:/temp/Job-18.odb,Step-1,Increment      1: Step Time =    1.000,"P-18-1",           366,       175.037,       190.618,            0.,NA,NA,"",   1.01559E+06,   1.01508E+06,   1.01508E+06
C:/temp/Job-18.odb,Step-1,Increment      1: Step Time =    1.000,"P-18-1",           367,       165.804,       191.113,            0.,NA,NA,"",   1.02185E+06,   1.01902E+06,   1.01902E+06
C:/temp/Job-18.odb,Step-1,Increment      1: Step Time =    1.000,"P-18-1",           368,       156.951,       190.203,            0.,NA,NA,"",   1.02649E+06,   1.02090E+06,   1.02090E+06
C:/temp/Job-18.odb,Step-1,Increment      1: Step Time =    1.000,"P-18-1",           369,       148.998,       187.018,            0.,NA,NA,"",   1.05383E+06,   1.04302E+06,   1.04302E+06
C:/temp/Job-18.odb,Step-1,Increment      1: Step Time =    1.000,"P-18-1",           370,       133.621,       189.745,            0.,NA,NA,"",   980.442E+03,   977.907E+03,   977.907E+03
C:/temp/Job-18.odb,Step-1,Increment      1: Step Time =    1.000,"P-18-1",           371,       124.363,       190.448,            0.,NA,NA,"",   930.786E+03,   933.832E+03,   933.832E+03
C:/temp/Job-18.odb,Step-1,Increment      1: Step Time =    1.000,"P-18-1",           372,       114.682,       190.146,            0.,NA,NA,"",   901.932E+03,   912.142E+03,   912.142E+03
C:/temp/Job-18.odb,Step-1,Increment      1: Step Time =    1.000,"P-18-1",           373,       104.728,       189.869,            0.,NA,NA,"",   904.307E+03,   918.329E+03,   918.329E+03
C:/temp/Job-18.odb,Step-1,Increment      1: Step Time =    1.000,"P-18-1",           374,       94.7263,       189.859,            0.,NA,NA,"",   947.166E+03,   958.434E+03,   958.434E+03
C:/temp/Job-18.odb,Step-1,Increment      1: Step Time =    1.000,"P-18-1",           375,       84.7352,       189.949,            0.,NA,NA,"",   1.02706E+06,   1.03017E+06,   1.03017E+06
C:/temp/Job-18.odb,Step-1,Increment      1: Step Time =    1.000,"P-18-1",           376,       74.8458,       190.088,            0.,NA,NA,"",   1.12248E+06,   1.11755E+06,   1.11755E+06
C:/temp/Job-18.odb,Step-1,Increment      1: Step Time =    1.000,"P-18-1",           377,       64.9364,       190.245,            0.,NA,NA,"",   1.21561E+06,   1.20612E+06,   1.20612E+06
C:/temp/Job-18.odb,Step-1,Increment      1: Step Time =    1.000,"P-18-1",           378,       50.7350,       190.766,            0.,NA,NA,"",   1.32520E+06,   1.31647E+06,   1.31647E+06
C:/temp/Job-18.odb,Step-1,Increment      1: Step Time =    1.000,"P-18-1",           379,       40.9061,       189.498,            0.,NA,NA,"",   1.38520E+06,   1.37773E+06,   1.37773E+06
C:/temp/Job-18.odb,Step-1,Increment      1: Step Time =    1.000,"P-18-1",           380,       30.4374,       190.025,            0.,NA,NA,"",   1.43862E+06,   1.43765E+06,   1.43765E+06
C:/temp/Job-18.odb,Step-1,Increment      1: Step Time =    1.000,"P-18-1",           381,       20.4335,       189.338,            0.,NA,NA,"",   1.48973E+06,   1.50251E+06,   1.50251E+06
C:/temp/Job-18.odb,Step-1,Increment      1: Step Time =    1.000,"P-18-1",           382,       10.1378,       189.681,            0.,NA,NA,"",   1.55747E+06,   1.61097E+06,   1.61097E+06
C:/temp/Job-18.odb,Step-1,Increment      1: Step Time =    1.000,"P-18-1",           383,       95.0496,       133.638,            0.,NA,NA,"",   2.94780E+06,   3.02382E+06,   3.02382E+06
C:/temp/Job-18.odb,Step-1,Increment      1: Step Time =    1.000,"P-18-1",           384,       85.5685,       130.785,            0.,NA,NA,"",   2.19335E+06,   2.24845E+06,   2.24845E+06
C:/temp/Job-18.odb,Step-1,Increment      1: Step Time =    1.000,"P-18-1",           385,       81.2399,       128.356,            0.,NA,NA,"",   1.68439E+06,   1.71230E+06,   1.71230E+06
C:/temp/Job-18.odb,Step-1,Increment      1: Step Time =    1.000,"P-18-1",           386,       73.8660,       121.749,            0.,NA,NA,"",   628.820E+03,   579.363E+03,   579.363E+03
C:/temp/Job-18.odb,Step-1,Increment      1: Step Time =    1.000,"P-18-1",           387,       68.7082,       113.298,            0.,NA,NA,"",   466.853E+03,  -439.667E+03,  -439.667E+03
C:/temp/Job-18.odb,Step-1,Increment      1: Step Time =    1.000,"P-18-1",           388,       67.1056,       108.600,            0.,NA,NA,"",   597.176E+03,  -598.810E+03,  -598.810E+03
C:/temp/Job-18.odb,Step-1,Increment      1: Step Time =    1.000,"P-18-1",           389,       66.0227,       98.7583,            0.,NA,NA,"",   756.260E+03,  -775.990E+03,  -775.990E+03
C:/temp/Job-18.odb,Step-1,Increment      1: Step Time =    1.000,"P-18-1",           390,       67.8210,       89.0221,            0.,NA,NA,"",   562.625E+03,  -545.371E+03,  -545.371E+03
C:/temp/Job-18.odb,Step-1,Increment      1: Step Time =    1.000,"P-18-1",           391,       72.3482,       80.2168,            0.,NA,NA,"",   460.143E+03,   385.573E+03,   385.573E+03
C:/temp/Job-18.odb,Step-1,Increment      1: Step Time =    1.000,"P-18-1",           392,       75.5233,       76.4015,            0.,NA,NA,"",   810.818E+03,   804.264E+03,   804.264E+03
C:/temp/Job-18.odb,Step-1,Increment      1: Step Time =    1.000,"P-18-1",           393,       83.3598,       70.3503,            0.,NA,NA,"",   1.83718E+06,   1.87276E+06,   1.87276E+06
C:/temp/Job-18.odb,Step-1,Increment      1: Step Time =    1.000,"P-18-1",           394,       92.6074,       66.8134,            0.,NA,NA,"",   2.67135E+06,   2.76163E+06,   2.76163E+06
C:/temp/Job-18.odb,Step-1,Increment      1: Step Time =    1.000,"P-18-1",           395,       102.482,       66.0907,            0.,NA,NA,"",   3.14392E+06,   3.22300E+06,   3.22300E+06
C:/temp/Job-18.odb,Step-1,Increment      1: Step Time =    1.000,"P-18-1",           396,       107.393,       66.8134,            0.,NA,NA,"",   3.00741E+06,   3.08073E+06,   3.08073E+06
C:/temp/Job-18.odb,Step-1,Increment      1: Step Time =    1.000,"P-18-1",           397,       116.640,       70.3503,            0.,NA,NA,"",   2.22956E+06,   2.29307E+06,   2.29307E+06
C:/temp/Job-18.odb,Step-1,Increment      1: Step Time =    1.000,"P-18-1",           398,       124.477,       76.4015,            0.,NA,NA,"",   1.15123E+06,   1.14782E+06,   1.14782E+06
C:/temp/Job-18.odb,Step-1,Increment      1: Step Time =    1.000,"P-18-1",           399,       127.652,       80.2168,            0.,NA,NA,"",   662.223E+03,   598.214E+03,   598.214E+03
C:/temp/Job-18.odb,Step-1,Increment      1: Step Time =    1.000,"P-18-1",           400,       132.179,       89.0221,            0.,NA,NA,"",   751.137E+03,  -705.033E+03,  -705.033E+03
C:/temp/Job-18.odb,Step-1,Increment      1: Step Time =    1.000,"P-18-1",           401,       133.977,       98.7583,            0.,NA,NA,"",   1.16327E+06,  -1.18336E+06,  -1.18336E+06
C:/temp/Job-18.odb,Step-1,Increment      1: Step Time =    1.000,"P-18-1",           402,       132.894,       108.600,            0.,NA,NA,"",   810.396E+03,  -811.924E+03,  -811.924E+03
C:/temp/Job-18.odb,Step-1,Increment      1: Step Time =    1.000,"P-18-1",           403,       131.292,       113.298,            0.,NA,NA,"",   555.112E+03,  -496.700E+03,  -496.700E+03
C:/temp/Job-18.odb,Step-1,Increment      1: Step Time =    1.000,"P-18-1",           404,       126.134,       121.749,            0.,NA,NA,"",   1.01831E+06,   979.332E+03,   979.332E+03
C:/temp/Job-18.odb,Step-1,Increment      1: Step Time =    1.000,"P-18-1",           405,       118.760,       128.356,            0.,NA,NA,"",   2.06597E+06,   2.12093E+06,   2.12093E+06
C:/temp/Job-18.odb,Step-1,Increment      1: Step Time =    1.000,"P-18-1",           406,       114.432,       130.785,            0.,NA,NA,"",   2.54606E+06,   2.61657E+06,   2.61657E+06
C:/temp/Job-18.odb,Step-1,Increment      1: Step Time =    1.000,"P-18-1",           407,       104.950,       133.638,            0.,NA,NA,"",   3.12570E+06,   3.20025E+06,   3.20025E+06
C:/temp/Job-18.odb,Step-1,Increment      1: Step Time =    1.000,"P-18-1",           408,          195.,            0.,            0.,NA,NA,"",   998.935E+03,   998.836E+03,   998.836E+03
C:/temp/Job-18.odb,Step-1,Increment      1: Step Time =    1.000,"P-18-1",           409,          185.,            0.,            0.,NA,NA,"",   996.713E+03,   996.884E+03,   996.884E+03
C:/temp/Job-18.odb,Step-1,Increment      1: Step Time =    1.000,"P-18-1",           410,          175.,            0.,            0.,NA,NA,"",   998.268E+03,   998.184E+03,   998.184E+03
C:/temp/Job-18.odb,Step-1,Increment      1: Step Time =    1.000,"P-18-1",           411,          165.,            0.,            0.,NA,NA,"",   996.671E+03,   996.091E+03,   996.091E+03
C:/temp/Job-18.odb,Step-1,Increment      1: Step Time =    1.000,"P-18-1",           412,          155.,            0.,            0.,NA,NA,"",   979.907E+03,   979.139E+03,   979.139E+03
C:/temp/Job-18.odb,Step-1,Increment      1: Step Time =    1.000,"P-18-1",           413,          145.,            0.,            0.,NA,NA,"",   937.870E+03,   937.267E+03,   937.267E+03
C:/temp/Job-18.odb,Step-1,Increment      1: Step Time =    1.000,"P-18-1",           414,          135.,            0.,            0.,NA,NA,"",   875.352E+03,   874.932E+03,   874.932E+03
C:/temp/Job-18.odb,Step-1,Increment      1: Step Time =    1.000,"P-18-1",           415,          125.,            0.,            0.,NA,NA,"",   806.328E+03,   806.662E+03,   806.662E+03
C:/temp/Job-18.odb,Step-1,Increment      1: Step Time =    1.000,"P-18-1",           416,          115.,            0.,            0.,NA,NA,"",   753.406E+03,   754.635E+03,   754.635E+03
C:/temp/Job-18.odb,Step-1,Increment      1: Step Time =    1.000,"P-18-1",           417,          105.,            0.,            0.,NA,NA,"",   740.218E+03,   741.842E+03,   741.842E+03
C:/temp/Job-18.odb,Step-1,Increment      1: Step Time =    1.000,"P-18-1",           418,           95.,            0.,            0.,NA,NA,"",   781.330E+03,   782.656E+03,   782.656E+03
C:/temp/Job-18.odb,Step-1,Increment      1: Step Time =    1.000,"P-18-1",           419,           85.,            0.,            0.,NA,NA,"",   876.155E+03,   876.713E+03,   876.713E+03
C:/temp/Job-18.odb,Step-1,Increment      1: Step Time =    1.000,"P-18-1",           420,           75.,            0.,            0.,NA,NA,"",   1.00591E+06,   1.00583E+06,   1.00583E+06
C:/temp/Job-18.odb,Step-1,Increment      1: Step Time =    1.000,"P-18-1",           421,           65.,            0.,            0.,NA,NA,"",   1.14460E+06,   1.14468E+06,   1.14468E+06
C:/temp/Job-18.odb,Step-1,Increment      1: Step Time =    1.000,"P-18-1",           422,           55.,            0.,            0.,NA,NA,"",   1.27026E+06,   1.26806E+06,   1.26806E+06
C:/temp/Job-18.odb,Step-1,Increment      1: Step Time =    1.000,"P-18-1",           423,           45.,            0.,            0.,NA,NA,"",   1.36636E+06,   1.36510E+06,   1.36510E+06
C:/temp/Job-18.odb,Step-1,Increment      1: Step Time =    1.000,"P-18-1",           424,           35.,            0.,            0.,NA,NA,"",   1.43230E+06,   1.43227E+06,   1.43227E+06
C:/temp/Job-18.odb,Step-1,Increment      1: Step Time =    1.000,"P-18-1",           425,           25.,            0.,            0.,NA,NA,"",   1.48841E+06,   1.48953E+06,   1.48953E+06
C:/temp/Job-18.odb,Step-1,Increment      1: Step Time =    1.000,"P-18-1",           426,           15.,            0.,            0.,NA,NA,"",   1.56776E+06,   1.57420E+06,   1.57420E+06
C:/temp/Job-18.odb,Step-1,Increment      1: Step Time =    1.000,"P-18-1",           427,            5.,            0.,            0.,NA,NA,"",   1.88186E+06,   1.92532E+06,   1.92532E+06
C:/temp/Job-18.odb,Step-1,Increment      1: Step Time =    1.000,"P-18-1",           428,          200.,          195.,            0.,NA,NA,"",   1.00041E+06,   999.826E+03,   999.826E+03
C:/temp/Job-18.odb,Step-1,Increment      1: Step Time =    1.000,"P-18-1",           429,          200.,          185.,            0.,NA,NA,"",   1.00187E+06,   1.00095E+06,   1.00095E+06
C:/temp/Job-18.odb,Step-1,Increment      1: Step Time =    1.000,"P-18-1",           430,          200.,          175.,            0.,NA,NA,"",   996.693E+03,   1.00195E+06,   1.00195E+06
C:/temp/Job-18.odb,Step-1,Increment      1: Step Time =    1.000,"P-18-1",           431,          200.,          165.,            0.,NA,NA,"",   978.657E+03,   1.00270E+06,   1.00270E+06
C:/temp/Job-18.odb,Step-1,Increment      1: Step Time =    1.000,"P-18-1",           432,          200.,          155.,            0.,NA,NA,"",   947.147E+03,   1.00294E+06,   1.00294E+06
C:/temp/Job-18.odb,Step-1,Increment      1: Step Time =    1.000,"P-18-1",           433,          200.,          145.,            0.,NA,NA,"",   906.780E+03,   1.00286E+06,   1.00286E+06
C:/temp/Job-18.odb,Step-1,Increment      1: Step Time =    1.000,"P-18-1",           434,          200.,          135.,            0.,NA,NA,"",   876.401E+03,   1.00329E+06,   1.00329E+06
C:/temp/Job-18.odb,Step-1,Increment      1: Step Time =    1.000,"P-18-1",           435,          200.,          125.,            0.,NA,NA,"",   870.799E+03,   1.00233E+06,   1.00233E+06
C:/temp/Job-18.odb,Step-1,Increment      1: Step Time =    1.000,"P-18-1",           436,          200.,          115.,            0.,NA,NA,"",   888.301E+03,   999.275E+03,   999.275E+03
C:/temp/Job-18.odb,Step-1,Increment      1: Step Time =    1.000,"P-18-1",           437,          200.,          105.,            0.,NA,NA,"",   906.904E+03,   995.157E+03,   995.157E+03
C:/temp/Job-18.odb,Step-1,Increment      1: Step Time =    1.000,"P-18-1",           438,          200.,           95.,            0.,NA,NA,"",   907.174E+03,   995.140E+03,   995.140E+03
C:/temp/Job-18.odb,Step-1,Increment      1: Step Time =    1.000,"P-18-1",           439,          200.,           85.,            0.,NA,NA,"",   888.732E+03,   998.942E+03,   998.942E+03
C:/temp/Job-18.odb,Step-1,Increment      1: Step Time =    1.000,"P-18-1",           440,          200.,           75.,            0.,NA,NA,"",   870.380E+03,   1.00159E+06,   1.00159E+06
C:/temp/Job-18.odb,Step-1,Increment      1: Step Time =    1.000,"P-18-1",           441,          200.,           65.,            0.,NA,NA,"",   875.153E+03,   1.00133E+06,   1.00133E+06
C:/temp/Job-18.odb,Step-1,Increment      1: Step Time =    1.000,"P-18-1",           442,          200.,           55.,            0.,NA,NA,"",   914.852E+03,   1.00873E+06,   1.00873E+06
C:/temp/Job-18.odb,Step-1,Increment      1: Step Time =    1.000,"P-18-1",           443,          200.,           45.,            0.,NA,NA,"",   951.816E+03,   1.00499E+06,   1.00499E+06
C:/temp/Job-18.odb,Step-1,Increment      1: Step Time =    1.000,"P-18-1",           444,          200.,           35.,            0.,NA,NA,"",   980.832E+03,   1.00206E+06,   1.00206E+06
C:/temp/Job-18.odb,Step-1,Increment      1: Step Time =    1.000,"P-18-1",           445,          200.,           25.,            0.,NA,NA,"",   997.262E+03,   1.00133E+06,   1.00133E+06
C:/temp/Job-18.odb,Step-1,Increment      1: Step Time =    1.000,"P-18-1",           446,          200.,           15.,            0.,NA,NA,"",   1.00189E+06,   1.00074E+06,   1.00074E+06
C:/temp/Job-18.odb,Step-1,Increment      1: Step Time =    1.000,"P-18-1",           447,          200.,            5.,            0.,NA,NA,"",   1.00039E+06,   999.810E+03,   999.810E+03
C:/temp/Job-18.odb,Step-1,Increment      1: Step Time =    1.000,"P-18-1",           448,            5.,          200.,            0.,NA,NA,"",   1.87936E+06,   1.92292E+06,   1.92292E+06
C:/temp/Job-18.odb,Step-1,Increment      1: Step Time =    1.000,"P-18-1",           449,           15.,          200.,            0.,NA,NA,"",   1.56926E+06,   1.57548E+06,   1.57548E+06
C:/temp/Job-18.odb,Step-1,Increment      1: Step Time =    1.000,"P-18-1",           450,           25.,          200.,            0.,NA,NA,"",   1.48717E+06,   1.48837E+06,   1.48837E+06
C:/temp/Job-18.odb,Step-1,Increment      1: Step Time =    1.000,"P-18-1",           451,           35.,          200.,            0.,NA,NA,"",   1.42963E+06,   1.42948E+06,   1.42948E+06
C:/temp/Job-18.odb,Step-1,Increment      1: Step Time =    1.000,"P-18-1",           452,           45.,          200.,            0.,NA,NA,"",   1.36220E+06,   1.36141E+06,   1.36141E+06
C:/temp/Job-18.odb,Step-1,Increment      1: Step Time =    1.000,"P-18-1",           453,           55.,          200.,            0.,NA,NA,"",   1.26683E+06,   1.26597E+06,   1.26597E+06
C:/temp/Job-18.odb,Step-1,Increment      1: Step Time =    1.000,"P-18-1",           454,           65.,          200.,            0.,NA,NA,"",   1.14704E+06,   1.14612E+06,   1.14612E+06
C:/temp/Job-18.odb,Step-1,Increment      1: Step Time =    1.000,"P-18-1",           455,           75.,          200.,            0.,NA,NA,"",   1.01158E+06,   1.01116E+06,   1.01116E+06
C:/temp/Job-18.odb,Step-1,Increment      1: Step Time =    1.000,"P-18-1",           456,           85.,          200.,            0.,NA,NA,"",   881.994E+03,   882.564E+03,   882.564E+03
C:/temp/Job-18.odb,Step-1,Increment      1: Step Time =    1.000,"P-18-1",           457,           95.,          200.,            0.,NA,NA,"",   785.296E+03,   786.840E+03,   786.840E+03
C:/temp/Job-18.odb,Step-1,Increment      1: Step Time =    1.000,"P-18-1",           458,          105.,          200.,            0.,NA,NA,"",   740.934E+03,   742.699E+03,   742.699E+03
C:/temp/Job-18.odb,Step-1,Increment      1: Step Time =    1.000,"P-18-1",           459,          115.,          200.,            0.,NA,NA,"",   751.672E+03,   752.837E+03,   752.837E+03
C:/temp/Job-18.odb,Step-1,Increment      1: Step Time =    1.000,"P-18-1",           460,          125.,          200.,            0.,NA,NA,"",   804.782E+03,   805.272E+03,   805.272E+03
C:/temp/Job-18.odb,Step-1,Increment      1: Step Time =    1.000,"P-18-1",           461,          135.,          200.,            0.,NA,NA,"",   879.169E+03,   879.477E+03,   879.477E+03
C:/temp/Job-18.odb,Step-1,Increment      1: Step Time =    1.000,"P-18-1",           462,          145.,          200.,            0.,NA,NA,"",   947.688E+03,   945.368E+03,   945.368E+03
C:/temp/Job-18.odb,Step-1,Increment      1: Step Time =    1.000,"P-18-1",           463,          155.,          200.,            0.,NA,NA,"",   984.067E+03,   983.202E+03,   983.202E+03
C:/temp/Job-18.odb,Step-1,Increment      1: Step Time =    1.000,"P-18-1",           464,          165.,          200.,            0.,NA,NA,"",   997.409E+03,   997.135E+03,   997.135E+03
C:/temp/Job-18.odb,Step-1,Increment      1: Step Time =    1.000,"P-18-1",           465,          175.,          200.,            0.,NA,NA,"",   997.963E+03,   997.946E+03,   997.946E+03
C:/temp/Job-18.odb,Step-1,Increment      1: Step Time =    1.000,"P-18-1",           466,          185.,          200.,            0.,NA,NA,"",   996.521E+03,   996.665E+03,   996.665E+03
C:/temp/Job-18.odb,Step-1,Increment      1: Step Time =    1.000,"P-18-1",           467,          195.,          200.,            0.,NA,NA,"",   998.911E+03,   998.808E+03,   998.808E+03
C:/temp/Job-18.odb,Step-1,Increment      1: Step Time =    1.000,"P-18-1",           468,            0.,            5.,            0.,NA,NA,"",   1.78581E+06,   1.90414E+06,   1.90414E+06
C:/temp/Job-18.odb,Step-1,Increment      1: Step Time =    1.000,"P-18-1",           469,            0.,           15.,            0.,NA,NA,"",   1.32564E+06,   1.46271E+06,   1.46271E+06
C:/temp/Job-18.odb,Step-1,Increment      1: Step Time =    1.000,"P-18-1",           470,            0.,           25.,            0.,NA,NA,"",   1.15054E+06,   1.28181E+06,   1.28181E+06
C:/temp/Job-18.odb,Step-1,Increment      1: Step Time =    1.000,"P-18-1",           471,            0.,           35.,            0.,NA,NA,"",   1.02055E+06,   1.14272E+06,   1.14272E+06
C:/temp/Job-18.odb,Step-1,Increment      1: Step Time =    1.000,"P-18-1",           472,            0.,           45.,            0.,NA,NA,"",   908.370E+03,   1.01803E+06,   1.01803E+06
C:/temp/Job-18.odb,Step-1,Increment      1: Step Time =    1.000,"P-18-1",           473,            0.,           55.,            0.,NA,NA,"",   794.558E+03,   890.962E+03,   890.962E+03
C:/temp/Job-18.odb,Step-1,Increment      1: Step Time =    1.000,"P-18-1",           474,            0.,           65.,            0.,NA,NA,"",   681.914E+03,   766.269E+03,   766.269E+03
C:/temp/Job-18.odb,Step-1,Increment      1: Step Time =    1.000,"P-18-1",           475,            0.,           75.,            0.,NA,NA,"",   576.518E+03,   649.161E+03,   649.161E+03
C:/temp/Job-18.odb,Step-1,Increment      1: Step Time =    1.000,"P-18-1",           476,            0.,           85.,            0.,NA,NA,"",   486.129E+03,   550.499E+03,   550.499E+03
C:/temp/Job-18.odb,Step-1,Increment      1: Step Time =    1.000,"P-18-1",           477,            0.,           95.,            0.,NA,NA,"",   432.167E+03,   492.322E+03,   492.322E+03
C:/temp/Job-18.odb,Step-1,Increment      1: Step Time =    1.000,"P-18-1",           478,            0.,          105.,            0.,NA,NA,"",   432.454E+03,   492.750E+03,   492.750E+03
C:/temp/Job-18.odb,Step-1,Increment      1: Step Time =    1.000,"P-18-1",           479,            0.,          115.,            0.,NA,NA,"",   486.569E+03,   551.097E+03,   551.097E+03
C:/temp/Job-18.odb,Step-1,Increment      1: Step Time =    1.000,"P-18-1",           480,            0.,          125.,            0.,NA,NA,"",   573.336E+03,   645.827E+03,   645.827E+03
C:/temp/Job-18.odb,Step-1,Increment      1: Step Time =    1.000,"P-18-1",           481,            0.,          135.,            0.,NA,NA,"",   680.782E+03,   764.365E+03,   764.365E+03
C:/temp/Job-18.odb,Step-1,Increment      1: Step Time =    1.000,"P-18-1",           482,            0.,          145.,            0.,NA,NA,"",   797.229E+03,   893.397E+03,   893.397E+03
C:/temp/Job-18.odb,Step-1,Increment      1: Step Time =    1.000,"P-18-1",           483,            0.,          155.,            0.,NA,NA,"",   908.438E+03,   1.01984E+06,   1.01984E+06
C:/temp/Job-18.odb,Step-1,Increment      1: Step Time =    1.000,"P-18-1",           484,            0.,          165.,            0.,NA,NA,"",   1.01881E+06,   1.14111E+06,   1.14111E+06
C:/temp/Job-18.odb,Step-1,Increment      1: Step Time =    1.000,"P-18-1",           485,            0.,          175.,            0.,NA,NA,"",   1.14711E+06,   1.27871E+06,   1.27871E+06
C:/temp/Job-18.odb,Step-1,Increment      1: Step Time =    1.000,"P-18-1",           486,            0.,          185.,            0.,NA,NA,"",   1.32516E+06,   1.46262E+06,   1.46262E+06
C:/temp/Job-18.odb,Step-1,Increment      1: Step Time =    1.000,"P-18-1",           487,            0.,          195.,            0.,NA,NA,"",   1.78212E+06,   1.89958E+06,   1.89958E+06
C:/temp/Job-18.odb,Step-1,Increment      1: Step Time =    1.000,"P-18-1",           488,       98.4149,       61.2176,            0.,NA,NA,"",   2.66099E+06,   2.77863E+06,   2.77863E+06
C:/temp/Job-18.odb,Step-1,Increment      1: Step Time =    1.000,"P-18-1",           489,       88.7303,       61.2003,            0.,NA,NA,"",   2.20193E+06,   2.30146E+06,   2.30146E+06
C:/temp/Job-18.odb,Step-1,Increment      1: Step Time =    1.000,"P-18-1",           490,       108.590,       62.2815,            0.,NA,NA,"",   2.62911E+06,   2.73928E+06,   2.73928E+06
C:/temp/Job-18.odb,Step-1,Increment      1: Step Time =    1.000,"P-18-1",           491,       131.788,       124.476,            0.,NA,NA,"",   1.11224E+06,   962.871E+03,   962.871E+03
C:/temp/Job-18.odb,Step-1,Increment      1: Step Time =    1.000,"P-18-1",           492,       68.6984,       125.524,            0.,NA,NA,"",   889.709E+03,   782.134E+03,   782.134E+03
C:/temp/Job-18.odb,Step-1,Increment      1: Step Time =    1.000,"P-18-1",           493,       138.690,       97.9761,            0.,NA,NA,"",   876.814E+03,  -888.430E+03,  -888.430E+03
C:/temp/Job-18.odb,Step-1,Increment      1: Step Time =    1.000,"P-18-1",           494,       59.7702,       97.9454,            0.,NA,NA,"",   499.211E+03,  -510.492E+03,  -510.492E+03
C:/temp/Job-18.odb,Step-1,Increment      1: Step Time =    1.000,"P-18-1",           495,       124.258,       129.686,            0.,NA,NA,"",   1.62544E+06,   1.62320E+06,   1.62320E+06
C:/temp/Job-18.odb,Step-1,Increment      1: Step Time =    1.000,"P-18-1",           496,       124.525,       69.2433,            0.,NA,NA,"",   1.69797E+06,   1.69538E+06,   1.69538E+06
C:/temp/Job-18.odb,Step-1,Increment      1: Step Time =    1.000,"P-18-1",           497,       80.0359,       133.256,            0.,NA,NA,"",   1.69250E+06,   1.71484E+06,   1.71484E+06
C:/temp/Job-18.odb,Step-1,Increment      1: Step Time =    1.000,"P-18-1",           498,       131.459,       77.2474,            0.,NA,NA,"",   942.871E+03,   799.711E+03,   799.711E+03
C:/temp/Job-18.odb,Step-1,Increment      1: Step Time =    1.000,"P-18-1",           499,       63.7415,       112.653,            0.,NA,NA,"",   520.775E+03,  -469.530E+03,  -469.530E+03
C:/temp/Job-18.odb,Step-1,Increment      1: Step Time =    1.000,"P-18-1",           500,       72.6877,       72.8163,            0.,NA,NA,"",   1.00144E+06,   953.343E+03,   953.343E+03
C:/temp/Job-18.odb,Step-1,Increment      1: Step Time =    1.000,"P-18-1",           501,       139.813,       109.281,            0.,NA,NA,"",   812.956E+03,  -692.817E+03,  -692.817E+03
C:/temp/Job-18.odb,Step-1,Increment      1: Step Time =    1.000,"P-18-1",           502,       134.543,       81.1516,            0.,NA,NA,"",    811.91E+03,   351.245E+03,   351.245E+03
C:/temp/Job-18.odb,Step-1,Increment      1: Step Time =    1.000,"P-18-1",           503,       69.3558,       76.1063,            0.,NA,NA,"",   728.450E+03,   618.720E+03,   618.720E+03
C:/temp/Job-18.odb,Step-1,Increment      1: Step Time =    1.000,"P-18-1",           504,       137.410,       112.518,            0.,NA,NA,"",   851.425E+03,  -683.765E+03,  -683.765E+03
C:/temp/Job-18.odb,Step-1,Increment      1: Step Time =    1.000,"P-18-1",           505,       67.2658,       79.0884,            0.,NA,NA,"",   574.608E+03,   225.744E+03,   225.744E+03
C:/temp/Job-18.odb,Step-1,Increment      1: Step Time =    1.000,"P-18-1",           506,       110.304,       137.282,            0.,NA,NA,"",   2.56958E+06,   2.67572E+06,   2.67572E+06
C:/temp/Job-18.odb,Step-1,Increment      1: Step Time =    1.000,"P-18-1",           507,       60.5218,       107.938,            0.,NA,NA,"",   502.427E+03,  -479.025E+03,  -479.025E+03
C:/temp/Job-18.odb,Step-1,Increment      1: Step Time =    1.000,"P-18-1",           508,       76.2147,       131.799,            0.,NA,NA,"",   1.42846E+06,   1.41060E+06,   1.41060E+06
C:/temp/Job-18.odb,Step-1,Increment      1: Step Time =    1.000,"P-18-1",           509,       105.165,       138.038,            0.,NA,NA,"",   2.73334E+06,   2.84849E+06,   2.84849E+06
C:/temp/Job-18.odb,Step-1,Increment      1: Step Time =    1.000,"P-18-1",           510,       128.165,       73.1981,            0.,NA,NA,"",   1.29530E+06,   1.23475E+06,   1.23475E+06
C:/temp/Job-18.odb,Step-1,Increment      1: Step Time =    1.000,"P-18-1",           511,       80.8662,       66.5003,            0.,NA,NA,"",   1.77374E+06,   1.80021E+06,   1.80021E+06
C:/temp/Job-18.odb,Step-1,Increment      1: Step Time =    1.000,"P-18-1",           512,       120.415,       132.608,            0.,NA,NA,"",   1.97258E+06,   2.02210E+06,   2.02210E+06
C:/temp/Job-18.odb,Step-1,Increment      1: Step Time =    1.000,"P-18-1",           513,       99.8948,       138.428,            0.,NA,NA,"",   2.73314E+06,   2.85091E+06,   2.85091E+06
C:/temp/Job-18.odb,Step-1,Increment      1: Step Time =    1.000,"P-18-1",           514,       195.356,       24.8965,            0.,NA,NA,"",   997.340E+03,   1.00401E+06,   1.00401E+06
C:/temp/Job-18.odb,Step-1,Increment      1: Step Time =    1.000,"P-18-1",           515,       5.16372,       20.0244,            0.,NA,NA,"",   1.26145E+06,   1.38040E+06,   1.38040E+06
C:/temp/Job-18.odb,Step-1,Increment      1: Step Time =    1.000,"P-18-1",           516,       4.97900,       9.94301,            0.,NA,NA,"",   1.51867E+06,   1.62486E+06,   1.62486E+06
C:/temp/Job-18.odb,Step-1,Increment      1: Step Time =    1.000,"P-18-1",           517,       4.70431,       29.9853,            0.,NA,NA,"",   1.10579E+06,   1.22326E+06,   1.22326E+06
C:/temp/Job-18.odb,Step-1,Increment      1: Step Time =    1.000,"P-18-1",           518,       192.454,       54.7135,            0.,NA,NA,"",   944.354E+03,   1.02554E+06,   1.02554E+06
C:/temp/Job-18.odb,Step-1,Increment      1: Step Time =    1.000,"P-18-1",           519,       5.09997,       39.8049,            0.,NA,NA,"",   988.102E+03,   1.09645E+06,   1.09645E+06
C:/temp/Job-18.odb,Step-1,Increment      1: Step Time =    1.000,"P-18-1",           520,       4.86682,       55.4877,            0.,NA,NA,"",   801.632E+03,   893.720E+03,   893.720E+03
C:/temp/Job-18.odb,Step-1,Increment      1: Step Time =    1.000,"P-18-1",           521,       4.59371,       165.073,            0.,NA,NA,"",   1.04136E+06,   1.15546E+06,   1.15546E+06
C:/temp/Job-18.odb,Step-1,Increment      1: Step Time =    1.000,"P-18-1",           522,       4.84089,       155.485,            0.,NA,NA,"",   930.143E+03,   1.03491E+06,   1.03491E+06
C:/temp/Job-18.odb,Step-1,Increment      1: Step Time =    1.000,"P-18-1",           523,       194.832,       104.893,            0.,NA,NA,"",   881.117E+03,   985.677E+03,   985.677E+03
C:/temp/Job-18.odb,Step-1,Increment      1: Step Time =    1.000,"P-18-1",           524,       194.967,       114.974,            0.,NA,NA,"",   876.742E+03,   998.073E+03,   998.073E+03
C:/temp/Job-18.odb,Step-1,Increment      1: Step Time =    1.000,"P-18-1",           525,       114.805,       195.110,            0.,NA,NA,"",   804.327E+03,   807.851E+03,   807.851E+03
C:/temp/Job-18.odb,Step-1,Increment      1: Step Time =    1.000,"P-18-1",           526,       104.854,       194.969,            0.,NA,NA,"",   799.323E+03,   804.295E+03,   804.295E+03
C:/temp/Job-18.odb,Step-1,Increment      1: Step Time =    1.000,"P-18-1",           527,       4.71784,       174.876,            0.,NA,NA,"",   1.17152E+06,   1.29203E+06,   1.29203E+06
C:/temp/Job-18.odb,Step-1,Increment      1: Step Time =    1.000,"P-18-1",           528,       74.9301,       195.055,            0.,NA,NA,"",   1.04866E+06,   1.04678E+06,   1.04678E+06
C:/temp/Job-18.odb,Step-1,Increment      1: Step Time =    1.000,"P-18-1",           529,       64.9909,       195.170,            0.,NA,NA,"",   1.16817E+06,   1.16481E+06,   1.16481E+06
C:/temp/Job-18.odb,Step-1,Increment      1: Step Time =    1.000,"P-18-1",           530,       15.0142,       5.03953,            0.,NA,NA,"",   1.56522E+06,   1.57583E+06,   1.57583E+06
C:/temp/Job-18.odb,Step-1,Increment      1: Step Time =    1.000,"P-18-1",           531,       25.0946,       4.89094,            0.,NA,NA,"",   1.48211E+06,   1.48376E+06,   1.48376E+06
C:/temp/Job-18.odb,Step-1,Increment      1: Step Time =    1.000,"P-18-1",           532,       34.8869,       4.55195,            0.,NA,NA,"",   1.42692E+06,   1.42570E+06,   1.42570E+06
C:/temp/Job-18.odb,Step-1,Increment      1: Step Time =    1.000,"P-18-1",           533,       44.4391,       4.84867,            0.,NA,NA,"",   1.36517E+06,   1.36209E+06,   1.36209E+06
C:/temp/Job-18.odb,Step-1,Increment      1: Step Time =    1.000,"P-18-1",           534,       54.9600,       7.14123,            0.,NA,NA,"",   1.28628E+06,   1.27935E+06,   1.27935E+06
C:/temp/Job-18.odb,Step-1,Increment      1: Step Time =    1.000,"P-18-1",           535,       65.5420,       5.15955,            0.,NA,NA,"",   1.16320E+06,   1.16066E+06,   1.16066E+06
C:/temp/Job-18.odb,Step-1,Increment      1: Step Time =    1.000,"P-18-1",           536,       75.3324,       4.65490,            0.,NA,NA,"",   1.03885E+06,   1.03745E+06,   1.03745E+06
C:/temp/Job-18.odb,Step-1,Increment      1: Step Time =    1.000,"P-18-1",           537,       85.1246,       4.66137,            0.,NA,NA,"",   922.463E+03,   923.516E+03,   923.516E+03
C:/temp/Job-18.odb,Step-1,Increment      1: Step Time =    1.000,"P-18-1",           538,       95.0387,       4.81576,            0.,NA,NA,"",   835.970E+03,   839.684E+03,   839.684E+03
C:/temp/Job-18.odb,Step-1,Increment      1: Step Time =    1.000,"P-18-1",           539,       105.025,       4.96977,            0.,NA,NA,"",   797.359E+03,   802.107E+03,   802.107E+03
C:/temp/Job-18.odb,Step-1,Increment      1: Step Time =    1.000,"P-18-1",           540,       115.041,       5.01545,            0.,NA,NA,"",   807.475E+03,   810.916E+03,   810.916E+03
C:/temp/Job-18.odb,Step-1,Increment      1: Step Time =    1.000,"P-18-1",           541,       125.042,       4.96270,            0.,NA,NA,"",   852.158E+03,   852.971E+03,   852.971E+03
C:/temp/Job-18.odb,Step-1,Increment      1: Step Time =    1.000,"P-18-1",           542,       134.998,       4.83137,            0.,NA,NA,"",   908.934E+03,   907.673E+03,   907.673E+03
C:/temp/Job-18.odb,Step-1,Increment      1: Step Time =    1.000,"P-18-1",           543,       144.797,       4.61967,            0.,NA,NA,"",   958.917E+03,   956.852E+03,   956.852E+03
C:/temp/Job-18.odb,Step-1,Increment      1: Step Time =    1.000,"P-18-1",           544,       154.609,       4.83350,            0.,NA,NA,"",   993.827E+03,   991.540E+03,   991.540E+03
C:/temp/Job-18.odb,Step-1,Increment      1: Step Time =    1.000,"P-18-1",           545,       164.661,       5.23314,            0.,NA,NA,"",   1.00698E+06,   1.00536E+06,   1.00536E+06
C:/temp/Job-18.odb,Step-1,Increment      1: Step Time =    1.000,"P-18-1",           546,       174.784,       5.17029,            0.,NA,NA,"",   1.00470E+06,   1.00441E+06,   1.00441E+06
C:/temp/Job-18.odb,Step-1,Increment      1: Step Time =    1.000,"P-18-1",           547,       184.830,       5.18861,            0.,NA,NA,"",   1.00018E+06,   1.00067E+06,   1.00067E+06
C:/temp/Job-18.odb,Step-1,Increment      1: Step Time =    1.000,"P-18-1",           548,       194.957,       5.06750,            0.,NA,NA,"",   999.858E+03,   999.683E+03,   999.683E+03
C:/temp/Job-18.odb,Step-1,Increment      1: Step Time =    1.000,"P-18-1",           549,       195.034,       15.0958,            0.,NA,NA,"",   1.00165E+06,   1.00229E+06,   1.00229E+06
C:/temp/Job-18.odb,Step-1,Increment      1: Step Time =    1.000,"P-18-1",           550,       195.536,       34.6001,            0.,NA,NA,"",   983.211E+03,   1.00598E+06,   1.00598E+06
C:/temp/Job-18.odb,Step-1,Increment      1: Step Time =    1.000,"P-18-1",           551,       194.939,       44.2601,            0.,NA,NA,"",   960.159E+03,   1.01113E+06,   1.01113E+06
C:/temp/Job-18.odb,Step-1,Increment      1: Step Time =    1.000,"P-18-1",           552,       194.894,       94.8822,            0.,NA,NA,"",   881.889E+03,   986.512E+03,   986.512E+03
C:/temp/Job-18.odb,Step-1,Increment      1: Step Time =    1.000,"P-18-1",           553,       194.717,       65.4532,            0.,NA,NA,"",   890.947E+03,   1.01168E+06,   1.01168E+06
C:/temp/Job-18.odb,Step-1,Increment      1: Step Time =    1.000,"P-18-1",           554,       195.097,       85.0023,            0.,NA,NA,"",   876.979E+03,    997.79E+03,    997.79E+03
C:/temp/Job-18.odb,Step-1,Increment      1: Step Time =    1.000,"P-18-1",           555,       195.190,       124.984,            0.,NA,NA,"",   876.237E+03,   1.00848E+06,   1.00848E+06
C:/temp/Job-18.odb,Step-1,Increment      1: Step Time =    1.000,"P-18-1",           556,       124.679,       195.219,            0.,NA,NA,"",   847.819E+03,   848.911E+03,   848.911E+03
C:/temp/Job-18.odb,Step-1,Increment      1: Step Time =    1.000,"P-18-1",           557,       195.380,       134.928,            0.,NA,NA,"",   890.205E+03,   1.01187E+06,   1.01187E+06
C:/temp/Job-18.odb,Step-1,Increment      1: Step Time =    1.000,"P-18-1",           558,       134.522,       194.702,            0.,NA,NA,"",   912.394E+03,   911.743E+03,   911.743E+03
C:/temp/Job-18.odb,Step-1,Increment      1: Step Time =    1.000,"P-18-1",           559,       195.464,       144.720,            0.,NA,NA,"",   918.876E+03,   1.01068E+06,   1.01068E+06
C:/temp/Job-18.odb,Step-1,Increment      1: Step Time =    1.000,"P-18-1",           560,       195.099,       154.572,            0.,NA,NA,"",   955.145E+03,   1.01009E+06,   1.01009E+06
C:/temp/Job-18.odb,Step-1,Increment      1: Step Time =    1.000,"P-18-1",           561,       145.272,       192.423,            0.,NA,NA,"",   990.341E+03,   985.055E+03,   985.055E+03
C:/temp/Job-18.odb,Step-1,Increment      1: Step Time =    1.000,"P-18-1",           562,       194.744,       164.662,            0.,NA,NA,"",   983.550E+03,   1.00879E+06,   1.00879E+06
C:/temp/Job-18.odb,Step-1,Increment      1: Step Time =    1.000,"P-18-1",           563,       155.739,       194.930,            0.,NA,NA,"",   996.320E+03,    994.23E+03,    994.23E+03
C:/temp/Job-18.odb,Step-1,Increment      1: Step Time =    1.000,"P-18-1",           564,       194.827,       174.784,            0.,NA,NA,"",   997.763E+03,   1.00549E+06,   1.00549E+06
C:/temp/Job-18.odb,Step-1,Increment      1: Step Time =    1.000,"P-18-1",           565,       165.407,       195.533,            0.,NA,NA,"",   1.00485E+06,   1.00387E+06,   1.00387E+06
C:/temp/Job-18.odb,Step-1,Increment      1: Step Time =    1.000,"P-18-1",           566,       194.812,       184.831,            0.,NA,NA,"",   1.00189E+06,   1.00274E+06,   1.00274E+06
C:/temp/Job-18.odb,Step-1,Increment      1: Step Time =    1.000,"P-18-1",           567,       175.111,       195.359,            0.,NA,NA,"",   1.00344E+06,   1.00331E+06,   1.00331E+06
C:/temp/Job-18.odb,Step-1,Increment      1: Step Time =    1.000,"P-18-1",           568,       194.934,       194.959,            0.,NA,NA,"",   999.870E+03,   999.690E+03,   999.690E+03
C:/temp/Job-18.odb,Step-1,Increment      1: Step Time =    1.000,"P-18-1",           569,       184.909,       195.038,            0.,NA,NA,"",   999.859E+03,   1.00032E+06,   1.00032E+06
C:/temp/Job-18.odb,Step-1,Increment      1: Step Time =    1.000,"P-18-1",           570,       94.8757,       194.938,            0.,NA,NA,"",   842.970E+03,   847.005E+03,   847.005E+03
C:/temp/Job-18.odb,Step-1,Increment      1: Step Time =    1.000,"P-18-1",           571,       84.8811,       194.979,            0.,NA,NA,"",   932.460E+03,   933.516E+03,   933.516E+03
C:/temp/Job-18.odb,Step-1,Increment      1: Step Time =    1.000,"P-18-1",           572,       55.2068,       195.344,            0.,NA,NA,"",   1.27311E+06,   1.26977E+06,   1.26977E+06
C:/temp/Job-18.odb,Step-1,Increment      1: Step Time =    1.000,"P-18-1",           573,       45.3987,       195.201,            0.,NA,NA,"",   1.35790E+06,   1.35509E+06,   1.35509E+06
C:/temp/Job-18.odb,Step-1,Increment      1: Step Time =    1.000,"P-18-1",           574,       35.2791,       194.914,            0.,NA,NA,"",   1.42360E+06,   1.42199E+06,   1.42199E+06
C:/temp/Job-18.odb,Step-1,Increment      1: Step Time =    1.000,"P-18-1",           575,       25.1769,       194.848,            0.,NA,NA,"",   1.48205E+06,   1.48367E+06,   1.48367E+06
C:/temp/Job-18.odb,Step-1,Increment      1: Step Time =    1.000,"P-18-1",           576,       15.1706,       194.748,            0.,NA,NA,"",   1.56352E+06,   1.57430E+06,   1.57430E+06
C:/temp/Job-18.odb,Step-1,Increment      1: Step Time =    1.000,"P-18-1",           577,       5.06447,       194.915,            0.,NA,NA,"",   1.74969E+06,   1.81928E+06,   1.81928E+06
C:/temp/Job-18.odb,Step-1,Increment      1: Step Time =    1.000,"P-18-1",           578,       4.98600,       184.855,            0.,NA,NA,"",   1.35449E+06,   1.47318E+06,   1.47318E+06
C:/temp/Job-18.odb,Step-1,Increment      1: Step Time =    1.000,"P-18-1",           579,       6.74718,       144.945,            0.,NA,NA,"",   817.776E+03,   905.988E+03,   905.988E+03
C:/temp/Job-18.odb,Step-1,Increment      1: Step Time =    1.000,"P-18-1",           580,       4.62302,       134.428,            0.,NA,NA,"",   681.396E+03,   762.764E+03,   762.764E+03
C:/temp/Job-18.odb,Step-1,Increment      1: Step Time =    1.000,"P-18-1",           581,       4.54266,       124.698,            0.,NA,NA,"",   570.628E+03,   642.970E+03,   642.970E+03
C:/temp/Job-18.odb,Step-1,Increment      1: Step Time =    1.000,"P-18-1",           582,       4.95114,       114.861,            0.,NA,NA,"",   479.390E+03,   544.944E+03,   544.944E+03
C:/temp/Job-18.odb,Step-1,Increment      1: Step Time =    1.000,"P-18-1",           583,       4.96384,       104.855,            0.,NA,NA,"",   422.472E+03,   483.699E+03,   483.699E+03
C:/temp/Job-18.odb,Step-1,Increment      1: Step Time =    1.000,"P-18-1",           584,       4.80864,       94.8781,            0.,NA,NA,"",   423.090E+03,   484.271E+03,   484.271E+03
C:/temp/Job-18.odb,Step-1,Increment      1: Step Time =    1.000,"P-18-1",           585,       4.64154,       84.8869,            0.,NA,NA,"",   480.091E+03,   545.475E+03,   545.475E+03
C:/temp/Job-18.odb,Step-1,Increment      1: Step Time =    1.000,"P-18-1",           586,       4.69155,       74.9807,            0.,NA,NA,"",   575.268E+03,   647.808E+03,   647.808E+03
C:/temp/Job-18.odb,Step-1,Increment      1: Step Time =    1.000,"P-18-1",           587,       4.62498,       65.1371,            0.,NA,NA,"",   687.455E+03,   769.483E+03,   769.483E+03
C:/temp/Job-18.odb,Step-1,Increment      1: Step Time =    1.000,"P-18-1",           588,       195.230,       75.2282,            0.,NA,NA,"",   875.404E+03,   1.00759E+06,   1.00759E+06
C:/temp/Job-18.odb,Step-1,Increment      1: Step Time =    1.000,"P-18-1",           589,       189.894,       5.14599,            0.,NA,NA,"",   999.345E+03,   999.748E+03,   999.748E+03
C:/temp/Job-18.odb,Step-1,Increment      1: Step Time =    1.000,"P-18-1",           590,       179.788,       5.20682,            0.,NA,NA,"",   1.00224E+06,   1.00244E+06,   1.00244E+06
C:/temp/Job-18.odb,Step-1,Increment      1: Step Time =    1.000,"P-18-1",           591,       169.749,       5.18267,            0.,NA,NA,"",   1.00667E+06,   1.00575E+06,   1.00575E+06
C:/temp/Job-18.odb,Step-1,Increment      1: Step Time =    1.000,"P-18-1",           592,       159.560,       5.24214,            0.,NA,NA,"",   1.00352E+06,   1.00137E+06,   1.00137E+06
C:/temp/Job-18.odb,Step-1,Increment      1: Step Time =    1.000,"P-18-1",           593,       149.661,       4.60950,            0.,NA,NA,"",   978.335E+03,   976.174E+03,   976.174E+03
C:/temp/Job-18.odb,Step-1,Increment      1: Step Time =    1.000,"P-18-1",           594,       139.928,       4.72569,            0.,NA,NA,"",   935.611E+03,   933.755E+03,   933.755E+03
C:/temp/Job-18.odb,Step-1,Increment      1: Step Time =    1.000,"P-18-1",           595,       130.032,       4.91044,            0.,NA,NA,"",   880.501E+03,   880.122E+03,   880.122E+03
C:/temp/Job-18.odb,Step-1,Increment      1: Step Time =    1.000,"P-18-1",           596,       120.048,       4.99557,            0.,NA,NA,"",   826.756E+03,   828.917E+03,   828.917E+03
C:/temp/Job-18.odb,Step-1,Increment      1: Step Time =    1.000,"P-18-1",           597,       110.034,       5.00568,            0.,NA,NA,"",   796.926E+03,   801.308E+03,   801.308E+03
C:/temp/Job-18.odb,Step-1,Increment      1: Step Time =    1.000,"P-18-1",           598,       100.024,       4.89403,            0.,NA,NA,"",   810.215E+03,   814.783E+03,   814.783E+03
C:/temp/Job-18.odb,Step-1,Increment      1: Step Time =    1.000,"P-18-1",           599,       90.0728,       4.72340,            0.,NA,NA,"",   874.069E+03,   876.532E+03,   876.532E+03
C:/temp/Job-18.odb,Step-1,Increment      1: Step Time =    1.000,"P-18-1",           600,       80.2080,       4.61972,            0.,NA,NA,"",   978.385E+03,   978.033E+03,   978.033E+03
C:/temp/Job-18.odb,Step-1,Increment      1: Step Time =    1.000,"P-18-1",           601,       70.4521,       4.80370,            0.,NA,NA,"",   1.10138E+06,   1.09922E+06,   1.09922E+06
C:/temp/Job-18.odb,Step-1,Increment      1: Step Time =    1.000,"P-18-1",           602,       60.5499,       5.85667,            0.,NA,NA,"",   1.22357E+06,   1.21990E+06,   1.21990E+06
C:/temp/Job-18.odb,Step-1,Increment      1: Step Time =    1.000,"P-18-1",           603,       49.3226,       5.47164,            0.,NA,NA,"",   1.32863E+06,   1.32360E+06,   1.32360E+06
C:/temp/Job-18.odb,Step-1,Increment      1: Step Time =    1.000,"P-18-1",           604,       39.7006,       4.61690,            0.,NA,NA,"",   1.39735E+06,   1.39543E+06,   1.39543E+06
C:/temp/Job-18.odb,Step-1,Increment      1: Step Time =    1.000,"P-18-1",           605,       30.0110,       4.63610,            0.,NA,NA,"",   1.45425E+06,   1.45426E+06,   1.45426E+06
C:/temp/Job-18.odb,Step-1,Increment      1: Step Time =    1.000,"P-18-1",           606,       20.1282,       5.15811,            0.,NA,NA,"",   1.51756E+06,   1.52202E+06,   1.52202E+06
C:/temp/Job-18.odb,Step-1,Increment      1: Step Time =    1.000,"P-18-1",           607,       9.95350,       4.96506,            0.,NA,NA,"",   1.65891E+06,   1.67652E+06,   1.67652E+06
C:/temp/Job-18.odb,Step-1,Increment      1: Step Time =    1.000,"P-18-1",           608,       194.855,       189.896,            0.,NA,NA,"",   1.00142E+06,   1.00134E+06,   1.00134E+06
C:/temp/Job-18.odb,Step-1,Increment      1: Step Time =    1.000,"P-18-1",           609,       194.793,       179.789,            0.,NA,NA,"",   1.00078E+06,   1.00404E+06,   1.00404E+06
C:/temp/Job-18.odb,Step-1,Increment      1: Step Time =    1.000,"P-18-1",           610,       194.807,       169.749,            0.,NA,NA,"",   992.334E+03,   1.00718E+06,   1.00718E+06
C:/temp/Job-18.odb,Step-1,Increment      1: Step Time =    1.000,"P-18-1",           611,       194.706,       159.550,            0.,NA,NA,"",   971.327E+03,   1.00992E+06,   1.00992E+06
C:/temp/Job-18.odb,Step-1,Increment      1: Step Time =    1.000,"P-18-1",           612,       195.379,       149.590,            0.,NA,NA,"",   936.417E+03,   1.00986E+06,   1.00986E+06
C:/temp/Job-18.odb,Step-1,Increment      1: Step Time =    1.000,"P-18-1",           613,       195.446,       139.847,            0.,NA,NA,"",   903.320E+03,   1.01176E+06,   1.01176E+06
C:/temp/Job-18.odb,Step-1,Increment      1: Step Time =    1.000,"P-18-1",           614,       195.301,       129.970,            0.,NA,NA,"",   880.994E+03,   1.01092E+06,   1.01092E+06
C:/temp/Job-18.odb,Step-1,Increment      1: Step Time =    1.000,"P-18-1",           615,       195.078,       119.983,            0.,NA,NA,"",   875.313E+03,   1.00419E+06,   1.00419E+06
C:/temp/Job-18.odb,Step-1,Increment      1: Step Time =    1.000,"P-18-1",           616,       194.881,       109.933,            0.,NA,NA,"",   878.846E+03,   990.884E+03,   990.884E+03
C:/temp/Job-18.odb,Step-1,Increment      1: Step Time =    1.000,"P-18-1",           617,       194.830,       99.8660,            0.,NA,NA,"",   882.430E+03,   984.247E+03,   984.247E+03
C:/temp/Job-18.odb,Step-1,Increment      1: Step Time =    1.000,"P-18-1",           618,       194.985,       89.9295,            0.,NA,NA,"",   879.863E+03,   991.752E+03,   991.752E+03
C:/temp/Job-18.odb,Step-1,Increment      1: Step Time =    1.000,"P-18-1",           619,       195.192,       80.0958,            0.,NA,NA,"",   875.067E+03,   1.00356E+06,   1.00356E+06
C:/temp/Job-18.odb,Step-1,Increment      1: Step Time =    1.000,"P-18-1",           620,       195.106,       70.3668,            0.,NA,NA,"",   880.288E+03,   1.01013E+06,   1.01013E+06
C:/temp/Job-18.odb,Step-1,Increment      1: Step Time =    1.000,"P-18-1",           621,       193.934,       60.4360,            0.,NA,NA,"",   909.923E+03,   1.01502E+06,   1.01502E+06
C:/temp/Job-18.odb,Step-1,Increment      1: Step Time =    1.000,"P-18-1",           622,       194.094,       49.1735,            0.,NA,NA,"",   950.882E+03,   1.01794E+06,   1.01794E+06
C:/temp/Job-18.odb,Step-1,Increment      1: Step Time =    1.000,"P-18-1",           623,       195.387,       39.4267,            0.,NA,NA,"",   971.895E+03,   1.00748E+06,   1.00748E+06
C:/temp/Job-18.odb,Step-1,Increment      1: Step Time =    1.000,"P-18-1",           624,       195.508,       29.7632,            0.,NA,NA,"",   991.704E+03,   1.00488E+06,   1.00488E+06
C:/temp/Job-18.odb,Step-1,Increment      1: Step Time =    1.000,"P-18-1",           625,       195.177,       20.0229,            0.,NA,NA,"",   1.00047E+06,   1.00318E+06,   1.00318E+06
C:/temp/Job-18.odb,Step-1,Increment      1: Step Time =    1.000,"P-18-1",           626,       194.958,       10.1089,            0.,NA,NA,"",   1.00130E+06,   1.00118E+06,   1.00118E+06
C:/temp/Job-18.odb,Step-1,Increment      1: Step Time =    1.000,"P-18-1",           627,       10.1132,       194.821,            0.,NA,NA,"",   1.65246E+06,   1.67112E+06,   1.67112E+06
C:/temp/Job-18.odb,Step-1,Increment      1: Step Time =    1.000,"P-18-1",           628,       20.1845,       194.739,            0.,NA,NA,"",   1.51808E+06,   1.52248E+06,   1.52248E+06
C:/temp/Job-18.odb,Step-1,Increment      1: Step Time =    1.000,"P-18-1",           629,       30.2081,       194.933,            0.,NA,NA,"",   1.45300E+06,   1.45254E+06,   1.45254E+06
C:/temp/Job-18.odb,Step-1,Increment      1: Step Time =    1.000,"P-18-1",           630,       40.3783,       194.897,            0.,NA,NA,"",   1.39265E+06,   1.39031E+06,   1.39031E+06
C:/temp/Job-18.odb,Step-1,Increment      1: Step Time =    1.000,"P-18-1",           631,       50.3504,       195.360,            0.,NA,NA,"",   1.31780E+06,   1.31488E+06,   1.31488E+06
C:/temp/Job-18.odb,Step-1,Increment      1: Step Time =    1.000,"P-18-1",           632,       60.0741,       195.256,            0.,NA,NA,"",   1.22311E+06,   1.21954E+06,   1.21954E+06
C:/temp/Job-18.odb,Step-1,Increment      1: Step Time =    1.000,"P-18-1",           633,       69.9549,       195.106,            0.,NA,NA,"",   1.10944E+06,   1.10658E+06,   1.10658E+06
C:/temp/Job-18.odb,Step-1,Increment      1: Step Time =    1.000,"P-18-1",           634,       79.9027,       195.017,            0.,NA,NA,"",   988.724E+03,   988.190E+03,   988.190E+03
C:/temp/Job-18.odb,Step-1,Increment      1: Step Time =    1.000,"P-18-1",           635,       89.8743,       194.954,            0.,NA,NA,"",   882.956E+03,   885.606E+03,   885.606E+03
C:/temp/Job-18.odb,Step-1,Increment      1: Step Time =    1.000,"P-18-1",           636,       99.8690,       194.942,            0.,NA,NA,"",   814.775E+03,   819.594E+03,   819.594E+03
C:/temp/Job-18.odb,Step-1,Increment      1: Step Time =    1.000,"P-18-1",           637,       109.834,       195.025,            0.,NA,NA,"",   796.164E+03,   800.676E+03,   800.676E+03
C:/temp/Job-18.odb,Step-1,Increment      1: Step Time =    1.000,"P-18-1",           638,       119.756,       195.189,            0.,NA,NA,"",   822.315E+03,   824.597E+03,   824.597E+03
C:/temp/Job-18.odb,Step-1,Increment      1: Step Time =    1.000,"P-18-1",           639,       129.587,       195.084,            0.,NA,NA,"",   878.721E+03,   878.871E+03,   878.871E+03
C:/temp/Job-18.odb,Step-1,Increment      1: Step Time =    1.000,"P-18-1",           640,       139.552,       193.908,            0.,NA,NA,"",   948.169E+03,   945.879E+03,   945.879E+03
C:/temp/Job-18.odb,Step-1,Increment      1: Step Time =    1.000,"P-18-1",           641,       150.821,       194.073,            0.,NA,NA,"",   990.402E+03,   986.638E+03,   986.638E+03
C:/temp/Job-18.odb,Step-1,Increment      1: Step Time =    1.000,"P-18-1",           642,       160.577,       195.381,            0.,NA,NA,"",   1.00203E+06,   1.00067E+06,   1.00067E+06
C:/temp/Job-18.odb,Step-1,Increment      1: Step Time =    1.000,"P-18-1",           643,       170.244,       195.507,            0.,NA,NA,"",   1.00490E+06,   1.00435E+06,   1.00435E+06
C:/temp/Job-18.odb,Step-1,Increment      1: Step Time =    1.000,"P-18-1",           644,       179.983,       195.180,            0.,NA,NA,"",   1.00152E+06,   1.00175E+06,   1.00175E+06
C:/temp/Job-18.odb,Step-1,Increment      1: Step Time =    1.000,"P-18-1",           645,       189.894,       194.961,            0.,NA,NA,"",   999.273E+03,   999.656E+03,   999.656E+03
C:/temp/Job-18.odb,Step-1,Increment      1: Step Time =    1.000,"P-18-1",           646,       5.06182,       14.9671,            0.,NA,NA,"",   1.35913E+06,   1.47669E+06,   1.47669E+06
C:/temp/Job-18.odb,Step-1,Increment      1: Step Time =    1.000,"P-18-1",           647,       4.87996,       25.0288,            0.,NA,NA,"",   1.17579E+06,   1.29513E+06,   1.29513E+06
C:/temp/Job-18.odb,Step-1,Increment      1: Step Time =    1.000,"P-18-1",           648,       4.78676,       34.9025,            0.,NA,NA,"",   1.04380E+06,   1.15755E+06,   1.15755E+06
C:/temp/Job-18.odb,Step-1,Increment      1: Step Time =    1.000,"P-18-1",           649,       5.59440,       44.7919,            0.,NA,NA,"",   934.128E+03,   1.03589E+06,   1.03589E+06
C:/temp/Job-18.odb,Step-1,Increment      1: Step Time =    1.000,"P-18-1",           650,       6.19146,       50.1827,            0.,NA,NA,"",   873.046E+03,   966.756E+03,   966.756E+03
C:/temp/Job-18.odb,Step-1,Increment      1: Step Time =    1.000,"P-18-1",           651,       4.61859,       60.2951,            0.,NA,NA,"",   743.865E+03,   831.267E+03,   831.267E+03
C:/temp/Job-18.odb,Step-1,Increment      1: Step Time =    1.000,"P-18-1",           652,       4.66742,       70.0454,            0.,NA,NA,"",   629.958E+03,   706.945E+03,   706.945E+03
C:/temp/Job-18.odb,Step-1,Increment      1: Step Time =    1.000,"P-18-1",           653,       4.63366,       79.8986,            0.,NA,NA,"",   524.643E+03,   593.291E+03,   593.291E+03
C:/temp/Job-18.odb,Step-1,Increment      1: Step Time =    1.000,"P-18-1",           654,       4.70401,       89.8842,            0.,NA,NA,"",   445.428E+03,   508.288E+03,   508.288E+03
C:/temp/Job-18.odb,Step-1,Increment      1: Step Time =    1.000,"P-18-1",           655,       4.90381,       99.8620,            0.,NA,NA,"",   415.111E+03,   475.683E+03,   475.683E+03
C:/temp/Job-18.odb,Step-1,Increment      1: Step Time =    1.000,"P-18-1",           656,       4.98745,       109.871,            0.,NA,NA,"",   444.833E+03,   507.850E+03,   507.850E+03
C:/temp/Job-18.odb,Step-1,Increment      1: Step Time =    1.000,"P-18-1",           657,       4.78473,       119.810,            0.,NA,NA,"",   522.155E+03,   590.811E+03,   590.811E+03
C:/temp/Job-18.odb,Step-1,Increment      1: Step Time =    1.000,"P-18-1",           658,       4.38635,       129.520,            0.,NA,NA,"",   624.418E+03,    701.12E+03,    701.12E+03
C:/temp/Job-18.odb,Step-1,Increment      1: Step Time =    1.000,"P-18-1",           659,       5.34692,       139.379,            0.,NA,NA,"",   741.933E+03,   827.419E+03,   827.419E+03
C:/temp/Job-18.odb,Step-1,Increment      1: Step Time =    1.000,"P-18-1",           660,       5.33510,       150.599,            0.,NA,NA,"",   876.787E+03,   974.761E+03,   974.761E+03
C:/temp/Job-18.odb,Step-1,Increment      1: Step Time =    1.000,"P-18-1",           661,       4.65810,       160.250,            0.,NA,NA,"",   984.438E+03,   1.09409E+06,   1.09409E+06
C:/temp/Job-18.odb,Step-1,Increment      1: Step Time =    1.000,"P-18-1",           662,       4.61064,       169.953,            0.,NA,NA,"",   1.10369E+06,   1.22146E+06,   1.22146E+06
C:/temp/Job-18.odb,Step-1,Increment      1: Step Time =    1.000,"P-18-1",           663,       4.85059,       179.861,            0.,NA,NA,"",   1.25548E+06,   1.37634E+06,   1.37634E+06
C:/temp/Job-18.odb,Step-1,Increment      1: Step Time =    1.000,"P-18-1",           664,       5.05520,       189.863,            0.,NA,NA,"",   1.51158E+06,   1.61812E+06,   1.61812E+06
C:/temp/Job-18.odb,Step-1,Increment      1: Step Time =    1.000,"P-18-1",           665,       143.902,       113.559,            0.,NA,NA,"",   846.697E+03,   80.2588E+03,   80.2588E+03
C:/temp/Job-18.odb,Step-1,Increment      1: Step Time =    1.000,"P-18-1",           666,       59.3024,       112.905,            0.,NA,NA,"",   506.330E+03,  -223.260E+03,  -223.260E+03
C:/temp/Job-18.odb,Step-1,Increment      1: Step Time =    1.000,"P-18-1",           667,       92.6272,       57.9055,            0.,NA,NA,"",   2.12668E+06,   2.25924E+06,   2.25924E+06
C:/temp/Job-18.odb,Step-1,Increment      1: Step Time =    1.000,"P-18-1",           668,       109.660,       57.5106,            0.,NA,NA,"",   2.04970E+06,   2.19922E+06,   2.19922E+06
C:/temp/Job-18.odb,Step-1,Increment      1: Step Time =    1.000,"P-18-1",           669,       71.9451,       132.110,            0.,NA,NA,"",   1.30934E+06,   1.23605E+06,   1.23605E+06
C:/temp/Job-18.odb,Step-1,Increment      1: Step Time =    1.000,"P-18-1",           670,       130.578,       130.535,            0.,NA,NA,"",    1.5255E+06,   1.41511E+06,   1.41511E+06
C:/temp/Job-18.odb,Step-1,Increment      1: Step Time =    1.000,"P-18-1",           671,       119.281,       139.522,            0.,NA,NA,"",   1.88271E+06,   1.95473E+06,   1.95473E+06
C:/temp/Job-18.odb,Step-1,Increment      1: Step Time =    1.000,"P-18-1",           672,       78.5509,       137.687,            0.,NA,NA,"",   1.69456E+06,   1.69665E+06,   1.69665E+06
C:/temp/Job-18.odb,Step-1,Increment      1: Step Time =    1.000,"P-18-1",           673,       140.090,       102.028,            0.,NA,NA,"",   742.659E+03,  -744.141E+03,  -744.141E+03
C:/temp/Job-18.odb,Step-1,Increment      1: Step Time =    1.000,"P-18-1",           674,       133.145,       119.782,            0.,NA,NA,"",   775.531E+03,   432.011E+03,   432.011E+03
C:/temp/Job-18.odb,Step-1,Increment      1: Step Time =    1.000,"P-18-1",           675,       66.7748,       120.340,            0.,NA,NA,"",   585.126E+03,   299.359E+03,   299.359E+03
C:/temp/Job-18.odb,Step-1,Increment      1: Step Time =    1.000,"P-18-1",           676,       94.5233,       138.380,            0.,NA,NA,"",   2.57287E+06,   2.68359E+06,   2.68359E+06
C:/temp/Job-18.odb,Step-1,Increment      1: Step Time =    1.000,"P-18-1",           677,       141.341,       93.0882,            0.,NA,NA,"",   657.029E+03,  -574.624E+03,  -574.624E+03
C:/temp/Job-18.odb,Step-1,Increment      1: Step Time =    1.000,"P-18-1",           678,       56.3957,       94.7214,            0.,NA,NA,"",   320.359E+03,  -296.594E+03,  -296.594E+03
C:/temp/Job-18.odb,Step-1,Increment      1: Step Time =    1.000,"P-18-1",           679,       139.935,       9.58159,            0.,NA,NA,"",   994.019E+03,   988.991E+03,   988.991E+03
C:/temp/Job-18.odb,Step-1,Increment      1: Step Time =    1.000,"P-18-1",           680,       130.072,       9.88580,            0.,NA,NA,"",   960.308E+03,   959.491E+03,   959.491E+03
C:/temp/Job-18.odb,Step-1,Increment      1: Step Time =    1.000,"P-18-1",           681,       120.085,       10.0106,            0.,NA,NA,"",   921.029E+03,   927.434E+03,   927.434E+03
C:/temp/Job-18.odb,Step-1,Increment      1: Step Time =    1.000,"P-18-1",           682,       110.024,       10.0120,            0.,NA,NA,"",   898.484E+03,   910.780E+03,   910.780E+03
C:/temp/Job-18.odb,Step-1,Increment      1: Step Time =    1.000,"P-18-1",           683,       99.9548,       9.75316,            0.,NA,NA,"",   911.408E+03,   924.052E+03,   924.052E+03
C:/temp/Job-18.odb,Step-1,Increment      1: Step Time =    1.000,"P-18-1",           684,       90.0728,       9.41311,            0.,NA,NA,"",   967.877E+03,   974.882E+03,   974.882E+03
C:/temp/Job-18.odb,Step-1,Increment      1: Step Time =    1.000,"P-18-1",           685,       80.4078,       9.26566,            0.,NA,NA,"",   1.05610E+06,   1.05541E+06,   1.05541E+06
C:/temp/Job-18.odb,Step-1,Increment      1: Step Time =    1.000,"P-18-1",           686,       71.0804,       9.53285,            0.,NA,NA,"",   1.15443E+06,   1.14811E+06,   1.14811E+06
C:/temp/Job-18.odb,Step-1,Increment      1: Step Time =    1.000,"P-18-1",           687,       62.1210,       11.1554,            0.,NA,NA,"",   1.25350E+06,   1.24176E+06,   1.24176E+06
C:/temp/Job-18.odb,Step-1,Increment      1: Step Time =    1.000,"P-18-1",           688,       190.855,       139.699,            0.,NA,NA,"",   937.903E+03,   1.03196E+06,   1.03196E+06
C:/temp/Job-18.odb,Step-1,Increment      1: Step Time =    1.000,"P-18-1",           689,       190.658,       129.982,            0.,NA,NA,"",   909.134E+03,   1.02730E+06,   1.02730E+06
C:/temp/Job-18.odb,Step-1,Increment      1: Step Time =    1.000,"P-18-1",           690,       190.202,       120.035,            0.,NA,NA,"",   877.271E+03,   1.00738E+06,   1.00738E+06
C:/temp/Job-18.odb,Step-1,Increment      1: Step Time =    1.000,"P-18-1",           691,       189.775,       109.913,            0.,NA,NA,"",   844.317E+03,   971.277E+03,   971.277E+03
C:/temp/Job-18.odb,Step-1,Increment      1: Step Time =    1.000,"P-18-1",           692,       190.354,       70.8887,            0.,NA,NA,"",   908.521E+03,   1.02697E+06,   1.02697E+06
C:/temp/Job-18.odb,Step-1,Increment      1: Step Time =    1.000,"P-18-1",           693,       188.623,       61.9575,            0.,NA,NA,"",   952.746E+03,   1.04173E+06,   1.04173E+06
C:/temp/Job-18.odb,Step-1,Increment      1: Step Time =    1.000,"P-18-1",           694,       60.0895,       190.371,            0.,NA,NA,"",   1.25615E+06,   1.24618E+06,   1.24618E+06
C:/temp/Job-18.odb,Step-1,Increment      1: Step Time =    1.000,"P-18-1",           695,       69.9047,       190.167,            0.,NA,NA,"",   1.17034E+06,   1.16257E+06,   1.16257E+06
C:/temp/Job-18.odb,Step-1,Increment      1: Step Time =    1.000,"P-18-1",           696,       89.7165,       189.902,            0.,NA,NA,"",   983.547E+03,   991.145E+03,   991.145E+03
C:/temp/Job-18.odb,Step-1,Increment      1: Step Time =    1.000,"P-18-1",           697,       99.7351,       189.840,            0.,NA,NA,"",   920.448E+03,   933.989E+03,   933.989E+03
C:/temp/Job-18.odb,Step-1,Increment      1: Step Time =    1.000,"P-18-1",           698,       109.713,       189.968,            0.,NA,NA,"",   898.547E+03,   911.349E+03,   911.349E+03
C:/temp/Job-18.odb,Step-1,Increment      1: Step Time =    1.000,"P-18-1",           699,       9.38928,       70.0334,            0.,NA,NA,"",   638.182E+03,   711.559E+03,   711.559E+03
C:/temp/Job-18.odb,Step-1,Increment      1: Step Time =    1.000,"P-18-1",           700,       9.21049,       79.8012,            0.,NA,NA,"",   518.719E+03,   587.460E+03,   587.460E+03
C:/temp/Job-18.odb,Step-1,Increment      1: Step Time =    1.000,"P-18-1",           701,       9.34973,       89.6622,            0.,NA,NA,"",   432.632E+03,   496.577E+03,   496.577E+03
C:/temp/Job-18.odb,Step-1,Increment      1: Step Time =    1.000,"P-18-1",           702,       9.86176,       99.6297,            0.,NA,NA,"",   397.275E+03,   458.067E+03,   458.067E+03
C:/temp/Job-18.odb,Step-1,Increment      1: Step Time =    1.000,"P-18-1",           703,       10.0227,       109.712,            0.,NA,NA,"",   427.849E+03,   491.484E+03,   491.484E+03
C:/temp/Job-18.odb,Step-1,Increment      1: Step Time =    1.000,"P-18-1",           704,       9.73678,       119.811,            0.,NA,NA,"",   517.296E+03,   586.036E+03,   586.036E+03
C:/temp/Job-18.odb,Step-1,Increment      1: Step Time =    1.000,"P-18-1",           705,       8.53972,       129.071,            0.,NA,NA,"",   624.845E+03,   698.893E+03,   698.893E+03
C:/temp/Job-18.odb,Step-1,Increment      1: Step Time =    1.000,"P-18-1",           706,       10.1549,       137.703,            0.,NA,NA,"",   741.187E+03,   817.864E+03,   817.864E+03
C:/temp/Job-18.odb,Step-1,Increment      1: Step Time =    1.000,"P-18-1",           707,       189.562,       99.6812,            0.,NA,NA,"",   831.704E+03,   953.453E+03,   953.453E+03
C:/temp/Job-18.odb,Step-1,Increment      1: Step Time =    1.000,"P-18-1",           708,       189.828,       89.7223,            0.,NA,NA,"",   846.025E+03,   973.115E+03,   973.115E+03
C:/temp/Job-18.odb,Step-1,Increment      1: Step Time =    1.000,"P-18-1",           709,       190.280,       80.0656,            0.,NA,NA,"",   875.829E+03,   1.00589E+06,   1.00589E+06
C:/temp/Job-18.odb,Step-1,Increment      1: Step Time =    1.000,"P-18-1",           710,       79.7913,       190.019,            0.,NA,NA,"",   1.07409E+06,   1.07288E+06,   1.07288E+06
C:/temp/Job-18.odb,Step-1,Increment      1: Step Time =    1.000,"P-18-1",           711,       119.576,       190.326,            0.,NA,NA,"",   913.068E+03,   919.742E+03,   919.742E+03
C:/temp/Job-18.odb,Step-1,Increment      1: Step Time =    1.000,"P-18-1",           712,       129.028,       190.297,            0.,NA,NA,"",   953.312E+03,   953.455E+03,   953.455E+03
C:/temp/Job-18.odb,Step-1,Increment      1: Step Time =    1.000,"P-18-1",           713,       138.021,       188.551,            0.,NA,NA,"",   1.01322E+06,   1.00736E+06,   1.00736E+06
C:/temp/Job-18.odb,Step-1,Increment      1: Step Time =    1.000,"P-18-1",           714,       9.18217,       60.5830,            0.,NA,NA,"",   762.315E+03,   841.734E+03,   841.734E+03
C:/temp/Job-18.odb,Step-1,Increment      1: Step Time =    1.000,"P-18-1",           715,       60.2388,       17.6157,            0.,NA,NA,"",   1.32550E+06,   1.30051E+06,   1.30051E+06
C:/temp/Job-18.odb,Step-1,Increment      1: Step Time =    1.000,"P-18-1",           716,       13.7678,       60.6146,            0.,NA,NA,"",   788.056E+03,   856.470E+03,   856.470E+03
C:/temp/Job-18.odb,Step-1,Increment      1: Step Time =    1.000,"P-18-1",           717,       182.075,       60.0161,            0.,NA,NA,"",   1.03412E+06,   1.08117E+06,   1.08117E+06
C:/temp/Job-18.odb,Step-1,Increment      1: Step Time =    1.000,"P-18-1",           718,       60.0064,       185.284,            0.,NA,NA,"",   1.29954E+06,   1.28048E+06,   1.28048E+06
C:/temp/Job-18.odb,Step-1,Increment      1: Step Time =    1.000,"P-18-1",           719,       140.051,       14.6051,            0.,NA,NA,"",   1.06244E+06,   1.05227E+06,   1.05227E+06
C:/temp/Job-18.odb,Step-1,Increment      1: Step Time =    1.000,"P-18-1",           720,       16.4505,       139.118,            0.,NA,NA,"",   795.303E+03,   857.316E+03,   857.316E+03
C:/temp/Job-18.odb,Step-1,Increment      1: Step Time =    1.000,"P-18-1",           721,       186.240,       139.544,            0.,NA,NA,"",   983.681E+03,   1.05692E+06,   1.05692E+06
C:/temp/Job-18.odb,Step-1,Increment      1: Step Time =    1.000,"P-18-1",           722,       139.911,       181.875,            0.,NA,NA,"",   1.11153E+06,   1.09748E+06,   1.09748E+06
C:/temp/Job-18.odb,Step-1,Increment      1: Step Time =    1.000,"P-18-1",           723,       143.322,       106.651,            0.,NA,NA,"",   627.855E+03,  -520.883E+03,  -520.883E+03
C:/temp/Job-18.odb,Step-1,Increment      1: Step Time =    1.000,"P-18-1",           724,       144.962,       100.176,            0.,NA,NA,"",   437.811E+03,  -372.976E+03,  -372.976E+03
C:/temp/Job-18.odb,Step-1,Increment      1: Step Time =    1.000,"P-18-1",           725,       137.904,       120.569,            0.,NA,NA,"",   1.11055E+06,   572.080E+03,   572.080E+03
C:/temp/Job-18.odb,Step-1,Increment      1: Step Time =    1.000,"P-18-1",           726,       62.0364,       121.995,            0.,NA,NA,"",   822.590E+03,   623.398E+03,   623.398E+03
C:/temp/Job-18.odb,Step-1,Increment      1: Step Time =    1.000,"P-18-1",           727,       56.9069,       118.952,            0.,NA,NA,"",   713.861E+03,   518.953E+03,   518.953E+03
C:/temp/Job-18.odb,Step-1,Increment      1: Step Time =    1.000,"P-18-1",           728,       144.886,       120.325,            0.,NA,NA,"",   1.17439E+06,   878.734E+03,   878.734E+03
C:/temp/Job-18.odb,Step-1,Increment      1: Step Time =    1.000,"P-18-1",           729,       130.070,       14.9326,            0.,NA,NA,"",   1.03787E+06,   1.03716E+06,   1.03716E+06
C:/temp/Job-18.odb,Step-1,Increment      1: Step Time =    1.000,"P-18-1",           730,       13.9536,       69.8354,            0.,NA,NA,"",   655.227E+03,   722.741E+03,   722.741E+03
C:/temp/Job-18.odb,Step-1,Increment      1: Step Time =    1.000,"P-18-1",           731,       71.7405,       14.1367,            0.,NA,NA,"",   1.20911E+06,   1.19860E+06,   1.19860E+06
C:/temp/Job-18.odb,Step-1,Increment      1: Step Time =    1.000,"P-18-1",           732,       13.0497,       132.035,            0.,NA,NA,"",   672.274E+03,   742.277E+03,   742.277E+03
C:/temp/Job-18.odb,Step-1,Increment      1: Step Time =    1.000,"P-18-1",           733,       69.8453,       185.203,            0.,NA,NA,"",   1.23403E+06,   1.22024E+06,   1.22024E+06
C:/temp/Job-18.odb,Step-1,Increment      1: Step Time =    1.000,"P-18-1",           734,       186.174,       130.007,            0.,NA,NA,"",   946.718E+03,   1.04391E+06,   1.04391E+06
C:/temp/Job-18.odb,Step-1,Increment      1: Step Time =    1.000,"P-18-1",           735,       185.904,       71.3769,            0.,NA,NA,"",   942.620E+03,   1.04164E+06,   1.04164E+06
C:/temp/Job-18.odb,Step-1,Increment      1: Step Time =    1.000,"P-18-1",           736,       128.513,       185.679,            0.,NA,NA,"",   1.02315E+06,   1.02395E+06,   1.02395E+06
C:/temp/Job-18.odb,Step-1,Increment      1: Step Time =    1.000,"P-18-1",           737,       98.1253,       54.9847,            0.,NA,NA,"",   1.96951E+06,   2.12625E+06,   2.12625E+06
C:/temp/Job-18.odb,Step-1,Increment      1: Step Time =    1.000,"P-18-1",           738,       115.023,       58.2717,            0.,NA,NA,"",   1.94628E+06,   2.06306E+06,   2.06306E+06
C:/temp/Job-18.odb,Step-1,Increment      1: Step Time =    1.000,"P-18-1",           739,       79.6236,       144.075,            0.,NA,NA,"",   1.72515E+06,   1.73936E+06,   1.73936E+06
C:/temp/Job-18.odb,Step-1,Increment      1: Step Time =    1.000,"P-18-1",           740,       75.6193,       135.834,            0.,NA,NA,"",   1.59879E+06,   1.56432E+06,   1.56432E+06
C:/temp/Job-18.odb,Step-1,Increment      1: Step Time =    1.000,"P-18-1",           741,       117.136,       143.544,            0.,NA,NA,"",   1.83451E+06,   1.93526E+06,   1.93526E+06
C:/temp/Job-18.odb,Step-1,Increment      1: Step Time =    1.000,"P-18-1",           742,       122.641,       136.355,            0.,NA,NA,"",   1.84463E+06,   1.87155E+06,   1.87155E+06
C:/temp/Job-18.odb,Step-1,Increment      1: Step Time =    1.000,"P-18-1",           743,       138.295,       90.7396,            0.,NA,NA,"",   772.416E+03,  -702.756E+03,  -702.756E+03
C:/temp/Job-18.odb,Step-1,Increment      1: Step Time =    1.000,"P-18-1",           744,       53.9102,       99.6383,            0.,NA,NA,"",   223.870E+03,  -203.063E+03,  -203.063E+03
C:/temp/Job-18.odb,Step-1,Increment      1: Step Time =    1.000,"P-18-1",           745,       57.0453,       91.1898,            0.,NA,NA,"",   392.899E+03,  -191.004E+03,  -191.004E+03
C:/temp/Job-18.odb,Step-1,Increment      1: Step Time =    1.000,"P-18-1",           746,       120.080,       15.0736,            0.,NA,NA,"",   1.00531E+06,   1.01813E+06,   1.01813E+06
C:/temp/Job-18.odb,Step-1,Increment      1: Step Time =    1.000,"P-18-1",           747,       13.4776,       79.8705,            0.,NA,NA,"",   517.594E+03,   585.094E+03,   585.094E+03
C:/temp/Job-18.odb,Step-1,Increment      1: Step Time =    1.000,"P-18-1",           748,       80.6071,       13.9536,            0.,NA,NA,"",   1.12935E+06,   1.12926E+06,   1.12926E+06
C:/temp/Job-18.odb,Step-1,Increment      1: Step Time =    1.000,"P-18-1",           749,       14.7449,       120.082,            0.,NA,NA,"",   519.530E+03,   586.196E+03,   586.196E+03
C:/temp/Job-18.odb,Step-1,Increment      1: Step Time =    1.000,"P-18-1",           750,       185.400,       120.188,            0.,NA,NA,"",   888.889E+03,   1.00423E+06,   1.00423E+06
C:/temp/Job-18.odb,Step-1,Increment      1: Step Time =    1.000,"P-18-1",           751,       79.6423,       185.001,            0.,NA,NA,"",   1.15296E+06,   1.15207E+06,   1.15207E+06
C:/temp/Job-18.odb,Step-1,Increment      1: Step Time =    1.000,"P-18-1",           752,       185.231,       79.7729,            0.,NA,NA,"",   890.131E+03,   1.00314E+06,   1.00314E+06
C:/temp/Job-18.odb,Step-1,Increment      1: Step Time =    1.000,"P-18-1",           753,       119.547,       185.384,            0.,NA,NA,"",    996.04E+03,   1.00933E+06,   1.00933E+06
C:/temp/Job-18.odb,Step-1,Increment      1: Step Time =    1.000,"P-18-1",           754,       109.928,       15.0249,            0.,NA,NA,"",   981.362E+03,   1.00556E+06,   1.00556E+06
C:/temp/Job-18.odb,Step-1,Increment      1: Step Time =    1.000,"P-18-1",           755,       13.8702,       89.2436,            0.,NA,NA,"",   424.262E+03,   487.579E+03,   487.579E+03
C:/temp/Job-18.odb,Step-1,Increment      1: Step Time =    1.000,"P-18-1",           756,       89.9966,       14.0196,            0.,NA,NA,"",   1.04649E+06,   1.06067E+06,   1.06067E+06
C:/temp/Job-18.odb,Step-1,Increment      1: Step Time =    1.000,"P-18-1",           757,       14.9310,       109.396,            0.,NA,NA,"",   412.758E+03,   474.996E+03,   474.996E+03
C:/temp/Job-18.odb,Step-1,Increment      1: Step Time =    1.000,"P-18-1",           758,       184.725,       109.989,            0.,NA,NA,"",   816.368E+03,   937.785E+03,   937.785E+03
C:/temp/Job-18.odb,Step-1,Increment      1: Step Time =    1.000,"P-18-1",           759,       89.5057,       184.844,            0.,NA,NA,"",   1.06917E+06,   1.08450E+06,   1.08450E+06
C:/temp/Job-18.odb,Step-1,Increment      1: Step Time =    1.000,"P-18-1",           760,       109.644,       184.790,            0.,NA,NA,"",   984.161E+03,   1.00966E+06,   1.00966E+06
C:/temp/Job-18.odb,Step-1,Increment      1: Step Time =    1.000,"P-18-1",           761,       184.469,       89.3180,            0.,NA,NA,"",   821.313E+03,   942.168E+03,   942.168E+03
C:/temp/Job-18.odb,Step-1,Increment      1: Step Time =    1.000,"P-18-1",           762,       94.3729,       143.702,            0.,NA,NA,"",   2.00867E+06,   2.15633E+06,   2.15633E+06
C:/temp/Job-18.odb,Step-1,Increment      1: Step Time =    1.000,"P-18-1",           763,       99.7430,       14.5339,            0.,NA,NA,"",   993.007E+03,   1.01754E+06,   1.01754E+06
C:/temp/Job-18.odb,Step-1,Increment      1: Step Time =    1.000,"P-18-1",           764,       14.9712,       99.2700,            0.,NA,NA,"",   379.588E+03,   438.250E+03,   438.250E+03
C:/temp/Job-18.odb,Step-1,Increment      1: Step Time =    1.000,"P-18-1",           765,       99.5724,       184.675,            0.,NA,NA,"",   1.00689E+06,   1.03333E+06,   1.03333E+06
C:/temp/Job-18.odb,Step-1,Increment      1: Step Time =    1.000,"P-18-1",           766,       184.138,       99.4804,            0.,NA,NA,"",   784.639E+03,   904.620E+03,   904.620E+03
C:/temp/Job-18.odb,Step-1,Increment      1: Step Time =    1.000,"P-18-1",           767,       57.2769,       123.002,            0.,NA,NA,"",   880.793E+03,   699.635E+03,   699.635E+03
C:/temp/Job-18.odb,Step-1,Increment      1: Step Time =    1.000,"P-18-1",           768,       14.0252,       65.1254,            0.,NA,NA,"",   721.962E+03,   790.029E+03,   790.029E+03
C:/temp/Job-18.odb,Step-1,Increment      1: Step Time =    1.000,"P-18-1",           769,       63.9061,       16.0617,            0.,NA,NA,"",   1.28924E+06,   1.26952E+06,   1.26952E+06
C:/temp/Job-18.odb,Step-1,Increment      1: Step Time =    1.000,"P-18-1",           770,       183.808,       63.6896,            0.,NA,NA,"",   995.862E+03,   1.06436E+06,   1.06436E+06
C:/temp/Job-18.odb,Step-1,Increment      1: Step Time =    1.000,"P-18-1",           771,       64.9110,       185.235,            0.,NA,NA,"",   1.26953E+06,   1.25196E+06,   1.25196E+06
C:/temp/Job-18.odb,Step-1,Increment      1: Step Time =    1.000,"P-18-1",           772,       135.049,       14.8166,            0.,NA,NA,"",   1.05253E+06,   1.04626E+06,   1.04626E+06
C:/temp/Job-18.odb,Step-1,Increment      1: Step Time =    1.000,"P-18-1",           773,       18.6416,       133.155,            0.,NA,NA,"",   716.853E+03,   774.995E+03,   774.995E+03
C:/temp/Job-18.odb,Step-1,Increment      1: Step Time =    1.000,"P-18-1",           774,       186.270,       134.798,            0.,NA,NA,"",   968.299E+03,   1.05367E+06,   1.05367E+06
C:/temp/Job-18.odb,Step-1,Increment      1: Step Time =    1.000,"P-18-1",           775,       136.298,       183.611,            0.,NA,NA,"",   1.07713E+06,   1.06884E+06,   1.06884E+06
C:/temp/Job-18.odb,Step-1,Increment      1: Step Time =    1.000,"P-18-1",           776,       14.7480,       75.2151,            0.,NA,NA,"",   577.273E+03,   643.862E+03,   643.862E+03
C:/temp/Job-18.odb,Step-1,Increment      1: Step Time =    1.000,"P-18-1",           777,       76.1180,       14.0389,            0.,NA,NA,"",   1.17033E+06,   1.16428E+06,   1.16428E+06
C:/temp/Job-18.odb,Step-1,Increment      1: Step Time =    1.000,"P-18-1",           778,       14.2623,       125.476,            0.,NA,NA,"",   589.391E+03,   657.078E+03,   657.078E+03
C:/temp/Job-18.odb,Step-1,Increment      1: Step Time =    1.000,"P-18-1",           779,       125.036,       15.0224,            0.,NA,NA,"",   1.02173E+06,   1.02764E+06,   1.02764E+06
C:/temp/Job-18.odb,Step-1,Increment      1: Step Time =    1.000,"P-18-1",           780,       185.896,       125.148,            0.,NA,NA,"",   919.128E+03,   1.02661E+06,   1.02661E+06
C:/temp/Job-18.odb,Step-1,Increment      1: Step Time =    1.000,"P-18-1",           781,       74.7536,       185.116,            0.,NA,NA,"",   1.19471E+06,   1.18665E+06,   1.18665E+06
C:/temp/Job-18.odb,Step-1,Increment      1: Step Time =    1.000,"P-18-1",           782,       185.548,       75.3600,            0.,NA,NA,"",   920.719E+03,   1.02706E+06,   1.02706E+06
C:/temp/Job-18.odb,Step-1,Increment      1: Step Time =    1.000,"P-18-1",           783,       124.189,       185.627,            0.,NA,NA,"",   1.00837E+06,   1.01462E+06,   1.01462E+06
C:/temp/Job-18.odb,Step-1,Increment      1: Step Time =    1.000,"P-18-1",           784,       110.762,       52.6757,            0.,NA,NA,"",   1.73369E+06,   1.87691E+06,   1.87691E+06
C:/temp/Job-18.odb,Step-1,Increment      1: Step Time =    1.000,"P-18-1",           785,       60.4528,       103.387,            0.,NA,NA,"",   538.355E+03,  -548.837E+03,  -548.837E+03
C:/temp/Job-18.odb,Step-1,Increment      1: Step Time =    1.000,"P-18-1",           786,       87.8430,       144.285,            0.,NA,NA,"",   1.85127E+06,   1.95281E+06,   1.95281E+06
C:/temp/Job-18.odb,Step-1,Increment      1: Step Time =    1.000,"P-18-1",           787,       76.0052,       140.943,            0.,NA,NA,"",   1.68753E+06,   1.66063E+06,   1.66063E+06
C:/temp/Job-18.odb,Step-1,Increment      1: Step Time =    1.000,"P-18-1",           788,       121.741,       141.943,            0.,NA,NA,"",   1.77872E+06,   1.82206E+06,   1.82206E+06
C:/temp/Job-18.odb,Step-1,Increment      1: Step Time =    1.000,"P-18-1",           789,       144.992,       90.6465,            0.,NA,NA,"",   665.594E+03,  -39.4737E+03,  -39.4737E+03
C:/temp/Job-18.odb,Step-1,Increment      1: Step Time =    1.000,"P-18-1",           790,       52.2994,       90.8905,            0.,NA,NA,"",   354.455E+03,   135.296E+03,   135.296E+03
C:/temp/Job-18.odb,Step-1,Increment      1: Step Time =    1.000,"P-18-1",           791,       85.2166,       13.8649,            0.,NA,NA,"",   1.08581E+06,   1.09334E+06,   1.09334E+06
C:/temp/Job-18.odb,Step-1,Increment      1: Step Time =    1.000,"P-18-1",           792,       15.6629,       114.727,            0.,NA,NA,"",   457.734E+03,   522.148E+03,   522.148E+03
C:/temp/Job-18.odb,Step-1,Increment      1: Step Time =    1.000,"P-18-1",           793,       115.020,       15.0902,            0.,NA,NA,"",   990.223E+03,   1.00973E+06,   1.00973E+06
C:/temp/Job-18.odb,Step-1,Increment      1: Step Time =    1.000,"P-18-1",           794,       13.5515,       84.4651,            0.,NA,NA,"",   469.123E+03,   535.008E+03,   535.008E+03
C:/temp/Job-18.odb,Step-1,Increment      1: Step Time =    1.000,"P-18-1",           795,       184.855,       84.5211,            0.,NA,NA,"",   854.182E+03,   972.751E+03,   972.751E+03
C:/temp/Job-18.odb,Step-1,Increment      1: Step Time =    1.000,"P-18-1",           796,       114.649,       185.038,            0.,NA,NA,"",   986.372E+03,   1.00678E+06,   1.00678E+06
C:/temp/Job-18.odb,Step-1,Increment      1: Step Time =    1.000,"P-18-1",           797,       185.012,       115.144,            0.,NA,NA,"",   854.327E+03,   974.438E+03,   974.438E+03
C:/temp/Job-18.odb,Step-1,Increment      1: Step Time =    1.000,"P-18-1",           798,       84.5416,       184.918,            0.,NA,NA,"",   1.11037E+06,   1.11752E+06,   1.11752E+06
C:/temp/Job-18.odb,Step-1,Increment      1: Step Time =    1.000,"P-18-1",           799,       99.9519,       143.241,            0.,NA,NA,"",   2.11186E+06,   2.27551E+06,   2.27551E+06
C:/temp/Job-18.odb,Step-1,Increment      1: Step Time =    1.000,"P-18-1",           800,       94.8130,       14.2570,            0.,NA,NA,"",   1.01535E+06,   1.03520E+06,   1.03520E+06
C:/temp/Job-18.odb,Step-1,Increment      1: Step Time =    1.000,"P-18-1",           801,       14.9604,       104.376,            0.,NA,NA,"",   387.075E+03,   446.721E+03,   446.721E+03
C:/temp/Job-18.odb,Step-1,Increment      1: Step Time =    1.000,"P-18-1",           802,       104.583,       184.634,            0.,NA,NA,"",   991.342E+03,   1.01872E+06,   1.01872E+06
C:/temp/Job-18.odb,Step-1,Increment      1: Step Time =    1.000,"P-18-1",           803,       184.193,       94.2934,            0.,NA,NA,"",   795.108E+03,   915.587E+03,   915.587E+03
C:/temp/Job-18.odb,Step-1,Increment      1: Step Time =    1.000,"P-18-1",           804,       104.803,       14.8335,            0.,NA,NA,"",   981.909E+03,   1.00785E+06,   1.00785E+06
C:/temp/Job-18.odb,Step-1,Increment      1: Step Time =    1.000,"P-18-1",           805,       14.4170,       94.1889,            0.,NA,NA,"",   392.534E+03,   452.843E+03,   452.843E+03
C:/temp/Job-18.odb,Step-1,Increment      1: Step Time =    1.000,"P-18-1",           806,       94.5244,       184.764,            0.,NA,NA,"",   1.03296E+06,   1.05532E+06,   1.05532E+06
C:/temp/Job-18.odb,Step-1,Increment      1: Step Time =    1.000,"P-18-1",           807,       184.345,       104.759,            0.,NA,NA,"",   791.212E+03,   911.821E+03,   911.821E+03
C:/temp/Job-18.odb,Step-1,Increment      1: Step Time =    1.000,"P-18-1",           808,       146.956,       110.837,            0.,NA,NA,"",   713.049E+03,   93.2345E+03,   93.2345E+03
C:/temp/Job-18.odb,Step-1,Increment      1: Step Time =    1.000,"P-18-1",           809,       132.344,       70.1291,            0.,NA,NA,"",   1.52381E+06,   1.36381E+06,   1.36381E+06
C:/temp/Job-18.odb,Step-1,Increment      1: Step Time =    1.000,"P-18-1",           810,       69.6775,       68.7369,            0.,NA,NA,"",   1.29413E+06,   1.18866E+06,   1.18866E+06
C:/temp/Job-18.odb,Step-1,Increment      1: Step Time =    1.000,"P-18-1",           811,       138.543,       77.8803,            0.,NA,NA,"",   1.21028E+06,   902.051E+03,   902.051E+03
C:/temp/Job-18.odb,Step-1,Increment      1: Step Time =    1.000,"P-18-1",           812,       63.0351,       77.7717,            0.,NA,NA,"",   788.039E+03,   454.618E+03,   454.618E+03
C:/temp/Job-18.odb,Step-1,Increment      1: Step Time =    1.000,"P-18-1",           813,       149.573,       98.1494,            0.,NA,NA,"",   392.419E+03,   28.9418E+03,   28.9418E+03
C:/temp/Job-18.odb,Step-1,Increment      1: Step Time =    1.000,"P-18-1",           814,       142.622,       123.917,            0.,NA,NA,"",   1.32554E+06,   1.03554E+06,   1.03554E+06
C:/temp/Job-18.odb,Step-1,Increment      1: Step Time =    1.000,"P-18-1",           815,       85.5829,       56.5142,            0.,NA,NA,"",   1.82100E+06,   1.90493E+06,   1.90493E+06
C:/temp/Job-18.odb,Step-1,Increment      1: Step Time =    1.000,"P-18-1",           816,       120.311,       58.6106,            0.,NA,NA,"",   1.82289E+06,   1.88794E+06,   1.88794E+06
C:/temp/Job-18.odb,Step-1,Increment      1: Step Time =    1.000,"P-18-1",           817,       48.5908,       101.011,            0.,NA,NA,"",   164.495E+03,   35.3510E+03,   35.3510E+03
C:/temp/Job-18.odb,Step-1,Increment      1: Step Time =    1.000,"P-18-1",           818,       104.232,       56.4465,            0.,NA,NA,"",   2.05559E+06,   2.21978E+06,   2.21978E+06
C:/temp/Job-18.odb,Step-1,Increment      1: Step Time =    1.000,"P-18-1",           819,       9.24352,       165.184,            0.,NA,NA,"",   1.08918E+06,   1.18499E+06,   1.18499E+06
C:/temp/Job-18.odb,Step-1,Increment      1: Step Time =    1.000,"P-18-1",           820,       164.449,       10.4190,            0.,NA,NA,"",   1.03029E+06,   1.02591E+06,   1.02591E+06
C:/temp/Job-18.odb,Step-1,Increment      1: Step Time =    1.000,"P-18-1",           821,       34.8096,       9.12445,            0.,NA,NA,"",   1.41771E+06,   1.41412E+06,   1.41412E+06
C:/temp/Job-18.odb,Step-1,Increment      1: Step Time =    1.000,"P-18-1",           822,       10.0922,       39.2557,            0.,NA,NA,"",   1.03867E+06,   1.12921E+06,   1.12921E+06
C:/temp/Job-18.odb,Step-1,Increment      1: Step Time =    1.000,"P-18-1",           823,       189.538,       164.462,            0.,NA,NA,"",   1.00020E+06,   1.02433E+06,   1.02433E+06
C:/temp/Job-18.odb,Step-1,Increment      1: Step Time =    1.000,"P-18-1",           824,       161.333,       190.931,            0.,NA,NA,"",   1.02359E+06,   1.01970E+06,   1.01970E+06
C:/temp/Job-18.odb,Step-1,Increment      1: Step Time =    1.000,"P-18-1",           825,       35.4170,       190.012,            0.,NA,NA,"",   1.41424E+06,   1.40996E+06,   1.40996E+06
C:/temp/Job-18.odb,Step-1,Increment      1: Step Time =    1.000,"P-18-1",           826,       190.943,       38.6750,            0.,NA,NA,"",   987.855E+03,   1.02051E+06,   1.02051E+06
C:/temp/Job-18.odb,Step-1,Increment      1: Step Time =    1.000,"P-18-1",           827,       66.8088,       137.189,            0.,NA,NA,"",   1.45542E+06,   1.33554E+06,   1.33554E+06
C:/temp/Job-18.odb,Step-1,Increment      1: Step Time =    1.000,"P-18-1",           828,       131.711,       136.661,            0.,NA,NA,"",   1.69972E+06,   1.58626E+06,   1.58626E+06
C:/temp/Job-18.odb,Step-1,Increment      1: Step Time =    1.000,"P-18-1",           829,       109.684,       20.0539,            0.,NA,NA,"",   1.05414E+06,   1.09343E+06,   1.09343E+06
C:/temp/Job-18.odb,Step-1,Increment      1: Step Time =    1.000,"P-18-1",           830,       18.1424,       88.5154,            0.,NA,NA,"",   419.824E+03,   481.470E+03,   481.470E+03
C:/temp/Job-18.odb,Step-1,Increment      1: Step Time =    1.000,"P-18-1",           831,       89.2131,       179.813,            0.,NA,NA,"",   1.14456E+06,   1.16945E+06,   1.16945E+06
C:/temp/Job-18.odb,Step-1,Increment      1: Step Time =    1.000,"P-18-1",           832,       179.917,       110.232,            0.,NA,NA,"",   792.482E+03,   897.613E+03,   897.613E+03
C:/temp/Job-18.odb,Step-1,Increment      1: Step Time =    1.000,"P-18-1",           833,       99.3289,       19.1607,            0.,NA,NA,"",   1.06243E+06,   1.10080E+06,   1.10080E+06
C:/temp/Job-18.odb,Step-1,Increment      1: Step Time =    1.000,"P-18-1",           834,       20.5998,       98.7341,            0.,NA,NA,"",   356.032E+03,   411.017E+03,   411.017E+03
C:/temp/Job-18.odb,Step-1,Increment      1: Step Time =    1.000,"P-18-1",           835,       99.3153,       179.444,            0.,NA,NA,"",   1.08205E+06,   1.12442E+06,   1.12442E+06
C:/temp/Job-18.odb,Step-1,Increment      1: Step Time =    1.000,"P-18-1",           836,       178.515,       99.3535,            0.,NA,NA,"",   730.865E+03,   837.356E+03,   837.356E+03
C:/temp/Job-18.odb,Step-1,Increment      1: Step Time =    1.000,"P-18-1",           837,       149.076,       87.6941,            0.,NA,NA,"",    770.01E+03,   538.461E+03,   538.461E+03
C:/temp/Job-18.odb,Step-1,Increment      1: Step Time =    1.000,"P-18-1",           838,       13.8496,       165.361,            0.,NA,NA,"",   1.13723E+06,   1.21259E+06,   1.21259E+06
C:/temp/Job-18.odb,Step-1,Increment      1: Step Time =    1.000,"P-18-1",           839,       164.627,       15.4382,            0.,NA,NA,"",   1.06032E+06,   1.05163E+06,   1.05163E+06
C:/temp/Job-18.odb,Step-1,Increment      1: Step Time =    1.000,"P-18-1",           840,       34.6899,       13.5856,            0.,NA,NA,"",   1.41144E+06,   1.40503E+06,   1.40503E+06
C:/temp/Job-18.odb,Step-1,Increment      1: Step Time =    1.000,"P-18-1",           841,       14.6944,       38.3995,            0.,NA,NA,"",   1.09462E+06,   1.16497E+06,   1.16497E+06
C:/temp/Job-18.odb,Step-1,Increment      1: Step Time =    1.000,"P-18-1",           842,       184.511,       164.667,            0.,NA,NA,"",   1.03019E+06,   1.04672E+06,   1.04672E+06
C:/temp/Job-18.odb,Step-1,Increment      1: Step Time =    1.000,"P-18-1",           843,       162.124,       186.857,            0.,NA,NA,"",   1.04952E+06,   1.04192E+06,   1.04192E+06
C:/temp/Job-18.odb,Step-1,Increment      1: Step Time =    1.000,"P-18-1",           844,       35.1473,       185.321,            0.,NA,NA,"",   1.40618E+06,   1.39912E+06,   1.39912E+06
C:/temp/Job-18.odb,Step-1,Increment      1: Step Time =    1.000,"P-18-1",           845,       186.884,       37.8871,            0.,NA,NA,"",   1.01294E+06,   1.03808E+06,   1.03808E+06
C:/temp/Job-18.odb,Step-1,Increment      1: Step Time =    1.000,"P-18-1",           846,       55.5732,       107.695,            0.,NA,NA,"",   356.959E+03,  -275.710E+03,  -275.710E+03
C:/temp/Job-18.odb,Step-1,Increment      1: Step Time =    1.000,"P-18-1",           847,       57.3922,       86.6555,            0.,NA,NA,"",   510.301E+03,  -18.0570E+03,  -18.0570E+03
C:/temp/Job-18.odb,Step-1,Increment      1: Step Time =    1.000,"P-18-1",           848,       47.7696,       90.6544,            0.,NA,NA,"",   351.738E+03,   288.937E+03,   288.937E+03
C:/temp/Job-18.odb,Step-1,Increment      1: Step Time =    1.000,"P-18-1",           849,       17.6824,       60.6236,            0.,NA,NA,"",   810.260E+03,   869.086E+03,   869.086E+03
C:/temp/Job-18.odb,Step-1,Increment      1: Step Time =    1.000,"P-18-1",           850,       62.0672,       21.4073,            0.,NA,NA,"",   1.34993E+06,   1.31888E+06,   1.31888E+06
C:/temp/Job-18.odb,Step-1,Increment      1: Step Time =    1.000,"P-18-1",           851,       59.9319,       180.065,            0.,NA,NA,"",   1.34470E+06,   1.31555E+06,   1.31555E+06
C:/temp/Job-18.odb,Step-1,Increment      1: Step Time =    1.000,"P-18-1",           852,       178.548,       61.8230,            0.,NA,NA,"",   1.06920E+06,   1.09776E+06,   1.09776E+06
C:/temp/Job-18.odb,Step-1,Increment      1: Step Time =    1.000,"P-18-1",           853,       140.119,       19.5174,            0.,NA,NA,"",   1.13155E+06,   1.11521E+06,   1.11521E+06
C:/temp/Job-18.odb,Step-1,Increment      1: Step Time =    1.000,"P-18-1",           854,       20.6493,       136.538,            0.,NA,NA,"",   782.805E+03,   833.305E+03,   833.305E+03
C:/temp/Job-18.odb,Step-1,Increment      1: Step Time =    1.000,"P-18-1",           855,       181.600,       139.295,            0.,NA,NA,"",   1.03731E+06,   1.08394E+06,   1.08394E+06
C:/temp/Job-18.odb,Step-1,Increment      1: Step Time =    1.000,"P-18-1",           856,       138.100,       178.125,            0.,NA,NA,"",   1.15874E+06,   1.14208E+06,   1.14208E+06
C:/temp/Job-18.odb,Step-1,Increment      1: Step Time =    1.000,"P-18-1",           857,       17.7361,       69.3356,            0.,NA,NA,"",   674.280E+03,   735.790E+03,   735.790E+03
C:/temp/Job-18.odb,Step-1,Increment      1: Step Time =    1.000,"P-18-1",           858,       68.6495,       18.2601,            0.,NA,NA,"",   1.28331E+06,   1.26407E+06,   1.26407E+06
C:/temp/Job-18.odb,Step-1,Increment      1: Step Time =    1.000,"P-18-1",           859,       181.306,       68.5845,            0.,NA,NA,"",   995.277E+03,   1.06205E+06,   1.06205E+06
C:/temp/Job-18.odb,Step-1,Increment      1: Step Time =    1.000,"P-18-1",           860,       181.990,       129.994,            0.,NA,NA,"",   986.552E+03,   1.05793E+06,   1.05793E+06
C:/temp/Job-18.odb,Step-1,Increment      1: Step Time =    1.000,"P-18-1",           861,       131.624,       181.556,            0.,NA,NA,"",   1.09321E+06,   1.08960E+06,   1.08960E+06
C:/temp/Job-18.odb,Step-1,Increment      1: Step Time =    1.000,"P-18-1",           862,       129.981,       20.0158,            0.,NA,NA,"",   1.11578E+06,   1.11552E+06,   1.11552E+06
C:/temp/Job-18.odb,Step-1,Increment      1: Step Time =    1.000,"P-18-1",           863,       16.5046,       129.803,            0.,NA,NA,"",   655.593E+03,   719.175E+03,   719.175E+03
C:/temp/Job-18.odb,Step-1,Increment      1: Step Time =    1.000,"P-18-1",           864,       69.8176,       180.215,            0.,NA,NA,"",   1.29702E+06,   1.27682E+06,   1.27682E+06
C:/temp/Job-18.odb,Step-1,Increment      1: Step Time =    1.000,"P-18-1",           865,       107.494,       47.2549,            0.,NA,NA,"",   1.52562E+06,   1.66585E+06,   1.66585E+06
C:/temp/Job-18.odb,Step-1,Increment      1: Step Time =    1.000,"P-18-1",           866,       141.355,       87.4916,            0.,NA,NA,"",   788.127E+03,  -61.1574E+03,  -61.1574E+03
C:/temp/Job-18.odb,Step-1,Increment      1: Step Time =    1.000,"P-18-1",           867,       89.2783,       137.631,            0.,NA,NA,"",   2.32375E+06,   2.41656E+06,   2.41656E+06
C:/temp/Job-18.odb,Step-1,Increment      1: Step Time =    1.000,"P-18-1",           868,       119.998,       20.2523,            0.,NA,NA,"",   1.08268E+06,   1.10353E+06,   1.10353E+06
C:/temp/Job-18.odb,Step-1,Increment      1: Step Time =    1.000,"P-18-1",           869,       20.3613,       116.583,            0.,NA,NA,"",   472.477E+03,   534.024E+03,   534.024E+03
C:/temp/Job-18.odb,Step-1,Increment      1: Step Time =    1.000,"P-18-1",           870,       180.691,       120.555,            0.,NA,NA,"",   907.260E+03,   997.284E+03,   997.284E+03
C:/temp/Job-18.odb,Step-1,Increment      1: Step Time =    1.000,"P-18-1",           871,       79.4537,       179.955,            0.,NA,NA,"",   1.22671E+06,   1.22717E+06,   1.22717E+06
C:/temp/Job-18.odb,Step-1,Increment      1: Step Time =    1.000,"P-18-1",           872,       19.4097,       109.018,            0.,NA,NA,"",   399.779E+03,   459.843E+03,   459.843E+03
C:/temp/Job-18.odb,Step-1,Increment      1: Step Time =    1.000,"P-18-1",           873,       150.411,       108.375,            0.,NA,NA,"",   589.335E+03,   254.824E+03,   254.824E+03
C:/temp/Job-18.odb,Step-1,Increment      1: Step Time =    1.000,"P-18-1",           874,       73.9973,       65.7886,            0.,NA,NA,"",   1.49002E+06,   1.43888E+06,   1.43888E+06
C:/temp/Job-18.odb,Step-1,Increment      1: Step Time =    1.000,"P-18-1",           875,       141.684,       81.1650,            0.,NA,NA,"",   1.08075E+06,   746.698E+03,   746.698E+03
C:/temp/Job-18.odb,Step-1,Increment      1: Step Time =    1.000,"P-18-1",           876,       57.5057,       81.7349,            0.,NA,NA,"",   680.258E+03,   311.988E+03,   311.988E+03
C:/temp/Job-18.odb,Step-1,Increment      1: Step Time =    1.000,"P-18-1",           877,       151.551,       102.231,            0.,NA,NA,"",   387.989E+03,   193.006E+03,   193.006E+03
C:/temp/Job-18.odb,Step-1,Increment      1: Step Time =    1.000,"P-18-1",           878,       81.7030,       59.3105,            0.,NA,NA,"",   1.79448E+06,   1.83631E+06,   1.83631E+06
C:/temp/Job-18.odb,Step-1,Increment      1: Step Time =    1.000,"P-18-1",           879,       124.973,       62.8960,            0.,NA,NA,"",   1.76798E+06,   1.76487E+06,   1.76487E+06
C:/temp/Job-18.odb,Step-1,Increment      1: Step Time =    1.000,"P-18-1",           880,       148.420,       123.414,            0.,NA,NA,"",   1.26586E+06,   1.01910E+06,   1.01910E+06
C:/temp/Job-18.odb,Step-1,Increment      1: Step Time =    1.000,"P-18-1",           881,       46.5225,       95.8360,            0.,NA,NA,"",   214.106E+03,   157.275E+03,   157.275E+03
C:/temp/Job-18.odb,Step-1,Increment      1: Step Time =    1.000,"P-18-1",           882,       65.7318,       142.139,            0.,NA,NA,"",   1.53501E+06,   1.42373E+06,   1.42373E+06
C:/temp/Job-18.odb,Step-1,Increment      1: Step Time =    1.000,"P-18-1",           883,       67.4852,       131.784,            0.,NA,NA,"",   1.27181E+06,   1.14466E+06,   1.14466E+06
C:/temp/Job-18.odb,Step-1,Increment      1: Step Time =    1.000,"P-18-1",           884,       132.784,       141.111,            0.,NA,NA,"",   1.69973E+06,   1.59328E+06,   1.59328E+06
C:/temp/Job-18.odb,Step-1,Increment      1: Step Time =    1.000,"P-18-1",           885,       135.492,       131.538,            0.,NA,NA,"",   1.56024E+06,   1.36452E+06,   1.36452E+06
C:/temp/Job-18.odb,Step-1,Increment      1: Step Time =    1.000,"P-18-1",           886,       57.4589,       127.387,            0.,NA,NA,"",   1.03773E+06,   871.030E+03,   871.030E+03
C:/temp/Job-18.odb,Step-1,Increment      1: Step Time =    1.000,"P-18-1",           887,       140.986,       128.337,            0.,NA,NA,"",   1.46387E+06,   1.20176E+06,   1.20176E+06
C:/temp/Job-18.odb,Step-1,Increment      1: Step Time =    1.000,"P-18-1",           888,       105.165,       142.816,            0.,NA,NA,"",   2.11720E+06,   2.27960E+06,   2.27960E+06
C:/temp/Job-18.odb,Step-1,Increment      1: Step Time =    1.000,"P-18-1",           889,       57.5778,       76.3618,            0.,NA,NA,"",   892.315E+03,   708.449E+03,   708.449E+03
C:/temp/Job-18.odb,Step-1,Increment      1: Step Time =    1.000,"P-18-1",           890,       142.349,       74.9399,            0.,NA,NA,"",   1.36335E+06,   1.07838E+06,   1.07838E+06
C:/temp/Job-18.odb,Step-1,Increment      1: Step Time =    1.000,"P-18-1",           891,       89.7705,       53.4328,            0.,NA,NA,"",   1.78588E+06,    1.9034E+06,    1.9034E+06
C:/temp/Job-18.odb,Step-1,Increment      1: Step Time =    1.000,"P-18-1",           892,       135.414,       74.1909,            0.,NA,NA,"",   1.34922E+06,   1.10758E+06,   1.10758E+06
C:/temp/Job-18.odb,Step-1,Increment      1: Step Time =    1.000,"P-18-1",           893,       43.8319,       103.197,            0.,NA,NA,"",   204.509E+03,   213.505E+03,   213.505E+03
C:/temp/Job-18.odb,Step-1,Increment      1: Step Time =    1.000,"P-18-1",           894,       120.896,       53.0943,            0.,NA,NA,"",   1.68381E+06,   1.74164E+06,   1.74164E+06
C:/temp/Job-18.odb,Step-1,Increment      1: Step Time =    1.000,"P-18-1",           895,       135.021,       63.8598,            0.,NA,NA,"",   1.66216E+06,   1.50067E+06,   1.50067E+06
C:/temp/Job-18.odb,Step-1,Increment      1: Step Time =    1.000,"P-18-1",           896,       67.5900,       64.2373,            0.,NA,NA,"",   1.44920E+06,   1.32795E+06,   1.32795E+06
C:/temp/Job-18.odb,Step-1,Increment      1: Step Time =    1.000,"P-18-1",           897,       89.1698,       22.9988,            0.,NA,NA,"",   1.18117E+06,   1.21153E+06,   1.21153E+06
C:/temp/Job-18.odb,Step-1,Increment      1: Step Time =    1.000,"P-18-1",           898,       23.7026,       109.797,            0.,NA,NA,"",   396.852E+03,   454.604E+03,   454.604E+03
C:/temp/Job-18.odb,Step-1,Increment      1: Step Time =    1.000,"P-18-1",           899,       109.919,       174.340,            0.,NA,NA,"",   1.13012E+06,   1.18812E+06,   1.18812E+06
C:/temp/Job-18.odb,Step-1,Increment      1: Step Time =    1.000,"P-18-1",           900,       178.805,       88.6025,            0.,NA,NA,"",   803.562E+03,   903.273E+03,   903.273E+03
C:/temp/Job-18.odb,Step-1,Increment      1: Step Time =    1.000,"P-18-1",           901,       119.856,       25.7075,            0.,NA,NA,"",   1.16161E+06,   1.19252E+06,   1.19252E+06
C:/temp/Job-18.odb,Step-1,Increment      1: Step Time =    1.000,"P-18-1",           902,       22.5168,       77.7766,            0.,NA,NA,"",   559.939E+03,   615.079E+03,   615.079E+03
C:/temp/Job-18.odb,Step-1,Increment      1: Step Time =    1.000,"P-18-1",           903,       82.0183,       24.4289,            0.,NA,NA,"",   1.26395E+06,   1.27468E+06,   1.27468E+06
C:/temp/Job-18.odb,Step-1,Increment      1: Step Time =    1.000,"P-18-1",           904,       24.2694,       120.419,            0.,NA,NA,"",   540.571E+03,   592.711E+03,   592.711E+03
C:/temp/Job-18.odb,Step-1,Increment      1: Step Time =    1.000,"P-18-1",           905,       176.185,       121.474,            0.,NA,NA,"",   940.295E+03,   997.438E+03,   997.438E+03
C:/temp/Job-18.odb,Step-1,Increment      1: Step Time =    1.000,"P-18-1",           906,       79.2318,       174.912,            0.,NA,NA,"",   1.29983E+06,   1.30177E+06,   1.30177E+06
C:/temp/Job-18.odb,Step-1,Increment      1: Step Time =    1.000,"P-18-1",           907,       176.206,       79.0544,            0.,NA,NA,"",   936.686E+03,   994.719E+03,   994.719E+03
C:/temp/Job-18.odb,Step-1,Increment      1: Step Time =    1.000,"P-18-1",           908,       120.462,       175.561,            0.,NA,NA,"",   1.14670E+06,   1.17285E+06,   1.17285E+06
C:/temp/Job-18.odb,Step-1,Increment      1: Step Time =    1.000,"P-18-1",           909,       98.7575,       174.300,            0.,NA,NA,"",   1.15152E+06,   1.21054E+06,   1.21054E+06
C:/temp/Job-18.odb,Step-1,Increment      1: Step Time =    1.000,"P-18-1",           910,       172.654,       99.2495,            0.,NA,NA,"",   666.314E+03,   751.813E+03,   751.813E+03
C:/temp/Job-18.odb,Step-1,Increment      1: Step Time =    1.000,"P-18-1",           911,       98.7548,       23.3039,            0.,NA,NA,"",   1.11793E+06,   1.16876E+06,   1.16876E+06
C:/temp/Job-18.odb,Step-1,Increment      1: Step Time =    1.000,"P-18-1",           912,       25.2848,       100.940,            0.,NA,NA,"",   329.861E+03,   380.715E+03,   380.715E+03
C:/temp/Job-18.odb,Step-1,Increment      1: Step Time =    1.000,"P-18-1",           913,       139.665,       23.6214,            0.,NA,NA,"",   1.18252E+06,   1.16138E+06,   1.16138E+06
C:/temp/Job-18.odb,Step-1,Increment      1: Step Time =    1.000,"P-18-1",           914,       26.6951,       137.677,            0.,NA,NA,"",   855.648E+03,   882.230E+03,   882.230E+03
C:/temp/Job-18.odb,Step-1,Increment      1: Step Time =    1.000,"P-18-1",           915,       23.8758,       61.0640,            0.,NA,NA,"",   853.132E+03,   890.171E+03,   890.171E+03
C:/temp/Job-18.odb,Step-1,Increment      1: Step Time =    1.000,"P-18-1",           916,       59.5075,       25.2011,            0.,NA,NA,"",   1.38798E+06,   1.34791E+06,   1.34791E+06
C:/temp/Job-18.odb,Step-1,Increment      1: Step Time =    1.000,"P-18-1",           917,       60.4613,       174.814,            0.,NA,NA,"",   1.38805E+06,   1.34842E+06,   1.34842E+06
C:/temp/Job-18.odb,Step-1,Increment      1: Step Time =    1.000,"P-18-1",           918,       177.021,       138.788,            0.,NA,NA,"",   1.09100E+06,   1.10889E+06,   1.10889E+06
C:/temp/Job-18.odb,Step-1,Increment      1: Step Time =    1.000,"P-18-1",           919,       140.773,       173.916,            0.,NA,NA,"",   1.21515E+06,   1.18844E+06,   1.18844E+06
C:/temp/Job-18.odb,Step-1,Increment      1: Step Time =    1.000,"P-18-1",           920,       174.434,       59.4099,            0.,NA,NA,"",   1.12904E+06,   1.12708E+06,   1.12708E+06
C:/temp/Job-18.odb,Step-1,Increment      1: Step Time =    1.000,"P-18-1",           921,       22.9692,       129.849,            0.,NA,NA,"",   686.292E+03,   735.019E+03,   735.019E+03
C:/temp/Job-18.odb,Step-1,Increment      1: Step Time =    1.000,"P-18-1",           922,       71.2274,       23.0804,            0.,NA,NA,"",   1.32760E+06,   1.30660E+06,   1.30660E+06
C:/temp/Job-18.odb,Step-1,Increment      1: Step Time =    1.000,"P-18-1",           923,       129.504,       176.687,            0.,NA,NA,"",   1.16265E+06,   1.16291E+06,   1.16291E+06
C:/temp/Job-18.odb,Step-1,Increment      1: Step Time =    1.000,"P-18-1",           924,       178.188,       69.7130,            0.,NA,NA,"",   1.02529E+06,   1.06855E+06,   1.06855E+06
C:/temp/Job-18.odb,Step-1,Increment      1: Step Time =    1.000,"P-18-1",           925,       110.523,       142.868,            0.,NA,NA,"",   1.99300E+06,   2.13666E+06,   2.13666E+06
C:/temp/Job-18.odb,Step-1,Increment      1: Step Time =    1.000,"P-18-1",           926,       86.7345,       49.2102,            0.,NA,NA,"",   1.63566E+06,   1.71794E+06,   1.71794E+06
C:/temp/Job-18.odb,Step-1,Increment      1: Step Time =    1.000,"P-18-1",           927,       153.273,       91.6238,            0.,NA,NA,"",   596.060E+03,   484.484E+03,   484.484E+03
C:/temp/Job-18.odb,Step-1,Increment      1: Step Time =    1.000,"P-18-1",           928,       13.8307,       169.713,            0.,NA,NA,"",   1.19282E+06,   1.26812E+06,   1.26812E+06
C:/temp/Job-18.odb,Step-1,Increment      1: Step Time =    1.000,"P-18-1",           929,       169.278,       15.4129,            0.,NA,NA,"",   1.04928E+06,   1.04362E+06,   1.04362E+06
C:/temp/Job-18.odb,Step-1,Increment      1: Step Time =    1.000,"P-18-1",           930,       30.5488,       13.5518,            0.,NA,NA,"",   1.42651E+06,   1.42443E+06,   1.42443E+06
C:/temp/Job-18.odb,Step-1,Increment      1: Step Time =    1.000,"P-18-1",           931,       17.8631,       30.2700,            0.,NA,NA,"",   1.23465E+06,   1.28893E+06,   1.28893E+06
C:/temp/Job-18.odb,Step-1,Increment      1: Step Time =    1.000,"P-18-1",           932,       184.572,       169.291,            0.,NA,NA,"",   1.02728E+06,   1.03903E+06,   1.03903E+06
C:/temp/Job-18.odb,Step-1,Increment      1: Step Time =    1.000,"P-18-1",           933,       166.018,       186.876,            0.,NA,NA,"",   1.04304E+06,   1.03738E+06,   1.03738E+06
C:/temp/Job-18.odb,Step-1,Increment      1: Step Time =    1.000,"P-18-1",           934,       186.901,       34.0034,            0.,NA,NA,"",   1.01266E+06,   1.03212E+06,   1.03212E+06
C:/temp/Job-18.odb,Step-1,Increment      1: Step Time =    1.000,"P-18-1",           935,       30.7564,       185.300,            0.,NA,NA,"",   1.42184E+06,   1.41956E+06,   1.41956E+06
C:/temp/Job-18.odb,Step-1,Increment      1: Step Time =    1.000,"P-18-1",           936,       13.9478,       56.3665,            0.,NA,NA,"",   847.174E+03,   916.772E+03,   916.772E+03
C:/temp/Job-18.odb,Step-1,Increment      1: Step Time =    1.000,"P-18-1",           937,       54.5545,       15.5159,            0.,NA,NA,"",   1.33619E+06,   1.31532E+06,   1.31532E+06
C:/temp/Job-18.odb,Step-1,Increment      1: Step Time =    1.000,"P-18-1",           938,       183.628,       54.1420,            0.,NA,NA,"",   1.02933E+06,   1.07319E+06,   1.07319E+06
C:/temp/Job-18.odb,Step-1,Increment      1: Step Time =    1.000,"P-18-1",           939,       186.320,       144.095,            0.,NA,NA,"",   994.112E+03,   1.05609E+06,   1.05609E+06
C:/temp/Job-18.odb,Step-1,Increment      1: Step Time =    1.000,"P-18-1",           940,       145.847,       183.493,            0.,NA,NA,"",   1.09101E+06,   1.07579E+06,   1.07579E+06
C:/temp/Job-18.odb,Step-1,Increment      1: Step Time =    1.000,"P-18-1",           941,       55.3106,       185.610,            0.,NA,NA,"",   1.32367E+06,   1.30501E+06,   1.30501E+06
C:/temp/Job-18.odb,Step-1,Increment      1: Step Time =    1.000,"P-18-1",           942,       144.759,       14.2840,            0.,NA,NA,"",   1.06418E+06,   1.05228E+06,   1.05228E+06
C:/temp/Job-18.odb,Step-1,Increment      1: Step Time =    1.000,"P-18-1",           943,       14.7448,       145.133,            0.,NA,NA,"",   872.872E+03,   940.765E+03,   940.765E+03
C:/temp/Job-18.odb,Step-1,Increment      1: Step Time =    1.000,"P-18-1",           944,       103.839,       46.0350,            0.,NA,NA,"",   1.49717E+06,   1.63986E+06,   1.63986E+06
C:/temp/Job-18.odb,Step-1,Increment      1: Step Time =    1.000,"P-18-1",           945,       154.130,       96.5524,            0.,NA,NA,"",   435.911E+03,   383.498E+03,   383.498E+03
C:/temp/Job-18.odb,Step-1,Increment      1: Step Time =    1.000,"P-18-1",           946,       78.0199,       62.5656,            0.,NA,NA,"",   1.68315E+06,   1.67967E+06,   1.67967E+06
C:/temp/Job-18.odb,Step-1,Increment      1: Step Time =    1.000,"P-18-1",           947,       125.492,       58.4562,            0.,NA,NA,"",   1.73807E+06,   1.73188E+06,   1.73188E+06
C:/temp/Job-18.odb,Step-1,Increment      1: Step Time =    1.000,"P-18-1",           948,       41.7691,       98.7808,            0.,NA,NA,"",   200.109E+03,   223.806E+03,   223.806E+03
C:/temp/Job-18.odb,Step-1,Increment      1: Step Time =    1.000,"P-18-1",           949,       70.0449,       142.896,            0.,NA,NA,"",   1.60822E+06,   1.52497E+06,   1.52497E+06
C:/temp/Job-18.odb,Step-1,Increment      1: Step Time =    1.000,"P-18-1",           950,       62.4842,       131.829,            0.,NA,NA,"",   1.23381E+06,   1.08061E+06,   1.08061E+06
C:/temp/Job-18.odb,Step-1,Increment      1: Step Time =    1.000,"P-18-1",           951,       58.2016,       70.8570,            0.,NA,NA,"",   1.10401E+06,   941.663E+03,   941.663E+03
C:/temp/Job-18.odb,Step-1,Increment      1: Step Time =    1.000,"P-18-1",           952,       143.329,       69.0337,            0.,NA,NA,"",   1.52602E+06,   1.28270E+06,   1.28270E+06
C:/temp/Job-18.odb,Step-1,Increment      1: Step Time =    1.000,"P-18-1",           953,       50.2056,       110.641,            0.,NA,NA,"",   389.006E+03,   172.051E+03,   172.051E+03
C:/temp/Job-18.odb,Step-1,Increment      1: Step Time =    1.000,"P-18-1",           954,       120.836,       47.9149,            0.,NA,NA,"",   1.55912E+06,   1.61414E+06,   1.61414E+06
C:/temp/Job-18.odb,Step-1,Increment      1: Step Time =    1.000,"P-18-1",           955,       54.5645,       111.527,            0.,NA,NA,"",   450.175E+03,  -132.336E+03,  -132.336E+03
C:/temp/Job-18.odb,Step-1,Increment      1: Step Time =    1.000,"P-18-1",           956,       150.863,       120.665,            0.,NA,NA,"",   1.14674E+06,   923.917E+03,   923.917E+03
C:/temp/Job-18.odb,Step-1,Increment      1: Step Time =    1.000,"P-18-1",           957,       139.897,       133.202,            0.,NA,NA,"",   1.57112E+06,   1.35034E+06,   1.35034E+06
C:/temp/Job-18.odb,Step-1,Increment      1: Step Time =    1.000,"P-18-1",           958,       19.6748,       120.383,            0.,NA,NA,"",   526.605E+03,   587.692E+03,   587.692E+03
C:/temp/Job-18.odb,Step-1,Increment      1: Step Time =    1.000,"P-18-1",           959,       119.795,       180.353,            0.,NA,NA,"",   1.07474E+06,   1.09495E+06,   1.09495E+06
C:/temp/Job-18.odb,Step-1,Increment      1: Step Time =    1.000,"P-18-1",           960,       180.259,       79.1852,            0.,NA,NA,"",   914.278E+03,   998.560E+03,   998.560E+03
C:/temp/Job-18.odb,Step-1,Increment      1: Step Time =    1.000,"P-18-1",           961,       80.9219,       18.8174,            0.,NA,NA,"",   1.19818E+06,   1.20084E+06,   1.20084E+06
C:/temp/Job-18.odb,Step-1,Increment      1: Step Time =    1.000,"P-18-1",           962,       150.424,       114.653,            0.,NA,NA,"",   895.414E+03,   681.122E+03,   681.122E+03
C:/temp/Job-18.odb,Step-1,Increment      1: Step Time =    1.000,"P-18-1",           963,       145.481,       78.1199,            0.,NA,NA,"",   1.22672E+06,   941.551E+03,   941.551E+03
C:/temp/Job-18.odb,Step-1,Increment      1: Step Time =    1.000,"P-18-1",           964,       111.726,       47.9299,            0.,NA,NA,"",   1.54557E+06,   1.67056E+06,   1.67056E+06
C:/temp/Job-18.odb,Step-1,Increment      1: Step Time =    1.000,"P-18-1",           965,       112.379,       43.2738,            0.,NA,NA,"",   1.42130E+06,   1.52849E+06,   1.52849E+06
C:/temp/Job-18.odb,Step-1,Increment      1: Step Time =    1.000,"P-18-1",           966,       153.578,       112.235,            0.,NA,NA,"",   771.890E+03,   629.379E+03,   629.379E+03
C:/temp/Job-18.odb,Step-1,Increment      1: Step Time =    1.000,"P-18-1",           967,       83.9861,       45.5651,            0.,NA,NA,"",   1.56274E+06,   1.61416E+06,   1.61416E+06
C:/temp/Job-18.odb,Step-1,Increment      1: Step Time =    1.000,"P-18-1",           968,       57.2999,       132.078,            0.,NA,NA,"",   1.17703E+06,   1.02569E+06,   1.02569E+06
C:/temp/Job-18.odb,Step-1,Increment      1: Step Time =    1.000,"P-18-1",           969,       143.923,       134.978,            0.,NA,NA,"",   1.55130E+06,   1.33682E+06,   1.33682E+06
C:/temp/Job-18.odb,Step-1,Increment      1: Step Time =    1.000,"P-18-1",           970,       9.23702,       56.3765,            0.,NA,NA,"",   819.088E+03,   900.907E+03,   900.907E+03
C:/temp/Job-18.odb,Step-1,Increment      1: Step Time =    1.000,"P-18-1",           971,       55.3779,       190.584,            0.,NA,NA,"",   1.29213E+06,   1.28252E+06,   1.28252E+06
C:/temp/Job-18.odb,Step-1,Increment      1: Step Time =    1.000,"P-18-1",           972,       144.632,       9.33399,            0.,NA,NA,"",   1.00569E+06,   999.882E+03,   999.882E+03
C:/temp/Job-18.odb,Step-1,Increment      1: Step Time =    1.000,"P-18-1",           973,       190.923,       144.378,            0.,NA,NA,"",   950.346E+03,   1.03039E+06,   1.03039E+06
C:/temp/Job-18.odb,Step-1,Increment      1: Step Time =    1.000,"P-18-1",           974,       48.8177,       114.605,            0.,NA,NA,"",   522.939E+03,   419.414E+03,   419.414E+03
C:/temp/Job-18.odb,Step-1,Increment      1: Step Time =    1.000,"P-18-1",           975,       130.181,       59.4725,            0.,NA,NA,"",   1.69643E+06,   1.61867E+06,   1.61867E+06
C:/temp/Job-18.odb,Step-1,Increment      1: Step Time =    1.000,"P-18-1",           976,       69.4805,       58.4206,            0.,NA,NA,"",   1.58249E+06,   1.49031E+06,   1.49031E+06
C:/temp/Job-18.odb,Step-1,Increment      1: Step Time =    1.000,"P-18-1",           977,       25.2536,       105.460,            0.,NA,NA,"",   352.183E+03,   405.667E+03,   405.667E+03
C:/temp/Job-18.odb,Step-1,Increment      1: Step Time =    1.000,"P-18-1",           978,       94.1609,       24.0516,            0.,NA,NA,"",   1.15534E+06,   1.20143E+06,   1.20143E+06
C:/temp/Job-18.odb,Step-1,Increment      1: Step Time =    1.000,"P-18-1",           979,       104.150,       173.040,            0.,NA,NA,"",   1.15017E+06,   1.21656E+06,   1.21656E+06
C:/temp/Job-18.odb,Step-1,Increment      1: Step Time =    1.000,"P-18-1",           980,       173.154,       93.3038,            0.,NA,NA,"",   710.665E+03,   792.938E+03,   792.938E+03
C:/temp/Job-18.odb,Step-1,Increment      1: Step Time =    1.000,"P-18-1",           981,       25.9400,       85.0881,            0.,NA,NA,"",   455.320E+03,   508.583E+03,   508.583E+03
C:/temp/Job-18.odb,Step-1,Increment      1: Step Time =    1.000,"P-18-1",           982,       25.4670,       115.907,            0.,NA,NA,"",   466.001E+03,   520.050E+03,   520.050E+03
C:/temp/Job-18.odb,Step-1,Increment      1: Step Time =    1.000,"P-18-1",           983,       114.686,       25.3080,            0.,NA,NA,"",   1.13888E+06,   1.18397E+06,   1.18397E+06
C:/temp/Job-18.odb,Step-1,Increment      1: Step Time =    1.000,"P-18-1",           984,       87.3536,       27.1271,            0.,NA,NA,"",   1.25474E+06,   1.28993E+06,   1.28993E+06
C:/temp/Job-18.odb,Step-1,Increment      1: Step Time =    1.000,"P-18-1",           985,       174.229,       115.424,            0.,NA,NA,"",   849.278E+03,   913.378E+03,   913.378E+03
C:/temp/Job-18.odb,Step-1,Increment      1: Step Time =    1.000,"P-18-1",           986,       115.115,       174.378,            0.,NA,NA,"",   1.14473E+06,   1.19076E+06,   1.19076E+06
C:/temp/Job-18.odb,Step-1,Increment      1: Step Time =    1.000,"P-18-1",           987,       174.533,       82.5387,            0.,NA,NA,"",   889.563E+03,   947.492E+03,   947.492E+03
C:/temp/Job-18.odb,Step-1,Increment      1: Step Time =    1.000,"P-18-1",           988,       84.0641,       174.658,            0.,NA,NA,"",   1.25939E+06,   1.27893E+06,   1.27893E+06
C:/temp/Job-18.odb,Step-1,Increment      1: Step Time =    1.000,"P-18-1",           989,       135.300,       25.6353,            0.,NA,NA,"",   1.20891E+06,   1.19330E+06,   1.19330E+06
C:/temp/Job-18.odb,Step-1,Increment      1: Step Time =    1.000,"P-18-1",           990,       29.1903,       135.487,            0.,NA,NA,"",   845.894E+03,   863.123E+03,   863.123E+03
C:/temp/Job-18.odb,Step-1,Increment      1: Step Time =    1.000,"P-18-1",           991,       27.4116,       65.5414,            0.,NA,NA,"",   807.524E+03,   833.317E+03,   833.317E+03
C:/temp/Job-18.odb,Step-1,Increment      1: Step Time =    1.000,"P-18-1",           992,       65.1281,       26.6745,            0.,NA,NA,"",   1.39171E+06,   1.35447E+06,   1.35447E+06
C:/temp/Job-18.odb,Step-1,Increment      1: Step Time =    1.000,"P-18-1",           993,       65.1988,       175.163,            0.,NA,NA,"",   1.37329E+06,   1.33879E+06,   1.33879E+06
C:/temp/Job-18.odb,Step-1,Increment      1: Step Time =    1.000,"P-18-1",           994,       172.590,       137.636,            0.,NA,NA,"",   1.13972E+06,   1.12810E+06,   1.12810E+06
C:/temp/Job-18.odb,Step-1,Increment      1: Step Time =    1.000,"P-18-1",           995,       135.478,       172.654,            0.,NA,NA,"",   1.23835E+06,   1.21996E+06,   1.21996E+06
C:/temp/Job-18.odb,Step-1,Increment      1: Step Time =    1.000,"P-18-1",           996,       173.512,       64.8000,            0.,NA,NA,"",   1.11657E+06,   1.11344E+06,   1.11344E+06
C:/temp/Job-18.odb,Step-1,Increment      1: Step Time =    1.000,"P-18-1",           997,       110.799,       150.162,            0.,NA,NA,"",   1.63224E+06,   1.76740E+06,   1.76740E+06
C:/temp/Job-18.odb,Step-1,Increment      1: Step Time =    1.000,"P-18-1",           998,       75.0268,       59.1063,            0.,NA,NA,"",   1.64126E+06,   1.60208E+06,   1.60208E+06
C:/temp/Job-18.odb,Step-1,Increment      1: Step Time =    1.000,"P-18-1",           999,       156.637,       87.1978,            0.,NA,NA,"",   781.701E+03,   688.406E+03,   688.406E+03
C:/temp/Job-18.odb,Step-1,Increment      1: Step Time =    1.000,"P-18-1",          1000,       164.268,       20.3186,            0.,NA,NA,"",   1.09466E+06,    1.0803E+06,    1.0803E+06
C:/temp/Job-18.odb,Step-1,Increment      1: Step Time =    1.000,"P-18-1",          1001,       18.7211,       162.171,            0.,NA,NA,"",   1.13791E+06,   1.19055E+06,   1.19055E+06
C:/temp/Job-18.odb,Step-1,Increment      1: Step Time =    1.000,"P-18-1",          1002,       13.9883,       174.254,            0.,NA,NA,"",   1.25897E+06,   1.33064E+06,   1.33064E+06
C:/temp/Job-18.odb,Step-1,Increment      1: Step Time =    1.000,"P-18-1",          1003,       174.162,       15.6867,            0.,NA,NA,"",   1.03747E+06,   1.03513E+06,   1.03513E+06
C:/temp/Job-18.odb,Step-1,Increment      1: Step Time =    1.000,"P-18-1",          1004,       18.1496,       33.8906,            0.,NA,NA,"",   1.19100E+06,   1.24472E+06,   1.24472E+06
C:/temp/Job-18.odb,Step-1,Increment      1: Step Time =    1.000,"P-18-1",          1005,       34.1629,       17.7362,            0.,NA,NA,"",   1.40333E+06,   1.39516E+06,   1.39516E+06
C:/temp/Job-18.odb,Step-1,Increment      1: Step Time =    1.000,"P-18-1",          1006,       13.9058,       26.2984,            0.,NA,NA,"",   1.25469E+06,   1.32637E+06,   1.32637E+06
C:/temp/Job-18.odb,Step-1,Increment      1: Step Time =    1.000,"P-18-1",          1007,       26.6675,       14.5257,            0.,NA,NA,"",   1.43569E+06,   1.44067E+06,   1.44067E+06
C:/temp/Job-18.odb,Step-1,Increment      1: Step Time =    1.000,"P-18-1",          1008,       170.139,       186.618,            0.,NA,NA,"",   1.03780E+06,   1.03392E+06,   1.03392E+06
C:/temp/Job-18.odb,Step-1,Increment      1: Step Time =    1.000,"P-18-1",          1009,       184.316,       174.169,            0.,NA,NA,"",   1.02464E+06,   1.03209E+06,   1.03209E+06
C:/temp/Job-18.odb,Step-1,Increment      1: Step Time =    1.000,"P-18-1",          1010,       179.635,       164.345,            0.,NA,NA,"",   1.06762E+06,   1.07304E+06,   1.07304E+06
C:/temp/Job-18.odb,Step-1,Increment      1: Step Time =    1.000,"P-18-1",          1011,       162.663,       183.709,            0.,NA,NA,"",   1.06933E+06,   1.05874E+06,   1.05874E+06
C:/temp/Job-18.odb,Step-1,Increment      1: Step Time =    1.000,"P-18-1",          1012,       186.633,       29.8826,            0.,NA,NA,"",   1.01491E+06,   1.02869E+06,   1.02869E+06
C:/temp/Job-18.odb,Step-1,Increment      1: Step Time =    1.000,"P-18-1",          1013,       26.1058,       184.793,            0.,NA,NA,"",   1.43210E+06,   1.43873E+06,   1.43873E+06
C:/temp/Job-18.odb,Step-1,Increment      1: Step Time =    1.000,"P-18-1",          1014,       183.773,       37.3536,            0.,NA,NA,"",   1.03395E+06,   1.05212E+06,   1.05212E+06
C:/temp/Job-18.odb,Step-1,Increment      1: Step Time =    1.000,"P-18-1",          1015,       35.1957,       180.695,            0.,NA,NA,"",   1.39603E+06,   1.38569E+06,   1.38569E+06
C:/temp/Job-18.odb,Step-1,Increment      1: Step Time =    1.000,"P-18-1",          1016,       101.373,       49.8054,            0.,NA,NA,"",   1.65320E+06,   1.80827E+06,   1.80827E+06
C:/temp/Job-18.odb,Step-1,Increment      1: Step Time =    1.000,"P-18-1",          1017,       108.406,       42.9936,            0.,NA,NA,"",   1.40883E+06,   1.53028E+06,   1.53028E+06
C:/temp/Job-18.odb,Step-1,Increment      1: Step Time =    1.000,"P-18-1",          1018,       155.450,       100.634,            0.,NA,NA,"",   405.503E+03,   383.074E+03,   383.074E+03
C:/temp/Job-18.odb,Step-1,Increment      1: Step Time =    1.000,"P-18-1",          1019,       63.2403,       65.5989,            0.,NA,NA,"",   1.34808E+06,   1.20479E+06,   1.20479E+06
C:/temp/Job-18.odb,Step-1,Increment      1: Step Time =    1.000,"P-18-1",          1020,       137.022,       67.6153,            0.,NA,NA,"",   1.60774E+06,   1.39747E+06,   1.39747E+06
C:/temp/Job-18.odb,Step-1,Increment      1: Step Time =    1.000,"P-18-1",          1021,       148.922,       81.1980,            0.,NA,NA,"",   1.07981E+06,   830.592E+03,   830.592E+03
C:/temp/Job-18.odb,Step-1,Increment      1: Step Time =    1.000,"P-18-1",          1022,       68.7816,       147.338,            0.,NA,NA,"",   1.59208E+06,   1.51224E+06,   1.51224E+06
C:/temp/Job-18.odb,Step-1,Increment      1: Step Time =    1.000,"P-18-1",          1023,       76.2679,       23.8971,            0.,NA,NA,"",   1.30560E+06,   1.29657E+06,   1.29657E+06
C:/temp/Job-18.odb,Step-1,Increment      1: Step Time =    1.000,"P-18-1",          1024,       125.102,       175.968,            0.,NA,NA,"",   1.15820E+06,   1.17009E+06,   1.17009E+06
C:/temp/Job-18.odb,Step-1,Increment      1: Step Time =    1.000,"P-18-1",          1025,       173.784,       75.1823,            0.,NA,NA,"",   1.00570E+06,   1.02979E+06,   1.02979E+06
C:/temp/Job-18.odb,Step-1,Increment      1: Step Time =    1.000,"P-18-1",          1026,       28.1301,       124.552,            0.,NA,NA,"",   621.902E+03,   658.720E+03,   658.720E+03
C:/temp/Job-18.odb,Step-1,Increment      1: Step Time =    1.000,"P-18-1",          1027,       27.7442,       93.8818,            0.,NA,NA,"",   339.359E+03,   390.754E+03,   390.754E+03
C:/temp/Job-18.odb,Step-1,Increment      1: Step Time =    1.000,"P-18-1",          1028,       104.592,       30.1172,            0.,NA,NA,"",   1.18871E+06,   1.26856E+06,   1.26856E+06
C:/temp/Job-18.odb,Step-1,Increment      1: Step Time =    1.000,"P-18-1",          1029,       173.361,       106.178,            0.,NA,NA,"",   708.431E+03,   792.202E+03,   792.202E+03
C:/temp/Job-18.odb,Step-1,Increment      1: Step Time =    1.000,"P-18-1",          1030,       93.8511,       174.829,            0.,NA,NA,"",   1.17461E+06,   1.22386E+06,   1.22386E+06
C:/temp/Job-18.odb,Step-1,Increment      1: Step Time =    1.000,"P-18-1",          1031,       43.8967,       89.4258,            0.,NA,NA,"",   379.993E+03,   355.368E+03,   355.368E+03
C:/temp/Job-18.odb,Step-1,Increment      1: Step Time =    1.000,"P-18-1",          1032,       45.5478,       108.344,            0.,NA,NA,"",   311.470E+03,   281.867E+03,   281.867E+03
C:/temp/Job-18.odb,Step-1,Increment      1: Step Time =    1.000,"P-18-1",          1033,       125.370,       47.1120,            0.,NA,NA,"",   1.55063E+06,   1.56471E+06,   1.56471E+06
C:/temp/Job-18.odb,Step-1,Increment      1: Step Time =    1.000,"P-18-1",          1034,       52.1694,       81.2347,            0.,NA,NA,"",   680.341E+03,   536.101E+03,   536.101E+03
C:/temp/Job-18.odb,Step-1,Increment      1: Step Time =    1.000,"P-18-1",          1035,       108.709,       38.6967,            0.,NA,NA,"",   1.32564E+06,   1.43036E+06,   1.43036E+06
C:/temp/Job-18.odb,Step-1,Increment      1: Step Time =    1.000,"P-18-1",          1036,       160.594,       102.625,            0.,NA,NA,"",   484.974E+03,   507.830E+03,   507.830E+03
C:/temp/Job-18.odb,Step-1,Increment      1: Step Time =    1.000,"P-18-1",          1037,       120.773,       42.8150,            0.,NA,NA,"",   1.45292E+06,   1.50482E+06,   1.50482E+06
C:/temp/Job-18.odb,Step-1,Increment      1: Step Time =    1.000,"P-18-1",          1038,       131.136,       48.6620,            0.,NA,NA,"",   1.58244E+06,   1.53989E+06,   1.53989E+06
C:/temp/Job-18.odb,Step-1,Increment      1: Step Time =    1.000,"P-18-1",          1039,       39.9657,       108.991,            0.,NA,NA,"",   330.759E+03,   347.716E+03,   347.716E+03
C:/temp/Job-18.odb,Step-1,Increment      1: Step Time =    1.000,"P-18-1",          1040,       47.9761,       118.994,            0.,NA,NA,"",   665.941E+03,   566.755E+03,   566.755E+03
C:/temp/Job-18.odb,Step-1,Increment      1: Step Time =    1.000,"P-18-1",          1041,       129.754,       24.8902,            0.,NA,NA,"",   1.18968E+06,   1.18958E+06,   1.18958E+06
C:/temp/Job-18.odb,Step-1,Increment      1: Step Time =    1.000,"P-18-1",          1042,       69.8654,       175.321,            0.,NA,NA,"",   1.35530E+06,   1.32883E+06,   1.32883E+06
C:/temp/Job-18.odb,Step-1,Increment      1: Step Time =    1.000,"P-18-1",          1043,       23.5707,       69.2180,            0.,NA,NA,"",   709.786E+03,   754.839E+03,   754.839E+03
C:/temp/Job-18.odb,Step-1,Increment      1: Step Time =    1.000,"P-18-1",          1044,       178.176,       129.849,            0.,NA,NA,"",   1.02309E+06,   1.06713E+06,   1.06713E+06
C:/temp/Job-18.odb,Step-1,Increment      1: Step Time =    1.000,"P-18-1",          1045,       22.8543,       36.4290,            0.,NA,NA,"",   1.20304E+06,   1.23555E+06,   1.23555E+06
C:/temp/Job-18.odb,Step-1,Increment      1: Step Time =    1.000,"P-18-1",          1046,       36.4914,       22.9085,            0.,NA,NA,"",   1.38429E+06,   1.36775E+06,   1.36775E+06
C:/temp/Job-18.odb,Step-1,Increment      1: Step Time =    1.000,"P-18-1",          1047,       22.8141,       164.460,            0.,NA,NA,"",   1.20438E+06,   1.23695E+06,   1.23695E+06
C:/temp/Job-18.odb,Step-1,Increment      1: Step Time =    1.000,"P-18-1",          1048,       163.451,       24.8743,            0.,NA,NA,"",   1.12947E+06,   1.10865E+06,   1.10865E+06
C:/temp/Job-18.odb,Step-1,Increment      1: Step Time =    1.000,"P-18-1",          1049,       176.705,       33.8372,            0.,NA,NA,"",   1.08429E+06,   1.08258E+06,   1.08258E+06
C:/temp/Job-18.odb,Step-1,Increment      1: Step Time =    1.000,"P-18-1",          1050,       35.7289,       176.085,            0.,NA,NA,"",   1.37990E+06,   1.36540E+06,   1.36540E+06
C:/temp/Job-18.odb,Step-1,Increment      1: Step Time =    1.000,"P-18-1",          1051,       175.100,       163.616,            0.,NA,NA,"",   1.10690E+06,   1.10027E+06,   1.10027E+06
C:/temp/Job-18.odb,Step-1,Increment      1: Step Time =    1.000,"P-18-1",          1052,       166.253,       176.536,            0.,NA,NA,"",   1.10343E+06,   1.08878E+06,   1.08878E+06
C:/temp/Job-18.odb,Step-1,Increment      1: Step Time =    1.000,"P-18-1",          1053,       153.660,       118.294,            0.,NA,NA,"",   1.02722E+06,   849.715E+03,   849.715E+03
C:/temp/Job-18.odb,Step-1,Increment      1: Step Time =    1.000,"P-18-1",          1054,       80.2865,       47.5953,            0.,NA,NA,"",   1.60461E+06,   1.62549E+06,   1.62549E+06
C:/temp/Job-18.odb,Step-1,Increment      1: Step Time =    1.000,"P-18-1",          1055,       64.7374,       146.673,            0.,NA,NA,"",   1.55051E+06,   1.45082E+06,   1.45082E+06
C:/temp/Job-18.odb,Step-1,Increment      1: Step Time =    1.000,"P-18-1",          1056,       145.184,       130.610,            0.,NA,NA,"",   1.47556E+06,   1.23697E+06,   1.23697E+06
C:/temp/Job-18.odb,Step-1,Increment      1: Step Time =    1.000,"P-18-1",          1057,       66.1154,       59.8761,            0.,NA,NA,"",   1.51805E+06,   1.40149E+06,   1.40149E+06
C:/temp/Job-18.odb,Step-1,Increment      1: Step Time =    1.000,"P-18-1",          1058,       27.6155,       111.644,            0.,NA,NA,"",   404.468E+03,   456.607E+03,   456.607E+03
C:/temp/Job-18.odb,Step-1,Increment      1: Step Time =    1.000,"P-18-1",          1059,       92.0504,       28.8067,            0.,NA,NA,"",   1.23635E+06,   1.29316E+06,   1.29316E+06
C:/temp/Job-18.odb,Step-1,Increment      1: Step Time =    1.000,"P-18-1",          1060,       111.660,       169.868,            0.,NA,NA,"",   1.19743E+06,   1.26659E+06,   1.26659E+06
C:/temp/Job-18.odb,Step-1,Increment      1: Step Time =    1.000,"P-18-1",          1061,       172.303,       87.3791,            0.,NA,NA,"",   799.326E+03,   858.957E+03,   858.957E+03
C:/temp/Job-18.odb,Step-1,Increment      1: Step Time =    1.000,"P-18-1",          1062,       27.0183,       80.3725,            0.,NA,NA,"",   528.831E+03,   575.703E+03,   575.703E+03
C:/temp/Job-18.odb,Step-1,Increment      1: Step Time =    1.000,"P-18-1",          1063,       27.8379,       121.091,            0.,NA,NA,"",   558.979E+03,   601.712E+03,   601.712E+03
C:/temp/Job-18.odb,Step-1,Increment      1: Step Time =    1.000,"P-18-1",          1064,       80.6527,       29.7912,            0.,NA,NA,"",   1.35243E+06,   1.36196E+06,   1.36196E+06
C:/temp/Job-18.odb,Step-1,Increment      1: Step Time =    1.000,"P-18-1",          1065,       172.206,       123.579,            0.,NA,NA,"",   998.997E+03,   1.01413E+06,   1.01413E+06
C:/temp/Job-18.odb,Step-1,Increment      1: Step Time =    1.000,"P-18-1",          1066,       78.8577,       170.182,            0.,NA,NA,"",   1.36350E+06,   1.36543E+06,   1.36543E+06
C:/temp/Job-18.odb,Step-1,Increment      1: Step Time =    1.000,"P-18-1",          1067,       121.301,       170.913,            0.,NA,NA,"",   1.22133E+06,   1.25377E+06,   1.25377E+06
C:/temp/Job-18.odb,Step-1,Increment      1: Step Time =    1.000,"P-18-1",          1068,       170.418,       79.6121,            0.,NA,NA,"",   953.621E+03,   966.204E+03,   966.204E+03
C:/temp/Job-18.odb,Step-1,Increment      1: Step Time =    1.000,"P-18-1",          1069,       71.3812,       152.502,            0.,NA,NA,"",   1.58568E+06,   1.53385E+06,   1.53385E+06
C:/temp/Job-18.odb,Step-1,Increment      1: Step Time =    1.000,"P-18-1",          1070,       30.3471,       140.902,            0.,NA,NA,"",   952.300E+03,   959.014E+03,   959.014E+03
C:/temp/Job-18.odb,Step-1,Increment      1: Step Time =    1.000,"P-18-1",          1071,       139.168,       29.4911,            0.,NA,NA,"",   1.27102E+06,   1.24036E+06,   1.24036E+06
C:/temp/Job-18.odb,Step-1,Increment      1: Step Time =    1.000,"P-18-1",          1072,       31.3197,       62.2830,            0.,NA,NA,"",   910.424E+03,   914.126E+03,   914.126E+03
C:/temp/Job-18.odb,Step-1,Increment      1: Step Time =    1.000,"P-18-1",          1073,       59.2460,       30.9378,            0.,NA,NA,"",   1.43194E+06,   1.37884E+06,   1.37884E+06
C:/temp/Job-18.odb,Step-1,Increment      1: Step Time =    1.000,"P-18-1",          1074,       56.5820,       168.816,            0.,NA,NA,"",   1.42871E+06,   1.37469E+06,   1.37469E+06
C:/temp/Job-18.odb,Step-1,Increment      1: Step Time =    1.000,"P-18-1",          1075,       171.384,       142.786,            0.,NA,NA,"",   1.17692E+06,   1.15146E+06,   1.15146E+06
C:/temp/Job-18.odb,Step-1,Increment      1: Step Time =    1.000,"P-18-1",          1076,       141.366,       167.937,            0.,NA,NA,"",   1.29931E+06,   1.25981E+06,   1.25981E+06
C:/temp/Job-18.odb,Step-1,Increment      1: Step Time =    1.000,"P-18-1",          1077,       168.760,       59.1528,            0.,NA,NA,"",   1.21108E+06,   1.16721E+06,   1.16721E+06
C:/temp/Job-18.odb,Step-1,Increment      1: Step Time =    1.000,"P-18-1",          1078,       106.434,       152.925,            0.,NA,NA,"",   1.52815E+06,   1.66942E+06,   1.66942E+06
C:/temp/Job-18.odb,Step-1,Increment      1: Step Time =    1.000,"P-18-1",          1079,       152.670,       84.2871,            0.,NA,NA,"",   920.393E+03,   741.904E+03,   741.904E+03
C:/temp/Job-18.odb,Step-1,Increment      1: Step Time =    1.000,"P-18-1",          1080,       174.533,       10.3883,            0.,NA,NA,"",   1.01901E+06,   1.01807E+06,   1.01807E+06
C:/temp/Job-18.odb,Step-1,Increment      1: Step Time =    1.000,"P-18-1",          1081,       18.4960,       169.484,            0.,NA,NA,"",   1.23093E+06,   1.28327E+06,   1.28327E+06
C:/temp/Job-18.odb,Step-1,Increment      1: Step Time =    1.000,"P-18-1",          1082,       173.368,       21.0219,            0.,NA,NA,"",   1.06117E+06,   1.05610E+06,   1.05610E+06
C:/temp/Job-18.odb,Step-1,Increment      1: Step Time =    1.000,"P-18-1",          1083,       160.070,       20.3776,            0.,NA,NA,"",   1.10900E+06,   1.09118E+06,   1.09118E+06
C:/temp/Job-18.odb,Step-1,Increment      1: Step Time =    1.000,"P-18-1",          1084,       14.2743,       161.074,            0.,NA,NA,"",   1.08556E+06,   1.15826E+06,   1.15826E+06
C:/temp/Job-18.odb,Step-1,Increment      1: Step Time =    1.000,"P-18-1",          1085,       38.8821,       14.1511,            0.,NA,NA,"",   1.39556E+06,   1.38466E+06,   1.38466E+06
C:/temp/Job-18.odb,Step-1,Increment      1: Step Time =    1.000,"P-18-1",          1086,       15.8042,       42.3330,            0.,NA,NA,"",   1.04950E+06,   1.11585E+06,   1.11585E+06
C:/temp/Job-18.odb,Step-1,Increment      1: Step Time =    1.000,"P-18-1",          1087,       17.8882,       26.9021,            0.,NA,NA,"",   1.27496E+06,   1.32679E+06,   1.32679E+06
C:/temp/Job-18.odb,Step-1,Increment      1: Step Time =    1.000,"P-18-1",          1088,       9.27183,       30.0676,            0.,NA,NA,"",   1.15125E+06,   1.24875E+06,   1.24875E+06
C:/temp/Job-18.odb,Step-1,Increment      1: Step Time =    1.000,"P-18-1",          1089,       158.401,       185.908,            0.,NA,NA,"",   1.06088E+06,   1.05064E+06,   1.05064E+06
C:/temp/Job-18.odb,Step-1,Increment      1: Step Time =    1.000,"P-18-1",          1090,       179.478,       160.222,            0.,NA,NA,"",   1.07419E+06,   1.08174E+06,   1.08174E+06
C:/temp/Job-18.odb,Step-1,Increment      1: Step Time =    1.000,"P-18-1",          1091,       179.030,       173.379,            0.,NA,NA,"",   1.05210E+06,   1.05365E+06,   1.05365E+06
C:/temp/Job-18.odb,Step-1,Increment      1: Step Time =    1.000,"P-18-1",          1092,       169.523,       182.671,            0.,NA,NA,"",   1.05707E+06,   1.05028E+06,   1.05028E+06
C:/temp/Job-18.odb,Step-1,Increment      1: Step Time =    1.000,"P-18-1",          1093,       189.607,       174.536,            0.,NA,NA,"",   1.00577E+06,   1.01572E+06,   1.01572E+06
C:/temp/Job-18.odb,Step-1,Increment      1: Step Time =    1.000,"P-18-1",          1094,       27.4640,       180.330,            0.,NA,NA,"",   1.39418E+06,   1.40076E+06,   1.40076E+06
C:/temp/Job-18.odb,Step-1,Increment      1: Step Time =    1.000,"P-18-1",          1095,       182.714,       30.5107,            0.,NA,NA,"",   1.03328E+06,   1.04385E+06,   1.04385E+06
C:/temp/Job-18.odb,Step-1,Increment      1: Step Time =    1.000,"P-18-1",          1096,       185.946,       41.6006,            0.,NA,NA,"",   1.01845E+06,   1.04772E+06,   1.04772E+06
C:/temp/Job-18.odb,Step-1,Increment      1: Step Time =    1.000,"P-18-1",          1097,       38.8887,       180.793,            0.,NA,NA,"",   1.39154E+06,   1.37538E+06,   1.37538E+06
C:/temp/Job-18.odb,Step-1,Increment      1: Step Time =    1.000,"P-18-1",          1098,       25.4620,       189.733,            0.,NA,NA,"",   1.46382E+06,   1.46763E+06,   1.46763E+06
C:/temp/Job-18.odb,Step-1,Increment      1: Step Time =    1.000,"P-18-1",          1099,       101.338,       43.5453,            0.,NA,NA,"",   1.44002E+06,   1.57361E+06,   1.57361E+06
C:/temp/Job-18.odb,Step-1,Increment      1: Step Time =    1.000,"P-18-1",          1100,       153.848,       9.46407,            0.,NA,NA,"",   1.02506E+06,   1.01884E+06,   1.01884E+06
C:/temp/Job-18.odb,Step-1,Increment      1: Step Time =    1.000,"P-18-1",          1101,       190.393,       153.745,            0.,NA,NA,"",   978.304E+03,   1.02856E+06,   1.02856E+06
C:/temp/Job-18.odb,Step-1,Increment      1: Step Time =    1.000,"P-18-1",          1102,       46.0609,       190.632,            0.,NA,NA,"",   1.35654E+06,   1.34840E+06,   1.34840E+06
C:/temp/Job-18.odb,Step-1,Increment      1: Step Time =    1.000,"P-18-1",          1103,       58.2893,       65.3522,            0.,NA,NA,"",   1.27672E+06,   1.13082E+06,   1.13082E+06
C:/temp/Job-18.odb,Step-1,Increment      1: Step Time =    1.000,"P-18-1",          1104,       148.996,       75.0799,            0.,NA,NA,"",   1.30472E+06,   1.06400E+06,   1.06400E+06
C:/temp/Job-18.odb,Step-1,Increment      1: Step Time =    1.000,"P-18-1",          1105,       38.8240,       89.2449,            0.,NA,NA,"",   386.886E+03,   402.030E+03,   402.030E+03
C:/temp/Job-18.odb,Step-1,Increment      1: Step Time =    1.000,"P-18-1",          1106,       70.3024,       27.8381,            0.,NA,NA,"",   1.38619E+06,   1.35805E+06,   1.35805E+06
C:/temp/Job-18.odb,Step-1,Increment      1: Step Time =    1.000,"P-18-1",          1107,       130.650,       171.490,            0.,NA,NA,"",   1.24610E+06,   1.24173E+06,   1.24173E+06
C:/temp/Job-18.odb,Step-1,Increment      1: Step Time =    1.000,"P-18-1",          1108,       173.221,       69.7273,            0.,NA,NA,"",   1.07677E+06,   1.08282E+06,   1.08282E+06
C:/temp/Job-18.odb,Step-1,Increment      1: Step Time =    1.000,"P-18-1",          1109,       28.6070,       132.497,            0.,NA,NA,"",   783.886E+03,   807.147E+03,   807.147E+03
C:/temp/Job-18.odb,Step-1,Increment      1: Step Time =    1.000,"P-18-1",          1110,       28.7596,       100.675,            0.,NA,NA,"",   309.062E+03,   356.765E+03,   356.765E+03
C:/temp/Job-18.odb,Step-1,Increment      1: Step Time =    1.000,"P-18-1",          1111,       100.419,       30.7179,            0.,NA,NA,"",   1.20419E+06,   1.28552E+06,   1.28552E+06
C:/temp/Job-18.odb,Step-1,Increment      1: Step Time =    1.000,"P-18-1",          1112,       23.4369,       91.5970,            0.,NA,NA,"",   379.713E+03,   436.228E+03,   436.228E+03
C:/temp/Job-18.odb,Step-1,Increment      1: Step Time =    1.000,"P-18-1",          1113,       109.353,       25.0218,            0.,NA,NA,"",   1.12170E+06,   1.17732E+06,   1.17732E+06
C:/temp/Job-18.odb,Step-1,Increment      1: Step Time =    1.000,"P-18-1",          1114,       169.146,       101.178,            0.,NA,NA,"",   612.339E+03,   684.386E+03,   684.386E+03
C:/temp/Job-18.odb,Step-1,Increment      1: Step Time =    1.000,"P-18-1",          1115,       176.001,       110.593,            0.,NA,NA,"",   777.924E+03,   866.602E+03,   866.602E+03
C:/temp/Job-18.odb,Step-1,Increment      1: Step Time =    1.000,"P-18-1",          1116,       88.9087,       174.882,            0.,NA,NA,"",   1.21398E+06,   1.25005E+06,   1.25005E+06
C:/temp/Job-18.odb,Step-1,Increment      1: Step Time =    1.000,"P-18-1",          1117,       48.1378,       86.2123,            0.,NA,NA,"",   491.192E+03,   408.154E+03,   408.154E+03
C:/temp/Job-18.odb,Step-1,Increment      1: Step Time =    1.000,"P-18-1",          1118,       46.0471,       77.5835,            0.,NA,NA,"",   737.632E+03,   658.067E+03,   658.067E+03
C:/temp/Job-18.odb,Step-1,Increment      1: Step Time =    1.000,"P-18-1",          1119,       155.771,       74.4126,            0.,NA,NA,"",   1.22715E+06,   1.06325E+06,   1.06325E+06
C:/temp/Job-18.odb,Step-1,Increment      1: Step Time =    1.000,"P-18-1",          1120,       152.130,       71.8518,            0.,NA,NA,"",   1.34281E+06,   1.14150E+06,   1.14150E+06
C:/temp/Job-18.odb,Step-1,Increment      1: Step Time =    1.000,"P-18-1",          1121,       152.449,       13.5428,            0.,NA,NA,"",   1.05848E+06,   1.04735E+06,   1.04735E+06
C:/temp/Job-18.odb,Step-1,Increment      1: Step Time =    1.000,"P-18-1",          1122,       14.9799,       48.1436,            0.,NA,NA,"",   974.890E+03,   1.04258E+06,   1.04258E+06
C:/temp/Job-18.odb,Step-1,Increment      1: Step Time =    1.000,"P-18-1",          1123,       186.198,       152.339,            0.,NA,NA,"",   1.01364E+06,   1.05394E+06,   1.05394E+06
C:/temp/Job-18.odb,Step-1,Increment      1: Step Time =    1.000,"P-18-1",          1124,       46.9199,       186.381,            0.,NA,NA,"",   1.36243E+06,   1.34742E+06,   1.34742E+06
C:/temp/Job-18.odb,Step-1,Increment      1: Step Time =    1.000,"P-18-1",          1125,       156.554,       121.962,            0.,NA,NA,"",   1.12583E+06,   976.224E+03,   976.224E+03
C:/temp/Job-18.odb,Step-1,Increment      1: Step Time =    1.000,"P-18-1",          1126,       68.2354,       54.3776,            0.,NA,NA,"",   1.57694E+06,   1.48800E+06,   1.48800E+06
C:/temp/Job-18.odb,Step-1,Increment      1: Step Time =    1.000,"P-18-1",          1127,       52.6613,       69.5399,            0.,NA,NA,"",   1.06596E+06,   932.070E+03,   932.070E+03
C:/temp/Job-18.odb,Step-1,Increment      1: Step Time =    1.000,"P-18-1",          1128,       64.6797,       55.6565,            0.,NA,NA,"",   1.53000E+06,   1.42202E+06,   1.42202E+06
C:/temp/Job-18.odb,Step-1,Increment      1: Step Time =    1.000,"P-18-1",          1129,       58.6847,       60.4373,            0.,NA,NA,"",   1.38685E+06,   1.25580E+06,   1.25580E+06
C:/temp/Job-18.odb,Step-1,Increment      1: Step Time =    1.000,"P-18-1",          1130,       104.524,       38.8222,            0.,NA,NA,"",   1.32900E+06,   1.44262E+06,   1.44262E+06
C:/temp/Job-18.odb,Step-1,Increment      1: Step Time =    1.000,"P-18-1",          1131,       151.393,       129.432,            0.,NA,NA,"",   1.36877E+06,   1.16562E+06,   1.16562E+06
C:/temp/Job-18.odb,Step-1,Increment      1: Step Time =    1.000,"P-18-1",          1132,       162.977,       105.371,            0.,NA,NA,"",   563.823E+03,   594.276E+03,   594.276E+03
C:/temp/Job-18.odb,Step-1,Increment      1: Step Time =    1.000,"P-18-1",          1133,       158.577,       96.3289,            0.,NA,NA,"",   491.420E+03,   490.426E+03,   490.426E+03
C:/temp/Job-18.odb,Step-1,Increment      1: Step Time =    1.000,"P-18-1",          1134,       134.326,       50.5515,            0.,NA,NA,"",   1.60507E+06,   1.53197E+06,   1.53197E+06
C:/temp/Job-18.odb,Step-1,Increment      1: Step Time =    1.000,"P-18-1",          1135,       35.1064,       105.939,            0.,NA,NA,"",   304.712E+03,   344.396E+03,   344.396E+03
C:/temp/Job-18.odb,Step-1,Increment      1: Step Time =    1.000,"P-18-1",          1136,       44.1140,       113.788,            0.,NA,NA,"",   471.485E+03,   430.983E+03,   430.983E+03
C:/temp/Job-18.odb,Step-1,Increment      1: Step Time =    1.000,"P-18-1",          1137,       52.5347,       119.254,            0.,NA,NA,"",   718.902E+03,   568.473E+03,   568.473E+03
C:/temp/Job-18.odb,Step-1,Increment      1: Step Time =    1.000,"P-18-1",          1138,       26.7152,       73.3550,            0.,NA,NA,"",   658.339E+03,   696.593E+03,   696.593E+03
C:/temp/Job-18.odb,Step-1,Increment      1: Step Time =    1.000,"P-18-1",          1139,       177.789,       126.154,            0.,NA,NA,"",   988.124E+03,   1.04084E+06,   1.04084E+06
C:/temp/Job-18.odb,Step-1,Increment      1: Step Time =    1.000,"P-18-1",          1140,       124.793,       25.4490,            0.,NA,NA,"",   1.17823E+06,   1.19357E+06,   1.19357E+06
C:/temp/Job-18.odb,Step-1,Increment      1: Step Time =    1.000,"P-18-1",          1141,       74.5090,       175.154,            0.,NA,NA,"",   1.33212E+06,   1.31777E+06,   1.31777E+06
C:/temp/Job-18.odb,Step-1,Increment      1: Step Time =    1.000,"P-18-1",          1142,       28.9382,       24.8496,            0.,NA,NA,"",   1.35941E+06,   1.36220E+06,   1.36220E+06
C:/temp/Job-18.odb,Step-1,Increment      1: Step Time =    1.000,"P-18-1",          1143,       167.586,       25.2699,            0.,NA,NA,"",   1.11007E+06,   1.09452E+06,   1.09452E+06
C:/temp/Job-18.odb,Step-1,Increment      1: Step Time =    1.000,"P-18-1",          1144,       23.5130,       169.133,            0.,NA,NA,"",   1.27056E+06,   1.29769E+06,   1.29769E+06
C:/temp/Job-18.odb,Step-1,Increment      1: Step Time =    1.000,"P-18-1",          1145,       173.289,       31.7218,            0.,NA,NA,"",   1.10721E+06,   1.09713E+06,   1.09713E+06
C:/temp/Job-18.odb,Step-1,Increment      1: Step Time =    1.000,"P-18-1",          1146,       31.6516,       175.838,            0.,NA,NA,"",   1.36947E+06,   1.36550E+06,   1.36550E+06
C:/temp/Job-18.odb,Step-1,Increment      1: Step Time =    1.000,"P-18-1",          1147,       174.856,       167.646,            0.,NA,NA,"",   1.09699E+06,   1.09023E+06,   1.09023E+06
C:/temp/Job-18.odb,Step-1,Increment      1: Step Time =    1.000,"P-18-1",          1148,       168.476,       173.197,            0.,NA,NA,"",   1.11485E+06,   1.09927E+06,   1.09927E+06
C:/temp/Job-18.odb,Step-1,Increment      1: Step Time =    1.000,"P-18-1",          1149,       77.7701,       54.5515,            0.,NA,NA,"",   1.67653E+06,   1.67255E+06,   1.67255E+06
C:/temp/Job-18.odb,Step-1,Increment      1: Step Time =    1.000,"P-18-1",          1150,       75.5298,       153.306,            0.,NA,NA,"",   1.59454E+06,   1.57347E+06,   1.57347E+06
C:/temp/Job-18.odb,Step-1,Increment      1: Step Time =    1.000,"P-18-1",          1151,       28.0478,       57.7260,            0.,NA,NA,"",   951.689E+03,   968.341E+03,   968.341E+03
C:/temp/Job-18.odb,Step-1,Increment      1: Step Time =    1.000,"P-18-1",          1152,       54.0597,       26.1933,            0.,NA,NA,"",   1.39886E+06,   1.35572E+06,   1.35572E+06
C:/temp/Job-18.odb,Step-1,Increment      1: Step Time =    1.000,"P-18-1",          1153,       55.7084,       174.177,            0.,NA,NA,"",   1.39825E+06,   1.35592E+06,   1.35592E+06
C:/temp/Job-18.odb,Step-1,Increment      1: Step Time =    1.000,"P-18-1",          1154,       145.919,       172.571,            0.,NA,NA,"",   1.22380E+06,   1.18958E+06,   1.18958E+06
C:/temp/Job-18.odb,Step-1,Increment      1: Step Time =    1.000,"P-18-1",          1155,       173.033,       54.3051,            0.,NA,NA,"",   1.15861E+06,   1.14394E+06,   1.14394E+06
C:/temp/Job-18.odb,Step-1,Increment      1: Step Time =    1.000,"P-18-1",          1156,       110.084,       156.809,            0.,NA,NA,"",   1.42331E+06,   1.54222E+06,   1.54222E+06
C:/temp/Job-18.odb,Step-1,Increment      1: Step Time =    1.000,"P-18-1",          1157,       100.421,       148.211,            0.,NA,NA,"",   1.74349E+06,   1.90589E+06,   1.90589E+06
C:/temp/Job-18.odb,Step-1,Increment      1: Step Time =    1.000,"P-18-1",          1158,       18.4062,       173.742,            0.,NA,NA,"",   1.28980E+06,   1.33831E+06,   1.33831E+06
C:/temp/Job-18.odb,Step-1,Increment      1: Step Time =    1.000,"P-18-1",          1159,       179.217,       16.0142,            0.,NA,NA,"",   1.02487E+06,   1.02559E+06,   1.02559E+06
C:/temp/Job-18.odb,Step-1,Increment      1: Step Time =    1.000,"P-18-1",          1160,       14.9266,       22.8885,            0.,NA,NA,"",   1.31778E+06,   1.37986E+06,   1.37986E+06
C:/temp/Job-18.odb,Step-1,Increment      1: Step Time =    1.000,"P-18-1",          1161,       22.8339,       15.6886,            0.,NA,NA,"",   1.43666E+06,   1.45222E+06,   1.45222E+06
C:/temp/Job-18.odb,Step-1,Increment      1: Step Time =    1.000,"P-18-1",          1162,       183.994,       179.227,            0.,NA,NA,"",   1.01993E+06,   1.02441E+06,   1.02441E+06
C:/temp/Job-18.odb,Step-1,Increment      1: Step Time =    1.000,"P-18-1",          1163,       174.528,       185.853,            0.,NA,NA,"",   1.03136E+06,   1.02969E+06,   1.02969E+06
C:/temp/Job-18.odb,Step-1,Increment      1: Step Time =    1.000,"P-18-1",          1164,       185.856,       25.4915,            0.,NA,NA,"",   1.01708E+06,   1.02587E+06,   1.02587E+06
C:/temp/Job-18.odb,Step-1,Increment      1: Step Time =    1.000,"P-18-1",          1165,       20.8457,       183.338,            0.,NA,NA,"",   1.42713E+06,   1.44993E+06,   1.44993E+06
C:/temp/Job-18.odb,Step-1,Increment      1: Step Time =    1.000,"P-18-1",          1166,       97.7179,       46.1918,            0.,NA,NA,"",   1.54075E+06,   1.67878E+06,   1.67878E+06
C:/temp/Job-18.odb,Step-1,Increment      1: Step Time =    1.000,"P-18-1",          1167,       35.7184,       91.1736,            0.,NA,NA,"",   347.028E+03,   381.144E+03,   381.144E+03
C:/temp/Job-18.odb,Step-1,Increment      1: Step Time =    1.000,"P-18-1",          1168,       47.5573,       81.8681,            0.,NA,NA,"",   625.401E+03,   538.299E+03,   538.299E+03
C:/temp/Job-18.odb,Step-1,Increment      1: Step Time =    1.000,"P-18-1",          1169,       46.3292,       71.4344,            0.,NA,NA,"",   921.980E+03,   833.458E+03,   833.458E+03
C:/temp/Job-18.odb,Step-1,Increment      1: Step Time =    1.000,"P-18-1",          1170,       120.635,       37.6809,            0.,NA,NA,"",   1.35545E+06,   1.40245E+06,   1.40245E+06
C:/temp/Job-18.odb,Step-1,Increment      1: Step Time =    1.000,"P-18-1",          1171,       159.959,       113.589,            0.,NA,NA,"",   814.668E+03,   755.104E+03,   755.104E+03
C:/temp/Job-18.odb,Step-1,Increment      1: Step Time =    1.000,"P-18-1",          1172,       116.243,       48.1389,            0.,NA,NA,"",   1.55789E+06,   1.65323E+06,   1.65323E+06
C:/temp/Job-18.odb,Step-1,Increment      1: Step Time =    1.000,"P-18-1",          1173,       109.203,       29.8188,            0.,NA,NA,"",   1.18661E+06,   1.25867E+06,   1.25867E+06
C:/temp/Job-18.odb,Step-1,Increment      1: Step Time =    1.000,"P-18-1",          1174,       28.5577,       90.0428,            0.,NA,NA,"",   380.862E+03,   431.329E+03,   431.329E+03
C:/temp/Job-18.odb,Step-1,Increment      1: Step Time =    1.000,"P-18-1",          1175,       88.9118,       170.301,            0.,NA,NA,"",   1.27374E+06,   1.32198E+06,   1.32198E+06
C:/temp/Job-18.odb,Step-1,Increment      1: Step Time =    1.000,"P-18-1",          1176,       169.981,       111.172,            0.,NA,NA,"",   760.341E+03,   810.551E+03,   810.551E+03
C:/temp/Job-18.odb,Step-1,Increment      1: Step Time =    1.000,"P-18-1",          1177,       161.593,       99.1333,            0.,NA,NA,"",   495.899E+03,   529.456E+03,   529.456E+03
C:/temp/Job-18.odb,Step-1,Increment      1: Step Time =    1.000,"P-18-1",          1178,       101.675,       168.403,            0.,NA,NA,"",   1.21759E+06,   1.30160E+06,   1.30160E+06
C:/temp/Job-18.odb,Step-1,Increment      1: Step Time =    1.000,"P-18-1",          1179,       33.7261,       102.472,            0.,NA,NA,"",   278.046E+03,   320.247E+03,   320.247E+03
C:/temp/Job-18.odb,Step-1,Increment      1: Step Time =    1.000,"P-18-1",          1180,       100.008,       34.9758,            0.,NA,NA,"",   1.27209E+06,   1.37079E+06,   1.37079E+06
C:/temp/Job-18.odb,Step-1,Increment      1: Step Time =    1.000,"P-18-1",          1181,       43.6765,       186.304,            0.,NA,NA,"",   1.37415E+06,   1.36132E+06,   1.36132E+06
C:/temp/Job-18.odb,Step-1,Increment      1: Step Time =    1.000,"P-18-1",          1182,       184.853,       155.481,            0.,NA,NA,"",   1.02655E+06,   1.05713E+06,   1.05713E+06
C:/temp/Job-18.odb,Step-1,Increment      1: Step Time =    1.000,"P-18-1",          1183,       15.9449,       45.5656,            0.,NA,NA,"",   1.00971E+06,   1.07530E+06,   1.07530E+06
C:/temp/Job-18.odb,Step-1,Increment      1: Step Time =    1.000,"P-18-1",          1184,       155.302,       14.9902,            0.,NA,NA,"",   1.06936E+06,   1.05715E+06,   1.05715E+06
C:/temp/Job-18.odb,Step-1,Increment      1: Step Time =    1.000,"P-18-1",          1185,       156.146,       80.7309,            0.,NA,NA,"",   1.03536E+06,   892.107E+03,   892.107E+03
C:/temp/Job-18.odb,Step-1,Increment      1: Step Time =    1.000,"P-18-1",          1186,       109.373,       163.489,            0.,NA,NA,"",   1.28653E+06,   1.38501E+06,   1.38501E+06
C:/temp/Job-18.odb,Step-1,Increment      1: Step Time =    1.000,"P-18-1",          1187,       164.913,       91.8187,            0.,NA,NA,"",   660.119E+03,   688.900E+03,   688.900E+03
C:/temp/Job-18.odb,Step-1,Increment      1: Step Time =    1.000,"P-18-1",          1188,       33.1993,       112.224,            0.,NA,NA,"",   402.584E+03,   440.359E+03,   440.359E+03
C:/temp/Job-18.odb,Step-1,Increment      1: Step Time =    1.000,"P-18-1",          1189,       90.6213,       33.4774,            0.,NA,NA,"",   1.31661E+06,   1.38266E+06,   1.38266E+06
C:/temp/Job-18.odb,Step-1,Increment      1: Step Time =    1.000,"P-18-1",          1190,       141.905,       64.7499,            0.,NA,NA,"",   1.59024E+06,   1.38097E+06,   1.38097E+06
C:/temp/Job-18.odb,Step-1,Increment      1: Step Time =    1.000,"P-18-1",          1191,       61.0903,       141.908,            0.,NA,NA,"",   1.45336E+06,   1.32866E+06,   1.32866E+06
C:/temp/Job-18.odb,Step-1,Increment      1: Step Time =    1.000,"P-18-1",          1192,       165.877,       121.486,            0.,NA,NA,"",   1.01196E+06,   974.309E+03,   974.309E+03
C:/temp/Job-18.odb,Step-1,Increment      1: Step Time =    1.000,"P-18-1",          1193,       77.1373,       166.490,            0.,NA,NA,"",   1.42161E+06,   1.41586E+06,   1.41586E+06
C:/temp/Job-18.odb,Step-1,Increment      1: Step Time =    1.000,"P-18-1",          1194,       120.807,       166.033,            0.,NA,NA,"",   1.29398E+06,   1.33533E+06,   1.33533E+06
C:/temp/Job-18.odb,Step-1,Increment      1: Step Time =    1.000,"P-18-1",          1195,       166.376,       76.7565,            0.,NA,NA,"",   1.04461E+06,   1.00686E+06,   1.00686E+06
C:/temp/Job-18.odb,Step-1,Increment      1: Step Time =    1.000,"P-18-1",          1196,       35.2338,       83.3016,            0.,NA,NA,"",   501.697E+03,   520.752E+03,   520.752E+03
C:/temp/Job-18.odb,Step-1,Increment      1: Step Time =    1.000,"P-18-1",          1197,       32.5963,       123.460,            0.,NA,NA,"",   636.703E+03,   653.624E+03,   653.624E+03
C:/temp/Job-18.odb,Step-1,Increment      1: Step Time =    1.000,"P-18-1",          1198,       79.5483,       34.5399,            0.,NA,NA,"",   1.42371E+06,   1.43070E+06,   1.43070E+06
C:/temp/Job-18.odb,Step-1,Increment      1: Step Time =    1.000,"P-18-1",          1199,       119.460,       31.9007,            0.,NA,NA,"",   1.25437E+06,   1.29884E+06,   1.29884E+06
C:/temp/Job-18.odb,Step-1,Increment      1: Step Time =    1.000,"P-18-1",          1200,       32.7924,       132.121,            0.,NA,NA,"",   817.508E+03,   819.530E+03,   819.530E+03
C:/temp/Job-18.odb,Step-1,Increment      1: Step Time =    1.000,"P-18-1",          1201,       131.874,       165.912,            0.,NA,NA,"",   1.33593E+06,   1.32058E+06,   1.32058E+06
C:/temp/Job-18.odb,Step-1,Increment      1: Step Time =    1.000,"P-18-1",          1202,       167.058,       69.5059,            0.,NA,NA,"",   1.15321E+06,   1.10247E+06,   1.10247E+06
C:/temp/Job-18.odb,Step-1,Increment      1: Step Time =    1.000,"P-18-1",          1203,       69.5376,       33.0099,            0.,NA,NA,"",   1.44532E+06,   1.40835E+06,   1.40835E+06
C:/temp/Job-18.odb,Step-1,Increment      1: Step Time =    1.000,"P-18-1",          1204,       180.303,       42.8643,            0.,NA,NA,"",   1.07237E+06,   1.08431E+06,   1.08431E+06
C:/temp/Job-18.odb,Step-1,Increment      1: Step Time =    1.000,"P-18-1",          1205,       157.145,       180.194,            0.,NA,NA,"",   1.11342E+06,   1.09455E+06,   1.09455E+06
C:/temp/Job-18.odb,Step-1,Increment      1: Step Time =    1.000,"P-18-1",          1206,       43.3133,       14.9775,            0.,NA,NA,"",   1.37884E+06,   1.36306E+06,   1.36306E+06
C:/temp/Job-18.odb,Step-1,Increment      1: Step Time =    1.000,"P-18-1",          1207,       15.3389,       156.360,            0.,NA,NA,"",   1.02978E+06,   1.09656E+06,   1.09656E+06
C:/temp/Job-18.odb,Step-1,Increment      1: Step Time =    1.000,"P-18-1",          1208,       134.737,       59.7653,            0.,NA,NA,"",   1.67478E+06,   1.54480E+06,   1.54480E+06
C:/temp/Job-18.odb,Step-1,Increment      1: Step Time =    1.000,"P-18-1",          1209,       172.608,       175.279,            0.,NA,NA,"",   1.08017E+06,   1.07250E+06,   1.07250E+06
C:/temp/Job-18.odb,Step-1,Increment      1: Step Time =    1.000,"P-18-1",          1210,       174.137,       171.647,            0.,NA,NA,"",   1.08769E+06,   1.08058E+06,   1.08058E+06
C:/temp/Job-18.odb,Step-1,Increment      1: Step Time =    1.000,"P-18-1",          1211,       175.278,       27.5021,            0.,NA,NA,"",   1.07547E+06,   1.07132E+06,   1.07132E+06
C:/temp/Job-18.odb,Step-1,Increment      1: Step Time =    1.000,"P-18-1",          1212,       28.5064,       176.739,            0.,NA,NA,"",   1.36580E+06,   1.37066E+06,   1.37066E+06
C:/temp/Job-18.odb,Step-1,Increment      1: Step Time =    1.000,"P-18-1",          1213,       22.6459,       173.542,            0.,NA,NA,"",   1.32239E+06,   1.34906E+06,   1.34906E+06
C:/temp/Job-18.odb,Step-1,Increment      1: Step Time =    1.000,"P-18-1",          1214,       171.615,       26.0614,            0.,NA,NA,"",   1.09189E+06,   1.08194E+06,   1.08194E+06
C:/temp/Job-18.odb,Step-1,Increment      1: Step Time =    1.000,"P-18-1",          1215,       24.6309,       25.0811,            0.,NA,NA,"",   1.33883E+06,   1.35818E+06,   1.35818E+06
C:/temp/Job-18.odb,Step-1,Increment      1: Step Time =    1.000,"P-18-1",          1216,       21.8578,       30.1102,            0.,NA,NA,"",   1.26308E+06,   1.29900E+06,   1.29900E+06
C:/temp/Job-18.odb,Step-1,Increment      1: Step Time =    1.000,"P-18-1",          1217,       43.4675,       82.8565,            0.,NA,NA,"",   559.484E+03,   516.165E+03,   516.165E+03
C:/temp/Job-18.odb,Step-1,Increment      1: Step Time =    1.000,"P-18-1",          1218,       59.4086,       55.8483,            0.,NA,NA,"",   1.45363E+06,   1.33714E+06,   1.33714E+06
C:/temp/Job-18.odb,Step-1,Increment      1: Step Time =    1.000,"P-18-1",          1219,       24.8057,       52.8214,            0.,NA,NA,"",     994.5E+03,   1.02292E+06,   1.02292E+06
C:/temp/Job-18.odb,Step-1,Increment      1: Step Time =    1.000,"P-18-1",          1220,       49.0661,       22.4487,            0.,NA,NA,"",   1.38648E+06,   1.35397E+06,   1.35397E+06
C:/temp/Job-18.odb,Step-1,Increment      1: Step Time =    1.000,"P-18-1",          1221,       178.205,       48.7573,            0.,NA,NA,"",   1.10049E+06,   1.10788E+06,   1.10788E+06
C:/temp/Job-18.odb,Step-1,Increment      1: Step Time =    1.000,"P-18-1",          1222,       151.302,       178.053,            0.,NA,NA,"",   1.15181E+06,   1.12699E+06,   1.12699E+06
C:/temp/Job-18.odb,Step-1,Increment      1: Step Time =    1.000,"P-18-1",          1223,       176.634,       149.653,            0.,NA,NA,"",   1.11256E+06,   1.11637E+06,   1.11637E+06
C:/temp/Job-18.odb,Step-1,Increment      1: Step Time =    1.000,"P-18-1",          1224,       23.3878,       149.227,            0.,NA,NA,"",   1.01177E+06,   1.04527E+06,   1.04527E+06
C:/temp/Job-18.odb,Step-1,Increment      1: Step Time =    1.000,"P-18-1",          1225,       150.143,       23.0938,            0.,NA,NA,"",   1.16419E+06,   1.13721E+06,   1.13721E+06
C:/temp/Job-18.odb,Step-1,Increment      1: Step Time =    1.000,"P-18-1",          1226,       49.5538,       177.313,            0.,NA,NA,"",   1.38562E+06,   1.35227E+06,   1.35227E+06
C:/temp/Job-18.odb,Step-1,Increment      1: Step Time =    1.000,"P-18-1",          1227,       90.5632,       45.6157,            0.,NA,NA,"",   1.54165E+06,   1.64330E+06,   1.64330E+06
C:/temp/Job-18.odb,Step-1,Increment      1: Step Time =    1.000,"P-18-1",          1228,       131.658,       54.7602,            0.,NA,NA,"",   1.66617E+06,   1.59294E+06,   1.59294E+06
C:/temp/Job-18.odb,Step-1,Increment      1: Step Time =    1.000,"P-18-1",          1229,       163.565,       94.5838,            0.,NA,NA,"",   594.364E+03,   626.378E+03,   626.378E+03
C:/temp/Job-18.odb,Step-1,Increment      1: Step Time =    1.000,"P-18-1",          1230,       146.333,       67.7428,            0.,NA,NA,"",   1.50855E+06,   1.28217E+06,   1.28217E+06
C:/temp/Job-18.odb,Step-1,Increment      1: Step Time =    1.000,"P-18-1",          1231,       135.766,       56.1903,            0.,NA,NA,"",   1.65717E+06,   1.54004E+06,   1.54004E+06
C:/temp/Job-18.odb,Step-1,Increment      1: Step Time =    1.000,"P-18-1",          1232,       139.217,       58.4900,            0.,NA,NA,"",   1.63643E+06,   1.47979E+06,   1.47979E+06
C:/temp/Job-18.odb,Step-1,Increment      1: Step Time =    1.000,"P-18-1",          1233,       18.0583,       13.9813,            0.,NA,NA,"",   1.47251E+06,   1.49570E+06,   1.49570E+06
C:/temp/Job-18.odb,Step-1,Increment      1: Step Time =    1.000,"P-18-1",          1234,       14.4268,       179.147,            0.,NA,NA,"",   1.33902E+06,   1.40182E+06,   1.40182E+06
C:/temp/Job-18.odb,Step-1,Increment      1: Step Time =    1.000,"P-18-1",          1235,       184.884,       20.8675,            0.,NA,NA,"",   1.01656E+06,   1.02176E+06,   1.02176E+06
C:/temp/Job-18.odb,Step-1,Increment      1: Step Time =    1.000,"P-18-1",          1236,       179.149,       184.889,            0.,NA,NA,"",   1.02326E+06,   1.02389E+06,   1.02389E+06
C:/temp/Job-18.odb,Step-1,Increment      1: Step Time =    1.000,"P-18-1",          1237,       181.845,       148.177,            0.,NA,NA,"",   1.05007E+06,   1.08204E+06,   1.08204E+06
C:/temp/Job-18.odb,Step-1,Increment      1: Step Time =    1.000,"P-18-1",          1238,       50.6707,       182.586,            0.,NA,NA,"",   1.35904E+06,   1.33596E+06,   1.33596E+06
C:/temp/Job-18.odb,Step-1,Increment      1: Step Time =    1.000,"P-18-1",          1239,       17.4163,       51.0480,            0.,NA,NA,"",   949.082E+03,   1.00886E+06,   1.00886E+06
C:/temp/Job-18.odb,Step-1,Increment      1: Step Time =    1.000,"P-18-1",          1240,       154.027,       106.217,            0.,NA,NA,"",   504.935E+03,   428.535E+03,   428.535E+03
C:/temp/Job-18.odb,Step-1,Increment      1: Step Time =    1.000,"P-18-1",          1241,       148.846,       69.5614,            0.,NA,NA,"",   1.44123E+06,   1.22031E+06,   1.22031E+06
C:/temp/Job-18.odb,Step-1,Increment      1: Step Time =    1.000,"P-18-1",          1242,       153.645,       123.993,            0.,NA,NA,"",   1.22532E+06,   1.03376E+06,   1.03376E+06
C:/temp/Job-18.odb,Step-1,Increment      1: Step Time =    1.000,"P-18-1",          1243,       136.690,       46.3604,            0.,NA,NA,"",   1.52602E+06,   1.45573E+06,   1.45573E+06
C:/temp/Job-18.odb,Step-1,Increment      1: Step Time =    1.000,"P-18-1",          1244,       37.6339,       100.799,            0.,NA,NA,"",   236.559E+03,   271.752E+03,   271.752E+03
C:/temp/Job-18.odb,Step-1,Increment      1: Step Time =    1.000,"P-18-1",          1245,       47.5439,       123.377,            0.,NA,NA,"",   792.887E+03,   696.702E+03,   696.702E+03
C:/temp/Job-18.odb,Step-1,Increment      1: Step Time =    1.000,"P-18-1",          1246,       30.6952,       69.8316,            0.,NA,NA,"",   757.250E+03,   772.984E+03,   772.984E+03
C:/temp/Job-18.odb,Step-1,Increment      1: Step Time =    1.000,"P-18-1",          1247,       173.813,       133.016,            0.,NA,NA,"",   1.09861E+06,   1.10275E+06,   1.10275E+06
C:/temp/Job-18.odb,Step-1,Increment      1: Step Time =    1.000,"P-18-1",          1248,       129.389,       28.7535,            0.,NA,NA,"",   1.24314E+06,   1.24331E+06,   1.24331E+06
C:/temp/Job-18.odb,Step-1,Increment      1: Step Time =    1.000,"P-18-1",          1249,       69.9948,       170.830,            0.,NA,NA,"",   1.40267E+06,   1.37157E+06,   1.37157E+06
C:/temp/Job-18.odb,Step-1,Increment      1: Step Time =    1.000,"P-18-1",          1250,       166.532,       114.600,            0.,NA,NA,"",   836.708E+03,   841.452E+03,   841.452E+03
C:/temp/Job-18.odb,Step-1,Increment      1: Step Time =    1.000,"P-18-1",          1251,       15.3193,       17.8878,            0.,NA,NA,"",   1.39612E+06,   1.44759E+06,   1.44759E+06
C:/temp/Job-18.odb,Step-1,Increment      1: Step Time =    1.000,"P-18-1",          1252,       15.1428,       184.192,            0.,NA,NA,"",   1.43896E+06,   1.48482E+06,   1.48482E+06
C:/temp/Job-18.odb,Step-1,Increment      1: Step Time =    1.000,"P-18-1",          1253,       29.8964,       36.7941,            0.,NA,NA,"",   1.25508E+06,   1.25608E+06,   1.25608E+06
C:/temp/Job-18.odb,Step-1,Increment      1: Step Time =    1.000,"P-18-1",          1254,       34.5387,       26.7204,            0.,NA,NA,"",   1.36644E+06,   1.35297E+06,   1.35297E+06
C:/temp/Job-18.odb,Step-1,Increment      1: Step Time =    1.000,"P-18-1",          1255,       28.2928,       163.550,            0.,NA,NA,"",   1.24466E+06,   1.25221E+06,   1.25221E+06
C:/temp/Job-18.odb,Step-1,Increment      1: Step Time =    1.000,"P-18-1",          1256,       162.479,       29.3580,            0.,NA,NA,"",   1.16592E+06,   1.13767E+06,   1.13767E+06
C:/temp/Job-18.odb,Step-1,Increment      1: Step Time =    1.000,"P-18-1",          1257,       36.7444,       171.585,            0.,NA,NA,"",   1.36365E+06,   1.34333E+06,   1.34333E+06
C:/temp/Job-18.odb,Step-1,Increment      1: Step Time =    1.000,"P-18-1",          1258,       171.759,       35.0395,            0.,NA,NA,"",   1.13276E+06,   1.11705E+06,   1.11705E+06
C:/temp/Job-18.odb,Step-1,Increment      1: Step Time =    1.000,"P-18-1",          1259,       170.535,       162.830,            0.,NA,NA,"",   1.15384E+06,   1.13277E+06,   1.13277E+06
C:/temp/Job-18.odb,Step-1,Increment      1: Step Time =    1.000,"P-18-1",          1260,       165.128,       170.993,            0.,NA,NA,"",   1.14967E+06,   1.12587E+06,   1.12587E+06
C:/temp/Job-18.odb,Step-1,Increment      1: Step Time =    1.000,"P-18-1",          1261,       76.2149,       48.7956,            0.,NA,NA,"",   1.62038E+06,   1.60335E+06,   1.60335E+06
C:/temp/Job-18.odb,Step-1,Increment      1: Step Time =    1.000,"P-18-1",          1262,       69.9045,       156.745,            0.,NA,NA,"",   1.55018E+06,   1.49886E+06,   1.49886E+06
C:/temp/Job-18.odb,Step-1,Increment      1: Step Time =    1.000,"P-18-1",          1263,       76.8233,       149.191,            0.,NA,NA,"",   1.63593E+06,   1.62105E+06,   1.62105E+06
C:/temp/Job-18.odb,Step-1,Increment      1: Step Time =    1.000,"P-18-1",          1264,       101.223,       153.120,            0.,NA,NA,"",   1.52517E+06,   1.67099E+06,   1.67099E+06
C:/temp/Job-18.odb,Step-1,Increment      1: Step Time =    1.000,"P-18-1",          1265,       113.558,       153.731,            0.,NA,NA,"",   1.51151E+06,   1.62297E+06,   1.62297E+06
C:/temp/Job-18.odb,Step-1,Increment      1: Step Time =    1.000,"P-18-1",          1266,       108.905,       34.3092,            0.,NA,NA,"",   1.25497E+06,   1.34334E+06,   1.34334E+06
C:/temp/Job-18.odb,Step-1,Increment      1: Step Time =    1.000,"P-18-1",          1267,       33.0299,       86.8383,            0.,NA,NA,"",   432.552E+03,   467.602E+03,   467.602E+03
C:/temp/Job-18.odb,Step-1,Increment      1: Step Time =    1.000,"P-18-1",          1268,       41.9248,       79.3179,            0.,NA,NA,"",   640.316E+03,   602.370E+03,   602.370E+03
C:/temp/Job-18.odb,Step-1,Increment      1: Step Time =    1.000,"P-18-1",          1269,       124.767,       37.1011,            0.,NA,NA,"",   1.36816E+06,   1.39032E+06,   1.39032E+06
C:/temp/Job-18.odb,Step-1,Increment      1: Step Time =    1.000,"P-18-1",          1270,       163.017,       117.389,            0.,NA,NA,"",   926.995E+03,   878.256E+03,   878.256E+03
C:/temp/Job-18.odb,Step-1,Increment      1: Step Time =    1.000,"P-18-1",          1271,       55.5643,       146.843,            0.,NA,NA,"",   1.41777E+06,   1.31036E+06,   1.31036E+06
C:/temp/Job-18.odb,Step-1,Increment      1: Step Time =    1.000,"P-18-1",          1272,       81.0819,       164.093,            0.,NA,NA,"",   1.43537E+06,   1.45137E+06,   1.45137E+06
C:/temp/Job-18.odb,Step-1,Increment      1: Step Time =    1.000,"P-18-1",          1273,       36.9314,       85.9536,            0.,NA,NA,"",   451.649E+03,   468.413E+03,   468.413E+03
C:/temp/Job-18.odb,Step-1,Increment      1: Step Time =    1.000,"P-18-1",          1274,       116.288,       35.0094,            0.,NA,NA,"",   1.28873E+06,   1.35350E+06,   1.35350E+06
C:/temp/Job-18.odb,Step-1,Increment      1: Step Time =    1.000,"P-18-1",          1275,       159.506,       77.1773,            0.,NA,NA,"",   1.10872E+06,   994.084E+03,   994.084E+03
C:/temp/Job-18.odb,Step-1,Increment      1: Step Time =    1.000,"P-18-1",          1276,       25.3309,       33.9965,            0.,NA,NA,"",   1.25046E+06,   1.27161E+06,   1.27161E+06
C:/temp/Job-18.odb,Step-1,Increment      1: Step Time =    1.000,"P-18-1",          1277,       169.945,       30.6611,            0.,NA,NA,"",   1.12648E+06,   1.10973E+06,   1.10973E+06
C:/temp/Job-18.odb,Step-1,Increment      1: Step Time =    1.000,"P-18-1",          1278,       169.965,       170.008,            0.,NA,NA,"",   1.12325E+06,   1.10711E+06,   1.10711E+06
C:/temp/Job-18.odb,Step-1,Increment      1: Step Time =    1.000,"P-18-1",          1279,       67.0031,       50.0147,            0.,NA,NA,"",   1.56749E+06,   1.48582E+06,   1.48582E+06
C:/temp/Job-18.odb,Step-1,Increment      1: Step Time =    1.000,"P-18-1",          1280,       95.2494,       34.8571,            0.,NA,NA,"",   1.29640E+06,   1.38416E+06,   1.38416E+06
C:/temp/Job-18.odb,Step-1,Increment      1: Step Time =    1.000,"P-18-1",          1281,       118.882,       161.666,            0.,NA,NA,"",   1.35992E+06,   1.41850E+06,   1.41850E+06
C:/temp/Job-18.odb,Step-1,Increment      1: Step Time =    1.000,"P-18-1",          1282,       163.304,       80.1117,            0.,NA,NA,"",   993.940E+03,   936.388E+03,   936.388E+03
C:/temp/Job-18.odb,Step-1,Increment      1: Step Time =    1.000,"P-18-1",          1283,       37.8147,       118.235,            0.,NA,NA,"",   553.857E+03,   550.579E+03,   550.579E+03
C:/temp/Job-18.odb,Step-1,Increment      1: Step Time =    1.000,"P-18-1",          1284,       84.3910,       36.0257,            0.,NA,NA,"",   1.40949E+06,   1.44633E+06,   1.44633E+06
C:/temp/Job-18.odb,Step-1,Increment      1: Step Time =    1.000,"P-18-1",          1285,       126.278,       164.192,            0.,NA,NA,"",   1.35193E+06,   1.36412E+06,   1.36412E+06
C:/temp/Job-18.odb,Step-1,Increment      1: Step Time =    1.000,"P-18-1",          1286,       162.868,       73.5268,            0.,NA,NA,"",   1.14910E+06,   1.06194E+06,   1.06194E+06
C:/temp/Job-18.odb,Step-1,Increment      1: Step Time =    1.000,"P-18-1",          1287,       74.2087,       38.6852,            0.,NA,NA,"",   1.49918E+06,   1.47686E+06,   1.47686E+06
C:/temp/Job-18.odb,Step-1,Increment      1: Step Time =    1.000,"P-18-1",          1288,       37.4602,       127.704,            0.,NA,NA,"",   778.109E+03,   758.210E+03,   758.210E+03
C:/temp/Job-18.odb,Step-1,Increment      1: Step Time =    1.000,"P-18-1",          1289,       99.9671,       163.640,            0.,NA,NA,"",   1.29225E+06,   1.39202E+06,   1.39202E+06
C:/temp/Job-18.odb,Step-1,Increment      1: Step Time =    1.000,"P-18-1",          1290,       159.703,       119.788,            0.,NA,NA,"",   1.02363E+06,   922.235E+03,   922.235E+03
C:/temp/Job-18.odb,Step-1,Increment      1: Step Time =    1.000,"P-18-1",          1291,       137.974,       162.476,            0.,NA,NA,"",   1.39024E+06,   1.34500E+06,   1.34500E+06
C:/temp/Job-18.odb,Step-1,Increment      1: Step Time =    1.000,"P-18-1",          1292,       63.4811,       36.6991,            0.,NA,NA,"",   1.48088E+06,   1.42105E+06,   1.42105E+06
C:/temp/Job-18.odb,Step-1,Increment      1: Step Time =    1.000,"P-18-1",          1293,       163.024,       62.7189,            0.,NA,NA,"",   1.27821E+06,   1.18908E+06,   1.18908E+06
C:/temp/Job-18.odb,Step-1,Increment      1: Step Time =    1.000,"P-18-1",          1294,       36.6937,       136.585,            0.,NA,NA,"",   952.393E+03,   928.622E+03,   928.622E+03
C:/temp/Job-18.odb,Step-1,Increment      1: Step Time =    1.000,"P-18-1",          1295,       153.983,       178.730,            0.,NA,NA,"",   1.13690E+06,   1.11406E+06,   1.11406E+06
C:/temp/Job-18.odb,Step-1,Increment      1: Step Time =    1.000,"P-18-1",          1296,       182.820,       151.308,            0.,NA,NA,"",   1.04585E+06,   1.07581E+06,   1.07581E+06
C:/temp/Job-18.odb,Step-1,Increment      1: Step Time =    1.000,"P-18-1",          1297,       46.8864,       181.499,            0.,NA,NA,"",   1.37284E+06,   1.34998E+06,   1.34998E+06
C:/temp/Job-18.odb,Step-1,Increment      1: Step Time =    1.000,"P-18-1",          1298,       178.870,       46.0605,            0.,NA,NA,"",   1.09057E+06,   1.09934E+06,   1.09934E+06
C:/temp/Job-18.odb,Step-1,Increment      1: Step Time =    1.000,"P-18-1",          1299,       150.178,       16.6893,            0.,NA,NA,"",   1.09071E+06,   1.07491E+06,   1.07491E+06
C:/temp/Job-18.odb,Step-1,Increment      1: Step Time =    1.000,"P-18-1",          1300,       19.1837,       152.187,            0.,NA,NA,"",   1.01061E+06,   1.06161E+06,   1.06161E+06
C:/temp/Job-18.odb,Step-1,Increment      1: Step Time =    1.000,"P-18-1",          1301,       49.0380,       19.4047,            0.,NA,NA,"",   1.37595E+06,   1.34904E+06,   1.34904E+06
C:/temp/Job-18.odb,Step-1,Increment      1: Step Time =    1.000,"P-18-1",          1302,       21.4675,       47.3059,            0.,NA,NA,"",   1.03827E+06,   1.08079E+06,   1.08079E+06
C:/temp/Job-18.odb,Step-1,Increment      1: Step Time =    1.000,"P-18-1",          1303,       39.6557,       75.7132,            0.,NA,NA,"",   713.780E+03,   684.803E+03,   684.803E+03
C:/temp/Job-18.odb,Step-1,Increment      1: Step Time =    1.000,"P-18-1",          1304,       162.424,       123.888,            0.,NA,NA,"",   1.10210E+06,   1.01707E+06,   1.01707E+06
C:/temp/Job-18.odb,Step-1,Increment      1: Step Time =    1.000,"P-18-1",          1305,       73.8473,       162.645,            0.,NA,NA,"",   1.48531E+06,   1.46180E+06,   1.46180E+06
C:/temp/Job-18.odb,Step-1,Increment      1: Step Time =    1.000,"P-18-1",          1306,       154.965,       184.488,            0.,NA,NA,"",   1.07693E+06,   1.06374E+06,   1.06374E+06
C:/temp/Job-18.odb,Step-1,Increment      1: Step Time =    1.000,"P-18-1",          1307,       184.543,       45.0325,            0.,NA,NA,"",   1.02971E+06,   1.06027E+06,   1.06027E+06
C:/temp/Job-18.odb,Step-1,Increment      1: Step Time =    1.000,"P-18-1",          1308,       13.6349,       152.912,            0.,NA,NA,"",   965.432E+03,   1.03851E+06,   1.03851E+06
C:/temp/Job-18.odb,Step-1,Increment      1: Step Time =    1.000,"P-18-1",          1309,       46.7822,       13.4489,            0.,NA,NA,"",   1.36072E+06,   1.34578E+06,   1.34578E+06
C:/temp/Job-18.odb,Step-1,Increment      1: Step Time =    1.000,"P-18-1",          1310,       112.753,       160.368,            0.,NA,NA,"",   1.35234E+06,   1.44944E+06,   1.44944E+06
C:/temp/Job-18.odb,Step-1,Increment      1: Step Time =    1.000,"P-18-1",          1311,       40.0242,       84.2467,            0.,NA,NA,"",   497.637E+03,   489.156E+03,   489.156E+03
C:/temp/Job-18.odb,Step-1,Increment      1: Step Time =    1.000,"P-18-1",          1312,       141.762,       53.8888,            0.,NA,NA,"",   1.59159E+06,   1.45416E+06,   1.45416E+06
C:/temp/Job-18.odb,Step-1,Increment      1: Step Time =    1.000,"P-18-1",          1313,       86.8905,       42.3153,            0.,NA,NA,"",   1.49196E+06,   1.55909E+06,   1.55909E+06
C:/temp/Job-18.odb,Step-1,Increment      1: Step Time =    1.000,"P-18-1",          1314,       45.2433,       21.6657,            0.,NA,NA,"",   1.38772E+06,   1.35976E+06,   1.35976E+06
C:/temp/Job-18.odb,Step-1,Increment      1: Step Time =    1.000,"P-18-1",          1315,       176.488,       40.5911,            0.,NA,NA,"",   1.10642E+06,   1.10363E+06,   1.10363E+06
C:/temp/Job-18.odb,Step-1,Increment      1: Step Time =    1.000,"P-18-1",          1316,       159.476,       176.245,            0.,NA,NA,"",   1.13896E+06,   1.11574E+06,   1.11574E+06
C:/temp/Job-18.odb,Step-1,Increment      1: Step Time =    1.000,"P-18-1",          1317,       23.2347,       155.404,            0.,NA,NA,"",   1.09745E+06,   1.13006E+06,   1.13006E+06
C:/temp/Job-18.odb,Step-1,Increment      1: Step Time =    1.000,"P-18-1",          1318,       96.7780,       154.090,            0.,NA,NA,"",   1.51296E+06,   1.64580E+06,   1.64580E+06
C:/temp/Job-18.odb,Step-1,Increment      1: Step Time =    1.000,"P-18-1",          1319,       49.1096,       26.5965,            0.,NA,NA,"",   1.39720E+06,   1.35686E+06,   1.35686E+06
C:/temp/Job-18.odb,Step-1,Increment      1: Step Time =    1.000,"P-18-1",          1320,       172.871,       50.8095,            0.,NA,NA,"",   1.16429E+06,   1.14636E+06,   1.14636E+06
C:/temp/Job-18.odb,Step-1,Increment      1: Step Time =    1.000,"P-18-1",          1321,       149.346,       172.477,            0.,NA,NA,"",   1.21774E+06,   1.18182E+06,   1.18182E+06
C:/temp/Job-18.odb,Step-1,Increment      1: Step Time =    1.000,"P-18-1",          1322,       160.996,       89.5866,            0.,NA,NA,"",   693.686E+03,   673.988E+03,   673.988E+03
C:/temp/Job-18.odb,Step-1,Increment      1: Step Time =    1.000,"P-18-1",          1323,       103.578,       162.258,            0.,NA,NA,"",   1.30662E+06,   1.41311E+06,   1.41311E+06
C:/temp/Job-18.odb,Step-1,Increment      1: Step Time =    1.000,"P-18-1",          1324,       19.2750,       17.0563,            0.,NA,NA,"",   1.43150E+06,   1.46051E+06,   1.46051E+06
C:/temp/Job-18.odb,Step-1,Increment      1: Step Time =    1.000,"P-18-1",          1325,       18.7390,       178.317,            0.,NA,NA,"",   1.36016E+06,   1.39984E+06,   1.39984E+06
C:/temp/Job-18.odb,Step-1,Increment      1: Step Time =    1.000,"P-18-1",          1326,       117.172,       150.421,            0.,NA,NA,"",   1.60361E+06,   1.69548E+06,   1.69548E+06
C:/temp/Job-18.odb,Step-1,Increment      1: Step Time =    1.000,"P-18-1",          1327,       150.801,       66.2760,            0.,NA,NA,"",   1.44576E+06,   1.25361E+06,   1.25361E+06
C:/temp/Job-18.odb,Step-1,Increment      1: Step Time =    1.000,"P-18-1",          1328,       133.220,       45.1581,            0.,NA,NA,"",   1.52136E+06,   1.47344E+06,   1.47344E+06
C:/temp/Job-18.odb,Step-1,Increment      1: Step Time =    1.000,"P-18-1",          1329,       9.96447,       14.7195,            0.,NA,NA,"",   1.42666E+06,   1.50447E+06,   1.50447E+06
C:/temp/Job-18.odb,Step-1,Increment      1: Step Time =    1.000,"P-18-1",          1330,       184.665,       10.4244,            0.,NA,NA,"",   1.00682E+06,   1.00817E+06,   1.00817E+06
C:/temp/Job-18.odb,Step-1,Increment      1: Step Time =    1.000,"P-18-1",          1331,       15.2791,       189.448,            0.,NA,NA,"",   1.52635E+06,   1.55146E+06,   1.55146E+06
C:/temp/Job-18.odb,Step-1,Increment      1: Step Time =    1.000,"P-18-1",          1332,       189.579,       184.669,            0.,NA,NA,"",   1.00500E+06,   1.00800E+06,   1.00800E+06
C:/temp/Job-18.odb,Step-1,Increment      1: Step Time =    1.000,"P-18-1",          1333,       23.1947,       160.744,            0.,NA,NA,"",   1.16740E+06,   1.19858E+06,   1.19858E+06
C:/temp/Job-18.odb,Step-1,Increment      1: Step Time =    1.000,"P-18-1",          1334,       173.590,       37.7113,            0.,NA,NA,"",   1.12543E+06,   1.11385E+06,   1.11385E+06
C:/temp/Job-18.odb,Step-1,Increment      1: Step Time =    1.000,"P-18-1",          1335,       162.447,       173.243,            0.,NA,NA,"",   1.14987E+06,   1.12503E+06,   1.12503E+06
C:/temp/Job-18.odb,Step-1,Increment      1: Step Time =    1.000,"P-18-1",          1336,       38.7951,       94.9114,            0.,NA,NA,"",   264.943E+03,   294.072E+03,   294.072E+03
C:/temp/Job-18.odb,Step-1,Increment      1: Step Time =    1.000,"P-18-1",          1337,       129.263,       41.2791,            0.,NA,NA,"",   1.45851E+06,   1.44960E+06,   1.44960E+06
C:/temp/Job-18.odb,Step-1,Increment      1: Step Time =    1.000,"P-18-1",          1338,       60.6066,       152.690,            0.,NA,NA,"",   1.50561E+06,   1.41468E+06,   1.41468E+06
C:/temp/Job-18.odb,Step-1,Increment      1: Step Time =    1.000,"P-18-1",          1339,       56.2275,       141.807,            0.,NA,NA,"",   1.37001E+06,   1.24820E+06,   1.24820E+06
C:/temp/Job-18.odb,Step-1,Increment      1: Step Time =    1.000,"P-18-1",          1340,       78.7739,       160.433,            0.,NA,NA,"",   1.50017E+06,   1.50366E+06,   1.50366E+06
C:/temp/Job-18.odb,Step-1,Increment      1: Step Time =    1.000,"P-18-1",          1341,       87.2298,       164.584,            0.,NA,NA,"",   1.37079E+06,   1.42650E+06,   1.42650E+06
C:/temp/Job-18.odb,Step-1,Increment      1: Step Time =    1.000,"P-18-1",          1342,       89.1604,       38.2360,            0.,NA,NA,"",   1.40369E+06,   1.47433E+06,   1.47433E+06
C:/temp/Job-18.odb,Step-1,Increment      1: Step Time =    1.000,"P-18-1",          1343,       122.789,       159.004,            0.,NA,NA,"",   1.43162E+06,   1.46705E+06,   1.46705E+06
C:/temp/Job-18.odb,Step-1,Increment      1: Step Time =    1.000,"P-18-1",          1344,       78.7890,       38.9394,            0.,NA,NA,"",   1.48502E+06,   1.48964E+06,   1.48964E+06
C:/temp/Job-18.odb,Step-1,Increment      1: Step Time =    1.000,"P-18-1",          1345,       37.5746,       123.061,            0.,NA,NA,"",   670.115E+03,   657.953E+03,   657.953E+03
C:/temp/Job-18.odb,Step-1,Increment      1: Step Time =    1.000,"P-18-1",          1346,       134.252,       160.296,            0.,NA,NA,"",   1.43233E+06,   1.39574E+06,   1.39574E+06
C:/temp/Job-18.odb,Step-1,Increment      1: Step Time =    1.000,"P-18-1",          1347,       141.838,       163.053,            0.,NA,NA,"",   1.36992E+06,   1.31560E+06,   1.31560E+06
C:/temp/Job-18.odb,Step-1,Increment      1: Step Time =    1.000,"P-18-1",          1348,       58.7698,       35.7551,            0.,NA,NA,"",   1.46158E+06,   1.39701E+06,   1.39701E+06
C:/temp/Job-18.odb,Step-1,Increment      1: Step Time =    1.000,"P-18-1",          1349,       68.8221,       38.8048,            0.,NA,NA,"",   1.50523E+06,   1.45644E+06,   1.45644E+06
C:/temp/Job-18.odb,Step-1,Increment      1: Step Time =    1.000,"P-18-1",          1350,       161.431,       66.8264,            0.,NA,NA,"",   1.26963E+06,   1.16323E+06,   1.16323E+06
C:/temp/Job-18.odb,Step-1,Increment      1: Step Time =    1.000,"P-18-1",          1351,       164.115,       58.6686,            0.,NA,NA,"",   1.28265E+06,   1.20501E+06,   1.20501E+06
C:/temp/Job-18.odb,Step-1,Increment      1: Step Time =    1.000,"P-18-1",          1352,       37.2295,       132.156,            0.,NA,NA,"",   870.032E+03,   846.578E+03,   846.578E+03
C:/temp/Job-18.odb,Step-1,Increment      1: Step Time =    1.000,"P-18-1",          1353,       36.0511,       140.827,            0.,NA,NA,"",   1.02600E+06,   1.00256E+06,   1.00256E+06
C:/temp/Job-18.odb,Step-1,Increment      1: Step Time =    1.000,"P-18-1",          1354,       68.5683,       161.217,            0.,NA,NA,"",   1.50773E+06,   1.45822E+06,   1.45822E+06
C:/temp/Job-18.odb,Step-1,Increment      1: Step Time =    1.000,"P-18-1",          1355,       151.800,       182.804,            0.,NA,NA,"",   1.09663E+06,   1.08043E+06,   1.08043E+06
C:/temp/Job-18.odb,Step-1,Increment      1: Step Time =    1.000,"P-18-1",          1356,       175.389,       154.838,            0.,NA,NA,"",   1.12616E+06,   1.12042E+06,   1.12042E+06
C:/temp/Job-18.odb,Step-1,Increment      1: Step Time =    1.000,"P-18-1",          1357,       45.4473,       175.269,            0.,NA,NA,"",   1.39110E+06,   1.35793E+06,   1.35793E+06
C:/temp/Job-18.odb,Step-1,Increment      1: Step Time =    1.000,"P-18-1",          1358,       182.887,       48.2130,            0.,NA,NA,"",   1.04556E+06,   1.07444E+06,   1.07444E+06
C:/temp/Job-18.odb,Step-1,Increment      1: Step Time =    1.000,"P-18-1",          1359,       15.2996,       150.455,            0.,NA,NA,"",   951.992E+03,   1.01972E+06,   1.01972E+06
C:/temp/Job-18.odb,Step-1,Increment      1: Step Time =    1.000,"P-18-1",          1360,       154.649,       24.2958,            0.,NA,NA,"",   1.16644E+06,   1.13792E+06,   1.13792E+06
C:/temp/Job-18.odb,Step-1,Increment      1: Step Time =    1.000,"P-18-1",          1361,       49.0755,       15.2488,            0.,NA,NA,"",   1.36017E+06,   1.34149E+06,   1.34149E+06
C:/temp/Job-18.odb,Step-1,Increment      1: Step Time =    1.000,"P-18-1",          1362,       27.3957,       44.9697,            0.,NA,NA,"",   1.13316E+06,   1.14729E+06,   1.14729E+06
C:/temp/Job-18.odb,Step-1,Increment      1: Step Time =    1.000,"P-18-1",          1363,       37.1415,       71.8870,            0.,NA,NA,"",   784.898E+03,   765.991E+03,   765.991E+03
C:/temp/Job-18.odb,Step-1,Increment      1: Step Time =    1.000,"P-18-1",          1364,       165.087,       128.858,            0.,NA,NA,"",   1.16184E+06,   1.09150E+06,   1.09150E+06
C:/temp/Job-18.odb,Step-1,Increment      1: Step Time =    1.000,"P-18-1",          1365,       32.9135,       149.843,            0.,NA,NA,"",   1.12611E+06,   1.11551E+06,   1.11551E+06
C:/temp/Job-18.odb,Step-1,Increment      1: Step Time =    1.000,"P-18-1",          1366,       151.582,       169.506,            0.,NA,NA,"",   1.24001E+06,   1.19786E+06,   1.19786E+06
C:/temp/Job-18.odb,Step-1,Increment      1: Step Time =    1.000,"P-18-1",          1367,       170.079,       48.8059,            0.,NA,NA,"",   1.19556E+06,   1.16470E+06,   1.16470E+06
C:/temp/Job-18.odb,Step-1,Increment      1: Step Time =    1.000,"P-18-1",          1368,       49.0960,       31.1447,            0.,NA,NA,"",   1.40500E+06,   1.35581E+06,   1.35581E+06
C:/temp/Job-18.odb,Step-1,Increment      1: Step Time =    1.000,"P-18-1",          1369,       29.9297,       50.0272,            0.,NA,NA,"",   1.09243E+06,   1.09629E+06,   1.09629E+06
C:/temp/Job-18.odb,Step-1,Increment      1: Step Time =    1.000,"P-18-1",          1370,       170.617,       154.200,            0.,NA,NA,"",   1.17863E+06,   1.15345E+06,   1.15345E+06
C:/temp/Job-18.odb,Step-1,Increment      1: Step Time =    1.000,"P-18-1",          1371,       153.518,       29.1354,            0.,NA,NA,"",   1.22075E+06,   1.18130E+06,   1.18130E+06
C:/temp/Job-18.odb,Step-1,Increment      1: Step Time =    1.000,"P-18-1",          1372,       47.1700,       171.789,            0.,NA,NA,"",   1.39933E+06,   1.35739E+06,   1.35739E+06
C:/temp/Job-18.odb,Step-1,Increment      1: Step Time =    1.000,"P-18-1",          1373,       46.0971,       141.278,            0.,NA,NA,"",   1.18818E+06,   1.10644E+06,   1.10644E+06
C:/temp/Job-18.odb,Step-1,Increment      1: Step Time =    1.000,"P-18-1",          1374,       25.2231,       40.1733,            0.,NA,NA,"",   1.17034E+06,   1.19376E+06,   1.19376E+06
C:/temp/Job-18.odb,Step-1,Increment      1: Step Time =    1.000,"P-18-1",          1375,       170.772,       158.829,            0.,NA,NA,"",   1.16470E+06,   1.14227E+06,   1.14227E+06
C:/temp/Job-18.odb,Step-1,Increment      1: Step Time =    1.000,"P-18-1",          1376,       158.264,       29.0048,            0.,NA,NA,"",   1.19050E+06,   1.15620E+06,   1.15620E+06
C:/temp/Job-18.odb,Step-1,Increment      1: Step Time =    1.000,"P-18-1",          1377,       41.2975,       173.373,            0.,NA,NA,"",   1.38384E+06,   1.35500E+06,   1.35500E+06
C:/temp/Job-18.odb,Step-1,Increment      1: Step Time =    1.000,"P-18-1",          1378,       66.9325,       165.713,            0.,NA,NA,"",   1.46401E+06,   1.41747E+06,   1.41747E+06
C:/temp/Job-18.odb,Step-1,Increment      1: Step Time =    1.000,"P-18-1",          1379,       121.078,       146.533,            0.,NA,NA,"",   1.69313E+06,   1.74651E+06,   1.74651E+06
C:/temp/Job-18.odb,Step-1,Increment      1: Step Time =    1.000,"P-18-1",          1380,       96.2433,       164.869,            0.,NA,NA,"",   1.29318E+06,   1.38272E+06,   1.38272E+06
C:/temp/Job-18.odb,Step-1,Increment      1: Step Time =    1.000,"P-18-1",          1381,       67.4718,       151.495,            0.,NA,NA,"",   1.56589E+06,   1.48989E+06,   1.48989E+06
C:/temp/Job-18.odb,Step-1,Increment      1: Step Time =    1.000,"P-18-1",          1382,       128.763,       37.1993,            0.,NA,NA,"",   1.38178E+06,   1.37954E+06,   1.37954E+06
C:/temp/Job-18.odb,Step-1,Increment      1: Step Time =    1.000,"P-18-1",          1383,       54.7547,       152.029,            0.,NA,NA,"",   1.43795E+06,   1.34493E+06,   1.34493E+06
C:/temp/Job-18.odb,Step-1,Increment      1: Step Time =    1.000,"P-18-1",          1384,       56.8387,       136.921,            0.,NA,NA,"",   1.29142E+06,   1.15519E+06,   1.15519E+06
C:/temp/Job-18.odb,Step-1,Increment      1: Step Time =    1.000,"P-18-1",          1385,       84.8051,       160.942,            0.,NA,NA,"",   1.45279E+06,   1.50035E+06,   1.50035E+06
C:/temp/Job-18.odb,Step-1,Increment      1: Step Time =    1.000,"P-18-1",          1386,       62.2016,       41.0116,            0.,NA,NA,"",   1.50508E+06,   1.43271E+06,   1.43271E+06
C:/temp/Job-18.odb,Step-1,Increment      1: Step Time =    1.000,"P-18-1",          1387,       158.353,       60.8586,            0.,NA,NA,"",   1.36220E+06,   1.23899E+06,   1.23899E+06
C:/temp/Job-18.odb,Step-1,Increment      1: Step Time =    1.000,"P-18-1",          1388,       184.272,       184.598,            0.,NA,NA,"",   1.01340E+06,   1.01595E+06,   1.01595E+06
C:/temp/Job-18.odb,Step-1,Increment      1: Step Time =    1.000,"P-18-1",          1389,       184.591,       15.7371,            0.,NA,NA,"",   1.01267E+06,   1.01553E+06,   1.01553E+06
C:/temp/Job-18.odb,Step-1,Increment      1: Step Time =    1.000,"P-18-1",          1390,       14.4880,       14.0371,            0.,NA,NA,"",   1.47332E+06,   1.51410E+06,   1.51410E+06
C:/temp/Job-18.odb,Step-1,Increment      1: Step Time =    1.000,"P-18-1",          1391,       77.3719,       157.609,            0.,NA,NA,"",   1.53801E+06,   1.53235E+06,   1.53235E+06
C:/temp/Job-18.odb,Step-1,Increment      1: Step Time =    1.000,"P-18-1",          1392,       92.6092,       155.633,            0.,NA,NA,"",   1.49843E+06,   1.60761E+06,   1.60761E+06
C:/temp/Job-18.odb,Step-1,Increment      1: Step Time =    1.000,"P-18-1",          1393,       26.3452,       174.694,            0.,NA,NA,"",   1.34882E+06,   1.36087E+06,   1.36087E+06
C:/temp/Job-18.odb,Step-1,Increment      1: Step Time =    1.000,"P-18-1",          1394,       112.672,       38.7904,            0.,NA,NA,"",   1.33595E+06,   1.42764E+06,   1.42764E+06
C:/temp/Job-18.odb,Step-1,Increment      1: Step Time =    1.000,"P-18-1",          1395,       43.1205,       68.5992,            0.,NA,NA,"",   945.471E+03,   880.783E+03,   880.783E+03
C:/temp/Job-18.odb,Step-1,Increment      1: Step Time =    1.000,"P-18-1",          1396,       40.5330,       70.4520,            0.,NA,NA,"",   870.327E+03,   825.787E+03,   825.787E+03
C:/temp/Job-18.odb,Step-1,Increment      1: Step Time =    1.000,"P-18-1",          1397,       160.588,       129.555,            0.,NA,NA,"",   1.23263E+06,   1.11621E+06,   1.11621E+06
C:/temp/Job-18.odb,Step-1,Increment      1: Step Time =    1.000,"P-18-1",          1398,       61.5857,       45.6057,            0.,NA,NA,"",   1.51349E+06,   1.42813E+06,   1.42813E+06
C:/temp/Job-18.odb,Step-1,Increment      1: Step Time =    1.000,"P-18-1",          1399,       162.402,       97.1977,            0.,NA,NA,"",   535.714E+03,   570.431E+03,   570.431E+03
C:/temp/Job-18.odb,Step-1,Increment      1: Step Time =    1.000,"P-18-1",          1400,       115.035,       163.962,            0.,NA,NA,"",   1.29669E+06,   1.37209E+06,   1.37209E+06
C:/temp/Job-18.odb,Step-1,Increment      1: Step Time =    1.000,"P-18-1",          1401,       155.446,       127.586,            0.,NA,NA,"",   1.28005E+06,   1.11241E+06,   1.11241E+06
C:/temp/Job-18.odb,Step-1,Increment      1: Step Time =    1.000,"P-18-1",          1402,       163.971,       86.3596,            0.,NA,NA,"",   805.444E+03,   793.820E+03,   793.820E+03
C:/temp/Job-18.odb,Step-1,Increment      1: Step Time =    1.000,"P-18-1",          1403,       42.6271,       123.170,            0.,NA,NA,"",   726.755E+03,   674.634E+03,   674.634E+03
C:/temp/Job-18.odb,Step-1,Increment      1: Step Time =    1.000,"P-18-1",          1404,       119.967,       154.527,            0.,NA,NA,"",   1.51020E+06,   1.57188E+06,   1.57188E+06
C:/temp/Job-18.odb,Step-1,Increment      1: Step Time =    1.000,"P-18-1",          1405,       39.5190,       167.475,            0.,NA,NA,"",   1.35877E+06,   1.32882E+06,   1.32882E+06
C:/temp/Job-18.odb,Step-1,Increment      1: Step Time =    1.000,"P-18-1",          1406,       165.548,       166.019,            0.,NA,NA,"",   1.17468E+06,   1.14565E+06,   1.14565E+06
C:/temp/Job-18.odb,Step-1,Increment      1: Step Time =    1.000,"P-18-1",          1407,       34.8301,       36.4494,            0.,NA,NA,"",   1.29887E+06,   1.28031E+06,   1.28031E+06
C:/temp/Job-18.odb,Step-1,Increment      1: Step Time =    1.000,"P-18-1",          1408,       165.157,       34.6743,            0.,NA,NA,"",   1.18553E+06,   1.15372E+06,   1.15372E+06
C:/temp/Job-18.odb,Step-1,Increment      1: Step Time =    1.000,"P-18-1",          1409,       154.704,       68.3019,            0.,NA,NA,"",   1.35952E+06,   1.19092E+06,   1.19092E+06
C:/temp/Job-18.odb,Step-1,Increment      1: Step Time =    1.000,"P-18-1",          1410,       164.214,       134.227,            0.,NA,NA,"",   1.24228E+06,   1.15936E+06,   1.15936E+06
C:/temp/Job-18.odb,Step-1,Increment      1: Step Time =    1.000,"P-18-1",          1411,       38.8795,       67.4717,            0.,NA,NA,"",   904.352E+03,   869.169E+03,   869.169E+03
C:/temp/Job-18.odb,Step-1,Increment      1: Step Time =    1.000,"P-18-1",          1412,       154.791,       133.570,            0.,NA,NA,"",   1.37349E+06,   1.21010E+06,   1.21010E+06
C:/temp/Job-18.odb,Step-1,Increment      1: Step Time =    1.000,"P-18-1",          1413,       54.2411,       35.5140,            0.,NA,NA,"",   1.43783E+06,   1.37393E+06,   1.37393E+06
C:/temp/Job-18.odb,Step-1,Increment      1: Step Time =    1.000,"P-18-1",          1414,       164.621,       55.2676,            0.,NA,NA,"",   1.28215E+06,   1.21138E+06,   1.21138E+06
C:/temp/Job-18.odb,Step-1,Increment      1: Step Time =    1.000,"P-18-1",          1415,       145.340,       163.266,            0.,NA,NA,"",   1.35634E+06,   1.29671E+06,   1.29671E+06
C:/temp/Job-18.odb,Step-1,Increment      1: Step Time =    1.000,"P-18-1",          1416,       35.9819,       144.724,            0.,NA,NA,"",   1.09276E+06,   1.06816E+06,   1.06816E+06
C:/temp/Job-18.odb,Step-1,Increment      1: Step Time =    1.000,"P-18-1",          1417,       56.2130,       44.3800,            0.,NA,NA,"",   1.46607E+06,   1.38015E+06,   1.38015E+06
C:/temp/Job-18.odb,Step-1,Increment      1: Step Time =    1.000,"P-18-1",          1418,       154.005,       58.8856,            0.,NA,NA,"",   1.43579E+06,   1.29198E+06,   1.29198E+06
C:/temp/Job-18.odb,Step-1,Increment      1: Step Time =    1.000,"P-18-1",          1419,       142.802,       158.415,            0.,NA,NA,"",   1.44023E+06,   1.36685E+06,   1.36685E+06
C:/temp/Job-18.odb,Step-1,Increment      1: Step Time =    1.000,"P-18-1",          1420,       41.0933,       140.945,            0.,NA,NA,"",   1.10370E+06,   1.05011E+06,   1.05011E+06
C:/temp/Job-18.odb,Step-1,Increment      1: Step Time =    1.000,"P-18-1",          1421,       190.182,       20.2646,            0.,NA,NA,"",   1.00406E+06,   1.00974E+06,   1.00974E+06
C:/temp/Job-18.odb,Step-1,Increment      1: Step Time =    1.000,"P-18-1",          1422,       179.746,       190.187,            0.,NA,NA,"",   1.01100E+06,   1.01155E+06,   1.01155E+06
C:/temp/Job-18.odb,Step-1,Increment      1: Step Time =    1.000,"P-18-1",          1423,       14.8001,       9.78568,            0.,NA,NA,"",   1.54085E+06,   1.56430E+06,   1.56430E+06
C:/temp/Job-18.odb,Step-1,Increment      1: Step Time =    1.000,"P-18-1",          1424,       9.99428,       184.608,            0.,NA,NA,"",   1.41095E+06,   1.49107E+06,   1.49107E+06
C:/temp/Job-18.odb,Step-1,Increment      1: Step Time =    1.000,"P-18-1",          1425,       88.6346,       157.919,            0.,NA,NA,"",   1.47662E+06,   1.55764E+06,   1.55764E+06
C:/temp/Job-18.odb,Step-1,Increment      1: Step Time =    1.000,"P-18-1",          1426,       132.184,       36.1040,            0.,NA,NA,"",   1.37452E+06,   1.35561E+06,   1.35561E+06
C:/temp/Job-18.odb,Step-1,Increment      1: Step Time =    1.000,"P-18-1",          1427,       36.1011,       147.890,            0.,NA,NA,"",   1.14225E+06,   1.11614E+06,   1.11614E+06
C:/temp/Job-18.odb,Step-1,Increment      1: Step Time =    1.000,"P-18-1",          1428,       150.835,       162.860,            0.,NA,NA,"",   1.32804E+06,   1.26545E+06,   1.26545E+06
C:/temp/Job-18.odb,Step-1,Increment      1: Step Time =    1.000,"P-18-1",          1429,       163.834,       50.0273,            0.,NA,NA,"",   1.28226E+06,   1.21803E+06,   1.21803E+06
C:/temp/Job-18.odb,Step-1,Increment      1: Step Time =    1.000,"P-18-1",          1430,       49.4292,       35.7222,            0.,NA,NA,"",   1.40915E+06,   1.35060E+06,   1.35060E+06
C:/temp/Job-18.odb,Step-1,Increment      1: Step Time =    1.000,"P-18-1",          1431,       45.3106,       145.731,            0.,NA,NA,"",   1.24223E+06,   1.16842E+06,   1.16842E+06
C:/temp/Job-18.odb,Step-1,Increment      1: Step Time =    1.000,"P-18-1",          1432,       90.8515,       162.026,            0.,NA,NA,"",   1.38268E+06,   1.46327E+06,   1.46327E+06
C:/temp/Job-18.odb,Step-1,Increment      1: Step Time =    1.000,"P-18-1",          1433,       65.7783,       170.295,            0.,NA,NA,"",   1.41906E+06,   1.37744E+06,   1.37744E+06
C:/temp/Job-18.odb,Step-1,Increment      1: Step Time =    1.000,"P-18-1",          1434,       58.6224,       158.393,            0.,NA,NA,"",   1.48062E+06,   1.40297E+06,   1.40297E+06
C:/temp/Job-18.odb,Step-1,Increment      1: Step Time =    1.000,"P-18-1",          1435,       79.4188,       154.371,            0.,NA,NA,"",   1.57684E+06,   1.58674E+06,   1.58674E+06
C:/temp/Job-18.odb,Step-1,Increment      1: Step Time =    1.000,"P-18-1",          1436,       48.0211,       68.0230,            0.,NA,NA,"",   1.02330E+06,    924.01E+03,    924.01E+03
C:/temp/Job-18.odb,Step-1,Increment      1: Step Time =    1.000,"P-18-1",          1437,       66.3215,       45.5088,            0.,NA,NA,"",   1.54896E+06,   1.47498E+06,   1.47498E+06
C:/temp/Job-18.odb,Step-1,Increment      1: Step Time =    1.000,"P-18-1",          1438,       123.652,       151.407,            0.,NA,NA,"",   1.57966E+06,   1.60670E+06,   1.60670E+06
C:/temp/Job-18.odb,Step-1,Increment      1: Step Time =    1.000,"P-18-1",          1439,       35.5975,       164.784,            0.,NA,NA,"",   1.32139E+06,   1.29961E+06,   1.29961E+06
C:/temp/Job-18.odb,Step-1,Increment      1: Step Time =    1.000,"P-18-1",          1440,       163.323,       168.592,            0.,NA,NA,"",   1.17672E+06,   1.14642E+06,   1.14642E+06
C:/temp/Job-18.odb,Step-1,Increment      1: Step Time =    1.000,"P-18-1",          1441,       36.3131,       32.7879,            0.,NA,NA,"",   1.33402E+06,   1.31153E+06,   1.31153E+06
C:/temp/Job-18.odb,Step-1,Increment      1: Step Time =    1.000,"P-18-1",          1442,       168.841,       35.2604,            0.,NA,NA,"",   1.15738E+06,   1.13411E+06,   1.13411E+06
C:/temp/Job-18.odb,Step-1,Increment      1: Step Time =    1.000,"P-18-1",          1443,       46.4646,       166.192,            0.,NA,NA,"",   1.39443E+06,   1.34551E+06,   1.34551E+06
C:/temp/Job-18.odb,Step-1,Increment      1: Step Time =    1.000,"P-18-1",          1444,       35.0113,       47.6320,            0.,NA,NA,"",   1.18423E+06,   1.16296E+06,   1.16296E+06
C:/temp/Job-18.odb,Step-1,Increment      1: Step Time =    1.000,"P-18-1",          1445,       38.4115,       40.2722,            0.,NA,NA,"",   1.30251E+06,   1.26858E+06,   1.26858E+06
C:/temp/Job-18.odb,Step-1,Increment      1: Step Time =    1.000,"P-18-1",          1446,       42.9721,       163.752,            0.,NA,NA,"",   1.36558E+06,   1.32135E+06,   1.32135E+06
C:/temp/Job-18.odb,Step-1,Increment      1: Step Time =    1.000,"P-18-1",          1447,       159.873,       37.8376,            0.,NA,NA,"",   1.26124E+06,   1.20888E+06,   1.20888E+06
C:/temp/Job-18.odb,Step-1,Increment      1: Step Time =    1.000,"P-18-1",          1448,       163.025,       158.694,            0.,NA,NA,"",   1.25345E+06,   1.20142E+06,   1.20142E+06
C:/temp/Job-18.odb,Step-1,Increment      1: Step Time =    1.000,"P-18-1",          1449,       49.3615,       151.148,            0.,NA,NA,"",   1.36174E+06,   1.27919E+06,   1.27919E+06
C:/temp/Job-18.odb,Step-1,Increment      1: Step Time =    1.000,"P-18-1",          1450,       62.2805,       164.619,            0.,NA,NA,"",   1.46920E+06,   1.40968E+06,   1.40968E+06
C:/temp/Job-18.odb,Step-1,Increment      1: Step Time =    1.000,"P-18-1",          1451,       90.4240,       150.557,            0.,NA,NA,"",   1.64279E+06,   1.75367E+06,   1.75367E+06
C:/temp/Job-18.odb,Step-1,Increment      1: Step Time =    1.000,"P-18-1",          1452,       114.414,       141.056,            0.,NA,NA,"",   1.99724E+06,   2.12051E+06,   2.12051E+06
C:/temp/Job-18.odb,Step-1,Increment      1: Step Time =    1.000,"P-18-1",          1453,       157.551,       131.040,            0.,NA,NA,"",   1.29979E+06,   1.15446E+06,   1.15446E+06
C:/temp/Job-18.odb,Step-1,Increment      1: Step Time =    1.000,"P-18-1",          1454,       152.377,       62.6898,            0.,NA,NA,"",   1.44661E+06,   1.27880E+06,   1.27880E+06
C:/temp/Job-18.odb,Step-1,Increment      1: Step Time =    1.000,"P-18-1",          1455,       138.308,       153.922,            0.,NA,NA,"",   1.52517E+06,   1.44734E+06,   1.44734E+06
C:/temp/Job-18.odb,Step-1,Increment      1: Step Time =    1.000,"P-18-1",          1456,       46.6236,       136.804,            0.,NA,NA,"",   1.11321E+06,   1.02582E+06,   1.02582E+06
C:/temp/Job-18.odb,Step-1,Increment      1: Step Time =    1.000,"P-18-1",          1457,       36.5060,       153.696,            0.,NA,NA,"",   1.22242E+06,   1.19449E+06,   1.19449E+06
C:/temp/Job-18.odb,Step-1,Increment      1: Step Time =    1.000,"P-18-1",          1458,       154.884,       165.361,            0.,NA,NA,"",   1.27074E+06,   1.21893E+06,   1.21893E+06
C:/temp/Job-18.odb,Step-1,Increment      1: Step Time =    1.000,"P-18-1",          1459,       166.237,       45.9571,            0.,NA,NA,"",   1.23627E+06,   1.19020E+06,   1.19020E+06
C:/temp/Job-18.odb,Step-1,Increment      1: Step Time =    1.000,"P-18-1",          1460,       44.6112,       36.0267,            0.,NA,NA,"",   1.37764E+06,   1.32906E+06,   1.32906E+06
C:/temp/Job-18.odb,Step-1,Increment      1: Step Time =    1.000,"P-18-1",          1461,       44.9346,       66.9605,            0.,NA,NA,"",   996.279E+03,   919.867E+03,   919.867E+03
C:/temp/Job-18.odb,Step-1,Increment      1: Step Time =    1.000,"P-18-1",          1462,       71.7429,       49.3059,            0.,NA,NA,"",   1.60668E+06,   1.55318E+06,   1.55318E+06
C:/temp/Job-18.odb,Step-1,Increment      1: Step Time =    1.000,"P-18-1",          1463,       129.423,       152.755,            0.,NA,NA,"",   1.55993E+06,   1.53467E+06,   1.53467E+06
C:/temp/Job-18.odb,Step-1,Increment      1: Step Time =    1.000,"P-18-1",          1464,       39.4935,       161.441,            0.,NA,NA,"",   1.32694E+06,   1.29074E+06,   1.29074E+06
C:/temp/Job-18.odb,Step-1,Increment      1: Step Time =    1.000,"P-18-1",          1465,       163.981,       39.4091,            0.,NA,NA,"",   1.22954E+06,   1.18570E+06,   1.18570E+06
C:/temp/Job-18.odb,Step-1,Increment      1: Step Time =    1.000,"P-18-1",          1466,       161.715,       164.222,            0.,NA,NA,"",   1.22602E+06,   1.18323E+06,   1.18323E+06
C:/temp/Job-18.odb,Step-1,Increment      1: Step Time =    1.000,"P-18-1",          1467,       38.2791,       62.6666,            0.,NA,NA,"",   986.455E+03,   952.332E+03,   952.332E+03
C:/temp/Job-18.odb,Step-1,Increment      1: Step Time =    1.000,"P-18-1",          1468,       85.9836,       153.514,            0.,NA,NA,"",   1.58222E+06,   1.65245E+06,   1.65245E+06
C:/temp/Job-18.odb,Step-1,Increment      1: Step Time =    1.000,"P-18-1",          1469,       44.0707,       150.229,            0.,NA,NA,"",   1.27889E+06,   1.21515E+06,   1.21515E+06
C:/temp/Job-18.odb,Step-1,Increment      1: Step Time =    1.000,"P-18-1",          1470,       47.9363,       155.755,            0.,NA,NA,"",   1.37515E+06,   1.30425E+06,   1.30425E+06
C:/temp/Job-18.odb,Step-1,Increment      1: Step Time =    1.000,"P-18-1",          1471,       39.2835,       149.254,            0.,NA,NA,"",   1.19980E+06,   1.15743E+06,   1.15743E+06
C:/temp/Job-18.odb,Step-1,Increment      1: Step Time =    1.000,"P-18-1",          1472,       49.8085,       40.3641,            0.,NA,NA,"",   1.41064E+06,   1.34195E+06,   1.34195E+06
C:/temp/Job-18.odb,Step-1,Increment      1: Step Time =    1.000,"P-18-1",          1473,       159.716,       47.7921,            0.,NA,NA,"",   1.32620E+06,   1.24906E+06,   1.24906E+06
C:/temp/Job-18.odb,Step-1,Increment      1: Step Time =    1.000,"P-18-1",          1474,       152.593,       158.748,            0.,NA,NA,"",   1.36176E+06,   1.28545E+06,   1.28545E+06
C:/temp/Job-18.odb,Step-1,Increment      1: Step Time =    1.000,"P-18-1",          1475,       46.9485,       60.2342,            0.,NA,NA,"",   1.18917E+06,   1.09842E+06,   1.09842E+06
C:/temp/Job-18.odb,Step-1,Increment      1: Step Time =    1.000,"P-18-1",          1476,       51.1355,       162.881,            0.,NA,NA,"",   1.42101E+06,   1.35793E+06,   1.35793E+06
C:/temp/Job-18.odb,Step-1,Increment      1: Step Time =    1.000,"P-18-1",          1477,       33.4995,       74.0011,            0.,NA,NA,"",   696.503E+03,   703.880E+03,   703.880E+03
C:/temp/Job-18.odb,Step-1,Increment      1: Step Time =    1.000,"P-18-1",          1478,       149.736,       57.0043,            0.,NA,NA,"",   1.49803E+06,   1.34596E+06,   1.34596E+06
C:/temp/Job-18.odb,Step-1,Increment      1: Step Time =    1.000,"P-18-1",          1479,       142.876,       152.942,            0.,NA,NA,"",   1.50932E+06,   1.41124E+06,   1.41124E+06
C:/temp/Job-18.odb,Step-1,Increment      1: Step Time =    1.000,"P-18-1",          1480,       42.0007,       132.233,            0.,NA,NA,"",   939.090E+03,   883.751E+03,   883.751E+03
C:/temp/Job-18.odb,Step-1,Increment      1: Step Time =    1.000,"P-18-1",          1481,       42.2274,       59.7270,            0.,NA,NA,"",   1.10510E+06,   1.04563E+06,   1.04563E+06
C:/temp/Job-18.odb,Step-1,Increment      1: Step Time =    1.000,"P-18-1",          1482,       162.814,       138.595,            0.,NA,NA,"",   1.29285E+06,   1.20275E+06,   1.20275E+06
C:/temp/Job-18.odb,Step-1,Increment      1: Step Time =    1.000,"P-18-1",          1483,       154.875,       46.1494,            0.,NA,NA,"",   1.37764E+06,   1.28881E+06,   1.28881E+06
C:/temp/Job-18.odb,Step-1,Increment      1: Step Time =    1.000,"P-18-1",          1484,       152.984,       153.303,            0.,NA,NA,"",   1.40216E+06,   1.30647E+06,   1.30647E+06
C:/temp/Job-18.odb,Step-1,Increment      1: Step Time =    1.000,"P-18-1",          1485,       154.657,       138.784,            0.,NA,NA,"",   1.42331E+06,   1.27378E+06,   1.27378E+06
C:/temp/Job-18.odb,Step-1,Increment      1: Step Time =    1.000,"P-18-1",          1486,       46.9988,       132.290,            0.,NA,NA,"",   1.01924E+06,   927.745E+03,   927.745E+03
C:/temp/Job-18.odb,Step-1,Increment      1: Step Time =    1.000,"P-18-1",          1487,       46.0276,       160.045,            0.,NA,NA,"",   1.37476E+06,   1.31624E+06,   1.31624E+06
C:/temp/Job-18.odb,Step-1,Increment      1: Step Time =    1.000,"P-18-1",          1488,       39.8876,       45.6507,            0.,NA,NA,"",   1.26692E+06,   1.22289E+06,   1.22289E+06
C:/temp/Job-18.odb,Step-1,Increment      1: Step Time =    1.000,"P-18-1",          1489,       156.396,       36.1079,            0.,NA,NA,"",   1.27677E+06,   1.22212E+06,   1.22212E+06
C:/temp/Job-18.odb,Step-1,Increment      1: Step Time =    1.000,"P-18-1",          1490,       162.874,       154.898,            0.,NA,NA,"",   1.27728E+06,   1.21584E+06,   1.21584E+06
C:/temp/Job-18.odb,Step-1,Increment      1: Step Time =    1.000,"P-18-1",          1491,       155.162,       173.473,            0.,NA,NA,"",   1.18454E+06,   1.15246E+06,   1.15246E+06
C:/temp/Job-18.odb,Step-1,Increment      1: Step Time =    1.000,"P-18-1",          1492,       27.5235,       151.895,            0.,NA,NA,"",   1.09214E+06,   1.10598E+06,   1.10598E+06
C:/temp/Job-18.odb,Step-1,Increment      1: Step Time =    1.000,"P-18-1",          1493,       44.4464,       26.1144,            0.,NA,NA,"",   1.39139E+06,   1.35770E+06,   1.35770E+06
C:/temp/Job-18.odb,Step-1,Increment      1: Step Time =    1.000,"P-18-1",          1494,       173.813,       44.9615,            0.,NA,NA,"",   1.14496E+06,   1.13195E+06,   1.13195E+06
C:/temp/Job-18.odb,Step-1,Increment      1: Step Time =    1.000,"P-18-1",          1495,       35.0690,       59.2455,            0.,NA,NA,"",   1.01463E+06,   994.478E+03,   994.478E+03
C:/temp/Job-18.odb,Step-1,Increment      1: Step Time =    1.000,"P-18-1",          1496,       47.2742,       127.802,            0.,NA,NA,"",   910.793E+03,   816.326E+03,   816.326E+03
C:/temp/Job-18.odb,Step-1,Increment      1: Step Time =    1.000,"P-18-1",          1497,       152.100,       43.1443,            0.,NA,NA,"",   1.37853E+06,   1.29679E+06,   1.29679E+06
C:/temp/Job-18.odb,Step-1,Increment      1: Step Time =    1.000,"P-18-1",          1498,       158.268,       154.046,            0.,NA,NA,"",   1.33549E+06,   1.25644E+06,   1.25644E+06
C:/temp/Job-18.odb,Step-1,Increment      1: Step Time =    1.000,"P-18-1",          1499,       41.1429,       49.5683,            0.,NA,NA,"",   1.24420E+06,   1.19210E+06,   1.19210E+06
C:/temp/Job-18.odb,Step-1,Increment      1: Step Time =    1.000,"P-18-1",          1500,       170.035,       130.642,            0.,NA,NA,"",   1.11989E+06,   1.09536E+06,   1.09536E+06
C:/temp/Job-18.odb,Step-1,Increment      1: Step Time =    1.000,"P-18-1",          1501,       149.177,       36.7396,            0.,NA,NA,"",   1.33431E+06,   1.27182E+06,   1.27182E+06
C:/temp/Job-18.odb,Step-1,Increment      1: Step Time =    1.000,"P-18-1",          1502,       164.678,       151.484,            0.,NA,NA,"",   1.26609E+06,   1.20722E+06,   1.20722E+06
C:/temp/Job-18.odb,Step-1,Increment      1: Step Time =    1.000,"P-18-1",          1503,       38.0489,       52.8055,            0.,NA,NA,"",   1.15822E+06,   1.12051E+06,   1.12051E+06
C:/temp/Job-18.odb,Step-1,Increment      1: Step Time =    1.000,"P-18-1",          1504,       38.3091,       57.2353,            0.,NA,NA,"",   1.09224E+06,   1.05383E+06,   1.05383E+06
C:/temp/Job-18.odb,Step-1,Increment      1: Step Time =    1.000,"P-18-1",          1505,       161.810,       142.086,            0.,NA,NA,"",   1.32025E+06,   1.22779E+06,   1.22779E+06
C:/temp/Job-18.odb,Step-1,Increment      1: Step Time =    1.000,"P-18-1",          1506,       50.6033,       44.9470,            0.,NA,NA,"",   1.40294E+06,   1.32414E+06,   1.32414E+06
C:/temp/Job-18.odb,Step-1,Increment      1: Step Time =    1.000,"P-18-1",          1507,       151.730,       52.4545,            0.,NA,NA,"",   1.45751E+06,   1.33361E+06,   1.33361E+06
C:/temp/Job-18.odb,Step-1,Increment      1: Step Time =    1.000,"P-18-1",          1508,       147.772,       152.967,            0.,NA,NA,"",   1.46578E+06,   1.36238E+06,   1.36238E+06
C:/temp/Job-18.odb,Step-1,Increment      1: Step Time =    1.000,"P-18-1",          1509,       133.078,       150.810,            0.,NA,NA,"",   1.58969E+06,   1.53108E+06,   1.53108E+06
C:/temp/Job-18.odb,Step-1,Increment      1: Step Time =    1.000,"P-18-1",          1510,       166.851,       140.586,            0.,NA,NA,"",   1.23717E+06,   1.17902E+06,   1.17902E+06
C:/temp/Job-18.odb,Step-1,Increment      1: Step Time =    1.000,"P-18-1",          1511,       164.531,       144.879,            0.,NA,NA,"",   1.28090E+06,   1.20985E+06,   1.20985E+06
C:/temp/Job-18.odb,Step-1,Increment      1: Step Time =    1.000,"P-18-1",          1512,       143.680,       37.7429,            0.,NA,NA,"",   1.37898E+06,   1.31778E+06,   1.31778E+06
C:/temp/Job-18.odb,Step-1,Increment      1: Step Time =    1.000,"P-18-1",          1513,       131.300,       146.867,            0.,NA,NA,"",   1.64602E+06,   1.58546E+06,   1.58546E+06
C:/temp/Job-18.odb,Step-1,Increment      1: Step Time =    1.000,"P-18-1",          1514,       153.469,       147.720,            0.,NA,NA,"",   1.43077E+06,   1.31296E+06,   1.31296E+06
C:/temp/Job-18.odb,Step-1,Increment      1: Step Time =    1.000,"P-18-1",          1515,       150.383,       48.1799,            0.,NA,NA,"",   1.45104E+06,   1.34314E+06,   1.34314E+06
C:/temp/Job-18.odb,Step-1,Increment      1: Step Time =    1.000,"P-18-1",          1516,       45.8287,       50.4845,            0.,NA,NA,"",   1.29417E+06,   1.22293E+06,   1.22293E+06
C:/temp/Job-18.odb,Step-1,Increment      1: Step Time =    1.000,"P-18-1",          1517,       47.3033,       56.5829,            0.,NA,NA,"",   1.25039E+06,   1.16361E+06,   1.16361E+06
C:/temp/Job-18.odb,Step-1,Increment      1: Step Time =    1.000,"P-18-1",          1518,       51.1794,       57.5900,            0.,NA,NA,"",   1.29565E+06,   1.18786E+06,   1.18786E+06
C:/temp/Job-18.odb,Step-1,Increment      1: Step Time =    1.000,"P-18-1",          1519,       137.897,       142.188,            0.,NA,NA,"",   1.65669E+06,   1.51589E+06,   1.51589E+06
C:/temp/Job-18.odb,Step-1,Increment      1: Step Time =    1.000,"P-18-1",          1520,       153.866,       142.541,            0.,NA,NA,"",   1.43709E+06,   1.29974E+06,   1.29974E+06
C:/temp/Job-18.odb,Step-1,Increment      1: Step Time =    1.000,"P-18-1",          1521,       144.299,       49.2225,            0.,NA,NA,"",   1.52362E+06,   1.40875E+06,   1.40875E+06
C:/temp/Job-18.odb,Step-1,Increment      1: Step Time =    1.000,"P-18-1",          1522,       142.057,       146.099,            0.,NA,NA,"",   1.58491E+06,   1.45151E+06,   1.45151E+06
C:/temp/Job-18.odb,Step-1,Increment      1: Step Time =    1.000,"P-18-1",          1523,       148.766,       140.477,            0.,NA,NA,"",   1.51488E+06,   1.34515E+06,   1.34515E+06
C:/temp/Job-18.odb,Step-1,Increment      1: Step Time =    1.000,"P-18-1",          1524,       137.948,       36.0701,            0.,NA,NA,"",   1.37817E+06,   1.33377E+06,   1.33377E+06
C:/temp/Job-18.odb,Step-1,Increment      1: Step Time =    1.000,"P-18-1",          1525,       158.410,       142.704,            0.,NA,NA,"",   1.36946E+06,   1.25826E+06,   1.25826E+06
C:/temp/Job-18.odb,Step-1,Increment      1: Step Time =    1.000,"P-18-1",          1526,       143.561,       139.835,            0.,NA,NA,"",   1.59092E+06,   1.41069E+06,   1.41069E+06
C:/temp/Job-18.odb,Step-1,Increment      1: Step Time =    1.000,"P-18-1",          1527,       129.570,       142.726,            0.,NA,NA,"",   1.69501E+06,   1.63443E+06,   1.63443E+06
C:/temp/Job-18.odb,Step-1,Increment      1: Step Time =    1.000,"P-18-1",          1528,       142.137,       33.0597,            0.,NA,NA,"",   1.32072E+06,   1.27548E+06,   1.27548E+06
C:/temp/Job-18.odb,Step-1,Increment      1: Step Time =    1.000,"P-18-1",          1529,       140.579,       47.7024,            0.,NA,NA,"",   1.53039E+06,   1.43451E+06,   1.43451E+06
C:/temp/Job-18.odb,Step-1,Increment      1: Step Time =    1.000,"P-18-1",          1530,       145.637,       55.5199,            0.,NA,NA,"",   1.55129E+06,   1.40111E+06,   1.40111E+06
C:/temp/Job-18.odb,Step-1,Increment      1: Step Time =    1.000,"P-18-1",          1531,       100.028,       39.5430,            0.,NA,NA,"",   1.35727E+06,   1.47439E+06,   1.47439E+06
C:/temp/Job-18.odb,Step-1,Increment      1: Step Time =    1.000,"P-18-1",          1532,       52.3170,       127.729,            0.,NA,NA,"",   982.557E+03,   848.476E+03,   848.476E+03
C:/temp/Job-18.odb,Step-1,Increment      1: Step Time =    1.000,"P-18-1",          1533,       89.8130,       18.5255,            0.,NA,NA,"",   1.11423E+06,   1.13709E+06,   1.13709E+06
C:/temp/Job-18.odb,Step-1,Increment      1: Step Time =    1.000,"P-18-1",          1534,       19.4632,       112.690,            0.,NA,NA,"",   426.983E+03,   488.406E+03,   488.406E+03
C:/temp/Job-18.odb,Step-1,Increment      1: Step Time =    1.000,"P-18-1",          1535,       109.661,       179.478,            0.,NA,NA,"",   1.06169E+06,   1.10327E+06,   1.10327E+06
C:/temp/Job-18.odb,Step-1,Increment      1: Step Time =    1.000,"P-18-1",          1536,       134.261,       155.165,            0.,NA,NA,"",   1.52092E+06,   1.46994E+06,   1.46994E+06
C:/temp/Job-18.odb,Step-1,Increment      1: Step Time =    1.000,"P-18-1",          1537,       81.9004,       42.8820,            0.,NA,NA,"",   1.52825E+06,   1.55783E+06,   1.55783E+06
C:/temp/Job-18.odb,Step-1,Increment      1: Step Time =    1.000,"P-18-1",          1538,       25.5094,       9.73981,            0.,NA,NA,"",   1.46643E+06,   1.46956E+06,   1.46956E+06
C:/temp/Job-18.odb,Step-1,Increment      1: Step Time =    1.000,"P-18-1",          1539,       9.39563,       174.644,            0.,NA,NA,"",   1.21975E+06,   1.31623E+06,   1.31623E+06
C:/temp/Job-18.odb,Step-1,Increment      1: Step Time =    1.000,"P-18-1",          1540,       191.013,       29.6776,            0.,NA,NA,"",   998.853E+03,   1.01437E+06,   1.01437E+06
C:/temp/Job-18.odb,Step-1,Increment      1: Step Time =    1.000,"P-18-1",          1541,       170.336,       191.010,            0.,NA,NA,"",   1.01946E+06,   1.01772E+06,   1.01772E+06
C:/temp/Job-18.odb,Step-1,Increment      1: Step Time =    1.000,"P-18-1",          1542,       40.5486,       35.2389,            0.,NA,NA,"",   1.35248E+06,   1.31497E+06,   1.31497E+06
C:/temp/Job-18.odb,Step-1,Increment      1: Step Time =    1.000,"P-18-1",          1543,       37.4590,       158.433,            0.,NA,NA,"",   1.28488E+06,   1.25435E+06,   1.25435E+06
C:/temp/Job-18.odb,Step-1,Increment      1: Step Time =    1.000,"P-18-1",          1544,       186.739,       57.7955,            0.,NA,NA,"",   987.148E+03,   1.05484E+06,   1.05484E+06
C:/temp/Job-18.odb,Step-1,Increment      1: Step Time =    1.000,"P-18-1",          1545,       58.0743,       12.8602,            0.,NA,NA,"",   1.29720E+06,   1.28141E+06,   1.28141E+06
C:/temp/Job-18.odb,Step-1,Increment      1: Step Time =    1.000,"P-18-1",          1546,       142.167,       186.633,            0.,NA,NA,"",   1.05069E+06,   1.04068E+06,   1.04068E+06
C:/temp/Job-18.odb,Step-1,Increment      1: Step Time =    1.000,"P-18-1",          1547,       11.9926,       141.664,            0.,NA,NA,"",   805.439E+03,   879.585E+03,   879.585E+03
C:/temp/Job-18.odb,Step-1,Increment      1: Step Time =    1.000,"P-18-1",          1548,       76.8275,       145.919,            0.,NA,NA,"",   1.67652E+06,   1.66152E+06,   1.66152E+06
C:/temp/Job-18.odb,Step-1,Increment      1: Step Time =    1.000,"P-18-1",          1549,       47.7736,       10.0295,            0.,NA,NA,"",   1.34362E+06,   1.33397E+06,   1.33397E+06
C:/temp/Job-18.odb,Step-1,Increment      1: Step Time =    1.000,"P-18-1",          1550,       9.98704,       152.019,            0.,NA,NA,"",   927.130E+03,   1.01161E+06,   1.01161E+06
C:/temp/Job-18.odb,Step-1,Increment      1: Step Time =    1.000,"P-18-1",          1551,       189.015,       47.2001,            0.,NA,NA,"",   986.995E+03,   1.03714E+06,   1.03714E+06
C:/temp/Job-18.odb,Step-1,Increment      1: Step Time =    1.000,"P-18-1",          1552,       152.794,       188.981,            0.,NA,NA,"",   1.03476E+06,   1.02682E+06,   1.02682E+06
C:/temp/Job-18.odb,Step-1,Increment      1: Step Time =    1.000,"P-18-1",          1553,       4.97463,       4.97110,            0.,NA,NA,"",   1.75591E+06,   1.82525E+06,   1.82525E+06
C:/temp/Job-18.odb,Step-1,Increment      1: Step Time =    1.000,"P-18-1",          1554,       84.4353,       135.577,            0.,NA,NA,"",   2.02471E+06,   2.08671E+06,   2.08671E+06
C:/temp/Job-18.odb,Step-1,Increment      1: Step Time =    1.000,"P-18-1",          1555,       65.0628,       115.890,            0.,NA,NA,"",   513.275E+03,  -201.953E+03,  -201.953E+03
C:/temp/Job-18.odb,Step-1,Increment      1: Step Time =    1.000,"P-18-1",          1556,       114.024,       63.4121,            0.,NA,NA,"",   2.38685E+06,   2.47926E+06,   2.47926E+06
C:/temp/Job-18.odb,Step-1,Increment      1: Step Time =    1.000,"P-18-1",          1557,       76.6755,       69.5566,            0.,NA,NA,"",   1.37607E+06,   1.37072E+06,   1.37072E+06
C:/temp/Job-18.odb,Step-1,Increment      1: Step Time =    1.000,"P-18-1",          1558,       62.4844,       87.6558,            0.,NA,NA,"",   532.897E+03,  -456.972E+03,  -456.972E+03
C:/temp/Job-18.odb,Step-1,Increment      1: Step Time =    1.000,"P-18-1",          1559,       43.6337,       9.61633,            0.,NA,NA,"",   1.36793E+06,   1.36025E+06,   1.36025E+06
C:/temp/Job-18.odb,Step-1,Increment      1: Step Time =    1.000,"P-18-1",          1560,       9.58526,       25.3853,            0.,NA,NA,"",   1.22185E+06,   1.31730E+06,   1.31730E+06
C:/temp/Job-18.odb,Step-1,Increment      1: Step Time =    1.000,"P-18-1",          1561,       189.908,       15.3586,            0.,NA,NA,"",   1.00409E+06,   1.00712E+06,   1.00712E+06
C:/temp/Job-18.odb,Step-1,Increment      1: Step Time =    1.000,"P-18-1",          1562,       184.649,       189.913,            0.,NA,NA,"",   1.00647E+06,   1.00774E+06,   1.00774E+06
C:/temp/Job-18.odb,Step-1,Increment      1: Step Time =    1.000,"P-18-1",          1563,       55.1314,       103.791,            0.,NA,NA,"",   275.979E+03,  -249.602E+03,  -249.602E+03
C:/temp/Job-18.odb,Step-1,Increment      1: Step Time =    1.000,"P-18-1",          1564,       143.175,       96.4947,            0.,NA,NA,"",   532.159E+03,  -478.252E+03,  -478.252E+03
C:/temp/Job-18.odb,Step-1,Increment      1: Step Time =    1.000,"P-18-1",          1565,       141.095,       116.707,            0.,NA,NA,"",   993.221E+03,   109.826E+03,   109.826E+03
C:/temp/Job-18.odb,Step-1,Increment      1: Step Time =    1.000,"P-18-1",          1566,       9.71487,       156.191,            0.,NA,NA,"",   978.752E+03,   1.06749E+06,   1.06749E+06
C:/temp/Job-18.odb,Step-1,Increment      1: Step Time =    1.000,"P-18-1",          1567,       126.403,       133.653,            0.,NA,NA,"",   1.74251E+06,   1.70468E+06,   1.70468E+06
C:/temp/Job-18.odb,Step-1,Increment      1: Step Time =    1.000,"P-18-1",          1568,       39.2207,       184.832,            0.,NA,NA,"",   1.39257E+06,   1.38099E+06,   1.38099E+06
C:/temp/Job-18.odb,Step-1,Increment      1: Step Time =    1.000,"P-18-1",          1569,       11.3888,       48.5147,            0.,NA,NA,"",   937.038E+03,   1.01709E+06,   1.01709E+06
C:/temp/Job-18.odb,Step-1,Increment      1: Step Time =    1.000,"P-18-1",          1570,       160.383,       15.9321,            0.,NA,NA,"",   1.07126E+06,   1.05982E+06,   1.05982E+06
C:/temp/Job-18.odb,Step-1,Increment      1: Step Time =    1.000,"P-18-1",          1571,       183.964,       160.482,            0.,NA,NA,"",   1.03449E+06,   1.05520E+06,   1.05520E+06
C:/temp/Job-18.odb,Step-1,Increment      1: Step Time =    1.000,"P-18-1",          1572,       13.0927,       52.2510,            0.,NA,NA,"",   891.930E+03,   965.937E+03,   965.937E+03
C:/temp/Job-18.odb,Step-1,Increment      1: Step Time =    1.000,"P-18-1",          1573,       56.7910,       19.9564,            0.,NA,NA,"",   1.35696E+06,   1.32669E+06,   1.32669E+06
C:/temp/Job-18.odb,Step-1,Increment      1: Step Time =    1.000,"P-18-1",          1574,       67.5884,       14.6500,            0.,NA,NA,"",   1.25002E+06,   1.23498E+06,   1.23498E+06
C:/temp/Job-18.odb,Step-1,Increment      1: Step Time =    1.000,"P-18-1",          1575,       149.028,       13.3291,            0.,NA,NA,"",   1.05839E+06,   1.04696E+06,   1.04696E+06
C:/temp/Job-18.odb,Step-1,Increment      1: Step Time =    1.000,"P-18-1",          1576,       179.372,       56.6127,            0.,NA,NA,"",   1.07455E+06,   1.10013E+06,   1.10013E+06
C:/temp/Job-18.odb,Step-1,Increment      1: Step Time =    1.000,"P-18-1",          1577,       185.202,       67.3323,            0.,NA,NA,"",   966.440E+03,   1.05295E+06,   1.05295E+06
C:/temp/Job-18.odb,Step-1,Increment      1: Step Time =    1.000,"P-18-1",          1578,       186.462,       148.364,            0.,NA,NA,"",   1.00257E+06,   1.05395E+06,   1.05395E+06
C:/temp/Job-18.odb,Step-1,Increment      1: Step Time =    1.000,"P-18-1",          1579,       143.425,       179.070,            0.,NA,NA,"",   1.14553E+06,   1.12469E+06,   1.12469E+06
C:/temp/Job-18.odb,Step-1,Increment      1: Step Time =    1.000,"P-18-1",          1580,       132.626,       185.129,            0.,NA,NA,"",   1.04684E+06,   1.04307E+06,   1.04307E+06
C:/temp/Job-18.odb,Step-1,Increment      1: Step Time =    1.000,"P-18-1",          1581,       50.9683,       186.342,            0.,NA,NA,"",   1.34404E+06,   1.32717E+06,   1.32717E+06
C:/temp/Job-18.odb,Step-1,Increment      1: Step Time =    1.000,"P-18-1",          1582,       51.8793,       107.727,            0.,NA,NA,"",   309.703E+03,  -61.4095E+03,  -61.4095E+03
C:/temp/Job-18.odb,Step-1,Increment      1: Step Time =    1.000,"P-18-1",          1583,       56.3751,       115.806,            0.,NA,NA,"",   592.598E+03,   185.996E+03,   185.996E+03
C:/temp/Job-18.odb,Step-1,Increment      1: Step Time =    1.000,"P-18-1",          1584,       13.6464,       30.2290,            0.,NA,NA,"",   1.19523E+06,   1.27071E+06,   1.27071E+06
C:/temp/Job-18.odb,Step-1,Increment      1: Step Time =    1.000,"P-18-1",          1585,       13.9273,       34.3181,            0.,NA,NA,"",   1.14304E+06,   1.21735E+06,   1.21735E+06
C:/temp/Job-18.odb,Step-1,Increment      1: Step Time =    1.000,"P-18-1",          1586,       51.4937,       17.9012,            0.,NA,NA,"",   1.36321E+06,   1.33849E+06,   1.33849E+06
C:/temp/Job-18.odb,Step-1,Increment      1: Step Time =    1.000,"P-18-1",          1587,       156.889,       109.963,            0.,NA,NA,"",   668.046E+03,   598.962E+03,   598.962E+03
C:/temp/Job-18.odb,Step-1,Increment      1: Step Time =    1.000,"P-18-1",          1588,       135.370,       136.486,            0.,NA,NA,"",   1.66983E+06,   1.51115E+06,   1.51115E+06
C:/temp/Job-18.odb,Step-1,Increment      1: Step Time =    1.000,"P-18-1",          1589,       95.3716,       149.047,            0.,NA,NA,"",   1.70042E+06,   1.84526E+06,   1.84526E+06
C:/temp/Job-18.odb,Step-1,Increment      1: Step Time =    1.000,"P-18-1",          1590,       157.269,       16.8505,            0.,NA,NA,"",   1.08153E+06,   1.06782E+06,   1.06782E+06
C:/temp/Job-18.odb,Step-1,Increment      1: Step Time =    1.000,"P-18-1",          1591,       183.015,       157.446,            0.,NA,NA,"",   1.03913E+06,   1.06257E+06,   1.06257E+06
C:/temp/Job-18.odb,Step-1,Increment      1: Step Time =    1.000,"P-18-1",          1592,       16.6401,       20.5800,            0.,NA,NA,"",   1.35737E+06,   1.40952E+06,   1.40952E+06
C:/temp/Job-18.odb,Step-1,Increment      1: Step Time =    1.000,"P-18-1",          1593,       124.675,       140.401,            0.,NA,NA,"",   1.76705E+06,   1.77052E+06,   1.77052E+06
C:/temp/Job-18.odb,Step-1,Increment      1: Step Time =    1.000,"P-18-1",          1594,       180.579,       51.0663,            0.,NA,NA,"",   1.07070E+06,   1.09283E+06,   1.09283E+06
C:/temp/Job-18.odb,Step-1,Increment      1: Step Time =    1.000,"P-18-1",          1595,       148.967,       180.423,            0.,NA,NA,"",   1.12733E+06,   1.10678E+06,   1.10678E+06
C:/temp/Job-18.odb,Step-1,Increment      1: Step Time =    1.000,"P-18-1",          1596,       46.5999,       17.8947,            0.,NA,NA,"",   1.37752E+06,   1.35456E+06,   1.35456E+06
C:/temp/Job-18.odb,Step-1,Increment      1: Step Time =    1.000,"P-18-1",          1597,       157.488,       104.346,            0.,NA,NA,"",   477.938E+03,   465.300E+03,   465.300E+03
C:/temp/Job-18.odb,Step-1,Increment      1: Step Time =    1.000,"P-18-1",          1598,       156.175,       20.1090,            0.,NA,NA,"",   1.11491E+06,   1.09559E+06,   1.09559E+06
C:/temp/Job-18.odb,Step-1,Increment      1: Step Time =    1.000,"P-18-1",          1599,       179.656,       156.378,            0.,NA,NA,"",   1.07305E+06,   1.08581E+06,   1.08581E+06
C:/temp/Job-18.odb,Step-1,Increment      1: Step Time =    1.000,"P-18-1",          1600,       14.6165,       135.570,            0.,NA,NA,"",   732.421E+03,   799.424E+03,   799.424E+03
C:/temp/Job-18.odb,Step-1,Increment      1: Step Time =    1.000,"P-18-1",          1601,       18.7659,       142.537,            0.,NA,NA,"",   864.810E+03,   919.342E+03,   919.342E+03
C:/temp/Job-18.odb,Step-1,Increment      1: Step Time =    1.000,"P-18-1",          1602,       41.7808,       180.970,            0.,NA,NA,"",   1.38613E+06,   1.36669E+06,   1.36669E+06
C:/temp/Job-18.odb,Step-1,Increment      1: Step Time =    1.000,"P-18-1",          1603,       135.238,       140.023,            0.,NA,NA,"",   1.69801E+06,   1.56097E+06,   1.56097E+06
C:/temp/Job-18.odb,Step-1,Increment      1: Step Time =    1.000,"P-18-1",          1604,       146.768,       126.857,            0.,NA,NA,"",   1.37715E+06,   1.12751E+06,   1.12751E+06
C:/temp/Job-18.odb,Step-1,Increment      1: Step Time =    1.000,"P-18-1",          1605,       60.3648,       146.904,            0.,NA,NA,"",   1.49118E+06,   1.38167E+06,   1.38167E+06
C:/temp/Job-18.odb,Step-1,Increment      1: Step Time =    1.000,"P-18-1",          1606,       47.9286,       64.0909,            0.,NA,NA,"",   1.11595E+06,   1.01823E+06,   1.01823E+06
C:/temp/Job-18.odb,Step-1,Increment      1: Step Time =    1.000,"P-18-1",          1607,       19.0544,       37.6707,            0.,NA,NA,"",   1.14909E+06,   1.19931E+06,   1.19931E+06
C:/temp/Job-18.odb,Step-1,Increment      1: Step Time =    1.000,"P-18-1",          1608,       182.182,       39.7569,            0.,NA,NA,"",   1.05002E+06,   1.06584E+06,   1.06584E+06
C:/temp/Job-18.odb,Step-1,Increment      1: Step Time =    1.000,"P-18-1",          1609,       160.251,       182.092,            0.,NA,NA,"",   1.08735E+06,   1.07335E+06,   1.07335E+06
C:/temp/Job-18.odb,Step-1,Increment      1: Step Time =    1.000,"P-18-1",          1610,       72.3708,       57.0970,            0.,NA,NA,"",   1.62129E+06,   1.55801E+06,   1.55801E+06
C:/temp/Job-18.odb,Step-1,Increment      1: Step Time =    1.000,"P-18-1",          1611,       152.447,       77.8929,            0.,NA,NA,"",   1.17089E+06,   968.879E+03,   968.879E+03
C:/temp/Job-18.odb,Step-1,Increment      1: Step Time =    1.000,"P-18-1",          1612,       163.246,       111.057,            0.,NA,NA,"",   728.289E+03,   724.776E+03,   724.776E+03
C:/temp/Job-18.odb,Step-1,Increment      1: Step Time =    1.000,"P-18-1",          1613,       21.9058,       177.075,            0.,NA,NA,"",   1.36283E+06,   1.38911E+06,   1.38911E+06
C:/temp/Job-18.odb,Step-1,Increment      1: Step Time =    1.000,"P-18-1",          1614,       158.945,       99.6358,            0.,NA,NA,"",   454.235E+03,   467.936E+03,   467.936E+03
C:/temp/Job-18.odb,Step-1,Increment      1: Step Time =    1.000,"P-18-1",          1615,       125.806,       144.717,            0.,NA,NA,"",   1.69204E+06,   1.68453E+06,   1.68453E+06
C:/temp/Job-18.odb,Step-1,Increment      1: Step Time =    1.000,"P-18-1",          1616,       11.8514,       128.970,            0.,NA,NA,"",   627.700E+03,   698.958E+03,   698.958E+03
C:/temp/Job-18.odb,Step-1,Increment      1: Step Time =    1.000,"P-18-1",          1617,       54.7634,       59.1395,            0.,NA,NA,"",   1.33889E+06,   1.21564E+06,   1.21564E+06
C:/temp/Job-18.odb,Step-1,Increment      1: Step Time =    1.000,"P-18-1",          1618,       51.7403,       136.888,            0.,NA,NA,"",   1.20254E+06,   1.08582E+06,   1.08582E+06
C:/temp/Job-18.odb,Step-1,Increment      1: Step Time =    1.000,"P-18-1",          1619,       24.2057,       20.2955,            0.,NA,NA,"",   1.38856E+06,   1.40601E+06,   1.40601E+06
C:/temp/Job-18.odb,Step-1,Increment      1: Step Time =    1.000,"P-18-1",          1620,       72.5835,       148.373,            0.,NA,NA,"",   1.61494E+06,   1.56303E+06,   1.56303E+06
C:/temp/Job-18.odb,Step-1,Increment      1: Step Time =    1.000,"P-18-1",          1621,       108.736,       147.012,            0.,NA,NA,"",   1.76245E+06,   1.91402E+06,   1.91402E+06
C:/temp/Job-18.odb,Step-1,Increment      1: Step Time =    1.000,"P-18-1",          1622,       18.3773,       24.0147,            0.,NA,NA,"",   1.32220E+06,   1.36806E+06,   1.36806E+06
C:/temp/Job-18.odb,Step-1,Increment      1: Step Time =    1.000,"P-18-1",          1623,       181.400,       26.8587,            0.,NA,NA,"",   1.03794E+06,   1.04362E+06,   1.04362E+06
C:/temp/Job-18.odb,Step-1,Increment      1: Step Time =    1.000,"P-18-1",          1624,       173.176,       181.381,            0.,NA,NA,"",   1.05222E+06,   1.04785E+06,   1.04785E+06
C:/temp/Job-18.odb,Step-1,Increment      1: Step Time =    1.000,"P-18-1",          1625,       134.845,       144.906,            0.,NA,NA,"",   1.64866E+06,   1.54865E+06,   1.54865E+06
C:/temp/Job-18.odb,Step-1,Increment      1: Step Time =    1.000,"P-18-1",          1626,       128.453,       181.119,            0.,NA,NA,"",   1.09038E+06,   1.09180E+06,   1.09180E+06
C:/temp/Job-18.odb,Step-1,Increment      1: Step Time =    1.000,"P-18-1",          1627,       72.0437,       18.7039,            0.,NA,NA,"",   1.26759E+06,   1.25253E+06,   1.25253E+06
C:/temp/Job-18.odb,Step-1,Increment      1: Step Time =    1.000,"P-18-1",          1628,       182.393,       71.3752,            0.,NA,NA,"",   969.904E+03,   1.05070E+06,   1.05070E+06
C:/temp/Job-18.odb,Step-1,Increment      1: Step Time =    1.000,"P-18-1",          1629,       152.814,       18.7488,            0.,NA,NA,"",   1.10827E+06,   1.08990E+06,   1.08990E+06
C:/temp/Job-18.odb,Step-1,Increment      1: Step Time =    1.000,"P-18-1",          1630,       180.964,       153.279,            0.,NA,NA,"",   1.06232E+06,   1.08337E+06,   1.08337E+06
C:/temp/Job-18.odb,Step-1,Increment      1: Step Time =    1.000,"P-18-1",          1631,       42.8336,       183.470,            0.,NA,NA,"",   1.37940E+06,   1.36307E+06,   1.36307E+06
C:/temp/Job-18.odb,Step-1,Increment      1: Step Time =    1.000,"P-18-1",          1632,       37.8735,       18.7748,            0.,NA,NA,"",   1.39395E+06,   1.37901E+06,   1.37901E+06
C:/temp/Job-18.odb,Step-1,Increment      1: Step Time =    1.000,"P-18-1",          1633,       31.1140,       16.9522,            0.,NA,NA,"",   1.41385E+06,   1.41115E+06,   1.41115E+06
C:/temp/Job-18.odb,Step-1,Increment      1: Step Time =    1.000,"P-18-1",          1634,       167.411,       89.5220,            0.,NA,NA,"",   728.920E+03,   765.599E+03,   765.599E+03
C:/temp/Job-18.odb,Step-1,Increment      1: Step Time =    1.000,"P-18-1",          1635,       17.5255,       148.218,            0.,NA,NA,"",   941.123E+03,   999.894E+03,   999.894E+03
C:/temp/Job-18.odb,Step-1,Increment      1: Step Time =    1.000,"P-18-1",          1636,       98.2489,       158.885,            0.,NA,NA,"",   1.38993E+06,   1.50737E+06,   1.50737E+06
C:/temp/Job-18.odb,Step-1,Increment      1: Step Time =    1.000,"P-18-1",          1637,       149.041,       133.135,            0.,NA,NA,"",   1.46570E+06,   1.25980E+06,   1.25980E+06
C:/temp/Job-18.odb,Step-1,Increment      1: Step Time =    1.000,"P-18-1",          1638,       22.9076,       140.093,            0.,NA,NA,"",   861.305E+03,   901.321E+03,   901.321E+03
C:/temp/Job-18.odb,Step-1,Increment      1: Step Time =    1.000,"P-18-1",          1639,       62.2208,       57.2911,            0.,NA,NA,"",   1.48592E+06,   1.36714E+06,   1.36714E+06
C:/temp/Job-18.odb,Step-1,Increment      1: Step Time =    1.000,"P-18-1",          1640,       116.578,       43.2390,            0.,NA,NA,"",   1.43791E+06,   1.51995E+06,   1.51995E+06
C:/temp/Job-18.odb,Step-1,Increment      1: Step Time =    1.000,"P-18-1",          1641,       35.3931,       97.0800,            0.,NA,NA,"",   265.610E+03,   304.824E+03,   304.824E+03
C:/temp/Job-18.odb,Step-1,Increment      1: Step Time =    1.000,"P-18-1",          1642,       38.9040,       113.453,            0.,NA,NA,"",   437.768E+03,   443.225E+03,   443.225E+03
C:/temp/Job-18.odb,Step-1,Increment      1: Step Time =    1.000,"P-18-1",          1643,       43.5381,       178.572,            0.,NA,NA,"",   1.38592E+06,   1.36120E+06,   1.36120E+06
C:/temp/Job-18.odb,Step-1,Increment      1: Step Time =    1.000,"P-18-1",          1644,       50.2860,       60.4131,            0.,NA,NA,"",   1.24234E+06,   1.13289E+06,   1.13289E+06
C:/temp/Job-18.odb,Step-1,Increment      1: Step Time =    1.000,"P-18-1",          1645,       55.6093,       54.5385,            0.,NA,NA,"",   1.40843E+06,   1.29746E+06,   1.29746E+06
C:/temp/Job-18.odb,Step-1,Increment      1: Step Time =    1.000,"P-18-1",          1646,       21.1931,       145.900,            0.,NA,NA,"",   939.649E+03,   984.910E+03,   984.910E+03
C:/temp/Job-18.odb,Step-1,Increment      1: Step Time =    1.000,"P-18-1",          1647,       70.6210,       44.4367,            0.,NA,NA,"",   1.56375E+06,   1.51283E+06,   1.51283E+06
C:/temp/Job-18.odb,Step-1,Increment      1: Step Time =    1.000,"P-18-1",          1648,       129.648,       45.5214,            0.,NA,NA,"",   1.53302E+06,   1.51088E+06,   1.51088E+06
C:/temp/Job-18.odb,Step-1,Increment      1: Step Time =    1.000,"P-18-1",          1649,       178.177,       29.7596,            0.,NA,NA,"",   1.06339E+06,   1.06445E+06,   1.06445E+06
C:/temp/Job-18.odb,Step-1,Increment      1: Step Time =    1.000,"P-18-1",          1650,       170.317,       178.122,            0.,NA,NA,"",   1.07703E+06,   1.06831E+06,   1.06831E+06
C:/temp/Job-18.odb,Step-1,Increment      1: Step Time =    1.000,"P-18-1",          1651,       51.6429,       53.7203,            0.,NA,NA,"",   1.34958E+06,   1.24917E+06,   1.24917E+06
C:/temp/Job-18.odb,Step-1,Increment      1: Step Time =    1.000,"P-18-1",          1652,       51.1834,       141.589,            0.,NA,NA,"",   1.27978E+06,   1.17370E+06,   1.17370E+06
C:/temp/Job-18.odb,Step-1,Increment      1: Step Time =    1.000,"P-18-1",          1653,       163.078,       101.036,            0.,NA,NA,"",   516.894E+03,   559.752E+03,   559.752E+03
C:/temp/Job-18.odb,Step-1,Increment      1: Step Time =    1.000,"P-18-1",          1654,       165.032,       102.871,            0.,NA,NA,"",   557.005E+03,   608.184E+03,   608.184E+03
C:/temp/Job-18.odb,Step-1,Increment      1: Step Time =    1.000,"P-18-1",          1655,       168.582,       104.661,            0.,NA,NA,"",   620.293E+03,   684.551E+03,   684.551E+03
C:/temp/Job-18.odb,Step-1,Increment      1: Step Time =    1.000,"P-18-1",          1656,       101.891,       157.714,            0.,NA,NA,"",   1.40007E+06,   1.52607E+06,   1.52607E+06
C:/temp/Job-18.odb,Step-1,Increment      1: Step Time =    1.000,"P-18-1",          1657,       21.3469,       26.7677,            0.,NA,NA,"",   1.30433E+06,   1.33835E+06,   1.33835E+06
C:/temp/Job-18.odb,Step-1,Increment      1: Step Time =    1.000,"P-18-1",          1658,       175.496,       49.4832,            0.,NA,NA,"",   1.13224E+06,   1.12704E+06,   1.12704E+06
C:/temp/Job-18.odb,Step-1,Increment      1: Step Time =    1.000,"P-18-1",          1659,       150.612,       175.195,            0.,NA,NA,"",   1.18474E+06,   1.15441E+06,   1.15441E+06
C:/temp/Job-18.odb,Step-1,Increment      1: Step Time =    1.000,"P-18-1",          1660,       40.9188,       65.5360,            0.,NA,NA,"",   964.950E+03,   916.374E+03,   916.374E+03
C:/temp/Job-18.odb,Step-1,Increment      1: Step Time =    1.000,"P-18-1",          1661,       143.720,       59.8952,            0.,NA,NA,"",   1.58061E+06,   1.40327E+06,   1.40327E+06
C:/temp/Job-18.odb,Step-1,Increment      1: Step Time =    1.000,"P-18-1",          1662,       148.023,       61.1149,            0.,NA,NA,"",   1.52111E+06,   1.34079E+06,   1.34079E+06
C:/temp/Job-18.odb,Step-1,Increment      1: Step Time =    1.000,"P-18-1",          1663,       63.6744,       159.865,            0.,NA,NA,"",   1.50558E+06,   1.43805E+06,   1.43805E+06
C:/temp/Job-18.odb,Step-1,Increment      1: Step Time =    1.000,"P-18-1",          1664,       151.956,       136.436,            0.,NA,NA,"",   1.44405E+06,   1.27202E+06,   1.27202E+06
C:/temp/Job-18.odb,Step-1,Increment      1: Step Time =    1.000,"P-18-1",          1665,       107.018,       159.931,            0.,NA,NA,"",   1.34935E+06,   1.46435E+06,   1.46435E+06
C:/temp/Job-18.odb,Step-1,Increment      1: Step Time =    1.000,"P-18-1",          1666,       166.339,       29.9614,            0.,NA,NA,"",   1.14515E+06,   1.12268E+06,   1.12268E+06
C:/temp/Job-18.odb,Step-1,Increment      1: Step Time =    1.000,"P-18-1",          1667,       170.356,       166.538,            0.,NA,NA,"",   1.13703E+06,   1.11889E+06,   1.11889E+06
C:/temp/Job-18.odb,Step-1,Increment      1: Step Time =    1.000,"P-18-1",          1668,       40.2586,       24.6299,            0.,NA,NA,"",   1.38717E+06,   1.36171E+06,   1.36171E+06
C:/temp/Job-18.odb,Step-1,Increment      1: Step Time =    1.000,"P-18-1",          1669,       28.5464,       19.5236,            0.,NA,NA,"",   1.39765E+06,   1.40118E+06,   1.40118E+06
C:/temp/Job-18.odb,Step-1,Increment      1: Step Time =    1.000,"P-18-1",          1670,       180.044,       32.0953,            0.,NA,NA,"",   1.05444E+06,   1.06035E+06,   1.06035E+06
C:/temp/Job-18.odb,Step-1,Increment      1: Step Time =    1.000,"P-18-1",          1671,       167.958,       179.962,            0.,NA,NA,"",   1.07656E+06,   1.06658E+06,   1.06658E+06
C:/temp/Job-18.odb,Step-1,Increment      1: Step Time =    1.000,"P-18-1",          1672,       165.662,       99.5042,            0.,NA,NA,"",   572.025E+03,   628.803E+03,   628.803E+03
C:/temp/Job-18.odb,Step-1,Increment      1: Step Time =    1.000,"P-18-1",          1673,       92.6264,       166.001,            0.,NA,NA,"",   1.30454E+06,   1.37816E+06,   1.37816E+06
C:/temp/Job-18.odb,Step-1,Increment      1: Step Time =    1.000,"P-18-1",          1674,       89.5788,       166.950,            0.,NA,NA,"",   1.31543E+06,   1.37441E+06,   1.37441E+06
C:/temp/Job-18.odb,Step-1,Increment      1: Step Time =    1.000,"P-18-1",          1675,       78.8415,       43.2999,            0.,NA,NA,"",   1.54485E+06,   1.55172E+06,   1.55172E+06
C:/temp/Job-18.odb,Step-1,Increment      1: Step Time =    1.000,"P-18-1",          1676,       38.3463,       81.1321,            0.,NA,NA,"",   564.947E+03,   559.969E+03,   559.969E+03
C:/temp/Job-18.odb,Step-1,Increment      1: Step Time =    1.000,"P-18-1",          1677,       36.0925,       77.7603,            0.,NA,NA,"",   629.137E+03,   629.845E+03,   629.845E+03
C:/temp/Job-18.odb,Step-1,Increment      1: Step Time =    1.000,"P-18-1",          1678,       32.0633,       99.0623,            0.,NA,NA,"",   285.862E+03,   329.955E+03,   329.955E+03
C:/temp/Job-18.odb,Step-1,Increment      1: Step Time =    1.000,"P-18-1",          1679,       29.9731,       96.0608,            0.,NA,NA,"",   314.970E+03,   363.076E+03,   363.076E+03
C:/temp/Job-18.odb,Step-1,Increment      1: Step Time =    1.000,"P-18-1",          1680,       51.2415,       49.5528,            0.,NA,NA,"",   1.38232E+06,   1.29332E+06,   1.29332E+06
C:/temp/Job-18.odb,Step-1,Increment      1: Step Time =    1.000,"P-18-1",          1681,       26.9252,       147.249,            0.,NA,NA,"",   1.01907E+06,   1.03688E+06,   1.03688E+06
C:/temp/Job-18.odb,Step-1,Increment      1: Step Time =    1.000,"P-18-1",          1682,       143.069,       25.8045,            0.,NA,NA,"",   1.20987E+06,   1.18142E+06,   1.18142E+06
C:/temp/Job-18.odb,Step-1,Increment      1: Step Time =    1.000,"P-18-1",          1683,       176.506,       143.870,            0.,NA,NA,"",   1.11226E+06,   1.11942E+06,   1.11942E+06
C:/temp/Job-18.odb,Step-1,Increment      1: Step Time =    1.000,"P-18-1",          1684,       131.163,       155.602,            0.,NA,NA,"",   1.51233E+06,   1.48221E+06,   1.48221E+06
C:/temp/Job-18.odb,Step-1,Increment      1: Step Time =    1.000,"P-18-1",          1685,       21.1903,       24.1694,            0.,NA,NA,"",   1.33742E+06,   1.36962E+06,   1.36962E+06
C:/temp/Job-18.odb,Step-1,Increment      1: Step Time =    1.000,"P-18-1",          1686,       111.940,       165.684,            0.,NA,NA,"",   1.25652E+06,   1.34071E+06,   1.34071E+06
C:/temp/Job-18.odb,Step-1,Increment      1: Step Time =    1.000,"P-18-1",          1687,       129.529,       159.006,            0.,NA,NA,"",   1.45401E+06,   1.44186E+06,   1.44186E+06
C:/temp/Job-18.odb,Step-1,Increment      1: Step Time =    1.000,"P-18-1",          1688,       168.450,       93.0553,            0.,NA,NA,"",   674.350E+03,   732.417E+03,   732.417E+03
C:/temp/Job-18.odb,Step-1,Increment      1: Step Time =    1.000,"P-18-1",          1689,       58.1140,       40.1072,            0.,NA,NA,"",   1.47913E+06,   1.40272E+06,   1.40272E+06
C:/temp/Job-18.odb,Step-1,Increment      1: Step Time =    1.000,"P-18-1",          1690,       48.2715,       53.6844,            0.,NA,NA,"",   1.29823E+06,   1.21085E+06,   1.21085E+06
C:/temp/Job-18.odb,Step-1,Increment      1: Step Time =    1.000,"P-18-1",          1691,       25.8929,       29.9959,            0.,NA,NA,"",   1.28941E+06,   1.30734E+06,   1.30734E+06
C:/temp/Job-18.odb,Step-1,Increment      1: Step Time =    1.000,"P-18-1",          1692,       177.701,       134.060,            0.,NA,NA,"",   1.06005E+06,   1.09106E+06,   1.09106E+06
C:/temp/Job-18.odb,Step-1,Increment      1: Step Time =    1.000,"P-18-1",          1693,       41.5707,       87.2589,            0.,NA,NA,"",   432.925E+03,   421.702E+03,   421.702E+03
C:/temp/Job-18.odb,Step-1,Increment      1: Step Time =    1.000,"P-18-1",          1694,       36.1202,       108.942,            0.,NA,NA,"",   342.237E+03,   376.594E+03,   376.594E+03
C:/temp/Job-18.odb,Step-1,Increment      1: Step Time =    1.000,"P-18-1",          1695,       19.5949,       128.049,            0.,NA,NA,"",   641.737E+03,   700.691E+03,   700.691E+03
C:/temp/Job-18.odb,Step-1,Increment      1: Step Time =    1.000,"P-18-1",          1696,       75.4768,       28.7674,            0.,NA,NA,"",   1.37216E+06,   1.35949E+06,   1.35949E+06
C:/temp/Job-18.odb,Step-1,Increment      1: Step Time =    1.000,"P-18-1",          1697,       93.3938,       170.293,            0.,NA,NA,"",   1.23640E+06,   1.29864E+06,   1.29864E+06
C:/temp/Job-18.odb,Step-1,Increment      1: Step Time =    1.000,"P-18-1",          1698,       31.5162,       107.522,            0.,NA,NA,"",   341.801E+03,   388.638E+03,   388.638E+03
C:/temp/Job-18.odb,Step-1,Increment      1: Step Time =    1.000,"P-18-1",          1699,       165.517,       162.102,            0.,NA,NA,"",   1.20778E+06,   1.17012E+06,   1.17012E+06
C:/temp/Job-18.odb,Step-1,Increment      1: Step Time =    1.000,"P-18-1",          1700,       166.374,       154.858,            0.,NA,NA,"",   1.22654E+06,   1.18266E+06,   1.18266E+06
C:/temp/Job-18.odb,Step-1,Increment      1: Step Time =    1.000,"P-18-1",          1701,       161.420,       33.7687,            0.,NA,NA,"",   1.21059E+06,   1.17179E+06,   1.17179E+06
C:/temp/Job-18.odb,Step-1,Increment      1: Step Time =    1.000,"P-18-1",          1702,       154.061,       33.5230,            0.,NA,NA,"",   1.26282E+06,   1.21328E+06,   1.21328E+06
C:/temp/Job-18.odb,Step-1,Increment      1: Step Time =    1.000,"P-18-1",          1703,       103.671,       25.0547,            0.,NA,NA,"",   1.12456E+06,   1.18467E+06,   1.18467E+06
C:/temp/Job-18.odb,Step-1,Increment      1: Step Time =    1.000,"P-18-1",          1704,       85.4830,       21.8492,            0.,NA,NA,"",   1.19844E+06,   1.21718E+06,   1.21718E+06
C:/temp/Job-18.odb,Step-1,Increment      1: Step Time =    1.000,"P-18-1",          1705,       17.2715,       79.3294,            0.,NA,NA,"",   528.180E+03,   592.669E+03,   592.669E+03
C:/temp/Job-18.odb,Step-1,Increment      1: Step Time =    1.000,"P-18-1",          1706,       17.7098,       83.9308,            0.,NA,NA,"",   472.042E+03,   535.464E+03,   535.464E+03
C:/temp/Job-18.odb,Step-1,Increment      1: Step Time =    1.000,"P-18-1",          1707,       97.4329,       26.3835,            0.,NA,NA,"",   1.16588E+06,   1.22782E+06,   1.22782E+06
C:/temp/Job-18.odb,Step-1,Increment      1: Step Time =    1.000,"P-18-1",          1708,       100.457,       27.4724,            0.,NA,NA,"",   1.16465E+06,   1.23417E+06,   1.23417E+06
C:/temp/Job-18.odb,Step-1,Increment      1: Step Time =    1.000,"P-18-1",          1709,       27.1428,       98.1637,            0.,NA,NA,"",   320.209E+03,   369.577E+03,   369.577E+03
C:/temp/Job-18.odb,Step-1,Increment      1: Step Time =    1.000,"P-18-1",          1710,       159.871,       57.1043,            0.,NA,NA,"",   1.35099E+06,   1.24643E+06,   1.24643E+06
C:/temp/Job-18.odb,Step-1,Increment      1: Step Time =    1.000,"P-18-1",          1711,       31.9939,       24.2376,            0.,NA,NA,"",   1.36891E+06,   1.36307E+06,   1.36307E+06
C:/temp/Job-18.odb,Step-1,Increment      1: Step Time =    1.000,"P-18-1",          1712,       38.5479,       28.9546,            0.,NA,NA,"",   1.37023E+06,   1.34411E+06,   1.34411E+06
C:/temp/Job-18.odb,Step-1,Increment      1: Step Time =    1.000,"P-18-1",          1713,       24.6528,       95.4349,            0.,NA,NA,"",   343.498E+03,   396.240E+03,   396.240E+03
C:/temp/Job-18.odb,Step-1,Increment      1: Step Time =    1.000,"P-18-1",          1714,       19.3735,       124.610,            0.,NA,NA,"",   592.434E+03,   652.465E+03,   652.465E+03
C:/temp/Job-18.odb,Step-1,Increment      1: Step Time =    1.000,"P-18-1",          1715,       26.4332,       159.034,            0.,NA,NA,"",   1.17465E+06,   1.19239E+06,   1.19239E+06
C:/temp/Job-18.odb,Step-1,Increment      1: Step Time =    1.000,"P-18-1",          1716,       51.2437,       173.092,            0.,NA,NA,"",   1.40283E+06,   1.35973E+06,   1.35973E+06
C:/temp/Job-18.odb,Step-1,Increment      1: Step Time =    1.000,"P-18-1",          1717,       74.3060,       170.132,            0.,NA,NA,"",   1.39487E+06,   1.37728E+06,   1.37728E+06
C:/temp/Job-18.odb,Step-1,Increment      1: Step Time =    1.000,"P-18-1",          1718,       138.462,       42.0005,            0.,NA,NA,"",   1.45629E+06,   1.39320E+06,   1.39320E+06
C:/temp/Job-18.odb,Step-1,Increment      1: Step Time =    1.000,"P-18-1",          1719,       142.797,       42.9033,            0.,NA,NA,"",   1.45000E+06,   1.37145E+06,   1.37145E+06
C:/temp/Job-18.odb,Step-1,Increment      1: Step Time =    1.000,"P-18-1",          1720,       32.7437,       80.2867,            0.,NA,NA,"",   550.912E+03,   575.119E+03,   575.119E+03
C:/temp/Job-18.odb,Step-1,Increment      1: Step Time =    1.000,"P-18-1",          1721,       57.2022,       163.610,            0.,NA,NA,"",   1.45570E+06,   1.38996E+06,   1.38996E+06
C:/temp/Job-18.odb,Step-1,Increment      1: Step Time =    1.000,"P-18-1",          1722,       41.6130,       158.315,            0.,NA,NA,"",   1.32235E+06,   1.27637E+06,   1.27637E+06
C:/temp/Job-18.odb,Step-1,Increment      1: Step Time =    1.000,"P-18-1",          1723,       32.9693,       160.901,            0.,NA,NA,"",   1.26422E+06,   1.25157E+06,   1.25157E+06
C:/temp/Job-18.odb,Step-1,Increment      1: Step Time =    1.000,"P-18-1",          1724,       45.1895,       45.3045,            0.,NA,NA,"",   1.33864E+06,   1.27486E+06,   1.27486E+06
C:/temp/Job-18.odb,Step-1,Increment      1: Step Time =    1.000,"P-18-1",          1725,       174.390,       128.441,            0.,NA,NA,"",   1.04720E+06,   1.06597E+06,   1.06597E+06
C:/temp/Job-18.odb,Step-1,Increment      1: Step Time =    1.000,"P-18-1",          1726,       117.573,       170.910,            0.,NA,NA,"",   1.20245E+06,   1.24894E+06,   1.24894E+06
C:/temp/Job-18.odb,Step-1,Increment      1: Step Time =    1.000,"P-18-1",          1727,       158.006,       51.5720,            0.,NA,NA,"",   1.37177E+06,   1.27391E+06,   1.27391E+06
C:/temp/Job-18.odb,Step-1,Increment      1: Step Time =    1.000,"P-18-1",          1728,       129.681,       33.6431,            0.,NA,NA,"",   1.32790E+06,   1.32424E+06,   1.32424E+06
C:/temp/Job-18.odb,Step-1,Increment      1: Step Time =    1.000,"P-18-1",          1729,       114.048,       30.1842,            0.,NA,NA,"",   1.20586E+06,   1.26552E+06,   1.26552E+06
C:/temp/Job-18.odb,Step-1,Increment      1: Step Time =    1.000,"P-18-1",          1730,       28.1443,       128.734,            0.,NA,NA,"",   704.437E+03,   734.274E+03,   734.274E+03
C:/temp/Job-18.odb,Step-1,Increment      1: Step Time =    1.000,"P-18-1",          1731,       160.332,       133.250,            0.,NA,NA,"",   1.28558E+06,   1.16741E+06,   1.16741E+06
C:/temp/Job-18.odb,Step-1,Increment      1: Step Time =    1.000,"P-18-1",          1732,       155.870,       55.1304,            0.,NA,NA,"",   1.41036E+06,   1.28976E+06,   1.28976E+06
C:/temp/Job-18.odb,Step-1,Increment      1: Step Time =    1.000,"P-18-1",          1733,       157.667,       41.8163,            0.,NA,NA,"",   1.31074E+06,   1.24321E+06,   1.24321E+06
C:/temp/Job-18.odb,Step-1,Increment      1: Step Time =    1.000,"P-18-1",          1734,       153.760,       39.4850,            0.,NA,NA,"",   1.33271E+06,   1.26346E+06,   1.26346E+06
C:/temp/Job-18.odb,Step-1,Increment      1: Step Time =    1.000,"P-18-1",          1735,       135.501,       33.0276,            0.,NA,NA,"",   1.33126E+06,   1.30371E+06,   1.30371E+06
C:/temp/Job-18.odb,Step-1,Increment      1: Step Time =    1.000,"P-18-1",          1736,       22.5156,       113.121,            0.,NA,NA,"",   427.208E+03,   486.845E+03,   486.845E+03
C:/temp/Job-18.odb,Step-1,Increment      1: Step Time =    1.000,"P-18-1",          1737,       28.2236,       108.342,            0.,NA,NA,"",   362.830E+03,   414.263E+03,   414.263E+03
C:/temp/Job-18.odb,Step-1,Increment      1: Step Time =    1.000,"P-18-1",          1738,       22.1977,       87.4620,            0.,NA,NA,"",   421.431E+03,   480.392E+03,   480.392E+03
C:/temp/Job-18.odb,Step-1,Increment      1: Step Time =    1.000,"P-18-1",          1739,       48.5449,       168.708,            0.,NA,NA,"",   1.40698E+06,   1.35751E+06,   1.35751E+06
C:/temp/Job-18.odb,Step-1,Increment      1: Step Time =    1.000,"P-18-1",          1740,       139.964,       38.4754,            0.,NA,NA,"",   1.40775E+06,   1.35121E+06,   1.35121E+06
C:/temp/Job-18.odb,Step-1,Increment      1: Step Time =    1.000,"P-18-1",          1741,       154.944,       50.0593,            0.,NA,NA,"",   1.40633E+06,   1.30075E+06,   1.30075E+06
