ODB Name,Step,Frame,Part Instance Name,    Node Label,X,Y,Z,Section Name,Material Name,Section Point,       S-Mises,S-Max. In-Plane Principal (Abs),S-Max. Principal (Abs)
C:/temp/Job-2.odb,Step-1,Increment      1: Step Time =    1.000,"P-2-1",             1,       95.0251,       112.010,            0.,NA,NA,"",   1.93780E+06,   2.00676E+06,   2.00676E+06
C:/temp/Job-2.odb,Step-1,Increment      1: Step Time =    1.000,"P-2-1",             2,       87.9896,       104.975,            0.,NA,NA,"",   573.968E+03,   11.9565E+03,   11.9565E+03
C:/temp/Job-2.odb,Step-1,Increment      1: Step Time =    1.000,"P-2-1",             3,           87.,          100.,            0.,NA,NA,"",   502.381E+03,  -496.084E+03,  -496.084E+03
C:/temp/Job-2.odb,Step-1,Increment      1: Step Time =    1.000,"P-2-1",             4,       87.9896,       95.0251,            0.,NA,NA,"",   601.699E+03,   50.7442E+03,   50.7442E+03
C:/temp/Job-2.odb,Step-1,Increment      1: Step Time =    1.000,"P-2-1",             5,       95.0251,       87.9896,            0.,NA,NA,"",   1.92999E+06,   2.00261E+06,   2.00261E+06
C:/temp/Job-2.odb,Step-1,Increment      1: Step Time =    1.000,"P-2-1",             6,          100.,           87.,            0.,NA,NA,"",   2.24405E+06,   2.34808E+06,   2.34808E+06
C:/temp/Job-2.odb,Step-1,Increment      1: Step Time =    1.000,"P-2-1",             7,       104.975,       87.9896,            0.,NA,NA,"",   1.91724E+06,   1.98662E+06,   1.98662E+06
C:/temp/Job-2.odb,Step-1,Increment      1: Step Time =    1.000,"P-2-1",             8,       112.010,       95.0251,            0.,NA,NA,"",   605.311E+03,   6.99109E+03,   6.99109E+03
C:/temp/Job-2.odb,Step-1,Increment      1: Step Time =    1.000,"P-2-1",             9,          113.,          100.,            0.,NA,NA,"",   536.915E+03,  -529.327E+03,  -529.327E+03
C:/temp/Job-2.odb,Step-1,Increment      1: Step Time =    1.000,"P-2-1",            10,       112.010,       104.975,            0.,NA,NA,"",   630.078E+03,   33.2038E+03,   33.2038E+03
C:/temp/Job-2.odb,Step-1,Increment      1: Step Time =    1.000,"P-2-1",            11,       104.975,       112.010,            0.,NA,NA,"",   1.96968E+06,   2.03871E+06,   2.03871E+06
C:/temp/Job-2.odb,Step-1,Increment      1: Step Time =    1.000,"P-2-1",            12,          100.,          113.,            0.,NA,NA,"",   2.29205E+06,   2.39256E+06,   2.39256E+06
C:/temp/Job-2.odb,Step-1,Increment      1: Step Time =    1.000,"P-2-1",            13,          190.,            0.,            0.,NA,NA,"",   999.663E+03,   999.647E+03,   999.647E+03
C:/temp/Job-2.odb,Step-1,Increment      1: Step Time =    1.000,"P-2-1",            14,          180.,            0.,            0.,NA,NA,"",   998.917E+03,   998.889E+03,   998.889E+03
C:/temp/Job-2.odb,Step-1,Increment      1: Step Time =    1.000,"P-2-1",            15,          170.,            0.,            0.,NA,NA,"",   997.394E+03,   997.321E+03,   997.321E+03
C:/temp/Job-2.odb,Step-1,Increment      1: Step Time =    1.000,"P-2-1",            16,          160.,            0.,            0.,NA,NA,"",   993.776E+03,   993.698E+03,   993.698E+03
C:/temp/Job-2.odb,Step-1,Increment      1: Step Time =    1.000,"P-2-1",            17,          150.,            0.,            0.,NA,NA,"",   986.667E+03,   986.554E+03,   986.554E+03
C:/temp/Job-2.odb,Step-1,Increment      1: Step Time =    1.000,"P-2-1",            18,          140.,            0.,            0.,NA,NA,"",   975.440E+03,   975.321E+03,   975.321E+03
C:/temp/Job-2.odb,Step-1,Increment      1: Step Time =    1.000,"P-2-1",            19,          130.,            0.,            0.,NA,NA,"",   961.148E+03,   961.112E+03,   961.112E+03
C:/temp/Job-2.odb,Step-1,Increment      1: Step Time =    1.000,"P-2-1",            20,          120.,            0.,            0.,NA,NA,"",   946.091E+03,   946.183E+03,   946.183E+03
C:/temp/Job-2.odb,Step-1,Increment      1: Step Time =    1.000,"P-2-1",            21,          110.,            0.,            0.,NA,NA,"",   933.931E+03,   934.102E+03,   934.102E+03
C:/temp/Job-2.odb,Step-1,Increment      1: Step Time =    1.000,"P-2-1",            22,          100.,            0.,            0.,NA,NA,"",   927.822E+03,   928.033E+03,   928.033E+03
C:/temp/Job-2.odb,Step-1,Increment      1: Step Time =    1.000,"P-2-1",            23,           90.,            0.,            0.,NA,NA,"",   929.164E+03,   929.346E+03,   929.346E+03
C:/temp/Job-2.odb,Step-1,Increment      1: Step Time =    1.000,"P-2-1",            24,           80.,            0.,            0.,NA,NA,"",   937.145E+03,   937.234E+03,   937.234E+03
C:/temp/Job-2.odb,Step-1,Increment      1: Step Time =    1.000,"P-2-1",            25,           70.,            0.,            0.,NA,NA,"",   949.351E+03,   949.346E+03,   949.346E+03
C:/temp/Job-2.odb,Step-1,Increment      1: Step Time =    1.000,"P-2-1",            26,           60.,            0.,            0.,NA,NA,"",   963.332E+03,   963.291E+03,   963.291E+03
C:/temp/Job-2.odb,Step-1,Increment      1: Step Time =    1.000,"P-2-1",            27,           50.,            0.,            0.,NA,NA,"",   978.376E+03,   978.334E+03,   978.334E+03
C:/temp/Job-2.odb,Step-1,Increment      1: Step Time =    1.000,"P-2-1",            28,           40.,            0.,            0.,NA,NA,"",   996.495E+03,   996.541E+03,   996.541E+03
C:/temp/Job-2.odb,Step-1,Increment      1: Step Time =    1.000,"P-2-1",            29,           30.,            0.,            0.,NA,NA,"",   1.02485E+06,   1.02519E+06,   1.02519E+06
C:/temp/Job-2.odb,Step-1,Increment      1: Step Time =    1.000,"P-2-1",            30,           20.,            0.,            0.,NA,NA,"",   1.08105E+06,   1.08197E+06,   1.08197E+06
C:/temp/Job-2.odb,Step-1,Increment      1: Step Time =    1.000,"P-2-1",            31,           10.,            0.,            0.,NA,NA,"",   1.22335E+06,   1.22634E+06,   1.22634E+06
C:/temp/Job-2.odb,Step-1,Increment      1: Step Time =    1.000,"P-2-1",            32,          200.,            0.,            0.,NA,NA,"",   999.975E+03,   999.951E+03,   999.951E+03
C:/temp/Job-2.odb,Step-1,Increment      1: Step Time =    1.000,"P-2-1",            33,            0.,            0.,            0.,NA,NA,"",   1.56904E+06,   1.64242E+06,   1.64242E+06
C:/temp/Job-2.odb,Step-1,Increment      1: Step Time =    1.000,"P-2-1",            34,          200.,          190.,            0.,NA,NA,"",   1.00015E+06,   999.992E+03,   999.992E+03
C:/temp/Job-2.odb,Step-1,Increment      1: Step Time =    1.000,"P-2-1",            35,          200.,          180.,            0.,NA,NA,"",   1.00038E+06,   1.00009E+06,   1.00009E+06
C:/temp/Job-2.odb,Step-1,Increment      1: Step Time =    1.000,"P-2-1",            36,          200.,          170.,            0.,NA,NA,"",   999.860E+03,   1.00027E+06,   1.00027E+06
C:/temp/Job-2.odb,Step-1,Increment      1: Step Time =    1.000,"P-2-1",            37,          200.,          160.,            0.,NA,NA,"",   997.502E+03,   1.00027E+06,   1.00027E+06
C:/temp/Job-2.odb,Step-1,Increment      1: Step Time =    1.000,"P-2-1",            38,          200.,          150.,            0.,NA,NA,"",   992.765E+03,   1.00023E+06,   1.00023E+06
C:/temp/Job-2.odb,Step-1,Increment      1: Step Time =    1.000,"P-2-1",            39,          200.,          140.,            0.,NA,NA,"",   985.654E+03,   1.00023E+06,   1.00023E+06
C:/temp/Job-2.odb,Step-1,Increment      1: Step Time =    1.000,"P-2-1",            40,          200.,          130.,            0.,NA,NA,"",   977.168E+03,   1.00010E+06,   1.00010E+06
C:/temp/Job-2.odb,Step-1,Increment      1: Step Time =    1.000,"P-2-1",            41,          200.,          120.,            0.,NA,NA,"",   968.807E+03,   999.742E+03,   999.742E+03
C:/temp/Job-2.odb,Step-1,Increment      1: Step Time =    1.000,"P-2-1",            42,          200.,          110.,            0.,NA,NA,"",   962.715E+03,   999.396E+03,   999.396E+03
C:/temp/Job-2.odb,Step-1,Increment      1: Step Time =    1.000,"P-2-1",            43,          200.,          100.,            0.,NA,NA,"",   960.537E+03,   999.356E+03,   999.356E+03
C:/temp/Job-2.odb,Step-1,Increment      1: Step Time =    1.000,"P-2-1",            44,          200.,           90.,            0.,NA,NA,"",   962.872E+03,   999.498E+03,   999.498E+03
C:/temp/Job-2.odb,Step-1,Increment      1: Step Time =    1.000,"P-2-1",            45,          200.,           80.,            0.,NA,NA,"",   969.033E+03,   999.759E+03,   999.759E+03
C:/temp/Job-2.odb,Step-1,Increment      1: Step Time =    1.000,"P-2-1",            46,          200.,           70.,            0.,NA,NA,"",   977.384E+03,   1.00004E+06,   1.00004E+06
C:/temp/Job-2.odb,Step-1,Increment      1: Step Time =    1.000,"P-2-1",            47,          200.,           60.,            0.,NA,NA,"",   985.909E+03,   1.00023E+06,   1.00023E+06
C:/temp/Job-2.odb,Step-1,Increment      1: Step Time =    1.000,"P-2-1",            48,          200.,           50.,            0.,NA,NA,"",   992.940E+03,   1.00031E+06,   1.00031E+06
C:/temp/Job-2.odb,Step-1,Increment      1: Step Time =    1.000,"P-2-1",            49,          200.,           40.,            0.,NA,NA,"",   997.609E+03,   1.00029E+06,   1.00029E+06
C:/temp/Job-2.odb,Step-1,Increment      1: Step Time =    1.000,"P-2-1",            50,          200.,           30.,            0.,NA,NA,"",   999.882E+03,   1.00022E+06,   1.00022E+06
C:/temp/Job-2.odb,Step-1,Increment      1: Step Time =    1.000,"P-2-1",            51,          200.,           20.,            0.,NA,NA,"",   1.00039E+06,   1.00010E+06,   1.00010E+06
C:/temp/Job-2.odb,Step-1,Increment      1: Step Time =    1.000,"P-2-1",            52,          200.,           10.,            0.,NA,NA,"",   1.00015E+06,   999.989E+03,   999.989E+03
C:/temp/Job-2.odb,Step-1,Increment      1: Step Time =    1.000,"P-2-1",            53,          200.,          200.,            0.,NA,NA,"",   999.978E+03,   999.955E+03,   999.955E+03
C:/temp/Job-2.odb,Step-1,Increment      1: Step Time =    1.000,"P-2-1",            54,           10.,          200.,            0.,NA,NA,"",   1.22571E+06,   1.22870E+06,   1.22870E+06
C:/temp/Job-2.odb,Step-1,Increment      1: Step Time =    1.000,"P-2-1",            55,           20.,          200.,            0.,NA,NA,"",   1.08292E+06,   1.08408E+06,   1.08408E+06
C:/temp/Job-2.odb,Step-1,Increment      1: Step Time =    1.000,"P-2-1",            56,           30.,          200.,            0.,NA,NA,"",   1.02579E+06,   1.02618E+06,   1.02618E+06
C:/temp/Job-2.odb,Step-1,Increment      1: Step Time =    1.000,"P-2-1",            57,           40.,          200.,            0.,NA,NA,"",   997.053E+03,   997.108E+03,   997.108E+03
C:/temp/Job-2.odb,Step-1,Increment      1: Step Time =    1.000,"P-2-1",            58,           50.,          200.,            0.,NA,NA,"",   977.783E+03,   977.856E+03,   977.856E+03
C:/temp/Job-2.odb,Step-1,Increment      1: Step Time =    1.000,"P-2-1",            59,           60.,          200.,            0.,NA,NA,"",   962.600E+03,   962.519E+03,   962.519E+03
C:/temp/Job-2.odb,Step-1,Increment      1: Step Time =    1.000,"P-2-1",            60,           70.,          200.,            0.,NA,NA,"",   948.643E+03,   948.641E+03,   948.641E+03
C:/temp/Job-2.odb,Step-1,Increment      1: Step Time =    1.000,"P-2-1",            61,           80.,          200.,            0.,NA,NA,"",   936.627E+03,   936.729E+03,   936.729E+03
C:/temp/Job-2.odb,Step-1,Increment      1: Step Time =    1.000,"P-2-1",            62,           90.,          200.,            0.,NA,NA,"",   928.913E+03,   929.116E+03,   929.116E+03
C:/temp/Job-2.odb,Step-1,Increment      1: Step Time =    1.000,"P-2-1",            63,          100.,          200.,            0.,NA,NA,"",   927.847E+03,   928.092E+03,   928.092E+03
C:/temp/Job-2.odb,Step-1,Increment      1: Step Time =    1.000,"P-2-1",            64,          110.,          200.,            0.,NA,NA,"",   934.207E+03,   934.401E+03,   934.401E+03
C:/temp/Job-2.odb,Step-1,Increment      1: Step Time =    1.000,"P-2-1",            65,          120.,          200.,            0.,NA,NA,"",   946.544E+03,   946.615E+03,   946.615E+03
C:/temp/Job-2.odb,Step-1,Increment      1: Step Time =    1.000,"P-2-1",            66,          130.,          200.,            0.,NA,NA,"",   961.577E+03,   961.534E+03,   961.534E+03
C:/temp/Job-2.odb,Step-1,Increment      1: Step Time =    1.000,"P-2-1",            67,          140.,          200.,            0.,NA,NA,"",   975.843E+03,   975.734E+03,   975.734E+03
C:/temp/Job-2.odb,Step-1,Increment      1: Step Time =    1.000,"P-2-1",            68,          150.,          200.,            0.,NA,NA,"",   986.955E+03,   986.828E+03,   986.828E+03
C:/temp/Job-2.odb,Step-1,Increment      1: Step Time =    1.000,"P-2-1",            69,          160.,          200.,            0.,NA,NA,"",   994.032E+03,   993.926E+03,   993.926E+03
C:/temp/Job-2.odb,Step-1,Increment      1: Step Time =    1.000,"P-2-1",            70,          170.,          200.,            0.,NA,NA,"",   997.563E+03,   997.501E+03,   997.501E+03
C:/temp/Job-2.odb,Step-1,Increment      1: Step Time =    1.000,"P-2-1",            71,          180.,          200.,            0.,NA,NA,"",   998.986E+03,   998.961E+03,   998.961E+03
C:/temp/Job-2.odb,Step-1,Increment      1: Step Time =    1.000,"P-2-1",            72,          190.,          200.,            0.,NA,NA,"",   999.671E+03,   999.658E+03,   999.658E+03
C:/temp/Job-2.odb,Step-1,Increment      1: Step Time =    1.000,"P-2-1",            73,            0.,          200.,            0.,NA,NA,"",   1.56917E+06,   1.64345E+06,   1.64345E+06
C:/temp/Job-2.odb,Step-1,Increment      1: Step Time =    1.000,"P-2-1",            74,            0.,           10.,            0.,NA,NA,"",   1.13901E+06,   1.23803E+06,   1.23803E+06
C:/temp/Job-2.odb,Step-1,Increment      1: Step Time =    1.000,"P-2-1",            75,            0.,           20.,            0.,NA,NA,"",   995.750E+03,   1.09834E+06,   1.09834E+06
C:/temp/Job-2.odb,Step-1,Increment      1: Step Time =    1.000,"P-2-1",            76,            0.,           30.,            0.,NA,NA,"",   927.187E+03,   1.03138E+06,   1.03138E+06
C:/temp/Job-2.odb,Step-1,Increment      1: Step Time =    1.000,"P-2-1",            77,            0.,           40.,            0.,NA,NA,"",   884.374E+03,   989.571E+03,   989.571E+03
C:/temp/Job-2.odb,Step-1,Increment      1: Step Time =    1.000,"P-2-1",            78,            0.,           50.,            0.,NA,NA,"",   853.791E+03,   958.377E+03,   958.377E+03
C:/temp/Job-2.odb,Step-1,Increment      1: Step Time =    1.000,"P-2-1",            79,            0.,           60.,            0.,NA,NA,"",   829.600E+03,   933.049E+03,   933.049E+03
C:/temp/Job-2.odb,Step-1,Increment      1: Step Time =    1.000,"P-2-1",            80,            0.,           70.,            0.,NA,NA,"",   808.598E+03,   910.742E+03,   910.742E+03
C:/temp/Job-2.odb,Step-1,Increment      1: Step Time =    1.000,"P-2-1",            81,            0.,           80.,            0.,NA,NA,"",   791.699E+03,   892.663E+03,   892.663E+03
C:/temp/Job-2.odb,Step-1,Increment      1: Step Time =    1.000,"P-2-1",            82,            0.,           90.,            0.,NA,NA,"",   780.459E+03,   880.570E+03,   880.570E+03
C:/temp/Job-2.odb,Step-1,Increment      1: Step Time =    1.000,"P-2-1",            83,            0.,          100.,            0.,NA,NA,"",   776.543E+03,   876.343E+03,   876.343E+03
C:/temp/Job-2.odb,Step-1,Increment      1: Step Time =    1.000,"P-2-1",            84,            0.,          110.,            0.,NA,NA,"",   780.645E+03,   880.757E+03,   880.757E+03
C:/temp/Job-2.odb,Step-1,Increment      1: Step Time =    1.000,"P-2-1",            85,            0.,          120.,            0.,NA,NA,"",   791.854E+03,   892.795E+03,   892.795E+03
C:/temp/Job-2.odb,Step-1,Increment      1: Step Time =    1.000,"P-2-1",            86,            0.,          130.,            0.,NA,NA,"",   808.847E+03,   910.933E+03,   910.933E+03
C:/temp/Job-2.odb,Step-1,Increment      1: Step Time =    1.000,"P-2-1",            87,            0.,          140.,            0.,NA,NA,"",   830.101E+03,   933.374E+03,   933.374E+03
C:/temp/Job-2.odb,Step-1,Increment      1: Step Time =    1.000,"P-2-1",            88,            0.,          150.,            0.,NA,NA,"",   855.014E+03,   959.290E+03,   959.290E+03
C:/temp/Job-2.odb,Step-1,Increment      1: Step Time =    1.000,"P-2-1",            89,            0.,          160.,            0.,NA,NA,"",   885.526E+03,   990.301E+03,   990.301E+03
C:/temp/Job-2.odb,Step-1,Increment      1: Step Time =    1.000,"P-2-1",            90,            0.,          170.,            0.,NA,NA,"",   927.132E+03,   1.03173E+06,   1.03173E+06
C:/temp/Job-2.odb,Step-1,Increment      1: Step Time =    1.000,"P-2-1",            91,            0.,          180.,            0.,NA,NA,"",   993.954E+03,   1.09747E+06,   1.09747E+06
C:/temp/Job-2.odb,Step-1,Increment      1: Step Time =    1.000,"P-2-1",            92,            0.,          190.,            0.,NA,NA,"",   1.13771E+06,   1.23797E+06,   1.23797E+06
C:/temp/Job-2.odb,Step-1,Increment      1: Step Time =    1.000,"P-2-1",            93,       105.591,       83.3920,            0.,NA,NA,"",   1.66079E+06,   1.74309E+06,   1.74309E+06
C:/temp/Job-2.odb,Step-1,Increment      1: Step Time =    1.000,"P-2-1",            94,       190.031,       84.8049,            0.,NA,NA,"",   971.538E+03,   996.769E+03,   996.769E+03
C:/temp/Job-2.odb,Step-1,Increment      1: Step Time =    1.000,"P-2-1",            95,       189.285,       114.967,            0.,NA,NA,"",   971.379E+03,   996.140E+03,   996.140E+03
C:/temp/Job-2.odb,Step-1,Increment      1: Step Time =    1.000,"P-2-1",            96,       178.755,       111.806,            0.,NA,NA,"",   967.634E+03,   984.513E+03,   984.513E+03
C:/temp/Job-2.odb,Step-1,Increment      1: Step Time =    1.000,"P-2-1",            97,       168.978,       119.507,            0.,NA,NA,"",   979.271E+03,   985.244E+03,   985.244E+03
C:/temp/Job-2.odb,Step-1,Increment      1: Step Time =    1.000,"P-2-1",            98,       160.067,       118.900,            0.,NA,NA,"",   975.822E+03,   975.518E+03,   975.518E+03
C:/temp/Job-2.odb,Step-1,Increment      1: Step Time =    1.000,"P-2-1",            99,       145.879,       114.851,            0.,NA,NA,"",   947.923E+03,   938.202E+03,   938.202E+03
C:/temp/Job-2.odb,Step-1,Increment      1: Step Time =    1.000,"P-2-1",           100,       136.900,       115.027,            0.,NA,NA,"",   961.500E+03,   931.945E+03,   931.945E+03
C:/temp/Job-2.odb,Step-1,Increment      1: Step Time =    1.000,"P-2-1",           101,       127.241,       115.557,            0.,NA,NA,"",   1.07134E+06,   990.913E+03,   990.913E+03
C:/temp/Job-2.odb,Step-1,Increment      1: Step Time =    1.000,"P-2-1",           102,       115.844,       117.695,            0.,NA,NA,"",   1.31266E+06,   1.23910E+06,   1.23910E+06
C:/temp/Job-2.odb,Step-1,Increment      1: Step Time =    1.000,"P-2-1",           103,       105.130,       116.241,            0.,NA,NA,"",   1.70494E+06,   1.79316E+06,   1.79316E+06
C:/temp/Job-2.odb,Step-1,Increment      1: Step Time =    1.000,"P-2-1",           104,       94.5202,       116.115,            0.,NA,NA,"",   1.69432E+06,   1.77786E+06,   1.77786E+06
C:/temp/Job-2.odb,Step-1,Increment      1: Step Time =    1.000,"P-2-1",           105,       84.3281,       114.960,            0.,NA,NA,"",   1.25391E+06,   1.17310E+06,   1.17310E+06
C:/temp/Job-2.odb,Step-1,Increment      1: Step Time =    1.000,"P-2-1",           106,       73.7949,       113.796,            0.,NA,NA,"",   1.00138E+06,   945.803E+03,   945.803E+03
C:/temp/Job-2.odb,Step-1,Increment      1: Step Time =    1.000,"P-2-1",           107,       63.9214,       117.036,            0.,NA,NA,"",   946.304E+03,   945.513E+03,   945.513E+03
C:/temp/Job-2.odb,Step-1,Increment      1: Step Time =    1.000,"P-2-1",           108,       51.9220,       117.215,            0.,NA,NA,"",   886.779E+03,   923.615E+03,   923.615E+03
C:/temp/Job-2.odb,Step-1,Increment      1: Step Time =    1.000,"P-2-1",           109,       41.6075,       114.222,            0.,NA,NA,"",   850.283E+03,   909.261E+03,   909.261E+03
C:/temp/Job-2.odb,Step-1,Increment      1: Step Time =    1.000,"P-2-1",           110,       31.8310,       116.441,            0.,NA,NA,"",   846.155E+03,   917.351E+03,   917.351E+03
C:/temp/Job-2.odb,Step-1,Increment      1: Step Time =    1.000,"P-2-1",           111,       20.4184,       115.329,            0.,NA,NA,"",   820.466E+03,   905.938E+03,   905.938E+03
C:/temp/Job-2.odb,Step-1,Increment      1: Step Time =    1.000,"P-2-1",           112,       10.0484,       115.086,            0.,NA,NA,"",   799.614E+03,   894.876E+03,   894.876E+03
C:/temp/Job-2.odb,Step-1,Increment      1: Step Time =    1.000,"P-2-1",           113,       10.0528,       105.108,            0.,NA,NA,"",   789.248E+03,   884.704E+03,   884.704E+03
C:/temp/Job-2.odb,Step-1,Increment      1: Step Time =    1.000,"P-2-1",           114,       20.4804,       105.052,            0.,NA,NA,"",   805.292E+03,   892.210E+03,   892.210E+03
C:/temp/Job-2.odb,Step-1,Increment      1: Step Time =    1.000,"P-2-1",           115,       31.9719,       104.317,            0.,NA,NA,"",   815.944E+03,   890.984E+03,   890.984E+03
C:/temp/Job-2.odb,Step-1,Increment      1: Step Time =    1.000,"P-2-1",           116,       40.1423,       107.332,            0.,NA,NA,"",   823.671E+03,   888.605E+03,   888.605E+03
C:/temp/Job-2.odb,Step-1,Increment      1: Step Time =    1.000,"P-2-1",           117,       48.6933,       107.461,            0.,NA,NA,"",   817.051E+03,   871.919E+03,   871.919E+03
C:/temp/Job-2.odb,Step-1,Increment      1: Step Time =    1.000,"P-2-1",           118,       63.3585,       103.387,            0.,NA,NA,"",   715.965E+03,   757.441E+03,   757.441E+03
C:/temp/Job-2.odb,Step-1,Increment      1: Step Time =    1.000,"P-2-1",           119,       73.8942,       104.082,            0.,NA,NA,"",   591.348E+03,   599.150E+03,   599.150E+03
C:/temp/Job-2.odb,Step-1,Increment      1: Step Time =    1.000,"P-2-1",           120,       83.7031,       105.114,            0.,NA,NA,"",   603.081E+03,   258.566E+03,   258.566E+03
C:/temp/Job-2.odb,Step-1,Increment      1: Step Time =    1.000,"P-2-1",           121,       116.581,       105.590,            0.,NA,NA,"",   675.370E+03,   304.798E+03,   304.798E+03
C:/temp/Job-2.odb,Step-1,Increment      1: Step Time =    1.000,"P-2-1",           122,       127.009,       105.186,            0.,NA,NA,"",   691.988E+03,   670.840E+03,   670.840E+03
C:/temp/Job-2.odb,Step-1,Increment      1: Step Time =    1.000,"P-2-1",           123,       137.353,       106.054,            0.,NA,NA,"",   811.009E+03,   813.047E+03,   813.047E+03
C:/temp/Job-2.odb,Step-1,Increment      1: Step Time =    1.000,"P-2-1",           124,       146.345,       108.106,            0.,NA,NA,"",   887.888E+03,   891.385E+03,   891.385E+03
C:/temp/Job-2.odb,Step-1,Increment      1: Step Time =    1.000,"P-2-1",           125,       160.568,       104.133,            0.,NA,NA,"",   925.711E+03,   937.027E+03,   937.027E+03
C:/temp/Job-2.odb,Step-1,Increment      1: Step Time =    1.000,"P-2-1",           126,       170.439,       103.493,            0.,NA,NA,"",   949.725E+03,   964.215E+03,   964.215E+03
C:/temp/Job-2.odb,Step-1,Increment      1: Step Time =    1.000,"P-2-1",           127,       180.094,       103.779,            0.,NA,NA,"",   963.114E+03,   982.872E+03,   982.872E+03
C:/temp/Job-2.odb,Step-1,Increment      1: Step Time =    1.000,"P-2-1",           128,       189.825,       104.709,            0.,NA,NA,"",   966.305E+03,   994.686E+03,   994.686E+03
C:/temp/Job-2.odb,Step-1,Increment      1: Step Time =    1.000,"P-2-1",           129,       116.485,       94.7313,            0.,NA,NA,"",   655.801E+03,   281.621E+03,   281.621E+03
C:/temp/Job-2.odb,Step-1,Increment      1: Step Time =    1.000,"P-2-1",           130,       126.499,       95.0853,            0.,NA,NA,"",   661.830E+03,   639.360E+03,   639.360E+03
C:/temp/Job-2.odb,Step-1,Increment      1: Step Time =    1.000,"P-2-1",           131,       138.008,       95.1278,            0.,NA,NA,"",   795.526E+03,   802.348E+03,   802.348E+03
C:/temp/Job-2.odb,Step-1,Increment      1: Step Time =    1.000,"P-2-1",           132,       144.247,       95.1267,            0.,NA,NA,"",   845.471E+03,   854.450E+03,   854.450E+03
C:/temp/Job-2.odb,Step-1,Increment      1: Step Time =    1.000,"P-2-1",           133,       156.770,       92.3767,            0.,NA,NA,"",   923.184E+03,   931.378E+03,   931.378E+03
C:/temp/Job-2.odb,Step-1,Increment      1: Step Time =    1.000,"P-2-1",           134,       169.888,       94.1878,            0.,NA,NA,"",   950.864E+03,   964.516E+03,   964.516E+03
C:/temp/Job-2.odb,Step-1,Increment      1: Step Time =    1.000,"P-2-1",           135,       180.065,       94.3811,            0.,NA,NA,"",   964.064E+03,   983.497E+03,   983.497E+03
C:/temp/Job-2.odb,Step-1,Increment      1: Step Time =    1.000,"P-2-1",           136,       190.008,       94.7354,            0.,NA,NA,"",   966.590E+03,   995.038E+03,   995.038E+03
C:/temp/Job-2.odb,Step-1,Increment      1: Step Time =    1.000,"P-2-1",           137,       10.1953,       85.1197,            0.,NA,NA,"",   799.565E+03,   894.693E+03,   894.693E+03
C:/temp/Job-2.odb,Step-1,Increment      1: Step Time =    1.000,"P-2-1",           138,       19.4891,       87.9887,            0.,NA,NA,"",   812.862E+03,   899.699E+03,   899.699E+03
C:/temp/Job-2.odb,Step-1,Increment      1: Step Time =    1.000,"P-2-1",           139,       42.7479,       85.4967,            0.,NA,NA,"",   856.648E+03,   912.922E+03,   912.922E+03
C:/temp/Job-2.odb,Step-1,Increment      1: Step Time =    1.000,"P-2-1",           140,       51.2047,       86.8069,            0.,NA,NA,"",   854.156E+03,   898.261E+03,   898.261E+03
C:/temp/Job-2.odb,Step-1,Increment      1: Step Time =    1.000,"P-2-1",           141,       63.6509,       84.1481,            0.,NA,NA,"",   921.953E+03,   925.807E+03,   925.807E+03
C:/temp/Job-2.odb,Step-1,Increment      1: Step Time =    1.000,"P-2-1",           142,       73.1884,       84.0568,            0.,NA,NA,"",   1.04358E+06,   990.818E+03,   990.818E+03
C:/temp/Job-2.odb,Step-1,Increment      1: Step Time =    1.000,"P-2-1",           143,       84.2703,       82.2825,            0.,NA,NA,"",   1.29811E+06,   1.23853E+06,   1.23853E+06
C:/temp/Job-2.odb,Step-1,Increment      1: Step Time =    1.000,"P-2-1",           144,       94.7631,       83.4857,            0.,NA,NA,"",   1.67455E+06,   1.76066E+06,   1.76066E+06
C:/temp/Job-2.odb,Step-1,Increment      1: Step Time =    1.000,"P-2-1",           145,       117.581,       84.0669,            0.,NA,NA,"",   1.25885E+06,   1.15660E+06,   1.15660E+06
C:/temp/Job-2.odb,Step-1,Increment      1: Step Time =    1.000,"P-2-1",           146,       126.386,       85.0882,            0.,NA,NA,"",   1.07405E+06,   986.898E+03,   986.898E+03
C:/temp/Job-2.odb,Step-1,Increment      1: Step Time =    1.000,"P-2-1",           147,       138.259,       84.6068,            0.,NA,NA,"",   972.384E+03,   944.702E+03,   944.702E+03
C:/temp/Job-2.odb,Step-1,Increment      1: Step Time =    1.000,"P-2-1",           148,       147.822,       82.2283,            0.,NA,NA,"",   980.233E+03,   967.386E+03,   967.386E+03
C:/temp/Job-2.odb,Step-1,Increment      1: Step Time =    1.000,"P-2-1",           149,       157.698,       80.6354,            0.,NA,NA,"",   980.616E+03,   977.200E+03,   977.200E+03
C:/temp/Job-2.odb,Step-1,Increment      1: Step Time =    1.000,"P-2-1",           150,       169.689,       84.6287,            0.,NA,NA,"",   969.690E+03,   978.555E+03,   978.555E+03
C:/temp/Job-2.odb,Step-1,Increment      1: Step Time =    1.000,"P-2-1",           151,       179.957,       84.6330,            0.,NA,NA,"",   973.135E+03,   989.283E+03,   989.283E+03
C:/temp/Job-2.odb,Step-1,Increment      1: Step Time =    1.000,"P-2-1",           152,       83.6333,       94.2301,            0.,NA,NA,"",   660.330E+03,   319.257E+03,   319.257E+03
C:/temp/Job-2.odb,Step-1,Increment      1: Step Time =    1.000,"P-2-1",           153,       73.7707,       94.0482,            0.,NA,NA,"",   676.312E+03,   670.053E+03,   670.053E+03
C:/temp/Job-2.odb,Step-1,Increment      1: Step Time =    1.000,"P-2-1",           154,       63.2162,       93.7437,            0.,NA,NA,"",   753.499E+03,   788.466E+03,   788.466E+03
C:/temp/Job-2.odb,Step-1,Increment      1: Step Time =    1.000,"P-2-1",           155,       51.0376,       94.5099,            0.,NA,NA,"",   801.732E+03,   854.776E+03,   854.776E+03
C:/temp/Job-2.odb,Step-1,Increment      1: Step Time =    1.000,"P-2-1",           156,       39.8688,       96.4813,            0.,NA,NA,"",   814.010E+03,   880.786E+03,   880.786E+03
C:/temp/Job-2.odb,Step-1,Increment      1: Step Time =    1.000,"P-2-1",           157,       29.3357,       94.8609,            0.,NA,NA,"",   815.348E+03,   893.507E+03,   893.507E+03
C:/temp/Job-2.odb,Step-1,Increment      1: Step Time =    1.000,"P-2-1",           158,       19.6383,       95.1236,            0.,NA,NA,"",   803.706E+03,   891.338E+03,   891.338E+03
C:/temp/Job-2.odb,Step-1,Increment      1: Step Time =    1.000,"P-2-1",           159,       9.94181,       95.1843,            0.,NA,NA,"",   788.679E+03,   884.173E+03,   884.173E+03
C:/temp/Job-2.odb,Step-1,Increment      1: Step Time =    1.000,"P-2-1",           160,       189.530,       10.3525,            0.,NA,NA,"",   1.00011E+06,   1.00004E+06,   1.00004E+06
C:/temp/Job-2.odb,Step-1,Increment      1: Step Time =    1.000,"P-2-1",           161,       179.328,       10.0990,            0.,NA,NA,"",   1.00028E+06,   1.00008E+06,   1.00008E+06
C:/temp/Job-2.odb,Step-1,Increment      1: Step Time =    1.000,"P-2-1",           162,       169.101,       9.81165,            0.,NA,NA,"",   1.00007E+06,   999.514E+03,   999.514E+03
C:/temp/Job-2.odb,Step-1,Increment      1: Step Time =    1.000,"P-2-1",           163,       158.615,       10.2276,            0.,NA,NA,"",   998.578E+03,   997.612E+03,   997.612E+03
C:/temp/Job-2.odb,Step-1,Increment      1: Step Time =    1.000,"P-2-1",           164,       149.603,       9.08212,            0.,NA,NA,"",   993.468E+03,   992.533E+03,   992.533E+03
C:/temp/Job-2.odb,Step-1,Increment      1: Step Time =    1.000,"P-2-1",           165,       135.131,       9.78866,            0.,NA,NA,"",   983.169E+03,   982.523E+03,   982.523E+03
C:/temp/Job-2.odb,Step-1,Increment      1: Step Time =    1.000,"P-2-1",           166,       125.011,       9.83583,            0.,NA,NA,"",   972.902E+03,   973.073E+03,   973.073E+03
C:/temp/Job-2.odb,Step-1,Increment      1: Step Time =    1.000,"P-2-1",           167,       114.939,       9.85049,            0.,NA,NA,"",   963.035E+03,   964.157E+03,   964.157E+03
C:/temp/Job-2.odb,Step-1,Increment      1: Step Time =    1.000,"P-2-1",           168,       104.985,       9.97207,            0.,NA,NA,"",   956.997E+03,   958.832E+03,   958.832E+03
C:/temp/Job-2.odb,Step-1,Increment      1: Step Time =    1.000,"P-2-1",           169,       94.9942,       10.0496,            0.,NA,NA,"",   956.524E+03,   958.514E+03,   958.514E+03
C:/temp/Job-2.odb,Step-1,Increment      1: Step Time =    1.000,"P-2-1",           170,       84.9406,       10.0405,            0.,NA,NA,"",   962.011E+03,   963.491E+03,   963.491E+03
C:/temp/Job-2.odb,Step-1,Increment      1: Step Time =    1.000,"P-2-1",           171,       74.9474,       9.96479,            0.,NA,NA,"",   971.967E+03,   972.700E+03,   972.700E+03
C:/temp/Job-2.odb,Step-1,Increment      1: Step Time =    1.000,"P-2-1",           172,       65.0889,       9.90347,            0.,NA,NA,"",   984.590E+03,   984.853E+03,   984.853E+03
C:/temp/Job-2.odb,Step-1,Increment      1: Step Time =    1.000,"P-2-1",           173,       50.4178,       9.81469,            0.,NA,NA,"",   1.00704E+06,   1.00777E+06,   1.00777E+06
C:/temp/Job-2.odb,Step-1,Increment      1: Step Time =    1.000,"P-2-1",           174,       40.6865,       9.63296,            0.,NA,NA,"",   1.02668E+06,   1.02873E+06,   1.02873E+06
C:/temp/Job-2.odb,Step-1,Increment      1: Step Time =    1.000,"P-2-1",           175,       30.7871,       9.64424,            0.,NA,NA,"",   1.05711E+06,   1.06248E+06,   1.06248E+06
C:/temp/Job-2.odb,Step-1,Increment      1: Step Time =    1.000,"P-2-1",           176,       20.7418,       9.95535,            0.,NA,NA,"",   1.10983E+06,   1.12252E+06,   1.12252E+06
C:/temp/Job-2.odb,Step-1,Increment      1: Step Time =    1.000,"P-2-1",           177,       10.6050,       10.2029,            0.,NA,NA,"",   1.18871E+06,   1.22793E+06,   1.22793E+06
C:/temp/Job-2.odb,Step-1,Increment      1: Step Time =    1.000,"P-2-1",           178,       189.224,       20.9335,            0.,NA,NA,"",   1.00098E+06,   1.00101E+06,   1.00101E+06
C:/temp/Job-2.odb,Step-1,Increment      1: Step Time =    1.000,"P-2-1",           179,       176.140,       23.5263,            0.,NA,NA,"",   1.00598E+06,   1.00487E+06,   1.00487E+06
C:/temp/Job-2.odb,Step-1,Increment      1: Step Time =    1.000,"P-2-1",           180,       167.984,       23.3666,            0.,NA,NA,"",   1.01009E+06,   1.00757E+06,   1.00757E+06
C:/temp/Job-2.odb,Step-1,Increment      1: Step Time =    1.000,"P-2-1",           181,       158.288,       19.4218,            0.,NA,NA,"",   1.00884E+06,   1.00596E+06,   1.00596E+06
C:/temp/Job-2.odb,Step-1,Increment      1: Step Time =    1.000,"P-2-1",           182,       145.085,       20.4534,            0.,NA,NA,"",   1.01048E+06,   1.00698E+06,   1.00698E+06
C:/temp/Job-2.odb,Step-1,Increment      1: Step Time =    1.000,"P-2-1",           183,       135.890,       20.5767,            0.,NA,NA,"",   1.00762E+06,   1.00516E+06,   1.00516E+06
C:/temp/Job-2.odb,Step-1,Increment      1: Step Time =    1.000,"P-2-1",           184,       124.698,       19.4556,            0.,NA,NA,"",   996.540E+03,   997.229E+03,   997.229E+03
C:/temp/Job-2.odb,Step-1,Increment      1: Step Time =    1.000,"P-2-1",           185,       114.892,       19.6052,            0.,NA,NA,"",   988.595E+03,   992.237E+03,   992.237E+03
C:/temp/Job-2.odb,Step-1,Increment      1: Step Time =    1.000,"P-2-1",           186,       105.019,       20.0559,            0.,NA,NA,"",   983.813E+03,   989.978E+03,   989.978E+03
C:/temp/Job-2.odb,Step-1,Increment      1: Step Time =    1.000,"P-2-1",           187,       95.0084,       20.1736,            0.,NA,NA,"",   984.872E+03,   991.619E+03,   991.619E+03
C:/temp/Job-2.odb,Step-1,Increment      1: Step Time =    1.000,"P-2-1",           188,       84.9341,       20.2023,            0.,NA,NA,"",   993.033E+03,   998.084E+03,   998.084E+03
C:/temp/Job-2.odb,Step-1,Increment      1: Step Time =    1.000,"P-2-1",           189,       74.9634,       20.2057,            0.,NA,NA,"",   1.00524E+06,   1.00796E+06,   1.00796E+06
C:/temp/Job-2.odb,Step-1,Increment      1: Step Time =    1.000,"P-2-1",           190,       65.2655,       20.1874,            0.,NA,NA,"",   1.01774E+06,   1.01915E+06,   1.01915E+06
C:/temp/Job-2.odb,Step-1,Increment      1: Step Time =    1.000,"P-2-1",           191,       50.6870,       19.9840,            0.,NA,NA,"",   1.03566E+06,   1.03901E+06,   1.03901E+06
C:/temp/Job-2.odb,Step-1,Increment      1: Step Time =    1.000,"P-2-1",           192,       40.9454,       19.2375,            0.,NA,NA,"",   1.04862E+06,   1.05595E+06,   1.05595E+06
C:/temp/Job-2.odb,Step-1,Increment      1: Step Time =    1.000,"P-2-1",           193,       31.9099,       18.5035,            0.,NA,NA,"",   1.06350E+06,   1.07803E+06,   1.07803E+06
C:/temp/Job-2.odb,Step-1,Increment      1: Step Time =    1.000,"P-2-1",           194,       21.5795,       20.6947,            0.,NA,NA,"",   1.07003E+06,   1.10636E+06,   1.10636E+06
C:/temp/Job-2.odb,Step-1,Increment      1: Step Time =    1.000,"P-2-1",           195,       12.5327,       21.5347,            0.,NA,NA,"",   1.04277E+06,   1.10919E+06,   1.10919E+06
C:/temp/Job-2.odb,Step-1,Increment      1: Step Time =    1.000,"P-2-1",           196,       190.250,       31.1635,            0.,NA,NA,"",   1.00104E+06,   1.00183E+06,   1.00183E+06
C:/temp/Job-2.odb,Step-1,Increment      1: Step Time =    1.000,"P-2-1",           197,       181.325,       32.8056,            0.,NA,NA,"",   1.00630E+06,   1.00591E+06,   1.00591E+06
C:/temp/Job-2.odb,Step-1,Increment      1: Step Time =    1.000,"P-2-1",           198,       169.259,       33.0364,            0.,NA,NA,"",   1.01696E+06,   1.01326E+06,   1.01326E+06
C:/temp/Job-2.odb,Step-1,Increment      1: Step Time =    1.000,"P-2-1",           199,       158.474,       28.9480,            0.,NA,NA,"",   1.02237E+06,   1.01671E+06,   1.01671E+06
C:/temp/Job-2.odb,Step-1,Increment      1: Step Time =    1.000,"P-2-1",           200,       143.655,       32.2094,            0.,NA,NA,"",   1.03691E+06,   1.02895E+06,   1.02895E+06
C:/temp/Job-2.odb,Step-1,Increment      1: Step Time =    1.000,"P-2-1",           201,       135.221,       31.9473,            0.,NA,NA,"",   1.03592E+06,   1.03026E+06,   1.03026E+06
C:/temp/Job-2.odb,Step-1,Increment      1: Step Time =    1.000,"P-2-1",           202,       127.348,       31.8785,            0.,NA,NA,"",   1.03033E+06,   1.02930E+06,   1.02930E+06
C:/temp/Job-2.odb,Step-1,Increment      1: Step Time =    1.000,"P-2-1",           203,       115.201,       29.3148,            0.,NA,NA,"",   1.01024E+06,   1.01721E+06,   1.01721E+06
C:/temp/Job-2.odb,Step-1,Increment      1: Step Time =    1.000,"P-2-1",           204,       105.195,       30.9809,            0.,NA,NA,"",   1.00503E+06,   1.01822E+06,   1.01822E+06
C:/temp/Job-2.odb,Step-1,Increment      1: Step Time =    1.000,"P-2-1",           205,       95.0567,       30.5370,            0.,NA,NA,"",   1.00460E+06,   1.01885E+06,   1.01885E+06
C:/temp/Job-2.odb,Step-1,Increment      1: Step Time =    1.000,"P-2-1",           206,       85.0157,       30.5228,            0.,NA,NA,"",   1.01700E+06,   1.02732E+06,   1.02732E+06
C:/temp/Job-2.odb,Step-1,Increment      1: Step Time =    1.000,"P-2-1",           207,       75.3189,       30.9707,            0.,NA,NA,"",   1.03270E+06,   1.03838E+06,   1.03838E+06
C:/temp/Job-2.odb,Step-1,Increment      1: Step Time =    1.000,"P-2-1",           208,       65.4494,       30.8411,            0.,NA,NA,"",   1.04423E+06,   1.04734E+06,   1.04734E+06
C:/temp/Job-2.odb,Step-1,Increment      1: Step Time =    1.000,"P-2-1",           209,       55.9676,       30.6578,            0.,NA,NA,"",   1.04927E+06,   1.05396E+06,   1.05396E+06
C:/temp/Job-2.odb,Step-1,Increment      1: Step Time =    1.000,"P-2-1",           210,       40.5729,       30.7441,            0.,NA,NA,"",   1.04558E+06,   1.06387E+06,   1.06387E+06
C:/temp/Job-2.odb,Step-1,Increment      1: Step Time =    1.000,"P-2-1",           211,       34.0908,       33.5826,            0.,NA,NA,"",   1.03163E+06,    1.0621E+06,    1.0621E+06
C:/temp/Job-2.odb,Step-1,Increment      1: Step Time =    1.000,"P-2-1",           212,       24.5958,       33.9333,            0.,NA,NA,"",   1.01057E+06,   1.06006E+06,   1.06006E+06
C:/temp/Job-2.odb,Step-1,Increment      1: Step Time =    1.000,"P-2-1",           213,       9.91714,       32.0457,            0.,NA,NA,"",   957.197E+03,   1.04419E+06,   1.04419E+06
C:/temp/Job-2.odb,Step-1,Increment      1: Step Time =    1.000,"P-2-1",           214,       190.427,       40.8461,            0.,NA,NA,"",   999.681E+03,   1.00241E+06,   1.00241E+06
C:/temp/Job-2.odb,Step-1,Increment      1: Step Time =    1.000,"P-2-1",           215,       180.946,       41.4713,            0.,NA,NA,"",   1.00761E+06,   1.00792E+06,   1.00792E+06
C:/temp/Job-2.odb,Step-1,Increment      1: Step Time =    1.000,"P-2-1",           216,       171.021,       40.7954,            0.,NA,NA,"",   1.01997E+06,   1.01594E+06,   1.01594E+06
C:/temp/Job-2.odb,Step-1,Increment      1: Step Time =    1.000,"P-2-1",           217,       159.590,       38.1175,            0.,NA,NA,"",   1.03279E+06,   1.02474E+06,   1.02474E+06
C:/temp/Job-2.odb,Step-1,Increment      1: Step Time =    1.000,"P-2-1",           218,       150.054,       40.1197,            0.,NA,NA,"",   1.04889E+06,   1.03709E+06,   1.03709E+06
C:/temp/Job-2.odb,Step-1,Increment      1: Step Time =    1.000,"P-2-1",           219,       138.809,       42.0533,            0.,NA,NA,"",   1.06517E+06,   1.05231E+06,   1.05231E+06
C:/temp/Job-2.odb,Step-1,Increment      1: Step Time =    1.000,"P-2-1",           220,       124.808,       41.9226,            0.,NA,NA,"",   1.05762E+06,   1.05694E+06,   1.05694E+06
C:/temp/Job-2.odb,Step-1,Increment      1: Step Time =    1.000,"P-2-1",           221,       114.729,       38.7837,            0.,NA,NA,"",   1.03071E+06,   1.04241E+06,   1.04241E+06
C:/temp/Job-2.odb,Step-1,Increment      1: Step Time =    1.000,"P-2-1",           222,       105.307,       43.0626,            0.,NA,NA,"",   1.02351E+06,   1.04826E+06,   1.04826E+06
C:/temp/Job-2.odb,Step-1,Increment      1: Step Time =    1.000,"P-2-1",           223,       93.2796,       42.7063,            0.,NA,NA,"",   1.02559E+06,   1.05115E+06,   1.05115E+06
C:/temp/Job-2.odb,Step-1,Increment      1: Step Time =    1.000,"P-2-1",           224,       83.5216,       42.3820,            0.,NA,NA,"",   1.04504E+06,   1.06045E+06,   1.06045E+06
C:/temp/Job-2.odb,Step-1,Increment      1: Step Time =    1.000,"P-2-1",           225,       74.1290,       42.3335,            0.,NA,NA,"",   1.06245E+06,   1.06932E+06,   1.06932E+06
C:/temp/Job-2.odb,Step-1,Increment      1: Step Time =    1.000,"P-2-1",           226,       65.0148,       43.6594,            0.,NA,NA,"",   1.07023E+06,   1.07378E+06,   1.07378E+06
C:/temp/Job-2.odb,Step-1,Increment      1: Step Time =    1.000,"P-2-1",           227,       50.4951,       40.8758,            0.,NA,NA,"",   1.05091E+06,   1.06305E+06,   1.06305E+06
C:/temp/Job-2.odb,Step-1,Increment      1: Step Time =    1.000,"P-2-1",           228,       42.0922,       43.0635,            0.,NA,NA,"",   1.02788E+06,   1.05303E+06,   1.05303E+06
C:/temp/Job-2.odb,Step-1,Increment      1: Step Time =    1.000,"P-2-1",           229,       31.3632,       41.0206,            0.,NA,NA,"",   1.00343E+06,   1.04654E+06,   1.04654E+06
C:/temp/Job-2.odb,Step-1,Increment      1: Step Time =    1.000,"P-2-1",           230,       22.0095,       42.0216,            0.,NA,NA,"",   967.806E+03,   1.03162E+06,   1.03162E+06
C:/temp/Job-2.odb,Step-1,Increment      1: Step Time =    1.000,"P-2-1",           231,       8.46127,       41.3422,            0.,NA,NA,"",   909.616E+03,   1.00345E+06,   1.00345E+06
C:/temp/Job-2.odb,Step-1,Increment      1: Step Time =    1.000,"P-2-1",           232,       190.294,       50.5071,            0.,NA,NA,"",   996.459E+03,   1.00260E+06,   1.00260E+06
C:/temp/Job-2.odb,Step-1,Increment      1: Step Time =    1.000,"P-2-1",           233,       180.348,       50.8651,            0.,NA,NA,"",   1.00694E+06,   1.00873E+06,   1.00873E+06
C:/temp/Job-2.odb,Step-1,Increment      1: Step Time =    1.000,"P-2-1",           234,       169.833,       55.8570,            0.,NA,NA,"",   1.02179E+06,   1.01747E+06,   1.01747E+06
C:/temp/Job-2.odb,Step-1,Increment      1: Step Time =    1.000,"P-2-1",           235,       157.454,       51.5971,            0.,NA,NA,"",   1.04947E+06,   1.03596E+06,   1.03596E+06
C:/temp/Job-2.odb,Step-1,Increment      1: Step Time =    1.000,"P-2-1",           236,       148.323,       52.3760,            0.,NA,NA,"",   1.07097E+06,   1.05183E+06,   1.05183E+06
C:/temp/Job-2.odb,Step-1,Increment      1: Step Time =    1.000,"P-2-1",           237,       138.937,       51.9619,            0.,NA,NA,"",   1.09184E+06,   1.07083E+06,   1.07083E+06
C:/temp/Job-2.odb,Step-1,Increment      1: Step Time =    1.000,"P-2-1",           238,       127.062,       50.2882,            0.,NA,NA,"",   1.09212E+06,   1.08311E+06,   1.08311E+06
C:/temp/Job-2.odb,Step-1,Increment      1: Step Time =    1.000,"P-2-1",           239,       114.802,       52.7032,            0.,NA,NA,"",   1.07002E+06,   1.08753E+06,   1.08753E+06
C:/temp/Job-2.odb,Step-1,Increment      1: Step Time =    1.000,"P-2-1",           240,       107.284,       52.5987,            0.,NA,NA,"",   1.04419E+06,   1.07821E+06,   1.07821E+06
C:/temp/Job-2.odb,Step-1,Increment      1: Step Time =    1.000,"P-2-1",           241,       94.8608,       55.8989,            0.,NA,NA,"",   1.04286E+06,   1.08989E+06,   1.08989E+06
C:/temp/Job-2.odb,Step-1,Increment      1: Step Time =    1.000,"P-2-1",           242,       82.0609,       51.5093,            0.,NA,NA,"",   1.07588E+06,   1.09188E+06,   1.09188E+06
C:/temp/Job-2.odb,Step-1,Increment      1: Step Time =    1.000,"P-2-1",           243,       74.7984,       52.2178,            0.,NA,NA,"",   1.09236E+06,   1.09787E+06,   1.09787E+06
C:/temp/Job-2.odb,Step-1,Increment      1: Step Time =    1.000,"P-2-1",           244,       61.5616,       52.0637,            0.,NA,NA,"",   1.07858E+06,   1.08109E+06,   1.08109E+06
C:/temp/Job-2.odb,Step-1,Increment      1: Step Time =    1.000,"P-2-1",           245,       51.1801,       51.8600,            0.,NA,NA,"",   1.04394E+06,   1.05881E+06,   1.05881E+06
C:/temp/Job-2.odb,Step-1,Increment      1: Step Time =    1.000,"P-2-1",           246,       41.2897,       49.1026,            0.,NA,NA,"",   1.01372E+06,   1.04387E+06,   1.04387E+06
C:/temp/Job-2.odb,Step-1,Increment      1: Step Time =    1.000,"P-2-1",           247,       30.7826,       49.5757,            0.,NA,NA,"",   973.161E+03,   1.02433E+06,   1.02433E+06
C:/temp/Job-2.odb,Step-1,Increment      1: Step Time =    1.000,"P-2-1",           248,       19.5214,       51.0243,            0.,NA,NA,"",   922.950E+03,   997.916E+03,   997.916E+03
C:/temp/Job-2.odb,Step-1,Increment      1: Step Time =    1.000,"P-2-1",           249,       8.94925,       50.3477,            0.,NA,NA,"",   880.628E+03,   975.069E+03,   975.069E+03
C:/temp/Job-2.odb,Step-1,Increment      1: Step Time =    1.000,"P-2-1",           250,       190.139,       65.0848,            0.,NA,NA,"",   987.377E+03,   1.00127E+06,   1.00127E+06
C:/temp/Job-2.odb,Step-1,Increment      1: Step Time =    1.000,"P-2-1",           251,       179.975,       65.2662,            0.,NA,NA,"",   997.508E+03,   1.00420E+06,   1.00420E+06
C:/temp/Job-2.odb,Step-1,Increment      1: Step Time =    1.000,"P-2-1",           252,       169.496,       65.5941,            0.,NA,NA,"",   1.01145E+06,   1.00961E+06,   1.00961E+06
C:/temp/Job-2.odb,Step-1,Increment      1: Step Time =    1.000,"P-2-1",           253,       157.945,       65.9479,            0.,NA,NA,"",   1.03518E+06,   1.02199E+06,   1.02199E+06
C:/temp/Job-2.odb,Step-1,Increment      1: Step Time =    1.000,"P-2-1",           254,       148.027,       62.1896,            0.,NA,NA,"",   1.07526E+06,   1.05061E+06,   1.05061E+06
C:/temp/Job-2.odb,Step-1,Increment      1: Step Time =    1.000,"P-2-1",           255,       136.400,       62.9765,            0.,NA,NA,"",   1.12354E+06,   1.08890E+06,   1.08890E+06
C:/temp/Job-2.odb,Step-1,Increment      1: Step Time =    1.000,"P-2-1",           256,       124.904,       61.4126,            0.,NA,NA,"",   1.15142E+06,   1.12990E+06,   1.12990E+06
C:/temp/Job-2.odb,Step-1,Increment      1: Step Time =    1.000,"P-2-1",           257,       115.077,       62.5108,            0.,NA,NA,"",   1.12640E+06,   1.14259E+06,   1.14259E+06
C:/temp/Job-2.odb,Step-1,Increment      1: Step Time =    1.000,"P-2-1",           258,       105.938,       62.1394,            0.,NA,NA,"",   1.06935E+06,   1.12224E+06,   1.12224E+06
C:/temp/Job-2.odb,Step-1,Increment      1: Step Time =    1.000,"P-2-1",           259,       95.0029,       61.9322,            0.,NA,NA,"",   1.06137E+06,   1.12021E+06,   1.12021E+06
C:/temp/Job-2.odb,Step-1,Increment      1: Step Time =    1.000,"P-2-1",           260,       84.6063,       61.5962,            0.,NA,NA,"",   1.11738E+06,   1.13853E+06,   1.13853E+06
C:/temp/Job-2.odb,Step-1,Increment      1: Step Time =    1.000,"P-2-1",           261,       74.3019,       61.8592,            0.,NA,NA,"",   1.13070E+06,   1.12544E+06,   1.12544E+06
C:/temp/Job-2.odb,Step-1,Increment      1: Step Time =    1.000,"P-2-1",           262,       63.2457,       63.7652,            0.,NA,NA,"",   1.08902E+06,   1.08401E+06,   1.08401E+06
C:/temp/Job-2.odb,Step-1,Increment      1: Step Time =    1.000,"P-2-1",           263,       50.9166,       63.4268,            0.,NA,NA,"",   1.01655E+06,   1.03540E+06,   1.03540E+06
C:/temp/Job-2.odb,Step-1,Increment      1: Step Time =    1.000,"P-2-1",           264,       39.3106,       61.8527,            0.,NA,NA,"",   964.670E+03,   1.00733E+06,   1.00733E+06
C:/temp/Job-2.odb,Step-1,Increment      1: Step Time =    1.000,"P-2-1",           265,       32.0834,       58.1049,            0.,NA,NA,"",   948.132E+03,   1.00307E+06,   1.00307E+06
C:/temp/Job-2.odb,Step-1,Increment      1: Step Time =    1.000,"P-2-1",           266,       23.5595,       65.6917,            0.,NA,NA,"",   887.125E+03,   961.720E+03,   961.720E+03
C:/temp/Job-2.odb,Step-1,Increment      1: Step Time =    1.000,"P-2-1",           267,       9.39902,       65.2580,            0.,NA,NA,"",   839.920E+03,   934.946E+03,   934.946E+03
C:/temp/Job-2.odb,Step-1,Increment      1: Step Time =    1.000,"P-2-1",           268,       190.076,       74.9032,            0.,NA,NA,"",   979.294E+03,   999.204E+03,   999.204E+03
C:/temp/Job-2.odb,Step-1,Increment      1: Step Time =    1.000,"P-2-1",           269,       179.925,       74.9022,            0.,NA,NA,"",   986.012E+03,   997.378E+03,   997.378E+03
C:/temp/Job-2.odb,Step-1,Increment      1: Step Time =    1.000,"P-2-1",           270,       169.373,       75.1044,            0.,NA,NA,"",   992.198E+03,   995.115E+03,   995.115E+03
C:/temp/Job-2.odb,Step-1,Increment      1: Step Time =    1.000,"P-2-1",           271,       158.282,       75.2839,            0.,NA,NA,"",   1.00402E+06,   996.555E+03,   996.555E+03
C:/temp/Job-2.odb,Step-1,Increment      1: Step Time =    1.000,"P-2-1",           272,       147.776,       75.1983,            0.,NA,NA,"",   1.03033E+06,   1.00822E+06,   1.00822E+06
C:/temp/Job-2.odb,Step-1,Increment      1: Step Time =    1.000,"P-2-1",           273,       138.065,       74.1797,            0.,NA,NA,"",   1.08859E+06,   1.04754E+06,   1.04754E+06
C:/temp/Job-2.odb,Step-1,Increment      1: Step Time =    1.000,"P-2-1",           274,       127.649,       73.2255,            0.,NA,NA,"",   1.19128E+06,   1.13077E+06,   1.13077E+06
C:/temp/Job-2.odb,Step-1,Increment      1: Step Time =    1.000,"P-2-1",           275,       115.559,       72.6104,            0.,NA,NA,"",   1.24640E+06,   1.23598E+06,   1.23598E+06
C:/temp/Job-2.odb,Step-1,Increment      1: Step Time =    1.000,"P-2-1",           276,       105.203,       72.8713,            0.,NA,NA,"",   1.15879E+06,   1.24099E+06,   1.24099E+06
C:/temp/Job-2.odb,Step-1,Increment      1: Step Time =    1.000,"P-2-1",           277,       95.1387,       73.4525,            0.,NA,NA,"",   1.16834E+06,   1.25809E+06,   1.25809E+06
C:/temp/Job-2.odb,Step-1,Increment      1: Step Time =    1.000,"P-2-1",           278,       85.1954,       73.5429,            0.,NA,NA,"",   1.25129E+06,   1.25191E+06,   1.25191E+06
C:/temp/Job-2.odb,Step-1,Increment      1: Step Time =    1.000,"P-2-1",           279,       73.6754,       72.1621,            0.,NA,NA,"",   1.17443E+06,   1.14236E+06,   1.14236E+06
C:/temp/Job-2.odb,Step-1,Increment      1: Step Time =    1.000,"P-2-1",           280,       62.9729,       74.6587,            0.,NA,NA,"",   1.04779E+06,   1.03809E+06,   1.03809E+06
C:/temp/Job-2.odb,Step-1,Increment      1: Step Time =    1.000,"P-2-1",           281,       49.5035,       74.5183,            0.,NA,NA,"",   946.268E+03,   977.579E+03,   977.579E+03
C:/temp/Job-2.odb,Step-1,Increment      1: Step Time =    1.000,"P-2-1",           282,       41.7151,       76.8600,            0.,NA,NA,"",   900.900E+03,   951.611E+03,   951.611E+03
C:/temp/Job-2.odb,Step-1,Increment      1: Step Time =    1.000,"P-2-1",           283,       31.2134,       74.6897,            0.,NA,NA,"",   878.057E+03,   945.051E+03,   945.051E+03
C:/temp/Job-2.odb,Step-1,Increment      1: Step Time =    1.000,"P-2-1",           284,       19.6530,       74.8836,            0.,NA,NA,"",   843.372E+03,   927.482E+03,   927.482E+03
C:/temp/Job-2.odb,Step-1,Increment      1: Step Time =    1.000,"P-2-1",           285,       9.72696,       75.1090,            0.,NA,NA,"",   817.262E+03,   912.444E+03,   912.444E+03
C:/temp/Job-2.odb,Step-1,Increment      1: Step Time =    1.000,"P-2-1",           286,       189.976,       125.159,            0.,NA,NA,"",   979.316E+03,   999.186E+03,   999.186E+03
C:/temp/Job-2.odb,Step-1,Increment      1: Step Time =    1.000,"P-2-1",           287,       180.115,       126.001,            0.,NA,NA,"",   986.890E+03,   998.061E+03,   998.061E+03
C:/temp/Job-2.odb,Step-1,Increment      1: Step Time =    1.000,"P-2-1",           288,       170.461,       127.120,            0.,NA,NA,"",   995.647E+03,   998.370E+03,   998.370E+03
C:/temp/Job-2.odb,Step-1,Increment      1: Step Time =    1.000,"P-2-1",           289,       161.055,       128.998,            0.,NA,NA,"",   1.01407E+06,   1.00648E+06,   1.00648E+06
C:/temp/Job-2.odb,Step-1,Increment      1: Step Time =    1.000,"P-2-1",           290,       148.587,       125.854,            0.,NA,NA,"",   1.03313E+06,   1.01154E+06,   1.01154E+06
C:/temp/Job-2.odb,Step-1,Increment      1: Step Time =    1.000,"P-2-1",           291,       138.080,       124.618,            0.,NA,NA,"",   1.08515E+06,   1.04159E+06,   1.04159E+06
C:/temp/Job-2.odb,Step-1,Increment      1: Step Time =    1.000,"P-2-1",           292,       126.640,       127.667,            0.,NA,NA,"",   1.20342E+06,   1.14617E+06,   1.14617E+06
C:/temp/Job-2.odb,Step-1,Increment      1: Step Time =    1.000,"P-2-1",           293,       114.778,       126.471,            0.,NA,NA,"",   1.26774E+06,   1.25807E+06,   1.25807E+06
C:/temp/Job-2.odb,Step-1,Increment      1: Step Time =    1.000,"P-2-1",           294,       104.732,       125.369,            0.,NA,NA,"",   1.19110E+06,   1.28327E+06,   1.28327E+06
C:/temp/Job-2.odb,Step-1,Increment      1: Step Time =    1.000,"P-2-1",           295,       94.9911,       125.856,            0.,NA,NA,"",   1.17915E+06,   1.26996E+06,   1.26996E+06
C:/temp/Job-2.odb,Step-1,Increment      1: Step Time =    1.000,"P-2-1",           296,       83.5434,       126.896,            0.,NA,NA,"",   1.23549E+06,   1.22807E+06,   1.22807E+06
C:/temp/Job-2.odb,Step-1,Increment      1: Step Time =    1.000,"P-2-1",           297,       70.9527,       128.130,            0.,NA,NA,"",   1.14942E+06,   1.12046E+06,   1.12046E+06
C:/temp/Job-2.odb,Step-1,Increment      1: Step Time =    1.000,"P-2-1",           298,       60.2214,       129.908,            0.,NA,NA,"",   1.05177E+06,   1.04983E+06,   1.04983E+06
C:/temp/Job-2.odb,Step-1,Increment      1: Step Time =    1.000,"P-2-1",           299,       50.9747,       126.285,            0.,NA,NA,"",   961.517E+03,   987.817E+03,   987.817E+03
C:/temp/Job-2.odb,Step-1,Increment      1: Step Time =    1.000,"P-2-1",           300,       40.0817,       124.039,            0.,NA,NA,"",   900.582E+03,   953.112E+03,   953.112E+03
C:/temp/Job-2.odb,Step-1,Increment      1: Step Time =    1.000,"P-2-1",           301,       30.4992,       125.682,            0.,NA,NA,"",   876.321E+03,   944.615E+03,   944.615E+03
C:/temp/Job-2.odb,Step-1,Increment      1: Step Time =    1.000,"P-2-1",           302,       19.9834,       125.229,            0.,NA,NA,"",   845.536E+03,   928.919E+03,   928.919E+03
C:/temp/Job-2.odb,Step-1,Increment      1: Step Time =    1.000,"P-2-1",           303,       9.91938,       125.053,            0.,NA,NA,"",   817.984E+03,   912.964E+03,   912.964E+03
C:/temp/Job-2.odb,Step-1,Increment      1: Step Time =    1.000,"P-2-1",           304,       190.530,       135.016,            0.,NA,NA,"",   987.090E+03,   1.00129E+06,   1.00129E+06
C:/temp/Job-2.odb,Step-1,Increment      1: Step Time =    1.000,"P-2-1",           305,       180.846,       135.258,            0.,NA,NA,"",   997.152E+03,   1.00428E+06,   1.00428E+06
C:/temp/Job-2.odb,Step-1,Increment      1: Step Time =    1.000,"P-2-1",           306,       166.649,       136.966,            0.,NA,NA,"",   1.02095E+06,   1.01557E+06,   1.01557E+06
C:/temp/Job-2.odb,Step-1,Increment      1: Step Time =    1.000,"P-2-1",           307,       155.773,       136.716,            0.,NA,NA,"",   1.04733E+06,   1.03106E+06,   1.03106E+06
C:/temp/Job-2.odb,Step-1,Increment      1: Step Time =    1.000,"P-2-1",           308,       147.556,       136.870,            0.,NA,NA,"",   1.07616E+06,   1.05094E+06,   1.05094E+06
C:/temp/Job-2.odb,Step-1,Increment      1: Step Time =    1.000,"P-2-1",           309,       137.050,       136.163,            0.,NA,NA,"",   1.12304E+06,   1.08748E+06,   1.08748E+06
C:/temp/Job-2.odb,Step-1,Increment      1: Step Time =    1.000,"P-2-1",           310,       125.625,       138.251,            0.,NA,NA,"",   1.14784E+06,   1.12505E+06,   1.12505E+06
C:/temp/Job-2.odb,Step-1,Increment      1: Step Time =    1.000,"P-2-1",           311,       114.107,       138.385,            0.,NA,NA,"",   1.11670E+06,   1.13578E+06,   1.13578E+06
C:/temp/Job-2.odb,Step-1,Increment      1: Step Time =    1.000,"P-2-1",           312,       104.468,       142.140,            0.,NA,NA,"",   1.04796E+06,   1.09666E+06,   1.09666E+06
C:/temp/Job-2.odb,Step-1,Increment      1: Step Time =    1.000,"P-2-1",           313,       95.1078,       136.424,            0.,NA,NA,"",   1.07108E+06,   1.13208E+06,   1.13208E+06
C:/temp/Job-2.odb,Step-1,Increment      1: Step Time =    1.000,"P-2-1",           314,       83.0378,       134.675,            0.,NA,NA,"",   1.15445E+06,   1.16643E+06,   1.16643E+06
C:/temp/Job-2.odb,Step-1,Increment      1: Step Time =    1.000,"P-2-1",           315,       71.5235,       139.102,            0.,NA,NA,"",   1.12217E+06,   1.11588E+06,   1.11588E+06
C:/temp/Job-2.odb,Step-1,Increment      1: Step Time =    1.000,"P-2-1",           316,       62.8747,       135.940,            0.,NA,NA,"",   1.08811E+06,   1.08297E+06,   1.08297E+06
C:/temp/Job-2.odb,Step-1,Increment      1: Step Time =    1.000,"P-2-1",           317,       51.8599,       136.788,            0.,NA,NA,"",   1.02260E+06,   1.03919E+06,   1.03919E+06
C:/temp/Job-2.odb,Step-1,Increment      1: Step Time =    1.000,"P-2-1",           318,       40.7742,       136.728,            0.,NA,NA,"",   966.500E+03,   1.00691E+06,   1.00691E+06
C:/temp/Job-2.odb,Step-1,Increment      1: Step Time =    1.000,"P-2-1",           319,       30.2817,       134.909,            0.,NA,NA,"",   913.423E+03,   976.116E+03,   976.116E+03
C:/temp/Job-2.odb,Step-1,Increment      1: Step Time =    1.000,"P-2-1",           320,       19.7604,       134.708,            0.,NA,NA,"",   874.013E+03,   954.774E+03,   954.774E+03
C:/temp/Job-2.odb,Step-1,Increment      1: Step Time =    1.000,"P-2-1",           321,       9.83008,       134.901,            0.,NA,NA,"",   841.706E+03,   936.176E+03,   936.176E+03
C:/temp/Job-2.odb,Step-1,Increment      1: Step Time =    1.000,"P-2-1",           322,       186.750,       148.765,            0.,NA,NA,"",   999.138E+03,   1.00430E+06,   1.00430E+06
C:/temp/Job-2.odb,Step-1,Increment      1: Step Time =    1.000,"P-2-1",           323,       175.177,       145.337,            0.,NA,NA,"",   1.01285E+06,   1.01239E+06,   1.01239E+06
C:/temp/Job-2.odb,Step-1,Increment      1: Step Time =    1.000,"P-2-1",           324,       167.308,       145.389,            0.,NA,NA,"",   1.02666E+06,   1.02049E+06,   1.02049E+06
C:/temp/Job-2.odb,Step-1,Increment      1: Step Time =    1.000,"P-2-1",           325,       158.504,       146.351,            0.,NA,NA,"",   1.04639E+06,   1.03339E+06,   1.03339E+06
C:/temp/Job-2.odb,Step-1,Increment      1: Step Time =    1.000,"P-2-1",           326,       151.078,       146.093,            0.,NA,NA,"",   1.06512E+06,   1.04670E+06,   1.04670E+06
C:/temp/Job-2.odb,Step-1,Increment      1: Step Time =    1.000,"P-2-1",           327,       139.230,       148.001,            0.,NA,NA,"",   1.09245E+06,   1.07101E+06,   1.07101E+06
C:/temp/Job-2.odb,Step-1,Increment      1: Step Time =    1.000,"P-2-1",           328,       124.951,       147.770,            0.,NA,NA,"",   1.09851E+06,   1.09132E+06,   1.09132E+06
C:/temp/Job-2.odb,Step-1,Increment      1: Step Time =    1.000,"P-2-1",           329,       116.495,       148.611,            0.,NA,NA,"",   1.07213E+06,   1.08386E+06,   1.08386E+06
C:/temp/Job-2.odb,Step-1,Increment      1: Step Time =    1.000,"P-2-1",           330,       95.4081,       145.641,            0.,NA,NA,"",   1.04006E+06,   1.08287E+06,   1.08287E+06
C:/temp/Job-2.odb,Step-1,Increment      1: Step Time =    1.000,"P-2-1",           331,       83.0757,       147.468,            0.,NA,NA,"",   1.07814E+06,   1.09674E+06,   1.09674E+06
C:/temp/Job-2.odb,Step-1,Increment      1: Step Time =    1.000,"P-2-1",           332,       71.4118,       150.289,            0.,NA,NA,"",   1.08544E+06,   1.08888E+06,   1.08888E+06
C:/temp/Job-2.odb,Step-1,Increment      1: Step Time =    1.000,"P-2-1",           333,       63.2114,       146.834,            0.,NA,NA,"",   1.08360E+06,   1.08501E+06,   1.08501E+06
C:/temp/Job-2.odb,Step-1,Increment      1: Step Time =    1.000,"P-2-1",           334,       52.0868,       147.599,            0.,NA,NA,"",   1.04670E+06,   1.06034E+06,   1.06034E+06
C:/temp/Job-2.odb,Step-1,Increment      1: Step Time =    1.000,"P-2-1",           335,       41.6739,       147.086,            0.,NA,NA,"",   1.00600E+06,   1.03771E+06,   1.03771E+06
C:/temp/Job-2.odb,Step-1,Increment      1: Step Time =    1.000,"P-2-1",           336,       29.2368,       148.133,            0.,NA,NA,"",   958.849E+03,   1.01514E+06,   1.01514E+06
C:/temp/Job-2.odb,Step-1,Increment      1: Step Time =    1.000,"P-2-1",           337,       19.6357,       144.314,            0.,NA,NA,"",   906.519E+03,   983.493E+03,   983.493E+03
C:/temp/Job-2.odb,Step-1,Increment      1: Step Time =    1.000,"P-2-1",           338,       9.69415,       149.587,            0.,NA,NA,"",   883.676E+03,   976.778E+03,   976.778E+03
C:/temp/Job-2.odb,Step-1,Increment      1: Step Time =    1.000,"P-2-1",           339,       188.555,       158.568,            0.,NA,NA,"",   1.00078E+06,   1.00336E+06,   1.00336E+06
C:/temp/Job-2.odb,Step-1,Increment      1: Step Time =    1.000,"P-2-1",           340,       180.572,       155.710,            0.,NA,NA,"",   1.00768E+06,   1.00838E+06,   1.00838E+06
C:/temp/Job-2.odb,Step-1,Increment      1: Step Time =    1.000,"P-2-1",           341,       168.406,       155.164,            0.,NA,NA,"",   1.02515E+06,   1.01959E+06,   1.01959E+06
C:/temp/Job-2.odb,Step-1,Increment      1: Step Time =    1.000,"P-2-1",           342,       159.245,       157.001,            0.,NA,NA,"",   1.03883E+06,   1.02896E+06,   1.02896E+06
C:/temp/Job-2.odb,Step-1,Increment      1: Step Time =    1.000,"P-2-1",           343,       149.182,       154.975,            0.,NA,NA,"",   1.05946E+06,   1.04462E+06,   1.04462E+06
C:/temp/Job-2.odb,Step-1,Increment      1: Step Time =    1.000,"P-2-1",           344,       135.375,       158.046,            0.,NA,NA,"",   1.06475E+06,   1.05401E+06,   1.05401E+06
C:/temp/Job-2.odb,Step-1,Increment      1: Step Time =    1.000,"P-2-1",           345,       125.189,       157.850,            0.,NA,NA,"",   1.05766E+06,   1.05648E+06,   1.05648E+06
C:/temp/Job-2.odb,Step-1,Increment      1: Step Time =    1.000,"P-2-1",           346,       115.071,       159.740,            0.,NA,NA,"",   1.03587E+06,   1.04676E+06,   1.04676E+06
C:/temp/Job-2.odb,Step-1,Increment      1: Step Time =    1.000,"P-2-1",           347,       105.836,       155.640,            0.,NA,NA,"",   1.02493E+06,   1.05150E+06,   1.05150E+06
C:/temp/Job-2.odb,Step-1,Increment      1: Step Time =    1.000,"P-2-1",           348,       94.0195,       155.953,            0.,NA,NA,"",   1.02592E+06,   1.05348E+06,   1.05348E+06
C:/temp/Job-2.odb,Step-1,Increment      1: Step Time =    1.000,"P-2-1",           349,       84.0888,       156.193,            0.,NA,NA,"",   1.04763E+06,   1.06525E+06,   1.06525E+06
C:/temp/Job-2.odb,Step-1,Increment      1: Step Time =    1.000,"P-2-1",           350,       72.1331,       157.732,            0.,NA,NA,"",   1.06525E+06,   1.07100E+06,   1.07100E+06
C:/temp/Job-2.odb,Step-1,Increment      1: Step Time =    1.000,"P-2-1",           351,       63.3082,       159.363,            0.,NA,NA,"",   1.06404E+06,   1.06787E+06,   1.06787E+06
C:/temp/Job-2.odb,Step-1,Increment      1: Step Time =    1.000,"P-2-1",           352,       49.8172,       158.702,            0.,NA,NA,"",   1.04919E+06,   1.06257E+06,   1.06257E+06
C:/temp/Job-2.odb,Step-1,Increment      1: Step Time =    1.000,"P-2-1",           353,       42.8292,       158.920,            0.,NA,NA,"",   1.03500E+06,   1.05770E+06,   1.05770E+06
C:/temp/Job-2.odb,Step-1,Increment      1: Step Time =    1.000,"P-2-1",           354,       28.9315,       159.083,            0.,NA,NA,"",   997.199E+03,   1.04493E+06,   1.04493E+06
C:/temp/Job-2.odb,Step-1,Increment      1: Step Time =    1.000,"P-2-1",           355,       18.5575,       159.093,            0.,NA,NA,"",   959.229E+03,   1.02978E+06,   1.02978E+06
C:/temp/Job-2.odb,Step-1,Increment      1: Step Time =    1.000,"P-2-1",           356,       9.48278,       159.271,            0.,NA,NA,"",   916.284E+03,   1.00773E+06,   1.00773E+06
C:/temp/Job-2.odb,Step-1,Increment      1: Step Time =    1.000,"P-2-1",           357,       189.998,       169.547,            0.,NA,NA,"",   1.00112E+06,   1.00184E+06,   1.00184E+06
C:/temp/Job-2.odb,Step-1,Increment      1: Step Time =    1.000,"P-2-1",           358,       176.784,       170.361,            0.,NA,NA,"",   1.00849E+06,   1.00716E+06,   1.00716E+06
C:/temp/Job-2.odb,Step-1,Increment      1: Step Time =    1.000,"P-2-1",           359,       168.687,       173.167,            0.,NA,NA,"",   1.01245E+06,   1.00956E+06,   1.00956E+06
C:/temp/Job-2.odb,Step-1,Increment      1: Step Time =    1.000,"P-2-1",           360,       158.420,       172.731,            0.,NA,NA,"",   1.02009E+06,   1.01491E+06,   1.01491E+06
C:/temp/Job-2.odb,Step-1,Increment      1: Step Time =    1.000,"P-2-1",           361,       145.210,       170.764,            0.,NA,NA,"",   1.03006E+06,   1.02318E+06,   1.02318E+06
C:/temp/Job-2.odb,Step-1,Increment      1: Step Time =    1.000,"P-2-1",           362,       135.050,       169.451,            0.,NA,NA,"",   1.03220E+06,   1.02729E+06,   1.02729E+06
C:/temp/Job-2.odb,Step-1,Increment      1: Step Time =    1.000,"P-2-1",           363,       124.937,       169.265,            0.,NA,NA,"",   1.02537E+06,   1.02580E+06,   1.02580E+06
C:/temp/Job-2.odb,Step-1,Increment      1: Step Time =    1.000,"P-2-1",           364,       115.022,       169.893,            0.,NA,NA,"",   1.01220E+06,   1.01960E+06,   1.01960E+06
C:/temp/Job-2.odb,Step-1,Increment      1: Step Time =    1.000,"P-2-1",           365,       105.503,       169.962,            0.,NA,NA,"",   1.00354E+06,   1.01584E+06,   1.01584E+06
C:/temp/Job-2.odb,Step-1,Increment      1: Step Time =    1.000,"P-2-1",           366,       95.5379,       167.353,            0.,NA,NA,"",   1.00817E+06,   1.02417E+06,   1.02417E+06
C:/temp/Job-2.odb,Step-1,Increment      1: Step Time =    1.000,"P-2-1",           367,       84.4067,       168.766,            0.,NA,NA,"",   1.01906E+06,   1.02964E+06,   1.02964E+06
C:/temp/Job-2.odb,Step-1,Increment      1: Step Time =    1.000,"P-2-1",           368,       70.7664,       167.544,            0.,NA,NA,"",   1.04243E+06,   1.04685E+06,   1.04685E+06
C:/temp/Job-2.odb,Step-1,Increment      1: Step Time =    1.000,"P-2-1",           369,       63.3295,       166.929,            0.,NA,NA,"",   1.05058E+06,   1.05428E+06,   1.05428E+06
C:/temp/Job-2.odb,Step-1,Increment      1: Step Time =    1.000,"P-2-1",           370,       51.3729,       170.916,            0.,NA,NA,"",   1.04797E+06,   1.05469E+06,   1.05469E+06
C:/temp/Job-2.odb,Step-1,Increment      1: Step Time =    1.000,"P-2-1",           371,       40.6524,       171.297,            0.,NA,NA,"",   1.04738E+06,   1.06292E+06,   1.06292E+06
C:/temp/Job-2.odb,Step-1,Increment      1: Step Time =    1.000,"P-2-1",           372,       30.0377,       170.889,            0.,NA,NA,"",   1.04033E+06,   1.07232E+06,   1.07232E+06
C:/temp/Job-2.odb,Step-1,Increment      1: Step Time =    1.000,"P-2-1",           373,       21.4329,       164.461,            0.,NA,NA,"",   991.368E+03,   1.05138E+06,   1.05138E+06
C:/temp/Job-2.odb,Step-1,Increment      1: Step Time =    1.000,"P-2-1",           374,       9.88913,       168.908,            0.,NA,NA,"",   962.927E+03,   1.04918E+06,   1.04918E+06
C:/temp/Job-2.odb,Step-1,Increment      1: Step Time =    1.000,"P-2-1",           375,       190.068,       179.709,            0.,NA,NA,"",   1.00076E+06,   1.00081E+06,   1.00081E+06
C:/temp/Job-2.odb,Step-1,Increment      1: Step Time =    1.000,"P-2-1",           376,       177.106,       177.325,            0.,NA,NA,"",   1.00504E+06,   1.00414E+06,   1.00414E+06
C:/temp/Job-2.odb,Step-1,Increment      1: Step Time =    1.000,"P-2-1",           377,       168.035,       181.904,            0.,NA,NA,"",   1.00576E+06,   1.00411E+06,   1.00411E+06
C:/temp/Job-2.odb,Step-1,Increment      1: Step Time =    1.000,"P-2-1",           378,       159.048,       181.075,            0.,NA,NA,"",   1.00857E+06,   1.00578E+06,   1.00578E+06
C:/temp/Job-2.odb,Step-1,Increment      1: Step Time =    1.000,"P-2-1",           379,       149.349,       180.747,            0.,NA,NA,"",   1.00959E+06,   1.00621E+06,   1.00621E+06
C:/temp/Job-2.odb,Step-1,Increment      1: Step Time =    1.000,"P-2-1",           380,       134.895,       179.975,            0.,NA,NA,"",   1.00593E+06,   1.00380E+06,   1.00380E+06
C:/temp/Job-2.odb,Step-1,Increment      1: Step Time =    1.000,"P-2-1",           381,       125.139,       179.838,            0.,NA,NA,"",   998.975E+03,   999.378E+03,   999.378E+03
C:/temp/Job-2.odb,Step-1,Increment      1: Step Time =    1.000,"P-2-1",           382,       115.172,       179.835,            0.,NA,NA,"",   990.373E+03,   994.011E+03,   994.011E+03
C:/temp/Job-2.odb,Step-1,Increment      1: Step Time =    1.000,"P-2-1",           383,       105.062,       179.691,            0.,NA,NA,"",   984.605E+03,   990.989E+03,   990.989E+03
C:/temp/Job-2.odb,Step-1,Increment      1: Step Time =    1.000,"P-2-1",           384,       94.9449,       179.427,            0.,NA,NA,"",   985.792E+03,   992.660E+03,   992.660E+03
C:/temp/Job-2.odb,Step-1,Increment      1: Step Time =    1.000,"P-2-1",           385,       85.0736,       179.782,            0.,NA,NA,"",   992.554E+03,   997.759E+03,   997.759E+03
C:/temp/Job-2.odb,Step-1,Increment      1: Step Time =    1.000,"P-2-1",           386,       75.1901,       180.460,            0.,NA,NA,"",   1.00261E+06,   1.00538E+06,   1.00538E+06
C:/temp/Job-2.odb,Step-1,Increment      1: Step Time =    1.000,"P-2-1",           387,       65.2688,       180.543,            0.,NA,NA,"",   1.01547E+06,   1.01670E+06,   1.01670E+06
C:/temp/Job-2.odb,Step-1,Increment      1: Step Time =    1.000,"P-2-1",           388,       54.1593,       179.724,            0.,NA,NA,"",   1.03132E+06,   1.03386E+06,   1.03386E+06
C:/temp/Job-2.odb,Step-1,Increment      1: Step Time =    1.000,"P-2-1",           389,       39.6112,       175.447,            0.,NA,NA,"",   1.05117E+06,   1.06405E+06,   1.06405E+06
C:/temp/Job-2.odb,Step-1,Increment      1: Step Time =    1.000,"P-2-1",           390,       31.3527,       180.389,            0.,NA,NA,"",   1.06425E+06,   1.08070E+06,   1.08070E+06
C:/temp/Job-2.odb,Step-1,Increment      1: Step Time =    1.000,"P-2-1",           391,       24.3964,       178.920,            0.,NA,NA,"",   1.06493E+06,   1.09547E+06,   1.09547E+06
C:/temp/Job-2.odb,Step-1,Increment      1: Step Time =    1.000,"P-2-1",           392,       10.0981,       179.199,            0.,NA,NA,"",   1.03791E+06,   1.11284E+06,   1.11284E+06
C:/temp/Job-2.odb,Step-1,Increment      1: Step Time =    1.000,"P-2-1",           393,       189.804,       189.716,            0.,NA,NA,"",   1.00009E+06,   1.00004E+06,   1.00004E+06
C:/temp/Job-2.odb,Step-1,Increment      1: Step Time =    1.000,"P-2-1",           394,       179.310,       189.513,            0.,NA,NA,"",   1.00040E+06,   1.00021E+06,   1.00021E+06
C:/temp/Job-2.odb,Step-1,Increment      1: Step Time =    1.000,"P-2-1",           395,       169.027,       190.389,            0.,NA,NA,"",   1.00010E+06,   999.559E+03,   999.559E+03
C:/temp/Job-2.odb,Step-1,Increment      1: Step Time =    1.000,"P-2-1",           396,       159.361,       190.418,            0.,NA,NA,"",   998.457E+03,   997.581E+03,   997.581E+03
C:/temp/Job-2.odb,Step-1,Increment      1: Step Time =    1.000,"P-2-1",           397,       149.589,       190.298,            0.,NA,NA,"",   994.544E+03,   993.498E+03,   993.498E+03
C:/temp/Job-2.odb,Step-1,Increment      1: Step Time =    1.000,"P-2-1",           398,       134.931,       190.127,            0.,NA,NA,"",   983.420E+03,   982.779E+03,   982.779E+03
C:/temp/Job-2.odb,Step-1,Increment      1: Step Time =    1.000,"P-2-1",           399,       125.084,       190.025,            0.,NA,NA,"",   973.582E+03,   973.702E+03,   973.702E+03
C:/temp/Job-2.odb,Step-1,Increment      1: Step Time =    1.000,"P-2-1",           400,       115.088,       189.921,            0.,NA,NA,"",   964.016E+03,   965.137E+03,   965.137E+03
C:/temp/Job-2.odb,Step-1,Increment      1: Step Time =    1.000,"P-2-1",           401,       105.003,       189.847,            0.,NA,NA,"",   957.590E+03,   959.506E+03,   959.506E+03
C:/temp/Job-2.odb,Step-1,Increment      1: Step Time =    1.000,"P-2-1",           402,       94.9756,       189.865,            0.,NA,NA,"",   956.721E+03,   958.720E+03,   958.720E+03
C:/temp/Job-2.odb,Step-1,Increment      1: Step Time =    1.000,"P-2-1",           403,       85.0415,       189.994,            0.,NA,NA,"",   961.489E+03,   962.978E+03,   962.978E+03
C:/temp/Job-2.odb,Step-1,Increment      1: Step Time =    1.000,"P-2-1",           404,       75.0505,       190.178,            0.,NA,NA,"",   970.940E+03,   971.695E+03,   971.695E+03
C:/temp/Job-2.odb,Step-1,Increment      1: Step Time =    1.000,"P-2-1",           405,       65.0304,       190.314,            0.,NA,NA,"",   983.623E+03,   983.874E+03,   983.874E+03
C:/temp/Job-2.odb,Step-1,Increment      1: Step Time =    1.000,"P-2-1",           406,       50.9685,       186.532,            0.,NA,NA,"",   1.01997E+06,   1.02132E+06,   1.02132E+06
C:/temp/Job-2.odb,Step-1,Increment      1: Step Time =    1.000,"P-2-1",           407,       41.1333,       188.978,            0.,NA,NA,"",   1.03015E+06,   1.03280E+06,   1.03280E+06
C:/temp/Job-2.odb,Step-1,Increment      1: Step Time =    1.000,"P-2-1",           408,       30.5893,       189.792,            0.,NA,NA,"",   1.05896E+06,   1.06487E+06,   1.06487E+06
C:/temp/Job-2.odb,Step-1,Increment      1: Step Time =    1.000,"P-2-1",           409,       20.5660,       189.236,            0.,NA,NA,"",   1.10898E+06,   1.12444E+06,   1.12444E+06
C:/temp/Job-2.odb,Step-1,Increment      1: Step Time =    1.000,"P-2-1",           410,       10.2770,       189.578,            0.,NA,NA,"",   1.18635E+06,   1.22843E+06,   1.22843E+06
C:/temp/Job-2.odb,Step-1,Increment      1: Step Time =    1.000,"P-2-1",           411,       90.8076,       109.192,            0.,NA,NA,"",   1.14149E+06,   1.09971E+06,   1.09971E+06
C:/temp/Job-2.odb,Step-1,Increment      1: Step Time =    1.000,"P-2-1",           412,       90.8076,       90.8076,            0.,NA,NA,"",   1.18386E+06,   1.14524E+06,   1.14524E+06
C:/temp/Job-2.odb,Step-1,Increment      1: Step Time =    1.000,"P-2-1",           413,       109.192,       90.8076,            0.,NA,NA,"",   1.15879E+06,   1.10724E+06,   1.10724E+06
C:/temp/Job-2.odb,Step-1,Increment      1: Step Time =    1.000,"P-2-1",           414,       109.192,       109.192,            0.,NA,NA,"",   1.20527E+06,   1.15644E+06,   1.15644E+06
C:/temp/Job-2.odb,Step-1,Increment      1: Step Time =    1.000,"P-2-1",           415,          195.,            0.,            0.,NA,NA,"",   999.889E+03,   999.871E+03,   999.871E+03
C:/temp/Job-2.odb,Step-1,Increment      1: Step Time =    1.000,"P-2-1",           416,          185.,            0.,            0.,NA,NA,"",   999.321E+03,   999.317E+03,   999.317E+03
C:/temp/Job-2.odb,Step-1,Increment      1: Step Time =    1.000,"P-2-1",           417,          175.,            0.,            0.,NA,NA,"",   998.310E+03,   998.274E+03,   998.274E+03
C:/temp/Job-2.odb,Step-1,Increment      1: Step Time =    1.000,"P-2-1",           418,          165.,            0.,            0.,NA,NA,"",   995.933E+03,   995.845E+03,   995.845E+03
C:/temp/Job-2.odb,Step-1,Increment      1: Step Time =    1.000,"P-2-1",           419,          155.,            0.,            0.,NA,NA,"",   990.791E+03,   990.675E+03,   990.675E+03
C:/temp/Job-2.odb,Step-1,Increment      1: Step Time =    1.000,"P-2-1",           420,          145.,            0.,            0.,NA,NA,"",   981.503E+03,   981.389E+03,   981.389E+03
C:/temp/Job-2.odb,Step-1,Increment      1: Step Time =    1.000,"P-2-1",           421,          135.,            0.,            0.,NA,NA,"",   968.561E+03,   968.478E+03,   968.478E+03
C:/temp/Job-2.odb,Step-1,Increment      1: Step Time =    1.000,"P-2-1",           422,          125.,            0.,            0.,NA,NA,"",   953.541E+03,   953.546E+03,   953.546E+03
C:/temp/Job-2.odb,Step-1,Increment      1: Step Time =    1.000,"P-2-1",           423,          115.,            0.,            0.,NA,NA,"",   939.412E+03,   939.555E+03,   939.555E+03
C:/temp/Job-2.odb,Step-1,Increment      1: Step Time =    1.000,"P-2-1",           424,          105.,            0.,            0.,NA,NA,"",   929.932E+03,   930.176E+03,   930.176E+03
C:/temp/Job-2.odb,Step-1,Increment      1: Step Time =    1.000,"P-2-1",           425,           95.,            0.,            0.,NA,NA,"",   927.498E+03,   927.765E+03,   927.765E+03
C:/temp/Job-2.odb,Step-1,Increment      1: Step Time =    1.000,"P-2-1",           426,           85.,            0.,            0.,NA,NA,"",   932.391E+03,   932.595E+03,   932.595E+03
C:/temp/Job-2.odb,Step-1,Increment      1: Step Time =    1.000,"P-2-1",           427,           75.,            0.,            0.,NA,NA,"",   942.816E+03,   942.932E+03,   942.932E+03
C:/temp/Job-2.odb,Step-1,Increment      1: Step Time =    1.000,"P-2-1",           428,           65.,            0.,            0.,NA,NA,"",   956.129E+03,   956.194E+03,   956.194E+03
C:/temp/Job-2.odb,Step-1,Increment      1: Step Time =    1.000,"P-2-1",           429,           55.,            0.,            0.,NA,NA,"",   970.552E+03,   970.650E+03,   970.650E+03
C:/temp/Job-2.odb,Step-1,Increment      1: Step Time =    1.000,"P-2-1",           430,           45.,            0.,            0.,NA,NA,"",   986.518E+03,   986.783E+03,   986.783E+03
C:/temp/Job-2.odb,Step-1,Increment      1: Step Time =    1.000,"P-2-1",           431,           35.,            0.,            0.,NA,NA,"",   1.00817E+06,   1.00884E+06,   1.00884E+06
C:/temp/Job-2.odb,Step-1,Increment      1: Step Time =    1.000,"P-2-1",           432,           25.,            0.,            0.,NA,NA,"",   1.04680E+06,   1.04845E+06,   1.04845E+06
C:/temp/Job-2.odb,Step-1,Increment      1: Step Time =    1.000,"P-2-1",           433,           15.,            0.,            0.,NA,NA,"",   1.13134E+06,   1.13666E+06,   1.13666E+06
C:/temp/Job-2.odb,Step-1,Increment      1: Step Time =    1.000,"P-2-1",           434,            5.,            0.,            0.,NA,NA,"",   1.42908E+06,   1.46165E+06,   1.46165E+06
C:/temp/Job-2.odb,Step-1,Increment      1: Step Time =    1.000,"P-2-1",           435,          200.,          195.,            0.,NA,NA,"",   1.00003E+06,   999.964E+03,   999.964E+03
C:/temp/Job-2.odb,Step-1,Increment      1: Step Time =    1.000,"P-2-1",           436,          200.,          185.,            0.,NA,NA,"",   1.00031E+06,   1.00005E+06,   1.00005E+06
C:/temp/Job-2.odb,Step-1,Increment      1: Step Time =    1.000,"P-2-1",           437,          200.,          175.,            0.,NA,NA,"",   1.00029E+06,   1.00018E+06,   1.00018E+06
C:/temp/Job-2.odb,Step-1,Increment      1: Step Time =    1.000,"P-2-1",           438,          200.,          165.,            0.,NA,NA,"",   998.899E+03,   1.00026E+06,   1.00026E+06
C:/temp/Job-2.odb,Step-1,Increment      1: Step Time =    1.000,"P-2-1",           439,          200.,          155.,            0.,NA,NA,"",   995.542E+03,   1.00030E+06,   1.00030E+06
C:/temp/Job-2.odb,Step-1,Increment      1: Step Time =    1.000,"P-2-1",           440,          200.,          145.,            0.,NA,NA,"",   989.404E+03,   1.00021E+06,   1.00021E+06
C:/temp/Job-2.odb,Step-1,Increment      1: Step Time =    1.000,"P-2-1",           441,          200.,          135.,            0.,NA,NA,"",   981.538E+03,   1.00020E+06,   1.00020E+06
C:/temp/Job-2.odb,Step-1,Increment      1: Step Time =    1.000,"P-2-1",           442,          200.,          125.,            0.,NA,NA,"",   972.774E+03,   999.899E+03,   999.899E+03
C:/temp/Job-2.odb,Step-1,Increment      1: Step Time =    1.000,"P-2-1",           443,          200.,          115.,            0.,NA,NA,"",   965.471E+03,   999.635E+03,   999.635E+03
C:/temp/Job-2.odb,Step-1,Increment      1: Step Time =    1.000,"P-2-1",           444,          200.,          105.,            0.,NA,NA,"",   961.039E+03,   999.323E+03,   999.323E+03
C:/temp/Job-2.odb,Step-1,Increment      1: Step Time =    1.000,"P-2-1",           445,          200.,           95.,            0.,NA,NA,"",   961.120E+03,   999.373E+03,   999.373E+03
C:/temp/Job-2.odb,Step-1,Increment      1: Step Time =    1.000,"P-2-1",           446,          200.,           85.,            0.,NA,NA,"",   965.535E+03,   999.594E+03,   999.594E+03
C:/temp/Job-2.odb,Step-1,Increment      1: Step Time =    1.000,"P-2-1",           447,          200.,           75.,            0.,NA,NA,"",   973.063E+03,   999.904E+03,   999.904E+03
C:/temp/Job-2.odb,Step-1,Increment      1: Step Time =    1.000,"P-2-1",           448,          200.,           65.,            0.,NA,NA,"",   981.755E+03,   1.00016E+06,   1.00016E+06
C:/temp/Job-2.odb,Step-1,Increment      1: Step Time =    1.000,"P-2-1",           449,          200.,           55.,            0.,NA,NA,"",   989.694E+03,   1.00029E+06,   1.00029E+06
C:/temp/Job-2.odb,Step-1,Increment      1: Step Time =    1.000,"P-2-1",           450,          200.,           45.,            0.,NA,NA,"",   995.581E+03,   1.00030E+06,   1.00030E+06
C:/temp/Job-2.odb,Step-1,Increment      1: Step Time =    1.000,"P-2-1",           451,          200.,           35.,            0.,NA,NA,"",   999.010E+03,   1.00025E+06,   1.00025E+06
C:/temp/Job-2.odb,Step-1,Increment      1: Step Time =    1.000,"P-2-1",           452,          200.,           25.,            0.,NA,NA,"",   1.00028E+06,   1.00016E+06,   1.00016E+06
C:/temp/Job-2.odb,Step-1,Increment      1: Step Time =    1.000,"P-2-1",           453,          200.,           15.,            0.,NA,NA,"",   1.00033E+06,   1.00006E+06,   1.00006E+06
C:/temp/Job-2.odb,Step-1,Increment      1: Step Time =    1.000,"P-2-1",           454,          200.,            5.,            0.,NA,NA,"",   1.00003E+06,   999.966E+03,   999.966E+03
C:/temp/Job-2.odb,Step-1,Increment      1: Step Time =    1.000,"P-2-1",           455,            5.,          200.,            0.,NA,NA,"",   1.43047E+06,   1.46345E+06,   1.46345E+06
C:/temp/Job-2.odb,Step-1,Increment      1: Step Time =    1.000,"P-2-1",           456,           15.,          200.,            0.,NA,NA,"",   1.13349E+06,   1.13898E+06,   1.13898E+06
C:/temp/Job-2.odb,Step-1,Increment      1: Step Time =    1.000,"P-2-1",           457,           25.,          200.,            0.,NA,NA,"",   1.04815E+06,   1.04997E+06,   1.04997E+06
C:/temp/Job-2.odb,Step-1,Increment      1: Step Time =    1.000,"P-2-1",           458,           35.,          200.,            0.,NA,NA,"",   1.00861E+06,   1.00944E+06,   1.00944E+06
C:/temp/Job-2.odb,Step-1,Increment      1: Step Time =    1.000,"P-2-1",           459,           45.,          200.,            0.,NA,NA,"",   986.708E+03,   986.995E+03,   986.995E+03
C:/temp/Job-2.odb,Step-1,Increment      1: Step Time =    1.000,"P-2-1",           460,           55.,          200.,            0.,NA,NA,"",   969.748E+03,   969.861E+03,   969.861E+03
C:/temp/Job-2.odb,Step-1,Increment      1: Step Time =    1.000,"P-2-1",           461,           65.,          200.,            0.,NA,NA,"",   955.381E+03,   955.451E+03,   955.451E+03
C:/temp/Job-2.odb,Step-1,Increment      1: Step Time =    1.000,"P-2-1",           462,           75.,          200.,            0.,NA,NA,"",   942.211E+03,   942.317E+03,   942.317E+03
C:/temp/Job-2.odb,Step-1,Increment      1: Step Time =    1.000,"P-2-1",           463,           85.,          200.,            0.,NA,NA,"",   932.033E+03,   932.220E+03,   932.220E+03
C:/temp/Job-2.odb,Step-1,Increment      1: Step Time =    1.000,"P-2-1",           464,           95.,          200.,            0.,NA,NA,"",   927.447E+03,   927.688E+03,   927.688E+03
C:/temp/Job-2.odb,Step-1,Increment      1: Step Time =    1.000,"P-2-1",           465,          105.,          200.,            0.,NA,NA,"",   930.138E+03,   930.367E+03,   930.367E+03
C:/temp/Job-2.odb,Step-1,Increment      1: Step Time =    1.000,"P-2-1",           466,          115.,          200.,            0.,NA,NA,"",   939.810E+03,   939.944E+03,   939.944E+03
C:/temp/Job-2.odb,Step-1,Increment      1: Step Time =    1.000,"P-2-1",           467,          125.,          200.,            0.,NA,NA,"",   953.951E+03,   953.964E+03,   953.964E+03
C:/temp/Job-2.odb,Step-1,Increment      1: Step Time =    1.000,"P-2-1",           468,          135.,          200.,            0.,NA,NA,"",   968.979E+03,   968.904E+03,   968.904E+03
C:/temp/Job-2.odb,Step-1,Increment      1: Step Time =    1.000,"P-2-1",           469,          145.,          200.,            0.,NA,NA,"",   981.882E+03,   981.761E+03,   981.761E+03
C:/temp/Job-2.odb,Step-1,Increment      1: Step Time =    1.000,"P-2-1",           470,          155.,          200.,            0.,NA,NA,"",   990.993E+03,   990.873E+03,   990.873E+03
C:/temp/Job-2.odb,Step-1,Increment      1: Step Time =    1.000,"P-2-1",           471,          165.,          200.,            0.,NA,NA,"",   996.170E+03,   996.083E+03,   996.083E+03
C:/temp/Job-2.odb,Step-1,Increment      1: Step Time =    1.000,"P-2-1",           472,          175.,          200.,            0.,NA,NA,"",   998.430E+03,   998.394E+03,   998.394E+03
C:/temp/Job-2.odb,Step-1,Increment      1: Step Time =    1.000,"P-2-1",           473,          185.,          200.,            0.,NA,NA,"",   999.357E+03,   999.351E+03,   999.351E+03
C:/temp/Job-2.odb,Step-1,Increment      1: Step Time =    1.000,"P-2-1",           474,          195.,          200.,            0.,NA,NA,"",   999.894E+03,   999.875E+03,   999.875E+03
C:/temp/Job-2.odb,Step-1,Increment      1: Step Time =    1.000,"P-2-1",           475,            0.,            5.,            0.,NA,NA,"",   1.38010E+06,   1.46556E+06,   1.46556E+06
C:/temp/Job-2.odb,Step-1,Increment      1: Step Time =    1.000,"P-2-1",           476,            0.,           15.,            0.,NA,NA,"",   1.05124E+06,   1.15242E+06,   1.15242E+06
C:/temp/Job-2.odb,Step-1,Increment      1: Step Time =    1.000,"P-2-1",           477,            0.,           25.,            0.,NA,NA,"",   957.615E+03,   1.06103E+06,   1.06103E+06
C:/temp/Job-2.odb,Step-1,Increment      1: Step Time =    1.000,"P-2-1",           478,            0.,           35.,            0.,NA,NA,"",   903.927E+03,   1.00899E+06,   1.00899E+06
C:/temp/Job-2.odb,Step-1,Increment      1: Step Time =    1.000,"P-2-1",           479,            0.,           45.,            0.,NA,NA,"",   868.024E+03,   973.084E+03,   973.084E+03
C:/temp/Job-2.odb,Step-1,Increment      1: Step Time =    1.000,"P-2-1",           480,            0.,           55.,            0.,NA,NA,"",   841.312E+03,   945.364E+03,   945.364E+03
C:/temp/Job-2.odb,Step-1,Increment      1: Step Time =    1.000,"P-2-1",           481,            0.,           65.,            0.,NA,NA,"",   818.697E+03,   921.478E+03,   921.478E+03
C:/temp/Job-2.odb,Step-1,Increment      1: Step Time =    1.000,"P-2-1",           482,            0.,           75.,            0.,NA,NA,"",   799.509E+03,   901.029E+03,   901.029E+03
C:/temp/Job-2.odb,Step-1,Increment      1: Step Time =    1.000,"P-2-1",           483,            0.,           85.,            0.,NA,NA,"",   785.332E+03,   885.774E+03,   885.774E+03
C:/temp/Job-2.odb,Step-1,Increment      1: Step Time =    1.000,"P-2-1",           484,            0.,           95.,            0.,NA,NA,"",   777.482E+03,   877.354E+03,   877.354E+03
C:/temp/Job-2.odb,Step-1,Increment      1: Step Time =    1.000,"P-2-1",           485,            0.,          105.,            0.,NA,NA,"",   777.629E+03,   877.531E+03,   877.531E+03
C:/temp/Job-2.odb,Step-1,Increment      1: Step Time =    1.000,"P-2-1",           486,            0.,          115.,            0.,NA,NA,"",   785.430E+03,   885.915E+03,   885.915E+03
C:/temp/Job-2.odb,Step-1,Increment      1: Step Time =    1.000,"P-2-1",           487,            0.,          125.,            0.,NA,NA,"",   799.751E+03,   901.241E+03,   901.241E+03
C:/temp/Job-2.odb,Step-1,Increment      1: Step Time =    1.000,"P-2-1",           488,            0.,          135.,            0.,NA,NA,"",   819.037E+03,   921.727E+03,   921.727E+03
C:/temp/Job-2.odb,Step-1,Increment      1: Step Time =    1.000,"P-2-1",           489,            0.,          145.,            0.,NA,NA,"",   842.147E+03,   945.962E+03,   945.962E+03
C:/temp/Job-2.odb,Step-1,Increment      1: Step Time =    1.000,"P-2-1",           490,            0.,          155.,            0.,NA,NA,"",   869.493E+03,   974.118E+03,   974.118E+03
C:/temp/Job-2.odb,Step-1,Increment      1: Step Time =    1.000,"P-2-1",           491,            0.,          165.,            0.,NA,NA,"",   904.521E+03,   1.00940E+06,   1.00940E+06
C:/temp/Job-2.odb,Step-1,Increment      1: Step Time =    1.000,"P-2-1",           492,            0.,          175.,            0.,NA,NA,"",   955.883E+03,   1.06016E+06,   1.06016E+06
C:/temp/Job-2.odb,Step-1,Increment      1: Step Time =    1.000,"P-2-1",           493,            0.,          185.,            0.,NA,NA,"",   1.05076E+06,   1.15324E+06,   1.15324E+06
C:/temp/Job-2.odb,Step-1,Increment      1: Step Time =    1.000,"P-2-1",           494,            0.,          195.,            0.,NA,NA,"",   1.37901E+06,   1.46526E+06,   1.46526E+06
C:/temp/Job-2.odb,Step-1,Increment      1: Step Time =    1.000,"P-2-1",           495,       84.3240,       109.809,            0.,NA,NA,"",   967.296E+03,   846.909E+03,   846.909E+03
C:/temp/Job-2.odb,Step-1,Increment      1: Step Time =    1.000,"P-2-1",           496,       115.795,       90.0123,            0.,NA,NA,"",   1.01111E+06,   869.703E+03,   869.703E+03
C:/temp/Job-2.odb,Step-1,Increment      1: Step Time =    1.000,"P-2-1",           497,       194.846,       25.4620,            0.,NA,NA,"",   1.00039E+06,   1.00049E+06,   1.00049E+06
C:/temp/Job-2.odb,Step-1,Increment      1: Step Time =    1.000,"P-2-1",           498,       195.173,       35.4838,            0.,NA,NA,"",   999.260E+03,   1.00075E+06,   1.00075E+06
C:/temp/Job-2.odb,Step-1,Increment      1: Step Time =    1.000,"P-2-1",           499,       45.4040,       195.135,            0.,NA,NA,"",   996.754E+03,   997.262E+03,   997.262E+03
C:/temp/Job-2.odb,Step-1,Increment      1: Step Time =    1.000,"P-2-1",           500,       35.3793,       194.773,            0.,NA,NA,"",   1.02221E+06,   1.02353E+06,   1.02353E+06
C:/temp/Job-2.odb,Step-1,Increment      1: Step Time =    1.000,"P-2-1",           501,       25.2520,       194.774,            0.,NA,NA,"",   1.06315E+06,   1.06678E+06,   1.06678E+06
C:/temp/Job-2.odb,Step-1,Increment      1: Step Time =    1.000,"P-2-1",           502,       25.3455,       4.93089,            0.,NA,NA,"",   1.06161E+06,   1.06457E+06,   1.06457E+06
C:/temp/Job-2.odb,Step-1,Increment      1: Step Time =    1.000,"P-2-1",           503,       35.3833,       4.82917,            0.,NA,NA,"",   1.02040E+06,   1.02160E+06,   1.02160E+06
C:/temp/Job-2.odb,Step-1,Increment      1: Step Time =    1.000,"P-2-1",           504,       194.642,       15.3359,            0.,NA,NA,"",   1.00032E+06,   1.00016E+06,   1.00016E+06
C:/temp/Job-2.odb,Step-1,Increment      1: Step Time =    1.000,"P-2-1",           505,       5.40159,       10.2198,            0.,NA,NA,"",   1.17180E+06,   1.24831E+06,   1.24831E+06
C:/temp/Job-2.odb,Step-1,Increment      1: Step Time =    1.000,"P-2-1",           506,       5.70280,       15.4384,            0.,NA,NA,"",   1.06918E+06,   1.15597E+06,   1.15597E+06
C:/temp/Job-2.odb,Step-1,Increment      1: Step Time =    1.000,"P-2-1",           507,       5.55552,       25.7825,            0.,NA,NA,"",   970.188E+03,   1.06543E+06,   1.06543E+06
C:/temp/Job-2.odb,Step-1,Increment      1: Step Time =    1.000,"P-2-1",           508,       4.56651,       35.7240,            0.,NA,NA,"",    913.01E+03,   1.01357E+06,   1.01357E+06
C:/temp/Job-2.odb,Step-1,Increment      1: Step Time =    1.000,"P-2-1",           509,       4.18900,       45.4865,            0.,NA,NA,"",   876.411E+03,   978.043E+03,   978.043E+03
C:/temp/Job-2.odb,Step-1,Increment      1: Step Time =    1.000,"P-2-1",           510,       5.10624,       194.877,            0.,NA,NA,"",   1.33758E+06,   1.38890E+06,   1.38890E+06
C:/temp/Job-2.odb,Step-1,Increment      1: Step Time =    1.000,"P-2-1",           511,       15.3098,       5.04853,            0.,NA,NA,"",   1.14352E+06,   1.15281E+06,   1.15281E+06
C:/temp/Job-2.odb,Step-1,Increment      1: Step Time =    1.000,"P-2-1",           512,       15.2381,       194.701,            0.,NA,NA,"",   1.14571E+06,   1.15566E+06,   1.15566E+06
C:/temp/Job-2.odb,Step-1,Increment      1: Step Time =    1.000,"P-2-1",           513,       45.2842,       4.84379,            0.,NA,NA,"",   997.111E+03,   997.492E+03,   997.492E+03
C:/temp/Job-2.odb,Step-1,Increment      1: Step Time =    1.000,"P-2-1",           514,       55.1517,       4.88721,            0.,NA,NA,"",   980.307E+03,   980.412E+03,   980.412E+03
C:/temp/Job-2.odb,Step-1,Increment      1: Step Time =    1.000,"P-2-1",           515,       65.0441,       4.91274,            0.,NA,NA,"",   965.811E+03,   965.872E+03,   965.872E+03
C:/temp/Job-2.odb,Step-1,Increment      1: Step Time =    1.000,"P-2-1",           516,       74.9797,       4.96011,            0.,NA,NA,"",   952.832E+03,   953.069E+03,   953.069E+03
C:/temp/Job-2.odb,Step-1,Increment      1: Step Time =    1.000,"P-2-1",           517,       84.9733,       5.01390,            0.,NA,NA,"",   942.767E+03,   943.274E+03,   943.274E+03
C:/temp/Job-2.odb,Step-1,Increment      1: Step Time =    1.000,"P-2-1",           518,       94.9932,       5.02334,            0.,NA,NA,"",   937.812E+03,   938.502E+03,   938.502E+03
C:/temp/Job-2.odb,Step-1,Increment      1: Step Time =    1.000,"P-2-1",           519,       104.986,       4.98244,            0.,NA,NA,"",   939.538E+03,   940.177E+03,   940.177E+03
C:/temp/Job-2.odb,Step-1,Increment      1: Step Time =    1.000,"P-2-1",           520,       114.970,       4.93605,            0.,NA,NA,"",   947.660E+03,   948.051E+03,   948.051E+03
C:/temp/Job-2.odb,Step-1,Increment      1: Step Time =    1.000,"P-2-1",           521,       125.014,       4.92710,            0.,NA,NA,"",   960.060E+03,   960.109E+03,   960.109E+03
C:/temp/Job-2.odb,Step-1,Increment      1: Step Time =    1.000,"P-2-1",           522,       135.041,       4.86188,            0.,NA,NA,"",   973.253E+03,   973.023E+03,   973.023E+03
C:/temp/Job-2.odb,Step-1,Increment      1: Step Time =    1.000,"P-2-1",           523,       144.925,       4.64553,            0.,NA,NA,"",   984.284E+03,   983.957E+03,   983.957E+03
C:/temp/Job-2.odb,Step-1,Increment      1: Step Time =    1.000,"P-2-1",           524,       154.624,       4.58527,            0.,NA,NA,"",   992.284E+03,   991.956E+03,   991.956E+03
C:/temp/Job-2.odb,Step-1,Increment      1: Step Time =    1.000,"P-2-1",           525,       164.482,       4.98333,            0.,NA,NA,"",   996.904E+03,   996.636E+03,   996.636E+03
C:/temp/Job-2.odb,Step-1,Increment      1: Step Time =    1.000,"P-2-1",           526,       174.623,       5.00722,            0.,NA,NA,"",   998.847E+03,   998.725E+03,   998.725E+03
C:/temp/Job-2.odb,Step-1,Increment      1: Step Time =    1.000,"P-2-1",           527,       184.739,       5.14927,            0.,NA,NA,"",   999.561E+03,   999.532E+03,   999.532E+03
C:/temp/Job-2.odb,Step-1,Increment      1: Step Time =    1.000,"P-2-1",           528,       194.852,       5.12442,            0.,NA,NA,"",   999.950E+03,   999.900E+03,   999.900E+03
C:/temp/Job-2.odb,Step-1,Increment      1: Step Time =    1.000,"P-2-1",           529,       195.203,       45.3386,            0.,NA,NA,"",   996.174E+03,   1.00090E+06,   1.00090E+06
C:/temp/Job-2.odb,Step-1,Increment      1: Step Time =    1.000,"P-2-1",           530,       55.2197,       195.361,            0.,NA,NA,"",   978.888E+03,   978.959E+03,   978.959E+03
C:/temp/Job-2.odb,Step-1,Increment      1: Step Time =    1.000,"P-2-1",           531,       195.154,       55.1801,            0.,NA,NA,"",   990.823E+03,   1.00084E+06,   1.00084E+06
C:/temp/Job-2.odb,Step-1,Increment      1: Step Time =    1.000,"P-2-1",           532,       65.0357,       195.196,            0.,NA,NA,"",   964.917E+03,   964.991E+03,   964.991E+03
C:/temp/Job-2.odb,Step-1,Increment      1: Step Time =    1.000,"P-2-1",           533,       195.106,       65.0433,            0.,NA,NA,"",   983.479E+03,   1.00045E+06,   1.00045E+06
C:/temp/Job-2.odb,Step-1,Increment      1: Step Time =    1.000,"P-2-1",           534,       75.0292,       195.087,            0.,NA,NA,"",   952.144E+03,   952.388E+03,   952.388E+03
C:/temp/Job-2.odb,Step-1,Increment      1: Step Time =    1.000,"P-2-1",           535,       195.059,       74.9546,            0.,NA,NA,"",   975.241E+03,   999.728E+03,   999.728E+03
C:/temp/Job-2.odb,Step-1,Increment      1: Step Time =    1.000,"P-2-1",           536,       85.0253,       195.003,            0.,NA,NA,"",   942.343E+03,   942.853E+03,   942.853E+03
C:/temp/Job-2.odb,Step-1,Increment      1: Step Time =    1.000,"P-2-1",           537,       195.020,       84.9075,            0.,NA,NA,"",   967.919E+03,   998.870E+03,   998.870E+03
C:/temp/Job-2.odb,Step-1,Increment      1: Step Time =    1.000,"P-2-1",           538,       194.990,       94.8841,            0.,NA,NA,"",   963.516E+03,   998.252E+03,   998.252E+03
C:/temp/Job-2.odb,Step-1,Increment      1: Step Time =    1.000,"P-2-1",           539,       194.878,       104.913,            0.,NA,NA,"",   963.410E+03,   998.096E+03,   998.096E+03
C:/temp/Job-2.odb,Step-1,Increment      1: Step Time =    1.000,"P-2-1",           540,       194.736,       114.986,            0.,NA,NA,"",   967.863E+03,   998.772E+03,   998.772E+03
C:/temp/Job-2.odb,Step-1,Increment      1: Step Time =    1.000,"P-2-1",           541,       194.992,       125.011,            0.,NA,NA,"",   975.030E+03,   999.684E+03,   999.684E+03
C:/temp/Job-2.odb,Step-1,Increment      1: Step Time =    1.000,"P-2-1",           542,       195.300,       134.957,            0.,NA,NA,"",   983.231E+03,   1.00048E+06,   1.00048E+06
C:/temp/Job-2.odb,Step-1,Increment      1: Step Time =    1.000,"P-2-1",           543,       195.515,       144.728,            0.,NA,NA,"",   990.328E+03,   1.00066E+06,   1.00066E+06
C:/temp/Job-2.odb,Step-1,Increment      1: Step Time =    1.000,"P-2-1",           544,       194.923,       194.907,            0.,NA,NA,"",   999.955E+03,   999.906E+03,   999.906E+03
C:/temp/Job-2.odb,Step-1,Increment      1: Step Time =    1.000,"P-2-1",           545,       184.772,       194.753,            0.,NA,NA,"",   999.603E+03,   999.575E+03,   999.575E+03
C:/temp/Job-2.odb,Step-1,Increment      1: Step Time =    1.000,"P-2-1",           546,       174.620,       194.943,            0.,NA,NA,"",   998.959E+03,   998.840E+03,   998.840E+03
C:/temp/Job-2.odb,Step-1,Increment      1: Step Time =    1.000,"P-2-1",           547,       164.599,       195.193,            0.,NA,NA,"",   997.061E+03,   996.807E+03,   996.807E+03
C:/temp/Job-2.odb,Step-1,Increment      1: Step Time =    1.000,"P-2-1",           548,       154.732,       195.183,            0.,NA,NA,"",   992.636E+03,   992.287E+03,   992.287E+03
C:/temp/Job-2.odb,Step-1,Increment      1: Step Time =    1.000,"P-2-1",           549,       144.841,       195.140,            0.,NA,NA,"",   984.775E+03,   984.420E+03,   984.420E+03
C:/temp/Job-2.odb,Step-1,Increment      1: Step Time =    1.000,"P-2-1",           550,       134.960,       195.096,            0.,NA,NA,"",   973.601E+03,   973.375E+03,   973.375E+03
C:/temp/Job-2.odb,Step-1,Increment      1: Step Time =    1.000,"P-2-1",           551,       125.032,       195.031,            0.,NA,NA,"",   960.552E+03,   960.589E+03,   960.589E+03
C:/temp/Job-2.odb,Step-1,Increment      1: Step Time =    1.000,"P-2-1",           552,       115.036,       194.960,            0.,NA,NA,"",   948.236E+03,   948.628E+03,   948.628E+03
C:/temp/Job-2.odb,Step-1,Increment      1: Step Time =    1.000,"P-2-1",           553,       104.999,       194.922,            0.,NA,NA,"",   939.868E+03,   940.534E+03,   940.534E+03
C:/temp/Job-2.odb,Step-1,Increment      1: Step Time =    1.000,"P-2-1",           554,       94.9941,       194.943,            0.,NA,NA,"",   937.810E+03,   938.502E+03,   938.502E+03
C:/temp/Job-2.odb,Step-1,Increment      1: Step Time =    1.000,"P-2-1",           555,       5.14736,       184.720,            0.,NA,NA,"",   1.06624E+06,   1.15601E+06,   1.15601E+06
C:/temp/Job-2.odb,Step-1,Increment      1: Step Time =    1.000,"P-2-1",           556,       5.02029,       174.535,            0.,NA,NA,"",   968.941E+03,   1.06601E+06,   1.06601E+06
C:/temp/Job-2.odb,Step-1,Increment      1: Step Time =    1.000,"P-2-1",           557,       4.78507,       164.608,            0.,NA,NA,"",   915.600E+03,   1.01545E+06,   1.01545E+06
C:/temp/Job-2.odb,Step-1,Increment      1: Step Time =    1.000,"P-2-1",           558,       4.77041,       154.708,            0.,NA,NA,"",   879.106E+03,   979.872E+03,   979.872E+03
C:/temp/Job-2.odb,Step-1,Increment      1: Step Time =    1.000,"P-2-1",           559,       4.85184,       144.845,            0.,NA,NA,"",   850.875E+03,   951.482E+03,   951.482E+03
C:/temp/Job-2.odb,Step-1,Increment      1: Step Time =    1.000,"P-2-1",           560,       4.89904,       134.953,            0.,NA,NA,"",   826.462E+03,   926.561E+03,   926.561E+03
C:/temp/Job-2.odb,Step-1,Increment      1: Step Time =    1.000,"P-2-1",           561,       4.95357,       125.018,            0.,NA,NA,"",   805.680E+03,   905.138E+03,   905.138E+03
C:/temp/Job-2.odb,Step-1,Increment      1: Step Time =    1.000,"P-2-1",           562,       5.01042,       115.043,            0.,NA,NA,"",   790.037E+03,   888.911E+03,   888.911E+03
C:/temp/Job-2.odb,Step-1,Increment      1: Step Time =    1.000,"P-2-1",           563,       5.01354,       105.055,            0.,NA,NA,"",   781.425E+03,   879.964E+03,   879.964E+03
C:/temp/Job-2.odb,Step-1,Increment      1: Step Time =    1.000,"P-2-1",           564,       4.99742,       95.0772,            0.,NA,NA,"",   781.184E+03,   879.700E+03,   879.700E+03
C:/temp/Job-2.odb,Step-1,Increment      1: Step Time =    1.000,"P-2-1",           565,       5.04152,       85.0579,            0.,NA,NA,"",   789.868E+03,   888.721E+03,   888.721E+03
C:/temp/Job-2.odb,Step-1,Increment      1: Step Time =    1.000,"P-2-1",           566,       4.85458,       75.0951,            0.,NA,NA,"",   805.317E+03,   904.840E+03,   904.840E+03
C:/temp/Job-2.odb,Step-1,Increment      1: Step Time =    1.000,"P-2-1",           567,       4.69029,       65.1347,            0.,NA,NA,"",   825.663E+03,   925.987E+03,   925.987E+03
C:/temp/Job-2.odb,Step-1,Increment      1: Step Time =    1.000,"P-2-1",           568,       4.55281,       55.1641,            0.,NA,NA,"",   849.574E+03,   950.676E+03,   950.676E+03
C:/temp/Job-2.odb,Step-1,Increment      1: Step Time =    1.000,"P-2-1",           569,       195.186,       154.562,            0.,NA,NA,"",   996.071E+03,   1.00091E+06,   1.00091E+06
C:/temp/Job-2.odb,Step-1,Increment      1: Step Time =    1.000,"P-2-1",           570,       194.729,       164.541,            0.,NA,NA,"",   999.356E+03,   1.00090E+06,   1.00090E+06
C:/temp/Job-2.odb,Step-1,Increment      1: Step Time =    1.000,"P-2-1",           571,       195.003,       174.799,            0.,NA,NA,"",   1.00038E+06,   1.00048E+06,   1.00048E+06
C:/temp/Job-2.odb,Step-1,Increment      1: Step Time =    1.000,"P-2-1",           572,       194.949,       184.879,            0.,NA,NA,"",   1.00029E+06,   1.00013E+06,   1.00013E+06
C:/temp/Job-2.odb,Step-1,Increment      1: Step Time =    1.000,"P-2-1",           573,       189.770,       5.17172,            0.,NA,NA,"",   999.775E+03,   999.745E+03,   999.745E+03
C:/temp/Job-2.odb,Step-1,Increment      1: Step Time =    1.000,"P-2-1",           574,       179.696,       5.08437,            0.,NA,NA,"",   999.286E+03,   999.218E+03,   999.218E+03
C:/temp/Job-2.odb,Step-1,Increment      1: Step Time =    1.000,"P-2-1",           575,       169.540,       4.97260,            0.,NA,NA,"",   998.115E+03,   997.917E+03,   997.917E+03
C:/temp/Job-2.odb,Step-1,Increment      1: Step Time =    1.000,"P-2-1",           576,       159.463,       4.91476,            0.,NA,NA,"",   995.040E+03,   994.738E+03,   994.738E+03
C:/temp/Job-2.odb,Step-1,Increment      1: Step Time =    1.000,"P-2-1",           577,       149.761,       4.52974,            0.,NA,NA,"",   988.654E+03,   988.318E+03,   988.318E+03
C:/temp/Job-2.odb,Step-1,Increment      1: Step Time =    1.000,"P-2-1",           578,       140.016,       4.76312,            0.,NA,NA,"",   979.118E+03,   978.821E+03,   978.821E+03
C:/temp/Job-2.odb,Step-1,Increment      1: Step Time =    1.000,"P-2-1",           579,       130.041,       4.91303,            0.,NA,NA,"",   966.810E+03,   966.696E+03,   966.696E+03
C:/temp/Job-2.odb,Step-1,Increment      1: Step Time =    1.000,"P-2-1",           580,       119.984,       4.92762,            0.,NA,NA,"",   953.518E+03,   953.755E+03,   953.755E+03
C:/temp/Job-2.odb,Step-1,Increment      1: Step Time =    1.000,"P-2-1",           581,       109.974,       4.95536,            0.,NA,NA,"",   942.886E+03,   943.420E+03,   943.420E+03
C:/temp/Job-2.odb,Step-1,Increment      1: Step Time =    1.000,"P-2-1",           582,       99.9948,       5.00571,            0.,NA,NA,"",   937.804E+03,   938.499E+03,   938.499E+03
C:/temp/Job-2.odb,Step-1,Increment      1: Step Time =    1.000,"P-2-1",           583,       89.9801,       5.02509,            0.,NA,NA,"",   939.516E+03,   940.139E+03,   940.139E+03
C:/temp/Job-2.odb,Step-1,Increment      1: Step Time =    1.000,"P-2-1",           584,       79.9686,       4.99135,            0.,NA,NA,"",   947.305E+03,   947.676E+03,   947.676E+03
C:/temp/Job-2.odb,Step-1,Increment      1: Step Time =    1.000,"P-2-1",           585,       70.0039,       4.93556,            0.,NA,NA,"",   959.077E+03,   959.208E+03,   959.208E+03
C:/temp/Job-2.odb,Step-1,Increment      1: Step Time =    1.000,"P-2-1",           586,       60.0943,       4.90170,            0.,NA,NA,"",   972.892E+03,   972.956E+03,   972.956E+03
C:/temp/Job-2.odb,Step-1,Increment      1: Step Time =    1.000,"P-2-1",           587,       50.2180,       4.86510,            0.,NA,NA,"",   988.315E+03,   988.520E+03,   988.520E+03
C:/temp/Job-2.odb,Step-1,Increment      1: Step Time =    1.000,"P-2-1",           588,       40.3491,       4.81261,            0.,NA,NA,"",   1.00750E+06,   1.00817E+06,   1.00817E+06
C:/temp/Job-2.odb,Step-1,Increment      1: Step Time =    1.000,"P-2-1",           589,       30.3736,       4.86136,            0.,NA,NA,"",   1.03805E+06,   1.03991E+06,   1.03991E+06
C:/temp/Job-2.odb,Step-1,Increment      1: Step Time =    1.000,"P-2-1",           590,       20.3411,       4.98996,            0.,NA,NA,"",   1.09614E+06,   1.10078E+06,   1.10078E+06
C:/temp/Job-2.odb,Step-1,Increment      1: Step Time =    1.000,"P-2-1",           591,       10.2713,       5.10707,            0.,NA,NA,"",   1.23231E+06,   1.24635E+06,   1.24635E+06
C:/temp/Job-2.odb,Step-1,Increment      1: Step Time =    1.000,"P-2-1",           592,       194.914,       189.873,            0.,NA,NA,"",   1.00011E+06,   999.998E+03,   999.998E+03
C:/temp/Job-2.odb,Step-1,Increment      1: Step Time =    1.000,"P-2-1",           593,       194.993,       179.868,            0.,NA,NA,"",   1.00040E+06,   1.00028E+06,   1.00028E+06
C:/temp/Job-2.odb,Step-1,Increment      1: Step Time =    1.000,"P-2-1",           594,       194.895,       169.682,            0.,NA,NA,"",   1.00010E+06,   1.00071E+06,   1.00071E+06
C:/temp/Job-2.odb,Step-1,Increment      1: Step Time =    1.000,"P-2-1",           595,       194.665,       159.459,            0.,NA,NA,"",   998.088E+03,   1.00100E+06,   1.00100E+06
C:/temp/Job-2.odb,Step-1,Increment      1: Step Time =    1.000,"P-2-1",           596,       195.474,       149.586,            0.,NA,NA,"",   993.337E+03,   1.00072E+06,   1.00072E+06
C:/temp/Job-2.odb,Step-1,Increment      1: Step Time =    1.000,"P-2-1",           597,       195.427,       139.865,            0.,NA,NA,"",   986.985E+03,   1.00063E+06,   1.00063E+06
C:/temp/Job-2.odb,Step-1,Increment      1: Step Time =    1.000,"P-2-1",           598,       195.153,       130.001,            0.,NA,NA,"",   979.212E+03,   1.00020E+06,   1.00020E+06
C:/temp/Job-2.odb,Step-1,Increment      1: Step Time =    1.000,"P-2-1",           599,       194.827,       119.990,            0.,NA,NA,"",   971.139E+03,   999.173E+03,   999.173E+03
C:/temp/Job-2.odb,Step-1,Increment      1: Step Time =    1.000,"P-2-1",           600,       194.780,       109.965,            0.,NA,NA,"",   965.149E+03,   998.319E+03,   998.319E+03
C:/temp/Job-2.odb,Step-1,Increment      1: Step Time =    1.000,"P-2-1",           601,       194.952,       99.8873,            0.,NA,NA,"",   962.896E+03,    998.13E+03,    998.13E+03
C:/temp/Job-2.odb,Step-1,Increment      1: Step Time =    1.000,"P-2-1",           602,       195.010,       89.8934,            0.,NA,NA,"",   965.242E+03,   998.510E+03,   998.510E+03
C:/temp/Job-2.odb,Step-1,Increment      1: Step Time =    1.000,"P-2-1",           603,       195.040,       79.9254,            0.,NA,NA,"",   971.335E+03,   999.294E+03,   999.294E+03
C:/temp/Job-2.odb,Step-1,Increment      1: Step Time =    1.000,"P-2-1",           604,       195.084,       69.9914,            0.,NA,NA,"",   979.370E+03,   1.00012E+06,   1.00012E+06
C:/temp/Job-2.odb,Step-1,Increment      1: Step Time =    1.000,"P-2-1",           605,       195.130,       60.1059,            0.,NA,NA,"",   987.346E+03,   1.00068E+06,   1.00068E+06
C:/temp/Job-2.odb,Step-1,Increment      1: Step Time =    1.000,"P-2-1",           606,       195.187,       50.2617,            0.,NA,NA,"",   993.783E+03,   1.00090E+06,   1.00090E+06
C:/temp/Job-2.odb,Step-1,Increment      1: Step Time =    1.000,"P-2-1",           607,       195.221,       40.4213,            0.,NA,NA,"",   997.989E+03,   1.00084E+06,   1.00084E+06
C:/temp/Job-2.odb,Step-1,Increment      1: Step Time =    1.000,"P-2-1",           608,       195.060,       30.5109,            0.,NA,NA,"",   1.00005E+06,   1.00064E+06,   1.00064E+06
C:/temp/Job-2.odb,Step-1,Increment      1: Step Time =    1.000,"P-2-1",           609,       194.663,       20.4128,            0.,NA,NA,"",   1.00044E+06,   1.00032E+06,   1.00032E+06
C:/temp/Job-2.odb,Step-1,Increment      1: Step Time =    1.000,"P-2-1",           610,       194.726,       10.2285,            0.,NA,NA,"",   1.00013E+06,   1.00001E+06,   1.00001E+06
C:/temp/Job-2.odb,Step-1,Increment      1: Step Time =    1.000,"P-2-1",           611,       10.1801,       194.771,            0.,NA,NA,"",   1.23391E+06,   1.24889E+06,   1.24889E+06
C:/temp/Job-2.odb,Step-1,Increment      1: Step Time =    1.000,"P-2-1",           612,       20.2553,       194.683,            0.,NA,NA,"",   1.09822E+06,   1.10364E+06,   1.10364E+06
C:/temp/Job-2.odb,Step-1,Increment      1: Step Time =    1.000,"P-2-1",           613,       30.3017,       194.819,            0.,NA,NA,"",   1.03960E+06,   1.04172E+06,   1.04172E+06
C:/temp/Job-2.odb,Step-1,Increment      1: Step Time =    1.000,"P-2-1",           614,       40.4564,       194.744,            0.,NA,NA,"",   1.00860E+06,   1.00944E+06,   1.00944E+06
C:/temp/Job-2.odb,Step-1,Increment      1: Step Time =    1.000,"P-2-1",           615,       50.3464,       195.359,            0.,NA,NA,"",   986.787E+03,   987.116E+03,   987.116E+03
C:/temp/Job-2.odb,Step-1,Increment      1: Step Time =    1.000,"P-2-1",           616,       60.0957,       195.276,            0.,NA,NA,"",   971.785E+03,   971.810E+03,   971.810E+03
C:/temp/Job-2.odb,Step-1,Increment      1: Step Time =    1.000,"P-2-1",           617,       70.0225,       195.135,            0.,NA,NA,"",   958.336E+03,   958.468E+03,   958.468E+03
C:/temp/Job-2.odb,Step-1,Increment      1: Step Time =    1.000,"P-2-1",           618,       80.0310,       195.045,            0.,NA,NA,"",    946.71E+03,   947.086E+03,   947.086E+03
C:/temp/Job-2.odb,Step-1,Increment      1: Step Time =    1.000,"P-2-1",           619,       90.0105,       194.972,            0.,NA,NA,"",   939.313E+03,   939.932E+03,   939.932E+03
C:/temp/Job-2.odb,Step-1,Increment      1: Step Time =    1.000,"P-2-1",           620,       99.9865,       194.925,            0.,NA,NA,"",   937.987E+03,     938.7E+03,     938.7E+03
C:/temp/Job-2.odb,Step-1,Increment      1: Step Time =    1.000,"P-2-1",           621,       110.024,       194.936,            0.,NA,NA,"",   943.367E+03,   943.923E+03,   943.923E+03
C:/temp/Job-2.odb,Step-1,Increment      1: Step Time =    1.000,"P-2-1",           622,       120.043,       194.993,            0.,NA,NA,"",   954.104E+03,   954.314E+03,   954.314E+03
C:/temp/Job-2.odb,Step-1,Increment      1: Step Time =    1.000,"P-2-1",           623,       130.005,       195.065,            0.,NA,NA,"",   967.171E+03,   967.059E+03,   967.059E+03
C:/temp/Job-2.odb,Step-1,Increment      1: Step Time =    1.000,"P-2-1",           624,       139.902,       195.120,            0.,NA,NA,"",   979.544E+03,   979.235E+03,   979.235E+03
C:/temp/Job-2.odb,Step-1,Increment      1: Step Time =    1.000,"P-2-1",           625,       149.785,       195.170,            0.,NA,NA,"",   989.158E+03,   988.791E+03,   988.791E+03
C:/temp/Job-2.odb,Step-1,Increment      1: Step Time =    1.000,"P-2-1",           626,       159.670,       195.216,            0.,NA,NA,"",   995.234E+03,   994.926E+03,   994.926E+03
C:/temp/Job-2.odb,Step-1,Increment      1: Step Time =    1.000,"P-2-1",           627,       169.566,       195.124,            0.,NA,NA,"",   998.256E+03,   998.067E+03,   998.067E+03
C:/temp/Job-2.odb,Step-1,Increment      1: Step Time =    1.000,"P-2-1",           628,       179.696,       194.779,            0.,NA,NA,"",   999.356E+03,   999.292E+03,   999.292E+03
C:/temp/Job-2.odb,Step-1,Increment      1: Step Time =    1.000,"P-2-1",           629,       189.856,       194.818,            0.,NA,NA,"",   999.793E+03,   999.768E+03,   999.768E+03
C:/temp/Job-2.odb,Step-1,Increment      1: Step Time =    1.000,"P-2-1",           630,       5.95482,       20.7307,            0.,NA,NA,"",   1.01399E+06,   1.10499E+06,   1.10499E+06
C:/temp/Job-2.odb,Step-1,Increment      1: Step Time =    1.000,"P-2-1",           631,       5.03259,       30.8036,            0.,NA,NA,"",   938.292E+03,   1.03677E+06,   1.03677E+06
C:/temp/Job-2.odb,Step-1,Increment      1: Step Time =    1.000,"P-2-1",           632,       4.26700,       40.5972,            0.,NA,NA,"",   893.421E+03,   994.845E+03,   994.845E+03
C:/temp/Job-2.odb,Step-1,Increment      1: Step Time =    1.000,"P-2-1",           633,       4.37088,       50.2838,            0.,NA,NA,"",   862.174E+03,   963.636E+03,   963.636E+03
C:/temp/Job-2.odb,Step-1,Increment      1: Step Time =    1.000,"P-2-1",           634,       4.64194,       60.1411,            0.,NA,NA,"",   837.418E+03,   938.104E+03,   938.104E+03
C:/temp/Job-2.odb,Step-1,Increment      1: Step Time =    1.000,"P-2-1",           635,       4.75671,       70.1188,            0.,NA,NA,"",   814.959E+03,   914.898E+03,   914.898E+03
C:/temp/Job-2.odb,Step-1,Increment      1: Step Time =    1.000,"P-2-1",           636,       4.96775,       80.0762,            0.,NA,NA,"",   796.884E+03,   896.031E+03,   896.031E+03
C:/temp/Job-2.odb,Step-1,Increment      1: Step Time =    1.000,"P-2-1",           637,       5.01951,       90.0547,            0.,NA,NA,"",   784.555E+03,   883.186E+03,   883.186E+03
C:/temp/Job-2.odb,Step-1,Increment      1: Step Time =    1.000,"P-2-1",           638,       4.99720,       100.076,            0.,NA,NA,"",   780.176E+03,   878.666E+03,   878.666E+03
C:/temp/Job-2.odb,Step-1,Increment      1: Step Time =    1.000,"P-2-1",           639,       5.01838,       110.048,            0.,NA,NA,"",   784.740E+03,   883.411E+03,   883.411E+03
C:/temp/Job-2.odb,Step-1,Increment      1: Step Time =    1.000,"P-2-1",           640,       4.98390,       120.029,            0.,NA,NA,"",   797.101E+03,   896.245E+03,   896.245E+03
C:/temp/Job-2.odb,Step-1,Increment      1: Step Time =    1.000,"P-2-1",           641,       4.91978,       129.990,            0.,NA,NA,"",   815.566E+03,   915.349E+03,   915.349E+03
C:/temp/Job-2.odb,Step-1,Increment      1: Step Time =    1.000,"P-2-1",           642,       4.87625,       139.904,            0.,NA,NA,"",   838.290E+03,   938.667E+03,   938.667E+03
C:/temp/Job-2.odb,Step-1,Increment      1: Step Time =    1.000,"P-2-1",           643,       4.80801,       149.777,            0.,NA,NA,"",   864.549E+03,   965.289E+03,   965.289E+03
C:/temp/Job-2.odb,Step-1,Increment      1: Step Time =    1.000,"P-2-1",           644,       4.74460,       159.638,            0.,NA,NA,"",   896.184E+03,   996.653E+03,   996.653E+03
C:/temp/Job-2.odb,Step-1,Increment      1: Step Time =    1.000,"P-2-1",           645,       4.90918,       169.531,            0.,NA,NA,"",   939.825E+03,   1.03853E+06,   1.03853E+06
C:/temp/Job-2.odb,Step-1,Increment      1: Step Time =    1.000,"P-2-1",           646,       5.10024,       179.620,            0.,NA,NA,"",   1.01134E+06,   1.10536E+06,   1.10536E+06
C:/temp/Job-2.odb,Step-1,Increment      1: Step Time =    1.000,"P-2-1",           647,       5.15456,       189.787,            0.,NA,NA,"",   1.16898E+06,   1.24769E+06,   1.24769E+06
C:/temp/Job-2.odb,Step-1,Increment      1: Step Time =    1.000,"P-2-1",           648,       90.0850,       84.1326,            0.,NA,NA,"",   1.44403E+06,   1.44806E+06,   1.44806E+06
C:/temp/Job-2.odb,Step-1,Increment      1: Step Time =    1.000,"P-2-1",           649,       115.906,       110.855,            0.,NA,NA,"",   1.05575E+06,   925.631E+03,   925.631E+03
C:/temp/Job-2.odb,Step-1,Increment      1: Step Time =    1.000,"P-2-1",           650,       89.6739,       115.339,            0.,NA,NA,"",   1.42011E+06,   1.41758E+06,   1.41758E+06
C:/temp/Job-2.odb,Step-1,Increment      1: Step Time =    1.000,"P-2-1",           651,       84.2807,       89.0138,            0.,NA,NA,"",   1.03665E+06,   924.894E+03,   924.894E+03
C:/temp/Job-2.odb,Step-1,Increment      1: Step Time =    1.000,"P-2-1",           652,       109.883,       116.029,            0.,NA,NA,"",   1.45253E+06,   1.45526E+06,   1.45526E+06
C:/temp/Job-2.odb,Step-1,Increment      1: Step Time =    1.000,"P-2-1",           653,       110.825,       84.0332,            0.,NA,NA,"",   1.41783E+06,   1.40552E+06,   1.40552E+06
C:/temp/Job-2.odb,Step-1,Increment      1: Step Time =    1.000,"P-2-1",           654,       89.4511,       120.779,            0.,NA,NA,"",   1.36446E+06,   1.38299E+06,   1.38299E+06
C:/temp/Job-2.odb,Step-1,Increment      1: Step Time =    1.000,"P-2-1",           655,       78.8276,       88.8398,            0.,NA,NA,"",   1.01695E+06,   910.854E+03,   910.854E+03
C:/temp/Job-2.odb,Step-1,Increment      1: Step Time =    1.000,"P-2-1",           656,       121.562,       110.821,            0.,NA,NA,"",   1.03223E+06,   904.566E+03,   904.566E+03
C:/temp/Job-2.odb,Step-1,Increment      1: Step Time =    1.000,"P-2-1",           657,       110.812,       78.3599,            0.,NA,NA,"",   1.34896E+06,   1.35930E+06,   1.35930E+06
C:/temp/Job-2.odb,Step-1,Increment      1: Step Time =    1.000,"P-2-1",           658,       119.908,       90.6576,            0.,NA,NA,"",   1.01254E+06,   854.655E+03,   854.655E+03
C:/temp/Job-2.odb,Step-1,Increment      1: Step Time =    1.000,"P-2-1",           659,       108.848,       120.828,            0.,NA,NA,"",   1.37132E+06,   1.40909E+06,   1.40909E+06
C:/temp/Job-2.odb,Step-1,Increment      1: Step Time =    1.000,"P-2-1",           660,       78.9971,       109.487,            0.,NA,NA,"",   933.147E+03,   823.272E+03,   823.272E+03
C:/temp/Job-2.odb,Step-1,Increment      1: Step Time =    1.000,"P-2-1",           661,       90.7393,       80.0352,            0.,NA,NA,"",   1.40738E+06,   1.43501E+06,   1.43501E+06
C:/temp/Job-2.odb,Step-1,Increment      1: Step Time =    1.000,"P-2-1",           662,       140.119,       9.59709,            0.,NA,NA,"",   987.462E+03,   986.615E+03,   986.615E+03
C:/temp/Job-2.odb,Step-1,Increment      1: Step Time =    1.000,"P-2-1",           663,       130.091,       9.85628,            0.,NA,NA,"",   978.228E+03,   977.924E+03,   977.924E+03
C:/temp/Job-2.odb,Step-1,Increment      1: Step Time =    1.000,"P-2-1",           664,       119.948,       9.82275,            0.,NA,NA,"",   967.644E+03,   968.302E+03,   968.302E+03
C:/temp/Job-2.odb,Step-1,Increment      1: Step Time =    1.000,"P-2-1",           665,       109.952,       9.90709,            0.,NA,NA,"",   959.412E+03,   960.937E+03,   960.937E+03
C:/temp/Job-2.odb,Step-1,Increment      1: Step Time =    1.000,"P-2-1",           666,       99.9985,       10.0193,            0.,NA,NA,"",   956.012E+03,    958.01E+03,    958.01E+03
C:/temp/Job-2.odb,Step-1,Increment      1: Step Time =    1.000,"P-2-1",           667,       89.9683,       10.0564,            0.,NA,NA,"",   958.581E+03,   960.382E+03,   960.382E+03
C:/temp/Job-2.odb,Step-1,Increment      1: Step Time =    1.000,"P-2-1",           668,       79.9318,       10.0117,            0.,NA,NA,"",   966.550E+03,   967.652E+03,   967.652E+03
C:/temp/Job-2.odb,Step-1,Increment      1: Step Time =    1.000,"P-2-1",           669,       70.0103,       9.93671,            0.,NA,NA,"",   978.017E+03,   978.458E+03,   978.458E+03
C:/temp/Job-2.odb,Step-1,Increment      1: Step Time =    1.000,"P-2-1",           670,       60.1920,       9.89071,            0.,NA,NA,"",   991.570E+03,   991.823E+03,   991.823E+03
C:/temp/Job-2.odb,Step-1,Increment      1: Step Time =    1.000,"P-2-1",           671,       190.752,       139.817,            0.,NA,NA,"",   990.359E+03,   1.00180E+06,   1.00180E+06
C:/temp/Job-2.odb,Step-1,Increment      1: Step Time =    1.000,"P-2-1",           672,       190.283,       130.112,            0.,NA,NA,"",   983.375E+03,   1.00044E+06,   1.00044E+06
C:/temp/Job-2.odb,Step-1,Increment      1: Step Time =    1.000,"P-2-1",           673,       189.577,       120.082,            0.,NA,NA,"",   975.154E+03,   997.600E+03,   997.600E+03
C:/temp/Job-2.odb,Step-1,Increment      1: Step Time =    1.000,"P-2-1",           674,       189.545,       109.809,            0.,NA,NA,"",   968.243E+03,   995.124E+03,   995.124E+03
C:/temp/Job-2.odb,Step-1,Increment      1: Step Time =    1.000,"P-2-1",           675,       189.961,       99.6951,            0.,NA,NA,"",   965.833E+03,   994.707E+03,   994.707E+03
C:/temp/Job-2.odb,Step-1,Increment      1: Step Time =    1.000,"P-2-1",           676,       190.026,       89.7673,            0.,NA,NA,"",   968.566E+03,   995.750E+03,   995.750E+03
C:/temp/Job-2.odb,Step-1,Increment      1: Step Time =    1.000,"P-2-1",           677,       190.052,       79.8480,            0.,NA,NA,"",   975.226E+03,   997.974E+03,   997.974E+03
C:/temp/Job-2.odb,Step-1,Increment      1: Step Time =    1.000,"P-2-1",           678,       190.107,       69.9885,            0.,NA,NA,"",   983.426E+03,   1.00033E+06,   1.00033E+06
C:/temp/Job-2.odb,Step-1,Increment      1: Step Time =    1.000,"P-2-1",           679,       190.176,       60.2136,            0.,NA,NA,"",   990.943E+03,   1.00197E+06,   1.00197E+06
C:/temp/Job-2.odb,Step-1,Increment      1: Step Time =    1.000,"P-2-1",           680,       99.9699,       189.841,            0.,NA,NA,"",   956.401E+03,   958.455E+03,   958.455E+03
C:/temp/Job-2.odb,Step-1,Increment      1: Step Time =    1.000,"P-2-1",           681,       110.050,       189.877,            0.,NA,NA,"",   960.204E+03,   961.793E+03,   961.793E+03
C:/temp/Job-2.odb,Step-1,Increment      1: Step Time =    1.000,"P-2-1",           682,       120.100,       189.969,            0.,NA,NA,"",   968.610E+03,   969.216E+03,   969.216E+03
C:/temp/Job-2.odb,Step-1,Increment      1: Step Time =    1.000,"P-2-1",           683,       130.019,       190.074,            0.,NA,NA,"",   978.615E+03,   978.312E+03,   978.312E+03
C:/temp/Job-2.odb,Step-1,Increment      1: Step Time =    1.000,"P-2-1",           684,       139.811,       190.178,            0.,NA,NA,"",   987.765E+03,   986.889E+03,   986.889E+03
C:/temp/Job-2.odb,Step-1,Increment      1: Step Time =    1.000,"P-2-1",           685,       9.34613,       60.2701,            0.,NA,NA,"",   853.198E+03,    947.92E+03,    947.92E+03
C:/temp/Job-2.odb,Step-1,Increment      1: Step Time =    1.000,"P-2-1",           686,       9.52846,       70.2030,            0.,NA,NA,"",   827.907E+03,    923.08E+03,    923.08E+03
C:/temp/Job-2.odb,Step-1,Increment      1: Step Time =    1.000,"P-2-1",           687,       9.99275,       80.0886,            0.,NA,NA,"",   807.825E+03,   902.934E+03,   902.934E+03
C:/temp/Job-2.odb,Step-1,Increment      1: Step Time =    1.000,"P-2-1",           688,       9.99887,       90.1656,            0.,NA,NA,"",   792.793E+03,   888.124E+03,   888.124E+03
C:/temp/Job-2.odb,Step-1,Increment      1: Step Time =    1.000,"P-2-1",           689,       9.99133,       100.150,            0.,NA,NA,"",   787.655E+03,   883.167E+03,   883.167E+03
C:/temp/Job-2.odb,Step-1,Increment      1: Step Time =    1.000,"P-2-1",           690,       10.0766,       110.091,            0.,NA,NA,"",   793.300E+03,   888.659E+03,   888.659E+03
C:/temp/Job-2.odb,Step-1,Increment      1: Step Time =    1.000,"P-2-1",           691,       9.98816,       120.072,            0.,NA,NA,"",   807.947E+03,   903.088E+03,   903.088E+03
C:/temp/Job-2.odb,Step-1,Increment      1: Step Time =    1.000,"P-2-1",           692,       9.85817,       129.978,            0.,NA,NA,"",   829.318E+03,   924.087E+03,   924.087E+03
C:/temp/Job-2.odb,Step-1,Increment      1: Step Time =    1.000,"P-2-1",           693,       9.80083,       139.789,            0.,NA,NA,"",   854.954E+03,   949.044E+03,   949.044E+03
C:/temp/Job-2.odb,Step-1,Increment      1: Step Time =    1.000,"P-2-1",           694,       60.1210,       190.417,            0.,NA,NA,"",   990.199E+03,   990.398E+03,   990.398E+03
C:/temp/Job-2.odb,Step-1,Increment      1: Step Time =    1.000,"P-2-1",           695,       70.0424,       190.250,            0.,NA,NA,"",   977.032E+03,   977.482E+03,   977.482E+03
C:/temp/Job-2.odb,Step-1,Increment      1: Step Time =    1.000,"P-2-1",           696,       80.0658,       190.089,            0.,NA,NA,"",   965.672E+03,   966.808E+03,   966.808E+03
C:/temp/Job-2.odb,Step-1,Increment      1: Step Time =    1.000,"P-2-1",           697,       90.0162,       189.920,            0.,NA,NA,"",   958.451E+03,   960.246E+03,   960.246E+03
C:/temp/Job-2.odb,Step-1,Increment      1: Step Time =    1.000,"P-2-1",           698,       100.070,       83.0312,            0.,NA,NA,"",   1.80923E+06,   1.93561E+06,   1.93561E+06
C:/temp/Job-2.odb,Step-1,Increment      1: Step Time =    1.000,"P-2-1",           699,       99.8877,       116.541,            0.,NA,NA,"",   1.86066E+06,   1.98732E+06,   1.98732E+06
C:/temp/Job-2.odb,Step-1,Increment      1: Step Time =    1.000,"P-2-1",           700,       116.948,       100.055,            0.,NA,NA,"",   485.041E+03,  -100.242E+03,  -100.242E+03
C:/temp/Job-2.odb,Step-1,Increment      1: Step Time =    1.000,"P-2-1",           701,       83.2870,       99.7419,            0.,NA,NA,"",   449.117E+03,  -95.7741E+03,  -95.7741E+03
C:/temp/Job-2.odb,Step-1,Increment      1: Step Time =    1.000,"P-2-1",           702,       9.52836,       164.133,            0.,NA,NA,"",   937.808E+03,   1.02719E+06,   1.02719E+06
C:/temp/Job-2.odb,Step-1,Increment      1: Step Time =    1.000,"P-2-1",           703,       164.006,       9.91731,            0.,NA,NA,"",   999.443E+03,   998.691E+03,   998.691E+03
C:/temp/Job-2.odb,Step-1,Increment      1: Step Time =    1.000,"P-2-1",           704,       35.7968,       9.56616,            0.,NA,NA,"",   1.04014E+06,   1.04336E+06,   1.04336E+06
C:/temp/Job-2.odb,Step-1,Increment      1: Step Time =    1.000,"P-2-1",           705,       9.09555,       36.7966,            0.,NA,NA,"",   930.439E+03,   1.02169E+06,   1.02169E+06
C:/temp/Job-2.odb,Step-1,Increment      1: Step Time =    1.000,"P-2-1",           706,       164.187,       190.479,            0.,NA,NA,"",   999.495E+03,   998.775E+03,   998.775E+03
C:/temp/Job-2.odb,Step-1,Increment      1: Step Time =    1.000,"P-2-1",           707,       189.450,       164.324,            0.,NA,NA,"",   1.00103E+06,   1.00248E+06,   1.00248E+06
C:/temp/Job-2.odb,Step-1,Increment      1: Step Time =    1.000,"P-2-1",           708,       190.432,       36.0292,            0.,NA,NA,"",   1.00054E+06,   1.00214E+06,   1.00214E+06
C:/temp/Job-2.odb,Step-1,Increment      1: Step Time =    1.000,"P-2-1",           709,       35.6050,       189.636,            0.,NA,NA,"",   1.04309E+06,   1.04682E+06,   1.04682E+06
C:/temp/Job-2.odb,Step-1,Increment      1: Step Time =    1.000,"P-2-1",           710,       60.2973,       14.9735,            0.,NA,NA,"",   1.00877E+06,   1.00947E+06,   1.00947E+06
C:/temp/Job-2.odb,Step-1,Increment      1: Step Time =    1.000,"P-2-1",           711,       14.0440,       60.4682,            0.,NA,NA,"",   869.255E+03,   957.295E+03,   957.295E+03
C:/temp/Job-2.odb,Step-1,Increment      1: Step Time =    1.000,"P-2-1",           712,       185.144,       60.3316,            0.,NA,NA,"",   995.830E+03,   1.00393E+06,   1.00393E+06
C:/temp/Job-2.odb,Step-1,Increment      1: Step Time =    1.000,"P-2-1",           713,       60.0521,       185.342,            0.,NA,NA,"",   1.00806E+06,   1.00867E+06,   1.00867E+06
C:/temp/Job-2.odb,Step-1,Increment      1: Step Time =    1.000,"P-2-1",           714,       140.289,       14.3574,            0.,NA,NA,"",   997.154E+03,   995.398E+03,   995.398E+03
C:/temp/Job-2.odb,Step-1,Increment      1: Step Time =    1.000,"P-2-1",           715,       14.7433,       139.634,            0.,NA,NA,"",   872.125E+03,   959.048E+03,   959.048E+03
C:/temp/Job-2.odb,Step-1,Increment      1: Step Time =    1.000,"P-2-1",           716,       185.929,       139.887,            0.,NA,NA,"",   995.152E+03,   1.00371E+06,   1.00371E+06
C:/temp/Job-2.odb,Step-1,Increment      1: Step Time =    1.000,"P-2-1",           717,       139.740,       185.190,            0.,NA,NA,"",   997.374E+03,   995.630E+03,   995.630E+03
C:/temp/Job-2.odb,Step-1,Increment      1: Step Time =    1.000,"P-2-1",           718,       14.0077,       163.516,            0.,NA,NA,"",   957.433E+03,   1.03604E+06,   1.03604E+06
C:/temp/Job-2.odb,Step-1,Increment      1: Step Time =    1.000,"P-2-1",           719,       163.790,       14.6218,            0.,NA,NA,"",   1.00334E+06,   1.00185E+06,   1.00185E+06
C:/temp/Job-2.odb,Step-1,Increment      1: Step Time =    1.000,"P-2-1",           720,       36.2113,       14.1460,            0.,NA,NA,"",   1.05053E+06,   1.05710E+06,   1.05710E+06
C:/temp/Job-2.odb,Step-1,Increment      1: Step Time =    1.000,"P-2-1",           721,       13.5691,       38.2932,            0.,NA,NA,"",   945.380E+03,   1.02691E+06,   1.02691E+06
C:/temp/Job-2.odb,Step-1,Increment      1: Step Time =    1.000,"P-2-1",           722,       163.854,       185.873,            0.,NA,NA,"",   1.00301E+06,   1.00160E+06,   1.00160E+06
C:/temp/Job-2.odb,Step-1,Increment      1: Step Time =    1.000,"P-2-1",           723,       184.543,       164.868,            0.,NA,NA,"",   1.00396E+06,   1.00461E+06,   1.00461E+06
C:/temp/Job-2.odb,Step-1,Increment      1: Step Time =    1.000,"P-2-1",           724,       185.807,       36.5622,            0.,NA,NA,"",   1.00325E+06,   1.00425E+06,   1.00425E+06
C:/temp/Job-2.odb,Step-1,Increment      1: Step Time =    1.000,"P-2-1",           725,       35.3285,       184.755,            0.,NA,NA,"",   1.05395E+06,   1.06186E+06,   1.06186E+06
C:/temp/Job-2.odb,Step-1,Increment      1: Step Time =    1.000,"P-2-1",           726,       130.108,       14.8522,            0.,NA,NA,"",   990.047E+03,   989.482E+03,   989.482E+03
C:/temp/Job-2.odb,Step-1,Increment      1: Step Time =    1.000,"P-2-1",           727,       14.3263,       70.2682,            0.,NA,NA,"",   841.475E+03,   931.133E+03,   931.133E+03
C:/temp/Job-2.odb,Step-1,Increment      1: Step Time =    1.000,"P-2-1",           728,       70.0401,       15.0244,            0.,NA,NA,"",   995.602E+03,   996.615E+03,   996.615E+03
C:/temp/Job-2.odb,Step-1,Increment      1: Step Time =    1.000,"P-2-1",           729,       14.8208,       129.967,            0.,NA,NA,"",   843.898E+03,   932.801E+03,   932.801E+03
C:/temp/Job-2.odb,Step-1,Increment      1: Step Time =    1.000,"P-2-1",           730,       185.422,       130.315,            0.,NA,NA,"",   987.684E+03,   1.00083E+06,   1.00083E+06
C:/temp/Job-2.odb,Step-1,Increment      1: Step Time =    1.000,"P-2-1",           731,       70.1131,       185.384,            0.,NA,NA,"",   993.936E+03,   994.929E+03,   994.929E+03
C:/temp/Job-2.odb,Step-1,Increment      1: Step Time =    1.000,"P-2-1",           732,       185.062,       70.0131,            0.,NA,NA,"",   987.669E+03,   1.00064E+06,   1.00064E+06
C:/temp/Job-2.odb,Step-1,Increment      1: Step Time =    1.000,"P-2-1",           733,       130.029,       185.015,            0.,NA,NA,"",   990.514E+03,   989.915E+03,   989.915E+03
C:/temp/Job-2.odb,Step-1,Increment      1: Step Time =    1.000,"P-2-1",           734,       121.684,       105.470,            0.,NA,NA,"",   691.976E+03,   601.179E+03,   601.179E+03
C:/temp/Job-2.odb,Step-1,Increment      1: Step Time =    1.000,"P-2-1",           735,       94.6041,       120.893,            0.,NA,NA,"",   1.34117E+06,   1.43862E+06,   1.43862E+06
C:/temp/Job-2.odb,Step-1,Increment      1: Step Time =    1.000,"P-2-1",           736,       78.8141,       94.0610,            0.,NA,NA,"",   691.576E+03,   612.446E+03,   612.446E+03
C:/temp/Job-2.odb,Step-1,Increment      1: Step Time =    1.000,"P-2-1",           737,       105.480,       78.2509,            0.,NA,NA,"",   1.30453E+06,   1.39694E+06,   1.39694E+06
C:/temp/Job-2.odb,Step-1,Increment      1: Step Time =    1.000,"P-2-1",           738,       15.0089,       79.9189,            0.,NA,NA,"",   819.574E+03,   909.955E+03,   909.955E+03
C:/temp/Job-2.odb,Step-1,Increment      1: Step Time =    1.000,"P-2-1",           739,       119.871,       14.6674,            0.,NA,NA,"",   980.467E+03,   981.783E+03,   981.783E+03
C:/temp/Job-2.odb,Step-1,Increment      1: Step Time =    1.000,"P-2-1",           740,       79.9083,       15.0786,            0.,NA,NA,"",   983.665E+03,   985.946E+03,   985.946E+03
C:/temp/Job-2.odb,Step-1,Increment      1: Step Time =    1.000,"P-2-1",           741,       15.0392,       120.155,            0.,NA,NA,"",   819.584E+03,   909.874E+03,   909.874E+03
C:/temp/Job-2.odb,Step-1,Increment      1: Step Time =    1.000,"P-2-1",           742,       184.341,       120.474,            0.,NA,NA,"",   978.134E+03,   995.594E+03,   995.594E+03
C:/temp/Job-2.odb,Step-1,Increment      1: Step Time =    1.000,"P-2-1",           743,       80.1152,       185.125,            0.,NA,NA,"",   982.360E+03,   984.719E+03,   984.719E+03
C:/temp/Job-2.odb,Step-1,Increment      1: Step Time =    1.000,"P-2-1",           744,       185.024,       79.7870,            0.,NA,NA,"",   977.832E+03,   995.926E+03,   995.926E+03
C:/temp/Job-2.odb,Step-1,Increment      1: Step Time =    1.000,"P-2-1",           745,       120.152,       184.917,            0.,NA,NA,"",   982.003E+03,   983.227E+03,   983.227E+03
C:/temp/Job-2.odb,Step-1,Increment      1: Step Time =    1.000,"P-2-1",           746,       14.7263,       90.4833,            0.,NA,NA,"",   800.539E+03,   892.125E+03,   892.125E+03
C:/temp/Job-2.odb,Step-1,Increment      1: Step Time =    1.000,"P-2-1",           747,       109.941,       14.8633,            0.,NA,NA,"",   973.439E+03,   976.501E+03,   976.501E+03
C:/temp/Job-2.odb,Step-1,Increment      1: Step Time =    1.000,"P-2-1",           748,       89.9656,       15.1087,            0.,NA,NA,"",   974.609E+03,   978.259E+03,   978.259E+03
C:/temp/Job-2.odb,Step-1,Increment      1: Step Time =    1.000,"P-2-1",           749,       15.2338,       110.140,            0.,NA,NA,"",   802.328E+03,   893.564E+03,   893.564E+03
C:/temp/Job-2.odb,Step-1,Increment      1: Step Time =    1.000,"P-2-1",           750,       184.460,       109.290,            0.,NA,NA,"",   968.165E+03,   990.304E+03,   990.304E+03
C:/temp/Job-2.odb,Step-1,Increment      1: Step Time =    1.000,"P-2-1",           751,       90.0216,       184.799,            0.,NA,NA,"",   974.684E+03,   978.339E+03,   978.339E+03
C:/temp/Job-2.odb,Step-1,Increment      1: Step Time =    1.000,"P-2-1",           752,       185.035,       89.6371,            0.,NA,NA,"",   969.256E+03,   991.474E+03,   991.474E+03
C:/temp/Job-2.odb,Step-1,Increment      1: Step Time =    1.000,"P-2-1",           753,       110.086,       184.824,            0.,NA,NA,"",   974.507E+03,   977.672E+03,   977.672E+03
C:/temp/Job-2.odb,Step-1,Increment      1: Step Time =    1.000,"P-2-1",           754,       100.011,       15.0563,            0.,NA,NA,"",   970.955E+03,   975.001E+03,   975.001E+03
C:/temp/Job-2.odb,Step-1,Increment      1: Step Time =    1.000,"P-2-1",           755,       15.0184,       100.160,            0.,NA,NA,"",   795.363E+03,   887.190E+03,   887.190E+03
C:/temp/Job-2.odb,Step-1,Increment      1: Step Time =    1.000,"P-2-1",           756,       185.035,       99.4292,            0.,NA,NA,"",   965.522E+03,   989.461E+03,   989.461E+03
C:/temp/Job-2.odb,Step-1,Increment      1: Step Time =    1.000,"P-2-1",           757,       99.9479,       184.719,            0.,NA,NA,"",   971.564E+03,   975.727E+03,   975.727E+03
C:/temp/Job-2.odb,Step-1,Increment      1: Step Time =    1.000,"P-2-1",           758,       14.1337,       65.4309,            0.,NA,NA,"",   854.654E+03,   943.629E+03,   943.629E+03
C:/temp/Job-2.odb,Step-1,Increment      1: Step Time =    1.000,"P-2-1",           759,       65.1758,       15.0074,            0.,NA,NA,"",   1.00204E+06,   1.00275E+06,   1.00275E+06
C:/temp/Job-2.odb,Step-1,Increment      1: Step Time =    1.000,"P-2-1",           760,       185.097,       65.1759,            0.,NA,NA,"",   992.070E+03,   1.00252E+06,   1.00252E+06
C:/temp/Job-2.odb,Step-1,Increment      1: Step Time =    1.000,"P-2-1",           761,       65.0895,       185.373,            0.,NA,NA,"",   1.00085E+06,   1.00152E+06,   1.00152E+06
C:/temp/Job-2.odb,Step-1,Increment      1: Step Time =    1.000,"P-2-1",           762,       14.7643,       134.798,            0.,NA,NA,"",   857.570E+03,   945.579E+03,   945.579E+03
C:/temp/Job-2.odb,Step-1,Increment      1: Step Time =    1.000,"P-2-1",           763,       135.274,       14.8552,            0.,NA,NA,"",   994.072E+03,   992.769E+03,   992.769E+03
C:/temp/Job-2.odb,Step-1,Increment      1: Step Time =    1.000,"P-2-1",           764,       185.696,       135.130,            0.,NA,NA,"",   991.806E+03,   1.00257E+06,   1.00257E+06
C:/temp/Job-2.odb,Step-1,Increment      1: Step Time =    1.000,"P-2-1",           765,       134.891,       185.091,            0.,NA,NA,"",   994.248E+03,   992.975E+03,   992.975E+03
C:/temp/Job-2.odb,Step-1,Increment      1: Step Time =    1.000,"P-2-1",           766,       15.2917,       167.929,            0.,NA,NA,"",   983.701E+03,   1.05577E+06,   1.05577E+06
C:/temp/Job-2.odb,Step-1,Increment      1: Step Time =    1.000,"P-2-1",           767,       168.242,       18.9782,            0.,NA,NA,"",   1.00639E+06,   1.00460E+06,   1.00460E+06
C:/temp/Job-2.odb,Step-1,Increment      1: Step Time =    1.000,"P-2-1",           768,       31.2852,       14.2108,            0.,NA,NA,"",   1.06506E+06,   1.07472E+06,   1.07472E+06
C:/temp/Job-2.odb,Step-1,Increment      1: Step Time =    1.000,"P-2-1",           769,       14.6280,       33.7947,            0.,NA,NA,"",   971.725E+03,   1.04747E+06,   1.04747E+06
C:/temp/Job-2.odb,Step-1,Increment      1: Step Time =    1.000,"P-2-1",           770,       168.442,       185.993,            0.,NA,NA,"",   1.00273E+06,   1.00167E+06,   1.00167E+06
C:/temp/Job-2.odb,Step-1,Increment      1: Step Time =    1.000,"P-2-1",           771,       180.942,       169.896,            0.,NA,NA,"",   1.00568E+06,   1.00527E+06,   1.00527E+06
C:/temp/Job-2.odb,Step-1,Increment      1: Step Time =    1.000,"P-2-1",           772,       30.9099,       184.970,            0.,NA,NA,"",   1.06640E+06,   1.07701E+06,   1.07701E+06
C:/temp/Job-2.odb,Step-1,Increment      1: Step Time =    1.000,"P-2-1",           773,       185.704,       31.9657,            0.,NA,NA,"",   1.00315E+06,   1.00360E+06,   1.00360E+06
C:/temp/Job-2.odb,Step-1,Increment      1: Step Time =    1.000,"P-2-1",           774,       14.6198,       75.0625,            0.,NA,NA,"",    829.82E+03,   919.945E+03,   919.945E+03
C:/temp/Job-2.odb,Step-1,Increment      1: Step Time =    1.000,"P-2-1",           775,       74.9570,       15.0563,            0.,NA,NA,"",   989.394E+03,   990.975E+03,   990.975E+03
C:/temp/Job-2.odb,Step-1,Increment      1: Step Time =    1.000,"P-2-1",           776,       14.9223,       125.099,            0.,NA,NA,"",   831.138E+03,   920.798E+03,   920.798E+03
C:/temp/Job-2.odb,Step-1,Increment      1: Step Time =    1.000,"P-2-1",           777,       124.919,       14.7147,            0.,NA,NA,"",   985.133E+03,   985.506E+03,   985.506E+03
C:/temp/Job-2.odb,Step-1,Increment      1: Step Time =    1.000,"P-2-1",           778,       185.004,       125.466,            0.,NA,NA,"",   983.160E+03,   998.587E+03,   998.587E+03
C:/temp/Job-2.odb,Step-1,Increment      1: Step Time =    1.000,"P-2-1",           779,       185.038,       74.8991,            0.,NA,NA,"",   982.811E+03,   998.383E+03,   998.383E+03
C:/temp/Job-2.odb,Step-1,Increment      1: Step Time =    1.000,"P-2-1",           780,       75.1407,       185.287,            0.,NA,NA,"",   987.694E+03,   989.325E+03,   989.325E+03
C:/temp/Job-2.odb,Step-1,Increment      1: Step Time =    1.000,"P-2-1",           781,       125.108,       184.958,            0.,NA,NA,"",   986.329E+03,   986.586E+03,   986.586E+03
C:/temp/Job-2.odb,Step-1,Increment      1: Step Time =    1.000,"P-2-1",           782,       84.9347,       15.1074,            0.,NA,NA,"",   978.618E+03,   981.635E+03,   981.635E+03
C:/temp/Job-2.odb,Step-1,Increment      1: Step Time =    1.000,"P-2-1",           783,       15.1813,       115.166,            0.,NA,NA,"",   809.808E+03,   900.621E+03,   900.621E+03
C:/temp/Job-2.odb,Step-1,Increment      1: Step Time =    1.000,"P-2-1",           784,       15.7475,       85.3213,            0.,NA,NA,"",   810.755E+03,   900.859E+03,   900.859E+03
C:/temp/Job-2.odb,Step-1,Increment      1: Step Time =    1.000,"P-2-1",           785,       114.890,       14.7388,            0.,NA,NA,"",   976.474E+03,   978.717E+03,   978.717E+03
C:/temp/Job-2.odb,Step-1,Increment      1: Step Time =    1.000,"P-2-1",           786,       185.024,       84.7103,            0.,NA,NA,"",   973.154E+03,   993.524E+03,   993.524E+03
C:/temp/Job-2.odb,Step-1,Increment      1: Step Time =    1.000,"P-2-1",           787,       115.129,       184.873,            0.,NA,NA,"",   977.939E+03,   980.160E+03,   980.160E+03
C:/temp/Job-2.odb,Step-1,Increment      1: Step Time =    1.000,"P-2-1",           788,       183.147,       114.857,            0.,NA,NA,"",   972.303E+03,   991.305E+03,   991.305E+03
C:/temp/Job-2.odb,Step-1,Increment      1: Step Time =    1.000,"P-2-1",           789,       85.0916,       184.937,            0.,NA,NA,"",   977.981E+03,   981.052E+03,   981.052E+03
C:/temp/Job-2.odb,Step-1,Increment      1: Step Time =    1.000,"P-2-1",           790,       89.7507,       126.011,            0.,NA,NA,"",   1.22522E+06,   1.26858E+06,   1.26858E+06
C:/temp/Job-2.odb,Step-1,Increment      1: Step Time =    1.000,"P-2-1",           791,       126.941,       110.457,            0.,NA,NA,"",   909.526E+03,   846.552E+03,   846.552E+03
C:/temp/Job-2.odb,Step-1,Increment      1: Step Time =    1.000,"P-2-1",           792,       73.6115,       89.0230,            0.,NA,NA,"",   891.824E+03,   850.740E+03,   850.740E+03
C:/temp/Job-2.odb,Step-1,Increment      1: Step Time =    1.000,"P-2-1",           793,       110.470,       72.9043,            0.,NA,NA,"",   1.21426E+06,   1.25104E+06,   1.25104E+06
C:/temp/Job-2.odb,Step-1,Increment      1: Step Time =    1.000,"P-2-1",           794,       94.9954,       15.0955,            0.,NA,NA,"",   971.989E+03,   976.013E+03,   976.013E+03
C:/temp/Job-2.odb,Step-1,Increment      1: Step Time =    1.000,"P-2-1",           795,       15.1952,       105.125,            0.,NA,NA,"",   797.437E+03,   888.994E+03,   888.994E+03
C:/temp/Job-2.odb,Step-1,Increment      1: Step Time =    1.000,"P-2-1",           796,       185.054,       94.5383,            0.,NA,NA,"",   966.638E+03,   990.084E+03,   990.084E+03
C:/temp/Job-2.odb,Step-1,Increment      1: Step Time =    1.000,"P-2-1",           797,       105.017,       184.764,            0.,NA,NA,"",   972.227E+03,   976.093E+03,   976.093E+03
C:/temp/Job-2.odb,Step-1,Increment      1: Step Time =    1.000,"P-2-1",           798,       104.980,       14.9790,            0.,NA,NA,"",   971.542E+03,   975.235E+03,   975.235E+03
C:/temp/Job-2.odb,Step-1,Increment      1: Step Time =    1.000,"P-2-1",           799,       14.7783,       95.3023,            0.,NA,NA,"",   796.050E+03,   887.995E+03,   887.995E+03
C:/temp/Job-2.odb,Step-1,Increment      1: Step Time =    1.000,"P-2-1",           800,       184.903,       104.286,            0.,NA,NA,"",   966.040E+03,   989.607E+03,   989.607E+03
C:/temp/Job-2.odb,Step-1,Increment      1: Step Time =    1.000,"P-2-1",           801,       94.9643,       184.719,            0.,NA,NA,"",   972.464E+03,   976.526E+03,   976.526E+03
C:/temp/Job-2.odb,Step-1,Increment      1: Step Time =    1.000,"P-2-1",           802,       121.756,       100.019,            0.,NA,NA,"",   472.647E+03,   420.158E+03,   420.158E+03
C:/temp/Job-2.odb,Step-1,Increment      1: Step Time =    1.000,"P-2-1",           803,       99.7928,       120.917,            0.,NA,NA,"",   1.31236E+06,   1.44958E+06,   1.44958E+06
C:/temp/Job-2.odb,Step-1,Increment      1: Step Time =    1.000,"P-2-1",           804,       78.7856,       99.4147,            0.,NA,NA,"",   430.152E+03,   391.978E+03,   391.978E+03
C:/temp/Job-2.odb,Step-1,Increment      1: Step Time =    1.000,"P-2-1",           805,       100.051,       78.1957,            0.,NA,NA,"",   1.27099E+06,   1.40282E+06,   1.40282E+06
C:/temp/Job-2.odb,Step-1,Increment      1: Step Time =    1.000,"P-2-1",           806,       94.5991,       78.2686,            0.,NA,NA,"",   1.30899E+06,   1.40055E+06,   1.40055E+06
C:/temp/Job-2.odb,Step-1,Increment      1: Step Time =    1.000,"P-2-1",           807,       78.8700,       104.626,            0.,NA,NA,"",   597.505E+03,   528.479E+03,   528.479E+03
C:/temp/Job-2.odb,Step-1,Increment      1: Step Time =    1.000,"P-2-1",           808,       104.660,       120.781,            0.,NA,NA,"",   1.33933E+06,   1.44325E+06,   1.44325E+06
C:/temp/Job-2.odb,Step-1,Increment      1: Step Time =    1.000,"P-2-1",           809,       121.687,       94.5425,            0.,NA,NA,"",   705.387E+03,   611.812E+03,   611.812E+03
C:/temp/Job-2.odb,Step-1,Increment      1: Step Time =    1.000,"P-2-1",           810,       90.8248,       130.827,            0.,NA,NA,"",   1.13939E+06,   1.19183E+06,   1.19183E+06
C:/temp/Job-2.odb,Step-1,Increment      1: Step Time =    1.000,"P-2-1",           811,       132.047,       110.308,            0.,NA,NA,"",   872.623E+03,   844.058E+03,   844.058E+03
C:/temp/Job-2.odb,Step-1,Increment      1: Step Time =    1.000,"P-2-1",           812,       68.5098,       89.0996,            0.,NA,NA,"",   843.012E+03,   841.134E+03,   841.134E+03
C:/temp/Job-2.odb,Step-1,Increment      1: Step Time =    1.000,"P-2-1",           813,       110.320,       67.6427,            0.,NA,NA,"",   1.13834E+06,   1.17941E+06,   1.17941E+06
C:/temp/Job-2.odb,Step-1,Increment      1: Step Time =    1.000,"P-2-1",           814,       109.963,       19.8416,            0.,NA,NA,"",   985.680E+03,   990.742E+03,   990.742E+03
C:/temp/Job-2.odb,Step-1,Increment      1: Step Time =    1.000,"P-2-1",           815,       18.8476,       90.9823,            0.,NA,NA,"",   807.385E+03,   895.012E+03,   895.012E+03
C:/temp/Job-2.odb,Step-1,Increment      1: Step Time =    1.000,"P-2-1",           816,       179.767,       108.116,            0.,NA,NA,"",   965.325E+03,   983.890E+03,   983.890E+03
C:/temp/Job-2.odb,Step-1,Increment      1: Step Time =    1.000,"P-2-1",           817,       90.0230,       179.504,            0.,NA,NA,"",   988.734E+03,   994.932E+03,   994.932E+03
C:/temp/Job-2.odb,Step-1,Increment      1: Step Time =    1.000,"P-2-1",           818,       100.026,       20.1362,            0.,NA,NA,"",   983.414E+03,   990.197E+03,   990.197E+03
C:/temp/Job-2.odb,Step-1,Increment      1: Step Time =    1.000,"P-2-1",           819,       20.1702,       99.9651,            0.,NA,NA,"",   802.784E+03,   890.124E+03,   890.124E+03
C:/temp/Job-2.odb,Step-1,Increment      1: Step Time =    1.000,"P-2-1",           820,       180.123,       99.1398,            0.,NA,NA,"",   962.547E+03,   982.555E+03,   982.555E+03
C:/temp/Job-2.odb,Step-1,Increment      1: Step Time =    1.000,"P-2-1",           821,       99.9535,       179.534,            0.,NA,NA,"",   984.161E+03,   991.188E+03,   991.188E+03
C:/temp/Job-2.odb,Step-1,Increment      1: Step Time =    1.000,"P-2-1",           822,       18.7287,       60.8157,            0.,NA,NA,"",   885.638E+03,   966.370E+03,   966.370E+03
C:/temp/Job-2.odb,Step-1,Increment      1: Step Time =    1.000,"P-2-1",           823,       60.4125,       20.1331,            0.,NA,NA,"",   1.02368E+06,   1.02518E+06,   1.02518E+06
C:/temp/Job-2.odb,Step-1,Increment      1: Step Time =    1.000,"P-2-1",           824,       60.0850,       180.202,            0.,NA,NA,"",   1.02303E+06,   1.02440E+06,   1.02440E+06
C:/temp/Job-2.odb,Step-1,Increment      1: Step Time =    1.000,"P-2-1",           825,       180.042,       60.4686,            0.,NA,NA,"",   1.00187E+06,   1.00658E+06,   1.00658E+06
C:/temp/Job-2.odb,Step-1,Increment      1: Step Time =    1.000,"P-2-1",           826,       140.418,       18.3089,            0.,NA,NA,"",   1.00501E+06,   1.00238E+06,   1.00238E+06
C:/temp/Job-2.odb,Step-1,Increment      1: Step Time =    1.000,"P-2-1",           827,       19.6697,       139.446,            0.,NA,NA,"",   889.706E+03,   968.749E+03,   968.749E+03
C:/temp/Job-2.odb,Step-1,Increment      1: Step Time =    1.000,"P-2-1",           828,       180.936,       140.039,            0.,NA,NA,"",   1.00130E+06,   1.00643E+06,   1.00643E+06
C:/temp/Job-2.odb,Step-1,Increment      1: Step Time =    1.000,"P-2-1",           829,       139.730,       180.176,            0.,NA,NA,"",   1.00804E+06,   1.00515E+06,   1.00515E+06
C:/temp/Job-2.odb,Step-1,Increment      1: Step Time =    1.000,"P-2-1",           830,       14.8663,       173.399,            0.,NA,NA,"",   1.01501E+06,   1.08202E+06,   1.08202E+06
C:/temp/Job-2.odb,Step-1,Increment      1: Step Time =    1.000,"P-2-1",           831,       17.6101,       163.670,            0.,NA,NA,"",   973.259E+03,   1.04267E+06,   1.04267E+06
C:/temp/Job-2.odb,Step-1,Increment      1: Step Time =    1.000,"P-2-1",           832,       163.434,       19.2230,            0.,NA,NA,"",   1.00793E+06,   1.00555E+06,   1.00555E+06
C:/temp/Job-2.odb,Step-1,Increment      1: Step Time =    1.000,"P-2-1",           833,       26.2751,       14.5983,            0.,NA,NA,"",   1.08109E+06,   1.09641E+06,   1.09641E+06
C:/temp/Job-2.odb,Step-1,Increment      1: Step Time =    1.000,"P-2-1",           834,       16.0358,       29.2840,            0.,NA,NA,"",   1.00366E+06,   1.07064E+06,   1.07064E+06
C:/temp/Job-2.odb,Step-1,Increment      1: Step Time =    1.000,"P-2-1",           835,       36.5085,       18.3953,            0.,NA,NA,"",   1.05610E+06,   1.06611E+06,   1.06611E+06
C:/temp/Job-2.odb,Step-1,Increment      1: Step Time =    1.000,"P-2-1",           836,       19.0080,       35.8032,            0.,NA,NA,"",   982.513E+03,   1.04806E+06,   1.04806E+06
C:/temp/Job-2.odb,Step-1,Increment      1: Step Time =    1.000,"P-2-1",           837,       163.786,       181.321,            0.,NA,NA,"",   1.00729E+06,   1.00505E+06,   1.00505E+06
C:/temp/Job-2.odb,Step-1,Increment      1: Step Time =    1.000,"P-2-1",           838,       179.913,       165.694,            0.,NA,NA,"",   1.00751E+06,   1.00698E+06,   1.00698E+06
C:/temp/Job-2.odb,Step-1,Increment      1: Step Time =    1.000,"P-2-1",           839,       173.243,       185.588,            0.,NA,NA,"",   1.00236E+06,   1.00163E+06,   1.00163E+06
C:/temp/Job-2.odb,Step-1,Increment      1: Step Time =    1.000,"P-2-1",           840,       181.284,       36.9681,            0.,NA,NA,"",   1.00716E+06,   1.00703E+06,   1.00703E+06
C:/temp/Job-2.odb,Step-1,Increment      1: Step Time =    1.000,"P-2-1",           841,       35.3207,       180.055,            0.,NA,NA,"",   1.05756E+06,   1.07016E+06,   1.07016E+06
C:/temp/Job-2.odb,Step-1,Increment      1: Step Time =    1.000,"P-2-1",           842,       26.2584,       184.621,            0.,NA,NA,"",   1.07914E+06,   1.09620E+06,   1.09620E+06
C:/temp/Job-2.odb,Step-1,Increment      1: Step Time =    1.000,"P-2-1",           843,       185.083,       27.1894,            0.,NA,NA,"",   1.00292E+06,   1.00297E+06,   1.00297E+06
C:/temp/Job-2.odb,Step-1,Increment      1: Step Time =    1.000,"P-2-1",           844,       129.909,       19.7798,            0.,NA,NA,"",   1.00173E+06,   1.00089E+06,   1.00089E+06
C:/temp/Job-2.odb,Step-1,Increment      1: Step Time =    1.000,"P-2-1",           845,       19.8664,       129.994,            0.,NA,NA,"",   859.496E+03,   941.672E+03,   941.672E+03
C:/temp/Job-2.odb,Step-1,Increment      1: Step Time =    1.000,"P-2-1",           846,       70.2703,       180.620,            0.,NA,NA,"",   1.00872E+06,   1.01051E+06,   1.01051E+06
C:/temp/Job-2.odb,Step-1,Increment      1: Step Time =    1.000,"P-2-1",           847,       179.940,       70.0860,            0.,NA,NA,"",   992.111E+03,   1.00107E+06,   1.00107E+06
C:/temp/Job-2.odb,Step-1,Increment      1: Step Time =    1.000,"P-2-1",           848,       19.2354,       70.3142,            0.,NA,NA,"",   856.068E+03,   939.284E+03,   939.284E+03
C:/temp/Job-2.odb,Step-1,Increment      1: Step Time =    1.000,"P-2-1",           849,       70.1194,       20.2181,            0.,NA,NA,"",   1.01164E+06,   1.01348E+06,   1.01348E+06
C:/temp/Job-2.odb,Step-1,Increment      1: Step Time =    1.000,"P-2-1",           850,       180.592,       130.567,            0.,NA,NA,"",   992.205E+03,   1.00143E+06,   1.00143E+06
C:/temp/Job-2.odb,Step-1,Increment      1: Step Time =    1.000,"P-2-1",           851,       130.025,       179.873,            0.,NA,NA,"",   1.00284E+06,   1.00183E+06,   1.00183E+06
C:/temp/Job-2.odb,Step-1,Increment      1: Step Time =    1.000,"P-2-1",           852,       20.5940,       83.3673,            0.,NA,NA,"",   823.416E+03,   908.598E+03,   908.598E+03
C:/temp/Job-2.odb,Step-1,Increment      1: Step Time =    1.000,"P-2-1",           853,       119.756,       19.4478,            0.,NA,NA,"",   992.212E+03,   994.365E+03,   994.365E+03
C:/temp/Job-2.odb,Step-1,Increment      1: Step Time =    1.000,"P-2-1",           854,       178.049,       117.433,            0.,NA,NA,"",   975.047E+03,   988.837E+03,   988.837E+03
C:/temp/Job-2.odb,Step-1,Increment      1: Step Time =    1.000,"P-2-1",           855,       80.1485,       180.131,            0.,NA,NA,"",   997.189E+03,   1.00117E+06,   1.00117E+06
C:/temp/Job-2.odb,Step-1,Increment      1: Step Time =    1.000,"P-2-1",           856,       125.058,       91.4388,            0.,NA,NA,"",   834.030E+03,   761.929E+03,   761.929E+03
C:/temp/Job-2.odb,Step-1,Increment      1: Step Time =    1.000,"P-2-1",           857,       91.5072,       74.8997,            0.,NA,NA,"",   1.24147E+06,   1.30287E+06,   1.30287E+06
C:/temp/Job-2.odb,Step-1,Increment      1: Step Time =    1.000,"P-2-1",           858,       108.934,       124.585,            0.,NA,NA,"",   1.25740E+06,   1.31139E+06,   1.31139E+06
C:/temp/Job-2.odb,Step-1,Increment      1: Step Time =    1.000,"P-2-1",           859,       73.9039,       108.943,            0.,NA,NA,"",   810.495E+03,   777.418E+03,   777.418E+03
C:/temp/Job-2.odb,Step-1,Increment      1: Step Time =    1.000,"P-2-1",           860,       73.8410,       99.0934,            0.,NA,NA,"",   524.363E+03,   548.417E+03,   548.417E+03
C:/temp/Job-2.odb,Step-1,Increment      1: Step Time =    1.000,"P-2-1",           861,       99.9252,       72.8388,            0.,NA,NA,"",   1.13146E+06,   1.23284E+06,   1.23284E+06
C:/temp/Job-2.odb,Step-1,Increment      1: Step Time =    1.000,"P-2-1",           862,       127.076,       99.8909,            0.,NA,NA,"",   579.886E+03,   584.421E+03,   584.421E+03
C:/temp/Job-2.odb,Step-1,Increment      1: Step Time =    1.000,"P-2-1",           863,       100.001,       125.764,            0.,NA,NA,"",   1.15506E+06,   1.26380E+06,   1.26380E+06
C:/temp/Job-2.odb,Step-1,Increment      1: Step Time =    1.000,"P-2-1",           864,       90.0287,       25.3332,            0.,NA,NA,"",   999.839E+03,   1.00885E+06,   1.00885E+06
C:/temp/Job-2.odb,Step-1,Increment      1: Step Time =    1.000,"P-2-1",           865,       26.0504,       110.319,            0.,NA,NA,"",   819.987E+03,   900.335E+03,   900.335E+03
C:/temp/Job-2.odb,Step-1,Increment      1: Step Time =    1.000,"P-2-1",           866,       174.941,       89.4658,            0.,NA,NA,"",   964.138E+03,   978.763E+03,   978.763E+03
C:/temp/Job-2.odb,Step-1,Increment      1: Step Time =    1.000,"P-2-1",           867,       110.198,       174.839,            0.,NA,NA,"",   997.659E+03,   1.00506E+06,   1.00506E+06
C:/temp/Job-2.odb,Step-1,Increment      1: Step Time =    1.000,"P-2-1",           868,       25.1512,       79.2794,            0.,NA,NA,"",   844.596E+03,   922.876E+03,   922.876E+03
C:/temp/Job-2.odb,Step-1,Increment      1: Step Time =    1.000,"P-2-1",           869,       119.656,       24.2061,            0.,NA,NA,"",   1.00330E+06,   1.00641E+06,   1.00641E+06
C:/temp/Job-2.odb,Step-1,Increment      1: Step Time =    1.000,"P-2-1",           870,       79.9410,       25.3355,            0.,NA,NA,"",   1.01258E+06,   1.01837E+06,   1.01837E+06
C:/temp/Job-2.odb,Step-1,Increment      1: Step Time =    1.000,"P-2-1",           871,       25.3951,       120.629,            0.,NA,NA,"",   846.162E+03,   923.875E+03,   923.875E+03
C:/temp/Job-2.odb,Step-1,Increment      1: Step Time =    1.000,"P-2-1",           872,       174.446,       122.536,            0.,NA,NA,"",   984.355E+03,   992.726E+03,   992.726E+03
C:/temp/Job-2.odb,Step-1,Increment      1: Step Time =    1.000,"P-2-1",           873,       80.0289,       175.107,            0.,NA,NA,"",   1.01081E+06,   1.01665E+06,   1.01665E+06
C:/temp/Job-2.odb,Step-1,Increment      1: Step Time =    1.000,"P-2-1",           874,       174.751,       79.7648,            0.,NA,NA,"",   980.548E+03,   990.325E+03,   990.325E+03
C:/temp/Job-2.odb,Step-1,Increment      1: Step Time =    1.000,"P-2-1",           875,       120.145,       174.742,            0.,NA,NA,"",   1.00676E+06,   1.00971E+06,   1.00971E+06
C:/temp/Job-2.odb,Step-1,Increment      1: Step Time =    1.000,"P-2-1",           876,       175.154,       98.9625,            0.,NA,NA,"",   956.797E+03,   973.722E+03,   973.722E+03
C:/temp/Job-2.odb,Step-1,Increment      1: Step Time =    1.000,"P-2-1",           877,       100.099,       174.336,            0.,NA,NA,"",   994.736E+03,   1.00535E+06,   1.00535E+06
C:/temp/Job-2.odb,Step-1,Increment      1: Step Time =    1.000,"P-2-1",           878,       100.017,       25.2519,            0.,NA,NA,"",   993.961E+03,   1.00424E+06,   1.00424E+06
C:/temp/Job-2.odb,Step-1,Increment      1: Step Time =    1.000,"P-2-1",           879,       25.3175,       99.5173,            0.,NA,NA,"",   808.967E+03,   891.446E+03,   891.446E+03
C:/temp/Job-2.odb,Step-1,Increment      1: Step Time =    1.000,"P-2-1",           880,       23.5984,       56.7875,            0.,NA,NA,"",   918.697E+03,   988.939E+03,   988.939E+03
C:/temp/Job-2.odb,Step-1,Increment      1: Step Time =    1.000,"P-2-1",           881,       60.5277,       25.3193,            0.,NA,NA,"",   1.03663E+06,   1.03907E+06,   1.03907E+06
C:/temp/Job-2.odb,Step-1,Increment      1: Step Time =    1.000,"P-2-1",           882,       140.184,       24.1279,            0.,NA,NA,"",   1.01797E+06,   1.01373E+06,   1.01373E+06
C:/temp/Job-2.odb,Step-1,Increment      1: Step Time =    1.000,"P-2-1",           883,       24.6037,       139.310,            0.,NA,NA,"",   907.794E+03,   978.351E+03,   978.351E+03
C:/temp/Job-2.odb,Step-1,Increment      1: Step Time =    1.000,"P-2-1",           884,       175.899,       139.923,            0.,NA,NA,"",   1.00815E+06,   1.00968E+06,   1.00968E+06
C:/temp/Job-2.odb,Step-1,Increment      1: Step Time =    1.000,"P-2-1",           885,       139.858,       175.100,            0.,NA,NA,"",   1.01960E+06,   1.01522E+06,   1.01522E+06
C:/temp/Job-2.odb,Step-1,Increment      1: Step Time =    1.000,"P-2-1",           886,       61.0044,       175.272,            0.,NA,NA,"",   1.03434E+06,   1.03652E+06,   1.03652E+06
C:/temp/Job-2.odb,Step-1,Increment      1: Step Time =    1.000,"P-2-1",           887,       174.867,       60.6208,            0.,NA,NA,"",   1.00916E+06,   1.01002E+06,   1.01002E+06
C:/temp/Job-2.odb,Step-1,Increment      1: Step Time =    1.000,"P-2-1",           888,       70.2520,       25.5368,            0.,NA,NA,"",   1.02597E+06,   1.02882E+06,   1.02882E+06
C:/temp/Job-2.odb,Step-1,Increment      1: Step Time =    1.000,"P-2-1",           889,       130.008,       174.625,            0.,NA,NA,"",   1.01590E+06,   1.01426E+06,   1.01426E+06
C:/temp/Job-2.odb,Step-1,Increment      1: Step Time =    1.000,"P-2-1",           890,       25.0946,       130.110,            0.,NA,NA,"",   876.286E+03,   950.731E+03,   950.731E+03
C:/temp/Job-2.odb,Step-1,Increment      1: Step Time =    1.000,"P-2-1",           891,       174.726,       70.1942,            0.,NA,NA,"",   996.975E+03,   1.00175E+06,   1.00175E+06
C:/temp/Job-2.odb,Step-1,Increment      1: Step Time =    1.000,"P-2-1",           892,       87.9039,       77.6912,            0.,NA,NA,"",   1.33611E+06,   1.34456E+06,   1.34456E+06
C:/temp/Job-2.odb,Step-1,Increment      1: Step Time =    1.000,"P-2-1",           893,       122.248,       87.7896,            0.,NA,NA,"",   1.05262E+06,   930.495E+03,   930.495E+03
C:/temp/Job-2.odb,Step-1,Increment      1: Step Time =    1.000,"P-2-1",           894,       112.286,       122.446,            0.,NA,NA,"",   1.34223E+06,   1.34063E+06,   1.34063E+06
C:/temp/Job-2.odb,Step-1,Increment      1: Step Time =    1.000,"P-2-1",           895,       78.9515,       114.476,            0.,NA,NA,"",   1.13164E+06,   1.03416E+06,   1.03416E+06
C:/temp/Job-2.odb,Step-1,Increment      1: Step Time =    1.000,"P-2-1",           896,       128.996,       89.2686,            0.,NA,NA,"",   897.818E+03,   845.879E+03,   845.879E+03
C:/temp/Job-2.odb,Step-1,Increment      1: Step Time =    1.000,"P-2-1",           897,       89.3313,       70.9536,            0.,NA,NA,"",   1.18918E+06,   1.23282E+06,   1.23282E+06
C:/temp/Job-2.odb,Step-1,Increment      1: Step Time =    1.000,"P-2-1",           898,       110.416,       128.739,            0.,NA,NA,"",   1.19810E+06,   1.23844E+06,   1.23844E+06
C:/temp/Job-2.odb,Step-1,Increment      1: Step Time =    1.000,"P-2-1",           899,       68.8840,       108.413,            0.,NA,NA,"",   771.086E+03,   779.895E+03,   779.895E+03
C:/temp/Job-2.odb,Step-1,Increment      1: Step Time =    1.000,"P-2-1",           900,       36.3730,       21.7678,            0.,NA,NA,"",   1.05500E+06,   1.06841E+06,   1.06841E+06
C:/temp/Job-2.odb,Step-1,Increment      1: Step Time =    1.000,"P-2-1",           901,       28.7204,       35.7376,            0.,NA,NA,"",   1.01374E+06,   1.05668E+06,   1.05668E+06
C:/temp/Job-2.odb,Step-1,Increment      1: Step Time =    1.000,"P-2-1",           902,       163.298,       23.7654,            0.,NA,NA,"",   1.01266E+06,   1.00932E+06,   1.00932E+06
C:/temp/Job-2.odb,Step-1,Increment      1: Step Time =    1.000,"P-2-1",           903,       176.849,       37.0983,            0.,NA,NA,"",   1.01146E+06,   1.00995E+06,   1.00995E+06
C:/temp/Job-2.odb,Step-1,Increment      1: Step Time =    1.000,"P-2-1",           904,       35.3888,       175.436,            0.,NA,NA,"",   1.05297E+06,   1.07120E+06,   1.07120E+06
C:/temp/Job-2.odb,Step-1,Increment      1: Step Time =    1.000,"P-2-1",           905,       164.435,       176.275,            0.,NA,NA,"",   1.01221E+06,   1.00904E+06,   1.00904E+06
C:/temp/Job-2.odb,Step-1,Increment      1: Step Time =    1.000,"P-2-1",           906,       175.521,       166.740,            0.,NA,NA,"",   1.01110E+06,   1.00930E+06,   1.00930E+06
C:/temp/Job-2.odb,Step-1,Increment      1: Step Time =    1.000,"P-2-1",           907,       95.4945,       130.960,            0.,NA,NA,"",   1.10364E+06,   1.18073E+06,   1.18073E+06
C:/temp/Job-2.odb,Step-1,Increment      1: Step Time =    1.000,"P-2-1",           908,       132.382,       105.165,            0.,NA,NA,"",   752.254E+03,   750.293E+03,   750.293E+03
C:/temp/Job-2.odb,Step-1,Increment      1: Step Time =    1.000,"P-2-1",           909,       105.138,       67.3405,            0.,NA,NA,"",   1.09608E+06,   1.16321E+06,   1.16321E+06
C:/temp/Job-2.odb,Step-1,Increment      1: Step Time =    1.000,"P-2-1",           910,       68.5528,       93.9768,            0.,NA,NA,"",   711.142E+03,   733.335E+03,   733.335E+03
C:/temp/Job-2.odb,Step-1,Increment      1: Step Time =    1.000,"P-2-1",           911,       185.230,       55.5192,            0.,NA,NA,"",   998.803E+03,   1.00484E+06,   1.00484E+06
C:/temp/Job-2.odb,Step-1,Increment      1: Step Time =    1.000,"P-2-1",           912,       55.2723,       185.598,            0.,NA,NA,"",   1.01412E+06,   1.01502E+06,   1.01502E+06
C:/temp/Job-2.odb,Step-1,Increment      1: Step Time =    1.000,"P-2-1",           913,       145.205,       14.5254,            0.,NA,NA,"",   999.332E+03,   997.347E+03,   997.347E+03
C:/temp/Job-2.odb,Step-1,Increment      1: Step Time =    1.000,"P-2-1",           914,       14.7081,       144.524,            0.,NA,NA,"",   887.818E+03,   973.443E+03,   973.443E+03
C:/temp/Job-2.odb,Step-1,Increment      1: Step Time =    1.000,"P-2-1",           915,       14.0976,       55.2949,            0.,NA,NA,"",   885.700E+03,   972.452E+03,   972.452E+03
C:/temp/Job-2.odb,Step-1,Increment      1: Step Time =    1.000,"P-2-1",           916,       55.4353,       14.9302,            0.,NA,NA,"",   1.01572E+06,   1.01679E+06,   1.01679E+06
C:/temp/Job-2.odb,Step-1,Increment      1: Step Time =    1.000,"P-2-1",           917,       186.238,       144.435,            0.,NA,NA,"",   997.543E+03,   1.00424E+06,   1.00424E+06
C:/temp/Job-2.odb,Step-1,Increment      1: Step Time =    1.000,"P-2-1",           918,       144.580,       185.335,            0.,NA,NA,"",   999.816E+03,   997.807E+03,   997.807E+03
C:/temp/Job-2.odb,Step-1,Increment      1: Step Time =    1.000,"P-2-1",           919,       20.2060,       168.774,            0.,NA,NA,"",   1.00854E+06,   1.06666E+06,   1.06666E+06
C:/temp/Job-2.odb,Step-1,Increment      1: Step Time =    1.000,"P-2-1",           920,       172.928,       18.9934,            0.,NA,NA,"",   1.00498E+06,   1.00374E+06,   1.00374E+06
C:/temp/Job-2.odb,Step-1,Increment      1: Step Time =    1.000,"P-2-1",           921,       174.182,       9.88765,            0.,NA,NA,"",   1.00030E+06,   999.929E+03,   999.929E+03
C:/temp/Job-2.odb,Step-1,Increment      1: Step Time =    1.000,"P-2-1",           922,       14.1474,       158.956,            0.,NA,NA,"",   937.143E+03,   1.01860E+06,   1.01860E+06
C:/temp/Job-2.odb,Step-1,Increment      1: Step Time =    1.000,"P-2-1",           923,       159.067,       14.8835,            0.,NA,NA,"",   1.00326E+06,   1.00150E+06,   1.00150E+06
C:/temp/Job-2.odb,Step-1,Increment      1: Step Time =    1.000,"P-2-1",           924,       27.1810,       19.2355,            0.,NA,NA,"",   1.07033E+06,   1.09218E+06,   1.09218E+06
C:/temp/Job-2.odb,Step-1,Increment      1: Step Time =    1.000,"P-2-1",           925,       22.3054,       28.0503,            0.,NA,NA,"",   1.03033E+06,   1.07789E+06,   1.07789E+06
C:/temp/Job-2.odb,Step-1,Increment      1: Step Time =    1.000,"P-2-1",           926,       11.0232,       27.0762,            0.,NA,NA,"",   991.622E+03,   1.07157E+06,   1.07157E+06
C:/temp/Job-2.odb,Step-1,Increment      1: Step Time =    1.000,"P-2-1",           927,       40.9495,       14.3893,            0.,NA,NA,"",   1.03991E+06,   1.04417E+06,   1.04417E+06
C:/temp/Job-2.odb,Step-1,Increment      1: Step Time =    1.000,"P-2-1",           928,       17.7880,       40.1386,            0.,NA,NA,"",   957.534E+03,   1.02983E+06,   1.02983E+06
C:/temp/Job-2.odb,Step-1,Increment      1: Step Time =    1.000,"P-2-1",           929,       159.142,       185.730,            0.,NA,NA,"",   1.00304E+06,   1.00132E+06,   1.00132E+06
C:/temp/Job-2.odb,Step-1,Increment      1: Step Time =    1.000,"P-2-1",           930,       183.051,       160.225,            0.,NA,NA,"",   1.00541E+06,   1.00624E+06,   1.00624E+06
C:/temp/Job-2.odb,Step-1,Increment      1: Step Time =    1.000,"P-2-1",           931,       181.269,       174.163,            0.,NA,NA,"",   1.00433E+06,   1.00392E+06,   1.00392E+06
C:/temp/Job-2.odb,Step-1,Increment      1: Step Time =    1.000,"P-2-1",           932,       175.258,       180.306,            0.,NA,NA,"",   1.00434E+06,   1.00342E+06,   1.00342E+06
C:/temp/Job-2.odb,Step-1,Increment      1: Step Time =    1.000,"P-2-1",           933,       190.162,       174.633,            0.,NA,NA,"",   1.00103E+06,   1.00130E+06,   1.00130E+06
C:/temp/Job-2.odb,Step-1,Increment      1: Step Time =    1.000,"P-2-1",           934,       27.5654,       180.253,            0.,NA,NA,"",   1.06631E+06,   1.08962E+06,   1.08962E+06
C:/temp/Job-2.odb,Step-1,Increment      1: Step Time =    1.000,"P-2-1",           935,       179.296,       25.4894,            0.,NA,NA,"",   1.00515E+06,   1.00444E+06,   1.00444E+06
C:/temp/Job-2.odb,Step-1,Increment      1: Step Time =    1.000,"P-2-1",           936,       25.5951,       189.582,            0.,NA,NA,"",   1.08158E+06,   1.09091E+06,   1.09091E+06
C:/temp/Job-2.odb,Step-1,Increment      1: Step Time =    1.000,"P-2-1",           937,       185.701,       41.2288,            0.,NA,NA,"",   1.00303E+06,   1.00484E+06,   1.00484E+06
C:/temp/Job-2.odb,Step-1,Increment      1: Step Time =    1.000,"P-2-1",           938,       39.3392,       179.668,            0.,NA,NA,"",   1.05165E+06,   1.06139E+06,   1.06139E+06
C:/temp/Job-2.odb,Step-1,Increment      1: Step Time =    1.000,"P-2-1",           939,       120.169,       179.836,            0.,NA,NA,"",   994.623E+03,   996.639E+03,   996.639E+03
C:/temp/Job-2.odb,Step-1,Increment      1: Step Time =    1.000,"P-2-1",           940,       79.9220,       20.2022,            0.,NA,NA,"",   998.763E+03,   1.00266E+06,   1.00266E+06
C:/temp/Job-2.odb,Step-1,Increment      1: Step Time =    1.000,"P-2-1",           941,       179.933,       79.7642,            0.,NA,NA,"",   979.497E+03,   993.321E+03,   993.321E+03
C:/temp/Job-2.odb,Step-1,Increment      1: Step Time =    1.000,"P-2-1",           942,       20.1984,       120.320,            0.,NA,NA,"",   832.186E+03,   916.680E+03,   916.680E+03
C:/temp/Job-2.odb,Step-1,Increment      1: Step Time =    1.000,"P-2-1",           943,       180.013,       89.5250,            0.,NA,NA,"",   967.747E+03,   985.837E+03,   985.837E+03
C:/temp/Job-2.odb,Step-1,Increment      1: Step Time =    1.000,"P-2-1",           944,       110.132,       179.799,            0.,NA,NA,"",   986.886E+03,   992.018E+03,   992.018E+03
C:/temp/Job-2.odb,Step-1,Increment      1: Step Time =    1.000,"P-2-1",           945,       89.9855,       20.1997,            0.,NA,NA,"",   988.307E+03,   994.360E+03,   994.360E+03
C:/temp/Job-2.odb,Step-1,Increment      1: Step Time =    1.000,"P-2-1",           946,       20.5689,       110.210,            0.,NA,NA,"",    811.34E+03,   897.617E+03,   897.617E+03
C:/temp/Job-2.odb,Step-1,Increment      1: Step Time =    1.000,"P-2-1",           947,       105.588,       130.234,            0.,NA,NA,"",   1.12343E+06,   1.19699E+06,   1.19699E+06
C:/temp/Job-2.odb,Step-1,Increment      1: Step Time =    1.000,"P-2-1",           948,       131.127,       93.6997,            0.,NA,NA,"",   752.367E+03,   742.368E+03,   742.368E+03
C:/temp/Job-2.odb,Step-1,Increment      1: Step Time =    1.000,"P-2-1",           949,       93.7219,       68.8047,            0.,NA,NA,"",   1.11663E+06,   1.18798E+06,   1.18798E+06
C:/temp/Job-2.odb,Step-1,Increment      1: Step Time =    1.000,"P-2-1",           950,       68.7235,       103.624,            0.,NA,NA,"",   654.483E+03,   686.577E+03,   686.577E+03
C:/temp/Job-2.odb,Step-1,Increment      1: Step Time =    1.000,"P-2-1",           951,       9.27596,       55.2297,            0.,NA,NA,"",   867.399E+03,   961.822E+03,   961.822E+03
C:/temp/Job-2.odb,Step-1,Increment      1: Step Time =    1.000,"P-2-1",           952,       55.3953,       190.616,            0.,NA,NA,"",   996.691E+03,    996.97E+03,    996.97E+03
C:/temp/Job-2.odb,Step-1,Increment      1: Step Time =    1.000,"P-2-1",           953,       144.961,       9.42280,            0.,NA,NA,"",   990.865E+03,   989.903E+03,   989.903E+03
C:/temp/Job-2.odb,Step-1,Increment      1: Step Time =    1.000,"P-2-1",           954,       190.954,       144.484,            0.,NA,NA,"",   993.094E+03,   1.00203E+06,   1.00203E+06
C:/temp/Job-2.odb,Step-1,Increment      1: Step Time =    1.000,"P-2-1",           955,       95.0096,       25.2970,            0.,NA,NA,"",   995.699E+03,   1.00579E+06,   1.00579E+06
C:/temp/Job-2.odb,Step-1,Increment      1: Step Time =    1.000,"P-2-1",           956,       25.9719,       104.840,            0.,NA,NA,"",   811.658E+03,   893.245E+03,   893.245E+03
C:/temp/Job-2.odb,Step-1,Increment      1: Step Time =    1.000,"P-2-1",           957,       175.027,       94.2460,            0.,NA,NA,"",   958.939E+03,   975.151E+03,   975.151E+03
C:/temp/Job-2.odb,Step-1,Increment      1: Step Time =    1.000,"P-2-1",           958,       105.222,       174.719,            0.,NA,NA,"",   994.914E+03,   1.00418E+06,   1.00418E+06
C:/temp/Job-2.odb,Step-1,Increment      1: Step Time =    1.000,"P-2-1",           959,       24.1936,       87.1876,            0.,NA,NA,"",   820.871E+03,   903.364E+03,   903.364E+03
C:/temp/Job-2.odb,Step-1,Increment      1: Step Time =    1.000,"P-2-1",           960,       114.970,       24.4623,            0.,NA,NA,"",   999.614E+03,   1.00484E+06,   1.00484E+06
C:/temp/Job-2.odb,Step-1,Increment      1: Step Time =    1.000,"P-2-1",           961,       84.9928,       25.3469,            0.,NA,NA,"",   1.00560E+06,   1.01316E+06,   1.01316E+06
C:/temp/Job-2.odb,Step-1,Increment      1: Step Time =    1.000,"P-2-1",           962,       25.9011,       115.669,            0.,NA,NA,"",   832.193E+03,   911.195E+03,   911.195E+03
C:/temp/Job-2.odb,Step-1,Increment      1: Step Time =    1.000,"P-2-1",           963,       172.228,       115.017,            0.,NA,NA,"",   969.345E+03,   980.346E+03,   980.346E+03
C:/temp/Job-2.odb,Step-1,Increment      1: Step Time =    1.000,"P-2-1",           964,       174.845,       84.6012,            0.,NA,NA,"",   971.903E+03,   984.231E+03,   984.231E+03
C:/temp/Job-2.odb,Step-1,Increment      1: Step Time =    1.000,"P-2-1",           965,       84.9425,       174.408,            0.,NA,NA,"",   1.00584E+06,   1.01364E+06,   1.01364E+06
C:/temp/Job-2.odb,Step-1,Increment      1: Step Time =    1.000,"P-2-1",           966,       115.142,       174.836,            0.,NA,NA,"",   1.00171E+06,   1.00708E+06,   1.00708E+06
C:/temp/Job-2.odb,Step-1,Increment      1: Step Time =    1.000,"P-2-1",           967,       27.8841,       61.5813,            0.,NA,NA,"",   918.475E+03,   983.486E+03,   983.486E+03
C:/temp/Job-2.odb,Step-1,Increment      1: Step Time =    1.000,"P-2-1",           968,       65.4076,       25.4650,            0.,NA,NA,"",   1.03167E+06,   1.03397E+06,   1.03397E+06
C:/temp/Job-2.odb,Step-1,Increment      1: Step Time =    1.000,"P-2-1",           969,       137.029,       27.6703,            0.,NA,NA,"",   1.02560E+06,   1.02082E+06,   1.02082E+06
C:/temp/Job-2.odb,Step-1,Increment      1: Step Time =    1.000,"P-2-1",           970,       24.8866,       134.711,            0.,NA,NA,"",   891.926E+03,   964.467E+03,   964.467E+03
C:/temp/Job-2.odb,Step-1,Increment      1: Step Time =    1.000,"P-2-1",           971,       176.137,       135.225,            0.,NA,NA,"",   1.00292E+06,   1.00636E+06,   1.00636E+06
C:/temp/Job-2.odb,Step-1,Increment      1: Step Time =    1.000,"P-2-1",           972,       134.933,       174.775,            0.,NA,NA,"",   1.01849E+06,   1.01520E+06,   1.01520E+06
C:/temp/Job-2.odb,Step-1,Increment      1: Step Time =    1.000,"P-2-1",           973,       174.781,       65.4311,            0.,NA,NA,"",   1.00386E+06,   1.00647E+06,   1.00647E+06
C:/temp/Job-2.odb,Step-1,Increment      1: Step Time =    1.000,"P-2-1",           974,       62.3148,       170.879,            0.,NA,NA,"",   1.04311E+06,   1.04609E+06,   1.04609E+06
C:/temp/Job-2.odb,Step-1,Increment      1: Step Time =    1.000,"P-2-1",           975,       31.1594,       27.9728,            0.,NA,NA,"",   1.04168E+06,   1.07173E+06,   1.07173E+06
C:/temp/Job-2.odb,Step-1,Increment      1: Step Time =    1.000,"P-2-1",           976,       30.0610,       32.0559,            0.,NA,NA,"",   1.03001E+06,   1.06619E+06,   1.06619E+06
C:/temp/Job-2.odb,Step-1,Increment      1: Step Time =    1.000,"P-2-1",           977,       24.9626,       169.418,            0.,NA,NA,"",   1.02566E+06,   1.07042E+06,   1.07042E+06
C:/temp/Job-2.odb,Step-1,Increment      1: Step Time =    1.000,"P-2-1",           978,       168.159,       27.9001,            0.,NA,NA,"",   1.01374E+06,   1.01055E+06,   1.01055E+06
C:/temp/Job-2.odb,Step-1,Increment      1: Step Time =    1.000,"P-2-1",           979,       31.4694,       175.898,            0.,NA,NA,"",   1.05364E+06,   1.07695E+06,   1.07695E+06
C:/temp/Job-2.odb,Step-1,Increment      1: Step Time =    1.000,"P-2-1",           980,       176.583,       33.2161,            0.,NA,NA,"",   1.01020E+06,   1.00866E+06,   1.00866E+06
C:/temp/Job-2.odb,Step-1,Increment      1: Step Time =    1.000,"P-2-1",           981,       172.717,       171.340,            0.,NA,NA,"",   1.01100E+06,   1.00877E+06,   1.00877E+06
C:/temp/Job-2.odb,Step-1,Increment      1: Step Time =    1.000,"P-2-1",           982,       168.538,       178.389,            0.,NA,NA,"",   1.00821E+06,   1.00615E+06,   1.00615E+06
C:/temp/Job-2.odb,Step-1,Increment      1: Step Time =    1.000,"P-2-1",           983,       88.4738,       136.225,            0.,NA,NA,"",   1.10671E+06,   1.14745E+06,   1.14745E+06
C:/temp/Job-2.odb,Step-1,Increment      1: Step Time =    1.000,"P-2-1",           984,       136.857,       110.543,            0.,NA,NA,"",   878.593E+03,   865.076E+03,   865.076E+03
C:/temp/Job-2.odb,Step-1,Increment      1: Step Time =    1.000,"P-2-1",           985,       110.512,       62.5489,            0.,NA,NA,"",   1.09708E+06,   1.13466E+06,   1.13466E+06
C:/temp/Job-2.odb,Step-1,Increment      1: Step Time =    1.000,"P-2-1",           986,       63.5735,       88.8758,            0.,NA,NA,"",   834.399E+03,   853.506E+03,   853.506E+03
C:/temp/Job-2.odb,Step-1,Increment      1: Step Time =    1.000,"P-2-1",           987,       19.3076,       173.263,            0.,NA,NA,"",   1.03008E+06,   1.08405E+06,   1.08405E+06
C:/temp/Job-2.odb,Step-1,Increment      1: Step Time =    1.000,"P-2-1",           988,       21.2477,       14.9833,            0.,NA,NA,"",   1.09915E+06,   1.12184E+06,   1.12184E+06
C:/temp/Job-2.odb,Step-1,Increment      1: Step Time =    1.000,"P-2-1",           989,       18.1285,       25.0184,            0.,NA,NA,"",   1.03515E+06,   1.08998E+06,   1.08998E+06
C:/temp/Job-2.odb,Step-1,Increment      1: Step Time =    1.000,"P-2-1",           990,       178.734,       183.861,            0.,NA,NA,"",   1.00212E+06,   1.00168E+06,   1.00168E+06
C:/temp/Job-2.odb,Step-1,Increment      1: Step Time =    1.000,"P-2-1",           991,       183.211,       21.6859,            0.,NA,NA,"",   1.00262E+06,   1.00236E+06,   1.00236E+06
C:/temp/Job-2.odb,Step-1,Increment      1: Step Time =    1.000,"P-2-1",           992,       21.0629,       183.192,            0.,NA,NA,"",   1.08885E+06,   1.11753E+06,   1.11753E+06
C:/temp/Job-2.odb,Step-1,Increment      1: Step Time =    1.000,"P-2-1",           993,       100.578,       131.056,            0.,NA,NA,"",   1.09208E+06,   1.17731E+06,   1.17731E+06
C:/temp/Job-2.odb,Step-1,Increment      1: Step Time =    1.000,"P-2-1",           994,       68.5756,       98.8083,            0.,NA,NA,"",   629.276E+03,   666.694E+03,   666.694E+03
C:/temp/Job-2.odb,Step-1,Increment      1: Step Time =    1.000,"P-2-1",           995,       99.1291,       66.4589,            0.,NA,NA,"",   1.07560E+06,   1.15092E+06,   1.15092E+06
C:/temp/Job-2.odb,Step-1,Increment      1: Step Time =    1.000,"P-2-1",           996,       133.377,       99.1627,            0.,NA,NA,"",   711.212E+03,   721.185E+03,   721.185E+03
C:/temp/Job-2.odb,Step-1,Increment      1: Step Time =    1.000,"P-2-1",           997,       25.2064,       125.458,            0.,NA,NA,"",   861.078E+03,   937.318E+03,   937.318E+03
C:/temp/Job-2.odb,Step-1,Increment      1: Step Time =    1.000,"P-2-1",           998,       174.716,       74.9912,            0.,NA,NA,"",   989.019E+03,   996.252E+03,   996.252E+03
C:/temp/Job-2.odb,Step-1,Increment      1: Step Time =    1.000,"P-2-1",           999,       75.0766,       25.4787,            0.,NA,NA,"",   1.01957E+06,   1.02366E+06,   1.02366E+06
C:/temp/Job-2.odb,Step-1,Increment      1: Step Time =    1.000,"P-2-1",          1000,       125.084,       174.626,            0.,NA,NA,"",   1.01184E+06,   1.01233E+06,   1.01233E+06
C:/temp/Job-2.odb,Step-1,Increment      1: Step Time =    1.000,"P-2-1",          1001,       44.5942,       184.797,            0.,NA,NA,"",   1.03354E+06,   1.03743E+06,   1.03743E+06
C:/temp/Job-2.odb,Step-1,Increment      1: Step Time =    1.000,"P-2-1",          1002,       184.603,       154.095,            0.,NA,NA,"",    1.0031E+06,   1.00575E+06,   1.00575E+06
C:/temp/Job-2.odb,Step-1,Increment      1: Step Time =    1.000,"P-2-1",          1003,       16.5172,       44.5897,            0.,NA,NA,"",   933.824E+03,   1.01187E+06,   1.01187E+06
C:/temp/Job-2.odb,Step-1,Increment      1: Step Time =    1.000,"P-2-1",          1004,       155.671,       14.1030,            0.,NA,NA,"",   1.00211E+06,   1.00032E+06,   1.00032E+06
C:/temp/Job-2.odb,Step-1,Increment      1: Step Time =    1.000,"P-2-1",          1005,       105.070,       25.2702,            0.,NA,NA,"",   994.837E+03,   1.00404E+06,   1.00404E+06
C:/temp/Job-2.odb,Step-1,Increment      1: Step Time =    1.000,"P-2-1",          1006,       24.9058,       93.7896,            0.,NA,NA,"",   812.203E+03,   894.528E+03,   894.528E+03
C:/temp/Job-2.odb,Step-1,Increment      1: Step Time =    1.000,"P-2-1",          1007,       175.275,       103.420,            0.,NA,NA,"",   957.572E+03,   974.295E+03,   974.295E+03
C:/temp/Job-2.odb,Step-1,Increment      1: Step Time =    1.000,"P-2-1",          1008,       95.0388,       173.797,            0.,NA,NA,"",   997.457E+03,   1.00808E+06,   1.00808E+06
C:/temp/Job-2.odb,Step-1,Increment      1: Step Time =    1.000,"P-2-1",          1009,       185.529,       45.9499,            0.,NA,NA,"",   1.00228E+06,   1.00518E+06,   1.00518E+06
C:/temp/Job-2.odb,Step-1,Increment      1: Step Time =    1.000,"P-2-1",          1010,       154.305,       185.610,            0.,NA,NA,"",   1.00263E+06,   1.00066E+06,   1.00066E+06
C:/temp/Job-2.odb,Step-1,Increment      1: Step Time =    1.000,"P-2-1",          1011,       45.7267,       14.6660,            0.,NA,NA,"",   1.03109E+06,   1.03387E+06,   1.03387E+06
C:/temp/Job-2.odb,Step-1,Increment      1: Step Time =    1.000,"P-2-1",          1012,       14.4456,       154.243,            0.,NA,NA,"",   920.136E+03,   1.00309E+06,   1.00309E+06
C:/temp/Job-2.odb,Step-1,Increment      1: Step Time =    1.000,"P-2-1",          1013,       174.602,       176.458,            0.,NA,NA,"",   1.00668E+06,   1.00533E+06,   1.00533E+06
C:/temp/Job-2.odb,Step-1,Increment      1: Step Time =    1.000,"P-2-1",          1014,       173.917,       174.222,            0.,NA,NA,"",   1.00844E+06,   1.00674E+06,   1.00674E+06
C:/temp/Job-2.odb,Step-1,Increment      1: Step Time =    1.000,"P-2-1",          1015,       174.962,       26.2429,            0.,NA,NA,"",   1.00788E+06,   1.00642E+06,   1.00642E+06
C:/temp/Job-2.odb,Step-1,Increment      1: Step Time =    1.000,"P-2-1",          1016,       28.4991,       176.869,            0.,NA,NA,"",   1.05525E+06,   1.08242E+06,   1.08242E+06
C:/temp/Job-2.odb,Step-1,Increment      1: Step Time =    1.000,"P-2-1",          1017,       23.3215,       173.605,            0.,NA,NA,"",   1.04433E+06,   1.08557E+06,   1.08557E+06
C:/temp/Job-2.odb,Step-1,Increment      1: Step Time =    1.000,"P-2-1",          1018,       172.130,       26.9021,            0.,NA,NA,"",   1.01026E+06,   1.00810E+06,   1.00810E+06
C:/temp/Job-2.odb,Step-1,Increment      1: Step Time =    1.000,"P-2-1",          1019,       29.0556,       23.6174,            0.,NA,NA,"",   1.05740E+06,   1.08365E+06,   1.08365E+06
C:/temp/Job-2.odb,Step-1,Increment      1: Step Time =    1.000,"P-2-1",          1020,       26.0598,       30.5717,            0.,NA,NA,"",   1.02905E+06,   1.07098E+06,   1.07098E+06
C:/temp/Job-2.odb,Step-1,Increment      1: Step Time =    1.000,"P-2-1",          1021,       123.706,       80.8362,            0.,NA,NA,"",   1.20610E+06,   1.11538E+06,   1.11538E+06
C:/temp/Job-2.odb,Step-1,Increment      1: Step Time =    1.000,"P-2-1",          1022,       81.0506,       76.1541,            0.,NA,NA,"",   1.25777E+06,   1.21927E+06,   1.21927E+06
C:/temp/Job-2.odb,Step-1,Increment      1: Step Time =    1.000,"P-2-1",          1023,       119.067,       123.782,            0.,NA,NA,"",   1.27839E+06,   1.22158E+06,   1.22158E+06
C:/temp/Job-2.odb,Step-1,Increment      1: Step Time =    1.000,"P-2-1",          1024,       78.5570,       119.679,            0.,NA,NA,"",   1.22100E+06,   1.15270E+06,   1.15270E+06
C:/temp/Job-2.odb,Step-1,Increment      1: Step Time =    1.000,"P-2-1",          1025,       185.371,       50.7254,            0.,NA,NA,"",   1.00091E+06,   1.00522E+06,   1.00522E+06
C:/temp/Job-2.odb,Step-1,Increment      1: Step Time =    1.000,"P-2-1",          1026,       182.400,       149.517,            0.,NA,NA,"",   1.00435E+06,   1.00722E+06,   1.00722E+06
C:/temp/Job-2.odb,Step-1,Increment      1: Step Time =    1.000,"P-2-1",          1027,       149.432,       185.501,            0.,NA,NA,"",   1.00157E+06,   999.489E+03,   999.489E+03
C:/temp/Job-2.odb,Step-1,Increment      1: Step Time =    1.000,"P-2-1",          1028,       14.2221,       49.5144,            0.,NA,NA,"",   905.501E+03,   990.468E+03,   990.468E+03
C:/temp/Job-2.odb,Step-1,Increment      1: Step Time =    1.000,"P-2-1",          1029,       50.5757,       14.8370,            0.,NA,NA,"",   1.02319E+06,   1.02496E+06,   1.02496E+06
C:/temp/Job-2.odb,Step-1,Increment      1: Step Time =    1.000,"P-2-1",          1030,       149.974,       13.7610,            0.,NA,NA,"",   1.00014E+06,   998.291E+03,   998.291E+03
C:/temp/Job-2.odb,Step-1,Increment      1: Step Time =    1.000,"P-2-1",          1031,       14.6240,       149.429,            0.,NA,NA,"",   903.873E+03,   988.173E+03,   988.173E+03
C:/temp/Job-2.odb,Step-1,Increment      1: Step Time =    1.000,"P-2-1",          1032,       24.2511,       70.2502,            0.,NA,NA,"",   872.761E+03,   948.381E+03,   948.381E+03
C:/temp/Job-2.odb,Step-1,Increment      1: Step Time =    1.000,"P-2-1",          1033,       175.864,       130.793,            0.,NA,NA,"",   997.075E+03,   1.00237E+06,   1.00237E+06
C:/temp/Job-2.odb,Step-1,Increment      1: Step Time =    1.000,"P-2-1",          1034,       133.469,       25.6696,            0.,NA,NA,"",   1.01950E+06,   1.01643E+06,   1.01643E+06
C:/temp/Job-2.odb,Step-1,Increment      1: Step Time =    1.000,"P-2-1",          1035,       70.4644,       176.021,            0.,NA,NA,"",   1.02166E+06,   1.02430E+06,   1.02430E+06
C:/temp/Job-2.odb,Step-1,Increment      1: Step Time =    1.000,"P-2-1",          1036,       14.9108,       178.697,            0.,NA,NA,"",   1.05272E+06,   1.11062E+06,   1.11062E+06
C:/temp/Job-2.odb,Step-1,Increment      1: Step Time =    1.000,"P-2-1",          1037,       90.1386,       30.5754,            0.,NA,NA,"",   1.01013E+06,   1.02286E+06,   1.02286E+06
C:/temp/Job-2.odb,Step-1,Increment      1: Step Time =    1.000,"P-2-1",          1038,       31.4995,       110.483,            0.,NA,NA,"",   827.343E+03,   901.465E+03,   901.465E+03
C:/temp/Job-2.odb,Step-1,Increment      1: Step Time =    1.000,"P-2-1",          1039,       169.905,       89.4473,            0.,NA,NA,"",   958.795E+03,   970.412E+03,   970.412E+03
C:/temp/Job-2.odb,Step-1,Increment      1: Step Time =    1.000,"P-2-1",          1040,       110.217,       169.970,            0.,NA,NA,"",   1.00700E+06,   1.01710E+06,   1.01710E+06
C:/temp/Job-2.odb,Step-1,Increment      1: Step Time =    1.000,"P-2-1",          1041,       30.0896,       79.9801,            0.,NA,NA,"",   853.868E+03,   925.692E+03,   925.692E+03
C:/temp/Job-2.odb,Step-1,Increment      1: Step Time =    1.000,"P-2-1",          1042,       80.0635,       30.3508,            0.,NA,NA,"",   1.02471E+06,   1.03251E+06,   1.03251E+06
C:/temp/Job-2.odb,Step-1,Increment      1: Step Time =    1.000,"P-2-1",          1043,       30.4016,       121.144,            0.,NA,NA,"",   858.897E+03,   929.954E+03,   929.954E+03
C:/temp/Job-2.odb,Step-1,Increment      1: Step Time =    1.000,"P-2-1",          1044,       169.639,       123.241,            0.,NA,NA,"",   987.743E+03,   992.046E+03,   992.046E+03
C:/temp/Job-2.odb,Step-1,Increment      1: Step Time =    1.000,"P-2-1",          1045,       79.5294,       170.131,            0.,NA,NA,"",   1.02406E+06,   1.03153E+06,   1.03153E+06
C:/temp/Job-2.odb,Step-1,Increment      1: Step Time =    1.000,"P-2-1",          1046,       169.459,       79.8620,            0.,NA,NA,"",   980.928E+03,   986.818E+03,   986.818E+03
C:/temp/Job-2.odb,Step-1,Increment      1: Step Time =    1.000,"P-2-1",          1047,       119.933,       169.705,            0.,NA,NA,"",   1.01900E+06,   1.02299E+06,   1.02299E+06
C:/temp/Job-2.odb,Step-1,Increment      1: Step Time =    1.000,"P-2-1",          1048,       16.6178,       18.9382,            0.,NA,NA,"",   1.07652E+06,   1.12288E+06,   1.12288E+06
C:/temp/Job-2.odb,Step-1,Increment      1: Step Time =    1.000,"P-2-1",          1049,       178.766,       15.0467,            0.,NA,NA,"",   1.00180E+06,   1.00138E+06,   1.00138E+06
C:/temp/Job-2.odb,Step-1,Increment      1: Step Time =    1.000,"P-2-1",          1050,       15.4187,       183.970,            0.,NA,NA,"",   1.10536E+06,   1.14747E+06,   1.14747E+06
C:/temp/Job-2.odb,Step-1,Increment      1: Step Time =    1.000,"P-2-1",          1051,       185.222,       179.410,            0.,NA,NA,"",   1.00175E+06,   1.00167E+06,   1.00167E+06
C:/temp/Job-2.odb,Step-1,Increment      1: Step Time =    1.000,"P-2-1",          1052,       60.6354,       30.3854,            0.,NA,NA,"",   1.04728E+06,   1.05066E+06,   1.05066E+06
C:/temp/Job-2.odb,Step-1,Increment      1: Step Time =    1.000,"P-2-1",          1053,       27.9917,       57.6245,            0.,NA,NA,"",   932.926E+03,   995.500E+03,   995.500E+03
C:/temp/Job-2.odb,Step-1,Increment      1: Step Time =    1.000,"P-2-1",          1054,       29.6122,       139.450,            0.,NA,NA,"",   929.064E+03,   989.988E+03,   989.988E+03
C:/temp/Job-2.odb,Step-1,Increment      1: Step Time =    1.000,"P-2-1",          1055,       139.588,       29.3766,            0.,NA,NA,"",   1.02994E+06,   1.02401E+06,   1.02401E+06
C:/temp/Job-2.odb,Step-1,Increment      1: Step Time =    1.000,"P-2-1",          1056,       169.613,       142.345,            0.,NA,NA,"",   1.02064E+06,   1.01663E+06,   1.01663E+06
C:/temp/Job-2.odb,Step-1,Increment      1: Step Time =    1.000,"P-2-1",          1057,       140.218,       169.945,            0.,NA,NA,"",   1.03229E+06,   1.02587E+06,   1.02587E+06
C:/temp/Job-2.odb,Step-1,Increment      1: Step Time =    1.000,"P-2-1",          1058,       58.4466,       169.439,            0.,NA,NA,"",   1.04841E+06,   1.05230E+06,   1.05230E+06
C:/temp/Job-2.odb,Step-1,Increment      1: Step Time =    1.000,"P-2-1",          1059,       169.662,       60.8101,            0.,NA,NA,"",   1.01780E+06,   1.01443E+06,   1.01443E+06
C:/temp/Job-2.odb,Step-1,Increment      1: Step Time =    1.000,"P-2-1",          1060,       32.6531,       37.3528,            0.,NA,NA,"",   1.01804E+06,   1.05524E+06,   1.05524E+06
C:/temp/Job-2.odb,Step-1,Increment      1: Step Time =    1.000,"P-2-1",          1061,       35.3205,       29.8247,            0.,NA,NA,"",   1.04019E+06,   1.06526E+06,   1.06526E+06
C:/temp/Job-2.odb,Step-1,Increment      1: Step Time =    1.000,"P-2-1",          1062,       163.490,       28.4224,            0.,NA,NA,"",   1.01777E+06,   1.01337E+06,   1.01337E+06
C:/temp/Job-2.odb,Step-1,Increment      1: Step Time =    1.000,"P-2-1",          1063,       173.206,       36.1036,            0.,NA,NA,"",   1.01468E+06,   1.01200E+06,   1.01200E+06
C:/temp/Job-2.odb,Step-1,Increment      1: Step Time =    1.000,"P-2-1",          1064,       35.4284,       170.934,            0.,NA,NA,"",   1.04492E+06,   1.06808E+06,   1.06808E+06
C:/temp/Job-2.odb,Step-1,Increment      1: Step Time =    1.000,"P-2-1",          1065,       162.769,       171.908,            0.,NA,NA,"",   1.01814E+06,   1.01359E+06,   1.01359E+06
C:/temp/Job-2.odb,Step-1,Increment      1: Step Time =    1.000,"P-2-1",          1066,       169.396,       164.802,            0.,NA,NA,"",   1.01860E+06,   1.01456E+06,   1.01456E+06
C:/temp/Job-2.odb,Step-1,Increment      1: Step Time =    1.000,"P-2-1",          1067,       68.2819,       84.2699,            0.,NA,NA,"",   962.490E+03,   942.980E+03,   942.980E+03
C:/temp/Job-2.odb,Step-1,Increment      1: Step Time =    1.000,"P-2-1",          1068,       115.199,       67.4426,            0.,NA,NA,"",   1.17510E+06,   1.18424E+06,   1.18424E+06
C:/temp/Job-2.odb,Step-1,Increment      1: Step Time =    1.000,"P-2-1",          1069,       132.223,       115.170,            0.,NA,NA,"",   994.962E+03,   945.368E+03,   945.368E+03
C:/temp/Job-2.odb,Step-1,Increment      1: Step Time =    1.000,"P-2-1",          1070,       86.4327,       132.155,            0.,NA,NA,"",   1.16086E+06,   1.18760E+06,   1.18760E+06
C:/temp/Job-2.odb,Step-1,Increment      1: Step Time =    1.000,"P-2-1",          1071,       154.031,       8.96073,            0.,NA,NA,"",   995.903E+03,   995.005E+03,   995.005E+03
C:/temp/Job-2.odb,Step-1,Increment      1: Step Time =    1.000,"P-2-1",          1072,       190.618,       153.690,            0.,NA,NA,"",   997.792E+03,   1.00245E+06,   1.00245E+06
C:/temp/Job-2.odb,Step-1,Increment      1: Step Time =    1.000,"P-2-1",          1073,       46.1629,       190.447,            0.,NA,NA,"",   1.01478E+06,   1.01589E+06,   1.01589E+06
C:/temp/Job-2.odb,Step-1,Increment      1: Step Time =    1.000,"P-2-1",          1074,       8.26281,       45.8818,            0.,NA,NA,"",   893.689E+03,   988.322E+03,   988.322E+03
C:/temp/Job-2.odb,Step-1,Increment      1: Step Time =    1.000,"P-2-1",          1075,       169.415,       70.3365,            0.,NA,NA,"",   1.00283E+06,   1.00309E+06,   1.00309E+06
C:/temp/Job-2.odb,Step-1,Increment      1: Step Time =    1.000,"P-2-1",          1076,       70.4560,       31.0462,            0.,NA,NA,"",   1.03940E+06,   1.04347E+06,   1.04347E+06
C:/temp/Job-2.odb,Step-1,Increment      1: Step Time =    1.000,"P-2-1",          1077,       129.961,       169.250,            0.,NA,NA,"",   1.02972E+06,   1.02717E+06,   1.02717E+06
C:/temp/Job-2.odb,Step-1,Increment      1: Step Time =    1.000,"P-2-1",          1078,       99.8547,       30.2113,            0.,NA,NA,"",   1.00236E+06,   1.01671E+06,   1.01671E+06
C:/temp/Job-2.odb,Step-1,Increment      1: Step Time =    1.000,"P-2-1",          1079,       30.2227,       98.9099,            0.,NA,NA,"",   813.580E+03,   891.109E+03,   891.109E+03
C:/temp/Job-2.odb,Step-1,Increment      1: Step Time =    1.000,"P-2-1",          1080,       110.087,       24.8439,            0.,NA,NA,"",   996.769E+03,   1.00416E+06,   1.00416E+06
C:/temp/Job-2.odb,Step-1,Increment      1: Step Time =    1.000,"P-2-1",          1081,       22.0935,       90.0153,            0.,NA,NA,"",   813.249E+03,   897.886E+03,   897.886E+03
C:/temp/Job-2.odb,Step-1,Increment      1: Step Time =    1.000,"P-2-1",          1082,       175.286,       107.470,            0.,NA,NA,"",   960.324E+03,   976.197E+03,   976.197E+03
C:/temp/Job-2.odb,Step-1,Increment      1: Step Time =    1.000,"P-2-1",          1083,       89.9692,       173.899,            0.,NA,NA,"",   1.00139E+06,   1.01091E+06,   1.01091E+06
C:/temp/Job-2.odb,Step-1,Increment      1: Step Time =    1.000,"P-2-1",          1084,       170.171,       98.9782,            0.,NA,NA,"",   947.948E+03,   962.544E+03,   962.544E+03
C:/temp/Job-2.odb,Step-1,Increment      1: Step Time =    1.000,"P-2-1",          1085,       100.725,       169.505,            0.,NA,NA,"",   1.00309E+06,   1.01744E+06,   1.01744E+06
C:/temp/Job-2.odb,Step-1,Increment      1: Step Time =    1.000,"P-2-1",          1086,       27.3604,       27.9997,            0.,NA,NA,"",   1.03746E+06,   1.07412E+06,   1.07412E+06
C:/temp/Job-2.odb,Step-1,Increment      1: Step Time =    1.000,"P-2-1",          1087,       173.498,       30.3887,            0.,NA,NA,"",   1.01116E+06,   1.00904E+06,   1.00904E+06
C:/temp/Job-2.odb,Step-1,Increment      1: Step Time =    1.000,"P-2-1",          1088,       170.835,       175.790,            0.,NA,NA,"",   1.00918E+06,   1.00709E+06,   1.00709E+06
C:/temp/Job-2.odb,Step-1,Increment      1: Step Time =    1.000,"P-2-1",          1089,       121.993,       116.419,            0.,NA,NA,"",   1.19036E+06,   1.08019E+06,   1.08019E+06
C:/temp/Job-2.odb,Step-1,Increment      1: Step Time =    1.000,"P-2-1",          1090,       116.373,       77.9131,            0.,NA,NA,"",   1.32634E+06,   1.27639E+06,   1.27639E+06
C:/temp/Job-2.odb,Step-1,Increment      1: Step Time =    1.000,"P-2-1",          1091,       78.3309,       83.3443,            0.,NA,NA,"",   1.16604E+06,   1.08006E+06,   1.08006E+06
C:/temp/Job-2.odb,Step-1,Increment      1: Step Time =    1.000,"P-2-1",          1092,       83.9959,       120.580,            0.,NA,NA,"",   1.31850E+06,   1.27503E+06,   1.27503E+06
C:/temp/Job-2.odb,Step-1,Increment      1: Step Time =    1.000,"P-2-1",          1093,       190.386,       45.6734,            0.,NA,NA,"",   998.347E+03,   1.00259E+06,   1.00259E+06
C:/temp/Job-2.odb,Step-1,Increment      1: Step Time =    1.000,"P-2-1",          1094,       154.490,       190.383,            0.,NA,NA,"",   996.843E+03,   995.850E+03,   995.850E+03
C:/temp/Job-2.odb,Step-1,Increment      1: Step Time =    1.000,"P-2-1",          1095,       45.5474,       9.71734,            0.,NA,NA,"",   1.01619E+06,   1.01740E+06,   1.01740E+06
C:/temp/Job-2.odb,Step-1,Increment      1: Step Time =    1.000,"P-2-1",          1096,       9.57285,       154.433,            0.,NA,NA,"",   899.357E+03,   991.779E+03,   991.779E+03
C:/temp/Job-2.odb,Step-1,Increment      1: Step Time =    1.000,"P-2-1",          1097,       88.3039,       142.117,            0.,NA,NA,"",   1.07554E+06,   1.11067E+06,   1.11067E+06
C:/temp/Job-2.odb,Step-1,Increment      1: Step Time =    1.000,"P-2-1",          1098,       141.425,       110.944,            0.,NA,NA,"",   896.857E+03,   890.177E+03,   890.177E+03
C:/temp/Job-2.odb,Step-1,Increment      1: Step Time =    1.000,"P-2-1",          1099,       110.798,       57.5982,            0.,NA,NA,"",   1.07260E+06,   1.10456E+06,   1.10456E+06
C:/temp/Job-2.odb,Step-1,Increment      1: Step Time =    1.000,"P-2-1",          1100,       58.9545,       88.2779,            0.,NA,NA,"",   840.088E+03,   870.758E+03,   870.758E+03
C:/temp/Job-2.odb,Step-1,Increment      1: Step Time =    1.000,"P-2-1",          1101,       154.191,       180.987,            0.,NA,NA,"",   1.00938E+06,   1.00618E+06,   1.00618E+06
C:/temp/Job-2.odb,Step-1,Increment      1: Step Time =    1.000,"P-2-1",          1102,       177.898,       150.876,            0.,NA,NA,"",   1.01035E+06,   1.01061E+06,   1.01061E+06
C:/temp/Job-2.odb,Step-1,Increment      1: Step Time =    1.000,"P-2-1",          1103,       49.7741,       183.085,            0.,NA,NA,"",   1.03077E+06,   1.03333E+06,   1.03333E+06
C:/temp/Job-2.odb,Step-1,Increment      1: Step Time =    1.000,"P-2-1",          1104,       180.629,       46.1260,            0.,NA,NA,"",   1.00765E+06,   1.00857E+06,   1.00857E+06
C:/temp/Job-2.odb,Step-1,Increment      1: Step Time =    1.000,"P-2-1",          1105,       152.308,       18.7470,            0.,NA,NA,"",   1.00815E+06,   1.00512E+06,   1.00512E+06
C:/temp/Job-2.odb,Step-1,Increment      1: Step Time =    1.000,"P-2-1",          1106,       19.6238,       149.330,            0.,NA,NA,"",   924.968E+03,   999.424E+03,   999.424E+03
C:/temp/Job-2.odb,Step-1,Increment      1: Step Time =    1.000,"P-2-1",          1107,       45.7424,       19.7602,            0.,NA,NA,"",   1.04194E+06,   1.04717E+06,   1.04717E+06
C:/temp/Job-2.odb,Step-1,Increment      1: Step Time =    1.000,"P-2-1",          1108,       20.7701,       46.4248,            0.,NA,NA,"",   944.839E+03,   1.01483E+06,   1.01483E+06
C:/temp/Job-2.odb,Step-1,Increment      1: Step Time =    1.000,"P-2-1",          1109,       187.235,       152.266,            0.,NA,NA,"",   999.967E+03,   1.00409E+06,   1.00409E+06
C:/temp/Job-2.odb,Step-1,Increment      1: Step Time =    1.000,"P-2-1",          1110,       47.5633,       186.287,            0.,NA,NA,"",   1.02694E+06,   1.02893E+06,   1.02893E+06
C:/temp/Job-2.odb,Step-1,Increment      1: Step Time =    1.000,"P-2-1",          1111,       153.331,       12.3562,            0.,NA,NA,"",   999.825E+03,   998.276E+03,   998.276E+03
C:/temp/Job-2.odb,Step-1,Increment      1: Step Time =    1.000,"P-2-1",          1112,       11.5974,       45.8694,            0.,NA,NA,"",   907.063E+03,   995.930E+03,   995.930E+03
C:/temp/Job-2.odb,Step-1,Increment      1: Step Time =    1.000,"P-2-1",          1113,       26.4922,       175.027,            0.,NA,NA,"",   1.05187E+06,   1.08439E+06,   1.08439E+06
C:/temp/Job-2.odb,Step-1,Increment      1: Step Time =    1.000,"P-2-1",          1114,       76.5965,       77.8347,            0.,NA,NA,"",   1.20536E+06,   1.14795E+06,   1.14795E+06
C:/temp/Job-2.odb,Step-1,Increment      1: Step Time =    1.000,"P-2-1",          1115,       121.924,       76.1842,            0.,NA,NA,"",   1.25951E+06,   1.19063E+06,   1.19063E+06
C:/temp/Job-2.odb,Step-1,Increment      1: Step Time =    1.000,"P-2-1",          1116,       123.706,       121.958,            0.,NA,NA,"",   1.23191E+06,   1.15003E+06,   1.15003E+06
C:/temp/Job-2.odb,Step-1,Increment      1: Step Time =    1.000,"P-2-1",          1117,       77.5464,       124.837,            0.,NA,NA,"",   1.22051E+06,   1.17781E+06,   1.17781E+06
C:/temp/Job-2.odb,Step-1,Increment      1: Step Time =    1.000,"P-2-1",          1118,       67.8077,       79.5512,            0.,NA,NA,"",   1.04550E+06,   1.01915E+06,   1.01915E+06
C:/temp/Job-2.odb,Step-1,Increment      1: Step Time =    1.000,"P-2-1",          1119,       119.983,       66.8967,            0.,NA,NA,"",   1.19138E+06,   1.17397E+06,   1.17397E+06
C:/temp/Job-2.odb,Step-1,Increment      1: Step Time =    1.000,"P-2-1",          1120,       132.782,       119.902,            0.,NA,NA,"",   1.08033E+06,   1.02222E+06,   1.02222E+06
C:/temp/Job-2.odb,Step-1,Increment      1: Step Time =    1.000,"P-2-1",          1121,       79.8108,       131.695,            0.,NA,NA,"",   1.18263E+06,   1.17446E+06,   1.17446E+06
C:/temp/Job-2.odb,Step-1,Increment      1: Step Time =    1.000,"P-2-1",          1122,       128.033,       28.7228,            0.,NA,NA,"",   1.02362E+06,   1.02258E+06,   1.02258E+06
C:/temp/Job-2.odb,Step-1,Increment      1: Step Time =    1.000,"P-2-1",          1123,       75.1896,       175.719,            0.,NA,NA,"",   1.01614E+06,   1.02012E+06,   1.02012E+06
C:/temp/Job-2.odb,Step-1,Increment      1: Step Time =    1.000,"P-2-1",          1124,       25.0359,       74.8245,            0.,NA,NA,"",   858.808E+03,   935.496E+03,   935.496E+03
C:/temp/Job-2.odb,Step-1,Increment      1: Step Time =    1.000,"P-2-1",          1125,       175.260,       126.568,            0.,NA,NA,"",   990.911E+03,   997.864E+03,   997.864E+03
C:/temp/Job-2.odb,Step-1,Increment      1: Step Time =    1.000,"P-2-1",          1126,       19.2029,       178.013,            0.,NA,NA,"",   1.06204E+06,   1.10668E+06,   1.10668E+06
C:/temp/Job-2.odb,Step-1,Increment      1: Step Time =    1.000,"P-2-1",          1127,       177.769,       19.6691,            0.,NA,NA,"",   1.00374E+06,   1.00301E+06,   1.00301E+06
C:/temp/Job-2.odb,Step-1,Increment      1: Step Time =    1.000,"P-2-1",          1128,       180.722,       178.693,            0.,NA,NA,"",   1.00322E+06,   1.00280E+06,   1.00280E+06
C:/temp/Job-2.odb,Step-1,Increment      1: Step Time =    1.000,"P-2-1",          1129,       11.1647,       15.4561,            0.,NA,NA,"",   1.10270E+06,   1.16185E+06,   1.16185E+06
C:/temp/Job-2.odb,Step-1,Increment      1: Step Time =    1.000,"P-2-1",          1130,       184.410,       10.3241,            0.,NA,NA,"",   1.00017E+06,   1.00008E+06,   1.00008E+06
C:/temp/Job-2.odb,Step-1,Increment      1: Step Time =    1.000,"P-2-1",          1131,       15.4368,       189.335,            0.,NA,NA,"",   1.14737E+06,   1.17071E+06,   1.17071E+06
C:/temp/Job-2.odb,Step-1,Increment      1: Step Time =    1.000,"P-2-1",          1132,       189.874,       184.713,            0.,NA,NA,"",   1.00043E+06,   1.00039E+06,   1.00039E+06
C:/temp/Job-2.odb,Step-1,Increment      1: Step Time =    1.000,"P-2-1",          1133,       55.7166,       25.2812,            0.,NA,NA,"",   1.04070E+06,   1.04408E+06,   1.04408E+06
C:/temp/Job-2.odb,Step-1,Increment      1: Step Time =    1.000,"P-2-1",          1134,       24.3229,       52.3082,            0.,NA,NA,"",   937.810E+03,   1.00386E+06,   1.00386E+06
C:/temp/Job-2.odb,Step-1,Increment      1: Step Time =    1.000,"P-2-1",          1135,       24.3861,       144.034,            0.,NA,NA,"",   924.857E+03,      993.E+03,      993.E+03
C:/temp/Job-2.odb,Step-1,Increment      1: Step Time =    1.000,"P-2-1",          1136,       142.719,       27.8122,            0.,NA,NA,"",   1.02672E+06,   1.02083E+06,   1.02083E+06
C:/temp/Job-2.odb,Step-1,Increment      1: Step Time =    1.000,"P-2-1",          1137,       144.696,       175.628,            0.,NA,NA,"",   1.01940E+06,   1.01450E+06,   1.01450E+06
C:/temp/Job-2.odb,Step-1,Increment      1: Step Time =    1.000,"P-2-1",          1138,       175.014,       55.7645,            0.,NA,NA,"",   1.01262E+06,   1.01221E+06,   1.01221E+06
C:/temp/Job-2.odb,Step-1,Increment      1: Step Time =    1.000,"P-2-1",          1139,       39.9054,       24.6833,            0.,NA,NA,"",   1.05076E+06,   1.06383E+06,   1.06383E+06
C:/temp/Job-2.odb,Step-1,Increment      1: Step Time =    1.000,"P-2-1",          1140,       25.8266,       161.264,            0.,NA,NA,"",   993.794E+03,   1.04611E+06,   1.04611E+06
C:/temp/Job-2.odb,Step-1,Increment      1: Step Time =    1.000,"P-2-1",          1141,       176.090,       41.4524,            0.,NA,NA,"",   1.01322E+06,   1.01156E+06,   1.01156E+06
C:/temp/Job-2.odb,Step-1,Increment      1: Step Time =    1.000,"P-2-1",          1142,       158.946,       176.702,            0.,NA,NA,"",    1.0144E+06,   1.01043E+06,   1.01043E+06
C:/temp/Job-2.odb,Step-1,Increment      1: Step Time =    1.000,"P-2-1",          1143,       141.958,       107.147,            0.,NA,NA,"",   856.592E+03,   859.613E+03,   859.613E+03
C:/temp/Job-2.odb,Step-1,Increment      1: Step Time =    1.000,"P-2-1",          1144,       95.6218,       141.325,            0.,NA,NA,"",   1.04886E+06,   1.10081E+06,   1.10081E+06
C:/temp/Job-2.odb,Step-1,Increment      1: Step Time =    1.000,"P-2-1",          1145,       106.778,       57.1799,            0.,NA,NA,"",   1.05444E+06,   1.09602E+06,   1.09602E+06
C:/temp/Job-2.odb,Step-1,Increment      1: Step Time =    1.000,"P-2-1",          1146,       57.9782,       92.9645,            0.,NA,NA,"",   788.220E+03,   830.436E+03,   830.436E+03
C:/temp/Job-2.odb,Step-1,Increment      1: Step Time =    1.000,"P-2-1",          1147,       154.141,       176.599,            0.,NA,NA,"",   1.01626E+06,   1.01173E+06,   1.01173E+06
C:/temp/Job-2.odb,Step-1,Increment      1: Step Time =    1.000,"P-2-1",          1148,       173.474,       152.904,            0.,NA,NA,"",   1.01716E+06,   1.01461E+06,   1.01461E+06
C:/temp/Job-2.odb,Step-1,Increment      1: Step Time =    1.000,"P-2-1",          1149,       175.630,       46.1465,            0.,NA,NA,"",   1.01448E+06,   1.01285E+06,   1.01285E+06
C:/temp/Job-2.odb,Step-1,Increment      1: Step Time =    1.000,"P-2-1",          1150,       44.2014,       174.963,            0.,NA,NA,"",   1.04862E+06,   1.05782E+06,   1.05782E+06
C:/temp/Job-2.odb,Step-1,Increment      1: Step Time =    1.000,"P-2-1",          1151,       25.1509,       154.812,            0.,NA,NA,"",   967.349E+03,   1.02682E+06,   1.02682E+06
C:/temp/Job-2.odb,Step-1,Increment      1: Step Time =    1.000,"P-2-1",          1152,       152.689,       24.5260,            0.,NA,NA,"",   1.01850E+06,   1.01356E+06,   1.01356E+06
C:/temp/Job-2.odb,Step-1,Increment      1: Step Time =    1.000,"P-2-1",          1153,       45.6487,       24.9933,            0.,NA,NA,"",   1.04726E+06,   1.05571E+06,   1.05571E+06
C:/temp/Job-2.odb,Step-1,Increment      1: Step Time =    1.000,"P-2-1",          1154,       26.3313,       43.7516,            0.,NA,NA,"",   977.927E+03,   1.03345E+06,   1.03345E+06
C:/temp/Job-2.odb,Step-1,Increment      1: Step Time =    1.000,"P-2-1",          1155,       170.887,       148.667,            0.,NA,NA,"",   1.02155E+06,   1.01750E+06,   1.01750E+06
C:/temp/Job-2.odb,Step-1,Increment      1: Step Time =    1.000,"P-2-1",          1156,       149.414,       176.230,            0.,NA,NA,"",   1.01809E+06,   1.01320E+06,   1.01320E+06
C:/temp/Job-2.odb,Step-1,Increment      1: Step Time =    1.000,"P-2-1",          1157,       147.229,       25.8215,            0.,NA,NA,"",   1.02233E+06,   1.01680E+06,   1.01680E+06
C:/temp/Job-2.odb,Step-1,Increment      1: Step Time =    1.000,"P-2-1",          1158,       24.5354,       149.099,            0.,NA,NA,"",   943.793E+03,   1.00859E+06,   1.00859E+06
C:/temp/Job-2.odb,Step-1,Increment      1: Step Time =    1.000,"P-2-1",          1159,       49.2648,       176.669,            0.,NA,NA,"",   1.04256E+06,   1.04773E+06,   1.04773E+06
C:/temp/Job-2.odb,Step-1,Increment      1: Step Time =    1.000,"P-2-1",          1160,       175.258,       50.9319,            0.,NA,NA,"",   1.01431E+06,   1.01310E+06,   1.01310E+06
C:/temp/Job-2.odb,Step-1,Increment      1: Step Time =    1.000,"P-2-1",          1161,       25.4351,       48.0253,            0.,NA,NA,"",   957.971E+03,   1.01901E+06,   1.01901E+06
C:/temp/Job-2.odb,Step-1,Increment      1: Step Time =    1.000,"P-2-1",          1162,       50.8385,       25.1799,            0.,NA,NA,"",   1.04438E+06,   1.04949E+06,   1.04949E+06
C:/temp/Job-2.odb,Step-1,Increment      1: Step Time =    1.000,"P-2-1",          1163,       110.485,       29.6772,            0.,NA,NA,"",   1.00633E+06,   1.01618E+06,   1.01618E+06
C:/temp/Job-2.odb,Step-1,Increment      1: Step Time =    1.000,"P-2-1",          1164,       27.9173,       89.2154,            0.,NA,NA,"",   822.827E+03,   901.403E+03,   901.403E+03
C:/temp/Job-2.odb,Step-1,Increment      1: Step Time =    1.000,"P-2-1",          1165,       89.6762,       167.970,            0.,NA,NA,"",   1.01339E+06,   1.02691E+06,   1.02691E+06
C:/temp/Job-2.odb,Step-1,Increment      1: Step Time =    1.000,"P-2-1",          1166,       171.260,       111.400,            0.,NA,NA,"",   961.135E+03,   973.538E+03,   973.538E+03
C:/temp/Job-2.odb,Step-1,Increment      1: Step Time =    1.000,"P-2-1",          1167,       165.409,       99.3028,            0.,NA,NA,"",   936.904E+03,   950.004E+03,   950.004E+03
C:/temp/Job-2.odb,Step-1,Increment      1: Step Time =    1.000,"P-2-1",          1168,       101.973,       166.003,            0.,NA,NA,"",   1.00810E+06,   1.02549E+06,   1.02549E+06
C:/temp/Job-2.odb,Step-1,Increment      1: Step Time =    1.000,"P-2-1",          1169,       99.5439,       34.3225,            0.,NA,NA,"",   1.00859E+06,   1.02615E+06,   1.02615E+06
C:/temp/Job-2.odb,Step-1,Increment      1: Step Time =    1.000,"P-2-1",          1170,       35.5755,       100.893,            0.,NA,NA,"",   813.488E+03,   885.232E+03,   885.232E+03
C:/temp/Job-2.odb,Step-1,Increment      1: Step Time =    1.000,"P-2-1",          1171,       165.134,       89.4068,            0.,NA,NA,"",   952.194E+03,   961.489E+03,   961.489E+03
C:/temp/Job-2.odb,Step-1,Increment      1: Step Time =    1.000,"P-2-1",          1172,       110.082,       165.054,            0.,NA,NA,"",   1.01621E+06,   1.02970E+06,   1.02970E+06
C:/temp/Job-2.odb,Step-1,Increment      1: Step Time =    1.000,"P-2-1",          1173,       36.3944,       110.655,            0.,NA,NA,"",   832.593E+03,   900.701E+03,   900.701E+03
C:/temp/Job-2.odb,Step-1,Increment      1: Step Time =    1.000,"P-2-1",          1174,       164.640,       123.737,            0.,NA,NA,"",   991.678E+03,   991.501E+03,   991.501E+03
C:/temp/Job-2.odb,Step-1,Increment      1: Step Time =    1.000,"P-2-1",          1175,       78.2260,       165.675,            0.,NA,NA,"",   1.03683E+06,   1.04502E+06,   1.04502E+06
C:/temp/Job-2.odb,Step-1,Increment      1: Step Time =    1.000,"P-2-1",          1176,       163.921,       80.0992,            0.,NA,NA,"",   980.687E+03,   982.480E+03,   982.480E+03
C:/temp/Job-2.odb,Step-1,Increment      1: Step Time =    1.000,"P-2-1",          1177,       119.393,       165.044,            0.,NA,NA,"",   1.03015E+06,   1.03522E+06,   1.03522E+06
C:/temp/Job-2.odb,Step-1,Increment      1: Step Time =    1.000,"P-2-1",          1178,       36.3553,       77.7483,            0.,NA,NA,"",   880.000E+03,   940.781E+03,   940.781E+03
C:/temp/Job-2.odb,Step-1,Increment      1: Step Time =    1.000,"P-2-1",          1179,       120.089,       34.5286,            0.,NA,NA,"",   1.02898E+06,   1.03379E+06,   1.03379E+06
C:/temp/Job-2.odb,Step-1,Increment      1: Step Time =    1.000,"P-2-1",          1180,       80.3748,       34.5053,            0.,NA,NA,"",   1.03276E+06,   1.04201E+06,   1.04201E+06
C:/temp/Job-2.odb,Step-1,Increment      1: Step Time =    1.000,"P-2-1",          1181,       34.3979,       120.804,            0.,NA,NA,"",   867.704E+03,   932.940E+03,   932.940E+03
C:/temp/Job-2.odb,Step-1,Increment      1: Step Time =    1.000,"P-2-1",          1182,       129.956,       163.816,            0.,NA,NA,"",   1.04512E+06,   1.04116E+06,   1.04116E+06
C:/temp/Job-2.odb,Step-1,Increment      1: Step Time =    1.000,"P-2-1",          1183,       70.6183,       36.5016,            0.,NA,NA,"",   1.05211E+06,   1.05703E+06,   1.05703E+06
C:/temp/Job-2.odb,Step-1,Increment      1: Step Time =    1.000,"P-2-1",          1184,       164.016,       70.4687,            0.,NA,NA,"",   1.01051E+06,   1.00565E+06,   1.00565E+06
C:/temp/Job-2.odb,Step-1,Increment      1: Step Time =    1.000,"P-2-1",          1185,       30.6742,       130.324,            0.,NA,NA,"",   895.613E+03,   960.757E+03,   960.757E+03
C:/temp/Job-2.odb,Step-1,Increment      1: Step Time =    1.000,"P-2-1",          1186,       59.2159,       83.7601,            0.,NA,NA,"",   903.498E+03,   922.663E+03,   922.663E+03
C:/temp/Job-2.odb,Step-1,Increment      1: Step Time =    1.000,"P-2-1",          1187,       114.995,       57.5855,            0.,NA,NA,"",   1.09324E+06,   1.11122E+06,   1.11122E+06
C:/temp/Job-2.odb,Step-1,Increment      1: Step Time =    1.000,"P-2-1",          1188,       141.421,       114.985,            0.,NA,NA,"",   950.585E+03,     933.1E+03,     933.1E+03
C:/temp/Job-2.odb,Step-1,Increment      1: Step Time =    1.000,"P-2-1",          1189,       83.0293,       142.588,            0.,NA,NA,"",   1.09971E+06,   1.11824E+06,   1.11824E+06
C:/temp/Job-2.odb,Step-1,Increment      1: Step Time =    1.000,"P-2-1",          1190,       36.3728,       166.274,            0.,NA,NA,"",   1.03802E+06,   1.06375E+06,   1.06375E+06
C:/temp/Job-2.odb,Step-1,Increment      1: Step Time =    1.000,"P-2-1",          1191,       167.450,       37.6657,            0.,NA,NA,"",   1.02228E+06,   1.01731E+06,   1.01731E+06
C:/temp/Job-2.odb,Step-1,Increment      1: Step Time =    1.000,"P-2-1",          1192,       165.064,       166.658,            0.,NA,NA,"",   1.02204E+06,   1.01677E+06,   1.01677E+06
C:/temp/Job-2.odb,Step-1,Increment      1: Step Time =    1.000,"P-2-1",          1193,       161.146,       168.296,            0.,NA,NA,"",   1.02402E+06,   1.01806E+06,   1.01806E+06
C:/temp/Job-2.odb,Step-1,Increment      1: Step Time =    1.000,"P-2-1",          1194,       36.3418,       39.0630,            0.,NA,NA,"",   1.02259E+06,   1.05447E+06,   1.05447E+06
C:/temp/Job-2.odb,Step-1,Increment      1: Step Time =    1.000,"P-2-1",          1195,       38.0329,       35.2656,            0.,NA,NA,"",   1.03355E+06,   1.05955E+06,   1.05955E+06
C:/temp/Job-2.odb,Step-1,Increment      1: Step Time =    1.000,"P-2-1",          1196,       163.826,       32.9751,            0.,NA,NA,"",   1.02266E+06,   1.01722E+06,   1.01722E+06
C:/temp/Job-2.odb,Step-1,Increment      1: Step Time =    1.000,"P-2-1",          1197,       31.4772,       164.255,            0.,NA,NA,"",   1.02143E+06,   1.05868E+06,   1.05868E+06
C:/temp/Job-2.odb,Step-1,Increment      1: Step Time =    1.000,"P-2-1",          1198,       148.357,       30.9023,            0.,NA,NA,"",   1.03252E+06,   1.02489E+06,   1.02489E+06
C:/temp/Job-2.odb,Step-1,Increment      1: Step Time =    1.000,"P-2-1",          1199,       167.022,       150.841,            0.,NA,NA,"",   1.02881E+06,   1.02208E+06,   1.02208E+06
C:/temp/Job-2.odb,Step-1,Increment      1: Step Time =    1.000,"P-2-1",          1200,       30.4821,       44.9467,            0.,NA,NA,"",   988.892E+03,   1.03672E+06,   1.03672E+06
C:/temp/Job-2.odb,Step-1,Increment      1: Step Time =    1.000,"P-2-1",          1201,       46.7536,       171.265,            0.,NA,NA,"",   1.04902E+06,   1.05887E+06,   1.05887E+06
C:/temp/Job-2.odb,Step-1,Increment      1: Step Time =    1.000,"P-2-1",          1202,       160.933,       160.276,            0.,NA,NA,"",   1.03347E+06,   1.02515E+06,   1.02515E+06
C:/temp/Job-2.odb,Step-1,Increment      1: Step Time =    1.000,"P-2-1",          1203,       163.766,       37.1502,            0.,NA,NA,"",   1.02639E+06,   1.02013E+06,   1.02013E+06
C:/temp/Job-2.odb,Step-1,Increment      1: Step Time =    1.000,"P-2-1",          1204,       39.3195,       162.305,            0.,NA,NA,"",   1.03396E+06,   1.05945E+06,   1.05945E+06
C:/temp/Job-2.odb,Step-1,Increment      1: Step Time =    1.000,"P-2-1",          1205,       39.6168,       40.8844,            0.,NA,NA,"",   1.02574E+06,   1.05357E+06,   1.05357E+06
C:/temp/Job-2.odb,Step-1,Increment      1: Step Time =    1.000,"P-2-1",          1206,       20.0349,       79.3463,            0.,NA,NA,"",   832.249E+03,   917.013E+03,   917.013E+03
C:/temp/Job-2.odb,Step-1,Increment      1: Step Time =    1.000,"P-2-1",          1207,       179.330,       121.545,            0.,NA,NA,"",   981.064E+03,   993.835E+03,   993.835E+03
C:/temp/Job-2.odb,Step-1,Increment      1: Step Time =    1.000,"P-2-1",          1208,       131.728,       30.1277,            0.,NA,NA,"",   1.02997E+06,   1.02658E+06,   1.02658E+06
C:/temp/Job-2.odb,Step-1,Increment      1: Step Time =    1.000,"P-2-1",          1209,       66.4000,       171.495,            0.,NA,NA,"",   1.03788E+06,   1.04073E+06,   1.04073E+06
C:/temp/Job-2.odb,Step-1,Increment      1: Step Time =    1.000,"P-2-1",          1210,       32.8086,       62.0836,            0.,NA,NA,"",   936.667E+03,   992.326E+03,   992.326E+03
C:/temp/Job-2.odb,Step-1,Increment      1: Step Time =    1.000,"P-2-1",          1211,       171.316,       131.034,            0.,NA,NA,"",   1.00275E+06,   1.00403E+06,   1.00403E+06
C:/temp/Job-2.odb,Step-1,Increment      1: Step Time =    1.000,"P-2-1",          1212,       138.704,       101.767,            0.,NA,NA,"",   785.360E+03,   796.402E+03,   796.402E+03
C:/temp/Job-2.odb,Step-1,Increment      1: Step Time =    1.000,"P-2-1",          1213,       101.322,       137.214,            0.,NA,NA,"",   1.05830E+06,   1.12232E+06,   1.12232E+06
C:/temp/Job-2.odb,Step-1,Increment      1: Step Time =    1.000,"P-2-1",          1214,       101.543,       60.9118,            0.,NA,NA,"",   1.05091E+06,   1.10939E+06,   1.10939E+06
C:/temp/Job-2.odb,Step-1,Increment      1: Step Time =    1.000,"P-2-1",          1215,       62.8914,       98.5537,            0.,NA,NA,"",   707.261E+03,   751.559E+03,   751.559E+03
C:/temp/Job-2.odb,Step-1,Increment      1: Step Time =    1.000,"P-2-1",          1216,       176.039,       157.286,            0.,NA,NA,"",   1.01324E+06,   1.01172E+06,   1.01172E+06
C:/temp/Job-2.odb,Step-1,Increment      1: Step Time =    1.000,"P-2-1",          1217,       158.139,       24.1123,            0.,NA,NA,"",   1.01542E+06,   1.01122E+06,   1.01122E+06
C:/temp/Job-2.odb,Step-1,Increment      1: Step Time =    1.000,"P-2-1",          1218,       27.4179,       39.5623,            0.,NA,NA,"",   997.244E+03,   1.04663E+06,   1.04663E+06
C:/temp/Job-2.odb,Step-1,Increment      1: Step Time =    1.000,"P-2-1",          1219,       164.445,       119.767,            0.,NA,NA,"",   979.046E+03,   981.621E+03,   981.621E+03
C:/temp/Job-2.odb,Step-1,Increment      1: Step Time =    1.000,"P-2-1",          1220,       82.9275,       162.435,            0.,NA,NA,"",   1.03560E+06,   1.04871E+06,   1.04871E+06
C:/temp/Job-2.odb,Step-1,Increment      1: Step Time =    1.000,"P-2-1",          1221,       38.0472,       82.8363,            0.,NA,NA,"",   861.642E+03,   923.380E+03,   923.380E+03
C:/temp/Job-2.odb,Step-1,Increment      1: Step Time =    1.000,"P-2-1",          1222,       115.304,       34.1091,            0.,NA,NA,"",   1.02075E+06,   1.02981E+06,   1.02981E+06
C:/temp/Job-2.odb,Step-1,Increment      1: Step Time =    1.000,"P-2-1",          1223,       53.6887,       91.1533,            0.,NA,NA,"",   814.566E+03,   860.897E+03,   860.897E+03
C:/temp/Job-2.odb,Step-1,Increment      1: Step Time =    1.000,"P-2-1",          1224,       110.913,       52.7235,            0.,NA,NA,"",   1.05560E+06,   1.08281E+06,   1.08281E+06
C:/temp/Job-2.odb,Step-1,Increment      1: Step Time =    1.000,"P-2-1",          1225,       59.0960,       79.3119,            0.,NA,NA,"",   961.903E+03,   972.234E+03,   972.234E+03
C:/temp/Job-2.odb,Step-1,Increment      1: Step Time =    1.000,"P-2-1",          1226,       119.401,       57.2226,            0.,NA,NA,"",   1.11066E+06,   1.11315E+06,   1.11315E+06
C:/temp/Job-2.odb,Step-1,Increment      1: Step Time =    1.000,"P-2-1",          1227,       145.760,       111.331,            0.,NA,NA,"",   914.322E+03,   911.666E+03,   911.666E+03
C:/temp/Job-2.odb,Step-1,Increment      1: Step Time =    1.000,"P-2-1",          1228,       91.4540,       144.811,            0.,NA,NA,"",   1.05299E+06,   1.09295E+06,   1.09295E+06
C:/temp/Job-2.odb,Step-1,Increment      1: Step Time =    1.000,"P-2-1",          1229,       141.835,       119.165,            0.,NA,NA,"",   1.00339E+06,   977.174E+03,   977.174E+03
C:/temp/Job-2.odb,Step-1,Increment      1: Step Time =    1.000,"P-2-1",          1230,       79.4615,       141.383,            0.,NA,NA,"",   1.11655E+06,   1.12497E+06,   1.12497E+06
C:/temp/Job-2.odb,Step-1,Increment      1: Step Time =    1.000,"P-2-1",          1231,       184.626,       184.442,            0.,NA,NA,"",   1.00098E+06,   1.00086E+06,   1.00086E+06
C:/temp/Job-2.odb,Step-1,Increment      1: Step Time =    1.000,"P-2-1",          1232,       183.954,       15.6718,            0.,NA,NA,"",   1.00114E+06,   1.00097E+06,   1.00097E+06
C:/temp/Job-2.odb,Step-1,Increment      1: Step Time =    1.000,"P-2-1",          1233,       16.1546,       14.8714,            0.,NA,NA,"",   1.11415E+06,   1.15011E+06,   1.15011E+06
C:/temp/Job-2.odb,Step-1,Increment      1: Step Time =    1.000,"P-2-1",          1234,       164.430,       94.0332,            0.,NA,NA,"",   939.689E+03,   951.165E+03,   951.165E+03
C:/temp/Job-2.odb,Step-1,Increment      1: Step Time =    1.000,"P-2-1",          1235,       105.551,       165.334,            0.,NA,NA,"",   1.01075E+06,   1.02707E+06,   1.02707E+06
C:/temp/Job-2.odb,Step-1,Increment      1: Step Time =    1.000,"P-2-1",          1236,       95.6829,       36.6711,            0.,NA,NA,"",   1.01361E+06,   1.03336E+06,   1.03336E+06
C:/temp/Job-2.odb,Step-1,Increment      1: Step Time =    1.000,"P-2-1",          1237,       37.0106,       106.088,            0.,NA,NA,"",   820.551E+03,   889.532E+03,   889.532E+03
C:/temp/Job-2.odb,Step-1,Increment      1: Step Time =    1.000,"P-2-1",          1238,       164.550,       84.8688,            0.,NA,NA,"",   965.469E+03,   971.212E+03,   971.212E+03
C:/temp/Job-2.odb,Step-1,Increment      1: Step Time =    1.000,"P-2-1",          1239,       114.771,       165.023,            0.,NA,NA,"",   1.02271E+06,   1.03217E+06,   1.03217E+06
C:/temp/Job-2.odb,Step-1,Increment      1: Step Time =    1.000,"P-2-1",          1240,       84.6943,       36.1020,            0.,NA,NA,"",   1.02977E+06,   1.04276E+06,   1.04276E+06
C:/temp/Job-2.odb,Step-1,Increment      1: Step Time =    1.000,"P-2-1",          1241,       37.1118,       115.230,            0.,NA,NA,"",   849.635E+03,   914.271E+03,   914.271E+03
C:/temp/Job-2.odb,Step-1,Increment      1: Step Time =    1.000,"P-2-1",          1242,       35.4237,       125.265,            0.,NA,NA,"",   889.141E+03,   949.660E+03,   949.660E+03
C:/temp/Job-2.odb,Step-1,Increment      1: Step Time =    1.000,"P-2-1",          1243,       163.892,       75.3016,            0.,NA,NA,"",   996.199E+03,   994.420E+03,   994.420E+03
C:/temp/Job-2.odb,Step-1,Increment      1: Step Time =    1.000,"P-2-1",          1244,       124.424,       163.461,            0.,NA,NA,"",   1.04002E+06,   1.04052E+06,   1.04052E+06
C:/temp/Job-2.odb,Step-1,Increment      1: Step Time =    1.000,"P-2-1",          1245,       76.4113,       37.4563,            0.,NA,NA,"",   1.04618E+06,   1.05428E+06,   1.05428E+06
C:/temp/Job-2.odb,Step-1,Increment      1: Step Time =    1.000,"P-2-1",          1246,       165.654,       103.830,            0.,NA,NA,"",   939.745E+03,   952.425E+03,   952.425E+03
C:/temp/Job-2.odb,Step-1,Increment      1: Step Time =    1.000,"P-2-1",          1247,       102.816,       36.0505,            0.,NA,NA,"",   1.01177E+06,   1.03017E+06,   1.03017E+06
C:/temp/Job-2.odb,Step-1,Increment      1: Step Time =    1.000,"P-2-1",          1248,       34.6892,       97.0197,            0.,NA,NA,"",   815.814E+03,   888.220E+03,   888.220E+03
C:/temp/Job-2.odb,Step-1,Increment      1: Step Time =    1.000,"P-2-1",          1249,       35.0591,       140.661,            0.,NA,NA,"",   957.383E+03,   1.00657E+06,   1.00657E+06
C:/temp/Job-2.odb,Step-1,Increment      1: Step Time =    1.000,"P-2-1",          1250,       164.051,       65.7889,            0.,NA,NA,"",   1.02146E+06,   1.01449E+06,   1.01449E+06
C:/temp/Job-2.odb,Step-1,Increment      1: Step Time =    1.000,"P-2-1",          1251,       135.227,       164.036,            0.,NA,NA,"",   1.04739E+06,   1.04006E+06,   1.04006E+06
C:/temp/Job-2.odb,Step-1,Increment      1: Step Time =    1.000,"P-2-1",          1252,       64.9705,       36.6395,            0.,NA,NA,"",   1.05680E+06,   1.06060E+06,   1.06060E+06
C:/temp/Job-2.odb,Step-1,Increment      1: Step Time =    1.000,"P-2-1",          1253,       120.914,       40.1157,            0.,NA,NA,"",   1.04541E+06,   1.04978E+06,   1.04978E+06
C:/temp/Job-2.odb,Step-1,Increment      1: Step Time =    1.000,"P-2-1",          1254,       165.647,       127.870,            0.,NA,NA,"",   1.00328E+06,   1.00107E+06,   1.00107E+06
C:/temp/Job-2.odb,Step-1,Increment      1: Step Time =    1.000,"P-2-1",          1255,       76.0880,       162.740,            0.,NA,NA,"",   1.04722E+06,   1.05510E+06,   1.05510E+06
C:/temp/Job-2.odb,Step-1,Increment      1: Step Time =    1.000,"P-2-1",          1256,       189.276,       15.6298,            0.,NA,NA,"",   1.00058E+06,   1.00051E+06,   1.00051E+06
C:/temp/Job-2.odb,Step-1,Increment      1: Step Time =    1.000,"P-2-1",          1257,       184.596,       189.545,            0.,NA,NA,"",   1.00022E+06,   1.00014E+06,   1.00014E+06
C:/temp/Job-2.odb,Step-1,Increment      1: Step Time =    1.000,"P-2-1",          1258,       15.6962,       10.0349,            0.,NA,NA,"",   1.14777E+06,   1.16841E+06,   1.16841E+06
C:/temp/Job-2.odb,Step-1,Increment      1: Step Time =    1.000,"P-2-1",          1259,       10.2556,       184.389,            0.,NA,NA,"",   1.09584E+06,   1.15991E+06,   1.15991E+06
C:/temp/Job-2.odb,Step-1,Increment      1: Step Time =    1.000,"P-2-1",          1260,       158.832,       165.184,            0.,NA,NA,"",   1.03044E+06,   1.02289E+06,   1.02289E+06
C:/temp/Job-2.odb,Step-1,Increment      1: Step Time =    1.000,"P-2-1",          1261,       167.097,       42.2566,            0.,NA,NA,"",   1.02658E+06,   1.02052E+06,   1.02052E+06
C:/temp/Job-2.odb,Step-1,Increment      1: Step Time =    1.000,"P-2-1",          1262,       35.8922,       159.651,            0.,NA,NA,"",   1.01932E+06,   1.05286E+06,   1.05286E+06
C:/temp/Job-2.odb,Step-1,Increment      1: Step Time =    1.000,"P-2-1",          1263,       41.4948,       37.6450,            0.,NA,NA,"",   1.03643E+06,   1.05881E+06,   1.05881E+06
C:/temp/Job-2.odb,Step-1,Increment      1: Step Time =    1.000,"P-2-1",          1264,       164.768,       116.602,            0.,NA,NA,"",   969.721E+03,   974.652E+03,   974.652E+03
C:/temp/Job-2.odb,Step-1,Increment      1: Step Time =    1.000,"P-2-1",          1265,       88.8908,       161.950,            0.,NA,NA,"",   1.02441E+06,   1.04254E+06,   1.04254E+06
C:/temp/Job-2.odb,Step-1,Increment      1: Step Time =    1.000,"P-2-1",          1266,       159.107,       124.071,            0.,NA,NA,"",   998.599E+03,   992.565E+03,   992.565E+03
C:/temp/Job-2.odb,Step-1,Increment      1: Step Time =    1.000,"P-2-1",          1267,       77.6122,       159.404,            0.,NA,NA,"",   1.05294E+06,   1.06267E+06,   1.06267E+06
C:/temp/Job-2.odb,Step-1,Increment      1: Step Time =    1.000,"P-2-1",          1268,       40.9746,       80.5837,            0.,NA,NA,"",   879.027E+03,   934.221E+03,   934.221E+03
C:/temp/Job-2.odb,Step-1,Increment      1: Step Time =    1.000,"P-2-1",          1269,       33.7795,       86.1615,            0.,NA,NA,"",   839.668E+03,   909.750E+03,   909.750E+03
C:/temp/Job-2.odb,Step-1,Increment      1: Step Time =    1.000,"P-2-1",          1270,       111.098,       34.0882,            0.,NA,NA,"",   1.01475E+06,   1.02733E+06,   1.02733E+06
C:/temp/Job-2.odb,Step-1,Increment      1: Step Time =    1.000,"P-2-1",          1271,       118.867,       52.3706,            0.,NA,NA,"",   1.08296E+06,   1.08990E+06,   1.08990E+06
C:/temp/Job-2.odb,Step-1,Increment      1: Step Time =    1.000,"P-2-1",          1272,       54.9443,       83.3435,            0.,NA,NA,"",   892.326E+03,   922.654E+03,   922.654E+03
C:/temp/Job-2.odb,Step-1,Increment      1: Step Time =    1.000,"P-2-1",          1273,       63.4045,       79.4514,            0.,NA,NA,"",   997.693E+03,   991.119E+03,   991.119E+03
C:/temp/Job-2.odb,Step-1,Increment      1: Step Time =    1.000,"P-2-1",          1274,       119.819,       62.0362,            0.,NA,NA,"",   1.14682E+06,   1.14161E+06,   1.14161E+06
C:/temp/Job-2.odb,Step-1,Increment      1: Step Time =    1.000,"P-2-1",          1275,       137.364,       119.664,            0.,NA,NA,"",   1.03503E+06,   994.648E+03,   994.648E+03
C:/temp/Job-2.odb,Step-1,Increment      1: Step Time =    1.000,"P-2-1",          1276,       77.3767,       135.945,            0.,NA,NA,"",   1.14901E+06,   1.14392E+06,   1.14392E+06
C:/temp/Job-2.odb,Step-1,Increment      1: Step Time =    1.000,"P-2-1",          1277,       81.6621,       144.989,            0.,NA,NA,"",   1.09182E+06,   1.10818E+06,   1.10818E+06
C:/temp/Job-2.odb,Step-1,Increment      1: Step Time =    1.000,"P-2-1",          1278,       146.321,       118.528,            0.,NA,NA,"",   982.749E+03,   966.847E+03,   966.847E+03
C:/temp/Job-2.odb,Step-1,Increment      1: Step Time =    1.000,"P-2-1",          1279,       109.760,       160.255,            0.,NA,NA,"",   1.02478E+06,   1.04209E+06,   1.04209E+06
C:/temp/Job-2.odb,Step-1,Increment      1: Step Time =    1.000,"P-2-1",          1280,       159.689,       85.8249,            0.,NA,NA,"",   956.689E+03,   960.199E+03,   960.199E+03
C:/temp/Job-2.odb,Step-1,Increment      1: Step Time =    1.000,"P-2-1",          1281,       89.9879,       39.6399,            0.,NA,NA,"",   1.02640E+06,   1.04607E+06,   1.04607E+06
C:/temp/Job-2.odb,Step-1,Increment      1: Step Time =    1.000,"P-2-1",          1282,       40.6372,       110.407,            0.,NA,NA,"",   833.682E+03,   896.507E+03,   896.507E+03
C:/temp/Job-2.odb,Step-1,Increment      1: Step Time =    1.000,"P-2-1",          1283,       118.793,       161.676,            0.,NA,NA,"",   1.03712E+06,   1.04321E+06,   1.04321E+06
C:/temp/Job-2.odb,Step-1,Increment      1: Step Time =    1.000,"P-2-1",          1284,       81.3544,       39.5439,            0.,NA,NA,"",   1.04301E+06,   1.05522E+06,   1.05522E+06
C:/temp/Job-2.odb,Step-1,Increment      1: Step Time =    1.000,"P-2-1",          1285,       38.7127,       119.648,            0.,NA,NA,"",   874.033E+03,   932.874E+03,   932.874E+03
C:/temp/Job-2.odb,Step-1,Increment      1: Step Time =    1.000,"P-2-1",          1286,       99.8754,       163.451,            0.,NA,NA,"",   1.01143E+06,   1.03168E+06,   1.03168E+06
C:/temp/Job-2.odb,Step-1,Increment      1: Step Time =    1.000,"P-2-1",          1287,       157.821,       97.5720,            0.,NA,NA,"",   912.230E+03,   923.659E+03,   923.659E+03
C:/temp/Job-2.odb,Step-1,Increment      1: Step Time =    1.000,"P-2-1",          1288,       100.437,       40.1706,            0.,NA,NA,"",   1.01676E+06,   1.04058E+06,   1.04058E+06
C:/temp/Job-2.odb,Step-1,Increment      1: Step Time =    1.000,"P-2-1",          1289,       39.8800,       101.760,            0.,NA,NA,"",   812.202E+03,   879.266E+03,   879.266E+03
C:/temp/Job-2.odb,Step-1,Increment      1: Step Time =    1.000,"P-2-1",          1290,       32.5136,       143.815,            0.,NA,NA,"",   957.529E+03,   1.01005E+06,   1.01005E+06
C:/temp/Job-2.odb,Step-1,Increment      1: Step Time =    1.000,"P-2-1",          1291,       36.9714,       130.441,            0.,NA,NA,"",   919.635E+03,   972.931E+03,   972.931E+03
C:/temp/Job-2.odb,Step-1,Increment      1: Step Time =    1.000,"P-2-1",          1292,       158.794,       70.6479,            0.,NA,NA,"",   1.01984E+06,   1.00971E+06,   1.00971E+06
C:/temp/Job-2.odb,Step-1,Increment      1: Step Time =    1.000,"P-2-1",          1293,       164.477,       60.9900,            0.,NA,NA,"",   1.02817E+06,   1.02022E+06,   1.02022E+06
C:/temp/Job-2.odb,Step-1,Increment      1: Step Time =    1.000,"P-2-1",          1294,       140.775,       164.815,            0.,NA,NA,"",   1.04559E+06,   1.03657E+06,   1.03657E+06
C:/temp/Job-2.odb,Step-1,Increment      1: Step Time =    1.000,"P-2-1",          1295,       130.123,       158.698,            0.,NA,NA,"",   1.06079E+06,   1.05461E+06,   1.05461E+06
C:/temp/Job-2.odb,Step-1,Increment      1: Step Time =    1.000,"P-2-1",          1296,       60.7591,       34.6596,            0.,NA,NA,"",   1.05445E+06,   1.05832E+06,   1.05832E+06
C:/temp/Job-2.odb,Step-1,Increment      1: Step Time =    1.000,"P-2-1",          1297,       70.2658,       41.2097,            0.,NA,NA,"",   1.06412E+06,   1.06913E+06,   1.06913E+06
C:/temp/Job-2.odb,Step-1,Increment      1: Step Time =    1.000,"P-2-1",          1298,       35.8368,       71.3029,            0.,NA,NA,"",   908.852E+03,   965.227E+03,   965.227E+03
C:/temp/Job-2.odb,Step-1,Increment      1: Step Time =    1.000,"P-2-1",          1299,       126.405,       36.3897,            0.,NA,NA,"",   1.04233E+06,   1.04134E+06,   1.04134E+06
C:/temp/Job-2.odb,Step-1,Increment      1: Step Time =    1.000,"P-2-1",          1300,       166.923,       131.727,            0.,NA,NA,"",   1.01124E+06,   1.00804E+06,   1.00804E+06
C:/temp/Job-2.odb,Step-1,Increment      1: Step Time =    1.000,"P-2-1",          1301,       154.086,       34.4719,            0.,NA,NA,"",   1.03447E+06,   1.02603E+06,   1.02603E+06
C:/temp/Job-2.odb,Step-1,Increment      1: Step Time =    1.000,"P-2-1",          1302,       163.362,       154.079,            0.,NA,NA,"",   1.03414E+06,   1.02560E+06,   1.02560E+06
C:/temp/Job-2.odb,Step-1,Increment      1: Step Time =    1.000,"P-2-1",          1303,       33.5882,       45.1101,            0.,NA,NA,"",   997.767E+03,   1.03982E+06,   1.03982E+06
C:/temp/Job-2.odb,Step-1,Increment      1: Step Time =    1.000,"P-2-1",          1304,       44.8327,       168.302,            0.,NA,NA,"",   1.04763E+06,   1.06093E+06,   1.06093E+06
C:/temp/Job-2.odb,Step-1,Increment      1: Step Time =    1.000,"P-2-1",          1305,       56.0174,       98.3023,            0.,NA,NA,"",   766.204E+03,   816.428E+03,   816.428E+03
C:/temp/Job-2.odb,Step-1,Increment      1: Step Time =    1.000,"P-2-1",          1306,       102.981,       56.2170,            0.,NA,NA,"",   1.04167E+06,   1.08790E+06,   1.08790E+06
C:/temp/Job-2.odb,Step-1,Increment      1: Step Time =    1.000,"P-2-1",          1307,       143.065,       103.602,            0.,NA,NA,"",   836.954E+03,   846.191E+03,   846.191E+03
C:/temp/Job-2.odb,Step-1,Increment      1: Step Time =    1.000,"P-2-1",          1308,       98.8986,       141.352,            0.,NA,NA,"",   1.04442E+06,   1.09847E+06,   1.09847E+06
C:/temp/Job-2.odb,Step-1,Increment      1: Step Time =    1.000,"P-2-1",          1309,       34.9758,       42.4974,            0.,NA,NA,"",   1.00923E+06,   1.04679E+06,   1.04679E+06
C:/temp/Job-2.odb,Step-1,Increment      1: Step Time =    1.000,"P-2-1",          1310,       42.5130,       165.043,            0.,NA,NA,"",   1.04381E+06,   1.06218E+06,   1.06218E+06
C:/temp/Job-2.odb,Step-1,Increment      1: Step Time =    1.000,"P-2-1",          1311,       158.961,       33.5770,            0.,NA,NA,"",   1.02826E+06,   1.02128E+06,   1.02128E+06
C:/temp/Job-2.odb,Step-1,Increment      1: Step Time =    1.000,"P-2-1",          1312,       162.630,       156.401,            0.,NA,NA,"",   1.03393E+06,   1.02549E+06,   1.02549E+06
C:/temp/Job-2.odb,Step-1,Increment      1: Step Time =    1.000,"P-2-1",          1313,       50.4903,       89.4157,            0.,NA,NA,"",   833.497E+03,   882.754E+03,   882.754E+03
C:/temp/Job-2.odb,Step-1,Increment      1: Step Time =    1.000,"P-2-1",          1314,       110.680,       47.8865,            0.,NA,NA,"",   1.04268E+06,   1.06579E+06,   1.06579E+06
C:/temp/Job-2.odb,Step-1,Increment      1: Step Time =    1.000,"P-2-1",          1315,       150.427,       114.434,            0.,NA,NA,"",   945.853E+03,   942.089E+03,   942.089E+03
C:/temp/Job-2.odb,Step-1,Increment      1: Step Time =    1.000,"P-2-1",          1316,       89.1398,       149.675,            0.,NA,NA,"",   1.04931E+06,   1.07903E+06,   1.07903E+06
C:/temp/Job-2.odb,Step-1,Increment      1: Step Time =    1.000,"P-2-1",          1317,       123.021,       51.5943,            0.,NA,NA,"",   1.09073E+06,   1.08830E+06,   1.08830E+06
C:/temp/Job-2.odb,Step-1,Increment      1: Step Time =    1.000,"P-2-1",          1318,       54.6561,       79.0696,            0.,NA,NA,"",   934.836E+03,   958.923E+03,   958.923E+03
C:/temp/Job-2.odb,Step-1,Increment      1: Step Time =    1.000,"P-2-1",          1319,       74.3951,       145.822,            0.,NA,NA,"",   1.09999E+06,   1.10344E+06,   1.10344E+06
C:/temp/Job-2.odb,Step-1,Increment      1: Step Time =    1.000,"P-2-1",          1320,       147.108,       122.300,            0.,NA,NA,"",   1.01293E+06,   992.951E+03,   992.951E+03
C:/temp/Job-2.odb,Step-1,Increment      1: Step Time =    1.000,"P-2-1",          1321,       118.348,       47.7408,            0.,NA,NA,"",   1.06314E+06,   1.07186E+06,   1.07186E+06
C:/temp/Job-2.odb,Step-1,Increment      1: Step Time =    1.000,"P-2-1",          1322,       50.2371,       79.1876,            0.,NA,NA,"",   913.701E+03,   949.020E+03,   949.020E+03
C:/temp/Job-2.odb,Step-1,Increment      1: Step Time =    1.000,"P-2-1",          1323,       79.8716,       148.293,            0.,NA,NA,"",   1.08221E+06,   1.09489E+06,   1.09489E+06
C:/temp/Job-2.odb,Step-1,Increment      1: Step Time =    1.000,"P-2-1",          1324,       151.100,       121.286,            0.,NA,NA,"",   996.337E+03,   983.458E+03,   983.458E+03
C:/temp/Job-2.odb,Step-1,Increment      1: Step Time =    1.000,"P-2-1",          1325,       165.891,       45.6418,            0.,NA,NA,"",   1.02993E+06,   1.02289E+06,   1.02289E+06
C:/temp/Job-2.odb,Step-1,Increment      1: Step Time =    1.000,"P-2-1",          1326,       42.9741,       34.6099,            0.,NA,NA,"",   1.04392E+06,   1.06202E+06,   1.06202E+06
C:/temp/Job-2.odb,Step-1,Increment      1: Step Time =    1.000,"P-2-1",          1327,       154.620,       167.699,            0.,NA,NA,"",   1.03025E+06,   1.02275E+06,   1.02275E+06
C:/temp/Job-2.odb,Step-1,Increment      1: Step Time =    1.000,"P-2-1",          1328,       32.9441,       156.201,            0.,NA,NA,"",   1.00064E+06,   1.04283E+06,   1.04283E+06
C:/temp/Job-2.odb,Step-1,Increment      1: Step Time =    1.000,"P-2-1",          1329,       97.7661,       58.5226,            0.,NA,NA,"",   1.04237E+06,   1.09789E+06,   1.09789E+06
C:/temp/Job-2.odb,Step-1,Increment      1: Step Time =    1.000,"P-2-1",          1330,       57.8767,       103.813,            0.,NA,NA,"",   762.396E+03,   809.415E+03,   809.415E+03
C:/temp/Job-2.odb,Step-1,Increment      1: Step Time =    1.000,"P-2-1",          1331,       141.340,       98.0856,            0.,NA,NA,"",    804.77E+03,   816.911E+03,   816.911E+03
C:/temp/Job-2.odb,Step-1,Increment      1: Step Time =    1.000,"P-2-1",          1332,       50.6625,       101.090,            0.,NA,NA,"",   791.377E+03,   847.322E+03,   847.322E+03
C:/temp/Job-2.odb,Step-1,Increment      1: Step Time =    1.000,"P-2-1",          1333,       100.534,       50.6415,            0.,NA,NA,"",   1.02888E+06,   1.06765E+06,   1.06765E+06
C:/temp/Job-2.odb,Step-1,Increment      1: Step Time =    1.000,"P-2-1",          1334,       148.354,       102.243,            0.,NA,NA,"",   866.636E+03,   877.401E+03,   877.401E+03
C:/temp/Job-2.odb,Step-1,Increment      1: Step Time =    1.000,"P-2-1",          1335,       100.235,       145.425,            0.,NA,NA,"",   1.03576E+06,   1.08118E+06,   1.08118E+06
C:/temp/Job-2.odb,Step-1,Increment      1: Step Time =    1.000,"P-2-1",          1336,       161.673,       113.909,            0.,NA,NA,"",   958.043E+03,   963.194E+03,   963.194E+03
C:/temp/Job-2.odb,Step-1,Increment      1: Step Time =    1.000,"P-2-1",          1337,       38.4832,       86.5721,            0.,NA,NA,"",   846.466E+03,   909.958E+03,   909.958E+03
C:/temp/Job-2.odb,Step-1,Increment      1: Step Time =    1.000,"P-2-1",          1338,       110.710,       38.5795,            0.,NA,NA,"",   1.02331E+06,   1.03912E+06,   1.03912E+06
C:/temp/Job-2.odb,Step-1,Increment      1: Step Time =    1.000,"P-2-1",          1339,       39.5269,       140.039,            0.,NA,NA,"",   973.989E+03,   1.01460E+06,   1.01460E+06
C:/temp/Job-2.odb,Step-1,Increment      1: Step Time =    1.000,"P-2-1",          1340,       159.379,       60.8092,            0.,NA,NA,"",   1.04076E+06,   1.02800E+06,   1.02800E+06
C:/temp/Job-2.odb,Step-1,Increment      1: Step Time =    1.000,"P-2-1",          1341,       141.254,       159.880,            0.,NA,NA,"",   1.05827E+06,   1.04610E+06,   1.04610E+06
C:/temp/Job-2.odb,Step-1,Increment      1: Step Time =    1.000,"P-2-1",          1342,       61.3693,       40.7394,            0.,NA,NA,"",   1.06412E+06,   1.06836E+06,   1.06836E+06
C:/temp/Job-2.odb,Step-1,Increment      1: Step Time =    1.000,"P-2-1",          1343,       166.113,       108.180,            0.,NA,NA,"",   947.486E+03,   958.710E+03,   958.710E+03
C:/temp/Job-2.odb,Step-1,Increment      1: Step Time =    1.000,"P-2-1",          1344,       32.9710,       91.7010,            0.,NA,NA,"",   823.101E+03,   896.588E+03,   896.588E+03
C:/temp/Job-2.odb,Step-1,Increment      1: Step Time =    1.000,"P-2-1",          1345,       107.710,       34.3380,            0.,NA,NA,"",   1.01220E+06,   1.02667E+06,   1.02667E+06
C:/temp/Job-2.odb,Step-1,Increment      1: Step Time =    1.000,"P-2-1",          1346,       151.430,       108.969,            0.,NA,NA,"",   911.749E+03,   916.468E+03,   916.468E+03
C:/temp/Job-2.odb,Step-1,Increment      1: Step Time =    1.000,"P-2-1",          1347,       94.4349,       150.575,            0.,NA,NA,"",   1.03331E+06,   1.06823E+06,   1.06823E+06
C:/temp/Job-2.odb,Step-1,Increment      1: Step Time =    1.000,"P-2-1",          1348,       107.067,       48.0818,            0.,NA,NA,"",   1.03406E+06,   1.06314E+06,   1.06314E+06
C:/temp/Job-2.odb,Step-1,Increment      1: Step Time =    1.000,"P-2-1",          1349,       46.2101,       96.6498,            0.,NA,NA,"",   805.857E+03,   865.742E+03,   865.742E+03
C:/temp/Job-2.odb,Step-1,Increment      1: Step Time =    1.000,"P-2-1",          1350,       155.398,       117.801,            0.,NA,NA,"",   972.347E+03,   968.773E+03,   968.773E+03
C:/temp/Job-2.odb,Step-1,Increment      1: Step Time =    1.000,"P-2-1",          1351,       84.2670,       151.189,            0.,NA,NA,"",   1.06087E+06,   1.08064E+06,   1.08064E+06
C:/temp/Job-2.odb,Step-1,Increment      1: Step Time =    1.000,"P-2-1",          1352,       48.1135,       87.5866,            0.,NA,NA,"",   848.466E+03,   898.672E+03,   898.672E+03
C:/temp/Job-2.odb,Step-1,Increment      1: Step Time =    1.000,"P-2-1",          1353,       114.529,       47.9024,            0.,NA,NA,"",   1.05325E+06,   1.06935E+06,   1.06935E+06
C:/temp/Job-2.odb,Step-1,Increment      1: Step Time =    1.000,"P-2-1",          1354,       39.1164,       74.4168,            0.,NA,NA,"",   904.160E+03,   957.607E+03,   957.607E+03
C:/temp/Job-2.odb,Step-1,Increment      1: Step Time =    1.000,"P-2-1",          1355,       128.544,       39.9951,            0.,NA,NA,"",   1.05614E+06,   1.05203E+06,   1.05203E+06
C:/temp/Job-2.odb,Step-1,Increment      1: Step Time =    1.000,"P-2-1",          1356,       72.0691,       163.422,            0.,NA,NA,"",   1.05044E+06,   1.05598E+06,   1.05598E+06
C:/temp/Job-2.odb,Step-1,Increment      1: Step Time =    1.000,"P-2-1",          1357,       133.295,       124.718,            0.,NA,NA,"",   1.13419E+06,   1.07699E+06,   1.07699E+06
C:/temp/Job-2.odb,Step-1,Increment      1: Step Time =    1.000,"P-2-1",          1358,       73.4419,       134.342,            0.,NA,NA,"",   1.14754E+06,   1.13439E+06,   1.13439E+06
C:/temp/Job-2.odb,Step-1,Increment      1: Step Time =    1.000,"P-2-1",          1359,       67.3657,       74.8294,            0.,NA,NA,"",   1.09907E+06,   1.07327E+06,   1.07327E+06
C:/temp/Job-2.odb,Step-1,Increment      1: Step Time =    1.000,"P-2-1",          1360,       124.845,       66.4268,            0.,NA,NA,"",   1.18766E+06,   1.15126E+06,   1.15126E+06
C:/temp/Job-2.odb,Step-1,Increment      1: Step Time =    1.000,"P-2-1",          1361,       102.034,       46.6588,            0.,NA,NA,"",   1.02426E+06,   1.05632E+06,   1.05632E+06
C:/temp/Job-2.odb,Step-1,Increment      1: Step Time =    1.000,"P-2-1",          1362,       44.3963,       100.630,            0.,NA,NA,"",   806.326E+03,   869.040E+03,   869.040E+03
C:/temp/Job-2.odb,Step-1,Increment      1: Step Time =    1.000,"P-2-1",          1363,       154.477,       99.2062,            0.,NA,NA,"",   892.746E+03,   904.883E+03,   904.883E+03
C:/temp/Job-2.odb,Step-1,Increment      1: Step Time =    1.000,"P-2-1",          1364,       99.4194,       156.368,            0.,NA,NA,"",   1.02027E+06,   1.04867E+06,   1.04867E+06
C:/temp/Job-2.odb,Step-1,Increment      1: Step Time =    1.000,"P-2-1",          1365,       162.627,       133.947,            0.,NA,NA,"",   1.02448E+06,   1.01597E+06,   1.01597E+06
C:/temp/Job-2.odb,Step-1,Increment      1: Step Time =    1.000,"P-2-1",          1366,       67.4880,       163.168,            0.,NA,NA,"",   1.05641E+06,   1.06057E+06,   1.06057E+06
C:/temp/Job-2.odb,Step-1,Increment      1: Step Time =    1.000,"P-2-1",          1367,       133.268,       37.2412,            0.,NA,NA,"",   1.05063E+06,   1.04381E+06,   1.04381E+06
C:/temp/Job-2.odb,Step-1,Increment      1: Step Time =    1.000,"P-2-1",          1368,       36.4827,       65.1408,            0.,NA,NA,"",   939.780E+03,   990.075E+03,   990.075E+03
C:/temp/Job-2.odb,Step-1,Increment      1: Step Time =    1.000,"P-2-1",          1369,       43.1200,       71.6316,            0.,NA,NA,"",   935.485E+03,   978.328E+03,   978.328E+03
C:/temp/Job-2.odb,Step-1,Increment      1: Step Time =    1.000,"P-2-1",          1370,       134.123,       42.5142,            0.,NA,NA,"",   1.06843E+06,   1.05757E+06,   1.05757E+06
C:/temp/Job-2.odb,Step-1,Increment      1: Step Time =    1.000,"P-2-1",          1371,       67.2259,       159.319,            0.,NA,NA,"",   1.06434E+06,   1.06816E+06,   1.06816E+06
C:/temp/Job-2.odb,Step-1,Increment      1: Step Time =    1.000,"P-2-1",          1372,       158.353,       133.668,            0.,NA,NA,"",   1.03417E+06,   1.02126E+06,   1.02126E+06
C:/temp/Job-2.odb,Step-1,Increment      1: Step Time =    1.000,"P-2-1",          1373,       37.4843,       148.583,            0.,NA,NA,"",   994.206E+03,   1.03288E+06,   1.03288E+06
C:/temp/Job-2.odb,Step-1,Increment      1: Step Time =    1.000,"P-2-1",          1374,       160.610,       52.9022,            0.,NA,NA,"",   1.04285E+06,   1.03120E+06,   1.03120E+06
C:/temp/Job-2.odb,Step-1,Increment      1: Step Time =    1.000,"P-2-1",          1375,       56.7906,       36.9536,            0.,NA,NA,"",   1.05676E+06,   1.06248E+06,   1.06248E+06
C:/temp/Job-2.odb,Step-1,Increment      1: Step Time =    1.000,"P-2-1",          1376,       145.773,       160.225,            0.,NA,NA,"",   1.05367E+06,   1.04123E+06,   1.04123E+06
C:/temp/Job-2.odb,Step-1,Increment      1: Step Time =    1.000,"P-2-1",          1377,       45.1983,       138.899,            0.,NA,NA,"",   995.949E+03,   1.02533E+06,   1.02533E+06
C:/temp/Job-2.odb,Step-1,Increment      1: Step Time =    1.000,"P-2-1",          1378,       154.570,       59.6792,            0.,NA,NA,"",   1.05542E+06,   1.03794E+06,   1.03794E+06
C:/temp/Job-2.odb,Step-1,Increment      1: Step Time =    1.000,"P-2-1",          1379,       59.1740,       45.0640,            0.,NA,NA,"",   1.06696E+06,   1.07217E+06,   1.07217E+06
C:/temp/Job-2.odb,Step-1,Increment      1: Step Time =    1.000,"P-2-1",          1380,       143.626,       155.333,            0.,NA,NA,"",   1.06711E+06,   1.05172E+06,   1.05172E+06
C:/temp/Job-2.odb,Step-1,Increment      1: Step Time =    1.000,"P-2-1",          1381,       30.4489,       152.359,            0.,NA,NA,"",   978.390E+03,   1.02891E+06,   1.02891E+06
C:/temp/Job-2.odb,Step-1,Increment      1: Step Time =    1.000,"P-2-1",          1382,       154.178,       172.397,            0.,NA,NA,"",   1.02280E+06,   1.01692E+06,   1.01692E+06
C:/temp/Job-2.odb,Step-1,Increment      1: Step Time =    1.000,"P-2-1",          1383,       51.1468,       30.4619,            0.,NA,NA,"",   1.04984E+06,   1.05703E+06,   1.05703E+06
C:/temp/Job-2.odb,Step-1,Increment      1: Step Time =    1.000,"P-2-1",          1384,       170.034,       50.8776,            0.,NA,NA,"",   1.02315E+06,   1.01852E+06,   1.01852E+06
C:/temp/Job-2.odb,Step-1,Increment      1: Step Time =    1.000,"P-2-1",          1385,       44.8582,       90.7759,            0.,NA,NA,"",   831.569E+03,   888.954E+03,   888.954E+03
C:/temp/Job-2.odb,Step-1,Increment      1: Step Time =    1.000,"P-2-1",          1386,       110.301,       43.1641,            0.,NA,NA,"",   1.03221E+06,   1.05156E+06,   1.05156E+06
C:/temp/Job-2.odb,Step-1,Increment      1: Step Time =    1.000,"P-2-1",          1387,       155.412,       112.996,            0.,NA,NA,"",   944.565E+03,   946.691E+03,   946.691E+03
C:/temp/Job-2.odb,Step-1,Increment      1: Step Time =    1.000,"P-2-1",          1388,       89.0214,       156.036,            0.,NA,NA,"",   1.03536E+06,   1.05886E+06,   1.05886E+06
C:/temp/Job-2.odb,Step-1,Increment      1: Step Time =    1.000,"P-2-1",          1389,       128.643,       55.0358,            0.,NA,NA,"",   1.11444E+06,   1.09709E+06,   1.09709E+06
C:/temp/Job-2.odb,Step-1,Increment      1: Step Time =    1.000,"P-2-1",          1390,       58.4980,       71.3332,            0.,NA,NA,"",   1.02883E+06,   1.03280E+06,   1.03280E+06
C:/temp/Job-2.odb,Step-1,Increment      1: Step Time =    1.000,"P-2-1",          1391,       69.6520,       143.811,            0.,NA,NA,"",   1.10339E+06,   1.10167E+06,   1.10167E+06
C:/temp/Job-2.odb,Step-1,Increment      1: Step Time =    1.000,"P-2-1",          1392,       144.295,       127.834,            0.,NA,NA,"",   1.06438E+06,   1.03397E+06,   1.03397E+06
C:/temp/Job-2.odb,Step-1,Increment      1: Step Time =    1.000,"P-2-1",          1393,       75.5347,       129.658,            0.,NA,NA,"",   1.18243E+06,   1.15795E+06,   1.15795E+06
C:/temp/Job-2.odb,Step-1,Increment      1: Step Time =    1.000,"P-2-1",          1394,       128.130,       120.422,            0.,NA,NA,"",   1.15153E+06,   1.07413E+06,   1.07413E+06
C:/temp/Job-2.odb,Step-1,Increment      1: Step Time =    1.000,"P-2-1",          1395,       72.3032,       79.2129,            0.,NA,NA,"",   1.11900E+06,   1.07080E+06,   1.07080E+06
C:/temp/Job-2.odb,Step-1,Increment      1: Step Time =    1.000,"P-2-1",          1396,       120.439,       71.7009,            0.,NA,NA,"",   1.24073E+06,   1.20122E+06,   1.20122E+06
C:/temp/Job-2.odb,Step-1,Increment      1: Step Time =    1.000,"P-2-1",          1397,       161.439,       108.937,            0.,NA,NA,"",   939.516E+03,   948.347E+03,   948.347E+03
C:/temp/Job-2.odb,Step-1,Increment      1: Step Time =    1.000,"P-2-1",          1398,       93.8580,       161.321,            0.,NA,NA,"",   1.01817E+06,   1.03948E+06,   1.03948E+06
C:/temp/Job-2.odb,Step-1,Increment      1: Step Time =    1.000,"P-2-1",          1399,       39.1189,       91.4694,            0.,NA,NA,"",   827.441E+03,   892.981E+03,   892.981E+03
C:/temp/Job-2.odb,Step-1,Increment      1: Step Time =    1.000,"P-2-1",          1400,       106.550,       37.9898,            0.,NA,NA,"",   1.01676E+06,   1.03497E+06,   1.03497E+06
C:/temp/Job-2.odb,Step-1,Increment      1: Step Time =    1.000,"P-2-1",          1401,       132.790,       129.515,            0.,NA,NA,"",   1.15498E+06,   1.10546E+06,   1.10546E+06
C:/temp/Job-2.odb,Step-1,Increment      1: Step Time =    1.000,"P-2-1",          1402,       69.1413,       132.835,            0.,NA,NA,"",   1.13010E+06,   1.11351E+06,   1.11351E+06
C:/temp/Job-2.odb,Step-1,Increment      1: Step Time =    1.000,"P-2-1",          1403,       67.7907,       70.1837,            0.,NA,NA,"",   1.12119E+06,   1.10115E+06,   1.10115E+06
C:/temp/Job-2.odb,Step-1,Increment      1: Step Time =    1.000,"P-2-1",          1404,       129.625,       67.0073,            0.,NA,NA,"",   1.16670E+06,   1.12216E+06,   1.12216E+06
C:/temp/Job-2.odb,Step-1,Increment      1: Step Time =    1.000,"P-2-1",          1405,       151.631,       95.8558,            0.,NA,NA,"",   885.801E+03,   896.520E+03,   896.520E+03
C:/temp/Job-2.odb,Step-1,Increment      1: Step Time =    1.000,"P-2-1",          1406,       107.585,       151.454,            0.,NA,NA,"",   1.03643E+06,   1.06500E+06,   1.06500E+06
C:/temp/Job-2.odb,Step-1,Increment      1: Step Time =    1.000,"P-2-1",          1407,       97.0199,       49.1060,            0.,NA,NA,"",   1.02747E+06,   1.06459E+06,   1.06459E+06
C:/temp/Job-2.odb,Step-1,Increment      1: Step Time =    1.000,"P-2-1",          1408,       42.8254,       105.476,            0.,NA,NA,"",   817.919E+03,   880.801E+03,   880.801E+03
C:/temp/Job-2.odb,Step-1,Increment      1: Step Time =    1.000,"P-2-1",          1409,       45.1067,       75.6706,            0.,NA,NA,"",   920.041E+03,   962.799E+03,   962.799E+03
C:/temp/Job-2.odb,Step-1,Increment      1: Step Time =    1.000,"P-2-1",          1410,       125.963,       45.8872,            0.,NA,NA,"",   1.07279E+06,   1.06888E+06,   1.06888E+06
C:/temp/Job-2.odb,Step-1,Increment      1: Step Time =    1.000,"P-2-1",          1411,       154.810,       127.048,            0.,NA,NA,"",   1.02098E+06,   1.00716E+06,   1.00716E+06
C:/temp/Job-2.odb,Step-1,Increment      1: Step Time =    1.000,"P-2-1",          1412,       74.9199,       153.175,            0.,NA,NA,"",   1.07510E+06,   1.08215E+06,   1.08215E+06
C:/temp/Job-2.odb,Step-1,Increment      1: Step Time =    1.000,"P-2-1",          1413,       47.2143,       134.782,            0.,NA,NA,"",   989.790E+03,   1.01761E+06,   1.01761E+06
C:/temp/Job-2.odb,Step-1,Increment      1: Step Time =    1.000,"P-2-1",          1414,       152.772,       63.8928,            0.,NA,NA,"",   1.05524E+06,   1.03577E+06,   1.03577E+06
C:/temp/Job-2.odb,Step-1,Increment      1: Step Time =    1.000,"P-2-1",          1415,       63.2514,       47.6109,            0.,NA,NA,"",   1.07615E+06,   1.07913E+06,   1.07913E+06
C:/temp/Job-2.odb,Step-1,Increment      1: Step Time =    1.000,"P-2-1",          1416,       137.776,       152.999,            0.,NA,NA,"",   1.07977E+06,   1.06374E+06,   1.06374E+06
C:/temp/Job-2.odb,Step-1,Increment      1: Step Time =    1.000,"P-2-1",          1417,       54.4046,       69.9409,            0.,NA,NA,"",   1.00862E+06,   1.02205E+06,   1.02205E+06
C:/temp/Job-2.odb,Step-1,Increment      1: Step Time =    1.000,"P-2-1",          1418,       132.814,       52.4704,            0.,NA,NA,"",   1.10334E+06,   1.08396E+06,   1.08396E+06
C:/temp/Job-2.odb,Step-1,Increment      1: Step Time =    1.000,"P-2-1",          1419,       67.5150,       148.053,            0.,NA,NA,"",   1.08905E+06,   1.09019E+06,   1.09019E+06
C:/temp/Job-2.odb,Step-1,Increment      1: Step Time =    1.000,"P-2-1",          1420,       147.021,       131.472,            0.,NA,NA,"",   1.06822E+06,   1.04098E+06,   1.04098E+06
C:/temp/Job-2.odb,Step-1,Increment      1: Step Time =    1.000,"P-2-1",          1421,       139.130,       130.559,            0.,NA,NA,"",   1.10708E+06,   1.06778E+06,   1.06778E+06
C:/temp/Job-2.odb,Step-1,Increment      1: Step Time =    1.000,"P-2-1",          1422,       67.2125,       137.530,            0.,NA,NA,"",   1.11095E+06,   1.10282E+06,   1.10282E+06
C:/temp/Job-2.odb,Step-1,Increment      1: Step Time =    1.000,"P-2-1",          1423,       61.7987,       68.9667,            0.,NA,NA,"",   1.06731E+06,   1.06210E+06,   1.06210E+06
C:/temp/Job-2.odb,Step-1,Increment      1: Step Time =    1.000,"P-2-1",          1424,       131.018,       60.5166,            0.,NA,NA,"",   1.13682E+06,   1.10718E+06,   1.10718E+06
C:/temp/Job-2.odb,Step-1,Increment      1: Step Time =    1.000,"P-2-1",          1425,       138.864,       37.3622,            0.,NA,NA,"",   1.05136E+06,   1.04165E+06,   1.04165E+06
C:/temp/Job-2.odb,Step-1,Increment      1: Step Time =    1.000,"P-2-1",          1426,       35.9440,       57.2425,            0.,NA,NA,"",   966.260E+03,   1.01282E+06,   1.01282E+06
C:/temp/Job-2.odb,Step-1,Increment      1: Step Time =    1.000,"P-2-1",          1427,       160.686,       138.246,            0.,NA,NA,"",   1.03616E+06,   1.02479E+06,   1.02479E+06
C:/temp/Job-2.odb,Step-1,Increment      1: Step Time =    1.000,"P-2-1",          1428,       59.2087,       163.627,            0.,NA,NA,"",   1.05619E+06,   1.06100E+06,   1.06100E+06
C:/temp/Job-2.odb,Step-1,Increment      1: Step Time =    1.000,"P-2-1",          1429,       155.198,       87.7276,            0.,NA,NA,"",   942.293E+03,   944.490E+03,   944.490E+03
C:/temp/Job-2.odb,Step-1,Increment      1: Step Time =    1.000,"P-2-1",          1430,       109.361,       155.720,            0.,NA,NA,"",   1.03266E+06,   1.05440E+06,   1.05440E+06
C:/temp/Job-2.odb,Step-1,Increment      1: Step Time =    1.000,"P-2-1",          1431,       44.5714,       109.120,            0.,NA,NA,"",   828.882E+03,   887.475E+03,   887.475E+03
C:/temp/Job-2.odb,Step-1,Increment      1: Step Time =    1.000,"P-2-1",          1432,       88.5326,       44.8345,            0.,NA,NA,"",   1.03915E+06,   1.06252E+06,   1.06252E+06
C:/temp/Job-2.odb,Step-1,Increment      1: Step Time =    1.000,"P-2-1",          1433,       159.268,       47.7989,            0.,NA,NA,"",   1.04353E+06,   1.03217E+06,   1.03217E+06
C:/temp/Job-2.odb,Step-1,Increment      1: Step Time =    1.000,"P-2-1",          1434,       36.7637,       153.301,            0.,NA,NA,"",   1.00494E+06,   1.04186E+06,   1.04186E+06
C:/temp/Job-2.odb,Step-1,Increment      1: Step Time =    1.000,"P-2-1",          1435,       45.5536,       40.0672,            0.,NA,NA,"",   1.04088E+06,   1.05904E+06,   1.05904E+06
C:/temp/Job-2.odb,Step-1,Increment      1: Step Time =    1.000,"P-2-1",          1436,       152.084,       163.469,            0.,NA,NA,"",   1.04014E+06,   1.03033E+06,   1.03033E+06
C:/temp/Job-2.odb,Step-1,Increment      1: Step Time =    1.000,"P-2-1",          1437,       150.517,       89.1053,            0.,NA,NA,"",   923.869E+03,   924.899E+03,   924.899E+03
C:/temp/Job-2.odb,Step-1,Increment      1: Step Time =    1.000,"P-2-1",          1438,       112.114,       149.868,            0.,NA,NA,"",   1.05402E+06,   1.07537E+06,   1.07537E+06
C:/temp/Job-2.odb,Step-1,Increment      1: Step Time =    1.000,"P-2-1",          1439,       89.5483,       49.3204,            0.,NA,NA,"",   1.04660E+06,   1.07504E+06,   1.07504E+06
C:/temp/Job-2.odb,Step-1,Increment      1: Step Time =    1.000,"P-2-1",          1440,       50.3853,       111.718,            0.,NA,NA,"",   843.047E+03,   890.105E+03,   890.105E+03
C:/temp/Job-2.odb,Step-1,Increment      1: Step Time =    1.000,"P-2-1",          1441,       34.5364,       150.227,            0.,NA,NA,"",   987.656E+03,   1.03096E+06,   1.03096E+06
C:/temp/Job-2.odb,Step-1,Increment      1: Step Time =    1.000,"P-2-1",          1442,       150.361,       168.515,            0.,NA,NA,"",   1.03234E+06,   1.02451E+06,   1.02451E+06
C:/temp/Job-2.odb,Step-1,Increment      1: Step Time =    1.000,"P-2-1",          1443,       46.5361,       35.0109,            0.,NA,NA,"",   1.04756E+06,   1.06152E+06,   1.06152E+06
C:/temp/Job-2.odb,Step-1,Increment      1: Step Time =    1.000,"P-2-1",          1444,       164.256,       50.5646,            0.,NA,NA,"",   1.03457E+06,   1.02591E+06,   1.02591E+06
C:/temp/Job-2.odb,Step-1,Increment      1: Step Time =    1.000,"P-2-1",          1445,       80.2768,       151.286,            0.,NA,NA,"",   1.07075E+06,   1.08409E+06,   1.08409E+06
C:/temp/Job-2.odb,Step-1,Increment      1: Step Time =    1.000,"P-2-1",          1446,       46.7384,       84.0614,            0.,NA,NA,"",   868.851E+03,   917.488E+03,   917.488E+03
C:/temp/Job-2.odb,Step-1,Increment      1: Step Time =    1.000,"P-2-1",          1447,       118.020,       43.4423,            0.,NA,NA,"",   1.04922E+06,   1.05805E+06,   1.05805E+06
C:/temp/Job-2.odb,Step-1,Increment      1: Step Time =    1.000,"P-2-1",          1448,       72.3847,       123.455,            0.,NA,NA,"",   1.15027E+06,   1.10680E+06,   1.10680E+06
C:/temp/Job-2.odb,Step-1,Increment      1: Step Time =    1.000,"P-2-1",          1449,       78.7206,       70.9667,            0.,NA,NA,"",   1.20072E+06,   1.17910E+06,   1.17910E+06
C:/temp/Job-2.odb,Step-1,Increment      1: Step Time =    1.000,"P-2-1",          1450,       128.891,       78.5037,            0.,NA,NA,"",   1.14942E+06,   1.08049E+06,   1.08049E+06
C:/temp/Job-2.odb,Step-1,Increment      1: Step Time =    1.000,"P-2-1",          1451,       121.268,       128.949,            0.,NA,NA,"",   1.22394E+06,   1.18398E+06,   1.18398E+06
C:/temp/Job-2.odb,Step-1,Increment      1: Step Time =    1.000,"P-2-1",          1452,       153.399,       84.0188,            0.,NA,NA,"",   963.577E+03,   959.642E+03,   959.642E+03
C:/temp/Job-2.odb,Step-1,Increment      1: Step Time =    1.000,"P-2-1",          1453,       113.498,       154.598,            0.,NA,NA,"",   1.04517E+06,   1.06099E+06,   1.06099E+06
C:/temp/Job-2.odb,Step-1,Increment      1: Step Time =    1.000,"P-2-1",          1454,       49.6862,       115.268,            0.,NA,NA,"",   868.178E+03,   912.443E+03,   912.443E+03
C:/temp/Job-2.odb,Step-1,Increment      1: Step Time =    1.000,"P-2-1",          1455,       84.7484,       46.2349,            0.,NA,NA,"",   1.05267E+06,   1.07149E+06,   1.07149E+06
C:/temp/Job-2.odb,Step-1,Increment      1: Step Time =    1.000,"P-2-1",          1456,       168.311,       134.574,            0.,NA,NA,"",   1.01460E+06,   1.01134E+06,   1.01134E+06
C:/temp/Job-2.odb,Step-1,Increment      1: Step Time =    1.000,"P-2-1",          1457,       67.0156,       167.249,            0.,NA,NA,"",   1.04705E+06,   1.05078E+06,   1.05078E+06
C:/temp/Job-2.odb,Step-1,Increment      1: Step Time =    1.000,"P-2-1",          1458,       129.711,       33.9846,            0.,NA,NA,"",   1.03814E+06,   1.03518E+06,   1.03518E+06
C:/temp/Job-2.odb,Step-1,Increment      1: Step Time =    1.000,"P-2-1",          1459,       33.2618,       67.9263,            0.,NA,NA,"",   914.054E+03,   972.981E+03,   972.981E+03
C:/temp/Job-2.odb,Step-1,Increment      1: Step Time =    1.000,"P-2-1",          1460,       134.724,       46.7350,            0.,NA,NA,"",   1.08181E+06,   1.06733E+06,   1.06733E+06
C:/temp/Job-2.odb,Step-1,Increment      1: Step Time =    1.000,"P-2-1",          1461,       48.3017,       68.6889,            0.,NA,NA,"",   977.401E+03,   1.00569E+06,   1.00569E+06
C:/temp/Job-2.odb,Step-1,Increment      1: Step Time =    1.000,"P-2-1",          1462,       66.0550,       151.438,            0.,NA,NA,"",   1.08014E+06,   1.08277E+06,   1.08277E+06
C:/temp/Job-2.odb,Step-1,Increment      1: Step Time =    1.000,"P-2-1",          1463,       153.241,       132.664,            0.,NA,NA,"",   1.04811E+06,   1.02888E+06,   1.02888E+06
C:/temp/Job-2.odb,Step-1,Increment      1: Step Time =    1.000,"P-2-1",          1464,       42.4091,       132.823,            0.,NA,NA,"",   956.914E+03,   996.714E+03,   996.714E+03
C:/temp/Job-2.odb,Step-1,Increment      1: Step Time =    1.000,"P-2-1",          1465,       49.7374,       141.062,            0.,NA,NA,"",   1.02420E+06,   1.04371E+06,   1.04371E+06
C:/temp/Job-2.odb,Step-1,Increment      1: Step Time =    1.000,"P-2-1",          1466,       154.676,       69.8285,            0.,NA,NA,"",   1.03251E+06,   1.01720E+06,   1.01720E+06
C:/temp/Job-2.odb,Step-1,Increment      1: Step Time =    1.000,"P-2-1",          1467,       150.061,       58.1279,            0.,NA,NA,"",   1.07038E+06,   1.04912E+06,   1.04912E+06
C:/temp/Job-2.odb,Step-1,Increment      1: Step Time =    1.000,"P-2-1",          1468,       57.3184,       49.6755,            0.,NA,NA,"",   1.06565E+06,   1.07220E+06,   1.07220E+06
C:/temp/Job-2.odb,Step-1,Increment      1: Step Time =    1.000,"P-2-1",          1469,       69.0824,       45.7366,            0.,NA,NA,"",   1.07518E+06,   1.07916E+06,   1.07916E+06
C:/temp/Job-2.odb,Step-1,Increment      1: Step Time =    1.000,"P-2-1",          1470,       144.375,       149.648,            0.,NA,NA,"",   1.07832E+06,   1.05865E+06,   1.05865E+06
C:/temp/Job-2.odb,Step-1,Increment      1: Step Time =    1.000,"P-2-1",          1471,       131.160,       154.608,            0.,NA,NA,"",   1.07553E+06,   1.06570E+06,   1.06570E+06
C:/temp/Job-2.odb,Step-1,Increment      1: Step Time =    1.000,"P-2-1",          1472,       131.843,       134.544,            0.,NA,NA,"",   1.14990E+06,   1.11115E+06,   1.11115E+06
C:/temp/Job-2.odb,Step-1,Increment      1: Step Time =    1.000,"P-2-1",          1473,       64.6937,       131.384,            0.,NA,NA,"",   1.09596E+06,   1.08356E+06,   1.08356E+06
C:/temp/Job-2.odb,Step-1,Increment      1: Step Time =    1.000,"P-2-1",          1474,       68.4900,       65.3991,            0.,NA,NA,"",   1.12092E+06,   1.10829E+06,   1.10829E+06
C:/temp/Job-2.odb,Step-1,Increment      1: Step Time =    1.000,"P-2-1",          1475,       134.537,       68.0784,            0.,NA,NA,"",   1.13460E+06,   1.09169E+06,   1.09169E+06
C:/temp/Job-2.odb,Step-1,Increment      1: Step Time =    1.000,"P-2-1",          1476,       144.489,       42.5322,            0.,NA,NA,"",   1.06035E+06,   1.04657E+06,   1.04657E+06
C:/temp/Job-2.odb,Step-1,Increment      1: Step Time =    1.000,"P-2-1",          1477,       40.9453,       56.7805,            0.,NA,NA,"",   989.255E+03,   1.02533E+06,   1.02533E+06
C:/temp/Job-2.odb,Step-1,Increment      1: Step Time =    1.000,"P-2-1",          1478,       159.443,       142.016,            0.,NA,NA,"",   1.04256E+06,   1.02993E+06,   1.02993E+06
C:/temp/Job-2.odb,Step-1,Increment      1: Step Time =    1.000,"P-2-1",          1479,       57.9507,       158.409,            0.,NA,NA,"",   1.06096E+06,   1.06713E+06,   1.06713E+06
C:/temp/Job-2.odb,Step-1,Increment      1: Step Time =    1.000,"P-2-1",          1480,       154.375,       46.6692,            0.,NA,NA,"",   1.05229E+06,   1.03891E+06,   1.03891E+06
C:/temp/Job-2.odb,Step-1,Increment      1: Step Time =    1.000,"P-2-1",          1481,       42.9282,       152.712,            0.,NA,NA,"",   1.02354E+06,   1.04999E+06,   1.04999E+06
C:/temp/Job-2.odb,Step-1,Increment      1: Step Time =    1.000,"P-2-1",          1482,       46.5130,       44.0973,            0.,NA,NA,"",   1.03923E+06,   1.05762E+06,   1.05762E+06
C:/temp/Job-2.odb,Step-1,Increment      1: Step Time =    1.000,"P-2-1",          1483,       154.996,       158.138,            0.,NA,NA,"",   1.04497E+06,   1.03354E+06,   1.03354E+06
C:/temp/Job-2.odb,Step-1,Increment      1: Step Time =    1.000,"P-2-1",          1484,       144.590,       86.9855,            0.,NA,NA,"",   933.650E+03,   924.900E+03,   924.900E+03
C:/temp/Job-2.odb,Step-1,Increment      1: Step Time =    1.000,"P-2-1",          1485,       110.760,       144.940,            0.,NA,NA,"",   1.06430E+06,   1.09295E+06,   1.09295E+06
C:/temp/Job-2.odb,Step-1,Increment      1: Step Time =    1.000,"P-2-1",          1486,       86.9633,       55.1608,            0.,NA,NA,"",   1.07376E+06,   1.10134E+06,   1.10134E+06
C:/temp/Job-2.odb,Step-1,Increment      1: Step Time =    1.000,"P-2-1",          1487,       56.1302,       112.898,            0.,NA,NA,"",   851.569E+03,   887.005E+03,   887.005E+03
C:/temp/Job-2.odb,Step-1,Increment      1: Step Time =    1.000,"P-2-1",          1488,       68.4528,       117.780,            0.,NA,NA,"",   1.01099E+06,   985.439E+03,   985.439E+03
C:/temp/Job-2.odb,Step-1,Increment      1: Step Time =    1.000,"P-2-1",          1489,       131.244,       82.6642,            0.,NA,NA,"",   1.06438E+06,   1.00388E+06,   1.00388E+06
C:/temp/Job-2.odb,Step-1,Increment      1: Step Time =    1.000,"P-2-1",          1490,       82.7863,       68.6577,            0.,NA,NA,"",   1.18763E+06,   1.18895E+06,   1.18895E+06
C:/temp/Job-2.odb,Step-1,Increment      1: Step Time =    1.000,"P-2-1",          1491,       116.906,       131.338,            0.,NA,NA,"",   1.20046E+06,   1.19171E+06,   1.19171E+06
C:/temp/Job-2.odb,Step-1,Increment      1: Step Time =    1.000,"P-2-1",          1492,       66.3001,       126.858,            0.,NA,NA,"",   1.09400E+06,   1.07369E+06,   1.07369E+06
C:/temp/Job-2.odb,Step-1,Increment      1: Step Time =    1.000,"P-2-1",          1493,       77.2208,       66.9353,            0.,NA,NA,"",   1.16856E+06,   1.15626E+06,   1.15626E+06
C:/temp/Job-2.odb,Step-1,Increment      1: Step Time =    1.000,"P-2-1",          1494,       132.910,       77.0270,            0.,NA,NA,"",   1.11585E+06,   1.06055E+06,   1.06055E+06
C:/temp/Job-2.odb,Step-1,Increment      1: Step Time =    1.000,"P-2-1",          1495,       122.646,       132.984,            0.,NA,NA,"",   1.18797E+06,   1.15834E+06,   1.15834E+06
C:/temp/Job-2.odb,Step-1,Increment      1: Step Time =    1.000,"P-2-1",          1496,       79.7341,       63.2628,            0.,NA,NA,"",   1.14455E+06,   1.14651E+06,   1.14651E+06
C:/temp/Job-2.odb,Step-1,Increment      1: Step Time =    1.000,"P-2-1",          1497,       136.596,       79.6324,            0.,NA,NA,"",   1.05601E+06,   1.01266E+06,   1.01266E+06
C:/temp/Job-2.odb,Step-1,Increment      1: Step Time =    1.000,"P-2-1",          1498,       119.794,       136.780,            0.,NA,NA,"",   1.15583E+06,   1.14644E+06,   1.14644E+06
C:/temp/Job-2.odb,Step-1,Increment      1: Step Time =    1.000,"P-2-1",          1499,       63.0852,       121.346,            0.,NA,NA,"",   1.00408E+06,   998.264E+03,   998.264E+03
C:/temp/Job-2.odb,Step-1,Increment      1: Step Time =    1.000,"P-2-1",          1500,       139.452,       69.3600,            0.,NA,NA,"",   1.10054E+06,   1.06301E+06,   1.06301E+06
C:/temp/Job-2.odb,Step-1,Increment      1: Step Time =    1.000,"P-2-1",          1501,       130.749,       139.555,            0.,NA,NA,"",   1.13558E+06,   1.10742E+06,   1.10742E+06
C:/temp/Job-2.odb,Step-1,Increment      1: Step Time =    1.000,"P-2-1",          1502,       69.4219,       60.5648,            0.,NA,NA,"",   1.11487E+06,   1.10871E+06,   1.10871E+06
C:/temp/Job-2.odb,Step-1,Increment      1: Step Time =    1.000,"P-2-1",          1503,       58.3851,       134.286,            0.,NA,NA,"",   1.05554E+06,   1.05814E+06,   1.05814E+06
C:/temp/Job-2.odb,Step-1,Increment      1: Step Time =    1.000,"P-2-1",          1504,       43.4415,       64.6164,            0.,NA,NA,"",   971.911E+03,   1.00812E+06,   1.00812E+06
C:/temp/Job-2.odb,Step-1,Increment      1: Step Time =    1.000,"P-2-1",          1505,       138.152,       46.4833,            0.,NA,NA,"",   1.07771E+06,   1.06202E+06,   1.06202E+06
C:/temp/Job-2.odb,Step-1,Increment      1: Step Time =    1.000,"P-2-1",          1506,       65.1980,       156.208,            0.,NA,NA,"",   1.06957E+06,   1.07320E+06,   1.07320E+06
C:/temp/Job-2.odb,Step-1,Increment      1: Step Time =    1.000,"P-2-1",          1507,       126.682,       133.424,            0.,NA,NA,"",   1.17471E+06,   1.13765E+06,   1.13765E+06
C:/temp/Job-2.odb,Step-1,Increment      1: Step Time =    1.000,"P-2-1",          1508,       73.4474,       66.5457,            0.,NA,NA,"",   1.15024E+06,   1.13461E+06,   1.13461E+06
C:/temp/Job-2.odb,Step-1,Increment      1: Step Time =    1.000,"P-2-1",          1509,       133.319,       73.1336,            0.,NA,NA,"",   1.13307E+06,   1.08231E+06,   1.08231E+06
C:/temp/Job-2.odb,Step-1,Increment      1: Step Time =    1.000,"P-2-1",          1510,       141.688,       47.8301,            0.,NA,NA,"",   1.07699E+06,   1.05934E+06,   1.05934E+06
C:/temp/Job-2.odb,Step-1,Increment      1: Step Time =    1.000,"P-2-1",          1511,       144.045,       36.9842,            0.,NA,NA,"",   1.04790E+06,   1.03736E+06,   1.03736E+06
C:/temp/Job-2.odb,Step-1,Increment      1: Step Time =    1.000,"P-2-1",          1512,       34.2811,       53.4307,            0.,NA,NA,"",   972.169E+03,   1.01957E+06,   1.01957E+06
C:/temp/Job-2.odb,Step-1,Increment      1: Step Time =    1.000,"P-2-1",          1513,       46.0575,       60.2994,            0.,NA,NA,"",   1.00153E+06,   1.02910E+06,   1.02910E+06
C:/temp/Job-2.odb,Step-1,Increment      1: Step Time =    1.000,"P-2-1",          1514,       151.080,       137.561,            0.,NA,NA,"",   1.06454E+06,   1.04308E+06,   1.04308E+06
C:/temp/Job-2.odb,Step-1,Increment      1: Step Time =    1.000,"P-2-1",          1515,       163.435,       143.152,            0.,NA,NA,"",   1.03382E+06,   1.02462E+06,   1.02462E+06
C:/temp/Job-2.odb,Step-1,Increment      1: Step Time =    1.000,"P-2-1",          1516,       52.8595,       162.400,            0.,NA,NA,"",   1.05357E+06,   1.06248E+06,   1.06248E+06
C:/temp/Job-2.odb,Step-1,Increment      1: Step Time =    1.000,"P-2-1",          1517,       61.5833,       152.493,            0.,NA,NA,"",   1.07278E+06,   1.07676E+06,   1.07676E+06
C:/temp/Job-2.odb,Step-1,Increment      1: Step Time =    1.000,"P-2-1",          1518,       150.809,       48.9566,            0.,NA,NA,"",   1.06159E+06,   1.04551E+06,   1.04551E+06
C:/temp/Job-2.odb,Step-1,Increment      1: Step Time =    1.000,"P-2-1",          1519,       45.5329,       149.088,            0.,NA,NA,"",   1.02466E+06,   1.04870E+06,   1.04870E+06
C:/temp/Job-2.odb,Step-1,Increment      1: Step Time =    1.000,"P-2-1",          1520,       49.5203,       45.3435,            0.,NA,NA,"",   1.04557E+06,   1.06080E+06,   1.06080E+06
C:/temp/Job-2.odb,Step-1,Increment      1: Step Time =    1.000,"P-2-1",          1521,       153.861,       154.490,            0.,NA,NA,"",   1.05177E+06,   1.03823E+06,   1.03823E+06
C:/temp/Job-2.odb,Step-1,Increment      1: Step Time =    1.000,"P-2-1",          1522,       142.046,       92.2676,            0.,NA,NA,"",   859.101E+03,   861.236E+03,   861.236E+03
C:/temp/Job-2.odb,Step-1,Increment      1: Step Time =    1.000,"P-2-1",          1523,       106.604,       146.408,            0.,NA,NA,"",   1.04341E+06,   1.08040E+06,   1.08040E+06
C:/temp/Job-2.odb,Step-1,Increment      1: Step Time =    1.000,"P-2-1",          1524,       54.6883,       109.465,            0.,NA,NA,"",   818.501E+03,   861.961E+03,   861.961E+03
C:/temp/Job-2.odb,Step-1,Increment      1: Step Time =    1.000,"P-2-1",          1525,       92.1441,       57.9224,            0.,NA,NA,"",   1.05915E+06,   1.10372E+06,   1.10372E+06
C:/temp/Job-2.odb,Step-1,Increment      1: Step Time =    1.000,"P-2-1",          1526,       68.8413,       113.140,            0.,NA,NA,"",   907.521E+03,   893.031E+03,   893.031E+03
C:/temp/Job-2.odb,Step-1,Increment      1: Step Time =    1.000,"P-2-1",          1527,       86.9372,       66.4680,            0.,NA,NA,"",   1.14592E+06,   1.17607E+06,   1.17607E+06
C:/temp/Job-2.odb,Step-1,Increment      1: Step Time =    1.000,"P-2-1",          1528,       133.457,       86.8919,            0.,NA,NA,"",   944.052E+03,   906.843E+03,   906.843E+03
C:/temp/Job-2.odb,Step-1,Increment      1: Step Time =    1.000,"P-2-1",          1529,       112.197,       133.436,            0.,NA,NA,"",   1.14736E+06,   1.17568E+06,   1.17568E+06
C:/temp/Job-2.odb,Step-1,Increment      1: Step Time =    1.000,"P-2-1",          1530,       135.537,       55.8918,            0.,NA,NA,"",   1.11057E+06,   1.08564E+06,   1.08564E+06
C:/temp/Job-2.odb,Step-1,Increment      1: Step Time =    1.000,"P-2-1",          1531,       143.807,       134.397,            0.,NA,NA,"",   1.08906E+06,   1.05832E+06,   1.05832E+06
C:/temp/Job-2.odb,Step-1,Increment      1: Step Time =    1.000,"P-2-1",          1532,       56.1694,       65.7970,            0.,NA,NA,"",   1.03931E+06,   1.04731E+06,   1.04731E+06
C:/temp/Job-2.odb,Step-1,Increment      1: Step Time =    1.000,"P-2-1",          1533,       65.2242,       142.156,            0.,NA,NA,"",   1.09557E+06,   1.09307E+06,   1.09307E+06
C:/temp/Job-2.odb,Step-1,Increment      1: Step Time =    1.000,"P-2-1",          1534,       133.020,       150.622,            0.,NA,NA,"",   1.09101E+06,   1.07577E+06,   1.07577E+06
C:/temp/Job-2.odb,Step-1,Increment      1: Step Time =    1.000,"P-2-1",          1535,       67.4527,       49.8007,            0.,NA,NA,"",   1.08486E+06,   1.08690E+06,   1.08690E+06
C:/temp/Job-2.odb,Step-1,Increment      1: Step Time =    1.000,"P-2-1",          1536,       150.561,       67.9595,            0.,NA,NA,"",   1.05236E+06,   1.03078E+06,   1.03078E+06
C:/temp/Job-2.odb,Step-1,Increment      1: Step Time =    1.000,"P-2-1",          1537,       49.1205,       130.520,            0.,NA,NA,"",   977.686E+03,   1.00468E+06,   1.00468E+06
C:/temp/Job-2.odb,Step-1,Increment      1: Step Time =    1.000,"P-2-1",          1538,       152.298,       124.075,            0.,NA,NA,"",   1.01116E+06,   996.907E+03,   996.907E+03
C:/temp/Job-2.odb,Step-1,Increment      1: Step Time =    1.000,"P-2-1",          1539,       77.1769,       149.716,            0.,NA,NA,"",   1.08183E+06,   1.09091E+06,   1.09091E+06
C:/temp/Job-2.odb,Step-1,Increment      1: Step Time =    1.000,"P-2-1",          1540,       45.8336,       79.9129,            0.,NA,NA,"",   895.226E+03,   940.619E+03,   940.619E+03
C:/temp/Job-2.odb,Step-1,Increment      1: Step Time =    1.000,"P-2-1",          1541,       122.170,       47.1168,            0.,NA,NA,"",   1.07028E+06,   1.07199E+06,   1.07199E+06
C:/temp/Job-2.odb,Step-1,Increment      1: Step Time =    1.000,"P-2-1",          1542,       31.7597,       55.0368,            0.,NA,NA,"",   957.020E+03,   1.01066E+06,   1.01066E+06
C:/temp/Job-2.odb,Step-1,Increment      1: Step Time =    1.000,"P-2-1",          1543,       139.288,       32.8077,            0.,NA,NA,"",   1.03854E+06,   1.03122E+06,   1.03122E+06
C:/temp/Job-2.odb,Step-1,Increment      1: Step Time =    1.000,"P-2-1",          1544,       55.3659,       166.537,            0.,NA,NA,"",   1.05259E+06,   1.05843E+06,   1.05843E+06
C:/temp/Job-2.odb,Step-1,Increment      1: Step Time =    1.000,"P-2-1",          1545,       165.021,       140.082,            0.,NA,NA,"",   1.02794E+06,   1.02042E+06,   1.02042E+06
C:/temp/Job-2.odb,Step-1,Increment      1: Step Time =    1.000,"P-2-1",          1546,       59.8629,       112.527,            0.,NA,NA,"",   851.523E+03,   877.999E+03,   877.999E+03
C:/temp/Job-2.odb,Step-1,Increment      1: Step Time =    1.000,"P-2-1",          1547,       152.642,       74.3307,            0.,NA,NA,"",   1.02003E+06,   1.00461E+06,   1.00461E+06
C:/temp/Job-2.odb,Step-1,Increment      1: Step Time =    1.000,"P-2-1",          1548,       44.4581,       128.718,            0.,NA,NA,"",   943.142E+03,   982.686E+03,   982.686E+03
C:/temp/Job-2.odb,Step-1,Increment      1: Step Time =    1.000,"P-2-1",          1549,       126.366,       152.396,            0.,NA,NA,"",   1.08029E+06,   1.07459E+06,   1.07459E+06
C:/temp/Job-2.odb,Step-1,Increment      1: Step Time =    1.000,"P-2-1",          1550,       73.4461,       47.6546,            0.,NA,NA,"",   1.07849E+06,   1.08455E+06,   1.08455E+06
C:/temp/Job-2.odb,Step-1,Increment      1: Step Time =    1.000,"P-2-1",          1551,       63.9131,       108.140,            0.,NA,NA,"",   776.797E+03,   805.308E+03,   805.308E+03
C:/temp/Job-2.odb,Step-1,Increment      1: Step Time =    1.000,"P-2-1",          1552,       135.602,       91.2129,            0.,NA,NA,"",   839.631E+03,   829.727E+03,   829.727E+03
C:/temp/Job-2.odb,Step-1,Increment      1: Step Time =    1.000,"P-2-1",          1553,       91.1817,       64.3314,            0.,NA,NA,"",   1.09643E+06,   1.14769E+06,   1.14769E+06
C:/temp/Job-2.odb,Step-1,Increment      1: Step Time =    1.000,"P-2-1",          1554,       107.007,       135.251,            0.,NA,NA,"",   1.09174E+06,   1.14703E+06,   1.14703E+06
C:/temp/Job-2.odb,Step-1,Increment      1: Step Time =    1.000,"P-2-1",          1555,       145.964,       66.3488,            0.,NA,NA,"",   1.07629E+06,   1.04838E+06,   1.04838E+06
C:/temp/Job-2.odb,Step-1,Increment      1: Step Time =    1.000,"P-2-1",          1556,       53.7962,       132.474,            0.,NA,NA,"",   1.01723E+06,   1.03103E+06,   1.03103E+06
C:/temp/Job-2.odb,Step-1,Increment      1: Step Time =    1.000,"P-2-1",          1557,       134.444,       146.045,            0.,NA,NA,"",   1.10610E+06,   1.08440E+06,   1.08440E+06
C:/temp/Job-2.odb,Step-1,Increment      1: Step Time =    1.000,"P-2-1",          1558,       65.9736,       54.2066,            0.,NA,NA,"",   1.09213E+06,   1.09179E+06,   1.09179E+06
C:/temp/Job-2.odb,Step-1,Increment      1: Step Time =    1.000,"P-2-1",          1559,       79.2300,       155.170,            0.,NA,NA,"",   1.06171E+06,   1.07338E+06,   1.07338E+06
C:/temp/Job-2.odb,Step-1,Increment      1: Step Time =    1.000,"P-2-1",          1560,       154.662,       121.605,            0.,NA,NA,"",   993.216E+03,   984.421E+03,   984.421E+03
C:/temp/Job-2.odb,Step-1,Increment      1: Step Time =    1.000,"P-2-1",          1561,       121.464,       43.1789,            0.,NA,NA,"",   1.05538E+06,   1.05897E+06,   1.05897E+06
C:/temp/Job-2.odb,Step-1,Increment      1: Step Time =    1.000,"P-2-1",          1562,       141.285,       64.7686,            0.,NA,NA,"",   1.10104E+06,   1.06811E+06,   1.06811E+06
C:/temp/Job-2.odb,Step-1,Increment      1: Step Time =    1.000,"P-2-1",          1563,       135.685,       141.224,            0.,NA,NA,"",   1.11885E+06,   1.09002E+06,   1.09002E+06
C:/temp/Job-2.odb,Step-1,Increment      1: Step Time =    1.000,"P-2-1",          1564,       64.5829,       58.8585,            0.,NA,NA,"",   1.09486E+06,   1.09185E+06,   1.09185E+06
C:/temp/Job-2.odb,Step-1,Increment      1: Step Time =    1.000,"P-2-1",          1565,       56.4103,       138.731,            0.,NA,NA,"",   1.05390E+06,   1.06088E+06,   1.06088E+06
C:/temp/Job-2.odb,Step-1,Increment      1: Step Time =    1.000,"P-2-1",          1566,       147.977,       46.2584,            0.,NA,NA,"",   1.06260E+06,   1.04693E+06,   1.04693E+06
C:/temp/Job-2.odb,Step-1,Increment      1: Step Time =    1.000,"P-2-1",          1567,       44.5858,       52.9619,            0.,NA,NA,"",   1.01689E+06,   1.04313E+06,   1.04313E+06
C:/temp/Job-2.odb,Step-1,Increment      1: Step Time =    1.000,"P-2-1",          1568,       154.947,       144.390,            0.,NA,NA,"",   1.05548E+06,   1.03925E+06,   1.03925E+06
C:/temp/Job-2.odb,Step-1,Increment      1: Step Time =    1.000,"P-2-1",          1569,       53.6082,       154.765,            0.,NA,NA,"",   1.05548E+06,   1.06591E+06,   1.06591E+06
C:/temp/Job-2.odb,Step-1,Increment      1: Step Time =    1.000,"P-2-1",          1570,       155.532,       42.8406,            0.,NA,NA,"",   1.04530E+06,   1.03400E+06,   1.03400E+06
C:/temp/Job-2.odb,Step-1,Increment      1: Step Time =    1.000,"P-2-1",          1571,       151.971,       54.2103,            0.,NA,NA,"",   1.06332E+06,   1.04533E+06,   1.04533E+06
C:/temp/Job-2.odb,Step-1,Increment      1: Step Time =    1.000,"P-2-1",          1572,       47.5591,       145.218,            0.,NA,NA,"",   1.02445E+06,   1.04651E+06,   1.04651E+06
C:/temp/Job-2.odb,Step-1,Increment      1: Step Time =    1.000,"P-2-1",          1573,       46.3253,       155.502,            0.,NA,NA,"",   1.03841E+06,   1.05793E+06,   1.05793E+06
C:/temp/Job-2.odb,Step-1,Increment      1: Step Time =    1.000,"P-2-1",          1574,       44.2331,       46.4211,            0.,NA,NA,"",   1.03032E+06,   1.05308E+06,   1.05308E+06
C:/temp/Job-2.odb,Step-1,Increment      1: Step Time =    1.000,"P-2-1",          1575,       53.2522,       47.3038,            0.,NA,NA,"",   1.05470E+06,   1.06561E+06,   1.06561E+06
C:/temp/Job-2.odb,Step-1,Increment      1: Step Time =    1.000,"P-2-1",          1576,       149.293,       150.542,            0.,NA,NA,"",   1.06539E+06,   1.04823E+06,   1.04823E+06
C:/temp/Job-2.odb,Step-1,Increment      1: Step Time =    1.000,"P-2-1",          1577,       158.529,       152.894,            0.,NA,NA,"",   1.04357E+06,   1.03212E+06,   1.03212E+06
C:/temp/Job-2.odb,Step-1,Increment      1: Step Time =    1.000,"P-2-1",          1578,       120.218,       142.790,            0.,NA,NA,"",   1.11329E+06,   1.11229E+06,   1.11229E+06
C:/temp/Job-2.odb,Step-1,Increment      1: Step Time =    1.000,"P-2-1",          1579,       142.553,       79.1123,            0.,NA,NA,"",   1.02292E+06,   995.534E+03,   995.534E+03
C:/temp/Job-2.odb,Step-1,Increment      1: Step Time =    1.000,"P-2-1",          1580,       79.0606,       57.2054,            0.,NA,NA,"",   1.10754E+06,   1.11595E+06,   1.11595E+06
C:/temp/Job-2.odb,Step-1,Increment      1: Step Time =    1.000,"P-2-1",          1581,       58.8638,       120.336,            0.,NA,NA,"",   954.198E+03,   965.981E+03,   965.981E+03
C:/temp/Job-2.odb,Step-1,Increment      1: Step Time =    1.000,"P-2-1",          1582,       151.349,       81.5758,            0.,NA,NA,"",   980.294E+03,   971.130E+03,   971.130E+03
C:/temp/Job-2.odb,Step-1,Increment      1: Step Time =    1.000,"P-2-1",          1583,       117.579,       153.156,            0.,NA,NA,"",   1.05930E+06,   1.06856E+06,   1.06856E+06
C:/temp/Job-2.odb,Step-1,Increment      1: Step Time =    1.000,"P-2-1",          1584,       46.8935,       116.635,            0.,NA,NA,"",   873.937E+03,   921.042E+03,   921.042E+03
C:/temp/Job-2.odb,Step-1,Increment      1: Step Time =    1.000,"P-2-1",          1585,       81.2066,       47.0540,            0.,NA,NA,"",   1.06379E+06,   1.07799E+06,   1.07799E+06
C:/temp/Job-2.odb,Step-1,Increment      1: Step Time =    1.000,"P-2-1",          1586,       56.6100,       150.119,            0.,NA,NA,"",   1.06286E+06,   1.07048E+06,   1.07048E+06
C:/temp/Job-2.odb,Step-1,Increment      1: Step Time =    1.000,"P-2-1",          1587,       48.6854,       56.1065,            0.,NA,NA,"",   1.02627E+06,   1.04662E+06,   1.04662E+06
C:/temp/Job-2.odb,Step-1,Increment      1: Step Time =    1.000,"P-2-1",          1588,       150.901,       141.280,            0.,NA,NA,"",   1.06653E+06,   1.04599E+06,   1.04599E+06
C:/temp/Job-2.odb,Step-1,Increment      1: Step Time =    1.000,"P-2-1",          1589,       144.974,       50.0584,            0.,NA,NA,"",   1.07543E+06,   1.05657E+06,   1.05657E+06
C:/temp/Job-2.odb,Step-1,Increment      1: Step Time =    1.000,"P-2-1",          1590,       49.4785,       151.720,            0.,NA,NA,"",   1.04247E+06,   1.05901E+06,   1.05901E+06
C:/temp/Job-2.odb,Step-1,Increment      1: Step Time =    1.000,"P-2-1",          1591,       47.4027,       49.3239,            0.,NA,NA,"",   1.03506E+06,   1.05458E+06,   1.05458E+06
C:/temp/Job-2.odb,Step-1,Increment      1: Step Time =    1.000,"P-2-1",          1592,       155.279,       149.204,            0.,NA,NA,"",   1.05321E+06,   1.03871E+06,   1.03871E+06
C:/temp/Job-2.odb,Step-1,Increment      1: Step Time =    1.000,"P-2-1",          1593,       151.688,       43.7622,            0.,NA,NA,"",   1.05263E+06,   1.03951E+06,   1.03951E+06
C:/temp/Job-2.odb,Step-1,Increment      1: Step Time =    1.000,"P-2-1",          1594,       109.022,       140.097,            0.,NA,NA,"",   1.07521E+06,   1.11540E+06,   1.11540E+06
C:/temp/Job-2.odb,Step-1,Increment      1: Step Time =    1.000,"P-2-1",          1595,       140.081,       88.7658,            0.,NA,NA,"",   901.101E+03,   890.733E+03,   890.733E+03
C:/temp/Job-2.odb,Step-1,Increment      1: Step Time =    1.000,"P-2-1",          1596,       88.7016,       59.7943,            0.,NA,NA,"",   1.08483E+06,   1.12128E+06,   1.12128E+06
C:/temp/Job-2.odb,Step-1,Increment      1: Step Time =    1.000,"P-2-1",          1597,       59.1321,       108.408,            0.,NA,NA,"",   796.059E+03,   834.121E+03,   834.121E+03
C:/temp/Job-2.odb,Step-1,Increment      1: Step Time =    1.000,"P-2-1",          1598,       45.9959,       162.102,            0.,NA,NA,"",   1.04506E+06,   1.06124E+06,   1.06124E+06
C:/temp/Job-2.odb,Step-1,Increment      1: Step Time =    1.000,"P-2-1",          1599,       154.884,       38.8508,            0.,NA,NA,"",   1.04004E+06,   1.03010E+06,   1.03010E+06
C:/temp/Job-2.odb,Step-1,Increment      1: Step Time =    1.000,"P-2-1",          1600,       163.851,       151.763,            0.,NA,NA,"",   1.03421E+06,   1.02563E+06,   1.02563E+06
C:/temp/Job-2.odb,Step-1,Increment      1: Step Time =    1.000,"P-2-1",          1601,       38.5338,       44.8522,            0.,NA,NA,"",   1.01405E+06,   1.04657E+06,   1.04657E+06
C:/temp/Job-2.odb,Step-1,Increment      1: Step Time =    1.000,"P-2-1",          1602,       139.244,       58.3817,            0.,NA,NA,"",   1.10685E+06,   1.07881E+06,   1.07881E+06
C:/temp/Job-2.odb,Step-1,Increment      1: Step Time =    1.000,"P-2-1",          1603,       141.831,       138.459,            0.,NA,NA,"",   1.10031E+06,   1.07006E+06,   1.07006E+06
C:/temp/Job-2.odb,Step-1,Increment      1: Step Time =    1.000,"P-2-1",          1604,       58.0612,       61.4001,            0.,NA,NA,"",   1.06173E+06,   1.06600E+06,   1.06600E+06
C:/temp/Job-2.odb,Step-1,Increment      1: Step Time =    1.000,"P-2-1",          1605,       60.8663,       140.519,            0.,NA,NA,"",   1.07900E+06,   1.07943E+06,   1.07943E+06
C:/temp/Job-2.odb,Step-1,Increment      1: Step Time =    1.000,"P-2-1",          1606,       115.417,       143.596,            0.,NA,NA,"",   1.09175E+06,   1.10622E+06,   1.10622E+06
C:/temp/Job-2.odb,Step-1,Increment      1: Step Time =    1.000,"P-2-1",          1607,       143.246,       83.1753,            0.,NA,NA,"",   979.590E+03,   960.174E+03,   960.174E+03
C:/temp/Job-2.odb,Step-1,Increment      1: Step Time =    1.000,"P-2-1",          1608,       83.1063,       56.4200,            0.,NA,NA,"",   1.09428E+06,   1.11200E+06,   1.11200E+06
C:/temp/Job-2.odb,Step-1,Increment      1: Step Time =    1.000,"P-2-1",          1609,       59.7786,       116.455,            0.,NA,NA,"",   908.405E+03,   925.345E+03,   925.345E+03
C:/temp/Job-2.odb,Step-1,Increment      1: Step Time =    1.000,"P-2-1",          1610,       45.6610,       123.534,            0.,NA,NA,"",   917.192E+03,   958.958E+03,   958.958E+03
C:/temp/Job-2.odb,Step-1,Increment      1: Step Time =    1.000,"P-2-1",          1611,       121.950,       155.639,            0.,NA,NA,"",   1.06091E+06,   1.06310E+06,   1.06310E+06
C:/temp/Job-2.odb,Step-1,Increment      1: Step Time =    1.000,"P-2-1",          1612,       77.3457,       42.7275,            0.,NA,NA,"",   1.05847E+06,   1.06820E+06,   1.06820E+06
C:/temp/Job-2.odb,Step-1,Increment      1: Step Time =    1.000,"P-2-1",          1613,       156.674,       161.791,            0.,NA,NA,"",   1.03737E+06,   1.02805E+06,   1.02805E+06
C:/temp/Job-2.odb,Step-1,Increment      1: Step Time =    1.000,"P-2-1",          1614,       39.6200,       156.151,            0.,NA,NA,"",   1.02117E+06,   1.05100E+06,   1.05100E+06
C:/temp/Job-2.odb,Step-1,Increment      1: Step Time =    1.000,"P-2-1",          1615,       160.916,       43.0491,            0.,NA,NA,"",   1.03634E+06,   1.02731E+06,   1.02731E+06
C:/temp/Job-2.odb,Step-1,Increment      1: Step Time =    1.000,"P-2-1",          1616,       55.3509,       54.3326,            0.,NA,NA,"",   1.05733E+06,   1.06630E+06,   1.06630E+06
C:/temp/Job-2.odb,Step-1,Increment      1: Step Time =    1.000,"P-2-1",          1617,       54.3113,       143.209,            0.,NA,NA,"",   1.05063E+06,   1.06124E+06,   1.06124E+06
C:/temp/Job-2.odb,Step-1,Increment      1: Step Time =    1.000,"P-2-1",          1618,       145.913,       56.2746,            0.,NA,NA,"",   1.08268E+06,   1.05953E+06,   1.05953E+06
C:/temp/Job-2.odb,Step-1,Increment      1: Step Time =    1.000,"P-2-1",          1619,       145.472,       144.819,            0.,NA,NA,"",   1.08282E+06,   1.05986E+06,   1.05986E+06
C:/temp/Job-2.odb,Step-1,Increment      1: Step Time =    1.000,"P-2-1",          1620,       80.6918,       42.9686,            0.,NA,NA,"",   1.05304E+06,   1.06562E+06,   1.06562E+06
C:/temp/Job-2.odb,Step-1,Increment      1: Step Time =    1.000,"P-2-1",          1621,       43.1797,       118.462,            0.,NA,NA,"",   876.882E+03,   929.182E+03,   929.182E+03
C:/temp/Job-2.odb,Step-1,Increment      1: Step Time =    1.000,"P-2-1",          1622,       119.040,       157.063,            0.,NA,NA,"",   1.05091E+06,   1.05736E+06,   1.05736E+06
C:/temp/Job-2.odb,Step-1,Increment      1: Step Time =    1.000,"P-2-1",          1623,       58.8046,       145.225,            0.,NA,NA,"",   1.07061E+06,   1.07510E+06,   1.07510E+06
C:/temp/Job-2.odb,Step-1,Increment      1: Step Time =    1.000,"P-2-1",          1624,       53.1900,       58.8676,            0.,NA,NA,"",   1.04103E+06,   1.05404E+06,   1.05404E+06
C:/temp/Job-2.odb,Step-1,Increment      1: Step Time =    1.000,"P-2-1",          1625,       146.406,       140.437,            0.,NA,NA,"",   1.08165E+06,   1.05669E+06,   1.05669E+06
C:/temp/Job-2.odb,Step-1,Increment      1: Step Time =    1.000,"P-2-1",          1626,       142.197,       54.1604,            0.,NA,NA,"",   1.08981E+06,   1.06694E+06,   1.06694E+06
C:/temp/Job-2.odb,Step-1,Increment      1: Step Time =    1.000,"P-2-1",          1627,       120.868,       147.922,            0.,NA,NA,"",   1.08817E+06,   1.08951E+06,   1.08951E+06
C:/temp/Job-2.odb,Step-1,Increment      1: Step Time =    1.000,"P-2-1",          1628,       147.614,       78.7130,            0.,NA,NA,"",   1.00849E+06,   989.999E+03,   989.999E+03
C:/temp/Job-2.odb,Step-1,Increment      1: Step Time =    1.000,"P-2-1",          1629,       78.3592,       52.0271,            0.,NA,NA,"",   1.08664E+06,   1.09651E+06,   1.09651E+06
C:/temp/Job-2.odb,Step-1,Increment      1: Step Time =    1.000,"P-2-1",          1630,       53.1337,       122.524,            0.,NA,NA,"",   941.880E+03,   967.445E+03,   967.445E+03
C:/temp/Job-2.odb,Step-1,Increment      1: Step Time =    1.000,"P-2-1",          1631,       48.7790,       165.807,            0.,NA,NA,"",   1.04958E+06,   1.06058E+06,   1.06058E+06
C:/temp/Job-2.odb,Step-1,Increment      1: Step Time =    1.000,"P-2-1",          1632,       149.107,       35.7087,            0.,NA,NA,"",   1.04158E+06,   1.03179E+06,   1.03179E+06
C:/temp/Job-2.odb,Step-1,Increment      1: Step Time =    1.000,"P-2-1",          1633,       164.475,       147.926,            0.,NA,NA,"",   1.03358E+06,   1.02505E+06,   1.02505E+06
C:/temp/Job-2.odb,Step-1,Increment      1: Step Time =    1.000,"P-2-1",          1634,       35.2386,       47.8329,            0.,NA,NA,"",   995.149E+03,   1.03620E+06,   1.03620E+06
C:/temp/Job-2.odb,Step-1,Increment      1: Step Time =    1.000,"P-2-1",          1635,       77.5453,       47.4019,            0.,NA,NA,"",   1.07188E+06,   1.08171E+06,   1.08171E+06
C:/temp/Job-2.odb,Step-1,Increment      1: Step Time =    1.000,"P-2-1",          1636,       121.758,       152.278,            0.,NA,NA,"",   1.07103E+06,   1.07288E+06,   1.07288E+06
C:/temp/Job-2.odb,Step-1,Increment      1: Step Time =    1.000,"P-2-1",          1637,       49.3677,       120.094,            0.,NA,NA,"",   905.096E+03,   943.122E+03,   943.122E+03
C:/temp/Job-2.odb,Step-1,Increment      1: Step Time =    1.000,"P-2-1",          1638,       152.350,       78.6525,            0.,NA,NA,"",   996.460E+03,   985.076E+03,   985.076E+03
C:/temp/Job-2.odb,Step-1,Increment      1: Step Time =    1.000,"P-2-1",          1639,       125.073,       143.124,            0.,NA,NA,"",   1.12102E+06,   1.10796E+06,   1.10796E+06
C:/temp/Job-2.odb,Step-1,Increment      1: Step Time =    1.000,"P-2-1",          1640,       142.975,       74.8326,            0.,NA,NA,"",   1.05398E+06,   1.02332E+06,   1.02332E+06
C:/temp/Job-2.odb,Step-1,Increment      1: Step Time =    1.000,"P-2-1",          1641,       74.7470,       56.9542,            0.,NA,NA,"",   1.11010E+06,   1.11161E+06,   1.11161E+06
C:/temp/Job-2.odb,Step-1,Increment      1: Step Time =    1.000,"P-2-1",          1642,       57.3941,       124.256,            0.,NA,NA,"",   986.446E+03,   996.907E+03,   996.907E+03
C:/temp/Job-2.odb,Step-1,Increment      1: Step Time =    1.000,"P-2-1",          1643,       70.3850,       55.9208,            0.,NA,NA,"",   1.10364E+06,   1.10247E+06,   1.10247E+06
C:/temp/Job-2.odb,Step-1,Increment      1: Step Time =    1.000,"P-2-1",          1644,       55.6329,       128.273,            0.,NA,NA,"",   1.00616E+06,   1.01769E+06,   1.01769E+06
C:/temp/Job-2.odb,Step-1,Increment      1: Step Time =    1.000,"P-2-1",          1645,       129.738,       144.264,            0.,NA,NA,"",   1.11684E+06,   1.09726E+06,   1.09726E+06
C:/temp/Job-2.odb,Step-1,Increment      1: Step Time =    1.000,"P-2-1",          1646,       144.165,       70.5818,            0.,NA,NA,"",   1.07062E+06,   1.04032E+06,   1.04032E+06
C:/temp/Job-2.odb,Step-1,Increment      1: Step Time =    1.000,"P-2-1",          1647,       25.7545,       9.79074,            0.,NA,NA,"",   1.08150E+06,   1.08922E+06,   1.08922E+06
C:/temp/Job-2.odb,Step-1,Increment      1: Step Time =    1.000,"P-2-1",          1648,       10.0124,       173.948,            0.,NA,NA,"",   995.011E+03,   1.07676E+06,   1.07676E+06
C:/temp/Job-2.odb,Step-1,Increment      1: Step Time =    1.000,"P-2-1",          1649,       189.798,       26.1254,            0.,NA,NA,"",   1.00118E+06,   1.00146E+06,   1.00146E+06
C:/temp/Job-2.odb,Step-1,Increment      1: Step Time =    1.000,"P-2-1",          1650,       174.095,       190.059,            0.,NA,NA,"",   1.00040E+06,   1.00003E+06,   1.00003E+06
C:/temp/Job-2.odb,Step-1,Increment      1: Step Time =    1.000,"P-2-1",          1651,       190.235,       55.3641,            0.,NA,NA,"",   993.983E+03,   1.00240E+06,   1.00240E+06
C:/temp/Job-2.odb,Step-1,Increment      1: Step Time =    1.000,"P-2-1",          1652,       55.3040,       9.86286,            0.,NA,NA,"",   999.044E+03,   999.457E+03,   999.457E+03
C:/temp/Job-2.odb,Step-1,Increment      1: Step Time =    1.000,"P-2-1",          1653,       144.690,       190.250,            0.,NA,NA,"",   991.506E+03,   990.494E+03,   990.494E+03
C:/temp/Job-2.odb,Step-1,Increment      1: Step Time =    1.000,"P-2-1",          1654,       9.75449,       144.683,            0.,NA,NA,"",   868.954E+03,   962.594E+03,   962.594E+03
C:/temp/Job-2.odb,Step-1,Increment      1: Step Time =    1.000,"P-2-1",          1655,       5.18973,       5.11371,            0.,NA,NA,"",   1.33767E+06,   1.38794E+06,   1.38794E+06
C:/temp/Job-2.odb,Step-1,Increment      1: Step Time =    1.000,"P-2-1",          1656,       191.045,       149.047,            0.,NA,NA,"",   995.369E+03,   1.00210E+06,   1.00210E+06
C:/temp/Job-2.odb,Step-1,Increment      1: Step Time =    1.000,"P-2-1",          1657,       50.7636,       190.811,            0.,NA,NA,"",   1.00367E+06,   1.00440E+06,   1.00440E+06
C:/temp/Job-2.odb,Step-1,Increment      1: Step Time =    1.000,"P-2-1",          1658,       39.4034,       184.076,            0.,NA,NA,"",   1.04534E+06,   1.05120E+06,   1.05120E+06
C:/temp/Job-2.odb,Step-1,Increment      1: Step Time =    1.000,"P-2-1",          1659,       185.547,       174.448,            0.,NA,NA,"",   1.00244E+06,   1.00250E+06,   1.00250E+06
C:/temp/Job-2.odb,Step-1,Increment      1: Step Time =    1.000,"P-2-1",          1660,       185.310,       169.633,            0.,NA,NA,"",   1.00308E+06,   1.00341E+06,   1.00341E+06
C:/temp/Job-2.odb,Step-1,Increment      1: Step Time =    1.000,"P-2-1",          1661,       173.622,       14.5846,            0.,NA,NA,"",   1.00242E+06,   1.00167E+06,   1.00167E+06
C:/temp/Job-2.odb,Step-1,Increment      1: Step Time =    1.000,"P-2-1",          1662,       168.658,       14.4789,            0.,NA,NA,"",   1.00292E+06,   1.00181E+06,   1.00181E+06
C:/temp/Job-2.odb,Step-1,Increment      1: Step Time =    1.000,"P-2-1",          1663,       73.3127,       118.688,            0.,NA,NA,"",   1.10820E+06,   1.05277E+06,   1.05277E+06
C:/temp/Job-2.odb,Step-1,Increment      1: Step Time =    1.000,"P-2-1",          1664,       42.4531,       182.962,            0.,NA,NA,"",   1.04037E+06,   1.04562E+06,   1.04562E+06
C:/temp/Job-2.odb,Step-1,Increment      1: Step Time =    1.000,"P-2-1",          1665,       43.2524,       179.583,            0.,NA,NA,"",   1.04513E+06,   1.05203E+06,   1.05203E+06
C:/temp/Job-2.odb,Step-1,Increment      1: Step Time =    1.000,"P-2-1",          1666,       12.6424,       42.5482,            0.,NA,NA,"",   922.843E+03,   1.00877E+06,   1.00877E+06
C:/temp/Job-2.odb,Step-1,Increment      1: Step Time =    1.000,"P-2-1",          1667,       124.361,       70.4801,            0.,NA,NA,"",   1.21669E+06,   1.16717E+06,   1.16717E+06
C:/temp/Job-2.odb,Step-1,Increment      1: Step Time =    1.000,"P-2-1",          1668,       71.1151,       75.3072,            0.,NA,NA,"",   1.14434E+06,   1.10542E+06,   1.10542E+06
C:/temp/Job-2.odb,Step-1,Increment      1: Step Time =    1.000,"P-2-1",          1669,       129.351,       124.319,            0.,NA,NA,"",   1.17639E+06,   1.10848E+06,   1.10848E+06
C:/temp/Job-2.odb,Step-1,Increment      1: Step Time =    1.000,"P-2-1",          1670,       178.269,       161.539,            0.,NA,NA,"",   1.00999E+06,   1.00911E+06,   1.00911E+06
C:/temp/Job-2.odb,Step-1,Increment      1: Step Time =    1.000,"P-2-1",          1671,       67.5658,       122.358,            0.,NA,NA,"",   1.06971E+06,   1.04365E+06,   1.04365E+06
C:/temp/Job-2.odb,Step-1,Increment      1: Step Time =    1.000,"P-2-1",          1672,       22.3080,       177.019,            0.,NA,NA,"",   1.06183E+06,   1.09903E+06,   1.09903E+06
C:/temp/Job-2.odb,Step-1,Increment      1: Step Time =    1.000,"P-2-1",          1673,       181.176,       144.759,            0.,NA,NA,"",   1.00378E+06,   1.00745E+06,   1.00745E+06
C:/temp/Job-2.odb,Step-1,Increment      1: Step Time =    1.000,"P-2-1",          1674,       91.3970,       134.444,            0.,NA,NA,"",   1.10000E+06,   1.15425E+06,   1.15425E+06
C:/temp/Job-2.odb,Step-1,Increment      1: Step Time =    1.000,"P-2-1",          1675,       84.9268,       138.777,            0.,NA,NA,"",   1.11341E+06,   1.13779E+06,   1.13779E+06
C:/temp/Job-2.odb,Step-1,Increment      1: Step Time =    1.000,"P-2-1",          1676,       20.4586,       31.7171,            0.,NA,NA,"",   1.00801E+06,   1.06512E+06,   1.06512E+06
C:/temp/Job-2.odb,Step-1,Increment      1: Step Time =    1.000,"P-2-1",          1677,       181.004,       28.8972,            0.,NA,NA,"",   1.00542E+06,   1.00489E+06,   1.00489E+06
C:/temp/Job-2.odb,Step-1,Increment      1: Step Time =    1.000,"P-2-1",          1678,       172.217,       23.0861,            0.,NA,NA,"",   1.00779E+06,   1.00603E+06,   1.00603E+06
C:/temp/Job-2.odb,Step-1,Increment      1: Step Time =    1.000,"P-2-1",          1679,       180.165,       55.6626,            0.,NA,NA,"",   1.00501E+06,   1.00808E+06,   1.00808E+06
C:/temp/Job-2.odb,Step-1,Increment      1: Step Time =    1.000,"P-2-1",          1680,       171.943,       181.917,            0.,NA,NA,"",   1.00459E+06,   1.00342E+06,   1.00342E+06
C:/temp/Job-2.odb,Step-1,Increment      1: Step Time =    1.000,"P-2-1",          1681,       177.394,       173.918,            0.,NA,NA,"",   1.00651E+06,   1.00546E+06,   1.00546E+06
C:/temp/Job-2.odb,Step-1,Increment      1: Step Time =    1.000,"P-2-1",          1682,       173.766,       163.026,            0.,NA,NA,"",   1.01442E+06,   1.01190E+06,   1.01190E+06
C:/temp/Job-2.odb,Step-1,Increment      1: Step Time =    1.000,"P-2-1",          1683,       171.472,       159.194,            0.,NA,NA,"",   1.01883E+06,   1.01518E+06,   1.01518E+06
C:/temp/Job-2.odb,Step-1,Increment      1: Step Time =    1.000,"P-2-1",          1684,       144.549,       180.475,            0.,NA,NA,"",   1.00920E+06,   1.00591E+06,   1.00591E+06
C:/temp/Job-2.odb,Step-1,Increment      1: Step Time =    1.000,"P-2-1",          1685,       46.8716,       180.919,            0.,NA,NA,"",   1.03697E+06,   1.04144E+06,   1.04144E+06
C:/temp/Job-2.odb,Step-1,Increment      1: Step Time =    1.000,"P-2-1",          1686,       61.7784,       125.629,            0.,NA,NA,"",   1.03677E+06,   1.03144E+06,   1.03144E+06
C:/temp/Job-2.odb,Step-1,Increment      1: Step Time =    1.000,"P-2-1",          1687,       64.1600,       112.668,            0.,NA,NA,"",   864.366E+03,   876.233E+03,   876.233E+03
C:/temp/Job-2.odb,Step-1,Increment      1: Step Time =    1.000,"P-2-1",          1688,       176.055,       113.958,            0.,NA,NA,"",   969.133E+03,   983.481E+03,   983.481E+03
C:/temp/Job-2.odb,Step-1,Increment      1: Step Time =    1.000,"P-2-1",          1689,       80.8976,       137.675,            0.,NA,NA,"",   1.13681E+06,   1.14428E+06,   1.14428E+06
C:/temp/Job-2.odb,Step-1,Increment      1: Step Time =    1.000,"P-2-1",          1690,       25.0819,       25.0704,            0.,NA,NA,"",   1.04805E+06,   1.08489E+06,   1.08489E+06
C:/temp/Job-2.odb,Step-1,Increment      1: Step Time =    1.000,"P-2-1",          1691,       91.0057,       139.182,            0.,NA,NA,"",   1.07391E+06,   1.12028E+06,   1.12028E+06
C:/temp/Job-2.odb,Step-1,Increment      1: Step Time =    1.000,"P-2-1",          1692,       55.5660,       20.0739,            0.,NA,NA,"",   1.02977E+06,   1.03181E+06,   1.03181E+06
C:/temp/Job-2.odb,Step-1,Increment      1: Step Time =    1.000,"P-2-1",          1693,       171.179,       168.177,            0.,NA,NA,"",   1.01432E+06,   1.01134E+06,   1.01134E+06
C:/temp/Job-2.odb,Step-1,Increment      1: Step Time =    1.000,"P-2-1",          1694,       167.225,       161.483,            0.,NA,NA,"",   1.02382E+06,   1.01837E+06,   1.01837E+06
C:/temp/Job-2.odb,Step-1,Increment      1: Step Time =    1.000,"P-2-1",          1695,       164.840,       158.514,            0.,NA,NA,"",   1.02920E+06,   1.02218E+06,   1.02218E+06
C:/temp/Job-2.odb,Step-1,Increment      1: Step Time =    1.000,"P-2-1",          1696,       172.943,       177.969,            0.,NA,NA,"",   1.00653E+06,   1.00508E+06,   1.00508E+06
C:/temp/Job-2.odb,Step-1,Increment      1: Step Time =    1.000,"P-2-1",          1697,       176.428,       28.0610,            0.,NA,NA,"",   1.00775E+06,   1.00650E+06,   1.00650E+06
C:/temp/Job-2.odb,Step-1,Increment      1: Step Time =    1.000,"P-2-1",          1698,       153.366,       29.7091,            0.,NA,NA,"",   1.02737E+06,   1.02060E+06,   1.02060E+06
C:/temp/Job-2.odb,Step-1,Increment      1: Step Time =    1.000,"P-2-1",          1699,       58.8120,       74.9535,            0.,NA,NA,"",   1.00566E+06,   1.01098E+06,   1.01098E+06
C:/temp/Job-2.odb,Step-1,Increment      1: Step Time =    1.000,"P-2-1",          1700,       23.2455,       37.7997,            0.,NA,NA,"",   990.033E+03,   1.04693E+06,   1.04693E+06
C:/temp/Job-2.odb,Step-1,Increment      1: Step Time =    1.000,"P-2-1",          1701,       142.721,       123.574,            0.,NA,NA,"",   1.04360E+06,   1.01292E+06,   1.01292E+06
C:/temp/Job-2.odb,Step-1,Increment      1: Step Time =    1.000,"P-2-1",          1702,       124.067,       56.4186,            0.,NA,NA,"",   1.11799E+06,   1.10789E+06,   1.10789E+06
C:/temp/Job-2.odb,Step-1,Increment      1: Step Time =    1.000,"P-2-1",          1703,       75.5632,       140.497,            0.,NA,NA,"",   1.12356E+06,   1.12303E+06,   1.12303E+06
C:/temp/Job-2.odb,Step-1,Increment      1: Step Time =    1.000,"P-2-1",          1704,       85.9493,       145.445,            0.,NA,NA,"",   1.07510E+06,   1.10147E+06,   1.10147E+06
C:/temp/Job-2.odb,Step-1,Increment      1: Step Time =    1.000,"P-2-1",          1705,       56.1604,       173.829,            0.,NA,NA,"",   1.04146E+06,   1.04492E+06,   1.04492E+06
C:/temp/Job-2.odb,Step-1,Increment      1: Step Time =    1.000,"P-2-1",          1706,       171.048,       138.759,            0.,NA,NA,"",   1.01509E+06,   1.01305E+06,   1.01305E+06
C:/temp/Job-2.odb,Step-1,Increment      1: Step Time =    1.000,"P-2-1",          1707,       171.220,       179.450,            0.,NA,NA,"",   1.00628E+06,   1.00477E+06,   1.00477E+06
C:/temp/Job-2.odb,Step-1,Increment      1: Step Time =    1.000,"P-2-1",          1708,       177.951,       29.9443,            0.,NA,NA,"",   1.00760E+06,   1.00653E+06,   1.00653E+06
C:/temp/Job-2.odb,Step-1,Increment      1: Step Time =    1.000,"P-2-1",          1709,       171.757,       134.920,            0.,NA,NA,"",   1.00917E+06,   1.00892E+06,   1.00892E+06
C:/temp/Job-2.odb,Step-1,Increment      1: Step Time =    1.000,"P-2-1",          1710,       144.946,       100.259,            0.,NA,NA,"",   837.122E+03,   849.150E+03,   849.150E+03
C:/temp/Job-2.odb,Step-1,Increment      1: Step Time =    1.000,"P-2-1",          1711,       99.4643,       54.6339,            0.,NA,NA,"",   1.03385E+06,   1.08073E+06,   1.08073E+06
C:/temp/Job-2.odb,Step-1,Increment      1: Step Time =    1.000,"P-2-1",          1712,       18.9009,       55.9319,            0.,NA,NA,"",   902.998E+03,   981.499E+03,   981.499E+03
C:/temp/Job-2.odb,Step-1,Increment      1: Step Time =    1.000,"P-2-1",          1713,       90.4722,       53.8035,            0.,NA,NA,"",   1.05407E+06,   1.08927E+06,   1.08927E+06
C:/temp/Job-2.odb,Step-1,Increment      1: Step Time =    1.000,"P-2-1",          1714,       93.5611,       52.8085,            0.,NA,NA,"",   1.04103E+06,   1.08082E+06,   1.08082E+06
C:/temp/Job-2.odb,Step-1,Increment      1: Step Time =    1.000,"P-2-1",          1715,       146.068,       90.4175,            0.,NA,NA,"",   898.258E+03,   898.872E+03,   898.872E+03
C:/temp/Job-2.odb,Step-1,Increment      1: Step Time =    1.000,"P-2-1",          1716,       147.316,       93.5377,            0.,NA,NA,"",   877.634E+03,   884.375E+03,   884.375E+03
C:/temp/Job-2.odb,Step-1,Increment      1: Step Time =    1.000,"P-2-1",          1717,       65.7680,       175.905,            0.,NA,NA,"",   1.02763E+06,   1.02961E+06,   1.02961E+06
C:/temp/Job-2.odb,Step-1,Increment      1: Step Time =    1.000,"P-2-1",          1718,       18.8860,       65.6093,            0.,NA,NA,"",   870.232E+03,   952.377E+03,   952.377E+03
C:/temp/Job-2.odb,Step-1,Increment      1: Step Time =    1.000,"P-2-1",          1719,       173.435,       118.719,            0.,NA,NA,"",   977.237E+03,   986.906E+03,   986.906E+03
C:/temp/Job-2.odb,Step-1,Increment      1: Step Time =    1.000,"P-2-1",          1720,       92.7723,       141.692,            0.,NA,NA,"",   1.05589E+06,   1.10363E+06,   1.10363E+06
C:/temp/Job-2.odb,Step-1,Increment      1: Step Time =    1.000,"P-2-1",          1721,       25.9655,       164.926,            0.,NA,NA,"",   1.00881E+06,   1.05742E+06,   1.05742E+06
C:/temp/Job-2.odb,Step-1,Increment      1: Step Time =    1.000,"P-2-1",          1722,       19.4358,       154.286,            0.,NA,NA,"",   942.235E+03,   1.01445E+06,   1.01445E+06
C:/temp/Job-2.odb,Step-1,Increment      1: Step Time =    1.000,"P-2-1",          1723,       166.883,       170.043,            0.,NA,NA,"",   1.01667E+06,   1.01275E+06,   1.01275E+06
C:/temp/Job-2.odb,Step-1,Increment      1: Step Time =    1.000,"P-2-1",          1724,       161.262,       149.750,            0.,NA,NA,"",   1.03968E+06,   1.02923E+06,   1.02923E+06
C:/temp/Job-2.odb,Step-1,Increment      1: Step Time =    1.000,"P-2-1",          1725,       149.072,       85.6639,            0.,NA,NA,"",   950.165E+03,   944.232E+03,   944.232E+03
C:/temp/Job-2.odb,Step-1,Increment      1: Step Time =    1.000,"P-2-1",          1726,       53.0258,       105.422,            0.,NA,NA,"",   795.483E+03,   846.351E+03,   846.351E+03
C:/temp/Job-2.odb,Step-1,Increment      1: Step Time =    1.000,"P-2-1",          1727,       54.7753,       87.4059,            0.,NA,NA,"",   848.622E+03,   887.033E+03,   887.033E+03
C:/temp/Job-2.odb,Step-1,Increment      1: Step Time =    1.000,"P-2-1",          1728,       54.2481,       74.5638,            0.,NA,NA,"",   972.860E+03,   991.930E+03,   991.930E+03
C:/temp/Job-2.odb,Step-1,Increment      1: Step Time =    1.000,"P-2-1",          1729,       85.7915,       50.5277,            0.,NA,NA,"",   1.06190E+06,   1.08441E+06,   1.08441E+06
C:/temp/Job-2.odb,Step-1,Increment      1: Step Time =    1.000,"P-2-1",          1730,       175.212,       110.961,            0.,NA,NA,"",   964.043E+03,   979.007E+03,   979.007E+03
C:/temp/Job-2.odb,Step-1,Increment      1: Step Time =    1.000,"P-2-1",          1731,       103.345,       147.616,            0.,NA,NA,"",   1.03328E+06,   1.07298E+06,   1.07298E+06
C:/temp/Job-2.odb,Step-1,Increment      1: Step Time =    1.000,"P-2-1",          1732,       78.7980,       145.062,            0.,NA,NA,"",   1.09755E+06,   1.10793E+06,   1.10793E+06
C:/temp/Job-2.odb,Step-1,Increment      1: Step Time =    1.000,"P-2-1",          1733,       150.855,       129.253,            0.,NA,NA,"",   1.04399E+06,   1.02291E+06,   1.02291E+06
C:/temp/Job-2.odb,Step-1,Increment      1: Step Time =    1.000,"P-2-1",          1734,       146.966,       105.080,            0.,NA,NA,"",   871.091E+03,   879.198E+03,   879.198E+03
C:/temp/Job-2.odb,Step-1,Increment      1: Step Time =    1.000,"P-2-1",          1735,       103.839,       52.0896,            0.,NA,NA,"",   1.03541E+06,   1.07320E+06,   1.07320E+06
C:/temp/Job-2.odb,Step-1,Increment      1: Step Time =    1.000,"P-2-1",          1736,       131.056,       48.4342,            0.,NA,NA,"",   1.08825E+06,   1.07524E+06,   1.07524E+06
C:/temp/Job-2.odb,Step-1,Increment      1: Step Time =    1.000,"P-2-1",          1737,       149.757,       134.518,            0.,NA,NA,"",   1.06520E+06,   1.04176E+06,   1.04176E+06
C:/temp/Job-2.odb,Step-1,Increment      1: Step Time =    1.000,"P-2-1",          1738,       136.258,       49.6860,            0.,NA,NA,"",   1.08957E+06,   1.07160E+06,   1.07160E+06
C:/temp/Job-2.odb,Step-1,Increment      1: Step Time =    1.000,"P-2-1",          1739,       39.7953,       167.556,            0.,NA,NA,"",   1.04386E+06,   1.06334E+06,   1.06334E+06
C:/temp/Job-2.odb,Step-1,Increment      1: Step Time =    1.000,"P-2-1",          1740,       162.260,       145.713,            0.,NA,NA,"",   1.03765E+06,   1.02744E+06,   1.02744E+06
C:/temp/Job-2.odb,Step-1,Increment      1: Step Time =    1.000,"P-2-1",          1741,       140.496,       143.099,            0.,NA,NA,"",   1.10077E+06,   1.07416E+06,   1.07416E+06
C:/temp/Job-2.odb,Step-1,Increment      1: Step Time =    1.000,"P-2-1",          1742,       143.528,       60.4128,            0.,NA,NA,"",   1.09375E+06,   1.06583E+06,   1.06583E+06
C:/temp/Job-2.odb,Step-1,Increment      1: Step Time =    1.000,"P-2-1",          1743,       59.8290,       56.7139,            0.,NA,NA,"",   1.07484E+06,   1.07748E+06,   1.07748E+06
C:/temp/Job-2.odb,Step-1,Increment      1: Step Time =    1.000,"P-2-1",          1744,       21.3292,       86.1380,            0.,NA,NA,"",   818.399E+03,   903.713E+03,   903.713E+03
C:/temp/Job-2.odb,Step-1,Increment      1: Step Time =    1.000,"P-2-1",          1745,       147.551,       96.9837,            0.,NA,NA,"",   859.434E+03,   870.524E+03,   870.524E+03
C:/temp/Job-2.odb,Step-1,Increment      1: Step Time =    1.000,"P-2-1",          1746,       96.3204,       53.0839,            0.,NA,NA,"",   1.03367E+06,   1.07767E+06,   1.07767E+06
C:/temp/Job-2.odb,Step-1,Increment      1: Step Time =    1.000,"P-2-1",          1747,       33.0602,       22.6385,            0.,NA,NA,"",   1.05732E+06,   1.07586E+06,   1.07586E+06
C:/temp/Job-2.odb,Step-1,Increment      1: Step Time =    1.000,"P-2-1",          1748,       34.9564,       26.2962,            0.,NA,NA,"",   1.04886E+06,   1.07045E+06,   1.07045E+06
C:/temp/Job-2.odb,Step-1,Increment      1: Step Time =    1.000,"P-2-1",          1749,       70.6213,       171.656,            0.,NA,NA,"",   1.03300E+06,   1.03648E+06,   1.03648E+06
C:/temp/Job-2.odb,Step-1,Increment      1: Step Time =    1.000,"P-2-1",          1750,       103.077,       151.054,            0.,NA,NA,"",   1.02818E+06,   1.06294E+06,   1.06294E+06
C:/temp/Job-2.odb,Step-1,Increment      1: Step Time =    1.000,"P-2-1",          1751,       128.662,       148.574,            0.,NA,NA,"",   1.09894E+06,   1.08638E+06,   1.08638E+06
C:/temp/Job-2.odb,Step-1,Increment      1: Step Time =    1.000,"P-2-1",          1752,       150.131,       99.8504,            0.,NA,NA,"",   873.257E+03,   885.023E+03,   885.023E+03
C:/temp/Job-2.odb,Step-1,Increment      1: Step Time =    1.000,"P-2-1",          1753,       55.0155,       119.051,            0.,NA,NA,"",   916.065E+03,   941.928E+03,   941.928E+03
C:/temp/Job-2.odb,Step-1,Increment      1: Step Time =    1.000,"P-2-1",          1754,       56.2264,       115.889,            0.,NA,NA,"",   885.104E+03,   914.200E+03,   914.200E+03
C:/temp/Job-2.odb,Step-1,Increment      1: Step Time =    1.000,"P-2-1",          1755,       74.8951,       171.234,            0.,NA,NA,"",   1.02856E+06,   1.03350E+06,   1.03350E+06
C:/temp/Job-2.odb,Step-1,Increment      1: Step Time =    1.000,"P-2-1",          1756,       23.3669,       61.1985,            0.,NA,NA,"",   902.067E+03,   975.079E+03,   975.079E+03
C:/temp/Job-2.odb,Step-1,Increment      1: Step Time =    1.000,"P-2-1",          1757,       93.3464,       48.5036,            0.,NA,NA,"",   1.03361E+06,   1.06721E+06,   1.06721E+06
C:/temp/Job-2.odb,Step-1,Increment      1: Step Time =    1.000,"P-2-1",          1758,       71.3747,       51.5653,            0.,NA,NA,"",   1.09140E+06,   1.09423E+06,   1.09423E+06
C:/temp/Job-2.odb,Step-1,Increment      1: Step Time =    1.000,"P-2-1",          1759,       148.648,       71.8344,            0.,NA,NA,"",   1.04520E+06,   1.02213E+06,   1.02213E+06
C:/temp/Job-2.odb,Step-1,Increment      1: Step Time =    1.000,"P-2-1",          1760,       151.485,       92.6356,            0.,NA,NA,"",   901.774E+03,   908.575E+03,   908.575E+03
C:/temp/Job-2.odb,Step-1,Increment      1: Step Time =    1.000,"P-2-1",          1761,       99.0460,       150.870,            0.,NA,NA,"",   1.02688E+06,   1.06360E+06,   1.06360E+06
C:/temp/Job-2.odb,Step-1,Increment      1: Step Time =    1.000,"P-2-1",          1762,       162.979,       163.421,            0.,NA,NA,"",   1.02783E+06,   1.02104E+06,   1.02104E+06
C:/temp/Job-2.odb,Step-1,Increment      1: Step Time =    1.000,"P-2-1",          1763,       149.728,       171.962,            0.,NA,NA,"",   1.02634E+06,   1.01981E+06,   1.01981E+06
C:/temp/Job-2.odb,Step-1,Increment      1: Step Time =    1.000,"P-2-1",          1764,       50.8078,       83.2975,            0.,NA,NA,"",   881.644E+03,   921.461E+03,   921.461E+03
C:/temp/Job-2.odb,Step-1,Increment      1: Step Time =    1.000,"P-2-1",          1765,       48.9014,       91.5934,            0.,NA,NA,"",   821.635E+03,   875.340E+03,   875.340E+03
C:/temp/Job-2.odb,Step-1,Increment      1: Step Time =    1.000,"P-2-1",          1766,       150.849,       117.917,            0.,NA,NA,"",   972.952E+03,   964.347E+03,   964.347E+03
C:/temp/Job-2.odb,Step-1,Increment      1: Step Time =    1.000,"P-2-1",          1767,       156.890,       130.537,            0.,NA,NA,"",   1.02919E+06,   1.01584E+06,   1.01584E+06
C:/temp/Job-2.odb,Step-1,Increment      1: Step Time =    1.000,"P-2-1",          1768,       129.921,       44.1464,            0.,NA,NA,"",   1.07133E+06,   1.06345E+06,   1.06345E+06
C:/temp/Job-2.odb,Step-1,Increment      1: Step Time =    1.000,"P-2-1",          1769,       46.6848,       103.640,            0.,NA,NA,"",   807.898E+03,   867.601E+03,   867.601E+03
C:/temp/Job-2.odb,Step-1,Increment      1: Step Time =    1.000,"P-2-1",          1770,       53.5704,       114.469,            0.,NA,NA,"",   864.269E+03,   902.295E+03,   902.295E+03
C:/temp/Job-2.odb,Step-1,Increment      1: Step Time =    1.000,"P-2-1",          1771,       60.3591,       166.625,            0.,NA,NA,"",   1.05255E+06,   1.05656E+06,   1.05656E+06
C:/temp/Job-2.odb,Step-1,Increment      1: Step Time =    1.000,"P-2-1",          1772,       170.747,       107.592,            0.,NA,NA,"",   954.435E+03,   968.075E+03,   968.075E+03
C:/temp/Job-2.odb,Step-1,Increment      1: Step Time =    1.000,"P-2-1",          1773,       28.6595,       53.5837,            0.,NA,NA,"",   950.072E+03,   1.00854E+06,   1.00854E+06
C:/temp/Job-2.odb,Step-1,Increment      1: Step Time =    1.000,"P-2-1",          1774,       129.000,       24.4721,            0.,NA,NA,"",   1.01313E+06,   1.01211E+06,   1.01211E+06
C:/temp/Job-2.odb,Step-1,Increment      1: Step Time =    1.000,"P-2-1",          1775,       124.288,       24.1122,            0.,NA,NA,"",   1.00755E+06,   1.00867E+06,   1.00867E+06
C:/temp/Job-2.odb,Step-1,Increment      1: Step Time =    1.000,"P-2-1",          1776,       155.259,       141.087,            0.,NA,NA,"",   1.05328E+06,   1.03694E+06,   1.03694E+06
C:/temp/Job-2.odb,Step-1,Increment      1: Step Time =    1.000,"P-2-1",          1777,       152.005,       98.2494,            0.,NA,NA,"",   881.354E+03,   893.471E+03,   893.471E+03
C:/temp/Job-2.odb,Step-1,Increment      1: Step Time =    1.000,"P-2-1",          1778,       152.922,       151.424,            0.,NA,NA,"",   1.05653E+06,   1.04146E+06,   1.04146E+06
C:/temp/Job-2.odb,Step-1,Increment      1: Step Time =    1.000,"P-2-1",          1779,       149.396,       111.634,            0.,NA,NA,"",   924.974E+03,   924.681E+03,   924.681E+03
C:/temp/Job-2.odb,Step-1,Increment      1: Step Time =    1.000,"P-2-1",          1780,       158.147,       169.687,            0.,NA,NA,"",   1.02457E+06,   1.01840E+06,   1.01840E+06
C:/temp/Job-2.odb,Step-1,Increment      1: Step Time =    1.000,"P-2-1",          1781,       155.244,       96.2099,            0.,NA,NA,"",   902.895E+03,   913.974E+03,   913.974E+03
C:/temp/Job-2.odb,Step-1,Increment      1: Step Time =    1.000,"P-2-1",          1782,       98.2046,       44.4792,            0.,NA,NA,"",   1.02153E+06,   1.05152E+06,   1.05152E+06
C:/temp/Job-2.odb,Step-1,Increment      1: Step Time =    1.000,"P-2-1",          1783,       74.1647,       167.229,            0.,NA,NA,"",   1.03888E+06,   1.04445E+06,   1.04445E+06
C:/temp/Job-2.odb,Step-1,Increment      1: Step Time =    1.000,"P-2-1",          1784,       150.234,       106.006,            0.,NA,NA,"",   890.557E+03,   898.451E+03,   898.451E+03
C:/temp/Job-2.odb,Step-1,Increment      1: Step Time =    1.000,"P-2-1",          1785,       151.744,       103.980,            0.,NA,NA,"",   890.505E+03,     900.3E+03,     900.3E+03
C:/temp/Job-2.odb,Step-1,Increment      1: Step Time =    1.000,"P-2-1",          1786,       104.426,       48.8350,            0.,NA,NA,"",   1.03052E+06,   1.06323E+06,   1.06323E+06
C:/temp/Job-2.odb,Step-1,Increment      1: Step Time =    1.000,"P-2-1",          1787,       170.696,       46.0383,            0.,NA,NA,"",   1.02229E+06,   1.01784E+06,   1.01784E+06
C:/temp/Job-2.odb,Step-1,Increment      1: Step Time =    1.000,"P-2-1",          1788,       63.3274,       163.145,            0.,NA,NA,"",   1.05767E+06,   1.06179E+06,   1.06179E+06
C:/temp/Job-2.odb,Step-1,Increment      1: Step Time =    1.000,"P-2-1",          1789,       150.380,       159.237,            0.,NA,NA,"",   1.04993E+06,   1.03772E+06,   1.03772E+06
C:/temp/Job-2.odb,Step-1,Increment      1: Step Time =    1.000,"P-2-1",          1790,       168.188,       115.768,            0.,NA,NA,"",   969.185E+03,   976.866E+03,   976.866E+03
C:/temp/Job-2.odb,Step-1,Increment      1: Step Time =    1.000,"P-2-1",          1791,       166.880,       112.154,            0.,NA,NA,"",   958.232E+03,   967.639E+03,   967.639E+03
C:/temp/Job-2.odb,Step-1,Increment      1: Step Time =    1.000,"P-2-1",          1792,       152.971,       101.595,            0.,NA,NA,"",   890.625E+03,   902.034E+03,   902.034E+03
C:/temp/Job-2.odb,Step-1,Increment      1: Step Time =    1.000,"P-2-1",          1793,       24.9706,       83.5697,            0.,NA,NA,"",   831.576E+03,   911.853E+03,   911.853E+03
C:/temp/Job-2.odb,Step-1,Increment      1: Step Time =    1.000,"P-2-1",          1794,       27.9397,       65.5282,            0.,NA,NA,"",   904.291E+03,   971.155E+03,   971.155E+03
C:/temp/Job-2.odb,Step-1,Increment      1: Step Time =    1.000,"P-2-1",          1795,       29.1231,       69.7070,            0.,NA,NA,"",   891.270E+03,   958.829E+03,   958.829E+03
C:/temp/Job-2.odb,Step-1,Increment      1: Step Time =    1.000,"P-2-1",          1796,       153.693,       50.5262,            0.,NA,NA,"",   1.05694E+06,   1.04169E+06,   1.04169E+06
C:/temp/Job-2.odb,Step-1,Increment      1: Step Time =    1.000,"P-2-1",          1797,       164.838,       56.0912,            0.,NA,NA,"",   1.03182E+06,   1.02353E+06,   1.02353E+06
C:/temp/Job-2.odb,Step-1,Increment      1: Step Time =    1.000,"P-2-1",          1798,       123.973,       28.6217,            0.,NA,NA,"",   1.01876E+06,   1.02015E+06,   1.02015E+06
C:/temp/Job-2.odb,Step-1,Increment      1: Step Time =    1.000,"P-2-1",          1799,       119.676,       29.0841,            0.,NA,NA,"",   1.01451E+06,   1.01866E+06,   1.01866E+06
C:/temp/Job-2.odb,Step-1,Increment      1: Step Time =    1.000,"P-2-1",          1800,       102.850,       154.361,            0.,NA,NA,"",   1.02292E+06,   1.05307E+06,   1.05307E+06
C:/temp/Job-2.odb,Step-1,Increment      1: Step Time =    1.000,"P-2-1",          1801,       45.7465,       112.846,            0.,NA,NA,"",   847.363E+03,   901.138E+03,   901.138E+03
C:/temp/Job-2.odb,Step-1,Increment      1: Step Time =    1.000,"P-2-1",          1802,       161.235,       90.2196,            0.,NA,NA,"",   942.269E+03,   950.452E+03,   950.452E+03
C:/temp/Job-2.odb,Step-1,Increment      1: Step Time =    1.000,"P-2-1",          1803,       40.5425,       127.602,            0.,NA,NA,"",   920.609E+03,   968.832E+03,   968.832E+03
C:/temp/Job-2.odb,Step-1,Increment      1: Step Time =    1.000,"P-2-1",          1804,       68.6586,       153.931,            0.,NA,NA,"",   1.07605E+06,   1.07972E+06,   1.07972E+06
C:/temp/Job-2.odb,Step-1,Increment      1: Step Time =    1.000,"P-2-1",          1805,       42.5048,       143.145,            0.,NA,NA,"",   996.567E+03,   1.02946E+06,   1.02946E+06
C:/temp/Job-2.odb,Step-1,Increment      1: Step Time =    1.000,"P-2-1",          1806,       146.789,       165.490,            0.,NA,NA,"",   1.04059E+06,   1.03128E+06,   1.03128E+06
C:/temp/Job-2.odb,Step-1,Increment      1: Step Time =    1.000,"P-2-1",          1807,       22.6709,       159.871,            0.,NA,NA,"",   977.870E+03,   1.03826E+06,   1.03826E+06
C:/temp/Job-2.odb,Step-1,Increment      1: Step Time =    1.000,"P-2-1",          1808,       86.7314,       40.7799,            0.,NA,NA,"",   1.03423E+06,   1.05258E+06,   1.05258E+06
C:/temp/Job-2.odb,Step-1,Increment      1: Step Time =    1.000,"P-2-1",          1809,       37.9161,       51.6338,            0.,NA,NA,"",   993.083E+03,   1.03184E+06,   1.03184E+06
C:/temp/Job-2.odb,Step-1,Increment      1: Step Time =    1.000,"P-2-1",          1810,       160.196,       96.0035,            0.,NA,NA,"",   924.333E+03,   935.525E+03,   935.525E+03
C:/temp/Job-2.odb,Step-1,Increment      1: Step Time =    1.000,"P-2-1",          1811,       104.262,       160.297,            0.,NA,NA,"",   1.01701E+06,   1.03929E+06,   1.03929E+06
C:/temp/Job-2.odb,Step-1,Increment      1: Step Time =    1.000,"P-2-1",          1812,       35.7332,       135.559,            0.,NA,NA,"",   938.043E+03,   989.946E+03,   989.946E+03
C:/temp/Job-2.odb,Step-1,Increment      1: Step Time =    1.000,"P-2-1",          1813,       156.015,       55.5641,            0.,NA,NA,"",   1.05351E+06,   1.03797E+06,   1.03797E+06
C:/temp/Job-2.odb,Step-1,Increment      1: Step Time =    1.000,"P-2-1",          1814,       54.9107,       42.4973,            0.,NA,NA,"",   1.05869E+06,   1.06685E+06,   1.06685E+06
C:/temp/Job-2.odb,Step-1,Increment      1: Step Time =    1.000,"P-2-1",          1815,       161.273,       99.9006,            0.,NA,NA,"",   924.965E+03,   937.301E+03,   937.301E+03
C:/temp/Job-2.odb,Step-1,Increment      1: Step Time =    1.000,"P-2-1",          1816,       157.838,       100.771,            0.,NA,NA,"",   910.260E+03,   922.080E+03,   922.080E+03
C:/temp/Job-2.odb,Step-1,Increment      1: Step Time =    1.000,"P-2-1",          1817,       31.3771,       65.1671,            0.,NA,NA,"",   917.847E+03,   978.606E+03,   978.606E+03
C:/temp/Job-2.odb,Step-1,Increment      1: Step Time =    1.000,"P-2-1",          1818,       33.5004,       146.825,            0.,NA,NA,"",   970.663E+03,   1.01937E+06,   1.01937E+06
C:/temp/Job-2.odb,Step-1,Increment      1: Step Time =    1.000,"P-2-1",          1819,       28.8938,       143.736,            0.,NA,NA,"",   943.242E+03,   1.00257E+06,   1.00257E+06
C:/temp/Job-2.odb,Step-1,Increment      1: Step Time =    1.000,"P-2-1",          1820,       114.383,       43.3307,            0.,NA,NA,"",   1.04079E+06,   1.05498E+06,   1.05498E+06
C:/temp/Job-2.odb,Step-1,Increment      1: Step Time =    1.000,"P-2-1",          1821,       46.0762,       30.1612,            0.,NA,NA,"",   1.04909E+06,   1.06027E+06,   1.06027E+06
C:/temp/Job-2.odb,Step-1,Increment      1: Step Time =    1.000,"P-2-1",          1822,       160.341,       56.3817,            0.,NA,NA,"",   1.04256E+06,   1.03043E+06,   1.03043E+06
C:/temp/Job-2.odb,Step-1,Increment      1: Step Time =    1.000,"P-2-1",          1823,       39.8185,       150.376,            0.,NA,NA,"",   1.00750E+06,   1.04082E+06,   1.04082E+06
C:/temp/Job-2.odb,Step-1,Increment      1: Step Time =    1.000,"P-2-1",          1824,       164.818,       40.1490,            0.,NA,NA,"",   1.02771E+06,   1.02124E+06,   1.02124E+06
C:/temp/Job-2.odb,Step-1,Increment      1: Step Time =    1.000,"P-2-1",          1825,       39.8537,       68.1604,            0.,NA,NA,"",   940.075E+03,   986.049E+03,   986.049E+03
C:/temp/Job-2.odb,Step-1,Increment      1: Step Time =    1.000,"P-2-1",          1826,       121.537,       159.966,            0.,NA,NA,"",   1.04526E+06,   1.04865E+06,   1.04865E+06
C:/temp/Job-2.odb,Step-1,Increment      1: Step Time =    1.000,"P-2-1",          1827,       37.8084,       145.201,            0.,NA,NA,"",   985.029E+03,   1.02533E+06,   1.02533E+06
C:/temp/Job-2.odb,Step-1,Increment      1: Step Time =    1.000,"P-2-1",          1828,       51.2684,       35.8216,            0.,NA,NA,"",   1.05216E+06,   1.06170E+06,   1.06170E+06
C:/temp/Job-2.odb,Step-1,Increment      1: Step Time =    1.000,"P-2-1",          1829,       29.2627,       84.7519,            0.,NA,NA,"",   836.179E+03,   911.517E+03,   911.517E+03
C:/temp/Job-2.odb,Step-1,Increment      1: Step Time =    1.000,"P-2-1",          1830,       97.7078,       160.507,            0.,NA,NA,"",   1.01608E+06,   1.03907E+06,   1.03907E+06
C:/temp/Job-2.odb,Step-1,Increment      1: Step Time =    1.000,"P-2-1",          1831,       155.504,       105.972,            0.,NA,NA,"",   914.869E+03,   923.730E+03,   923.730E+03
C:/temp/Job-2.odb,Step-1,Increment      1: Step Time =    1.000,"P-2-1",          1832,       123.170,       38.2209,            0.,NA,NA,"",   1.04354E+06,   1.04557E+06,   1.04557E+06
C:/temp/Job-2.odb,Step-1,Increment      1: Step Time =    1.000,"P-2-1",          1833,       34.5687,       81.5463,            0.,NA,NA,"",   859.246E+03,   925.242E+03,   925.242E+03
C:/temp/Job-2.odb,Step-1,Increment      1: Step Time =    1.000,"P-2-1",          1834,       36.0840,       60.2942,            0.,NA,NA,"",   957.866E+03,   1.00544E+06,   1.00544E+06
C:/temp/Job-2.odb,Step-1,Increment      1: Step Time =    1.000,"P-2-1",          1835,       90.2722,       35.6991,            0.,NA,NA,"",   1.01992E+06,   1.03636E+06,   1.03636E+06
C:/temp/Job-2.odb,Step-1,Increment      1: Step Time =    1.000,"P-2-1",          1836,       155.482,       102.833,            0.,NA,NA,"",   905.085E+03,   916.092E+03,   916.092E+03
C:/temp/Job-2.odb,Step-1,Increment      1: Step Time =    1.000,"P-2-1",          1837,       66.8061,       40.5930,            0.,NA,NA,"",   1.06447E+06,   1.06845E+06,   1.06845E+06
C:/temp/Job-2.odb,Step-1,Increment      1: Step Time =    1.000,"P-2-1",          1838,       124.393,       32.8465,            0.,NA,NA,"",   1.02996E+06,   1.03089E+06,   1.03089E+06
C:/temp/Job-2.odb,Step-1,Increment      1: Step Time =    1.000,"P-2-1",          1839,       157.419,       109.279,            0.,NA,NA,"",   933.119E+03,   940.006E+03,   940.006E+03
C:/temp/Job-2.odb,Step-1,Increment      1: Step Time =    1.000,"P-2-1",          1840,       118.287,       39.2145,            0.,NA,NA,"",   1.03849E+06,   1.04596E+06,   1.04596E+06
