ODB Name,Step,Frame,Part Instance Name,    Node Label,X,Y,Z,Section Name,Material Name,Section Point,       S-Mises,S-Max. In-Plane Principal (Abs),S-Max. Principal (Abs)
C:/temp/Job-20.odb,Step-1,Increment      1: Step Time =    1.000,"P-20-1",             1,       95.2977,       106.472,            0.,NA,NA,"",   1.30899E+06,   1.30612E+06,   1.30612E+06
C:/temp/Job-20.odb,Step-1,Increment      1: Step Time =    1.000,"P-20-1",             2,       92.3915,       102.472,            0.,NA,NA,"",   603.927E+03,   220.342E+03,   220.342E+03
C:/temp/Job-20.odb,Step-1,Increment      1: Step Time =    1.000,"P-20-1",             3,       92.3915,       97.5279,            0.,NA,NA,"",   675.086E+03,   383.783E+03,   383.783E+03
C:/temp/Job-20.odb,Step-1,Increment      1: Step Time =    1.000,"P-20-1",             4,       95.2977,       93.5279,            0.,NA,NA,"",   1.33807E+06,   1.35858E+06,   1.35858E+06
C:/temp/Job-20.odb,Step-1,Increment      1: Step Time =    1.000,"P-20-1",             5,          100.,           92.,            0.,NA,NA,"",   1.67675E+06,   1.78173E+06,   1.78173E+06
C:/temp/Job-20.odb,Step-1,Increment      1: Step Time =    1.000,"P-20-1",             6,       104.702,       93.5279,            0.,NA,NA,"",   1.36355E+06,   1.35408E+06,   1.35408E+06
C:/temp/Job-20.odb,Step-1,Increment      1: Step Time =    1.000,"P-20-1",             7,       107.608,       97.5279,            0.,NA,NA,"",   654.083E+03,   319.231E+03,   319.231E+03
C:/temp/Job-20.odb,Step-1,Increment      1: Step Time =    1.000,"P-20-1",             8,       107.608,       102.472,            0.,NA,NA,"",   619.908E+03,   191.837E+03,   191.837E+03
C:/temp/Job-20.odb,Step-1,Increment      1: Step Time =    1.000,"P-20-1",             9,       104.702,       106.472,            0.,NA,NA,"",   1.31601E+06,   1.31646E+06,   1.31646E+06
C:/temp/Job-20.odb,Step-1,Increment      1: Step Time =    1.000,"P-20-1",            10,          100.,          108.,            0.,NA,NA,"",   1.75775E+06,   1.85283E+06,   1.85283E+06
C:/temp/Job-20.odb,Step-1,Increment      1: Step Time =    1.000,"P-20-1",            11,          190.,            0.,            0.,NA,NA,"",   999.822E+03,   999.789E+03,   999.789E+03
C:/temp/Job-20.odb,Step-1,Increment      1: Step Time =    1.000,"P-20-1",            12,          180.,            0.,            0.,NA,NA,"",   998.828E+03,   998.789E+03,   998.789E+03
C:/temp/Job-20.odb,Step-1,Increment      1: Step Time =    1.000,"P-20-1",            13,          170.,            0.,            0.,NA,NA,"",   996.651E+03,   996.602E+03,   996.602E+03
C:/temp/Job-20.odb,Step-1,Increment      1: Step Time =    1.000,"P-20-1",            14,          160.,            0.,            0.,NA,NA,"",   992.984E+03,   992.945E+03,   992.945E+03
C:/temp/Job-20.odb,Step-1,Increment      1: Step Time =    1.000,"P-20-1",            15,          150.,            0.,            0.,NA,NA,"",   987.395E+03,   987.341E+03,   987.341E+03
C:/temp/Job-20.odb,Step-1,Increment      1: Step Time =    1.000,"P-20-1",            16,          140.,            0.,            0.,NA,NA,"",   979.788E+03,   979.716E+03,   979.716E+03
C:/temp/Job-20.odb,Step-1,Increment      1: Step Time =    1.000,"P-20-1",            17,          130.,            0.,            0.,NA,NA,"",   970.573E+03,   970.526E+03,   970.526E+03
C:/temp/Job-20.odb,Step-1,Increment      1: Step Time =    1.000,"P-20-1",            18,          120.,            0.,            0.,NA,NA,"",   960.632E+03,   960.639E+03,   960.639E+03
C:/temp/Job-20.odb,Step-1,Increment      1: Step Time =    1.000,"P-20-1",            19,          110.,            0.,            0.,NA,NA,"",   951.475E+03,   951.522E+03,   951.522E+03
C:/temp/Job-20.odb,Step-1,Increment      1: Step Time =    1.000,"P-20-1",            20,          100.,            0.,            0.,NA,NA,"",   944.332E+03,   944.410E+03,   944.410E+03
C:/temp/Job-20.odb,Step-1,Increment      1: Step Time =    1.000,"P-20-1",            21,           90.,            0.,            0.,NA,NA,"",   939.883E+03,   939.962E+03,   939.962E+03
C:/temp/Job-20.odb,Step-1,Increment      1: Step Time =    1.000,"P-20-1",            22,           80.,            0.,            0.,NA,NA,"",   938.189E+03,   938.241E+03,   938.241E+03
C:/temp/Job-20.odb,Step-1,Increment      1: Step Time =    1.000,"P-20-1",            23,           70.,            0.,            0.,NA,NA,"",   938.835E+03,   938.866E+03,   938.866E+03
C:/temp/Job-20.odb,Step-1,Increment      1: Step Time =    1.000,"P-20-1",            24,           60.,            0.,            0.,NA,NA,"",   941.647E+03,   941.692E+03,   941.692E+03
C:/temp/Job-20.odb,Step-1,Increment      1: Step Time =    1.000,"P-20-1",            25,           50.,            0.,            0.,NA,NA,"",   947.671E+03,   947.717E+03,   947.717E+03
C:/temp/Job-20.odb,Step-1,Increment      1: Step Time =    1.000,"P-20-1",            26,           40.,            0.,            0.,NA,NA,"",   959.721E+03,   959.852E+03,   959.852E+03
C:/temp/Job-20.odb,Step-1,Increment      1: Step Time =    1.000,"P-20-1",            27,           30.,            0.,            0.,NA,NA,"",   985.258E+03,   985.667E+03,   985.667E+03
C:/temp/Job-20.odb,Step-1,Increment      1: Step Time =    1.000,"P-20-1",            28,           20.,            0.,            0.,NA,NA,"",   1.04138E+06,   1.04235E+06,   1.04235E+06
C:/temp/Job-20.odb,Step-1,Increment      1: Step Time =    1.000,"P-20-1",            29,           10.,            0.,            0.,NA,NA,"",   1.18504E+06,   1.18797E+06,   1.18797E+06
C:/temp/Job-20.odb,Step-1,Increment      1: Step Time =    1.000,"P-20-1",            30,          200.,            0.,            0.,NA,NA,"",   999.994E+03,   999.989E+03,   999.989E+03
C:/temp/Job-20.odb,Step-1,Increment      1: Step Time =    1.000,"P-20-1",            31,            0.,            0.,            0.,NA,NA,"",   1.52912E+06,   1.60047E+06,   1.60047E+06
C:/temp/Job-20.odb,Step-1,Increment      1: Step Time =    1.000,"P-20-1",            32,          200.,          190.,            0.,NA,NA,"",   1.00005E+06,   999.943E+03,   999.943E+03
C:/temp/Job-20.odb,Step-1,Increment      1: Step Time =    1.000,"P-20-1",            33,          200.,          180.,            0.,NA,NA,"",   1.00052E+06,   999.977E+03,   999.977E+03
C:/temp/Job-20.odb,Step-1,Increment      1: Step Time =    1.000,"P-20-1",            34,          200.,          170.,            0.,NA,NA,"",   1.00118E+06,   1.00005E+06,   1.00005E+06
C:/temp/Job-20.odb,Step-1,Increment      1: Step Time =    1.000,"P-20-1",            35,          200.,          160.,            0.,NA,NA,"",   1.00147E+06,   1.00009E+06,   1.00009E+06
C:/temp/Job-20.odb,Step-1,Increment      1: Step Time =    1.000,"P-20-1",            36,          200.,          150.,            0.,NA,NA,"",   1.00098E+06,   1.00010E+06,   1.00010E+06
C:/temp/Job-20.odb,Step-1,Increment      1: Step Time =    1.000,"P-20-1",            37,          200.,          140.,            0.,NA,NA,"",   999.464E+03,   1.00009E+06,   1.00009E+06
C:/temp/Job-20.odb,Step-1,Increment      1: Step Time =    1.000,"P-20-1",            38,          200.,          130.,            0.,NA,NA,"",   997.196E+03,   1.00005E+06,   1.00005E+06
C:/temp/Job-20.odb,Step-1,Increment      1: Step Time =    1.000,"P-20-1",            39,          200.,          120.,            0.,NA,NA,"",   994.678E+03,   999.956E+03,   999.956E+03
C:/temp/Job-20.odb,Step-1,Increment      1: Step Time =    1.000,"P-20-1",            40,          200.,          110.,            0.,NA,NA,"",   992.675E+03,   999.834E+03,   999.834E+03
C:/temp/Job-20.odb,Step-1,Increment      1: Step Time =    1.000,"P-20-1",            41,          200.,          100.,            0.,NA,NA,"",   991.865E+03,   999.783E+03,   999.783E+03
C:/temp/Job-20.odb,Step-1,Increment      1: Step Time =    1.000,"P-20-1",            42,          200.,           90.,            0.,NA,NA,"",   992.584E+03,   999.822E+03,   999.822E+03
C:/temp/Job-20.odb,Step-1,Increment      1: Step Time =    1.000,"P-20-1",            43,          200.,           80.,            0.,NA,NA,"",   994.553E+03,   999.931E+03,   999.931E+03
C:/temp/Job-20.odb,Step-1,Increment      1: Step Time =    1.000,"P-20-1",            44,          200.,           70.,            0.,NA,NA,"",   997.070E+03,   1.00005E+06,   1.00005E+06
C:/temp/Job-20.odb,Step-1,Increment      1: Step Time =    1.000,"P-20-1",            45,          200.,           60.,            0.,NA,NA,"",   999.343E+03,   1.00011E+06,   1.00011E+06
C:/temp/Job-20.odb,Step-1,Increment      1: Step Time =    1.000,"P-20-1",            46,          200.,           50.,            0.,NA,NA,"",   1.00083E+06,   1.00012E+06,   1.00012E+06
C:/temp/Job-20.odb,Step-1,Increment      1: Step Time =    1.000,"P-20-1",            47,          200.,           40.,            0.,NA,NA,"",   1.00136E+06,   1.00009E+06,   1.00009E+06
C:/temp/Job-20.odb,Step-1,Increment      1: Step Time =    1.000,"P-20-1",            48,          200.,           30.,            0.,NA,NA,"",   1.00110E+06,   1.00004E+06,   1.00004E+06
C:/temp/Job-20.odb,Step-1,Increment      1: Step Time =    1.000,"P-20-1",            49,          200.,           20.,            0.,NA,NA,"",   1.00050E+06,   999.982E+03,   999.982E+03
C:/temp/Job-20.odb,Step-1,Increment      1: Step Time =    1.000,"P-20-1",            50,          200.,           10.,            0.,NA,NA,"",   1.00004E+06,   999.938E+03,   999.938E+03
C:/temp/Job-20.odb,Step-1,Increment      1: Step Time =    1.000,"P-20-1",            51,          200.,          200.,            0.,NA,NA,"",   999.996E+03,   999.992E+03,   999.992E+03
C:/temp/Job-20.odb,Step-1,Increment      1: Step Time =    1.000,"P-20-1",            52,           10.,          200.,            0.,NA,NA,"",   1.18750E+06,   1.19047E+06,   1.19047E+06
C:/temp/Job-20.odb,Step-1,Increment      1: Step Time =    1.000,"P-20-1",            53,           20.,          200.,            0.,NA,NA,"",   1.04363E+06,   1.04486E+06,   1.04486E+06
C:/temp/Job-20.odb,Step-1,Increment      1: Step Time =    1.000,"P-20-1",            54,           30.,          200.,            0.,NA,NA,"",   986.778E+03,   987.279E+03,   987.279E+03
C:/temp/Job-20.odb,Step-1,Increment      1: Step Time =    1.000,"P-20-1",            55,           40.,          200.,            0.,NA,NA,"",   961.009E+03,   961.158E+03,   961.158E+03
C:/temp/Job-20.odb,Step-1,Increment      1: Step Time =    1.000,"P-20-1",            56,           50.,          200.,            0.,NA,NA,"",   947.810E+03,   947.968E+03,   947.968E+03
C:/temp/Job-20.odb,Step-1,Increment      1: Step Time =    1.000,"P-20-1",            57,           60.,          200.,            0.,NA,NA,"",   941.852E+03,   941.856E+03,   941.856E+03
C:/temp/Job-20.odb,Step-1,Increment      1: Step Time =    1.000,"P-20-1",            58,           70.,          200.,            0.,NA,NA,"",   939.132E+03,   939.162E+03,   939.162E+03
C:/temp/Job-20.odb,Step-1,Increment      1: Step Time =    1.000,"P-20-1",            59,           80.,          200.,            0.,NA,NA,"",   938.604E+03,   938.651E+03,   938.651E+03
C:/temp/Job-20.odb,Step-1,Increment      1: Step Time =    1.000,"P-20-1",            60,           90.,          200.,            0.,NA,NA,"",   940.261E+03,   940.337E+03,   940.337E+03
C:/temp/Job-20.odb,Step-1,Increment      1: Step Time =    1.000,"P-20-1",            61,          100.,          200.,            0.,NA,NA,"",   944.569E+03,   944.652E+03,   944.652E+03
C:/temp/Job-20.odb,Step-1,Increment      1: Step Time =    1.000,"P-20-1",            62,          110.,          200.,            0.,NA,NA,"",   951.582E+03,    951.64E+03,    951.64E+03
C:/temp/Job-20.odb,Step-1,Increment      1: Step Time =    1.000,"P-20-1",            63,          120.,          200.,            0.,NA,NA,"",   960.639E+03,   960.648E+03,   960.648E+03
C:/temp/Job-20.odb,Step-1,Increment      1: Step Time =    1.000,"P-20-1",            64,          130.,          200.,            0.,NA,NA,"",   970.444E+03,   970.412E+03,   970.412E+03
C:/temp/Job-20.odb,Step-1,Increment      1: Step Time =    1.000,"P-20-1",            65,          140.,          200.,            0.,NA,NA,"",   979.620E+03,   979.566E+03,   979.566E+03
C:/temp/Job-20.odb,Step-1,Increment      1: Step Time =    1.000,"P-20-1",            66,          150.,          200.,            0.,NA,NA,"",   987.195E+03,   987.132E+03,   987.132E+03
C:/temp/Job-20.odb,Step-1,Increment      1: Step Time =    1.000,"P-20-1",            67,          160.,          200.,            0.,NA,NA,"",   992.797E+03,   992.741E+03,   992.741E+03
C:/temp/Job-20.odb,Step-1,Increment      1: Step Time =    1.000,"P-20-1",            68,          170.,          200.,            0.,NA,NA,"",   996.565E+03,   996.519E+03,   996.519E+03
C:/temp/Job-20.odb,Step-1,Increment      1: Step Time =    1.000,"P-20-1",            69,          180.,          200.,            0.,NA,NA,"",   998.781E+03,   998.744E+03,   998.744E+03
C:/temp/Job-20.odb,Step-1,Increment      1: Step Time =    1.000,"P-20-1",            70,          190.,          200.,            0.,NA,NA,"",   999.811E+03,   999.778E+03,   999.778E+03
C:/temp/Job-20.odb,Step-1,Increment      1: Step Time =    1.000,"P-20-1",            71,            0.,          200.,            0.,NA,NA,"",   1.52935E+06,   1.60145E+06,   1.60145E+06
C:/temp/Job-20.odb,Step-1,Increment      1: Step Time =    1.000,"P-20-1",            72,            0.,           10.,            0.,NA,NA,"",   1.11093E+06,   1.20657E+06,   1.20657E+06
C:/temp/Job-20.odb,Step-1,Increment      1: Step Time =    1.000,"P-20-1",            73,            0.,           20.,            0.,NA,NA,"",   975.452E+03,   1.07507E+06,   1.07507E+06
C:/temp/Job-20.odb,Step-1,Increment      1: Step Time =    1.000,"P-20-1",            74,            0.,           30.,            0.,NA,NA,"",   913.968E+03,   1.01591E+06,   1.01591E+06
C:/temp/Job-20.odb,Step-1,Increment      1: Step Time =    1.000,"P-20-1",            75,            0.,           40.,            0.,NA,NA,"",   878.348E+03,   982.133E+03,   982.133E+03
C:/temp/Job-20.odb,Step-1,Increment      1: Step Time =    1.000,"P-20-1",            76,            0.,           50.,            0.,NA,NA,"",   855.631E+03,   959.828E+03,   959.828E+03
C:/temp/Job-20.odb,Step-1,Increment      1: Step Time =    1.000,"P-20-1",            77,            0.,           60.,            0.,NA,NA,"",   839.698E+03,   943.857E+03,   943.857E+03
C:/temp/Job-20.odb,Step-1,Increment      1: Step Time =    1.000,"P-20-1",            78,            0.,           70.,            0.,NA,NA,"",   827.341E+03,   931.266E+03,   931.266E+03
C:/temp/Job-20.odb,Step-1,Increment      1: Step Time =    1.000,"P-20-1",            79,            0.,           80.,            0.,NA,NA,"",   818.244E+03,   921.901E+03,   921.901E+03
C:/temp/Job-20.odb,Step-1,Increment      1: Step Time =    1.000,"P-20-1",            80,            0.,           90.,            0.,NA,NA,"",    812.56E+03,   916.007E+03,   916.007E+03
C:/temp/Job-20.odb,Step-1,Increment      1: Step Time =    1.000,"P-20-1",            81,            0.,          100.,            0.,NA,NA,"",   810.476E+03,   913.871E+03,   913.871E+03
C:/temp/Job-20.odb,Step-1,Increment      1: Step Time =    1.000,"P-20-1",            82,            0.,          110.,            0.,NA,NA,"",   812.352E+03,   915.849E+03,   915.849E+03
C:/temp/Job-20.odb,Step-1,Increment      1: Step Time =    1.000,"P-20-1",            83,            0.,          120.,            0.,NA,NA,"",   818.088E+03,   921.763E+03,   921.763E+03
C:/temp/Job-20.odb,Step-1,Increment      1: Step Time =    1.000,"P-20-1",            84,            0.,          130.,            0.,NA,NA,"",   827.389E+03,   931.259E+03,   931.259E+03
C:/temp/Job-20.odb,Step-1,Increment      1: Step Time =    1.000,"P-20-1",            85,            0.,          140.,            0.,NA,NA,"",   840.049E+03,   944.017E+03,   944.017E+03
C:/temp/Job-20.odb,Step-1,Increment      1: Step Time =    1.000,"P-20-1",            86,            0.,          150.,            0.,NA,NA,"",   856.573E+03,   960.451E+03,   960.451E+03
C:/temp/Job-20.odb,Step-1,Increment      1: Step Time =    1.000,"P-20-1",            87,            0.,          160.,            0.,NA,NA,"",   879.360E+03,   982.713E+03,   982.713E+03
C:/temp/Job-20.odb,Step-1,Increment      1: Step Time =    1.000,"P-20-1",            88,            0.,          170.,            0.,NA,NA,"",   913.803E+03,   1.01609E+06,   1.01609E+06
C:/temp/Job-20.odb,Step-1,Increment      1: Step Time =    1.000,"P-20-1",            89,            0.,          180.,            0.,NA,NA,"",   973.726E+03,   1.07419E+06,   1.07419E+06
C:/temp/Job-20.odb,Step-1,Increment      1: Step Time =    1.000,"P-20-1",            90,            0.,          190.,            0.,NA,NA,"",   1.10967E+06,   1.20650E+06,   1.20650E+06
C:/temp/Job-20.odb,Step-1,Increment      1: Step Time =    1.000,"P-20-1",            91,       104.723,       84.4758,            0.,NA,NA,"",   1.25228E+06,   1.31287E+06,   1.31287E+06
C:/temp/Job-20.odb,Step-1,Increment      1: Step Time =    1.000,"P-20-1",            92,       189.267,       115.047,            0.,NA,NA,"",   995.052E+03,    998.94E+03,    998.94E+03
C:/temp/Job-20.odb,Step-1,Increment      1: Step Time =    1.000,"P-20-1",            93,       178.634,       112.023,            0.,NA,NA,"",   993.465E+03,   995.474E+03,   995.474E+03
C:/temp/Job-20.odb,Step-1,Increment      1: Step Time =    1.000,"P-20-1",            94,       169.264,       117.813,            0.,NA,NA,"",   995.619E+03,   995.203E+03,   995.203E+03
C:/temp/Job-20.odb,Step-1,Increment      1: Step Time =    1.000,"P-20-1",            95,       159.938,       116.591,            0.,NA,NA,"",   993.884E+03,   992.110E+03,   992.110E+03
C:/temp/Job-20.odb,Step-1,Increment      1: Step Time =    1.000,"P-20-1",            96,       145.560,       114.833,            0.,NA,NA,"",   986.966E+03,   982.466E+03,   982.466E+03
C:/temp/Job-20.odb,Step-1,Increment      1: Step Time =    1.000,"P-20-1",            97,       135.412,       116.459,            0.,NA,NA,"",   1.00476E+06,   992.116E+03,   992.116E+03
C:/temp/Job-20.odb,Step-1,Increment      1: Step Time =    1.000,"P-20-1",            98,       125.475,       115.344,            0.,NA,NA,"",   1.03848E+06,   1.01052E+06,   1.01052E+06
C:/temp/Job-20.odb,Step-1,Increment      1: Step Time =    1.000,"P-20-1",            99,       115.132,       114.665,            0.,NA,NA,"",   1.18208E+06,   1.11918E+06,   1.11918E+06
C:/temp/Job-20.odb,Step-1,Increment      1: Step Time =    1.000,"P-20-1",           100,       104.313,       118.064,            0.,NA,NA,"",   1.12730E+06,   1.19093E+06,   1.19093E+06
C:/temp/Job-20.odb,Step-1,Increment      1: Step Time =    1.000,"P-20-1",           101,       94.9576,       118.226,            0.,NA,NA,"",   1.13304E+06,   1.19223E+06,   1.19223E+06
C:/temp/Job-20.odb,Step-1,Increment      1: Step Time =    1.000,"P-20-1",           102,       84.5474,       114.747,            0.,NA,NA,"",   1.17232E+06,   1.11747E+06,   1.11747E+06
C:/temp/Job-20.odb,Step-1,Increment      1: Step Time =    1.000,"P-20-1",           103,       74.0962,       117.215,            0.,NA,NA,"",   1.01991E+06,   1.01799E+06,   1.01799E+06
C:/temp/Job-20.odb,Step-1,Increment      1: Step Time =    1.000,"P-20-1",           104,       62.8878,       120.981,            0.,NA,NA,"",   986.667E+03,   1.00721E+06,   1.00721E+06
C:/temp/Job-20.odb,Step-1,Increment      1: Step Time =    1.000,"P-20-1",           105,       53.2947,       118.389,            0.,NA,NA,"",   943.642E+03,   983.208E+03,   983.208E+03
C:/temp/Job-20.odb,Step-1,Increment      1: Step Time =    1.000,"P-20-1",           106,       42.6723,       116.258,            0.,NA,NA,"",   913.324E+03,   969.861E+03,   969.861E+03
C:/temp/Job-20.odb,Step-1,Increment      1: Step Time =    1.000,"P-20-1",           107,       30.4029,       116.684,            0.,NA,NA,"",   885.726E+03,   959.157E+03,   959.157E+03
C:/temp/Job-20.odb,Step-1,Increment      1: Step Time =    1.000,"P-20-1",           108,       20.0716,       115.499,            0.,NA,NA,"",   858.786E+03,   945.255E+03,   945.255E+03
C:/temp/Job-20.odb,Step-1,Increment      1: Step Time =    1.000,"P-20-1",           109,       9.97790,       115.127,            0.,NA,NA,"",   832.929E+03,   930.115E+03,   930.115E+03
C:/temp/Job-20.odb,Step-1,Increment      1: Step Time =    1.000,"P-20-1",           110,       10.1512,       105.173,            0.,NA,NA,"",   828.152E+03,   925.508E+03,   925.508E+03
C:/temp/Job-20.odb,Step-1,Increment      1: Step Time =    1.000,"P-20-1",           111,       20.7686,       105.622,            0.,NA,NA,"",   853.141E+03,   939.774E+03,   939.774E+03
C:/temp/Job-20.odb,Step-1,Increment      1: Step Time =    1.000,"P-20-1",           112,       31.5646,       107.032,            0.,NA,NA,"",   877.084E+03,   950.984E+03,   950.984E+03
C:/temp/Job-20.odb,Step-1,Increment      1: Step Time =    1.000,"P-20-1",           113,       40.7603,       106.198,            0.,NA,NA,"",   891.227E+03,   954.195E+03,   954.195E+03
C:/temp/Job-20.odb,Step-1,Increment      1: Step Time =    1.000,"P-20-1",           114,       53.4009,       106.575,            0.,NA,NA,"",   898.909E+03,   946.912E+03,   946.912E+03
C:/temp/Job-20.odb,Step-1,Increment      1: Step Time =    1.000,"P-20-1",           115,       59.8122,       106.026,            0.,NA,NA,"",   892.199E+03,   933.844E+03,   933.844E+03
C:/temp/Job-20.odb,Step-1,Increment      1: Step Time =    1.000,"P-20-1",           116,       72.9974,       105.041,            0.,NA,NA,"",   842.649E+03,   868.538E+03,   868.538E+03
C:/temp/Job-20.odb,Step-1,Increment      1: Step Time =    1.000,"P-20-1",           117,       80.9570,       104.789,            0.,NA,NA,"",   803.636E+03,   802.169E+03,   802.169E+03
C:/temp/Job-20.odb,Step-1,Increment      1: Step Time =    1.000,"P-20-1",           118,       116.114,       104.878,            0.,NA,NA,"",   834.040E+03,   792.441E+03,   792.441E+03
C:/temp/Job-20.odb,Step-1,Increment      1: Step Time =    1.000,"P-20-1",           119,       126.352,       106.379,            0.,NA,NA,"",   902.255E+03,   896.807E+03,   896.807E+03
C:/temp/Job-20.odb,Step-1,Increment      1: Step Time =    1.000,"P-20-1",           120,       136.580,       106.907,            0.,NA,NA,"",   933.530E+03,   935.044E+03,   935.044E+03
C:/temp/Job-20.odb,Step-1,Increment      1: Step Time =    1.000,"P-20-1",           121,       147.999,       107.543,            0.,NA,NA,"",   965.104E+03,   966.133E+03,   966.133E+03
C:/temp/Job-20.odb,Step-1,Increment      1: Step Time =    1.000,"P-20-1",           122,       156.226,       103.026,            0.,NA,NA,"",   972.049E+03,   974.160E+03,   974.160E+03
C:/temp/Job-20.odb,Step-1,Increment      1: Step Time =    1.000,"P-20-1",           123,       169.547,       103.120,            0.,NA,NA,"",   986.378E+03,    988.29E+03,    988.29E+03
C:/temp/Job-20.odb,Step-1,Increment      1: Step Time =    1.000,"P-20-1",           124,       179.763,       103.769,            0.,NA,NA,"",   991.888E+03,   994.762E+03,   994.762E+03
C:/temp/Job-20.odb,Step-1,Increment      1: Step Time =    1.000,"P-20-1",           125,       189.758,       104.732,            0.,NA,NA,"",   993.412E+03,   998.409E+03,   998.409E+03
C:/temp/Job-20.odb,Step-1,Increment      1: Step Time =    1.000,"P-20-1",           126,       115.249,       96.3272,            0.,NA,NA,"",   662.690E+03,   608.119E+03,   608.119E+03
C:/temp/Job-20.odb,Step-1,Increment      1: Step Time =    1.000,"P-20-1",           127,       130.407,       97.9119,            0.,NA,NA,"",   852.783E+03,   863.360E+03,   863.360E+03
C:/temp/Job-20.odb,Step-1,Increment      1: Step Time =    1.000,"P-20-1",           128,       138.419,       96.3450,            0.,NA,NA,"",   920.632E+03,   925.936E+03,   925.936E+03
C:/temp/Job-20.odb,Step-1,Increment      1: Step Time =    1.000,"P-20-1",           129,       149.674,       95.5526,            0.,NA,NA,"",   960.340E+03,   962.969E+03,   962.969E+03
C:/temp/Job-20.odb,Step-1,Increment      1: Step Time =    1.000,"P-20-1",           130,       158.722,       94.3921,            0.,NA,NA,"",   977.561E+03,   979.079E+03,   979.079E+03
C:/temp/Job-20.odb,Step-1,Increment      1: Step Time =    1.000,"P-20-1",           131,       169.364,       93.7616,            0.,NA,NA,"",   987.481E+03,   989.117E+03,   989.117E+03
C:/temp/Job-20.odb,Step-1,Increment      1: Step Time =    1.000,"P-20-1",           132,       179.838,       94.2607,            0.,NA,NA,"",   992.153E+03,   994.958E+03,   994.958E+03
C:/temp/Job-20.odb,Step-1,Increment      1: Step Time =    1.000,"P-20-1",           133,       189.956,       94.7270,            0.,NA,NA,"",   993.455E+03,   998.498E+03,   998.498E+03
C:/temp/Job-20.odb,Step-1,Increment      1: Step Time =    1.000,"P-20-1",           134,       10.6621,       85.0396,            0.,NA,NA,"",   834.606E+03,   931.164E+03,   931.164E+03
C:/temp/Job-20.odb,Step-1,Increment      1: Step Time =    1.000,"P-20-1",           135,       21.4696,       88.0511,            0.,NA,NA,"",   859.377E+03,   944.638E+03,   944.638E+03
C:/temp/Job-20.odb,Step-1,Increment      1: Step Time =    1.000,"P-20-1",           136,       29.9809,       78.9988,            0.,NA,NA,"",   892.212E+03,   964.625E+03,   964.625E+03
C:/temp/Job-20.odb,Step-1,Increment      1: Step Time =    1.000,"P-20-1",           137,       38.9108,       82.1905,            0.,NA,NA,"",   907.475E+03,   969.237E+03,   969.237E+03
C:/temp/Job-20.odb,Step-1,Increment      1: Step Time =    1.000,"P-20-1",           138,       52.7815,       86.3721,            0.,NA,NA,"",   922.527E+03,   966.787E+03,   966.787E+03
C:/temp/Job-20.odb,Step-1,Increment      1: Step Time =    1.000,"P-20-1",           139,       60.9998,       80.8930,            0.,NA,NA,"",   969.239E+03,   995.071E+03,   995.071E+03
C:/temp/Job-20.odb,Step-1,Increment      1: Step Time =    1.000,"P-20-1",           140,       72.7369,       82.8900,            0.,NA,NA,"",   1.01920E+06,   1.01809E+06,   1.01809E+06
C:/temp/Job-20.odb,Step-1,Increment      1: Step Time =    1.000,"P-20-1",           141,       81.8058,       82.6619,            0.,NA,NA,"",   1.13677E+06,   1.11130E+06,   1.11130E+06
C:/temp/Job-20.odb,Step-1,Increment      1: Step Time =    1.000,"P-20-1",           142,       95.4862,       81.7342,            0.,NA,NA,"",   1.12283E+06,   1.19237E+06,   1.19237E+06
C:/temp/Job-20.odb,Step-1,Increment      1: Step Time =    1.000,"P-20-1",           143,       116.541,       82.8080,            0.,NA,NA,"",   1.14766E+06,   1.10481E+06,   1.10481E+06
C:/temp/Job-20.odb,Step-1,Increment      1: Step Time =    1.000,"P-20-1",           144,       126.299,       81.5860,            0.,NA,NA,"",   1.06210E+06,   1.03345E+06,   1.03345E+06
C:/temp/Job-20.odb,Step-1,Increment      1: Step Time =    1.000,"P-20-1",           145,       136.377,       80.3444,            0.,NA,NA,"",   1.02248E+06,   1.00750E+06,   1.00750E+06
C:/temp/Job-20.odb,Step-1,Increment      1: Step Time =    1.000,"P-20-1",           146,       148.430,       86.9577,            0.,NA,NA,"",   981.495E+03,   978.919E+03,   978.919E+03
C:/temp/Job-20.odb,Step-1,Increment      1: Step Time =    1.000,"P-20-1",           147,       158.189,       83.0751,            0.,NA,NA,"",   992.904E+03,   990.785E+03,   990.785E+03
C:/temp/Job-20.odb,Step-1,Increment      1: Step Time =    1.000,"P-20-1",           148,       169.181,       84.1688,            0.,NA,NA,"",   993.932E+03,   993.887E+03,   993.887E+03
C:/temp/Job-20.odb,Step-1,Increment      1: Step Time =    1.000,"P-20-1",           149,       179.823,       84.4575,            0.,NA,NA,"",   995.215E+03,   996.995E+03,   996.995E+03
C:/temp/Job-20.odb,Step-1,Increment      1: Step Time =    1.000,"P-20-1",           150,       190.011,       84.7676,            0.,NA,NA,"",   995.001E+03,   999.077E+03,   999.077E+03
C:/temp/Job-20.odb,Step-1,Increment      1: Step Time =    1.000,"P-20-1",           151,       80.5799,       95.1004,            0.,NA,NA,"",   739.150E+03,   737.040E+03,   737.040E+03
C:/temp/Job-20.odb,Step-1,Increment      1: Step Time =    1.000,"P-20-1",           152,       70.9909,       93.3588,            0.,NA,NA,"",   874.635E+03,   900.313E+03,   900.313E+03
C:/temp/Job-20.odb,Step-1,Increment      1: Step Time =    1.000,"P-20-1",           153,       61.2332,       96.5040,            0.,NA,NA,"",   881.613E+03,   923.366E+03,   923.366E+03
C:/temp/Job-20.odb,Step-1,Increment      1: Step Time =    1.000,"P-20-1",           154,       51.0795,       92.9684,            0.,NA,NA,"",   902.481E+03,   952.742E+03,   952.742E+03
C:/temp/Job-20.odb,Step-1,Increment      1: Step Time =    1.000,"P-20-1",           155,       45.3794,       98.6558,            0.,NA,NA,"",   892.048E+03,   950.248E+03,   950.248E+03
C:/temp/Job-20.odb,Step-1,Increment      1: Step Time =    1.000,"P-20-1",           156,       33.3493,       96.3546,            0.,NA,NA,"",   878.614E+03,   950.500E+03,   950.500E+03
C:/temp/Job-20.odb,Step-1,Increment      1: Step Time =    1.000,"P-20-1",           157,       20.9280,       95.7523,            0.,NA,NA,"",   853.120E+03,   939.630E+03,   939.630E+03
C:/temp/Job-20.odb,Step-1,Increment      1: Step Time =    1.000,"P-20-1",           158,       10.3092,       95.2101,            0.,NA,NA,"",   828.564E+03,   925.715E+03,   925.715E+03
C:/temp/Job-20.odb,Step-1,Increment      1: Step Time =    1.000,"P-20-1",           159,       189.526,       10.3589,            0.,NA,NA,"",   999.811E+03,   999.573E+03,   999.573E+03
C:/temp/Job-20.odb,Step-1,Increment      1: Step Time =    1.000,"P-20-1",           160,       179.305,       10.1134,            0.,NA,NA,"",   998.951E+03,   998.651E+03,   998.651E+03
C:/temp/Job-20.odb,Step-1,Increment      1: Step Time =    1.000,"P-20-1",           161,       169.068,       9.83042,            0.,NA,NA,"",   997.351E+03,   996.967E+03,   996.967E+03
C:/temp/Job-20.odb,Step-1,Increment      1: Step Time =    1.000,"P-20-1",           162,       158.599,       10.2395,            0.,NA,NA,"",   994.779E+03,   994.263E+03,   994.263E+03
C:/temp/Job-20.odb,Step-1,Increment      1: Step Time =    1.000,"P-20-1",           163,       149.597,       9.08366,            0.,NA,NA,"",   990.631E+03,   990.163E+03,   990.163E+03
C:/temp/Job-20.odb,Step-1,Increment      1: Step Time =    1.000,"P-20-1",           164,       135.178,       9.77129,            0.,NA,NA,"",   982.959E+03,   982.592E+03,   982.592E+03
C:/temp/Job-20.odb,Step-1,Increment      1: Step Time =    1.000,"P-20-1",           165,       125.086,       9.85225,            0.,NA,NA,"",   976.073E+03,   976.041E+03,   976.041E+03
C:/temp/Job-20.odb,Step-1,Increment      1: Step Time =    1.000,"P-20-1",           166,       114.965,       9.93520,            0.,NA,NA,"",   969.163E+03,   969.527E+03,   969.527E+03
C:/temp/Job-20.odb,Step-1,Increment      1: Step Time =    1.000,"P-20-1",           167,       104.887,       10.0547,            0.,NA,NA,"",   963.711E+03,   964.371E+03,   964.371E+03
C:/temp/Job-20.odb,Step-1,Increment      1: Step Time =    1.000,"P-20-1",           168,       94.7970,       10.0273,            0.,NA,NA,"",   960.286E+03,   961.071E+03,   961.071E+03
C:/temp/Job-20.odb,Step-1,Increment      1: Step Time =    1.000,"P-20-1",           169,       84.7127,       9.92870,            0.,NA,NA,"",   959.399E+03,   960.116E+03,   960.116E+03
C:/temp/Job-20.odb,Step-1,Increment      1: Step Time =    1.000,"P-20-1",           170,       74.7547,       9.85553,            0.,NA,NA,"",   961.170E+03,   961.787E+03,   961.787E+03
C:/temp/Job-20.odb,Step-1,Increment      1: Step Time =    1.000,"P-20-1",           171,       64.9256,       9.83872,            0.,NA,NA,"",   965.545E+03,   966.267E+03,   966.267E+03
C:/temp/Job-20.odb,Step-1,Increment      1: Step Time =    1.000,"P-20-1",           172,       50.2169,       9.75732,            0.,NA,NA,"",    978.18E+03,   979.758E+03,   979.758E+03
C:/temp/Job-20.odb,Step-1,Increment      1: Step Time =    1.000,"P-20-1",           173,       40.5248,       9.53968,            0.,NA,NA,"",   993.690E+03,   996.552E+03,   996.552E+03
C:/temp/Job-20.odb,Step-1,Increment      1: Step Time =    1.000,"P-20-1",           174,       30.6768,       9.56401,            0.,NA,NA,"",   1.02235E+06,   1.02833E+06,   1.02833E+06
C:/temp/Job-20.odb,Step-1,Increment      1: Step Time =    1.000,"P-20-1",           175,       20.6782,       9.90687,            0.,NA,NA,"",   1.07531E+06,   1.08822E+06,   1.08822E+06
C:/temp/Job-20.odb,Step-1,Increment      1: Step Time =    1.000,"P-20-1",           176,       10.5855,       10.1858,            0.,NA,NA,"",   1.15604E+06,   1.19426E+06,   1.19426E+06
C:/temp/Job-20.odb,Step-1,Increment      1: Step Time =    1.000,"P-20-1",           177,       189.227,       20.9253,            0.,NA,NA,"",   1.00062E+06,   999.916E+03,   999.916E+03
C:/temp/Job-20.odb,Step-1,Increment      1: Step Time =    1.000,"P-20-1",           178,       176.077,       23.6080,            0.,NA,NA,"",   1.00163E+06,   1.00035E+06,   1.00035E+06
C:/temp/Job-20.odb,Step-1,Increment      1: Step Time =    1.000,"P-20-1",           179,       167.819,       23.5860,            0.,NA,NA,"",   1.00225E+06,   1.00054E+06,   1.00054E+06
C:/temp/Job-20.odb,Step-1,Increment      1: Step Time =    1.000,"P-20-1",           180,       158.193,       19.5174,            0.,NA,NA,"",   999.771E+03,   998.227E+03,   998.227E+03
C:/temp/Job-20.odb,Step-1,Increment      1: Step Time =    1.000,"P-20-1",           181,       145.075,       20.4392,            0.,NA,NA,"",   998.349E+03,   996.613E+03,   996.613E+03
C:/temp/Job-20.odb,Step-1,Increment      1: Step Time =    1.000,"P-20-1",           182,       136.000,       20.4668,            0.,NA,NA,"",   995.743E+03,   994.437E+03,   994.437E+03
C:/temp/Job-20.odb,Step-1,Increment      1: Step Time =    1.000,"P-20-1",           183,       125.018,       19.4473,            0.,NA,NA,"",   989.364E+03,   989.298E+03,   989.298E+03
C:/temp/Job-20.odb,Step-1,Increment      1: Step Time =    1.000,"P-20-1",           184,       115.037,       19.8534,            0.,NA,NA,"",   984.755E+03,   986.020E+03,   986.020E+03
C:/temp/Job-20.odb,Step-1,Increment      1: Step Time =    1.000,"P-20-1",           185,       104.659,       20.2692,            0.,NA,NA,"",   981.317E+03,   983.736E+03,   983.736E+03
C:/temp/Job-20.odb,Step-1,Increment      1: Step Time =    1.000,"P-20-1",           186,       94.2971,       20.0408,            0.,NA,NA,"",   980.177E+03,   982.951E+03,   982.951E+03
C:/temp/Job-20.odb,Step-1,Increment      1: Step Time =    1.000,"P-20-1",           187,       84.1931,       19.8267,            0.,NA,NA,"",   981.936E+03,   984.532E+03,   984.532E+03
C:/temp/Job-20.odb,Step-1,Increment      1: Step Time =    1.000,"P-20-1",           188,       74.4008,       19.9256,            0.,NA,NA,"",   986.669E+03,   989.078E+03,   989.078E+03
C:/temp/Job-20.odb,Step-1,Increment      1: Step Time =    1.000,"P-20-1",           189,       64.7404,       19.9964,            0.,NA,NA,"",   992.811E+03,   995.804E+03,   995.804E+03
C:/temp/Job-20.odb,Step-1,Increment      1: Step Time =    1.000,"P-20-1",           190,       50.0146,       19.7764,            0.,NA,NA,"",   1.00520E+06,   1.01151E+06,   1.01151E+06
C:/temp/Job-20.odb,Step-1,Increment      1: Step Time =    1.000,"P-20-1",           191,       40.4135,       18.8587,            0.,NA,NA,"",   1.01718E+06,   1.02703E+06,   1.02703E+06
C:/temp/Job-20.odb,Step-1,Increment      1: Step Time =    1.000,"P-20-1",           192,       31.6354,       18.2219,            0.,NA,NA,"",   1.03254E+06,   1.04872E+06,   1.04872E+06
C:/temp/Job-20.odb,Step-1,Increment      1: Step Time =    1.000,"P-20-1",           193,       21.4551,       20.5850,            0.,NA,NA,"",   1.04189E+06,   1.07904E+06,   1.07904E+06
C:/temp/Job-20.odb,Step-1,Increment      1: Step Time =    1.000,"P-20-1",           194,       12.5060,       21.5241,            0.,NA,NA,"",   1.01801E+06,   1.08369E+06,   1.08369E+06
C:/temp/Job-20.odb,Step-1,Increment      1: Step Time =    1.000,"P-20-1",           195,       190.274,       31.1346,            0.,NA,NA,"",   1.00152E+06,   1.00041E+06,   1.00041E+06
C:/temp/Job-20.odb,Step-1,Increment      1: Step Time =    1.000,"P-20-1",           196,       181.415,       32.7855,            0.,NA,NA,"",   1.00302E+06,   1.00144E+06,   1.00144E+06
C:/temp/Job-20.odb,Step-1,Increment      1: Step Time =    1.000,"P-20-1",           197,       169.237,       33.6847,            0.,NA,NA,"",   1.00639E+06,   1.00368E+06,   1.00368E+06
C:/temp/Job-20.odb,Step-1,Increment      1: Step Time =    1.000,"P-20-1",           198,       158.111,       29.4750,            0.,NA,NA,"",   1.00691E+06,   1.00383E+06,   1.00383E+06
C:/temp/Job-20.odb,Step-1,Increment      1: Step Time =    1.000,"P-20-1",           199,       143.384,       31.9362,            0.,NA,NA,"",   1.01075E+06,   1.00709E+06,   1.00709E+06
C:/temp/Job-20.odb,Step-1,Increment      1: Step Time =    1.000,"P-20-1",           200,       135.019,       31.3828,            0.,NA,NA,"",   1.00948E+06,   1.00670E+06,   1.00670E+06
C:/temp/Job-20.odb,Step-1,Increment      1: Step Time =    1.000,"P-20-1",           201,       126.938,       32.3579,            0.,NA,NA,"",   1.00812E+06,   1.00722E+06,   1.00722E+06
C:/temp/Job-20.odb,Step-1,Increment      1: Step Time =    1.000,"P-20-1",           202,       115.735,       29.9336,            0.,NA,NA,"",   999.005E+03,   1.00134E+06,   1.00134E+06
C:/temp/Job-20.odb,Step-1,Increment      1: Step Time =    1.000,"P-20-1",           203,       104.175,       31.1425,            0.,NA,NA,"",   995.806E+03,   1.00161E+06,   1.00161E+06
C:/temp/Job-20.odb,Step-1,Increment      1: Step Time =    1.000,"P-20-1",           204,       93.1535,       30.2078,            0.,NA,NA,"",   995.290E+03,   1.00125E+06,   1.00125E+06
C:/temp/Job-20.odb,Step-1,Increment      1: Step Time =    1.000,"P-20-1",           205,       83.6174,       29.4169,            0.,NA,NA,"",   998.752E+03,   1.00417E+06,   1.00417E+06
C:/temp/Job-20.odb,Step-1,Increment      1: Step Time =    1.000,"P-20-1",           206,       74.2056,       30.5600,            0.,NA,NA,"",   1.00574E+06,   1.01124E+06,   1.01124E+06
C:/temp/Job-20.odb,Step-1,Increment      1: Step Time =    1.000,"P-20-1",           207,       64.3193,       30.5481,            0.,NA,NA,"",   1.01095E+06,   1.01774E+06,   1.01774E+06
C:/temp/Job-20.odb,Step-1,Increment      1: Step Time =    1.000,"P-20-1",           208,       54.6044,       30.0633,            0.,NA,NA,"",   1.01387E+06,   1.02423E+06,   1.02423E+06
C:/temp/Job-20.odb,Step-1,Increment      1: Step Time =    1.000,"P-20-1",           209,       39.0829,       28.8313,            0.,NA,NA,"",   1.01601E+06,   1.03877E+06,   1.03877E+06
C:/temp/Job-20.odb,Step-1,Increment      1: Step Time =    1.000,"P-20-1",           210,       34.0179,       32.2743,            0.,NA,NA,"",   1.00653E+06,   1.03968E+06,   1.03968E+06
C:/temp/Job-20.odb,Step-1,Increment      1: Step Time =    1.000,"P-20-1",           211,       24.7331,       33.7246,            0.,NA,NA,"",   988.836E+03,   1.04017E+06,   1.04017E+06
C:/temp/Job-20.odb,Step-1,Increment      1: Step Time =    1.000,"P-20-1",           212,       9.92776,       32.0637,            0.,NA,NA,"",   941.331E+03,   1.02751E+06,   1.02751E+06
C:/temp/Job-20.odb,Step-1,Increment      1: Step Time =    1.000,"P-20-1",           213,       190.465,       40.8083,            0.,NA,NA,"",   1.00197E+06,   1.00076E+06,   1.00076E+06
C:/temp/Job-20.odb,Step-1,Increment      1: Step Time =    1.000,"P-20-1",           214,       181.138,       41.3643,            0.,NA,NA,"",   1.00438E+06,   1.00249E+06,   1.00249E+06
C:/temp/Job-20.odb,Step-1,Increment      1: Step Time =    1.000,"P-20-1",           215,       172.185,       40.4864,            0.,NA,NA,"",   1.00750E+06,   1.00459E+06,   1.00459E+06
C:/temp/Job-20.odb,Step-1,Increment      1: Step Time =    1.000,"P-20-1",           216,       158.391,       39.5223,            0.,NA,NA,"",   1.01372E+06,   1.00902E+06,   1.00902E+06
C:/temp/Job-20.odb,Step-1,Increment      1: Step Time =    1.000,"P-20-1",           217,       148.520,       40.5401,            0.,NA,NA,"",   1.01902E+06,   1.01333E+06,   1.01333E+06
C:/temp/Job-20.odb,Step-1,Increment      1: Step Time =    1.000,"P-20-1",           218,       137.916,       41.3124,            0.,NA,NA,"",   1.02316E+06,   1.01782E+06,   1.01782E+06
C:/temp/Job-20.odb,Step-1,Increment      1: Step Time =    1.000,"P-20-1",           219,       125.273,       42.6009,            0.,NA,NA,"",   1.02250E+06,   1.02118E+06,   1.02118E+06
C:/temp/Job-20.odb,Step-1,Increment      1: Step Time =    1.000,"P-20-1",           220,       115.479,       42.7736,            0.,NA,NA,"",   1.01467E+06,   1.01889E+06,   1.01889E+06
C:/temp/Job-20.odb,Step-1,Increment      1: Step Time =    1.000,"P-20-1",           221,       104.328,       41.8417,            0.,NA,NA,"",   1.00593E+06,   1.01614E+06,   1.01614E+06
C:/temp/Job-20.odb,Step-1,Increment      1: Step Time =    1.000,"P-20-1",           222,       94.1506,       41.5342,            0.,NA,NA,"",   1.00641E+06,   1.01790E+06,   1.01790E+06
C:/temp/Job-20.odb,Step-1,Increment      1: Step Time =    1.000,"P-20-1",           223,       83.7427,       43.4306,            0.,NA,NA,"",   1.01588E+06,   1.02651E+06,   1.02651E+06
C:/temp/Job-20.odb,Step-1,Increment      1: Step Time =    1.000,"P-20-1",           224,       73.7517,       41.9477,            0.,NA,NA,"",   1.02089E+06,   1.02977E+06,   1.02977E+06
C:/temp/Job-20.odb,Step-1,Increment      1: Step Time =    1.000,"P-20-1",           225,       63.3074,       41.5947,            0.,NA,NA,"",   1.02094E+06,   1.03241E+06,   1.03241E+06
C:/temp/Job-20.odb,Step-1,Increment      1: Step Time =    1.000,"P-20-1",           226,       40.5570,       40.7063,            0.,NA,NA,"",   999.454E+03,   1.03202E+06,   1.03202E+06
C:/temp/Job-20.odb,Step-1,Increment      1: Step Time =    1.000,"P-20-1",           227,       32.4807,       40.2622,            0.,NA,NA,"",   985.442E+03,   1.03013E+06,   1.03013E+06
C:/temp/Job-20.odb,Step-1,Increment      1: Step Time =    1.000,"P-20-1",           228,       22.4067,       42.1031,            0.,NA,NA,"",   953.506E+03,   1.01889E+06,   1.01889E+06
C:/temp/Job-20.odb,Step-1,Increment      1: Step Time =    1.000,"P-20-1",           229,       8.47274,       41.3548,            0.,NA,NA,"",   901.533E+03,   994.900E+03,   994.900E+03
C:/temp/Job-20.odb,Step-1,Increment      1: Step Time =    1.000,"P-20-1",           230,       190.341,       50.4574,            0.,NA,NA,"",   1.00175E+06,   1.00093E+06,   1.00093E+06
C:/temp/Job-20.odb,Step-1,Increment      1: Step Time =    1.000,"P-20-1",           231,       180.576,       50.7160,            0.,NA,NA,"",   1.00505E+06,   1.00313E+06,   1.00313E+06
C:/temp/Job-20.odb,Step-1,Increment      1: Step Time =    1.000,"P-20-1",           232,       170.788,       55.6480,            0.,NA,NA,"",   1.01024E+06,   1.00651E+06,   1.00651E+06
C:/temp/Job-20.odb,Step-1,Increment      1: Step Time =    1.000,"P-20-1",           233,       157.236,       48.1525,            0.,NA,NA,"",   1.01865E+06,   1.01256E+06,   1.01256E+06
C:/temp/Job-20.odb,Step-1,Increment      1: Step Time =    1.000,"P-20-1",           234,       149.328,       50.9057,            0.,NA,NA,"",   1.02706E+06,   1.01901E+06,   1.01901E+06
C:/temp/Job-20.odb,Step-1,Increment      1: Step Time =    1.000,"P-20-1",           235,       137.677,       50.5798,            0.,NA,NA,"",   1.03640E+06,   1.02798E+06,   1.02798E+06
C:/temp/Job-20.odb,Step-1,Increment      1: Step Time =    1.000,"P-20-1",           236,       125.875,       52.4939,            0.,NA,NA,"",   1.04085E+06,   1.03665E+06,   1.03665E+06
C:/temp/Job-20.odb,Step-1,Increment      1: Step Time =    1.000,"P-20-1",           237,       117.008,       54.2942,            0.,NA,NA,"",   1.03473E+06,   1.03917E+06,   1.03917E+06
C:/temp/Job-20.odb,Step-1,Increment      1: Step Time =    1.000,"P-20-1",           238,       104.470,       52.5631,            0.,NA,NA,"",   1.01346E+06,   1.03080E+06,   1.03080E+06
C:/temp/Job-20.odb,Step-1,Increment      1: Step Time =    1.000,"P-20-1",           239,       94.1122,       52.7413,            0.,NA,NA,"",   1.01417E+06,   1.03292E+06,   1.03292E+06
C:/temp/Job-20.odb,Step-1,Increment      1: Step Time =    1.000,"P-20-1",           240,       82.2890,       53.0998,            0.,NA,NA,"",   1.02991E+06,   1.04317E+06,   1.04317E+06
C:/temp/Job-20.odb,Step-1,Increment      1: Step Time =    1.000,"P-20-1",           241,       72.4075,       52.8840,            0.,NA,NA,"",   1.03445E+06,   1.04500E+06,   1.04500E+06
C:/temp/Job-20.odb,Step-1,Increment      1: Step Time =    1.000,"P-20-1",           242,       63.2945,       51.9076,            0.,NA,NA,"",   1.02592E+06,   1.04026E+06,   1.04026E+06
C:/temp/Job-20.odb,Step-1,Increment      1: Step Time =    1.000,"P-20-1",           243,       52.3587,       51.4938,            0.,NA,NA,"",   1.00703E+06,   1.03209E+06,   1.03209E+06
C:/temp/Job-20.odb,Step-1,Increment      1: Step Time =    1.000,"P-20-1",           244,       40.1726,       52.0818,            0.,NA,NA,"",   978.515E+03,   1.02066E+06,   1.02066E+06
C:/temp/Job-20.odb,Step-1,Increment      1: Step Time =    1.000,"P-20-1",           245,       32.4800,       50.3878,            0.,NA,NA,"",   961.560E+03,   1.01486E+06,   1.01486E+06
C:/temp/Job-20.odb,Step-1,Increment      1: Step Time =    1.000,"P-20-1",           246,       19.7342,       51.1386,            0.,NA,NA,"",   918.388E+03,   995.011E+03,   995.011E+03
C:/temp/Job-20.odb,Step-1,Increment      1: Step Time =    1.000,"P-20-1",           247,       8.92024,       50.3381,            0.,NA,NA,"",   879.970E+03,   974.786E+03,   974.786E+03
C:/temp/Job-20.odb,Step-1,Increment      1: Step Time =    1.000,"P-20-1",           248,       190.176,       65.0480,            0.,NA,NA,"",   999.697E+03,   1.00058E+06,   1.00058E+06
C:/temp/Job-20.odb,Step-1,Increment      1: Step Time =    1.000,"P-20-1",           249,       180.152,       65.0734,            0.,NA,NA,"",   1.00295E+06,   1.00201E+06,   1.00201E+06
C:/temp/Job-20.odb,Step-1,Increment      1: Step Time =    1.000,"P-20-1",           250,       170.010,       64.8837,            0.,NA,NA,"",   1.00816E+06,   1.00481E+06,   1.00481E+06
C:/temp/Job-20.odb,Step-1,Increment      1: Step Time =    1.000,"P-20-1",           251,       159.303,       63.8753,            0.,NA,NA,"",   1.01720E+06,   1.01062E+06,   1.01062E+06
C:/temp/Job-20.odb,Step-1,Increment      1: Step Time =    1.000,"P-20-1",           252,       146.931,       62.5280,            0.,NA,NA,"",   1.03309E+06,   1.02226E+06,   1.02226E+06
C:/temp/Job-20.odb,Step-1,Increment      1: Step Time =    1.000,"P-20-1",           253,       137.851,       62.1293,            0.,NA,NA,"",   1.04779E+06,   1.03473E+06,   1.03473E+06
C:/temp/Job-20.odb,Step-1,Increment      1: Step Time =    1.000,"P-20-1",           254,       130.449,       60.3352,            0.,NA,NA,"",   1.05604E+06,   1.04447E+06,   1.04447E+06
C:/temp/Job-20.odb,Step-1,Increment      1: Step Time =    1.000,"P-20-1",           255,       119.528,       60.8780,            0.,NA,NA,"",   1.05547E+06,   1.05442E+06,   1.05442E+06
C:/temp/Job-20.odb,Step-1,Increment      1: Step Time =    1.000,"P-20-1",           256,       104.767,       64.1230,            0.,NA,NA,"",   1.02447E+06,   1.05249E+06,   1.05249E+06
C:/temp/Job-20.odb,Step-1,Increment      1: Step Time =    1.000,"P-20-1",           257,       93.7942,       65.0998,            0.,NA,NA,"",   1.02442E+06,   1.05561E+06,   1.05561E+06
C:/temp/Job-20.odb,Step-1,Increment      1: Step Time =    1.000,"P-20-1",           258,       84.8207,       61.2682,            0.,NA,NA,"",   1.04426E+06,   1.05972E+06,   1.05972E+06
C:/temp/Job-20.odb,Step-1,Increment      1: Step Time =    1.000,"P-20-1",           259,       69.4785,       63.7104,            0.,NA,NA,"",   1.04281E+06,   1.05248E+06,   1.05248E+06
C:/temp/Job-20.odb,Step-1,Increment      1: Step Time =    1.000,"P-20-1",           260,       58.5579,       60.2851,            0.,NA,NA,"",   1.01458E+06,   1.03524E+06,   1.03524E+06
C:/temp/Job-20.odb,Step-1,Increment      1: Step Time =    1.000,"P-20-1",           261,       52.2424,       63.3831,            0.,NA,NA,"",   993.711E+03,   1.02342E+06,   1.02342E+06
C:/temp/Job-20.odb,Step-1,Increment      1: Step Time =    1.000,"P-20-1",           262,       41.8110,       64.7105,            0.,NA,NA,"",   958.734E+03,   1.00576E+06,   1.00576E+06
C:/temp/Job-20.odb,Step-1,Increment      1: Step Time =    1.000,"P-20-1",           263,       31.8809,       61.2507,            0.,NA,NA,"",   934.119E+03,   995.939E+03,   995.939E+03
C:/temp/Job-20.odb,Step-1,Increment      1: Step Time =    1.000,"P-20-1",           264,       22.3901,       65.1573,            0.,NA,NA,"",   895.529E+03,   974.114E+03,   974.114E+03
C:/temp/Job-20.odb,Step-1,Increment      1: Step Time =    1.000,"P-20-1",           265,       9.26318,       65.0994,            0.,NA,NA,"",   854.182E+03,   950.613E+03,   950.613E+03
C:/temp/Job-20.odb,Step-1,Increment      1: Step Time =    1.000,"P-20-1",           266,       190.087,       74.8586,            0.,NA,NA,"",   997.373E+03,   999.890E+03,   999.890E+03
C:/temp/Job-20.odb,Step-1,Increment      1: Step Time =    1.000,"P-20-1",           267,       179.918,       74.6897,            0.,NA,NA,"",   999.395E+03,   999.749E+03,   999.749E+03
C:/temp/Job-20.odb,Step-1,Increment      1: Step Time =    1.000,"P-20-1",           268,       169.331,       74.3822,            0.,NA,NA,"",   1.00226E+06,   1.00023E+06,   1.00023E+06
C:/temp/Job-20.odb,Step-1,Increment      1: Step Time =    1.000,"P-20-1",           269,       157.878,       73.7487,            0.,NA,NA,"",   1.00898E+06,   1.00345E+06,   1.00345E+06
C:/temp/Job-20.odb,Step-1,Increment      1: Step Time =    1.000,"P-20-1",           270,       146.521,       72.8768,            0.,NA,NA,"",   1.02562E+06,   1.01477E+06,   1.01477E+06
C:/temp/Job-20.odb,Step-1,Increment      1: Step Time =    1.000,"P-20-1",           271,       135.887,       72.6991,            0.,NA,NA,"",   1.04975E+06,   1.03248E+06,   1.03248E+06
C:/temp/Job-20.odb,Step-1,Increment      1: Step Time =    1.000,"P-20-1",           272,       127.393,       76.0513,            0.,NA,NA,"",   1.07663E+06,   1.05136E+06,   1.05136E+06
C:/temp/Job-20.odb,Step-1,Increment      1: Step Time =    1.000,"P-20-1",           273,       117.192,       72.3361,            0.,NA,NA,"",   1.10823E+06,   1.09669E+06,   1.09669E+06
C:/temp/Job-20.odb,Step-1,Increment      1: Step Time =    1.000,"P-20-1",           274,       106.668,       72.7035,            0.,NA,NA,"",   1.04610E+06,   1.08128E+06,   1.08128E+06
C:/temp/Job-20.odb,Step-1,Increment      1: Step Time =    1.000,"P-20-1",           275,       95.7925,       73.4089,            0.,NA,NA,"",   1.03300E+06,   1.08290E+06,   1.08290E+06
C:/temp/Job-20.odb,Step-1,Increment      1: Step Time =    1.000,"P-20-1",           276,       84.0042,       71.2964,            0.,NA,NA,"",   1.08814E+06,   1.09511E+06,   1.09511E+06
C:/temp/Job-20.odb,Step-1,Increment      1: Step Time =    1.000,"P-20-1",           277,       70.1458,       71.2195,            0.,NA,NA,"",   1.04640E+06,   1.05251E+06,   1.05251E+06
C:/temp/Job-20.odb,Step-1,Increment      1: Step Time =    1.000,"P-20-1",           278,       61.5292,       70.3139,            0.,NA,NA,"",   1.01218E+06,   1.03122E+06,   1.03122E+06
C:/temp/Job-20.odb,Step-1,Increment      1: Step Time =    1.000,"P-20-1",           279,       52.5098,       71.9674,            0.,NA,NA,"",   974.667E+03,   1.00876E+06,   1.00876E+06
C:/temp/Job-20.odb,Step-1,Increment      1: Step Time =    1.000,"P-20-1",           280,       41.6274,       73.6662,            0.,NA,NA,"",   934.908E+03,   988.151E+03,   988.151E+03
C:/temp/Job-20.odb,Step-1,Increment      1: Step Time =    1.000,"P-20-1",           281,       28.1179,       72.0165,            0.,NA,NA,"",   899.684E+03,   972.441E+03,   972.441E+03
C:/temp/Job-20.odb,Step-1,Increment      1: Step Time =    1.000,"P-20-1",           282,       19.1577,       73.8932,            0.,NA,NA,"",   869.986E+03,   955.787E+03,   955.787E+03
C:/temp/Job-20.odb,Step-1,Increment      1: Step Time =    1.000,"P-20-1",           283,       9.78070,       74.9519,            0.,NA,NA,"",   842.474E+03,   939.208E+03,   939.208E+03
C:/temp/Job-20.odb,Step-1,Increment      1: Step Time =    1.000,"P-20-1",           284,       190.003,       125.263,            0.,NA,NA,"",   997.563E+03,   999.944E+03,   999.944E+03
C:/temp/Job-20.odb,Step-1,Increment      1: Step Time =    1.000,"P-20-1",           285,       179.973,       126.310,            0.,NA,NA,"",   999.900E+03,   1.00009E+06,   1.00009E+06
C:/temp/Job-20.odb,Step-1,Increment      1: Step Time =    1.000,"P-20-1",           286,       168.815,       127.836,            0.,NA,NA,"",   1.00455E+06,   1.00186E+06,   1.00186E+06
C:/temp/Job-20.odb,Step-1,Increment      1: Step Time =    1.000,"P-20-1",           287,       156.710,       124.786,            0.,NA,NA,"",   1.00773E+06,   1.00211E+06,   1.00211E+06
C:/temp/Job-20.odb,Step-1,Increment      1: Step Time =    1.000,"P-20-1",           288,       148.620,       128.081,            0.,NA,NA,"",   1.02174E+06,   1.01218E+06,   1.01218E+06
C:/temp/Job-20.odb,Step-1,Increment      1: Step Time =    1.000,"P-20-1",           289,       139.143,       126.056,            0.,NA,NA,"",   1.03712E+06,   1.02216E+06,   1.02216E+06
C:/temp/Job-20.odb,Step-1,Increment      1: Step Time =    1.000,"P-20-1",           290,       125.969,       129.347,            0.,NA,NA,"",   1.08763E+06,   1.06785E+06,   1.06785E+06
C:/temp/Job-20.odb,Step-1,Increment      1: Step Time =    1.000,"P-20-1",           291,       116.766,       126.307,            0.,NA,NA,"",   1.11328E+06,   1.10235E+06,   1.10235E+06
C:/temp/Job-20.odb,Step-1,Increment      1: Step Time =    1.000,"P-20-1",           292,       104.023,       127.406,            0.,NA,NA,"",   1.04014E+06,   1.08239E+06,   1.08239E+06
C:/temp/Job-20.odb,Step-1,Increment      1: Step Time =    1.000,"P-20-1",           293,       95.2756,       128.707,            0.,NA,NA,"",   1.03749E+06,   1.07821E+06,   1.07821E+06
C:/temp/Job-20.odb,Step-1,Increment      1: Step Time =    1.000,"P-20-1",           294,       80.8114,       124.815,            0.,NA,NA,"",   1.11023E+06,   1.10199E+06,   1.10199E+06
C:/temp/Job-20.odb,Step-1,Increment      1: Step Time =    1.000,"P-20-1",           295,       71.3543,       125.893,            0.,NA,NA,"",   1.04882E+06,   1.05140E+06,   1.05140E+06
C:/temp/Job-20.odb,Step-1,Increment      1: Step Time =    1.000,"P-20-1",           296,       61.3982,       126.845,            0.,NA,NA,"",   1.00226E+06,   1.02237E+06,   1.02237E+06
C:/temp/Job-20.odb,Step-1,Increment      1: Step Time =    1.000,"P-20-1",           297,       50.2724,       127.388,            0.,NA,NA,"",   964.639E+03,   1.00284E+06,   1.00284E+06
C:/temp/Job-20.odb,Step-1,Increment      1: Step Time =    1.000,"P-20-1",           298,       41.2231,       126.725,            0.,NA,NA,"",   935.159E+03,   988.624E+03,   988.624E+03
C:/temp/Job-20.odb,Step-1,Increment      1: Step Time =    1.000,"P-20-1",           299,       28.4362,       125.771,            0.,NA,NA,"",   896.628E+03,   969.534E+03,   969.534E+03
C:/temp/Job-20.odb,Step-1,Increment      1: Step Time =    1.000,"P-20-1",           300,       19.4094,       125.181,            0.,NA,NA,"",   869.500E+03,   954.975E+03,   954.975E+03
C:/temp/Job-20.odb,Step-1,Increment      1: Step Time =    1.000,"P-20-1",           301,       9.80835,       125.055,            0.,NA,NA,"",   842.183E+03,    938.93E+03,    938.93E+03
C:/temp/Job-20.odb,Step-1,Increment      1: Step Time =    1.000,"P-20-1",           302,       190.655,       135.076,            0.,NA,NA,"",   999.743E+03,   1.00057E+06,   1.00057E+06
C:/temp/Job-20.odb,Step-1,Increment      1: Step Time =    1.000,"P-20-1",           303,       181.429,       135.518,            0.,NA,NA,"",   1.00278E+06,   1.00195E+06,   1.00195E+06
C:/temp/Job-20.odb,Step-1,Increment      1: Step Time =    1.000,"P-20-1",           304,       166.959,       135.766,            0.,NA,NA,"",   1.01038E+06,   1.00616E+06,   1.00616E+06
C:/temp/Job-20.odb,Step-1,Increment      1: Step Time =    1.000,"P-20-1",           305,       157.775,       135.983,            0.,NA,NA,"",   1.01817E+06,   1.01126E+06,   1.01126E+06
C:/temp/Job-20.odb,Step-1,Increment      1: Step Time =    1.000,"P-20-1",           306,       151.085,       139.194,            0.,NA,NA,"",   1.02790E+06,   1.01864E+06,   1.01864E+06
C:/temp/Job-20.odb,Step-1,Increment      1: Step Time =    1.000,"P-20-1",           307,       138.140,       135.571,            0.,NA,NA,"",   1.04956E+06,   1.03549E+06,   1.03549E+06
C:/temp/Job-20.odb,Step-1,Increment      1: Step Time =    1.000,"P-20-1",           308,       126.460,       138.932,            0.,NA,NA,"",   1.06003E+06,   1.05073E+06,   1.05073E+06
C:/temp/Job-20.odb,Step-1,Increment      1: Step Time =    1.000,"P-20-1",           309,       117.374,       137.236,            0.,NA,NA,"",   1.05814E+06,   1.05966E+06,   1.05966E+06
C:/temp/Job-20.odb,Step-1,Increment      1: Step Time =    1.000,"P-20-1",           310,       105.875,       137.797,            0.,NA,NA,"",   1.02464E+06,   1.04911E+06,   1.04911E+06
C:/temp/Job-20.odb,Step-1,Increment      1: Step Time =    1.000,"P-20-1",           311,       97.4575,       137.776,            0.,NA,NA,"",   1.02020E+06,   1.04914E+06,   1.04914E+06
C:/temp/Job-20.odb,Step-1,Increment      1: Step Time =    1.000,"P-20-1",           312,       83.7368,       139.733,            0.,NA,NA,"",   1.04113E+06,   1.05596E+06,   1.05596E+06
C:/temp/Job-20.odb,Step-1,Increment      1: Step Time =    1.000,"P-20-1",           313,       71.5476,       137.255,            0.,NA,NA,"",   1.04844E+06,   1.05667E+06,   1.05667E+06
C:/temp/Job-20.odb,Step-1,Increment      1: Step Time =    1.000,"P-20-1",           314,       66.4913,       138.728,            0.,NA,NA,"",   1.03615E+06,   1.04784E+06,   1.04784E+06
C:/temp/Job-20.odb,Step-1,Increment      1: Step Time =    1.000,"P-20-1",           315,       51.0063,       135.337,            0.,NA,NA,"",   985.094E+03,   1.01817E+06,   1.01817E+06
C:/temp/Job-20.odb,Step-1,Increment      1: Step Time =    1.000,"P-20-1",           316,       39.6524,       137.618,            0.,NA,NA,"",   955.513E+03,   1.00524E+06,   1.00524E+06
C:/temp/Job-20.odb,Step-1,Increment      1: Step Time =    1.000,"P-20-1",           317,       28.4226,       134.250,            0.,NA,NA,"",   913.461E+03,   983.140E+03,   983.140E+03
C:/temp/Job-20.odb,Step-1,Increment      1: Step Time =    1.000,"P-20-1",           318,       19.1634,       134.714,            0.,NA,NA,"",   884.958E+03,   968.336E+03,   968.336E+03
C:/temp/Job-20.odb,Step-1,Increment      1: Step Time =    1.000,"P-20-1",           319,       9.70999,       134.921,            0.,NA,NA,"",   855.443E+03,   951.321E+03,   951.321E+03
C:/temp/Job-20.odb,Step-1,Increment      1: Step Time =    1.000,"P-20-1",           320,       186.899,       148.775,            0.,NA,NA,"",   1.00270E+06,   1.00156E+06,   1.00156E+06
C:/temp/Job-20.odb,Step-1,Increment      1: Step Time =    1.000,"P-20-1",           321,       175.875,       144.655,            0.,NA,NA,"",   1.00714E+06,   1.00453E+06,   1.00453E+06
C:/temp/Job-20.odb,Step-1,Increment      1: Step Time =    1.000,"P-20-1",           322,       168.058,       143.254,            0.,NA,NA,"",   1.01203E+06,   1.00767E+06,   1.00767E+06
C:/temp/Job-20.odb,Step-1,Increment      1: Step Time =    1.000,"P-20-1",           323,       158.374,       145.045,            0.,NA,NA,"",   1.01991E+06,   1.01325E+06,   1.01325E+06
C:/temp/Job-20.odb,Step-1,Increment      1: Step Time =    1.000,"P-20-1",           324,       149.815,       149.394,            0.,NA,NA,"",   1.02708E+06,   1.01917E+06,   1.01917E+06
C:/temp/Job-20.odb,Step-1,Increment      1: Step Time =    1.000,"P-20-1",           325,       139.640,       146.699,            0.,NA,NA,"",   1.03794E+06,   1.02867E+06,   1.02867E+06
C:/temp/Job-20.odb,Step-1,Increment      1: Step Time =    1.000,"P-20-1",           326,       127.205,       145.889,            0.,NA,NA,"",   1.04396E+06,   1.03844E+06,   1.03844E+06
C:/temp/Job-20.odb,Step-1,Increment      1: Step Time =    1.000,"P-20-1",           327,       117.745,       147.930,            0.,NA,NA,"",   1.03139E+06,   1.03513E+06,   1.03513E+06
C:/temp/Job-20.odb,Step-1,Increment      1: Step Time =    1.000,"P-20-1",           328,       106.414,       149.515,            0.,NA,NA,"",   1.01457E+06,   1.02858E+06,   1.02858E+06
C:/temp/Job-20.odb,Step-1,Increment      1: Step Time =    1.000,"P-20-1",           329,       94.1532,       149.577,            0.,NA,NA,"",   1.01282E+06,   1.03004E+06,   1.03004E+06
C:/temp/Job-20.odb,Step-1,Increment      1: Step Time =    1.000,"P-20-1",           330,       85.7419,       145.950,            0.,NA,NA,"",   1.02743E+06,   1.04225E+06,   1.04225E+06
C:/temp/Job-20.odb,Step-1,Increment      1: Step Time =    1.000,"P-20-1",           331,       75.4371,       150.316,            0.,NA,NA,"",   1.02976E+06,   1.04020E+06,   1.04020E+06
C:/temp/Job-20.odb,Step-1,Increment      1: Step Time =    1.000,"P-20-1",           332,       62.9804,       148.552,            0.,NA,NA,"",   1.02602E+06,   1.04020E+06,   1.04020E+06
C:/temp/Job-20.odb,Step-1,Increment      1: Step Time =    1.000,"P-20-1",           333,       53.0999,       145.527,            0.,NA,NA,"",   1.00616E+06,   1.03136E+06,   1.03136E+06
C:/temp/Job-20.odb,Step-1,Increment      1: Step Time =    1.000,"P-20-1",           334,       42.5017,       148.336,            0.,NA,NA,"",   984.499E+03,   1.02290E+06,   1.02290E+06
C:/temp/Job-20.odb,Step-1,Increment      1: Step Time =    1.000,"P-20-1",           335,       29.4749,       147.123,            0.,NA,NA,"",   945.312E+03,   1.00618E+06,   1.00618E+06
C:/temp/Job-20.odb,Step-1,Increment      1: Step Time =    1.000,"P-20-1",           336,       19.4069,       144.191,            0.,NA,NA,"",   905.351E+03,   984.861E+03,   984.861E+03
C:/temp/Job-20.odb,Step-1,Increment      1: Step Time =    1.000,"P-20-1",           337,       9.65609,       149.575,            0.,NA,NA,"",   882.513E+03,   976.114E+03,   976.114E+03
C:/temp/Job-20.odb,Step-1,Increment      1: Step Time =    1.000,"P-20-1",           338,       188.550,       158.572,            0.,NA,NA,"",   1.00250E+06,   1.00111E+06,   1.00111E+06
C:/temp/Job-20.odb,Step-1,Increment      1: Step Time =    1.000,"P-20-1",           339,       180.636,       155.527,            0.,NA,NA,"",   1.00494E+06,   1.00290E+06,   1.00290E+06
C:/temp/Job-20.odb,Step-1,Increment      1: Step Time =    1.000,"P-20-1",           340,       168.460,       154.282,            0.,NA,NA,"",   1.01105E+06,   1.00711E+06,   1.00711E+06
C:/temp/Job-20.odb,Step-1,Increment      1: Step Time =    1.000,"P-20-1",           341,       159.024,       156.909,            0.,NA,NA,"",   1.01556E+06,   1.01041E+06,   1.01041E+06
C:/temp/Job-20.odb,Step-1,Increment      1: Step Time =    1.000,"P-20-1",           342,       148.279,       155.888,            0.,NA,NA,"",   1.02273E+06,   1.01630E+06,   1.01630E+06
C:/temp/Job-20.odb,Step-1,Increment      1: Step Time =    1.000,"P-20-1",           343,       137.715,       160.760,            0.,NA,NA,"",   1.01983E+06,   1.01527E+06,   1.01527E+06
C:/temp/Job-20.odb,Step-1,Increment      1: Step Time =    1.000,"P-20-1",           344,       126.607,       158.321,            0.,NA,NA,"",   1.02106E+06,   1.01958E+06,   1.01958E+06
C:/temp/Job-20.odb,Step-1,Increment      1: Step Time =    1.000,"P-20-1",           345,       116.798,       153.679,            0.,NA,NA,"",   1.02168E+06,   1.02585E+06,   1.02585E+06
C:/temp/Job-20.odb,Step-1,Increment      1: Step Time =    1.000,"P-20-1",           346,       107.219,       158.459,            0.,NA,NA,"",   1.00714E+06,   1.01618E+06,   1.01618E+06
C:/temp/Job-20.odb,Step-1,Increment      1: Step Time =    1.000,"P-20-1",           347,       84.4022,       157.622,            0.,NA,NA,"",   1.01438E+06,   1.02471E+06,   1.02471E+06
C:/temp/Job-20.odb,Step-1,Increment      1: Step Time =    1.000,"P-20-1",           348,       72.8383,       156.769,            0.,NA,NA,"",   1.02261E+06,   1.03190E+06,   1.03190E+06
C:/temp/Job-20.odb,Step-1,Increment      1: Step Time =    1.000,"P-20-1",           349,       60.9014,       158.637,            0.,NA,NA,"",   1.01981E+06,   1.03236E+06,   1.03236E+06
C:/temp/Job-20.odb,Step-1,Increment      1: Step Time =    1.000,"P-20-1",           350,       50.3484,       159.220,            0.,NA,NA,"",   1.01245E+06,   1.03302E+06,   1.03302E+06
C:/temp/Job-20.odb,Step-1,Increment      1: Step Time =    1.000,"P-20-1",           351,       43.6901,       158.530,            0.,NA,NA,"",   1.00340E+06,   1.03237E+06,   1.03237E+06
C:/temp/Job-20.odb,Step-1,Increment      1: Step Time =    1.000,"P-20-1",           352,       29.2850,       158.590,            0.,NA,NA,"",   975.220E+03,   1.02679E+06,   1.02679E+06
C:/temp/Job-20.odb,Step-1,Increment      1: Step Time =    1.000,"P-20-1",           353,       18.6962,       158.915,            0.,NA,NA,"",   944.560E+03,   1.01652E+06,   1.01652E+06
C:/temp/Job-20.odb,Step-1,Increment      1: Step Time =    1.000,"P-20-1",           354,       9.51343,       159.231,            0.,NA,NA,"",   906.977E+03,   998.137E+03,   998.137E+03
C:/temp/Job-20.odb,Step-1,Increment      1: Step Time =    1.000,"P-20-1",           355,       189.916,       169.608,            0.,NA,NA,"",   1.00153E+06,   1.00038E+06,   1.00038E+06
C:/temp/Job-20.odb,Step-1,Increment      1: Step Time =    1.000,"P-20-1",           356,       176.297,       170.156,            0.,NA,NA,"",   1.00337E+06,   1.00160E+06,   1.00160E+06
C:/temp/Job-20.odb,Step-1,Increment      1: Step Time =    1.000,"P-20-1",           357,       167.096,       172.827,            0.,NA,NA,"",   1.00383E+06,   1.00170E+06,   1.00170E+06
C:/temp/Job-20.odb,Step-1,Increment      1: Step Time =    1.000,"P-20-1",           358,       144.428,       171.324,            0.,NA,NA,"",   1.00734E+06,   1.00424E+06,   1.00424E+06
C:/temp/Job-20.odb,Step-1,Increment      1: Step Time =    1.000,"P-20-1",           359,       135.333,       170.644,            0.,NA,NA,"",   1.00669E+06,   1.00443E+06,   1.00443E+06
C:/temp/Job-20.odb,Step-1,Increment      1: Step Time =    1.000,"P-20-1",           360,       125.955,       169.820,            0.,NA,NA,"",   1.00434E+06,   1.00389E+06,   1.00389E+06
C:/temp/Job-20.odb,Step-1,Increment      1: Step Time =    1.000,"P-20-1",           361,       116.025,       169.779,            0.,NA,NA,"",   999.518E+03,   1.00192E+06,   1.00192E+06
C:/temp/Job-20.odb,Step-1,Increment      1: Step Time =    1.000,"P-20-1",           362,       106.060,       169.240,            0.,NA,NA,"",   995.838E+03,   1.00086E+06,   1.00086E+06
C:/temp/Job-20.odb,Step-1,Increment      1: Step Time =    1.000,"P-20-1",           363,       95.3700,       167.510,            0.,NA,NA,"",   997.746E+03,   1.00482E+06,   1.00482E+06
C:/temp/Job-20.odb,Step-1,Increment      1: Step Time =    1.000,"P-20-1",           364,       84.5804,       169.414,            0.,NA,NA,"",   999.862E+03,   1.00557E+06,   1.00557E+06
C:/temp/Job-20.odb,Step-1,Increment      1: Step Time =    1.000,"P-20-1",           365,       70.4855,       166.098,            0.,NA,NA,"",   1.01313E+06,   1.01989E+06,   1.01989E+06
C:/temp/Job-20.odb,Step-1,Increment      1: Step Time =    1.000,"P-20-1",           366,       62.6890,       166.745,            0.,NA,NA,"",   1.01500E+06,   1.02344E+06,   1.02344E+06
C:/temp/Job-20.odb,Step-1,Increment      1: Step Time =    1.000,"P-20-1",           367,       51.3222,       171.165,            0.,NA,NA,"",   1.01393E+06,   1.02544E+06,   1.02544E+06
C:/temp/Job-20.odb,Step-1,Increment      1: Step Time =    1.000,"P-20-1",           368,       40.6912,       171.240,            0.,NA,NA,"",   1.01544E+06,   1.03548E+06,   1.03548E+06
C:/temp/Job-20.odb,Step-1,Increment      1: Step Time =    1.000,"P-20-1",           369,       30.1400,       170.773,            0.,NA,NA,"",   1.01188E+06,   1.04701E+06,   1.04701E+06
C:/temp/Job-20.odb,Step-1,Increment      1: Step Time =    1.000,"P-20-1",           370,       21.5778,       164.303,            0.,NA,NA,"",   971.294E+03,   1.03300E+06,   1.03300E+06
C:/temp/Job-20.odb,Step-1,Increment      1: Step Time =    1.000,"P-20-1",           371,       9.92908,       168.874,            0.,NA,NA,"",   946.243E+03,   1.03155E+06,   1.03155E+06
C:/temp/Job-20.odb,Step-1,Increment      1: Step Time =    1.000,"P-20-1",           372,       189.996,       179.716,            0.,NA,NA,"",   1.00054E+06,   999.857E+03,   999.857E+03
C:/temp/Job-20.odb,Step-1,Increment      1: Step Time =    1.000,"P-20-1",           373,       175.684,       177.359,            0.,NA,NA,"",   1.00117E+06,   999.974E+03,   999.974E+03
C:/temp/Job-20.odb,Step-1,Increment      1: Step Time =    1.000,"P-20-1",           374,       168.911,       182.185,            0.,NA,NA,"",   999.708E+03,   998.667E+03,   998.667E+03
C:/temp/Job-20.odb,Step-1,Increment      1: Step Time =    1.000,"P-20-1",           375,       159.735,       180.733,            0.,NA,NA,"",   999.696E+03,   998.225E+03,   998.225E+03
C:/temp/Job-20.odb,Step-1,Increment      1: Step Time =    1.000,"P-20-1",           376,       149.741,       180.296,            0.,NA,NA,"",   998.718E+03,   997.030E+03,   997.030E+03
C:/temp/Job-20.odb,Step-1,Increment      1: Step Time =    1.000,"P-20-1",           377,       134.995,       180.286,            0.,NA,NA,"",    994.34E+03,   993.252E+03,   993.252E+03
C:/temp/Job-20.odb,Step-1,Increment      1: Step Time =    1.000,"P-20-1",           378,       125.401,       180.048,            0.,NA,NA,"",   990.190E+03,   990.068E+03,   990.068E+03
C:/temp/Job-20.odb,Step-1,Increment      1: Step Time =    1.000,"P-20-1",           379,       115.501,       179.794,            0.,NA,NA,"",   985.605E+03,   986.801E+03,   986.801E+03
C:/temp/Job-20.odb,Step-1,Increment      1: Step Time =    1.000,"P-20-1",           380,       105.300,       179.514,            0.,NA,NA,"",   982.063E+03,   984.517E+03,   984.517E+03
C:/temp/Job-20.odb,Step-1,Increment      1: Step Time =    1.000,"P-20-1",           381,       95.1126,       179.356,            0.,NA,NA,"",   981.160E+03,   984.054E+03,   984.054E+03
C:/temp/Job-20.odb,Step-1,Increment      1: Step Time =    1.000,"P-20-1",           382,       85.0251,       179.847,            0.,NA,NA,"",   982.431E+03,   985.094E+03,   985.094E+03
C:/temp/Job-20.odb,Step-1,Increment      1: Step Time =    1.000,"P-20-1",           383,       75.1926,       180.368,            0.,NA,NA,"",   985.701E+03,   988.028E+03,   988.028E+03
C:/temp/Job-20.odb,Step-1,Increment      1: Step Time =    1.000,"P-20-1",           384,       65.3114,       180.447,            0.,NA,NA,"",   991.627E+03,   994.328E+03,   994.328E+03
C:/temp/Job-20.odb,Step-1,Increment      1: Step Time =    1.000,"P-20-1",           385,       54.1760,       179.775,            0.,NA,NA,"",   1.00182E+06,   1.00699E+06,   1.00699E+06
C:/temp/Job-20.odb,Step-1,Increment      1: Step Time =    1.000,"P-20-1",           386,       39.6224,       175.428,            0.,NA,NA,"",   1.01946E+06,   1.03598E+06,   1.03598E+06
C:/temp/Job-20.odb,Step-1,Increment      1: Step Time =    1.000,"P-20-1",           387,       31.3707,       180.371,            0.,NA,NA,"",   1.03290E+06,   1.05140E+06,   1.05140E+06
C:/temp/Job-20.odb,Step-1,Increment      1: Step Time =    1.000,"P-20-1",           388,       24.4203,       178.897,            0.,NA,NA,"",   1.03546E+06,   1.06742E+06,   1.06742E+06
C:/temp/Job-20.odb,Step-1,Increment      1: Step Time =    1.000,"P-20-1",           389,       10.1181,       179.180,            0.,NA,NA,"",   1.01386E+06,   1.08736E+06,   1.08736E+06
C:/temp/Job-20.odb,Step-1,Increment      1: Step Time =    1.000,"P-20-1",           390,       189.784,       189.701,            0.,NA,NA,"",   999.819E+03,   999.575E+03,   999.575E+03
C:/temp/Job-20.odb,Step-1,Increment      1: Step Time =    1.000,"P-20-1",           391,       179.343,       189.588,            0.,NA,NA,"",   998.931E+03,   998.618E+03,   998.618E+03
C:/temp/Job-20.odb,Step-1,Increment      1: Step Time =    1.000,"P-20-1",           392,       169.253,       190.438,            0.,NA,NA,"",   997.227E+03,   996.865E+03,   996.865E+03
C:/temp/Job-20.odb,Step-1,Increment      1: Step Time =    1.000,"P-20-1",           393,       159.571,       190.298,            0.,NA,NA,"",   994.737E+03,   994.272E+03,   994.272E+03
C:/temp/Job-20.odb,Step-1,Increment      1: Step Time =    1.000,"P-20-1",           394,       149.786,       190.158,            0.,NA,NA,"",   991.045E+03,   990.523E+03,   990.523E+03
C:/temp/Job-20.odb,Step-1,Increment      1: Step Time =    1.000,"P-20-1",           395,       134.993,       190.158,            0.,NA,NA,"",   982.785E+03,   982.446E+03,   982.446E+03
C:/temp/Job-20.odb,Step-1,Increment      1: Step Time =    1.000,"P-20-1",           396,       125.138,       190.078,            0.,NA,NA,"",   976.144E+03,   976.104E+03,   976.104E+03
C:/temp/Job-20.odb,Step-1,Increment      1: Step Time =    1.000,"P-20-1",           397,       115.159,       189.931,            0.,NA,NA,"",   969.567E+03,   969.922E+03,   969.922E+03
C:/temp/Job-20.odb,Step-1,Increment      1: Step Time =    1.000,"P-20-1",           398,       105.069,       189.826,            0.,NA,NA,"",   964.131E+03,   964.820E+03,   964.820E+03
C:/temp/Job-20.odb,Step-1,Increment      1: Step Time =    1.000,"P-20-1",           399,       95.0260,       189.838,            0.,NA,NA,"",   960.802E+03,   961.592E+03,   961.592E+03
C:/temp/Job-20.odb,Step-1,Increment      1: Step Time =    1.000,"P-20-1",           400,       85.0379,       189.986,            0.,NA,NA,"",   959.803E+03,   960.514E+03,   960.514E+03
C:/temp/Job-20.odb,Step-1,Increment      1: Step Time =    1.000,"P-20-1",           401,       75.0431,       190.175,            0.,NA,NA,"",   961.292E+03,   961.881E+03,   961.881E+03
C:/temp/Job-20.odb,Step-1,Increment      1: Step Time =    1.000,"P-20-1",           402,       65.0473,       190.304,            0.,NA,NA,"",   965.347E+03,    966.04E+03,    966.04E+03
C:/temp/Job-20.odb,Step-1,Increment      1: Step Time =    1.000,"P-20-1",           403,       50.9774,       186.537,            0.,NA,NA,"",   991.385E+03,   994.198E+03,   994.198E+03
C:/temp/Job-20.odb,Step-1,Increment      1: Step Time =    1.000,"P-20-1",           404,       41.1366,       188.972,            0.,NA,NA,"",    998.14E+03,   1.00181E+06,   1.00181E+06
C:/temp/Job-20.odb,Step-1,Increment      1: Step Time =    1.000,"P-20-1",           405,       30.5924,       189.787,            0.,NA,NA,"",   1.02455E+06,   1.03119E+06,   1.03119E+06
C:/temp/Job-20.odb,Step-1,Increment      1: Step Time =    1.000,"P-20-1",           406,       20.5720,       189.232,            0.,NA,NA,"",   1.07471E+06,   1.09044E+06,   1.09044E+06
C:/temp/Job-20.odb,Step-1,Increment      1: Step Time =    1.000,"P-20-1",           407,       10.2836,       189.573,            0.,NA,NA,"",   1.15365E+06,   1.19463E+06,   1.19463E+06
C:/temp/Job-20.odb,Step-1,Increment      1: Step Time =    1.000,"P-20-1",           408,          195.,            0.,            0.,NA,NA,"",   999.968E+03,   999.952E+03,   999.952E+03
C:/temp/Job-20.odb,Step-1,Increment      1: Step Time =    1.000,"P-20-1",           409,          185.,            0.,            0.,NA,NA,"",   999.449E+03,   999.417E+03,   999.417E+03
C:/temp/Job-20.odb,Step-1,Increment      1: Step Time =    1.000,"P-20-1",           410,          175.,            0.,            0.,NA,NA,"",   997.904E+03,   997.864E+03,   997.864E+03
C:/temp/Job-20.odb,Step-1,Increment      1: Step Time =    1.000,"P-20-1",           411,          165.,            0.,            0.,NA,NA,"",   995.016E+03,   994.968E+03,   994.968E+03
C:/temp/Job-20.odb,Step-1,Increment      1: Step Time =    1.000,"P-20-1",           412,          155.,            0.,            0.,NA,NA,"",   990.492E+03,   990.434E+03,   990.434E+03
C:/temp/Job-20.odb,Step-1,Increment      1: Step Time =    1.000,"P-20-1",           413,          145.,            0.,            0.,NA,NA,"",   983.804E+03,   983.749E+03,   983.749E+03
C:/temp/Job-20.odb,Step-1,Increment      1: Step Time =    1.000,"P-20-1",           414,          135.,            0.,            0.,NA,NA,"",   975.309E+03,   975.274E+03,   975.274E+03
C:/temp/Job-20.odb,Step-1,Increment      1: Step Time =    1.000,"P-20-1",           415,          125.,            0.,            0.,NA,NA,"",   965.582E+03,   965.587E+03,   965.587E+03
C:/temp/Job-20.odb,Step-1,Increment      1: Step Time =    1.000,"P-20-1",           416,          115.,            0.,            0.,NA,NA,"",   955.834E+03,    955.89E+03,    955.89E+03
C:/temp/Job-20.odb,Step-1,Increment      1: Step Time =    1.000,"P-20-1",           417,          105.,            0.,            0.,NA,NA,"",   947.575E+03,   947.661E+03,   947.661E+03
C:/temp/Job-20.odb,Step-1,Increment      1: Step Time =    1.000,"P-20-1",           418,           95.,            0.,            0.,NA,NA,"",   941.739E+03,   941.837E+03,   941.837E+03
C:/temp/Job-20.odb,Step-1,Increment      1: Step Time =    1.000,"P-20-1",           419,           85.,            0.,            0.,NA,NA,"",   938.687E+03,   938.781E+03,   938.781E+03
C:/temp/Job-20.odb,Step-1,Increment      1: Step Time =    1.000,"P-20-1",           420,           75.,            0.,            0.,NA,NA,"",   938.198E+03,   938.285E+03,   938.285E+03
C:/temp/Job-20.odb,Step-1,Increment      1: Step Time =    1.000,"P-20-1",           421,           65.,            0.,            0.,NA,NA,"",   939.877E+03,   939.980E+03,   939.980E+03
C:/temp/Job-20.odb,Step-1,Increment      1: Step Time =    1.000,"P-20-1",           422,           55.,            0.,            0.,NA,NA,"",   944.030E+03,   944.211E+03,   944.211E+03
C:/temp/Job-20.odb,Step-1,Increment      1: Step Time =    1.000,"P-20-1",           423,           45.,            0.,            0.,NA,NA,"",   952.350E+03,   952.723E+03,   952.723E+03
C:/temp/Job-20.odb,Step-1,Increment      1: Step Time =    1.000,"P-20-1",           424,           35.,            0.,            0.,NA,NA,"",   969.566E+03,   970.336E+03,   970.336E+03
C:/temp/Job-20.odb,Step-1,Increment      1: Step Time =    1.000,"P-20-1",           425,           25.,            0.,            0.,NA,NA,"",   1.00688E+06,   1.00859E+06,   1.00859E+06
C:/temp/Job-20.odb,Step-1,Increment      1: Step Time =    1.000,"P-20-1",           426,           15.,            0.,            0.,NA,NA,"",   1.09238E+06,   1.09764E+06,   1.09764E+06
C:/temp/Job-20.odb,Step-1,Increment      1: Step Time =    1.000,"P-20-1",           427,            5.,            0.,            0.,NA,NA,"",   1.39001E+06,   1.42165E+06,   1.42165E+06
C:/temp/Job-20.odb,Step-1,Increment      1: Step Time =    1.000,"P-20-1",           428,          200.,          195.,            0.,NA,NA,"",   999.990E+03,   999.967E+03,   999.967E+03
C:/temp/Job-20.odb,Step-1,Increment      1: Step Time =    1.000,"P-20-1",           429,          200.,          185.,            0.,NA,NA,"",   1.00023E+06,   999.954E+03,   999.954E+03
C:/temp/Job-20.odb,Step-1,Increment      1: Step Time =    1.000,"P-20-1",           430,          200.,          175.,            0.,NA,NA,"",   1.00085E+06,   1.00001E+06,   1.00001E+06
C:/temp/Job-20.odb,Step-1,Increment      1: Step Time =    1.000,"P-20-1",           431,          200.,          165.,            0.,NA,NA,"",   1.00140E+06,   1.00008E+06,   1.00008E+06
C:/temp/Job-20.odb,Step-1,Increment      1: Step Time =    1.000,"P-20-1",           432,          200.,          155.,            0.,NA,NA,"",   1.00136E+06,   1.00011E+06,   1.00011E+06
C:/temp/Job-20.odb,Step-1,Increment      1: Step Time =    1.000,"P-20-1",           433,          200.,          145.,            0.,NA,NA,"",   1.00033E+06,   1.00009E+06,   1.00009E+06
C:/temp/Job-20.odb,Step-1,Increment      1: Step Time =    1.000,"P-20-1",           434,          200.,          135.,            0.,NA,NA,"",   998.414E+03,   1.00008E+06,   1.00008E+06
C:/temp/Job-20.odb,Step-1,Increment      1: Step Time =    1.000,"P-20-1",           435,          200.,          125.,            0.,NA,NA,"",   995.893E+03,   999.988E+03,   999.988E+03
C:/temp/Job-20.odb,Step-1,Increment      1: Step Time =    1.000,"P-20-1",           436,          200.,          115.,            0.,NA,NA,"",   993.561E+03,   999.884E+03,   999.884E+03
C:/temp/Job-20.odb,Step-1,Increment      1: Step Time =    1.000,"P-20-1",           437,          200.,          105.,            0.,NA,NA,"",   992.093E+03,   999.805E+03,   999.805E+03
C:/temp/Job-20.odb,Step-1,Increment      1: Step Time =    1.000,"P-20-1",           438,          200.,           95.,            0.,NA,NA,"",   992.090E+03,   999.841E+03,   999.841E+03
C:/temp/Job-20.odb,Step-1,Increment      1: Step Time =    1.000,"P-20-1",           439,          200.,           85.,            0.,NA,NA,"",   993.486E+03,   999.906E+03,   999.906E+03
C:/temp/Job-20.odb,Step-1,Increment      1: Step Time =    1.000,"P-20-1",           440,          200.,           75.,            0.,NA,NA,"",   995.784E+03,   999.983E+03,   999.983E+03
C:/temp/Job-20.odb,Step-1,Increment      1: Step Time =    1.000,"P-20-1",           441,          200.,           65.,            0.,NA,NA,"",   998.241E+03,   1.00005E+06,   1.00005E+06
C:/temp/Job-20.odb,Step-1,Increment      1: Step Time =    1.000,"P-20-1",           442,          200.,           55.,            0.,NA,NA,"",   1.00017E+06,   1.00010E+06,   1.00010E+06
C:/temp/Job-20.odb,Step-1,Increment      1: Step Time =    1.000,"P-20-1",           443,          200.,           45.,            0.,NA,NA,"",   1.00119E+06,   1.00010E+06,   1.00010E+06
C:/temp/Job-20.odb,Step-1,Increment      1: Step Time =    1.000,"P-20-1",           444,          200.,           35.,            0.,NA,NA,"",   1.00131E+06,   1.00007E+06,   1.00007E+06
C:/temp/Job-20.odb,Step-1,Increment      1: Step Time =    1.000,"P-20-1",           445,          200.,           25.,            0.,NA,NA,"",   1.00081E+06,   1.00002E+06,   1.00002E+06
C:/temp/Job-20.odb,Step-1,Increment      1: Step Time =    1.000,"P-20-1",           446,          200.,           15.,            0.,NA,NA,"",   1.00023E+06,   999.958E+03,   999.958E+03
C:/temp/Job-20.odb,Step-1,Increment      1: Step Time =    1.000,"P-20-1",           447,          200.,            5.,            0.,NA,NA,"",   999.993E+03,   999.968E+03,   999.968E+03
C:/temp/Job-20.odb,Step-1,Increment      1: Step Time =    1.000,"P-20-1",           448,            5.,          200.,            0.,NA,NA,"",   1.39144E+06,   1.42346E+06,   1.42346E+06
C:/temp/Job-20.odb,Step-1,Increment      1: Step Time =    1.000,"P-20-1",           449,           15.,          200.,            0.,NA,NA,"",   1.09480E+06,   1.10022E+06,   1.10022E+06
C:/temp/Job-20.odb,Step-1,Increment      1: Step Time =    1.000,"P-20-1",           450,           25.,          200.,            0.,NA,NA,"",   1.00872E+06,   1.01061E+06,   1.01061E+06
C:/temp/Job-20.odb,Step-1,Increment      1: Step Time =    1.000,"P-20-1",           451,           35.,          200.,            0.,NA,NA,"",   970.756E+03,   971.680E+03,   971.680E+03
C:/temp/Job-20.odb,Step-1,Increment      1: Step Time =    1.000,"P-20-1",           452,           45.,          200.,            0.,NA,NA,"",   953.237E+03,   953.620E+03,   953.620E+03
C:/temp/Job-20.odb,Step-1,Increment      1: Step Time =    1.000,"P-20-1",           453,           55.,          200.,            0.,NA,NA,"",   944.084E+03,   944.268E+03,   944.268E+03
C:/temp/Job-20.odb,Step-1,Increment      1: Step Time =    1.000,"P-20-1",           454,           65.,          200.,            0.,NA,NA,"",   940.110E+03,   940.223E+03,   940.223E+03
C:/temp/Job-20.odb,Step-1,Increment      1: Step Time =    1.000,"P-20-1",           455,           75.,          200.,            0.,NA,NA,"",   938.573E+03,   938.655E+03,   938.655E+03
C:/temp/Job-20.odb,Step-1,Increment      1: Step Time =    1.000,"P-20-1",           456,           85.,          200.,            0.,NA,NA,"",   939.098E+03,   939.190E+03,   939.190E+03
C:/temp/Job-20.odb,Step-1,Increment      1: Step Time =    1.000,"P-20-1",           457,           95.,          200.,            0.,NA,NA,"",   942.052E+03,    942.15E+03,    942.15E+03
C:/temp/Job-20.odb,Step-1,Increment      1: Step Time =    1.000,"P-20-1",           458,          105.,          200.,            0.,NA,NA,"",   947.751E+03,   947.836E+03,   947.836E+03
C:/temp/Job-20.odb,Step-1,Increment      1: Step Time =    1.000,"P-20-1",           459,          115.,          200.,            0.,NA,NA,"",   955.916E+03,   955.961E+03,   955.961E+03
C:/temp/Job-20.odb,Step-1,Increment      1: Step Time =    1.000,"P-20-1",           460,          125.,          200.,            0.,NA,NA,"",   965.525E+03,   965.524E+03,   965.524E+03
C:/temp/Job-20.odb,Step-1,Increment      1: Step Time =    1.000,"P-20-1",           461,          135.,          200.,            0.,NA,NA,"",   975.174E+03,   975.139E+03,   975.139E+03
C:/temp/Job-20.odb,Step-1,Increment      1: Step Time =    1.000,"P-20-1",           462,          145.,          200.,            0.,NA,NA,"",   983.644E+03,   983.586E+03,   983.586E+03
C:/temp/Job-20.odb,Step-1,Increment      1: Step Time =    1.000,"P-20-1",           463,          155.,          200.,            0.,NA,NA,"",   990.243E+03,   990.181E+03,   990.181E+03
C:/temp/Job-20.odb,Step-1,Increment      1: Step Time =    1.000,"P-20-1",           464,          165.,          200.,            0.,NA,NA,"",   994.894E+03,   994.844E+03,   994.844E+03
C:/temp/Job-20.odb,Step-1,Increment      1: Step Time =    1.000,"P-20-1",           465,          175.,          200.,            0.,NA,NA,"",   997.841E+03,   997.804E+03,   997.804E+03
C:/temp/Job-20.odb,Step-1,Increment      1: Step Time =    1.000,"P-20-1",           466,          185.,          200.,            0.,NA,NA,"",   999.426E+03,   999.391E+03,   999.391E+03
C:/temp/Job-20.odb,Step-1,Increment      1: Step Time =    1.000,"P-20-1",           467,          195.,          200.,            0.,NA,NA,"",   999.969E+03,   999.952E+03,   999.952E+03
C:/temp/Job-20.odb,Step-1,Increment      1: Step Time =    1.000,"P-20-1",           468,            0.,            5.,            0.,NA,NA,"",   1.34518E+06,   1.42788E+06,   1.42788E+06
C:/temp/Job-20.odb,Step-1,Increment      1: Step Time =    1.000,"P-20-1",           469,            0.,           15.,            0.,NA,NA,"",   1.02718E+06,   1.12514E+06,   1.12514E+06
C:/temp/Job-20.odb,Step-1,Increment      1: Step Time =    1.000,"P-20-1",           470,            0.,           25.,            0.,NA,NA,"",   940.776E+03,   1.04153E+06,   1.04153E+06
C:/temp/Job-20.odb,Step-1,Increment      1: Step Time =    1.000,"P-20-1",           471,            0.,           35.,            0.,NA,NA,"",   894.218E+03,   997.419E+03,   997.419E+03
C:/temp/Job-20.odb,Step-1,Increment      1: Step Time =    1.000,"P-20-1",           472,            0.,           45.,            0.,NA,NA,"",   865.861E+03,   969.988E+03,   969.988E+03
C:/temp/Job-20.odb,Step-1,Increment      1: Step Time =    1.000,"P-20-1",           473,            0.,           55.,            0.,NA,NA,"",   847.206E+03,   951.408E+03,   951.408E+03
C:/temp/Job-20.odb,Step-1,Increment      1: Step Time =    1.000,"P-20-1",           474,            0.,           65.,            0.,NA,NA,"",   833.156E+03,   937.195E+03,   937.195E+03
C:/temp/Job-20.odb,Step-1,Increment      1: Step Time =    1.000,"P-20-1",           475,            0.,           75.,            0.,NA,NA,"",   822.338E+03,   926.139E+03,   926.139E+03
C:/temp/Job-20.odb,Step-1,Increment      1: Step Time =    1.000,"P-20-1",           476,            0.,           85.,            0.,NA,NA,"",   815.021E+03,   918.545E+03,   918.545E+03
C:/temp/Job-20.odb,Step-1,Increment      1: Step Time =    1.000,"P-20-1",           477,            0.,           95.,            0.,NA,NA,"",   811.033E+03,   914.431E+03,   914.431E+03
C:/temp/Job-20.odb,Step-1,Increment      1: Step Time =    1.000,"P-20-1",           478,            0.,          105.,            0.,NA,NA,"",   810.933E+03,   914.372E+03,   914.372E+03
C:/temp/Job-20.odb,Step-1,Increment      1: Step Time =    1.000,"P-20-1",           479,            0.,          115.,            0.,NA,NA,"",   814.742E+03,   918.331E+03,   918.331E+03
C:/temp/Job-20.odb,Step-1,Increment      1: Step Time =    1.000,"P-20-1",           480,            0.,          125.,            0.,NA,NA,"",   822.321E+03,   926.110E+03,   926.110E+03
C:/temp/Job-20.odb,Step-1,Increment      1: Step Time =    1.000,"P-20-1",           481,            0.,          135.,            0.,NA,NA,"",   833.307E+03,   937.256E+03,   937.256E+03
C:/temp/Job-20.odb,Step-1,Increment      1: Step Time =    1.000,"P-20-1",           482,            0.,          145.,            0.,NA,NA,"",   847.840E+03,   951.798E+03,   951.798E+03
C:/temp/Job-20.odb,Step-1,Increment      1: Step Time =    1.000,"P-20-1",           483,            0.,          155.,            0.,NA,NA,"",   867.100E+03,   970.812E+03,   970.812E+03
C:/temp/Job-20.odb,Step-1,Increment      1: Step Time =    1.000,"P-20-1",           484,            0.,          165.,            0.,NA,NA,"",   894.683E+03,   997.693E+03,   997.693E+03
C:/temp/Job-20.odb,Step-1,Increment      1: Step Time =    1.000,"P-20-1",           485,            0.,          175.,            0.,NA,NA,"",   939.102E+03,   1.04068E+06,   1.04068E+06
C:/temp/Job-20.odb,Step-1,Increment      1: Step Time =    1.000,"P-20-1",           486,            0.,          185.,            0.,NA,NA,"",   1.02674E+06,   1.12591E+06,   1.12591E+06
C:/temp/Job-20.odb,Step-1,Increment      1: Step Time =    1.000,"P-20-1",           487,            0.,          195.,            0.,NA,NA,"",   1.34415E+06,   1.42757E+06,   1.42757E+06
C:/temp/Job-20.odb,Step-1,Increment      1: Step Time =    1.000,"P-20-1",           488,       86.3327,       99.0448,            0.,NA,NA,"",   540.467E+03,   355.271E+03,   355.271E+03
C:/temp/Job-20.odb,Step-1,Increment      1: Step Time =    1.000,"P-20-1",           489,       111.418,       93.2813,            0.,NA,NA,"",   987.581E+03,   873.568E+03,   873.568E+03
C:/temp/Job-20.odb,Step-1,Increment      1: Step Time =    1.000,"P-20-1",           490,       110.455,       108.402,            0.,NA,NA,"",   1.12617E+06,   1.04016E+06,   1.04016E+06
C:/temp/Job-20.odb,Step-1,Increment      1: Step Time =    1.000,"P-20-1",           491,       87.5489,       92.3746,            0.,NA,NA,"",   1.01661E+06,   925.103E+03,   925.103E+03
C:/temp/Job-20.odb,Step-1,Increment      1: Step Time =    1.000,"P-20-1",           492,       88.7101,       108.433,            0.,NA,NA,"",   1.10114E+06,   1.02420E+06,   1.02420E+06
C:/temp/Job-20.odb,Step-1,Increment      1: Step Time =    1.000,"P-20-1",           493,       112.610,       99.7324,            0.,NA,NA,"",   485.744E+03,   267.665E+03,   267.665E+03
C:/temp/Job-20.odb,Step-1,Increment      1: Step Time =    1.000,"P-20-1",           494,       104.683,       112.835,            0.,NA,NA,"",   1.36740E+06,   1.42608E+06,   1.42608E+06
C:/temp/Job-20.odb,Step-1,Increment      1: Step Time =    1.000,"P-20-1",           495,       104.446,       88.7276,            0.,NA,NA,"",   1.51047E+06,   1.57497E+06,   1.57497E+06
C:/temp/Job-20.odb,Step-1,Increment      1: Step Time =    1.000,"P-20-1",           496,       95.7303,       86.5618,            0.,NA,NA,"",   1.35857E+06,   1.42856E+06,   1.42856E+06
C:/temp/Job-20.odb,Step-1,Increment      1: Step Time =    1.000,"P-20-1",           497,       94.9447,       112.785,            0.,NA,NA,"",   1.36514E+06,   1.41930E+06,   1.41930E+06
C:/temp/Job-20.odb,Step-1,Increment      1: Step Time =    1.000,"P-20-1",           498,       194.724,       115.021,            0.,NA,NA,"",   994.199E+03,   999.659E+03,   999.659E+03
C:/temp/Job-20.odb,Step-1,Increment      1: Step Time =    1.000,"P-20-1",           499,       195.009,       125.054,            0.,NA,NA,"",   996.447E+03,   999.966E+03,   999.966E+03
C:/temp/Job-20.odb,Step-1,Increment      1: Step Time =    1.000,"P-20-1",           500,       125.055,       195.051,            0.,NA,NA,"",   969.070E+03,   969.054E+03,   969.054E+03
C:/temp/Job-20.odb,Step-1,Increment      1: Step Time =    1.000,"P-20-1",           501,       115.062,       194.969,            0.,NA,NA,"",   960.590E+03,   960.711E+03,   960.711E+03
C:/temp/Job-20.odb,Step-1,Increment      1: Step Time =    1.000,"P-20-1",           502,       194.644,       15.3361,            0.,NA,NA,"",   1.00023E+06,   999.882E+03,   999.882E+03
C:/temp/Job-20.odb,Step-1,Increment      1: Step Time =    1.000,"P-20-1",           503,       194.854,       25.4499,            0.,NA,NA,"",   1.00087E+06,   1.00005E+06,   1.00005E+06
C:/temp/Job-20.odb,Step-1,Increment      1: Step Time =    1.000,"P-20-1",           504,       5.03516,       174.521,            0.,NA,NA,"",   951.014E+03,   1.04585E+06,   1.04585E+06
C:/temp/Job-20.odb,Step-1,Increment      1: Step Time =    1.000,"P-20-1",           505,       4.80082,       164.594,            0.,NA,NA,"",   904.716E+03,   1.00307E+06,   1.00307E+06
C:/temp/Job-20.odb,Step-1,Increment      1: Step Time =    1.000,"P-20-1",           506,       164.472,       4.98777,            0.,NA,NA,"",   995.272E+03,   995.116E+03,   995.116E+03
C:/temp/Job-20.odb,Step-1,Increment      1: Step Time =    1.000,"P-20-1",           507,       174.610,       5.01465,            0.,NA,NA,"",   997.920E+03,   997.800E+03,   997.800E+03
C:/temp/Job-20.odb,Step-1,Increment      1: Step Time =    1.000,"P-20-1",           508,       184.733,       5.15556,            0.,NA,NA,"",   999.374E+03,   999.278E+03,   999.278E+03
C:/temp/Job-20.odb,Step-1,Increment      1: Step Time =    1.000,"P-20-1",           509,       35.3809,       194.770,            0.,NA,NA,"",   986.064E+03,   987.686E+03,   987.686E+03
C:/temp/Job-20.odb,Step-1,Increment      1: Step Time =    1.000,"P-20-1",           510,       25.2537,       194.772,            0.,NA,NA,"",   1.02548E+06,   1.02932E+06,   1.02932E+06
C:/temp/Job-20.odb,Step-1,Increment      1: Step Time =    1.000,"P-20-1",           511,       15.2411,       194.699,            0.,NA,NA,"",   1.10858E+06,   1.11845E+06,   1.11845E+06
C:/temp/Job-20.odb,Step-1,Increment      1: Step Time =    1.000,"P-20-1",           512,       5.39517,       10.2117,            0.,NA,NA,"",   1.14182E+06,   1.21584E+06,   1.21584E+06
C:/temp/Job-20.odb,Step-1,Increment      1: Step Time =    1.000,"P-20-1",           513,       5.69577,       15.4314,            0.,NA,NA,"",   1.04362E+06,   1.12789E+06,   1.12789E+06
C:/temp/Job-20.odb,Step-1,Increment      1: Step Time =    1.000,"P-20-1",           514,       5.55556,       25.7894,            0.,NA,NA,"",   952.190E+03,   1.04538E+06,   1.04538E+06
C:/temp/Job-20.odb,Step-1,Increment      1: Step Time =    1.000,"P-20-1",           515,       4.56913,       35.7315,            0.,NA,NA,"",   902.559E+03,   1.00163E+06,   1.00163E+06
C:/temp/Job-20.odb,Step-1,Increment      1: Step Time =    1.000,"P-20-1",           516,       4.18192,       45.4851,            0.,NA,NA,"",   873.507E+03,   974.500E+03,   974.500E+03
C:/temp/Job-20.odb,Step-1,Increment      1: Step Time =    1.000,"P-20-1",           517,       4.76728,       154.701,            0.,NA,NA,"",   875.751E+03,   975.924E+03,   975.924E+03
C:/temp/Job-20.odb,Step-1,Increment      1: Step Time =    1.000,"P-20-1",           518,       15.2894,       5.03110,            0.,NA,NA,"",   1.10621E+06,   1.11541E+06,   1.11541E+06
C:/temp/Job-20.odb,Step-1,Increment      1: Step Time =    1.000,"P-20-1",           519,       25.3045,       4.90113,            0.,NA,NA,"",   1.02351E+06,   1.02663E+06,   1.02663E+06
C:/temp/Job-20.odb,Step-1,Increment      1: Step Time =    1.000,"P-20-1",           520,       35.3264,       4.78991,            0.,NA,NA,"",   983.476E+03,   984.947E+03,   984.947E+03
C:/temp/Job-20.odb,Step-1,Increment      1: Step Time =    1.000,"P-20-1",           521,       45.2055,       4.81169,            0.,NA,NA,"",   964.196E+03,   964.871E+03,   964.871E+03
C:/temp/Job-20.odb,Step-1,Increment      1: Step Time =    1.000,"P-20-1",           522,       55.0756,       4.87437,            0.,NA,NA,"",   954.173E+03,   954.541E+03,   954.541E+03
C:/temp/Job-20.odb,Step-1,Increment      1: Step Time =    1.000,"P-20-1",           523,       64.9700,       4.88431,            0.,NA,NA,"",   948.747E+03,   948.963E+03,   948.963E+03
C:/temp/Job-20.odb,Step-1,Increment      1: Step Time =    1.000,"P-20-1",           524,       74.8922,       4.91053,            0.,NA,NA,"",   946.111E+03,   946.305E+03,   946.305E+03
C:/temp/Job-20.odb,Step-1,Increment      1: Step Time =    1.000,"P-20-1",           525,       84.8774,       4.96822,            0.,NA,NA,"",   945.858E+03,   946.096E+03,   946.096E+03
C:/temp/Job-20.odb,Step-1,Increment      1: Step Time =    1.000,"P-20-1",           526,       94.9147,       5.01755,            0.,NA,NA,"",   948.188E+03,   948.452E+03,   948.452E+03
C:/temp/Job-20.odb,Step-1,Increment      1: Step Time =    1.000,"P-20-1",           527,       104.946,       5.02133,            0.,NA,NA,"",   953.174E+03,   953.396E+03,   953.396E+03
C:/temp/Job-20.odb,Step-1,Increment      1: Step Time =    1.000,"P-20-1",           528,       114.977,       4.97495,            0.,NA,NA,"",   960.418E+03,   960.541E+03,   960.541E+03
C:/temp/Job-20.odb,Step-1,Increment      1: Step Time =    1.000,"P-20-1",           529,       125.041,       4.93562,            0.,NA,NA,"",   969.092E+03,   969.078E+03,   969.078E+03
C:/temp/Job-20.odb,Step-1,Increment      1: Step Time =    1.000,"P-20-1",           530,       135.061,       4.85319,            0.,NA,NA,"",   977.771E+03,   977.642E+03,   977.642E+03
C:/temp/Job-20.odb,Step-1,Increment      1: Step Time =    1.000,"P-20-1",           531,       144.928,       4.64123,            0.,NA,NA,"",   985.194E+03,   985.031E+03,   985.031E+03
C:/temp/Job-20.odb,Step-1,Increment      1: Step Time =    1.000,"P-20-1",           532,       154.621,       4.58762,            0.,NA,NA,"",   991.091E+03,   990.928E+03,   990.928E+03
C:/temp/Job-20.odb,Step-1,Increment      1: Step Time =    1.000,"P-20-1",           533,       194.851,       5.12612,            0.,NA,NA,"",   999.946E+03,   999.894E+03,   999.894E+03
C:/temp/Job-20.odb,Step-1,Increment      1: Step Time =    1.000,"P-20-1",           534,       195.185,       35.4678,            0.,NA,NA,"",   1.00140E+06,   1.00021E+06,   1.00021E+06
C:/temp/Job-20.odb,Step-1,Increment      1: Step Time =    1.000,"P-20-1",           535,       195.218,       45.3193,            0.,NA,NA,"",   1.00134E+06,   1.00030E+06,   1.00030E+06
C:/temp/Job-20.odb,Step-1,Increment      1: Step Time =    1.000,"P-20-1",           536,       195.167,       55.1649,            0.,NA,NA,"",   1.00044E+06,   1.00031E+06,   1.00031E+06
C:/temp/Job-20.odb,Step-1,Increment      1: Step Time =    1.000,"P-20-1",           537,       195.121,       65.0294,            0.,NA,NA,"",   998.666E+03,   1.00020E+06,   1.00020E+06
C:/temp/Job-20.odb,Step-1,Increment      1: Step Time =    1.000,"P-20-1",           538,       195.066,       74.9382,            0.,NA,NA,"",   996.334E+03,   999.964E+03,   999.964E+03
C:/temp/Job-20.odb,Step-1,Increment      1: Step Time =    1.000,"P-20-1",           539,       195.014,       84.8948,            0.,NA,NA,"",   994.094E+03,   999.682E+03,   999.682E+03
C:/temp/Job-20.odb,Step-1,Increment      1: Step Time =    1.000,"P-20-1",           540,       194.970,       94.8852,            0.,NA,NA,"",   992.712E+03,   999.478E+03,   999.478E+03
C:/temp/Job-20.odb,Step-1,Increment      1: Step Time =    1.000,"P-20-1",           541,       194.853,       104.925,            0.,NA,NA,"",   992.719E+03,   999.429E+03,   999.429E+03
C:/temp/Job-20.odb,Step-1,Increment      1: Step Time =    1.000,"P-20-1",           542,       195.347,       134.984,            0.,NA,NA,"",   998.783E+03,   1.00021E+06,   1.00021E+06
C:/temp/Job-20.odb,Step-1,Increment      1: Step Time =    1.000,"P-20-1",           543,       134.995,       195.101,            0.,NA,NA,"",   977.617E+03,   977.499E+03,   977.499E+03
C:/temp/Job-20.odb,Step-1,Increment      1: Step Time =    1.000,"P-20-1",           544,       195.560,       144.759,            0.,NA,NA,"",   1.00050E+06,   1.00026E+06,   1.00026E+06
C:/temp/Job-20.odb,Step-1,Increment      1: Step Time =    1.000,"P-20-1",           545,       195.198,       154.585,            0.,NA,NA,"",   1.00150E+06,   1.00033E+06,   1.00033E+06
C:/temp/Job-20.odb,Step-1,Increment      1: Step Time =    1.000,"P-20-1",           546,       144.918,       195.093,            0.,NA,NA,"",   985.154E+03,   984.979E+03,   984.979E+03
C:/temp/Job-20.odb,Step-1,Increment      1: Step Time =    1.000,"P-20-1",           547,       194.708,       164.566,            0.,NA,NA,"",   1.00154E+06,   1.00026E+06,   1.00026E+06
C:/temp/Job-20.odb,Step-1,Increment      1: Step Time =    1.000,"P-20-1",           548,       154.826,       195.120,            0.,NA,NA,"",   991.023E+03,   990.845E+03,   990.845E+03
C:/temp/Job-20.odb,Step-1,Increment      1: Step Time =    1.000,"P-20-1",           549,       194.977,       174.821,            0.,NA,NA,"",   1.00089E+06,   1.00003E+06,   1.00003E+06
C:/temp/Job-20.odb,Step-1,Increment      1: Step Time =    1.000,"P-20-1",           550,       164.690,       195.170,            0.,NA,NA,"",   995.159E+03,   995.014E+03,   995.014E+03
C:/temp/Job-20.odb,Step-1,Increment      1: Step Time =    1.000,"P-20-1",           551,       194.937,       184.864,            0.,NA,NA,"",   1.00022E+06,   999.875E+03,   999.875E+03
C:/temp/Job-20.odb,Step-1,Increment      1: Step Time =    1.000,"P-20-1",           552,       174.702,       194.994,            0.,NA,NA,"",   997.865E+03,   997.746E+03,   997.746E+03
C:/temp/Job-20.odb,Step-1,Increment      1: Step Time =    1.000,"P-20-1",           553,       194.922,       194.901,            0.,NA,NA,"",   999.950E+03,   999.896E+03,   999.896E+03
C:/temp/Job-20.odb,Step-1,Increment      1: Step Time =    1.000,"P-20-1",           554,       184.777,       194.767,            0.,NA,NA,"",   999.347E+03,   999.246E+03,   999.246E+03
C:/temp/Job-20.odb,Step-1,Increment      1: Step Time =    1.000,"P-20-1",           555,       105.027,       194.918,            0.,NA,NA,"",   953.431E+03,   953.665E+03,   953.665E+03
C:/temp/Job-20.odb,Step-1,Increment      1: Step Time =    1.000,"P-20-1",           556,       95.0143,       194.932,            0.,NA,NA,"",   948.560E+03,   948.827E+03,   948.827E+03
C:/temp/Job-20.odb,Step-1,Increment      1: Step Time =    1.000,"P-20-1",           557,       85.0259,       194.998,            0.,NA,NA,"",   946.263E+03,   946.500E+03,   946.500E+03
C:/temp/Job-20.odb,Step-1,Increment      1: Step Time =    1.000,"P-20-1",           558,       75.0261,       195.088,            0.,NA,NA,"",   946.439E+03,   946.626E+03,   946.626E+03
C:/temp/Job-20.odb,Step-1,Increment      1: Step Time =    1.000,"P-20-1",           559,       65.0421,       195.193,            0.,NA,NA,"",   948.764E+03,   948.986E+03,   948.986E+03
C:/temp/Job-20.odb,Step-1,Increment      1: Step Time =    1.000,"P-20-1",           560,       55.2247,       195.357,            0.,NA,NA,"",   953.558E+03,   953.868E+03,   953.868E+03
C:/temp/Job-20.odb,Step-1,Increment      1: Step Time =    1.000,"P-20-1",           561,       45.4061,       195.132,            0.,NA,NA,"",   964.581E+03,   965.391E+03,   965.391E+03
C:/temp/Job-20.odb,Step-1,Increment      1: Step Time =    1.000,"P-20-1",           562,       5.10808,       194.875,            0.,NA,NA,"",   1.30176E+06,   1.35139E+06,   1.35139E+06
C:/temp/Job-20.odb,Step-1,Increment      1: Step Time =    1.000,"P-20-1",           563,       5.15448,       184.714,            0.,NA,NA,"",   1.04087E+06,   1.12794E+06,   1.12794E+06
C:/temp/Job-20.odb,Step-1,Increment      1: Step Time =    1.000,"P-20-1",           564,       4.82040,       144.855,            0.,NA,NA,"",   855.887E+03,   956.848E+03,   956.848E+03
C:/temp/Job-20.odb,Step-1,Increment      1: Step Time =    1.000,"P-20-1",           565,       4.85461,       134.963,            0.,NA,NA,"",   840.620E+03,   941.991E+03,   941.991E+03
C:/temp/Job-20.odb,Step-1,Increment      1: Step Time =    1.000,"P-20-1",           566,       4.90978,       125.021,            0.,NA,NA,"",   828.872E+03,   930.418E+03,   930.418E+03
C:/temp/Job-20.odb,Step-1,Increment      1: Step Time =    1.000,"P-20-1",           567,       4.98383,       115.049,            0.,NA,NA,"",   820.707E+03,   922.273E+03,   922.273E+03
C:/temp/Job-20.odb,Step-1,Increment      1: Step Time =    1.000,"P-20-1",           568,       5.05687,       105.066,            0.,NA,NA,"",   816.572E+03,   918.101E+03,   918.101E+03
C:/temp/Job-20.odb,Step-1,Increment      1: Step Time =    1.000,"P-20-1",           569,       5.14679,       95.0614,            0.,NA,NA,"",   816.810E+03,   918.234E+03,   918.234E+03
C:/temp/Job-20.odb,Step-1,Increment      1: Step Time =    1.000,"P-20-1",           570,       5.21051,       85.0380,            0.,NA,NA,"",   821.244E+03,   922.648E+03,   922.648E+03
C:/temp/Job-20.odb,Step-1,Increment      1: Step Time =    1.000,"P-20-1",           571,       4.89701,       75.0557,            0.,NA,NA,"",   828.960E+03,   930.498E+03,   930.498E+03
C:/temp/Job-20.odb,Step-1,Increment      1: Step Time =    1.000,"P-20-1",           572,       4.64695,       65.0685,            0.,NA,NA,"",   840.107E+03,   941.708E+03,   941.708E+03
C:/temp/Job-20.odb,Step-1,Increment      1: Step Time =    1.000,"P-20-1",           573,       4.51638,       55.1308,            0.,NA,NA,"",   854.823E+03,   956.266E+03,   956.266E+03
C:/temp/Job-20.odb,Step-1,Increment      1: Step Time =    1.000,"P-20-1",           574,       189.767,       5.17612,            0.,NA,NA,"",   999.759E+03,   999.673E+03,   999.673E+03
C:/temp/Job-20.odb,Step-1,Increment      1: Step Time =    1.000,"P-20-1",           575,       179.685,       5.09253,            0.,NA,NA,"",   998.774E+03,   998.668E+03,   998.668E+03
C:/temp/Job-20.odb,Step-1,Increment      1: Step Time =    1.000,"P-20-1",           576,       169.525,       4.97952,            0.,NA,NA,"",   996.767E+03,   996.629E+03,   996.629E+03
C:/temp/Job-20.odb,Step-1,Increment      1: Step Time =    1.000,"P-20-1",           577,       159.455,       4.91846,            0.,NA,NA,"",   993.418E+03,   993.258E+03,   993.258E+03
C:/temp/Job-20.odb,Step-1,Increment      1: Step Time =    1.000,"P-20-1",           578,       149.760,       4.52855,            0.,NA,NA,"",   988.319E+03,   988.156E+03,   988.156E+03
C:/temp/Job-20.odb,Step-1,Increment      1: Step Time =    1.000,"P-20-1",           579,       140.026,       4.75492,            0.,NA,NA,"",   981.671E+03,   981.515E+03,   981.515E+03
C:/temp/Job-20.odb,Step-1,Increment      1: Step Time =    1.000,"P-20-1",           580,       130.066,       4.90988,            0.,NA,NA,"",   973.539E+03,   973.452E+03,   973.452E+03
C:/temp/Job-20.odb,Step-1,Increment      1: Step Time =    1.000,"P-20-1",           581,       120.004,       4.95440,            0.,NA,NA,"",   964.649E+03,   964.708E+03,   964.708E+03
C:/temp/Job-20.odb,Step-1,Increment      1: Step Time =    1.000,"P-20-1",           582,       109.959,       5.00381,            0.,NA,NA,"",   956.549E+03,   956.727E+03,   956.727E+03
C:/temp/Job-20.odb,Step-1,Increment      1: Step Time =    1.000,"P-20-1",           583,       99.9332,       5.02804,            0.,NA,NA,"",   950.365E+03,   950.619E+03,   950.619E+03
C:/temp/Job-20.odb,Step-1,Increment      1: Step Time =    1.000,"P-20-1",           584,       89.8944,       4.99687,            0.,NA,NA,"",   946.685E+03,   946.947E+03,   946.947E+03
C:/temp/Job-20.odb,Step-1,Increment      1: Step Time =    1.000,"P-20-1",           585,       79.8748,       4.93733,            0.,NA,NA,"",   945.676E+03,   945.892E+03,   945.892E+03
C:/temp/Job-20.odb,Step-1,Increment      1: Step Time =    1.000,"P-20-1",           586,       69.9253,       4.89423,            0.,NA,NA,"",   947.124E+03,   947.321E+03,   947.321E+03
C:/temp/Job-20.odb,Step-1,Increment      1: Step Time =    1.000,"P-20-1",           587,       60.0230,       4.88179,            0.,NA,NA,"",   951.049E+03,   951.340E+03,   951.340E+03
C:/temp/Job-20.odb,Step-1,Increment      1: Step Time =    1.000,"P-20-1",           588,       50.1290,       4.84135,            0.,NA,NA,"",   958.465E+03,   958.957E+03,   958.957E+03
C:/temp/Job-20.odb,Step-1,Increment      1: Step Time =    1.000,"P-20-1",           589,       40.2739,       4.76905,            0.,NA,NA,"",   972.198E+03,   973.162E+03,   973.162E+03
C:/temp/Job-20.odb,Step-1,Increment      1: Step Time =    1.000,"P-20-1",           590,       30.3187,       4.82265,            0.,NA,NA,"",   1.00023E+06,   1.00230E+06,   1.00230E+06
C:/temp/Job-20.odb,Step-1,Increment      1: Step Time =    1.000,"P-20-1",           591,       20.3075,       4.96292,            0.,NA,NA,"",   1.05824E+06,   1.06297E+06,   1.06297E+06
C:/temp/Job-20.odb,Step-1,Increment      1: Step Time =    1.000,"P-20-1",           592,       10.2593,       5.09488,            0.,NA,NA,"",   1.19556E+06,   1.20921E+06,   1.20921E+06
C:/temp/Job-20.odb,Step-1,Increment      1: Step Time =    1.000,"P-20-1",           593,       194.906,       189.861,            0.,NA,NA,"",   1.00001E+06,   999.844E+03,   999.844E+03
C:/temp/Job-20.odb,Step-1,Increment      1: Step Time =    1.000,"P-20-1",           594,       194.973,       179.869,            0.,NA,NA,"",   1.00053E+06,   999.942E+03,   999.942E+03
C:/temp/Job-20.odb,Step-1,Increment      1: Step Time =    1.000,"P-20-1",           595,       194.865,       169.715,            0.,NA,NA,"",   1.00126E+06,   1.00014E+06,   1.00014E+06
C:/temp/Job-20.odb,Step-1,Increment      1: Step Time =    1.000,"P-20-1",           596,       194.659,       159.477,            0.,NA,NA,"",   1.00164E+06,   1.00033E+06,   1.00033E+06
C:/temp/Job-20.odb,Step-1,Increment      1: Step Time =    1.000,"P-20-1",           597,       195.509,       149.615,            0.,NA,NA,"",   1.00109E+06,   1.00028E+06,   1.00028E+06
C:/temp/Job-20.odb,Step-1,Increment      1: Step Time =    1.000,"P-20-1",           598,       195.480,       139.897,            0.,NA,NA,"",   999.741E+03,   1.00025E+06,   1.00025E+06
C:/temp/Job-20.odb,Step-1,Increment      1: Step Time =    1.000,"P-20-1",           599,       195.188,       130.033,            0.,NA,NA,"",   997.674E+03,   1.00012E+06,   1.00012E+06
C:/temp/Job-20.odb,Step-1,Increment      1: Step Time =    1.000,"P-20-1",           600,       194.828,       120.038,            0.,NA,NA,"",   995.255E+03,   999.807E+03,   999.807E+03
C:/temp/Job-20.odb,Step-1,Increment      1: Step Time =    1.000,"P-20-1",           601,       194.757,       109.985,            0.,NA,NA,"",   993.310E+03,   999.515E+03,   999.515E+03
C:/temp/Job-20.odb,Step-1,Increment      1: Step Time =    1.000,"P-20-1",           602,       194.926,       99.8956,            0.,NA,NA,"",   992.527E+03,   999.432E+03,   999.432E+03
C:/temp/Job-20.odb,Step-1,Increment      1: Step Time =    1.000,"P-20-1",           603,       194.995,       89.8873,            0.,NA,NA,"",   993.244E+03,   999.551E+03,   999.551E+03
C:/temp/Job-20.odb,Step-1,Increment      1: Step Time =    1.000,"P-20-1",           604,       195.037,       79.9074,            0.,NA,NA,"",   995.148E+03,   999.815E+03,   999.815E+03
C:/temp/Job-20.odb,Step-1,Increment      1: Step Time =    1.000,"P-20-1",           605,       195.095,       69.9770,            0.,NA,NA,"",   997.534E+03,   1.00009E+06,   1.00009E+06
C:/temp/Job-20.odb,Step-1,Increment      1: Step Time =    1.000,"P-20-1",           606,       195.145,       60.0928,            0.,NA,NA,"",   999.658E+03,   1.00028E+06,   1.00028E+06
C:/temp/Job-20.odb,Step-1,Increment      1: Step Time =    1.000,"P-20-1",           607,       195.204,       50.2399,            0.,NA,NA,"",   1.00101E+06,   1.00033E+06,   1.00033E+06
C:/temp/Job-20.odb,Step-1,Increment      1: Step Time =    1.000,"P-20-1",           608,       195.237,       40.4026,            0.,NA,NA,"",   1.00147E+06,   1.00026E+06,   1.00026E+06
C:/temp/Job-20.odb,Step-1,Increment      1: Step Time =    1.000,"P-20-1",           609,       195.071,       30.4954,            0.,NA,NA,"",   1.00119E+06,   1.00014E+06,   1.00014E+06
C:/temp/Job-20.odb,Step-1,Increment      1: Step Time =    1.000,"P-20-1",           610,       194.667,       20.4073,            0.,NA,NA,"",   1.00053E+06,   999.958E+03,   999.958E+03
C:/temp/Job-20.odb,Step-1,Increment      1: Step Time =    1.000,"P-20-1",           611,       194.726,       10.2309,            0.,NA,NA,"",   1.00001E+06,   999.842E+03,   999.842E+03
C:/temp/Job-20.odb,Step-1,Increment      1: Step Time =    1.000,"P-20-1",           612,       10.1832,       194.769,            0.,NA,NA,"",   1.19712E+06,   1.21171E+06,   1.21171E+06
C:/temp/Job-20.odb,Step-1,Increment      1: Step Time =    1.000,"P-20-1",           613,       20.2579,       194.682,            0.,NA,NA,"",   1.06064E+06,   1.06616E+06,   1.06616E+06
C:/temp/Job-20.odb,Step-1,Increment      1: Step Time =    1.000,"P-20-1",           614,       30.3033,       194.817,            0.,NA,NA,"",   1.00234E+06,   1.00474E+06,   1.00474E+06
C:/temp/Job-20.odb,Step-1,Increment      1: Step Time =    1.000,"P-20-1",           615,       40.4582,       194.741,            0.,NA,NA,"",   974.144E+03,   975.302E+03,   975.302E+03
C:/temp/Job-20.odb,Step-1,Increment      1: Step Time =    1.000,"P-20-1",           616,       50.3500,       195.356,            0.,NA,NA,"",   957.683E+03,   958.273E+03,   958.273E+03
C:/temp/Job-20.odb,Step-1,Increment      1: Step Time =    1.000,"P-20-1",           617,       60.1029,       195.271,            0.,NA,NA,"",   950.804E+03,   951.038E+03,   951.038E+03
C:/temp/Job-20.odb,Step-1,Increment      1: Step Time =    1.000,"P-20-1",           618,       70.0244,       195.134,            0.,NA,NA,"",   947.357E+03,   947.549E+03,   947.549E+03
C:/temp/Job-20.odb,Step-1,Increment      1: Step Time =    1.000,"P-20-1",           619,       80.0274,       195.043,            0.,NA,NA,"",   946.061E+03,   946.267E+03,   946.267E+03
C:/temp/Job-20.odb,Step-1,Increment      1: Step Time =    1.000,"P-20-1",           620,       90.0210,       194.960,            0.,NA,NA,"",   947.097E+03,   947.352E+03,   947.352E+03
C:/temp/Job-20.odb,Step-1,Increment      1: Step Time =    1.000,"P-20-1",           621,       100.015,       194.917,            0.,NA,NA,"",   950.678E+03,   950.939E+03,   950.939E+03
C:/temp/Job-20.odb,Step-1,Increment      1: Step Time =    1.000,"P-20-1",           622,       110.045,       194.935,            0.,NA,NA,"",   956.772E+03,   956.958E+03,   956.958E+03
C:/temp/Job-20.odb,Step-1,Increment      1: Step Time =    1.000,"P-20-1",           623,       120.067,       195.009,            0.,NA,NA,"",   964.744E+03,   964.793E+03,   964.793E+03
C:/temp/Job-20.odb,Step-1,Increment      1: Step Time =    1.000,"P-20-1",           624,       130.029,       195.081,            0.,NA,NA,"",   973.410E+03,   973.335E+03,   973.335E+03
C:/temp/Job-20.odb,Step-1,Increment      1: Step Time =    1.000,"P-20-1",           625,       139.955,       195.098,            0.,NA,NA,"",   981.567E+03,   981.413E+03,   981.413E+03
C:/temp/Job-20.odb,Step-1,Increment      1: Step Time =    1.000,"P-20-1",           626,       149.883,       195.106,            0.,NA,NA,"",   988.314E+03,   988.132E+03,   988.132E+03
C:/temp/Job-20.odb,Step-1,Increment      1: Step Time =    1.000,"P-20-1",           627,       159.764,       195.165,            0.,NA,NA,"",   993.290E+03,   993.128E+03,   993.128E+03
C:/temp/Job-20.odb,Step-1,Increment      1: Step Time =    1.000,"P-20-1",           628,       169.659,       195.144,            0.,NA,NA,"",   996.680E+03,   996.548E+03,   996.548E+03
C:/temp/Job-20.odb,Step-1,Increment      1: Step Time =    1.000,"P-20-1",           629,       179.733,       194.826,            0.,NA,NA,"",   998.730E+03,   998.623E+03,   998.623E+03
C:/temp/Job-20.odb,Step-1,Increment      1: Step Time =    1.000,"P-20-1",           630,       189.855,       194.819,            0.,NA,NA,"",   999.757E+03,   999.666E+03,   999.666E+03
C:/temp/Job-20.odb,Step-1,Increment      1: Step Time =    1.000,"P-20-1",           631,       5.94994,       20.7293,            0.,NA,NA,"",   992.190E+03,   1.08090E+06,   1.08090E+06
C:/temp/Job-20.odb,Step-1,Increment      1: Step Time =    1.000,"P-20-1",           632,       5.03626,       30.8127,            0.,NA,NA,"",   924.131E+03,   1.02082E+06,   1.02082E+06
C:/temp/Job-20.odb,Step-1,Increment      1: Step Time =    1.000,"P-20-1",           633,       4.26705,       40.6020,            0.,NA,NA,"",   886.615E+03,   986.940E+03,   986.940E+03
C:/temp/Job-20.odb,Step-1,Increment      1: Step Time =    1.000,"P-20-1",           634,       4.34699,       50.2702,            0.,NA,NA,"",   863.306E+03,   964.618E+03,   964.618E+03
C:/temp/Job-20.odb,Step-1,Increment      1: Step Time =    1.000,"P-20-1",           635,       4.59181,       60.0872,            0.,NA,NA,"",   847.160E+03,   948.670E+03,   948.670E+03
C:/temp/Job-20.odb,Step-1,Increment      1: Step Time =    1.000,"P-20-1",           636,       4.74270,       70.0634,            0.,NA,NA,"",   834.097E+03,   935.709E+03,   935.709E+03
C:/temp/Job-20.odb,Step-1,Increment      1: Step Time =    1.000,"P-20-1",           637,       5.08666,       80.0611,            0.,NA,NA,"",   824.692E+03,   926.148E+03,   926.148E+03
C:/temp/Job-20.odb,Step-1,Increment      1: Step Time =    1.000,"P-20-1",           638,       5.20912,       90.0302,            0.,NA,NA,"",   818.604E+03,   919.993E+03,   919.993E+03
C:/temp/Job-20.odb,Step-1,Increment      1: Step Time =    1.000,"P-20-1",           639,       5.09838,       100.070,            0.,NA,NA,"",   816.142E+03,   917.622E+03,   917.622E+03
C:/temp/Job-20.odb,Step-1,Increment      1: Step Time =    1.000,"P-20-1",           640,       5.01681,       110.055,            0.,NA,NA,"",   818.097E+03,   919.653E+03,   919.653E+03
C:/temp/Job-20.odb,Step-1,Increment      1: Step Time =    1.000,"P-20-1",           641,       4.94301,       120.036,            0.,NA,NA,"",   824.316E+03,   925.884E+03,   925.884E+03
C:/temp/Job-20.odb,Step-1,Increment      1: Step Time =    1.000,"P-20-1",           642,       4.87407,       129.997,            0.,NA,NA,"",   834.319E+03,   935.804E+03,   935.804E+03
C:/temp/Job-20.odb,Step-1,Increment      1: Step Time =    1.000,"P-20-1",           643,       4.83420,       139.916,            0.,NA,NA,"",   847.820E+03,   949.017E+03,   949.017E+03
C:/temp/Job-20.odb,Step-1,Increment      1: Step Time =    1.000,"P-20-1",           644,       4.78715,       149.779,            0.,NA,NA,"",   865.263E+03,   965.880E+03,   965.880E+03
C:/temp/Job-20.odb,Step-1,Increment      1: Step Time =    1.000,"P-20-1",           645,       4.75438,       159.625,            0.,NA,NA,"",   888.980E+03,   988.396E+03,   988.396E+03
C:/temp/Job-20.odb,Step-1,Increment      1: Step Time =    1.000,"P-20-1",           646,       4.92719,       169.514,            0.,NA,NA,"",   925.382E+03,   1.02220E+06,   1.02220E+06
C:/temp/Job-20.odb,Step-1,Increment      1: Step Time =    1.000,"P-20-1",           647,       5.11209,       179.610,            0.,NA,NA,"",   989.763E+03,   1.08126E+06,   1.08126E+06
C:/temp/Job-20.odb,Step-1,Increment      1: Step Time =    1.000,"P-20-1",           648,       5.15907,       189.784,            0.,NA,NA,"",   1.13905E+06,   1.21517E+06,   1.21517E+06
C:/temp/Job-20.odb,Step-1,Increment      1: Step Time =    1.000,"P-20-1",           649,       140.145,       9.58368,            0.,NA,NA,"",   985.957E+03,   985.522E+03,   985.522E+03
C:/temp/Job-20.odb,Step-1,Increment      1: Step Time =    1.000,"P-20-1",           650,       130.159,       9.84657,            0.,NA,NA,"",   979.636E+03,   979.409E+03,   979.409E+03
C:/temp/Job-20.odb,Step-1,Increment      1: Step Time =    1.000,"P-20-1",           651,       120.009,       9.88046,            0.,NA,NA,"",   972.508E+03,   972.678E+03,   972.678E+03
C:/temp/Job-20.odb,Step-1,Increment      1: Step Time =    1.000,"P-20-1",           652,       109.922,       10.0126,            0.,NA,NA,"",   966.218E+03,   966.747E+03,   966.747E+03
C:/temp/Job-20.odb,Step-1,Increment      1: Step Time =    1.000,"P-20-1",           653,       99.8365,       10.0614,            0.,NA,NA,"",   961.706E+03,   962.453E+03,   962.453E+03
C:/temp/Job-20.odb,Step-1,Increment      1: Step Time =    1.000,"P-20-1",           654,       89.7410,       9.98052,            0.,NA,NA,"",   959.497E+03,   960.265E+03,   960.265E+03
C:/temp/Job-20.odb,Step-1,Increment      1: Step Time =    1.000,"P-20-1",           655,       79.7070,       9.88655,            0.,NA,NA,"",   959.960E+03,   960.615E+03,   960.615E+03
C:/temp/Job-20.odb,Step-1,Increment      1: Step Time =    1.000,"P-20-1",           656,       69.8272,       9.84549,            0.,NA,NA,"",   963.022E+03,   963.649E+03,   963.649E+03
C:/temp/Job-20.odb,Step-1,Increment      1: Step Time =    1.000,"P-20-1",           657,       60.0219,       9.83984,            0.,NA,NA,"",   968.789E+03,   969.703E+03,   969.703E+03
C:/temp/Job-20.odb,Step-1,Increment      1: Step Time =    1.000,"P-20-1",           658,       190.898,       139.878,            0.,NA,NA,"",   1.00058E+06,   1.00072E+06,   1.00072E+06
C:/temp/Job-20.odb,Step-1,Increment      1: Step Time =    1.000,"P-20-1",           659,       190.360,       130.188,            0.,NA,NA,"",   998.719E+03,   1.00031E+06,   1.00031E+06
C:/temp/Job-20.odb,Step-1,Increment      1: Step Time =    1.000,"P-20-1",           660,       189.577,       120.197,            0.,NA,NA,"",   996.287E+03,   999.442E+03,   999.442E+03
C:/temp/Job-20.odb,Step-1,Increment      1: Step Time =    1.000,"P-20-1",           661,       189.890,       99.7019,            0.,NA,NA,"",   993.231E+03,   998.398E+03,   998.398E+03
C:/temp/Job-20.odb,Step-1,Increment      1: Step Time =    1.000,"P-20-1",           662,       189.984,       89.7401,            0.,NA,NA,"",   994.068E+03,   998.739E+03,   998.739E+03
C:/temp/Job-20.odb,Step-1,Increment      1: Step Time =    1.000,"P-20-1",           663,       190.044,       79.8021,            0.,NA,NA,"",   996.147E+03,   999.486E+03,   999.486E+03
C:/temp/Job-20.odb,Step-1,Increment      1: Step Time =    1.000,"P-20-1",           664,       190.133,       69.9455,            0.,NA,NA,"",   998.598E+03,   1.00027E+06,   1.00027E+06
C:/temp/Job-20.odb,Step-1,Increment      1: Step Time =    1.000,"P-20-1",           665,       190.222,       60.1762,            0.,NA,NA,"",   1.00062E+06,   1.00079E+06,   1.00079E+06
C:/temp/Job-20.odb,Step-1,Increment      1: Step Time =    1.000,"P-20-1",           666,       60.1402,       190.408,            0.,NA,NA,"",   968.126E+03,   968.933E+03,   968.933E+03
C:/temp/Job-20.odb,Step-1,Increment      1: Step Time =    1.000,"P-20-1",           667,       70.0491,       190.241,            0.,NA,NA,"",   963.013E+03,   963.623E+03,   963.623E+03
C:/temp/Job-20.odb,Step-1,Increment      1: Step Time =    1.000,"P-20-1",           668,       80.0519,       190.086,            0.,NA,NA,"",   960.199E+03,   960.850E+03,   960.850E+03
C:/temp/Job-20.odb,Step-1,Increment      1: Step Time =    1.000,"P-20-1",           669,       90.0406,       189.896,            0.,NA,NA,"",   960.004E+03,   960.771E+03,   960.771E+03
C:/temp/Job-20.odb,Step-1,Increment      1: Step Time =    1.000,"P-20-1",           670,       100.039,       189.811,            0.,NA,NA,"",   962.173E+03,   962.944E+03,   962.944E+03
C:/temp/Job-20.odb,Step-1,Increment      1: Step Time =    1.000,"P-20-1",           671,       110.120,       189.864,            0.,NA,NA,"",   966.626E+03,   967.172E+03,   967.172E+03
C:/temp/Job-20.odb,Step-1,Increment      1: Step Time =    1.000,"P-20-1",           672,       120.168,       190.003,            0.,NA,NA,"",   972.791E+03,   972.942E+03,   972.942E+03
C:/temp/Job-20.odb,Step-1,Increment      1: Step Time =    1.000,"P-20-1",           673,       9.21952,       60.1408,            0.,NA,NA,"",   862.100E+03,   957.964E+03,   957.964E+03
C:/temp/Job-20.odb,Step-1,Increment      1: Step Time =    1.000,"P-20-1",           674,       9.43917,       70.0250,            0.,NA,NA,"",   847.633E+03,   944.361E+03,   944.361E+03
C:/temp/Job-20.odb,Step-1,Increment      1: Step Time =    1.000,"P-20-1",           675,       10.2758,       79.9767,            0.,NA,NA,"",   838.296E+03,   934.869E+03,   934.869E+03
C:/temp/Job-20.odb,Step-1,Increment      1: Step Time =    1.000,"P-20-1",           676,       10.5004,       90.1445,            0.,NA,NA,"",   831.074E+03,   927.899E+03,   927.899E+03
C:/temp/Job-20.odb,Step-1,Increment      1: Step Time =    1.000,"P-20-1",           677,       10.2333,       100.204,            0.,NA,NA,"",   827.653E+03,   924.984E+03,   924.984E+03
C:/temp/Job-20.odb,Step-1,Increment      1: Step Time =    1.000,"P-20-1",           678,       10.0734,       110.150,            0.,NA,NA,"",   829.947E+03,   927.244E+03,   927.244E+03
C:/temp/Job-20.odb,Step-1,Increment      1: Step Time =    1.000,"P-20-1",           679,       9.88276,       120.088,            0.,NA,NA,"",   837.035E+03,   934.043E+03,   934.043E+03
C:/temp/Job-20.odb,Step-1,Increment      1: Step Time =    1.000,"P-20-1",           680,       9.73319,       129.992,            0.,NA,NA,"",   848.333E+03,   944.712E+03,   944.712E+03
C:/temp/Job-20.odb,Step-1,Increment      1: Step Time =    1.000,"P-20-1",           681,       9.68896,       139.816,            0.,NA,NA,"",   863.488E+03,   958.732E+03,   958.732E+03
C:/temp/Job-20.odb,Step-1,Increment      1: Step Time =    1.000,"P-20-1",           682,       189.492,       109.848,            0.,NA,NA,"",   994.037E+03,   998.571E+03,   998.571E+03
C:/temp/Job-20.odb,Step-1,Increment      1: Step Time =    1.000,"P-20-1",           683,       130.070,       190.130,            0.,NA,NA,"",   979.514E+03,   979.309E+03,   979.309E+03
C:/temp/Job-20.odb,Step-1,Increment      1: Step Time =    1.000,"P-20-1",           684,       139.912,       190.155,            0.,NA,NA,"",   985.856E+03,   985.418E+03,   985.418E+03
C:/temp/Job-20.odb,Step-1,Increment      1: Step Time =    1.000,"P-20-1",           685,       9.57097,       164.096,            0.,NA,NA,"",   924.743E+03,   1.01349E+06,   1.01349E+06
C:/temp/Job-20.odb,Step-1,Increment      1: Step Time =    1.000,"P-20-1",           686,       163.977,       9.93486,            0.,NA,NA,"",   996.172E+03,   995.737E+03,   995.737E+03
C:/temp/Job-20.odb,Step-1,Increment      1: Step Time =    1.000,"P-20-1",           687,       35.6586,       9.46758,            0.,NA,NA,"",   1.00593E+06,   1.00989E+06,   1.00989E+06
C:/temp/Job-20.odb,Step-1,Increment      1: Step Time =    1.000,"P-20-1",           688,       9.11258,       36.8157,            0.,NA,NA,"",   918.580E+03,   1.00916E+06,   1.00916E+06
C:/temp/Job-20.odb,Step-1,Increment      1: Step Time =    1.000,"P-20-1",           689,       189.399,       164.363,            0.,NA,NA,"",   1.00201E+06,   1.00070E+06,   1.00070E+06
C:/temp/Job-20.odb,Step-1,Increment      1: Step Time =    1.000,"P-20-1",           690,       164.413,       190.434,            0.,NA,NA,"",   996.096E+03,   995.685E+03,   995.685E+03
C:/temp/Job-20.odb,Step-1,Increment      1: Step Time =    1.000,"P-20-1",           691,       35.6077,       189.631,            0.,NA,NA,"",   1.00951E+06,   1.01408E+06,   1.01408E+06
C:/temp/Job-20.odb,Step-1,Increment      1: Step Time =    1.000,"P-20-1",           692,       190.467,       35.9942,            0.,NA,NA,"",   1.00181E+06,   1.00060E+06,   1.00060E+06
C:/temp/Job-20.odb,Step-1,Increment      1: Step Time =    1.000,"P-20-1",           693,       59.9805,       14.8745,            0.,NA,NA,"",   984.075E+03,   986.126E+03,   986.126E+03
C:/temp/Job-20.odb,Step-1,Increment      1: Step Time =    1.000,"P-20-1",           694,       13.7927,       60.2532,            0.,NA,NA,"",   876.949E+03,   966.643E+03,   966.643E+03
C:/temp/Job-20.odb,Step-1,Increment      1: Step Time =    1.000,"P-20-1",           695,       185.257,       60.2479,            0.,NA,NA,"",   1.00214E+06,   1.00162E+06,   1.00162E+06
C:/temp/Job-20.odb,Step-1,Increment      1: Step Time =    1.000,"P-20-1",           696,       60.0864,       185.329,            0.,NA,NA,"",   983.819E+03,   985.717E+03,   985.717E+03
C:/temp/Job-20.odb,Step-1,Increment      1: Step Time =    1.000,"P-20-1",           697,       140.334,       14.3374,            0.,NA,NA,"",   990.991E+03,   990.088E+03,   990.088E+03
C:/temp/Job-20.odb,Step-1,Increment      1: Step Time =    1.000,"P-20-1",           698,       14.5057,       139.657,            0.,NA,NA,"",   879.230E+03,   967.869E+03,   967.869E+03
C:/temp/Job-20.odb,Step-1,Increment      1: Step Time =    1.000,"P-20-1",           699,       186.275,       139.959,            0.,NA,NA,"",   1.00197E+06,   1.00149E+06,   1.00149E+06
C:/temp/Job-20.odb,Step-1,Increment      1: Step Time =    1.000,"P-20-1",           700,       139.867,       185.215,            0.,NA,NA,"",   990.793E+03,   989.927E+03,   989.927E+03
C:/temp/Job-20.odb,Step-1,Increment      1: Step Time =    1.000,"P-20-1",           701,       14.0932,       163.442,            0.,NA,NA,"",   942.287E+03,   1.02109E+06,   1.02109E+06
C:/temp/Job-20.odb,Step-1,Increment      1: Step Time =    1.000,"P-20-1",           702,       163.728,       14.6713,            0.,NA,NA,"",   997.923E+03,   997.056E+03,   997.056E+03
C:/temp/Job-20.odb,Step-1,Increment      1: Step Time =    1.000,"P-20-1",           703,       35.9662,       13.9546,            0.,NA,NA,"",   1.01801E+06,   1.02598E+06,   1.02598E+06
C:/temp/Job-20.odb,Step-1,Increment      1: Step Time =    1.000,"P-20-1",           704,       13.6260,       38.3307,            0.,NA,NA,"",   932.337E+03,   1.01410E+06,   1.01410E+06
C:/temp/Job-20.odb,Step-1,Increment      1: Step Time =    1.000,"P-20-1",           705,       184.443,       164.888,            0.,NA,NA,"",   1.00280E+06,   1.00129E+06,   1.00129E+06
C:/temp/Job-20.odb,Step-1,Increment      1: Step Time =    1.000,"P-20-1",           706,       164.293,       185.828,            0.,NA,NA,"",   997.717E+03,   996.918E+03,   996.918E+03
C:/temp/Job-20.odb,Step-1,Increment      1: Step Time =    1.000,"P-20-1",           707,       35.3330,       184.748,            0.,NA,NA,"",   1.02167E+06,   1.03116E+06,   1.03116E+06
C:/temp/Job-20.odb,Step-1,Increment      1: Step Time =    1.000,"P-20-1",           708,       185.883,       36.5075,            0.,NA,NA,"",   1.00261E+06,   1.00120E+06,   1.00120E+06
C:/temp/Job-20.odb,Step-1,Increment      1: Step Time =    1.000,"P-20-1",           709,       130.243,       14.8181,            0.,NA,NA,"",   986.007E+03,   985.573E+03,   985.573E+03
C:/temp/Job-20.odb,Step-1,Increment      1: Step Time =    1.000,"P-20-1",           710,       14.5278,       129.980,            0.,NA,NA,"",   862.534E+03,   953.231E+03,   953.231E+03
C:/temp/Job-20.odb,Step-1,Increment      1: Step Time =    1.000,"P-20-1",           711,       14.0275,       69.8593,            0.,NA,NA,"",   861.308E+03,   952.676E+03,   952.676E+03
C:/temp/Job-20.odb,Step-1,Increment      1: Step Time =    1.000,"P-20-1",           712,       69.7067,       14.8677,            0.,NA,NA,"",   977.268E+03,   978.675E+03,   978.675E+03
C:/temp/Job-20.odb,Step-1,Increment      1: Step Time =    1.000,"P-20-1",           713,       185.545,       130.471,            0.,NA,NA,"",   999.956E+03,   1.00063E+06,   1.00063E+06
C:/temp/Job-20.odb,Step-1,Increment      1: Step Time =    1.000,"P-20-1",           714,       70.1294,       185.342,            0.,NA,NA,"",   976.736E+03,   978.062E+03,   978.062E+03
C:/temp/Job-20.odb,Step-1,Increment      1: Step Time =    1.000,"P-20-1",           715,       185.110,       69.9122,            0.,NA,NA,"",   999.844E+03,   1.00056E+06,   1.00056E+06
C:/temp/Job-20.odb,Step-1,Increment      1: Step Time =    1.000,"P-20-1",           716,       130.123,       185.157,            0.,NA,NA,"",   985.864E+03,   985.462E+03,   985.462E+03
C:/temp/Job-20.odb,Step-1,Increment      1: Step Time =    1.000,"P-20-1",           717,       15.4356,       79.4941,            0.,NA,NA,"",   852.504E+03,   943.619E+03,   943.619E+03
C:/temp/Job-20.odb,Step-1,Increment      1: Step Time =    1.000,"P-20-1",           718,       120.009,       14.7641,            0.,NA,NA,"",   979.907E+03,   980.256E+03,   980.256E+03
C:/temp/Job-20.odb,Step-1,Increment      1: Step Time =    1.000,"P-20-1",           719,       79.4945,       14.8560,            0.,NA,NA,"",   972.744E+03,   974.153E+03,   974.153E+03
C:/temp/Job-20.odb,Step-1,Increment      1: Step Time =    1.000,"P-20-1",           720,       14.8094,       120.174,            0.,NA,NA,"",   850.159E+03,   941.980E+03,   941.980E+03
C:/temp/Job-20.odb,Step-1,Increment      1: Step Time =    1.000,"P-20-1",           721,       184.336,       120.663,            0.,NA,NA,"",   997.167E+03,   999.060E+03,   999.060E+03
C:/temp/Job-20.odb,Step-1,Increment      1: Step Time =    1.000,"P-20-1",           722,       80.0817,       185.125,            0.,NA,NA,"",   972.773E+03,   974.169E+03,   974.169E+03
C:/temp/Job-20.odb,Step-1,Increment      1: Step Time =    1.000,"P-20-1",           723,       184.991,       79.6862,            0.,NA,NA,"",   996.817E+03,   998.979E+03,   998.979E+03
C:/temp/Job-20.odb,Step-1,Increment      1: Step Time =    1.000,"P-20-1",           724,       120.309,       184.974,            0.,NA,NA,"",   980.489E+03,   980.799E+03,   980.799E+03
C:/temp/Job-20.odb,Step-1,Increment      1: Step Time =    1.000,"P-20-1",           725,       15.7204,       90.5609,            0.,NA,NA,"",   843.372E+03,   935.089E+03,   935.089E+03
C:/temp/Job-20.odb,Step-1,Increment      1: Step Time =    1.000,"P-20-1",           726,       109.892,       15.0477,            0.,NA,NA,"",   974.921E+03,   976.029E+03,   976.029E+03
C:/temp/Job-20.odb,Step-1,Increment      1: Step Time =    1.000,"P-20-1",           727,       89.5214,       14.9502,            0.,NA,NA,"",   970.794E+03,   972.387E+03,   972.387E+03
C:/temp/Job-20.odb,Step-1,Increment      1: Step Time =    1.000,"P-20-1",           728,       15.2006,       110.313,            0.,NA,NA,"",   842.412E+03,   934.721E+03,   934.721E+03
C:/temp/Job-20.odb,Step-1,Increment      1: Step Time =    1.000,"P-20-1",           729,       184.345,       109.355,            0.,NA,NA,"",   993.810E+03,   997.149E+03,   997.149E+03
C:/temp/Job-20.odb,Step-1,Increment      1: Step Time =    1.000,"P-20-1",           730,       90.0595,       184.774,            0.,NA,NA,"",   971.450E+03,   973.067E+03,   973.067E+03
C:/temp/Job-20.odb,Step-1,Increment      1: Step Time =    1.000,"P-20-1",           731,       184.941,       89.5628,            0.,NA,NA,"",   994.078E+03,   997.470E+03,   997.470E+03
C:/temp/Job-20.odb,Step-1,Increment      1: Step Time =    1.000,"P-20-1",           732,       110.238,       184.770,            0.,NA,NA,"",   975.521E+03,   976.642E+03,   976.642E+03
C:/temp/Job-20.odb,Step-1,Increment      1: Step Time =    1.000,"P-20-1",           733,       99.6821,       15.1150,            0.,NA,NA,"",   971.675E+03,   973.235E+03,   973.235E+03
C:/temp/Job-20.odb,Step-1,Increment      1: Step Time =    1.000,"P-20-1",           734,       15.4827,       100.391,            0.,NA,NA,"",   839.701E+03,   932.141E+03,   932.141E+03
C:/temp/Job-20.odb,Step-1,Increment      1: Step Time =    1.000,"P-20-1",           735,       184.879,       99.4116,            0.,NA,NA,"",   992.887E+03,   996.787E+03,   996.787E+03
C:/temp/Job-20.odb,Step-1,Increment      1: Step Time =    1.000,"P-20-1",           736,       100.087,       184.645,            0.,NA,NA,"",   972.319E+03,   973.929E+03,   973.929E+03
C:/temp/Job-20.odb,Step-1,Increment      1: Step Time =    1.000,"P-20-1",           737,       13.7780,       65.1022,            0.,NA,NA,"",   868.211E+03,   958.992E+03,   958.992E+03
C:/temp/Job-20.odb,Step-1,Increment      1: Step Time =    1.000,"P-20-1",           738,       64.8369,       14.8793,            0.,NA,NA,"",   980.329E+03,   981.968E+03,   981.968E+03
C:/temp/Job-20.odb,Step-1,Increment      1: Step Time =    1.000,"P-20-1",           739,       185.190,       65.0783,            0.,NA,NA,"",   1.00114E+06,   1.00118E+06,   1.00118E+06
C:/temp/Job-20.odb,Step-1,Increment      1: Step Time =    1.000,"P-20-1",           740,       65.1242,       185.335,            0.,NA,NA,"",   979.889E+03,   981.455E+03,   981.455E+03
C:/temp/Job-20.odb,Step-1,Increment      1: Step Time =    1.000,"P-20-1",           741,       14.4605,       134.822,            0.,NA,NA,"",   870.374E+03,   960.177E+03,   960.177E+03
C:/temp/Job-20.odb,Step-1,Increment      1: Step Time =    1.000,"P-20-1",           742,       135.364,       14.8057,            0.,NA,NA,"",   988.680E+03,   987.955E+03,   987.955E+03
C:/temp/Job-20.odb,Step-1,Increment      1: Step Time =    1.000,"P-20-1",           743,       185.989,       135.237,            0.,NA,NA,"",   1.00111E+06,   1.00116E+06,   1.00116E+06
C:/temp/Job-20.odb,Step-1,Increment      1: Step Time =    1.000,"P-20-1",           744,       134.986,       185.214,            0.,NA,NA,"",   988.424E+03,   987.757E+03,   987.757E+03
C:/temp/Job-20.odb,Step-1,Increment      1: Step Time =    1.000,"P-20-1",           745,       168.129,       19.0889,            0.,NA,NA,"",   1.00027E+06,   999.063E+03,   999.063E+03
C:/temp/Job-20.odb,Step-1,Increment      1: Step Time =    1.000,"P-20-1",           746,       15.3798,       167.868,            0.,NA,NA,"",   964.854E+03,   1.03710E+06,   1.03710E+06
C:/temp/Job-20.odb,Step-1,Increment      1: Step Time =    1.000,"P-20-1",           747,       14.6672,       33.8187,            0.,NA,NA,"",   954.594E+03,   1.03052E+06,   1.03052E+06
C:/temp/Job-20.odb,Step-1,Increment      1: Step Time =    1.000,"P-20-1",           748,       31.0849,       14.0469,            0.,NA,NA,"",   1.03252E+06,   1.04329E+06,   1.04329E+06
C:/temp/Job-20.odb,Step-1,Increment      1: Step Time =    1.000,"P-20-1",           749,       180.624,       169.912,            0.,NA,NA,"",   1.00266E+06,   1.00115E+06,   1.00115E+06
C:/temp/Job-20.odb,Step-1,Increment      1: Step Time =    1.000,"P-20-1",           750,       168.891,       186.146,            0.,NA,NA,"",   998.308E+03,   997.627E+03,   997.627E+03
C:/temp/Job-20.odb,Step-1,Increment      1: Step Time =    1.000,"P-20-1",           751,       185.758,       31.9275,            0.,NA,NA,"",   1.00213E+06,   1.00085E+06,   1.00085E+06
C:/temp/Job-20.odb,Step-1,Increment      1: Step Time =    1.000,"P-20-1",           752,       30.9173,       184.961,            0.,NA,NA,"",   1.03381E+06,   1.04578E+06,   1.04578E+06
C:/temp/Job-20.odb,Step-1,Increment      1: Step Time =    1.000,"P-20-1",           753,       14.5566,       74.5882,            0.,NA,NA,"",   856.092E+03,   947.591E+03,   947.591E+03
C:/temp/Job-20.odb,Step-1,Increment      1: Step Time =    1.000,"P-20-1",           754,       74.5762,       14.8598,            0.,NA,NA,"",   974.713E+03,   976.073E+03,   976.073E+03
C:/temp/Job-20.odb,Step-1,Increment      1: Step Time =    1.000,"P-20-1",           755,       14.6313,       125.080,            0.,NA,NA,"",   855.788E+03,   947.143E+03,   947.143E+03
C:/temp/Job-20.odb,Step-1,Increment      1: Step Time =    1.000,"P-20-1",           756,       125.087,       14.7318,            0.,NA,NA,"",   982.922E+03,   982.869E+03,   982.869E+03
C:/temp/Job-20.odb,Step-1,Increment      1: Step Time =    1.000,"P-20-1",           757,       185.008,       125.651,            0.,NA,NA,"",   998.653E+03,   999.954E+03,   999.954E+03
C:/temp/Job-20.odb,Step-1,Increment      1: Step Time =    1.000,"P-20-1",           758,       185.042,       74.7891,            0.,NA,NA,"",   998.388E+03,   999.816E+03,   999.816E+03
C:/temp/Job-20.odb,Step-1,Increment      1: Step Time =    1.000,"P-20-1",           759,       75.1268,       185.260,            0.,NA,NA,"",   974.365E+03,   975.684E+03,   975.684E+03
C:/temp/Job-20.odb,Step-1,Increment      1: Step Time =    1.000,"P-20-1",           760,       125.241,       185.077,            0.,NA,NA,"",   983.188E+03,   983.118E+03,   983.118E+03
C:/temp/Job-20.odb,Step-1,Increment      1: Step Time =    1.000,"P-20-1",           761,       84.4689,       14.8895,            0.,NA,NA,"",   971.417E+03,   972.920E+03,   972.920E+03
C:/temp/Job-20.odb,Step-1,Increment      1: Step Time =    1.000,"P-20-1",           762,       15.0012,       115.258,            0.,NA,NA,"",   845.701E+03,   937.826E+03,   937.826E+03
C:/temp/Job-20.odb,Step-1,Increment      1: Step Time =    1.000,"P-20-1",           763,       16.8759,       85.0482,            0.,NA,NA,"",   850.759E+03,   940.751E+03,   940.751E+03
C:/temp/Job-20.odb,Step-1,Increment      1: Step Time =    1.000,"P-20-1",           764,       114.956,       14.9052,            0.,NA,NA,"",   977.224E+03,   977.980E+03,   977.980E+03
C:/temp/Job-20.odb,Step-1,Increment      1: Step Time =    1.000,"P-20-1",           765,       184.955,       84.6148,            0.,NA,NA,"",   995.329E+03,   998.171E+03,   998.171E+03
C:/temp/Job-20.odb,Step-1,Increment      1: Step Time =    1.000,"P-20-1",           766,       115.302,       184.865,            0.,NA,NA,"",   977.887E+03,   978.607E+03,   978.607E+03
C:/temp/Job-20.odb,Step-1,Increment      1: Step Time =    1.000,"P-20-1",           767,       183.152,       114.991,            0.,NA,NA,"",   995.177E+03,   997.632E+03,   997.632E+03
C:/temp/Job-20.odb,Step-1,Increment      1: Step Time =    1.000,"P-20-1",           768,       85.0731,       184.939,            0.,NA,NA,"",   971.787E+03,   973.316E+03,   973.316E+03
C:/temp/Job-20.odb,Step-1,Increment      1: Step Time =    1.000,"P-20-1",           769,       94.5810,       15.0403,            0.,NA,NA,"",   970.865E+03,   972.494E+03,   972.494E+03
C:/temp/Job-20.odb,Step-1,Increment      1: Step Time =    1.000,"P-20-1",           770,       15.3923,       105.354,            0.,NA,NA,"",   840.408E+03,   932.802E+03,   932.802E+03
C:/temp/Job-20.odb,Step-1,Increment      1: Step Time =    1.000,"P-20-1",           771,       184.921,       94.4862,            0.,NA,NA,"",   993.220E+03,   996.989E+03,   996.989E+03
C:/temp/Job-20.odb,Step-1,Increment      1: Step Time =    1.000,"P-20-1",           772,       105.162,       184.682,            0.,NA,NA,"",   973.609E+03,   975.044E+03,   975.044E+03
C:/temp/Job-20.odb,Step-1,Increment      1: Step Time =    1.000,"P-20-1",           773,       104.776,       15.1357,            0.,NA,NA,"",   973.061E+03,   974.441E+03,   974.441E+03
C:/temp/Job-20.odb,Step-1,Increment      1: Step Time =    1.000,"P-20-1",           774,       15.5412,       95.5289,            0.,NA,NA,"",   840.291E+03,   932.662E+03,   932.662E+03
C:/temp/Job-20.odb,Step-1,Increment      1: Step Time =    1.000,"P-20-1",           775,       184.733,       104.303,            0.,NA,NA,"",   993.086E+03,   996.866E+03,   996.866E+03
C:/temp/Job-20.odb,Step-1,Increment      1: Step Time =    1.000,"P-20-1",           776,       95.0768,       184.660,            0.,NA,NA,"",   971.623E+03,   973.283E+03,   973.283E+03
C:/temp/Job-20.odb,Step-1,Increment      1: Step Time =    1.000,"P-20-1",           777,       109.891,       20.1332,            0.,NA,NA,"",   982.835E+03,   984.755E+03,   984.755E+03
C:/temp/Job-20.odb,Step-1,Increment      1: Step Time =    1.000,"P-20-1",           778,       20.4981,       91.3984,            0.,NA,NA,"",   854.779E+03,    941.24E+03,    941.24E+03
C:/temp/Job-20.odb,Step-1,Increment      1: Step Time =    1.000,"P-20-1",           779,       179.481,       108.208,            0.,NA,NA,"",   992.660E+03,   995.195E+03,   995.195E+03
C:/temp/Job-20.odb,Step-1,Increment      1: Step Time =    1.000,"P-20-1",           780,       90.0617,       179.537,            0.,NA,NA,"",   981.543E+03,   984.386E+03,   984.386E+03
C:/temp/Job-20.odb,Step-1,Increment      1: Step Time =    1.000,"P-20-1",           781,       99.4234,       20.2013,            0.,NA,NA,"",   980.385E+03,   983.086E+03,   983.086E+03
C:/temp/Job-20.odb,Step-1,Increment      1: Step Time =    1.000,"P-20-1",           782,       21.0308,       100.571,            0.,NA,NA,"",   852.524E+03,   939.063E+03,   939.063E+03
C:/temp/Job-20.odb,Step-1,Increment      1: Step Time =    1.000,"P-20-1",           783,       179.824,       99.0517,            0.,NA,NA,"",   991.626E+03,   994.607E+03,   994.607E+03
C:/temp/Job-20.odb,Step-1,Increment      1: Step Time =    1.000,"P-20-1",           784,       100.188,       179.374,            0.,NA,NA,"",   981.259E+03,   984.060E+03,   984.060E+03
C:/temp/Job-20.odb,Step-1,Increment      1: Step Time =    1.000,"P-20-1",           785,       18.2724,       60.5679,            0.,NA,NA,"",   891.410E+03,   974.579E+03,   974.579E+03
C:/temp/Job-20.odb,Step-1,Increment      1: Step Time =    1.000,"P-20-1",           786,       59.8772,       19.9722,            0.,NA,NA,"",   996.411E+03,   1.00013E+06,   1.00013E+06
C:/temp/Job-20.odb,Step-1,Increment      1: Step Time =    1.000,"P-20-1",           787,       60.1219,       180.187,            0.,NA,NA,"",   996.144E+03,    999.64E+03,    999.64E+03
C:/temp/Job-20.odb,Step-1,Increment      1: Step Time =    1.000,"P-20-1",           788,       180.295,       60.3022,            0.,NA,NA,"",   1.00413E+06,   1.00272E+06,   1.00272E+06
C:/temp/Job-20.odb,Step-1,Increment      1: Step Time =    1.000,"P-20-1",           789,       140.459,       18.2685,            0.,NA,NA,"",   994.966E+03,   993.638E+03,   993.638E+03
C:/temp/Job-20.odb,Step-1,Increment      1: Step Time =    1.000,"P-20-1",           790,       19.2177,       139.387,            0.,NA,NA,"",   894.446E+03,   976.160E+03,   976.160E+03
C:/temp/Job-20.odb,Step-1,Increment      1: Step Time =    1.000,"P-20-1",           791,       181.687,       140.061,            0.,NA,NA,"",   1.00384E+06,   1.00256E+06,   1.00256E+06
C:/temp/Job-20.odb,Step-1,Increment      1: Step Time =    1.000,"P-20-1",           792,       139.826,       180.363,            0.,NA,NA,"",   996.110E+03,   994.703E+03,   994.703E+03
C:/temp/Job-20.odb,Step-1,Increment      1: Step Time =    1.000,"P-20-1",           793,       14.9218,       173.357,            0.,NA,NA,"",   992.520E+03,   1.05936E+06,   1.05936E+06
C:/temp/Job-20.odb,Step-1,Increment      1: Step Time =    1.000,"P-20-1",           794,       17.7402,       163.555,            0.,NA,NA,"",   955.975E+03,   1.02629E+06,   1.02629E+06
C:/temp/Job-20.odb,Step-1,Increment      1: Step Time =    1.000,"P-20-1",           795,       163.313,       19.3463,            0.,NA,NA,"",   1.00021E+06,   998.805E+03,   998.805E+03
C:/temp/Job-20.odb,Step-1,Increment      1: Step Time =    1.000,"P-20-1",           796,       16.0355,       29.2729,            0.,NA,NA,"",   982.593E+03,   1.04984E+06,   1.04984E+06
C:/temp/Job-20.odb,Step-1,Increment      1: Step Time =    1.000,"P-20-1",           797,       26.1232,       14.4761,            0.,NA,NA,"",   1.04894E+06,   1.06511E+06,   1.06511E+06
C:/temp/Job-20.odb,Step-1,Increment      1: Step Time =    1.000,"P-20-1",           798,       36.1304,       18.0381,            0.,NA,NA,"",   1.02474E+06,   1.03678E+06,   1.03678E+06
C:/temp/Job-20.odb,Step-1,Increment      1: Step Time =    1.000,"P-20-1",           799,       19.1178,       35.8097,            0.,NA,NA,"",   964.569E+03,   1.03119E+06,   1.03119E+06
C:/temp/Job-20.odb,Step-1,Increment      1: Step Time =    1.000,"P-20-1",           800,       173.562,       185.893,            0.,NA,NA,"",   998.917E+03,   998.298E+03,   998.298E+03
C:/temp/Job-20.odb,Step-1,Increment      1: Step Time =    1.000,"P-20-1",           801,       179.769,       165.631,            0.,NA,NA,"",   1.00371E+06,   1.00191E+06,   1.00191E+06
C:/temp/Job-20.odb,Step-1,Increment      1: Step Time =    1.000,"P-20-1",           802,       164.566,       181.422,            0.,NA,NA,"",   999.751E+03,   998.496E+03,   998.496E+03
C:/temp/Job-20.odb,Step-1,Increment      1: Step Time =    1.000,"P-20-1",           803,       181.447,       36.9039,            0.,NA,NA,"",   1.00376E+06,   1.00200E+06,   1.00200E+06
C:/temp/Job-20.odb,Step-1,Increment      1: Step Time =    1.000,"P-20-1",           804,       35.3325,       180.043,            0.,NA,NA,"",   1.02600E+06,   1.04099E+06,   1.04099E+06
C:/temp/Job-20.odb,Step-1,Increment      1: Step Time =    1.000,"P-20-1",           805,       185.099,       27.1632,            0.,NA,NA,"",   1.00156E+06,   1.00045E+06,   1.00045E+06
C:/temp/Job-20.odb,Step-1,Increment      1: Step Time =    1.000,"P-20-1",           806,       26.2656,       184.610,            0.,NA,NA,"",   1.04683E+06,   1.06497E+06,   1.06497E+06
C:/temp/Job-20.odb,Step-1,Increment      1: Step Time =    1.000,"P-20-1",           807,       18.4894,       69.5551,            0.,NA,NA,"",   875.058E+03,   960.662E+03,   960.662E+03
C:/temp/Job-20.odb,Step-1,Increment      1: Step Time =    1.000,"P-20-1",           808,       69.5640,       19.9858,            0.,NA,NA,"",   989.545E+03,   992.136E+03,   992.136E+03
C:/temp/Job-20.odb,Step-1,Increment      1: Step Time =    1.000,"P-20-1",           809,       180.730,       130.910,            0.,NA,NA,"",   1.00145E+06,   1.00112E+06,   1.00112E+06
C:/temp/Job-20.odb,Step-1,Increment      1: Step Time =    1.000,"P-20-1",           810,       130.206,       180.182,            0.,NA,NA,"",   992.361E+03,   991.702E+03,   991.702E+03
C:/temp/Job-20.odb,Step-1,Increment      1: Step Time =    1.000,"P-20-1",           811,       130.133,       19.6666,            0.,NA,NA,"",   992.280E+03,   991.602E+03,   991.602E+03
C:/temp/Job-20.odb,Step-1,Increment      1: Step Time =    1.000,"P-20-1",           812,       19.1945,       129.977,            0.,NA,NA,"",   876.742E+03,   961.330E+03,   961.330E+03
C:/temp/Job-20.odb,Step-1,Increment      1: Step Time =    1.000,"P-20-1",           813,       70.3055,       180.480,            0.,NA,NA,"",   988.223E+03,   990.629E+03,   990.629E+03
C:/temp/Job-20.odb,Step-1,Increment      1: Step Time =    1.000,"P-20-1",           814,       180.027,       69.8701,            0.,NA,NA,"",   1.00136E+06,   1.00101E+06,   1.00101E+06
C:/temp/Job-20.odb,Step-1,Increment      1: Step Time =    1.000,"P-20-1",           815,       21.8621,       82.2200,            0.,NA,NA,"",   866.108E+03,   950.133E+03,   950.133E+03
C:/temp/Job-20.odb,Step-1,Increment      1: Step Time =    1.000,"P-20-1",           816,       120.032,       19.5865,            0.,NA,NA,"",   986.952E+03,   987.524E+03,   987.524E+03
C:/temp/Job-20.odb,Step-1,Increment      1: Step Time =    1.000,"P-20-1",           817,       178.212,       117.532,            0.,NA,NA,"",   996.178E+03,   997.293E+03,   997.293E+03
C:/temp/Job-20.odb,Step-1,Increment      1: Step Time =    1.000,"P-20-1",           818,       80.1011,       180.132,            0.,NA,NA,"",   983.799E+03,   986.245E+03,   986.245E+03
C:/temp/Job-20.odb,Step-1,Increment      1: Step Time =    1.000,"P-20-1",           819,       88.8635,       24.8033,            0.,NA,NA,"",   989.158E+03,   993.242E+03,   993.242E+03
C:/temp/Job-20.odb,Step-1,Increment      1: Step Time =    1.000,"P-20-1",           820,       25.7574,       111.135,            0.,NA,NA,"",   868.083E+03,   948.567E+03,   948.567E+03
C:/temp/Job-20.odb,Step-1,Increment      1: Step Time =    1.000,"P-20-1",           821,       174.637,       89.1916,            0.,NA,NA,"",   992.112E+03,   993.690E+03,   993.690E+03
C:/temp/Job-20.odb,Step-1,Increment      1: Step Time =    1.000,"P-20-1",           822,       110.671,       174.582,            0.,NA,NA,"",   990.813E+03,   993.581E+03,   993.581E+03
C:/temp/Job-20.odb,Step-1,Increment      1: Step Time =    1.000,"P-20-1",           823,       24.7095,       76.8259,            0.,NA,NA,"",   881.177E+03,   960.364E+03,   960.364E+03
C:/temp/Job-20.odb,Step-1,Increment      1: Step Time =    1.000,"P-20-1",           824,       120.181,       24.3704,            0.,NA,NA,"",   993.703E+03,   994.500E+03,   994.500E+03
C:/temp/Job-20.odb,Step-1,Increment      1: Step Time =    1.000,"P-20-1",           825,       79.0385,       24.9162,            0.,NA,NA,"",   993.892E+03,   997.659E+03,   997.659E+03
C:/temp/Job-20.odb,Step-1,Increment      1: Step Time =    1.000,"P-20-1",           826,       24.5690,       120.702,            0.,NA,NA,"",   877.040E+03,   956.917E+03,   956.917E+03
C:/temp/Job-20.odb,Step-1,Increment      1: Step Time =    1.000,"P-20-1",           827,       174.062,       122.541,            0.,NA,NA,"",   999.077E+03,   998.594E+03,   998.594E+03
C:/temp/Job-20.odb,Step-1,Increment      1: Step Time =    1.000,"P-20-1",           828,       80.0496,       175.072,            0.,NA,NA,"",   993.469E+03,   997.218E+03,   997.218E+03
C:/temp/Job-20.odb,Step-1,Increment      1: Step Time =    1.000,"P-20-1",           829,       174.589,       79.4250,            0.,NA,NA,"",   997.672E+03,   997.703E+03,   997.703E+03
C:/temp/Job-20.odb,Step-1,Increment      1: Step Time =    1.000,"P-20-1",           830,       120.768,       174.844,            0.,NA,NA,"",   995.066E+03,   995.789E+03,   995.789E+03
C:/temp/Job-20.odb,Step-1,Increment      1: Step Time =    1.000,"P-20-1",           831,       174.659,       98.7214,            0.,NA,NA,"",   989.420E+03,   991.762E+03,   991.762E+03
C:/temp/Job-20.odb,Step-1,Increment      1: Step Time =    1.000,"P-20-1",           832,       100.410,       174.000,            0.,NA,NA,"",   989.156E+03,   993.531E+03,   993.531E+03
C:/temp/Job-20.odb,Step-1,Increment      1: Step Time =    1.000,"P-20-1",           833,       99.0027,       25.3073,            0.,NA,NA,"",   988.011E+03,   992.229E+03,   992.229E+03
C:/temp/Job-20.odb,Step-1,Increment      1: Step Time =    1.000,"P-20-1",           834,       26.8517,       100.787,            0.,NA,NA,"",   865.194E+03,   945.088E+03,   945.088E+03
C:/temp/Job-20.odb,Step-1,Increment      1: Step Time =    1.000,"P-20-1",           835,       140.153,       24.0309,            0.,NA,NA,"",   1.00147E+06,   999.373E+03,   999.373E+03
C:/temp/Job-20.odb,Step-1,Increment      1: Step Time =    1.000,"P-20-1",           836,       23.8616,       138.980,            0.,NA,NA,"",   908.522E+03,   983.302E+03,   983.302E+03
C:/temp/Job-20.odb,Step-1,Increment      1: Step Time =    1.000,"P-20-1",           837,       59.7173,       25.1193,            0.,NA,NA,"",   1.00589E+06,   1.01169E+06,   1.01169E+06
C:/temp/Job-20.odb,Step-1,Increment      1: Step Time =    1.000,"P-20-1",           838,       23.5347,       57.0028,            0.,NA,NA,"",   917.310E+03,   990.410E+03,   990.410E+03
C:/temp/Job-20.odb,Step-1,Increment      1: Step Time =    1.000,"P-20-1",           839,       60.9793,       175.237,            0.,NA,NA,"",   1.00479E+06,   1.00995E+06,   1.00995E+06
C:/temp/Job-20.odb,Step-1,Increment      1: Step Time =    1.000,"P-20-1",           840,       175.344,       60.3206,            0.,NA,NA,"",   1.00661E+06,   1.00415E+06,   1.00415E+06
C:/temp/Job-20.odb,Step-1,Increment      1: Step Time =    1.000,"P-20-1",           841,       177.384,       139.761,            0.,NA,NA,"",   1.00563E+06,   1.00359E+06,   1.00359E+06
C:/temp/Job-20.odb,Step-1,Increment      1: Step Time =    1.000,"P-20-1",           842,       139.803,       175.665,            0.,NA,NA,"",   1.00160E+06,   999.557E+03,   999.557E+03
C:/temp/Job-20.odb,Step-1,Increment      1: Step Time =    1.000,"P-20-1",           843,       23.7496,       130.007,            0.,NA,NA,"",   890.725E+03,   968.907E+03,   968.907E+03
C:/temp/Job-20.odb,Step-1,Increment      1: Step Time =    1.000,"P-20-1",           844,       174.872,       69.7790,            0.,NA,NA,"",   1.00320E+06,   1.00171E+06,   1.00171E+06
C:/temp/Job-20.odb,Step-1,Increment      1: Step Time =    1.000,"P-20-1",           845,       69.4137,       25.2318,            0.,NA,NA,"",   999.933E+03,   1.00406E+06,   1.00406E+06
C:/temp/Job-20.odb,Step-1,Increment      1: Step Time =    1.000,"P-20-1",           846,       130.369,       175.185,            0.,NA,NA,"",    998.99E+03,   997.985E+03,   997.985E+03
C:/temp/Job-20.odb,Step-1,Increment      1: Step Time =    1.000,"P-20-1",           847,       35.9088,       21.2364,            0.,NA,NA,"",   1.02435E+06,   1.04031E+06,   1.04031E+06
C:/temp/Job-20.odb,Step-1,Increment      1: Step Time =    1.000,"P-20-1",           848,       29.0220,       35.2008,            0.,NA,NA,"",   992.151E+03,   1.03720E+06,   1.03720E+06
C:/temp/Job-20.odb,Step-1,Increment      1: Step Time =    1.000,"P-20-1",           849,       163.092,       24.0409,            0.,NA,NA,"",   1.00271E+06,   1.00072E+06,   1.00072E+06
C:/temp/Job-20.odb,Step-1,Increment      1: Step Time =    1.000,"P-20-1",           850,       177.157,       37.0809,            0.,NA,NA,"",   1.00496E+06,   1.00281E+06,   1.00281E+06
C:/temp/Job-20.odb,Step-1,Increment      1: Step Time =    1.000,"P-20-1",           851,       35.4192,       175.403,            0.,NA,NA,"",   1.02203E+06,   1.04343E+06,   1.04343E+06
C:/temp/Job-20.odb,Step-1,Increment      1: Step Time =    1.000,"P-20-1",           852,       175.363,       166.484,            0.,NA,NA,"",   1.00458E+06,   1.00248E+06,   1.00248E+06
C:/temp/Job-20.odb,Step-1,Increment      1: Step Time =    1.000,"P-20-1",           853,       165.450,       177.164,            0.,NA,NA,"",   1.00184E+06,   1.00013E+06,   1.00013E+06
C:/temp/Job-20.odb,Step-1,Increment      1: Step Time =    1.000,"P-20-1",           854,       13.9972,       55.1767,            0.,NA,NA,"",   887.887E+03,   975.968E+03,   975.968E+03
C:/temp/Job-20.odb,Step-1,Increment      1: Step Time =    1.000,"P-20-1",           855,       55.0783,       14.8340,            0.,NA,NA,"",   988.524E+03,   991.214E+03,   991.214E+03
C:/temp/Job-20.odb,Step-1,Increment      1: Step Time =    1.000,"P-20-1",           856,       186.506,       144.469,            0.,NA,NA,"",   1.00248E+06,   1.00160E+06,   1.00160E+06
C:/temp/Job-20.odb,Step-1,Increment      1: Step Time =    1.000,"P-20-1",           857,       144.797,       185.211,            0.,NA,NA,"",   992.877E+03,   991.887E+03,   991.887E+03
C:/temp/Job-20.odb,Step-1,Increment      1: Step Time =    1.000,"P-20-1",           858,       55.2892,       185.603,            0.,NA,NA,"",   987.388E+03,   989.743E+03,   989.743E+03
C:/temp/Job-20.odb,Step-1,Increment      1: Step Time =    1.000,"P-20-1",           859,       185.356,       55.4301,            0.,NA,NA,"",   1.00280E+06,   1.00184E+06,   1.00184E+06
C:/temp/Job-20.odb,Step-1,Increment      1: Step Time =    1.000,"P-20-1",           860,       145.214,       14.5140,            0.,NA,NA,"",   992.861E+03,   991.866E+03,   991.866E+03
C:/temp/Job-20.odb,Step-1,Increment      1: Step Time =    1.000,"P-20-1",           861,       14.5571,       144.505,            0.,NA,NA,"",   889.376E+03,   976.551E+03,   976.551E+03
C:/temp/Job-20.odb,Step-1,Increment      1: Step Time =    1.000,"P-20-1",           862,       14.2223,       158.856,            0.,NA,NA,"",   925.425E+03,   1.00742E+06,   1.00742E+06
C:/temp/Job-20.odb,Step-1,Increment      1: Step Time =    1.000,"P-20-1",           863,       159.022,       14.9189,            0.,NA,NA,"",   997.070E+03,   996.117E+03,   996.117E+03
C:/temp/Job-20.odb,Step-1,Increment      1: Step Time =    1.000,"P-20-1",           864,       174.148,       9.90727,            0.,NA,NA,"",   998.264E+03,   997.923E+03,   997.923E+03
C:/temp/Job-20.odb,Step-1,Increment      1: Step Time =    1.000,"P-20-1",           865,       172.835,       19.0785,            0.,NA,NA,"",   1.00037E+06,   999.327E+03,   999.327E+03
C:/temp/Job-20.odb,Step-1,Increment      1: Step Time =    1.000,"P-20-1",           866,       20.3148,       168.688,            0.,NA,NA,"",   986.335E+03,   1.04567E+06,   1.04567E+06
C:/temp/Job-20.odb,Step-1,Increment      1: Step Time =    1.000,"P-20-1",           867,       26.9654,       19.0190,            0.,NA,NA,"",   1.04036E+06,   1.06357E+06,   1.06357E+06
C:/temp/Job-20.odb,Step-1,Increment      1: Step Time =    1.000,"P-20-1",           868,       22.2430,       27.8910,            0.,NA,NA,"",   1.00595E+06,   1.05486E+06,   1.05486E+06
C:/temp/Job-20.odb,Step-1,Increment      1: Step Time =    1.000,"P-20-1",           869,       11.0176,       27.0822,            0.,NA,NA,"",   971.695E+03,   1.05078E+06,   1.05078E+06
C:/temp/Job-20.odb,Step-1,Increment      1: Step Time =    1.000,"P-20-1",           870,       40.6306,       14.1910,            0.,NA,NA,"",   1.00800E+06,   1.01387E+06,   1.01387E+06
C:/temp/Job-20.odb,Step-1,Increment      1: Step Time =    1.000,"P-20-1",           871,       17.9452,       40.1959,            0.,NA,NA,"",   943.715E+03,   1.01702E+06,   1.01702E+06
C:/temp/Job-20.odb,Step-1,Increment      1: Step Time =    1.000,"P-20-1",           872,       180.753,       174.278,            0.,NA,NA,"",   1.00170E+06,   1.00047E+06,   1.00047E+06
C:/temp/Job-20.odb,Step-1,Increment      1: Step Time =    1.000,"P-20-1",           873,       174.194,       180.537,            0.,NA,NA,"",   1.00032E+06,   999.316E+03,   999.316E+03
C:/temp/Job-20.odb,Step-1,Increment      1: Step Time =    1.000,"P-20-1",           874,       190.061,       174.690,            0.,NA,NA,"",   1.00103E+06,   1.00010E+06,   1.00010E+06
C:/temp/Job-20.odb,Step-1,Increment      1: Step Time =    1.000,"P-20-1",           875,       159.531,       185.518,            0.,NA,NA,"",   996.966E+03,   996.047E+03,   996.047E+03
C:/temp/Job-20.odb,Step-1,Increment      1: Step Time =    1.000,"P-20-1",           876,       183.023,       160.151,            0.,NA,NA,"",   1.00374E+06,   1.00200E+06,   1.00200E+06
C:/temp/Job-20.odb,Step-1,Increment      1: Step Time =    1.000,"P-20-1",           877,       185.794,       41.1622,            0.,NA,NA,"",   1.00299E+06,   1.00152E+06,   1.00152E+06
C:/temp/Job-20.odb,Step-1,Increment      1: Step Time =    1.000,"P-20-1",           878,       39.3433,       179.661,            0.,NA,NA,"",   1.01996E+06,   1.03241E+06,   1.03241E+06
C:/temp/Job-20.odb,Step-1,Increment      1: Step Time =    1.000,"P-20-1",           879,       27.5828,       180.230,            0.,NA,NA,"",   1.03564E+06,   1.06068E+06,   1.06068E+06
C:/temp/Job-20.odb,Step-1,Increment      1: Step Time =    1.000,"P-20-1",           880,       179.281,       25.5325,            0.,NA,NA,"",   1.00175E+06,   1.00050E+06,   1.00050E+06
C:/temp/Job-20.odb,Step-1,Increment      1: Step Time =    1.000,"P-20-1",           881,       25.5993,       189.577,            0.,NA,NA,"",   1.04699E+06,   1.05690E+06,   1.05690E+06
C:/temp/Job-20.odb,Step-1,Increment      1: Step Time =    1.000,"P-20-1",           882,       179.847,       79.5641,            0.,NA,NA,"",   997.309E+03,   998.385E+03,   998.385E+03
C:/temp/Job-20.odb,Step-1,Increment      1: Step Time =    1.000,"P-20-1",           883,       19.7036,       120.349,            0.,NA,NA,"",   863.501E+03,   949.592E+03,   949.592E+03
C:/temp/Job-20.odb,Step-1,Increment      1: Step Time =    1.000,"P-20-1",           884,       120.503,       179.921,            0.,NA,NA,"",   987.876E+03,   988.394E+03,   988.394E+03
C:/temp/Job-20.odb,Step-1,Increment      1: Step Time =    1.000,"P-20-1",           885,       79.2499,       19.8635,            0.,NA,NA,"",   984.019E+03,   986.494E+03,   986.494E+03
C:/temp/Job-20.odb,Step-1,Increment      1: Step Time =    1.000,"P-20-1",           886,       9.19010,       55.1434,            0.,NA,NA,"",   871.184E+03,   966.390E+03,   966.390E+03
C:/temp/Job-20.odb,Step-1,Increment      1: Step Time =    1.000,"P-20-1",           887,       55.4076,       190.611,            0.,NA,NA,"",   971.375E+03,   972.344E+03,   972.344E+03
C:/temp/Job-20.odb,Step-1,Increment      1: Step Time =    1.000,"P-20-1",           888,       144.970,       9.41300,            0.,NA,NA,"",   988.506E+03,   988.030E+03,   988.030E+03
C:/temp/Job-20.odb,Step-1,Increment      1: Step Time =    1.000,"P-20-1",           889,       191.084,       144.534,            0.,NA,NA,"",   1.00119E+06,   1.00077E+06,   1.00077E+06
C:/temp/Job-20.odb,Step-1,Increment      1: Step Time =    1.000,"P-20-1",           890,       26.2688,       106.140,            0.,NA,NA,"",   865.630E+03,   945.981E+03,   945.981E+03
C:/temp/Job-20.odb,Step-1,Increment      1: Step Time =    1.000,"P-20-1",           891,       93.8282,       25.0663,            0.,NA,NA,"",   988.111E+03,   992.294E+03,   992.294E+03
C:/temp/Job-20.odb,Step-1,Increment      1: Step Time =    1.000,"P-20-1",           892,       105.588,       174.333,            0.,NA,NA,"",   989.533E+03,   993.209E+03,   993.209E+03
C:/temp/Job-20.odb,Step-1,Increment      1: Step Time =    1.000,"P-20-1",           893,       174.649,       93.9913,            0.,NA,NA,"",   990.254E+03,   992.363E+03,   992.363E+03
C:/temp/Job-20.odb,Step-1,Increment      1: Step Time =    1.000,"P-20-1",           894,       28.3094,       84.2734,            0.,NA,NA,"",   879.773E+03,   956.190E+03,   956.190E+03
C:/temp/Job-20.odb,Step-1,Increment      1: Step Time =    1.000,"P-20-1",           895,       25.1847,       115.943,            0.,NA,NA,"",   871.941E+03,   952.231E+03,   952.231E+03
C:/temp/Job-20.odb,Step-1,Increment      1: Step Time =    1.000,"P-20-1",           896,       115.251,       24.8458,            0.,NA,NA,"",   991.885E+03,   993.703E+03,   993.703E+03
C:/temp/Job-20.odb,Step-1,Increment      1: Step Time =    1.000,"P-20-1",           897,       83.8738,       24.7315,            0.,NA,NA,"",   991.098E+03,   995.069E+03,   995.069E+03
C:/temp/Job-20.odb,Step-1,Increment      1: Step Time =    1.000,"P-20-1",           898,       174.576,       84.2924,            0.,NA,NA,"",   994.736E+03,   995.596E+03,   995.596E+03
C:/temp/Job-20.odb,Step-1,Increment      1: Step Time =    1.000,"P-20-1",           899,       115.754,       174.743,            0.,NA,NA,"",   992.754E+03,   994.535E+03,   994.535E+03
C:/temp/Job-20.odb,Step-1,Increment      1: Step Time =    1.000,"P-20-1",           900,       173.462,       115.311,            0.,NA,NA,"",   994.478E+03,   995.273E+03,   995.273E+03
C:/temp/Job-20.odb,Step-1,Increment      1: Step Time =    1.000,"P-20-1",           901,       84.9011,       174.656,            0.,NA,NA,"",   991.758E+03,   995.830E+03,   995.830E+03
C:/temp/Job-20.odb,Step-1,Increment      1: Step Time =    1.000,"P-20-1",           902,       136.841,       27.3638,            0.,NA,NA,"",   1.00502E+06,   1.00271E+06,   1.00271E+06
C:/temp/Job-20.odb,Step-1,Increment      1: Step Time =    1.000,"P-20-1",           903,       23.7383,       134.519,            0.,NA,NA,"",   899.264E+03,   975.961E+03,   975.961E+03
C:/temp/Job-20.odb,Step-1,Increment      1: Step Time =    1.000,"P-20-1",           904,       26.4636,       61.9843,            0.,NA,NA,"",   915.794E+03,   986.649E+03,   986.649E+03
C:/temp/Job-20.odb,Step-1,Increment      1: Step Time =    1.000,"P-20-1",           905,       64.5628,       25.2155,            0.,NA,NA,"",   1.00292E+06,   1.00769E+06,   1.00769E+06
C:/temp/Job-20.odb,Step-1,Increment      1: Step Time =    1.000,"P-20-1",           906,       62.0778,       170.789,            0.,NA,NA,"",   1.01095E+06,   1.01771E+06,   1.01771E+06
C:/temp/Job-20.odb,Step-1,Increment      1: Step Time =    1.000,"P-20-1",           907,       175.113,       65.0418,            0.,NA,NA,"",   1.00521E+06,   1.00315E+06,   1.00315E+06
C:/temp/Job-20.odb,Step-1,Increment      1: Step Time =    1.000,"P-20-1",           908,       177.261,       135.928,            0.,NA,NA,"",   1.00454E+06,   1.00286E+06,   1.00286E+06
C:/temp/Job-20.odb,Step-1,Increment      1: Step Time =    1.000,"P-20-1",           909,       135.074,       175.463,            0.,NA,NA,"",   1.00041E+06,   998.817E+03,   998.817E+03
C:/temp/Job-20.odb,Step-1,Increment      1: Step Time =    1.000,"P-20-1",           910,       30.0254,       31.3587,            0.,NA,NA,"",   1.00537E+06,   1.04397E+06,   1.04397E+06
C:/temp/Job-20.odb,Step-1,Increment      1: Step Time =    1.000,"P-20-1",           911,       30.8370,       27.2797,            0.,NA,NA,"",   1.01522E+06,   1.04755E+06,   1.04755E+06
C:/temp/Job-20.odb,Step-1,Increment      1: Step Time =    1.000,"P-20-1",           912,       25.0937,       169.305,            0.,NA,NA,"",   1.00032E+06,   1.04736E+06,   1.04736E+06
C:/temp/Job-20.odb,Step-1,Increment      1: Step Time =    1.000,"P-20-1",           913,       167.974,       28.3207,            0.,NA,NA,"",   1.00434E+06,   1.00212E+06,   1.00212E+06
C:/temp/Job-20.odb,Step-1,Increment      1: Step Time =    1.000,"P-20-1",           914,       176.730,       33.2910,            0.,NA,NA,"",   1.00416E+06,   1.00220E+06,   1.00220E+06
C:/temp/Job-20.odb,Step-1,Increment      1: Step Time =    1.000,"P-20-1",           915,       31.5221,       175.855,            0.,NA,NA,"",   1.02345E+06,   1.04946E+06,   1.04946E+06
C:/temp/Job-20.odb,Step-1,Increment      1: Step Time =    1.000,"P-20-1",           916,       171.950,       170.791,            0.,NA,NA,"",   1.00387E+06,   1.00187E+06,   1.00187E+06
C:/temp/Job-20.odb,Step-1,Increment      1: Step Time =    1.000,"P-20-1",           917,       169.952,       178.756,            0.,NA,NA,"",   1.00106E+06,   999.704E+03,   999.704E+03
C:/temp/Job-20.odb,Step-1,Increment      1: Step Time =    1.000,"P-20-1",           918,       19.3772,       173.212,            0.,NA,NA,"",   1.00546E+06,   1.06021E+06,   1.06021E+06
C:/temp/Job-20.odb,Step-1,Increment      1: Step Time =    1.000,"P-20-1",           919,       21.1373,       14.8951,            0.,NA,NA,"",   1.06773E+06,   1.09091E+06,   1.09091E+06
C:/temp/Job-20.odb,Step-1,Increment      1: Step Time =    1.000,"P-20-1",           920,       18.0674,       24.9572,            0.,NA,NA,"",   1.01047E+06,   1.06583E+06,   1.06583E+06
C:/temp/Job-20.odb,Step-1,Increment      1: Step Time =    1.000,"P-20-1",           921,       178.594,       183.929,            0.,NA,NA,"",   999.694E+03,   999.041E+03,   999.041E+03
C:/temp/Job-20.odb,Step-1,Increment      1: Step Time =    1.000,"P-20-1",           922,       183.189,       21.6903,            0.,NA,NA,"",   1.00083E+06,   999.944E+03,   999.944E+03
C:/temp/Job-20.odb,Step-1,Increment      1: Step Time =    1.000,"P-20-1",           923,       21.0782,       183.177,            0.,NA,NA,"",   1.05795E+06,   1.08727E+06,   1.08727E+06
C:/temp/Job-20.odb,Step-1,Increment      1: Step Time =    1.000,"P-20-1",           924,       74.2452,       25.1344,            0.,NA,NA,"",   996.856E+03,   1.00067E+06,   1.00067E+06
C:/temp/Job-20.odb,Step-1,Increment      1: Step Time =    1.000,"P-20-1",           925,       125.630,       174.991,            0.,NA,NA,"",   997.217E+03,   996.987E+03,   996.987E+03
C:/temp/Job-20.odb,Step-1,Increment      1: Step Time =    1.000,"P-20-1",           926,       24.0174,       125.381,            0.,NA,NA,"",   883.306E+03,   962.526E+03,   962.526E+03
C:/temp/Job-20.odb,Step-1,Increment      1: Step Time =    1.000,"P-20-1",           927,       174.692,       74.5793,            0.,NA,NA,"",   1.00066E+06,   999.853E+03,   999.853E+03
C:/temp/Job-20.odb,Step-1,Increment      1: Step Time =    1.000,"P-20-1",           928,       44.5997,       184.797,            0.,NA,NA,"",   1.00290E+06,   1.00851E+06,   1.00851E+06
C:/temp/Job-20.odb,Step-1,Increment      1: Step Time =    1.000,"P-20-1",           929,       184.680,       154.031,            0.,NA,NA,"",   1.00360E+06,   1.00202E+06,   1.00202E+06
C:/temp/Job-20.odb,Step-1,Increment      1: Step Time =    1.000,"P-20-1",           930,       16.6435,       44.6587,            0.,NA,NA,"",   924.624E+03,   1.00366E+06,   1.00366E+06
C:/temp/Job-20.odb,Step-1,Increment      1: Step Time =    1.000,"P-20-1",           931,       155.648,       14.1271,            0.,NA,NA,"",   995.909E+03,   994.979E+03,   994.979E+03
C:/temp/Job-20.odb,Step-1,Increment      1: Step Time =    1.000,"P-20-1",           932,       27.3495,       94.9147,            0.,NA,NA,"",   867.946E+03,   946.854E+03,   946.854E+03
C:/temp/Job-20.odb,Step-1,Increment      1: Step Time =    1.000,"P-20-1",           933,       104.449,       25.5400,            0.,NA,NA,"",   988.823E+03,   992.632E+03,   992.632E+03
C:/temp/Job-20.odb,Step-1,Increment      1: Step Time =    1.000,"P-20-1",           934,       174.664,       103.302,            0.,NA,NA,"",   989.615E+03,   991.885E+03,   991.885E+03
C:/temp/Job-20.odb,Step-1,Increment      1: Step Time =    1.000,"P-20-1",           935,       95.2273,       173.770,            0.,NA,NA,"",   989.649E+03,   994.245E+03,   994.245E+03
C:/temp/Job-20.odb,Step-1,Increment      1: Step Time =    1.000,"P-20-1",           936,       185.630,       45.8665,            0.,NA,NA,"",   1.00317E+06,   1.00175E+06,   1.00175E+06
C:/temp/Job-20.odb,Step-1,Increment      1: Step Time =    1.000,"P-20-1",           937,       154.660,       185.304,            0.,NA,NA,"",   995.957E+03,   994.951E+03,   994.951E+03
C:/temp/Job-20.odb,Step-1,Increment      1: Step Time =    1.000,"P-20-1",           938,       45.3571,       14.5043,            0.,NA,NA,"",   1.00039E+06,   1.00486E+06,   1.00486E+06
C:/temp/Job-20.odb,Step-1,Increment      1: Step Time =    1.000,"P-20-1",           939,       14.4777,       154.133,            0.,NA,NA,"",   912.255E+03,   996.142E+03,   996.142E+03
C:/temp/Job-20.odb,Step-1,Increment      1: Step Time =    1.000,"P-20-1",           940,       171.435,       175.748,            0.,NA,NA,"",   1.00209E+06,   1.00053E+06,   1.00053E+06
C:/temp/Job-20.odb,Step-1,Increment      1: Step Time =    1.000,"P-20-1",           941,       173.155,       173.437,            0.,NA,NA,"",   1.00276E+06,   1.00107E+06,   1.00107E+06
C:/temp/Job-20.odb,Step-1,Increment      1: Step Time =    1.000,"P-20-1",           942,       174.924,       26.3774,            0.,NA,NA,"",   1.00253E+06,   1.00096E+06,   1.00096E+06
C:/temp/Job-20.odb,Step-1,Increment      1: Step Time =    1.000,"P-20-1",           943,       28.5338,       176.827,            0.,NA,NA,"",   1.02558E+06,   1.05499E+06,   1.05499E+06
C:/temp/Job-20.odb,Step-1,Increment      1: Step Time =    1.000,"P-20-1",           944,       23.3908,       173.553,            0.,NA,NA,"",   1.01741E+06,   1.06029E+06,   1.06029E+06
C:/temp/Job-20.odb,Step-1,Increment      1: Step Time =    1.000,"P-20-1",           945,       172.051,       27.1386,            0.,NA,NA,"",   1.00326E+06,   1.00142E+06,   1.00142E+06
C:/temp/Job-20.odb,Step-1,Increment      1: Step Time =    1.000,"P-20-1",           946,       28.7613,       23.2064,            0.,NA,NA,"",   1.02929E+06,   1.05745E+06,   1.05745E+06
C:/temp/Job-20.odb,Step-1,Increment      1: Step Time =    1.000,"P-20-1",           947,       26.0408,       30.2085,            0.,NA,NA,"",   1.00478E+06,   1.04865E+06,   1.04865E+06
C:/temp/Job-20.odb,Step-1,Increment      1: Step Time =    1.000,"P-20-1",           948,       89.2220,       19.9020,            0.,NA,NA,"",   980.657E+03,   983.361E+03,   983.361E+03
C:/temp/Job-20.odb,Step-1,Increment      1: Step Time =    1.000,"P-20-1",           949,       20.4383,       110.615,            0.,NA,NA,"",   855.301E+03,   941.932E+03,   941.932E+03
C:/temp/Job-20.odb,Step-1,Increment      1: Step Time =    1.000,"P-20-1",           950,       179.827,       89.3638,            0.,NA,NA,"",   993.402E+03,   995.798E+03,   995.798E+03
C:/temp/Job-20.odb,Step-1,Increment      1: Step Time =    1.000,"P-20-1",           951,       110.420,       179.660,            0.,NA,NA,"",   983.596E+03,   985.465E+03,   985.465E+03
C:/temp/Job-20.odb,Step-1,Increment      1: Step Time =    1.000,"P-20-1",           952,       185.495,       50.6248,            0.,NA,NA,"",   1.00313E+06,   1.00188E+06,   1.00188E+06
C:/temp/Job-20.odb,Step-1,Increment      1: Step Time =    1.000,"P-20-1",           953,       182.634,       149.406,            0.,NA,NA,"",   1.00429E+06,   1.00262E+06,   1.00262E+06
C:/temp/Job-20.odb,Step-1,Increment      1: Step Time =    1.000,"P-20-1",           954,       149.754,       185.238,            0.,NA,NA,"",   994.610E+03,   993.573E+03,   993.573E+03
C:/temp/Job-20.odb,Step-1,Increment      1: Step Time =    1.000,"P-20-1",           955,       14.2530,       49.5251,            0.,NA,NA,"",   901.857E+03,   987.735E+03,   987.735E+03
C:/temp/Job-20.odb,Step-1,Increment      1: Step Time =    1.000,"P-20-1",           956,       50.1710,       14.7107,            0.,NA,NA,"",   994.015E+03,   997.509E+03,   997.509E+03
C:/temp/Job-20.odb,Step-1,Increment      1: Step Time =    1.000,"P-20-1",           957,       149.956,       13.7697,            0.,NA,NA,"",   993.968E+03,   993.040E+03,   993.040E+03
C:/temp/Job-20.odb,Step-1,Increment      1: Step Time =    1.000,"P-20-1",           958,       14.5714,       149.358,            0.,NA,NA,"",   900.370E+03,   985.941E+03,   985.941E+03
C:/temp/Job-20.odb,Step-1,Increment      1: Step Time =    1.000,"P-20-1",           959,       133.603,       25.3245,            0.,NA,NA,"",   1.00127E+06,   999.666E+03,   999.666E+03
C:/temp/Job-20.odb,Step-1,Increment      1: Step Time =    1.000,"P-20-1",           960,       70.5247,       175.654,            0.,NA,NA,"",   997.875E+03,   1.00159E+06,   1.00159E+06
C:/temp/Job-20.odb,Step-1,Increment      1: Step Time =    1.000,"P-20-1",           961,       22.8537,       69.1161,            0.,NA,NA,"",   889.012E+03,   968.494E+03,   968.494E+03
C:/temp/Job-20.odb,Step-1,Increment      1: Step Time =    1.000,"P-20-1",           962,       175.903,       131.677,            0.,NA,NA,"",   1.00349E+06,   1.00204E+06,   1.00204E+06
C:/temp/Job-20.odb,Step-1,Increment      1: Step Time =    1.000,"P-20-1",           963,       14.9415,       178.668,            0.,NA,NA,"",   1.02663E+06,   1.08419E+06,   1.08419E+06
C:/temp/Job-20.odb,Step-1,Increment      1: Step Time =    1.000,"P-20-1",           964,       88.3707,       29.6662,            0.,NA,NA,"",   996.499E+03,   1.00213E+06,   1.00213E+06
C:/temp/Job-20.odb,Step-1,Increment      1: Step Time =    1.000,"P-20-1",           965,       110.991,       169.599,            0.,NA,NA,"",   997.193E+03,   1.00104E+06,   1.00104E+06
C:/temp/Job-20.odb,Step-1,Increment      1: Step Time =    1.000,"P-20-1",           966,       169.465,       89.0508,            0.,NA,NA,"",   990.155E+03,   991.123E+03,   991.123E+03
C:/temp/Job-20.odb,Step-1,Increment      1: Step Time =    1.000,"P-20-1",           967,       29.0566,       75.5957,            0.,NA,NA,"",   895.652E+03,   968.285E+03,   968.285E+03
C:/temp/Job-20.odb,Step-1,Increment      1: Step Time =    1.000,"P-20-1",           968,       29.3102,       121.342,            0.,NA,NA,"",   890.731E+03,   964.132E+03,   964.132E+03
C:/temp/Job-20.odb,Step-1,Increment      1: Step Time =    1.000,"P-20-1",           969,       79.0124,       30.1560,            0.,NA,NA,"",   1.00221E+06,   1.00760E+06,   1.00760E+06
C:/temp/Job-20.odb,Step-1,Increment      1: Step Time =    1.000,"P-20-1",           970,       169.128,       122.519,            0.,NA,NA,"",   999.682E+03,   998.219E+03,   998.219E+03
C:/temp/Job-20.odb,Step-1,Increment      1: Step Time =    1.000,"P-20-1",           971,       79.9040,       169.871,            0.,NA,NA,"",   1.00190E+06,   1.00725E+06,   1.00725E+06
C:/temp/Job-20.odb,Step-1,Increment      1: Step Time =    1.000,"P-20-1",           972,       169.188,       79.2843,            0.,NA,NA,"",   998.226E+03,   997.127E+03,   997.127E+03
C:/temp/Job-20.odb,Step-1,Increment      1: Step Time =    1.000,"P-20-1",           973,       121.057,       169.797,            0.,NA,NA,"",   1.00218E+06,   1.00304E+06,   1.00304E+06
C:/temp/Job-20.odb,Step-1,Increment      1: Step Time =    1.000,"P-20-1",           974,       138.948,       29.3907,            0.,NA,NA,"",   1.00808E+06,   1.00511E+06,   1.00511E+06
C:/temp/Job-20.odb,Step-1,Increment      1: Step Time =    1.000,"P-20-1",           975,       28.5674,       138.468,            0.,NA,NA,"",   922.330E+03,   989.966E+03,   989.966E+03
C:/temp/Job-20.odb,Step-1,Increment      1: Step Time =    1.000,"P-20-1",           976,       27.9647,       58.6500,            0.,NA,NA,"",   927.192E+03,   994.161E+03,   994.161E+03
C:/temp/Job-20.odb,Step-1,Increment      1: Step Time =    1.000,"P-20-1",           977,       59.4569,       30.3287,            0.,NA,NA,"",   1.01256E+06,   1.02083E+06,   1.02083E+06
C:/temp/Job-20.odb,Step-1,Increment      1: Step Time =    1.000,"P-20-1",           978,       58.2089,       169.672,            0.,NA,NA,"",   1.01351E+06,   1.02226E+06,   1.02226E+06
C:/temp/Job-20.odb,Step-1,Increment      1: Step Time =    1.000,"P-20-1",           979,       170.439,       60.2673,            0.,NA,NA,"",   1.00957E+06,   1.00595E+06,   1.00595E+06
C:/temp/Job-20.odb,Step-1,Increment      1: Step Time =    1.000,"P-20-1",           980,       171.179,       140.317,            0.,NA,NA,"",   1.00912E+06,   1.00569E+06,   1.00569E+06
C:/temp/Job-20.odb,Step-1,Increment      1: Step Time =    1.000,"P-20-1",           981,       139.886,       171.241,            0.,NA,NA,"",   1.00715E+06,   1.00435E+06,   1.00435E+06
C:/temp/Job-20.odb,Step-1,Increment      1: Step Time =    1.000,"P-20-1",           982,       16.5676,       18.8907,            0.,NA,NA,"",   1.04862E+06,   1.09496E+06,   1.09496E+06
C:/temp/Job-20.odb,Step-1,Increment      1: Step Time =    1.000,"P-20-1",           983,       178.721,       15.0715,            0.,NA,NA,"",   999.607E+03,   999.017E+03,   999.017E+03
C:/temp/Job-20.odb,Step-1,Increment      1: Step Time =    1.000,"P-20-1",           984,       15.4358,       183.955,            0.,NA,NA,"",   1.07539E+06,   1.11717E+06,   1.11717E+06
C:/temp/Job-20.odb,Step-1,Increment      1: Step Time =    1.000,"P-20-1",           985,       184.997,       179.454,            0.,NA,NA,"",   1.00057E+06,   999.781E+03,   999.781E+03
C:/temp/Job-20.odb,Step-1,Increment      1: Step Time =    1.000,"P-20-1",           986,       34.7280,       28.5858,            0.,NA,NA,"",   1.01296E+06,   1.04106E+06,   1.04106E+06
C:/temp/Job-20.odb,Step-1,Increment      1: Step Time =    1.000,"P-20-1",           987,       33.1745,       36.1717,            0.,NA,NA,"",   996.746E+03,   1.03596E+06,   1.03596E+06
C:/temp/Job-20.odb,Step-1,Increment      1: Step Time =    1.000,"P-20-1",           988,       163.192,       29.0060,            0.,NA,NA,"",   1.00557E+06,   1.00291E+06,   1.00291E+06
C:/temp/Job-20.odb,Step-1,Increment      1: Step Time =    1.000,"P-20-1",           989,       173.589,       36.2749,            0.,NA,NA,"",   1.00583E+06,   1.00338E+06,   1.00338E+06
C:/temp/Job-20.odb,Step-1,Increment      1: Step Time =    1.000,"P-20-1",           990,       35.4956,       170.827,            0.,NA,NA,"",   1.01451E+06,   1.04166E+06,   1.04166E+06
C:/temp/Job-20.odb,Step-1,Increment      1: Step Time =    1.000,"P-20-1",           991,       169.848,       164.056,            0.,NA,NA,"",   1.00722E+06,   1.00432E+06,   1.00432E+06
C:/temp/Job-20.odb,Step-1,Increment      1: Step Time =    1.000,"P-20-1",           992,       161.105,       171.900,            0.,NA,NA,"",   1.00529E+06,   1.00266E+06,   1.00266E+06
C:/temp/Job-20.odb,Step-1,Increment      1: Step Time =    1.000,"P-20-1",           993,       154.023,       8.96950,            0.,NA,NA,"",   992.697E+03,   992.241E+03,   992.241E+03
C:/temp/Job-20.odb,Step-1,Increment      1: Step Time =    1.000,"P-20-1",           994,       190.658,       153.716,            0.,NA,NA,"",   1.00201E+06,   1.00087E+06,   1.00087E+06
C:/temp/Job-20.odb,Step-1,Increment      1: Step Time =    1.000,"P-20-1",           995,       46.1677,       190.444,            0.,NA,NA,"",   984.320E+03,   986.276E+03,   986.276E+03
C:/temp/Job-20.odb,Step-1,Increment      1: Step Time =    1.000,"P-20-1",           996,       8.26201,       45.8860,            0.,NA,NA,"",   889.192E+03,   983.745E+03,   983.745E+03
C:/temp/Job-20.odb,Step-1,Increment      1: Step Time =    1.000,"P-20-1",           997,       69.2372,       30.6513,            0.,NA,NA,"",   1.00862E+06,   1.01460E+06,   1.01460E+06
C:/temp/Job-20.odb,Step-1,Increment      1: Step Time =    1.000,"P-20-1",           998,       130.697,       170.150,            0.,NA,NA,"",   1.00577E+06,   1.00431E+06,   1.00431E+06
C:/temp/Job-20.odb,Step-1,Increment      1: Step Time =    1.000,"P-20-1",           999,       28.1696,       130.014,            0.,NA,NA,"",   904.471E+03,   976.023E+03,   976.023E+03
C:/temp/Job-20.odb,Step-1,Increment      1: Step Time =    1.000,"P-20-1",          1000,       169.632,       69.5884,            0.,NA,NA,"",   1.00569E+06,   1.00286E+06,   1.00286E+06
C:/temp/Job-20.odb,Step-1,Increment      1: Step Time =    1.000,"P-20-1",          1001,       24.3717,       90.5921,            0.,NA,NA,"",   864.142E+03,   946.221E+03,   946.221E+03
C:/temp/Job-20.odb,Step-1,Increment      1: Step Time =    1.000,"P-20-1",          1002,       109.991,       25.2556,            0.,NA,NA,"",   990.129E+03,   993.082E+03,   993.082E+03
C:/temp/Job-20.odb,Step-1,Increment      1: Step Time =    1.000,"P-20-1",          1003,       32.8060,       101.706,            0.,NA,NA,"",   876.946E+03,   949.641E+03,   949.641E+03
C:/temp/Job-20.odb,Step-1,Increment      1: Step Time =    1.000,"P-20-1",          1004,       98.2919,       30.3145,            0.,NA,NA,"",   994.433E+03,   1.00052E+06,   1.00052E+06
C:/temp/Job-20.odb,Step-1,Increment      1: Step Time =    1.000,"P-20-1",          1005,       174.646,       107.592,            0.,NA,NA,"",   990.811E+03,   992.734E+03,   992.734E+03
C:/temp/Job-20.odb,Step-1,Increment      1: Step Time =    1.000,"P-20-1",          1006,       169.441,       98.4374,            0.,NA,NA,"",   986.195E+03,   988.126E+03,   988.126E+03
C:/temp/Job-20.odb,Step-1,Increment      1: Step Time =    1.000,"P-20-1",          1007,       89.9670,       174.173,            0.,NA,NA,"",   990.496E+03,   994.933E+03,   994.933E+03
C:/temp/Job-20.odb,Step-1,Increment      1: Step Time =    1.000,"P-20-1",          1008,       101.007,       168.664,            0.,NA,NA,"",   995.731E+03,   1.00189E+06,   1.00189E+06
C:/temp/Job-20.odb,Step-1,Increment      1: Step Time =    1.000,"P-20-1",          1009,       27.2017,       27.5434,            0.,NA,NA,"",   1.01182E+06,   1.05045E+06,   1.05045E+06
C:/temp/Job-20.odb,Step-1,Increment      1: Step Time =    1.000,"P-20-1",          1010,       173.520,       30.6316,            0.,NA,NA,"",   1.00409E+06,   1.00208E+06,   1.00208E+06
C:/temp/Job-20.odb,Step-1,Increment      1: Step Time =    1.000,"P-20-1",          1011,       190.436,       45.6240,            0.,NA,NA,"",   1.00197E+06,   1.00088E+06,   1.00088E+06
C:/temp/Job-20.odb,Step-1,Increment      1: Step Time =    1.000,"P-20-1",          1012,       154.705,       190.229,            0.,NA,NA,"",   993.072E+03,   992.565E+03,   992.565E+03
C:/temp/Job-20.odb,Step-1,Increment      1: Step Time =    1.000,"P-20-1",          1013,       45.3425,       9.63164,            0.,NA,NA,"",   984.983E+03,   987.049E+03,   987.049E+03
C:/temp/Job-20.odb,Step-1,Increment      1: Step Time =    1.000,"P-20-1",          1014,       9.57480,       154.393,            0.,NA,NA,"",   893.935E+03,   986.462E+03,   986.462E+03
C:/temp/Job-20.odb,Step-1,Increment      1: Step Time =    1.000,"P-20-1",          1015,       154.751,       180.395,            0.,NA,NA,"",   999.391E+03,   997.762E+03,   997.762E+03
C:/temp/Job-20.odb,Step-1,Increment      1: Step Time =    1.000,"P-20-1",          1016,       178.160,       150.504,            0.,NA,NA,"",   1.00619E+06,   1.00384E+06,   1.00384E+06
C:/temp/Job-20.odb,Step-1,Increment      1: Step Time =    1.000,"P-20-1",          1017,       49.7875,       183.110,            0.,NA,NA,"",   1.00120E+06,   1.00585E+06,   1.00585E+06
C:/temp/Job-20.odb,Step-1,Increment      1: Step Time =    1.000,"P-20-1",          1018,       180.816,       45.9946,            0.,NA,NA,"",   1.00484E+06,   1.00289E+06,   1.00289E+06
C:/temp/Job-20.odb,Step-1,Increment      1: Step Time =    1.000,"P-20-1",          1019,       152.259,       18.7937,            0.,NA,NA,"",   998.324E+03,   996.793E+03,   996.793E+03
C:/temp/Job-20.odb,Step-1,Increment      1: Step Time =    1.000,"P-20-1",          1020,       19.5975,       149.120,            0.,NA,NA,"",   918.337E+03,   995.065E+03,   995.065E+03
C:/temp/Job-20.odb,Step-1,Increment      1: Step Time =    1.000,"P-20-1",          1021,       45.0822,       19.4695,            0.,NA,NA,"",   1.01080E+06,   1.01886E+06,   1.01886E+06
C:/temp/Job-20.odb,Step-1,Increment      1: Step Time =    1.000,"P-20-1",          1022,       21.1613,       46.5986,            0.,NA,NA,"",   935.267E+03,   1.00679E+06,   1.00679E+06
C:/temp/Job-20.odb,Step-1,Increment      1: Step Time =    1.000,"P-20-1",          1023,       187.326,       152.261,            0.,NA,NA,"",   1.00273E+06,   1.00145E+06,   1.00145E+06
C:/temp/Job-20.odb,Step-1,Increment      1: Step Time =    1.000,"P-20-1",          1024,       47.5709,       186.292,            0.,NA,NA,"",   997.062E+03,   1.00057E+06,   1.00057E+06
C:/temp/Job-20.odb,Step-1,Increment      1: Step Time =    1.000,"P-20-1",          1025,       153.314,       12.3732,            0.,NA,NA,"",   994.437E+03,   993.647E+03,   993.647E+03
C:/temp/Job-20.odb,Step-1,Increment      1: Step Time =    1.000,"P-20-1",          1026,       11.6329,       45.8803,            0.,NA,NA,"",   901.297E+03,    990.47E+03,    990.47E+03
C:/temp/Job-20.odb,Step-1,Increment      1: Step Time =    1.000,"P-20-1",          1027,       26.5384,       174.974,            0.,NA,NA,"",   1.02320E+06,   1.05783E+06,   1.05783E+06
C:/temp/Job-20.odb,Step-1,Increment      1: Step Time =    1.000,"P-20-1",          1028,       23.6457,       73.0004,            0.,NA,NA,"",   884.459E+03,   964.021E+03,   964.021E+03
C:/temp/Job-20.odb,Step-1,Increment      1: Step Time =    1.000,"P-20-1",          1029,       174.656,       127.044,            0.,NA,NA,"",   1.00171E+06,   1.00064E+06,   1.00064E+06
C:/temp/Job-20.odb,Step-1,Increment      1: Step Time =    1.000,"P-20-1",          1030,       128.527,       28.4128,            0.,NA,NA,"",   1.00335E+06,   1.00234E+06,   1.00234E+06
C:/temp/Job-20.odb,Step-1,Increment      1: Step Time =    1.000,"P-20-1",          1031,       75.2846,       175.407,            0.,NA,NA,"",   995.451E+03,   999.085E+03,   999.085E+03
C:/temp/Job-20.odb,Step-1,Increment      1: Step Time =    1.000,"P-20-1",          1032,       19.2399,       177.982,            0.,NA,NA,"",   1.03448E+06,   1.07970E+06,   1.07970E+06
C:/temp/Job-20.odb,Step-1,Increment      1: Step Time =    1.000,"P-20-1",          1033,       177.703,       19.7144,            0.,NA,NA,"",   1.00054E+06,   999.610E+03,   999.610E+03
C:/temp/Job-20.odb,Step-1,Increment      1: Step Time =    1.000,"P-20-1",          1034,       180.125,       178.830,            0.,NA,NA,"",   1.00075E+06,   999.796E+03,   999.796E+03
C:/temp/Job-20.odb,Step-1,Increment      1: Step Time =    1.000,"P-20-1",          1035,       24.0587,       143.622,            0.,NA,NA,"",   919.647E+03,   991.736E+03,   991.736E+03
C:/temp/Job-20.odb,Step-1,Increment      1: Step Time =    1.000,"P-20-1",          1036,       142.456,       27.6582,            0.,NA,NA,"",   1.00605E+06,   1.00319E+06,   1.00319E+06
C:/temp/Job-20.odb,Step-1,Increment      1: Step Time =    1.000,"P-20-1",          1037,       24.8987,       52.7523,            0.,NA,NA,"",   931.902E+03,   1.00024E+06,   1.00024E+06
C:/temp/Job-20.odb,Step-1,Increment      1: Step Time =    1.000,"P-20-1",          1038,       54.7904,       24.9893,            0.,NA,NA,"",   1.00872E+06,   1.01621E+06,   1.01621E+06
C:/temp/Job-20.odb,Step-1,Increment      1: Step Time =    1.000,"P-20-1",          1039,       175.552,       55.5772,            0.,NA,NA,"",   1.00736E+06,   1.00467E+06,   1.00467E+06
C:/temp/Job-20.odb,Step-1,Increment      1: Step Time =    1.000,"P-20-1",          1040,       144.662,       175.693,            0.,NA,NA,"",   1.00256E+06,   1.00022E+06,   1.00022E+06
C:/temp/Job-20.odb,Step-1,Increment      1: Step Time =    1.000,"P-20-1",          1041,       11.1349,       15.4354,            0.,NA,NA,"",   1.07435E+06,   1.13232E+06,   1.13232E+06
C:/temp/Job-20.odb,Step-1,Increment      1: Step Time =    1.000,"P-20-1",          1042,       184.395,       10.3365,            0.,NA,NA,"",   999.449E+03,   999.180E+03,   999.180E+03
C:/temp/Job-20.odb,Step-1,Increment      1: Step Time =    1.000,"P-20-1",          1043,       15.4460,       189.329,            0.,NA,NA,"",   1.11358E+06,   1.13674E+06,   1.13674E+06
C:/temp/Job-20.odb,Step-1,Increment      1: Step Time =    1.000,"P-20-1",          1044,       189.827,       184.684,            0.,NA,NA,"",   1.00012E+06,   999.671E+03,   999.671E+03
C:/temp/Job-20.odb,Step-1,Increment      1: Step Time =    1.000,"P-20-1",          1045,       39.0655,       23.8688,            0.,NA,NA,"",   1.02007E+06,   1.03660E+06,   1.03660E+06
C:/temp/Job-20.odb,Step-1,Increment      1: Step Time =    1.000,"P-20-1",          1046,       26.0259,       160.945,            0.,NA,NA,"",   972.617E+03,   1.02800E+06,   1.02800E+06
C:/temp/Job-20.odb,Step-1,Increment      1: Step Time =    1.000,"P-20-1",          1047,       176.527,       41.2774,            0.,NA,NA,"",   1.00596E+06,   1.00355E+06,   1.00355E+06
C:/temp/Job-20.odb,Step-1,Increment      1: Step Time =    1.000,"P-20-1",          1048,       160.276,       176.150,            0.,NA,NA,"",   1.00265E+06,   1.00057E+06,   1.00057E+06
C:/temp/Job-20.odb,Step-1,Increment      1: Step Time =    1.000,"P-20-1",          1049,       154.939,       175.424,            0.,NA,NA,"",   1.00318E+06,   1.00083E+06,   1.00083E+06
C:/temp/Job-20.odb,Step-1,Increment      1: Step Time =    1.000,"P-20-1",          1050,       173.642,       152.213,            0.,NA,NA,"",   1.00840E+06,   1.00530E+06,   1.00530E+06
C:/temp/Job-20.odb,Step-1,Increment      1: Step Time =    1.000,"P-20-1",          1051,       175.866,       45.9416,            0.,NA,NA,"",   1.00698E+06,   1.00432E+06,   1.00432E+06
C:/temp/Job-20.odb,Step-1,Increment      1: Step Time =    1.000,"P-20-1",          1052,       44.2031,       174.980,            0.,NA,NA,"",   1.01635E+06,   1.02948E+06,   1.02948E+06
C:/temp/Job-20.odb,Step-1,Increment      1: Step Time =    1.000,"P-20-1",          1053,       25.4579,       154.333,            0.,NA,NA,"",   951.727E+03,   1.01428E+06,   1.01428E+06
C:/temp/Job-20.odb,Step-1,Increment      1: Step Time =    1.000,"P-20-1",          1054,       152.539,       24.6552,            0.,NA,NA,"",   1.00356E+06,   1.00107E+06,   1.00107E+06
C:/temp/Job-20.odb,Step-1,Increment      1: Step Time =    1.000,"P-20-1",          1055,       44.5433,       24.5837,            0.,NA,NA,"",   1.01548E+06,   1.02820E+06,   1.02820E+06
C:/temp/Job-20.odb,Step-1,Increment      1: Step Time =    1.000,"P-20-1",          1056,       27.2327,       43.7877,            0.,NA,NA,"",   963.376E+03,   1.02070E+06,   1.02070E+06
C:/temp/Job-20.odb,Step-1,Increment      1: Step Time =    1.000,"P-20-1",          1057,       171.290,       147.424,            0.,NA,NA,"",   1.01017E+06,   1.00651E+06,   1.00651E+06
C:/temp/Job-20.odb,Step-1,Increment      1: Step Time =    1.000,"P-20-1",          1058,       149.720,       175.502,            0.,NA,NA,"",   1.00314E+06,   1.00069E+06,   1.00069E+06
C:/temp/Job-20.odb,Step-1,Increment      1: Step Time =    1.000,"P-20-1",          1059,       147.079,       25.7884,            0.,NA,NA,"",   1.00449E+06,   1.00181E+06,   1.00181E+06
C:/temp/Job-20.odb,Step-1,Increment      1: Step Time =    1.000,"P-20-1",          1060,       24.6011,       148.617,            0.,NA,NA,"",   933.603E+03,   1.00180E+06,   1.00180E+06
C:/temp/Job-20.odb,Step-1,Increment      1: Step Time =    1.000,"P-20-1",          1061,       49.2537,       176.737,            0.,NA,NA,"",   1.01086E+06,   1.01950E+06,   1.01950E+06
C:/temp/Job-20.odb,Step-1,Increment      1: Step Time =    1.000,"P-20-1",          1062,       175.696,       50.7557,            0.,NA,NA,"",   1.00751E+06,   1.00474E+06,   1.00474E+06
C:/temp/Job-20.odb,Step-1,Increment      1: Step Time =    1.000,"P-20-1",          1063,       26.3458,       48.4189,            0.,NA,NA,"",   947.538E+03,   1.01054E+06,   1.01054E+06
C:/temp/Job-20.odb,Step-1,Increment      1: Step Time =    1.000,"P-20-1",          1064,       49.7194,       24.8384,            0.,NA,NA,"",   1.01206E+06,   1.02180E+06,   1.02180E+06
C:/temp/Job-20.odb,Step-1,Increment      1: Step Time =    1.000,"P-20-1",          1065,       31.0530,       90.0367,            0.,NA,NA,"",   879.015E+03,   953.079E+03,   953.079E+03
C:/temp/Job-20.odb,Step-1,Increment      1: Step Time =    1.000,"P-20-1",          1066,       110.339,       30.2227,            0.,NA,NA,"",   996.745E+03,   1.00081E+06,   1.00081E+06
C:/temp/Job-20.odb,Step-1,Increment      1: Step Time =    1.000,"P-20-1",          1067,       170.219,       112.826,            0.,NA,NA,"",   991.986E+03,   992.749E+03,   992.749E+03
C:/temp/Job-20.odb,Step-1,Increment      1: Step Time =    1.000,"P-20-1",          1068,       89.5508,       168.910,            0.,NA,NA,"",   998.032E+03,   1.00430E+06,   1.00430E+06
C:/temp/Job-20.odb,Step-1,Increment      1: Step Time =    1.000,"P-20-1",          1069,       164.285,       98.2781,            0.,NA,NA,"",   981.751E+03,   983.642E+03,   983.642E+03
C:/temp/Job-20.odb,Step-1,Increment      1: Step Time =    1.000,"P-20-1",          1070,       102.421,       163.732,            0.,NA,NA,"",   1.00101E+06,   1.00904E+06,   1.00904E+06
C:/temp/Job-20.odb,Step-1,Increment      1: Step Time =    1.000,"P-20-1",          1071,       37.3870,       100.225,            0.,NA,NA,"",   884.128E+03,   951.404E+03,   951.404E+03
C:/temp/Job-20.odb,Step-1,Increment      1: Step Time =    1.000,"P-20-1",          1072,       97.6066,       35.1142,            0.,NA,NA,"",   999.434E+03,   1.00770E+06,   1.00770E+06
C:/temp/Job-20.odb,Step-1,Increment      1: Step Time =    1.000,"P-20-1",          1073,       111.379,       164.732,            0.,NA,NA,"",   1.00310E+06,   1.00814E+06,   1.00814E+06
C:/temp/Job-20.odb,Step-1,Increment      1: Step Time =    1.000,"P-20-1",          1074,       164.768,       89.0457,            0.,NA,NA,"",   987.907E+03,   988.450E+03,   988.450E+03
C:/temp/Job-20.odb,Step-1,Increment      1: Step Time =    1.000,"P-20-1",          1075,       31.2577,       111.938,            0.,NA,NA,"",   881.015E+03,   954.619E+03,   954.619E+03
C:/temp/Job-20.odb,Step-1,Increment      1: Step Time =    1.000,"P-20-1",          1076,       87.3045,       34.4040,            0.,NA,NA,"",   1.00302E+06,   1.01023E+06,   1.01023E+06
C:/temp/Job-20.odb,Step-1,Increment      1: Step Time =    1.000,"P-20-1",          1077,       163.729,       79.0920,            0.,NA,NA,"",   998.924E+03,   996.659E+03,   996.659E+03
C:/temp/Job-20.odb,Step-1,Increment      1: Step Time =    1.000,"P-20-1",          1078,       121.257,       164.866,            0.,NA,NA,"",   1.00907E+06,   1.01002E+06,   1.01002E+06
C:/temp/Job-20.odb,Step-1,Increment      1: Step Time =    1.000,"P-20-1",          1079,       164.358,       121.598,            0.,NA,NA,"",   999.777E+03,   997.432E+03,   997.432E+03
C:/temp/Job-20.odb,Step-1,Increment      1: Step Time =    1.000,"P-20-1",          1080,       79.6175,       164.406,            0.,NA,NA,"",   1.00999E+06,   1.01711E+06,   1.01711E+06
C:/temp/Job-20.odb,Step-1,Increment      1: Step Time =    1.000,"P-20-1",          1081,       34.1391,       78.3967,            0.,NA,NA,"",   904.367E+03,   970.667E+03,   970.667E+03
C:/temp/Job-20.odb,Step-1,Increment      1: Step Time =    1.000,"P-20-1",          1082,       121.808,       33.9129,            0.,NA,NA,"",   1.00773E+06,   1.00851E+06,   1.00851E+06
C:/temp/Job-20.odb,Step-1,Increment      1: Step Time =    1.000,"P-20-1",          1083,       33.8070,       122.478,            0.,NA,NA,"",   904.648E+03,   971.576E+03,   971.576E+03
C:/temp/Job-20.odb,Step-1,Increment      1: Step Time =    1.000,"P-20-1",          1084,       79.9581,       36.1282,            0.,NA,NA,"",   1.00969E+06,   1.01714E+06,   1.01714E+06
C:/temp/Job-20.odb,Step-1,Increment      1: Step Time =    1.000,"P-20-1",          1085,       164.268,       69.2237,            0.,NA,NA,"",   1.00933E+06,   1.00492E+06,   1.00492E+06
C:/temp/Job-20.odb,Step-1,Increment      1: Step Time =    1.000,"P-20-1",          1086,       32.2551,       129.737,            0.,NA,NA,"",   915.491E+03,   981.194E+03,   981.194E+03
C:/temp/Job-20.odb,Step-1,Increment      1: Step Time =    1.000,"P-20-1",          1087,       131.306,       165.027,            0.,NA,NA,"",   1.01336E+06,   1.01110E+06,   1.01110E+06
C:/temp/Job-20.odb,Step-1,Increment      1: Step Time =    1.000,"P-20-1",          1088,       68.9785,       36.1849,            0.,NA,NA,"",   1.01587E+06,   1.02372E+06,   1.02372E+06
C:/temp/Job-20.odb,Step-1,Increment      1: Step Time =    1.000,"P-20-1",          1089,       36.5467,       166.008,            0.,NA,NA,"",   1.00777E+06,   1.03833E+06,   1.03833E+06
C:/temp/Job-20.odb,Step-1,Increment      1: Step Time =    1.000,"P-20-1",          1090,       167.991,       39.0390,            0.,NA,NA,"",   1.00909E+06,   1.00567E+06,   1.00567E+06
C:/temp/Job-20.odb,Step-1,Increment      1: Step Time =    1.000,"P-20-1",          1091,       165.891,       165.073,            0.,NA,NA,"",   1.00851E+06,   1.00520E+06,   1.00520E+06
C:/temp/Job-20.odb,Step-1,Increment      1: Step Time =    1.000,"P-20-1",          1092,       162.125,       168.274,            0.,NA,NA,"",   1.00747E+06,   1.00436E+06,   1.00436E+06
C:/temp/Job-20.odb,Step-1,Increment      1: Step Time =    1.000,"P-20-1",          1093,       37.1571,       36.8740,            0.,NA,NA,"",   1.00098E+06,   1.03474E+06,   1.03474E+06
C:/temp/Job-20.odb,Step-1,Increment      1: Step Time =    1.000,"P-20-1",          1094,       38.0974,       32.9267,            0.,NA,NA,"",   1.00837E+06,   1.03704E+06,   1.03704E+06
C:/temp/Job-20.odb,Step-1,Increment      1: Step Time =    1.000,"P-20-1",          1095,       163.465,       34.0508,            0.,NA,NA,"",   1.00851E+06,   1.00515E+06,   1.00515E+06
C:/temp/Job-20.odb,Step-1,Increment      1: Step Time =    1.000,"P-20-1",          1096,       31.7388,       163.865,            0.,NA,NA,"",   994.696E+03,   1.03609E+06,   1.03609E+06
C:/temp/Job-20.odb,Step-1,Increment      1: Step Time =    1.000,"P-20-1",          1097,       148.031,       30.8995,            0.,NA,NA,"",   1.00973E+06,   1.00610E+06,   1.00610E+06
C:/temp/Job-20.odb,Step-1,Increment      1: Step Time =    1.000,"P-20-1",          1098,       167.132,       149.449,            0.,NA,NA,"",   1.01291E+06,   1.00839E+06,   1.00839E+06
C:/temp/Job-20.odb,Step-1,Increment      1: Step Time =    1.000,"P-20-1",          1099,       32.1638,       44.7859,            0.,NA,NA,"",   974.065E+03,   1.02345E+06,   1.02345E+06
C:/temp/Job-20.odb,Step-1,Increment      1: Step Time =    1.000,"P-20-1",          1100,       46.7645,       171.387,            0.,NA,NA,"",   1.01580E+06,   1.03029E+06,   1.03029E+06
C:/temp/Job-20.odb,Step-1,Increment      1: Step Time =    1.000,"P-20-1",          1101,       161.550,       160.940,            0.,NA,NA,"",   1.01194E+06,   1.00774E+06,   1.00774E+06
C:/temp/Job-20.odb,Step-1,Increment      1: Step Time =    1.000,"P-20-1",          1102,       39.7550,       161.898,            0.,NA,NA,"",   1.00335E+06,   1.03445E+06,   1.03445E+06
C:/temp/Job-20.odb,Step-1,Increment      1: Step Time =    1.000,"P-20-1",          1103,       163.269,       39.0370,            0.,NA,NA,"",   1.01111E+06,   1.00709E+06,   1.00709E+06
C:/temp/Job-20.odb,Step-1,Increment      1: Step Time =    1.000,"P-20-1",          1104,       40.8705,       37.5851,            0.,NA,NA,"",   1.00444E+06,   1.03377E+06,   1.03377E+06
C:/temp/Job-20.odb,Step-1,Increment      1: Step Time =    1.000,"P-20-1",          1105,       20.2123,       78.1857,            0.,NA,NA,"",   866.891E+03,   952.176E+03,   952.176E+03
C:/temp/Job-20.odb,Step-1,Increment      1: Step Time =    1.000,"P-20-1",          1106,       179.247,       121.737,            0.,NA,NA,"",   998.039E+03,   998.762E+03,   998.762E+03
C:/temp/Job-20.odb,Step-1,Increment      1: Step Time =    1.000,"P-20-1",          1107,       29.3254,       63.8617,            0.,NA,NA,"",   920.763E+03,   987.976E+03,   987.976E+03
C:/temp/Job-20.odb,Step-1,Increment      1: Step Time =    1.000,"P-20-1",          1108,       171.379,       133.200,            0.,NA,NA,"",   1.00632E+06,   1.00361E+06,   1.00361E+06
C:/temp/Job-20.odb,Step-1,Increment      1: Step Time =    1.000,"P-20-1",          1109,       131.994,       29.3187,            0.,NA,NA,"",   1.00577E+06,   1.00387E+06,   1.00387E+06
C:/temp/Job-20.odb,Step-1,Increment      1: Step Time =    1.000,"P-20-1",          1110,       66.2304,       171.050,            0.,NA,NA,"",   1.00850E+06,   1.01416E+06,   1.01416E+06
C:/temp/Job-20.odb,Step-1,Increment      1: Step Time =    1.000,"P-20-1",          1111,       176.094,       156.881,            0.,NA,NA,"",   1.00661E+06,   1.00402E+06,   1.00402E+06
C:/temp/Job-20.odb,Step-1,Increment      1: Step Time =    1.000,"P-20-1",          1112,       157.942,       24.3605,            0.,NA,NA,"",   1.00308E+06,   1.00083E+06,   1.00083E+06
C:/temp/Job-20.odb,Step-1,Increment      1: Step Time =    1.000,"P-20-1",          1113,       28.0775,       39.2818,            0.,NA,NA,"",   978.833E+03,   1.03008E+06,   1.03008E+06
C:/temp/Job-20.odb,Step-1,Increment      1: Step Time =    1.000,"P-20-1",          1114,       164.573,       117.045,            0.,NA,NA,"",   994.996E+03,   993.855E+03,   993.855E+03
C:/temp/Job-20.odb,Step-1,Increment      1: Step Time =    1.000,"P-20-1",          1115,       84.2870,       163.923,            0.,NA,NA,"",   1.00725E+06,   1.01498E+06,   1.01498E+06
C:/temp/Job-20.odb,Step-1,Increment      1: Step Time =    1.000,"P-20-1",          1116,       34.2134,       82.1249,            0.,NA,NA,"",   897.173E+03,   965.174E+03,   965.174E+03
C:/temp/Job-20.odb,Step-1,Increment      1: Step Time =    1.000,"P-20-1",          1117,       116.369,       35.6228,            0.,NA,NA,"",   1.00678E+06,   1.00972E+06,   1.00972E+06
C:/temp/Job-20.odb,Step-1,Increment      1: Step Time =    1.000,"P-20-1",          1118,       184.526,       184.421,            0.,NA,NA,"",   999.914E+03,   999.390E+03,   999.390E+03
C:/temp/Job-20.odb,Step-1,Increment      1: Step Time =    1.000,"P-20-1",          1119,       183.928,       15.6877,            0.,NA,NA,"",   999.944E+03,   999.415E+03,   999.415E+03
C:/temp/Job-20.odb,Step-1,Increment      1: Step Time =    1.000,"P-20-1",          1120,       16.0943,       14.8226,            0.,NA,NA,"",   1.08382E+06,   1.11965E+06,   1.11965E+06
C:/temp/Job-20.odb,Step-1,Increment      1: Step Time =    1.000,"P-20-1",          1121,       106.807,       164.131,            0.,NA,NA,"",   1.00148E+06,   1.00820E+06,   1.00820E+06
C:/temp/Job-20.odb,Step-1,Increment      1: Step Time =    1.000,"P-20-1",          1122,       163.721,       93.3331,            0.,NA,NA,"",   983.741E+03,   984.959E+03,   984.959E+03
C:/temp/Job-20.odb,Step-1,Increment      1: Step Time =    1.000,"P-20-1",          1123,       36.1277,       104.229,            0.,NA,NA,"",   882.758E+03,   951.701E+03,   951.701E+03
C:/temp/Job-20.odb,Step-1,Increment      1: Step Time =    1.000,"P-20-1",          1124,       92.2438,       36.1879,            0.,NA,NA,"",   1.00282E+06,   1.01130E+06,   1.01130E+06
C:/temp/Job-20.odb,Step-1,Increment      1: Step Time =    1.000,"P-20-1",          1125,       163.373,       84.2987,            0.,NA,NA,"",   992.315E+03,   991.440E+03,   991.440E+03
C:/temp/Job-20.odb,Step-1,Increment      1: Step Time =    1.000,"P-20-1",          1126,       116.237,       165.125,            0.,NA,NA,"",   1.00578E+06,   1.00876E+06,   1.00876E+06
C:/temp/Job-20.odb,Step-1,Increment      1: Step Time =    1.000,"P-20-1",          1127,       35.5264,       117.969,            0.,NA,NA,"",   900.495E+03,   966.613E+03,   966.613E+03
C:/temp/Job-20.odb,Step-1,Increment      1: Step Time =    1.000,"P-20-1",          1128,       84.9248,       38.5138,            0.,NA,NA,"",   1.00932E+06,   1.01833E+06,   1.01833E+06
C:/temp/Job-20.odb,Step-1,Increment      1: Step Time =    1.000,"P-20-1",          1129,       126.347,       164.521,            0.,NA,NA,"",   1.01186E+06,   1.01107E+06,   1.01107E+06
C:/temp/Job-20.odb,Step-1,Increment      1: Step Time =    1.000,"P-20-1",          1130,       74.2423,       36.2244,            0.,NA,NA,"",   1.01364E+06,   1.02093E+06,   1.02093E+06
C:/temp/Job-20.odb,Step-1,Increment      1: Step Time =    1.000,"P-20-1",          1131,       32.3660,       126.346,            0.,NA,NA,"",   908.373E+03,   975.646E+03,   975.646E+03
C:/temp/Job-20.odb,Step-1,Increment      1: Step Time =    1.000,"P-20-1",          1132,       163.830,       74.0895,            0.,NA,NA,"",   1.00491E+06,   1.00131E+06,   1.00131E+06
C:/temp/Job-20.odb,Step-1,Increment      1: Step Time =    1.000,"P-20-1",          1133,       164.526,       102.922,            0.,NA,NA,"",   982.133E+03,   983.976E+03,   983.976E+03
C:/temp/Job-20.odb,Step-1,Increment      1: Step Time =    1.000,"P-20-1",          1134,       98.3865,       161.686,            0.,NA,NA,"",   1.00274E+06,   1.01216E+06,   1.01216E+06
C:/temp/Job-20.odb,Step-1,Increment      1: Step Time =    1.000,"P-20-1",          1135,       40.1667,       98.7166,            0.,NA,NA,"",   887.361E+03,   951.466E+03,   951.466E+03
C:/temp/Job-20.odb,Step-1,Increment      1: Step Time =    1.000,"P-20-1",          1136,       102.768,       38.0190,            0.,NA,NA,"",   1.00203E+06,   1.01065E+06,   1.01065E+06
C:/temp/Job-20.odb,Step-1,Increment      1: Step Time =    1.000,"P-20-1",          1137,       136.057,       165.868,            0.,NA,NA,"",   1.01327E+06,   1.01003E+06,   1.01003E+06
C:/temp/Job-20.odb,Step-1,Increment      1: Step Time =    1.000,"P-20-1",          1138,       63.9016,       36.0012,            0.,NA,NA,"",   1.01683E+06,   1.02595E+06,   1.02595E+06
C:/temp/Job-20.odb,Step-1,Increment      1: Step Time =    1.000,"P-20-1",          1139,       33.9717,       138.415,            0.,NA,NA,"",   940.165E+03,   998.595E+03,   998.595E+03
C:/temp/Job-20.odb,Step-1,Increment      1: Step Time =    1.000,"P-20-1",          1140,       164.810,       64.5357,            0.,NA,NA,"",   1.01194E+06,   1.00713E+06,   1.00713E+06
C:/temp/Job-20.odb,Step-1,Increment      1: Step Time =    1.000,"P-20-1",          1141,       37.8294,       73.9668,            0.,NA,NA,"",   924.995E+03,   983.304E+03,   983.304E+03
C:/temp/Job-20.odb,Step-1,Increment      1: Step Time =    1.000,"P-20-1",          1142,       123.422,       38.4493,            0.,NA,NA,"",   1.01515E+06,   1.01527E+06,   1.01527E+06
C:/temp/Job-20.odb,Step-1,Increment      1: Step Time =    1.000,"P-20-1",          1143,       163.269,       125.359,            0.,NA,NA,"",   1.00408E+06,   1.00066E+06,   1.00066E+06
C:/temp/Job-20.odb,Step-1,Increment      1: Step Time =    1.000,"P-20-1",          1144,       74.1509,       160.612,            0.,NA,NA,"",   1.01787E+06,   1.02604E+06,   1.02604E+06
C:/temp/Job-20.odb,Step-1,Increment      1: Step Time =    1.000,"P-20-1",          1145,       189.272,       15.6360,            0.,NA,NA,"",   1.00015E+06,   999.691E+03,   999.691E+03
C:/temp/Job-20.odb,Step-1,Increment      1: Step Time =    1.000,"P-20-1",          1146,       184.571,       189.556,            0.,NA,NA,"",   999.447E+03,   999.165E+03,   999.165E+03
C:/temp/Job-20.odb,Step-1,Increment      1: Step Time =    1.000,"P-20-1",          1147,       15.6507,       9.99872,            0.,NA,NA,"",   1.11389E+06,   1.13438E+06,   1.13438E+06
C:/temp/Job-20.odb,Step-1,Increment      1: Step Time =    1.000,"P-20-1",          1148,       10.2694,       184.377,            0.,NA,NA,"",   1.06784E+06,   1.13044E+06,   1.13044E+06
C:/temp/Job-20.odb,Step-1,Increment      1: Step Time =    1.000,"P-20-1",          1149,       158.768,       166.384,            0.,NA,NA,"",   1.00945E+06,   1.00584E+06,   1.00584E+06
C:/temp/Job-20.odb,Step-1,Increment      1: Step Time =    1.000,"P-20-1",          1150,       167.285,       42.8141,            0.,NA,NA,"",   1.01061E+06,   1.00677E+06,   1.00677E+06
C:/temp/Job-20.odb,Step-1,Increment      1: Step Time =    1.000,"P-20-1",          1151,       36.5735,       158.953,            0.,NA,NA,"",   991.724E+03,   1.03055E+06,   1.03055E+06
C:/temp/Job-20.odb,Step-1,Increment      1: Step Time =    1.000,"P-20-1",          1152,       41.8906,       33.9348,            0.,NA,NA,"",   1.01169E+06,   1.03605E+06,   1.03605E+06
C:/temp/Job-20.odb,Step-1,Increment      1: Step Time =    1.000,"P-20-1",          1153,       159.579,       121.527,            0.,NA,NA,"",   1.00087E+06,   997.419E+03,   997.419E+03
C:/temp/Job-20.odb,Step-1,Increment      1: Step Time =    1.000,"P-20-1",          1154,       78.9756,       158.616,            0.,NA,NA,"",   1.01747E+06,   1.02656E+06,   1.02656E+06
C:/temp/Job-20.odb,Step-1,Increment      1: Step Time =    1.000,"P-20-1",          1155,       164.741,       112.194,            0.,NA,NA,"",   989.207E+03,   989.382E+03,   989.382E+03
C:/temp/Job-20.odb,Step-1,Increment      1: Step Time =    1.000,"P-20-1",          1156,       88.8357,       163.993,            0.,NA,NA,"",   1.00408E+06,   1.01256E+06,   1.01256E+06
C:/temp/Job-20.odb,Step-1,Increment      1: Step Time =    1.000,"P-20-1",          1157,       38.5648,       78.0249,            0.,NA,NA,"",   916.183E+03,   976.117E+03,   976.117E+03
C:/temp/Job-20.odb,Step-1,Increment      1: Step Time =    1.000,"P-20-1",          1158,       119.226,       40.4066,            0.,NA,NA,"",   1.01462E+06,   1.01690E+06,   1.01690E+06
C:/temp/Job-20.odb,Step-1,Increment      1: Step Time =    1.000,"P-20-1",          1159,       33.0543,       85.8891,            0.,NA,NA,"",   888.646E+03,   959.257E+03,   959.257E+03
C:/temp/Job-20.odb,Step-1,Increment      1: Step Time =    1.000,"P-20-1",          1160,       110.800,       38.0503,            0.,NA,NA,"",   1.00570E+06,   1.01186E+06,   1.01186E+06
C:/temp/Job-20.odb,Step-1,Increment      1: Step Time =    1.000,"P-20-1",          1161,       112.032,       160.203,            0.,NA,NA,"",   1.00878E+06,   1.01461E+06,   1.01461E+06
C:/temp/Job-20.odb,Step-1,Increment      1: Step Time =    1.000,"P-20-1",          1162,       161.625,       89.9408,            0.,NA,NA,"",   984.872E+03,   985.355E+03,   985.355E+03
C:/temp/Job-20.odb,Step-1,Increment      1: Step Time =    1.000,"P-20-1",          1163,       88.6727,       39.7224,            0.,NA,NA,"",   1.00852E+06,   1.01841E+06,   1.01841E+06
C:/temp/Job-20.odb,Step-1,Increment      1: Step Time =    1.000,"P-20-1",          1164,       37.6412,       112.754,            0.,NA,NA,"",   895.703E+03,   960.597E+03,   960.597E+03
C:/temp/Job-20.odb,Step-1,Increment      1: Step Time =    1.000,"P-20-1",          1165,       120.951,       160.380,            0.,NA,NA,"",   1.01472E+06,   1.01594E+06,   1.01594E+06
C:/temp/Job-20.odb,Step-1,Increment      1: Step Time =    1.000,"P-20-1",          1166,       158.610,       78.8549,            0.,NA,NA,"",   1.00003E+06,   996.471E+03,   996.471E+03
C:/temp/Job-20.odb,Step-1,Increment      1: Step Time =    1.000,"P-20-1",          1167,       37.7135,       124.400,            0.,NA,NA,"",   919.605E+03,   979.833E+03,   979.833E+03
C:/temp/Job-20.odb,Step-1,Increment      1: Step Time =    1.000,"P-20-1",          1168,       159.472,       98.4838,            0.,NA,NA,"",   976.312E+03,   978.263E+03,   978.263E+03
C:/temp/Job-20.odb,Step-1,Increment      1: Step Time =    1.000,"P-20-1",          1169,       102.590,       160.088,            0.,NA,NA,"",   1.00436E+06,   1.01409E+06,   1.01409E+06
C:/temp/Job-20.odb,Step-1,Increment      1: Step Time =    1.000,"P-20-1",          1170,       98.5838,       39.7122,            0.,NA,NA,"",   1.00357E+06,   1.01396E+06,   1.01396E+06
C:/temp/Job-20.odb,Step-1,Increment      1: Step Time =    1.000,"P-20-1",          1171,       39.1086,       102.980,            0.,NA,NA,"",   886.166E+03,   951.983E+03,   951.983E+03
C:/temp/Job-20.odb,Step-1,Increment      1: Step Time =    1.000,"P-20-1",          1172,       132.253,       160.190,            0.,NA,NA,"",   1.02048E+06,   1.01703E+06,   1.01703E+06
C:/temp/Job-20.odb,Step-1,Increment      1: Step Time =    1.000,"P-20-1",          1173,       140.273,       167.203,            0.,NA,NA,"",   1.01214E+06,   1.00850E+06,   1.00850E+06
C:/temp/Job-20.odb,Step-1,Increment      1: Step Time =    1.000,"P-20-1",          1174,       59.0334,       35.6424,            0.,NA,NA,"",   1.01687E+06,   1.02782E+06,   1.02782E+06
C:/temp/Job-20.odb,Step-1,Increment      1: Step Time =    1.000,"P-20-1",          1175,       68.5622,       41.7248,            0.,NA,NA,"",   1.02192E+06,   1.03147E+06,   1.03147E+06
C:/temp/Job-20.odb,Step-1,Increment      1: Step Time =    1.000,"P-20-1",          1176,       32.0882,       142.141,            0.,NA,NA,"",   942.049E+03,   1.00160E+06,   1.00160E+06
C:/temp/Job-20.odb,Step-1,Increment      1: Step Time =    1.000,"P-20-1",          1177,       38.3671,       131.694,            0.,NA,NA,"",   938.458E+03,   993.549E+03,   993.549E+03
C:/temp/Job-20.odb,Step-1,Increment      1: Step Time =    1.000,"P-20-1",          1178,       165.491,       60.0197,            0.,NA,NA,"",   1.01328E+06,   1.00834E+06,   1.00834E+06
C:/temp/Job-20.odb,Step-1,Increment      1: Step Time =    1.000,"P-20-1",          1179,       158.879,       68.6139,            0.,NA,NA,"",   1.01423E+06,   1.00800E+06,   1.00800E+06
C:/temp/Job-20.odb,Step-1,Increment      1: Step Time =    1.000,"P-20-1",          1180,       32.6730,       70.8854,            0.,NA,NA,"",   916.496E+03,   981.583E+03,   981.583E+03
C:/temp/Job-20.odb,Step-1,Increment      1: Step Time =    1.000,"P-20-1",          1181,       127.862,       37.1311,            0.,NA,NA,"",   1.01600E+06,   1.01427E+06,   1.01427E+06
C:/temp/Job-20.odb,Step-1,Increment      1: Step Time =    1.000,"P-20-1",          1182,       153.300,       35.0902,            0.,NA,NA,"",   1.01254E+06,   1.00820E+06,   1.00820E+06
C:/temp/Job-20.odb,Step-1,Increment      1: Step Time =    1.000,"P-20-1",          1183,       163.086,       153.151,            0.,NA,NA,"",   1.01474E+06,   1.00974E+06,   1.00974E+06
C:/temp/Job-20.odb,Step-1,Increment      1: Step Time =    1.000,"P-20-1",          1184,       36.5521,       44.5940,            0.,NA,NA,"",   984.114E+03,   1.02630E+06,   1.02630E+06
C:/temp/Job-20.odb,Step-1,Increment      1: Step Time =    1.000,"P-20-1",          1185,       44.9136,       168.347,            0.,NA,NA,"",   1.01435E+06,   1.03280E+06,   1.03280E+06
C:/temp/Job-20.odb,Step-1,Increment      1: Step Time =    1.000,"P-20-1",          1186,       36.6147,       40.6243,            0.,NA,NA,"",   992.225E+03,   1.03081E+06,   1.03081E+06
C:/temp/Job-20.odb,Step-1,Increment      1: Step Time =    1.000,"P-20-1",          1187,       42.7453,       164.889,            0.,NA,NA,"",   1.01118E+06,   1.03517E+06,   1.03517E+06
C:/temp/Job-20.odb,Step-1,Increment      1: Step Time =    1.000,"P-20-1",          1188,       158.297,       34.5220,            0.,NA,NA,"",   1.01053E+06,   1.00662E+06,   1.00662E+06
C:/temp/Job-20.odb,Step-1,Increment      1: Step Time =    1.000,"P-20-1",          1189,       162.480,       155.875,            0.,NA,NA,"",   1.01412E+06,   1.00932E+06,   1.00932E+06
C:/temp/Job-20.odb,Step-1,Increment      1: Step Time =    1.000,"P-20-1",          1190,       165.938,       47.5435,            0.,NA,NA,"",   1.01295E+06,   1.00844E+06,   1.00844E+06
C:/temp/Job-20.odb,Step-1,Increment      1: Step Time =    1.000,"P-20-1",          1191,       45.2225,       34.6542,            0.,NA,NA,"",   1.01298E+06,   1.03377E+06,   1.03377E+06
C:/temp/Job-20.odb,Step-1,Increment      1: Step Time =    1.000,"P-20-1",          1192,       152.454,       164.661,            0.,NA,NA,"",   1.01270E+06,   1.00838E+06,   1.00838E+06
C:/temp/Job-20.odb,Step-1,Increment      1: Step Time =    1.000,"P-20-1",          1193,       33.7541,       155.245,            0.,NA,NA,"",   977.485E+03,   1.02444E+06,   1.02444E+06
C:/temp/Job-20.odb,Step-1,Increment      1: Step Time =    1.000,"P-20-1",          1194,       159.934,       111.839,            0.,NA,NA,"",   986.495E+03,   986.245E+03,   986.245E+03
C:/temp/Job-20.odb,Step-1,Increment      1: Step Time =    1.000,"P-20-1",          1195,       89.4224,       158.955,            0.,NA,NA,"",   1.00877E+06,   1.01955E+06,   1.01955E+06
C:/temp/Job-20.odb,Step-1,Increment      1: Step Time =    1.000,"P-20-1",          1196,       38.0361,       86.6933,            0.,NA,NA,"",   897.591E+03,   962.054E+03,   962.054E+03
C:/temp/Job-20.odb,Step-1,Increment      1: Step Time =    1.000,"P-20-1",          1197,       113.241,       39.8480,            0.,NA,NA,"",   1.00964E+06,   1.01507E+06,   1.01507E+06
C:/temp/Job-20.odb,Step-1,Increment      1: Step Time =    1.000,"P-20-1",          1198,       141.959,       164.042,            0.,NA,NA,"",   1.01550E+06,   1.01113E+06,   1.01113E+06
C:/temp/Job-20.odb,Step-1,Increment      1: Step Time =    1.000,"P-20-1",          1199,       58.2897,       41.2330,            0.,NA,NA,"",   1.01861E+06,   1.03273E+06,   1.03273E+06
C:/temp/Job-20.odb,Step-1,Increment      1: Step Time =    1.000,"P-20-1",          1200,       160.443,       59.3433,            0.,NA,NA,"",   1.01802E+06,   1.01161E+06,   1.01161E+06
C:/temp/Job-20.odb,Step-1,Increment      1: Step Time =    1.000,"P-20-1",          1201,       164.506,       107.433,            0.,NA,NA,"",   984.558E+03,    985.75E+03,    985.75E+03
C:/temp/Job-20.odb,Step-1,Increment      1: Step Time =    1.000,"P-20-1",          1202,       92.6184,       163.850,            0.,NA,NA,"",   1.00246E+06,   1.01124E+06,   1.01124E+06
C:/temp/Job-20.odb,Step-1,Increment      1: Step Time =    1.000,"P-20-1",          1203,       36.3860,       91.5722,            0.,NA,NA,"",   887.377E+03,   955.218E+03,   955.218E+03
C:/temp/Job-20.odb,Step-1,Increment      1: Step Time =    1.000,"P-20-1",          1204,       106.445,       35.8624,            0.,NA,NA,"",   1.00108E+06,   1.00800E+06,   1.00800E+06
C:/temp/Job-20.odb,Step-1,Increment      1: Step Time =    1.000,"P-20-1",          1205,       128.442,       40.6917,            0.,NA,NA,"",   1.02122E+06,   1.01893E+06,   1.01893E+06
C:/temp/Job-20.odb,Step-1,Increment      1: Step Time =    1.000,"P-20-1",          1206,       37.4882,       69.8318,            0.,NA,NA,"",   933.514E+03,   990.342E+03,   990.342E+03
C:/temp/Job-20.odb,Step-1,Increment      1: Step Time =    1.000,"P-20-1",          1207,       69.8939,       161.614,            0.,NA,NA,"",   1.01843E+06,   1.02673E+06,   1.02673E+06
C:/temp/Job-20.odb,Step-1,Increment      1: Step Time =    1.000,"P-20-1",          1208,       160.497,       129.513,            0.,NA,NA,"",   1.01046E+06,   1.00536E+06,   1.00536E+06
C:/temp/Job-20.odb,Step-1,Increment      1: Step Time =    1.000,"P-20-1",          1209,       47.9436,       101.242,            0.,NA,NA,"",   892.967E+03,   948.279E+03,   948.279E+03
C:/temp/Job-20.odb,Step-1,Increment      1: Step Time =    1.000,"P-20-1",          1210,       100.275,       43.9782,            0.,NA,NA,"",   1.00650E+06,   1.01909E+06,   1.01909E+06
C:/temp/Job-20.odb,Step-1,Increment      1: Step Time =    1.000,"P-20-1",          1211,       155.203,       98.9443,            0.,NA,NA,"",   968.769E+03,   971.243E+03,   971.243E+03
C:/temp/Job-20.odb,Step-1,Increment      1: Step Time =    1.000,"P-20-1",          1212,       98.6157,       156.859,            0.,NA,NA,"",   1.00626E+06,   1.01795E+06,   1.01795E+06
C:/temp/Job-20.odb,Step-1,Increment      1: Step Time =    1.000,"P-20-1",          1213,       161.683,       134.820,            0.,NA,NA,"",   1.01410E+06,   1.00846E+06,   1.00846E+06
C:/temp/Job-20.odb,Step-1,Increment      1: Step Time =    1.000,"P-20-1",          1214,       65.8535,       162.213,            0.,NA,NA,"",   1.01837E+06,   1.02757E+06,   1.02757E+06
C:/temp/Job-20.odb,Step-1,Increment      1: Step Time =    1.000,"P-20-1",          1215,       36.2116,       64.9099,            0.,NA,NA,"",   941.021E+03,   997.255E+03,   997.255E+03
C:/temp/Job-20.odb,Step-1,Increment      1: Step Time =    1.000,"P-20-1",          1216,       132.395,       37.0380,            0.,NA,NA,"",   1.01665E+06,   1.01355E+06,   1.01355E+06
C:/temp/Job-20.odb,Step-1,Increment      1: Step Time =    1.000,"P-20-1",          1217,       132.321,       42.4405,            0.,NA,NA,"",   1.02491E+06,   1.02072E+06,   1.02072E+06
C:/temp/Job-20.odb,Step-1,Increment      1: Step Time =    1.000,"P-20-1",          1218,       43.5400,       69.9424,            0.,NA,NA,"",   949.898E+03,   997.933E+03,   997.933E+03
C:/temp/Job-20.odb,Step-1,Increment      1: Step Time =    1.000,"P-20-1",          1219,       69.1010,       157.562,            0.,NA,NA,"",   1.02252E+06,   1.03215E+06,   1.03215E+06
C:/temp/Job-20.odb,Step-1,Increment      1: Step Time =    1.000,"P-20-1",          1220,       155.096,       131.764,            0.,NA,NA,"",   1.01843E+06,   1.01080E+06,   1.01080E+06
C:/temp/Job-20.odb,Step-1,Increment      1: Step Time =    1.000,"P-20-1",          1221,       53.6584,       40.1414,            0.,NA,NA,"",   1.01542E+06,   1.03264E+06,   1.03264E+06
C:/temp/Job-20.odb,Step-1,Increment      1: Step Time =    1.000,"P-20-1",          1222,       145.595,       161.792,            0.,NA,NA,"",   1.01729E+06,   1.01232E+06,   1.01232E+06
C:/temp/Job-20.odb,Step-1,Increment      1: Step Time =    1.000,"P-20-1",          1223,       39.7981,       144.889,            0.,NA,NA,"",   970.994E+03,   1.01597E+06,   1.01597E+06
C:/temp/Job-20.odb,Step-1,Increment      1: Step Time =    1.000,"P-20-1",          1224,       161.497,       55.1284,            0.,NA,NA,"",   1.01741E+06,   1.01145E+06,   1.01145E+06
C:/temp/Job-20.odb,Step-1,Increment      1: Step Time =    1.000,"P-20-1",          1225,       142.619,       157.127,            0.,NA,NA,"",   1.02371E+06,   1.01768E+06,   1.01768E+06
C:/temp/Job-20.odb,Step-1,Increment      1: Step Time =    1.000,"P-20-1",          1226,       43.2786,       141.519,            0.,NA,NA,"",   974.219E+03,   1.01583E+06,   1.01583E+06
C:/temp/Job-20.odb,Step-1,Increment      1: Step Time =    1.000,"P-20-1",          1227,       155.755,       58.0117,            0.,NA,NA,"",   1.02244E+06,   1.01488E+06,   1.01488E+06
C:/temp/Job-20.odb,Step-1,Increment      1: Step Time =    1.000,"P-20-1",          1228,       31.1736,       151.303,            0.,NA,NA,"",   960.642E+03,   1.01548E+06,   1.01548E+06
C:/temp/Job-20.odb,Step-1,Increment      1: Step Time =    1.000,"P-20-1",          1229,       155.214,       169.928,            0.,NA,NA,"",   1.00765E+06,   1.00440E+06,   1.00440E+06
C:/temp/Job-20.odb,Step-1,Increment      1: Step Time =    1.000,"P-20-1",          1230,       49.5504,       29.8769,            0.,NA,NA,"",   1.01463E+06,   1.02830E+06,   1.02830E+06
C:/temp/Job-20.odb,Step-1,Increment      1: Step Time =    1.000,"P-20-1",          1231,       170.943,       50.9166,            0.,NA,NA,"",   1.01031E+06,   1.00660E+06,   1.00660E+06
C:/temp/Job-20.odb,Step-1,Increment      1: Step Time =    1.000,"P-20-1",          1232,       43.5966,       87.4184,            0.,NA,NA,"",   906.479E+03,   963.757E+03,   963.757E+03
C:/temp/Job-20.odb,Step-1,Increment      1: Step Time =    1.000,"P-20-1",          1233,       110.045,       42.8252,            0.,NA,NA,"",   1.01039E+06,   1.01865E+06,   1.01865E+06
C:/temp/Job-20.odb,Step-1,Increment      1: Step Time =    1.000,"P-20-1",          1234,       156.415,       112.163,            0.,NA,NA,"",   984.622E+03,   984.225E+03,   984.225E+03
C:/temp/Job-20.odb,Step-1,Increment      1: Step Time =    1.000,"P-20-1",          1235,       158.785,       106.905,            0.,NA,NA,"",   978.959E+03,   980.197E+03,   980.197E+03
C:/temp/Job-20.odb,Step-1,Increment      1: Step Time =    1.000,"P-20-1",          1236,       93.8660,       160.167,            0.,NA,NA,"",   1.00495E+06,   1.01531E+06,   1.01531E+06
C:/temp/Job-20.odb,Step-1,Increment      1: Step Time =    1.000,"P-20-1",          1237,       41.2092,       91.4810,            0.,NA,NA,"",   895.001E+03,   957.146E+03,   957.146E+03
C:/temp/Job-20.odb,Step-1,Increment      1: Step Time =    1.000,"P-20-1",          1238,       107.872,       39.6641,            0.,NA,NA,"",   1.00566E+06,   1.01352E+06,   1.01352E+06
C:/temp/Job-20.odb,Step-1,Increment      1: Step Time =    1.000,"P-20-1",          1239,       152.476,       103.930,            0.,NA,NA,"",   965.905E+03,   968.224E+03,   968.224E+03
C:/temp/Job-20.odb,Step-1,Increment      1: Step Time =    1.000,"P-20-1",          1240,       96.2979,       152.678,            0.,NA,NA,"",   1.00958E+06,   1.02485E+06,   1.02485E+06
C:/temp/Job-20.odb,Step-1,Increment      1: Step Time =    1.000,"P-20-1",          1241,       48.3351,       95.9223,            0.,NA,NA,"",   895.887E+03,   950.206E+03,   950.206E+03
C:/temp/Job-20.odb,Step-1,Increment      1: Step Time =    1.000,"P-20-1",          1242,       102.346,       48.2953,            0.,NA,NA,"",   1.00959E+06,   1.02464E+06,   1.02464E+06
C:/temp/Job-20.odb,Step-1,Increment      1: Step Time =    1.000,"P-20-1",          1243,       154.213,       94.8951,            0.,NA,NA,"",   970.427E+03,   972.178E+03,   972.178E+03
C:/temp/Job-20.odb,Step-1,Increment      1: Step Time =    1.000,"P-20-1",          1244,       103.779,       154.345,            0.,NA,NA,"",   1.00887E+06,   1.02128E+06,   1.02128E+06
C:/temp/Job-20.odb,Step-1,Increment      1: Step Time =    1.000,"P-20-1",          1245,       46.9501,       106.754,            0.,NA,NA,"",   898.016E+03,   953.208E+03,   953.208E+03
C:/temp/Job-20.odb,Step-1,Increment      1: Step Time =    1.000,"P-20-1",          1246,       96.0971,       46.0302,            0.,NA,NA,"",   1.00879E+06,   1.02330E+06,   1.02330E+06
C:/temp/Job-20.odb,Step-1,Increment      1: Step Time =    1.000,"P-20-1",          1247,       47.5382,       74.5406,            0.,NA,NA,"",   949.776E+03,   994.249E+03,   994.249E+03
C:/temp/Job-20.odb,Step-1,Increment      1: Step Time =    1.000,"P-20-1",          1248,       127.777,       46.0548,            0.,NA,NA,"",   1.02983E+06,   1.02651E+06,   1.02651E+06
C:/temp/Job-20.odb,Step-1,Increment      1: Step Time =    1.000,"P-20-1",          1249,       152.969,       126.995,            0.,NA,NA,"",   1.01363E+06,   1.00659E+06,   1.00659E+06
C:/temp/Job-20.odb,Step-1,Increment      1: Step Time =    1.000,"P-20-1",          1250,       71.9055,       153.265,            0.,NA,NA,"",   1.02673E+06,   1.03687E+06,   1.03687E+06
C:/temp/Job-20.odb,Step-1,Increment      1: Step Time =    1.000,"P-20-1",          1251,       62.8785,       47.0950,            0.,NA,NA,"",   1.02390E+06,   1.03718E+06,   1.03718E+06
C:/temp/Job-20.odb,Step-1,Increment      1: Step Time =    1.000,"P-20-1",          1252,       138.376,       153.366,            0.,NA,NA,"",   1.03001E+06,   1.02333E+06,   1.02333E+06
C:/temp/Job-20.odb,Step-1,Increment      1: Step Time =    1.000,"P-20-1",          1253,       47.1338,       138.394,            0.,NA,NA,"",   979.013E+03,   1.01657E+06,   1.01657E+06
C:/temp/Job-20.odb,Step-1,Increment      1: Step Time =    1.000,"P-20-1",          1254,       152.673,       62.8424,            0.,NA,NA,"",   1.02500E+06,   1.01621E+06,   1.01621E+06
C:/temp/Job-20.odb,Step-1,Increment      1: Step Time =    1.000,"P-20-1",          1255,       48.5382,       86.5565,            0.,NA,NA,"",   917.235E+03,   967.087E+03,   967.087E+03
C:/temp/Job-20.odb,Step-1,Increment      1: Step Time =    1.000,"P-20-1",          1256,       112.598,       45.4641,            0.,NA,NA,"",   1.01618E+06,   1.02323E+06,   1.02323E+06
C:/temp/Job-20.odb,Step-1,Increment      1: Step Time =    1.000,"P-20-1",          1257,       149.936,       116.942,            0.,NA,NA,"",   993.889E+03,   989.410E+03,   989.410E+03
C:/temp/Job-20.odb,Step-1,Increment      1: Step Time =    1.000,"P-20-1",          1258,       87.2993,       152.457,            0.,NA,NA,"",   1.01763E+06,   1.03075E+06,   1.03075E+06
C:/temp/Job-20.odb,Step-1,Increment      1: Step Time =    1.000,"P-20-1",          1259,       153.449,       108.777,            0.,NA,NA,"",   976.454E+03,   976.863E+03,   976.863E+03
C:/temp/Job-20.odb,Step-1,Increment      1: Step Time =    1.000,"P-20-1",          1260,       91.2267,       154.311,            0.,NA,NA,"",   1.01183E+06,   1.02522E+06,   1.02522E+06
C:/temp/Job-20.odb,Step-1,Increment      1: Step Time =    1.000,"P-20-1",          1261,       47.1840,       90.9070,            0.,NA,NA,"",   904.403E+03,   958.577E+03,   958.577E+03
C:/temp/Job-20.odb,Step-1,Increment      1: Step Time =    1.000,"P-20-1",          1262,       106.502,       45.8013,            0.,NA,NA,"",   1.01017E+06,   1.02150E+06,   1.02150E+06
C:/temp/Job-20.odb,Step-1,Increment      1: Step Time =    1.000,"P-20-1",          1263,       151.231,       99.6998,            0.,NA,NA,"",   960.009E+03,   963.126E+03,   963.126E+03
C:/temp/Job-20.odb,Step-1,Increment      1: Step Time =    1.000,"P-20-1",          1264,       99.7850,       152.713,            0.,NA,NA,"",   1.00960E+06,   1.02405E+06,   1.02405E+06
C:/temp/Job-20.odb,Step-1,Increment      1: Step Time =    1.000,"P-20-1",          1265,       157.831,       90.6290,            0.,NA,NA,"",   980.979E+03,   981.396E+03,   981.396E+03
C:/temp/Job-20.odb,Step-1,Increment      1: Step Time =    1.000,"P-20-1",          1266,       113.819,       156.394,            0.,NA,NA,"",   1.01478E+06,   1.02039E+06,   1.02039E+06
C:/temp/Job-20.odb,Step-1,Increment      1: Step Time =    1.000,"P-20-1",          1267,       51.3064,       98.4220,            0.,NA,NA,"",   892.630E+03,   944.461E+03,   944.461E+03
C:/temp/Job-20.odb,Step-1,Increment      1: Step Time =    1.000,"P-20-1",          1268,       98.1568,       50.5922,            0.,NA,NA,"",   1.01024E+06,   1.02820E+06,   1.02820E+06
C:/temp/Job-20.odb,Step-1,Increment      1: Step Time =    1.000,"P-20-1",          1269,       46.2202,       112.785,            0.,NA,NA,"",   910.682E+03,   964.287E+03,   964.287E+03
C:/temp/Job-20.odb,Step-1,Increment      1: Step Time =    1.000,"P-20-1",          1270,       89.2837,       44.3058,            0.,NA,NA,"",   1.01263E+06,   1.02491E+06,   1.02491E+06
C:/temp/Job-20.odb,Step-1,Increment      1: Step Time =    1.000,"P-20-1",          1271,       137.642,       35.9572,            0.,NA,NA,"",   1.01560E+06,   1.01164E+06,   1.01164E+06
C:/temp/Job-20.odb,Step-1,Increment      1: Step Time =    1.000,"P-20-1",          1272,       37.3299,       60.7373,            0.,NA,NA,"",   953.664E+03,   1.00560E+06,   1.00560E+06
C:/temp/Job-20.odb,Step-1,Increment      1: Step Time =    1.000,"P-20-1",          1273,       161.889,       138.106,            0.,NA,NA,"",   1.01540E+06,   1.00965E+06,   1.00965E+06
C:/temp/Job-20.odb,Step-1,Increment      1: Step Time =    1.000,"P-20-1",          1274,       58.4245,       164.199,            0.,NA,NA,"",   1.01680E+06,   1.02812E+06,   1.02812E+06
C:/temp/Job-20.odb,Step-1,Increment      1: Step Time =    1.000,"P-20-1",          1275,       49.1167,       39.2805,            0.,NA,NA,"",   1.01197E+06,   1.03293E+06,   1.03293E+06
C:/temp/Job-20.odb,Step-1,Increment      1: Step Time =    1.000,"P-20-1",          1276,       150.186,       160.120,            0.,NA,NA,"",   1.01776E+06,   1.01239E+06,   1.01239E+06
C:/temp/Job-20.odb,Step-1,Increment      1: Step Time =    1.000,"P-20-1",          1277,       162.591,       51.4430,            0.,NA,NA,"",   1.01604E+06,   1.01059E+06,   1.01059E+06
C:/temp/Job-20.odb,Step-1,Increment      1: Step Time =    1.000,"P-20-1",          1278,       38.3105,       151.739,            0.,NA,NA,"",   980.591E+03,   1.02301E+06,   1.02301E+06
C:/temp/Job-20.odb,Step-1,Increment      1: Step Time =    1.000,"P-20-1",          1279,       35.8575,       148.228,            0.,NA,NA,"",   967.239E+03,   1.01616E+06,   1.01616E+06
C:/temp/Job-20.odb,Step-1,Increment      1: Step Time =    1.000,"P-20-1",          1280,       147.929,       166.159,            0.,NA,NA,"",   1.01210E+06,   1.00802E+06,   1.00802E+06
C:/temp/Job-20.odb,Step-1,Increment      1: Step Time =    1.000,"P-20-1",          1281,       49.5455,       34.6940,            0.,NA,NA,"",   1.01380E+06,   1.03135E+06,   1.03135E+06
C:/temp/Job-20.odb,Step-1,Increment      1: Step Time =    1.000,"P-20-1",          1282,       166.519,       51.4582,            0.,NA,NA,"",   1.01326E+06,   1.00862E+06,   1.00862E+06
C:/temp/Job-20.odb,Step-1,Increment      1: Step Time =    1.000,"P-20-1",          1283,       66.3377,       166.556,            0.,NA,NA,"",   1.01425E+06,   1.02163E+06,   1.02163E+06
C:/temp/Job-20.odb,Step-1,Increment      1: Step Time =    1.000,"P-20-1",          1284,       131.514,       32.6933,            0.,NA,NA,"",   1.01038E+06,   1.00808E+06,   1.00808E+06
C:/temp/Job-20.odb,Step-1,Increment      1: Step Time =    1.000,"P-20-1",          1285,       31.4345,       67.1598,            0.,NA,NA,"",   920.142E+03,   985.691E+03,   985.691E+03
C:/temp/Job-20.odb,Step-1,Increment      1: Step Time =    1.000,"P-20-1",          1286,       48.4982,       67.3994,            0.,NA,NA,"",   972.689E+03,   1.01095E+06,   1.01095E+06
C:/temp/Job-20.odb,Step-1,Increment      1: Step Time =    1.000,"P-20-1",          1287,       121.208,       44.6891,            0.,NA,NA,"",   1.02311E+06,   1.02428E+06,   1.02428E+06
C:/temp/Job-20.odb,Step-1,Increment      1: Step Time =    1.000,"P-20-1",          1288,       130.233,       49.8156,            0.,NA,NA,"",   1.03693E+06,   1.03112E+06,   1.03112E+06
C:/temp/Job-20.odb,Step-1,Increment      1: Step Time =    1.000,"P-20-1",          1289,       43.2898,       77.0151,            0.,NA,NA,"",   930.975E+03,   983.734E+03,   983.734E+03
C:/temp/Job-20.odb,Step-1,Increment      1: Step Time =    1.000,"P-20-1",          1290,       150.294,       135.395,            0.,NA,NA,"",   1.02695E+06,   1.01743E+06,   1.01743E+06
C:/temp/Job-20.odb,Step-1,Increment      1: Step Time =    1.000,"P-20-1",          1291,       74.4826,       152.918,            0.,NA,NA,"",   1.02705E+06,   1.03719E+06,   1.03719E+06
C:/temp/Job-20.odb,Step-1,Increment      1: Step Time =    1.000,"P-20-1",          1292,       154.166,       120.246,            0.,NA,NA,"",   1.00074E+06,   995.982E+03,   995.982E+03
C:/temp/Job-20.odb,Step-1,Increment      1: Step Time =    1.000,"P-20-1",          1293,       68.5705,       153.689,            0.,NA,NA,"",   1.02644E+06,   1.03697E+06,   1.03697E+06
C:/temp/Job-20.odb,Step-1,Increment      1: Step Time =    1.000,"P-20-1",          1294,       68.1788,       47.0783,            0.,NA,NA,"",   1.02710E+06,   1.03790E+06,   1.03790E+06
C:/temp/Job-20.odb,Step-1,Increment      1: Step Time =    1.000,"P-20-1",          1295,       56.9239,       47.7076,            0.,NA,NA,"",   1.01662E+06,   1.03504E+06,   1.03504E+06
C:/temp/Job-20.odb,Step-1,Increment      1: Step Time =    1.000,"P-20-1",          1296,       145.349,       149.174,            0.,NA,NA,"",   1.03105E+06,   1.02264E+06,   1.02264E+06
C:/temp/Job-20.odb,Step-1,Increment      1: Step Time =    1.000,"P-20-1",          1297,       134.569,       156.479,            0.,NA,NA,"",   1.02604E+06,   1.02105E+06,   1.02105E+06
C:/temp/Job-20.odb,Step-1,Increment      1: Step Time =    1.000,"P-20-1",          1298,       50.0798,       141.967,            0.,NA,NA,"",   994.100E+03,   1.02513E+06,   1.02513E+06
C:/temp/Job-20.odb,Step-1,Increment      1: Step Time =    1.000,"P-20-1",          1299,       44.4371,       134.934,            0.,NA,NA,"",   963.860E+03,   1.00737E+06,   1.00737E+06
C:/temp/Job-20.odb,Step-1,Increment      1: Step Time =    1.000,"P-20-1",          1300,       149.817,       57.9804,            0.,NA,NA,"",   1.02964E+06,   1.02033E+06,   1.02033E+06
C:/temp/Job-20.odb,Step-1,Increment      1: Step Time =    1.000,"P-20-1",          1301,       154.003,       68.0213,            0.,NA,NA,"",   1.02006E+06,   1.01191E+06,   1.01191E+06
C:/temp/Job-20.odb,Step-1,Increment      1: Step Time =    1.000,"P-20-1",          1302,       110.369,       153.660,            0.,NA,NA,"",   1.01465E+06,   1.02364E+06,   1.02364E+06
C:/temp/Job-20.odb,Step-1,Increment      1: Step Time =    1.000,"P-20-1",          1303,       153.462,       90.9185,            0.,NA,NA,"",   975.967E+03,   976.423E+03,   976.423E+03
C:/temp/Job-20.odb,Step-1,Increment      1: Step Time =    1.000,"P-20-1",          1304,       49.9080,       109.632,            0.,NA,NA,"",   906.526E+03,   956.982E+03,   956.982E+03
C:/temp/Job-20.odb,Step-1,Increment      1: Step Time =    1.000,"P-20-1",          1305,       92.0512,       48.2145,            0.,NA,NA,"",   1.01328E+06,   1.02861E+06,   1.02861E+06
C:/temp/Job-20.odb,Step-1,Increment      1: Step Time =    1.000,"P-20-1",          1306,       143.367,       40.9399,            0.,NA,NA,"",   1.02132E+06,   1.01553E+06,   1.01553E+06
C:/temp/Job-20.odb,Step-1,Increment      1: Step Time =    1.000,"P-20-1",          1307,       41.4773,       59.1962,            0.,NA,NA,"",   967.685E+03,   1.01277E+06,   1.01277E+06
C:/temp/Job-20.odb,Step-1,Increment      1: Step Time =    1.000,"P-20-1",          1308,       159.384,       139.595,            0.,NA,NA,"",   1.01790E+06,   1.01146E+06,   1.01146E+06
C:/temp/Job-20.odb,Step-1,Increment      1: Step Time =    1.000,"P-20-1",          1309,       56.6511,       160.498,            0.,NA,NA,"",   1.01749E+06,   1.03173E+06,   1.03173E+06
C:/temp/Job-20.odb,Step-1,Increment      1: Step Time =    1.000,"P-20-1",          1310,       48.8598,       42.9000,            0.,NA,NA,"",   1.00955E+06,   1.03294E+06,   1.03294E+06
C:/temp/Job-20.odb,Step-1,Increment      1: Step Time =    1.000,"P-20-1",          1311,       154.692,       158.407,            0.,NA,NA,"",   1.01692E+06,   1.01153E+06,   1.01153E+06
C:/temp/Job-20.odb,Step-1,Increment      1: Step Time =    1.000,"P-20-1",          1312,       158.506,       44.5030,            0.,NA,NA,"",   1.01623E+06,   1.01084E+06,   1.01084E+06
C:/temp/Job-20.odb,Step-1,Increment      1: Step Time =    1.000,"P-20-1",          1313,       45.1795,       151.859,            0.,NA,NA,"",   996.374E+03,   1.02843E+06,   1.02843E+06
C:/temp/Job-20.odb,Step-1,Increment      1: Step Time =    1.000,"P-20-1",          1314,       34.1338,       57.8981,            0.,NA,NA,"",   949.593E+03,   1.00512E+06,   1.00512E+06
C:/temp/Job-20.odb,Step-1,Increment      1: Step Time =    1.000,"P-20-1",          1315,       139.373,       32.2911,            0.,NA,NA,"",   1.01093E+06,   1.00741E+06,   1.00741E+06
C:/temp/Job-20.odb,Step-1,Increment      1: Step Time =    1.000,"P-20-1",          1316,       55.0729,       167.083,            0.,NA,NA,"",   1.01545E+06,   1.02718E+06,   1.02718E+06
C:/temp/Job-20.odb,Step-1,Increment      1: Step Time =    1.000,"P-20-1",          1317,       164.748,       139.895,            0.,NA,NA,"",   1.01389E+06,   1.00876E+06,   1.00876E+06
C:/temp/Job-20.odb,Step-1,Increment      1: Step Time =    1.000,"P-20-1",          1318,       114.026,       150.386,            0.,NA,NA,"",   1.02295E+06,   1.03006E+06,   1.03006E+06
C:/temp/Job-20.odb,Step-1,Increment      1: Step Time =    1.000,"P-20-1",          1319,       153.265,       86.9021,            0.,NA,NA,"",   983.768E+03,   982.444E+03,   982.444E+03
C:/temp/Job-20.odb,Step-1,Increment      1: Step Time =    1.000,"P-20-1",          1320,       49.8530,       115.668,            0.,NA,NA,"",   925.918E+03,   972.682E+03,   972.682E+03
C:/temp/Job-20.odb,Step-1,Increment      1: Step Time =    1.000,"P-20-1",          1321,       87.8815,       49.6512,            0.,NA,NA,"",   1.01929E+06,   1.03397E+06,   1.03397E+06
C:/temp/Job-20.odb,Step-1,Increment      1: Step Time =    1.000,"P-20-1",          1322,       111.382,       146.569,            0.,NA,NA,"",   1.02458E+06,   1.03527E+06,   1.03527E+06
C:/temp/Job-20.odb,Step-1,Increment      1: Step Time =    1.000,"P-20-1",          1323,       148.521,       91.3343,            0.,NA,NA,"",   967.461E+03,   967.996E+03,   967.996E+03
C:/temp/Job-20.odb,Step-1,Increment      1: Step Time =    1.000,"P-20-1",          1324,       53.2227,       112.435,            0.,NA,NA,"",   919.545E+03,   963.848E+03,   963.848E+03
C:/temp/Job-20.odb,Step-1,Increment      1: Step Time =    1.000,"P-20-1",          1325,       90.4664,       54.5633,            0.,NA,NA,"",   1.02064E+06,   1.03891E+06,   1.03891E+06
C:/temp/Job-20.odb,Step-1,Increment      1: Step Time =    1.000,"P-20-1",          1326,       116.631,       46.8730,            0.,NA,NA,"",   1.02108E+06,   1.02534E+06,   1.02534E+06
C:/temp/Job-20.odb,Step-1,Increment      1: Step Time =    1.000,"P-20-1",          1327,       44.7674,       81.7297,            0.,NA,NA,"",   922.231E+03,   975.137E+03,   975.137E+03
C:/temp/Job-20.odb,Step-1,Increment      1: Step Time =    1.000,"P-20-1",          1328,       81.4072,       154.343,            0.,NA,NA,"",   1.02109E+06,   1.03199E+06,   1.03199E+06
C:/temp/Job-20.odb,Step-1,Increment      1: Step Time =    1.000,"P-20-1",          1329,       123.413,       48.6162,            0.,NA,NA,"",   1.03190E+06,   1.03078E+06,   1.03078E+06
C:/temp/Job-20.odb,Step-1,Increment      1: Step Time =    1.000,"P-20-1",          1330,       134.455,       47.0472,            0.,NA,NA,"",   1.03279E+06,   1.02630E+06,   1.02630E+06
C:/temp/Job-20.odb,Step-1,Increment      1: Step Time =    1.000,"P-20-1",          1331,       45.8314,       64.2109,            0.,NA,NA,"",   971.041E+03,   1.01178E+06,   1.01178E+06
C:/temp/Job-20.odb,Step-1,Increment      1: Step Time =    1.000,"P-20-1",          1332,       49.8558,       78.7849,            0.,NA,NA,"",   943.811E+03,   987.082E+03,   987.082E+03
C:/temp/Job-20.odb,Step-1,Increment      1: Step Time =    1.000,"P-20-1",          1333,       64.6667,       153.989,            0.,NA,NA,"",   1.02483E+06,   1.03683E+06,   1.03683E+06
C:/temp/Job-20.odb,Step-1,Increment      1: Step Time =    1.000,"P-20-1",          1334,       153.304,       135.078,            0.,NA,NA,"",   1.02333E+06,   1.01476E+06,   1.01476E+06
C:/temp/Job-20.odb,Step-1,Increment      1: Step Time =    1.000,"P-20-1",          1335,       78.4584,       152.081,            0.,NA,NA,"",   1.02603E+06,   1.03666E+06,   1.03666E+06
C:/temp/Job-20.odb,Step-1,Increment      1: Step Time =    1.000,"P-20-1",          1336,       149.720,       123.425,            0.,NA,NA,"",   1.00989E+06,   1.00270E+06,   1.00270E+06
C:/temp/Job-20.odb,Step-1,Increment      1: Step Time =    1.000,"P-20-1",          1337,       143.327,       36.2451,            0.,NA,NA,"",   1.01589E+06,   1.01130E+06,   1.01130E+06
C:/temp/Job-20.odb,Step-1,Increment      1: Step Time =    1.000,"P-20-1",          1338,       138.494,       45.8956,            0.,NA,NA,"",   1.02988E+06,   1.02285E+06,   1.02285E+06
C:/temp/Job-20.odb,Step-1,Increment      1: Step Time =    1.000,"P-20-1",          1339,       47.1531,       60.7894,            0.,NA,NA,"",   981.118E+03,   1.01814E+06,   1.01814E+06
C:/temp/Job-20.odb,Step-1,Increment      1: Step Time =    1.000,"P-20-1",          1340,       37.0550,       54.8939,            0.,NA,NA,"",   964.765E+03,   1.01361E+06,   1.01361E+06
C:/temp/Job-20.odb,Step-1,Increment      1: Step Time =    1.000,"P-20-1",          1341,       154.663,       137.898,            0.,NA,NA,"",   1.02289E+06,   1.01477E+06,   1.01477E+06
C:/temp/Job-20.odb,Step-1,Increment      1: Step Time =    1.000,"P-20-1",          1342,       161.797,       142.668,            0.,NA,NA,"",   1.01672E+06,   1.01085E+06,   1.01085E+06
C:/temp/Job-20.odb,Step-1,Increment      1: Step Time =    1.000,"P-20-1",          1343,       59.7149,       153.348,            0.,NA,NA,"",   1.02065E+06,   1.03593E+06,   1.03593E+06
C:/temp/Job-20.odb,Step-1,Increment      1: Step Time =    1.000,"P-20-1",          1344,       52.6450,       163.261,            0.,NA,NA,"",   1.01538E+06,   1.03114E+06,   1.03114E+06
C:/temp/Job-20.odb,Step-1,Increment      1: Step Time =    1.000,"P-20-1",          1345,       49.0999,       48.0755,            0.,NA,NA,"",   1.00511E+06,   1.03158E+06,   1.03158E+06
C:/temp/Job-20.odb,Step-1,Increment      1: Step Time =    1.000,"P-20-1",          1346,       152.712,       153.939,            0.,NA,NA,"",   1.02161E+06,   1.01507E+06,   1.01507E+06
C:/temp/Job-20.odb,Step-1,Increment      1: Step Time =    1.000,"P-20-1",          1347,       154.061,       49.2557,            0.,NA,NA,"",   1.02173E+06,   1.01485E+06,   1.01485E+06
C:/temp/Job-20.odb,Step-1,Increment      1: Step Time =    1.000,"P-20-1",          1348,       49.2195,       148.710,            0.,NA,NA,"",   1.00091E+06,   1.02948E+06,   1.02948E+06
C:/temp/Job-20.odb,Step-1,Increment      1: Step Time =    1.000,"P-20-1",          1349,       148.539,       66.9752,            0.,NA,NA,"",   1.02912E+06,   1.01846E+06,   1.01846E+06
C:/temp/Job-20.odb,Step-1,Increment      1: Step Time =    1.000,"P-20-1",          1350,       135.595,       149.431,            0.,NA,NA,"",   1.03693E+06,   1.02935E+06,   1.02935E+06
C:/temp/Job-20.odb,Step-1,Increment      1: Step Time =    1.000,"P-20-1",          1351,       48.5015,       131.426,            0.,NA,NA,"",   969.290E+03,   1.00791E+06,   1.00791E+06
C:/temp/Job-20.odb,Step-1,Increment      1: Step Time =    1.000,"P-20-1",          1352,       67.8787,       52.0215,            0.,NA,NA,"",   1.03134E+06,   1.04288E+06,   1.04288E+06
C:/temp/Job-20.odb,Step-1,Increment      1: Step Time =    1.000,"P-20-1",          1353,       145.258,       102.576,            0.,NA,NA,"",   949.041E+03,   952.929E+03,   952.929E+03
C:/temp/Job-20.odb,Step-1,Increment      1: Step Time =    1.000,"P-20-1",          1354,       100.210,       147.653,            0.,NA,NA,"",   1.01282E+06,   1.03103E+06,   1.03103E+06
C:/temp/Job-20.odb,Step-1,Increment      1: Step Time =    1.000,"P-20-1",          1355,       56.2450,       98.8035,            0.,NA,NA,"",   886.278E+03,   933.266E+03,   933.266E+03
C:/temp/Job-20.odb,Step-1,Increment      1: Step Time =    1.000,"P-20-1",          1356,       100.240,       55.1117,            0.,NA,NA,"",   1.01170E+06,   1.03363E+06,   1.03363E+06
C:/temp/Job-20.odb,Step-1,Increment      1: Step Time =    1.000,"P-20-1",          1357,       80.2996,       148.400,            0.,NA,NA,"",   1.02953E+06,   1.04134E+06,   1.04134E+06
C:/temp/Job-20.odb,Step-1,Increment      1: Step Time =    1.000,"P-20-1",          1358,       144.276,       122.759,            0.,NA,NA,"",   1.01634E+06,   1.00598E+06,   1.00598E+06
C:/temp/Job-20.odb,Step-1,Increment      1: Step Time =    1.000,"P-20-1",          1359,       121.865,       54.9823,            0.,NA,NA,"",   1.04263E+06,   1.04119E+06,   1.04119E+06
C:/temp/Job-20.odb,Step-1,Increment      1: Step Time =    1.000,"P-20-1",          1360,       54.4720,       77.2018,            0.,NA,NA,"",   964.036E+03,   998.283E+03,   998.283E+03
C:/temp/Job-20.odb,Step-1,Increment      1: Step Time =    1.000,"P-20-1",          1361,       130.281,       152.566,            0.,NA,NA,"",   1.03261E+06,   1.02797E+06,   1.02797E+06
C:/temp/Job-20.odb,Step-1,Increment      1: Step Time =    1.000,"P-20-1",          1362,       73.1684,       47.5064,            0.,NA,NA,"",   1.02795E+06,   1.03799E+06,   1.03799E+06
C:/temp/Job-20.odb,Step-1,Increment      1: Step Time =    1.000,"P-20-1",          1363,       150.378,       69.6313,            0.,NA,NA,"",   1.02333E+06,   1.01361E+06,   1.01361E+06
C:/temp/Job-20.odb,Step-1,Increment      1: Step Time =    1.000,"P-20-1",          1364,       44.8023,       128.746,            0.,NA,NA,"",   951.575E+03,   998.050E+03,   998.050E+03
C:/temp/Job-20.odb,Step-1,Increment      1: Step Time =    1.000,"P-20-1",          1365,       133.390,       145.419,            0.,NA,NA,"",   1.04405E+06,   1.03555E+06,   1.03555E+06
C:/temp/Job-20.odb,Step-1,Increment      1: Step Time =    1.000,"P-20-1",          1366,       146.386,       65.1566,            0.,NA,NA,"",   1.03217E+06,   1.02152E+06,   1.02152E+06
C:/temp/Job-20.odb,Step-1,Increment      1: Step Time =    1.000,"P-20-1",          1367,       54.6613,       132.663,            0.,NA,NA,"",   991.205E+03,   1.01983E+06,   1.01983E+06
C:/temp/Job-20.odb,Step-1,Increment      1: Step Time =    1.000,"P-20-1",          1368,       102.984,       142.783,            0.,NA,NA,"",   1.01562E+06,   1.03722E+06,   1.03722E+06
C:/temp/Job-20.odb,Step-1,Increment      1: Step Time =    1.000,"P-20-1",          1369,       145.348,       96.9553,            0.,NA,NA,"",   947.325E+03,   951.221E+03,   951.221E+03
C:/temp/Job-20.odb,Step-1,Increment      1: Step Time =    1.000,"P-20-1",          1370,       56.5618,       103.553,            0.,NA,NA,"",   888.898E+03,   935.137E+03,   935.137E+03
C:/temp/Job-20.odb,Step-1,Increment      1: Step Time =    1.000,"P-20-1",          1371,       92.2031,       59.4668,            0.,NA,NA,"",   1.02282E+06,   1.04584E+06,   1.04584E+06
C:/temp/Job-20.odb,Step-1,Increment      1: Step Time =    1.000,"P-20-1",          1372,       143.611,       45.7018,            0.,NA,NA,"",   1.02667E+06,   1.01956E+06,   1.01956E+06
C:/temp/Job-20.odb,Step-1,Increment      1: Step Time =    1.000,"P-20-1",          1373,       43.9607,       54.9044,            0.,NA,NA,"",   982.665E+03,   1.02127E+06,   1.02127E+06
C:/temp/Job-20.odb,Step-1,Increment      1: Step Time =    1.000,"P-20-1",          1374,       156.231,       141.456,            0.,NA,NA,"",   1.02187E+06,   1.01441E+06,   1.01441E+06
C:/temp/Job-20.odb,Step-1,Increment      1: Step Time =    1.000,"P-20-1",          1375,       54.6444,       156.326,            0.,NA,NA,"",   1.01570E+06,   1.03384E+06,   1.03384E+06
C:/temp/Job-20.odb,Step-1,Increment      1: Step Time =    1.000,"P-20-1",          1376,       45.2877,       44.7331,            0.,NA,NA,"",   1.00221E+06,   1.03100E+06,   1.03100E+06
C:/temp/Job-20.odb,Step-1,Increment      1: Step Time =    1.000,"P-20-1",          1377,       52.1477,       44.7896,            0.,NA,NA,"",   1.01193E+06,   1.03336E+06,   1.03336E+06
C:/temp/Job-20.odb,Step-1,Increment      1: Step Time =    1.000,"P-20-1",          1378,       146.768,       152.233,            0.,NA,NA,"",   1.02704E+06,   1.01962E+06,   1.01962E+06
C:/temp/Job-20.odb,Step-1,Increment      1: Step Time =    1.000,"P-20-1",          1379,       157.771,       151.890,            0.,NA,NA,"",   1.01898E+06,   1.01287E+06,   1.01287E+06
C:/temp/Job-20.odb,Step-1,Increment      1: Step Time =    1.000,"P-20-1",          1380,       152.722,       55.2531,            0.,NA,NA,"",   1.02537E+06,   1.01732E+06,   1.01732E+06
C:/temp/Job-20.odb,Step-1,Increment      1: Step Time =    1.000,"P-20-1",          1381,       153.563,       44.7461,            0.,NA,NA,"",   1.01990E+06,   1.01366E+06,   1.01366E+06
C:/temp/Job-20.odb,Step-1,Increment      1: Step Time =    1.000,"P-20-1",          1382,       46.3114,       145.136,            0.,NA,NA,"",   989.032E+03,   1.02370E+06,   1.02370E+06
C:/temp/Job-20.odb,Step-1,Increment      1: Step Time =    1.000,"P-20-1",          1383,       47.8169,       155.469,            0.,NA,NA,"",   1.00602E+06,   1.03203E+06,   1.03203E+06
C:/temp/Job-20.odb,Step-1,Increment      1: Step Time =    1.000,"P-20-1",          1384,       120.110,       151.449,            0.,NA,NA,"",   1.02827E+06,   1.03010E+06,   1.03010E+06
C:/temp/Job-20.odb,Step-1,Increment      1: Step Time =    1.000,"P-20-1",          1385,       153.626,       82.9120,            0.,NA,NA,"",   993.599E+03,   990.187E+03,   990.187E+03
C:/temp/Job-20.odb,Step-1,Increment      1: Step Time =    1.000,"P-20-1",          1386,       46.6545,       119.085,            0.,NA,NA,"",   929.982E+03,   979.137E+03,   979.137E+03
C:/temp/Job-20.odb,Step-1,Increment      1: Step Time =    1.000,"P-20-1",          1387,       82.7682,       48.4525,            0.,NA,NA,"",   1.02304E+06,   1.03498E+06,   1.03498E+06
C:/temp/Job-20.odb,Step-1,Increment      1: Step Time =    1.000,"P-20-1",          1388,       55.6174,       95.2910,            0.,NA,NA,"",   894.375E+03,   940.855E+03,   940.855E+03
C:/temp/Job-20.odb,Step-1,Increment      1: Step Time =    1.000,"P-20-1",          1389,       106.404,       57.1084,            0.,NA,NA,"",   1.02071E+06,   1.03943E+06,   1.03943E+06
C:/temp/Job-20.odb,Step-1,Increment      1: Step Time =    1.000,"P-20-1",          1390,       143.549,       105.658,            0.,NA,NA,"",   949.709E+03,   952.042E+03,   952.042E+03
C:/temp/Job-20.odb,Step-1,Increment      1: Step Time =    1.000,"P-20-1",          1391,       97.0784,       143.505,            0.,NA,NA,"",   1.01493E+06,   1.03727E+06,   1.03727E+06
C:/temp/Job-20.odb,Step-1,Increment      1: Step Time =    1.000,"P-20-1",          1392,       40.4257,       47.2474,            0.,NA,NA,"",   988.803E+03,   1.02628E+06,   1.02628E+06
C:/temp/Job-20.odb,Step-1,Increment      1: Step Time =    1.000,"P-20-1",          1393,       148.357,       35.7035,            0.,NA,NA,"",   1.01454E+06,   1.00989E+06,   1.00989E+06
C:/temp/Job-20.odb,Step-1,Increment      1: Step Time =    1.000,"P-20-1",          1394,       48.8393,       166.075,            0.,NA,NA,"",   1.01445E+06,   1.03137E+06,   1.03137E+06
C:/temp/Job-20.odb,Step-1,Increment      1: Step Time =    1.000,"P-20-1",          1395,       164.578,       145.791,            0.,NA,NA,"",   1.01492E+06,   1.00972E+06,   1.00972E+06
C:/temp/Job-20.odb,Step-1,Increment      1: Step Time =    1.000,"P-20-1",          1396,       48.5890,       56.6126,            0.,NA,NA,"",   991.948E+03,   1.02482E+06,   1.02482E+06
C:/temp/Job-20.odb,Step-1,Increment      1: Step Time =    1.000,"P-20-1",          1397,       152.515,       143.182,            0.,NA,NA,"",   1.02648E+06,   1.01801E+06,   1.01801E+06
C:/temp/Job-20.odb,Step-1,Increment      1: Step Time =    1.000,"P-20-1",          1398,       143.563,       50.1785,            0.,NA,NA,"",   1.03134E+06,   1.02304E+06,   1.02304E+06
C:/temp/Job-20.odb,Step-1,Increment      1: Step Time =    1.000,"P-20-1",          1399,       52.0391,       152.436,            0.,NA,NA,"",   1.01003E+06,   1.03297E+06,   1.03297E+06
C:/temp/Job-20.odb,Step-1,Increment      1: Step Time =    1.000,"P-20-1",          1400,       46.2505,       51.2281,            0.,NA,NA,"",   995.106E+03,   1.02743E+06,   1.02743E+06
C:/temp/Job-20.odb,Step-1,Increment      1: Step Time =    1.000,"P-20-1",          1401,       154.574,       147.420,            0.,NA,NA,"",   1.02341E+06,   1.01600E+06,   1.01600E+06
C:/temp/Job-20.odb,Step-1,Increment      1: Step Time =    1.000,"P-20-1",          1402,       148.774,       45.4284,            0.,NA,NA,"",   1.02332E+06,   1.01653E+06,   1.01653E+06
C:/temp/Job-20.odb,Step-1,Increment      1: Step Time =    1.000,"P-20-1",          1403,       73.8855,       141.955,            0.,NA,NA,"",   1.04261E+06,   1.05256E+06,   1.05256E+06
C:/temp/Job-20.odb,Step-1,Increment      1: Step Time =    1.000,"P-20-1",          1404,       143.693,       126.890,            0.,NA,NA,"",   1.02824E+06,   1.01618E+06,   1.01618E+06
C:/temp/Job-20.odb,Step-1,Increment      1: Step Time =    1.000,"P-20-1",          1405,       128.243,       56.3650,            0.,NA,NA,"",   1.04971E+06,   1.04175E+06,   1.04175E+06
C:/temp/Job-20.odb,Step-1,Increment      1: Step Time =    1.000,"P-20-1",          1406,       57.4622,       71.8691,            0.,NA,NA,"",   992.721E+03,   1.01859E+06,   1.01859E+06
C:/temp/Job-20.odb,Step-1,Increment      1: Step Time =    1.000,"P-20-1",          1407,       163.705,       150.436,            0.,NA,NA,"",   1.01511E+06,   1.00997E+06,   1.00997E+06
C:/temp/Job-20.odb,Step-1,Increment      1: Step Time =    1.000,"P-20-1",          1408,       40.7143,       44.2525,            0.,NA,NA,"",   993.494E+03,   1.02881E+06,   1.02881E+06
C:/temp/Job-20.odb,Step-1,Increment      1: Step Time =    1.000,"P-20-1",          1409,       46.3697,       162.117,            0.,NA,NA,"",   1.01090E+06,   1.03347E+06,   1.03347E+06
C:/temp/Job-20.odb,Step-1,Increment      1: Step Time =    1.000,"P-20-1",          1410,       153.449,       39.9730,            0.,NA,NA,"",   1.01649E+06,   1.01119E+06,   1.01119E+06
C:/temp/Job-20.odb,Step-1,Increment      1: Step Time =    1.000,"P-20-1",          1411,       137.373,       141.532,            0.,NA,NA,"",   1.04641E+06,   1.03505E+06,   1.03505E+06
C:/temp/Job-20.odb,Step-1,Increment      1: Step Time =    1.000,"P-20-1",          1412,       61.4298,       57.5092,            0.,NA,NA,"",   1.02266E+06,   1.03968E+06,   1.03968E+06
C:/temp/Job-20.odb,Step-1,Increment      1: Step Time =    1.000,"P-20-1",          1413,       142.735,       62.8919,            0.,NA,NA,"",   1.04058E+06,   1.02821E+06,   1.02821E+06
C:/temp/Job-20.odb,Step-1,Increment      1: Step Time =    1.000,"P-20-1",          1414,       57.3473,       135.749,            0.,NA,NA,"",   1.00582E+06,   1.02917E+06,   1.02917E+06
C:/temp/Job-20.odb,Step-1,Increment      1: Step Time =    1.000,"P-20-1",          1415,       109.244,       142.240,            0.,NA,NA,"",   1.02583E+06,   1.04195E+06,   1.04195E+06
C:/temp/Job-20.odb,Step-1,Increment      1: Step Time =    1.000,"P-20-1",          1416,       142.426,       92.1936,            0.,NA,NA,"",   953.400E+03,   954.227E+03,   954.227E+03
C:/temp/Job-20.odb,Step-1,Increment      1: Step Time =    1.000,"P-20-1",          1417,       88.3398,       60.6346,            0.,NA,NA,"",   1.03361E+06,   1.05339E+06,   1.05339E+06
C:/temp/Job-20.odb,Step-1,Increment      1: Step Time =    1.000,"P-20-1",          1418,       59.9300,       111.981,            0.,NA,NA,"",   925.926E+03,   960.955E+03,   960.955E+03
C:/temp/Job-20.odb,Step-1,Increment      1: Step Time =    1.000,"P-20-1",          1419,       102.436,       59.6267,            0.,NA,NA,"",   1.01634E+06,   1.04177E+06,   1.04177E+06
C:/temp/Job-20.odb,Step-1,Increment      1: Step Time =    1.000,"P-20-1",          1420,       59.3245,       100.288,            0.,NA,NA,"",   880.391E+03,   925.187E+03,   925.187E+03
C:/temp/Job-20.odb,Step-1,Increment      1: Step Time =    1.000,"P-20-1",          1421,       52.6307,       89.8480,            0.,NA,NA,"",   911.871E+03,   958.642E+03,   958.642E+03
C:/temp/Job-20.odb,Step-1,Increment      1: Step Time =    1.000,"P-20-1",          1422,       113.969,       54.3903,            0.,NA,NA,"",   1.03111E+06,   1.03827E+06,   1.03827E+06
C:/temp/Job-20.odb,Step-1,Increment      1: Step Time =    1.000,"P-20-1",          1423,       146.816,       111.193,            0.,NA,NA,"",   975.021E+03,   973.540E+03,   973.540E+03
C:/temp/Job-20.odb,Step-1,Increment      1: Step Time =    1.000,"P-20-1",          1424,       91.2590,       143.639,            0.,NA,NA,"",   1.02078E+06,   1.04137E+06,   1.04137E+06
C:/temp/Job-20.odb,Step-1,Increment      1: Step Time =    1.000,"P-20-1",          1425,       142.072,       99.6387,            0.,NA,NA,"",   935.236E+03,   940.085E+03,   940.085E+03
C:/temp/Job-20.odb,Step-1,Increment      1: Step Time =    1.000,"P-20-1",          1426,       124.369,       150.022,            0.,NA,NA,"",   1.03384E+06,   1.03222E+06,   1.03222E+06
C:/temp/Job-20.odb,Step-1,Increment      1: Step Time =    1.000,"P-20-1",          1427,       150.930,       74.7330,            0.,NA,NA,"",   1.01376E+06,   1.00589E+06,   1.00589E+06
C:/temp/Job-20.odb,Step-1,Increment      1: Step Time =    1.000,"P-20-1",          1428,       77.9498,       48.0764,            0.,NA,NA,"",   1.02665E+06,   1.03713E+06,   1.03713E+06
C:/temp/Job-20.odb,Step-1,Increment      1: Step Time =    1.000,"P-20-1",          1429,       47.2318,       125.168,            0.,NA,NA,"",   949.177E+03,   993.760E+03,   993.760E+03
C:/temp/Job-20.odb,Step-1,Increment      1: Step Time =    1.000,"P-20-1",          1430,       40.9464,       155.208,            0.,NA,NA,"",   993.155E+03,   1.02876E+06,   1.02876E+06
C:/temp/Job-20.odb,Step-1,Increment      1: Step Time =    1.000,"P-20-1",          1431,       156.744,       162.636,            0.,NA,NA,"",   1.01274E+06,   1.00835E+06,   1.00835E+06
C:/temp/Job-20.odb,Step-1,Increment      1: Step Time =    1.000,"P-20-1",          1432,       163.352,       43.9548,            0.,NA,NA,"",   1.01307E+06,   1.00853E+06,   1.00853E+06
C:/temp/Job-20.odb,Step-1,Increment      1: Step Time =    1.000,"P-20-1",          1433,       44.4024,       39.3807,            0.,NA,NA,"",   1.00704E+06,   1.03324E+06,   1.03324E+06
C:/temp/Job-20.odb,Step-1,Increment      1: Step Time =    1.000,"P-20-1",          1434,       121.211,       145.820,            0.,NA,NA,"",   1.03948E+06,   1.03952E+06,   1.03952E+06
C:/temp/Job-20.odb,Step-1,Increment      1: Step Time =    1.000,"P-20-1",          1435,       145.323,       77.4143,            0.,NA,NA,"",   1.01553E+06,   1.00552E+06,   1.00552E+06
C:/temp/Job-20.odb,Step-1,Increment      1: Step Time =    1.000,"P-20-1",          1436,       50.1064,       121.702,            0.,NA,NA,"",   946.878E+03,   989.109E+03,   989.109E+03
C:/temp/Job-20.odb,Step-1,Increment      1: Step Time =    1.000,"P-20-1",          1437,       77.3994,       54.2753,            0.,NA,NA,"",   1.03678E+06,   1.04768E+06,   1.04768E+06
C:/temp/Job-20.odb,Step-1,Increment      1: Step Time =    1.000,"P-20-1",          1438,       43.8135,       122.756,            0.,NA,NA,"",   932.744E+03,   984.169E+03,   984.169E+03
C:/temp/Job-20.odb,Step-1,Increment      1: Step Time =    1.000,"P-20-1",          1439,       78.7806,       42.3983,            0.,NA,NA,"",   1.01871E+06,   1.02806E+06,   1.02806E+06
C:/temp/Job-20.odb,Step-1,Increment      1: Step Time =    1.000,"P-20-1",          1440,       119.315,       156.664,            0.,NA,NA,"",   1.01899E+06,   1.02122E+06,   1.02122E+06
C:/temp/Job-20.odb,Step-1,Increment      1: Step Time =    1.000,"P-20-1",          1441,       154.141,       79.1088,            0.,NA,NA,"",   1.00210E+06,   997.053E+03,   997.053E+03
C:/temp/Job-20.odb,Step-1,Increment      1: Step Time =    1.000,"P-20-1",          1442,       67.4435,       145.248,            0.,NA,NA,"",   1.03303E+06,   1.04501E+06,   1.04501E+06
C:/temp/Job-20.odb,Step-1,Increment      1: Step Time =    1.000,"P-20-1",          1443,       146.899,       131.838,            0.,NA,NA,"",   1.03026E+06,   1.01910E+06,   1.01910E+06
C:/temp/Job-20.odb,Step-1,Increment      1: Step Time =    1.000,"P-20-1",          1444,       78.0384,       142.968,            0.,NA,NA,"",   1.04002E+06,   1.05123E+06,   1.05123E+06
C:/temp/Job-20.odb,Step-1,Increment      1: Step Time =    1.000,"P-20-1",          1445,       139.605,       121.774,            0.,NA,NA,"",   1.02207E+06,   1.00909E+06,   1.00909E+06
C:/temp/Job-20.odb,Step-1,Increment      1: Step Time =    1.000,"P-20-1",          1446,       59.0831,       76.1805,            0.,NA,NA,"",   986.100E+03,   1.01119E+06,   1.01119E+06
C:/temp/Job-20.odb,Step-1,Increment      1: Step Time =    1.000,"P-20-1",          1447,       123.910,       58.8170,            0.,NA,NA,"",   1.05507E+06,   1.04904E+06,   1.04904E+06
C:/temp/Job-20.odb,Step-1,Increment      1: Step Time =    1.000,"P-20-1",          1448,       132.729,       53.6489,            0.,NA,NA,"",   1.04312E+06,   1.03461E+06,   1.03461E+06
C:/temp/Job-20.odb,Step-1,Increment      1: Step Time =    1.000,"P-20-1",          1449,       55.3946,       68.3551,            0.,NA,NA,"",   993.792E+03,   1.02144E+06,   1.02144E+06
C:/temp/Job-20.odb,Step-1,Increment      1: Step Time =    1.000,"P-20-1",          1450,       144.065,       145.212,            0.,NA,NA,"",   1.03561E+06,   1.02588E+06,   1.02588E+06
C:/temp/Job-20.odb,Step-1,Increment      1: Step Time =    1.000,"P-20-1",          1451,       132.778,       139.024,            0.,NA,NA,"",   1.05608E+06,   1.04375E+06,   1.04375E+06
C:/temp/Job-20.odb,Step-1,Increment      1: Step Time =    1.000,"P-20-1",          1452,       58.8635,       53.4189,            0.,NA,NA,"",   1.01836E+06,   1.03694E+06,   1.03694E+06
C:/temp/Job-20.odb,Step-1,Increment      1: Step Time =    1.000,"P-20-1",          1453,       67.0658,       56.6150,            0.,NA,NA,"",   1.03283E+06,   1.04538E+06,   1.04538E+06
C:/temp/Job-20.odb,Step-1,Increment      1: Step Time =    1.000,"P-20-1",          1454,       143.115,       66.1634,            0.,NA,NA,"",   1.03656E+06,   1.02456E+06,   1.02456E+06
C:/temp/Job-20.odb,Step-1,Increment      1: Step Time =    1.000,"P-20-1",          1455,       147.011,       54.8143,            0.,NA,NA,"",   1.03217E+06,   1.02291E+06,   1.02291E+06
C:/temp/Job-20.odb,Step-1,Increment      1: Step Time =    1.000,"P-20-1",          1456,       60.5564,       132.583,            0.,NA,NA,"",   1.01134E+06,   1.03096E+06,   1.03096E+06
C:/temp/Job-20.odb,Step-1,Increment      1: Step Time =    1.000,"P-20-1",          1457,       53.8047,       138.851,            0.,NA,NA,"",   999.837E+03,   1.02705E+06,   1.02705E+06
C:/temp/Job-20.odb,Step-1,Increment      1: Step Time =    1.000,"P-20-1",          1458,       49.2593,       89.0371,            0.,NA,NA,"",   911.439E+03,   962.063E+03,   962.063E+03
C:/temp/Job-20.odb,Step-1,Increment      1: Step Time =    1.000,"P-20-1",          1459,       109.487,       49.8784,            0.,NA,NA,"",   1.01739E+06,   1.02872E+06,   1.02872E+06
C:/temp/Job-20.odb,Step-1,Increment      1: Step Time =    1.000,"P-20-1",          1460,       151.443,       113.244,            0.,NA,NA,"",   984.620E+03,   982.471E+03,   982.471E+03
C:/temp/Job-20.odb,Step-1,Increment      1: Step Time =    1.000,"P-20-1",          1461,       89.5153,       147.879,            0.,NA,NA,"",   1.01961E+06,   1.03597E+06,   1.03597E+06
C:/temp/Job-20.odb,Step-1,Increment      1: Step Time =    1.000,"P-20-1",          1462,       118.770,       142.061,            0.,NA,NA,"",   1.04583E+06,   1.04724E+06,   1.04724E+06
C:/temp/Job-20.odb,Step-1,Increment      1: Step Time =    1.000,"P-20-1",          1463,       140.170,       81.1307,            0.,NA,NA,"",   1.01158E+06,   1.00008E+06,   1.00008E+06
C:/temp/Job-20.odb,Step-1,Increment      1: Step Time =    1.000,"P-20-1",          1464,       56.3933,       121.142,            0.,NA,NA,"",   963.595E+03,   995.921E+03,   995.921E+03
C:/temp/Job-20.odb,Step-1,Increment      1: Step Time =    1.000,"P-20-1",          1465,       83.5592,       57.2878,            0.,NA,NA,"",   1.03570E+06,   1.05043E+06,   1.05043E+06
C:/temp/Job-20.odb,Step-1,Increment      1: Step Time =    1.000,"P-20-1",          1466,       56.1930,       149.256,            0.,NA,NA,"",   1.01502E+06,   1.03508E+06,   1.03508E+06
C:/temp/Job-20.odb,Step-1,Increment      1: Step Time =    1.000,"P-20-1",          1467,       54.1619,       56.9059,            0.,NA,NA,"",   1.00602E+06,   1.03111E+06,   1.03111E+06
C:/temp/Job-20.odb,Step-1,Increment      1: Step Time =    1.000,"P-20-1",          1468,       148.433,       144.429,            0.,NA,NA,"",   1.03115E+06,   1.02187E+06,   1.02187E+06
C:/temp/Job-20.odb,Step-1,Increment      1: Step Time =    1.000,"P-20-1",          1469,       143.474,       54.0057,            0.,NA,NA,"",   1.03470E+06,   1.02543E+06,   1.02543E+06
C:/temp/Job-20.odb,Step-1,Increment      1: Step Time =    1.000,"P-20-1",          1470,       53.1375,       124.268,            0.,NA,NA,"",   964.177E+03,   999.991E+03,   999.991E+03
C:/temp/Job-20.odb,Step-1,Increment      1: Step Time =    1.000,"P-20-1",          1471,       74.6484,       59.2380,            0.,NA,NA,"",   1.04644E+06,   1.05543E+06,   1.05543E+06
C:/temp/Job-20.odb,Step-1,Increment      1: Step Time =    1.000,"P-20-1",          1472,       140.876,       76.6467,            0.,NA,NA,"",   1.02569E+06,   1.01268E+06,   1.01268E+06
C:/temp/Job-20.odb,Step-1,Increment      1: Step Time =    1.000,"P-20-1",          1473,       124.156,       142.983,            0.,NA,NA,"",   1.04888E+06,   1.04470E+06,   1.04470E+06
C:/temp/Job-20.odb,Step-1,Increment      1: Step Time =    1.000,"P-20-1",          1474,       111.412,       58.3670,            0.,NA,NA,"",   1.03183E+06,   1.04372E+06,   1.04372E+06
C:/temp/Job-20.odb,Step-1,Increment      1: Step Time =    1.000,"P-20-1",          1475,       57.3352,       90.8361,            0.,NA,NA,"",   909.381E+03,   951.080E+03,   951.080E+03
C:/temp/Job-20.odb,Step-1,Increment      1: Step Time =    1.000,"P-20-1",          1476,       141.956,       109.232,            0.,NA,NA,"",   959.649E+03,   959.169E+03,   959.169E+03
C:/temp/Job-20.odb,Step-1,Increment      1: Step Time =    1.000,"P-20-1",          1477,       94.1007,       140.054,            0.,NA,NA,"",   1.02107E+06,   1.04617E+06,   1.04617E+06
C:/temp/Job-20.odb,Step-1,Increment      1: Step Time =    1.000,"P-20-1",          1478,       59.1021,       123.982,            0.,NA,NA,"",   983.860E+03,   1.00954E+06,   1.00954E+06
C:/temp/Job-20.odb,Step-1,Increment      1: Step Time =    1.000,"P-20-1",          1479,       77.8458,       61.9409,            0.,NA,NA,"",   1.05400E+06,   1.06236E+06,   1.06236E+06
C:/temp/Job-20.odb,Step-1,Increment      1: Step Time =    1.000,"P-20-1",          1480,       121.618,       140.920,            0.,NA,NA,"",   1.05225E+06,   1.04957E+06,   1.04957E+06
C:/temp/Job-20.odb,Step-1,Increment      1: Step Time =    1.000,"P-20-1",          1481,       136.566,       76.5719,            0.,NA,NA,"",   1.03793E+06,   1.02145E+06,   1.02145E+06
C:/temp/Job-20.odb,Step-1,Increment      1: Step Time =    1.000,"P-20-1",          1482,       57.3576,       86.3350,            0.,NA,NA,"",   929.157E+03,   966.816E+03,   966.816E+03
C:/temp/Job-20.odb,Step-1,Increment      1: Step Time =    1.000,"P-20-1",          1483,       114.581,       58.1782,            0.,NA,NA,"",   1.03797E+06,   1.04585E+06,   1.04585E+06
C:/temp/Job-20.odb,Step-1,Increment      1: Step Time =    1.000,"P-20-1",          1484,       140.872,       113.225,            0.,NA,NA,"",   978.948E+03,   974.050E+03,   974.050E+03
C:/temp/Job-20.odb,Step-1,Increment      1: Step Time =    1.000,"P-20-1",          1485,       87.7673,       141.305,            0.,NA,NA,"",   1.02993E+06,   1.04860E+06,   1.04860E+06
C:/temp/Job-20.odb,Step-1,Increment      1: Step Time =    1.000,"P-20-1",          1486,       109.477,       61.9343,            0.,NA,NA,"",   1.03464E+06,   1.05099E+06,   1.05099E+06
C:/temp/Job-20.odb,Step-1,Increment      1: Step Time =    1.000,"P-20-1",          1487,       63.7014,       91.7128,            0.,NA,NA,"",   902.541E+03,   936.798E+03,   936.798E+03
C:/temp/Job-20.odb,Step-1,Increment      1: Step Time =    1.000,"P-20-1",          1488,       135.931,       111.929,            0.,NA,NA,"",   972.877E+03,   966.009E+03,   966.009E+03
C:/temp/Job-20.odb,Step-1,Increment      1: Step Time =    1.000,"P-20-1",          1489,       90.6784,       135.771,            0.,NA,NA,"",   1.03456E+06,   1.05962E+06,   1.05962E+06
C:/temp/Job-20.odb,Step-1,Increment      1: Step Time =    1.000,"P-20-1",          1490,       144.446,       56.7463,            0.,NA,NA,"",   1.03594E+06,   1.02582E+06,   1.02582E+06
C:/temp/Job-20.odb,Step-1,Increment      1: Step Time =    1.000,"P-20-1",          1491,       142.764,       140.701,            0.,NA,NA,"",   1.03960E+06,   1.02835E+06,   1.02835E+06
C:/temp/Job-20.odb,Step-1,Increment      1: Step Time =    1.000,"P-20-1",          1492,       60.3909,       138.830,            0.,NA,NA,"",   1.01895E+06,   1.03729E+06,   1.03729E+06
C:/temp/Job-20.odb,Step-1,Increment      1: Step Time =    1.000,"P-20-1",          1493,       140.098,       117.495,            0.,NA,NA,"",   1.00217E+06,   992.501E+03,   992.501E+03
C:/temp/Job-20.odb,Step-1,Increment      1: Step Time =    1.000,"P-20-1",          1494,       82.0183,       144.301,            0.,NA,NA,"",   1.03424E+06,   1.04739E+06,   1.04739E+06
C:/temp/Job-20.odb,Step-1,Increment      1: Step Time =    1.000,"P-20-1",          1495,       118.329,       57.1344,            0.,NA,NA,"",   1.04221E+06,   1.04490E+06,   1.04490E+06
C:/temp/Job-20.odb,Step-1,Increment      1: Step Time =    1.000,"P-20-1",          1496,       56.2315,       81.7151,            0.,NA,NA,"",   948.962E+03,   984.099E+03,   984.099E+03
C:/temp/Job-20.odb,Step-1,Increment      1: Step Time =    1.000,"P-20-1",          1497,       130.085,       142.372,            0.,NA,NA,"",   1.05138E+06,   1.04233E+06,   1.04233E+06
C:/temp/Job-20.odb,Step-1,Increment      1: Step Time =    1.000,"P-20-1",          1498,       141.174,       71.8650,            0.,NA,NA,"",   1.03721E+06,   1.02354E+06,   1.02354E+06
C:/temp/Job-20.odb,Step-1,Increment      1: Step Time =    1.000,"P-20-1",          1499,       55.6946,       126.919,            0.,NA,NA,"",   981.054E+03,   1.01093E+06,   1.01093E+06
C:/temp/Job-20.odb,Step-1,Increment      1: Step Time =    1.000,"P-20-1",          1500,       115.276,       143.994,            0.,NA,NA,"",   1.03569E+06,   1.04204E+06,   1.04204E+06
C:/temp/Job-20.odb,Step-1,Increment      1: Step Time =    1.000,"P-20-1",          1501,       143.462,       86.7203,            0.,NA,NA,"",   981.979E+03,     977.4E+03,     977.4E+03
C:/temp/Job-20.odb,Step-1,Increment      1: Step Time =    1.000,"P-20-1",          1502,       59.8583,       118.029,            0.,NA,NA,"",   960.348E+03,   989.120E+03,   989.120E+03
C:/temp/Job-20.odb,Step-1,Increment      1: Step Time =    1.000,"P-20-1",          1503,       87.0901,       56.2768,            0.,NA,NA,"",   1.02763E+06,   1.04467E+06,   1.04467E+06
C:/temp/Job-20.odb,Step-1,Increment      1: Step Time =    1.000,"P-20-1",          1504,       58.9813,       66.4630,            0.,NA,NA,"",   1.01014E+06,   1.03165E+06,   1.03165E+06
C:/temp/Job-20.odb,Step-1,Increment      1: Step Time =    1.000,"P-20-1",          1505,       135.007,       57.7592,            0.,NA,NA,"",   1.04744E+06,   1.03630E+06,   1.03630E+06
C:/temp/Job-20.odb,Step-1,Increment      1: Step Time =    1.000,"P-20-1",          1506,       142.886,       131.181,            0.,NA,NA,"",   1.03712E+06,   1.02418E+06,   1.02418E+06
C:/temp/Job-20.odb,Step-1,Increment      1: Step Time =    1.000,"P-20-1",          1507,       69.8606,       140.870,            0.,NA,NA,"",   1.04087E+06,   1.05112E+06,   1.05112E+06
C:/temp/Job-20.odb,Step-1,Increment      1: Step Time =    1.000,"P-20-1",          1508,       56.6116,       63.2132,            0.,NA,NA,"",   1.00752E+06,   1.03091E+06,   1.03091E+06
C:/temp/Job-20.odb,Step-1,Increment      1: Step Time =    1.000,"P-20-1",          1509,       139.194,       55.1990,            0.,NA,NA,"",   1.03989E+06,   1.02968E+06,   1.02968E+06
C:/temp/Job-20.odb,Step-1,Increment      1: Step Time =    1.000,"P-20-1",          1510,       63.5630,       142.049,            0.,NA,NA,"",   1.02820E+06,   1.04275E+06,   1.04275E+06
C:/temp/Job-20.odb,Step-1,Increment      1: Step Time =    1.000,"P-20-1",          1511,       146.667,       135.783,            0.,NA,NA,"",   1.03301E+06,   1.02199E+06,   1.02199E+06
C:/temp/Job-20.odb,Step-1,Increment      1: Step Time =    1.000,"P-20-1",          1512,       132.620,       64.3733,            0.,NA,NA,"",   1.05887E+06,   1.04429E+06,   1.04429E+06
C:/temp/Job-20.odb,Step-1,Increment      1: Step Time =    1.000,"P-20-1",          1513,       62.2639,       63.9091,            0.,NA,NA,"",   1.02268E+06,   1.03935E+06,   1.03935E+06
C:/temp/Job-20.odb,Step-1,Increment      1: Step Time =    1.000,"P-20-1",          1514,       138.643,       130.610,            0.,NA,NA,"",   1.04659E+06,   1.03121E+06,   1.03121E+06
C:/temp/Job-20.odb,Step-1,Increment      1: Step Time =    1.000,"P-20-1",          1515,       68.2691,       134.004,            0.,NA,NA,"",   1.04287E+06,   1.05154E+06,   1.05154E+06
C:/temp/Job-20.odb,Step-1,Increment      1: Step Time =    1.000,"P-20-1",          1516,       68.0902,       95.8730,            0.,NA,NA,"",   859.035E+03,   893.004E+03,   893.004E+03
C:/temp/Job-20.odb,Step-1,Increment      1: Step Time =    1.000,"P-20-1",          1517,       106.583,       68.5178,            0.,NA,NA,"",   1.04327E+06,   1.07016E+06,   1.07016E+06
C:/temp/Job-20.odb,Step-1,Increment      1: Step Time =    1.000,"P-20-1",          1518,       131.148,       107.062,            0.,NA,NA,"",   923.202E+03,   921.194E+03,   921.194E+03
C:/temp/Job-20.odb,Step-1,Increment      1: Step Time =    1.000,"P-20-1",          1519,       95.9657,       133.711,            0.,NA,NA,"",   1.02390E+06,   1.05781E+06,   1.05781E+06
C:/temp/Job-20.odb,Step-1,Increment      1: Step Time =    1.000,"P-20-1",          1520,       65.3780,       124.102,            0.,NA,NA,"",   1.00998E+06,   1.02427E+06,   1.02427E+06
C:/temp/Job-20.odb,Step-1,Increment      1: Step Time =    1.000,"P-20-1",          1521,       81.0345,       64.5196,            0.,NA,NA,"",   1.05880E+06,   1.06875E+06,   1.06875E+06
C:/temp/Job-20.odb,Step-1,Increment      1: Step Time =    1.000,"P-20-1",          1522,       119.420,       133.893,            0.,NA,NA,"",   1.07391E+06,   1.06917E+06,   1.06917E+06
C:/temp/Job-20.odb,Step-1,Increment      1: Step Time =    1.000,"P-20-1",          1523,       133.576,       79.8006,            0.,NA,NA,"",   1.03497E+06,   1.01638E+06,   1.01638E+06
C:/temp/Job-20.odb,Step-1,Increment      1: Step Time =    1.000,"P-20-1",          1524,       127.705,       66.6043,            0.,NA,NA,"",   1.07101E+06,   1.05524E+06,   1.05524E+06
C:/temp/Job-20.odb,Step-1,Increment      1: Step Time =    1.000,"P-20-1",          1525,       67.2423,       73.2167,            0.,NA,NA,"",   1.03085E+06,   1.04085E+06,   1.04085E+06
C:/temp/Job-20.odb,Step-1,Increment      1: Step Time =    1.000,"P-20-1",          1526,       71.9720,       129.889,            0.,NA,NA,"",   1.05733E+06,   1.06051E+06,   1.06051E+06
C:/temp/Job-20.odb,Step-1,Increment      1: Step Time =    1.000,"P-20-1",          1527,       134.387,       129.955,            0.,NA,NA,"",   1.05832E+06,   1.04062E+06,   1.04062E+06
C:/temp/Job-20.odb,Step-1,Increment      1: Step Time =    1.000,"P-20-1",          1528,       62.7860,       102.653,            0.,NA,NA,"",   873.008E+03,   914.457E+03,   914.457E+03
C:/temp/Job-20.odb,Step-1,Increment      1: Step Time =    1.000,"P-20-1",          1529,       100.775,       66.6403,            0.,NA,NA,"",   1.02198E+06,   1.05961E+06,   1.05961E+06
C:/temp/Job-20.odb,Step-1,Increment      1: Step Time =    1.000,"P-20-1",          1530,       69.7177,       89.5027,            0.,NA,NA,"",   917.648E+03,   939.456E+03,   939.456E+03
C:/temp/Job-20.odb,Step-1,Increment      1: Step Time =    1.000,"P-20-1",          1531,       110.786,       67.6270,            0.,NA,NA,"",   1.05499E+06,   1.07074E+06,   1.07074E+06
C:/temp/Job-20.odb,Step-1,Increment      1: Step Time =    1.000,"P-20-1",          1532,       130.886,       111.321,            0.,NA,NA,"",   968.449E+03,   958.209E+03,   958.209E+03
C:/temp/Job-20.odb,Step-1,Increment      1: Step Time =    1.000,"P-20-1",          1533,       90.4847,       129.460,            0.,NA,NA,"",   1.05545E+06,   1.08387E+06,   1.08387E+06
C:/temp/Job-20.odb,Step-1,Increment      1: Step Time =    1.000,"P-20-1",          1534,       135.837,       100.045,            0.,NA,NA,"",   899.157E+03,   906.845E+03,   906.845E+03
C:/temp/Job-20.odb,Step-1,Increment      1: Step Time =    1.000,"P-20-1",          1535,       101.075,       137.048,            0.,NA,NA,"",   1.01947E+06,   1.04925E+06,   1.04925E+06
C:/temp/Job-20.odb,Step-1,Increment      1: Step Time =    1.000,"P-20-1",          1536,       114.645,       132.890,            0.,NA,NA,"",   1.06813E+06,   1.07329E+06,   1.07329E+06
C:/temp/Job-20.odb,Step-1,Increment      1: Step Time =    1.000,"P-20-1",          1537,       131.686,       81.9043,            0.,NA,NA,"",   1.03081E+06,   1.01098E+06,   1.01098E+06
C:/temp/Job-20.odb,Step-1,Increment      1: Step Time =    1.000,"P-20-1",          1538,       66.7178,       117.876,            0.,NA,NA,"",   985.694E+03,   1.00104E+06,   1.00104E+06
C:/temp/Job-20.odb,Step-1,Increment      1: Step Time =    1.000,"P-20-1",          1539,       84.8005,       65.6798,            0.,NA,NA,"",   1.05665E+06,   1.07136E+06,   1.07136E+06
C:/temp/Job-20.odb,Step-1,Increment      1: Step Time =    1.000,"P-20-1",          1540,       131.374,       74.0218,            0.,NA,NA,"",   1.06271E+06,   1.04187E+06,   1.04187E+06
C:/temp/Job-20.odb,Step-1,Increment      1: Step Time =    1.000,"P-20-1",          1541,       126.160,       133.895,            0.,NA,NA,"",   1.07378E+06,   1.06017E+06,   1.06017E+06
C:/temp/Job-20.odb,Step-1,Increment      1: Step Time =    1.000,"P-20-1",          1542,       67.0303,       127.401,            0.,NA,NA,"",   1.02829E+06,   1.03853E+06,   1.03853E+06
C:/temp/Job-20.odb,Step-1,Increment      1: Step Time =    1.000,"P-20-1",          1543,       72.9143,       68.3194,            0.,NA,NA,"",   1.05483E+06,   1.06038E+06,   1.06038E+06
C:/temp/Job-20.odb,Step-1,Increment      1: Step Time =    1.000,"P-20-1",          1544,       134.399,       68.5875,            0.,NA,NA,"",   1.05625E+06,   1.03970E+06,   1.03970E+06
C:/temp/Job-20.odb,Step-1,Increment      1: Step Time =    1.000,"P-20-1",          1545,       65.9604,       68.1782,            0.,NA,NA,"",   1.03063E+06,   1.04313E+06,   1.04313E+06
C:/temp/Job-20.odb,Step-1,Increment      1: Step Time =    1.000,"P-20-1",          1546,       63.4376,       74.7664,            0.,NA,NA,"",   1.00975E+06,   1.02638E+06,   1.02638E+06
C:/temp/Job-20.odb,Step-1,Increment      1: Step Time =    1.000,"P-20-1",          1547,       125.803,       62.7357,            0.,NA,NA,"",   1.06566E+06,   1.05447E+06,   1.05447E+06
C:/temp/Job-20.odb,Step-1,Increment      1: Step Time =    1.000,"P-20-1",          1548,       129.935,       133.782,            0.,NA,NA,"",   1.06848E+06,   1.05285E+06,   1.05285E+06
C:/temp/Job-20.odb,Step-1,Increment      1: Step Time =    1.000,"P-20-1",          1549,       134.680,       125.403,            0.,NA,NA,"",   1.05025E+06,   1.03163E+06,   1.03163E+06
C:/temp/Job-20.odb,Step-1,Increment      1: Step Time =    1.000,"P-20-1",          1550,       76.0880,       133.738,            0.,NA,NA,"",   1.06305E+06,   1.06825E+06,   1.06825E+06
C:/temp/Job-20.odb,Step-1,Increment      1: Step Time =    1.000,"P-20-1",          1551,       68.0707,       130.758,            0.,NA,NA,"",   1.03953E+06,   1.04809E+06,   1.04809E+06
C:/temp/Job-20.odb,Step-1,Increment      1: Step Time =    1.000,"P-20-1",          1552,       69.2858,       102.056,            0.,NA,NA,"",   836.235E+03,   873.122E+03,   873.122E+03
C:/temp/Job-20.odb,Step-1,Increment      1: Step Time =    1.000,"P-20-1",          1553,       103.509,       70.4743,            0.,NA,NA,"",   1.02874E+06,   1.06930E+06,   1.06930E+06
C:/temp/Job-20.odb,Step-1,Increment      1: Step Time =    1.000,"P-20-1",          1554,       67.8114,       84.6068,            0.,NA,NA,"",   967.604E+03,   983.799E+03,   983.799E+03
C:/temp/Job-20.odb,Step-1,Increment      1: Step Time =    1.000,"P-20-1",          1555,       115.781,       66.8372,            0.,NA,NA,"",   1.06622E+06,   1.06918E+06,   1.06918E+06
C:/temp/Job-20.odb,Step-1,Increment      1: Step Time =    1.000,"P-20-1",          1556,       130.527,       115.828,            0.,NA,NA,"",   1.01547E+06,   996.677E+03,   996.677E+03
C:/temp/Job-20.odb,Step-1,Increment      1: Step Time =    1.000,"P-20-1",          1557,       85.2365,       134.759,            0.,NA,NA,"",   1.05373E+06,   1.06940E+06,   1.06940E+06
C:/temp/Job-20.odb,Step-1,Increment      1: Step Time =    1.000,"P-20-1",          1558,       130.839,       102.814,            0.,NA,NA,"",   873.558E+03,   880.674E+03,   880.674E+03
C:/temp/Job-20.odb,Step-1,Increment      1: Step Time =    1.000,"P-20-1",          1559,       100.528,       132.716,            0.,NA,NA,"",   1.02254E+06,   1.05894E+06,   1.05894E+06
C:/temp/Job-20.odb,Step-1,Increment      1: Step Time =    1.000,"P-20-1",          1560,       110.676,       135.287,            0.,NA,NA,"",   1.04442E+06,   1.06120E+06,   1.06120E+06
C:/temp/Job-20.odb,Step-1,Increment      1: Step Time =    1.000,"P-20-1",          1561,       136.905,       89.6695,            0.,NA,NA,"",   960.984E+03,   956.528E+03,   956.528E+03
C:/temp/Job-20.odb,Step-1,Increment      1: Step Time =    1.000,"P-20-1",          1562,       121.998,       129.676,            0.,NA,NA,"",   1.09271E+06,   1.07760E+06,   1.07760E+06
C:/temp/Job-20.odb,Step-1,Increment      1: Step Time =    1.000,"P-20-1",          1563,       129.388,       79.1650,            0.,NA,NA,"",   1.05538E+06,   1.03157E+06,   1.03157E+06
C:/temp/Job-20.odb,Step-1,Increment      1: Step Time =    1.000,"P-20-1",          1564,       70.3316,       121.319,            0.,NA,NA,"",   1.02475E+06,   1.02947E+06,   1.02947E+06
C:/temp/Job-20.odb,Step-1,Increment      1: Step Time =    1.000,"P-20-1",          1565,       79.2824,       68.5303,            0.,NA,NA,"",   1.07293E+06,   1.07666E+06,   1.07666E+06
C:/temp/Job-20.odb,Step-1,Increment      1: Step Time =    1.000,"P-20-1",          1566,       63.1629,       108.732,            0.,NA,NA,"",   906.255E+03,   940.575E+03,   940.575E+03
C:/temp/Job-20.odb,Step-1,Increment      1: Step Time =    1.000,"P-20-1",          1567,       88.9089,       65.4873,            0.,NA,NA,"",   1.04826E+06,   1.07009E+06,   1.07009E+06
C:/temp/Job-20.odb,Step-1,Increment      1: Step Time =    1.000,"P-20-1",          1568,       130.294,       120.374,            0.,NA,NA,"",   1.04973E+06,   1.02703E+06,   1.02703E+06
C:/temp/Job-20.odb,Step-1,Increment      1: Step Time =    1.000,"P-20-1",          1569,       80.8934,       129.463,            0.,NA,NA,"",   1.08361E+06,   1.08664E+06,   1.08664E+06
C:/temp/Job-20.odb,Step-1,Increment      1: Step Time =    1.000,"P-20-1",          1570,       65.6165,       79.5732,            0.,NA,NA,"",   999.294E+03,   1.01386E+06,   1.01386E+06
C:/temp/Job-20.odb,Step-1,Increment      1: Step Time =    1.000,"P-20-1",          1571,       120.947,       65.0013,            0.,NA,NA,"",   1.07188E+06,   1.06470E+06,   1.06470E+06
C:/temp/Job-20.odb,Step-1,Increment      1: Step Time =    1.000,"P-20-1",          1572,       104.852,       132.150,            0.,NA,NA,"",   1.02899E+06,   1.06300E+06,   1.06300E+06
C:/temp/Job-20.odb,Step-1,Increment      1: Step Time =    1.000,"P-20-1",          1573,       66.2840,       105.389,            0.,NA,NA,"",   874.313E+03,   909.416E+03,   909.416E+03
C:/temp/Job-20.odb,Step-1,Increment      1: Step Time =    1.000,"P-20-1",          1574,       97.1317,       69.6975,            0.,NA,NA,"",   1.02450E+06,   1.06794E+06,   1.06794E+06
C:/temp/Job-20.odb,Step-1,Increment      1: Step Time =    1.000,"P-20-1",          1575,       127.442,       103.221,            0.,NA,NA,"",   851.304E+03,   859.407E+03,   859.407E+03
C:/temp/Job-20.odb,Step-1,Increment      1: Step Time =    1.000,"P-20-1",          1576,       99.8417,       127.982,            0.,NA,NA,"",   1.02680E+06,   1.07410E+06,   1.07410E+06
C:/temp/Job-20.odb,Step-1,Increment      1: Step Time =    1.000,"P-20-1",          1577,       72.0774,       98.7592,            0.,NA,NA,"",   805.876E+03,   842.572E+03,   842.572E+03
C:/temp/Job-20.odb,Step-1,Increment      1: Step Time =    1.000,"P-20-1",          1578,       100.742,       73.7820,            0.,NA,NA,"",   1.03246E+06,   1.08568E+06,   1.08568E+06
C:/temp/Job-20.odb,Step-1,Increment      1: Step Time =    1.000,"P-20-1",          1579,       69.8625,       77.8113,            0.,NA,NA,"",   1.03345E+06,   1.03830E+06,   1.03830E+06
C:/temp/Job-20.odb,Step-1,Increment      1: Step Time =    1.000,"P-20-1",          1580,       122.756,       69.0496,            0.,NA,NA,"",   1.08932E+06,   1.07344E+06,   1.07344E+06
C:/temp/Job-20.odb,Step-1,Increment      1: Step Time =    1.000,"P-20-1",          1581,       65.0591,       60.6977,            0.,NA,NA,"",   1.02988E+06,   1.04404E+06,   1.04404E+06
C:/temp/Job-20.odb,Step-1,Increment      1: Step Time =    1.000,"P-20-1",          1582,       139.054,       67.2005,            0.,NA,NA,"",   1.04499E+06,   1.03065E+06,   1.03065E+06
C:/temp/Job-20.odb,Step-1,Increment      1: Step Time =    1.000,"P-20-1",          1583,       65.0626,       131.731,            0.,NA,NA,"",   1.02779E+06,   1.04067E+06,   1.04067E+06
C:/temp/Job-20.odb,Step-1,Increment      1: Step Time =    1.000,"P-20-1",          1584,       133.952,       134.589,            0.,NA,NA,"",   1.05921E+06,   1.04377E+06,   1.04377E+06
C:/temp/Job-20.odb,Step-1,Increment      1: Step Time =    1.000,"P-20-1",          1585,       76.2642,       129.543,            0.,NA,NA,"",   1.07520E+06,   1.07522E+06,   1.07522E+06
C:/temp/Job-20.odb,Step-1,Increment      1: Step Time =    1.000,"P-20-1",          1586,       130.182,       124.938,            0.,NA,NA,"",   1.06833E+06,   1.04576E+06,   1.04576E+06
C:/temp/Job-20.odb,Step-1,Increment      1: Step Time =    1.000,"P-20-1",          1587,       112.880,       128.645,            0.,NA,NA,"",   1.08616E+06,   1.09427E+06,   1.09427E+06
C:/temp/Job-20.odb,Step-1,Increment      1: Step Time =    1.000,"P-20-1",          1588,       129.659,       90.6330,            0.,NA,NA,"",   949.672E+03,   939.277E+03,   939.277E+03
C:/temp/Job-20.odb,Step-1,Increment      1: Step Time =    1.000,"P-20-1",          1589,       88.8686,       70.2036,            0.,NA,NA,"",   1.06190E+06,   1.08475E+06,   1.08475E+06
C:/temp/Job-20.odb,Step-1,Increment      1: Step Time =    1.000,"P-20-1",          1590,       66.5195,       111.584,            0.,NA,NA,"",   933.666E+03,   957.747E+03,   957.747E+03
C:/temp/Job-20.odb,Step-1,Increment      1: Step Time =    1.000,"P-20-1",          1591,       75.3970,       121.193,            0.,NA,NA,"",   1.06441E+06,   1.05670E+06,   1.05670E+06
C:/temp/Job-20.odb,Step-1,Increment      1: Step Time =    1.000,"P-20-1",          1592,       76.5903,       72.2188,            0.,NA,NA,"",   1.07683E+06,   1.07584E+06,   1.07584E+06
C:/temp/Job-20.odb,Step-1,Increment      1: Step Time =    1.000,"P-20-1",          1593,       121.122,       125.148,            0.,NA,NA,"",   1.11574E+06,   1.09098E+06,   1.09098E+06
C:/temp/Job-20.odb,Step-1,Increment      1: Step Time =    1.000,"P-20-1",          1594,       123.967,       78.5024,            0.,NA,NA,"",   1.08985E+06,   1.05959E+06,   1.05959E+06
C:/temp/Job-20.odb,Step-1,Increment      1: Step Time =    1.000,"P-20-1",          1595,       108.990,       130.785,            0.,NA,NA,"",   1.05067E+06,   1.07565E+06,   1.07565E+06
C:/temp/Job-20.odb,Step-1,Increment      1: Step Time =    1.000,"P-20-1",          1596,       133.890,       93.6451,            0.,NA,NA,"",   917.481E+03,   919.465E+03,   919.465E+03
C:/temp/Job-20.odb,Step-1,Increment      1: Step Time =    1.000,"P-20-1",          1597,       69.6984,       108.262,            0.,NA,NA,"",   899.839E+03,   924.097E+03,   924.097E+03
C:/temp/Job-20.odb,Step-1,Increment      1: Step Time =    1.000,"P-20-1",          1598,       125.646,       124.809,            0.,NA,NA,"",   1.09411E+06,   1.06722E+06,   1.06722E+06
C:/temp/Job-20.odb,Step-1,Increment      1: Step Time =    1.000,"P-20-1",          1599,       75.9397,       125.297,            0.,NA,NA,"",   1.08029E+06,   1.07406E+06,   1.07406E+06
C:/temp/Job-20.odb,Step-1,Increment      1: Step Time =    1.000,"P-20-1",          1600,       121.328,       75.3459,            0.,NA,NA,"",   1.10970E+06,   1.08209E+06,   1.08209E+06
C:/temp/Job-20.odb,Step-1,Increment      1: Step Time =    1.000,"P-20-1",          1601,       73.4561,       75.4513,            0.,NA,NA,"",   1.06200E+06,   1.06152E+06,   1.06152E+06
C:/temp/Job-20.odb,Step-1,Increment      1: Step Time =    1.000,"P-20-1",          1602,       110.902,       124.903,            0.,NA,NA,"",   1.09272E+06,   1.11107E+06,   1.11107E+06
C:/temp/Job-20.odb,Step-1,Increment      1: Step Time =    1.000,"P-20-1",          1603,       125.975,       87.4607,            0.,NA,NA,"",   1.00949E+06,   983.966E+03,   983.966E+03
C:/temp/Job-20.odb,Step-1,Increment      1: Step Time =    1.000,"P-20-1",          1604,       89.8536,       74.5915,            0.,NA,NA,"",   1.08868E+06,   1.11624E+06,   1.11624E+06
C:/temp/Job-20.odb,Step-1,Increment      1: Step Time =    1.000,"P-20-1",          1605,       72.7719,       111.080,            0.,NA,NA,"",   949.611E+03,   958.327E+03,   958.327E+03
C:/temp/Job-20.odb,Step-1,Increment      1: Step Time =    1.000,"P-20-1",          1606,       121.413,       104.376,            0.,NA,NA,"",   829.139E+03,   821.591E+03,   821.591E+03
C:/temp/Job-20.odb,Step-1,Increment      1: Step Time =    1.000,"P-20-1",          1607,       95.0183,       123.485,            0.,NA,NA,"",   1.05927E+06,   1.11078E+06,   1.11078E+06
C:/temp/Job-20.odb,Step-1,Increment      1: Step Time =    1.000,"P-20-1",          1608,       75.3828,       94.8617,            0.,NA,NA,"",   806.005E+03,   831.976E+03,   831.976E+03
C:/temp/Job-20.odb,Step-1,Increment      1: Step Time =    1.000,"P-20-1",          1609,       104.497,       78.2310,            0.,NA,NA,"",   1.08185E+06,   1.13393E+06,   1.13393E+06
C:/temp/Job-20.odb,Step-1,Increment      1: Step Time =    1.000,"P-20-1",          1610,       79.6410,       116.119,            0.,NA,NA,"",   1.08556E+06,   1.05790E+06,   1.05790E+06
C:/temp/Job-20.odb,Step-1,Increment      1: Step Time =    1.000,"P-20-1",          1611,       80.4649,       75.8119,            0.,NA,NA,"",   1.09823E+06,   1.09126E+06,   1.09126E+06
C:/temp/Job-20.odb,Step-1,Increment      1: Step Time =    1.000,"P-20-1",          1612,       120.649,       80.9830,            0.,NA,NA,"",   1.11589E+06,   1.07827E+06,   1.07827E+06
C:/temp/Job-20.odb,Step-1,Increment      1: Step Time =    1.000,"P-20-1",          1613,       114.537,       120.840,            0.,NA,NA,"",   1.16221E+06,   1.14118E+06,   1.14118E+06
C:/temp/Job-20.odb,Step-1,Increment      1: Step Time =    1.000,"P-20-1",          1614,       120.315,       120.209,            0.,NA,NA,"",   1.12805E+06,   1.08987E+06,   1.08987E+06
C:/temp/Job-20.odb,Step-1,Increment      1: Step Time =    1.000,"P-20-1",          1615,       80.3428,       120.324,            0.,NA,NA,"",   1.12056E+06,   1.09765E+06,   1.09765E+06
C:/temp/Job-20.odb,Step-1,Increment      1: Step Time =    1.000,"P-20-1",          1616,       119.187,       78.1356,            0.,NA,NA,"",   1.12707E+06,   1.09415E+06,   1.09415E+06
C:/temp/Job-20.odb,Step-1,Increment      1: Step Time =    1.000,"P-20-1",          1617,       77.2825,       80.3454,            0.,NA,NA,"",   1.09375E+06,   1.07821E+06,   1.07821E+06
C:/temp/Job-20.odb,Step-1,Increment      1: Step Time =    1.000,"P-20-1",          1618,       125.759,       110.693,            0.,NA,NA,"",   972.724E+03,   952.885E+03,   952.885E+03
C:/temp/Job-20.odb,Step-1,Increment      1: Step Time =    1.000,"P-20-1",          1619,       90.3443,       123.991,            0.,NA,NA,"",   1.08896E+06,   1.11750E+06,   1.11750E+06
C:/temp/Job-20.odb,Step-1,Increment      1: Step Time =    1.000,"P-20-1",          1620,       118.762,       99.6471,            0.,NA,NA,"",   632.749E+03,   639.037E+03,   639.037E+03
C:/temp/Job-20.odb,Step-1,Increment      1: Step Time =    1.000,"P-20-1",          1621,       99.6371,       118.026,            0.,NA,NA,"",   1.08260E+06,   1.16733E+06,   1.16733E+06
C:/temp/Job-20.odb,Step-1,Increment      1: Step Time =    1.000,"P-20-1",          1622,       75.6036,       88.7197,            0.,NA,NA,"",   972.583E+03,   965.716E+03,   965.716E+03
C:/temp/Job-20.odb,Step-1,Increment      1: Step Time =    1.000,"P-20-1",          1623,       111.234,       72.8607,            0.,NA,NA,"",   1.08522E+06,   1.10001E+06,   1.10001E+06
C:/temp/Job-20.odb,Step-1,Increment      1: Step Time =    1.000,"P-20-1",          1624,       99.3344,       80.5893,            0.,NA,NA,"",   1.05436E+06,   1.13780E+06,   1.13780E+06
C:/temp/Job-20.odb,Step-1,Increment      1: Step Time =    1.000,"P-20-1",          1625,       77.5600,       98.9503,            0.,NA,NA,"",   719.618E+03,   754.077E+03,   754.077E+03
C:/temp/Job-20.odb,Step-1,Increment      1: Step Time =    1.000,"P-20-1",          1626,       119.100,       86.7247,            0.,NA,NA,"",   1.10044E+06,   1.04829E+06,   1.04829E+06
C:/temp/Job-20.odb,Step-1,Increment      1: Step Time =    1.000,"P-20-1",          1627,       109.145,       118.800,            0.,NA,NA,"",   1.18172E+06,   1.19681E+06,   1.19681E+06
C:/temp/Job-20.odb,Step-1,Increment      1: Step Time =    1.000,"P-20-1",          1628,       90.2604,       78.8619,            0.,NA,NA,"",   1.13265E+06,   1.15687E+06,   1.15687E+06
C:/temp/Job-20.odb,Step-1,Increment      1: Step Time =    1.000,"P-20-1",          1629,       78.7078,       111.951,            0.,NA,NA,"",   992.341E+03,   979.801E+03,   979.801E+03
C:/temp/Job-20.odb,Step-1,Increment      1: Step Time =    1.000,"P-20-1",          1630,       125.300,       100.506,            0.,NA,NA,"",   785.971E+03,   802.067E+03,   802.067E+03
C:/temp/Job-20.odb,Step-1,Increment      1: Step Time =    1.000,"P-20-1",          1631,       103.876,       122.858,            0.,NA,NA,"",   1.05782E+06,   1.11201E+06,   1.11201E+06
C:/temp/Job-20.odb,Step-1,Increment      1: Step Time =    1.000,"P-20-1",          1632,       75.7768,       101.855,            0.,NA,NA,"",   781.148E+03,   807.756E+03,   807.756E+03
C:/temp/Job-20.odb,Step-1,Increment      1: Step Time =    1.000,"P-20-1",          1633,       97.6411,       76.3471,            0.,NA,NA,"",   1.04755E+06,   1.10796E+06,   1.10796E+06
C:/temp/Job-20.odb,Step-1,Increment      1: Step Time =    1.000,"P-20-1",          1634,       115.028,       89.5655,            0.,NA,NA,"",   1.15381E+06,   1.07082E+06,   1.07082E+06
C:/temp/Job-20.odb,Step-1,Increment      1: Step Time =    1.000,"P-20-1",          1635,       109.843,       113.647,            0.,NA,NA,"",   1.27071E+06,   1.24333E+06,   1.24333E+06
C:/temp/Job-20.odb,Step-1,Increment      1: Step Time =    1.000,"P-20-1",          1636,       83.2424,       109.986,            0.,NA,NA,"",   1.05080E+06,   991.944E+03,   991.944E+03
C:/temp/Job-20.odb,Step-1,Increment      1: Step Time =    1.000,"P-20-1",          1637,       85.5983,       85.8983,            0.,NA,NA,"",   1.19933E+06,   1.14212E+06,   1.14212E+06
C:/temp/Job-20.odb,Step-1,Increment      1: Step Time =    1.000,"P-20-1",          1638,       120.749,       109.918,            0.,NA,NA,"",   983.110E+03,    951.11E+03,    951.11E+03
C:/temp/Job-20.odb,Step-1,Increment      1: Step Time =    1.000,"P-20-1",          1639,       90.1092,       118.751,            0.,NA,NA,"",   1.18562E+06,   1.19854E+06,   1.19854E+06
C:/temp/Job-20.odb,Step-1,Increment      1: Step Time =    1.000,"P-20-1",          1640,       81.1306,       91.5476,            0.,NA,NA,"",   972.410E+03,   934.440E+03,   934.440E+03
C:/temp/Job-20.odb,Step-1,Increment      1: Step Time =    1.000,"P-20-1",          1641,       110.571,       78.4902,            0.,NA,NA,"",   1.15499E+06,   1.15661E+06,   1.15661E+06
C:/temp/Job-20.odb,Step-1,Increment      1: Step Time =    1.000,"P-20-1",          1642,       79.3500,       85.3293,            0.,NA,NA,"",   1.08738E+06,   1.05985E+06,   1.05985E+06
C:/temp/Job-20.odb,Step-1,Increment      1: Step Time =    1.000,"P-20-1",          1643,       85.2449,       119.494,            0.,NA,NA,"",   1.17261E+06,   1.15204E+06,   1.15204E+06
C:/temp/Job-20.odb,Step-1,Increment      1: Step Time =    1.000,"P-20-1",          1644,       120.321,       115.068,            0.,NA,NA,"",   1.09451E+06,   1.05063E+06,   1.05063E+06
C:/temp/Job-20.odb,Step-1,Increment      1: Step Time =    1.000,"P-20-1",          1645,       110.941,       85.0250,            0.,NA,NA,"",   1.22778E+06,   1.18649E+06,   1.18649E+06
C:/temp/Job-20.odb,Step-1,Increment      1: Step Time =    1.000,"P-20-1",          1646,       83.3505,       88.7167,            0.,NA,NA,"",   1.12679E+06,   1.07351E+06,   1.07351E+06
C:/temp/Job-20.odb,Step-1,Increment      1: Step Time =    1.000,"P-20-1",          1647,       89.6267,       113.536,            0.,NA,NA,"",   1.26220E+06,   1.23513E+06,   1.23513E+06
C:/temp/Job-20.odb,Step-1,Increment      1: Step Time =    1.000,"P-20-1",          1648,       115.672,       109.455,            0.,NA,NA,"",   1.07247E+06,   992.086E+03,   992.086E+03
C:/temp/Job-20.odb,Step-1,Increment      1: Step Time =    1.000,"P-20-1",          1649,       107.811,       123.150,            0.,NA,NA,"",   1.07453E+06,   1.11178E+06,   1.11178E+06
C:/temp/Job-20.odb,Step-1,Increment      1: Step Time =    1.000,"P-20-1",          1650,       122.308,       96.9025,            0.,NA,NA,"",   756.692E+03,   762.044E+03,   762.044E+03
C:/temp/Job-20.odb,Step-1,Increment      1: Step Time =    1.000,"P-20-1",          1651,       76.4322,       108.180,            0.,NA,NA,"",   893.905E+03,   902.761E+03,   902.761E+03
C:/temp/Job-20.odb,Step-1,Increment      1: Step Time =    1.000,"P-20-1",          1652,       94.1373,       77.7264,            0.,NA,NA,"",   1.06149E+06,   1.11815E+06,   1.11815E+06
C:/temp/Job-20.odb,Step-1,Increment      1: Step Time =    1.000,"P-20-1",          1653,       118.929,       51.1444,            0.,NA,NA,"",   1.03146E+06,   1.03385E+06,   1.03385E+06
C:/temp/Job-20.odb,Step-1,Increment      1: Step Time =    1.000,"P-20-1",          1654,       48.3822,       83.7629,            0.,NA,NA,"",   923.588E+03,   972.404E+03,   972.404E+03
C:/temp/Job-20.odb,Step-1,Increment      1: Step Time =    1.000,"P-20-1",          1655,       83.7964,       150.344,            0.,NA,NA,"",   1.02347E+06,   1.03619E+06,   1.03619E+06
C:/temp/Job-20.odb,Step-1,Increment      1: Step Time =    1.000,"P-20-1",          1656,       148.176,       119.550,            0.,NA,NA,"",   1.00148E+06,   995.138E+03,   995.138E+03
C:/temp/Job-20.odb,Step-1,Increment      1: Step Time =    1.000,"P-20-1",          1657,       25.6573,       9.71791,            0.,NA,NA,"",   1.04672E+06,   1.05487E+06,   1.05487E+06
C:/temp/Job-20.odb,Step-1,Increment      1: Step Time =    1.000,"P-20-1",          1658,       10.0460,       173.917,            0.,NA,NA,"",   974.750E+03,   1.05528E+06,   1.05528E+06
C:/temp/Job-20.odb,Step-1,Increment      1: Step Time =    1.000,"P-20-1",          1659,       189.811,       26.1011,            0.,NA,NA,"",   1.00110E+06,   1.00018E+06,   1.00018E+06
C:/temp/Job-20.odb,Step-1,Increment      1: Step Time =    1.000,"P-20-1",          1660,       174.287,       190.192,            0.,NA,NA,"",   998.194E+03,   997.858E+03,   997.858E+03
C:/temp/Job-20.odb,Step-1,Increment      1: Step Time =    1.000,"P-20-1",          1661,       115.941,       101.455,            0.,NA,NA,"",   578.319E+03,   585.038E+03,   585.038E+03
C:/temp/Job-20.odb,Step-1,Increment      1: Step Time =    1.000,"P-20-1",          1662,       99.8144,       112.881,            0.,NA,NA,"",   1.42120E+06,   1.52072E+06,   1.52072E+06
C:/temp/Job-20.odb,Step-1,Increment      1: Step Time =    1.000,"P-20-1",          1663,       81.4091,       99.4552,            0.,NA,NA,"",   631.419E+03,   660.235E+03,   660.235E+03
C:/temp/Job-20.odb,Step-1,Increment      1: Step Time =    1.000,"P-20-1",          1664,       99.7772,       85.9105,            0.,NA,NA,"",   1.32693E+06,   1.44054E+06,   1.44054E+06
C:/temp/Job-20.odb,Step-1,Increment      1: Step Time =    1.000,"P-20-1",          1665,       190.290,       55.3157,            0.,NA,NA,"",   1.00131E+06,   1.00091E+06,   1.00091E+06
C:/temp/Job-20.odb,Step-1,Increment      1: Step Time =    1.000,"P-20-1",          1666,       55.1010,       9.81366,            0.,NA,NA,"",   972.988E+03,   974.189E+03,   974.189E+03
C:/temp/Job-20.odb,Step-1,Increment      1: Step Time =    1.000,"P-20-1",          1667,       144.853,       190.157,            0.,NA,NA,"",   988.635E+03,   988.135E+03,   988.135E+03
C:/temp/Job-20.odb,Step-1,Increment      1: Step Time =    1.000,"P-20-1",          1668,       9.66841,       144.694,            0.,NA,NA,"",   872.479E+03,   966.968E+03,   966.968E+03
C:/temp/Job-20.odb,Step-1,Increment      1: Step Time =    1.000,"P-20-1",          1669,       5.18436,       5.10709,            0.,NA,NA,"",   1.30190E+06,   1.35052E+06,   1.35052E+06
C:/temp/Job-20.odb,Step-1,Increment      1: Step Time =    1.000,"P-20-1",          1670,       111.564,       103.910,            0.,NA,NA,"",   725.372E+03,   481.031E+03,   481.031E+03
C:/temp/Job-20.odb,Step-1,Increment      1: Step Time =    1.000,"P-20-1",          1671,       107.844,       90.2720,            0.,NA,NA,"",   1.32735E+06,   1.29007E+06,   1.29007E+06
C:/temp/Job-20.odb,Step-1,Increment      1: Step Time =    1.000,"P-20-1",          1672,       87.1533,       103.742,            0.,NA,NA,"",   693.707E+03,   491.042E+03,   491.042E+03
C:/temp/Job-20.odb,Step-1,Increment      1: Step Time =    1.000,"P-20-1",          1673,       89.8128,       89.4511,            0.,NA,NA,"",   1.20893E+06,   1.15156E+06,   1.15156E+06
C:/temp/Job-20.odb,Step-1,Increment      1: Step Time =    1.000,"P-20-1",          1674,       91.4465,       85.3052,            0.,NA,NA,"",   1.29743E+06,   1.29648E+06,   1.29648E+06
C:/temp/Job-20.odb,Step-1,Increment      1: Step Time =    1.000,"P-20-1",          1675,       84.3376,       94.4825,            0.,NA,NA,"",   800.084E+03,   739.865E+03,   739.865E+03
C:/temp/Job-20.odb,Step-1,Increment      1: Step Time =    1.000,"P-20-1",          1676,       191.140,       149.085,            0.,NA,NA,"",   1.00160E+06,   1.00078E+06,   1.00078E+06
C:/temp/Job-20.odb,Step-1,Increment      1: Step Time =    1.000,"P-20-1",          1677,       50.7711,       190.809,            0.,NA,NA,"",   975.497E+03,   976.996E+03,   976.996E+03
C:/temp/Job-20.odb,Step-1,Increment      1: Step Time =    1.000,"P-20-1",          1678,       92.5232,       82.0606,            0.,NA,NA,"",   1.21419E+06,   1.25253E+06,   1.25253E+06
C:/temp/Job-20.odb,Step-1,Increment      1: Step Time =    1.000,"P-20-1",          1679,       87.7539,       82.4360,            0.,NA,NA,"",   1.21919E+06,   1.19035E+06,   1.19035E+06
C:/temp/Job-20.odb,Step-1,Increment      1: Step Time =    1.000,"P-20-1",          1680,       118.741,       93.2591,            0.,NA,NA,"",   905.385E+03,   863.103E+03,   863.103E+03
C:/temp/Job-20.odb,Step-1,Increment      1: Step Time =    1.000,"P-20-1",          1681,       39.4068,       184.070,            0.,NA,NA,"",   1.01359E+06,   1.02128E+06,   1.02128E+06
C:/temp/Job-20.odb,Step-1,Increment      1: Step Time =    1.000,"P-20-1",          1682,       122.489,       90.3579,            0.,NA,NA,"",   991.594E+03,   956.529E+03,   956.529E+03
C:/temp/Job-20.odb,Step-1,Increment      1: Step Time =    1.000,"P-20-1",          1683,       185.287,       174.554,            0.,NA,NA,"",   1.00130E+06,   1.00025E+06,   1.00025E+06
C:/temp/Job-20.odb,Step-1,Increment      1: Step Time =    1.000,"P-20-1",          1684,       185.117,       169.708,            0.,NA,NA,"",   1.00202E+06,   1.00073E+06,   1.00073E+06
C:/temp/Job-20.odb,Step-1,Increment      1: Step Time =    1.000,"P-20-1",          1685,       173.558,       14.6285,            0.,NA,NA,"",   999.138E+03,   998.477E+03,   998.477E+03
C:/temp/Job-20.odb,Step-1,Increment      1: Step Time =    1.000,"P-20-1",          1686,       168.586,       14.5349,            0.,NA,NA,"",   998.572E+03,   997.819E+03,   997.819E+03
C:/temp/Job-20.odb,Step-1,Increment      1: Step Time =    1.000,"P-20-1",          1687,       84.1388,       79.1781,            0.,NA,NA,"",   1.14681E+06,   1.13097E+06,   1.13097E+06
C:/temp/Job-20.odb,Step-1,Increment      1: Step Time =    1.000,"P-20-1",          1688,       86.8753,       75.9755,            0.,NA,NA,"",   1.11807E+06,   1.12336E+06,   1.12336E+06
C:/temp/Job-20.odb,Step-1,Increment      1: Step Time =    1.000,"P-20-1",          1689,       126.279,       93.9394,            0.,NA,NA,"",   881.000E+03,   876.704E+03,   876.704E+03
C:/temp/Job-20.odb,Step-1,Increment      1: Step Time =    1.000,"P-20-1",          1690,       85.6086,       124.422,            0.,NA,NA,"",   1.11690E+06,   1.12088E+06,   1.12088E+06
C:/temp/Job-20.odb,Step-1,Increment      1: Step Time =    1.000,"P-20-1",          1691,       99.5543,       123.066,            0.,NA,NA,"",   1.05337E+06,   1.11356E+06,   1.11356E+06
C:/temp/Job-20.odb,Step-1,Increment      1: Step Time =    1.000,"P-20-1",          1692,       115.737,       77.9796,            0.,NA,NA,"",   1.14832E+06,   1.12230E+06,   1.12230E+06
C:/temp/Job-20.odb,Step-1,Increment      1: Step Time =    1.000,"P-20-1",          1693,       42.4552,       182.960,            0.,NA,NA,"",   1.00924E+06,   1.01650E+06,   1.01650E+06
C:/temp/Job-20.odb,Step-1,Increment      1: Step Time =    1.000,"P-20-1",          1694,       93.0995,       73.8728,            0.,NA,NA,"",   1.06201E+06,   1.10294E+06,   1.10294E+06
C:/temp/Job-20.odb,Step-1,Increment      1: Step Time =    1.000,"P-20-1",          1695,       43.2515,       179.588,            0.,NA,NA,"",   1.01374E+06,   1.02341E+06,   1.02341E+06
C:/temp/Job-20.odb,Step-1,Increment      1: Step Time =    1.000,"P-20-1",          1696,       12.6994,       42.5750,            0.,NA,NA,"",   913.993E+03,   1.00021E+06,   1.00021E+06
C:/temp/Job-20.odb,Step-1,Increment      1: Step Time =    1.000,"P-20-1",          1697,       75.1071,       113.370,            0.,NA,NA,"",   990.788E+03,   987.290E+03,   987.290E+03
C:/temp/Job-20.odb,Step-1,Increment      1: Step Time =    1.000,"P-20-1",          1698,       178.247,       161.331,            0.,NA,NA,"",   1.00500E+06,   1.00285E+06,   1.00285E+06
C:/temp/Job-20.odb,Step-1,Increment      1: Step Time =    1.000,"P-20-1",          1699,       122.937,       84.1925,            0.,NA,NA,"",   1.07217E+06,   1.03660E+06,   1.03660E+06
C:/temp/Job-20.odb,Step-1,Increment      1: Step Time =    1.000,"P-20-1",          1700,       107.738,       126.771,            0.,NA,NA,"",   1.05386E+06,   1.08919E+06,   1.08919E+06
C:/temp/Job-20.odb,Step-1,Increment      1: Step Time =    1.000,"P-20-1",          1701,       85.6741,       129.551,            0.,NA,NA,"",   1.07334E+06,   1.08753E+06,   1.08753E+06
C:/temp/Job-20.odb,Step-1,Increment      1: Step Time =    1.000,"P-20-1",          1702,       125.411,       120.131,            0.,NA,NA,"",   1.07991E+06,   1.04977E+06,   1.04977E+06
C:/temp/Job-20.odb,Step-1,Increment      1: Step Time =    1.000,"P-20-1",          1703,       22.3500,       176.992,            0.,NA,NA,"",   1.03361E+06,   1.07201E+06,   1.07201E+06
C:/temp/Job-20.odb,Step-1,Increment      1: Step Time =    1.000,"P-20-1",          1704,       65.4049,       99.1656,            0.,NA,NA,"",   858.104E+03,   898.176E+03,   898.176E+03
C:/temp/Job-20.odb,Step-1,Increment      1: Step Time =    1.000,"P-20-1",          1705,       92.8850,       69.8103,            0.,NA,NA,"",   1.03755E+06,   1.07254E+06,   1.07254E+06
C:/temp/Job-20.odb,Step-1,Increment      1: Step Time =    1.000,"P-20-1",          1706,       181.675,       144.628,            0.,NA,NA,"",   1.00437E+06,   1.00279E+06,   1.00279E+06
C:/temp/Job-20.odb,Step-1,Increment      1: Step Time =    1.000,"P-20-1",          1707,       62.5460,       85.9384,            0.,NA,NA,"",   941.243E+03,   969.952E+03,   969.952E+03
C:/temp/Job-20.odb,Step-1,Increment      1: Step Time =    1.000,"P-20-1",          1708,       69.9081,       114.497,            0.,NA,NA,"",   971.362E+03,   983.890E+03,   983.890E+03
C:/temp/Job-20.odb,Step-1,Increment      1: Step Time =    1.000,"P-20-1",          1709,       125.149,       72.6110,            0.,NA,NA,"",   1.09061E+06,   1.06786E+06,   1.06786E+06
C:/temp/Job-20.odb,Step-1,Increment      1: Step Time =    1.000,"P-20-1",          1710,       20.4953,       31.6371,            0.,NA,NA,"",   986.440E+03,   1.04475E+06,   1.04475E+06
C:/temp/Job-20.odb,Step-1,Increment      1: Step Time =    1.000,"P-20-1",          1711,       181.037,       28.8985,            0.,NA,NA,"",   1.00227E+06,   1.00089E+06,   1.00089E+06
C:/temp/Job-20.odb,Step-1,Increment      1: Step Time =    1.000,"P-20-1",          1712,       172.107,       23.2472,            0.,NA,NA,"",   1.00184E+06,   1.00038E+06,   1.00038E+06
C:/temp/Job-20.odb,Step-1,Increment      1: Step Time =    1.000,"P-20-1",          1713,       180.446,       55.5129,            0.,NA,NA,"",   1.00486E+06,   1.00311E+06,   1.00311E+06
C:/temp/Job-20.odb,Step-1,Increment      1: Step Time =    1.000,"P-20-1",          1714,       172.381,       182.855,            0.,NA,NA,"",   999.650E+03,   998.775E+03,   998.775E+03
C:/temp/Job-20.odb,Step-1,Increment      1: Step Time =    1.000,"P-20-1",          1715,       176.529,       173.834,            0.,NA,NA,"",   1.00224E+06,   1.00077E+06,   1.00077E+06
C:/temp/Job-20.odb,Step-1,Increment      1: Step Time =    1.000,"P-20-1",          1716,       173.878,       162.623,            0.,NA,NA,"",   1.00613E+06,   1.00360E+06,   1.00360E+06
C:/temp/Job-20.odb,Step-1,Increment      1: Step Time =    1.000,"P-20-1",          1717,       171.654,       158.535,            0.,NA,NA,"",   1.00824E+06,   1.00512E+06,   1.00512E+06
C:/temp/Job-20.odb,Step-1,Increment      1: Step Time =    1.000,"P-20-1",          1718,       144.760,       180.375,            0.,NA,NA,"",   997.610E+03,   995.998E+03,   995.998E+03
C:/temp/Job-20.odb,Step-1,Increment      1: Step Time =    1.000,"P-20-1",          1719,       46.8761,       180.938,            0.,NA,NA,"",   1.00640E+06,   1.01339E+06,   1.01339E+06
C:/temp/Job-20.odb,Step-1,Increment      1: Step Time =    1.000,"P-20-1",          1720,       129.107,       84.5838,            0.,NA,NA,"",   1.02371E+06,   1.00169E+06,   1.00169E+06
C:/temp/Job-20.odb,Step-1,Increment      1: Step Time =    1.000,"P-20-1",          1721,       132.639,       87.2690,            0.,NA,NA,"",   985.597E+03,   972.957E+03,   972.957E+03
C:/temp/Job-20.odb,Step-1,Increment      1: Step Time =    1.000,"P-20-1",          1722,       114.907,       62.1073,            0.,NA,NA,"",   1.04940E+06,   1.05626E+06,   1.05626E+06
C:/temp/Job-20.odb,Step-1,Increment      1: Step Time =    1.000,"P-20-1",          1723,       80.4769,       134.133,            0.,NA,NA,"",   1.06262E+06,   1.07135E+06,   1.07135E+06
C:/temp/Job-20.odb,Step-1,Increment      1: Step Time =    1.000,"P-20-1",          1724,       130.111,       129.466,            0.,NA,NA,"",   1.07340E+06,   1.05349E+06,   1.05349E+06
C:/temp/Job-20.odb,Step-1,Increment      1: Step Time =    1.000,"P-20-1",          1725,       98.2682,       62.2667,            0.,NA,NA,"",   1.01590E+06,   1.04695E+06,   1.04695E+06
C:/temp/Job-20.odb,Step-1,Increment      1: Step Time =    1.000,"P-20-1",          1726,       118.145,       130.719,            0.,NA,NA,"",   1.08606E+06,   1.07939E+06,   1.07939E+06
C:/temp/Job-20.odb,Step-1,Increment      1: Step Time =    1.000,"P-20-1",          1727,       176.305,       114.155,            0.,NA,NA,"",   994.227E+03,   995.523E+03,   995.523E+03
C:/temp/Job-20.odb,Step-1,Increment      1: Step Time =    1.000,"P-20-1",          1728,       134.372,       103.073,            0.,NA,NA,"",   895.091E+03,   902.474E+03,   902.474E+03
C:/temp/Job-20.odb,Step-1,Increment      1: Step Time =    1.000,"P-20-1",          1729,       24.9023,       24.7899,            0.,NA,NA,"",   1.02157E+06,   1.05997E+06,   1.05997E+06
C:/temp/Job-20.odb,Step-1,Increment      1: Step Time =    1.000,"P-20-1",          1730,       54.9454,       19.9003,            0.,NA,NA,"",   1.00055E+06,   1.00535E+06,   1.00535E+06
C:/temp/Job-20.odb,Step-1,Increment      1: Step Time =    1.000,"P-20-1",          1731,       170.950,       167.525,            0.,NA,NA,"",   1.00541E+06,   1.00299E+06,   1.00299E+06
C:/temp/Job-20.odb,Step-1,Increment      1: Step Time =    1.000,"P-20-1",          1732,       167.973,       160.599,            0.,NA,NA,"",   1.00940E+06,   1.00590E+06,   1.00590E+06
C:/temp/Job-20.odb,Step-1,Increment      1: Step Time =    1.000,"P-20-1",          1733,       165.163,       157.934,            0.,NA,NA,"",   1.01182E+06,   1.00766E+06,   1.00766E+06
C:/temp/Job-20.odb,Step-1,Increment      1: Step Time =    1.000,"P-20-1",          1734,       176.435,       28.1724,            0.,NA,NA,"",   1.00274E+06,   1.00115E+06,   1.00115E+06
C:/temp/Job-20.odb,Step-1,Increment      1: Step Time =    1.000,"P-20-1",          1735,       152.994,       30.0199,            0.,NA,NA,"",   1.00832E+06,   1.00490E+06,   1.00490E+06
C:/temp/Job-20.odb,Step-1,Increment      1: Step Time =    1.000,"P-20-1",          1736,       23.5590,       37.7281,            0.,NA,NA,"",   971.701E+03,   1.03028E+06,   1.03028E+06
C:/temp/Job-20.odb,Step-1,Increment      1: Step Time =    1.000,"P-20-1",          1737,       75.7012,       65.5187,            0.,NA,NA,"",   1.05806E+06,   1.06425E+06,   1.06425E+06
C:/temp/Job-20.odb,Step-1,Increment      1: Step Time =    1.000,"P-20-1",          1738,       96.1671,       57.5008,            0.,NA,NA,"",   1.01498E+06,   1.03912E+06,   1.03912E+06
C:/temp/Job-20.odb,Step-1,Increment      1: Step Time =    1.000,"P-20-1",          1739,       63.2673,       114.858,            0.,NA,NA,"",   950.244E+03,   976.456E+03,   976.456E+03
C:/temp/Job-20.odb,Step-1,Increment      1: Step Time =    1.000,"P-20-1",          1740,       134.912,       83.9064,            0.,NA,NA,"",   1.00752E+06,   993.274E+03,   993.274E+03
C:/temp/Job-20.odb,Step-1,Increment      1: Step Time =    1.000,"P-20-1",          1741,       138.883,       85.5135,            0.,NA,NA,"",   989.478E+03,    981.13E+03,    981.13E+03
C:/temp/Job-20.odb,Step-1,Increment      1: Step Time =    1.000,"P-20-1",          1742,       79.4423,       138.699,            0.,NA,NA,"",   1.04954E+06,   1.06026E+06,   1.06026E+06
C:/temp/Job-20.odb,Step-1,Increment      1: Step Time =    1.000,"P-20-1",          1743,       75.2654,       137.949,            0.,NA,NA,"",   1.05141E+06,   1.05977E+06,   1.05977E+06
C:/temp/Job-20.odb,Step-1,Increment      1: Step Time =    1.000,"P-20-1",          1744,       113.086,       139.669,            0.,NA,NA,"",   1.04035E+06,   1.05072E+06,   1.05072E+06
C:/temp/Job-20.odb,Step-1,Increment      1: Step Time =    1.000,"P-20-1",          1745,       134.985,       120.974,            0.,NA,NA,"",   1.03203E+06,   1.01506E+06,   1.01506E+06
C:/temp/Job-20.odb,Step-1,Increment      1: Step Time =    1.000,"P-20-1",          1746,       122.486,       133.906,            0.,NA,NA,"",   1.07494E+06,   1.06547E+06,   1.06547E+06
C:/temp/Job-20.odb,Step-1,Increment      1: Step Time =    1.000,"P-20-1",          1747,       129.652,       70.3734,            0.,NA,NA,"",   1.07161E+06,   1.05223E+06,   1.05223E+06
C:/temp/Job-20.odb,Step-1,Increment      1: Step Time =    1.000,"P-20-1",          1748,       139.525,       103.047,            0.,NA,NA,"",   928.994E+03,   933.774E+03,   933.774E+03
C:/temp/Job-20.odb,Step-1,Increment      1: Step Time =    1.000,"P-20-1",          1749,       56.1129,       173.984,            0.,NA,NA,"",   1.00926E+06,   1.01658E+06,   1.01658E+06
C:/temp/Job-20.odb,Step-1,Increment      1: Step Time =    1.000,"P-20-1",          1750,       110.158,       54.9775,            0.,NA,NA,"",   1.02550E+06,   1.03794E+06,   1.03794E+06
C:/temp/Job-20.odb,Step-1,Increment      1: Step Time =    1.000,"P-20-1",          1751,       174.020,       137.410,            0.,NA,NA,"",   1.00661E+06,   1.00407E+06,   1.00407E+06
C:/temp/Job-20.odb,Step-1,Increment      1: Step Time =    1.000,"P-20-1",          1752,       178.003,       30.0088,            0.,NA,NA,"",   1.00293E+06,   1.00132E+06,   1.00132E+06
C:/temp/Job-20.odb,Step-1,Increment      1: Step Time =    1.000,"P-20-1",          1753,       18.8117,       55.8544,            0.,NA,NA,"",   903.585E+03,   984.074E+03,   984.074E+03
C:/temp/Job-20.odb,Step-1,Increment      1: Step Time =    1.000,"P-20-1",          1754,       82.1573,       61.5503,            0.,NA,NA,"",   1.04907E+06,   1.06186E+06,   1.06186E+06
C:/temp/Job-20.odb,Step-1,Increment      1: Step Time =    1.000,"P-20-1",          1755,       56.5703,       109.266,            0.,NA,NA,"",   908.943E+03,   951.338E+03,   951.338E+03
C:/temp/Job-20.odb,Step-1,Increment      1: Step Time =    1.000,"P-20-1",          1756,       53.6064,       101.107,            0.,NA,NA,"",   889.541E+03,   939.045E+03,   939.045E+03
C:/temp/Job-20.odb,Step-1,Increment      1: Step Time =    1.000,"P-20-1",          1757,       72.0878,       133.634,            0.,NA,NA,"",   1.05498E+06,   1.06064E+06,   1.06064E+06
C:/temp/Job-20.odb,Step-1,Increment      1: Step Time =    1.000,"P-20-1",          1758,       65.7749,       175.660,            0.,NA,NA,"",   1.00098E+06,   1.00507E+06,   1.00507E+06
C:/temp/Job-20.odb,Step-1,Increment      1: Step Time =    1.000,"P-20-1",          1759,       18.1680,       65.1126,            0.,NA,NA,"",   882.018E+03,   966.807E+03,   966.807E+03
C:/temp/Job-20.odb,Step-1,Increment      1: Step Time =    1.000,"P-20-1",          1760,       173.576,       118.388,            0.,NA,NA,"",   996.327E+03,   996.563E+03,   996.563E+03
C:/temp/Job-20.odb,Step-1,Increment      1: Step Time =    1.000,"P-20-1",          1761,       26.1660,       164.658,            0.,NA,NA,"",   985.384E+03,   1.03683E+06,   1.03683E+06
C:/temp/Job-20.odb,Step-1,Increment      1: Step Time =    1.000,"P-20-1",          1762,       19.5499,       154.023,            0.,NA,NA,"",   931.113E+03,   1.00522E+06,   1.00522E+06
C:/temp/Job-20.odb,Step-1,Increment      1: Step Time =    1.000,"P-20-1",          1763,       51.8259,       82.5353,            0.,NA,NA,"",   933.816E+03,   977.010E+03,   977.010E+03
C:/temp/Job-20.odb,Step-1,Increment      1: Step Time =    1.000,"P-20-1",          1764,       166.485,       168.526,            0.,NA,NA,"",   1.00633E+06,   1.00358E+06,   1.00358E+06
C:/temp/Job-20.odb,Step-1,Increment      1: Step Time =    1.000,"P-20-1",          1765,       165.271,       162.287,            0.,NA,NA,"",   1.00995E+06,   1.00628E+06,   1.00628E+06
C:/temp/Job-20.odb,Step-1,Increment      1: Step Time =    1.000,"P-20-1",          1766,       161.053,       148.192,            0.,NA,NA,"",   1.01737E+06,   1.01154E+06,   1.01154E+06
C:/temp/Job-20.odb,Step-1,Increment      1: Step Time =    1.000,"P-20-1",          1767,       144.423,       81.9640,            0.,NA,NA,"",   1.00179E+06,   993.794E+03,   993.794E+03
C:/temp/Job-20.odb,Step-1,Increment      1: Step Time =    1.000,"P-20-1",          1768,       148.961,       82.5868,            0.,NA,NA,"",   995.955E+03,   990.644E+03,   990.644E+03
C:/temp/Job-20.odb,Step-1,Increment      1: Step Time =    1.000,"P-20-1",          1769,       73.1905,       62.8908,            0.,NA,NA,"",   1.05003E+06,   1.05788E+06,   1.05788E+06
C:/temp/Job-20.odb,Step-1,Increment      1: Step Time =    1.000,"P-20-1",          1770,       99.7423,       140.583,            0.,NA,NA,"",   1.01770E+06,   1.04286E+06,   1.04286E+06
C:/temp/Job-20.odb,Step-1,Increment      1: Step Time =    1.000,"P-20-1",          1771,       94.1942,       145.520,            0.,NA,NA,"",   1.01542E+06,   1.03589E+06,   1.03589E+06
C:/temp/Job-20.odb,Step-1,Increment      1: Step Time =    1.000,"P-20-1",          1772,       174.840,       111.309,            0.,NA,NA,"",   992.369E+03,   993.887E+03,   993.887E+03
C:/temp/Job-20.odb,Step-1,Increment      1: Step Time =    1.000,"P-20-1",          1773,       122.068,       137.769,            0.,NA,NA,"",   1.06128E+06,   1.05605E+06,   1.05605E+06
C:/temp/Job-20.odb,Step-1,Increment      1: Step Time =    1.000,"P-20-1",          1774,       129.725,       137.276,            0.,NA,NA,"",   1.06209E+06,   1.04948E+06,   1.04948E+06
C:/temp/Job-20.odb,Step-1,Increment      1: Step Time =    1.000,"P-20-1",          1775,       56.5809,       115.210,            0.,NA,NA,"",   937.108E+03,   974.171E+03,   974.171E+03
C:/temp/Job-20.odb,Step-1,Increment      1: Step Time =    1.000,"P-20-1",          1776,       106.121,       144.692,            0.,NA,NA,"",   1.01719E+06,   1.03547E+06,   1.03547E+06
C:/temp/Job-20.odb,Step-1,Increment      1: Step Time =    1.000,"P-20-1",          1777,       39.9171,       167.375,            0.,NA,NA,"",   1.01204E+06,   1.03664E+06,   1.03664E+06
C:/temp/Job-20.odb,Step-1,Increment      1: Step Time =    1.000,"P-20-1",          1778,       80.2441,       58.7465,            0.,NA,NA,"",   1.04468E+06,   1.05645E+06,   1.05645E+06
C:/temp/Job-20.odb,Step-1,Increment      1: Step Time =    1.000,"P-20-1",          1779,       24.2969,       85.5585,            0.,NA,NA,"",   867.750E+03,   949.812E+03,   949.812E+03
C:/temp/Job-20.odb,Step-1,Increment      1: Step Time =    1.000,"P-20-1",          1780,       50.4689,       103.913,            0.,NA,NA,"",   894.561E+03,   946.694E+03,   946.694E+03
C:/temp/Job-20.odb,Step-1,Increment      1: Step Time =    1.000,"P-20-1",          1781,       32.6429,       22.0991,            0.,NA,NA,"",   1.02761E+06,   1.04847E+06,   1.04847E+06
C:/temp/Job-20.odb,Step-1,Increment      1: Step Time =    1.000,"P-20-1",          1782,       34.3510,       25.4218,            0.,NA,NA,"",   1.02070E+06,   1.04509E+06,   1.04509E+06
C:/temp/Job-20.odb,Step-1,Increment      1: Step Time =    1.000,"P-20-1",          1783,       70.6521,       170.847,            0.,NA,NA,"",   1.00622E+06,   1.01142E+06,   1.01142E+06
C:/temp/Job-20.odb,Step-1,Increment      1: Step Time =    1.000,"P-20-1",          1784,       75.2515,       170.389,            0.,NA,NA,"",   1.00403E+06,   1.00919E+06,   1.00919E+06
C:/temp/Job-20.odb,Step-1,Increment      1: Step Time =    1.000,"P-20-1",          1785,       22.5927,       61.1121,            0.,NA,NA,"",   904.923E+03,   981.469E+03,   981.469E+03
C:/temp/Job-20.odb,Step-1,Increment      1: Step Time =    1.000,"P-20-1",          1786,       114.408,       50.7045,            0.,NA,NA,"",   1.02493E+06,   1.03115E+06,   1.03115E+06
C:/temp/Job-20.odb,Step-1,Increment      1: Step Time =    1.000,"P-20-1",          1787,       147.661,       100.682,            0.,NA,NA,"",   953.442E+03,   957.218E+03,   957.218E+03
C:/temp/Job-20.odb,Step-1,Increment      1: Step Time =    1.000,"P-20-1",          1788,       132.696,       77.2839,            0.,NA,NA,"",   1.04864E+06,   1.02854E+06,   1.02854E+06
C:/temp/Job-20.odb,Step-1,Increment      1: Step Time =    1.000,"P-20-1",          1789,       162.119,       165.108,            0.,NA,NA,"",   1.00957E+06,   1.00597E+06,   1.00597E+06
C:/temp/Job-20.odb,Step-1,Increment      1: Step Time =    1.000,"P-20-1",          1790,       26.0881,       80.4736,            0.,NA,NA,"",   879.337E+03,   957.659E+03,   957.659E+03
C:/temp/Job-20.odb,Step-1,Increment      1: Step Time =    1.000,"P-20-1",          1791,       149.361,       170.817,            0.,NA,NA,"",   1.00756E+06,   1.00431E+06,   1.00431E+06
C:/temp/Job-20.odb,Step-1,Increment      1: Step Time =    1.000,"P-20-1",          1792,       165.588,       130.949,            0.,NA,NA,"",   1.00862E+06,   1.00457E+06,   1.00457E+06
C:/temp/Job-20.odb,Step-1,Increment      1: Step Time =    1.000,"P-20-1",          1793,       59.8058,       166.818,            0.,NA,NA,"",   1.01554E+06,   1.02502E+06,   1.02502E+06
C:/temp/Job-20.odb,Step-1,Increment      1: Step Time =    1.000,"P-20-1",          1794,       76.6399,       146.883,            0.,NA,NA,"",   1.03423E+06,   1.04507E+06,   1.04507E+06
C:/temp/Job-20.odb,Step-1,Increment      1: Step Time =    1.000,"P-20-1",          1795,       72.5155,       145.901,            0.,NA,NA,"",   1.03598E+06,   1.04663E+06,   1.04663E+06
C:/temp/Job-20.odb,Step-1,Increment      1: Step Time =    1.000,"P-20-1",          1796,       148.526,       103.989,            0.,NA,NA,"",   959.444E+03,   962.253E+03,   962.253E+03
C:/temp/Job-20.odb,Step-1,Increment      1: Step Time =    1.000,"P-20-1",          1797,       144.513,       118.698,            0.,NA,NA,"",   1.00147E+06,   993.899E+03,   993.899E+03
C:/temp/Job-20.odb,Step-1,Increment      1: Step Time =    1.000,"P-20-1",          1798,       142.497,       135.855,            0.,NA,NA,"",   1.04091E+06,   1.02831E+06,   1.02831E+06
C:/temp/Job-20.odb,Step-1,Increment      1: Step Time =    1.000,"P-20-1",          1799,       63.3778,       129.632,            0.,NA,NA,"",   1.01737E+06,   1.03309E+06,   1.03309E+06
C:/temp/Job-20.odb,Step-1,Increment      1: Step Time =    1.000,"P-20-1",          1800,       149.727,       78.4742,            0.,NA,NA,"",   1.00715E+06,   999.995E+03,   999.995E+03
C:/temp/Job-20.odb,Step-1,Increment      1: Step Time =    1.000,"P-20-1",          1801,       157.538,       86.8026,            0.,NA,NA,"",   986.337E+03,   985.545E+03,   985.545E+03
C:/temp/Job-20.odb,Step-1,Increment      1: Step Time =    1.000,"P-20-1",          1802,       169.673,       107.691,            0.,NA,NA,"",   988.229E+03,   989.763E+03,   989.763E+03
C:/temp/Job-20.odb,Step-1,Increment      1: Step Time =    1.000,"P-20-1",          1803,       29.9063,       54.8284,            0.,NA,NA,"",   942.356E+03,   1.00363E+06,   1.00363E+06
C:/temp/Job-20.odb,Step-1,Increment      1: Step Time =    1.000,"P-20-1",          1804,       129.345,       24.2086,            0.,NA,NA,"",   998.194E+03,   997.263E+03,   997.263E+03
C:/temp/Job-20.odb,Step-1,Increment      1: Step Time =    1.000,"P-20-1",          1805,       124.903,       23.9993,            0.,NA,NA,"",   995.719E+03,   995.639E+03,   995.639E+03
C:/temp/Job-20.odb,Step-1,Increment      1: Step Time =    1.000,"P-20-1",          1806,       68.7746,       136.589,            0.,NA,NA,"",   1.04322E+06,   1.05249E+06,   1.05249E+06
C:/temp/Job-20.odb,Step-1,Increment      1: Step Time =    1.000,"P-20-1",          1807,       44.8580,       93.5649,            0.,NA,NA,"",   897.153E+03,   955.011E+03,   955.011E+03
C:/temp/Job-20.odb,Step-1,Increment      1: Step Time =    1.000,"P-20-1",          1808,       74.9509,       165.345,            0.,NA,NA,"",   1.01178E+06,   1.01851E+06,   1.01851E+06
C:/temp/Job-20.odb,Step-1,Increment      1: Step Time =    1.000,"P-20-1",          1809,       94.9382,       156.024,            0.,NA,NA,"",   1.00759E+06,   1.02049E+06,   1.02049E+06
C:/temp/Job-20.odb,Step-1,Increment      1: Step Time =    1.000,"P-20-1",          1810,       42.8612,       109.627,            0.,NA,NA,"",   898.920E+03,   958.072E+03,   958.072E+03
C:/temp/Job-20.odb,Step-1,Increment      1: Step Time =    1.000,"P-20-1",          1811,       44.5234,       103.910,            0.,NA,NA,"",   893.031E+03,   951.871E+03,   951.871E+03
C:/temp/Job-20.odb,Step-1,Increment      1: Step Time =    1.000,"P-20-1",          1812,       170.515,       45.5925,            0.,NA,NA,"",   1.00977E+06,   1.00622E+06,   1.00622E+06
C:/temp/Job-20.odb,Step-1,Increment      1: Step Time =    1.000,"P-20-1",          1813,       130.208,       147.901,            0.,NA,NA,"",   1.04065E+06,   1.03440E+06,   1.03440E+06
C:/temp/Job-20.odb,Step-1,Increment      1: Step Time =    1.000,"P-20-1",          1814,       85.6826,       52.9798,            0.,NA,NA,"",   1.02594E+06,   1.04105E+06,   1.04105E+06
C:/temp/Job-20.odb,Step-1,Increment      1: Step Time =    1.000,"P-20-1",          1815,       62.0394,       162.856,            0.,NA,NA,"",   1.01788E+06,   1.02821E+06,   1.02821E+06
C:/temp/Job-20.odb,Step-1,Increment      1: Step Time =    1.000,"P-20-1",          1816,       70.9223,       57.9672,            0.,NA,NA,"",   1.03999E+06,   1.05029E+06,   1.05029E+06
C:/temp/Job-20.odb,Step-1,Increment      1: Step Time =    1.000,"P-20-1",          1817,       26.2459,       65.0249,            0.,NA,NA,"",   908.219E+03,   980.918E+03,   980.918E+03
C:/temp/Job-20.odb,Step-1,Increment      1: Step Time =    1.000,"P-20-1",          1818,       27.1571,       68.4336,            0.,NA,NA,"",   903.733E+03,   976.628E+03,   976.628E+03
C:/temp/Job-20.odb,Step-1,Increment      1: Step Time =    1.000,"P-20-1",          1819,       166.152,       55.6331,            0.,NA,NA,"",   1.01360E+06,   1.00875E+06,   1.00875E+06
C:/temp/Job-20.odb,Step-1,Increment      1: Step Time =    1.000,"P-20-1",          1820,       63.9071,       55.3906,            0.,NA,NA,"",   1.02744E+06,   1.04200E+06,   1.04200E+06
C:/temp/Job-20.odb,Step-1,Increment      1: Step Time =    1.000,"P-20-1",          1821,       101.621,       157.171,            0.,NA,NA,"",   1.00603E+06,   1.01708E+06,   1.01708E+06
C:/temp/Job-20.odb,Step-1,Increment      1: Step Time =    1.000,"P-20-1",          1822,       147.222,       140.053,            0.,NA,NA,"",   1.03332E+06,   1.02295E+06,   1.02295E+06
C:/temp/Job-20.odb,Step-1,Increment      1: Step Time =    1.000,"P-20-1",          1823,       141.089,       58.4923,            0.,NA,NA,"",   1.04077E+06,   1.02969E+06,   1.02969E+06
C:/temp/Job-20.odb,Step-1,Increment      1: Step Time =    1.000,"P-20-1",          1824,       144.772,       69.3671,            0.,NA,NA,"",   1.03444E+06,   1.02245E+06,   1.02245E+06
C:/temp/Job-20.odb,Step-1,Increment      1: Step Time =    1.000,"P-20-1",          1825,       22.8751,       159.599,            0.,NA,NA,"",   959.907E+03,   1.02258E+06,   1.02258E+06
C:/temp/Job-20.odb,Step-1,Increment      1: Step Time =    1.000,"P-20-1",          1826,       160.835,       87.0519,            0.,NA,NA,"",   987.621E+03,   987.222E+03,   987.222E+03
C:/temp/Job-20.odb,Step-1,Increment      1: Step Time =    1.000,"P-20-1",          1827,       125.091,       28.3281,            0.,NA,NA,"",   1.00162E+06,   1.00145E+06,   1.00145E+06
C:/temp/Job-20.odb,Step-1,Increment      1: Step Time =    1.000,"P-20-1",          1828,       120.665,       29.2154,            0.,NA,NA,"",   1.00061E+06,   1.00151E+06,   1.00151E+06
C:/temp/Job-20.odb,Step-1,Increment      1: Step Time =    1.000,"P-20-1",          1829,       137.661,       31.0698,            0.,NA,NA,"",   1.01010E+06,   1.00687E+06,   1.00687E+06
C:/temp/Job-20.odb,Step-1,Increment      1: Step Time =    1.000,"P-20-1",          1830,       143.889,       167.354,            0.,NA,NA,"",   1.01161E+06,   1.00777E+06,   1.00777E+06
C:/temp/Job-20.odb,Step-1,Increment      1: Step Time =    1.000,"P-20-1",          1831,       154.272,       76.0159,            0.,NA,NA,"",   1.00808E+06,   1.00180E+06,   1.00180E+06
C:/temp/Job-20.odb,Step-1,Increment      1: Step Time =    1.000,"P-20-1",          1832,       159.857,       102.633,            0.,NA,NA,"",   977.004E+03,   979.104E+03,   979.104E+03
C:/temp/Job-20.odb,Step-1,Increment      1: Step Time =    1.000,"P-20-1",          1833,       71.9704,       149.656,            0.,NA,NA,"",   1.03097E+06,   1.04166E+06,   1.04166E+06
C:/temp/Job-20.odb,Step-1,Increment      1: Step Time =    1.000,"P-20-1",          1834,       68.3598,       149.762,            0.,NA,NA,"",   1.02975E+06,   1.04103E+06,   1.04103E+06
C:/temp/Job-20.odb,Step-1,Increment      1: Step Time =    1.000,"P-20-1",          1835,       59.9411,       145.581,            0.,NA,NA,"",   1.02117E+06,   1.03847E+06,   1.03847E+06
C:/temp/Job-20.odb,Step-1,Increment      1: Step Time =    1.000,"P-20-1",          1836,       56.8092,       142.243,            0.,NA,NA,"",   1.01212E+06,   1.03400E+06,   1.03400E+06
C:/temp/Job-20.odb,Step-1,Increment      1: Step Time =    1.000,"P-20-1",          1837,       64.0159,       135.243,            0.,NA,NA,"",   1.02773E+06,   1.04189E+06,   1.04189E+06
C:/temp/Job-20.odb,Step-1,Increment      1: Step Time =    1.000,"P-20-1",          1838,       37.3314,       48.6047,            0.,NA,NA,"",   979.043E+03,   1.02251E+06,   1.02251E+06
C:/temp/Job-20.odb,Step-1,Increment      1: Step Time =    1.000,"P-20-1",          1839,       110.944,       34.7665,            0.,NA,NA,"",   1.00245E+06,   1.00752E+06,   1.00752E+06
C:/temp/Job-20.odb,Step-1,Increment      1: Step Time =    1.000,"P-20-1",          1840,       143.227,       60.4042,            0.,NA,NA,"",   1.04070E+06,   1.02888E+06,   1.02888E+06
C:/temp/Job-20.odb,Step-1,Increment      1: Step Time =    1.000,"P-20-1",          1841,       27.0224,       87.8438,            0.,NA,NA,"",   872.135E+03,   950.963E+03,   950.963E+03
C:/temp/Job-20.odb,Step-1,Increment      1: Step Time =    1.000,"P-20-1",          1842,       42.5176,       96.2370,            0.,NA,NA,"",   890.636E+03,   952.192E+03,   952.192E+03
C:/temp/Job-20.odb,Step-1,Increment      1: Step Time =    1.000,"P-20-1",          1843,       65.2570,       150.682,            0.,NA,NA,"",   1.02747E+06,   1.03983E+06,   1.03983E+06
C:/temp/Job-20.odb,Step-1,Increment      1: Step Time =    1.000,"P-20-1",          1844,       33.7392,       144.852,            0.,NA,NA,"",   953.359E+03,   1.00832E+06,   1.00832E+06
C:/temp/Job-20.odb,Step-1,Increment      1: Step Time =    1.000,"P-20-1",          1845,       42.3239,       101.150,            0.,NA,NA,"",   889.437E+03,   951.331E+03,   951.331E+03
C:/temp/Job-20.odb,Step-1,Increment      1: Step Time =    1.000,"P-20-1",          1846,       28.4880,       142.767,            0.,NA,NA,"",   932.548E+03,   997.530E+03,   997.530E+03
C:/temp/Job-20.odb,Step-1,Increment      1: Step Time =    1.000,"P-20-1",          1847,       143.646,       153.345,            0.,NA,NA,"",   1.02784E+06,   1.02065E+06,   1.02065E+06
C:/temp/Job-20.odb,Step-1,Increment      1: Step Time =    1.000,"P-20-1",          1848,       150.303,       131.865,            0.,NA,NA,"",   1.02451E+06,   1.01484E+06,   1.01484E+06
C:/temp/Job-20.odb,Step-1,Increment      1: Step Time =    1.000,"P-20-1",          1849,       58.0442,       129.763,            0.,NA,NA,"",   996.600E+03,   1.02111E+06,   1.02111E+06
C:/temp/Job-20.odb,Step-1,Increment      1: Step Time =    1.000,"P-20-1",          1850,       44.0946,       30.0698,            0.,NA,NA,"",   1.01560E+06,   1.03375E+06,   1.03375E+06
C:/temp/Job-20.odb,Step-1,Increment      1: Step Time =    1.000,"P-20-1",          1851,       116.386,       161.077,            0.,NA,NA,"",   1.01103E+06,   1.01445E+06,   1.01445E+06
C:/temp/Job-20.odb,Step-1,Increment      1: Step Time =    1.000,"P-20-1",          1852,       116.500,       158.114,            0.,NA,NA,"",   1.01455E+06,   1.01829E+06,   1.01829E+06
C:/temp/Job-20.odb,Step-1,Increment      1: Step Time =    1.000,"P-20-1",          1853,       65.0572,       158.060,            0.,NA,NA,"",   1.02157E+06,   1.03246E+06,   1.03246E+06
C:/temp/Job-20.odb,Step-1,Increment      1: Step Time =    1.000,"P-20-1",          1854,       163.188,       48.6404,            0.,NA,NA,"",   1.01494E+06,   1.00985E+06,   1.00985E+06
C:/temp/Job-20.odb,Step-1,Increment      1: Step Time =    1.000,"P-20-1",          1855,       36.9842,       141.791,            0.,NA,NA,"",   957.036E+03,   1.00822E+06,   1.00822E+06
C:/temp/Job-20.odb,Step-1,Increment      1: Step Time =    1.000,"P-20-1",          1856,       155.468,       115.596,            0.,NA,NA,"",   991.178E+03,   988.838E+03,   988.838E+03
C:/temp/Job-20.odb,Step-1,Increment      1: Step Time =    1.000,"P-20-1",          1857,       43.0649,       48.9288,            0.,NA,NA,"",   991.438E+03,   1.02669E+06,   1.02669E+06
C:/temp/Job-20.odb,Step-1,Increment      1: Step Time =    1.000,"P-20-1",          1858,       36.3359,       107.631,            0.,NA,NA,"",   886.031E+03,   953.997E+03,   953.997E+03
C:/temp/Job-20.odb,Step-1,Increment      1: Step Time =    1.000,"P-20-1",          1859,       101.455,       34.8785,            0.,NA,NA,"",   998.942E+03,   1.00661E+06,   1.00661E+06
C:/temp/Job-20.odb,Step-1,Increment      1: Step Time =    1.000,"P-20-1",          1860,       83.7330,       33.2400,            0.,NA,NA,"",   1.00368E+06,   1.01029E+06,   1.01029E+06
C:/temp/Job-20.odb,Step-1,Increment      1: Step Time =    1.000,"P-20-1",          1861,       54.2910,       35.1143,            0.,NA,NA,"",   1.01605E+06,   1.02969E+06,   1.02969E+06
C:/temp/Job-20.odb,Step-1,Increment      1: Step Time =    1.000,"P-20-1",          1862,       33.4780,       74.6533,            0.,NA,NA,"",   910.778E+03,   976.173E+03,   976.173E+03
C:/temp/Job-20.odb,Step-1,Increment      1: Step Time =    1.000,"P-20-1",          1863,       146.226,       59.4885,            0.,NA,NA,"",   1.03524E+06,   1.02441E+06,   1.02441E+06
C:/temp/Job-20.odb,Step-1,Increment      1: Step Time =    1.000,"P-20-1",          1864,       49.0717,       53.1683,            0.,NA,NA,"",   998.571E+03,   1.02850E+06,   1.02850E+06
C:/temp/Job-20.odb,Step-1,Increment      1: Step Time =    1.000,"P-20-1",          1865,       141.618,       150.712,            0.,NA,NA,"",   1.03176E+06,   1.02382E+06,   1.02382E+06
C:/temp/Job-20.odb,Step-1,Increment      1: Step Time =    1.000,"P-20-1",          1866,       39.3998,       94.2622,            0.,NA,NA,"",   888.544E+03,   953.644E+03,   953.644E+03
C:/temp/Job-20.odb,Step-1,Increment      1: Step Time =    1.000,"P-20-1",          1867,       153.235,       71.5855,            0.,NA,NA,"",   1.01700E+06,   1.00898E+06,   1.00898E+06
C:/temp/Job-20.odb,Step-1,Increment      1: Step Time =    1.000,"P-20-1",          1868,       39.9842,       120.249,            0.,NA,NA,"",   916.385E+03,   974.997E+03,   974.997E+03
C:/temp/Job-20.odb,Step-1,Increment      1: Step Time =    1.000,"P-20-1",          1869,       161.123,       46.9799,            0.,NA,NA,"",   1.01554E+06,   1.01030E+06,   1.01030E+06
C:/temp/Job-20.odb,Step-1,Increment      1: Step Time =    1.000,"P-20-1",          1870,       159.339,       50.0698,            0.,NA,NA,"",   1.01784E+06,   1.01193E+06,   1.01193E+06
C:/temp/Job-20.odb,Step-1,Increment      1: Step Time =    1.000,"P-20-1",          1871,       122.626,       154.308,            0.,NA,NA,"",   1.02542E+06,   1.02551E+06,   1.02551E+06
C:/temp/Job-20.odb,Step-1,Increment      1: Step Time =    1.000,"P-20-1",          1872,       30.7773,       81.7079,            0.,NA,NA,"",   890.039E+03,   962.208E+03,   962.208E+03
C:/temp/Job-20.odb,Step-1,Increment      1: Step Time =    1.000,"P-20-1",          1873,       76.2156,       155.161,            0.,NA,NA,"",   1.02373E+06,   1.03334E+06,   1.03334E+06
C:/temp/Job-20.odb,Step-1,Increment      1: Step Time =    1.000,"P-20-1",          1874,       37.4767,       97.2799,            0.,NA,NA,"",   884.844E+03,   951.749E+03,   951.749E+03
C:/temp/Job-20.odb,Step-1,Increment      1: Step Time =    1.000,"P-20-1",          1875,       156.670,       53.5295,            0.,NA,NA,"",   1.02115E+06,   1.01424E+06,   1.01424E+06
C:/temp/Job-20.odb,Step-1,Increment      1: Step Time =    1.000,"P-20-1",          1876,       33.3308,       133.640,            0.,NA,NA,"",   927.066E+03,   989.445E+03,   989.445E+03
C:/temp/Job-20.odb,Step-1,Increment      1: Step Time =    1.000,"P-20-1",          1877,       52.4986,       129.691,            0.,NA,NA,"",   977.899E+03,   1.01108E+06,   1.01108E+06
C:/temp/Job-20.odb,Step-1,Increment      1: Step Time =    1.000,"P-20-1",          1878,       35.3698,       128.047,            0.,NA,NA,"",   920.332E+03,   982.426E+03,   982.426E+03
C:/temp/Job-20.odb,Step-1,Increment      1: Step Time =    1.000,"P-20-1",          1879,       42.5689,       131.912,            0.,NA,NA,"",   952.766E+03,   1.00059E+06,   1.00059E+06
