ODB Name,Step,Frame,Part Instance Name,    Node Label,X,Y,Z,Section Name,Material Name,Section Point,       S-Mises,S-Max. In-Plane Principal (Abs),S-Max. Principal (Abs)
C:/temp/Job-22.odb,Step-1,Increment      1: Step Time =    1.000,"P-22-1",             1,       90.7868,       111.837,            0.,NA,NA,"",   1.27302E+06,   1.28706E+06,   1.28706E+06
C:/temp/Job-22.odb,Step-1,Increment      1: Step Time =    1.000,"P-22-1",             2,       87.4425,       108.204,            0.,NA,NA,"",   680.492E+03,   326.779E+03,   326.779E+03
C:/temp/Job-22.odb,Step-1,Increment      1: Step Time =    1.000,"P-22-1",             3,       85.0512,       98.7613,            0.,NA,NA,"",   399.609E+03,  -388.115E+03,  -388.115E+03
C:/temp/Job-22.odb,Step-1,Increment      1: Step Time =    1.000,"P-22-1",             4,       86.2634,       93.9746,            0.,NA,NA,"",   482.428E+03,   51.7674E+03,   51.7674E+03
C:/temp/Job-22.odb,Step-1,Increment      1: Step Time =    1.000,"P-22-1",             5,       92.8608,       86.8079,            0.,NA,NA,"",   1.67084E+06,   1.72036E+06,   1.72036E+06
C:/temp/Job-22.odb,Step-1,Increment      1: Step Time =    1.000,"P-22-1",             6,       102.469,       85.2046,            0.,NA,NA,"",   2.22533E+06,   2.30866E+06,   2.30866E+06
C:/temp/Job-22.odb,Step-1,Increment      1: Step Time =    1.000,"P-22-1",             7,       107.139,       86.8079,            0.,NA,NA,"",   1.64470E+06,   1.69933E+06,   1.69933E+06
C:/temp/Job-22.odb,Step-1,Increment      1: Step Time =    1.000,"P-22-1",             8,       113.737,       93.9746,            0.,NA,NA,"",   614.445E+03,   137.207E+03,   137.207E+03
C:/temp/Job-22.odb,Step-1,Increment      1: Step Time =    1.000,"P-22-1",             9,       114.949,       98.7613,            0.,NA,NA,"",   592.186E+03,  -569.015E+03,  -569.015E+03
C:/temp/Job-22.odb,Step-1,Increment      1: Step Time =    1.000,"P-22-1",            10,       112.557,       108.204,            0.,NA,NA,"",   774.301E+03,   670.654E+03,   670.654E+03
C:/temp/Job-22.odb,Step-1,Increment      1: Step Time =    1.000,"P-22-1",            11,       109.213,       111.837,            0.,NA,NA,"",   1.37513E+06,   1.40122E+06,   1.40122E+06
C:/temp/Job-22.odb,Step-1,Increment      1: Step Time =    1.000,"P-22-1",            12,          100.,          115.,            0.,NA,NA,"",   2.20903E+06,   2.30369E+06,   2.30369E+06
C:/temp/Job-22.odb,Step-1,Increment      1: Step Time =    1.000,"P-22-1",            13,          190.,            0.,            0.,NA,NA,"",   999.594E+03,   999.594E+03,   999.594E+03
C:/temp/Job-22.odb,Step-1,Increment      1: Step Time =    1.000,"P-22-1",            14,          180.,            0.,            0.,NA,NA,"",   999.062E+03,   999.048E+03,   999.048E+03
C:/temp/Job-22.odb,Step-1,Increment      1: Step Time =    1.000,"P-22-1",            15,          170.,            0.,            0.,NA,NA,"",   998.055E+03,   997.978E+03,   997.978E+03
C:/temp/Job-22.odb,Step-1,Increment      1: Step Time =    1.000,"P-22-1",            16,          160.,            0.,            0.,NA,NA,"",   994.642E+03,   994.508E+03,   994.508E+03
C:/temp/Job-22.odb,Step-1,Increment      1: Step Time =    1.000,"P-22-1",            17,          150.,            0.,            0.,NA,NA,"",   986.694E+03,   986.522E+03,   986.522E+03
C:/temp/Job-22.odb,Step-1,Increment      1: Step Time =    1.000,"P-22-1",            18,          140.,            0.,            0.,NA,NA,"",   973.491E+03,   973.325E+03,   973.325E+03
C:/temp/Job-22.odb,Step-1,Increment      1: Step Time =    1.000,"P-22-1",            19,          130.,            0.,            0.,NA,NA,"",    956.14E+03,   956.085E+03,   956.085E+03
C:/temp/Job-22.odb,Step-1,Increment      1: Step Time =    1.000,"P-22-1",            20,          120.,            0.,            0.,NA,NA,"",   937.834E+03,   937.949E+03,   937.949E+03
C:/temp/Job-22.odb,Step-1,Increment      1: Step Time =    1.000,"P-22-1",            21,          110.,            0.,            0.,NA,NA,"",   923.312E+03,   923.594E+03,   923.594E+03
C:/temp/Job-22.odb,Step-1,Increment      1: Step Time =    1.000,"P-22-1",            22,          100.,            0.,            0.,NA,NA,"",   917.231E+03,   917.574E+03,   917.574E+03
C:/temp/Job-22.odb,Step-1,Increment      1: Step Time =    1.000,"P-22-1",            23,           90.,            0.,            0.,NA,NA,"",   921.550E+03,   921.799E+03,   921.799E+03
C:/temp/Job-22.odb,Step-1,Increment      1: Step Time =    1.000,"P-22-1",            24,           80.,            0.,            0.,NA,NA,"",   934.866E+03,   934.967E+03,   934.967E+03
C:/temp/Job-22.odb,Step-1,Increment      1: Step Time =    1.000,"P-22-1",            25,           70.,            0.,            0.,NA,NA,"",   954.206E+03,   954.293E+03,   954.293E+03
C:/temp/Job-22.odb,Step-1,Increment      1: Step Time =    1.000,"P-22-1",            26,           60.,            0.,            0.,NA,NA,"",   977.600E+03,   977.770E+03,   977.770E+03
C:/temp/Job-22.odb,Step-1,Increment      1: Step Time =    1.000,"P-22-1",            27,           50.,            0.,            0.,NA,NA,"",   998.916E+03,   998.483E+03,   998.483E+03
C:/temp/Job-22.odb,Step-1,Increment      1: Step Time =    1.000,"P-22-1",            28,           40.,            0.,            0.,NA,NA,"",   1.01937E+06,   1.01940E+06,   1.01940E+06
C:/temp/Job-22.odb,Step-1,Increment      1: Step Time =    1.000,"P-22-1",            29,           30.,            0.,            0.,NA,NA,"",   1.04863E+06,   1.04887E+06,   1.04887E+06
C:/temp/Job-22.odb,Step-1,Increment      1: Step Time =    1.000,"P-22-1",            30,           20.,            0.,            0.,NA,NA,"",   1.10534E+06,   1.10618E+06,   1.10618E+06
C:/temp/Job-22.odb,Step-1,Increment      1: Step Time =    1.000,"P-22-1",            31,           10.,            0.,            0.,NA,NA,"",   1.24877E+06,   1.25135E+06,   1.25135E+06
C:/temp/Job-22.odb,Step-1,Increment      1: Step Time =    1.000,"P-22-1",            32,          200.,            0.,            0.,NA,NA,"",   999.966E+03,   999.935E+03,   999.935E+03
C:/temp/Job-22.odb,Step-1,Increment      1: Step Time =    1.000,"P-22-1",            33,            0.,            0.,            0.,NA,NA,"",   1.59343E+06,   1.66994E+06,   1.66994E+06
C:/temp/Job-22.odb,Step-1,Increment      1: Step Time =    1.000,"P-22-1",            34,          200.,          190.,            0.,NA,NA,"",   1.00023E+06,   1.00003E+06,   1.00003E+06
C:/temp/Job-22.odb,Step-1,Increment      1: Step Time =    1.000,"P-22-1",            35,          200.,          180.,            0.,NA,NA,"",   1.00033E+06,   1.00018E+06,   1.00018E+06
C:/temp/Job-22.odb,Step-1,Increment      1: Step Time =    1.000,"P-22-1",            36,          200.,          170.,            0.,NA,NA,"",   999.154E+03,   1.00030E+06,   1.00030E+06
C:/temp/Job-22.odb,Step-1,Increment      1: Step Time =    1.000,"P-22-1",            37,          200.,          160.,            0.,NA,NA,"",   995.554E+03,   1.00039E+06,   1.00039E+06
C:/temp/Job-22.odb,Step-1,Increment      1: Step Time =    1.000,"P-22-1",            38,          200.,          150.,            0.,NA,NA,"",   988.661E+03,   1.00044E+06,   1.00044E+06
C:/temp/Job-22.odb,Step-1,Increment      1: Step Time =    1.000,"P-22-1",            39,          200.,          140.,            0.,NA,NA,"",   978.691E+03,   1.00037E+06,   1.00037E+06
C:/temp/Job-22.odb,Step-1,Increment      1: Step Time =    1.000,"P-22-1",            40,          200.,          130.,            0.,NA,NA,"",   966.835E+03,   1.00008E+06,   1.00008E+06
C:/temp/Job-22.odb,Step-1,Increment      1: Step Time =    1.000,"P-22-1",            41,          200.,          120.,            0.,NA,NA,"",   955.378E+03,   999.622E+03,   999.622E+03
C:/temp/Job-22.odb,Step-1,Increment      1: Step Time =    1.000,"P-22-1",            42,          200.,          110.,            0.,NA,NA,"",   947.126E+03,   999.245E+03,   999.245E+03
C:/temp/Job-22.odb,Step-1,Increment      1: Step Time =    1.000,"P-22-1",            43,          200.,          100.,            0.,NA,NA,"",   944.008E+03,   999.084E+03,   999.084E+03
C:/temp/Job-22.odb,Step-1,Increment      1: Step Time =    1.000,"P-22-1",            44,          200.,           90.,            0.,NA,NA,"",   946.941E+03,   999.302E+03,   999.302E+03
C:/temp/Job-22.odb,Step-1,Increment      1: Step Time =    1.000,"P-22-1",            45,          200.,           80.,            0.,NA,NA,"",   955.088E+03,   999.686E+03,   999.686E+03
C:/temp/Job-22.odb,Step-1,Increment      1: Step Time =    1.000,"P-22-1",            46,          200.,           70.,            0.,NA,NA,"",   966.262E+03,   999.839E+03,   999.839E+03
C:/temp/Job-22.odb,Step-1,Increment      1: Step Time =    1.000,"P-22-1",            47,          200.,           60.,            0.,NA,NA,"",   978.396E+03,   999.816E+03,   999.816E+03
C:/temp/Job-22.odb,Step-1,Increment      1: Step Time =    1.000,"P-22-1",            48,          200.,           50.,            0.,NA,NA,"",   989.867E+03,   1.00140E+06,   1.00140E+06
C:/temp/Job-22.odb,Step-1,Increment      1: Step Time =    1.000,"P-22-1",            49,          200.,           40.,            0.,NA,NA,"",   995.782E+03,   1.00043E+06,   1.00043E+06
C:/temp/Job-22.odb,Step-1,Increment      1: Step Time =    1.000,"P-22-1",            50,          200.,           30.,            0.,NA,NA,"",   999.223E+03,   1.00024E+06,   1.00024E+06
C:/temp/Job-22.odb,Step-1,Increment      1: Step Time =    1.000,"P-22-1",            51,          200.,           20.,            0.,NA,NA,"",   1.00029E+06,   1.00014E+06,   1.00014E+06
C:/temp/Job-22.odb,Step-1,Increment      1: Step Time =    1.000,"P-22-1",            52,          200.,           10.,            0.,NA,NA,"",   1.00021E+06,   1.00003E+06,   1.00003E+06
C:/temp/Job-22.odb,Step-1,Increment      1: Step Time =    1.000,"P-22-1",            53,          200.,          200.,            0.,NA,NA,"",   999.966E+03,   999.933E+03,   999.933E+03
C:/temp/Job-22.odb,Step-1,Increment      1: Step Time =    1.000,"P-22-1",            54,           10.,          200.,            0.,NA,NA,"",   1.24813E+06,   1.25091E+06,   1.25091E+06
C:/temp/Job-22.odb,Step-1,Increment      1: Step Time =    1.000,"P-22-1",            55,           20.,          200.,            0.,NA,NA,"",   1.10543E+06,   1.10640E+06,   1.10640E+06
C:/temp/Job-22.odb,Step-1,Increment      1: Step Time =    1.000,"P-22-1",            56,           30.,          200.,            0.,NA,NA,"",   1.04850E+06,   1.04888E+06,   1.04888E+06
C:/temp/Job-22.odb,Step-1,Increment      1: Step Time =    1.000,"P-22-1",            57,           40.,          200.,            0.,NA,NA,"",   1.01748E+06,   1.01763E+06,   1.01763E+06
C:/temp/Job-22.odb,Step-1,Increment      1: Step Time =    1.000,"P-22-1",            58,           50.,          200.,            0.,NA,NA,"",   995.558E+03,   995.446E+03,   995.446E+03
C:/temp/Job-22.odb,Step-1,Increment      1: Step Time =    1.000,"P-22-1",            59,           60.,          200.,            0.,NA,NA,"",   975.302E+03,   975.127E+03,   975.127E+03
C:/temp/Job-22.odb,Step-1,Increment      1: Step Time =    1.000,"P-22-1",            60,           70.,          200.,            0.,NA,NA,"",   954.759E+03,   954.718E+03,   954.718E+03
C:/temp/Job-22.odb,Step-1,Increment      1: Step Time =    1.000,"P-22-1",            61,           80.,          200.,            0.,NA,NA,"",   935.750E+03,   935.904E+03,   935.904E+03
C:/temp/Job-22.odb,Step-1,Increment      1: Step Time =    1.000,"P-22-1",            62,           90.,          200.,            0.,NA,NA,"",   922.052E+03,   922.353E+03,   922.353E+03
C:/temp/Job-22.odb,Step-1,Increment      1: Step Time =    1.000,"P-22-1",            63,          100.,          200.,            0.,NA,NA,"",   917.393E+03,   917.731E+03,   917.731E+03
C:/temp/Job-22.odb,Step-1,Increment      1: Step Time =    1.000,"P-22-1",            64,          110.,          200.,            0.,NA,NA,"",   923.116E+03,   923.366E+03,   923.366E+03
C:/temp/Job-22.odb,Step-1,Increment      1: Step Time =    1.000,"P-22-1",            65,          120.,          200.,            0.,NA,NA,"",   937.203E+03,   937.310E+03,   937.310E+03
C:/temp/Job-22.odb,Step-1,Increment      1: Step Time =    1.000,"P-22-1",            66,          130.,          200.,            0.,NA,NA,"",   955.603E+03,   955.635E+03,   955.635E+03
C:/temp/Job-22.odb,Step-1,Increment      1: Step Time =    1.000,"P-22-1",            67,          140.,          200.,            0.,NA,NA,"",   974.206E+03,   974.170E+03,   974.170E+03
C:/temp/Job-22.odb,Step-1,Increment      1: Step Time =    1.000,"P-22-1",            68,          150.,          200.,            0.,NA,NA,"",   987.731E+03,   987.224E+03,   987.224E+03
C:/temp/Job-22.odb,Step-1,Increment      1: Step Time =    1.000,"P-22-1",            69,          160.,          200.,            0.,NA,NA,"",   994.838E+03,   994.705E+03,   994.705E+03
C:/temp/Job-22.odb,Step-1,Increment      1: Step Time =    1.000,"P-22-1",            70,          170.,          200.,            0.,NA,NA,"",   998.013E+03,   997.968E+03,   997.968E+03
C:/temp/Job-22.odb,Step-1,Increment      1: Step Time =    1.000,"P-22-1",            71,          180.,          200.,            0.,NA,NA,"",   998.968E+03,   998.960E+03,   998.960E+03
C:/temp/Job-22.odb,Step-1,Increment      1: Step Time =    1.000,"P-22-1",            72,          190.,          200.,            0.,NA,NA,"",   999.559E+03,   999.560E+03,   999.560E+03
C:/temp/Job-22.odb,Step-1,Increment      1: Step Time =    1.000,"P-22-1",            73,            0.,          200.,            0.,NA,NA,"",   1.59254E+06,   1.66841E+06,   1.66841E+06
C:/temp/Job-22.odb,Step-1,Increment      1: Step Time =    1.000,"P-22-1",            74,            0.,           10.,            0.,NA,NA,"",   1.15615E+06,   1.25860E+06,   1.25860E+06
C:/temp/Job-22.odb,Step-1,Increment      1: Step Time =    1.000,"P-22-1",            75,            0.,           20.,            0.,NA,NA,"",   1.00791E+06,   1.11301E+06,   1.11301E+06
C:/temp/Job-22.odb,Step-1,Increment      1: Step Time =    1.000,"P-22-1",            76,            0.,           30.,            0.,NA,NA,"",   937.484E+03,   1.04253E+06,   1.04253E+06
C:/temp/Job-22.odb,Step-1,Increment      1: Step Time =    1.000,"P-22-1",            77,            0.,           40.,            0.,NA,NA,"",   891.574E+03,   996.285E+03,   996.285E+03
C:/temp/Job-22.odb,Step-1,Increment      1: Step Time =    1.000,"P-22-1",            78,            0.,           50.,            0.,NA,NA,"",   854.869E+03,   958.968E+03,   958.968E+03
C:/temp/Job-22.odb,Step-1,Increment      1: Step Time =    1.000,"P-22-1",            79,            0.,           60.,            0.,NA,NA,"",   823.578E+03,    926.58E+03,    926.58E+03
C:/temp/Job-22.odb,Step-1,Increment      1: Step Time =    1.000,"P-22-1",            80,            0.,           70.,            0.,NA,NA,"",   797.215E+03,   898.312E+03,   898.312E+03
C:/temp/Job-22.odb,Step-1,Increment      1: Step Time =    1.000,"P-22-1",            81,            0.,           80.,            0.,NA,NA,"",   775.788E+03,   875.084E+03,   875.084E+03
C:/temp/Job-22.odb,Step-1,Increment      1: Step Time =    1.000,"P-22-1",            82,            0.,           90.,            0.,NA,NA,"",   761.667E+03,   859.741E+03,   859.741E+03
C:/temp/Job-22.odb,Step-1,Increment      1: Step Time =    1.000,"P-22-1",            83,            0.,          100.,            0.,NA,NA,"",   756.642E+03,   854.305E+03,   854.305E+03
C:/temp/Job-22.odb,Step-1,Increment      1: Step Time =    1.000,"P-22-1",            84,            0.,          110.,            0.,NA,NA,"",   762.050E+03,   860.217E+03,   860.217E+03
C:/temp/Job-22.odb,Step-1,Increment      1: Step Time =    1.000,"P-22-1",            85,            0.,          120.,            0.,NA,NA,"",   776.479E+03,   875.895E+03,   875.895E+03
C:/temp/Job-22.odb,Step-1,Increment      1: Step Time =    1.000,"P-22-1",            86,            0.,          130.,            0.,NA,NA,"",   798.131E+03,   899.198E+03,   899.198E+03
C:/temp/Job-22.odb,Step-1,Increment      1: Step Time =    1.000,"P-22-1",            87,            0.,          140.,            0.,NA,NA,"",   826.478E+03,   928.695E+03,   928.695E+03
C:/temp/Job-22.odb,Step-1,Increment      1: Step Time =    1.000,"P-22-1",            88,            0.,          150.,            0.,NA,NA,"",   856.853E+03,   961.198E+03,   961.198E+03
C:/temp/Job-22.odb,Step-1,Increment      1: Step Time =    1.000,"P-22-1",            89,            0.,          160.,            0.,NA,NA,"",   890.331E+03,   996.063E+03,   996.063E+03
C:/temp/Job-22.odb,Step-1,Increment      1: Step Time =    1.000,"P-22-1",            90,            0.,          170.,            0.,NA,NA,"",   936.124E+03,   1.04190E+06,   1.04190E+06
C:/temp/Job-22.odb,Step-1,Increment      1: Step Time =    1.000,"P-22-1",            91,            0.,          180.,            0.,NA,NA,"",   1.00692E+06,   1.11232E+06,   1.11232E+06
C:/temp/Job-22.odb,Step-1,Increment      1: Step Time =    1.000,"P-22-1",            92,            0.,          190.,            0.,NA,NA,"",   1.15463E+06,   1.25705E+06,   1.25705E+06
C:/temp/Job-22.odb,Step-1,Increment      1: Step Time =    1.000,"P-22-1",            93,       190.421,       85.0894,            0.,NA,NA,"",   958.578E+03,   995.867E+03,   995.867E+03
C:/temp/Job-22.odb,Step-1,Increment      1: Step Time =    1.000,"P-22-1",            94,       189.866,       115.007,            0.,NA,NA,"",   958.702E+03,   995.191E+03,   995.191E+03
C:/temp/Job-22.odb,Step-1,Increment      1: Step Time =    1.000,"P-22-1",            95,       179.654,       114.997,            0.,NA,NA,"",   960.185E+03,   983.919E+03,   983.919E+03
C:/temp/Job-22.odb,Step-1,Increment      1: Step Time =    1.000,"P-22-1",            96,       168.928,       115.904,            0.,NA,NA,"",   958.097E+03,   970.154E+03,   970.154E+03
C:/temp/Job-22.odb,Step-1,Increment      1: Step Time =    1.000,"P-22-1",            97,       157.526,       112.136,            0.,NA,NA,"",   920.699E+03,   926.894E+03,   926.894E+03
C:/temp/Job-22.odb,Step-1,Increment      1: Step Time =    1.000,"P-22-1",            98,       148.436,       118.544,            0.,NA,NA,"",   982.242E+03,   961.512E+03,   961.512E+03
C:/temp/Job-22.odb,Step-1,Increment      1: Step Time =    1.000,"P-22-1",            99,       136.469,       113.704,            0.,NA,NA,"",   945.280E+03,   899.707E+03,   899.707E+03
C:/temp/Job-22.odb,Step-1,Increment      1: Step Time =    1.000,"P-22-1",           100,       125.176,       115.250,            0.,NA,NA,"",   1.16706E+06,   1.03860E+06,   1.03860E+06
C:/temp/Job-22.odb,Step-1,Increment      1: Step Time =    1.000,"P-22-1",           101,       112.797,       116.578,            0.,NA,NA,"",   1.40928E+06,   1.38011E+06,   1.38011E+06
C:/temp/Job-22.odb,Step-1,Increment      1: Step Time =    1.000,"P-22-1",           102,       85.5103,       116.271,            0.,NA,NA,"",   1.33278E+06,   1.27839E+06,   1.27839E+06
C:/temp/Job-22.odb,Step-1,Increment      1: Step Time =    1.000,"P-22-1",           103,       74.0118,       116.519,            0.,NA,NA,"",   1.10643E+06,   1.01648E+06,   1.01648E+06
C:/temp/Job-22.odb,Step-1,Increment      1: Step Time =    1.000,"P-22-1",           104,       59.6983,       117.030,            0.,NA,NA,"",   921.543E+03,   922.837E+03,   922.837E+03
C:/temp/Job-22.odb,Step-1,Increment      1: Step Time =    1.000,"P-22-1",           105,       49.6461,       116.997,            0.,NA,NA,"",   862.091E+03,   899.148E+03,   899.148E+03
C:/temp/Job-22.odb,Step-1,Increment      1: Step Time =    1.000,"P-22-1",           106,       39.5971,       113.094,            0.,NA,NA,"",   814.456E+03,   876.173E+03,   876.173E+03
C:/temp/Job-22.odb,Step-1,Increment      1: Step Time =    1.000,"P-22-1",           107,       30.5198,       115.649,            0.,NA,NA,"",   817.187E+03,   889.985E+03,   889.985E+03
C:/temp/Job-22.odb,Step-1,Increment      1: Step Time =    1.000,"P-22-1",           108,       19.5916,       115.484,            0.,NA,NA,"",   797.870E+03,   883.675E+03,   883.675E+03
C:/temp/Job-22.odb,Step-1,Increment      1: Step Time =    1.000,"P-22-1",           109,       9.68187,       115.144,            0.,NA,NA,"",   779.885E+03,   874.279E+03,   874.279E+03
C:/temp/Job-22.odb,Step-1,Increment      1: Step Time =    1.000,"P-22-1",           110,       9.80394,       105.360,            0.,NA,NA,"",   766.582E+03,   860.936E+03,   860.936E+03
C:/temp/Job-22.odb,Step-1,Increment      1: Step Time =    1.000,"P-22-1",           111,       19.5817,       105.950,            0.,NA,NA,"",   778.208E+03,   865.473E+03,   865.473E+03
C:/temp/Job-22.odb,Step-1,Increment      1: Step Time =    1.000,"P-22-1",           112,       29.1540,       106.829,            0.,NA,NA,"",   786.336E+03,   864.585E+03,   864.585E+03
C:/temp/Job-22.odb,Step-1,Increment      1: Step Time =    1.000,"P-22-1",           113,       39.3035,       104.979,            0.,NA,NA,"",   777.684E+03,   845.095E+03,   845.095E+03
C:/temp/Job-22.odb,Step-1,Increment      1: Step Time =    1.000,"P-22-1",           114,       49.1820,       104.326,            0.,NA,NA,"",   748.048E+03,   805.046E+03,   805.046E+03
C:/temp/Job-22.odb,Step-1,Increment      1: Step Time =    1.000,"P-22-1",           115,       59.8504,       102.989,            0.,NA,NA,"",   660.339E+03,   705.527E+03,   705.527E+03
C:/temp/Job-22.odb,Step-1,Increment      1: Step Time =    1.000,"P-22-1",           116,       73.0279,       104.659,            0.,NA,NA,"",   527.532E+03,   511.945E+03,   511.945E+03
C:/temp/Job-22.odb,Step-1,Increment      1: Step Time =    1.000,"P-22-1",           117,       128.180,       105.566,            0.,NA,NA,"",   614.110E+03,   576.167E+03,   576.167E+03
C:/temp/Job-22.odb,Step-1,Increment      1: Step Time =    1.000,"P-22-1",           118,       138.625,       107.538,            0.,NA,NA,"",   787.223E+03,   781.112E+03,   781.112E+03
C:/temp/Job-22.odb,Step-1,Increment      1: Step Time =    1.000,"P-22-1",           119,       147.731,       103.767,            0.,NA,NA,"",   815.351E+03,   828.200E+03,   828.200E+03
C:/temp/Job-22.odb,Step-1,Increment      1: Step Time =    1.000,"P-22-1",           120,       158.289,       104.625,            0.,NA,NA,"",   890.052E+03,   904.483E+03,   904.483E+03
C:/temp/Job-22.odb,Step-1,Increment      1: Step Time =    1.000,"P-22-1",           121,       168.419,       105.390,            0.,NA,NA,"",   924.831E+03,   944.137E+03,   944.137E+03
C:/temp/Job-22.odb,Step-1,Increment      1: Step Time =    1.000,"P-22-1",           122,       179.601,       104.649,            0.,NA,NA,"",   946.635E+03,   974.896E+03,   974.896E+03
C:/temp/Job-22.odb,Step-1,Increment      1: Step Time =    1.000,"P-22-1",           123,       189.948,       105.042,            0.,NA,NA,"",   951.933E+03,   992.811E+03,   992.811E+03
C:/temp/Job-22.odb,Step-1,Increment      1: Step Time =    1.000,"P-22-1",           124,       126.840,       95.4895,            0.,NA,NA,"",   571.268E+03,   518.860E+03,   518.860E+03
C:/temp/Job-22.odb,Step-1,Increment      1: Step Time =    1.000,"P-22-1",           125,       135.120,       96.7562,            0.,NA,NA,"",   665.971E+03,   669.496E+03,   669.496E+03
C:/temp/Job-22.odb,Step-1,Increment      1: Step Time =    1.000,"P-22-1",           126,       147.633,       94.3968,            0.,NA,NA,"",   821.744E+03,   832.769E+03,   832.769E+03
C:/temp/Job-22.odb,Step-1,Increment      1: Step Time =    1.000,"P-22-1",           127,       159.960,       98.2763,            0.,NA,NA,"",   889.587E+03,   906.267E+03,   906.267E+03
C:/temp/Job-22.odb,Step-1,Increment      1: Step Time =    1.000,"P-22-1",           128,       168.739,       93.7215,            0.,NA,NA,"",   928.494E+03,    947.45E+03,    947.45E+03
C:/temp/Job-22.odb,Step-1,Increment      1: Step Time =    1.000,"P-22-1",           129,       180.833,       94.6059,            0.,NA,NA,"",   948.770E+03,   977.859E+03,   977.859E+03
C:/temp/Job-22.odb,Step-1,Increment      1: Step Time =    1.000,"P-22-1",           130,       190.205,       95.0135,            0.,NA,NA,"",   951.684E+03,   992.960E+03,   992.960E+03
C:/temp/Job-22.odb,Step-1,Increment      1: Step Time =    1.000,"P-22-1",           131,       10.5460,       85.3687,            0.,NA,NA,"",   779.455E+03,   873.205E+03,   873.205E+03
C:/temp/Job-22.odb,Step-1,Increment      1: Step Time =    1.000,"P-22-1",           132,       21.4999,       88.7223,            0.,NA,NA,"",   787.961E+03,   872.539E+03,   872.539E+03
C:/temp/Job-22.odb,Step-1,Increment      1: Step Time =    1.000,"P-22-1",           133,       30.4100,       81.2923,            0.,NA,NA,"",   827.103E+03,   898.680E+03,   898.680E+03
C:/temp/Job-22.odb,Step-1,Increment      1: Step Time =    1.000,"P-22-1",           134,       40.7925,       82.7873,            0.,NA,NA,"",   840.684E+03,   896.169E+03,   896.169E+03
C:/temp/Job-22.odb,Step-1,Increment      1: Step Time =    1.000,"P-22-1",           135,       52.5246,       82.9945,            0.,NA,NA,"",   878.259E+03,   905.193E+03,   905.193E+03
C:/temp/Job-22.odb,Step-1,Increment      1: Step Time =    1.000,"P-22-1",           136,       64.1246,       85.2017,            0.,NA,NA,"",   922.492E+03,   905.884E+03,   905.884E+03
C:/temp/Job-22.odb,Step-1,Increment      1: Step Time =    1.000,"P-22-1",           137,       73.6235,       82.2887,            0.,NA,NA,"",   1.13635E+06,   1.05586E+06,   1.05586E+06
C:/temp/Job-22.odb,Step-1,Increment      1: Step Time =    1.000,"P-22-1",           138,       84.0044,       83.1389,            0.,NA,NA,"",   1.34065E+06,   1.27178E+06,   1.27178E+06
C:/temp/Job-22.odb,Step-1,Increment      1: Step Time =    1.000,"P-22-1",           139,       119.148,       84.4808,            0.,NA,NA,"",   1.32351E+06,   1.16457E+06,   1.16457E+06
C:/temp/Job-22.odb,Step-1,Increment      1: Step Time =    1.000,"P-22-1",           140,       130.215,       84.3846,            0.,NA,NA,"",   1.06703E+06,   976.292E+03,   976.292E+03
C:/temp/Job-22.odb,Step-1,Increment      1: Step Time =    1.000,"P-22-1",           141,       138.582,       84.8789,            0.,NA,NA,"",   970.149E+03,   927.867E+03,   927.867E+03
C:/temp/Job-22.odb,Step-1,Increment      1: Step Time =    1.000,"P-22-1",           142,       145.559,       85.3051,            0.,NA,NA,"",   938.867E+03,   920.497E+03,   920.497E+03
C:/temp/Job-22.odb,Step-1,Increment      1: Step Time =    1.000,"P-22-1",           143,       155.853,       83.8033,            0.,NA,NA,"",   951.396E+03,   948.717E+03,   948.717E+03
C:/temp/Job-22.odb,Step-1,Increment      1: Step Time =    1.000,"P-22-1",           144,       170.004,       85.1663,            0.,NA,NA,"",   954.904E+03,   968.868E+03,   968.868E+03
C:/temp/Job-22.odb,Step-1,Increment      1: Step Time =    1.000,"P-22-1",           145,       180.761,       84.9269,            0.,NA,NA,"",   961.440E+03,   986.269E+03,   986.269E+03
C:/temp/Job-22.odb,Step-1,Increment      1: Step Time =    1.000,"P-22-1",           146,       71.9106,       90.7693,            0.,NA,NA,"",   806.803E+03,   751.917E+03,   751.917E+03
C:/temp/Job-22.odb,Step-1,Increment      1: Step Time =    1.000,"P-22-1",           147,       61.9247,       91.8371,            0.,NA,NA,"",   726.611E+03,   750.065E+03,   750.065E+03
C:/temp/Job-22.odb,Step-1,Increment      1: Step Time =    1.000,"P-22-1",           148,       51.9338,       94.5736,            0.,NA,NA,"",   734.618E+03,   788.005E+03,   788.005E+03
C:/temp/Job-22.odb,Step-1,Increment      1: Step Time =    1.000,"P-22-1",           149,       40.5879,       92.9521,            0.,NA,NA,"",   778.806E+03,   844.483E+03,   844.483E+03
C:/temp/Job-22.odb,Step-1,Increment      1: Step Time =    1.000,"P-22-1",           150,       31.2106,       97.5933,            0.,NA,NA,"",   779.402E+03,   856.090E+03,   856.090E+03
C:/temp/Job-22.odb,Step-1,Increment      1: Step Time =    1.000,"P-22-1",           151,       19.9095,       96.7772,            0.,NA,NA,"",   775.747E+03,   863.073E+03,   863.073E+03
C:/temp/Job-22.odb,Step-1,Increment      1: Step Time =    1.000,"P-22-1",           152,       10.0578,       95.4850,            0.,NA,NA,"",   765.832E+03,   860.005E+03,   860.005E+03
C:/temp/Job-22.odb,Step-1,Increment      1: Step Time =    1.000,"P-22-1",           153,       189.652,       10.3576,            0.,NA,NA,"",   1.00027E+06,   1.00032E+06,   1.00032E+06
C:/temp/Job-22.odb,Step-1,Increment      1: Step Time =    1.000,"P-22-1",           154,       179.356,       10.3286,            0.,NA,NA,"",   1.00122E+06,   1.00107E+06,   1.00107E+06
C:/temp/Job-22.odb,Step-1,Increment      1: Step Time =    1.000,"P-22-1",           155,       169.214,       10.0734,            0.,NA,NA,"",   1.00184E+06,   1.00117E+06,   1.00117E+06
C:/temp/Job-22.odb,Step-1,Increment      1: Step Time =    1.000,"P-22-1",           156,       159.491,       9.48018,            0.,NA,NA,"",   1.00051E+06,   999.399E+03,   999.399E+03
C:/temp/Job-22.odb,Step-1,Increment      1: Step Time =    1.000,"P-22-1",           157,       149.783,       9.61536,            0.,NA,NA,"",   996.446E+03,   995.089E+03,   995.089E+03
C:/temp/Job-22.odb,Step-1,Increment      1: Step Time =    1.000,"P-22-1",           158,       135.047,       10.1212,            0.,NA,NA,"",   984.382E+03,   983.488E+03,   983.488E+03
C:/temp/Job-22.odb,Step-1,Increment      1: Step Time =    1.000,"P-22-1",           159,       125.008,       10.1525,            0.,NA,NA,"",   972.251E+03,   972.474E+03,   972.474E+03
C:/temp/Job-22.odb,Step-1,Increment      1: Step Time =    1.000,"P-22-1",           160,       115.055,       10.0756,            0.,NA,NA,"",   960.356E+03,   961.956E+03,   961.956E+03
C:/temp/Job-22.odb,Step-1,Increment      1: Step Time =    1.000,"P-22-1",           161,       105.092,       9.98771,            0.,NA,NA,"",   952.861E+03,   955.479E+03,   955.479E+03
C:/temp/Job-22.odb,Step-1,Increment      1: Step Time =    1.000,"P-22-1",           162,       95.1608,       9.88119,            0.,NA,NA,"",   953.225E+03,   955.811E+03,   955.811E+03
C:/temp/Job-22.odb,Step-1,Increment      1: Step Time =    1.000,"P-22-1",           163,       85.3696,       9.67138,            0.,NA,NA,"",   960.894E+03,   962.691E+03,   962.691E+03
C:/temp/Job-22.odb,Step-1,Increment      1: Step Time =    1.000,"P-22-1",           164,       75.7967,       9.47004,            0.,NA,NA,"",   974.036E+03,   974.859E+03,   974.859E+03
C:/temp/Job-22.odb,Step-1,Increment      1: Step Time =    1.000,"P-22-1",           165,       66.5664,       10.0386,            0.,NA,NA,"",   992.746E+03,   992.958E+03,   992.958E+03
C:/temp/Job-22.odb,Step-1,Increment      1: Step Time =    1.000,"P-22-1",           166,       51.9099,       12.3829,            0.,NA,NA,"",   1.02964E+06,   1.02970E+06,   1.02970E+06
C:/temp/Job-22.odb,Step-1,Increment      1: Step Time =    1.000,"P-22-1",           167,       39.2224,       10.0277,            0.,NA,NA,"",   1.05024E+06,   1.05240E+06,   1.05240E+06
C:/temp/Job-22.odb,Step-1,Increment      1: Step Time =    1.000,"P-22-1",           168,       29.7131,       9.76104,            0.,NA,NA,"",   1.08157E+06,   1.08724E+06,   1.08724E+06
C:/temp/Job-22.odb,Step-1,Increment      1: Step Time =    1.000,"P-22-1",           169,       20.0008,       9.88609,            0.,NA,NA,"",   1.13366E+06,   1.14780E+06,   1.14780E+06
C:/temp/Job-22.odb,Step-1,Increment      1: Step Time =    1.000,"P-22-1",           170,       10.1030,       10.0394,            0.,NA,NA,"",   1.21323E+06,   1.25456E+06,   1.25456E+06
C:/temp/Job-22.odb,Step-1,Increment      1: Step Time =    1.000,"P-22-1",           171,       189.640,       20.6579,            0.,NA,NA,"",   1.00097E+06,   1.00144E+06,   1.00144E+06
C:/temp/Job-22.odb,Step-1,Increment      1: Step Time =    1.000,"P-22-1",           172,       178.461,       19.9688,            0.,NA,NA,"",   1.00531E+06,   1.00482E+06,   1.00482E+06
C:/temp/Job-22.odb,Step-1,Increment      1: Step Time =    1.000,"P-22-1",           173,       167.784,       21.5005,            0.,NA,NA,"",   1.01287E+06,   1.01015E+06,   1.01015E+06
C:/temp/Job-22.odb,Step-1,Increment      1: Step Time =    1.000,"P-22-1",           174,       155.906,       22.5075,            0.,NA,NA,"",   1.02107E+06,   1.01590E+06,   1.01590E+06
C:/temp/Job-22.odb,Step-1,Increment      1: Step Time =    1.000,"P-22-1",           175,       145.233,       20.3732,            0.,NA,NA,"",   1.01791E+06,   1.01325E+06,   1.01325E+06
C:/temp/Job-22.odb,Step-1,Increment      1: Step Time =    1.000,"P-22-1",           176,       134.956,       20.5088,            0.,NA,NA,"",   1.01412E+06,   1.01110E+06,   1.01110E+06
C:/temp/Job-22.odb,Step-1,Increment      1: Step Time =    1.000,"P-22-1",           177,       124.755,       20.5217,            0.,NA,NA,"",   1.00465E+06,   1.00560E+06,   1.00560E+06
C:/temp/Job-22.odb,Step-1,Increment      1: Step Time =    1.000,"P-22-1",           178,       114.858,       20.3576,            0.,NA,NA,"",   993.168E+03,   998.475E+03,   998.475E+03
C:/temp/Job-22.odb,Step-1,Increment      1: Step Time =    1.000,"P-22-1",           179,       105.028,       19.9812,            0.,NA,NA,"",   985.116E+03,   993.811E+03,   993.811E+03
C:/temp/Job-22.odb,Step-1,Increment      1: Step Time =    1.000,"P-22-1",           180,       95.1881,       20.0949,            0.,NA,NA,"",   987.367E+03,   996.187E+03,   996.187E+03
C:/temp/Job-22.odb,Step-1,Increment      1: Step Time =    1.000,"P-22-1",           181,       85.4444,       19.8853,            0.,NA,NA,"",   997.777E+03,   1.00402E+06,   1.00402E+06
C:/temp/Job-22.odb,Step-1,Increment      1: Step Time =    1.000,"P-22-1",           182,       76.0800,       19.1760,            0.,NA,NA,"",   1.01053E+06,   1.01348E+06,   1.01348E+06
C:/temp/Job-22.odb,Step-1,Increment      1: Step Time =    1.000,"P-22-1",           183,       65.9928,       20.9316,            0.,NA,NA,"",   1.03316E+06,   1.03367E+06,   1.03367E+06
C:/temp/Job-22.odb,Step-1,Increment      1: Step Time =    1.000,"P-22-1",           184,       52.1819,       18.9139,            0.,NA,NA,"",   1.04868E+06,   1.04943E+06,   1.04943E+06
C:/temp/Job-22.odb,Step-1,Increment      1: Step Time =    1.000,"P-22-1",           185,       41.7152,       20.9045,            0.,NA,NA,"",   1.06664E+06,   1.07311E+06,   1.07311E+06
C:/temp/Job-22.odb,Step-1,Increment      1: Step Time =    1.000,"P-22-1",           186,       33.3979,       23.2715,            0.,NA,NA,"",   1.07609E+06,   1.09359E+06,   1.09359E+06
C:/temp/Job-22.odb,Step-1,Increment      1: Step Time =    1.000,"P-22-1",           187,       20.2711,       19.6731,            0.,NA,NA,"",   1.09354E+06,   1.12996E+06,   1.12996E+06
C:/temp/Job-22.odb,Step-1,Increment      1: Step Time =    1.000,"P-22-1",           188,       10.3220,       20.0689,            0.,NA,NA,"",   1.06020E+06,   1.13405E+06,   1.13405E+06
C:/temp/Job-22.odb,Step-1,Increment      1: Step Time =    1.000,"P-22-1",           189,       190.736,       30.2639,            0.,NA,NA,"",   1.00023E+06,   1.00210E+06,   1.00210E+06
C:/temp/Job-22.odb,Step-1,Increment      1: Step Time =    1.000,"P-22-1",           190,       181.078,       31.6932,            0.,NA,NA,"",   1.00787E+06,   1.00812E+06,   1.00812E+06
C:/temp/Job-22.odb,Step-1,Increment      1: Step Time =    1.000,"P-22-1",           191,       168.962,       31.9356,            0.,NA,NA,"",   1.02296E+06,   1.01850E+06,   1.01850E+06
C:/temp/Job-22.odb,Step-1,Increment      1: Step Time =    1.000,"P-22-1",           192,       158.783,       33.4893,            0.,NA,NA,"",   1.03809E+06,   1.02937E+06,   1.02937E+06
C:/temp/Job-22.odb,Step-1,Increment      1: Step Time =    1.000,"P-22-1",           193,       144.924,       32.1952,            0.,NA,NA,"",   1.05110E+06,   1.04039E+06,   1.04039E+06
C:/temp/Job-22.odb,Step-1,Increment      1: Step Time =    1.000,"P-22-1",           194,       134.278,       30.9967,            0.,NA,NA,"",   1.04733E+06,   1.04107E+06,   1.04107E+06
C:/temp/Job-22.odb,Step-1,Increment      1: Step Time =    1.000,"P-22-1",           195,       124.645,       30.6241,            0.,NA,NA,"",   1.03701E+06,   1.03804E+06,   1.03804E+06
C:/temp/Job-22.odb,Step-1,Increment      1: Step Time =    1.000,"P-22-1",           196,       113.273,       31.5854,            0.,NA,NA,"",   1.02075E+06,   1.03375E+06,   1.03375E+06
C:/temp/Job-22.odb,Step-1,Increment      1: Step Time =    1.000,"P-22-1",           197,       105.157,       29.1541,            0.,NA,NA,"",   1.00573E+06,   1.02205E+06,   1.02205E+06
C:/temp/Job-22.odb,Step-1,Increment      1: Step Time =    1.000,"P-22-1",           198,       95.4142,       30.7677,            0.,NA,NA,"",   1.01201E+06,   1.03078E+06,   1.03078E+06
C:/temp/Job-22.odb,Step-1,Increment      1: Step Time =    1.000,"P-22-1",           199,       85.0530,       30.9217,            0.,NA,NA,"",   1.02892E+06,   1.04198E+06,   1.04198E+06
C:/temp/Job-22.odb,Step-1,Increment      1: Step Time =    1.000,"P-22-1",           200,       73.3485,       33.3967,            0.,NA,NA,"",   1.05989E+06,   1.06468E+06,   1.06468E+06
C:/temp/Job-22.odb,Step-1,Increment      1: Step Time =    1.000,"P-22-1",           201,       63.3901,       30.6559,            0.,NA,NA,"",   1.06437E+06,   1.06517E+06,   1.06517E+06
C:/temp/Job-22.odb,Step-1,Increment      1: Step Time =    1.000,"P-22-1",           202,       53.2238,       29.9681,            0.,NA,NA,"",   1.06816E+06,   1.07112E+06,   1.07112E+06
C:/temp/Job-22.odb,Step-1,Increment      1: Step Time =    1.000,"P-22-1",           203,       31.2337,       30.7593,            0.,NA,NA,"",   1.05063E+06,   1.08111E+06,   1.08111E+06
C:/temp/Job-22.odb,Step-1,Increment      1: Step Time =    1.000,"P-22-1",           204,       21.4454,       29.3473,            0.,NA,NA,"",   1.03542E+06,   1.08638E+06,   1.08638E+06
C:/temp/Job-22.odb,Step-1,Increment      1: Step Time =    1.000,"P-22-1",           205,       10.8846,       30.1461,            0.,NA,NA,"",   983.990E+03,   1.06705E+06,   1.06705E+06
C:/temp/Job-22.odb,Step-1,Increment      1: Step Time =    1.000,"P-22-1",           206,       188.793,       43.1960,            0.,NA,NA,"",   998.896E+03,   1.00462E+06,   1.00462E+06
C:/temp/Job-22.odb,Step-1,Increment      1: Step Time =    1.000,"P-22-1",           207,       180.849,       42.9270,            0.,NA,NA,"",   1.00944E+06,   1.01130E+06,   1.01130E+06
C:/temp/Job-22.odb,Step-1,Increment      1: Step Time =    1.000,"P-22-1",           208,       168.688,       42.6103,            0.,NA,NA,"",   1.03169E+06,   1.02555E+06,   1.02555E+06
C:/temp/Job-22.odb,Step-1,Increment      1: Step Time =    1.000,"P-22-1",           209,       158.886,       39.4635,            0.,NA,NA,"",   1.04878E+06,   1.03732E+06,   1.03732E+06
C:/temp/Job-22.odb,Step-1,Increment      1: Step Time =    1.000,"P-22-1",           210,       145.933,       40.0505,            0.,NA,NA,"",   1.07272E+06,   1.05649E+06,   1.05649E+06
C:/temp/Job-22.odb,Step-1,Increment      1: Step Time =    1.000,"P-22-1",           211,       136.923,       41.6470,            0.,NA,NA,"",   1.08767E+06,   1.07200E+06,   1.07200E+06
C:/temp/Job-22.odb,Step-1,Increment      1: Step Time =    1.000,"P-22-1",           212,       127.518,       41.5108,            0.,NA,NA,"",   1.08276E+06,   1.07687E+06,   1.07687E+06
C:/temp/Job-22.odb,Step-1,Increment      1: Step Time =    1.000,"P-22-1",           213,       116.523,       43.2131,            0.,NA,NA,"",   1.06348E+06,   1.07839E+06,   1.07839E+06
C:/temp/Job-22.odb,Step-1,Increment      1: Step Time =    1.000,"P-22-1",           214,       104.248,       36.4918,            0.,NA,NA,"",   1.01854E+06,   1.04422E+06,   1.04422E+06
C:/temp/Job-22.odb,Step-1,Increment      1: Step Time =    1.000,"P-22-1",           215,       94.0412,       42.1969,            0.,NA,NA,"",   1.03403E+06,   1.06622E+06,   1.06622E+06
C:/temp/Job-22.odb,Step-1,Increment      1: Step Time =    1.000,"P-22-1",           216,       84.1183,       42.2576,            0.,NA,NA,"",   1.06057E+06,   1.08063E+06,   1.08063E+06
C:/temp/Job-22.odb,Step-1,Increment      1: Step Time =    1.000,"P-22-1",           217,       71.4551,       42.1786,            0.,NA,NA,"",   1.09070E+06,   1.09321E+06,   1.09321E+06
C:/temp/Job-22.odb,Step-1,Increment      1: Step Time =    1.000,"P-22-1",           218,       62.7028,       39.6723,            0.,NA,NA,"",   1.08688E+06,   1.08701E+06,   1.08701E+06
C:/temp/Job-22.odb,Step-1,Increment      1: Step Time =    1.000,"P-22-1",           219,       53.6984,       41.7291,            0.,NA,NA,"",   1.07870E+06,   1.08301E+06,   1.08301E+06
C:/temp/Job-22.odb,Step-1,Increment      1: Step Time =    1.000,"P-22-1",           220,       33.2293,       41.3464,            0.,NA,NA,"",   1.02220E+06,   1.05898E+06,   1.05898E+06
C:/temp/Job-22.odb,Step-1,Increment      1: Step Time =    1.000,"P-22-1",           221,       23.1786,       41.5088,            0.,NA,NA,"",   983.672E+03,   1.04340E+06,   1.04340E+06
C:/temp/Job-22.odb,Step-1,Increment      1: Step Time =    1.000,"P-22-1",           222,       12.4435,       41.3150,            0.,NA,NA,"",   934.823E+03,   1.01936E+06,   1.01936E+06
C:/temp/Job-22.odb,Step-1,Increment      1: Step Time =    1.000,"P-22-1",           223,       187.798,       52.0530,            0.,NA,NA,"",   996.165E+03,   1.00552E+06,   1.00552E+06
C:/temp/Job-22.odb,Step-1,Increment      1: Step Time =    1.000,"P-22-1",           224,       178.504,       52.9505,            0.,NA,NA,"",   1.01024E+06,   1.01342E+06,   1.01342E+06
C:/temp/Job-22.odb,Step-1,Increment      1: Step Time =    1.000,"P-22-1",           225,       170.063,       54.1175,            0.,NA,NA,"",   1.02867E+06,   1.02414E+06,   1.02414E+06
C:/temp/Job-22.odb,Step-1,Increment      1: Step Time =    1.000,"P-22-1",           226,       158.457,       55.7557,            0.,NA,NA,"",   1.06212E+06,   1.04458E+06,   1.04458E+06
C:/temp/Job-22.odb,Step-1,Increment      1: Step Time =    1.000,"P-22-1",           227,       146.428,       53.8217,            0.,NA,NA,"",   1.10333E+06,   1.07528E+06,   1.07528E+06
C:/temp/Job-22.odb,Step-1,Increment      1: Step Time =    1.000,"P-22-1",           228,       137.108,       52.0963,            0.,NA,NA,"",   1.12679E+06,   1.09891E+06,   1.09891E+06
C:/temp/Job-22.odb,Step-1,Increment      1: Step Time =    1.000,"P-22-1",           229,       127.815,       52.6067,            0.,NA,NA,"",   1.13775E+06,   1.11993E+06,   1.11993E+06
C:/temp/Job-22.odb,Step-1,Increment      1: Step Time =    1.000,"P-22-1",           230,       116.435,       51.8483,            0.,NA,NA,"",   1.10291E+06,   1.11932E+06,   1.11932E+06
C:/temp/Job-22.odb,Step-1,Increment      1: Step Time =    1.000,"P-22-1",           231,       105.186,       50.8139,            0.,NA,NA,"",   1.04800E+06,   1.09548E+06,   1.09548E+06
C:/temp/Job-22.odb,Step-1,Increment      1: Step Time =    1.000,"P-22-1",           232,       92.1689,       48.4027,            0.,NA,NA,"",   1.05263E+06,   1.09106E+06,   1.09106E+06
C:/temp/Job-22.odb,Step-1,Increment      1: Step Time =    1.000,"P-22-1",           233,       81.6226,       52.2259,            0.,NA,NA,"",   1.10988E+06,   1.12803E+06,   1.12803E+06
C:/temp/Job-22.odb,Step-1,Increment      1: Step Time =    1.000,"P-22-1",           234,       70.0612,       51.6482,            0.,NA,NA,"",   1.12554E+06,   1.12149E+06,   1.12149E+06
C:/temp/Job-22.odb,Step-1,Increment      1: Step Time =    1.000,"P-22-1",           235,       61.1025,       52.2904,            0.,NA,NA,"",   1.10764E+06,   1.10271E+06,   1.10271E+06
C:/temp/Job-22.odb,Step-1,Increment      1: Step Time =    1.000,"P-22-1",           236,       52.1825,       51.5109,            0.,NA,NA,"",   1.07008E+06,   1.07653E+06,   1.07653E+06
C:/temp/Job-22.odb,Step-1,Increment      1: Step Time =    1.000,"P-22-1",           237,       42.1123,       48.2366,            0.,NA,NA,"",   1.03552E+06,   1.05894E+06,   1.05894E+06
C:/temp/Job-22.odb,Step-1,Increment      1: Step Time =    1.000,"P-22-1",           238,       31.6025,       49.1850,            0.,NA,NA,"",   984.811E+03,   1.03232E+06,   1.03232E+06
C:/temp/Job-22.odb,Step-1,Increment      1: Step Time =    1.000,"P-22-1",           239,       18.5172,       54.0682,            0.,NA,NA,"",   909.755E+03,   986.738E+03,   986.738E+03
C:/temp/Job-22.odb,Step-1,Increment      1: Step Time =    1.000,"P-22-1",           240,       9.66353,       51.5584,            0.,NA,NA,"",   880.037E+03,   973.052E+03,   973.052E+03
C:/temp/Job-22.odb,Step-1,Increment      1: Step Time =    1.000,"P-22-1",           241,       189.855,       66.3557,            0.,NA,NA,"",   979.591E+03,   1.00130E+06,   1.00130E+06
C:/temp/Job-22.odb,Step-1,Increment      1: Step Time =    1.000,"P-22-1",           242,       179.007,       65.6095,            0.,NA,NA,"",   996.096E+03,   1.00615E+06,   1.00615E+06
C:/temp/Job-22.odb,Step-1,Increment      1: Step Time =    1.000,"P-22-1",           243,       169.079,       62.9967,            0.,NA,NA,"",   1.02083E+06,   1.01776E+06,   1.01776E+06
C:/temp/Job-22.odb,Step-1,Increment      1: Step Time =    1.000,"P-22-1",           244,       159.794,       61.5160,            0.,NA,NA,"",   1.05070E+06,   1.03484E+06,   1.03484E+06
C:/temp/Job-22.odb,Step-1,Increment      1: Step Time =    1.000,"P-22-1",           245,       150.235,       64.1830,            0.,NA,NA,"",   1.08414E+06,   1.05420E+06,   1.05420E+06
C:/temp/Job-22.odb,Step-1,Increment      1: Step Time =    1.000,"P-22-1",           246,       137.903,       63.9161,            0.,NA,NA,"",   1.15640E+06,   1.10962E+06,   1.10962E+06
C:/temp/Job-22.odb,Step-1,Increment      1: Step Time =    1.000,"P-22-1",           247,       126.838,       60.8671,            0.,NA,NA,"",   1.18854E+06,   1.15684E+06,   1.15684E+06
C:/temp/Job-22.odb,Step-1,Increment      1: Step Time =    1.000,"P-22-1",           248,       116.601,       63.2269,            0.,NA,NA,"",   1.19544E+06,   1.20070E+06,   1.20070E+06
C:/temp/Job-22.odb,Step-1,Increment      1: Step Time =    1.000,"P-22-1",           249,       104.889,       61.6325,            0.,NA,NA,"",   1.09348E+06,   1.16565E+06,   1.16565E+06
C:/temp/Job-22.odb,Step-1,Increment      1: Step Time =    1.000,"P-22-1",           250,       96.1081,       64.0151,            0.,NA,NA,"",   1.10417E+06,   1.18708E+06,   1.18708E+06
C:/temp/Job-22.odb,Step-1,Increment      1: Step Time =    1.000,"P-22-1",           251,       84.7523,       60.9341,            0.,NA,NA,"",   1.15216E+06,   1.17706E+06,   1.17706E+06
C:/temp/Job-22.odb,Step-1,Increment      1: Step Time =    1.000,"P-22-1",           252,       72.8303,       61.9846,            0.,NA,NA,"",   1.17855E+06,   1.16045E+06,   1.16045E+06
C:/temp/Job-22.odb,Step-1,Increment      1: Step Time =    1.000,"P-22-1",           253,       64.3446,       59.8510,            0.,NA,NA,"",   1.12794E+06,   1.11437E+06,   1.11437E+06
C:/temp/Job-22.odb,Step-1,Increment      1: Step Time =    1.000,"P-22-1",           254,       54.8312,       63.4671,            0.,NA,NA,"",   1.05646E+06,   1.05900E+06,   1.05900E+06
C:/temp/Job-22.odb,Step-1,Increment      1: Step Time =    1.000,"P-22-1",           255,       39.2360,       63.9366,            0.,NA,NA,"",   958.311E+03,   998.819E+03,   998.819E+03
C:/temp/Job-22.odb,Step-1,Increment      1: Step Time =    1.000,"P-22-1",           256,       35.7540,       61.6597,            0.,NA,NA,"",   952.481E+03,   999.068E+03,   999.068E+03
C:/temp/Job-22.odb,Step-1,Increment      1: Step Time =    1.000,"P-22-1",           257,       22.2152,       62.3181,            0.,NA,NA,"",   890.405E+03,   964.261E+03,   964.261E+03
C:/temp/Job-22.odb,Step-1,Increment      1: Step Time =    1.000,"P-22-1",           258,       9.03412,       65.7152,            0.,NA,NA,"",   829.293E+03,   923.987E+03,   923.987E+03
C:/temp/Job-22.odb,Step-1,Increment      1: Step Time =    1.000,"P-22-1",           259,       190.523,       75.5236,            0.,NA,NA,"",   968.365E+03,   998.786E+03,   998.786E+03
C:/temp/Job-22.odb,Step-1,Increment      1: Step Time =    1.000,"P-22-1",           260,       181.075,       75.5626,            0.,NA,NA,"",   977.288E+03,   996.179E+03,   996.179E+03
C:/temp/Job-22.odb,Step-1,Increment      1: Step Time =    1.000,"P-22-1",           261,       167.576,       72.9992,            0.,NA,NA,"",   998.260E+03,   999.294E+03,   999.294E+03
C:/temp/Job-22.odb,Step-1,Increment      1: Step Time =    1.000,"P-22-1",           262,       158.677,       71.2293,            0.,NA,NA,"",   1.02560E+06,   1.01215E+06,   1.01215E+06
C:/temp/Job-22.odb,Step-1,Increment      1: Step Time =    1.000,"P-22-1",           263,       147.855,       73.8530,            0.,NA,NA,"",   1.05423E+06,   1.02215E+06,   1.02215E+06
C:/temp/Job-22.odb,Step-1,Increment      1: Step Time =    1.000,"P-22-1",           264,       140.245,       68.4038,            0.,NA,NA,"",   1.13571E+06,   1.08559E+06,   1.08559E+06
C:/temp/Job-22.odb,Step-1,Increment      1: Step Time =    1.000,"P-22-1",           265,       125.030,       76.6840,            0.,NA,NA,"",   1.26248E+06,   1.16742E+06,   1.16742E+06
C:/temp/Job-22.odb,Step-1,Increment      1: Step Time =    1.000,"P-22-1",           266,       117.785,       74.6567,            0.,NA,NA,"",   1.34407E+06,   1.29190E+06,   1.29190E+06
C:/temp/Job-22.odb,Step-1,Increment      1: Step Time =    1.000,"P-22-1",           267,       105.445,       71.9603,            0.,NA,NA,"",   1.22572E+06,   1.32179E+06,   1.32179E+06
C:/temp/Job-22.odb,Step-1,Increment      1: Step Time =    1.000,"P-22-1",           268,       95.4554,       73.0727,            0.,NA,NA,"",   1.24881E+06,   1.36219E+06,   1.36219E+06
C:/temp/Job-22.odb,Step-1,Increment      1: Step Time =    1.000,"P-22-1",           269,       84.5841,       71.8719,            0.,NA,NA,"",   1.28152E+06,   1.28632E+06,   1.28632E+06
C:/temp/Job-22.odb,Step-1,Increment      1: Step Time =    1.000,"P-22-1",           270,       72.8963,       72.1731,            0.,NA,NA,"",   1.20780E+06,   1.16137E+06,   1.16137E+06
C:/temp/Job-22.odb,Step-1,Increment      1: Step Time =    1.000,"P-22-1",           271,       63.0598,       75.2004,            0.,NA,NA,"",   1.06410E+06,   1.04100E+06,   1.04100E+06
C:/temp/Job-22.odb,Step-1,Increment      1: Step Time =    1.000,"P-22-1",           272,       49.9158,       72.3939,            0.,NA,NA,"",   971.328E+03,   990.688E+03,   990.688E+03
C:/temp/Job-22.odb,Step-1,Increment      1: Step Time =    1.000,"P-22-1",           273,       39.7548,       72.5377,            0.,NA,NA,"",   912.205E+03,   958.264E+03,   958.264E+03
C:/temp/Job-22.odb,Step-1,Increment      1: Step Time =    1.000,"P-22-1",           274,       29.1950,       73.4164,            0.,NA,NA,"",   864.081E+03,   932.062E+03,   932.062E+03
C:/temp/Job-22.odb,Step-1,Increment      1: Step Time =    1.000,"P-22-1",           275,       19.2342,       74.6046,            0.,NA,NA,"",   828.666E+03,   912.189E+03,   912.189E+03
C:/temp/Job-22.odb,Step-1,Increment      1: Step Time =    1.000,"P-22-1",           276,       9.62899,       75.3190,            0.,NA,NA,"",   802.012E+03,   896.216E+03,   896.216E+03
C:/temp/Job-22.odb,Step-1,Increment      1: Step Time =    1.000,"P-22-1",           277,       189.918,       125.085,            0.,NA,NA,"",   969.818E+03,   998.919E+03,   998.919E+03
C:/temp/Job-22.odb,Step-1,Increment      1: Step Time =    1.000,"P-22-1",           278,       180.101,       125.077,            0.,NA,NA,"",   979.346E+03,   996.593E+03,   996.593E+03
C:/temp/Job-22.odb,Step-1,Increment      1: Step Time =    1.000,"P-22-1",           279,       171.290,       124.828,            0.,NA,NA,"",   986.487E+03,   993.814E+03,   993.814E+03
C:/temp/Job-22.odb,Step-1,Increment      1: Step Time =    1.000,"P-22-1",           280,       157.579,       127.374,            0.,NA,NA,"",   1.02370E+06,   1.00913E+06,   1.00913E+06
C:/temp/Job-22.odb,Step-1,Increment      1: Step Time =    1.000,"P-22-1",           281,       148.720,       126.872,            0.,NA,NA,"",   1.05806E+06,   1.02708E+06,   1.02708E+06
C:/temp/Job-22.odb,Step-1,Increment      1: Step Time =    1.000,"P-22-1",           282,       138.132,       126.349,            0.,NA,NA,"",   1.12478E+06,   1.06815E+06,   1.06815E+06
C:/temp/Job-22.odb,Step-1,Increment      1: Step Time =    1.000,"P-22-1",           283,       127.026,       121.011,            0.,NA,NA,"",   1.22089E+06,   1.12089E+06,   1.12089E+06
C:/temp/Job-22.odb,Step-1,Increment      1: Step Time =    1.000,"P-22-1",           284,       113.648,       127.505,            0.,NA,NA,"",   1.30022E+06,   1.31200E+06,   1.31200E+06
C:/temp/Job-22.odb,Step-1,Increment      1: Step Time =    1.000,"P-22-1",           285,       105.379,       128.570,            0.,NA,NA,"",   1.20735E+06,   1.30074E+06,   1.30074E+06
C:/temp/Job-22.odb,Step-1,Increment      1: Step Time =    1.000,"P-22-1",           286,       95.6416,       129.043,            0.,NA,NA,"",   1.21978E+06,   1.32628E+06,   1.32628E+06
C:/temp/Job-22.odb,Step-1,Increment      1: Step Time =    1.000,"P-22-1",           287,       82.1493,       128.943,            0.,NA,NA,"",   1.27533E+06,   1.25872E+06,   1.25872E+06
C:/temp/Job-22.odb,Step-1,Increment      1: Step Time =    1.000,"P-22-1",           288,       72.4053,       127.700,            0.,NA,NA,"",   1.20387E+06,   1.15778E+06,   1.15778E+06
C:/temp/Job-22.odb,Step-1,Increment      1: Step Time =    1.000,"P-22-1",           289,       62.3083,       126.972,            0.,NA,NA,"",   1.07437E+06,   1.05451E+06,   1.05451E+06
C:/temp/Job-22.odb,Step-1,Increment      1: Step Time =    1.000,"P-22-1",           290,       54.1444,       124.981,            0.,NA,NA,"",   980.366E+03,   989.575E+03,   989.575E+03
C:/temp/Job-22.odb,Step-1,Increment      1: Step Time =    1.000,"P-22-1",           291,       44.2517,       127.379,            0.,NA,NA,"",   933.534E+03,   969.294E+03,   969.294E+03
C:/temp/Job-22.odb,Step-1,Increment      1: Step Time =    1.000,"P-22-1",           292,       32.0560,       126.872,            0.,NA,NA,"",   873.816E+03,   937.207E+03,   937.207E+03
C:/temp/Job-22.odb,Step-1,Increment      1: Step Time =    1.000,"P-22-1",           293,       19.2146,       124.809,            0.,NA,NA,"",   826.842E+03,   910.509E+03,   910.509E+03
C:/temp/Job-22.odb,Step-1,Increment      1: Step Time =    1.000,"P-22-1",           294,       9.52828,       124.744,            0.,NA,NA,"",   802.198E+03,   896.604E+03,   896.604E+03
C:/temp/Job-22.odb,Step-1,Increment      1: Step Time =    1.000,"P-22-1",           295,       189.969,       135.149,            0.,NA,NA,"",   981.510E+03,   1.00209E+06,   1.00209E+06
C:/temp/Job-22.odb,Step-1,Increment      1: Step Time =    1.000,"P-22-1",           296,       179.853,       135.137,            0.,NA,NA,"",   996.319E+03,   1.00662E+06,   1.00662E+06
C:/temp/Job-22.odb,Step-1,Increment      1: Step Time =    1.000,"P-22-1",           297,       169.894,       134.175,            0.,NA,NA,"",   1.01350E+06,   1.01268E+06,   1.01268E+06
C:/temp/Job-22.odb,Step-1,Increment      1: Step Time =    1.000,"P-22-1",           298,       155.251,       135.098,            0.,NA,NA,"",   1.06193E+06,   1.03973E+06,   1.03973E+06
C:/temp/Job-22.odb,Step-1,Increment      1: Step Time =    1.000,"P-22-1",           299,       149.381,       137.749,            0.,NA,NA,"",   1.09229E+06,   1.06161E+06,   1.06161E+06
C:/temp/Job-22.odb,Step-1,Increment      1: Step Time =    1.000,"P-22-1",           300,       135.973,       135.573,            0.,NA,NA,"",   1.16869E+06,   1.11954E+06,   1.11954E+06
C:/temp/Job-22.odb,Step-1,Increment      1: Step Time =    1.000,"P-22-1",           301,       126.746,       138.114,            0.,NA,NA,"",   1.19828E+06,   1.16386E+06,   1.16386E+06
C:/temp/Job-22.odb,Step-1,Increment      1: Step Time =    1.000,"P-22-1",           302,       113.838,       136.872,            0.,NA,NA,"",   1.16866E+06,   1.19305E+06,   1.19305E+06
C:/temp/Job-22.odb,Step-1,Increment      1: Step Time =    1.000,"P-22-1",           303,       104.927,       140.623,            0.,NA,NA,"",   1.08122E+06,   1.14416E+06,   1.14416E+06
C:/temp/Job-22.odb,Step-1,Increment      1: Step Time =    1.000,"P-22-1",           304,       93.8583,       137.336,            0.,NA,NA,"",   1.10493E+06,   1.18002E+06,   1.18002E+06
C:/temp/Job-22.odb,Step-1,Increment      1: Step Time =    1.000,"P-22-1",           305,       82.0344,       137.378,            0.,NA,NA,"",   1.18544E+06,   1.19341E+06,   1.19341E+06
C:/temp/Job-22.odb,Step-1,Increment      1: Step Time =    1.000,"P-22-1",           306,       73.8582,       134.875,            0.,NA,NA,"",   1.19064E+06,   1.16944E+06,   1.16944E+06
C:/temp/Job-22.odb,Step-1,Increment      1: Step Time =    1.000,"P-22-1",           307,       61.2941,       135.844,            0.,NA,NA,"",   1.10685E+06,   1.09414E+06,   1.09414E+06
C:/temp/Job-22.odb,Step-1,Increment      1: Step Time =    1.000,"P-22-1",           308,       52.9611,       139.357,            0.,NA,NA,"",   1.05654E+06,   1.06237E+06,   1.06237E+06
C:/temp/Job-22.odb,Step-1,Increment      1: Step Time =    1.000,"P-22-1",           309,       41.5229,       137.834,            0.,NA,NA,"",   980.899E+03,   1.01409E+06,   1.01409E+06
C:/temp/Job-22.odb,Step-1,Increment      1: Step Time =    1.000,"P-22-1",           310,       32.7150,       135.916,            0.,NA,NA,"",   926.747E+03,   981.194E+03,   981.194E+03
C:/temp/Job-22.odb,Step-1,Increment      1: Step Time =    1.000,"P-22-1",           311,       19.0190,       133.065,            0.,NA,NA,"",   859.983E+03,   941.136E+03,   941.136E+03
C:/temp/Job-22.odb,Step-1,Increment      1: Step Time =    1.000,"P-22-1",           312,       9.83090,       134.179,            0.,NA,NA,"",   831.638E+03,   925.457E+03,   925.457E+03
C:/temp/Job-22.odb,Step-1,Increment      1: Step Time =    1.000,"P-22-1",           313,       190.395,       149.814,            0.,NA,NA,"",   993.710E+03,   1.00358E+06,   1.00358E+06
C:/temp/Job-22.odb,Step-1,Increment      1: Step Time =    1.000,"P-22-1",           314,       179.663,       145.313,            0.,NA,NA,"",   1.00701E+06,   1.01188E+06,   1.01188E+06
C:/temp/Job-22.odb,Step-1,Increment      1: Step Time =    1.000,"P-22-1",           315,       167.788,       144.777,            0.,NA,NA,"",   1.03396E+06,   1.02706E+06,   1.02706E+06
C:/temp/Job-22.odb,Step-1,Increment      1: Step Time =    1.000,"P-22-1",           316,       160.096,       145.837,            0.,NA,NA,"",   1.05774E+06,   1.04220E+06,   1.04220E+06
C:/temp/Job-22.odb,Step-1,Increment      1: Step Time =    1.000,"P-22-1",           317,       149.988,       147.595,            0.,NA,NA,"",   1.08933E+06,   1.06517E+06,   1.06517E+06
C:/temp/Job-22.odb,Step-1,Increment      1: Step Time =    1.000,"P-22-1",           318,       139.205,       145.602,            0.,NA,NA,"",   1.13068E+06,   1.09922E+06,   1.09922E+06
C:/temp/Job-22.odb,Step-1,Increment      1: Step Time =    1.000,"P-22-1",           319,       125.284,       147.030,            0.,NA,NA,"",   1.13577E+06,   1.12436E+06,   1.12436E+06
C:/temp/Job-22.odb,Step-1,Increment      1: Step Time =    1.000,"P-22-1",           320,       114.715,       144.907,            0.,NA,NA,"",   1.11102E+06,   1.13351E+06,   1.13351E+06
C:/temp/Job-22.odb,Step-1,Increment      1: Step Time =    1.000,"P-22-1",           321,       104.745,       147.357,            0.,NA,NA,"",   1.05327E+06,   1.10394E+06,   1.10394E+06
C:/temp/Job-22.odb,Step-1,Increment      1: Step Time =    1.000,"P-22-1",           322,       92.4718,       148.002,            0.,NA,NA,"",   1.05951E+06,   1.10592E+06,   1.10592E+06
C:/temp/Job-22.odb,Step-1,Increment      1: Step Time =    1.000,"P-22-1",           323,       83.4288,       149.360,            0.,NA,NA,"",   1.09485E+06,   1.11745E+06,   1.11745E+06
C:/temp/Job-22.odb,Step-1,Increment      1: Step Time =    1.000,"P-22-1",           324,       73.0552,       146.896,            0.,NA,NA,"",   1.13423E+06,   1.13094E+06,   1.13094E+06
C:/temp/Job-22.odb,Step-1,Increment      1: Step Time =    1.000,"P-22-1",           325,       62.7023,       147.226,            0.,NA,NA,"",   1.11028E+06,   1.10489E+06,   1.10489E+06
C:/temp/Job-22.odb,Step-1,Increment      1: Step Time =    1.000,"P-22-1",           326,       52.0233,       146.559,            0.,NA,NA,"",   1.06578E+06,   1.07312E+06,   1.07312E+06
C:/temp/Job-22.odb,Step-1,Increment      1: Step Time =    1.000,"P-22-1",           327,       41.1597,       147.430,            0.,NA,NA,"",   1.01770E+06,   1.04580E+06,   1.04580E+06
C:/temp/Job-22.odb,Step-1,Increment      1: Step Time =    1.000,"P-22-1",           328,       30.2177,       146.089,            0.,NA,NA,"",   961.156E+03,   1.01413E+06,   1.01413E+06
C:/temp/Job-22.odb,Step-1,Increment      1: Step Time =    1.000,"P-22-1",           329,       20.6585,       149.197,            0.,NA,NA,"",   931.802E+03,   1.00323E+06,   1.00323E+06
C:/temp/Job-22.odb,Step-1,Increment      1: Step Time =    1.000,"P-22-1",           330,       10.2351,       149.199,            0.,NA,NA,"",   886.523E+03,   978.376E+03,   978.376E+03
C:/temp/Job-22.odb,Step-1,Increment      1: Step Time =    1.000,"P-22-1",           331,       190.503,       159.502,            0.,NA,NA,"",   998.602E+03,   1.00337E+06,   1.00337E+06
C:/temp/Job-22.odb,Step-1,Increment      1: Step Time =    1.000,"P-22-1",           332,       177.316,       155.941,            0.,NA,NA,"",   1.01526E+06,   1.01516E+06,   1.01516E+06
C:/temp/Job-22.odb,Step-1,Increment      1: Step Time =    1.000,"P-22-1",           333,       165.771,       158.968,            0.,NA,NA,"",   1.03535E+06,   1.02789E+06,   1.02789E+06
C:/temp/Job-22.odb,Step-1,Increment      1: Step Time =    1.000,"P-22-1",           334,       160.462,       160.151,            0.,NA,NA,"",   1.04551E+06,   1.03492E+06,   1.03492E+06
C:/temp/Job-22.odb,Step-1,Increment      1: Step Time =    1.000,"P-22-1",           335,       144.430,       158.463,            0.,NA,NA,"",   1.07981E+06,   1.06238E+06,   1.06238E+06
C:/temp/Job-22.odb,Step-1,Increment      1: Step Time =    1.000,"P-22-1",           336,       138.067,       159.072,            0.,NA,NA,"",   1.08300E+06,   1.06811E+06,   1.06811E+06
C:/temp/Job-22.odb,Step-1,Increment      1: Step Time =    1.000,"P-22-1",           337,       127.544,       157.784,            0.,NA,NA,"",   1.08448E+06,   1.07895E+06,   1.07895E+06
C:/temp/Job-22.odb,Step-1,Increment      1: Step Time =    1.000,"P-22-1",           338,       118.071,       156.592,            0.,NA,NA,"",   1.06950E+06,   1.08036E+06,   1.08036E+06
C:/temp/Job-22.odb,Step-1,Increment      1: Step Time =    1.000,"P-22-1",           339,       109.468,       156.928,            0.,NA,NA,"",   1.04218E+06,   1.06927E+06,   1.06927E+06
C:/temp/Job-22.odb,Step-1,Increment      1: Step Time =    1.000,"P-22-1",           340,       94.4687,       157.085,            0.,NA,NA,"",   1.03379E+06,   1.06811E+06,   1.06811E+06
C:/temp/Job-22.odb,Step-1,Increment      1: Step Time =    1.000,"P-22-1",           341,       85.0319,       159.653,            0.,NA,NA,"",   1.05201E+06,   1.07212E+06,   1.07212E+06
C:/temp/Job-22.odb,Step-1,Increment      1: Step Time =    1.000,"P-22-1",           342,       74.5934,       156.891,            0.,NA,NA,"",   1.09012E+06,   1.09603E+06,   1.09603E+06
C:/temp/Job-22.odb,Step-1,Increment      1: Step Time =    1.000,"P-22-1",           343,       64.0612,       157.917,            0.,NA,NA,"",   1.09324E+06,   1.09255E+06,   1.09255E+06
C:/temp/Job-22.odb,Step-1,Increment      1: Step Time =    1.000,"P-22-1",           344,       53.0781,       158.906,            0.,NA,NA,"",   1.07745E+06,   1.08211E+06,   1.08211E+06
C:/temp/Job-22.odb,Step-1,Increment      1: Step Time =    1.000,"P-22-1",           345,       40.7987,       158.700,            0.,NA,NA,"",   1.04722E+06,   1.06886E+06,   1.06886E+06
C:/temp/Job-22.odb,Step-1,Increment      1: Step Time =    1.000,"P-22-1",           346,       33.5880,       156.493,            0.,NA,NA,"",   1.01741E+06,   1.05478E+06,   1.05478E+06
C:/temp/Job-22.odb,Step-1,Increment      1: Step Time =    1.000,"P-22-1",           347,       23.3547,       158.086,            0.,NA,NA,"",   981.989E+03,   1.04179E+06,   1.04179E+06
C:/temp/Job-22.odb,Step-1,Increment      1: Step Time =    1.000,"P-22-1",           348,       10.3290,       159.716,            0.,NA,NA,"",   928.169E+03,   1.01748E+06,   1.01748E+06
C:/temp/Job-22.odb,Step-1,Increment      1: Step Time =    1.000,"P-22-1",           349,       189.913,       169.213,            0.,NA,NA,"",   1.00081E+06,   1.00265E+06,   1.00265E+06
C:/temp/Job-22.odb,Step-1,Increment      1: Step Time =    1.000,"P-22-1",           350,       178.429,       167.794,            0.,NA,NA,"",   1.01098E+06,   1.01035E+06,   1.01035E+06
C:/temp/Job-22.odb,Step-1,Increment      1: Step Time =    1.000,"P-22-1",           351,       167.987,       169.052,            0.,NA,NA,"",   1.02323E+06,   1.01856E+06,   1.01856E+06
C:/temp/Job-22.odb,Step-1,Increment      1: Step Time =    1.000,"P-22-1",           352,       157.334,       168.843,            0.,NA,NA,"",   1.03677E+06,   1.02829E+06,   1.02829E+06
C:/temp/Job-22.odb,Step-1,Increment      1: Step Time =    1.000,"P-22-1",           353,       145.720,       169.962,            0.,NA,NA,"",   1.04344E+06,   1.03425E+06,   1.03425E+06
C:/temp/Job-22.odb,Step-1,Increment      1: Step Time =    1.000,"P-22-1",           354,       136.534,       168.752,            0.,NA,NA,"",   1.04834E+06,   1.04088E+06,   1.04088E+06
C:/temp/Job-22.odb,Step-1,Increment      1: Step Time =    1.000,"P-22-1",           355,       126.051,       167.176,            0.,NA,NA,"",    1.0457E+06,   1.04534E+06,   1.04534E+06
C:/temp/Job-22.odb,Step-1,Increment      1: Step Time =    1.000,"P-22-1",           356,       114.995,       170.966,            0.,NA,NA,"",   1.01719E+06,   1.02634E+06,   1.02634E+06
C:/temp/Job-22.odb,Step-1,Increment      1: Step Time =    1.000,"P-22-1",           357,       105.313,       171.712,            0.,NA,NA,"",   1.00495E+06,   1.02042E+06,   1.02042E+06
C:/temp/Job-22.odb,Step-1,Increment      1: Step Time =    1.000,"P-22-1",           358,       96.4064,       166.117,            0.,NA,NA,"",   1.01596E+06,   1.03851E+06,   1.03851E+06
C:/temp/Job-22.odb,Step-1,Increment      1: Step Time =    1.000,"P-22-1",           359,       86.6671,       169.970,            0.,NA,NA,"",   1.02237E+06,   1.03622E+06,   1.03622E+06
C:/temp/Job-22.odb,Step-1,Increment      1: Step Time =    1.000,"P-22-1",           360,       75.6540,       167.830,            0.,NA,NA,"",   1.05187E+06,   1.05812E+06,   1.05812E+06
C:/temp/Job-22.odb,Step-1,Increment      1: Step Time =    1.000,"P-22-1",           361,       64.9448,       168.418,            0.,NA,NA,"",   1.06644E+06,   1.06726E+06,   1.06726E+06
C:/temp/Job-22.odb,Step-1,Increment      1: Step Time =    1.000,"P-22-1",           362,       53.9651,       167.380,            0.,NA,NA,"",   1.07171E+06,   1.07480E+06,   1.07480E+06
C:/temp/Job-22.odb,Step-1,Increment      1: Step Time =    1.000,"P-22-1",           363,       42.9184,       167.474,            0.,NA,NA,"",   1.06407E+06,   1.07701E+06,   1.07701E+06
C:/temp/Job-22.odb,Step-1,Increment      1: Step Time =    1.000,"P-22-1",           364,       26.4843,       166.844,            0.,NA,NA,"",   1.03178E+06,   1.07464E+06,   1.07464E+06
C:/temp/Job-22.odb,Step-1,Increment      1: Step Time =    1.000,"P-22-1",           365,       20.2965,       168.786,            0.,NA,NA,"",   1.01999E+06,   1.07676E+06,   1.07676E+06
C:/temp/Job-22.odb,Step-1,Increment      1: Step Time =    1.000,"P-22-1",           366,       9.85822,       169.986,            0.,NA,NA,"",   978.800E+03,   1.06487E+06,   1.06487E+06
C:/temp/Job-22.odb,Step-1,Increment      1: Step Time =    1.000,"P-22-1",           367,       189.663,       179.351,            0.,NA,NA,"",   1.00113E+06,   1.00155E+06,   1.00155E+06
C:/temp/Job-22.odb,Step-1,Increment      1: Step Time =    1.000,"P-22-1",           368,       180.008,       178.456,            0.,NA,NA,"",   1.00529E+06,   1.00494E+06,   1.00494E+06
C:/temp/Job-22.odb,Step-1,Increment      1: Step Time =    1.000,"P-22-1",           369,       168.275,       181.084,            0.,NA,NA,"",   1.00992E+06,   1.00779E+06,   1.00779E+06
C:/temp/Job-22.odb,Step-1,Increment      1: Step Time =    1.000,"P-22-1",           370,       157.010,       180.853,            0.,NA,NA,"",   1.01449E+06,   1.01065E+06,   1.01065E+06
C:/temp/Job-22.odb,Step-1,Increment      1: Step Time =    1.000,"P-22-1",           371,       146.919,       178.450,            0.,NA,NA,"",   1.02090E+06,   1.01567E+06,   1.01567E+06
C:/temp/Job-22.odb,Step-1,Increment      1: Step Time =    1.000,"P-22-1",           372,       134.083,       178.896,            0.,NA,NA,"",   1.01432E+06,   1.01161E+06,   1.01161E+06
C:/temp/Job-22.odb,Step-1,Increment      1: Step Time =    1.000,"P-22-1",           373,       124.136,       181.096,            0.,NA,NA,"",   998.527E+03,   999.606E+03,   999.606E+03
C:/temp/Job-22.odb,Step-1,Increment      1: Step Time =    1.000,"P-22-1",           374,       114.853,       180.781,            0.,NA,NA,"",   990.045E+03,   994.700E+03,   994.700E+03
C:/temp/Job-22.odb,Step-1,Increment      1: Step Time =    1.000,"P-22-1",           375,       105.104,       180.686,            0.,NA,NA,"",   983.279E+03,   991.153E+03,   991.153E+03
C:/temp/Job-22.odb,Step-1,Increment      1: Step Time =    1.000,"P-22-1",           376,       95.3043,       180.342,            0.,NA,NA,"",   985.916E+03,   994.406E+03,   994.406E+03
C:/temp/Job-22.odb,Step-1,Increment      1: Step Time =    1.000,"P-22-1",           377,       85.2427,       179.661,            0.,NA,NA,"",   998.742E+03,   1.00545E+06,   1.00545E+06
C:/temp/Job-22.odb,Step-1,Increment      1: Step Time =    1.000,"P-22-1",           378,       75.1886,       179.103,            0.,NA,NA,"",   1.01719E+06,   1.02032E+06,   1.02032E+06
C:/temp/Job-22.odb,Step-1,Increment      1: Step Time =    1.000,"P-22-1",           379,       64.8413,       179.132,            0.,NA,NA,"",   1.03493E+06,   1.03537E+06,   1.03537E+06
C:/temp/Job-22.odb,Step-1,Increment      1: Step Time =    1.000,"P-22-1",           380,       54.4453,       179.452,            0.,NA,NA,"",   1.04924E+06,   1.04987E+06,   1.04987E+06
C:/temp/Job-22.odb,Step-1,Increment      1: Step Time =    1.000,"P-22-1",           381,       43.7428,       177.324,            0.,NA,NA,"",   1.06636E+06,   1.07236E+06,   1.07236E+06
C:/temp/Job-22.odb,Step-1,Increment      1: Step Time =    1.000,"P-22-1",           382,       31.7262,       178.251,            0.,NA,NA,"",   1.07607E+06,   1.09421E+06,   1.09421E+06
C:/temp/Job-22.odb,Step-1,Increment      1: Step Time =    1.000,"P-22-1",           383,       20.4064,       179.428,            0.,NA,NA,"",   1.08715E+06,   1.12564E+06,   1.12564E+06
C:/temp/Job-22.odb,Step-1,Increment      1: Step Time =    1.000,"P-22-1",           384,       10.1571,       179.757,            0.,NA,NA,"",   1.05694E+06,   1.13192E+06,   1.13192E+06
C:/temp/Job-22.odb,Step-1,Increment      1: Step Time =    1.000,"P-22-1",           385,       189.638,       189.649,            0.,NA,NA,"",   1.00027E+06,   1.00031E+06,   1.00031E+06
C:/temp/Job-22.odb,Step-1,Increment      1: Step Time =    1.000,"P-22-1",           386,       179.332,       189.635,            0.,NA,NA,"",   1.00112E+06,   1.00098E+06,   1.00098E+06
C:/temp/Job-22.odb,Step-1,Increment      1: Step Time =    1.000,"P-22-1",           387,       169.723,       190.731,            0.,NA,NA,"",   1.00104E+06,   1.00054E+06,   1.00054E+06
C:/temp/Job-22.odb,Step-1,Increment      1: Step Time =    1.000,"P-22-1",           388,       156.774,       188.795,            0.,NA,NA,"",   1.00158E+06,   999.993E+03,   999.993E+03
C:/temp/Job-22.odb,Step-1,Increment      1: Step Time =    1.000,"P-22-1",           389,       147.880,       187.787,            0.,NA,NA,"",   1.00050E+06,   998.422E+03,   998.422E+03
C:/temp/Job-22.odb,Step-1,Increment      1: Step Time =    1.000,"P-22-1",           390,       133.518,       189.844,            0.,NA,NA,"",   982.615E+03,   982.009E+03,   982.009E+03
C:/temp/Job-22.odb,Step-1,Increment      1: Step Time =    1.000,"P-22-1",           391,       124.329,       190.555,            0.,NA,NA,"",   968.970E+03,   969.301E+03,   969.301E+03
C:/temp/Job-22.odb,Step-1,Increment      1: Step Time =    1.000,"P-22-1",           392,       114.779,       190.449,            0.,NA,NA,"",   958.199E+03,   959.643E+03,   959.643E+03
C:/temp/Job-22.odb,Step-1,Increment      1: Step Time =    1.000,"P-22-1",           393,       104.941,       190.261,            0.,NA,NA,"",   951.963E+03,   954.379E+03,   954.379E+03
C:/temp/Job-22.odb,Step-1,Increment      1: Step Time =    1.000,"P-22-1",           394,       94.9677,       190.078,            0.,NA,NA,"",   953.338E+03,   955.980E+03,   955.980E+03
C:/temp/Job-22.odb,Step-1,Increment      1: Step Time =    1.000,"P-22-1",           395,       84.9375,       189.882,            0.,NA,NA,"",   963.101E+03,   965.038E+03,   965.038E+03
C:/temp/Job-22.odb,Step-1,Increment      1: Step Time =    1.000,"P-22-1",           396,       74.9397,       189.751,            0.,NA,NA,"",   978.568E+03,   979.378E+03,   979.378E+03
C:/temp/Job-22.odb,Step-1,Increment      1: Step Time =    1.000,"P-22-1",           397,       64.8985,       189.771,            0.,NA,NA,"",   996.427E+03,   996.410E+03,   996.410E+03
C:/temp/Job-22.odb,Step-1,Increment      1: Step Time =    1.000,"P-22-1",           398,       50.1327,       190.314,            0.,NA,NA,"",   1.02330E+06,   1.02349E+06,   1.02349E+06
C:/temp/Job-22.odb,Step-1,Increment      1: Step Time =    1.000,"P-22-1",           399,       40.3906,       190.403,            0.,NA,NA,"",   1.04613E+06,   1.04794E+06,   1.04794E+06
C:/temp/Job-22.odb,Step-1,Increment      1: Step Time =    1.000,"P-22-1",           400,       30.5318,       189.748,            0.,NA,NA,"",   1.07953E+06,   1.08510E+06,   1.08510E+06
C:/temp/Job-22.odb,Step-1,Increment      1: Step Time =    1.000,"P-22-1",           401,       20.3823,       189.627,            0.,NA,NA,"",   1.13045E+06,   1.14522E+06,   1.14522E+06
C:/temp/Job-22.odb,Step-1,Increment      1: Step Time =    1.000,"P-22-1",           402,       10.1927,       189.777,            0.,NA,NA,"",   1.20927E+06,   1.25122E+06,   1.25122E+06
C:/temp/Job-22.odb,Step-1,Increment      1: Step Time =    1.000,"P-22-1",           403,       95.1295,       114.187,            0.,NA,NA,"",   1.81227E+06,   1.90487E+06,   1.90487E+06
C:/temp/Job-22.odb,Step-1,Increment      1: Step Time =    1.000,"P-22-1",           404,       85.4590,       103.682,            0.,NA,NA,"",    452.77E+03,  -360.445E+03,  -360.445E+03
C:/temp/Job-22.odb,Step-1,Increment      1: Step Time =    1.000,"P-22-1",           405,       88.9641,       89.8408,            0.,NA,NA,"",   1.02250E+06,   987.735E+03,   987.735E+03
C:/temp/Job-22.odb,Step-1,Increment      1: Step Time =    1.000,"P-22-1",           406,       97.5311,       85.2046,            0.,NA,NA,"",   2.06956E+06,   2.17825E+06,   2.17825E+06
C:/temp/Job-22.odb,Step-1,Increment      1: Step Time =    1.000,"P-22-1",           407,       111.036,       89.8408,            0.,NA,NA,"",   992.569E+03,   934.750E+03,   934.750E+03
C:/temp/Job-22.odb,Step-1,Increment      1: Step Time =    1.000,"P-22-1",           408,       114.541,       103.682,            0.,NA,NA,"",   571.470E+03,  -238.760E+03,  -238.760E+03
C:/temp/Job-22.odb,Step-1,Increment      1: Step Time =    1.000,"P-22-1",           409,       104.870,       114.187,            0.,NA,NA,"",   1.98517E+06,   2.05261E+06,   2.05261E+06
C:/temp/Job-22.odb,Step-1,Increment      1: Step Time =    1.000,"P-22-1",           410,          195.,            0.,            0.,NA,NA,"",   999.856E+03,   999.835E+03,   999.835E+03
C:/temp/Job-22.odb,Step-1,Increment      1: Step Time =    1.000,"P-22-1",           411,          185.,            0.,            0.,NA,NA,"",   999.316E+03,   999.321E+03,   999.321E+03
C:/temp/Job-22.odb,Step-1,Increment      1: Step Time =    1.000,"P-22-1",           412,          175.,            0.,            0.,NA,NA,"",   998.707E+03,   998.670E+03,   998.670E+03
C:/temp/Job-22.odb,Step-1,Increment      1: Step Time =    1.000,"P-22-1",           413,          165.,            0.,            0.,NA,NA,"",   996.787E+03,   996.689E+03,   996.689E+03
C:/temp/Job-22.odb,Step-1,Increment      1: Step Time =    1.000,"P-22-1",           414,          155.,            0.,            0.,NA,NA,"",   991.322E+03,   991.171E+03,   991.171E+03
C:/temp/Job-22.odb,Step-1,Increment      1: Step Time =    1.000,"P-22-1",           415,          145.,            0.,            0.,NA,NA,"",   980.712E+03,   980.546E+03,   980.546E+03
C:/temp/Job-22.odb,Step-1,Increment      1: Step Time =    1.000,"P-22-1",           416,          135.,            0.,            0.,NA,NA,"",   965.158E+03,   965.055E+03,   965.055E+03
C:/temp/Job-22.odb,Step-1,Increment      1: Step Time =    1.000,"P-22-1",           417,          125.,            0.,            0.,NA,NA,"",   946.836E+03,   946.865E+03,   946.865E+03
C:/temp/Job-22.odb,Step-1,Increment      1: Step Time =    1.000,"P-22-1",           418,          115.,            0.,            0.,NA,NA,"",   929.784E+03,   929.977E+03,   929.977E+03
C:/temp/Job-22.odb,Step-1,Increment      1: Step Time =    1.000,"P-22-1",           419,          105.,            0.,            0.,NA,NA,"",   919.046E+03,   919.345E+03,   919.345E+03
C:/temp/Job-22.odb,Step-1,Increment      1: Step Time =    1.000,"P-22-1",           420,           95.,            0.,            0.,NA,NA,"",   918.138E+03,   918.436E+03,   918.436E+03
C:/temp/Job-22.odb,Step-1,Increment      1: Step Time =    1.000,"P-22-1",           421,           85.,            0.,            0.,NA,NA,"",   927.201E+03,   927.437E+03,   927.437E+03
C:/temp/Job-22.odb,Step-1,Increment      1: Step Time =    1.000,"P-22-1",           422,           75.,            0.,            0.,NA,NA,"",   943.838E+03,   944.021E+03,   944.021E+03
C:/temp/Job-22.odb,Step-1,Increment      1: Step Time =    1.000,"P-22-1",           423,           65.,            0.,            0.,NA,NA,"",   965.363E+03,   965.686E+03,   965.686E+03
C:/temp/Job-22.odb,Step-1,Increment      1: Step Time =    1.000,"P-22-1",           424,           55.,            0.,            0.,NA,NA,"",   988.873E+03,   988.577E+03,   988.577E+03
C:/temp/Job-22.odb,Step-1,Increment      1: Step Time =    1.000,"P-22-1",           425,           45.,            0.,            0.,NA,NA,"",   1.00862E+06,   1.00873E+06,   1.00873E+06
C:/temp/Job-22.odb,Step-1,Increment      1: Step Time =    1.000,"P-22-1",           426,           35.,            0.,            0.,NA,NA,"",   1.03148E+06,   1.03219E+06,   1.03219E+06
C:/temp/Job-22.odb,Step-1,Increment      1: Step Time =    1.000,"P-22-1",           427,           25.,            0.,            0.,NA,NA,"",   1.07051E+06,   1.07228E+06,   1.07228E+06
C:/temp/Job-22.odb,Step-1,Increment      1: Step Time =    1.000,"P-22-1",           428,           15.,            0.,            0.,NA,NA,"",   1.15567E+06,   1.16115E+06,   1.16115E+06
C:/temp/Job-22.odb,Step-1,Increment      1: Step Time =    1.000,"P-22-1",           429,            5.,            0.,            0.,NA,NA,"",   1.45478E+06,   1.48824E+06,   1.48824E+06
C:/temp/Job-22.odb,Step-1,Increment      1: Step Time =    1.000,"P-22-1",           430,          200.,          195.,            0.,NA,NA,"",   1.00004E+06,   999.957E+03,   999.957E+03
C:/temp/Job-22.odb,Step-1,Increment      1: Step Time =    1.000,"P-22-1",           431,          200.,          185.,            0.,NA,NA,"",   1.00037E+06,   1.00010E+06,   1.00010E+06
C:/temp/Job-22.odb,Step-1,Increment      1: Step Time =    1.000,"P-22-1",           432,          200.,          175.,            0.,NA,NA,"",   999.967E+03,   1.00023E+06,   1.00023E+06
C:/temp/Job-22.odb,Step-1,Increment      1: Step Time =    1.000,"P-22-1",           433,          200.,          165.,            0.,NA,NA,"",   997.718E+03,   1.00034E+06,   1.00034E+06
C:/temp/Job-22.odb,Step-1,Increment      1: Step Time =    1.000,"P-22-1",           434,          200.,          155.,            0.,NA,NA,"",   992.543E+03,   1.00043E+06,   1.00043E+06
C:/temp/Job-22.odb,Step-1,Increment      1: Step Time =    1.000,"P-22-1",           435,          200.,          145.,            0.,NA,NA,"",   984.015E+03,   1.00043E+06,   1.00043E+06
C:/temp/Job-22.odb,Step-1,Increment      1: Step Time =    1.000,"P-22-1",           436,          200.,          135.,            0.,NA,NA,"",   972.884E+03,   1.00026E+06,   1.00026E+06
C:/temp/Job-22.odb,Step-1,Increment      1: Step Time =    1.000,"P-22-1",           437,          200.,          125.,            0.,NA,NA,"",   960.868E+03,   999.852E+03,   999.852E+03
C:/temp/Job-22.odb,Step-1,Increment      1: Step Time =    1.000,"P-22-1",           438,          200.,          115.,            0.,NA,NA,"",   950.705E+03,   999.413E+03,   999.413E+03
C:/temp/Job-22.odb,Step-1,Increment      1: Step Time =    1.000,"P-22-1",           439,          200.,          105.,            0.,NA,NA,"",   944.859E+03,   999.144E+03,   999.144E+03
C:/temp/Job-22.odb,Step-1,Increment      1: Step Time =    1.000,"P-22-1",           440,          200.,           95.,            0.,NA,NA,"",   944.740E+03,   999.163E+03,   999.163E+03
C:/temp/Job-22.odb,Step-1,Increment      1: Step Time =    1.000,"P-22-1",           441,          200.,           85.,            0.,NA,NA,"",   950.482E+03,   999.497E+03,   999.497E+03
C:/temp/Job-22.odb,Step-1,Increment      1: Step Time =    1.000,"P-22-1",           442,          200.,           75.,            0.,NA,NA,"",   960.422E+03,   999.788E+03,   999.788E+03
C:/temp/Job-22.odb,Step-1,Increment      1: Step Time =    1.000,"P-22-1",           443,          200.,           65.,            0.,NA,NA,"",   972.278E+03,   999.758E+03,   999.758E+03
C:/temp/Job-22.odb,Step-1,Increment      1: Step Time =    1.000,"P-22-1",           444,          200.,           55.,            0.,NA,NA,"",   984.722E+03,   1.00085E+06,   1.00085E+06
C:/temp/Job-22.odb,Step-1,Increment      1: Step Time =    1.000,"P-22-1",           445,          200.,           45.,            0.,NA,NA,"",    993.09E+03,   1.00069E+06,   1.00069E+06
C:/temp/Job-22.odb,Step-1,Increment      1: Step Time =    1.000,"P-22-1",           446,          200.,           35.,            0.,NA,NA,"",   997.948E+03,   1.00039E+06,   1.00039E+06
C:/temp/Job-22.odb,Step-1,Increment      1: Step Time =    1.000,"P-22-1",           447,          200.,           25.,            0.,NA,NA,"",   999.971E+03,   1.00019E+06,   1.00019E+06
C:/temp/Job-22.odb,Step-1,Increment      1: Step Time =    1.000,"P-22-1",           448,          200.,           15.,            0.,NA,NA,"",   1.00034E+06,   1.00009E+06,   1.00009E+06
C:/temp/Job-22.odb,Step-1,Increment      1: Step Time =    1.000,"P-22-1",           449,          200.,            5.,            0.,NA,NA,"",   1.00004E+06,   999.962E+03,   999.962E+03
C:/temp/Job-22.odb,Step-1,Increment      1: Step Time =    1.000,"P-22-1",           450,            5.,          200.,            0.,NA,NA,"",   1.45366E+06,   1.48716E+06,   1.48716E+06
C:/temp/Job-22.odb,Step-1,Increment      1: Step Time =    1.000,"P-22-1",           451,           15.,          200.,            0.,NA,NA,"",   1.15543E+06,   1.16102E+06,   1.16102E+06
C:/temp/Job-22.odb,Step-1,Increment      1: Step Time =    1.000,"P-22-1",           452,           25.,          200.,            0.,NA,NA,"",   1.07081E+06,   1.07258E+06,   1.07258E+06
C:/temp/Job-22.odb,Step-1,Increment      1: Step Time =    1.000,"P-22-1",           453,           35.,          200.,            0.,NA,NA,"",   1.03097E+06,   1.03155E+06,   1.03155E+06
C:/temp/Job-22.odb,Step-1,Increment      1: Step Time =    1.000,"P-22-1",           454,           45.,          200.,            0.,NA,NA,"",   1.00581E+06,   1.00600E+06,   1.00600E+06
C:/temp/Job-22.odb,Step-1,Increment      1: Step Time =    1.000,"P-22-1",           455,           55.,          200.,            0.,NA,NA,"",   985.193E+03,   985.272E+03,   985.272E+03
C:/temp/Job-22.odb,Step-1,Increment      1: Step Time =    1.000,"P-22-1",           456,           65.,          200.,            0.,NA,NA,"",   964.803E+03,   964.881E+03,   964.881E+03
C:/temp/Job-22.odb,Step-1,Increment      1: Step Time =    1.000,"P-22-1",           457,           75.,          200.,            0.,NA,NA,"",   944.794E+03,   944.919E+03,   944.919E+03
C:/temp/Job-22.odb,Step-1,Increment      1: Step Time =    1.000,"P-22-1",           458,           85.,          200.,            0.,NA,NA,"",   927.990E+03,   928.221E+03,   928.221E+03
C:/temp/Job-22.odb,Step-1,Increment      1: Step Time =    1.000,"P-22-1",           459,           95.,          200.,            0.,NA,NA,"",   918.454E+03,   918.766E+03,   918.766E+03
C:/temp/Job-22.odb,Step-1,Increment      1: Step Time =    1.000,"P-22-1",           460,          105.,          200.,            0.,NA,NA,"",   919.043E+03,   919.320E+03,   919.320E+03
C:/temp/Job-22.odb,Step-1,Increment      1: Step Time =    1.000,"P-22-1",           461,          115.,          200.,            0.,NA,NA,"",   929.368E+03,   929.529E+03,   929.529E+03
C:/temp/Job-22.odb,Step-1,Increment      1: Step Time =    1.000,"P-22-1",           462,          125.,          200.,            0.,NA,NA,"",   946.111E+03,   946.187E+03,   946.187E+03
C:/temp/Job-22.odb,Step-1,Increment      1: Step Time =    1.000,"P-22-1",           463,          135.,          200.,            0.,NA,NA,"",   965.090E+03,   965.177E+03,   965.177E+03
C:/temp/Job-22.odb,Step-1,Increment      1: Step Time =    1.000,"P-22-1",           464,          145.,          200.,            0.,NA,NA,"",   981.861E+03,   981.475E+03,   981.475E+03
C:/temp/Job-22.odb,Step-1,Increment      1: Step Time =    1.000,"P-22-1",           465,          155.,          200.,            0.,NA,NA,"",   991.844E+03,   991.662E+03,   991.662E+03
C:/temp/Job-22.odb,Step-1,Increment      1: Step Time =    1.000,"P-22-1",           466,          165.,          200.,            0.,NA,NA,"",   996.906E+03,   996.789E+03,   996.789E+03
C:/temp/Job-22.odb,Step-1,Increment      1: Step Time =    1.000,"P-22-1",           467,          175.,          200.,            0.,NA,NA,"",   998.606E+03,   998.583E+03,   998.583E+03
C:/temp/Job-22.odb,Step-1,Increment      1: Step Time =    1.000,"P-22-1",           468,          185.,          200.,            0.,NA,NA,"",   999.254E+03,   999.259E+03,   999.259E+03
C:/temp/Job-22.odb,Step-1,Increment      1: Step Time =    1.000,"P-22-1",           469,          195.,          200.,            0.,NA,NA,"",   999.848E+03,   999.824E+03,   999.824E+03
C:/temp/Job-22.odb,Step-1,Increment      1: Step Time =    1.000,"P-22-1",           470,            0.,            5.,            0.,NA,NA,"",   1.40191E+06,   1.49038E+06,   1.49038E+06
C:/temp/Job-22.odb,Step-1,Increment      1: Step Time =    1.000,"P-22-1",           471,            0.,           15.,            0.,NA,NA,"",   1.06626E+06,   1.17073E+06,   1.17073E+06
C:/temp/Job-22.odb,Step-1,Increment      1: Step Time =    1.000,"P-22-1",           472,            0.,           25.,            0.,NA,NA,"",   968.063E+03,   1.07341E+06,   1.07341E+06
C:/temp/Job-22.odb,Step-1,Increment      1: Step Time =    1.000,"P-22-1",           473,            0.,           35.,            0.,NA,NA,"",   912.348E+03,   1.01726E+06,   1.01726E+06
C:/temp/Job-22.odb,Step-1,Increment      1: Step Time =    1.000,"P-22-1",           474,            0.,           45.,            0.,NA,NA,"",   872.864E+03,   977.318E+03,   977.318E+03
C:/temp/Job-22.odb,Step-1,Increment      1: Step Time =    1.000,"P-22-1",           475,            0.,           55.,            0.,NA,NA,"",   838.545E+03,   942.292E+03,   942.292E+03
C:/temp/Job-22.odb,Step-1,Increment      1: Step Time =    1.000,"P-22-1",           476,            0.,           65.,            0.,NA,NA,"",   809.927E+03,   912.017E+03,   912.017E+03
C:/temp/Job-22.odb,Step-1,Increment      1: Step Time =    1.000,"P-22-1",           477,            0.,           75.,            0.,NA,NA,"",   785.707E+03,   885.850E+03,   885.850E+03
C:/temp/Job-22.odb,Step-1,Increment      1: Step Time =    1.000,"P-22-1",           478,            0.,           85.,            0.,NA,NA,"",   767.759E+03,   866.337E+03,   866.337E+03
C:/temp/Job-22.odb,Step-1,Increment      1: Step Time =    1.000,"P-22-1",           479,            0.,           95.,            0.,NA,NA,"",   757.857E+03,   855.626E+03,   855.626E+03
C:/temp/Job-22.odb,Step-1,Increment      1: Step Time =    1.000,"P-22-1",           480,            0.,          105.,            0.,NA,NA,"",   758.106E+03,   855.925E+03,   855.925E+03
C:/temp/Job-22.odb,Step-1,Increment      1: Step Time =    1.000,"P-22-1",           481,            0.,          115.,            0.,NA,NA,"",   768.266E+03,   866.979E+03,   866.979E+03
C:/temp/Job-22.odb,Step-1,Increment      1: Step Time =    1.000,"P-22-1",           482,            0.,          125.,            0.,NA,NA,"",   786.533E+03,   886.753E+03,   886.753E+03
C:/temp/Job-22.odb,Step-1,Increment      1: Step Time =    1.000,"P-22-1",           483,            0.,          135.,            0.,NA,NA,"",   811.422E+03,   913.213E+03,   913.213E+03
C:/temp/Job-22.odb,Step-1,Increment      1: Step Time =    1.000,"P-22-1",           484,            0.,          145.,            0.,NA,NA,"",   841.528E+03,   944.483E+03,   944.483E+03
C:/temp/Job-22.odb,Step-1,Increment      1: Step Time =    1.000,"P-22-1",           485,            0.,          155.,            0.,NA,NA,"",   873.020E+03,   978.531E+03,   978.531E+03
C:/temp/Job-22.odb,Step-1,Increment      1: Step Time =    1.000,"P-22-1",           486,            0.,          165.,            0.,NA,NA,"",   911.034E+03,   1.01683E+06,   1.01683E+06
C:/temp/Job-22.odb,Step-1,Increment      1: Step Time =    1.000,"P-22-1",           487,            0.,          175.,            0.,NA,NA,"",   967.081E+03,   1.07291E+06,   1.07291E+06
C:/temp/Job-22.odb,Step-1,Increment      1: Step Time =    1.000,"P-22-1",           488,            0.,          185.,            0.,NA,NA,"",   1.06545E+06,   1.16997E+06,   1.16997E+06
C:/temp/Job-22.odb,Step-1,Increment      1: Step Time =    1.000,"P-22-1",           489,            0.,          195.,            0.,NA,NA,"",   1.40018E+06,   1.48833E+06,   1.48833E+06
C:/temp/Job-22.odb,Step-1,Increment      1: Step Time =    1.000,"P-22-1",           490,       97.3494,       121.326,            0.,NA,NA,"",   1.62155E+06,   1.74475E+06,   1.74475E+06
C:/temp/Job-22.odb,Step-1,Increment      1: Step Time =    1.000,"P-22-1",           491,       100.206,       80.0713,            0.,NA,NA,"",   1.73920E+06,   1.87794E+06,   1.87794E+06
C:/temp/Job-22.odb,Step-1,Increment      1: Step Time =    1.000,"P-22-1",           492,       80.6338,       106.100,            0.,NA,NA,"",   606.444E+03,   133.693E+03,   133.693E+03
C:/temp/Job-22.odb,Step-1,Increment      1: Step Time =    1.000,"P-22-1",           493,       120.009,       95.8977,            0.,NA,NA,"",   496.307E+03,   126.358E+03,   126.358E+03
C:/temp/Job-22.odb,Step-1,Increment      1: Step Time =    1.000,"P-22-1",           494,       80.2748,       95.1049,            0.,NA,NA,"",   567.965E+03,   145.431E+03,   145.431E+03
C:/temp/Job-22.odb,Step-1,Increment      1: Step Time =    1.000,"P-22-1",           495,       106.888,       118.476,            0.,NA,NA,"",   1.72241E+06,   1.79735E+06,   1.79735E+06
C:/temp/Job-22.odb,Step-1,Increment      1: Step Time =    1.000,"P-22-1",           496,       87.8005,       84.9486,            0.,NA,NA,"",   1.36363E+06,   1.33553E+06,   1.33553E+06
C:/temp/Job-22.odb,Step-1,Increment      1: Step Time =    1.000,"P-22-1",           497,       89.6426,       119.766,            0.,NA,NA,"",   1.48339E+06,   1.53078E+06,   1.53078E+06
C:/temp/Job-22.odb,Step-1,Increment      1: Step Time =    1.000,"P-22-1",           498,       82.1248,       88.2818,            0.,NA,NA,"",   999.410E+03,   878.848E+03,   878.848E+03
C:/temp/Job-22.odb,Step-1,Increment      1: Step Time =    1.000,"P-22-1",           499,       119.365,       103.043,            0.,NA,NA,"",   488.544E+03,  -122.795E+03,  -122.795E+03
C:/temp/Job-22.odb,Step-1,Increment      1: Step Time =    1.000,"P-22-1",           500,       113.189,       83.7388,            0.,NA,NA,"",   1.41888E+06,   1.37310E+06,   1.37310E+06
C:/temp/Job-22.odb,Step-1,Increment      1: Step Time =    1.000,"P-22-1",           501,       107.543,       80.7138,            0.,NA,NA,"",   1.62474E+06,   1.70255E+06,   1.70255E+06
C:/temp/Job-22.odb,Step-1,Increment      1: Step Time =    1.000,"P-22-1",           502,       118.499,       108.738,            0.,NA,NA,"",   795.291E+03,   409.245E+03,   409.245E+03
C:/temp/Job-22.odb,Step-1,Increment      1: Step Time =    1.000,"P-22-1",           503,       101.719,       119.899,            0.,NA,NA,"",   1.79816E+06,   1.91603E+06,   1.91603E+06
C:/temp/Job-22.odb,Step-1,Increment      1: Step Time =    1.000,"P-22-1",           504,       118.416,       90.0307,            0.,NA,NA,"",    908.13E+03,   727.441E+03,   727.441E+03
C:/temp/Job-22.odb,Step-1,Increment      1: Step Time =    1.000,"P-22-1",           505,       78.5061,       101.962,            0.,NA,NA,"",   409.873E+03,   7.49964E+03,   7.49964E+03
C:/temp/Job-22.odb,Step-1,Increment      1: Step Time =    1.000,"P-22-1",           506,       94.0527,       80.0185,            0.,NA,NA,"",   1.63799E+06,   1.74007E+06,   1.74007E+06
C:/temp/Job-22.odb,Step-1,Increment      1: Step Time =    1.000,"P-22-1",           507,       195.154,       25.1631,            0.,NA,NA,"",  1000.000E+03,   1.00059E+06,   1.00059E+06
C:/temp/Job-22.odb,Step-1,Increment      1: Step Time =    1.000,"P-22-1",           508,       195.415,       34.8400,            0.,NA,NA,"",   998.187E+03,   1.00092E+06,   1.00092E+06
C:/temp/Job-22.odb,Step-1,Increment      1: Step Time =    1.000,"P-22-1",           509,       45.1508,       195.231,            0.,NA,NA,"",   1.01568E+06,   1.01593E+06,   1.01593E+06
C:/temp/Job-22.odb,Step-1,Increment      1: Step Time =    1.000,"P-22-1",           510,       35.1719,       195.054,            0.,NA,NA,"",   1.04271E+06,   1.04385E+06,   1.04385E+06
C:/temp/Job-22.odb,Step-1,Increment      1: Step Time =    1.000,"P-22-1",           511,       25.2242,       194.839,            0.,NA,NA,"",   1.08521E+06,   1.08849E+06,   1.08849E+06
C:/temp/Job-22.odb,Step-1,Increment      1: Step Time =    1.000,"P-22-1",           512,       24.9303,       4.89678,            0.,NA,NA,"",   1.08563E+06,   1.08880E+06,   1.08880E+06
C:/temp/Job-22.odb,Step-1,Increment      1: Step Time =    1.000,"P-22-1",           513,       34.7825,       4.90613,            0.,NA,NA,"",   1.04394E+06,   1.04514E+06,   1.04514E+06
C:/temp/Job-22.odb,Step-1,Increment      1: Step Time =    1.000,"P-22-1",           514,       194.807,       15.2560,            0.,NA,NA,"",   1.00033E+06,   1.00028E+06,   1.00028E+06
C:/temp/Job-22.odb,Step-1,Increment      1: Step Time =    1.000,"P-22-1",           515,       5.07350,       10.0398,            0.,NA,NA,"",   1.19091E+06,   1.27096E+06,   1.27096E+06
C:/temp/Job-22.odb,Step-1,Increment      1: Step Time =    1.000,"P-22-1",           516,       5.19848,       20.0824,            0.,NA,NA,"",   1.02827E+06,   1.12305E+06,   1.12305E+06
C:/temp/Job-22.odb,Step-1,Increment      1: Step Time =    1.000,"P-22-1",           517,       5.50901,       30.1994,            0.,NA,NA,"",   953.848E+03,   1.05178E+06,   1.05178E+06
C:/temp/Job-22.odb,Step-1,Increment      1: Step Time =    1.000,"P-22-1",           518,       5.88960,       40.5539,            0.,NA,NA,"",   905.321E+03,   1.00407E+06,   1.00407E+06
C:/temp/Job-22.odb,Step-1,Increment      1: Step Time =    1.000,"P-22-1",           519,       5.07097,       194.922,            0.,NA,NA,"",   1.36004E+06,   1.41224E+06,   1.41224E+06
C:/temp/Job-22.odb,Step-1,Increment      1: Step Time =    1.000,"P-22-1",           520,       15.0251,       4.98628,            0.,NA,NA,"",   1.16902E+06,   1.17851E+06,   1.17851E+06
C:/temp/Job-22.odb,Step-1,Increment      1: Step Time =    1.000,"P-22-1",           521,       15.1622,       194.827,            0.,NA,NA,"",   1.16769E+06,   1.17751E+06,   1.17751E+06
C:/temp/Job-22.odb,Step-1,Increment      1: Step Time =    1.000,"P-22-1",           522,       44.4807,       5.21149,            0.,NA,NA,"",   1.01913E+06,   1.01941E+06,   1.01941E+06
C:/temp/Job-22.odb,Step-1,Increment      1: Step Time =    1.000,"P-22-1",           523,       55.0904,       7.27077,            0.,NA,NA,"",   1.00456E+06,   1.00423E+06,   1.00423E+06
C:/temp/Job-22.odb,Step-1,Increment      1: Step Time =    1.000,"P-22-1",           524,       65.5956,       5.16542,            0.,NA,NA,"",   974.485E+03,   974.758E+03,   974.758E+03
C:/temp/Job-22.odb,Step-1,Increment      1: Step Time =    1.000,"P-22-1",           525,       75.3941,       4.72311,            0.,NA,NA,"",   954.182E+03,   954.494E+03,   954.494E+03
C:/temp/Job-22.odb,Step-1,Increment      1: Step Time =    1.000,"P-22-1",           526,       85.2085,       4.79165,            0.,NA,NA,"",   938.924E+03,   939.542E+03,   939.542E+03
C:/temp/Job-22.odb,Step-1,Increment      1: Step Time =    1.000,"P-22-1",           527,       95.1019,       4.91197,            0.,NA,NA,"",   930.569E+03,   931.461E+03,   931.461E+03
C:/temp/Job-22.odb,Step-1,Increment      1: Step Time =    1.000,"P-22-1",           528,       105.061,       4.98443,            0.,NA,NA,"",   931.082E+03,   931.992E+03,   931.992E+03
C:/temp/Job-22.odb,Step-1,Increment      1: Step Time =    1.000,"P-22-1",           529,       115.042,       5.02460,            0.,NA,NA,"",   940.478E+03,   941.035E+03,   941.035E+03
C:/temp/Job-22.odb,Step-1,Increment      1: Step Time =    1.000,"P-22-1",           530,       125.019,       5.05679,            0.,NA,NA,"",   955.411E+03,   955.479E+03,   955.479E+03
C:/temp/Job-22.odb,Step-1,Increment      1: Step Time =    1.000,"P-22-1",           531,       135.016,       5.02710,            0.,NA,NA,"",   971.311E+03,   970.996E+03,   970.996E+03
C:/temp/Job-22.odb,Step-1,Increment      1: Step Time =    1.000,"P-22-1",           532,       144.940,       4.87595,            0.,NA,NA,"",   984.516E+03,   984.032E+03,   984.032E+03
C:/temp/Job-22.odb,Step-1,Increment      1: Step Time =    1.000,"P-22-1",           533,       154.803,       4.72115,            0.,NA,NA,"",   993.436E+03,   992.995E+03,   992.995E+03
C:/temp/Job-22.odb,Step-1,Increment      1: Step Time =    1.000,"P-22-1",           534,       164.745,       4.86361,            0.,NA,NA,"",   998.079E+03,   997.766E+03,   997.766E+03
C:/temp/Job-22.odb,Step-1,Increment      1: Step Time =    1.000,"P-22-1",           535,       174.656,       5.10852,            0.,NA,NA,"",   999.534E+03,   999.409E+03,   999.409E+03
C:/temp/Job-22.odb,Step-1,Increment      1: Step Time =    1.000,"P-22-1",           536,       184.758,       5.21065,            0.,NA,NA,"",   999.741E+03,   999.750E+03,   999.750E+03
C:/temp/Job-22.odb,Step-1,Increment      1: Step Time =    1.000,"P-22-1",           537,       194.883,       5.12325,            0.,NA,NA,"",   999.958E+03,   999.912E+03,   999.912E+03
C:/temp/Job-22.odb,Step-1,Increment      1: Step Time =    1.000,"P-22-1",           538,       194.570,       44.3760,            0.,NA,NA,"",   994.323E+03,   1.00164E+06,   1.00164E+06
C:/temp/Job-22.odb,Step-1,Increment      1: Step Time =    1.000,"P-22-1",           539,       55.0264,       195.086,            0.,NA,NA,"",   995.060E+03,   994.971E+03,   994.971E+03
C:/temp/Job-22.odb,Step-1,Increment      1: Step Time =    1.000,"P-22-1",           540,       192.665,       55.0587,            0.,NA,NA,"",   988.227E+03,   1.00245E+06,   1.00245E+06
C:/temp/Job-22.odb,Step-1,Increment      1: Step Time =    1.000,"P-22-1",           541,       64.9601,       194.928,            0.,NA,NA,"",   975.494E+03,   975.470E+03,   975.470E+03
C:/temp/Job-22.odb,Step-1,Increment      1: Step Time =    1.000,"P-22-1",           542,       194.776,       65.4830,            0.,NA,NA,"",   974.609E+03,   1.00023E+06,   1.00023E+06
C:/temp/Job-22.odb,Step-1,Increment      1: Step Time =    1.000,"P-22-1",           543,       74.9544,       194.903,            0.,NA,NA,"",   956.397E+03,   956.656E+03,   956.656E+03
C:/temp/Job-22.odb,Step-1,Increment      1: Step Time =    1.000,"P-22-1",           544,       195.258,       75.2552,            0.,NA,NA,"",   963.227E+03,   999.559E+03,   999.559E+03
C:/temp/Job-22.odb,Step-1,Increment      1: Step Time =    1.000,"P-22-1",           545,       84.9474,       194.950,            0.,NA,NA,"",   940.323E+03,   940.984E+03,   940.984E+03
C:/temp/Job-22.odb,Step-1,Increment      1: Step Time =    1.000,"P-22-1",           546,       195.221,       85.0755,            0.,NA,NA,"",   953.617E+03,   998.544E+03,   998.544E+03
C:/temp/Job-22.odb,Step-1,Increment      1: Step Time =    1.000,"P-22-1",           547,       195.089,       95.0407,            0.,NA,NA,"",   947.806E+03,   997.543E+03,   997.543E+03
C:/temp/Job-22.odb,Step-1,Increment      1: Step Time =    1.000,"P-22-1",           548,       194.988,       105.044,            0.,NA,NA,"",   947.990E+03,   997.505E+03,   997.505E+03
C:/temp/Job-22.odb,Step-1,Increment      1: Step Time =    1.000,"P-22-1",           549,       194.942,       115.015,            0.,NA,NA,"",   953.923E+03,   998.339E+03,   998.339E+03
C:/temp/Job-22.odb,Step-1,Increment      1: Step Time =    1.000,"P-22-1",           550,       194.953,       125.045,            0.,NA,NA,"",   963.990E+03,   999.614E+03,   999.614E+03
C:/temp/Job-22.odb,Step-1,Increment      1: Step Time =    1.000,"P-22-1",           551,       195.007,       135.063,            0.,NA,NA,"",   975.546E+03,   1.00074E+06,   1.00074E+06
C:/temp/Job-22.odb,Step-1,Increment      1: Step Time =    1.000,"P-22-1",           552,       195.142,       144.968,            0.,NA,NA,"",   985.723E+03,   1.00121E+06,   1.00121E+06
C:/temp/Job-22.odb,Step-1,Increment      1: Step Time =    1.000,"P-22-1",           553,       194.876,       194.882,            0.,NA,NA,"",   999.957E+03,   999.906E+03,   999.906E+03
C:/temp/Job-22.odb,Step-1,Increment      1: Step Time =    1.000,"P-22-1",           554,       184.741,       194.804,            0.,NA,NA,"",   999.683E+03,   999.689E+03,   999.689E+03
C:/temp/Job-22.odb,Step-1,Increment      1: Step Time =    1.000,"P-22-1",           555,       174.831,       195.150,            0.,NA,NA,"",   999.331E+03,   999.245E+03,   999.245E+03
C:/temp/Job-22.odb,Step-1,Increment      1: Step Time =    1.000,"P-22-1",           556,       165.153,       195.412,            0.,NA,NA,"",   997.970E+03,   997.703E+03,   997.703E+03
C:/temp/Job-22.odb,Step-1,Increment      1: Step Time =    1.000,"P-22-1",           557,       155.609,       194.567,            0.,NA,NA,"",   994.357E+03,   993.829E+03,   993.829E+03
C:/temp/Job-22.odb,Step-1,Increment      1: Step Time =    1.000,"P-22-1",           558,       144.891,       192.648,            0.,NA,NA,"",   988.917E+03,    987.91E+03,    987.91E+03
C:/temp/Job-22.odb,Step-1,Increment      1: Step Time =    1.000,"P-22-1",           559,       134.454,       194.768,            0.,NA,NA,"",   970.734E+03,   970.607E+03,   970.607E+03
C:/temp/Job-22.odb,Step-1,Increment      1: Step Time =    1.000,"P-22-1",           560,       124.675,       195.276,            0.,NA,NA,"",   953.832E+03,   953.961E+03,   953.961E+03
C:/temp/Job-22.odb,Step-1,Increment      1: Step Time =    1.000,"P-22-1",           561,       114.861,       195.247,            0.,NA,NA,"",   939.367E+03,   939.868E+03,   939.868E+03
C:/temp/Job-22.odb,Step-1,Increment      1: Step Time =    1.000,"P-22-1",           562,       104.943,       195.130,            0.,NA,NA,"",    930.76E+03,   931.603E+03,   931.603E+03
C:/temp/Job-22.odb,Step-1,Increment      1: Step Time =    1.000,"P-22-1",           563,       94.9569,       195.031,            0.,NA,NA,"",   930.915E+03,   931.838E+03,   931.838E+03
C:/temp/Job-22.odb,Step-1,Increment      1: Step Time =    1.000,"P-22-1",           564,       5.09859,       184.873,            0.,NA,NA,"",   1.08261E+06,   1.17399E+06,   1.17399E+06
C:/temp/Job-22.odb,Step-1,Increment      1: Step Time =    1.000,"P-22-1",           565,       5.00355,       174.938,            0.,NA,NA,"",   982.531E+03,   1.08068E+06,   1.08068E+06
C:/temp/Job-22.odb,Step-1,Increment      1: Step Time =    1.000,"P-22-1",           566,       4.93166,       165.015,            0.,NA,NA,"",   924.365E+03,   1.02464E+06,   1.02464E+06
C:/temp/Job-22.odb,Step-1,Increment      1: Step Time =    1.000,"P-22-1",           567,       4.49113,       155.242,            0.,NA,NA,"",   882.483E+03,   984.172E+03,   984.172E+03
C:/temp/Job-22.odb,Step-1,Increment      1: Step Time =    1.000,"P-22-1",           568,       6.36048,       145.331,            0.,NA,NA,"",   856.336E+03,   954.498E+03,   954.498E+03
C:/temp/Job-22.odb,Step-1,Increment      1: Step Time =    1.000,"P-22-1",           569,       5.00240,       134.720,            0.,NA,NA,"",   818.120E+03,   917.360E+03,   917.360E+03
C:/temp/Job-22.odb,Step-1,Increment      1: Step Time =    1.000,"P-22-1",           570,       4.75388,       124.873,            0.,NA,NA,"",   791.597E+03,   890.015E+03,   890.015E+03
C:/temp/Job-22.odb,Step-1,Increment      1: Step Time =    1.000,"P-22-1",           571,       4.81723,       115.049,            0.,NA,NA,"",   771.980E+03,   869.386E+03,   869.386E+03
C:/temp/Job-22.odb,Step-1,Increment      1: Step Time =    1.000,"P-22-1",           572,       4.90243,       105.153,            0.,NA,NA,"",   760.836E+03,   857.624E+03,   857.624E+03
C:/temp/Job-22.odb,Step-1,Increment      1: Step Time =    1.000,"P-22-1",           573,       5.03750,       95.1826,            0.,NA,NA,"",   760.494E+03,   857.176E+03,   857.176E+03
C:/temp/Job-22.odb,Step-1,Increment      1: Step Time =    1.000,"P-22-1",           574,       5.14040,       85.1990,            0.,NA,NA,"",   771.406E+03,   868.595E+03,   868.595E+03
C:/temp/Job-22.odb,Step-1,Increment      1: Step Time =    1.000,"P-22-1",           575,       4.79623,       75.2487,            0.,NA,NA,"",   790.907E+03,   889.194E+03,   889.194E+03
C:/temp/Job-22.odb,Step-1,Increment      1: Step Time =    1.000,"P-22-1",           576,       4.51136,       65.3793,            0.,NA,NA,"",   816.236E+03,   915.980E+03,   915.980E+03
C:/temp/Job-22.odb,Step-1,Increment      1: Step Time =    1.000,"P-22-1",           577,       4.63215,       55.5563,            0.,NA,NA,"",   846.212E+03,   946.853E+03,   946.853E+03
C:/temp/Job-22.odb,Step-1,Increment      1: Step Time =    1.000,"P-22-1",           578,       195.279,       154.813,            0.,NA,NA,"",   993.425E+03,   1.00125E+06,   1.00125E+06
C:/temp/Job-22.odb,Step-1,Increment      1: Step Time =    1.000,"P-22-1",           579,       195.132,       164.747,            0.,NA,NA,"",   998.096E+03,   1.00104E+06,   1.00104E+06
C:/temp/Job-22.odb,Step-1,Increment      1: Step Time =    1.000,"P-22-1",           580,       194.887,       174.654,            0.,NA,NA,"",   1.00009E+06,   1.00072E+06,   1.00072E+06
C:/temp/Job-22.odb,Step-1,Increment      1: Step Time =    1.000,"P-22-1",           581,       194.786,       184.755,            0.,NA,NA,"",   1.00037E+06,   1.00030E+06,   1.00030E+06
C:/temp/Job-22.odb,Step-1,Increment      1: Step Time =    1.000,"P-22-1",           582,       189.812,       5.18935,            0.,NA,NA,"",   999.813E+03,   999.822E+03,   999.822E+03
C:/temp/Job-22.odb,Step-1,Increment      1: Step Time =    1.000,"P-22-1",           583,       179.699,       5.18177,            0.,NA,NA,"",   999.696E+03,   999.652E+03,   999.652E+03
C:/temp/Job-22.odb,Step-1,Increment      1: Step Time =    1.000,"P-22-1",           584,       169.673,       4.99855,            0.,NA,NA,"",   999.078E+03,   998.855E+03,   998.855E+03
C:/temp/Job-22.odb,Step-1,Increment      1: Step Time =    1.000,"P-22-1",           585,       159.779,       4.75828,            0.,NA,NA,"",   996.259E+03,   995.875E+03,   995.875E+03
C:/temp/Job-22.odb,Step-1,Increment      1: Step Time =    1.000,"P-22-1",           586,       149.854,       4.78088,            0.,NA,NA,"",   989.541E+03,   989.057E+03,   989.057E+03
C:/temp/Job-22.odb,Step-1,Increment      1: Step Time =    1.000,"P-22-1",           587,       139.995,       4.96870,            0.,NA,NA,"",   978.394E+03,   977.962E+03,   977.962E+03
C:/temp/Job-22.odb,Step-1,Increment      1: Step Time =    1.000,"P-22-1",           588,       130.019,       5.05659,            0.,NA,NA,"",   963.513E+03,   963.366E+03,   963.366E+03
C:/temp/Job-22.odb,Step-1,Increment      1: Step Time =    1.000,"P-22-1",           589,       120.028,       5.04408,            0.,NA,NA,"",   947.533E+03,   947.848E+03,   947.848E+03
C:/temp/Job-22.odb,Step-1,Increment      1: Step Time =    1.000,"P-22-1",           590,       110.055,       5.00618,            0.,NA,NA,"",   934.811E+03,   935.587E+03,   935.587E+03
C:/temp/Job-22.odb,Step-1,Increment      1: Step Time =    1.000,"P-22-1",           591,       100.075,       4.95254,            0.,NA,NA,"",   929.644E+03,   930.600E+03,   930.600E+03
C:/temp/Job-22.odb,Step-1,Increment      1: Step Time =    1.000,"P-22-1",           592,       90.1474,       4.85781,            0.,NA,NA,"",   933.764E+03,   934.532E+03,   934.532E+03
C:/temp/Job-22.odb,Step-1,Increment      1: Step Time =    1.000,"P-22-1",           593,       80.2925,       4.73420,            0.,NA,NA,"",   945.841E+03,   946.267E+03,   946.267E+03
C:/temp/Job-22.odb,Step-1,Increment      1: Step Time =    1.000,"P-22-1",           594,       70.5031,       4.83470,            0.,NA,NA,"",   963.850E+03,   964.076E+03,   964.076E+03
C:/temp/Job-22.odb,Step-1,Increment      1: Step Time =    1.000,"P-22-1",           595,       60.6307,       5.87230,            0.,NA,NA,"",   987.140E+03,   987.179E+03,   987.179E+03
C:/temp/Job-22.odb,Step-1,Increment      1: Step Time =    1.000,"P-22-1",           596,       49.4369,       5.76940,            0.,NA,NA,"",   1.01048E+06,   1.01035E+06,   1.01035E+06
C:/temp/Job-22.odb,Step-1,Increment      1: Step Time =    1.000,"P-22-1",           597,       39.6522,       4.99342,            0.,NA,NA,"",   1.03018E+06,   1.03091E+06,   1.03091E+06
C:/temp/Job-22.odb,Step-1,Increment      1: Step Time =    1.000,"P-22-1",           598,       29.8588,       4.87124,            0.,NA,NA,"",   1.06188E+06,   1.06380E+06,   1.06380E+06
C:/temp/Job-22.odb,Step-1,Increment      1: Step Time =    1.000,"P-22-1",           599,       19.9805,       4.92972,            0.,NA,NA,"",   1.12082E+06,   1.12572E+06,   1.12572E+06
C:/temp/Job-22.odb,Step-1,Increment      1: Step Time =    1.000,"P-22-1",           600,       10.0418,       5.01189,            0.,NA,NA,"",   1.25918E+06,   1.27352E+06,   1.27352E+06
C:/temp/Job-22.odb,Step-1,Increment      1: Step Time =    1.000,"P-22-1",           601,       194.809,       189.810,            0.,NA,NA,"",   1.00019E+06,   1.00009E+06,   1.00009E+06
C:/temp/Job-22.odb,Step-1,Increment      1: Step Time =    1.000,"P-22-1",           602,       194.814,       179.696,            0.,NA,NA,"",   1.00038E+06,   1.00052E+06,   1.00052E+06
C:/temp/Job-22.odb,Step-1,Increment      1: Step Time =    1.000,"P-22-1",           603,       194.997,       169.672,            0.,NA,NA,"",   999.370E+03,   1.00090E+06,   1.00090E+06
C:/temp/Job-22.odb,Step-1,Increment      1: Step Time =    1.000,"P-22-1",           604,       195.237,       159.786,            0.,NA,NA,"",   996.146E+03,   1.00116E+06,   1.00116E+06
C:/temp/Job-22.odb,Step-1,Increment      1: Step Time =    1.000,"P-22-1",           605,       195.229,       149.874,            0.,NA,NA,"",   989.924E+03,   1.00127E+06,   1.00127E+06
C:/temp/Job-22.odb,Step-1,Increment      1: Step Time =    1.000,"P-22-1",           606,       195.061,       140.034,            0.,NA,NA,"",   980.903E+03,   1.00105E+06,   1.00105E+06
C:/temp/Job-22.odb,Step-1,Increment      1: Step Time =    1.000,"P-22-1",           607,       194.972,       130.064,            0.,NA,NA,"",   969.803E+03,   1.00026E+06,   1.00026E+06
C:/temp/Job-22.odb,Step-1,Increment      1: Step Time =    1.000,"P-22-1",           608,       194.941,       120.023,            0.,NA,NA,"",   958.567E+03,   998.944E+03,   998.944E+03
C:/temp/Job-22.odb,Step-1,Increment      1: Step Time =    1.000,"P-22-1",           609,       194.957,       110.023,            0.,NA,NA,"",   950.327E+03,   997.845E+03,   997.845E+03
C:/temp/Job-22.odb,Step-1,Increment      1: Step Time =    1.000,"P-22-1",           610,       195.034,       100.053,            0.,NA,NA,"",   947.094E+03,   997.372E+03,   997.372E+03
C:/temp/Job-22.odb,Step-1,Increment      1: Step Time =    1.000,"P-22-1",           611,       195.160,       90.0411,            0.,NA,NA,"",   950.065E+03,   997.973E+03,   997.973E+03
C:/temp/Job-22.odb,Step-1,Increment      1: Step Time =    1.000,"P-22-1",           612,       195.269,       80.1483,            0.,NA,NA,"",   958.110E+03,   999.112E+03,   999.112E+03
C:/temp/Job-22.odb,Step-1,Increment      1: Step Time =    1.000,"P-22-1",           613,       195.131,       70.3704,            0.,NA,NA,"",   968.818E+03,   999.931E+03,   999.931E+03
C:/temp/Job-22.odb,Step-1,Increment      1: Step Time =    1.000,"P-22-1",           614,       194.052,       60.5412,            0.,NA,NA,"",   980.723E+03,   1.00082E+06,   1.00082E+06
C:/temp/Job-22.odb,Step-1,Increment      1: Step Time =    1.000,"P-22-1",           615,       194.067,       49.3605,            0.,NA,NA,"",   991.609E+03,   1.00219E+06,   1.00219E+06
C:/temp/Job-22.odb,Step-1,Increment      1: Step Time =    1.000,"P-22-1",           616,       195.158,       39.6617,            0.,NA,NA,"",   996.518E+03,   1.00120E+06,   1.00120E+06
C:/temp/Job-22.odb,Step-1,Increment      1: Step Time =    1.000,"P-22-1",           617,       195.373,       30.0407,            0.,NA,NA,"",   999.295E+03,   1.00072E+06,   1.00072E+06
C:/temp/Job-22.odb,Step-1,Increment      1: Step Time =    1.000,"P-22-1",           618,       194.916,       20.2372,            0.,NA,NA,"",   1.00029E+06,   1.00044E+06,   1.00044E+06
C:/temp/Job-22.odb,Step-1,Increment      1: Step Time =    1.000,"P-22-1",           619,       194.816,       10.2014,            0.,NA,NA,"",   1.00018E+06,   1.00010E+06,   1.00010E+06
C:/temp/Job-22.odb,Step-1,Increment      1: Step Time =    1.000,"P-22-1",           620,       10.1164,       194.868,            0.,NA,NA,"",   1.25697E+06,   1.27174E+06,   1.27174E+06
C:/temp/Job-22.odb,Step-1,Increment      1: Step Time =    1.000,"P-22-1",           621,       20.1966,       194.813,            0.,NA,NA,"",   1.11987E+06,   1.12506E+06,   1.12506E+06
C:/temp/Job-22.odb,Step-1,Increment      1: Step Time =    1.000,"P-22-1",           622,       30.2094,       194.924,            0.,NA,NA,"",   1.06137E+06,   1.06329E+06,   1.06329E+06
C:/temp/Job-22.odb,Step-1,Increment      1: Step Time =    1.000,"P-22-1",           623,       40.1554,       195.174,            0.,NA,NA,"",   1.02803E+06,   1.02870E+06,   1.02870E+06
C:/temp/Job-22.odb,Step-1,Increment      1: Step Time =    1.000,"P-22-1",           624,       50.1044,       195.179,            0.,NA,NA,"",   1.00497E+06,   1.00500E+06,   1.00500E+06
C:/temp/Job-22.odb,Step-1,Increment      1: Step Time =    1.000,"P-22-1",           625,       59.9785,       194.988,            0.,NA,NA,"",   985.277E+03,   985.171E+03,   985.171E+03
C:/temp/Job-22.odb,Step-1,Increment      1: Step Time =    1.000,"P-22-1",           626,       69.9563,       194.898,            0.,NA,NA,"",   965.791E+03,   965.872E+03,   965.872E+03
C:/temp/Job-22.odb,Step-1,Increment      1: Step Time =    1.000,"P-22-1",           627,       79.9483,       194.919,            0.,NA,NA,"",   947.756E+03,   948.232E+03,   948.232E+03
C:/temp/Job-22.odb,Step-1,Increment      1: Step Time =    1.000,"P-22-1",           628,       89.9505,       194.987,            0.,NA,NA,"",   934.568E+03,   935.408E+03,   935.408E+03
C:/temp/Job-22.odb,Step-1,Increment      1: Step Time =    1.000,"P-22-1",           629,       99.9544,       195.082,            0.,NA,NA,"",   929.616E+03,   930.555E+03,   930.555E+03
C:/temp/Job-22.odb,Step-1,Increment      1: Step Time =    1.000,"P-22-1",           630,       109.915,       195.191,            0.,NA,NA,"",   934.124E+03,   934.820E+03,   934.820E+03
C:/temp/Job-22.odb,Step-1,Increment      1: Step Time =    1.000,"P-22-1",           631,       119.781,       195.291,            0.,NA,NA,"",   946.097E+03,   946.394E+03,   946.394E+03
C:/temp/Job-22.odb,Step-1,Increment      1: Step Time =    1.000,"P-22-1",           632,       129.555,       195.138,            0.,NA,NA,"",   962.195E+03,   962.185E+03,   962.185E+03
C:/temp/Job-22.odb,Step-1,Increment      1: Step Time =    1.000,"P-22-1",           633,       139.403,       194.039,            0.,NA,NA,"",   979.334E+03,   978.931E+03,   978.931E+03
C:/temp/Job-22.odb,Step-1,Increment      1: Step Time =    1.000,"P-22-1",           634,       150.615,       194.058,            0.,NA,NA,"",   991.460E+03,   990.647E+03,   990.647E+03
C:/temp/Job-22.odb,Step-1,Increment      1: Step Time =    1.000,"P-22-1",           635,       160.329,       195.155,            0.,NA,NA,"",   996.575E+03,   996.206E+03,   996.206E+03
C:/temp/Job-22.odb,Step-1,Increment      1: Step Time =    1.000,"P-22-1",           636,       169.953,       195.370,            0.,NA,NA,"",   998.826E+03,   998.670E+03,   998.670E+03
C:/temp/Job-22.odb,Step-1,Increment      1: Step Time =    1.000,"P-22-1",           637,       179.758,       194.913,            0.,NA,NA,"",   999.565E+03,   999.534E+03,   999.534E+03
C:/temp/Job-22.odb,Step-1,Increment      1: Step Time =    1.000,"P-22-1",           638,       189.792,       194.813,            0.,NA,NA,"",   999.799E+03,   999.802E+03,   999.802E+03
C:/temp/Job-22.odb,Step-1,Increment      1: Step Time =    1.000,"P-22-1",           639,       5.12291,       15.0600,            0.,NA,NA,"",   1.08421E+06,   1.17534E+06,   1.17534E+06
C:/temp/Job-22.odb,Step-1,Increment      1: Step Time =    1.000,"P-22-1",           640,       5.32512,       25.1245,            0.,NA,NA,"",   984.487E+03,   1.08163E+06,   1.08163E+06
C:/temp/Job-22.odb,Step-1,Increment      1: Step Time =    1.000,"P-22-1",           641,       5.76915,       35.3658,            0.,NA,NA,"",   927.680E+03,   1.02598E+06,   1.02598E+06
C:/temp/Job-22.odb,Step-1,Increment      1: Step Time =    1.000,"P-22-1",           642,       5.42069,       45.6007,            0.,NA,NA,"",   883.538E+03,   983.201E+03,   983.201E+03
C:/temp/Job-22.odb,Step-1,Increment      1: Step Time =    1.000,"P-22-1",           643,       4.93203,       50.6212,            0.,NA,NA,"",   863.669E+03,   964.115E+03,   964.115E+03
C:/temp/Job-22.odb,Step-1,Increment      1: Step Time =    1.000,"P-22-1",           644,       4.50906,       60.4678,            0.,NA,NA,"",   830.617E+03,   930.940E+03,   930.940E+03
C:/temp/Job-22.odb,Step-1,Increment      1: Step Time =    1.000,"P-22-1",           645,       4.61765,       70.3037,            0.,NA,NA,"",   803.043E+03,   902.063E+03,   902.063E+03
C:/temp/Job-22.odb,Step-1,Increment      1: Step Time =    1.000,"P-22-1",           646,       5.00273,       80.2305,            0.,NA,NA,"",   780.183E+03,   877.845E+03,   877.845E+03
C:/temp/Job-22.odb,Step-1,Increment      1: Step Time =    1.000,"P-22-1",           647,       5.12431,       90.1687,            0.,NA,NA,"",   764.756E+03,   861.611E+03,   861.611E+03
C:/temp/Job-22.odb,Step-1,Increment      1: Step Time =    1.000,"P-22-1",           648,       4.95414,       100.176,            0.,NA,NA,"",   759.191E+03,   855.858E+03,   855.858E+03
C:/temp/Job-22.odb,Step-1,Increment      1: Step Time =    1.000,"P-22-1",           649,       4.85439,       110.109,            0.,NA,NA,"",   765.196E+03,   862.232E+03,   862.232E+03
C:/temp/Job-22.odb,Step-1,Increment      1: Step Time =    1.000,"P-22-1",           650,       4.76844,       119.969,            0.,NA,NA,"",   780.881E+03,   878.763E+03,   878.763E+03
C:/temp/Job-22.odb,Step-1,Increment      1: Step Time =    1.000,"P-22-1",           651,       4.80565,       129.784,            0.,NA,NA,"",   804.075E+03,   902.995E+03,   902.995E+03
C:/temp/Job-22.odb,Step-1,Increment      1: Step Time =    1.000,"P-22-1",           652,       5.45629,       139.766,            0.,NA,NA,"",   834.445E+03,   933.568E+03,   933.568E+03
C:/temp/Job-22.odb,Step-1,Increment      1: Step Time =    1.000,"P-22-1",           653,       4.55106,       150.464,            0.,NA,NA,"",   866.798E+03,   968.011E+03,   968.011E+03
C:/temp/Job-22.odb,Step-1,Increment      1: Step Time =    1.000,"P-22-1",           654,       4.89086,       160.049,            0.,NA,NA,"",   902.475E+03,   1.00338E+06,   1.00338E+06
C:/temp/Job-22.odb,Step-1,Increment      1: Step Time =    1.000,"P-22-1",           655,       4.93499,       170.003,            0.,NA,NA,"",   951.184E+03,   1.05063E+06,   1.05063E+06
C:/temp/Job-22.odb,Step-1,Increment      1: Step Time =    1.000,"P-22-1",           656,       5.05635,       179.899,            0.,NA,NA,"",   1.02653E+06,   1.12191E+06,   1.12191E+06
C:/temp/Job-22.odb,Step-1,Increment      1: Step Time =    1.000,"P-22-1",           657,       5.09796,       189.885,            0.,NA,NA,"",   1.18833E+06,   1.26851E+06,   1.26851E+06
C:/temp/Job-22.odb,Step-1,Increment      1: Step Time =    1.000,"P-22-1",           658,       86.7088,       77.8485,            0.,NA,NA,"",   1.39841E+06,   1.39418E+06,   1.39418E+06
C:/temp/Job-22.odb,Step-1,Increment      1: Step Time =    1.000,"P-22-1",           659,       112.479,       79.3576,            0.,NA,NA,"",   1.43079E+06,   1.43479E+06,   1.43479E+06
C:/temp/Job-22.odb,Step-1,Increment      1: Step Time =    1.000,"P-22-1",           660,       83.0797,       110.755,            0.,NA,NA,"",     916.1E+03,   652.467E+03,   652.467E+03
C:/temp/Job-22.odb,Step-1,Increment      1: Step Time =    1.000,"P-22-1",           661,       116.010,       111.848,            0.,NA,NA,"",   1.04086E+06,   901.804E+03,   901.804E+03
C:/temp/Job-22.odb,Step-1,Increment      1: Step Time =    1.000,"P-22-1",           662,       140.030,       10.0357,            0.,NA,NA,"",   989.429E+03,   988.200E+03,   988.200E+03
C:/temp/Job-22.odb,Step-1,Increment      1: Step Time =    1.000,"P-22-1",           663,       130.018,       10.1617,            0.,NA,NA,"",   978.514E+03,   978.120E+03,   978.120E+03
C:/temp/Job-22.odb,Step-1,Increment      1: Step Time =    1.000,"P-22-1",           664,       120.014,       10.1240,            0.,NA,NA,"",   966.050E+03,   966.949E+03,   966.949E+03
C:/temp/Job-22.odb,Step-1,Increment      1: Step Time =    1.000,"P-22-1",           665,       110.079,       10.0311,            0.,NA,NA,"",   955.781E+03,   957.987E+03,   957.987E+03
C:/temp/Job-22.odb,Step-1,Increment      1: Step Time =    1.000,"P-22-1",           666,       100.109,       9.93982,            0.,NA,NA,"",   951.955E+03,   954.699E+03,   954.699E+03
C:/temp/Job-22.odb,Step-1,Increment      1: Step Time =    1.000,"P-22-1",           667,       90.2438,       9.79217,            0.,NA,NA,"",   956.285E+03,   958.531E+03,   958.531E+03
C:/temp/Job-22.odb,Step-1,Increment      1: Step Time =    1.000,"P-22-1",           668,       80.5508,       9.54843,            0.,NA,NA,"",   966.841E+03,   968.152E+03,   968.152E+03
C:/temp/Job-22.odb,Step-1,Increment      1: Step Time =    1.000,"P-22-1",           669,       71.1359,       9.57699,            0.,NA,NA,"",   982.488E+03,   983.020E+03,   983.020E+03
C:/temp/Job-22.odb,Step-1,Increment      1: Step Time =    1.000,"P-22-1",           670,       62.2655,       11.0773,            0.,NA,NA,"",   1.00502E+06,   1.00496E+06,   1.00496E+06
C:/temp/Job-22.odb,Step-1,Increment      1: Step Time =    1.000,"P-22-1",           671,       190.032,       140.113,            0.,NA,NA,"",   986.438E+03,   1.00301E+06,   1.00301E+06
C:/temp/Job-22.odb,Step-1,Increment      1: Step Time =    1.000,"P-22-1",           672,       189.941,       130.128,            0.,NA,NA,"",   975.848E+03,   1.00069E+06,   1.00069E+06
C:/temp/Job-22.odb,Step-1,Increment      1: Step Time =    1.000,"P-22-1",           673,       189.889,       120.026,            0.,NA,NA,"",   963.882E+03,   996.963E+03,   996.963E+03
C:/temp/Job-22.odb,Step-1,Increment      1: Step Time =    1.000,"P-22-1",           674,       189.878,       110.006,            0.,NA,NA,"",   954.683E+03,   993.800E+03,   993.800E+03
C:/temp/Job-22.odb,Step-1,Increment      1: Step Time =    1.000,"P-22-1",           675,       190.073,       100.047,            0.,NA,NA,"",   950.818E+03,   992.470E+03,   992.470E+03
C:/temp/Job-22.odb,Step-1,Increment      1: Step Time =    1.000,"P-22-1",           676,       190.333,       90.0071,            0.,NA,NA,"",   954.486E+03,   994.239E+03,   994.239E+03
C:/temp/Job-22.odb,Step-1,Increment      1: Step Time =    1.000,"P-22-1",           677,       190.505,       80.2599,            0.,NA,NA,"",   963.263E+03,   997.395E+03,   997.395E+03
C:/temp/Job-22.odb,Step-1,Increment      1: Step Time =    1.000,"P-22-1",           678,       190.372,       70.8856,            0.,NA,NA,"",   973.787E+03,   1.00002E+06,   1.00002E+06
C:/temp/Job-22.odb,Step-1,Increment      1: Step Time =    1.000,"P-22-1",           679,       188.784,       62.0679,            0.,NA,NA,"",   985.760E+03,   1.00291E+06,   1.00291E+06
C:/temp/Job-22.odb,Step-1,Increment      1: Step Time =    1.000,"P-22-1",           680,       99.9673,       190.181,            0.,NA,NA,"",   951.561E+03,   954.206E+03,   954.206E+03
C:/temp/Job-22.odb,Step-1,Increment      1: Step Time =    1.000,"P-22-1",           681,       109.892,       190.361,            0.,NA,NA,"",   954.296E+03,   956.286E+03,   956.286E+03
C:/temp/Job-22.odb,Step-1,Increment      1: Step Time =    1.000,"P-22-1",           682,       119.600,       190.539,            0.,NA,NA,"",   963.166E+03,   964.037E+03,   964.037E+03
C:/temp/Job-22.odb,Step-1,Increment      1: Step Time =    1.000,"P-22-1",           683,       128.969,       190.387,            0.,NA,NA,"",   975.459E+03,   975.344E+03,   975.344E+03
C:/temp/Job-22.odb,Step-1,Increment      1: Step Time =    1.000,"P-22-1",           684,       137.813,       188.754,            0.,NA,NA,"",   990.269E+03,   989.045E+03,   989.045E+03
C:/temp/Job-22.odb,Step-1,Increment      1: Step Time =    1.000,"P-22-1",           685,       9.00176,       60.9799,            0.,NA,NA,"",   844.729E+03,   939.360E+03,   939.360E+03
C:/temp/Job-22.odb,Step-1,Increment      1: Step Time =    1.000,"P-22-1",           686,       9.25398,       70.4925,            0.,NA,NA,"",   815.031E+03,   909.560E+03,   909.560E+03
C:/temp/Job-22.odb,Step-1,Increment      1: Step Time =    1.000,"P-22-1",           687,       10.1420,       80.3084,            0.,NA,NA,"",   789.991E+03,   883.856E+03,   883.856E+03
C:/temp/Job-22.odb,Step-1,Increment      1: Step Time =    1.000,"P-22-1",           688,       10.3387,       90.4459,            0.,NA,NA,"",   771.025E+03,   864.952E+03,   864.952E+03
C:/temp/Job-22.odb,Step-1,Increment      1: Step Time =    1.000,"P-22-1",           689,       9.88681,       100.446,            0.,NA,NA,"",   764.512E+03,   858.815E+03,   858.815E+03
C:/temp/Job-22.odb,Step-1,Increment      1: Step Time =    1.000,"P-22-1",           690,       9.73347,       110.270,            0.,NA,NA,"",   771.846E+03,   866.221E+03,   866.221E+03
C:/temp/Job-22.odb,Step-1,Increment      1: Step Time =    1.000,"P-22-1",           691,       9.58727,       119.970,            0.,NA,NA,"",   790.105E+03,   884.522E+03,   884.522E+03
C:/temp/Job-22.odb,Step-1,Increment      1: Step Time =    1.000,"P-22-1",           692,       9.56122,       129.477,            0.,NA,NA,"",   816.099E+03,   910.366E+03,   910.366E+03
C:/temp/Job-22.odb,Step-1,Increment      1: Step Time =    1.000,"P-22-1",           693,       10.4963,       138.785,            0.,NA,NA,"",   849.545E+03,   942.089E+03,   942.089E+03
C:/temp/Job-22.odb,Step-1,Increment      1: Step Time =    1.000,"P-22-1",           694,       59.9009,       189.868,            0.,NA,NA,"",   1.00546E+06,   1.00532E+06,   1.00532E+06
C:/temp/Job-22.odb,Step-1,Increment      1: Step Time =    1.000,"P-22-1",           695,       69.9309,       189.724,            0.,NA,NA,"",   987.382E+03,   987.703E+03,   987.703E+03
C:/temp/Job-22.odb,Step-1,Increment      1: Step Time =    1.000,"P-22-1",           696,       79.9424,       189.798,            0.,NA,NA,"",   970.323E+03,   971.700E+03,   971.700E+03
C:/temp/Job-22.odb,Step-1,Increment      1: Step Time =    1.000,"P-22-1",           697,       89.9588,       189.977,            0.,NA,NA,"",   957.277E+03,   959.654E+03,   959.654E+03
C:/temp/Job-22.odb,Step-1,Increment      1: Step Time =    1.000,"P-22-1",           698,       122.212,       86.8064,            0.,NA,NA,"",   1.16621E+06,   1.01000E+06,   1.01000E+06
C:/temp/Job-22.odb,Step-1,Increment      1: Step Time =    1.000,"P-22-1",           699,       77.4987,       84.8301,            0.,NA,NA,"",   1.15976E+06,   1.04137E+06,   1.04137E+06
C:/temp/Job-22.odb,Step-1,Increment      1: Step Time =    1.000,"P-22-1",           700,       60.5666,       17.3062,            0.,NA,NA,"",   1.03085E+06,   1.03089E+06,   1.03089E+06
C:/temp/Job-22.odb,Step-1,Increment      1: Step Time =    1.000,"P-22-1",           701,       13.4548,       61.4839,            0.,NA,NA,"",   859.315E+03,   947.575E+03,   947.575E+03
C:/temp/Job-22.odb,Step-1,Increment      1: Step Time =    1.000,"P-22-1",           702,       182.512,       60.1166,            0.,NA,NA,"",   997.426E+03,   1.00751E+06,   1.00751E+06
C:/temp/Job-22.odb,Step-1,Increment      1: Step Time =    1.000,"P-22-1",           703,       59.7745,       184.609,            0.,NA,NA,"",   1.02487E+06,   1.02479E+06,   1.02479E+06
C:/temp/Job-22.odb,Step-1,Increment      1: Step Time =    1.000,"P-22-1",           704,       140.076,       15.2205,            0.,NA,NA,"",   1.00246E+06,   999.975E+03,   999.975E+03
C:/temp/Job-22.odb,Step-1,Increment      1: Step Time =    1.000,"P-22-1",           705,       15.1257,       137.723,            0.,NA,NA,"",   862.592E+03,   948.602E+03,   948.602E+03
C:/temp/Job-22.odb,Step-1,Increment      1: Step Time =    1.000,"P-22-1",           706,       184.900,       140.197,            0.,NA,NA,"",   993.811E+03,   1.00602E+06,   1.00602E+06
C:/temp/Job-22.odb,Step-1,Increment      1: Step Time =    1.000,"P-22-1",           707,       139.706,       182.443,            0.,NA,NA,"",   1.00877E+06,   1.00572E+06,   1.00572E+06
C:/temp/Job-22.odb,Step-1,Increment      1: Step Time =    1.000,"P-22-1",           708,       129.966,       15.3210,            0.,NA,NA,"",   993.979E+03,   993.240E+03,   993.240E+03
C:/temp/Job-22.odb,Step-1,Increment      1: Step Time =    1.000,"P-22-1",           709,       13.8729,       70.5271,            0.,NA,NA,"",   828.119E+03,   917.389E+03,   917.389E+03
C:/temp/Job-22.odb,Step-1,Increment      1: Step Time =    1.000,"P-22-1",           710,       71.7103,       14.1782,            0.,NA,NA,"",   999.650E+03,   1.00063E+06,   1.00063E+06
C:/temp/Job-22.odb,Step-1,Increment      1: Step Time =    1.000,"P-22-1",           711,       14.2315,       129.170,            0.,NA,NA,"",   828.816E+03,   917.637E+03,   917.637E+03
C:/temp/Job-22.odb,Step-1,Increment      1: Step Time =    1.000,"P-22-1",           712,       69.9552,       184.448,            0.,NA,NA,"",   1.00759E+06,   1.00841E+06,   1.00841E+06
C:/temp/Job-22.odb,Step-1,Increment      1: Step Time =    1.000,"P-22-1",           713,       185.821,       71.3537,            0.,NA,NA,"",   978.450E+03,   999.921E+03,   999.921E+03
C:/temp/Job-22.odb,Step-1,Increment      1: Step Time =    1.000,"P-22-1",           714,       184.940,       130.158,            0.,NA,NA,"",   982.122E+03,   1.00134E+06,   1.00134E+06
C:/temp/Job-22.odb,Step-1,Increment      1: Step Time =    1.000,"P-22-1",           715,       128.428,       185.829,            0.,NA,NA,"",   988.432E+03,    988.24E+03,    988.24E+03
C:/temp/Job-22.odb,Step-1,Increment      1: Step Time =    1.000,"P-22-1",           716,       81.8812,       76.3483,            0.,NA,NA,"",   1.30932E+06,   1.26835E+06,   1.26835E+06
C:/temp/Job-22.odb,Step-1,Increment      1: Step Time =    1.000,"P-22-1",           717,       116.902,       78.7933,            0.,NA,NA,"",   1.38700E+06,   1.30091E+06,   1.30091E+06
C:/temp/Job-22.odb,Step-1,Increment      1: Step Time =    1.000,"P-22-1",           718,       78.5046,       112.946,            0.,NA,NA,"",   1.13027E+06,   986.273E+03,   986.273E+03
C:/temp/Job-22.odb,Step-1,Increment      1: Step Time =    1.000,"P-22-1",           719,       122.087,       111.780,            0.,NA,NA,"",   1.09386E+06,   927.124E+03,   927.124E+03
C:/temp/Job-22.odb,Step-1,Increment      1: Step Time =    1.000,"P-22-1",           720,       15.3155,       79.9853,            0.,NA,NA,"",   801.605E+03,   890.826E+03,   890.826E+03
C:/temp/Job-22.odb,Step-1,Increment      1: Step Time =    1.000,"P-22-1",           721,       119.931,       15.2664,            0.,NA,NA,"",   983.008E+03,   984.858E+03,   984.858E+03
C:/temp/Job-22.odb,Step-1,Increment      1: Step Time =    1.000,"P-22-1",           722,       80.7121,       14.4847,            0.,NA,NA,"",   986.169E+03,    988.87E+03,    988.87E+03
C:/temp/Job-22.odb,Step-1,Increment      1: Step Time =    1.000,"P-22-1",           723,       14.4753,       120.039,            0.,NA,NA,"",   800.393E+03,   890.491E+03,   890.491E+03
C:/temp/Job-22.odb,Step-1,Increment      1: Step Time =    1.000,"P-22-1",           724,       184.871,       120.018,            0.,NA,NA,"",   967.383E+03,   993.951E+03,   993.951E+03
C:/temp/Job-22.odb,Step-1,Increment      1: Step Time =    1.000,"P-22-1",           725,       80.0193,       184.606,            0.,NA,NA,"",   990.258E+03,   993.133E+03,   993.133E+03
C:/temp/Job-22.odb,Step-1,Increment      1: Step Time =    1.000,"P-22-1",           726,       185.703,       80.2863,            0.,NA,NA,"",   966.873E+03,   994.687E+03,   994.687E+03
C:/temp/Job-22.odb,Step-1,Increment      1: Step Time =    1.000,"P-22-1",           727,       119.515,       185.745,            0.,NA,NA,"",   979.172E+03,   980.917E+03,   980.917E+03
C:/temp/Job-22.odb,Step-1,Increment      1: Step Time =    1.000,"P-22-1",           728,       77.5825,       91.4101,            0.,NA,NA,"",   852.439E+03,   723.973E+03,   723.973E+03
C:/temp/Job-22.odb,Step-1,Increment      1: Step Time =    1.000,"P-22-1",           729,       15.4932,       91.0897,            0.,NA,NA,"",    776.51E+03,   866.911E+03,   866.911E+03
C:/temp/Job-22.odb,Step-1,Increment      1: Step Time =    1.000,"P-22-1",           730,       110.061,       15.0718,            0.,NA,NA,"",   973.232E+03,   977.668E+03,   977.668E+03
C:/temp/Job-22.odb,Step-1,Increment      1: Step Time =    1.000,"P-22-1",           731,       90.2869,       14.8419,            0.,NA,NA,"",   975.380E+03,   979.986E+03,   979.986E+03
C:/temp/Job-22.odb,Step-1,Increment      1: Step Time =    1.000,"P-22-1",           732,       14.6315,       110.479,            0.,NA,NA,"",   779.022E+03,   869.938E+03,   869.938E+03
C:/temp/Job-22.odb,Step-1,Increment      1: Step Time =    1.000,"P-22-1",           733,       184.732,       109.940,            0.,NA,NA,"",   955.131E+03,   987.302E+03,   987.302E+03
C:/temp/Job-22.odb,Step-1,Increment      1: Step Time =    1.000,"P-22-1",           734,       90.0637,       184.984,            0.,NA,NA,"",   975.857E+03,   980.653E+03,   980.653E+03
C:/temp/Job-22.odb,Step-1,Increment      1: Step Time =    1.000,"P-22-1",           735,       185.559,       89.8914,            0.,NA,NA,"",   955.740E+03,   988.718E+03,   988.718E+03
C:/temp/Job-22.odb,Step-1,Increment      1: Step Time =    1.000,"P-22-1",           736,       109.933,       185.536,            0.,NA,NA,"",   971.309E+03,   975.277E+03,   975.277E+03
C:/temp/Job-22.odb,Step-1,Increment      1: Step Time =    1.000,"P-22-1",           737,       100.108,       14.9669,            0.,NA,NA,"",   970.135E+03,   975.644E+03,   975.644E+03
C:/temp/Job-22.odb,Step-1,Increment      1: Step Time =    1.000,"P-22-1",           738,       14.7851,       100.824,            0.,NA,NA,"",   769.916E+03,   861.163E+03,   861.163E+03
C:/temp/Job-22.odb,Step-1,Increment      1: Step Time =    1.000,"P-22-1",           739,       185.148,       99.9433,            0.,NA,NA,"",   950.029E+03,   984.803E+03,   984.803E+03
C:/temp/Job-22.odb,Step-1,Increment      1: Step Time =    1.000,"P-22-1",           740,       100.050,       185.331,            0.,NA,NA,"",   969.118E+03,   974.350E+03,   974.350E+03
C:/temp/Job-22.odb,Step-1,Increment      1: Step Time =    1.000,"P-22-1",           741,       74.4534,       88.1231,            0.,NA,NA,"",   960.562E+03,   863.869E+03,   863.869E+03
C:/temp/Job-22.odb,Step-1,Increment      1: Step Time =    1.000,"P-22-1",           742,       13.5466,       65.9985,            0.,NA,NA,"",   843.153E+03,   932.087E+03,   932.087E+03
C:/temp/Job-22.odb,Step-1,Increment      1: Step Time =    1.000,"P-22-1",           743,       64.0123,       15.8608,            0.,NA,NA,"",   1.01972E+06,   1.01981E+06,   1.01981E+06
C:/temp/Job-22.odb,Step-1,Increment      1: Step Time =    1.000,"P-22-1",           744,       184.020,       63.6721,            0.,NA,NA,"",   990.719E+03,   1.00466E+06,   1.00466E+06
C:/temp/Job-22.odb,Step-1,Increment      1: Step Time =    1.000,"P-22-1",           745,       64.8704,       184.477,            0.,NA,NA,"",   1.01637E+06,   1.01653E+06,   1.01653E+06
C:/temp/Job-22.odb,Step-1,Increment      1: Step Time =    1.000,"P-22-1",           746,       14.5056,       133.560,            0.,NA,NA,"",   845.859E+03,   933.524E+03,   933.524E+03
C:/temp/Job-22.odb,Step-1,Increment      1: Step Time =    1.000,"P-22-1",           747,       135.015,       15.3000,            0.,NA,NA,"",   998.801E+03,   996.997E+03,   996.997E+03
C:/temp/Job-22.odb,Step-1,Increment      1: Step Time =    1.000,"P-22-1",           748,       184.911,       135.182,            0.,NA,NA,"",   988.543E+03,   1.00410E+06,   1.00410E+06
C:/temp/Job-22.odb,Step-1,Increment      1: Step Time =    1.000,"P-22-1",           749,       136.130,       183.963,            0.,NA,NA,"",   1.00156E+06,   999.569E+03,   999.569E+03
C:/temp/Job-22.odb,Step-1,Increment      1: Step Time =    1.000,"P-22-1",           750,       14.4494,       75.1368,            0.,NA,NA,"",   814.311E+03,   903.699E+03,   903.699E+03
C:/temp/Job-22.odb,Step-1,Increment      1: Step Time =    1.000,"P-22-1",           751,       76.1013,       14.2809,            0.,NA,NA,"",   992.580E+03,   994.333E+03,   994.333E+03
C:/temp/Job-22.odb,Step-1,Increment      1: Step Time =    1.000,"P-22-1",           752,       14.3109,       124.658,            0.,NA,NA,"",   813.549E+03,   903.149E+03,   903.149E+03
C:/temp/Job-22.odb,Step-1,Increment      1: Step Time =    1.000,"P-22-1",           753,       124.903,       15.3160,            0.,NA,NA,"",   988.529E+03,   989.050E+03,   989.050E+03
C:/temp/Job-22.odb,Step-1,Increment      1: Step Time =    1.000,"P-22-1",           754,       184.948,       125.081,            0.,NA,NA,"",   974.843E+03,   997.835E+03,   997.835E+03
C:/temp/Job-22.odb,Step-1,Increment      1: Step Time =    1.000,"P-22-1",           755,       185.817,       75.6935,            0.,NA,NA,"",   972.786E+03,   997.491E+03,   997.491E+03
C:/temp/Job-22.odb,Step-1,Increment      1: Step Time =    1.000,"P-22-1",           756,       75.0253,       184.480,            0.,NA,NA,"",   998.824E+03,   1.00058E+06,   1.00058E+06
C:/temp/Job-22.odb,Step-1,Increment      1: Step Time =    1.000,"P-22-1",           757,       124.093,       185.849,            0.,NA,NA,"",   983.683E+03,   984.375E+03,   984.375E+03
C:/temp/Job-22.odb,Step-1,Increment      1: Step Time =    1.000,"P-22-1",           758,       75.8098,       108.851,            0.,NA,NA,"",   822.063E+03,   723.369E+03,   723.369E+03
C:/temp/Job-22.odb,Step-1,Increment      1: Step Time =    1.000,"P-22-1",           759,       121.175,       106.814,            0.,NA,NA,"",   671.599E+03,   306.918E+03,   306.918E+03
C:/temp/Job-22.odb,Step-1,Increment      1: Step Time =    1.000,"P-22-1",           760,       85.4585,       14.6954,            0.,NA,NA,"",   980.334E+03,   984.043E+03,   984.043E+03
C:/temp/Job-22.odb,Step-1,Increment      1: Step Time =    1.000,"P-22-1",           761,       14.5736,       115.298,            0.,NA,NA,"",   788.661E+03,   879.183E+03,   879.183E+03
C:/temp/Job-22.odb,Step-1,Increment      1: Step Time =    1.000,"P-22-1",           762,       16.7759,       85.5674,            0.,NA,NA,"",   789.367E+03,   877.892E+03,   877.892E+03
C:/temp/Job-22.odb,Step-1,Increment      1: Step Time =    1.000,"P-22-1",           763,       114.993,       15.1769,            0.,NA,NA,"",   977.754E+03,   980.949E+03,   980.949E+03
C:/temp/Job-22.odb,Step-1,Increment      1: Step Time =    1.000,"P-22-1",           764,       185.627,       85.0257,            0.,NA,NA,"",   961.030E+03,   991.692E+03,   991.692E+03
C:/temp/Job-22.odb,Step-1,Increment      1: Step Time =    1.000,"P-22-1",           765,       114.782,       185.641,            0.,NA,NA,"",   974.851E+03,   977.736E+03,   977.736E+03
C:/temp/Job-22.odb,Step-1,Increment      1: Step Time =    1.000,"P-22-1",           766,       184.775,       114.964,            0.,NA,NA,"",   960.501E+03,   990.192E+03,   990.192E+03
C:/temp/Job-22.odb,Step-1,Increment      1: Step Time =    1.000,"P-22-1",           767,       85.0371,       184.779,            0.,NA,NA,"",   982.339E+03,   986.294E+03,   986.294E+03
C:/temp/Job-22.odb,Step-1,Increment      1: Step Time =    1.000,"P-22-1",           768,       95.1738,       14.9325,            0.,NA,NA,"",   971.855E+03,   977.096E+03,   977.096E+03
C:/temp/Job-22.odb,Step-1,Increment      1: Step Time =    1.000,"P-22-1",           769,       14.6781,       105.652,            0.,NA,NA,"",   772.564E+03,   863.749E+03,   863.749E+03
C:/temp/Job-22.odb,Step-1,Increment      1: Step Time =    1.000,"P-22-1",           770,       185.426,       94.8628,            0.,NA,NA,"",   951.600E+03,   986.067E+03,   986.067E+03
C:/temp/Job-22.odb,Step-1,Increment      1: Step Time =    1.000,"P-22-1",           771,       105.011,       185.455,            0.,NA,NA,"",   969.165E+03,   973.970E+03,   973.970E+03
C:/temp/Job-22.odb,Step-1,Increment      1: Step Time =    1.000,"P-22-1",           772,       105.068,       15.0004,            0.,NA,NA,"",   970.467E+03,   975.738E+03,   975.738E+03
C:/temp/Job-22.odb,Step-1,Increment      1: Step Time =    1.000,"P-22-1",           773,       15.0058,       96.0463,            0.,NA,NA,"",   771.039E+03,   862.098E+03,   862.098E+03
C:/temp/Job-22.odb,Step-1,Increment      1: Step Time =    1.000,"P-22-1",           774,       184.862,       104.928,            0.,NA,NA,"",   951.544E+03,   985.453E+03,   985.453E+03
C:/temp/Job-22.odb,Step-1,Increment      1: Step Time =    1.000,"P-22-1",           775,       95.0884,       185.184,            0.,NA,NA,"",   971.346E+03,   976.576E+03,   976.576E+03
C:/temp/Job-22.odb,Step-1,Increment      1: Step Time =    1.000,"P-22-1",           776,       109.982,       20.1031,            0.,NA,NA,"",   988.201E+03,   995.516E+03,   995.516E+03
C:/temp/Job-22.odb,Step-1,Increment      1: Step Time =    1.000,"P-22-1",           777,       20.2897,       92.4754,            0.,NA,NA,"",   780.199E+03,   866.715E+03,   866.715E+03
C:/temp/Job-22.odb,Step-1,Increment      1: Step Time =    1.000,"P-22-1",           778,       179.482,       109.835,            0.,NA,NA,"",   952.015E+03,   978.304E+03,   978.304E+03
C:/temp/Job-22.odb,Step-1,Increment      1: Step Time =    1.000,"P-22-1",           779,       90.3291,       180.044,            0.,NA,NA,"",   991.040E+03,   998.997E+03,   998.997E+03
C:/temp/Job-22.odb,Step-1,Increment      1: Step Time =    1.000,"P-22-1",           780,       100.111,       20.0392,            0.,NA,NA,"",   984.833E+03,   993.974E+03,   993.974E+03
C:/temp/Job-22.odb,Step-1,Increment      1: Step Time =    1.000,"P-22-1",           781,       19.7181,       101.298,            0.,NA,NA,"",   774.814E+03,   862.298E+03,   862.298E+03
C:/temp/Job-22.odb,Step-1,Increment      1: Step Time =    1.000,"P-22-1",           782,       180.359,       99.6395,            0.,NA,NA,"",   945.759E+03,   975.089E+03,   975.089E+03
C:/temp/Job-22.odb,Step-1,Increment      1: Step Time =    1.000,"P-22-1",           783,       100.216,       180.564,            0.,NA,NA,"",   983.232E+03,   991.757E+03,   991.757E+03
C:/temp/Job-22.odb,Step-1,Increment      1: Step Time =    1.000,"P-22-1",           784,       70.7841,       85.6887,            0.,NA,NA,"",   1.00155E+06,   937.967E+03,   937.967E+03
C:/temp/Job-22.odb,Step-1,Increment      1: Step Time =    1.000,"P-22-1",           785,       73.4410,       94.0122,            0.,NA,NA,"",   637.807E+03,   593.931E+03,   593.931E+03
C:/temp/Job-22.odb,Step-1,Increment      1: Step Time =    1.000,"P-22-1",           786,       18.0475,       57.8808,            0.,NA,NA,"",   891.775E+03,   971.318E+03,   971.318E+03
C:/temp/Job-22.odb,Step-1,Increment      1: Step Time =    1.000,"P-22-1",           787,       62.1252,       20.8854,            0.,NA,NA,"",   1.03950E+06,   1.03963E+06,   1.03963E+06
C:/temp/Job-22.odb,Step-1,Increment      1: Step Time =    1.000,"P-22-1",           788,       59.6488,       179.247,            0.,NA,NA,"",   1.04230E+06,   1.04244E+06,   1.04244E+06
C:/temp/Job-22.odb,Step-1,Increment      1: Step Time =    1.000,"P-22-1",           789,       178.953,       61.7128,            0.,NA,NA,"",   1.00172E+06,   1.00929E+06,   1.00929E+06
C:/temp/Job-22.odb,Step-1,Increment      1: Step Time =    1.000,"P-22-1",           790,       140.046,       20.4882,            0.,NA,NA,"",   1.01669E+06,   1.01258E+06,   1.01258E+06
C:/temp/Job-22.odb,Step-1,Increment      1: Step Time =    1.000,"P-22-1",           791,       19.5309,       136.941,            0.,NA,NA,"",   876.548E+03,   955.720E+03,   955.720E+03
C:/temp/Job-22.odb,Step-1,Increment      1: Step Time =    1.000,"P-22-1",           792,       179.705,       140.176,            0.,NA,NA,"",   1.00252E+06,   1.00985E+06,   1.00985E+06
C:/temp/Job-22.odb,Step-1,Increment      1: Step Time =    1.000,"P-22-1",           793,       138.048,       178.828,            0.,NA,NA,"",   1.01743E+06,   1.01355E+06,   1.01355E+06
C:/temp/Job-22.odb,Step-1,Increment      1: Step Time =    1.000,"P-22-1",           794,       71.4485,       111.809,            0.,NA,NA,"",   910.989E+03,   854.573E+03,   854.573E+03
C:/temp/Job-22.odb,Step-1,Increment      1: Step Time =    1.000,"P-22-1",           795,       124.056,       109.194,            0.,NA,NA,"",   850.077E+03,   711.763E+03,   711.763E+03
C:/temp/Job-22.odb,Step-1,Increment      1: Step Time =    1.000,"P-22-1",           796,       68.5267,       18.1134,            0.,NA,NA,"",   1.01970E+06,   1.02045E+06,   1.02045E+06
C:/temp/Job-22.odb,Step-1,Increment      1: Step Time =    1.000,"P-22-1",           797,       18.5238,       70.3914,            0.,NA,NA,"",   842.711E+03,   925.841E+03,   925.841E+03
C:/temp/Job-22.odb,Step-1,Increment      1: Step Time =    1.000,"P-22-1",           798,       180.036,       130.100,            0.,NA,NA,"",   988.559E+03,   1.00223E+06,   1.00223E+06
C:/temp/Job-22.odb,Step-1,Increment      1: Step Time =    1.000,"P-22-1",           799,       131.564,       181.840,            0.,NA,NA,"",   1.00342E+06,   1.00206E+06,   1.00206E+06
C:/temp/Job-22.odb,Step-1,Increment      1: Step Time =    1.000,"P-22-1",           800,       129.839,       20.5102,            0.,NA,NA,"",   1.01011E+06,   1.00881E+06,   1.00881E+06
C:/temp/Job-22.odb,Step-1,Increment      1: Step Time =    1.000,"P-22-1",           801,       18.6959,       128.982,            0.,NA,NA,"",   843.040E+03,   925.655E+03,   925.655E+03
C:/temp/Job-22.odb,Step-1,Increment      1: Step Time =    1.000,"P-22-1",           802,       70.0522,       179.059,            0.,NA,NA,"",   1.02640E+06,   1.02795E+06,   1.02795E+06
C:/temp/Job-22.odb,Step-1,Increment      1: Step Time =    1.000,"P-22-1",           803,       181.899,       68.1600,            0.,NA,NA,"",   988.063E+03,   1.00287E+06,   1.00287E+06
C:/temp/Job-22.odb,Step-1,Increment      1: Step Time =    1.000,"P-22-1",           804,       21.7335,       82.8851,            0.,NA,NA,"",   805.352E+03,   888.330E+03,   888.330E+03
C:/temp/Job-22.odb,Step-1,Increment      1: Step Time =    1.000,"P-22-1",           805,       119.751,       20.5258,            0.,NA,NA,"",   998.799E+03,   1.00198E+06,   1.00198E+06
C:/temp/Job-22.odb,Step-1,Increment      1: Step Time =    1.000,"P-22-1",           806,       179.956,       120.045,            0.,NA,NA,"",   969.584E+03,   990.282E+03,   990.282E+03
C:/temp/Job-22.odb,Step-1,Increment      1: Step Time =    1.000,"P-22-1",           807,       80.2377,       179.289,            0.,NA,NA,"",   1.00787E+06,   1.01278E+06,   1.01278E+06
C:/temp/Job-22.odb,Step-1,Increment      1: Step Time =    1.000,"P-22-1",           808,       90.2590,       25.4668,            0.,NA,NA,"",   1.00662E+06,   1.01835E+06,   1.01835E+06
C:/temp/Job-22.odb,Step-1,Increment      1: Step Time =    1.000,"P-22-1",           809,       24.4873,       110.870,            0.,NA,NA,"",   793.150E+03,    874.87E+03,    874.87E+03
C:/temp/Job-22.odb,Step-1,Increment      1: Step Time =    1.000,"P-22-1",           810,       176.353,       89.7821,            0.,NA,NA,"",   949.521E+03,   972.412E+03,   972.412E+03
C:/temp/Job-22.odb,Step-1,Increment      1: Step Time =    1.000,"P-22-1",           811,       110.100,       176.014,            0.,NA,NA,"",   998.818E+03,   1.00818E+06,   1.00818E+06
C:/temp/Job-22.odb,Step-1,Increment      1: Step Time =    1.000,"P-22-1",           812,       25.0317,       77.8495,            0.,NA,NA,"",   830.961E+03,   907.764E+03,   907.764E+03
C:/temp/Job-22.odb,Step-1,Increment      1: Step Time =    1.000,"P-22-1",           813,       119.517,       26.0319,            0.,NA,NA,"",   1.01499E+06,   1.01987E+06,   1.01987E+06
C:/temp/Job-22.odb,Step-1,Increment      1: Step Time =    1.000,"P-22-1",           814,       80.4082,       24.8323,            0.,NA,NA,"",   1.02083E+06,   1.02758E+06,   1.02758E+06
C:/temp/Job-22.odb,Step-1,Increment      1: Step Time =    1.000,"P-22-1",           815,       24.6260,       120.463,            0.,NA,NA,"",   823.491E+03,   902.123E+03,   902.123E+03
C:/temp/Job-22.odb,Step-1,Increment      1: Step Time =    1.000,"P-22-1",           816,       175.236,       120.237,            0.,NA,NA,"",   971.484E+03,   986.681E+03,   986.681E+03
C:/temp/Job-22.odb,Step-1,Increment      1: Step Time =    1.000,"P-22-1",           817,       80.6784,       173.726,            0.,NA,NA,"",   1.02393E+06,   1.03165E+06,   1.03165E+06
C:/temp/Job-22.odb,Step-1,Increment      1: Step Time =    1.000,"P-22-1",           818,       175.967,       79.8557,            0.,NA,NA,"",   971.477E+03,   987.556E+03,   987.556E+03
C:/temp/Job-22.odb,Step-1,Increment      1: Step Time =    1.000,"P-22-1",           819,       119.822,       176.060,            0.,NA,NA,"",   1.00900E+06,   1.01299E+06,   1.01299E+06
C:/temp/Job-22.odb,Step-1,Increment      1: Step Time =    1.000,"P-22-1",           820,       70.7579,       100.193,            0.,NA,NA,"",   441.053E+03,   462.664E+03,   462.664E+03
C:/temp/Job-22.odb,Step-1,Increment      1: Step Time =    1.000,"P-22-1",           821,       176.050,       98.8762,            0.,NA,NA,"",   940.105E+03,   965.478E+03,   965.478E+03
C:/temp/Job-22.odb,Step-1,Increment      1: Step Time =    1.000,"P-22-1",           822,       100.461,       175.860,            0.,NA,NA,"",   994.781E+03,   1.00719E+06,   1.00719E+06
C:/temp/Job-22.odb,Step-1,Increment      1: Step Time =    1.000,"P-22-1",           823,       100.254,       25.1688,            0.,NA,NA,"",   997.079E+03,   1.01085E+06,   1.01085E+06
C:/temp/Job-22.odb,Step-1,Increment      1: Step Time =    1.000,"P-22-1",           824,       24.8223,       101.811,            0.,NA,NA,"",   778.595E+03,   861.563E+03,   861.563E+03
C:/temp/Job-22.odb,Step-1,Increment      1: Step Time =    1.000,"P-22-1",           825,       139.831,       25.8978,            0.,NA,NA,"",   1.03271E+06,   1.02646E+06,   1.02646E+06
C:/temp/Job-22.odb,Step-1,Increment      1: Step Time =    1.000,"P-22-1",           826,       23.3973,       142.326,            0.,NA,NA,"",   913.886E+03,   983.487E+03,   983.487E+03
C:/temp/Job-22.odb,Step-1,Increment      1: Step Time =    1.000,"P-22-1",           827,       22.4932,       58.5969,            0.,NA,NA,"",   907.252E+03,   978.777E+03,   978.777E+03
C:/temp/Job-22.odb,Step-1,Increment      1: Step Time =    1.000,"P-22-1",           828,       59.4554,       24.3555,            0.,NA,NA,"",   1.05180E+06,   1.05225E+06,   1.05225E+06
C:/temp/Job-22.odb,Step-1,Increment      1: Step Time =    1.000,"P-22-1",           829,       59.6006,       173.779,            0.,NA,NA,"",   1.05792E+06,   1.05830E+06,   1.05830E+06
C:/temp/Job-22.odb,Step-1,Increment      1: Step Time =    1.000,"P-22-1",           830,       175.353,       59.0868,            0.,NA,NA,"",   1.01181E+06,   1.01438E+06,   1.01438E+06
C:/temp/Job-22.odb,Step-1,Increment      1: Step Time =    1.000,"P-22-1",           831,       174.385,       139.892,            0.,NA,NA,"",   1.01298E+06,   1.01479E+06,   1.01479E+06
C:/temp/Job-22.odb,Step-1,Increment      1: Step Time =    1.000,"P-22-1",           832,       140.667,       175.205,            0.,NA,NA,"",   1.02883E+06,   1.02302E+06,   1.02302E+06
C:/temp/Job-22.odb,Step-1,Increment      1: Step Time =    1.000,"P-22-1",           833,       22.3450,       129.148,            0.,NA,NA,"",   855.190E+03,   932.553E+03,   932.553E+03
C:/temp/Job-22.odb,Step-1,Increment      1: Step Time =    1.000,"P-22-1",           834,       177.295,       70.2996,            0.,NA,NA,"",   991.362E+03,   1.00217E+06,   1.00217E+06
C:/temp/Job-22.odb,Step-1,Increment      1: Step Time =    1.000,"P-22-1",           835,       70.7755,       22.9402,            0.,NA,NA,"",   1.03250E+06,   1.03456E+06,   1.03456E+06
C:/temp/Job-22.odb,Step-1,Increment      1: Step Time =    1.000,"P-22-1",           836,       129.297,       177.176,            0.,NA,NA,"",   1.01626E+06,   1.01507E+06,   1.01507E+06
C:/temp/Job-22.odb,Step-1,Increment      1: Step Time =    1.000,"P-22-1",           837,       68.4499,       114.194,            0.,NA,NA,"",   939.362E+03,   900.582E+03,   900.582E+03
C:/temp/Job-22.odb,Step-1,Increment      1: Step Time =    1.000,"P-22-1",           838,       128.960,       111.081,            0.,NA,NA,"",   920.869E+03,   834.932E+03,   834.932E+03
C:/temp/Job-22.odb,Step-1,Increment      1: Step Time =    1.000,"P-22-1",           839,       67.6979,       82.5870,            0.,NA,NA,"",   1.02609E+06,   980.998E+03,   980.998E+03
C:/temp/Job-22.odb,Step-1,Increment      1: Step Time =    1.000,"P-22-1",           840,       13.6416,       57.0723,            0.,NA,NA,"",   876.571E+03,   963.678E+03,   963.678E+03
C:/temp/Job-22.odb,Step-1,Increment      1: Step Time =    1.000,"P-22-1",           841,       55.0269,       15.6064,            0.,NA,NA,"",   1.03438E+06,   1.03415E+06,   1.03415E+06
C:/temp/Job-22.odb,Step-1,Increment      1: Step Time =    1.000,"P-22-1",           842,       185.009,       145.147,            0.,NA,NA,"",   997.742E+03,   1.00707E+06,   1.00707E+06
C:/temp/Job-22.odb,Step-1,Increment      1: Step Time =    1.000,"P-22-1",           843,       145.159,       184.374,            0.,NA,NA,"",   1.00625E+06,   1.00323E+06,   1.00323E+06
C:/temp/Job-22.odb,Step-1,Increment      1: Step Time =    1.000,"P-22-1",           844,       54.7624,       184.833,            0.,NA,NA,"",   1.03292E+06,   1.03306E+06,   1.03306E+06
C:/temp/Job-22.odb,Step-1,Increment      1: Step Time =    1.000,"P-22-1",           845,       184.404,       54.7286,            0.,NA,NA,"",   998.939E+03,   1.00763E+06,   1.00763E+06
C:/temp/Job-22.odb,Step-1,Increment      1: Step Time =    1.000,"P-22-1",           846,       145.064,       15.0417,            0.,NA,NA,"",   1.00477E+06,   1.00199E+06,   1.00199E+06
C:/temp/Job-22.odb,Step-1,Increment      1: Step Time =    1.000,"P-22-1",           847,       14.1364,       147.137,            0.,NA,NA,"",   895.446E+03,   980.678E+03,   980.678E+03
C:/temp/Job-22.odb,Step-1,Increment      1: Step Time =    1.000,"P-22-1",           848,       67.3586,       89.8770,            0.,NA,NA,"",   805.644E+03,   785.852E+03,   785.852E+03
C:/temp/Job-22.odb,Step-1,Increment      1: Step Time =    1.000,"P-22-1",           849,       68.7425,       95.4295,            0.,NA,NA,"",   577.032E+03,   586.928E+03,   586.928E+03
C:/temp/Job-22.odb,Step-1,Increment      1: Step Time =    1.000,"P-22-1",           850,       9.18680,       56.2775,            0.,NA,NA,"",   861.447E+03,   955.607E+03,   955.607E+03
C:/temp/Job-22.odb,Step-1,Increment      1: Step Time =    1.000,"P-22-1",           851,       54.9769,       190.047,            0.,NA,NA,"",   1.01433E+06,   1.01422E+06,   1.01422E+06
C:/temp/Job-22.odb,Step-1,Increment      1: Step Time =    1.000,"P-22-1",           852,       144.934,       9.87117,            0.,NA,NA,"",   993.388E+03,   992.019E+03,   992.019E+03
C:/temp/Job-22.odb,Step-1,Increment      1: Step Time =    1.000,"P-22-1",           853,       190.170,       144.997,            0.,NA,NA,"",   990.435E+03,   1.00344E+06,   1.00344E+06
C:/temp/Job-22.odb,Step-1,Increment      1: Step Time =    1.000,"P-22-1",           854,       95.2514,       25.4104,            0.,NA,NA,"",   1.00058E+06,   1.01402E+06,   1.01402E+06
C:/temp/Job-22.odb,Step-1,Increment      1: Step Time =    1.000,"P-22-1",           855,       24.4757,       106.331,            0.,NA,NA,"",   782.954E+03,   865.680E+03,   865.680E+03
C:/temp/Job-22.odb,Step-1,Increment      1: Step Time =    1.000,"P-22-1",           856,       176.650,       94.2348,            0.,NA,NA,"",   944.073E+03,   969.186E+03,   969.186E+03
C:/temp/Job-22.odb,Step-1,Increment      1: Step Time =    1.000,"P-22-1",           857,       105.223,       176.075,            0.,NA,NA,"",   995.103E+03,   1.00666E+06,   1.00666E+06
C:/temp/Job-22.odb,Step-1,Increment      1: Step Time =    1.000,"P-22-1",           858,       27.0052,       84.4730,            0.,NA,NA,"",   808.045E+03,   885.834E+03,   885.834E+03
C:/temp/Job-22.odb,Step-1,Increment      1: Step Time =    1.000,"P-22-1",           859,       114.473,       25.7307,            0.,NA,NA,"",   1.00744E+06,   1.01577E+06,   1.01577E+06
C:/temp/Job-22.odb,Step-1,Increment      1: Step Time =    1.000,"P-22-1",           860,       85.3086,       25.2901,            0.,NA,NA,"",   1.01368E+06,   1.02305E+06,   1.02305E+06
C:/temp/Job-22.odb,Step-1,Increment      1: Step Time =    1.000,"P-22-1",           861,       24.7567,       115.650,            0.,NA,NA,"",   807.203E+03,   887.480E+03,   887.480E+03
C:/temp/Job-22.odb,Step-1,Increment      1: Step Time =    1.000,"P-22-1",           862,       174.522,       115.203,            0.,NA,NA,"",   958.909E+03,   977.182E+03,   977.182E+03
C:/temp/Job-22.odb,Step-1,Increment      1: Step Time =    1.000,"P-22-1",           863,       175.758,       84.8812,            0.,NA,NA,"",   959.764E+03,   979.260E+03,   979.260E+03
C:/temp/Job-22.odb,Step-1,Increment      1: Step Time =    1.000,"P-22-1",           864,       85.7221,       174.588,            0.,NA,NA,"",   1.01260E+06,   1.02275E+06,   1.02275E+06
C:/temp/Job-22.odb,Step-1,Increment      1: Step Time =    1.000,"P-22-1",           865,       114.963,       175.940,            0.,NA,NA,"",   1.00387E+06,   1.01054E+06,   1.01054E+06
C:/temp/Job-22.odb,Step-1,Increment      1: Step Time =    1.000,"P-22-1",           866,       134.716,       25.7602,            0.,NA,NA,"",   1.03020E+06,   1.02573E+06,   1.02573E+06
C:/temp/Job-22.odb,Step-1,Increment      1: Step Time =    1.000,"P-22-1",           867,       28.3500,       136.388,            0.,NA,NA,"",   909.557E+03,   972.770E+03,   972.770E+03
C:/temp/Job-22.odb,Step-1,Increment      1: Step Time =    1.000,"P-22-1",           868,       26.4768,       62.9101,            0.,NA,NA,"",   903.869E+03,   970.247E+03,   970.247E+03
C:/temp/Job-22.odb,Step-1,Increment      1: Step Time =    1.000,"P-22-1",           869,       64.5794,       25.9618,            0.,NA,NA,"",   1.05069E+06,   1.05136E+06,   1.05136E+06
C:/temp/Job-22.odb,Step-1,Increment      1: Step Time =    1.000,"P-22-1",           870,       173.955,       64.2096,            0.,NA,NA,"",   1.00771E+06,   1.01109E+06,   1.01109E+06
C:/temp/Job-22.odb,Step-1,Increment      1: Step Time =    1.000,"P-22-1",           871,       64.8858,       173.723,            0.,NA,NA,"",   1.05160E+06,   1.05234E+06,   1.05234E+06
C:/temp/Job-22.odb,Step-1,Increment      1: Step Time =    1.000,"P-22-1",           872,       174.839,       134.825,            0.,NA,NA,"",   1.00468E+06,   1.00952E+06,   1.00952E+06
C:/temp/Job-22.odb,Step-1,Increment      1: Step Time =    1.000,"P-22-1",           873,       135.394,       173.723,            0.,NA,NA,"",   1.03177E+06,   1.02702E+06,   1.02702E+06
C:/temp/Job-22.odb,Step-1,Increment      1: Step Time =    1.000,"P-22-1",           874,       68.7834,       118.128,            0.,NA,NA,"",   1.03185E+06,   983.479E+03,   983.479E+03
C:/temp/Job-22.odb,Step-1,Increment      1: Step Time =    1.000,"P-22-1",           875,       132.677,       116.008,            0.,NA,NA,"",   1.04628E+06,   970.885E+03,   970.885E+03
C:/temp/Job-22.odb,Step-1,Increment      1: Step Time =    1.000,"P-22-1",           876,       70.2243,       76.4484,            0.,NA,NA,"",   1.14631E+06,   1.09548E+06,   1.09548E+06
C:/temp/Job-22.odb,Step-1,Increment      1: Step Time =    1.000,"P-22-1",           877,       75.5484,       24.0607,            0.,NA,NA,"",   1.02758E+06,   1.03177E+06,   1.03177E+06
C:/temp/Job-22.odb,Step-1,Increment      1: Step Time =    1.000,"P-22-1",           878,       124.622,       176.455,            0.,NA,NA,"",   1.01363E+06,   1.01486E+06,   1.01486E+06
C:/temp/Job-22.odb,Step-1,Increment      1: Step Time =    1.000,"P-22-1",           879,       24.6967,       125.854,            0.,NA,NA,"",   847.265E+03,   922.804E+03,   922.804E+03
C:/temp/Job-22.odb,Step-1,Increment      1: Step Time =    1.000,"P-22-1",           880,       176.516,       74.9545,            0.,NA,NA,"",   982.718E+03,   995.750E+03,   995.750E+03
C:/temp/Job-22.odb,Step-1,Increment      1: Step Time =    1.000,"P-22-1",           881,       134.085,       109.160,            0.,NA,NA,"",   815.014E+03,   784.133E+03,   784.133E+03
C:/temp/Job-22.odb,Step-1,Increment      1: Step Time =    1.000,"P-22-1",           882,       132.341,       104.221,            0.,NA,NA,"",   643.745E+03,   637.246E+03,   637.246E+03
C:/temp/Job-22.odb,Step-1,Increment      1: Step Time =    1.000,"P-22-1",           883,       129.652,       25.6661,            0.,NA,NA,"",   1.02621E+06,   1.02413E+06,   1.02413E+06
C:/temp/Job-22.odb,Step-1,Increment      1: Step Time =    1.000,"P-22-1",           884,       70.1766,       173.604,            0.,NA,NA,"",   1.04396E+06,   1.04624E+06,   1.04624E+06
C:/temp/Job-22.odb,Step-1,Increment      1: Step Time =    1.000,"P-22-1",           885,       25.7713,       65.8759,            0.,NA,NA,"",   887.962E+03,   957.395E+03,   957.395E+03
C:/temp/Job-22.odb,Step-1,Increment      1: Step Time =    1.000,"P-22-1",           886,       175.268,       129.876,            0.,NA,NA,"",   994.660E+03,   1.00306E+06,   1.00306E+06
C:/temp/Job-22.odb,Step-1,Increment      1: Step Time =    1.000,"P-22-1",           887,       174.199,       109.865,            0.,NA,NA,"",   946.379E+03,   967.591E+03,   967.591E+03
C:/temp/Job-22.odb,Step-1,Increment      1: Step Time =    1.000,"P-22-1",           888,       90.8024,       175.242,            0.,NA,NA,"",   1.00307E+06,   1.01481E+06,   1.01481E+06
C:/temp/Job-22.odb,Step-1,Increment      1: Step Time =    1.000,"P-22-1",           889,       24.8849,       93.3753,            0.,NA,NA,"",   782.631E+03,   864.979E+03,   864.979E+03
C:/temp/Job-22.odb,Step-1,Increment      1: Step Time =    1.000,"P-22-1",           890,       109.780,       25.0209,            0.,NA,NA,"",   1.00073E+06,   1.01144E+06,   1.01144E+06
C:/temp/Job-22.odb,Step-1,Increment      1: Step Time =    1.000,"P-22-1",           891,       90.2508,       31.1564,            0.,NA,NA,"",   1.01978E+06,   1.03637E+06,   1.03637E+06
C:/temp/Job-22.odb,Step-1,Increment      1: Step Time =    1.000,"P-22-1",           892,       29.2248,       110.693,            0.,NA,NA,"",   796.774E+03,   873.534E+03,   873.534E+03
C:/temp/Job-22.odb,Step-1,Increment      1: Step Time =    1.000,"P-22-1",           893,       172.194,       90.5044,            0.,NA,NA,"",   941.539E+03,   961.333E+03,   961.333E+03
C:/temp/Job-22.odb,Step-1,Increment      1: Step Time =    1.000,"P-22-1",           894,       110.039,       171.419,            0.,NA,NA,"",   1.00996E+06,   1.02256E+06,   1.02256E+06
C:/temp/Job-22.odb,Step-1,Increment      1: Step Time =    1.000,"P-22-1",           895,       29.4339,       77.3347,            0.,NA,NA,"",   845.185E+03,   915.071E+03,   915.071E+03
C:/temp/Job-22.odb,Step-1,Increment      1: Step Time =    1.000,"P-22-1",           896,       119.583,       32.1542,            0.,NA,NA,"",   1.03431E+06,   1.04063E+06,   1.04063E+06
C:/temp/Job-22.odb,Step-1,Increment      1: Step Time =    1.000,"P-22-1",           897,       79.8154,       30.2779,            0.,NA,NA,"",   1.03779E+06,   1.04662E+06,   1.04662E+06
C:/temp/Job-22.odb,Step-1,Increment      1: Step Time =    1.000,"P-22-1",           898,       29.6805,       120.645,            0.,NA,NA,"",   837.740E+03,   908.867E+03,   908.867E+03
C:/temp/Job-22.odb,Step-1,Increment      1: Step Time =    1.000,"P-22-1",           899,       170.992,       120.879,            0.,NA,NA,"",   974.285E+03,   984.481E+03,   984.481E+03
C:/temp/Job-22.odb,Step-1,Increment      1: Step Time =    1.000,"P-22-1",           900,       171.252,       79.1899,            0.,NA,NA,"",   975.214E+03,   985.431E+03,   985.431E+03
C:/temp/Job-22.odb,Step-1,Increment      1: Step Time =    1.000,"P-22-1",           901,       120.179,       171.233,            0.,NA,NA,"",   1.02392E+06,   1.02895E+06,   1.02895E+06
C:/temp/Job-22.odb,Step-1,Increment      1: Step Time =    1.000,"P-22-1",           902,       28.9025,       141.324,            0.,NA,NA,"",   934.623E+03,   993.393E+03,   993.393E+03
C:/temp/Job-22.odb,Step-1,Increment      1: Step Time =    1.000,"P-22-1",           903,       139.345,       31.4233,            0.,NA,NA,"",   1.05021E+06,   1.04132E+06,   1.04132E+06
C:/temp/Job-22.odb,Step-1,Increment      1: Step Time =    1.000,"P-22-1",           904,       58.5201,       29.7672,            0.,NA,NA,"",   1.06634E+06,   1.06712E+06,   1.06712E+06
C:/temp/Job-22.odb,Step-1,Increment      1: Step Time =    1.000,"P-22-1",           905,       31.5908,       60.0788,            0.,NA,NA,"",   940.526E+03,   994.482E+03,   994.482E+03
C:/temp/Job-22.odb,Step-1,Increment      1: Step Time =    1.000,"P-22-1",           906,       59.7025,       168.361,            0.,NA,NA,"",   1.07047E+06,   1.07117E+06,   1.07117E+06
C:/temp/Job-22.odb,Step-1,Increment      1: Step Time =    1.000,"P-22-1",           907,       170.051,       58.3222,            0.,NA,NA,"",   1.02554E+06,   1.02182E+06,   1.02182E+06
C:/temp/Job-22.odb,Step-1,Increment      1: Step Time =    1.000,"P-22-1",           908,       169.018,       139.221,            0.,NA,NA,"",   1.02476E+06,   1.02061E+06,   1.02061E+06
C:/temp/Job-22.odb,Step-1,Increment      1: Step Time =    1.000,"P-22-1",           909,       141.438,       169.876,            0.,NA,NA,"",   1.04569E+06,   1.03697E+06,   1.03697E+06
C:/temp/Job-22.odb,Step-1,Increment      1: Step Time =    1.000,"P-22-1",           910,       71.7518,       121.072,            0.,NA,NA,"",   1.15213E+06,   1.08544E+06,   1.08544E+06
C:/temp/Job-22.odb,Step-1,Increment      1: Step Time =    1.000,"P-22-1",           911,       129.538,       118.886,            0.,NA,NA,"",   1.15314E+06,   1.05655E+06,   1.05655E+06
C:/temp/Job-22.odb,Step-1,Increment      1: Step Time =    1.000,"P-22-1",           912,       75.4185,       78.4135,            0.,NA,NA,"",   1.21805E+06,   1.14290E+06,   1.14290E+06
C:/temp/Job-22.odb,Step-1,Increment      1: Step Time =    1.000,"P-22-1",           913,       65.6203,       78.8558,            0.,NA,NA,"",   1.05386E+06,   1.02052E+06,   1.02052E+06
C:/temp/Job-22.odb,Step-1,Increment      1: Step Time =    1.000,"P-22-1",           914,       154.588,       9.39690,            0.,NA,NA,"",   998.851E+03,   997.587E+03,   997.587E+03
C:/temp/Job-22.odb,Step-1,Increment      1: Step Time =    1.000,"P-22-1",           915,       190.595,       154.606,            0.,NA,NA,"",   996.489E+03,   1.00356E+06,   1.00356E+06
C:/temp/Job-22.odb,Step-1,Increment      1: Step Time =    1.000,"P-22-1",           916,       45.3199,       190.516,            0.,NA,NA,"",   1.03361E+06,   1.03442E+06,   1.03442E+06
C:/temp/Job-22.odb,Step-1,Increment      1: Step Time =    1.000,"P-22-1",           917,       10.6075,       46.7295,            0.,NA,NA,"",   902.492E+03,   992.905E+03,   992.905E+03
C:/temp/Job-22.odb,Step-1,Increment      1: Step Time =    1.000,"P-22-1",           918,       69.5467,       27.3937,            0.,NA,NA,"",   1.04811E+06,   1.05026E+06,   1.05026E+06
C:/temp/Job-22.odb,Step-1,Increment      1: Step Time =    1.000,"P-22-1",           919,       130.370,       172.625,            0.,NA,NA,"",   1.03169E+06,   1.02915E+06,   1.02915E+06
C:/temp/Job-22.odb,Step-1,Increment      1: Step Time =    1.000,"P-22-1",           920,       28.2292,       130.786,            0.,NA,NA,"",   883.105E+03,   949.751E+03,   949.751E+03
C:/temp/Job-22.odb,Step-1,Increment      1: Step Time =    1.000,"P-22-1",           921,       172.895,       69.1004,            0.,NA,NA,"",   1.00019E+06,   1.00516E+06,   1.00516E+06
C:/temp/Job-22.odb,Step-1,Increment      1: Step Time =    1.000,"P-22-1",           922,       59.6664,       87.0489,            0.,NA,NA,"",   842.668E+03,   854.619E+03,   854.619E+03
C:/temp/Job-22.odb,Step-1,Increment      1: Step Time =    1.000,"P-22-1",           923,       154.420,       13.8431,            0.,NA,NA,"",   1.00579E+06,   1.00336E+06,   1.00336E+06
C:/temp/Job-22.odb,Step-1,Increment      1: Step Time =    1.000,"P-22-1",           924,       15.1920,       48.7356,            0.,NA,NA,"",   916.642E+03,   998.272E+03,   998.272E+03
C:/temp/Job-22.odb,Step-1,Increment      1: Step Time =    1.000,"P-22-1",           925,       186.121,       154.444,            0.,NA,NA,"",   1.00157E+06,   1.00687E+06,   1.00687E+06
C:/temp/Job-22.odb,Step-1,Increment      1: Step Time =    1.000,"P-22-1",           926,       45.4410,       186.041,            0.,NA,NA,"",   1.04726E+06,   1.04919E+06,   1.04919E+06
C:/temp/Job-22.odb,Step-1,Increment      1: Step Time =    1.000,"P-22-1",           927,       24.1709,       73.9333,            0.,NA,NA,"",   845.973E+03,   922.229E+03,   922.229E+03
C:/temp/Job-22.odb,Step-1,Increment      1: Step Time =    1.000,"P-22-1",           928,       175.525,       125.008,            0.,NA,NA,"",   983.704E+03,   995.606E+03,   995.606E+03
C:/temp/Job-22.odb,Step-1,Increment      1: Step Time =    1.000,"P-22-1",           929,       124.559,       25.7336,            0.,NA,NA,"",   1.02128E+06,   1.02244E+06,   1.02244E+06
C:/temp/Job-22.odb,Step-1,Increment      1: Step Time =    1.000,"P-22-1",           930,       75.4932,       173.517,            0.,NA,NA,"",   1.03468E+06,   1.03950E+06,   1.03950E+06
C:/temp/Job-22.odb,Step-1,Increment      1: Step Time =    1.000,"P-22-1",           931,       173.755,       103.785,            0.,NA,NA,"",   935.938E+03,   959.311E+03,   959.311E+03
C:/temp/Job-22.odb,Step-1,Increment      1: Step Time =    1.000,"P-22-1",           932,       95.7008,       175.601,            0.,NA,NA,"",   997.367E+03,   1.00976E+06,   1.00976E+06
C:/temp/Job-22.odb,Step-1,Increment      1: Step Time =    1.000,"P-22-1",           933,       25.1264,       97.4427,            0.,NA,NA,"",   778.902E+03,   861.634E+03,   861.634E+03
C:/temp/Job-22.odb,Step-1,Increment      1: Step Time =    1.000,"P-22-1",           934,       104.981,       24.8052,            0.,NA,NA,"",   997.108E+03,   1.00957E+06,   1.00957E+06
C:/temp/Job-22.odb,Step-1,Increment      1: Step Time =    1.000,"P-22-1",           935,       25.3407,       147.423,            0.,NA,NA,"",   945.311E+03,   1.00774E+06,   1.00774E+06
C:/temp/Job-22.odb,Step-1,Increment      1: Step Time =    1.000,"P-22-1",           936,       144.850,       25.8909,            0.,NA,NA,"",   1.03293E+06,   1.02578E+06,   1.02578E+06
C:/temp/Job-22.odb,Step-1,Increment      1: Step Time =    1.000,"P-22-1",           937,       54.2803,       24.6367,            0.,NA,NA,"",   1.05807E+06,   1.05939E+06,   1.05939E+06
C:/temp/Job-22.odb,Step-1,Increment      1: Step Time =    1.000,"P-22-1",           938,       27.3505,       55.6151,            0.,NA,NA,"",   941.737E+03,   1.00148E+06,   1.00148E+06
C:/temp/Job-22.odb,Step-1,Increment      1: Step Time =    1.000,"P-22-1",           939,       174.355,       54.1829,            0.,NA,NA,"",   1.01846E+06,   1.01816E+06,   1.01816E+06
C:/temp/Job-22.odb,Step-1,Increment      1: Step Time =    1.000,"P-22-1",           940,       54.5451,       173.866,            0.,NA,NA,"",   1.06244E+06,   1.06385E+06,   1.06385E+06
C:/temp/Job-22.odb,Step-1,Increment      1: Step Time =    1.000,"P-22-1",           941,       145.654,       174.262,            0.,NA,NA,"",   1.03155E+06,   1.02450E+06,   1.02450E+06
C:/temp/Job-22.odb,Step-1,Increment      1: Step Time =    1.000,"P-22-1",           942,       174.130,       144.883,            0.,NA,NA,"",   1.01842E+06,   1.01810E+06,   1.01810E+06
C:/temp/Job-22.odb,Step-1,Increment      1: Step Time =    1.000,"P-22-1",           943,       68.6877,       124.962,            0.,NA,NA,"",   1.14302E+06,   1.09712E+06,   1.09712E+06
C:/temp/Job-22.odb,Step-1,Increment      1: Step Time =    1.000,"P-22-1",           944,       78.1911,       119.601,            0.,NA,NA,"",   1.27916E+06,   1.17801E+06,   1.17801E+06
C:/temp/Job-22.odb,Step-1,Increment      1: Step Time =    1.000,"P-22-1",           945,       132.875,       123.942,            0.,NA,NA,"",   1.16007E+06,   1.08601E+06,   1.08601E+06
C:/temp/Job-22.odb,Step-1,Increment      1: Step Time =    1.000,"P-22-1",           946,       123.464,       119.679,            0.,NA,NA,"",   1.26897E+06,   1.15737E+06,   1.15737E+06
C:/temp/Job-22.odb,Step-1,Increment      1: Step Time =    1.000,"P-22-1",           947,       77.4051,       74.2598,            0.,NA,NA,"",   1.26554E+06,   1.21195E+06,   1.21195E+06
C:/temp/Job-22.odb,Step-1,Increment      1: Step Time =    1.000,"P-22-1",           948,       56.8372,       93.2650,            0.,NA,NA,"",   718.504E+03,   762.378E+03,   762.378E+03
C:/temp/Job-22.odb,Step-1,Increment      1: Step Time =    1.000,"P-22-1",           949,       140.735,       111.872,            0.,NA,NA,"",   885.853E+03,   865.658E+03,   865.658E+03
C:/temp/Job-22.odb,Step-1,Increment      1: Step Time =    1.000,"P-22-1",           950,       49.6785,       22.8976,            0.,NA,NA,"",   1.05972E+06,   1.06257E+06,   1.06257E+06
C:/temp/Job-22.odb,Step-1,Increment      1: Step Time =    1.000,"P-22-1",           951,       23.5345,       48.5150,            0.,NA,NA,"",   954.894E+03,   1.01856E+06,   1.01856E+06
C:/temp/Job-22.odb,Step-1,Increment      1: Step Time =    1.000,"P-22-1",           952,       152.220,       181.063,            0.,NA,NA,"",   1.01552E+06,   1.01131E+06,   1.01131E+06
C:/temp/Job-22.odb,Step-1,Increment      1: Step Time =    1.000,"P-22-1",           953,       174.076,       149.737,            0.,NA,NA,"",   1.02176E+06,   1.01992E+06,   1.01992E+06
C:/temp/Job-22.odb,Step-1,Increment      1: Step Time =    1.000,"P-22-1",           954,       26.9447,       152.280,            0.,NA,NA,"",   973.198E+03,   1.02885E+06,   1.02885E+06
C:/temp/Job-22.odb,Step-1,Increment      1: Step Time =    1.000,"P-22-1",           955,       149.731,       25.7237,            0.,NA,NA,"",   1.03163E+06,   1.02433E+06,   1.02433E+06
C:/temp/Job-22.odb,Step-1,Increment      1: Step Time =    1.000,"P-22-1",           956,       181.075,       47.7013,            0.,NA,NA,"",   1.00867E+06,   1.01172E+06,   1.01172E+06
C:/temp/Job-22.odb,Step-1,Increment      1: Step Time =    1.000,"P-22-1",           957,       49.8494,       174.093,            0.,NA,NA,"",   1.06508E+06,   1.06890E+06,   1.06890E+06
C:/temp/Job-22.odb,Step-1,Increment      1: Step Time =    1.000,"P-22-1",           958,       20.2296,       78.8772,            0.,NA,NA,"",   815.458E+03,   899.018E+03,   899.018E+03
C:/temp/Job-22.odb,Step-1,Increment      1: Step Time =    1.000,"P-22-1",           959,       123.093,       102.578,            0.,NA,NA,"",   393.207E+03,   323.024E+03,   323.024E+03
C:/temp/Job-22.odb,Step-1,Increment      1: Step Time =    1.000,"P-22-1",           960,       130.239,       99.3874,            0.,NA,NA,"",   528.028E+03,   529.665E+03,   529.665E+03
C:/temp/Job-22.odb,Step-1,Increment      1: Step Time =    1.000,"P-22-1",           961,       28.5526,       68.8313,            0.,NA,NA,"",   885.615E+03,   951.555E+03,   951.555E+03
C:/temp/Job-22.odb,Step-1,Increment      1: Step Time =    1.000,"P-22-1",           962,       170.631,       129.329,            0.,NA,NA,"",   1.00012E+06,   1.00336E+06,   1.00336E+06
C:/temp/Job-22.odb,Step-1,Increment      1: Step Time =    1.000,"P-22-1",           963,       129.358,       30.7439,            0.,NA,NA,"",   1.04241E+06,   1.03953E+06,   1.03953E+06
C:/temp/Job-22.odb,Step-1,Increment      1: Step Time =    1.000,"P-22-1",           964,       70.2083,       168.177,            0.,NA,NA,"",   1.06034E+06,   1.06310E+06,   1.06310E+06
C:/temp/Job-22.odb,Step-1,Increment      1: Step Time =    1.000,"P-22-1",           965,       169.139,       110.326,            0.,NA,NA,"",   938.552E+03,   955.422E+03,   955.422E+03
C:/temp/Job-22.odb,Step-1,Increment      1: Step Time =    1.000,"P-22-1",           966,       91.4449,       170.730,            0.,NA,NA,"",   1.01243E+06,   1.02833E+06,   1.02833E+06
C:/temp/Job-22.odb,Step-1,Increment      1: Step Time =    1.000,"P-22-1",           967,       27.4939,       88.8498,            0.,NA,NA,"",   793.139E+03,   872.229E+03,   872.229E+03
C:/temp/Job-22.odb,Step-1,Increment      1: Step Time =    1.000,"P-22-1",           968,       109.163,       29.4505,            0.,NA,NA,"",   1.01047E+06,   1.02477E+06,   1.02477E+06
C:/temp/Job-22.odb,Step-1,Increment      1: Step Time =    1.000,"P-22-1",           969,       64.6957,       122.009,            0.,NA,NA,"",   1.05087E+06,   1.02096E+06,   1.02096E+06
C:/temp/Job-22.odb,Step-1,Increment      1: Step Time =    1.000,"P-22-1",           970,       80.6263,       116.205,            0.,NA,NA,"",   1.30654E+06,   1.17520E+06,   1.17520E+06
C:/temp/Job-22.odb,Step-1,Increment      1: Step Time =    1.000,"P-22-1",           971,       135.962,       119.981,            0.,NA,NA,"",   1.08131E+06,   1.01868E+06,   1.01868E+06
C:/temp/Job-22.odb,Step-1,Increment      1: Step Time =    1.000,"P-22-1",           972,       122.970,       123.958,            0.,NA,NA,"",   1.31003E+06,   1.21854E+06,   1.21854E+06
C:/temp/Job-22.odb,Step-1,Increment      1: Step Time =    1.000,"P-22-1",           973,       58.5320,       98.1276,            0.,NA,NA,"",   658.978E+03,   708.508E+03,   708.508E+03
C:/temp/Job-22.odb,Step-1,Increment      1: Step Time =    1.000,"P-22-1",           974,       54.7430,       88.3595,            0.,NA,NA,"",   799.001E+03,   833.720E+03,   833.720E+03
C:/temp/Job-22.odb,Step-1,Increment      1: Step Time =    1.000,"P-22-1",           975,       143.111,       106.045,            0.,NA,NA,"",    793.88E+03,   800.203E+03,   800.203E+03
C:/temp/Job-22.odb,Step-1,Increment      1: Step Time =    1.000,"P-22-1",           976,       170.311,       99.0203,            0.,NA,NA,"",   927.511E+03,    948.88E+03,    948.88E+03
C:/temp/Job-22.odb,Step-1,Increment      1: Step Time =    1.000,"P-22-1",           977,       100.872,       171.111,            0.,NA,NA,"",   1.00429E+06,   1.02140E+06,   1.02140E+06
C:/temp/Job-22.odb,Step-1,Increment      1: Step Time =    1.000,"P-22-1",           978,       29.9531,       102.611,            0.,NA,NA,"",   781.367E+03,   859.401E+03,   859.401E+03
C:/temp/Job-22.odb,Step-1,Increment      1: Step Time =    1.000,"P-22-1",           979,       100.926,       30.5668,            0.,NA,NA,"",   1.00750E+06,   1.02700E+06,   1.02700E+06
C:/temp/Job-22.odb,Step-1,Increment      1: Step Time =    1.000,"P-22-1",           980,       122.134,       99.9400,            0.,NA,NA,"",   290.035E+03,   231.465E+03,   231.465E+03
C:/temp/Job-22.odb,Step-1,Increment      1: Step Time =    1.000,"P-22-1",           981,       138.879,       117.710,            0.,NA,NA,"",   1.01984E+06,   971.099E+03,   971.099E+03
C:/temp/Job-22.odb,Step-1,Increment      1: Step Time =    1.000,"P-22-1",           982,       59.3232,       121.370,            0.,NA,NA,"",   984.169E+03,   979.184E+03,   979.184E+03
C:/temp/Job-22.odb,Step-1,Increment      1: Step Time =    1.000,"P-22-1",           983,       118.247,       123.079,            0.,NA,NA,"",   1.37076E+06,   1.30002E+06,   1.30002E+06
C:/temp/Job-22.odb,Step-1,Increment      1: Step Time =    1.000,"P-22-1",           984,       118.190,       127.816,            0.,NA,NA,"",   1.31465E+06,   1.28039E+06,   1.28039E+06
C:/temp/Job-22.odb,Step-1,Increment      1: Step Time =    1.000,"P-22-1",           985,       19.3183,       50.5958,            0.,NA,NA,"",   927.832E+03,   1.00147E+06,   1.00147E+06
C:/temp/Job-22.odb,Step-1,Increment      1: Step Time =    1.000,"P-22-1",           986,       48.3324,       27.2592,            0.,NA,NA,"",   1.06633E+06,   1.07124E+06,   1.07124E+06
C:/temp/Job-22.odb,Step-1,Increment      1: Step Time =    1.000,"P-22-1",           987,       151.070,       177.137,            0.,NA,NA,"",   1.02412E+06,   1.01831E+06,   1.01831E+06
C:/temp/Job-22.odb,Step-1,Increment      1: Step Time =    1.000,"P-22-1",           988,       179.755,       150.964,            0.,NA,NA,"",   1.00996E+06,   1.01272E+06,   1.01272E+06
C:/temp/Job-22.odb,Step-1,Increment      1: Step Time =    1.000,"P-22-1",           989,       148.385,       182.185,            0.,NA,NA,"",   1.01261E+06,   1.00876E+06,   1.00876E+06
C:/temp/Job-22.odb,Step-1,Increment      1: Step Time =    1.000,"P-22-1",           990,       150.923,       20.1641,            0.,NA,NA,"",   1.01755E+06,   1.01289E+06,   1.01289E+06
C:/temp/Job-22.odb,Step-1,Increment      1: Step Time =    1.000,"P-22-1",           991,       22.3149,       153.505,            0.,NA,NA,"",   957.116E+03,   1.02255E+06,   1.02255E+06
C:/temp/Job-22.odb,Step-1,Increment      1: Step Time =    1.000,"P-22-1",           992,       48.8086,       179.697,            0.,NA,NA,"",   1.05631E+06,   1.05888E+06,   1.05888E+06
C:/temp/Job-22.odb,Step-1,Increment      1: Step Time =    1.000,"P-22-1",           993,       182.211,       51.5165,            0.,NA,NA,"",   1.00487E+06,   1.01017E+06,   1.01017E+06
C:/temp/Job-22.odb,Step-1,Increment      1: Step Time =    1.000,"P-22-1",           994,       177.161,       48.8304,            0.,NA,NA,"",   1.01516E+06,   1.01578E+06,   1.01578E+06
C:/temp/Job-22.odb,Step-1,Increment      1: Step Time =    1.000,"P-22-1",           995,       63.7039,       96.8396,            0.,NA,NA,"",   604.408E+03,   642.882E+03,   642.882E+03
C:/temp/Job-22.odb,Step-1,Increment      1: Step Time =    1.000,"P-22-1",           996,       141.191,       102.066,            0.,NA,NA,"",   737.455E+03,   751.024E+03,   751.024E+03
C:/temp/Job-22.odb,Step-1,Increment      1: Step Time =    1.000,"P-22-1",           997,       145.259,       110.233,            0.,NA,NA,"",   865.745E+03,   861.840E+03,   861.840E+03
C:/temp/Job-22.odb,Step-1,Increment      1: Step Time =    1.000,"P-22-1",           998,       35.7186,       100.622,            0.,NA,NA,"",   775.860E+03,   847.973E+03,   847.973E+03
C:/temp/Job-22.odb,Step-1,Increment      1: Step Time =    1.000,"P-22-1",           999,       100.223,       35.3806,            0.,NA,NA,"",   1.01619E+06,   1.04170E+06,   1.04170E+06
C:/temp/Job-22.odb,Step-1,Increment      1: Step Time =    1.000,"P-22-1",          1000,       166.382,       100.702,            0.,NA,NA,"",   915.718E+03,   935.021E+03,   935.021E+03
C:/temp/Job-22.odb,Step-1,Increment      1: Step Time =    1.000,"P-22-1",          1001,       102.026,       165.674,            0.,NA,NA,"",   1.01475E+06,   1.03755E+06,   1.03755E+06
C:/temp/Job-22.odb,Step-1,Increment      1: Step Time =    1.000,"P-22-1",          1002,       28.0349,       157.167,            0.,NA,NA,"",   997.622E+03,   1.04717E+06,   1.04717E+06
C:/temp/Job-22.odb,Step-1,Increment      1: Step Time =    1.000,"P-22-1",          1003,       154.999,       175.433,            0.,NA,NA,"",   1.02591E+06,   1.01979E+06,   1.01979E+06
C:/temp/Job-22.odb,Step-1,Increment      1: Step Time =    1.000,"P-22-1",          1004,       175.415,       44.9118,            0.,NA,NA,"",   1.01897E+06,   1.01759E+06,   1.01759E+06
C:/temp/Job-22.odb,Step-1,Increment      1: Step Time =    1.000,"P-22-1",          1005,       45.8555,       24.5842,            0.,NA,NA,"",   1.06536E+06,   1.07056E+06,   1.07056E+06
C:/temp/Job-22.odb,Step-1,Increment      1: Step Time =    1.000,"P-22-1",          1006,       31.8489,       151.061,            0.,NA,NA,"",   989.005E+03,   1.03473E+06,   1.03473E+06
C:/temp/Job-22.odb,Step-1,Increment      1: Step Time =    1.000,"P-22-1",          1007,       170.321,       48.2944,            0.,NA,NA,"",   1.02888E+06,   1.02415E+06,   1.02415E+06
C:/temp/Job-22.odb,Step-1,Increment      1: Step Time =    1.000,"P-22-1",          1008,       151.612,       170.327,            0.,NA,NA,"",   1.03856E+06,   1.02981E+06,   1.02981E+06
C:/temp/Job-22.odb,Step-1,Increment      1: Step Time =    1.000,"P-22-1",          1009,       48.9974,       33.7978,            0.,NA,NA,"",   1.06971E+06,   1.07688E+06,   1.07688E+06
C:/temp/Job-22.odb,Step-1,Increment      1: Step Time =    1.000,"P-22-1",          1010,       122.702,       92.6526,            0.,NA,NA,"",   716.476E+03,   571.071E+03,   571.071E+03
C:/temp/Job-22.odb,Step-1,Increment      1: Step Time =    1.000,"P-22-1",          1011,       142.733,       115.978,            0.,NA,NA,"",   965.639E+03,   935.639E+03,   935.639E+03
C:/temp/Job-22.odb,Step-1,Increment      1: Step Time =    1.000,"P-22-1",          1012,       54.9173,       112.450,            0.,NA,NA,"",   816.184E+03,   848.744E+03,   848.744E+03
C:/temp/Job-22.odb,Step-1,Increment      1: Step Time =    1.000,"P-22-1",          1013,       127.554,       128.993,            0.,NA,NA,"",   1.24401E+06,   1.17382E+06,   1.17382E+06
C:/temp/Job-22.odb,Step-1,Increment      1: Step Time =    1.000,"P-22-1",          1014,       49.4637,       16.2899,            0.,NA,NA,"",   1.04662E+06,   1.04797E+06,   1.04797E+06
C:/temp/Job-22.odb,Step-1,Increment      1: Step Time =    1.000,"P-22-1",          1015,       14.1699,       52.8009,            0.,NA,NA,"",   895.134E+03,   980.315E+03,   980.315E+03
C:/temp/Job-22.odb,Step-1,Increment      1: Step Time =    1.000,"P-22-1",          1016,       149.599,       184.940,            0.,NA,NA,"",   1.00720E+06,   1.00427E+06,   1.00427E+06
C:/temp/Job-22.odb,Step-1,Increment      1: Step Time =    1.000,"P-22-1",          1017,       185.411,       149.923,            0.,NA,NA,"",   1.00019E+06,   1.00727E+06,   1.00727E+06
C:/temp/Job-22.odb,Step-1,Increment      1: Step Time =    1.000,"P-22-1",          1018,       16.3726,       151.013,            0.,NA,NA,"",   920.984E+03,   1.00041E+06,   1.00041E+06
C:/temp/Job-22.odb,Step-1,Increment      1: Step Time =    1.000,"P-22-1",          1019,       149.879,       14.5813,            0.,NA,NA,"",   1.00573E+06,   1.00301E+06,   1.00301E+06
C:/temp/Job-22.odb,Step-1,Increment      1: Step Time =    1.000,"P-22-1",          1020,       184.951,       50.3232,            0.,NA,NA,"",   1.00148E+06,   1.00798E+06,   1.00798E+06
C:/temp/Job-22.odb,Step-1,Increment      1: Step Time =    1.000,"P-22-1",          1021,       49.9579,       185.310,            0.,NA,NA,"",   1.03980E+06,   1.04065E+06,   1.04065E+06
C:/temp/Job-22.odb,Step-1,Increment      1: Step Time =    1.000,"P-22-1",          1022,       113.228,       122.515,            0.,NA,NA,"",   1.39573E+06,   1.38831E+06,   1.38831E+06
C:/temp/Job-22.odb,Step-1,Increment      1: Step Time =    1.000,"P-22-1",          1023,       58.3296,       125.597,            0.,NA,NA,"",   1.02264E+06,   1.01673E+06,   1.01673E+06
C:/temp/Job-22.odb,Step-1,Increment      1: Step Time =    1.000,"P-22-1",          1024,       126.366,       89.1841,            0.,NA,NA,"",   944.581E+03,   830.622E+03,   830.622E+03
C:/temp/Job-22.odb,Step-1,Increment      1: Step Time =    1.000,"P-22-1",          1025,       36.6401,       149.356,            0.,NA,NA,"",   1.00393E+06,   1.04033E+06,   1.04033E+06
C:/temp/Job-22.odb,Step-1,Increment      1: Step Time =    1.000,"P-22-1",          1026,       164.709,       49.4561,            0.,NA,NA,"",   1.04370E+06,   1.03358E+06,   1.03358E+06
C:/temp/Job-22.odb,Step-1,Increment      1: Step Time =    1.000,"P-22-1",          1027,       150.562,       164.773,            0.,NA,NA,"",   1.05409E+06,   1.04181E+06,   1.04181E+06
C:/temp/Job-22.odb,Step-1,Increment      1: Step Time =    1.000,"P-22-1",          1028,       51.8047,       37.5104,            0.,NA,NA,"",   1.07378E+06,   1.07943E+06,   1.07943E+06
C:/temp/Job-22.odb,Step-1,Increment      1: Step Time =    1.000,"P-22-1",          1029,       60.4727,       107.719,            0.,NA,NA,"",   729.571E+03,   760.717E+03,   760.717E+03
C:/temp/Job-22.odb,Step-1,Increment      1: Step Time =    1.000,"P-22-1",          1030,       144.883,       98.4605,            0.,NA,NA,"",   782.413E+03,   796.794E+03,   796.794E+03
C:/temp/Job-22.odb,Step-1,Increment      1: Step Time =    1.000,"P-22-1",          1031,       118.211,       132.483,            0.,NA,NA,"",   1.24365E+06,   1.23091E+06,   1.23091E+06
C:/temp/Job-22.odb,Step-1,Increment      1: Step Time =    1.000,"P-22-1",          1032,       132.227,       129.586,            0.,NA,NA,"",   1.19580E+06,   1.13134E+06,   1.13134E+06
C:/temp/Job-22.odb,Step-1,Increment      1: Step Time =    1.000,"P-22-1",          1033,       43.4249,       15.7725,            0.,NA,NA,"",   1.05573E+06,   1.05857E+06,   1.05857E+06
C:/temp/Job-22.odb,Step-1,Increment      1: Step Time =    1.000,"P-22-1",          1034,       18.1577,       154.766,            0.,NA,NA,"",   943.704E+03,   1.01771E+06,   1.01771E+06
C:/temp/Job-22.odb,Step-1,Increment      1: Step Time =    1.000,"P-22-1",          1035,       149.375,       98.8787,            0.,NA,NA,"",   823.272E+03,   837.889E+03,   837.889E+03
C:/temp/Job-22.odb,Step-1,Increment      1: Step Time =    1.000,"P-22-1",          1036,       109.363,       127.712,            0.,NA,NA,"",   1.25675E+06,   1.31565E+06,   1.31565E+06
C:/temp/Job-22.odb,Step-1,Increment      1: Step Time =    1.000,"P-22-1",          1037,       28.2962,       161.891,            0.,NA,NA,"",   1.01587E+06,   1.06068E+06,   1.06068E+06
C:/temp/Job-22.odb,Step-1,Increment      1: Step Time =    1.000,"P-22-1",          1038,       159.552,       173.604,            0.,NA,NA,"",   1.02615E+06,   1.02011E+06,   1.02011E+06
C:/temp/Job-22.odb,Step-1,Increment      1: Step Time =    1.000,"P-22-1",          1039,       173.526,       40.3725,            0.,NA,NA,"",   1.02143E+06,   1.01858E+06,   1.01858E+06
C:/temp/Job-22.odb,Step-1,Increment      1: Step Time =    1.000,"P-22-1",          1040,       41.3738,       26.4548,            0.,NA,NA,"",   1.06798E+06,   1.07846E+06,   1.07846E+06
C:/temp/Job-22.odb,Step-1,Increment      1: Step Time =    1.000,"P-22-1",          1041,       59.8823,       131.226,            0.,NA,NA,"",   1.07892E+06,   1.06715E+06,   1.06715E+06
C:/temp/Job-22.odb,Step-1,Increment      1: Step Time =    1.000,"P-22-1",          1042,       130.525,       92.3366,            0.,NA,NA,"",   747.720E+03,   700.822E+03,   700.822E+03
C:/temp/Job-22.odb,Step-1,Increment      1: Step Time =    1.000,"P-22-1",          1043,       34.8883,       144.721,            0.,NA,NA,"",   977.570E+03,   1.02104E+06,   1.02104E+06
C:/temp/Job-22.odb,Step-1,Increment      1: Step Time =    1.000,"P-22-1",          1044,       38.6800,       153.953,            0.,NA,NA,"",   1.02754E+06,   1.05658E+06,   1.05658E+06
C:/temp/Job-22.odb,Step-1,Increment      1: Step Time =    1.000,"P-22-1",          1045,       165.325,       55.7647,            0.,NA,NA,"",   1.03990E+06,   1.03052E+06,   1.03052E+06
C:/temp/Job-22.odb,Step-1,Increment      1: Step Time =    1.000,"P-22-1",          1046,       164.011,       43.9960,            0.,NA,NA,"",   1.04264E+06,   1.03301E+06,   1.03301E+06
C:/temp/Job-22.odb,Step-1,Increment      1: Step Time =    1.000,"P-22-1",          1047,       156.071,       164.336,            0.,NA,NA,"",   1.04667E+06,   1.03576E+06,   1.03576E+06
C:/temp/Job-22.odb,Step-1,Increment      1: Step Time =    1.000,"P-22-1",          1048,       144.081,       165.170,            0.,NA,NA,"",   1.05873E+06,   1.04675E+06,   1.04675E+06
C:/temp/Job-22.odb,Step-1,Increment      1: Step Time =    1.000,"P-22-1",          1049,       56.8790,       34.7344,            0.,NA,NA,"",   1.07557E+06,   1.07743E+06,   1.07743E+06
C:/temp/Job-22.odb,Step-1,Increment      1: Step Time =    1.000,"P-22-1",          1050,       45.2133,       36.9282,            0.,NA,NA,"",   1.06421E+06,   1.07684E+06,   1.07684E+06
C:/temp/Job-22.odb,Step-1,Increment      1: Step Time =    1.000,"P-22-1",          1051,       54.8515,       108.068,            0.,NA,NA,"",   756.146E+03,   799.581E+03,   799.581E+03
C:/temp/Job-22.odb,Step-1,Increment      1: Step Time =    1.000,"P-22-1",          1052,       152.154,       102.569,            0.,NA,NA,"",   846.980E+03,   861.430E+03,   861.430E+03
C:/temp/Job-22.odb,Step-1,Increment      1: Step Time =    1.000,"P-22-1",          1053,       109.786,       132.212,            0.,NA,NA,"",   1.19476E+06,   1.24802E+06,   1.24802E+06
C:/temp/Job-22.odb,Step-1,Increment      1: Step Time =    1.000,"P-22-1",          1054,       29.5258,       164.996,            0.,NA,NA,"",   1.03494E+06,   1.07417E+06,   1.07417E+06
C:/temp/Job-22.odb,Step-1,Increment      1: Step Time =    1.000,"P-22-1",          1055,       162.328,       167.400,            0.,NA,NA,"",   1.03276E+06,   1.02544E+06,   1.02544E+06
C:/temp/Job-22.odb,Step-1,Increment      1: Step Time =    1.000,"P-22-1",          1056,       167.162,       37.5862,            0.,NA,NA,"",   1.03115E+06,   1.02476E+06,   1.02476E+06
C:/temp/Job-22.odb,Step-1,Increment      1: Step Time =    1.000,"P-22-1",          1057,       37.7619,       30.9494,            0.,NA,NA,"",   1.06064E+06,   1.07941E+06,   1.07941E+06
C:/temp/Job-22.odb,Step-1,Increment      1: Step Time =    1.000,"P-22-1",          1058,       134.252,       88.4142,            0.,NA,NA,"",   892.973E+03,   846.472E+03,   846.472E+03
C:/temp/Job-22.odb,Step-1,Increment      1: Step Time =    1.000,"P-22-1",          1059,       53.8488,       132.877,            0.,NA,NA,"",   1.03812E+06,   1.04262E+06,   1.04262E+06
C:/temp/Job-22.odb,Step-1,Increment      1: Step Time =    1.000,"P-22-1",          1060,       63.3446,       132.839,            0.,NA,NA,"",   1.11608E+06,   1.09690E+06,   1.09690E+06
C:/temp/Job-22.odb,Step-1,Increment      1: Step Time =    1.000,"P-22-1",          1061,       33.5674,       140.252,            0.,NA,NA,"",   951.376E+03,   1.00100E+06,   1.00100E+06
C:/temp/Job-22.odb,Step-1,Increment      1: Step Time =    1.000,"P-22-1",          1062,       159.458,       49.6493,            0.,NA,NA,"",   1.05776E+06,   1.04300E+06,   1.04300E+06
C:/temp/Job-22.odb,Step-1,Increment      1: Step Time =    1.000,"P-22-1",          1063,       150.588,       159.605,            0.,NA,NA,"",   1.06625E+06,   1.05066E+06,   1.05066E+06
C:/temp/Job-22.odb,Step-1,Increment      1: Step Time =    1.000,"P-22-1",          1064,       49.7022,       112.672,            0.,NA,NA,"",   815.409E+03,   860.075E+03,   860.075E+03
C:/temp/Job-22.odb,Step-1,Increment      1: Step Time =    1.000,"P-22-1",          1065,       149.940,       108.589,            0.,NA,NA,"",   866.261E+03,   872.067E+03,   872.067E+03
C:/temp/Job-22.odb,Step-1,Increment      1: Step Time =    1.000,"P-22-1",          1066,       155.944,       100.471,            0.,NA,NA,"",   868.605E+03,   884.149E+03,   884.149E+03
C:/temp/Job-22.odb,Step-1,Increment      1: Step Time =    1.000,"P-22-1",          1067,       113.826,       132.314,            0.,NA,NA,"",   1.22087E+06,   1.24201E+06,   1.24201E+06
C:/temp/Job-22.odb,Step-1,Increment      1: Step Time =    1.000,"P-22-1",          1068,       106.630,       131.761,            0.,NA,NA,"",   1.16877E+06,   1.24452E+06,   1.24452E+06
C:/temp/Job-22.odb,Step-1,Increment      1: Step Time =    1.000,"P-22-1",          1069,       32.4948,       162.489,            0.,NA,NA,"",   1.03285E+06,   1.06773E+06,   1.06773E+06
C:/temp/Job-22.odb,Step-1,Increment      1: Step Time =    1.000,"P-22-1",          1070,       160.605,       163.624,            0.,NA,NA,"",   1.04060E+06,   1.03132E+06,   1.03132E+06
C:/temp/Job-22.odb,Step-1,Increment      1: Step Time =    1.000,"P-22-1",          1071,       164.823,       171.801,            0.,NA,NA,"",   1.02353E+06,   1.01844E+06,   1.01844E+06
C:/temp/Job-22.odb,Step-1,Increment      1: Step Time =    1.000,"P-22-1",          1072,       163.115,       39.2979,            0.,NA,NA,"",   1.04037E+06,   1.03128E+06,   1.03128E+06
C:/temp/Job-22.odb,Step-1,Increment      1: Step Time =    1.000,"P-22-1",          1073,       171.694,       35.1086,            0.,NA,NA,"",   1.02145E+06,   1.01786E+06,   1.01786E+06
C:/temp/Job-22.odb,Step-1,Increment      1: Step Time =    1.000,"P-22-1",          1074,       36.7970,       24.1821,            0.,NA,NA,"",   1.07240E+06,   1.08695E+06,   1.08695E+06
C:/temp/Job-22.odb,Step-1,Increment      1: Step Time =    1.000,"P-22-1",          1075,       39.5493,       36.9024,            0.,NA,NA,"",   1.05319E+06,   1.07435E+06,   1.07435E+06
C:/temp/Job-22.odb,Step-1,Increment      1: Step Time =    1.000,"P-22-1",          1076,       44.6034,       112.893,            0.,NA,NA,"",   815.887E+03,   869.601E+03,   869.601E+03
C:/temp/Job-22.odb,Step-1,Increment      1: Step Time =    1.000,"P-22-1",          1077,       154.677,       48.6807,            0.,NA,NA,"",   1.07131E+06,   1.05273E+06,   1.05273E+06
C:/temp/Job-22.odb,Step-1,Increment      1: Step Time =    1.000,"P-22-1",          1078,       47.8879,       149.462,            0.,NA,NA,"",   1.05279E+06,   1.06682E+06,   1.06682E+06
C:/temp/Job-22.odb,Step-1,Increment      1: Step Time =    1.000,"P-22-1",          1079,       49.6664,       43.5321,            0.,NA,NA,"",   1.06790E+06,   1.07743E+06,   1.07743E+06
C:/temp/Job-22.odb,Step-1,Increment      1: Step Time =    1.000,"P-22-1",          1080,       151.880,       154.849,            0.,NA,NA,"",   1.07356E+06,   1.05530E+06,   1.05530E+06
C:/temp/Job-22.odb,Step-1,Increment      1: Step Time =    1.000,"P-22-1",          1081,       138.177,       91.7962,            0.,NA,NA,"",   794.739E+03,   784.427E+03,   784.427E+03
C:/temp/Job-22.odb,Step-1,Increment      1: Step Time =    1.000,"P-22-1",          1082,       54.6729,       116.877,            0.,NA,NA,"",   883.604E+03,   905.404E+03,   905.404E+03
C:/temp/Job-22.odb,Step-1,Increment      1: Step Time =    1.000,"P-22-1",          1083,       135.883,       81.2828,            0.,NA,NA,"",   1.05915E+06,   996.215E+03,   996.215E+03
C:/temp/Job-22.odb,Step-1,Increment      1: Step Time =    1.000,"P-22-1",          1084,       57.3319,       135.964,            0.,NA,NA,"",   1.07771E+06,   1.07323E+06,   1.07323E+06
C:/temp/Job-22.odb,Step-1,Increment      1: Step Time =    1.000,"P-22-1",          1085,       65.9768,       129.063,            0.,NA,NA,"",   1.12927E+06,   1.09912E+06,   1.09912E+06
C:/temp/Job-22.odb,Step-1,Increment      1: Step Time =    1.000,"P-22-1",          1086,       154.411,       106.949,            0.,NA,NA,"",   877.051E+03,   888.217E+03,   888.217E+03
C:/temp/Job-22.odb,Step-1,Increment      1: Step Time =    1.000,"P-22-1",          1087,       153.516,       96.5072,            0.,NA,NA,"",   855.944E+03,   870.275E+03,   870.275E+03
C:/temp/Job-22.odb,Step-1,Increment      1: Step Time =    1.000,"P-22-1",          1088,       108.774,       137.267,            0.,NA,NA,"",   1.12847E+06,   1.18160E+06,   1.18160E+06
C:/temp/Job-22.odb,Step-1,Increment      1: Step Time =    1.000,"P-22-1",          1089,       36.8899,       159.086,            0.,NA,NA,"",   1.03708E+06,   1.06527E+06,   1.06527E+06
C:/temp/Job-22.odb,Step-1,Increment      1: Step Time =    1.000,"P-22-1",          1090,       41.7663,       39.6149,            0.,NA,NA,"",   1.05347E+06,   1.07249E+06,   1.07249E+06
C:/temp/Job-22.odb,Step-1,Increment      1: Step Time =    1.000,"P-22-1",          1091,       104.604,       134.270,            0.,NA,NA,"",   1.12216E+06,   1.20428E+06,   1.20428E+06
C:/temp/Job-22.odb,Step-1,Increment      1: Step Time =    1.000,"P-22-1",          1092,       108.334,       123.158,            0.,NA,NA,"",   1.37209E+06,   1.44540E+06,   1.44540E+06
C:/temp/Job-22.odb,Step-1,Increment      1: Step Time =    1.000,"P-22-1",          1093,       62.5520,       35.1197,            0.,NA,NA,"",   1.07633E+06,   1.07701E+06,   1.07701E+06
C:/temp/Job-22.odb,Step-1,Increment      1: Step Time =    1.000,"P-22-1",          1094,       164.414,       61.7862,            0.,NA,NA,"",   1.03591E+06,   1.02618E+06,   1.02618E+06
C:/temp/Job-22.odb,Step-1,Increment      1: Step Time =    1.000,"P-22-1",          1095,       137.707,       163.949,            0.,NA,NA,"",   1.06595E+06,   1.05493E+06,   1.05493E+06
C:/temp/Job-22.odb,Step-1,Increment      1: Step Time =    1.000,"P-22-1",          1096,       37.7942,       138.977,            0.,NA,NA,"",   965.933E+03,   1.00711E+06,   1.00711E+06
C:/temp/Job-22.odb,Step-1,Increment      1: Step Time =    1.000,"P-22-1",          1097,       59.2770,       140.381,            0.,NA,NA,"",   1.09783E+06,   1.09199E+06,   1.09199E+06
C:/temp/Job-22.odb,Step-1,Increment      1: Step Time =    1.000,"P-22-1",          1098,       44.6591,       117.206,            0.,NA,NA,"",   850.877E+03,   898.777E+03,   898.777E+03
C:/temp/Job-22.odb,Step-1,Increment      1: Step Time =    1.000,"P-22-1",          1099,       151.918,       113.273,            0.,NA,NA,"",   919.616E+03,   917.284E+03,   917.284E+03
C:/temp/Job-22.odb,Step-1,Increment      1: Step Time =    1.000,"P-22-1",          1100,       160.823,       108.328,            0.,NA,NA,"",   910.167E+03,   923.318E+03,   923.318E+03
C:/temp/Job-22.odb,Step-1,Increment      1: Step Time =    1.000,"P-22-1",          1101,       153.138,       52.9251,            0.,NA,NA,"",   1.07980E+06,   1.05765E+06,   1.05765E+06
C:/temp/Job-22.odb,Step-1,Increment      1: Step Time =    1.000,"P-22-1",          1102,       45.3033,       145.157,            0.,NA,NA,"",   1.02918E+06,   1.05005E+06,   1.05005E+06
C:/temp/Job-22.odb,Step-1,Increment      1: Step Time =    1.000,"P-22-1",          1103,       55.0745,       45.9650,            0.,NA,NA,"",   1.08342E+06,   1.08622E+06,   1.08622E+06
C:/temp/Job-22.odb,Step-1,Increment      1: Step Time =    1.000,"P-22-1",          1104,       147.485,       152.943,            0.,NA,NA,"",   1.08809E+06,   1.06652E+06,   1.06652E+06
C:/temp/Job-22.odb,Step-1,Increment      1: Step Time =    1.000,"P-22-1",          1105,       151.092,       92.4446,            0.,NA,NA,"",   861.072E+03,   869.876E+03,   869.876E+03
C:/temp/Job-22.odb,Step-1,Increment      1: Step Time =    1.000,"P-22-1",          1106,       129.504,       79.0770,            0.,NA,NA,"",   1.17295E+06,   1.08322E+06,   1.08322E+06
C:/temp/Job-22.odb,Step-1,Increment      1: Step Time =    1.000,"P-22-1",          1107,       163.805,       67.1124,            0.,NA,NA,"",   1.02549E+06,   1.01711E+06,   1.01711E+06
C:/temp/Job-22.odb,Step-1,Increment      1: Step Time =    1.000,"P-22-1",          1108,       67.2773,       35.6855,            0.,NA,NA,"",   1.07486E+06,   1.07629E+06,   1.07629E+06
C:/temp/Job-22.odb,Step-1,Increment      1: Step Time =    1.000,"P-22-1",          1109,       36.7463,       134.741,            0.,NA,NA,"",   942.356E+03,   988.808E+03,   988.808E+03
C:/temp/Job-22.odb,Step-1,Increment      1: Step Time =    1.000,"P-22-1",          1110,       132.082,       163.218,            0.,NA,NA,"",   1.06696E+06,   1.05939E+06,   1.05939E+06
C:/temp/Job-22.odb,Step-1,Increment      1: Step Time =    1.000,"P-22-1",          1111,       101.849,       130.636,            0.,NA,NA,"",   1.15582E+06,   1.26242E+06,   1.26242E+06
C:/temp/Job-22.odb,Step-1,Increment      1: Step Time =    1.000,"P-22-1",          1112,       103.692,       124.500,            0.,NA,NA,"",   1.30968E+06,   1.43370E+06,   1.43370E+06
C:/temp/Job-22.odb,Step-1,Increment      1: Step Time =    1.000,"P-22-1",          1113,       69.7039,       131.750,            0.,NA,NA,"",   1.17336E+06,   1.14075E+06,   1.14075E+06
C:/temp/Job-22.odb,Step-1,Increment      1: Step Time =    1.000,"P-22-1",          1114,       161.476,       36.1175,            0.,NA,NA,"",   1.03917E+06,   1.03028E+06,   1.03028E+06
C:/temp/Job-22.odb,Step-1,Increment      1: Step Time =    1.000,"P-22-1",          1115,       39.4234,       162.158,            0.,NA,NA,"",   1.05074E+06,   1.07241E+06,   1.07241E+06
C:/temp/Job-22.odb,Step-1,Increment      1: Step Time =    1.000,"P-22-1",          1116,       37.4854,       39.1123,            0.,NA,NA,"",   1.04339E+06,   1.06961E+06,   1.06961E+06
C:/temp/Job-22.odb,Step-1,Increment      1: Step Time =    1.000,"P-22-1",          1117,       163.619,       161.899,            0.,NA,NA,"",   1.03741E+06,   1.02915E+06,   1.02915E+06
C:/temp/Job-22.odb,Step-1,Increment      1: Step Time =    1.000,"P-22-1",          1118,       36.5648,       34.9044,            0.,NA,NA,"",   1.05231E+06,   1.07568E+06,   1.07568E+06
C:/temp/Job-22.odb,Step-1,Increment      1: Step Time =    1.000,"P-22-1",          1119,       166.734,       165.319,            0.,NA,NA,"",   1.02815E+06,   1.02240E+06,   1.02240E+06
C:/temp/Job-22.odb,Step-1,Increment      1: Step Time =    1.000,"P-22-1",          1120,       34.5234,       167.180,            0.,NA,NA,"",   1.05209E+06,   1.07871E+06,   1.07871E+06
C:/temp/Job-22.odb,Step-1,Increment      1: Step Time =    1.000,"P-22-1",          1121,       165.156,       33.1330,            0.,NA,NA,"",   1.02911E+06,   1.02286E+06,   1.02286E+06
C:/temp/Job-22.odb,Step-1,Increment      1: Step Time =    1.000,"P-22-1",          1122,       38.3499,       42.3293,            0.,NA,NA,"",   1.03797E+06,   1.06468E+06,   1.06468E+06
C:/temp/Job-22.odb,Step-1,Increment      1: Step Time =    1.000,"P-22-1",          1123,       162.021,       155.808,            0.,NA,NA,"",   1.04742E+06,   1.03625E+06,   1.03625E+06
C:/temp/Job-22.odb,Step-1,Increment      1: Step Time =    1.000,"P-22-1",          1124,       42.6875,       163.268,            0.,NA,NA,"",   1.05854E+06,   1.07491E+06,   1.07491E+06
C:/temp/Job-22.odb,Step-1,Increment      1: Step Time =    1.000,"P-22-1",          1125,       155.657,       36.0257,            0.,NA,NA,"",   1.04795E+06,   1.03682E+06,   1.03682E+06
C:/temp/Job-22.odb,Step-1,Increment      1: Step Time =    1.000,"P-22-1",          1126,       99.6023,       126.420,            0.,NA,NA,"",   1.25846E+06,   1.38548E+06,   1.38548E+06
C:/temp/Job-22.odb,Step-1,Increment      1: Step Time =    1.000,"P-22-1",          1127,       65.1934,       141.403,            0.,NA,NA,"",   1.12711E+06,   1.11557E+06,   1.11557E+06
C:/temp/Job-22.odb,Step-1,Increment      1: Step Time =    1.000,"P-22-1",          1128,       49.4869,       121.434,            0.,NA,NA,"",   909.933E+03,   939.614E+03,   939.614E+03
C:/temp/Job-22.odb,Step-1,Increment      1: Step Time =    1.000,"P-22-1",          1129,       164.087,       106.415,            0.,NA,NA,"",   914.500E+03,   930.904E+03,   930.904E+03
C:/temp/Job-22.odb,Step-1,Increment      1: Step Time =    1.000,"P-22-1",          1130,       153.738,       59.6325,            0.,NA,NA,"",   1.07556E+06,   1.05160E+06,   1.05160E+06
C:/temp/Job-22.odb,Step-1,Increment      1: Step Time =    1.000,"P-22-1",          1131,       42.8687,       141.347,            0.,NA,NA,"",   1.00525E+06,   1.03275E+06,   1.03275E+06
C:/temp/Job-22.odb,Step-1,Increment      1: Step Time =    1.000,"P-22-1",          1132,       59.2638,       44.7563,            0.,NA,NA,"",   1.09330E+06,   1.09287E+06,   1.09287E+06
C:/temp/Job-22.odb,Step-1,Increment      1: Step Time =    1.000,"P-22-1",          1133,       141.810,       154.610,            0.,NA,NA,"",   1.09589E+06,   1.07504E+06,   1.07504E+06
C:/temp/Job-22.odb,Step-1,Increment      1: Step Time =    1.000,"P-22-1",          1134,       144.890,       91.1829,            0.,NA,NA,"",   838.120E+03,   838.804E+03,   838.804E+03
C:/temp/Job-22.odb,Step-1,Increment      1: Step Time =    1.000,"P-22-1",          1135,       124.834,       83.2848,            0.,NA,NA,"",   1.19699E+06,   1.07148E+06,   1.07148E+06
C:/temp/Job-22.odb,Step-1,Increment      1: Step Time =    1.000,"P-22-1",          1136,       133.985,       77.2851,            0.,NA,NA,"",   1.13677E+06,   1.06388E+06,   1.06388E+06
C:/temp/Job-22.odb,Step-1,Increment      1: Step Time =    1.000,"P-22-1",          1137,       168.319,       68.0213,            0.,NA,NA,"",   1.01183E+06,   1.01023E+06,   1.01023E+06
C:/temp/Job-22.odb,Step-1,Increment      1: Step Time =    1.000,"P-22-1",          1138,       68.3423,       31.7196,            0.,NA,NA,"",   1.06245E+06,   1.06432E+06,   1.06432E+06
C:/temp/Job-22.odb,Step-1,Increment      1: Step Time =    1.000,"P-22-1",          1139,       32.2986,       132.353,            0.,NA,NA,"",   907.145E+03,   964.962E+03,   964.962E+03
C:/temp/Job-22.odb,Step-1,Increment      1: Step Time =    1.000,"P-22-1",          1140,       131.295,       167.907,            0.,NA,NA,"",   1.04876E+06,   1.04410E+06,   1.04410E+06
C:/temp/Job-22.odb,Step-1,Increment      1: Step Time =    1.000,"P-22-1",          1141,       98.2273,       133.492,            0.,NA,NA,"",   1.11869E+06,   1.21723E+06,   1.21723E+06
C:/temp/Job-22.odb,Step-1,Increment      1: Step Time =    1.000,"P-22-1",          1142,       75.8632,       130.146,            0.,NA,NA,"",   1.23225E+06,   1.19658E+06,   1.19658E+06
C:/temp/Job-22.odb,Step-1,Increment      1: Step Time =    1.000,"P-22-1",          1143,       153.290,       122.347,            0.,NA,NA,"",   1.00726E+06,   989.923E+03,   989.923E+03
C:/temp/Job-22.odb,Step-1,Increment      1: Step Time =    1.000,"P-22-1",          1144,       163.078,       72.0318,            0.,NA,NA,"",   1.01000E+06,   1.00397E+06,   1.00397E+06
C:/temp/Job-22.odb,Step-1,Increment      1: Step Time =    1.000,"P-22-1",          1145,       36.0746,       130.134,            0.,NA,NA,"",   912.359E+03,   964.198E+03,   964.198E+03
C:/temp/Job-22.odb,Step-1,Increment      1: Step Time =    1.000,"P-22-1",          1146,       71.4712,       36.9876,            0.,NA,NA,"",   1.07449E+06,   1.07811E+06,   1.07811E+06
C:/temp/Job-22.odb,Step-1,Increment      1: Step Time =    1.000,"P-22-1",          1147,       126.834,       162.546,            0.,NA,NA,"",   1.06377E+06,   1.06146E+06,   1.06146E+06
C:/temp/Job-22.odb,Step-1,Increment      1: Step Time =    1.000,"P-22-1",          1148,       92.8986,       124.277,            0.,NA,NA,"",   1.38548E+06,   1.48223E+06,   1.48223E+06
C:/temp/Job-22.odb,Step-1,Increment      1: Step Time =    1.000,"P-22-1",          1149,       44.5489,       121.877,            0.,NA,NA,"",   889.084E+03,   931.263E+03,   931.263E+03
C:/temp/Job-22.odb,Step-1,Increment      1: Step Time =    1.000,"P-22-1",          1150,       120.791,       79.5811,            0.,NA,NA,"",   1.33360E+06,   1.21597E+06,   1.21597E+06
C:/temp/Job-22.odb,Step-1,Increment      1: Step Time =    1.000,"P-22-1",          1151,       58.1309,       40.2090,            0.,NA,NA,"",   1.08492E+06,   1.08607E+06,   1.08607E+06
C:/temp/Job-22.odb,Step-1,Increment      1: Step Time =    1.000,"P-22-1",          1152,       39.1596,       143.153,            0.,NA,NA,"",   992.895E+03,   1.02766E+06,   1.02766E+06
C:/temp/Job-22.odb,Step-1,Increment      1: Step Time =    1.000,"P-22-1",          1153,       43.2636,       43.2191,            0.,NA,NA,"",   1.05098E+06,   1.06949E+06,   1.06949E+06
C:/temp/Job-22.odb,Step-1,Increment      1: Step Time =    1.000,"P-22-1",          1154,       160.141,       151.408,            0.,NA,NA,"",   1.05720E+06,   1.04280E+06,   1.04280E+06
C:/temp/Job-22.odb,Step-1,Increment      1: Step Time =    1.000,"P-22-1",          1155,       45.8256,       156.766,            0.,NA,NA,"",   1.05675E+06,   1.07187E+06,   1.07187E+06
C:/temp/Job-22.odb,Step-1,Increment      1: Step Time =    1.000,"P-22-1",          1156,       152.375,       39.0255,            0.,NA,NA,"",   1.05893E+06,   1.04502E+06,   1.04502E+06
C:/temp/Job-22.odb,Step-1,Increment      1: Step Time =    1.000,"P-22-1",          1157,       69.3071,       138.537,            0.,NA,NA,"",   1.15379E+06,   1.13708E+06,   1.13708E+06
C:/temp/Job-22.odb,Step-1,Increment      1: Step Time =    1.000,"P-22-1",          1158,       164.430,       110.077,            0.,NA,NA,"",   926.408E+03,   940.216E+03,   940.216E+03
C:/temp/Job-22.odb,Step-1,Increment      1: Step Time =    1.000,"P-22-1",          1159,       162.215,       102.467,            0.,NA,NA,"",   902.357E+03,   919.376E+03,   919.376E+03
C:/temp/Job-22.odb,Step-1,Increment      1: Step Time =    1.000,"P-22-1",          1160,       150.332,       56.7035,            0.,NA,NA,"",   1.09085E+06,   1.06395E+06,   1.06395E+06
C:/temp/Job-22.odb,Step-1,Increment      1: Step Time =    1.000,"P-22-1",          1161,       49.0514,       142.391,            0.,NA,NA,"",   1.04121E+06,   1.05504E+06,   1.05504E+06
C:/temp/Job-22.odb,Step-1,Increment      1: Step Time =    1.000,"P-22-1",          1162,       56.2916,       49.9478,            0.,NA,NA,"",   1.08807E+06,   1.08876E+06,   1.08876E+06
C:/temp/Job-22.odb,Step-1,Increment      1: Step Time =    1.000,"P-22-1",          1163,       143.166,       151.035,            0.,NA,NA,"",   1.10352E+06,   1.07919E+06,   1.07919E+06
C:/temp/Job-22.odb,Step-1,Increment      1: Step Time =    1.000,"P-22-1",          1164,       144.929,       95.7265,            0.,NA,NA,"",   789.694E+03,   802.247E+03,   802.247E+03
C:/temp/Job-22.odb,Step-1,Increment      1: Step Time =    1.000,"P-22-1",          1165,       101.536,       137.192,            0.,NA,NA,"",   1.08826E+06,   1.16996E+06,   1.16996E+06
C:/temp/Job-22.odb,Step-1,Increment      1: Step Time =    1.000,"P-22-1",          1166,       78.9479,       126.175,            0.,NA,NA,"",   1.27798E+06,   1.23049E+06,   1.23049E+06
C:/temp/Job-22.odb,Step-1,Increment      1: Step Time =    1.000,"P-22-1",          1167,       141.743,       88.1981,            0.,NA,NA,"",   888.599E+03,   870.323E+03,   870.323E+03
C:/temp/Job-22.odb,Step-1,Increment      1: Step Time =    1.000,"P-22-1",          1168,       88.8842,       127.916,            0.,NA,NA,"",   1.26801E+06,   1.31728E+06,   1.31728E+06
C:/temp/Job-22.odb,Step-1,Increment      1: Step Time =    1.000,"P-22-1",          1169,       66.5139,       135.389,            0.,NA,NA,"",   1.14377E+06,   1.12281E+06,   1.12281E+06
C:/temp/Job-22.odb,Step-1,Increment      1: Step Time =    1.000,"P-22-1",          1170,       101.897,       143.639,            0.,NA,NA,"",   1.05608E+06,   1.11997E+06,   1.11997E+06
C:/temp/Job-22.odb,Step-1,Increment      1: Step Time =    1.000,"P-22-1",          1171,       49.6927,       125.714,            0.,NA,NA,"",   952.398E+03,   975.106E+03,   975.106E+03
C:/temp/Job-22.odb,Step-1,Increment      1: Step Time =    1.000,"P-22-1",          1172,       37.2969,       46.8462,            0.,NA,NA,"",   1.02003E+06,   1.05222E+06,   1.05222E+06
C:/temp/Job-22.odb,Step-1,Increment      1: Step Time =    1.000,"P-22-1",          1173,       163.780,       148.767,            0.,NA,NA,"",   1.04751E+06,   1.03597E+06,   1.03597E+06
C:/temp/Job-22.odb,Step-1,Increment      1: Step Time =    1.000,"P-22-1",          1174,       48.4775,       162.660,            0.,NA,NA,"",   1.06838E+06,   1.07754E+06,   1.07754E+06
C:/temp/Job-22.odb,Step-1,Increment      1: Step Time =    1.000,"P-22-1",          1175,       148.995,       35.9307,            0.,NA,NA,"",   1.05778E+06,   1.04471E+06,   1.04471E+06
C:/temp/Job-22.odb,Step-1,Increment      1: Step Time =    1.000,"P-22-1",          1176,       67.0826,       144.724,            0.,NA,NA,"",   1.12890E+06,   1.12033E+06,   1.12033E+06
C:/temp/Job-22.odb,Step-1,Increment      1: Step Time =    1.000,"P-22-1",          1177,       156.211,       62.2232,            0.,NA,NA,"",   1.06269E+06,   1.04181E+06,   1.04181E+06
C:/temp/Job-22.odb,Step-1,Increment      1: Step Time =    1.000,"P-22-1",          1178,       45.8928,       138.258,            0.,NA,NA,"",   1.00723E+06,   1.02989E+06,   1.02989E+06
C:/temp/Job-22.odb,Step-1,Increment      1: Step Time =    1.000,"P-22-1",          1179,       63.5329,       43.9981,            0.,NA,NA,"",   1.09787E+06,   1.09670E+06,   1.09670E+06
C:/temp/Job-22.odb,Step-1,Increment      1: Step Time =    1.000,"P-22-1",          1180,       137.861,       154.532,            0.,NA,NA,"",   1.10062E+06,   1.08103E+06,   1.08103E+06
C:/temp/Job-22.odb,Step-1,Increment      1: Step Time =    1.000,"P-22-1",          1181,       78.6829,       132.876,            0.,NA,NA,"",   1.22295E+06,   1.20602E+06,   1.20602E+06
C:/temp/Job-22.odb,Step-1,Increment      1: Step Time =    1.000,"P-22-1",          1182,       51.1814,       129.572,            0.,NA,NA,"",   994.983E+03,   1.00919E+06,   1.00919E+06
C:/temp/Job-22.odb,Step-1,Increment      1: Step Time =    1.000,"P-22-1",          1183,       67.6592,       43.3449,            0.,NA,NA,"",   1.09653E+06,   1.09666E+06,   1.09666E+06
C:/temp/Job-22.odb,Step-1,Increment      1: Step Time =    1.000,"P-22-1",          1184,       155.159,       65.7560,            0.,NA,NA,"",   1.05777E+06,   1.03617E+06,   1.03617E+06
C:/temp/Job-22.odb,Step-1,Increment      1: Step Time =    1.000,"P-22-1",          1185,       47.6111,       131.673,            0.,NA,NA,"",   986.724E+03,   1.00883E+06,   1.00883E+06
C:/temp/Job-22.odb,Step-1,Increment      1: Step Time =    1.000,"P-22-1",          1186,       133.126,       153.894,            0.,NA,NA,"",   1.10566E+06,   1.08920E+06,   1.08920E+06
C:/temp/Job-22.odb,Step-1,Increment      1: Step Time =    1.000,"P-22-1",          1187,       91.7193,       132.015,            0.,NA,NA,"",   1.18513E+06,   1.26054E+06,   1.26054E+06
C:/temp/Job-22.odb,Step-1,Increment      1: Step Time =    1.000,"P-22-1",          1188,       107.593,       144.309,            0.,NA,NA,"",   1.07881E+06,   1.12611E+06,   1.12611E+06
C:/temp/Job-22.odb,Step-1,Increment      1: Step Time =    1.000,"P-22-1",          1189,       71.4867,       142.387,            0.,NA,NA,"",   1.14968E+06,   1.13926E+06,   1.13926E+06
C:/temp/Job-22.odb,Step-1,Increment      1: Step Time =    1.000,"P-22-1",          1190,       56.4294,       162.541,            0.,NA,NA,"",   1.07942E+06,   1.08170E+06,   1.08170E+06
C:/temp/Job-22.odb,Step-1,Increment      1: Step Time =    1.000,"P-22-1",          1191,       35.9239,       51.2202,            0.,NA,NA,"",   997.910E+03,   1.03658E+06,   1.03658E+06
C:/temp/Job-22.odb,Step-1,Increment      1: Step Time =    1.000,"P-22-1",          1192,       162.382,       142.151,            0.,NA,NA,"",   1.04799E+06,   1.03500E+06,   1.03500E+06
C:/temp/Job-22.odb,Step-1,Increment      1: Step Time =    1.000,"P-22-1",          1193,       142.483,       37.8349,            0.,NA,NA,"",   1.07022E+06,   1.05585E+06,   1.05585E+06
C:/temp/Job-22.odb,Step-1,Increment      1: Step Time =    1.000,"P-22-1",          1194,       85.2776,       131.921,            0.,NA,NA,"",   1.23773E+06,   1.25401E+06,   1.25401E+06
C:/temp/Job-22.odb,Step-1,Increment      1: Step Time =    1.000,"P-22-1",          1195,       76.3113,       139.922,            0.,NA,NA,"",   1.17103E+06,   1.16326E+06,   1.16326E+06
C:/temp/Job-22.odb,Step-1,Increment      1: Step Time =    1.000,"P-22-1",          1196,       69.9698,       39.5455,            0.,NA,NA,"",   1.08494E+06,   1.08708E+06,   1.08708E+06
C:/temp/Job-22.odb,Step-1,Increment      1: Step Time =    1.000,"P-22-1",          1197,       159.501,       66.4801,            0.,NA,NA,"",   1.03936E+06,   1.02472E+06,   1.02472E+06
C:/temp/Job-22.odb,Step-1,Increment      1: Step Time =    1.000,"P-22-1",          1198,       40.7962,       132.778,            0.,NA,NA,"",   952.371E+03,   990.960E+03,   990.960E+03
C:/temp/Job-22.odb,Step-1,Increment      1: Step Time =    1.000,"P-22-1",          1199,       132.649,       158.552,            0.,NA,NA,"",   1.08565E+06,   1.07430E+06,   1.07430E+06
C:/temp/Job-22.odb,Step-1,Increment      1: Step Time =    1.000,"P-22-1",          1200,       110.651,       141.847,            0.,NA,NA,"",   1.10786E+06,   1.14664E+06,   1.14664E+06
C:/temp/Job-22.odb,Step-1,Increment      1: Step Time =    1.000,"P-22-1",          1201,       59.5129,       160.028,            0.,NA,NA,"",   1.08544E+06,   1.08635E+06,   1.08635E+06
C:/temp/Job-22.odb,Step-1,Increment      1: Step Time =    1.000,"P-22-1",          1202,       41.5929,       53.7355,            0.,NA,NA,"",   1.01535E+06,   1.04335E+06,   1.04335E+06
C:/temp/Job-22.odb,Step-1,Increment      1: Step Time =    1.000,"P-22-1",          1203,       157.931,       140.462,            0.,NA,NA,"",   1.06022E+06,   1.04200E+06,   1.04200E+06
C:/temp/Job-22.odb,Step-1,Increment      1: Step Time =    1.000,"P-22-1",          1204,       141.697,       43.1938,            0.,NA,NA,"",   1.08823E+06,   1.06957E+06,   1.06957E+06
C:/temp/Job-22.odb,Step-1,Increment      1: Step Time =    1.000,"P-22-1",          1205,       88.2674,       133.964,            0.,NA,NA,"",   1.18483E+06,   1.22911E+06,   1.22911E+06
C:/temp/Job-22.odb,Step-1,Increment      1: Step Time =    1.000,"P-22-1",          1206,       111.995,       144.740,            0.,NA,NA,"",   1.09855E+06,   1.13019E+06,   1.13019E+06
C:/temp/Job-22.odb,Step-1,Increment      1: Step Time =    1.000,"P-22-1",          1207,       55.7349,       150.973,            0.,NA,NA,"",   1.08503E+06,   1.08706E+06,   1.08706E+06
C:/temp/Job-22.odb,Step-1,Increment      1: Step Time =    1.000,"P-22-1",          1208,       47.4434,       52.5664,            0.,NA,NA,"",   1.04695E+06,   1.06220E+06,   1.06220E+06
C:/temp/Job-22.odb,Step-1,Increment      1: Step Time =    1.000,"P-22-1",          1209,       38.0183,       57.9383,            0.,NA,NA,"",   981.080E+03,   1.01971E+06,   1.01971E+06
C:/temp/Job-22.odb,Step-1,Increment      1: Step Time =    1.000,"P-22-1",          1210,       159.459,       136.409,            0.,NA,NA,"",   1.04898E+06,   1.03298E+06,   1.03298E+06
C:/temp/Job-22.odb,Step-1,Increment      1: Step Time =    1.000,"P-22-1",          1211,       155.605,       144.743,            0.,NA,NA,"",   1.07147E+06,   1.05112E+06,   1.05112E+06
C:/temp/Job-22.odb,Step-1,Increment      1: Step Time =    1.000,"P-22-1",          1212,       145.381,       47.0370,            0.,NA,NA,"",   1.09310E+06,   1.07066E+06,   1.07066E+06
C:/temp/Job-22.odb,Step-1,Increment      1: Step Time =    1.000,"P-22-1",          1213,       88.0015,       138.056,            0.,NA,NA,"",   1.14868E+06,   1.19097E+06,   1.19097E+06
C:/temp/Job-22.odb,Step-1,Increment      1: Step Time =    1.000,"P-22-1",          1214,       114.371,       141.075,            0.,NA,NA,"",   1.13385E+06,   1.15800E+06,   1.15800E+06
C:/temp/Job-22.odb,Step-1,Increment      1: Step Time =    1.000,"P-22-1",          1215,       50.5475,       154.076,            0.,NA,NA,"",   1.06919E+06,   1.07782E+06,   1.07782E+06
C:/temp/Job-22.odb,Step-1,Increment      1: Step Time =    1.000,"P-22-1",          1216,       46.6666,       48.4522,            0.,NA,NA,"",   1.05246E+06,   1.06763E+06,   1.06763E+06
C:/temp/Job-22.odb,Step-1,Increment      1: Step Time =    1.000,"P-22-1",          1217,       156.887,       152.862,            0.,NA,NA,"",   1.06312E+06,   1.04725E+06,   1.04725E+06
C:/temp/Job-22.odb,Step-1,Increment      1: Step Time =    1.000,"P-22-1",          1218,       149.702,       43.5830,            0.,NA,NA,"",   1.07458E+06,   1.05653E+06,   1.05653E+06
C:/temp/Job-22.odb,Step-1,Increment      1: Step Time =    1.000,"P-22-1",          1219,       82.7722,       143.756,            0.,NA,NA,"",   1.13057E+06,   1.14995E+06,   1.14995E+06
C:/temp/Job-22.odb,Step-1,Increment      1: Step Time =    1.000,"P-22-1",          1220,       118.233,       141.150,            0.,NA,NA,"",   1.15529E+06,   1.16131E+06,   1.16131E+06
C:/temp/Job-22.odb,Step-1,Increment      1: Step Time =    1.000,"P-22-1",          1221,       47.5471,       40.1474,            0.,NA,NA,"",   1.06591E+06,   1.07704E+06,   1.07704E+06
C:/temp/Job-22.odb,Step-1,Increment      1: Step Time =    1.000,"P-22-1",          1222,       156.593,       155.968,            0.,NA,NA,"",   1.06017E+06,   1.04534E+06,   1.04534E+06
C:/temp/Job-22.odb,Step-1,Increment      1: Step Time =    1.000,"P-22-1",          1223,       43.4044,       151.913,            0.,NA,NA,"",   1.03962E+06,   1.06094E+06,   1.06094E+06
C:/temp/Job-22.odb,Step-1,Increment      1: Step Time =    1.000,"P-22-1",          1224,       154.921,       44.4735,            0.,NA,NA,"",   1.06382E+06,   1.04803E+06,   1.04803E+06
C:/temp/Job-22.odb,Step-1,Increment      1: Step Time =    1.000,"P-22-1",          1225,       87.8342,       143.215,            0.,NA,NA,"",   1.10685E+06,   1.14660E+06,   1.14660E+06
C:/temp/Job-22.odb,Step-1,Increment      1: Step Time =    1.000,"P-22-1",          1226,       88.0957,       148.535,            0.,NA,NA,"",   1.07651E+06,   1.11196E+06,   1.11196E+06
C:/temp/Job-22.odb,Step-1,Increment      1: Step Time =    1.000,"P-22-1",          1227,       122.499,       137.384,            0.,NA,NA,"",   1.20256E+06,   1.18119E+06,   1.18119E+06
C:/temp/Job-22.odb,Step-1,Increment      1: Step Time =    1.000,"P-22-1",          1228,       92.5678,       143.140,            0.,NA,NA,"",   1.07693E+06,   1.13402E+06,   1.13402E+06
C:/temp/Job-22.odb,Step-1,Increment      1: Step Time =    1.000,"P-22-1",          1229,       84.1361,       154.658,            0.,NA,NA,"",   1.07057E+06,   1.09243E+06,   1.09243E+06
C:/temp/Job-22.odb,Step-1,Increment      1: Step Time =    1.000,"P-22-1",          1230,       96.4987,       144.091,            0.,NA,NA,"",   1.05385E+06,   1.11778E+06,   1.11778E+06
C:/temp/Job-22.odb,Step-1,Increment      1: Step Time =    1.000,"P-22-1",          1231,       88.8189,       153.579,            0.,NA,NA,"",   1.05763E+06,   1.08892E+06,   1.08892E+06
C:/temp/Job-22.odb,Step-1,Increment      1: Step Time =    1.000,"P-22-1",          1232,       78.6947,       150.539,            0.,NA,NA,"",   1.10709E+06,   1.11810E+06,   1.11810E+06
C:/temp/Job-22.odb,Step-1,Increment      1: Step Time =    1.000,"P-22-1",          1233,       96.2840,       147.641,            0.,NA,NA,"",   1.04531E+06,   1.09998E+06,   1.09998E+06
C:/temp/Job-22.odb,Step-1,Increment      1: Step Time =    1.000,"P-22-1",          1234,       79.4019,       155.847,            0.,NA,NA,"",   1.08210E+06,   1.09516E+06,   1.09516E+06
C:/temp/Job-22.odb,Step-1,Increment      1: Step Time =    1.000,"P-22-1",          1235,       93.2886,       152.638,            0.,NA,NA,"",   1.04488E+06,   1.08483E+06,   1.08483E+06
C:/temp/Job-22.odb,Step-1,Increment      1: Step Time =    1.000,"P-22-1",          1236,       97.4994,       151.554,            0.,NA,NA,"",   1.03703E+06,   1.08397E+06,   1.08397E+06
C:/temp/Job-22.odb,Step-1,Increment      1: Step Time =    1.000,"P-22-1",          1237,       103.492,       153.997,            0.,NA,NA,"",   1.03520E+06,   1.07529E+06,   1.07529E+06
C:/temp/Job-22.odb,Step-1,Increment      1: Step Time =    1.000,"P-22-1",          1238,       74.0078,       151.811,            0.,NA,NA,"",   1.11189E+06,   1.11464E+06,   1.11464E+06
C:/temp/Job-22.odb,Step-1,Increment      1: Step Time =    1.000,"P-22-1",          1239,       80.2113,       161.284,            0.,NA,NA,"",   1.06121E+06,   1.07410E+06,   1.07410E+06
C:/temp/Job-22.odb,Step-1,Increment      1: Step Time =    1.000,"P-22-1",          1240,       108.244,       151.636,            0.,NA,NA,"",   1.05456E+06,   1.08998E+06,   1.08998E+06
C:/temp/Job-22.odb,Step-1,Increment      1: Step Time =    1.000,"P-22-1",          1241,       99.0038,       155.795,            0.,NA,NA,"",   1.02965E+06,   1.06866E+06,   1.06866E+06
C:/temp/Job-22.odb,Step-1,Increment      1: Step Time =    1.000,"P-22-1",          1242,       86.3914,       163.980,            0.,NA,NA,"",   1.03766E+06,   1.05605E+06,   1.05605E+06
C:/temp/Job-22.odb,Step-1,Increment      1: Step Time =    1.000,"P-22-1",          1243,       69.4409,       152.831,            0.,NA,NA,"",   1.11073E+06,   1.10913E+06,   1.10913E+06
C:/temp/Job-22.odb,Step-1,Increment      1: Step Time =    1.000,"P-22-1",          1244,       110.433,       147.344,            0.,NA,NA,"",   1.07834E+06,   1.11286E+06,   1.11286E+06
C:/temp/Job-22.odb,Step-1,Increment      1: Step Time =    1.000,"P-22-1",          1245,       81.6873,       167.374,            0.,NA,NA,"",   1.03986E+06,   1.05151E+06,   1.05151E+06
C:/temp/Job-22.odb,Step-1,Increment      1: Step Time =    1.000,"P-22-1",          1246,       90.9805,       162.474,            0.,NA,NA,"",   1.03113E+06,   1.05520E+06,   1.05520E+06
C:/temp/Job-22.odb,Step-1,Increment      1: Step Time =    1.000,"P-22-1",          1247,       105.166,       158.591,            0.,NA,NA,"",   1.02999E+06,   1.06086E+06,   1.06086E+06
C:/temp/Job-22.odb,Step-1,Increment      1: Step Time =    1.000,"P-22-1",          1248,       113.546,       152.307,            0.,NA,NA,"",   1.07103E+06,   1.09289E+06,   1.09289E+06
C:/temp/Job-22.odb,Step-1,Increment      1: Step Time =    1.000,"P-22-1",          1249,       107.091,       163.040,            0.,NA,NA,"",   1.02455E+06,   1.04746E+06,   1.04746E+06
C:/temp/Job-22.odb,Step-1,Increment      1: Step Time =    1.000,"P-22-1",          1250,       88.1677,       166.800,            0.,NA,NA,"",   1.02777E+06,   1.04505E+06,   1.04505E+06
C:/temp/Job-22.odb,Step-1,Increment      1: Step Time =    1.000,"P-22-1",          1251,       111.282,       161.283,            0.,NA,NA,"",   1.03680E+06,   1.05693E+06,   1.05693E+06
C:/temp/Job-22.odb,Step-1,Increment      1: Step Time =    1.000,"P-22-1",          1252,       91.7857,       166.525,            0.,NA,NA,"",   1.02138E+06,   1.04153E+06,   1.04153E+06
C:/temp/Job-22.odb,Step-1,Increment      1: Step Time =    1.000,"P-22-1",          1253,       109.332,       166.993,            0.,NA,NA,"",   1.01872E+06,   1.03557E+06,   1.03557E+06
C:/temp/Job-22.odb,Step-1,Increment      1: Step Time =    1.000,"P-22-1",          1254,       95.6539,       161.542,            0.,NA,NA,"",   1.02443E+06,   1.05284E+06,   1.05284E+06
C:/temp/Job-22.odb,Step-1,Increment      1: Step Time =    1.000,"P-22-1",          1255,       82.2098,       121.844,            0.,NA,NA,"",   1.34684E+06,   1.28490E+06,   1.28490E+06
C:/temp/Job-22.odb,Step-1,Increment      1: Step Time =    1.000,"P-22-1",          1256,       122.210,       141.673,            0.,NA,NA,"",   1.16612E+06,   1.15587E+06,   1.15587E+06
C:/temp/Job-22.odb,Step-1,Increment      1: Step Time =    1.000,"P-22-1",          1257,       85.6820,       124.549,            0.,NA,NA,"",   1.32025E+06,   1.31876E+06,   1.31876E+06
C:/temp/Job-22.odb,Step-1,Increment      1: Step Time =    1.000,"P-22-1",          1258,       180.847,       80.1693,            0.,NA,NA,"",   969.322E+03,   991.204E+03,   991.204E+03
C:/temp/Job-22.odb,Step-1,Increment      1: Step Time =    1.000,"P-22-1",          1259,       19.5032,       120.224,            0.,NA,NA,"",   811.825E+03,   896.564E+03,   896.564E+03
C:/temp/Job-22.odb,Step-1,Increment      1: Step Time =    1.000,"P-22-1",          1260,       119.584,       180.903,            0.,NA,NA,"",   994.401E+03,   997.200E+03,   997.200E+03
C:/temp/Job-22.odb,Step-1,Increment      1: Step Time =    1.000,"P-22-1",          1261,       80.6916,       19.5989,            0.,NA,NA,"",   1.00418E+06,   1.00873E+06,   1.00873E+06
C:/temp/Job-22.odb,Step-1,Increment      1: Step Time =    1.000,"P-22-1",          1262,       35.9830,       94.7690,            0.,NA,NA,"",   779.258E+03,   850.554E+03,   850.554E+03
C:/temp/Job-22.odb,Step-1,Increment      1: Step Time =    1.000,"P-22-1",          1263,       104.946,       32.4992,            0.,NA,NA,"",   1.01217E+06,   1.03272E+06,   1.03272E+06
C:/temp/Job-22.odb,Step-1,Increment      1: Step Time =    1.000,"P-22-1",          1264,       60.6508,       155.228,            0.,NA,NA,"",   1.09401E+06,   1.09343E+06,   1.09343E+06
C:/temp/Job-22.odb,Step-1,Increment      1: Step Time =    1.000,"P-22-1",          1265,       45.1018,       58.6027,            0.,NA,NA,"",   1.01695E+06,   1.03948E+06,   1.03948E+06
C:/temp/Job-22.odb,Step-1,Increment      1: Step Time =    1.000,"P-22-1",          1266,       138.521,       47.9054,            0.,NA,NA,"",   1.10866E+06,   1.08574E+06,   1.08574E+06
C:/temp/Job-22.odb,Step-1,Increment      1: Step Time =    1.000,"P-22-1",          1267,       153.933,       138.862,            0.,NA,NA,"",   1.07411E+06,   1.05026E+06,   1.05026E+06
C:/temp/Job-22.odb,Step-1,Increment      1: Step Time =    1.000,"P-22-1",          1268,       77.7861,       145.191,            0.,NA,NA,"",   1.13895E+06,   1.14335E+06,   1.14335E+06
C:/temp/Job-22.odb,Step-1,Increment      1: Step Time =    1.000,"P-22-1",          1269,       165.606,       88.9801,            0.,NA,NA,"",   934.167E+03,   947.723E+03,   947.723E+03
C:/temp/Job-22.odb,Step-1,Increment      1: Step Time =    1.000,"P-22-1",          1270,       33.6037,       108.830,            0.,NA,NA,"",   793.697E+03,   866.085E+03,   866.085E+03
C:/temp/Job-22.odb,Step-1,Increment      1: Step Time =    1.000,"P-22-1",          1271,       131.596,       134.440,            0.,NA,NA,"",   1.19866E+06,   1.14594E+06,   1.14594E+06
C:/temp/Job-22.odb,Step-1,Increment      1: Step Time =    1.000,"P-22-1",          1272,       67.0656,       107.670,            0.,NA,NA,"",   715.198E+03,   715.930E+03,   715.930E+03
C:/temp/Job-22.odb,Step-1,Increment      1: Step Time =    1.000,"P-22-1",          1273,       31.6339,       35.9679,            0.,NA,NA,"",   1.03863E+06,   1.07290E+06,   1.07290E+06
C:/temp/Job-22.odb,Step-1,Increment      1: Step Time =    1.000,"P-22-1",          1274,       31.0652,       168.146,            0.,NA,NA,"",   1.05010E+06,   1.08263E+06,   1.08263E+06
C:/temp/Job-22.odb,Step-1,Increment      1: Step Time =    1.000,"P-22-1",          1275,       161.558,       30.2086,            0.,NA,NA,"",   1.02946E+06,   1.02285E+06,   1.02285E+06
C:/temp/Job-22.odb,Step-1,Increment      1: Step Time =    1.000,"P-22-1",          1276,       169.461,       161.645,            0.,NA,NA,"",   1.02688E+06,   1.02196E+06,   1.02196E+06
C:/temp/Job-22.odb,Step-1,Increment      1: Step Time =    1.000,"P-22-1",          1277,       53.3828,       99.1762,            0.,NA,NA,"",   706.806E+03,   761.956E+03,   761.956E+03
C:/temp/Job-22.odb,Step-1,Increment      1: Step Time =    1.000,"P-22-1",          1278,       79.3399,       69.9708,            0.,NA,NA,"",   1.25907E+06,   1.23418E+06,   1.23418E+06
C:/temp/Job-22.odb,Step-1,Increment      1: Step Time =    1.000,"P-22-1",          1279,       148.376,       88.7257,            0.,NA,NA,"",   889.401E+03,   886.854E+03,   886.854E+03
C:/temp/Job-22.odb,Step-1,Increment      1: Step Time =    1.000,"P-22-1",          1280,       166.803,       77.7560,            0.,NA,NA,"",   982.194E+03,   986.134E+03,   986.134E+03
C:/temp/Job-22.odb,Step-1,Increment      1: Step Time =    1.000,"P-22-1",          1281,       120.737,       166.492,            0.,NA,NA,"",   1.03967E+06,   1.04504E+06,   1.04504E+06
C:/temp/Job-22.odb,Step-1,Increment      1: Step Time =    1.000,"P-22-1",          1282,       78.6730,       36.2737,            0.,NA,NA,"",   1.05804E+06,   1.06826E+06,   1.06826E+06
C:/temp/Job-22.odb,Step-1,Increment      1: Step Time =    1.000,"P-22-1",          1283,       34.9490,       122.304,            0.,NA,NA,"",   860.328E+03,   921.232E+03,   921.232E+03
C:/temp/Job-22.odb,Step-1,Increment      1: Step Time =    1.000,"P-22-1",          1284,       99.2047,       146.287,            0.,NA,NA,"",   1.04363E+06,   1.10408E+06,   1.10408E+06
C:/temp/Job-22.odb,Step-1,Increment      1: Step Time =    1.000,"P-22-1",          1285,       65.3843,       101.991,            0.,NA,NA,"",   572.244E+03,   609.517E+03,   609.517E+03
C:/temp/Job-22.odb,Step-1,Increment      1: Step Time =    1.000,"P-22-1",          1286,       114.757,       165.470,            0.,NA,NA,"",   1.03188E+06,   1.04462E+06,   1.04462E+06
C:/temp/Job-22.odb,Step-1,Increment      1: Step Time =    1.000,"P-22-1",          1287,       61.4259,       143.594,            0.,NA,NA,"",   1.10818E+06,   1.10167E+06,   1.10167E+06
C:/temp/Job-22.odb,Step-1,Increment      1: Step Time =    1.000,"P-22-1",          1288,       144.315,       119.678,            0.,NA,NA,"",   1.01669E+06,   982.281E+03,   982.281E+03
C:/temp/Job-22.odb,Step-1,Increment      1: Step Time =    1.000,"P-22-1",          1289,       19.1314,       162.388,            0.,NA,NA,"",   983.469E+03,   1.05032E+06,   1.05032E+06
C:/temp/Job-22.odb,Step-1,Increment      1: Step Time =    1.000,"P-22-1",          1290,       37.8738,       19.8961,            0.,NA,NA,"",   1.07059E+06,   1.07928E+06,   1.07928E+06
C:/temp/Job-22.odb,Step-1,Increment      1: Step Time =    1.000,"P-22-1",          1291,       178.414,       38.3277,            0.,NA,NA,"",   1.01294E+06,   1.01265E+06,   1.01265E+06
C:/temp/Job-22.odb,Step-1,Increment      1: Step Time =    1.000,"P-22-1",          1292,       161.610,       178.443,            0.,NA,NA,"",   1.01667E+06,   1.01273E+06,   1.01273E+06
C:/temp/Job-22.odb,Step-1,Increment      1: Step Time =    1.000,"P-22-1",          1293,       47.0096,       14.2939,            0.,NA,NA,"",   1.04518E+06,   1.04626E+06,   1.04626E+06
C:/temp/Job-22.odb,Step-1,Increment      1: Step Time =    1.000,"P-22-1",          1294,       152.296,       184.992,            0.,NA,NA,"",   1.00738E+06,   1.00454E+06,   1.00454E+06
C:/temp/Job-22.odb,Step-1,Increment      1: Step Time =    1.000,"P-22-1",          1295,       185.001,       47.6433,            0.,NA,NA,"",   1.00237E+06,   1.00792E+06,   1.00792E+06
C:/temp/Job-22.odb,Step-1,Increment      1: Step Time =    1.000,"P-22-1",          1296,       12.4475,       153.005,            0.,NA,NA,"",   911.826E+03,   998.409E+03,   998.409E+03
C:/temp/Job-22.odb,Step-1,Increment      1: Step Time =    1.000,"P-22-1",          1297,       57.9129,       82.5992,            0.,NA,NA,"",   916.059E+03,   923.301E+03,   923.301E+03
C:/temp/Job-22.odb,Step-1,Increment      1: Step Time =    1.000,"P-22-1",          1298,       154.502,       69.9451,            0.,NA,NA,"",   1.04586E+06,   1.02448E+06,   1.02448E+06
C:/temp/Job-22.odb,Step-1,Increment      1: Step Time =    1.000,"P-22-1",          1299,       157.674,       122.544,            0.,NA,NA,"",   996.432E+03,   986.961E+03,   986.961E+03
C:/temp/Job-22.odb,Step-1,Increment      1: Step Time =    1.000,"P-22-1",          1300,       164.163,       96.0406,            0.,NA,NA,"",   909.723E+03,   927.273E+03,   927.273E+03
C:/temp/Job-22.odb,Step-1,Increment      1: Step Time =    1.000,"P-22-1",          1301,       95.7537,       35.8428,            0.,NA,NA,"",   1.02071E+06,   1.04529E+06,   1.04529E+06
C:/temp/Job-22.odb,Step-1,Increment      1: Step Time =    1.000,"P-22-1",          1302,       149.128,       122.554,            0.,NA,NA,"",   1.02382E+06,   997.217E+03,   997.217E+03
C:/temp/Job-22.odb,Step-1,Increment      1: Step Time =    1.000,"P-22-1",          1303,       39.8202,       121.613,            0.,NA,NA,"",   871.887E+03,   923.891E+03,   923.891E+03
C:/temp/Job-22.odb,Step-1,Increment      1: Step Time =    1.000,"P-22-1",          1304,       157.491,       94.1871,            0.,NA,NA,"",   886.156E+03,   900.084E+03,   900.084E+03
C:/temp/Job-22.odb,Step-1,Increment      1: Step Time =    1.000,"P-22-1",          1305,       98.4814,       140.456,            0.,NA,NA,"",   1.06552E+06,   1.13988E+06,   1.13988E+06
C:/temp/Job-22.odb,Step-1,Increment      1: Step Time =    1.000,"P-22-1",          1306,       64.9895,       112.872,            0.,NA,NA,"",   874.620E+03,   863.236E+03,   863.236E+03
C:/temp/Job-22.odb,Step-1,Increment      1: Step Time =    1.000,"P-22-1",          1307,       32.8426,       55.4337,            0.,NA,NA,"",   967.138E+03,   1.01542E+06,   1.01542E+06
C:/temp/Job-22.odb,Step-1,Increment      1: Step Time =    1.000,"P-22-1",          1308,       138.137,       36.7542,            0.,NA,NA,"",   1.06905E+06,   1.05691E+06,   1.05691E+06
C:/temp/Job-22.odb,Step-1,Increment      1: Step Time =    1.000,"P-22-1",          1309,       60.2921,       163.683,            0.,NA,NA,"",   1.08005E+06,   1.08083E+06,   1.08083E+06
C:/temp/Job-22.odb,Step-1,Increment      1: Step Time =    1.000,"P-22-1",          1310,       164.005,       137.777,            0.,NA,NA,"",   1.03695E+06,   1.02677E+06,   1.02677E+06
C:/temp/Job-22.odb,Step-1,Increment      1: Step Time =    1.000,"P-22-1",          1311,       136.737,       102.790,            0.,NA,NA,"",   685.928E+03,   694.587E+03,   694.587E+03
C:/temp/Job-22.odb,Step-1,Increment      1: Step Time =    1.000,"P-22-1",          1312,       90.2840,       20.0614,            0.,NA,NA,"",   991.924E+03,   999.733E+03,   999.733E+03
C:/temp/Job-22.odb,Step-1,Increment      1: Step Time =    1.000,"P-22-1",          1313,       19.5547,       110.714,            0.,NA,NA,"",   786.336E+03,   873.021E+03,   873.021E+03
C:/temp/Job-22.odb,Step-1,Increment      1: Step Time =    1.000,"P-22-1",          1314,       180.887,       89.7381,            0.,NA,NA,"",   954.184E+03,   981.623E+03,   981.623E+03
C:/temp/Job-22.odb,Step-1,Increment      1: Step Time =    1.000,"P-22-1",          1315,       110.023,       180.752,            0.,NA,NA,"",   985.882E+03,   992.367E+03,   992.367E+03
C:/temp/Job-22.odb,Step-1,Increment      1: Step Time =    1.000,"P-22-1",          1316,       142.827,       81.9601,            0.,NA,NA,"",   997.277E+03,   962.968E+03,   962.968E+03
C:/temp/Job-22.odb,Step-1,Increment      1: Step Time =    1.000,"P-22-1",          1317,       118.085,       145.132,            0.,NA,NA,"",   1.12545E+06,   1.13542E+06,   1.13542E+06
C:/temp/Job-22.odb,Step-1,Increment      1: Step Time =    1.000,"P-22-1",          1318,       68.7971,       148.430,            0.,NA,NA,"",   1.12337E+06,   1.11832E+06,   1.11832E+06
C:/temp/Job-22.odb,Step-1,Increment      1: Step Time =    1.000,"P-22-1",          1319,       144.275,       57.3096,            0.,NA,NA,"",   1.11893E+06,   1.08548E+06,   1.08548E+06
C:/temp/Job-22.odb,Step-1,Increment      1: Step Time =    1.000,"P-22-1",          1320,       144.190,       146.596,            0.,NA,NA,"",   1.11113E+06,   1.08234E+06,   1.08234E+06
C:/temp/Job-22.odb,Step-1,Increment      1: Step Time =    1.000,"P-22-1",          1321,       57.8270,       53.4893,            0.,NA,NA,"",   1.09477E+06,   1.09248E+06,   1.09248E+06
C:/temp/Job-22.odb,Step-1,Increment      1: Step Time =    1.000,"P-22-1",          1322,       55.6513,       143.135,            0.,NA,NA,"",   1.08044E+06,   1.08128E+06,   1.08128E+06
C:/temp/Job-22.odb,Step-1,Increment      1: Step Time =    1.000,"P-22-1",          1323,       130.170,       70.6010,            0.,NA,NA,"",   1.22497E+06,   1.15546E+06,   1.15546E+06
C:/temp/Job-22.odb,Step-1,Increment      1: Step Time =    1.000,"P-22-1",          1324,       9.78644,       165.129,            0.,NA,NA,"",   951.590E+03,   1.04019E+06,   1.04019E+06
C:/temp/Job-22.odb,Step-1,Increment      1: Step Time =    1.000,"P-22-1",          1325,       164.353,       9.77763,            0.,NA,NA,"",   1.00143E+06,   1.00054E+06,   1.00054E+06
C:/temp/Job-22.odb,Step-1,Increment      1: Step Time =    1.000,"P-22-1",          1326,       34.5165,       9.82462,            0.,NA,NA,"",   1.06419E+06,   1.06772E+06,   1.06772E+06
C:/temp/Job-22.odb,Step-1,Increment      1: Step Time =    1.000,"P-22-1",          1327,       11.4531,       35.3798,            0.,NA,NA,"",   958.418E+03,   1.04299E+06,   1.04299E+06
C:/temp/Job-22.odb,Step-1,Increment      1: Step Time =    1.000,"P-22-1",          1328,       165.351,       190.959,            0.,NA,NA,"",   1.00049E+06,   999.832E+03,   999.832E+03
C:/temp/Job-22.odb,Step-1,Increment      1: Step Time =    1.000,"P-22-1",          1329,       190.206,       164.358,            0.,NA,NA,"",   999.966E+03,   1.00303E+06,   1.00303E+06
C:/temp/Job-22.odb,Step-1,Increment      1: Step Time =    1.000,"P-22-1",          1330,       190.962,       34.6339,            0.,NA,NA,"",   999.318E+03,   1.00231E+06,   1.00231E+06
C:/temp/Job-22.odb,Step-1,Increment      1: Step Time =    1.000,"P-22-1",          1331,       35.4736,       190.068,            0.,NA,NA,"",   1.06175E+06,   1.06496E+06,   1.06496E+06
C:/temp/Job-22.odb,Step-1,Increment      1: Step Time =    1.000,"P-22-1",          1332,       103.054,       77.5333,            0.,NA,NA,"",   1.36315E+06,   1.50354E+06,   1.50354E+06
C:/temp/Job-22.odb,Step-1,Increment      1: Step Time =    1.000,"P-22-1",          1333,       97.6365,       77.0028,            0.,NA,NA,"",   1.46227E+06,   1.60083E+06,   1.60083E+06
C:/temp/Job-22.odb,Step-1,Increment      1: Step Time =    1.000,"P-22-1",          1334,       140.382,       78.4925,            0.,NA,NA,"",   1.05697E+06,   1.00930E+06,   1.00930E+06
C:/temp/Job-22.odb,Step-1,Increment      1: Step Time =    1.000,"P-22-1",          1335,       74.6689,       39.6938,            0.,NA,NA,"",   1.07874E+06,   1.08468E+06,   1.08468E+06
C:/temp/Job-22.odb,Step-1,Increment      1: Step Time =    1.000,"P-22-1",          1336,       121.826,       161.859,            0.,NA,NA,"",   1.05798E+06,   1.06235E+06,   1.06235E+06
C:/temp/Job-22.odb,Step-1,Increment      1: Step Time =    1.000,"P-22-1",          1337,       162.411,       76.5420,            0.,NA,NA,"",   991.034E+03,   988.183E+03,   988.183E+03
C:/temp/Job-22.odb,Step-1,Increment      1: Step Time =    1.000,"P-22-1",          1338,       38.9393,       125.599,            0.,NA,NA,"",   893.446E+03,   943.901E+03,   943.901E+03
C:/temp/Job-22.odb,Step-1,Increment      1: Step Time =    1.000,"P-22-1",          1339,       75.1799,       162.244,            0.,NA,NA,"",   1.07012E+06,   1.07696E+06,   1.07696E+06
C:/temp/Job-22.odb,Step-1,Increment      1: Step Time =    1.000,"P-22-1",          1340,       124.014,       71.9420,            0.,NA,NA,"",   1.28142E+06,   1.21220E+06,   1.21220E+06
C:/temp/Job-22.odb,Step-1,Increment      1: Step Time =    1.000,"P-22-1",          1341,       163.273,       114.087,            0.,NA,NA,"",   943.342E+03,   952.196E+03,   952.196E+03
C:/temp/Job-22.odb,Step-1,Increment      1: Step Time =    1.000,"P-22-1",          1342,       24.8700,       9.78222,            0.,NA,NA,"",   1.10534E+06,   1.11381E+06,   1.11381E+06
C:/temp/Job-22.odb,Step-1,Increment      1: Step Time =    1.000,"P-22-1",          1343,       10.5505,       25.0872,            0.,NA,NA,"",   1.01744E+06,   1.09706E+06,   1.09706E+06
C:/temp/Job-22.odb,Step-1,Increment      1: Step Time =    1.000,"P-22-1",          1344,       10.0261,       174.835,            0.,NA,NA,"",   1.01330E+06,   1.09496E+06,   1.09496E+06
C:/temp/Job-22.odb,Step-1,Increment      1: Step Time =    1.000,"P-22-1",          1345,       174.202,       10.2352,            0.,NA,NA,"",   1.00173E+06,   1.00132E+06,   1.00132E+06
C:/temp/Job-22.odb,Step-1,Increment      1: Step Time =    1.000,"P-22-1",          1346,       190.284,       25.5768,            0.,NA,NA,"",   1.00083E+06,   1.00185E+06,   1.00185E+06
C:/temp/Job-22.odb,Step-1,Increment      1: Step Time =    1.000,"P-22-1",          1347,       25.4907,       189.617,            0.,NA,NA,"",   1.10255E+06,   1.11139E+06,   1.11139E+06
C:/temp/Job-22.odb,Step-1,Increment      1: Step Time =    1.000,"P-22-1",          1348,       174.412,       190.279,            0.,NA,NA,"",   1.00128E+06,   1.00096E+06,   1.00096E+06
C:/temp/Job-22.odb,Step-1,Increment      1: Step Time =    1.000,"P-22-1",          1349,       189.753,       174.197,            0.,NA,NA,"",   1.00122E+06,   1.00218E+06,   1.00218E+06
C:/temp/Job-22.odb,Step-1,Increment      1: Step Time =    1.000,"P-22-1",          1350,       54.3444,       103.683,            0.,NA,NA,"",   715.876E+03,   767.584E+03,   767.584E+03
C:/temp/Job-22.odb,Step-1,Increment      1: Step Time =    1.000,"P-22-1",          1351,       133.473,       36.1344,            0.,NA,NA,"",   1.06626E+06,   1.05770E+06,   1.05770E+06
C:/temp/Job-22.odb,Step-1,Increment      1: Step Time =    1.000,"P-22-1",          1352,       165.144,       133.050,            0.,NA,NA,"",   1.02322E+06,   1.01643E+06,   1.01643E+06
C:/temp/Job-22.odb,Step-1,Increment      1: Step Time =    1.000,"P-22-1",          1353,       64.8971,       163.238,            0.,NA,NA,"",   1.08017E+06,   1.08063E+06,   1.08063E+06
C:/temp/Job-22.odb,Step-1,Increment      1: Step Time =    1.000,"P-22-1",          1354,       37.2675,       66.0668,            0.,NA,NA,"",   937.181E+03,   983.858E+03,   983.858E+03
C:/temp/Job-22.odb,Step-1,Increment      1: Step Time =    1.000,"P-22-1",          1355,       142.064,       94.1009,            0.,NA,NA,"",   775.632E+03,   782.608E+03,   782.608E+03
C:/temp/Job-22.odb,Step-1,Increment      1: Step Time =    1.000,"P-22-1",          1356,       10.1981,       184.746,            0.,NA,NA,"",   1.11643E+06,   1.18055E+06,   1.18055E+06
C:/temp/Job-22.odb,Step-1,Increment      1: Step Time =    1.000,"P-22-1",          1357,       184.506,       10.4124,            0.,NA,NA,"",   1.00064E+06,   1.00067E+06,   1.00067E+06
C:/temp/Job-22.odb,Step-1,Increment      1: Step Time =    1.000,"P-22-1",          1358,       15.0714,       9.96805,            0.,NA,NA,"",   1.17412E+06,   1.19579E+06,   1.19579E+06
C:/temp/Job-22.odb,Step-1,Increment      1: Step Time =    1.000,"P-22-1",          1359,       10.1857,       15.0451,            0.,NA,NA,"",   1.11989E+06,   1.18338E+06,   1.18338E+06
C:/temp/Job-22.odb,Step-1,Increment      1: Step Time =    1.000,"P-22-1",          1360,       184.451,       189.533,            0.,NA,NA,"",   1.00067E+06,   1.00068E+06,   1.00068E+06
C:/temp/Job-22.odb,Step-1,Increment      1: Step Time =    1.000,"P-22-1",          1361,       189.581,       184.501,            0.,NA,NA,"",   1.00073E+06,   1.00088E+06,   1.00088E+06
C:/temp/Job-22.odb,Step-1,Increment      1: Step Time =    1.000,"P-22-1",          1362,       189.538,       15.5423,            0.,NA,NA,"",   1.00071E+06,   1.00090E+06,   1.00090E+06
C:/temp/Job-22.odb,Step-1,Increment      1: Step Time =    1.000,"P-22-1",          1363,       15.2788,       189.694,            0.,NA,NA,"",   1.17037E+06,   1.19286E+06,   1.19286E+06
C:/temp/Job-22.odb,Step-1,Increment      1: Step Time =    1.000,"P-22-1",          1364,       33.9798,       69.4378,            0.,NA,NA,"",   904.331E+03,   960.393E+03,   960.393E+03
C:/temp/Job-22.odb,Step-1,Increment      1: Step Time =    1.000,"P-22-1",          1365,       166.182,       128.335,            0.,NA,NA,"",   1.00541E+06,   1.00323E+06,   1.00323E+06
C:/temp/Job-22.odb,Step-1,Increment      1: Step Time =    1.000,"P-22-1",          1366,       128.636,       35.7418,            0.,NA,NA,"",   1.06016E+06,   1.05629E+06,   1.05629E+06
C:/temp/Job-22.odb,Step-1,Increment      1: Step Time =    1.000,"P-22-1",          1367,       182.497,       154.571,            0.,NA,NA,"",   1.00622E+06,   1.00977E+06,   1.00977E+06
C:/temp/Job-22.odb,Step-1,Increment      1: Step Time =    1.000,"P-22-1",          1368,       154.541,       17.4186,            0.,NA,NA,"",   1.01162E+06,   1.00816E+06,   1.00816E+06
C:/temp/Job-22.odb,Step-1,Increment      1: Step Time =    1.000,"P-22-1",          1369,       45.2669,       182.436,            0.,NA,NA,"",   1.05663E+06,   1.05938E+06,   1.05938E+06
C:/temp/Job-22.odb,Step-1,Increment      1: Step Time =    1.000,"P-22-1",          1370,       17.0149,       45.2475,            0.,NA,NA,"",   939.525E+03,   1.01548E+06,   1.01548E+06
C:/temp/Job-22.odb,Step-1,Increment      1: Step Time =    1.000,"P-22-1",          1371,       152.815,       32.0492,            0.,NA,NA,"",   1.04287E+06,   1.03305E+06,   1.03305E+06
C:/temp/Job-22.odb,Step-1,Increment      1: Step Time =    1.000,"P-22-1",          1372,       32.3184,       45.2396,            0.,NA,NA,"",   1.00459E+06,   1.04680E+06,   1.04680E+06
C:/temp/Job-22.odb,Step-1,Increment      1: Step Time =    1.000,"P-22-1",          1373,       167.199,       152.753,            0.,NA,NA,"",   1.03633E+06,   1.02891E+06,   1.02891E+06
C:/temp/Job-22.odb,Step-1,Increment      1: Step Time =    1.000,"P-22-1",          1374,       46.7501,       168.162,            0.,NA,NA,"",   1.06810E+06,   1.07635E+06,   1.07635E+06
C:/temp/Job-22.odb,Step-1,Increment      1: Step Time =    1.000,"P-22-1",          1375,       33.0593,       77.2320,            0.,NA,NA,"",   854.810E+03,   919.462E+03,   919.462E+03
C:/temp/Job-22.odb,Step-1,Increment      1: Step Time =    1.000,"P-22-1",          1376,       166.078,       119.133,            0.,NA,NA,"",   969.311E+03,   975.515E+03,   975.515E+03
C:/temp/Job-22.odb,Step-1,Increment      1: Step Time =    1.000,"P-22-1",          1377,       50.1455,       169.735,            0.,NA,NA,"",   1.06913E+06,   1.07412E+06,   1.07412E+06
C:/temp/Job-22.odb,Step-1,Increment      1: Step Time =    1.000,"P-22-1",          1378,       149.236,       30.0102,            0.,NA,NA,"",   1.04183E+06,   1.03247E+06,   1.03247E+06
C:/temp/Job-22.odb,Step-1,Increment      1: Step Time =    1.000,"P-22-1",          1379,       169.654,       149.107,            0.,NA,NA,"",   1.03084E+06,   1.02546E+06,   1.02546E+06
C:/temp/Job-22.odb,Step-1,Increment      1: Step Time =    1.000,"P-22-1",          1380,       27.2721,       48.3452,            0.,NA,NA,"",   970.301E+03,   1.02618E+06,   1.02618E+06
C:/temp/Job-22.odb,Step-1,Increment      1: Step Time =    1.000,"P-22-1",          1381,       133.850,       149.203,            0.,NA,NA,"",   1.12710E+06,   1.10382E+06,   1.10382E+06
C:/temp/Job-22.odb,Step-1,Increment      1: Step Time =    1.000,"P-22-1",          1382,       150.421,       69.1124,            0.,NA,NA,"",   1.06722E+06,   1.03768E+06,   1.03768E+06
C:/temp/Job-22.odb,Step-1,Increment      1: Step Time =    1.000,"P-22-1",          1383,       64.5233,       48.0667,            0.,NA,NA,"",   1.10916E+06,   1.10573E+06,   1.10573E+06
C:/temp/Job-22.odb,Step-1,Increment      1: Step Time =    1.000,"P-22-1",          1384,       50.2031,       135.672,            0.,NA,NA,"",   1.02652E+06,   1.03886E+06,   1.03886E+06
C:/temp/Job-22.odb,Step-1,Increment      1: Step Time =    1.000,"P-22-1",          1385,       33.7800,       90.6320,            0.,NA,NA,"",   791.622E+03,   864.017E+03,   864.017E+03
C:/temp/Job-22.odb,Step-1,Increment      1: Step Time =    1.000,"P-22-1",          1386,       108.836,       32.9148,            0.,NA,NA,"",   1.01751E+06,   1.03557E+06,   1.03557E+06
C:/temp/Job-22.odb,Step-1,Increment      1: Step Time =    1.000,"P-22-1",          1387,       107.157,       75.9290,            0.,NA,NA,"",   1.35257E+06,   1.44369E+06,   1.44369E+06
C:/temp/Job-22.odb,Step-1,Increment      1: Step Time =    1.000,"P-22-1",          1388,       91.3054,       75.3434,            0.,NA,NA,"",   1.32914E+06,   1.39866E+06,   1.39866E+06
C:/temp/Job-22.odb,Step-1,Increment      1: Step Time =    1.000,"P-22-1",          1389,       49.9944,       89.8612,            0.,NA,NA,"",   783.867E+03,   832.875E+03,   832.875E+03
C:/temp/Job-22.odb,Step-1,Increment      1: Step Time =    1.000,"P-22-1",          1390,       30.0049,       26.3899,            0.,NA,NA,"",   1.06661E+06,   1.09254E+06,   1.09254E+06
C:/temp/Job-22.odb,Step-1,Increment      1: Step Time =    1.000,"P-22-1",          1391,       170.732,       176.621,            0.,NA,NA,"",   1.01309E+06,   1.01063E+06,   1.01063E+06
C:/temp/Job-22.odb,Step-1,Increment      1: Step Time =    1.000,"P-22-1",          1392,       176.604,       29.2325,            0.,NA,NA,"",   1.01193E+06,   1.01059E+06,   1.01059E+06
C:/temp/Job-22.odb,Step-1,Increment      1: Step Time =    1.000,"P-22-1",          1393,       24.7787,       170.024,            0.,NA,NA,"",   1.03917E+06,   1.08183E+06,   1.08183E+06
C:/temp/Job-22.odb,Step-1,Increment      1: Step Time =    1.000,"P-22-1",          1394,       69.6000,       157.657,            0.,NA,NA,"",   1.09421E+06,   1.09528E+06,   1.09528E+06
C:/temp/Job-22.odb,Step-1,Increment      1: Step Time =    1.000,"P-22-1",          1395,       49.5540,       108.466,            0.,NA,NA,"",   774.876E+03,   826.639E+03,   826.639E+03
C:/temp/Job-22.odb,Step-1,Increment      1: Step Time =    1.000,"P-22-1",          1396,       136.803,       130.944,            0.,NA,NA,"",   1.15856E+06,   1.10271E+06,   1.10271E+06
C:/temp/Job-22.odb,Step-1,Increment      1: Step Time =    1.000,"P-22-1",          1397,       140.288,       122.019,            0.,NA,NA,"",   1.06891E+06,   1.01941E+06,   1.01941E+06
C:/temp/Job-22.odb,Step-1,Increment      1: Step Time =    1.000,"P-22-1",          1398,       61.8950,       81.0827,            0.,NA,NA,"",   974.448E+03,   961.847E+03,   961.847E+03
C:/temp/Job-22.odb,Step-1,Increment      1: Step Time =    1.000,"P-22-1",          1399,       149.158,       142.435,            0.,NA,NA,"",   1.09591E+06,   1.06741E+06,   1.06741E+06
C:/temp/Job-22.odb,Step-1,Increment      1: Step Time =    1.000,"P-22-1",          1400,       58.5927,       146.148,            0.,NA,NA,"",   1.09567E+06,   1.09330E+06,   1.09330E+06
C:/temp/Job-22.odb,Step-1,Increment      1: Step Time =    1.000,"P-22-1",          1401,       141.969,       51.2016,            0.,NA,NA,"",   1.11132E+06,   1.08442E+06,   1.08442E+06
C:/temp/Job-22.odb,Step-1,Increment      1: Step Time =    1.000,"P-22-1",          1402,       49.1231,       56.6956,            0.,NA,NA,"",   1.04468E+06,   1.05822E+06,   1.05822E+06
C:/temp/Job-22.odb,Step-1,Increment      1: Step Time =    1.000,"P-22-1",          1403,       187.090,       58.1424,            0.,NA,NA,"",   992.209E+03,   1.00502E+06,   1.00502E+06
C:/temp/Job-22.odb,Step-1,Increment      1: Step Time =    1.000,"P-22-1",          1404,       58.3480,       12.7786,            0.,NA,NA,"",   1.01869E+06,   1.01858E+06,   1.01858E+06
C:/temp/Job-22.odb,Step-1,Increment      1: Step Time =    1.000,"P-22-1",          1405,       141.744,       187.050,            0.,NA,NA,"",   998.213E+03,   996.183E+03,   996.183E+03
C:/temp/Job-22.odb,Step-1,Increment      1: Step Time =    1.000,"P-22-1",          1406,       11.8281,       143.177,            0.,NA,NA,"",   870.484E+03,   960.343E+03,   960.343E+03
C:/temp/Job-22.odb,Step-1,Increment      1: Step Time =    1.000,"P-22-1",          1407,       14.9317,       161.722,            0.,NA,NA,"",   958.970E+03,   1.03681E+06,   1.03681E+06
C:/temp/Job-22.odb,Step-1,Increment      1: Step Time =    1.000,"P-22-1",          1408,       184.798,       39.9584,            0.,NA,NA,"",   1.00403E+06,   1.00708E+06,   1.00708E+06
C:/temp/Job-22.odb,Step-1,Increment      1: Step Time =    1.000,"P-22-1",          1409,       160.003,       184.804,            0.,NA,NA,"",   1.00739E+06,   1.00510E+06,   1.00510E+06
C:/temp/Job-22.odb,Step-1,Increment      1: Step Time =    1.000,"P-22-1",          1410,       38.7474,       15.0683,            0.,NA,NA,"",   1.06432E+06,   1.06907E+06,   1.06907E+06
C:/temp/Job-22.odb,Step-1,Increment      1: Step Time =    1.000,"P-22-1",          1411,       154.107,       26.8401,            0.,NA,NA,"",   1.03048E+06,   1.02333E+06,   1.02333E+06
C:/temp/Job-22.odb,Step-1,Increment      1: Step Time =    1.000,"P-22-1",          1412,       172.786,       154.120,            0.,NA,NA,"",   1.02419E+06,   1.02106E+06,   1.02106E+06
C:/temp/Job-22.odb,Step-1,Increment      1: Step Time =    1.000,"P-22-1",          1413,       45.3990,       172.943,            0.,NA,NA,"",   1.06758E+06,   1.07475E+06,   1.07475E+06
C:/temp/Job-22.odb,Step-1,Increment      1: Step Time =    1.000,"P-22-1",          1414,       26.8658,       43.8588,            0.,NA,NA,"",   986.814E+03,   1.04078E+06,   1.04078E+06
C:/temp/Job-22.odb,Step-1,Increment      1: Step Time =    1.000,"P-22-1",          1415,       101.357,       74.2825,            0.,NA,NA,"",   1.28828E+06,   1.41609E+06,   1.41609E+06
C:/temp/Job-22.odb,Step-1,Increment      1: Step Time =    1.000,"P-22-1",          1416,       44.4154,       108.779,            0.,NA,NA,"",   786.546E+03,   845.263E+03,   845.263E+03
C:/temp/Job-22.odb,Step-1,Increment      1: Step Time =    1.000,"P-22-1",          1417,       161.529,       91.7522,            0.,NA,NA,"",   911.812E+03,   925.392E+03,   925.392E+03
C:/temp/Job-22.odb,Step-1,Increment      1: Step Time =    1.000,"P-22-1",          1418,       129.372,       148.244,            0.,NA,NA,"",   1.13317E+06,   1.11476E+06,   1.11476E+06
C:/temp/Job-22.odb,Step-1,Increment      1: Step Time =    1.000,"P-22-1",          1419,       146.278,       70.2787,            0.,NA,NA,"",   1.08562E+06,   1.04792E+06,   1.04792E+06
C:/temp/Job-22.odb,Step-1,Increment      1: Step Time =    1.000,"P-22-1",          1420,       65.1867,       52.0203,            0.,NA,NA,"",   1.11851E+06,   1.11229E+06,   1.11229E+06
C:/temp/Job-22.odb,Step-1,Increment      1: Step Time =    1.000,"P-22-1",          1421,       73.2436,       45.9237,            0.,NA,NA,"",   1.10097E+06,   1.10422E+06,   1.10422E+06
C:/temp/Job-22.odb,Step-1,Increment      1: Step Time =    1.000,"P-22-1",          1422,       153.242,       73.9125,            0.,NA,NA,"",   1.03129E+06,   1.00989E+06,   1.00989E+06
C:/temp/Job-22.odb,Step-1,Increment      1: Step Time =    1.000,"P-22-1",          1423,       123.175,       151.815,            0.,NA,NA,"",   1.10454E+06,   1.10335E+06,   1.10335E+06
C:/temp/Job-22.odb,Step-1,Increment      1: Step Time =    1.000,"P-22-1",          1424,       48.3723,       100.089,            0.,NA,NA,"",   739.979E+03,   799.799E+03,   799.799E+03
C:/temp/Job-22.odb,Step-1,Increment      1: Step Time =    1.000,"P-22-1",          1425,       149.396,       82.7213,            0.,NA,NA,"",   965.942E+03,   949.998E+03,   949.998E+03
C:/temp/Job-22.odb,Step-1,Increment      1: Step Time =    1.000,"P-22-1",          1426,       65.0834,       153.007,            0.,NA,NA,"",   1.10689E+06,   1.10370E+06,   1.10370E+06
C:/temp/Job-22.odb,Step-1,Increment      1: Step Time =    1.000,"P-22-1",          1427,       44.1749,       104.816,            0.,NA,NA,"",   767.129E+03,   829.386E+03,   829.386E+03
C:/temp/Job-22.odb,Step-1,Increment      1: Step Time =    1.000,"P-22-1",          1428,       144.299,       125.095,            0.,NA,NA,"",   1.07005E+06,   1.02980E+06,   1.02980E+06
C:/temp/Job-22.odb,Step-1,Increment      1: Step Time =    1.000,"P-22-1",          1429,       14.3314,       165.613,            0.,NA,NA,"",   976.723E+03,   1.05268E+06,   1.05268E+06
C:/temp/Job-22.odb,Step-1,Increment      1: Step Time =    1.000,"P-22-1",          1430,       163.709,       14.7717,            0.,NA,NA,"",   1.00656E+06,   1.00469E+06,   1.00469E+06
C:/temp/Job-22.odb,Step-1,Increment      1: Step Time =    1.000,"P-22-1",          1431,       34.1986,       14.6481,            0.,NA,NA,"",   1.07483E+06,   1.08228E+06,   1.08228E+06
C:/temp/Job-22.odb,Step-1,Increment      1: Step Time =    1.000,"P-22-1",          1432,       16.8350,       34.6335,            0.,NA,NA,"",   987.719E+03,   1.05740E+06,   1.05740E+06
C:/temp/Job-22.odb,Step-1,Increment      1: Step Time =    1.000,"P-22-1",          1433,       165.178,       186.699,            0.,NA,NA,"",   1.00433E+06,   1.00298E+06,   1.00298E+06
C:/temp/Job-22.odb,Step-1,Increment      1: Step Time =    1.000,"P-22-1",          1434,       185.185,       163.721,            0.,NA,NA,"",   1.00401E+06,   1.00624E+06,   1.00624E+06
C:/temp/Job-22.odb,Step-1,Increment      1: Step Time =    1.000,"P-22-1",          1435,       186.699,       34.7956,            0.,NA,NA,"",   1.00212E+06,   1.00465E+06,   1.00465E+06
C:/temp/Job-22.odb,Step-1,Increment      1: Step Time =    1.000,"P-22-1",          1436,       36.0350,       185.036,            0.,NA,NA,"",   1.07009E+06,   1.07660E+06,   1.07660E+06
C:/temp/Job-22.odb,Step-1,Increment      1: Step Time =    1.000,"P-22-1",          1437,       44.8897,       64.8211,            0.,NA,NA,"",   987.307E+03,   1.01400E+06,   1.01400E+06
C:/temp/Job-22.odb,Step-1,Increment      1: Step Time =    1.000,"P-22-1",          1438,       153.302,       132.330,            0.,NA,NA,"",   1.06311E+06,   1.03834E+06,   1.03834E+06
C:/temp/Job-22.odb,Step-1,Increment      1: Step Time =    1.000,"P-22-1",          1439,       133.884,       45.9715,            0.,NA,NA,"",   1.10615E+06,   1.08852E+06,   1.08852E+06
C:/temp/Job-22.odb,Step-1,Increment      1: Step Time =    1.000,"P-22-1",          1440,       130.981,       139.048,            0.,NA,NA,"",   1.18293E+06,   1.14292E+06,   1.14292E+06
C:/temp/Job-22.odb,Step-1,Increment      1: Step Time =    1.000,"P-22-1",          1441,       89.5636,       70.4539,            0.,NA,NA,"",   1.24609E+06,   1.29843E+06,   1.29843E+06
C:/temp/Job-22.odb,Step-1,Increment      1: Step Time =    1.000,"P-22-1",          1442,       109.617,       69.4385,            0.,NA,NA,"",   1.21339E+06,   1.27284E+06,   1.27284E+06
C:/temp/Job-22.odb,Step-1,Increment      1: Step Time =    1.000,"P-22-1",          1443,       79.9776,       41.9084,            0.,NA,NA,"",   1.07207E+06,   1.08584E+06,   1.08584E+06
C:/temp/Job-22.odb,Step-1,Increment      1: Step Time =    1.000,"P-22-1",          1444,       117.235,       160.912,            0.,NA,NA,"",   1.05137E+06,   1.06299E+06,   1.06299E+06
C:/temp/Job-22.odb,Step-1,Increment      1: Step Time =    1.000,"P-22-1",          1445,       159.387,       81.4940,            0.,NA,NA,"",   967.923E+03,   966.519E+03,   966.519E+03
C:/temp/Job-22.odb,Step-1,Increment      1: Step Time =    1.000,"P-22-1",          1446,       35.2156,       117.392,            0.,NA,NA,"",   834.177E+03,   898.949E+03,   898.949E+03
C:/temp/Job-22.odb,Step-1,Increment      1: Step Time =    1.000,"P-22-1",          1447,       24.8487,       14.6081,            0.,NA,NA,"",   1.10423E+06,   1.12106E+06,   1.12106E+06
C:/temp/Job-22.odb,Step-1,Increment      1: Step Time =    1.000,"P-22-1",          1448,       15.6938,       24.8855,            0.,NA,NA,"",   1.04346E+06,   1.10512E+06,   1.10512E+06
C:/temp/Job-22.odb,Step-1,Increment      1: Step Time =    1.000,"P-22-1",          1449,       15.1272,       174.634,            0.,NA,NA,"",   1.03729E+06,   1.10166E+06,   1.10166E+06
C:/temp/Job-22.odb,Step-1,Increment      1: Step Time =    1.000,"P-22-1",          1450,       173.688,       15.3621,            0.,NA,NA,"",   1.00493E+06,   1.00403E+06,   1.00403E+06
C:/temp/Job-22.odb,Step-1,Increment      1: Step Time =    1.000,"P-22-1",          1451,       185.707,       26.4570,            0.,NA,NA,"",   1.00315E+06,   1.00393E+06,   1.00393E+06
C:/temp/Job-22.odb,Step-1,Increment      1: Step Time =    1.000,"P-22-1",          1452,       25.7286,       184.327,            0.,NA,NA,"",   1.09907E+06,   1.11656E+06,   1.11656E+06
C:/temp/Job-22.odb,Step-1,Increment      1: Step Time =    1.000,"P-22-1",          1453,       173.526,       185.704,            0.,NA,NA,"",   1.00412E+06,   1.00335E+06,   1.00335E+06
C:/temp/Job-22.odb,Step-1,Increment      1: Step Time =    1.000,"P-22-1",          1454,       184.615,       173.682,            0.,NA,NA,"",   1.00402E+06,   1.00454E+06,   1.00454E+06
C:/temp/Job-22.odb,Step-1,Increment      1: Step Time =    1.000,"P-22-1",          1455,       69.9822,       162.818,            0.,NA,NA,"",   1.07699E+06,   1.07945E+06,   1.07945E+06
C:/temp/Job-22.odb,Step-1,Increment      1: Step Time =    1.000,"P-22-1",          1456,       47.9902,       10.6215,            0.,NA,NA,"",   1.03119E+06,   1.03178E+06,   1.03178E+06
C:/temp/Job-22.odb,Step-1,Increment      1: Step Time =    1.000,"P-22-1",          1457,       189.088,       48.0925,            0.,NA,NA,"",   996.179E+03,   1.00446E+06,   1.00446E+06
C:/temp/Job-22.odb,Step-1,Increment      1: Step Time =    1.000,"P-22-1",          1458,       151.863,       189.084,            0.,NA,NA,"",   999.195E+03,   997.549E+03,   997.549E+03
C:/temp/Job-22.odb,Step-1,Increment      1: Step Time =    1.000,"P-22-1",          1459,       7.81083,       151.421,            0.,NA,NA,"",   882.685E+03,   978.749E+03,   978.749E+03
C:/temp/Job-22.odb,Step-1,Increment      1: Step Time =    1.000,"P-22-1",          1460,       38.1985,       68.8777,            0.,NA,NA,"",   927.021E+03,   973.550E+03,   973.550E+03
C:/temp/Job-22.odb,Step-1,Increment      1: Step Time =    1.000,"P-22-1",          1461,       184.233,       15.6929,            0.,NA,NA,"",   1.00172E+06,   1.00180E+06,   1.00180E+06
C:/temp/Job-22.odb,Step-1,Increment      1: Step Time =    1.000,"P-22-1",          1462,       184.297,       184.227,            0.,NA,NA,"",   1.00176E+06,   1.00181E+06,   1.00181E+06
C:/temp/Job-22.odb,Step-1,Increment      1: Step Time =    1.000,"P-22-1",          1463,       15.1687,       14.9437,            0.,NA,NA,"",   1.13480E+06,   1.17397E+06,   1.17397E+06
C:/temp/Job-22.odb,Step-1,Increment      1: Step Time =    1.000,"P-22-1",          1464,       15.3167,       184.617,            0.,NA,NA,"",   1.12983E+06,   1.17015E+06,   1.17015E+06
C:/temp/Job-22.odb,Step-1,Increment      1: Step Time =    1.000,"P-22-1",          1465,       84.7359,       65.8174,            0.,NA,NA,"",   1.19918E+06,   1.21969E+06,   1.21969E+06
C:/temp/Job-22.odb,Step-1,Increment      1: Step Time =    1.000,"P-22-1",          1466,       59.8784,       77.4606,            0.,NA,NA,"",   1.00495E+06,   996.870E+03,   996.870E+03
C:/temp/Job-22.odb,Step-1,Increment      1: Step Time =    1.000,"P-22-1",          1467,       162.253,       118.340,            0.,NA,NA,"",   965.313E+03,   968.101E+03,   968.101E+03
C:/temp/Job-22.odb,Step-1,Increment      1: Step Time =    1.000,"P-22-1",          1468,       153.239,       126.201,            0.,NA,NA,"",   1.03401E+06,   1.01236E+06,   1.01236E+06
C:/temp/Job-22.odb,Step-1,Increment      1: Step Time =    1.000,"P-22-1",          1469,       38.4097,       98.3206,            0.,NA,NA,"",   771.796E+03,   841.476E+03,   841.476E+03
C:/temp/Job-22.odb,Step-1,Increment      1: Step Time =    1.000,"P-22-1",          1470,       97.3551,       40.2294,            0.,NA,NA,"",   1.02549E+06,   1.05684E+06,   1.05684E+06
C:/temp/Job-22.odb,Step-1,Increment      1: Step Time =    1.000,"P-22-1",          1471,       60.7739,       55.6080,            0.,NA,NA,"",   1.10640E+06,   1.10043E+06,   1.10043E+06
C:/temp/Job-22.odb,Step-1,Increment      1: Step Time =    1.000,"P-22-1",          1472,       143.208,       62.7398,            0.,NA,NA,"",   1.12509E+06,   1.08543E+06,   1.08543E+06
C:/temp/Job-22.odb,Step-1,Increment      1: Step Time =    1.000,"P-22-1",          1473,       139.773,       141.177,            0.,NA,NA,"",   1.13963E+06,   1.10179E+06,   1.10179E+06
C:/temp/Job-22.odb,Step-1,Increment      1: Step Time =    1.000,"P-22-1",          1474,       126.637,       67.9517,            0.,NA,NA,"",   1.23836E+06,   1.18258E+06,   1.18258E+06
C:/temp/Job-22.odb,Step-1,Increment      1: Step Time =    1.000,"P-22-1",          1475,       20.1877,       174.386,            0.,NA,NA,"",   1.05233E+06,   1.10138E+06,   1.10138E+06
C:/temp/Job-22.odb,Step-1,Increment      1: Step Time =    1.000,"P-22-1",          1476,       177.720,       23.4455,            0.,NA,NA,"",   1.00750E+06,   1.00675E+06,   1.00675E+06
C:/temp/Job-22.odb,Step-1,Increment      1: Step Time =    1.000,"P-22-1",          1477,       24.9486,       19.3091,            0.,NA,NA,"",   1.09108E+06,   1.11614E+06,   1.11614E+06
C:/temp/Job-22.odb,Step-1,Increment      1: Step Time =    1.000,"P-22-1",          1478,       176.527,       177.720,            0.,NA,NA,"",   1.00774E+06,   1.00678E+06,   1.00678E+06
C:/temp/Job-22.odb,Step-1,Increment      1: Step Time =    1.000,"P-22-1",          1479,       47.7273,       85.2163,            0.,NA,NA,"",   832.397E+03,   877.548E+03,   877.548E+03
C:/temp/Job-22.odb,Step-1,Increment      1: Step Time =    1.000,"P-22-1",          1480,       122.701,       157.029,            0.,NA,NA,"",   1.07861E+06,   1.08087E+06,   1.08087E+06
C:/temp/Job-22.odb,Step-1,Increment      1: Step Time =    1.000,"P-22-1",          1481,       117.825,       38.0950,            0.,NA,NA,"",   1.04871E+06,   1.05934E+06,   1.05934E+06
C:/temp/Job-22.odb,Step-1,Increment      1: Step Time =    1.000,"P-22-1",          1482,       181.372,       158.021,            0.,NA,NA,"",   1.00826E+06,   1.01037E+06,   1.01037E+06
C:/temp/Job-22.odb,Step-1,Increment      1: Step Time =    1.000,"P-22-1",          1483,       41.7562,       181.325,            0.,NA,NA,"",   1.06359E+06,   1.06845E+06,   1.06845E+06
C:/temp/Job-22.odb,Step-1,Increment      1: Step Time =    1.000,"P-22-1",          1484,       157.988,       18.5277,            0.,NA,NA,"",   1.01291E+06,   1.00941E+06,   1.00941E+06
C:/temp/Job-22.odb,Step-1,Increment      1: Step Time =    1.000,"P-22-1",          1485,       22.9512,       38.3285,            0.,NA,NA,"",   995.063E+03,   1.05293E+06,   1.05293E+06
C:/temp/Job-22.odb,Step-1,Increment      1: Step Time =    1.000,"P-22-1",          1486,       117.806,       148.935,            0.,NA,NA,"",   1.10346E+06,   1.11427E+06,   1.11427E+06
C:/temp/Job-22.odb,Step-1,Increment      1: Step Time =    1.000,"P-22-1",          1487,       146.753,       79.3910,            0.,NA,NA,"",   1.01048E+06,   982.381E+03,   982.381E+03
C:/temp/Job-22.odb,Step-1,Increment      1: Step Time =    1.000,"P-22-1",          1488,       45.2485,       91.3961,            0.,NA,NA,"",   779.139E+03,   837.738E+03,   837.738E+03
C:/temp/Job-22.odb,Step-1,Increment      1: Step Time =    1.000,"P-22-1",          1489,       26.8345,       28.8449,            0.,NA,NA,"",   1.05167E+06,   1.08832E+06,   1.08832E+06
C:/temp/Job-22.odb,Step-1,Increment      1: Step Time =    1.000,"P-22-1",          1490,       169.525,       172.137,            0.,NA,NA,"",   1.01860E+06,   1.01495E+06,   1.01495E+06
C:/temp/Job-22.odb,Step-1,Increment      1: Step Time =    1.000,"P-22-1",          1491,       172.072,       30.4189,            0.,NA,NA,"",   1.01770E+06,   1.01475E+06,   1.01475E+06
C:/temp/Job-22.odb,Step-1,Increment      1: Step Time =    1.000,"P-22-1",          1492,       28.0460,       169.692,            0.,NA,NA,"",   1.04818E+06,   1.08352E+06,   1.08352E+06
C:/temp/Job-22.odb,Step-1,Increment      1: Step Time =    1.000,"P-22-1",          1493,       144.458,       142.060,            0.,NA,NA,"",   1.11648E+06,   1.08302E+06,   1.08302E+06
C:/temp/Job-22.odb,Step-1,Increment      1: Step Time =    1.000,"P-22-1",          1494,       53.9970,       56.2890,            0.,NA,NA,"",   1.07152E+06,   1.07542E+06,   1.07542E+06
C:/temp/Job-22.odb,Step-1,Increment      1: Step Time =    1.000,"P-22-1",          1495,       34.9085,       74.0759,            0.,NA,NA,"",   879.963E+03,   938.394E+03,   938.394E+03
C:/temp/Job-22.odb,Step-1,Increment      1: Step Time =    1.000,"P-22-1",          1496,       124.063,       34.7719,            0.,NA,NA,"",   1.05078E+06,   1.05209E+06,   1.05209E+06
C:/temp/Job-22.odb,Step-1,Increment      1: Step Time =    1.000,"P-22-1",          1497,       161.775,       127.408,            0.,NA,NA,"",   1.01172E+06,   1.00387E+06,   1.00387E+06
C:/temp/Job-22.odb,Step-1,Increment      1: Step Time =    1.000,"P-22-1",          1498,       34.8793,       113.551,            0.,NA,NA,"",   812.889E+03,   881.116E+03,   881.116E+03
C:/temp/Job-22.odb,Step-1,Increment      1: Step Time =    1.000,"P-22-1",          1499,       84.6473,       36.6603,            0.,NA,NA,"",   1.04393E+06,   1.06067E+06,   1.06067E+06
C:/temp/Job-22.odb,Step-1,Increment      1: Step Time =    1.000,"P-22-1",          1500,       162.334,       85.2156,            0.,NA,NA,"",   946.493E+03,   953.273E+03,   953.273E+03
C:/temp/Job-22.odb,Step-1,Increment      1: Step Time =    1.000,"P-22-1",          1501,       133.606,       67.4120,            0.,NA,NA,"",   1.19216E+06,   1.13423E+06,   1.13423E+06
C:/temp/Job-22.odb,Step-1,Increment      1: Step Time =    1.000,"P-22-1",          1502,       28.2252,       38.8167,            0.,NA,NA,"",   1.01475E+06,   1.06016E+06,   1.06016E+06
C:/temp/Job-22.odb,Step-1,Increment      1: Step Time =    1.000,"P-22-1",          1503,       41.4031,       171.554,            0.,NA,NA,"",   1.06648E+06,   1.07867E+06,   1.07867E+06
C:/temp/Job-22.odb,Step-1,Increment      1: Step Time =    1.000,"P-22-1",          1504,       171.538,       158.095,            0.,NA,NA,"",   1.02581E+06,   1.02164E+06,   1.02164E+06
C:/temp/Job-22.odb,Step-1,Increment      1: Step Time =    1.000,"P-22-1",          1505,       158.065,       28.0560,            0.,NA,NA,"",   1.02991E+06,   1.02300E+06,   1.02300E+06
C:/temp/Job-22.odb,Step-1,Increment      1: Step Time =    1.000,"P-22-1",          1506,       118.353,       65.6665,            0.,NA,NA,"",   1.22601E+06,   1.21558E+06,   1.21558E+06
C:/temp/Job-22.odb,Step-1,Increment      1: Step Time =    1.000,"P-22-1",          1507,       144.337,       76.0042,            0.,NA,NA,"",   1.05650E+06,   1.01767E+06,   1.01767E+06
C:/temp/Job-22.odb,Step-1,Increment      1: Step Time =    1.000,"P-22-1",          1508,       66.4700,       72.7214,            0.,NA,NA,"",   1.12084E+06,   1.08817E+06,   1.08817E+06
C:/temp/Job-22.odb,Step-1,Increment      1: Step Time =    1.000,"P-22-1",          1509,       145.856,       122.492,            0.,NA,NA,"",   1.04039E+06,   1.00565E+06,   1.00565E+06
C:/temp/Job-22.odb,Step-1,Increment      1: Step Time =    1.000,"P-22-1",          1510,       128.275,       152.998,            0.,NA,NA,"",   1.10765E+06,   1.09695E+06,   1.09695E+06
C:/temp/Job-22.odb,Step-1,Increment      1: Step Time =    1.000,"P-22-1",          1511,       150.498,       72.2887,            0.,NA,NA,"",   1.05241E+06,   1.02425E+06,   1.02425E+06
C:/temp/Job-22.odb,Step-1,Increment      1: Step Time =    1.000,"P-22-1",          1512,       68.9369,       47.3332,            0.,NA,NA,"",   1.10963E+06,   1.10849E+06,   1.10849E+06
C:/temp/Job-22.odb,Step-1,Increment      1: Step Time =    1.000,"P-22-1",          1513,       38.4365,       88.7900,            0.,NA,NA,"",   799.472E+03,   864.882E+03,   864.882E+03
C:/temp/Job-22.odb,Step-1,Increment      1: Step Time =    1.000,"P-22-1",          1514,       108.499,       37.4405,            0.,NA,NA,"",   1.02539E+06,   1.04864E+06,   1.04864E+06
C:/temp/Job-22.odb,Step-1,Increment      1: Step Time =    1.000,"P-22-1",          1515,       74.9076,       68.0882,            0.,NA,NA,"",   1.21766E+06,   1.18550E+06,   1.18550E+06
C:/temp/Job-22.odb,Step-1,Increment      1: Step Time =    1.000,"P-22-1",          1516,       39.2260,       108.908,            0.,NA,NA,"",   792.065E+03,   857.367E+03,   857.367E+03
C:/temp/Job-22.odb,Step-1,Increment      1: Step Time =    1.000,"P-22-1",          1517,       90.4878,       37.5800,            0.,NA,NA,"",   1.03303E+06,   1.05610E+06,   1.05610E+06
C:/temp/Job-22.odb,Step-1,Increment      1: Step Time =    1.000,"P-22-1",          1518,       112.623,       73.7187,            0.,NA,NA,"",   1.32846E+06,   1.34903E+06,   1.34903E+06
C:/temp/Job-22.odb,Step-1,Increment      1: Step Time =    1.000,"P-22-1",          1519,       56.9951,       78.7521,            0.,NA,NA,"",   961.878E+03,   967.040E+03,   967.040E+03
C:/temp/Job-22.odb,Step-1,Increment      1: Step Time =    1.000,"P-22-1",          1520,       17.9843,       165.570,            0.,NA,NA,"",   991.852E+03,   1.05838E+06,   1.05838E+06
C:/temp/Job-22.odb,Step-1,Increment      1: Step Time =    1.000,"P-22-1",          1521,       182.626,       36.1681,            0.,NA,NA,"",   1.00670E+06,   1.00811E+06,   1.00811E+06
C:/temp/Job-22.odb,Step-1,Increment      1: Step Time =    1.000,"P-22-1",          1522,       163.789,       182.638,            0.,NA,NA,"",   1.00964E+06,   1.00721E+06,   1.00721E+06
C:/temp/Job-22.odb,Step-1,Increment      1: Step Time =    1.000,"P-22-1",          1523,       33.7886,       19.1912,            0.,NA,NA,"",   1.07701E+06,   1.08928E+06,   1.08928E+06
C:/temp/Job-22.odb,Step-1,Increment      1: Step Time =    1.000,"P-22-1",          1524,       99.4931,       70.6462,            0.,NA,NA,"",   1.18324E+06,   1.30007E+06,   1.30007E+06
C:/temp/Job-22.odb,Step-1,Increment      1: Step Time =    1.000,"P-22-1",          1525,       154.859,       90.1711,            0.,NA,NA,"",   897.369E+03,   904.722E+03,   904.722E+03
C:/temp/Job-22.odb,Step-1,Increment      1: Step Time =    1.000,"P-22-1",          1526,       76.6678,       43.3718,            0.,NA,NA,"",   1.08592E+06,   1.09432E+06,   1.09432E+06
C:/temp/Job-22.odb,Step-1,Increment      1: Step Time =    1.000,"P-22-1",          1527,       157.339,       76.5751,            0.,NA,NA,"",   1.00101E+06,   990.224E+03,   990.224E+03
C:/temp/Job-22.odb,Step-1,Increment      1: Step Time =    1.000,"P-22-1",          1528,       14.7768,       169.879,            0.,NA,NA,"",   1.00370E+06,   1.07501E+06,   1.07501E+06
C:/temp/Job-22.odb,Step-1,Increment      1: Step Time =    1.000,"P-22-1",          1529,       168.561,       15.3946,            0.,NA,NA,"",   1.00624E+06,   1.00477E+06,   1.00477E+06
C:/temp/Job-22.odb,Step-1,Increment      1: Step Time =    1.000,"P-22-1",          1530,       16.1845,       29.7839,            0.,NA,NA,"",   1.01209E+06,   1.07900E+06,   1.07900E+06
C:/temp/Job-22.odb,Step-1,Increment      1: Step Time =    1.000,"P-22-1",          1531,       29.5435,       14.5017,            0.,NA,NA,"",   1.08883E+06,   1.09981E+06,   1.09981E+06
C:/temp/Job-22.odb,Step-1,Increment      1: Step Time =    1.000,"P-22-1",          1532,       169.110,       186.145,            0.,NA,NA,"",   1.00457E+06,   1.00343E+06,   1.00343E+06
C:/temp/Job-22.odb,Step-1,Increment      1: Step Time =    1.000,"P-22-1",          1533,       184.572,       168.562,            0.,NA,NA,"",   1.00448E+06,   1.00563E+06,   1.00563E+06
C:/temp/Job-22.odb,Step-1,Increment      1: Step Time =    1.000,"P-22-1",          1534,       186.148,       30.8675,            0.,NA,NA,"",   1.00288E+06,   1.00442E+06,   1.00442E+06
C:/temp/Job-22.odb,Step-1,Increment      1: Step Time =    1.000,"P-22-1",          1535,       31.0084,       184.336,            0.,NA,NA,"",   1.08403E+06,   1.09513E+06,   1.09513E+06
C:/temp/Job-22.odb,Step-1,Increment      1: Step Time =    1.000,"P-22-1",          1536,       41.6984,       67.0843,            0.,NA,NA,"",   955.974E+03,   992.499E+03,   992.499E+03
C:/temp/Job-22.odb,Step-1,Increment      1: Step Time =    1.000,"P-22-1",          1537,       160.367,       131.680,            0.,NA,NA,"",   1.03307E+06,   1.01984E+06,   1.01984E+06
C:/temp/Job-22.odb,Step-1,Increment      1: Step Time =    1.000,"P-22-1",          1538,       132.835,       41.0985,            0.,NA,NA,"",   1.08539E+06,   1.07365E+06,   1.07365E+06
C:/temp/Job-22.odb,Step-1,Increment      1: Step Time =    1.000,"P-22-1",          1539,       107.179,       65.5423,            0.,NA,NA,"",   1.14300E+06,   1.21463E+06,   1.21463E+06
C:/temp/Job-22.odb,Step-1,Increment      1: Step Time =    1.000,"P-22-1",          1540,       93.8011,       68.9041,            0.,NA,NA,"",   1.17918E+06,   1.26516E+06,   1.26516E+06
C:/temp/Job-22.odb,Step-1,Increment      1: Step Time =    1.000,"P-22-1",          1541,       121.723,       145.691,            0.,NA,NA,"",   1.13429E+06,   1.13226E+06,   1.13226E+06
C:/temp/Job-22.odb,Step-1,Increment      1: Step Time =    1.000,"P-22-1",          1542,       15.3638,       19.9056,            0.,NA,NA,"",   1.08211E+06,   1.13557E+06,   1.13557E+06
C:/temp/Job-22.odb,Step-1,Increment      1: Step Time =    1.000,"P-22-1",          1543,       20.0613,       14.7638,            0.,NA,NA,"",   1.12147E+06,   1.14643E+06,   1.14643E+06
C:/temp/Job-22.odb,Step-1,Increment      1: Step Time =    1.000,"P-22-1",          1544,       178.962,       15.3789,            0.,NA,NA,"",   1.00318E+06,   1.00288E+06,   1.00288E+06
C:/temp/Job-22.odb,Step-1,Increment      1: Step Time =    1.000,"P-22-1",          1545,       15.2554,       179.612,            0.,NA,NA,"",   1.07724E+06,   1.13222E+06,   1.13222E+06
C:/temp/Job-22.odb,Step-1,Increment      1: Step Time =    1.000,"P-22-1",          1546,       20.4672,       184.478,            0.,NA,NA,"",   1.11621E+06,   1.14240E+06,   1.14240E+06
C:/temp/Job-22.odb,Step-1,Increment      1: Step Time =    1.000,"P-22-1",          1547,       183.810,       21.4563,            0.,NA,NA,"",   1.00314E+06,   1.00336E+06,   1.00336E+06
C:/temp/Job-22.odb,Step-1,Increment      1: Step Time =    1.000,"P-22-1",          1548,       184.605,       178.955,            0.,NA,NA,"",   1.00293E+06,   1.00312E+06,   1.00312E+06
C:/temp/Job-22.odb,Step-1,Increment      1: Step Time =    1.000,"P-22-1",          1549,       178.527,       183.806,            0.,NA,NA,"",   1.00356E+06,   1.00319E+06,   1.00319E+06
C:/temp/Job-22.odb,Step-1,Increment      1: Step Time =    1.000,"P-22-1",          1550,       37.1832,       180.099,            0.,NA,NA,"",   1.07124E+06,   1.08061E+06,   1.08061E+06
C:/temp/Job-22.odb,Step-1,Increment      1: Step Time =    1.000,"P-22-1",          1551,       22.0912,       34.0351,            0.,NA,NA,"",   1.01302E+06,   1.06798E+06,   1.06798E+06
C:/temp/Job-22.odb,Step-1,Increment      1: Step Time =    1.000,"P-22-1",          1552,       180.150,       162.502,            0.,NA,NA,"",   1.01008E+06,   1.01067E+06,   1.01067E+06
C:/temp/Job-22.odb,Step-1,Increment      1: Step Time =    1.000,"P-22-1",          1553,       162.475,       19.7453,            0.,NA,NA,"",   1.01348E+06,   1.01021E+06,   1.01021E+06
C:/temp/Job-22.odb,Step-1,Increment      1: Step Time =    1.000,"P-22-1",          1554,       76.3827,       64.0191,            0.,NA,NA,"",   1.20167E+06,   1.18651E+06,   1.18651E+06
C:/temp/Job-22.odb,Step-1,Increment      1: Step Time =    1.000,"P-22-1",          1555,       63.4355,       69.4765,            0.,NA,NA,"",   1.10660E+06,   1.08573E+06,   1.08573E+06
C:/temp/Job-22.odb,Step-1,Increment      1: Step Time =    1.000,"P-22-1",          1556,       142.249,       72.3407,            0.,NA,NA,"",   1.09958E+06,   1.05302E+06,   1.05302E+06
C:/temp/Job-22.odb,Step-1,Increment      1: Step Time =    1.000,"P-22-1",          1557,       24.9595,       174.355,            0.,NA,NA,"",   1.06240E+06,   1.09895E+06,   1.09895E+06
C:/temp/Job-22.odb,Step-1,Increment      1: Step Time =    1.000,"P-22-1",          1558,       182.197,       27.7382,            0.,NA,NA,"",   1.00595E+06,   1.00617E+06,   1.00617E+06
C:/temp/Job-22.odb,Step-1,Increment      1: Step Time =    1.000,"P-22-1",          1559,       174.407,       24.7475,            0.,NA,NA,"",   1.01089E+06,   1.00924E+06,   1.00924E+06
C:/temp/Job-22.odb,Step-1,Increment      1: Step Time =    1.000,"P-22-1",          1560,       29.4187,       19.0257,            0.,NA,NA,"",   1.08475E+06,   1.10233E+06,   1.10233E+06
C:/temp/Job-22.odb,Step-1,Increment      1: Step Time =    1.000,"P-22-1",          1561,       25.3913,       23.9403,            0.,NA,NA,"",   1.07191E+06,   1.10430E+06,   1.10430E+06
C:/temp/Job-22.odb,Step-1,Increment      1: Step Time =    1.000,"P-22-1",          1562,       172.240,       182.200,            0.,NA,NA,"",   1.00715E+06,   1.00583E+06,   1.00583E+06
C:/temp/Job-22.odb,Step-1,Increment      1: Step Time =    1.000,"P-22-1",          1563,       175.216,       174.416,            0.,NA,NA,"",   1.01072E+06,   1.00927E+06,   1.00927E+06
C:/temp/Job-22.odb,Step-1,Increment      1: Step Time =    1.000,"P-22-1",          1564,       43.0971,       87.0538,            0.,NA,NA,"",   811.098E+03,   867.859E+03,   867.859E+03
C:/temp/Job-22.odb,Step-1,Increment      1: Step Time =    1.000,"P-22-1",          1565,       38.3054,       78.5361,            0.,NA,NA,"",   864.732E+03,   920.374E+03,   920.374E+03
C:/temp/Job-22.odb,Step-1,Increment      1: Step Time =    1.000,"P-22-1",          1566,       122.484,       39.5865,            0.,NA,NA,"",   1.06552E+06,   1.06819E+06,   1.06819E+06
C:/temp/Job-22.odb,Step-1,Increment      1: Step Time =    1.000,"P-22-1",          1567,       88.2608,       43.2243,            0.,NA,NA,"",   1.05072E+06,   1.07748E+06,   1.07748E+06
C:/temp/Job-22.odb,Step-1,Increment      1: Step Time =    1.000,"P-22-1",          1568,       175.640,       160.258,            0.,NA,NA,"",   1.01768E+06,   1.01602E+06,   1.01602E+06
C:/temp/Job-22.odb,Step-1,Increment      1: Step Time =    1.000,"P-22-1",          1569,       39.3513,       175.679,            0.,NA,NA,"",   1.06963E+06,   1.08093E+06,   1.08093E+06
C:/temp/Job-22.odb,Step-1,Increment      1: Step Time =    1.000,"P-22-1",          1570,       160.222,       24.1503,            0.,NA,NA,"",   1.02161E+06,   1.01657E+06,   1.01657E+06
C:/temp/Job-22.odb,Step-1,Increment      1: Step Time =    1.000,"P-22-1",          1571,       26.6237,       33.8002,            0.,NA,NA,"",   1.03134E+06,   1.07450E+06,   1.07450E+06
C:/temp/Job-22.odb,Step-1,Increment      1: Step Time =    1.000,"P-22-1",          1572,       130.177,       64.1631,            0.,NA,NA,"",   1.20003E+06,   1.15312E+06,   1.15312E+06
C:/temp/Job-22.odb,Step-1,Increment      1: Step Time =    1.000,"P-22-1",          1573,       122.528,       65.1911,            0.,NA,NA,"",   1.22736E+06,   1.19748E+06,   1.19748E+06
C:/temp/Job-22.odb,Step-1,Increment      1: Step Time =    1.000,"P-22-1",          1574,       113.257,       66.2499,            0.,NA,NA,"",   1.20617E+06,   1.23376E+06,   1.23376E+06
C:/temp/Job-22.odb,Step-1,Increment      1: Step Time =    1.000,"P-22-1",          1575,       112.106,       42.6980,            0.,NA,NA,"",   1.04721E+06,   1.07047E+06,   1.07047E+06
C:/temp/Job-22.odb,Step-1,Increment      1: Step Time =    1.000,"P-22-1",          1576,       65.6952,       67.2242,            0.,NA,NA,"",   1.13334E+06,   1.10959E+06,   1.10959E+06
C:/temp/Job-22.odb,Step-1,Increment      1: Step Time =    1.000,"P-22-1",          1577,       36.2870,       84.5213,            0.,NA,NA,"",   821.776E+03,   886.748E+03,   886.748E+03
C:/temp/Job-22.odb,Step-1,Increment      1: Step Time =    1.000,"P-22-1",          1578,       112.976,       37.4910,            0.,NA,NA,"",   1.03558E+06,   1.05310E+06,   1.05310E+06
C:/temp/Job-22.odb,Step-1,Increment      1: Step Time =    1.000,"P-22-1",          1579,       69.0598,       69.6676,            0.,NA,NA,"",   1.16313E+06,   1.12889E+06,   1.12889E+06
C:/temp/Job-22.odb,Step-1,Increment      1: Step Time =    1.000,"P-22-1",          1580,       142.489,       128.515,            0.,NA,NA,"",   1.10231E+06,   1.05751E+06,   1.05751E+06
C:/temp/Job-22.odb,Step-1,Increment      1: Step Time =    1.000,"P-22-1",          1581,       146.274,       130.343,            0.,NA,NA,"",   1.08899E+06,   1.05189E+06,   1.05189E+06
C:/temp/Job-22.odb,Step-1,Increment      1: Step Time =    1.000,"P-22-1",          1582,       43.6528,       100.879,            0.,NA,NA,"",   759.696E+03,   824.144E+03,   824.144E+03
C:/temp/Job-22.odb,Step-1,Increment      1: Step Time =    1.000,"P-22-1",          1583,       103.374,       68.1212,            0.,NA,NA,"",   1.14842E+06,   1.24482E+06,   1.24482E+06
C:/temp/Job-22.odb,Step-1,Increment      1: Step Time =    1.000,"P-22-1",          1584,       69.9603,       56.2061,            0.,NA,NA,"",   1.14226E+06,   1.13263E+06,   1.13263E+06
C:/temp/Job-22.odb,Step-1,Increment      1: Step Time =    1.000,"P-22-1",          1585,       126.178,       142.559,            0.,NA,NA,"",   1.16662E+06,   1.14491E+06,   1.14491E+06
C:/temp/Job-22.odb,Step-1,Increment      1: Step Time =    1.000,"P-22-1",          1586,       99.9630,       43.8086,            0.,NA,NA,"",   1.02930E+06,   1.06668E+06,   1.06668E+06
C:/temp/Job-22.odb,Step-1,Increment      1: Step Time =    1.000,"P-22-1",          1587,       75.8854,       50.6990,            0.,NA,NA,"",   1.11701E+06,   1.12217E+06,   1.12217E+06
C:/temp/Job-22.odb,Step-1,Increment      1: Step Time =    1.000,"P-22-1",          1588,       58.9555,       60.1769,            0.,NA,NA,"",   1.09397E+06,   1.08821E+06,   1.08821E+06
C:/temp/Job-22.odb,Step-1,Increment      1: Step Time =    1.000,"P-22-1",          1589,       140.981,       55.6562,            0.,NA,NA,"",   1.12685E+06,   1.09463E+06,   1.09463E+06
C:/temp/Job-22.odb,Step-1,Increment      1: Step Time =    1.000,"P-22-1",          1590,       140.303,       136.779,            0.,NA,NA,"",   1.14103E+06,   1.09749E+06,   1.09749E+06
C:/temp/Job-22.odb,Step-1,Increment      1: Step Time =    1.000,"P-22-1",          1591,       88.8848,       65.2272,            0.,NA,NA,"",   1.16656E+06,   1.21506E+06,   1.21506E+06
C:/temp/Job-22.odb,Step-1,Increment      1: Step Time =    1.000,"P-22-1",          1592,       144.881,       66.3681,            0.,NA,NA,"",   1.10990E+06,   1.06982E+06,   1.06982E+06
C:/temp/Job-22.odb,Step-1,Increment      1: Step Time =    1.000,"P-22-1",          1593,       65.0276,       55.9480,            0.,NA,NA,"",   1.12451E+06,   1.11495E+06,   1.11495E+06
C:/temp/Job-22.odb,Step-1,Increment      1: Step Time =    1.000,"P-22-1",          1594,       135.302,       140.103,            0.,NA,NA,"",   1.16218E+06,   1.12179E+06,   1.12179E+06
C:/temp/Job-22.odb,Step-1,Increment      1: Step Time =    1.000,"P-22-1",          1595,       43.8095,       70.6709,            0.,NA,NA,"",   945.887E+03,   980.191E+03,   980.191E+03
C:/temp/Job-22.odb,Step-1,Increment      1: Step Time =    1.000,"P-22-1",          1596,       128.624,       46.6098,            0.,NA,NA,"",   1.10744E+06,   1.09555E+06,   1.09555E+06
C:/temp/Job-22.odb,Step-1,Increment      1: Step Time =    1.000,"P-22-1",          1597,       44.9612,       80.8451,            0.,NA,NA,"",   868.917E+03,   913.018E+03,   913.018E+03
C:/temp/Job-22.odb,Step-1,Increment      1: Step Time =    1.000,"P-22-1",          1598,       107.311,       43.0602,            0.,NA,NA,"",   1.03531E+06,   1.06666E+06,   1.06666E+06
C:/temp/Job-22.odb,Step-1,Increment      1: Step Time =    1.000,"P-22-1",          1599,       101.138,       64.2807,            0.,NA,NA,"",   1.09726E+06,   1.18721E+06,   1.18721E+06
C:/temp/Job-22.odb,Step-1,Increment      1: Step Time =    1.000,"P-22-1",          1600,       149.223,       132.346,            0.,NA,NA,"",   1.08077E+06,   1.04933E+06,   1.04933E+06
C:/temp/Job-22.odb,Step-1,Increment      1: Step Time =    1.000,"P-22-1",          1601,       75.3683,       57.0802,            0.,NA,NA,"",   1.15400E+06,   1.15117E+06,   1.15117E+06
C:/temp/Job-22.odb,Step-1,Increment      1: Step Time =    1.000,"P-22-1",          1602,       79.1288,       46.0726,            0.,NA,NA,"",   1.08910E+06,   1.10183E+06,   1.10183E+06
C:/temp/Job-22.odb,Step-1,Increment      1: Step Time =    1.000,"P-22-1",          1603,       61.6863,       65.3911,            0.,NA,NA,"",   1.10498E+06,   1.09080E+06,   1.09080E+06
C:/temp/Job-22.odb,Step-1,Increment      1: Step Time =    1.000,"P-22-1",          1604,       136.235,       57.5560,            0.,NA,NA,"",   1.14748E+06,   1.11193E+06,   1.11193E+06
C:/temp/Job-22.odb,Step-1,Increment      1: Step Time =    1.000,"P-22-1",          1605,       144.893,       133.934,            0.,NA,NA,"",   1.10807E+06,   1.06907E+06,   1.06907E+06
C:/temp/Job-22.odb,Step-1,Increment      1: Step Time =    1.000,"P-22-1",          1606,       48.7498,       78.6687,            0.,NA,NA,"",   906.527E+03,   937.702E+03,   937.702E+03
C:/temp/Job-22.odb,Step-1,Increment      1: Step Time =    1.000,"P-22-1",          1607,       91.4303,       44.4487,            0.,NA,NA,"",   1.04535E+06,   1.07701E+06,   1.07701E+06
C:/temp/Job-22.odb,Step-1,Increment      1: Step Time =    1.000,"P-22-1",          1608,       67.5553,       64.2597,            0.,NA,NA,"",   1.15120E+06,   1.12881E+06,   1.12881E+06
C:/temp/Job-22.odb,Step-1,Increment      1: Step Time =    1.000,"P-22-1",          1609,       25.6626,       179.150,            0.,NA,NA,"",   1.08421E+06,   1.11097E+06,   1.11097E+06
C:/temp/Job-22.odb,Step-1,Increment      1: Step Time =    1.000,"P-22-1",          1610,       179.664,       173.482,            0.,NA,NA,"",   1.00752E+06,   1.00712E+06,   1.00712E+06
C:/temp/Job-22.odb,Step-1,Increment      1: Step Time =    1.000,"P-22-1",          1611,       20.7297,       24.5122,            0.,NA,NA,"",   1.06111E+06,   1.10657E+06,   1.10657E+06
C:/temp/Job-22.odb,Step-1,Increment      1: Step Time =    1.000,"P-22-1",          1612,       173.482,       20.2959,            0.,NA,NA,"",   1.00830E+06,   1.00690E+06,   1.00690E+06
C:/temp/Job-22.odb,Step-1,Increment      1: Step Time =    1.000,"P-22-1",          1613,       29.7801,       33.5114,            0.,NA,NA,"",   1.03972E+06,   1.07572E+06,   1.07572E+06
C:/temp/Job-22.odb,Step-1,Increment      1: Step Time =    1.000,"P-22-1",          1614,       35.5333,       173.623,            0.,NA,NA,"",   1.06757E+06,   1.08562E+06,   1.08562E+06
C:/temp/Job-22.odb,Step-1,Increment      1: Step Time =    1.000,"P-22-1",          1615,       164.074,       26.2894,            0.,NA,NA,"",   1.02160E+06,   1.01686E+06,   1.01686E+06
C:/temp/Job-22.odb,Step-1,Increment      1: Step Time =    1.000,"P-22-1",          1616,       173.538,       164.108,            0.,NA,NA,"",   1.01928E+06,   1.01652E+06,   1.01652E+06
C:/temp/Job-22.odb,Step-1,Increment      1: Step Time =    1.000,"P-22-1",          1617,       83.1392,       47.4472,            0.,NA,NA,"",   1.08314E+06,   1.10399E+06,   1.10399E+06
C:/temp/Job-22.odb,Step-1,Increment      1: Step Time =    1.000,"P-22-1",          1618,       120.281,       60.7828,            0.,NA,NA,"",   1.18338E+06,   1.17479E+06,   1.17479E+06
C:/temp/Job-22.odb,Step-1,Increment      1: Step Time =    1.000,"P-22-1",          1619,       115.557,       47.6499,            0.,NA,NA,"",   1.07867E+06,   1.09736E+06,   1.09736E+06
C:/temp/Job-22.odb,Step-1,Increment      1: Step Time =    1.000,"P-22-1",          1620,       47.0580,       95.7615,            0.,NA,NA,"",   751.755E+03,   811.915E+03,   811.915E+03
C:/temp/Job-22.odb,Step-1,Increment      1: Step Time =    1.000,"P-22-1",          1621,       150.318,       76.8888,            0.,NA,NA,"",   1.02019E+06,   996.504E+03,   996.504E+03
C:/temp/Job-22.odb,Step-1,Increment      1: Step Time =    1.000,"P-22-1",          1622,       120.781,       44.2241,            0.,NA,NA,"",   1.08249E+06,   1.08748E+06,   1.08748E+06
C:/temp/Job-22.odb,Step-1,Increment      1: Step Time =    1.000,"P-22-1",          1623,       88.6312,       60.0534,            0.,NA,NA,"",   1.12364E+06,   1.16647E+06,   1.16647E+06
C:/temp/Job-22.odb,Step-1,Increment      1: Step Time =    1.000,"P-22-1",          1624,       110.887,       62.8682,            0.,NA,NA,"",   1.14758E+06,   1.19302E+06,   1.19302E+06
C:/temp/Job-22.odb,Step-1,Increment      1: Step Time =    1.000,"P-22-1",          1625,       80.9078,       60.8198,            0.,NA,NA,"",   1.16924E+06,   1.17794E+06,   1.17794E+06
C:/temp/Job-22.odb,Step-1,Increment      1: Step Time =    1.000,"P-22-1",          1626,       57.5921,       67.6466,            0.,NA,NA,"",   1.06260E+06,   1.05756E+06,   1.05756E+06
C:/temp/Job-22.odb,Step-1,Increment      1: Step Time =    1.000,"P-22-1",          1627,       46.1223,       74.5649,            0.,NA,NA,"",   929.295E+03,   962.093E+03,   962.093E+03
C:/temp/Job-22.odb,Step-1,Increment      1: Step Time =    1.000,"P-22-1",          1628,       80.5811,       56.5679,            0.,NA,NA,"",   1.13734E+06,   1.15132E+06,   1.15132E+06
C:/temp/Job-22.odb,Step-1,Increment      1: Step Time =    1.000,"P-22-1",          1629,       51.0962,       66.1656,            0.,NA,NA,"",   1.01959E+06,   1.03151E+06,   1.03151E+06
C:/temp/Job-22.odb,Step-1,Increment      1: Step Time =    1.000,"P-22-1",          1630,       133.012,       51.3387,            0.,NA,NA,"",   1.13132E+06,   1.10712E+06,   1.10712E+06
C:/temp/Job-22.odb,Step-1,Increment      1: Step Time =    1.000,"P-22-1",          1631,       110.397,       47.6700,            0.,NA,NA,"",   1.05713E+06,   1.08880E+06,   1.08880E+06
C:/temp/Job-22.odb,Step-1,Increment      1: Step Time =    1.000,"P-22-1",          1632,       133.617,       60.7604,            0.,NA,NA,"",   1.17036E+06,   1.12926E+06,   1.12926E+06
C:/temp/Job-22.odb,Step-1,Increment      1: Step Time =    1.000,"P-22-1",          1633,       108.786,       59.0708,            0.,NA,NA,"",   1.10044E+06,   1.15231E+06,   1.15231E+06
C:/temp/Job-22.odb,Step-1,Increment      1: Step Time =    1.000,"P-22-1",          1634,       87.6756,       48.5081,            0.,NA,NA,"",   1.06972E+06,   1.10050E+06,   1.10050E+06
C:/temp/Job-22.odb,Step-1,Increment      1: Step Time =    1.000,"P-22-1",          1635,       98.0583,       60.2529,            0.,NA,NA,"",   1.07269E+06,   1.14786E+06,   1.14786E+06
C:/temp/Job-22.odb,Step-1,Increment      1: Step Time =    1.000,"P-22-1",          1636,       93.5042,       53.7548,            0.,NA,NA,"",   1.06433E+06,   1.11493E+06,   1.11493E+06
C:/temp/Job-22.odb,Step-1,Increment      1: Step Time =    1.000,"P-22-1",          1637,       84.1753,       57.2351,            0.,NA,NA,"",   1.12642E+06,   1.15148E+06,   1.15148E+06
C:/temp/Job-22.odb,Step-1,Increment      1: Step Time =    1.000,"P-22-1",          1638,       124.809,       45.8050,            0.,NA,NA,"",   1.09892E+06,   1.09443E+06,   1.09443E+06
C:/temp/Job-22.odb,Step-1,Increment      1: Step Time =    1.000,"P-22-1",          1639,       123.902,       57.2522,            0.,NA,NA,"",   1.16474E+06,   1.14910E+06,   1.14910E+06
C:/temp/Job-22.odb,Step-1,Increment      1: Step Time =    1.000,"P-22-1",          1640,       117.841,       57.7584,            0.,NA,NA,"",   1.14756E+06,   1.15525E+06,   1.15525E+06
C:/temp/Job-22.odb,Step-1,Increment      1: Step Time =    1.000,"P-22-1",          1641,       102.794,       47.0878,            0.,NA,NA,"",   1.03572E+06,   1.07805E+06,   1.07805E+06
C:/temp/Job-22.odb,Step-1,Increment      1: Step Time =    1.000,"P-22-1",          1642,       42.2053,       76.5974,            0.,NA,NA,"",   894.167E+03,   939.203E+03,   939.203E+03
C:/temp/Job-22.odb,Step-1,Increment      1: Step Time =    1.000,"P-22-1",          1643,       130.502,       57.2289,            0.,NA,NA,"",   1.16305E+06,   1.13201E+06,   1.13201E+06
C:/temp/Job-22.odb,Step-1,Increment      1: Step Time =    1.000,"P-22-1",          1644,       134.013,       54.8102,            0.,NA,NA,"",   1.14492E+06,   1.11467E+06,   1.11467E+06
C:/temp/Job-22.odb,Step-1,Increment      1: Step Time =    1.000,"P-22-1",          1645,       102.757,       57.6446,            0.,NA,NA,"",   1.06220E+06,   1.12951E+06,   1.12951E+06
C:/temp/Job-22.odb,Step-1,Increment      1: Step Time =    1.000,"P-22-1",          1646,       100.879,       53.6244,            0.,NA,NA,"",   1.04745E+06,   1.10601E+06,   1.10601E+06
C:/temp/Job-22.odb,Step-1,Increment      1: Step Time =    1.000,"P-22-1",          1647,       87.2360,       54.2752,            0.,NA,NA,"",   1.09703E+06,   1.13124E+06,   1.13124E+06
C:/temp/Job-22.odb,Step-1,Increment      1: Step Time =    1.000,"P-22-1",          1648,       120.565,       54.3715,            0.,NA,NA,"",   1.13520E+06,   1.13506E+06,   1.13506E+06
C:/temp/Job-22.odb,Step-1,Increment      1: Step Time =    1.000,"P-22-1",          1649,       114.469,       60.3019,            0.,NA,NA,"",   1.15184E+06,   1.17424E+06,   1.17424E+06
C:/temp/Job-22.odb,Step-1,Increment      1: Step Time =    1.000,"P-22-1",          1650,       119.206,       48.4606,            0.,NA,NA,"",   1.09712E+06,   1.10527E+06,   1.10527E+06
C:/temp/Job-22.odb,Step-1,Increment      1: Step Time =    1.000,"P-22-1",          1651,       106.998,       54.9934,            0.,NA,NA,"",   1.06873E+06,   1.12009E+06,   1.12009E+06
C:/temp/Job-22.odb,Step-1,Increment      1: Step Time =    1.000,"P-22-1",          1652,       98.4185,       50.1667,            0.,NA,NA,"",   1.04186E+06,   1.09114E+06,   1.09114E+06
C:/temp/Job-22.odb,Step-1,Increment      1: Step Time =    1.000,"P-22-1",          1653,       5.03328,       5.01765,            0.,NA,NA,"",   1.36237E+06,   1.41447E+06,   1.41447E+06
C:/temp/Job-22.odb,Step-1,Increment      1: Step Time =    1.000,"P-22-1",          1654,       119.053,       99.3019,            0.,NA,NA,"",   420.214E+03,  -194.001E+03,  -194.001E+03
C:/temp/Job-22.odb,Step-1,Increment      1: Step Time =    1.000,"P-22-1",          1655,       115.385,       87.0104,            0.,NA,NA,"",   1.20361E+06,   1.07371E+06,   1.07371E+06
C:/temp/Job-22.odb,Step-1,Increment      1: Step Time =    1.000,"P-22-1",          1656,       103.432,       80.9921,            0.,NA,NA,"",   1.80294E+06,   1.91964E+06,   1.91964E+06
C:/temp/Job-22.odb,Step-1,Increment      1: Step Time =    1.000,"P-22-1",          1657,       90.5258,       82.4334,            0.,NA,NA,"",   1.58541E+06,   1.61210E+06,   1.61210E+06
C:/temp/Job-22.odb,Step-1,Increment      1: Step Time =    1.000,"P-22-1",          1658,       82.9059,       92.5187,            0.,NA,NA,"",    651.44E+03,   294.853E+03,   294.853E+03
C:/temp/Job-22.odb,Step-1,Increment      1: Step Time =    1.000,"P-22-1",          1659,       75.8163,       97.9481,            0.,NA,NA,"",   404.454E+03,   239.653E+03,   239.653E+03
C:/temp/Job-22.odb,Step-1,Increment      1: Step Time =    1.000,"P-22-1",          1660,       43.6988,       10.2507,            0.,NA,NA,"",   1.03930E+06,   1.04051E+06,   1.04051E+06
C:/temp/Job-22.odb,Step-1,Increment      1: Step Time =    1.000,"P-22-1",          1661,       190.600,       38.9342,            0.,NA,NA,"",   998.704E+03,   1.00302E+06,   1.00302E+06
C:/temp/Job-22.odb,Step-1,Increment      1: Step Time =    1.000,"P-22-1",          1662,       161.047,       190.602,            0.,NA,NA,"",   1.00030E+06,   999.370E+03,   999.370E+03
C:/temp/Job-22.odb,Step-1,Increment      1: Step Time =    1.000,"P-22-1",          1663,       79.8003,       80.7822,            0.,NA,NA,"",   1.28232E+06,   1.19285E+06,   1.19285E+06
C:/temp/Job-22.odb,Step-1,Increment      1: Step Time =    1.000,"P-22-1",          1664,       124.232,       105.968,            0.,NA,NA,"",   606.845E+03,   501.111E+03,   501.111E+03
C:/temp/Job-22.odb,Step-1,Increment      1: Step Time =    1.000,"P-22-1",          1665,       123.940,       98.0628,            0.,NA,NA,"",   405.599E+03,   347.233E+03,   347.233E+03
C:/temp/Job-22.odb,Step-1,Increment      1: Step Time =    1.000,"P-22-1",          1666,       117.438,       81.8587,            0.,NA,NA,"",   1.38898E+06,   1.25801E+06,   1.25801E+06
C:/temp/Job-22.odb,Step-1,Increment      1: Step Time =    1.000,"P-22-1",          1667,       8.70433,       154.899,            0.,NA,NA,"",   899.662E+03,   993.657E+03,   993.657E+03
C:/temp/Job-22.odb,Step-1,Increment      1: Step Time =    1.000,"P-22-1",          1668,       17.9505,       39.1202,            0.,NA,NA,"",   971.194E+03,   1.04133E+06,   1.04133E+06
C:/temp/Job-22.odb,Step-1,Increment      1: Step Time =    1.000,"P-22-1",          1669,       159.007,       14.0915,            0.,NA,NA,"",   1.00607E+06,   1.00393E+06,   1.00393E+06
C:/temp/Job-22.odb,Step-1,Increment      1: Step Time =    1.000,"P-22-1",          1670,       187.325,       37.8996,            0.,NA,NA,"",   1.00132E+06,   1.00479E+06,   1.00479E+06
C:/temp/Job-22.odb,Step-1,Increment      1: Step Time =    1.000,"P-22-1",          1671,       162.072,       187.330,            0.,NA,NA,"",   1.00369E+06,   1.00222E+06,   1.00222E+06
C:/temp/Job-22.odb,Step-1,Increment      1: Step Time =    1.000,"P-22-1",          1672,       185.859,       159.030,            0.,NA,NA,"",   1.00280E+06,   1.00650E+06,   1.00650E+06
C:/temp/Job-22.odb,Step-1,Increment      1: Step Time =    1.000,"P-22-1",          1673,       40.8094,       185.761,            0.,NA,NA,"",   1.05804E+06,   1.06132E+06,   1.06132E+06
C:/temp/Job-22.odb,Step-1,Increment      1: Step Time =    1.000,"P-22-1",          1674,       57.4525,       19.4974,            0.,NA,NA,"",   1.04210E+06,   1.04223E+06,   1.04223E+06
C:/temp/Job-22.odb,Step-1,Increment      1: Step Time =    1.000,"P-22-1",          1675,       67.6067,       14.5602,            0.,NA,NA,"",   1.00909E+06,   1.00950E+06,   1.00950E+06
C:/temp/Job-22.odb,Step-1,Increment      1: Step Time =    1.000,"P-22-1",          1676,       184.968,       44.7505,            0.,NA,NA,"",   1.00306E+06,   1.00770E+06,   1.00770E+06
C:/temp/Job-22.odb,Step-1,Increment      1: Step Time =    1.000,"P-22-1",          1677,       180.251,       56.6727,            0.,NA,NA,"",   1.00443E+06,   1.01072E+06,   1.01072E+06
C:/temp/Job-22.odb,Step-1,Increment      1: Step Time =    1.000,"P-22-1",          1678,       185.386,       67.2827,            0.,NA,NA,"",   984.537E+03,   1.00230E+06,   1.00230E+06
C:/temp/Job-22.odb,Step-1,Increment      1: Step Time =    1.000,"P-22-1",          1679,       155.199,       184.959,            0.,NA,NA,"",   1.00759E+06,   1.00490E+06,   1.00490E+06
C:/temp/Job-22.odb,Step-1,Increment      1: Step Time =    1.000,"P-22-1",          1680,       143.159,       180.182,            0.,NA,NA,"",   1.01574E+06,   1.01147E+06,   1.01147E+06
C:/temp/Job-22.odb,Step-1,Increment      1: Step Time =    1.000,"P-22-1",          1681,       132.514,       185.354,            0.,NA,NA,"",   994.599E+03,   993.531E+03,   993.531E+03
C:/temp/Job-22.odb,Step-1,Increment      1: Step Time =    1.000,"P-22-1",          1682,       120.273,       114.499,            0.,NA,NA,"",   1.27148E+06,   1.11158E+06,   1.11158E+06
C:/temp/Job-22.odb,Step-1,Increment      1: Step Time =    1.000,"P-22-1",          1683,       118.771,       118.448,            0.,NA,NA,"",   1.36068E+06,   1.24272E+06,   1.24272E+06
C:/temp/Job-22.odb,Step-1,Increment      1: Step Time =    1.000,"P-22-1",          1684,       75.3811,       123.601,            0.,NA,NA,"",   1.23923E+06,   1.17241E+06,   1.17241E+06
C:/temp/Job-22.odb,Step-1,Increment      1: Step Time =    1.000,"P-22-1",          1685,       97.7211,       66.9667,            0.,NA,NA,"",   1.12211E+06,   1.22025E+06,   1.22025E+06
C:/temp/Job-22.odb,Step-1,Increment      1: Step Time =    1.000,"P-22-1",          1686,       126.541,       101.364,            0.,NA,NA,"",   436.399E+03,   420.192E+03,   420.192E+03
C:/temp/Job-22.odb,Step-1,Increment      1: Step Time =    1.000,"P-22-1",          1687,       121.579,       82.3675,            0.,NA,NA,"",   1.26058E+06,   1.13703E+06,   1.13703E+06
C:/temp/Job-22.odb,Step-1,Increment      1: Step Time =    1.000,"P-22-1",          1688,       116.162,       68.9857,            0.,NA,NA,"",   1.25794E+06,   1.25549E+06,   1.25549E+06
C:/temp/Job-22.odb,Step-1,Increment      1: Step Time =    1.000,"P-22-1",          1689,       120.076,       70.3338,            0.,NA,NA,"",   1.28731E+06,   1.24781E+06,   1.24781E+06
C:/temp/Job-22.odb,Step-1,Increment      1: Step Time =    1.000,"P-22-1",          1690,       20.1228,       42.9257,            0.,NA,NA,"",   963.617E+03,   1.03120E+06,   1.03120E+06
C:/temp/Job-22.odb,Step-1,Increment      1: Step Time =    1.000,"P-22-1",          1691,       54.6811,       20.9441,            0.,NA,NA,"",   1.04985E+06,   1.05018E+06,   1.05018E+06
C:/temp/Job-22.odb,Step-1,Increment      1: Step Time =    1.000,"P-22-1",          1692,       46.8730,       19.1586,            0.,NA,NA,"",   1.05799E+06,   1.06125E+06,   1.06125E+06
C:/temp/Job-22.odb,Step-1,Increment      1: Step Time =    1.000,"P-22-1",          1693,       125.218,       79.6871,            0.,NA,NA,"",   1.24180E+06,   1.13321E+06,   1.13321E+06
C:/temp/Job-22.odb,Step-1,Increment      1: Step Time =    1.000,"P-22-1",          1694,       16.3476,       141.670,            0.,NA,NA,"",   882.452E+03,   965.039E+03,   965.039E+03
C:/temp/Job-22.odb,Step-1,Increment      1: Step Time =    1.000,"P-22-1",          1695,       18.5769,       145.233,            0.,NA,NA,"",   906.363E+03,   983.759E+03,   983.759E+03
C:/temp/Job-22.odb,Step-1,Increment      1: Step Time =    1.000,"P-22-1",          1696,       92.8526,       64.3934,            0.,NA,NA,"",   1.13157E+06,   1.20258E+06,   1.20258E+06
C:/temp/Job-22.odb,Step-1,Increment      1: Step Time =    1.000,"P-22-1",          1697,       140.692,       97.8143,            0.,NA,NA,"",   729.674E+03,   743.088E+03,   743.088E+03
C:/temp/Job-22.odb,Step-1,Increment      1: Step Time =    1.000,"P-22-1",          1698,       20.4772,       47.6965,            0.,NA,NA,"",   944.215E+03,   1.01415E+06,   1.01415E+06
C:/temp/Job-22.odb,Step-1,Increment      1: Step Time =    1.000,"P-22-1",          1699,       121.892,       75.6389,            0.,NA,NA,"",   1.30627E+06,   1.21860E+06,   1.21860E+06
C:/temp/Job-22.odb,Step-1,Increment      1: Step Time =    1.000,"P-22-1",          1700,       60.0953,       112.403,            0.,NA,NA,"",   830.296E+03,   844.382E+03,   844.382E+03
C:/temp/Job-22.odb,Step-1,Increment      1: Step Time =    1.000,"P-22-1",          1701,       80.4739,       65.3032,            0.,NA,NA,"",   1.21320E+06,   1.21039E+06,   1.21039E+06
C:/temp/Job-22.odb,Step-1,Increment      1: Step Time =    1.000,"P-22-1",          1702,       122.823,       128.389,            0.,NA,NA,"",   1.29165E+06,   1.22809E+06,   1.22809E+06
C:/temp/Job-22.odb,Step-1,Increment      1: Step Time =    1.000,"P-22-1",          1703,       127.615,       124.582,            0.,NA,NA,"",   1.23754E+06,   1.15049E+06,   1.15049E+06
C:/temp/Job-22.odb,Step-1,Increment      1: Step Time =    1.000,"P-22-1",          1704,       22.7250,       45.7150,            0.,NA,NA,"",   961.586E+03,   1.02576E+06,   1.02576E+06
C:/temp/Job-22.odb,Step-1,Increment      1: Step Time =    1.000,"P-22-1",          1705,       17.8716,       61.9324,            0.,NA,NA,"",   874.904E+03,   956.111E+03,   956.111E+03
C:/temp/Job-22.odb,Step-1,Increment      1: Step Time =    1.000,"P-22-1",          1706,       18.0237,       66.1772,            0.,NA,NA,"",   858.184E+03,   940.543E+03,   940.543E+03
C:/temp/Job-22.odb,Step-1,Increment      1: Step Time =    1.000,"P-22-1",          1707,       122.687,       132.928,            0.,NA,NA,"",   1.24666E+06,   1.20829E+06,   1.20829E+06
C:/temp/Job-22.odb,Step-1,Increment      1: Step Time =    1.000,"P-22-1",          1708,       70.5117,       80.4761,            0.,NA,NA,"",   1.10278E+06,   1.04274E+06,   1.04274E+06
C:/temp/Job-22.odb,Step-1,Increment      1: Step Time =    1.000,"P-22-1",          1709,       149.488,       173.923,            0.,NA,NA,"",   1.03100E+06,   1.02383E+06,   1.02383E+06
C:/temp/Job-22.odb,Step-1,Increment      1: Step Time =    1.000,"P-22-1",          1710,       173.973,       50.4028,            0.,NA,NA,"",   1.02073E+06,   1.01932E+06,   1.01932E+06
C:/temp/Job-22.odb,Step-1,Increment      1: Step Time =    1.000,"P-22-1",          1711,       128.122,       74.4022,            0.,NA,NA,"",   1.23968E+06,   1.15635E+06,   1.15635E+06
C:/temp/Job-22.odb,Step-1,Increment      1: Step Time =    1.000,"P-22-1",          1712,       132.308,       73.3821,            0.,NA,NA,"",   1.19416E+06,   1.12013E+06,   1.12013E+06
C:/temp/Job-22.odb,Step-1,Increment      1: Step Time =    1.000,"P-22-1",          1713,       112.543,       56.8888,            0.,NA,NA,"",   1.11271E+06,   1.14486E+06,   1.14486E+06
C:/temp/Job-22.odb,Step-1,Increment      1: Step Time =    1.000,"P-22-1",          1714,       166.011,       176.867,            0.,NA,NA,"",   1.01629E+06,   1.01278E+06,   1.01278E+06
C:/temp/Job-22.odb,Step-1,Increment      1: Step Time =    1.000,"P-22-1",          1715,       176.834,       33.9369,            0.,NA,NA,"",   1.01383E+06,   1.01254E+06,   1.01254E+06
C:/temp/Job-22.odb,Step-1,Increment      1: Step Time =    1.000,"P-22-1",          1716,       14.2432,       156.490,            0.,NA,NA,"",   934.492E+03,   1.01615E+06,   1.01615E+06
C:/temp/Job-22.odb,Step-1,Increment      1: Step Time =    1.000,"P-22-1",          1717,       64.3005,       117.329,            0.,NA,NA,"",   962.389E+03,   943.957E+03,   943.957E+03
C:/temp/Job-22.odb,Step-1,Increment      1: Step Time =    1.000,"P-22-1",          1718,       170.422,       26.3591,            0.,NA,NA,"",   1.01581E+06,   1.01289E+06,   1.01289E+06
C:/temp/Job-22.odb,Step-1,Increment      1: Step Time =    1.000,"P-22-1",          1719,       173.582,       170.458,            0.,NA,NA,"",   1.01532E+06,   1.01295E+06,   1.01295E+06
C:/temp/Job-22.odb,Step-1,Increment      1: Step Time =    1.000,"P-22-1",          1720,       128.324,       181.392,            0.,NA,NA,"",   1.00192E+06,   1.00146E+06,   1.00146E+06
C:/temp/Job-22.odb,Step-1,Increment      1: Step Time =    1.000,"P-22-1",          1721,       71.8191,       18.6930,            0.,NA,NA,"",   1.01623E+06,   1.01780E+06,   1.01780E+06
C:/temp/Job-22.odb,Step-1,Increment      1: Step Time =    1.000,"P-22-1",          1722,       29.2880,       173.403,            0.,NA,NA,"",   1.06343E+06,   1.09171E+06,   1.09171E+06
C:/temp/Job-22.odb,Step-1,Increment      1: Step Time =    1.000,"P-22-1",          1723,       138.230,       74.7946,            0.,NA,NA,"",   1.11400E+06,   1.05629E+06,   1.05629E+06
C:/temp/Job-22.odb,Step-1,Increment      1: Step Time =    1.000,"P-22-1",          1724,       77.6524,       60.7081,            0.,NA,NA,"",   1.17818E+06,   1.17518E+06,   1.17518E+06
C:/temp/Job-22.odb,Step-1,Increment      1: Step Time =    1.000,"P-22-1",          1725,       93.0001,       59.5662,            0.,NA,NA,"",   1.09303E+06,   1.15334E+06,   1.15334E+06
C:/temp/Job-22.odb,Step-1,Increment      1: Step Time =    1.000,"P-22-1",          1726,       144.570,       101.304,            0.,NA,NA,"",   776.790E+03,   791.603E+03,   791.603E+03
C:/temp/Job-22.odb,Step-1,Increment      1: Step Time =    1.000,"P-22-1",          1727,       23.2051,       51.6618,            0.,NA,NA,"",   940.692E+03,   1.00655E+06,   1.00655E+06
C:/temp/Job-22.odb,Step-1,Increment      1: Step Time =    1.000,"P-22-1",          1728,       22.8453,       55.0315,            0.,NA,NA,"",   924.149E+03,   992.916E+03,   992.916E+03
C:/temp/Job-22.odb,Step-1,Increment      1: Step Time =    1.000,"P-22-1",          1729,       19.7349,       140.219,            0.,NA,NA,"",   889.803E+03,   967.301E+03,   967.301E+03
C:/temp/Job-22.odb,Step-1,Increment      1: Step Time =    1.000,"P-22-1",          1730,       118.208,       136.947,            0.,NA,NA,"",   1.19362E+06,   1.19251E+06,   1.19251E+06
C:/temp/Job-22.odb,Step-1,Increment      1: Step Time =    1.000,"P-22-1",          1731,       71.0957,       66.0590,            0.,NA,NA,"",   1.18206E+06,   1.15342E+06,   1.15342E+06
C:/temp/Job-22.odb,Step-1,Increment      1: Step Time =    1.000,"P-22-1",          1732,       24.4029,       86.2663,            0.,NA,NA,"",   798.825E+03,   880.023E+03,   880.023E+03
C:/temp/Job-22.odb,Step-1,Increment      1: Step Time =    1.000,"P-22-1",          1733,       167.116,       29.0702,            0.,NA,NA,"",   1.02216E+06,   1.01759E+06,   1.01759E+06
C:/temp/Job-22.odb,Step-1,Increment      1: Step Time =    1.000,"P-22-1",          1734,       170.820,       167.182,            0.,NA,NA,"",   1.02108E+06,   1.01732E+06,   1.01732E+06
C:/temp/Job-22.odb,Step-1,Increment      1: Step Time =    1.000,"P-22-1",          1735,       32.6660,       170.910,            0.,NA,NA,"",   1.05919E+06,   1.08477E+06,   1.08477E+06
C:/temp/Job-22.odb,Step-1,Increment      1: Step Time =    1.000,"P-22-1",          1736,       16.0709,       158.924,            0.,NA,NA,"",   951.618E+03,   1.02881E+06,   1.02881E+06
C:/temp/Job-22.odb,Step-1,Increment      1: Step Time =    1.000,"P-22-1",          1737,       44.7543,       21.5124,            0.,NA,NA,"",   1.06356E+06,   1.06864E+06,   1.06864E+06
C:/temp/Job-22.odb,Step-1,Increment      1: Step Time =    1.000,"P-22-1",          1738,       111.449,       52.7987,            0.,NA,NA,"",   1.08247E+06,   1.11669E+06,   1.11669E+06
C:/temp/Job-22.odb,Step-1,Increment      1: Step Time =    1.000,"P-22-1",          1739,       136.115,       70.9435,            0.,NA,NA,"",   1.16168E+06,   1.09981E+06,   1.09981E+06
C:/temp/Job-22.odb,Step-1,Increment      1: Step Time =    1.000,"P-22-1",          1740,       54.3797,       121.120,            0.,NA,NA,"",   939.086E+03,   953.251E+03,   953.251E+03
C:/temp/Job-22.odb,Step-1,Increment      1: Step Time =    1.000,"P-22-1",          1741,       127.185,       133.586,            0.,NA,NA,"",   1.22787E+06,   1.17681E+06,   1.17681E+06
C:/temp/Job-22.odb,Step-1,Increment      1: Step Time =    1.000,"P-22-1",          1742,       22.3361,       66.2055,            0.,NA,NA,"",   874.710E+03,   949.881E+03,   949.881E+03
C:/temp/Job-22.odb,Step-1,Increment      1: Step Time =    1.000,"P-22-1",          1743,       23.3053,       70.0150,            0.,NA,NA,"",   860.260E+03,   936.006E+03,   936.006E+03
C:/temp/Job-22.odb,Step-1,Increment      1: Step Time =    1.000,"P-22-1",          1744,       147.122,       114.481,            0.,NA,NA,"",   931.044E+03,   917.694E+03,   917.694E+03
C:/temp/Job-22.odb,Step-1,Increment      1: Step Time =    1.000,"P-22-1",          1745,       180.063,       25.5309,            0.,NA,NA,"",   1.00690E+06,   1.00659E+06,   1.00659E+06
C:/temp/Job-22.odb,Step-1,Increment      1: Step Time =    1.000,"P-22-1",          1746,       174.444,       180.067,            0.,NA,NA,"",   1.00766E+06,   1.00646E+06,   1.00646E+06
C:/temp/Job-22.odb,Step-1,Increment      1: Step Time =    1.000,"P-22-1",          1747,       23.8839,       136.907,            0.,NA,NA,"",   893.010E+03,   964.340E+03,   964.340E+03
C:/temp/Job-22.odb,Step-1,Increment      1: Step Time =    1.000,"P-22-1",          1748,       27.1325,       52.0712,            0.,NA,NA,"",   956.386E+03,   1.01404E+06,   1.01404E+06
C:/temp/Job-22.odb,Step-1,Increment      1: Step Time =    1.000,"P-22-1",          1749,       27.0724,       59.2370,            0.,NA,NA,"",   924.283E+03,   986.908E+03,   986.908E+03
C:/temp/Job-22.odb,Step-1,Increment      1: Step Time =    1.000,"P-22-1",          1750,       101.348,       149.833,            0.,NA,NA,"",   1.03968E+06,   1.09028E+06,   1.09028E+06
C:/temp/Job-22.odb,Step-1,Increment      1: Step Time =    1.000,"P-22-1",          1751,       29.5128,       23.1638,            0.,NA,NA,"",   1.07570E+06,   1.09836E+06,   1.09836E+06
C:/temp/Job-22.odb,Step-1,Increment      1: Step Time =    1.000,"P-22-1",          1752,       34.5980,       37.9774,            0.,NA,NA,"",   1.03977E+06,   1.07007E+06,   1.07007E+06
C:/temp/Job-22.odb,Step-1,Increment      1: Step Time =    1.000,"P-22-1",          1753,       33.8327,       27.3244,            0.,NA,NA,"",   1.06716E+06,   1.08886E+06,   1.08886E+06
C:/temp/Job-22.odb,Step-1,Increment      1: Step Time =    1.000,"P-22-1",          1754,       37.9404,       169.785,            0.,NA,NA,"",   1.06189E+06,   1.08005E+06,   1.08005E+06
C:/temp/Job-22.odb,Step-1,Increment      1: Step Time =    1.000,"P-22-1",          1755,       60.1449,       71.6857,            0.,NA,NA,"",   1.06372E+06,   1.05082E+06,   1.05082E+06
C:/temp/Job-22.odb,Step-1,Increment      1: Step Time =    1.000,"P-22-1",          1756,       68.8700,       60.5128,            0.,NA,NA,"",   1.15479E+06,   1.13789E+06,   1.13789E+06
C:/temp/Job-22.odb,Step-1,Increment      1: Step Time =    1.000,"P-22-1",          1757,       97.4608,       55.8576,            0.,NA,NA,"",   1.05488E+06,   1.11758E+06,   1.11758E+06
C:/temp/Job-22.odb,Step-1,Increment      1: Step Time =    1.000,"P-22-1",          1758,       152.108,       86.3027,            0.,NA,NA,"",   926.057E+03,   922.663E+03,   922.663E+03
C:/temp/Job-22.odb,Step-1,Increment      1: Step Time =    1.000,"P-22-1",          1759,       45.2102,       30.3934,            0.,NA,NA,"",   1.06745E+06,   1.07668E+06,   1.07668E+06
C:/temp/Job-22.odb,Step-1,Increment      1: Step Time =    1.000,"P-22-1",          1760,       115.639,       55.5615,            0.,NA,NA,"",   1.12218E+06,   1.14087E+06,   1.14087E+06
C:/temp/Job-22.odb,Step-1,Increment      1: Step Time =    1.000,"P-22-1",          1761,       19.2814,       158.542,            0.,NA,NA,"",   965.812E+03,   1.03528E+06,   1.03528E+06
C:/temp/Job-22.odb,Step-1,Increment      1: Step Time =    1.000,"P-22-1",          1762,       56.6398,       129.513,            0.,NA,NA,"",   1.03922E+06,   1.03714E+06,   1.03714E+06
C:/temp/Job-22.odb,Step-1,Increment      1: Step Time =    1.000,"P-22-1",          1763,       30.5741,       52.1122,            0.,NA,NA,"",   969.500E+03,   1.02080E+06,   1.02080E+06
C:/temp/Job-22.odb,Step-1,Increment      1: Step Time =    1.000,"P-22-1",          1764,       54.0308,       127.995,            0.,NA,NA,"",   1.00579E+06,   1.01250E+06,   1.01250E+06
C:/temp/Job-22.odb,Step-1,Increment      1: Step Time =    1.000,"P-22-1",          1765,       56.5272,       74.5791,            0.,NA,NA,"",   1.00673E+06,   1.00732E+06,   1.00732E+06
C:/temp/Job-22.odb,Step-1,Increment      1: Step Time =    1.000,"P-22-1",          1766,       53.9394,       79.3104,            0.,NA,NA,"",   936.400E+03,   951.101E+03,   951.101E+03
C:/temp/Job-22.odb,Step-1,Increment      1: Step Time =    1.000,"P-22-1",          1767,       52.1396,       76.2774,            0.,NA,NA,"",   953.210E+03,   969.717E+03,   969.717E+03
C:/temp/Job-22.odb,Step-1,Increment      1: Step Time =    1.000,"P-22-1",          1768,       181.425,       71.3691,            0.,NA,NA,"",   984.139E+03,   1.00046E+06,   1.00046E+06
C:/temp/Job-22.odb,Step-1,Increment      1: Step Time =    1.000,"P-22-1",          1769,       152.871,       117.868,            0.,NA,NA,"",   966.927E+03,   956.603E+03,   956.603E+03
C:/temp/Job-22.odb,Step-1,Increment      1: Step Time =    1.000,"P-22-1",          1770,       23.4857,       132.453,            0.,NA,NA,"",   871.779E+03,   946.191E+03,   946.191E+03
C:/temp/Job-22.odb,Step-1,Increment      1: Step Time =    1.000,"P-22-1",          1771,       130.286,       143.598,            0.,NA,NA,"",   1.15946E+06,   1.13107E+06,   1.13107E+06
C:/temp/Job-22.odb,Step-1,Increment      1: Step Time =    1.000,"P-22-1",          1772,       34.1364,       33.0882,            0.,NA,NA,"",   1.05213E+06,   1.07827E+06,   1.07827E+06
C:/temp/Job-22.odb,Step-1,Increment      1: Step Time =    1.000,"P-22-1",          1773,       26.1625,       81.5328,            0.,NA,NA,"",   817.299E+03,   894.671E+03,   894.671E+03
C:/temp/Job-22.odb,Step-1,Increment      1: Step Time =    1.000,"P-22-1",          1774,       30.3383,       64.2662,            0.,NA,NA,"",   915.401E+03,   974.634E+03,   974.634E+03
C:/temp/Job-22.odb,Step-1,Increment      1: Step Time =    1.000,"P-22-1",          1775,       24.7165,       90.4494,            0.,NA,NA,"",   786.910E+03,   868.938E+03,   868.938E+03
C:/temp/Job-22.odb,Step-1,Increment      1: Step Time =    1.000,"P-22-1",          1776,       96.2625,       46.3576,            0.,NA,NA,"",   1.03748E+06,   1.07844E+06,   1.07844E+06
C:/temp/Job-22.odb,Step-1,Increment      1: Step Time =    1.000,"P-22-1",          1777,       23.5647,       163.537,            0.,NA,NA,"",   1.00820E+06,   1.06201E+06,   1.06201E+06
C:/temp/Job-22.odb,Step-1,Increment      1: Step Time =    1.000,"P-22-1",          1778,       42.4632,       96.9472,            0.,NA,NA,"",   764.551E+03,   830.010E+03,   830.010E+03
C:/temp/Job-22.odb,Step-1,Increment      1: Step Time =    1.000,"P-22-1",          1779,       64.4956,       63.0581,            0.,NA,NA,"",   1.12980E+06,   1.11249E+06,   1.11249E+06
C:/temp/Job-22.odb,Step-1,Increment      1: Step Time =    1.000,"P-22-1",          1780,       153.194,       80.0099,            0.,NA,NA,"",   985.067E+03,   971.633E+03,   971.633E+03
C:/temp/Job-22.odb,Step-1,Increment      1: Step Time =    1.000,"P-22-1",          1781,       158.681,       87.7608,            0.,NA,NA,"",   925.451E+03,   932.300E+03,   932.300E+03
C:/temp/Job-22.odb,Step-1,Increment      1: Step Time =    1.000,"P-22-1",          1782,       139.267,       59.2836,            0.,NA,NA,"",   1.14183E+06,   1.10358E+06,   1.10358E+06
C:/temp/Job-22.odb,Step-1,Increment      1: Step Time =    1.000,"P-22-1",          1783,       63.0349,       138.356,            0.,NA,NA,"",   1.11941E+06,   1.10639E+06,   1.10639E+06
C:/temp/Job-22.odb,Step-1,Increment      1: Step Time =    1.000,"P-22-1",          1784,       141.084,       132.548,            0.,NA,NA,"",   1.12887E+06,   1.08247E+06,   1.08247E+06
C:/temp/Job-22.odb,Step-1,Increment      1: Step Time =    1.000,"P-22-1",          1785,       74.6531,       28.8978,            0.,NA,NA,"",   1.04412E+06,   1.04906E+06,   1.04906E+06
C:/temp/Job-22.odb,Step-1,Increment      1: Step Time =    1.000,"P-22-1",          1786,       172.062,       74.0488,            0.,NA,NA,"",   989.573E+03,   996.823E+03,   996.823E+03
C:/temp/Job-22.odb,Step-1,Increment      1: Step Time =    1.000,"P-22-1",          1787,       125.309,       171.816,            0.,NA,NA,"",   1.02909E+06,   1.02991E+06,   1.02991E+06
C:/temp/Job-22.odb,Step-1,Increment      1: Step Time =    1.000,"P-22-1",          1788,       53.7990,       70.1531,            0.,NA,NA,"",   1.01689E+06,   1.02341E+06,   1.02341E+06
C:/temp/Job-22.odb,Step-1,Increment      1: Step Time =    1.000,"P-22-1",          1789,       159.486,       44.4891,            0.,NA,NA,"",   1.05334E+06,   1.04042E+06,   1.04042E+06
C:/temp/Job-22.odb,Step-1,Increment      1: Step Time =    1.000,"P-22-1",          1790,       155.940,       160.003,            0.,NA,NA,"",   1.05480E+06,   1.04166E+06,   1.04166E+06
C:/temp/Job-22.odb,Step-1,Increment      1: Step Time =    1.000,"P-22-1",          1791,       66.8426,       39.5278,            0.,NA,NA,"",   1.08614E+06,   1.08695E+06,   1.08695E+06
C:/temp/Job-22.odb,Step-1,Increment      1: Step Time =    1.000,"P-22-1",          1792,       142.209,       59.8802,            0.,NA,NA,"",   1.13190E+06,   1.09390E+06,   1.09390E+06
C:/temp/Job-22.odb,Step-1,Increment      1: Step Time =    1.000,"P-22-1",          1793,       134.617,       144.617,            0.,NA,NA,"",   1.14701E+06,   1.11555E+06,   1.11555E+06
C:/temp/Job-22.odb,Step-1,Increment      1: Step Time =    1.000,"P-22-1",          1794,       42.0699,       33.7306,            0.,NA,NA,"",   1.06257E+06,   1.07773E+06,   1.07773E+06
C:/temp/Job-22.odb,Step-1,Increment      1: Step Time =    1.000,"P-22-1",          1795,       31.1258,       86.0045,            0.,NA,NA,"",   807.455E+03,   881.090E+03,   881.090E+03
C:/temp/Job-22.odb,Step-1,Increment      1: Step Time =    1.000,"P-22-1",          1796,       157.555,       117.663,            0.,NA,NA,"",   962.495E+03,   959.874E+03,   959.874E+03
C:/temp/Job-22.odb,Step-1,Increment      1: Step Time =    1.000,"P-22-1",          1797,       156.614,       31.2326,            0.,NA,NA,"",   1.03659E+06,   1.02816E+06,   1.02816E+06
C:/temp/Job-22.odb,Step-1,Increment      1: Step Time =    1.000,"P-22-1",          1798,       168.057,       156.621,            0.,NA,NA,"",   1.03270E+06,   1.02632E+06,   1.02632E+06
C:/temp/Job-22.odb,Step-1,Increment      1: Step Time =    1.000,"P-22-1",          1799,       123.125,       50.4133,            0.,NA,NA,"",   1.11751E+06,   1.11406E+06,   1.11406E+06
C:/temp/Job-22.odb,Step-1,Increment      1: Step Time =    1.000,"P-22-1",          1800,       89.8421,       158.239,            0.,NA,NA,"",   1.04221E+06,   1.06991E+06,   1.06991E+06
C:/temp/Job-22.odb,Step-1,Increment      1: Step Time =    1.000,"P-22-1",          1801,       114.115,       148.549,            0.,NA,NA,"",   1.08909E+06,   1.11149E+06,   1.11149E+06
C:/temp/Job-22.odb,Step-1,Increment      1: Step Time =    1.000,"P-22-1",          1802,       40.0934,       166.380,            0.,NA,NA,"",   1.05842E+06,   1.07672E+06,   1.07672E+06
C:/temp/Job-22.odb,Step-1,Increment      1: Step Time =    1.000,"P-22-1",          1803,       102.985,       40.5852,            0.,NA,NA,"",   1.02450E+06,   1.05591E+06,   1.05591E+06
C:/temp/Job-22.odb,Step-1,Increment      1: Step Time =    1.000,"P-22-1",          1804,       138.204,       55.0557,            0.,NA,NA,"",   1.13197E+06,   1.10091E+06,   1.10091E+06
C:/temp/Job-22.odb,Step-1,Increment      1: Step Time =    1.000,"P-22-1",          1805,       50.9930,       47.3931,            0.,NA,NA,"",   1.06957E+06,   1.07755E+06,   1.07755E+06
C:/temp/Job-22.odb,Step-1,Increment      1: Step Time =    1.000,"P-22-1",          1806,       60.2872,       48.7497,            0.,NA,NA,"",   1.10148E+06,   1.09880E+06,   1.09880E+06
C:/temp/Job-22.odb,Step-1,Increment      1: Step Time =    1.000,"P-22-1",          1807,       120.858,       148.787,            0.,NA,NA,"",   1.11391E+06,   1.11676E+06,   1.11676E+06
C:/temp/Job-22.odb,Step-1,Increment      1: Step Time =    1.000,"P-22-1",          1808,       100.486,       160.412,            0.,NA,NA,"",   1.02287E+06,   1.05395E+06,   1.05395E+06
C:/temp/Job-22.odb,Step-1,Increment      1: Step Time =    1.000,"P-22-1",          1809,       39.8040,       117.310,            0.,NA,NA,"",   843.331E+03,   900.115E+03,   900.115E+03
C:/temp/Job-22.odb,Step-1,Increment      1: Step Time =    1.000,"P-22-1",          1810,       47.4822,       68.5210,            0.,NA,NA,"",   982.495E+03,   1.00523E+06,   1.00523E+06
C:/temp/Job-22.odb,Step-1,Increment      1: Step Time =    1.000,"P-22-1",          1811,       144.622,       137.731,            0.,NA,NA,"",   1.11637E+06,   1.07907E+06,   1.07907E+06
C:/temp/Job-22.odb,Step-1,Increment      1: Step Time =    1.000,"P-22-1",          1812,       39.3956,       101.416,            0.,NA,NA,"",   770.828E+03,   839.225E+03,   839.225E+03
C:/temp/Job-22.odb,Step-1,Increment      1: Step Time =    1.000,"P-22-1",          1813,       46.5078,       45.1223,            0.,NA,NA,"",   1.05736E+06,   1.07170E+06,   1.07170E+06
C:/temp/Job-22.odb,Step-1,Increment      1: Step Time =    1.000,"P-22-1",          1814,       34.2429,       65.3787,            0.,NA,NA,"",   927.095E+03,   979.474E+03,   979.474E+03
C:/temp/Job-22.odb,Step-1,Increment      1: Step Time =    1.000,"P-22-1",          1815,       155.334,       41.0487,            0.,NA,NA,"",   1.05811E+06,   1.04413E+06,   1.04413E+06
C:/temp/Job-22.odb,Step-1,Increment      1: Step Time =    1.000,"P-22-1",          1816,       34.6177,       80.4201,            0.,NA,NA,"",   841.902E+03,   906.502E+03,   906.502E+03
C:/temp/Job-22.odb,Step-1,Increment      1: Step Time =    1.000,"P-22-1",          1817,       162.285,       80.0348,            0.,NA,NA,"",   975.331E+03,   975.514E+03,   975.514E+03
C:/temp/Job-22.odb,Step-1,Increment      1: Step Time =    1.000,"P-22-1",          1818,       165.383,       82.0925,            0.,NA,NA,"",   964.595E+03,   970.664E+03,   970.664E+03
C:/temp/Job-22.odb,Step-1,Increment      1: Step Time =    1.000,"P-22-1",          1819,       157.436,       148.277,            0.,NA,NA,"",   1.06639E+06,   1.04868E+06,   1.04868E+06
C:/temp/Job-22.odb,Step-1,Increment      1: Step Time =    1.000,"P-22-1",          1820,       37.6927,       164.594,            0.,NA,NA,"",   1.05085E+06,   1.07443E+06,   1.07443E+06
C:/temp/Job-22.odb,Step-1,Increment      1: Step Time =    1.000,"P-22-1",          1821,       36.4934,       161.941,            0.,NA,NA,"",   1.04266E+06,   1.06960E+06,   1.06960E+06
C:/temp/Job-22.odb,Step-1,Increment      1: Step Time =    1.000,"P-22-1",          1822,       100.132,       38.7571,            0.,NA,NA,"",   1.02165E+06,   1.05127E+06,   1.05127E+06
C:/temp/Job-22.odb,Step-1,Increment      1: Step Time =    1.000,"P-22-1",          1823,       153.957,       150.864,            0.,NA,NA,"",   1.07293E+06,   1.05398E+06,   1.05398E+06
C:/temp/Job-22.odb,Step-1,Increment      1: Step Time =    1.000,"P-22-1",          1824,       65.5374,       149.556,            0.,NA,NA,"",   1.11514E+06,   1.11008E+06,   1.11008E+06
C:/temp/Job-22.odb,Step-1,Increment      1: Step Time =    1.000,"P-22-1",          1825,       138.461,       150.010,            0.,NA,NA,"",   1.11753E+06,   1.09223E+06,   1.09223E+06
C:/temp/Job-22.odb,Step-1,Increment      1: Step Time =    1.000,"P-22-1",          1826,       29.5308,       92.6411,            0.,NA,NA,"",   786.099E+03,   863.932E+03,   863.932E+03
C:/temp/Job-22.odb,Step-1,Increment      1: Step Time =    1.000,"P-22-1",          1827,       113.724,       156.239,            0.,NA,NA,"",   1.05649E+06,   1.07633E+06,   1.07633E+06
C:/temp/Job-22.odb,Step-1,Increment      1: Step Time =    1.000,"P-22-1",          1828,       151.005,       47.6319,            0.,NA,NA,"",   1.08061E+06,   1.05991E+06,   1.05991E+06
C:/temp/Job-22.odb,Step-1,Increment      1: Step Time =    1.000,"P-22-1",          1829,       41.8602,       61.2216,            0.,NA,NA,"",   987.482E+03,   1.01925E+06,   1.01925E+06
C:/temp/Job-22.odb,Step-1,Increment      1: Step Time =    1.000,"P-22-1",          1830,       118.102,       152.558,            0.,NA,NA,"",   1.08555E+06,   1.09628E+06,   1.09628E+06
C:/temp/Job-22.odb,Step-1,Increment      1: Step Time =    1.000,"P-22-1",          1831,       173.000,       97.4271,            0.,NA,NA,"",   935.353E+03,   958.279E+03,   958.279E+03
C:/temp/Job-22.odb,Step-1,Increment      1: Step Time =    1.000,"P-22-1",          1832,       172.866,       94.0697,            0.,NA,NA,"",   936.614E+03,   958.894E+03,   958.894E+03
C:/temp/Job-22.odb,Step-1,Increment      1: Step Time =    1.000,"P-22-1",          1833,       96.1833,       170.873,            0.,NA,NA,"",   1.00712E+06,   1.02427E+06,   1.02427E+06
C:/temp/Job-22.odb,Step-1,Increment      1: Step Time =    1.000,"P-22-1",          1834,       167.182,       123.282,            0.,NA,NA,"",   984.013E+03,   987.826E+03,   987.826E+03
C:/temp/Job-22.odb,Step-1,Increment      1: Step Time =    1.000,"P-22-1",          1835,       28.8804,       124.435,            0.,NA,NA,"",   853.320E+03,   923.175E+03,   923.175E+03
C:/temp/Job-22.odb,Step-1,Increment      1: Step Time =    1.000,"P-22-1",          1836,       48.1300,       62.4231,            0.,NA,NA,"",   1.01927E+06,   1.03645E+06,   1.03645E+06
C:/temp/Job-22.odb,Step-1,Increment      1: Step Time =    1.000,"P-22-1",          1837,       51.4543,       59.9280,            0.,NA,NA,"",   1.04872E+06,   1.05777E+06,   1.05777E+06
C:/temp/Job-22.odb,Step-1,Increment      1: Step Time =    1.000,"P-22-1",          1838,       61.0433,       151.659,            0.,NA,NA,"",   1.10010E+06,   1.09776E+06,   1.09776E+06
C:/temp/Job-22.odb,Step-1,Increment      1: Step Time =    1.000,"P-22-1",          1839,       147.787,       134.588,            0.,NA,NA,"",   1.09531E+06,   1.06101E+06,   1.06101E+06
C:/temp/Job-22.odb,Step-1,Increment      1: Step Time =    1.000,"P-22-1",          1840,       153.191,       128.782,            0.,NA,NA,"",   1.04895E+06,   1.02532E+06,   1.02532E+06
C:/temp/Job-22.odb,Step-1,Increment      1: Step Time =    1.000,"P-22-1",          1841,       162.132,       122.921,            0.,NA,NA,"",   989.856E+03,   986.833E+03,   986.833E+03
C:/temp/Job-22.odb,Step-1,Increment      1: Step Time =    1.000,"P-22-1",          1842,       34.5773,       104.252,            0.,NA,NA,"",   781.771E+03,   854.585E+03,   854.585E+03
C:/temp/Job-22.odb,Step-1,Increment      1: Step Time =    1.000,"P-22-1",          1843,       44.8132,       134.091,            0.,NA,NA,"",   981.616E+03,   1.00916E+06,   1.00916E+06
C:/temp/Job-22.odb,Step-1,Increment      1: Step Time =    1.000,"P-22-1",          1844,       114.031,       159.507,            0.,NA,NA,"",   1.04714E+06,   1.06447E+06,   1.06447E+06
C:/temp/Job-22.odb,Step-1,Increment      1: Step Time =    1.000,"P-22-1",          1845,       57.1996,       156.373,            0.,NA,NA,"",   1.08662E+06,   1.08796E+06,   1.08796E+06
C:/temp/Job-22.odb,Step-1,Increment      1: Step Time =    1.000,"P-22-1",          1846,       147.206,       60.2170,            0.,NA,NA,"",   1.10550E+06,   1.07246E+06,   1.07246E+06
C:/temp/Job-22.odb,Step-1,Increment      1: Step Time =    1.000,"P-22-1",          1847,       151.042,       130.116,            0.,NA,NA,"",   1.06335E+06,   1.03577E+06,   1.03577E+06
C:/temp/Job-22.odb,Step-1,Increment      1: Step Time =    1.000,"P-22-1",          1848,       148.854,       50.3332,            0.,NA,NA,"",   1.08999E+06,   1.06634E+06,   1.06634E+06
C:/temp/Job-22.odb,Step-1,Increment      1: Step Time =    1.000,"P-22-1",          1849,       151.684,       134.425,            0.,NA,NA,"",   1.07439E+06,   1.04729E+06,   1.04729E+06
C:/temp/Job-22.odb,Step-1,Increment      1: Step Time =    1.000,"P-22-1",          1850,       157.027,       132.254,            0.,NA,NA,"",   1.04739E+06,   1.02849E+06,   1.02849E+06
C:/temp/Job-22.odb,Step-1,Increment      1: Step Time =    1.000,"P-22-1",          1851,       155.340,       130.195,            0.,NA,NA,"",   1.04737E+06,   1.02656E+06,   1.02656E+06
C:/temp/Job-22.odb,Step-1,Increment      1: Step Time =    1.000,"P-22-1",          1852,       152.917,       141.986,            0.,NA,NA,"",   1.08163E+06,   1.05702E+06,   1.05702E+06
C:/temp/Job-22.odb,Step-1,Increment      1: Step Time =    1.000,"P-22-1",          1853,       105.556,       168.215,            0.,NA,NA,"",   1.01224E+06,   1.03062E+06,   1.03062E+06
