ODB Name,Step,Frame,Part Instance Name,    Node Label,X,Y,Z,Section Name,Material Name,Section Point,       S-Mises,S-Max. In-Plane Principal (Abs),S-Max. Principal (Abs)
C:/temp/Job-23.odb,Step-1,Increment      1: Step Time =    1.000,"P-23-1",             1,       97.1716,       102.828,            0.,NA,NA,"",   1.11030E+06,   1.06194E+06,   1.06194E+06
C:/temp/Job-23.odb,Step-1,Increment      1: Step Time =    1.000,"P-23-1",             2,           96.,          100.,            0.,NA,NA,"",   616.344E+03,   495.822E+03,   495.822E+03
C:/temp/Job-23.odb,Step-1,Increment      1: Step Time =    1.000,"P-23-1",             3,       97.1716,       97.1716,            0.,NA,NA,"",   1.11637E+06,   1.06874E+06,   1.06874E+06
C:/temp/Job-23.odb,Step-1,Increment      1: Step Time =    1.000,"P-23-1",             4,          100.,           96.,            0.,NA,NA,"",   1.46092E+06,   1.55440E+06,   1.55440E+06
C:/temp/Job-23.odb,Step-1,Increment      1: Step Time =    1.000,"P-23-1",             5,       102.828,       97.1716,            0.,NA,NA,"",   1.11332E+06,   1.06143E+06,   1.06143E+06
C:/temp/Job-23.odb,Step-1,Increment      1: Step Time =    1.000,"P-23-1",             6,          104.,          100.,            0.,NA,NA,"",   621.663E+03,   494.227E+03,   494.227E+03
C:/temp/Job-23.odb,Step-1,Increment      1: Step Time =    1.000,"P-23-1",             7,       102.828,       102.828,            0.,NA,NA,"",   1.11963E+06,   1.06900E+06,   1.06900E+06
C:/temp/Job-23.odb,Step-1,Increment      1: Step Time =    1.000,"P-23-1",             8,          100.,          104.,            0.,NA,NA,"",   1.46180E+06,   1.55555E+06,   1.55555E+06
C:/temp/Job-23.odb,Step-1,Increment      1: Step Time =    1.000,"P-23-1",             9,          190.,            0.,            0.,NA,NA,"",   999.898E+03,   999.857E+03,   999.857E+03
C:/temp/Job-23.odb,Step-1,Increment      1: Step Time =    1.000,"P-23-1",            10,          180.,            0.,            0.,NA,NA,"",   998.747E+03,   998.693E+03,   998.693E+03
C:/temp/Job-23.odb,Step-1,Increment      1: Step Time =    1.000,"P-23-1",            11,          170.,            0.,            0.,NA,NA,"",   996.215E+03,   996.160E+03,   996.160E+03
C:/temp/Job-23.odb,Step-1,Increment      1: Step Time =    1.000,"P-23-1",            12,          160.,            0.,            0.,NA,NA,"",   992.414E+03,   992.391E+03,   992.391E+03
C:/temp/Job-23.odb,Step-1,Increment      1: Step Time =    1.000,"P-23-1",            13,          150.,            0.,            0.,NA,NA,"",   987.481E+03,   987.470E+03,   987.470E+03
C:/temp/Job-23.odb,Step-1,Increment      1: Step Time =    1.000,"P-23-1",            14,          140.,            0.,            0.,NA,NA,"",   981.312E+03,   981.291E+03,   981.291E+03
C:/temp/Job-23.odb,Step-1,Increment      1: Step Time =    1.000,"P-23-1",            15,          130.,            0.,            0.,NA,NA,"",   974.271E+03,   974.234E+03,   974.234E+03
C:/temp/Job-23.odb,Step-1,Increment      1: Step Time =    1.000,"P-23-1",            16,          120.,            0.,            0.,NA,NA,"",   966.676E+03,   966.655E+03,   966.655E+03
C:/temp/Job-23.odb,Step-1,Increment      1: Step Time =    1.000,"P-23-1",            17,          110.,            0.,            0.,NA,NA,"",   958.966E+03,   958.980E+03,   958.980E+03
C:/temp/Job-23.odb,Step-1,Increment      1: Step Time =    1.000,"P-23-1",            18,          100.,            0.,            0.,NA,NA,"",   951.451E+03,   951.470E+03,   951.470E+03
C:/temp/Job-23.odb,Step-1,Increment      1: Step Time =    1.000,"P-23-1",            19,           90.,            0.,            0.,NA,NA,"",   944.568E+03,   944.602E+03,   944.602E+03
C:/temp/Job-23.odb,Step-1,Increment      1: Step Time =    1.000,"P-23-1",            20,           80.,            0.,            0.,NA,NA,"",   938.876E+03,   938.912E+03,   938.912E+03
C:/temp/Job-23.odb,Step-1,Increment      1: Step Time =    1.000,"P-23-1",            21,           70.,            0.,            0.,NA,NA,"",   935.199E+03,   935.263E+03,   935.263E+03
C:/temp/Job-23.odb,Step-1,Increment      1: Step Time =    1.000,"P-23-1",            22,           60.,            0.,            0.,NA,NA,"",   935.164E+03,   935.253E+03,   935.253E+03
C:/temp/Job-23.odb,Step-1,Increment      1: Step Time =    1.000,"P-23-1",            23,           50.,            0.,            0.,NA,NA,"",   937.633E+03,   937.658E+03,   937.658E+03
C:/temp/Job-23.odb,Step-1,Increment      1: Step Time =    1.000,"P-23-1",            24,           40.,            0.,            0.,NA,NA,"",   945.943E+03,   946.010E+03,   946.010E+03
C:/temp/Job-23.odb,Step-1,Increment      1: Step Time =    1.000,"P-23-1",            25,           30.,            0.,            0.,NA,NA,"",   969.139E+03,   969.620E+03,   969.620E+03
C:/temp/Job-23.odb,Step-1,Increment      1: Step Time =    1.000,"P-23-1",            26,           20.,            0.,            0.,NA,NA,"",   1.02592E+06,   1.02709E+06,   1.02709E+06
C:/temp/Job-23.odb,Step-1,Increment      1: Step Time =    1.000,"P-23-1",            27,           10.,            0.,            0.,NA,NA,"",   1.17229E+06,   1.17500E+06,   1.17500E+06
C:/temp/Job-23.odb,Step-1,Increment      1: Step Time =    1.000,"P-23-1",            28,          200.,            0.,            0.,NA,NA,"",   1.00001E+06,   1.00001E+06,   1.00001E+06
C:/temp/Job-23.odb,Step-1,Increment      1: Step Time =    1.000,"P-23-1",            29,            0.,            0.,            0.,NA,NA,"",   1.51299E+06,   1.58460E+06,   1.58460E+06
C:/temp/Job-23.odb,Step-1,Increment      1: Step Time =    1.000,"P-23-1",            30,          200.,          190.,            0.,NA,NA,"",   999.991E+03,   999.923E+03,   999.923E+03
C:/temp/Job-23.odb,Step-1,Increment      1: Step Time =    1.000,"P-23-1",            31,          200.,          180.,            0.,NA,NA,"",   1.00055E+06,   999.935E+03,   999.935E+03
C:/temp/Job-23.odb,Step-1,Increment      1: Step Time =    1.000,"P-23-1",            32,          200.,          170.,            0.,NA,NA,"",   1.00166E+06,   999.972E+03,   999.972E+03
C:/temp/Job-23.odb,Step-1,Increment      1: Step Time =    1.000,"P-23-1",            33,          200.,          160.,            0.,NA,NA,"",   1.00304E+06,   1.00001E+06,   1.00001E+06
C:/temp/Job-23.odb,Step-1,Increment      1: Step Time =    1.000,"P-23-1",            34,          200.,          150.,            0.,NA,NA,"",   1.00434E+06,   1.00003E+06,   1.00003E+06
C:/temp/Job-23.odb,Step-1,Increment      1: Step Time =    1.000,"P-23-1",            35,          200.,          140.,            0.,NA,NA,"",   1.00536E+06,   1.00004E+06,   1.00004E+06
C:/temp/Job-23.odb,Step-1,Increment      1: Step Time =    1.000,"P-23-1",            36,          200.,          130.,            0.,NA,NA,"",   1.00600E+06,   1.00004E+06,   1.00004E+06
C:/temp/Job-23.odb,Step-1,Increment      1: Step Time =    1.000,"P-23-1",            37,          200.,          120.,            0.,NA,NA,"",   1.00628E+06,   1.00002E+06,   1.00002E+06
C:/temp/Job-23.odb,Step-1,Increment      1: Step Time =    1.000,"P-23-1",            38,          200.,          110.,            0.,NA,NA,"",   1.00635E+06,   1.00001E+06,   1.00001E+06
C:/temp/Job-23.odb,Step-1,Increment      1: Step Time =    1.000,"P-23-1",            39,          200.,          100.,            0.,NA,NA,"",   1.00635E+06,  1000.000E+03,  1000.000E+03
C:/temp/Job-23.odb,Step-1,Increment      1: Step Time =    1.000,"P-23-1",            40,          200.,           90.,            0.,NA,NA,"",   1.00635E+06,   1.00001E+06,   1.00001E+06
C:/temp/Job-23.odb,Step-1,Increment      1: Step Time =    1.000,"P-23-1",            41,          200.,           80.,            0.,NA,NA,"",   1.00628E+06,   1.00003E+06,   1.00003E+06
C:/temp/Job-23.odb,Step-1,Increment      1: Step Time =    1.000,"P-23-1",            42,          200.,           70.,            0.,NA,NA,"",   1.00601E+06,   1.00005E+06,   1.00005E+06
C:/temp/Job-23.odb,Step-1,Increment      1: Step Time =    1.000,"P-23-1",            43,          200.,           60.,            0.,NA,NA,"",   1.00539E+06,   1.00013E+06,   1.00013E+06
C:/temp/Job-23.odb,Step-1,Increment      1: Step Time =    1.000,"P-23-1",            44,          200.,           50.,            0.,NA,NA,"",   1.00421E+06,   999.979E+03,   999.979E+03
C:/temp/Job-23.odb,Step-1,Increment      1: Step Time =    1.000,"P-23-1",            45,          200.,           40.,            0.,NA,NA,"",   1.00297E+06,   999.999E+03,   999.999E+03
C:/temp/Job-23.odb,Step-1,Increment      1: Step Time =    1.000,"P-23-1",            46,          200.,           30.,            0.,NA,NA,"",   1.00161E+06,   999.960E+03,   999.960E+03
C:/temp/Job-23.odb,Step-1,Increment      1: Step Time =    1.000,"P-23-1",            47,          200.,           20.,            0.,NA,NA,"",   1.00054E+06,   999.939E+03,   999.939E+03
C:/temp/Job-23.odb,Step-1,Increment      1: Step Time =    1.000,"P-23-1",            48,          200.,           10.,            0.,NA,NA,"",   999.993E+03,   999.927E+03,   999.927E+03
C:/temp/Job-23.odb,Step-1,Increment      1: Step Time =    1.000,"P-23-1",            49,          200.,          200.,            0.,NA,NA,"",   1.00001E+06,   1.00001E+06,   1.00001E+06
C:/temp/Job-23.odb,Step-1,Increment      1: Step Time =    1.000,"P-23-1",            50,           10.,          200.,            0.,NA,NA,"",   1.17283E+06,   1.17549E+06,   1.17549E+06
C:/temp/Job-23.odb,Step-1,Increment      1: Step Time =    1.000,"P-23-1",            51,           20.,          200.,            0.,NA,NA,"",   1.02797E+06,   1.02898E+06,   1.02898E+06
C:/temp/Job-23.odb,Step-1,Increment      1: Step Time =    1.000,"P-23-1",            52,           30.,          200.,            0.,NA,NA,"",   972.358E+03,   972.850E+03,   972.850E+03
C:/temp/Job-23.odb,Step-1,Increment      1: Step Time =    1.000,"P-23-1",            53,           40.,          200.,            0.,NA,NA,"",   946.522E+03,   946.933E+03,   946.933E+03
C:/temp/Job-23.odb,Step-1,Increment      1: Step Time =    1.000,"P-23-1",            54,           50.,          200.,            0.,NA,NA,"",   935.247E+03,   935.395E+03,   935.395E+03
C:/temp/Job-23.odb,Step-1,Increment      1: Step Time =    1.000,"P-23-1",            55,           60.,          200.,            0.,NA,NA,"",   932.205E+03,   932.276E+03,   932.276E+03
C:/temp/Job-23.odb,Step-1,Increment      1: Step Time =    1.000,"P-23-1",            56,           70.,          200.,            0.,NA,NA,"",   934.176E+03,   934.228E+03,   934.228E+03
C:/temp/Job-23.odb,Step-1,Increment      1: Step Time =    1.000,"P-23-1",            57,           80.,          200.,            0.,NA,NA,"",   938.765E+03,   938.806E+03,   938.806E+03
C:/temp/Job-23.odb,Step-1,Increment      1: Step Time =    1.000,"P-23-1",            58,           90.,          200.,            0.,NA,NA,"",   944.558E+03,    944.59E+03,    944.59E+03
C:/temp/Job-23.odb,Step-1,Increment      1: Step Time =    1.000,"P-23-1",            59,          100.,          200.,            0.,NA,NA,"",   951.307E+03,   951.305E+03,   951.305E+03
C:/temp/Job-23.odb,Step-1,Increment      1: Step Time =    1.000,"P-23-1",            60,          110.,          200.,            0.,NA,NA,"",   958.663E+03,   958.661E+03,   958.661E+03
C:/temp/Job-23.odb,Step-1,Increment      1: Step Time =    1.000,"P-23-1",            61,          120.,          200.,            0.,NA,NA,"",   966.419E+03,   966.411E+03,   966.411E+03
C:/temp/Job-23.odb,Step-1,Increment      1: Step Time =    1.000,"P-23-1",            62,          130.,          200.,            0.,NA,NA,"",   974.171E+03,   974.173E+03,   974.173E+03
C:/temp/Job-23.odb,Step-1,Increment      1: Step Time =    1.000,"P-23-1",            63,          140.,          200.,            0.,NA,NA,"",   981.564E+03,   981.607E+03,   981.607E+03
C:/temp/Job-23.odb,Step-1,Increment      1: Step Time =    1.000,"P-23-1",            64,          150.,          200.,            0.,NA,NA,"",   987.799E+03,   987.640E+03,   987.640E+03
C:/temp/Job-23.odb,Step-1,Increment      1: Step Time =    1.000,"P-23-1",            65,          160.,          200.,            0.,NA,NA,"",   992.684E+03,   992.657E+03,   992.657E+03
C:/temp/Job-23.odb,Step-1,Increment      1: Step Time =    1.000,"P-23-1",            66,          170.,          200.,            0.,NA,NA,"",   996.394E+03,   996.362E+03,   996.362E+03
C:/temp/Job-23.odb,Step-1,Increment      1: Step Time =    1.000,"P-23-1",            67,          180.,          200.,            0.,NA,NA,"",   998.780E+03,   998.741E+03,   998.741E+03
C:/temp/Job-23.odb,Step-1,Increment      1: Step Time =    1.000,"P-23-1",            68,          190.,          200.,            0.,NA,NA,"",   999.909E+03,   999.871E+03,   999.871E+03
C:/temp/Job-23.odb,Step-1,Increment      1: Step Time =    1.000,"P-23-1",            69,            0.,          200.,            0.,NA,NA,"",   1.51310E+06,   1.58531E+06,   1.58531E+06
C:/temp/Job-23.odb,Step-1,Increment      1: Step Time =    1.000,"P-23-1",            70,            0.,           10.,            0.,NA,NA,"",   1.09903E+06,   1.19471E+06,   1.19471E+06
C:/temp/Job-23.odb,Step-1,Increment      1: Step Time =    1.000,"P-23-1",            71,            0.,           20.,            0.,NA,NA,"",   966.505E+03,   1.06588E+06,   1.06588E+06
C:/temp/Job-23.odb,Step-1,Increment      1: Step Time =    1.000,"P-23-1",            72,            0.,           30.,            0.,NA,NA,"",   909.534E+03,   1.01078E+06,   1.01078E+06
C:/temp/Job-23.odb,Step-1,Increment      1: Step Time =    1.000,"P-23-1",            73,            0.,           40.,            0.,NA,NA,"",   878.082E+03,   980.521E+03,   980.521E+03
C:/temp/Job-23.odb,Step-1,Increment      1: Step Time =    1.000,"P-23-1",            74,            0.,           50.,            0.,NA,NA,"",   858.269E+03,   961.512E+03,   961.512E+03
C:/temp/Job-23.odb,Step-1,Increment      1: Step Time =    1.000,"P-23-1",            75,            0.,           60.,            0.,NA,NA,"",   844.879E+03,   948.913E+03,   948.913E+03
C:/temp/Job-23.odb,Step-1,Increment      1: Step Time =    1.000,"P-23-1",            76,            0.,           70.,            0.,NA,NA,"",   834.624E+03,   939.513E+03,   939.513E+03
C:/temp/Job-23.odb,Step-1,Increment      1: Step Time =    1.000,"P-23-1",            77,            0.,           80.,            0.,NA,NA,"",   828.642E+03,   933.669E+03,   933.669E+03
C:/temp/Job-23.odb,Step-1,Increment      1: Step Time =    1.000,"P-23-1",            78,            0.,           90.,            0.,NA,NA,"",   825.552E+03,   930.543E+03,   930.543E+03
C:/temp/Job-23.odb,Step-1,Increment      1: Step Time =    1.000,"P-23-1",            79,            0.,          100.,            0.,NA,NA,"",   824.707E+03,   929.616E+03,   929.616E+03
C:/temp/Job-23.odb,Step-1,Increment      1: Step Time =    1.000,"P-23-1",            80,            0.,          110.,            0.,NA,NA,"",   825.956E+03,   930.808E+03,   930.808E+03
C:/temp/Job-23.odb,Step-1,Increment      1: Step Time =    1.000,"P-23-1",            81,            0.,          120.,            0.,NA,NA,"",   829.316E+03,   934.147E+03,   934.147E+03
C:/temp/Job-23.odb,Step-1,Increment      1: Step Time =    1.000,"P-23-1",            82,            0.,          130.,            0.,NA,NA,"",   835.301E+03,   939.984E+03,   939.984E+03
C:/temp/Job-23.odb,Step-1,Increment      1: Step Time =    1.000,"P-23-1",            83,            0.,          140.,            0.,NA,NA,"",   844.421E+03,   948.754E+03,   948.754E+03
C:/temp/Job-23.odb,Step-1,Increment      1: Step Time =    1.000,"P-23-1",            84,            0.,          150.,            0.,NA,NA,"",   857.536E+03,   961.291E+03,   961.291E+03
C:/temp/Job-23.odb,Step-1,Increment      1: Step Time =    1.000,"P-23-1",            85,            0.,          160.,            0.,NA,NA,"",   876.906E+03,   979.789E+03,   979.789E+03
C:/temp/Job-23.odb,Step-1,Increment      1: Step Time =    1.000,"P-23-1",            86,            0.,          170.,            0.,NA,NA,"",   908.681E+03,   1.01017E+06,   1.01017E+06
C:/temp/Job-23.odb,Step-1,Increment      1: Step Time =    1.000,"P-23-1",            87,            0.,          180.,            0.,NA,NA,"",   965.812E+03,   1.06521E+06,   1.06521E+06
C:/temp/Job-23.odb,Step-1,Increment      1: Step Time =    1.000,"P-23-1",            88,            0.,          190.,            0.,NA,NA,"",   1.09834E+06,   1.19399E+06,   1.19399E+06
C:/temp/Job-23.odb,Step-1,Increment      1: Step Time =    1.000,"P-23-1",            89,       190.292,       95.1765,            0.,NA,NA,"",   1.00564E+06,   1.00003E+06,   1.00003E+06
C:/temp/Job-23.odb,Step-1,Increment      1: Step Time =    1.000,"P-23-1",            90,       104.928,       95.0890,            0.,NA,NA,"",   1.18802E+06,   1.12190E+06,   1.12190E+06
C:/temp/Job-23.odb,Step-1,Increment      1: Step Time =    1.000,"P-23-1",            91,       190.316,       104.959,            0.,NA,NA,"",   1.00563E+06,   1.00002E+06,   1.00002E+06
C:/temp/Job-23.odb,Step-1,Increment      1: Step Time =    1.000,"P-23-1",            92,       175.745,       104.717,            0.,NA,NA,"",   1.00440E+06,   1.00011E+06,   1.00011E+06
C:/temp/Job-23.odb,Step-1,Increment      1: Step Time =    1.000,"P-23-1",            93,       165.740,       105.502,            0.,NA,NA,"",   1.00347E+06,   999.965E+03,   999.965E+03
C:/temp/Job-23.odb,Step-1,Increment      1: Step Time =    1.000,"P-23-1",            94,       146.871,       105.793,            0.,NA,NA,"",    998.37E+03,   996.722E+03,   996.722E+03
C:/temp/Job-23.odb,Step-1,Increment      1: Step Time =    1.000,"P-23-1",            95,       137.919,       107.976,            0.,NA,NA,"",   996.456E+03,   995.102E+03,   995.102E+03
C:/temp/Job-23.odb,Step-1,Increment      1: Step Time =    1.000,"P-23-1",            96,       126.544,       105.710,            0.,NA,NA,"",   977.402E+03,   977.920E+03,   977.920E+03
C:/temp/Job-23.odb,Step-1,Increment      1: Step Time =    1.000,"P-23-1",            97,       117.654,       107.880,            0.,NA,NA,"",   1.00080E+06,   990.915E+03,   990.915E+03
C:/temp/Job-23.odb,Step-1,Increment      1: Step Time =    1.000,"P-23-1",            98,       104.890,       104.974,            0.,NA,NA,"",   1.19313E+06,   1.12881E+06,   1.12881E+06
C:/temp/Job-23.odb,Step-1,Increment      1: Step Time =    1.000,"P-23-1",            99,       95.0707,       104.900,            0.,NA,NA,"",   1.18357E+06,   1.12221E+06,   1.12221E+06
C:/temp/Job-23.odb,Step-1,Increment      1: Step Time =    1.000,"P-23-1",           100,       82.3248,       107.516,            0.,NA,NA,"",   981.565E+03,   989.051E+03,   989.051E+03
C:/temp/Job-23.odb,Step-1,Increment      1: Step Time =    1.000,"P-23-1",           101,       73.7663,       105.470,            0.,NA,NA,"",   953.445E+03,   978.768E+03,   978.768E+03
C:/temp/Job-23.odb,Step-1,Increment      1: Step Time =    1.000,"P-23-1",           102,       62.0807,       104.210,            0.,NA,NA,"",   951.837E+03,   989.279E+03,   989.279E+03
C:/temp/Job-23.odb,Step-1,Increment      1: Step Time =    1.000,"P-23-1",           103,       53.1395,       106.054,            0.,NA,NA,"",   945.663E+03,   991.962E+03,   991.962E+03
C:/temp/Job-23.odb,Step-1,Increment      1: Step Time =    1.000,"P-23-1",           104,       40.4713,       104.544,            0.,NA,NA,"",   921.851E+03,   983.741E+03,   983.741E+03
C:/temp/Job-23.odb,Step-1,Increment      1: Step Time =    1.000,"P-23-1",           105,       30.8757,       105.096,            0.,NA,NA,"",   900.357E+03,   974.260E+03,   974.260E+03
C:/temp/Job-23.odb,Step-1,Increment      1: Step Time =    1.000,"P-23-1",           106,       20.0801,       105.507,            0.,NA,NA,"",   871.305E+03,   958.780E+03,   958.780E+03
C:/temp/Job-23.odb,Step-1,Increment      1: Step Time =    1.000,"P-23-1",           107,       10.1377,       105.129,            0.,NA,NA,"",   845.051E+03,   943.007E+03,   943.007E+03
C:/temp/Job-23.odb,Step-1,Increment      1: Step Time =    1.000,"P-23-1",           108,       10.3832,       94.9161,            0.,NA,NA,"",   845.232E+03,   943.124E+03,   943.124E+03
C:/temp/Job-23.odb,Step-1,Increment      1: Step Time =    1.000,"P-23-1",           109,       21.6497,       97.4985,            0.,NA,NA,"",   875.679E+03,   961.074E+03,   961.074E+03
C:/temp/Job-23.odb,Step-1,Increment      1: Step Time =    1.000,"P-23-1",           110,       30.6575,       94.0920,            0.,NA,NA,"",   899.033E+03,   973.516E+03,   973.516E+03
C:/temp/Job-23.odb,Step-1,Increment      1: Step Time =    1.000,"P-23-1",           111,       39.7175,       95.3126,            0.,NA,NA,"",   919.148E+03,   982.074E+03,   982.074E+03
C:/temp/Job-23.odb,Step-1,Increment      1: Step Time =    1.000,"P-23-1",           112,       54.2678,       94.6401,            0.,NA,NA,"",   946.573E+03,   991.629E+03,   991.629E+03
C:/temp/Job-23.odb,Step-1,Increment      1: Step Time =    1.000,"P-23-1",           113,       62.8810,       94.0604,            0.,NA,NA,"",   954.939E+03,   991.033E+03,   991.033E+03
C:/temp/Job-23.odb,Step-1,Increment      1: Step Time =    1.000,"P-23-1",           114,       73.8913,       94.2226,            0.,NA,NA,"",   954.568E+03,   979.457E+03,   979.457E+03
C:/temp/Job-23.odb,Step-1,Increment      1: Step Time =    1.000,"P-23-1",           115,       82.2350,       92.0397,            0.,NA,NA,"",   986.400E+03,   993.301E+03,   993.301E+03
C:/temp/Job-23.odb,Step-1,Increment      1: Step Time =    1.000,"P-23-1",           116,       95.0764,       95.0206,            0.,NA,NA,"",   1.18830E+06,   1.12835E+06,   1.12835E+06
C:/temp/Job-23.odb,Step-1,Increment      1: Step Time =    1.000,"P-23-1",           117,       117.543,       92.3462,            0.,NA,NA,"",   998.270E+03,   988.505E+03,   988.505E+03
C:/temp/Job-23.odb,Step-1,Increment      1: Step Time =    1.000,"P-23-1",           118,       126.082,       94.0661,            0.,NA,NA,"",   977.375E+03,   977.784E+03,   977.784E+03
C:/temp/Job-23.odb,Step-1,Increment      1: Step Time =    1.000,"P-23-1",           119,       136.194,       95.2098,            0.,NA,NA,"",   988.682E+03,   988.897E+03,   988.897E+03
C:/temp/Job-23.odb,Step-1,Increment      1: Step Time =    1.000,"P-23-1",           120,       151.024,       95.8318,            0.,NA,NA,"",   999.860E+03,   997.789E+03,   997.789E+03
C:/temp/Job-23.odb,Step-1,Increment      1: Step Time =    1.000,"P-23-1",           121,       160.490,       98.6747,            0.,NA,NA,"",   1.00223E+06,   999.251E+03,   999.251E+03
C:/temp/Job-23.odb,Step-1,Increment      1: Step Time =    1.000,"P-23-1",           122,       169.050,       97.4240,            0.,NA,NA,"",   1.00362E+06,   999.933E+03,   999.933E+03
C:/temp/Job-23.odb,Step-1,Increment      1: Step Time =    1.000,"P-23-1",           123,       180.284,       95.7111,            0.,NA,NA,"",   1.00474E+06,   1.00007E+06,   1.00007E+06
C:/temp/Job-23.odb,Step-1,Increment      1: Step Time =    1.000,"P-23-1",           124,       190.003,       10.1168,            0.,NA,NA,"",   999.715E+03,   999.411E+03,   999.411E+03
C:/temp/Job-23.odb,Step-1,Increment      1: Step Time =    1.000,"P-23-1",           125,       180.002,       10.3193,            0.,NA,NA,"",   998.451E+03,   998.096E+03,   998.096E+03
C:/temp/Job-23.odb,Step-1,Increment      1: Step Time =    1.000,"P-23-1",           126,       169.430,       11.3253,            0.,NA,NA,"",   996.316E+03,   995.918E+03,   995.918E+03
C:/temp/Job-23.odb,Step-1,Increment      1: Step Time =    1.000,"P-23-1",           127,       158.597,       11.7477,            0.,NA,NA,"",   993.497E+03,   993.091E+03,   993.091E+03
C:/temp/Job-23.odb,Step-1,Increment      1: Step Time =    1.000,"P-23-1",           128,       147.999,       13.4849,            0.,NA,NA,"",   990.460E+03,   989.991E+03,   989.991E+03
C:/temp/Job-23.odb,Step-1,Increment      1: Step Time =    1.000,"P-23-1",           129,       135.121,       8.93160,            0.,NA,NA,"",   982.177E+03,   981.978E+03,   981.978E+03
C:/temp/Job-23.odb,Step-1,Increment      1: Step Time =    1.000,"P-23-1",           130,       125.519,       9.70178,            0.,NA,NA,"",   977.492E+03,   977.354E+03,   977.354E+03
C:/temp/Job-23.odb,Step-1,Increment      1: Step Time =    1.000,"P-23-1",           131,       115.310,       10.5248,            0.,NA,NA,"",   972.560E+03,   972.575E+03,   972.575E+03
C:/temp/Job-23.odb,Step-1,Increment      1: Step Time =    1.000,"P-23-1",           132,       105.045,       10.0368,            0.,NA,NA,"",   966.624E+03,   966.771E+03,   966.771E+03
C:/temp/Job-23.odb,Step-1,Increment      1: Step Time =    1.000,"P-23-1",           133,       95.2127,       9.71335,            0.,NA,NA,"",   961.586E+03,   961.826E+03,   961.826E+03
C:/temp/Job-23.odb,Step-1,Increment      1: Step Time =    1.000,"P-23-1",           134,       85.5577,       9.40863,            0.,NA,NA,"",   957.616E+03,   957.976E+03,   957.976E+03
C:/temp/Job-23.odb,Step-1,Increment      1: Step Time =    1.000,"P-23-1",           135,       76.0533,       9.35719,            0.,NA,NA,"",   955.775E+03,   956.250E+03,   956.250E+03
C:/temp/Job-23.odb,Step-1,Increment      1: Step Time =    1.000,"P-23-1",           136,       66.8086,       10.2335,            0.,NA,NA,"",   958.408E+03,   959.233E+03,   959.233E+03
C:/temp/Job-23.odb,Step-1,Increment      1: Step Time =    1.000,"P-23-1",           137,       51.9068,       11.5653,            0.,NA,NA,"",   971.447E+03,   973.769E+03,   973.769E+03
C:/temp/Job-23.odb,Step-1,Increment      1: Step Time =    1.000,"P-23-1",           138,       39.2075,       9.90350,            0.,NA,NA,"",   983.662E+03,   987.620E+03,   987.620E+03
C:/temp/Job-23.odb,Step-1,Increment      1: Step Time =    1.000,"P-23-1",           139,       29.6819,       9.56905,            0.,NA,NA,"",   1.01188E+06,   1.01840E+06,   1.01840E+06
C:/temp/Job-23.odb,Step-1,Increment      1: Step Time =    1.000,"P-23-1",           140,       20.0061,       9.85706,            0.,NA,NA,"",   1.06411E+06,   1.07863E+06,   1.07863E+06
C:/temp/Job-23.odb,Step-1,Increment      1: Step Time =    1.000,"P-23-1",           141,       10.1110,       10.1541,            0.,NA,NA,"",   1.14527E+06,   1.18482E+06,   1.18482E+06
C:/temp/Job-23.odb,Step-1,Increment      1: Step Time =    1.000,"P-23-1",           142,       190.345,       24.7491,            0.,NA,NA,"",   1.00099E+06,   999.632E+03,   999.632E+03
C:/temp/Job-23.odb,Step-1,Increment      1: Step Time =    1.000,"P-23-1",           143,       180.053,       20.2912,            0.,NA,NA,"",   999.523E+03,   998.456E+03,   998.456E+03
C:/temp/Job-23.odb,Step-1,Increment      1: Step Time =    1.000,"P-23-1",           144,       171.628,       19.7213,            0.,NA,NA,"",   998.324E+03,   997.302E+03,   997.302E+03
C:/temp/Job-23.odb,Step-1,Increment      1: Step Time =    1.000,"P-23-1",           145,       158.924,       19.6630,            0.,NA,NA,"",   995.963E+03,   995.007E+03,   995.007E+03
C:/temp/Job-23.odb,Step-1,Increment      1: Step Time =    1.000,"P-23-1",           146,       145.479,       23.0606,            0.,NA,NA,"",   994.760E+03,   993.631E+03,   993.631E+03
C:/temp/Job-23.odb,Step-1,Increment      1: Step Time =    1.000,"P-23-1",           147,       127.101,       20.1972,            0.,NA,NA,"",   987.644E+03,   987.182E+03,   987.182E+03
C:/temp/Job-23.odb,Step-1,Increment      1: Step Time =    1.000,"P-23-1",           148,       112.647,       20.9800,            0.,NA,NA,"",   983.606E+03,   983.951E+03,   983.951E+03
C:/temp/Job-23.odb,Step-1,Increment      1: Step Time =    1.000,"P-23-1",           149,       104.495,       19.8526,            0.,NA,NA,"",   979.959E+03,   980.620E+03,   980.620E+03
C:/temp/Job-23.odb,Step-1,Increment      1: Step Time =    1.000,"P-23-1",           150,       95.3756,       19.5238,            0.,NA,NA,"",   977.678E+03,   978.695E+03,   978.695E+03
C:/temp/Job-23.odb,Step-1,Increment      1: Step Time =    1.000,"P-23-1",           151,       85.9161,       18.7722,            0.,NA,NA,"",   975.763E+03,   977.149E+03,   977.149E+03
C:/temp/Job-23.odb,Step-1,Increment      1: Step Time =    1.000,"P-23-1",           152,       77.5875,       18.2620,            0.,NA,NA,"",   975.533E+03,   977.091E+03,   977.091E+03
C:/temp/Job-23.odb,Step-1,Increment      1: Step Time =    1.000,"P-23-1",           153,       66.2177,       22.2176,            0.,NA,NA,"",   985.849E+03,   990.056E+03,   990.056E+03
C:/temp/Job-23.odb,Step-1,Increment      1: Step Time =    1.000,"P-23-1",           154,       52.6880,       21.2683,            0.,NA,NA,"",   992.020E+03,   999.175E+03,   999.175E+03
C:/temp/Job-23.odb,Step-1,Increment      1: Step Time =    1.000,"P-23-1",           155,       42.5254,       22.5360,            0.,NA,NA,"",   1.00256E+06,   1.01651E+06,   1.01651E+06
C:/temp/Job-23.odb,Step-1,Increment      1: Step Time =    1.000,"P-23-1",           156,       31.1458,       23.6632,            0.,NA,NA,"",   1.01246E+06,   1.03907E+06,   1.03907E+06
C:/temp/Job-23.odb,Step-1,Increment      1: Step Time =    1.000,"P-23-1",           157,       21.4533,       20.2717,            0.,NA,NA,"",   1.03078E+06,   1.06675E+06,   1.06675E+06
C:/temp/Job-23.odb,Step-1,Increment      1: Step Time =    1.000,"P-23-1",           158,       10.1525,       20.1858,            0.,NA,NA,"",   1.00931E+06,   1.08132E+06,   1.08132E+06
C:/temp/Job-23.odb,Step-1,Increment      1: Step Time =    1.000,"P-23-1",           159,       190.402,       33.9386,            0.,NA,NA,"",   1.00219E+06,   999.905E+03,   999.905E+03
C:/temp/Job-23.odb,Step-1,Increment      1: Step Time =    1.000,"P-23-1",           160,       180.540,       31.9120,            0.,NA,NA,"",   1.00173E+06,   999.611E+03,   999.611E+03
C:/temp/Job-23.odb,Step-1,Increment      1: Step Time =    1.000,"P-23-1",           161,       170.532,       31.7043,            0.,NA,NA,"",   1.00131E+06,   999.226E+03,   999.226E+03
C:/temp/Job-23.odb,Step-1,Increment      1: Step Time =    1.000,"P-23-1",           162,       158.991,       30.6743,            0.,NA,NA,"",   1.00042E+06,   998.448E+03,   998.448E+03
C:/temp/Job-23.odb,Step-1,Increment      1: Step Time =    1.000,"P-23-1",           163,       142.342,       33.6426,            0.,NA,NA,"",   1.00116E+06,   999.206E+03,   999.206E+03
C:/temp/Job-23.odb,Step-1,Increment      1: Step Time =    1.000,"P-23-1",           164,       124.620,       30.4684,            0.,NA,NA,"",   995.973E+03,   995.465E+03,   995.465E+03
C:/temp/Job-23.odb,Step-1,Increment      1: Step Time =    1.000,"P-23-1",           165,       114.969,       33.0638,            0.,NA,NA,"",   996.165E+03,   996.811E+03,   996.811E+03
C:/temp/Job-23.odb,Step-1,Increment      1: Step Time =    1.000,"P-23-1",           166,       104.840,       30.4957,            0.,NA,NA,"",   992.028E+03,   993.869E+03,   993.869E+03
C:/temp/Job-23.odb,Step-1,Increment      1: Step Time =    1.000,"P-23-1",           167,       95.5151,       30.1161,            0.,NA,NA,"",   991.247E+03,   993.895E+03,   993.895E+03
C:/temp/Job-23.odb,Step-1,Increment      1: Step Time =    1.000,"P-23-1",           168,       85.0827,       30.6570,            0.,NA,NA,"",   992.654E+03,   996.402E+03,   996.402E+03
C:/temp/Job-23.odb,Step-1,Increment      1: Step Time =    1.000,"P-23-1",           169,       74.3119,       31.1457,            0.,NA,NA,"",   995.350E+03,   1.00102E+06,   1.00102E+06
C:/temp/Job-23.odb,Step-1,Increment      1: Step Time =    1.000,"P-23-1",           170,       63.7272,       32.2766,            0.,NA,NA,"",   998.722E+03,   1.00797E+06,   1.00797E+06
C:/temp/Job-23.odb,Step-1,Increment      1: Step Time =    1.000,"P-23-1",           171,       54.6581,       31.1959,            0.,NA,NA,"",   999.570E+03,   1.01278E+06,   1.01278E+06
C:/temp/Job-23.odb,Step-1,Increment      1: Step Time =    1.000,"P-23-1",           172,       42.7601,       33.4421,            0.,NA,NA,"",   998.565E+03,   1.02291E+06,   1.02291E+06
C:/temp/Job-23.odb,Step-1,Increment      1: Step Time =    1.000,"P-23-1",           173,       32.1283,       32.4623,            0.,NA,NA,"",   994.051E+03,   1.03167E+06,   1.03167E+06
C:/temp/Job-23.odb,Step-1,Increment      1: Step Time =    1.000,"P-23-1",           174,       24.3278,       31.1027,            0.,NA,NA,"",   986.890E+03,   1.03716E+06,   1.03716E+06
C:/temp/Job-23.odb,Step-1,Increment      1: Step Time =    1.000,"P-23-1",           175,       9.85922,       30.0596,            0.,NA,NA,"",   944.311E+03,   1.02824E+06,   1.02824E+06
C:/temp/Job-23.odb,Step-1,Increment      1: Step Time =    1.000,"P-23-1",           176,       188.727,       42.9965,            0.,NA,NA,"",   1.00342E+06,   1.00019E+06,   1.00019E+06
C:/temp/Job-23.odb,Step-1,Increment      1: Step Time =    1.000,"P-23-1",           177,       181.534,       42.1987,            0.,NA,NA,"",   1.00345E+06,   1.00041E+06,   1.00041E+06
C:/temp/Job-23.odb,Step-1,Increment      1: Step Time =    1.000,"P-23-1",           178,       168.187,       42.8039,            0.,NA,NA,"",   1.00431E+06,   1.00125E+06,   1.00125E+06
C:/temp/Job-23.odb,Step-1,Increment      1: Step Time =    1.000,"P-23-1",           179,       158.606,       42.3926,            0.,NA,NA,"",   1.00517E+06,   1.00209E+06,   1.00209E+06
C:/temp/Job-23.odb,Step-1,Increment      1: Step Time =    1.000,"P-23-1",           180,       145.774,       45.1336,            0.,NA,NA,"",   1.00818E+06,   1.00495E+06,   1.00495E+06
C:/temp/Job-23.odb,Step-1,Increment      1: Step Time =    1.000,"P-23-1",           181,       137.078,       45.3758,            0.,NA,NA,"",   1.00915E+06,   1.00643E+06,   1.00643E+06
C:/temp/Job-23.odb,Step-1,Increment      1: Step Time =    1.000,"P-23-1",           182,       128.230,       38.2783,            0.,NA,NA,"",   1.00317E+06,   1.00202E+06,   1.00202E+06
C:/temp/Job-23.odb,Step-1,Increment      1: Step Time =    1.000,"P-23-1",           183,       117.835,       43.1595,            0.,NA,NA,"",   1.00538E+06,   1.00606E+06,   1.00606E+06
C:/temp/Job-23.odb,Step-1,Increment      1: Step Time =    1.000,"P-23-1",           184,       104.143,       43.0500,            0.,NA,NA,"",   1.00202E+06,   1.00622E+06,   1.00622E+06
C:/temp/Job-23.odb,Step-1,Increment      1: Step Time =    1.000,"P-23-1",           185,       92.8173,       43.3812,            0.,NA,NA,"",   1.00246E+06,   1.00864E+06,   1.00864E+06
C:/temp/Job-23.odb,Step-1,Increment      1: Step Time =    1.000,"P-23-1",           186,       82.4493,       38.1862,            0.,NA,NA,"",   1.00044E+06,   1.00680E+06,   1.00680E+06
C:/temp/Job-23.odb,Step-1,Increment      1: Step Time =    1.000,"P-23-1",           187,       73.3873,       40.8203,            0.,NA,NA,"",   1.00352E+06,   1.01287E+06,   1.01287E+06
C:/temp/Job-23.odb,Step-1,Increment      1: Step Time =    1.000,"P-23-1",           188,       61.1065,       41.5261,            0.,NA,NA,"",   1.00164E+06,   1.01752E+06,   1.01752E+06
C:/temp/Job-23.odb,Step-1,Increment      1: Step Time =    1.000,"P-23-1",           189,       51.7451,       41.1856,            0.,NA,NA,"",   997.047E+03,   1.01990E+06,   1.01990E+06
C:/temp/Job-23.odb,Step-1,Increment      1: Step Time =    1.000,"P-23-1",           190,       41.9040,       41.7858,            0.,NA,NA,"",   987.406E+03,   1.02156E+06,   1.02156E+06
C:/temp/Job-23.odb,Step-1,Increment      1: Step Time =    1.000,"P-23-1",           191,       32.4693,       39.5224,            0.,NA,NA,"",   977.936E+03,   1.02373E+06,   1.02373E+06
C:/temp/Job-23.odb,Step-1,Increment      1: Step Time =    1.000,"P-23-1",           192,       24.1007,       39.7569,            0.,NA,NA,"",   957.573E+03,   1.01883E+06,   1.01883E+06
C:/temp/Job-23.odb,Step-1,Increment      1: Step Time =    1.000,"P-23-1",           193,       9.93249,       40.0054,            0.,NA,NA,"",   907.703E+03,   997.315E+03,   997.315E+03
C:/temp/Job-23.odb,Step-1,Increment      1: Step Time =    1.000,"P-23-1",           194,       187.850,       51.7387,            0.,NA,NA,"",   1.00434E+06,   1.00040E+06,   1.00040E+06
C:/temp/Job-23.odb,Step-1,Increment      1: Step Time =    1.000,"P-23-1",           195,       178.214,       53.1378,            0.,NA,NA,"",   1.00513E+06,   1.00131E+06,   1.00131E+06
C:/temp/Job-23.odb,Step-1,Increment      1: Step Time =    1.000,"P-23-1",           196,       167.385,       52.8618,            0.,NA,NA,"",   1.00655E+06,   1.00275E+06,   1.00275E+06
C:/temp/Job-23.odb,Step-1,Increment      1: Step Time =    1.000,"P-23-1",           197,       158.024,       51.9605,            0.,NA,NA,"",   1.00819E+06,   1.00435E+06,   1.00435E+06
C:/temp/Job-23.odb,Step-1,Increment      1: Step Time =    1.000,"P-23-1",           198,       146.412,       54.7359,            0.,NA,NA,"",   1.01236E+06,   1.00822E+06,   1.00822E+06
C:/temp/Job-23.odb,Step-1,Increment      1: Step Time =    1.000,"P-23-1",           199,       138.680,       54.4575,            0.,NA,NA,"",   1.01457E+06,   1.01073E+06,   1.01073E+06
C:/temp/Job-23.odb,Step-1,Increment      1: Step Time =    1.000,"P-23-1",           200,       129.123,       48.3431,            0.,NA,NA,"",   1.01145E+06,   1.00950E+06,   1.00950E+06
C:/temp/Job-23.odb,Step-1,Increment      1: Step Time =    1.000,"P-23-1",           201,       118.052,       52.4268,            0.,NA,NA,"",   1.01282E+06,   1.01386E+06,   1.01386E+06
C:/temp/Job-23.odb,Step-1,Increment      1: Step Time =    1.000,"P-23-1",           202,       103.926,       48.9695,            0.,NA,NA,"",   1.00536E+06,   1.01114E+06,   1.01114E+06
C:/temp/Job-23.odb,Step-1,Increment      1: Step Time =    1.000,"P-23-1",           203,       93.7978,       52.7562,            0.,NA,NA,"",   1.00601E+06,   1.01530E+06,   1.01530E+06
C:/temp/Job-23.odb,Step-1,Increment      1: Step Time =    1.000,"P-23-1",           204,       82.6292,       51.7625,            0.,NA,NA,"",   1.00922E+06,   1.01956E+06,   1.01956E+06
C:/temp/Job-23.odb,Step-1,Increment      1: Step Time =    1.000,"P-23-1",           205,       74.0303,       52.3078,            0.,NA,NA,"",   1.00906E+06,   1.02212E+06,   1.02212E+06
C:/temp/Job-23.odb,Step-1,Increment      1: Step Time =    1.000,"P-23-1",           206,       63.4737,       52.3502,            0.,NA,NA,"",   1.00190E+06,   1.02167E+06,   1.02167E+06
C:/temp/Job-23.odb,Step-1,Increment      1: Step Time =    1.000,"P-23-1",           207,       53.4526,       53.2333,            0.,NA,NA,"",   989.848E+03,   1.01912E+06,   1.01912E+06
C:/temp/Job-23.odb,Step-1,Increment      1: Step Time =    1.000,"P-23-1",           208,       42.2053,       54.0948,            0.,NA,NA,"",   970.273E+03,   1.01394E+06,   1.01394E+06
C:/temp/Job-23.odb,Step-1,Increment      1: Step Time =    1.000,"P-23-1",           209,       31.5807,       52.0255,            0.,NA,NA,"",   948.595E+03,   1.00714E+06,   1.00714E+06
C:/temp/Job-23.odb,Step-1,Increment      1: Step Time =    1.000,"P-23-1",           210,       22.3356,       53.3402,            0.,NA,NA,"",   919.389E+03,   993.817E+03,   993.817E+03
C:/temp/Job-23.odb,Step-1,Increment      1: Step Time =    1.000,"P-23-1",           211,       189.973,       66.0544,            0.,NA,NA,"",   1.00540E+06,   1.00038E+06,   1.00038E+06
C:/temp/Job-23.odb,Step-1,Increment      1: Step Time =    1.000,"P-23-1",           212,       179.032,       63.6347,            0.,NA,NA,"",   1.00584E+06,   1.00145E+06,   1.00145E+06
C:/temp/Job-23.odb,Step-1,Increment      1: Step Time =    1.000,"P-23-1",           213,       168.417,       63.4511,            0.,NA,NA,"",   1.00748E+06,   1.00321E+06,   1.00321E+06
C:/temp/Job-23.odb,Step-1,Increment      1: Step Time =    1.000,"P-23-1",           214,       156.031,       62.7188,            0.,NA,NA,"",   1.01069E+06,   1.00624E+06,   1.00624E+06
C:/temp/Job-23.odb,Step-1,Increment      1: Step Time =    1.000,"P-23-1",           215,       148.935,       62.2929,            0.,NA,NA,"",   1.01339E+06,   1.00878E+06,   1.00878E+06
C:/temp/Job-23.odb,Step-1,Increment      1: Step Time =    1.000,"P-23-1",           216,       138.852,       63.7000,            0.,NA,NA,"",   1.01833E+06,   1.01353E+06,   1.01353E+06
C:/temp/Job-23.odb,Step-1,Increment      1: Step Time =    1.000,"P-23-1",           217,       126.736,       61.1038,            0.,NA,NA,"",   1.02201E+06,   1.01898E+06,   1.01898E+06
C:/temp/Job-23.odb,Step-1,Increment      1: Step Time =    1.000,"P-23-1",           218,       117.093,       61.7877,            0.,NA,NA,"",   1.02121E+06,   1.02212E+06,   1.02212E+06
C:/temp/Job-23.odb,Step-1,Increment      1: Step Time =    1.000,"P-23-1",           219,       106.888,       58.5939,            0.,NA,NA,"",   1.01084E+06,   1.01829E+06,   1.01829E+06
C:/temp/Job-23.odb,Step-1,Increment      1: Step Time =    1.000,"P-23-1",           220,       96.5131,       59.9790,            0.,NA,NA,"",   1.00930E+06,   1.02082E+06,   1.02082E+06
C:/temp/Job-23.odb,Step-1,Increment      1: Step Time =    1.000,"P-23-1",           221,       83.8280,       64.0179,            0.,NA,NA,"",   1.01706E+06,   1.02963E+06,   1.02963E+06
C:/temp/Job-23.odb,Step-1,Increment      1: Step Time =    1.000,"P-23-1",           222,       70.6285,       60.0739,            0.,NA,NA,"",   1.00803E+06,   1.02482E+06,   1.02482E+06
C:/temp/Job-23.odb,Step-1,Increment      1: Step Time =    1.000,"P-23-1",           223,       63.0645,       62.4817,            0.,NA,NA,"",   999.322E+03,   1.02277E+06,   1.02277E+06
C:/temp/Job-23.odb,Step-1,Increment      1: Step Time =    1.000,"P-23-1",           224,       50.3471,       58.7935,            0.,NA,NA,"",   979.955E+03,   1.01614E+06,   1.01614E+06
C:/temp/Job-23.odb,Step-1,Increment      1: Step Time =    1.000,"P-23-1",           225,       42.1335,       64.0762,            0.,NA,NA,"",   956.222E+03,   1.00614E+06,   1.00614E+06
C:/temp/Job-23.odb,Step-1,Increment      1: Step Time =    1.000,"P-23-1",           226,       29.7023,       64.0844,            0.,NA,NA,"",   923.183E+03,   991.496E+03,   991.496E+03
C:/temp/Job-23.odb,Step-1,Increment      1: Step Time =    1.000,"P-23-1",           227,       20.6167,       61.3818,            0.,NA,NA,"",   898.690E+03,   980.052E+03,   980.052E+03
C:/temp/Job-23.odb,Step-1,Increment      1: Step Time =    1.000,"P-23-1",           228,       8.88709,       66.0810,            0.,NA,NA,"",   857.586E+03,   955.238E+03,   955.238E+03
C:/temp/Job-23.odb,Step-1,Increment      1: Step Time =    1.000,"P-23-1",           229,       190.552,       75.3683,            0.,NA,NA,"",   1.00568E+06,   1.00026E+06,   1.00026E+06
C:/temp/Job-23.odb,Step-1,Increment      1: Step Time =    1.000,"P-23-1",           230,       179.114,       74.8487,            0.,NA,NA,"",   1.00572E+06,   1.00112E+06,   1.00112E+06
C:/temp/Job-23.odb,Step-1,Increment      1: Step Time =    1.000,"P-23-1",           231,       167.423,       72.9229,            0.,NA,NA,"",   1.00707E+06,   1.00278E+06,   1.00278E+06
C:/temp/Job-23.odb,Step-1,Increment      1: Step Time =    1.000,"P-23-1",           232,       156.725,       73.6791,            0.,NA,NA,"",   1.00923E+06,   1.00492E+06,   1.00492E+06
C:/temp/Job-23.odb,Step-1,Increment      1: Step Time =    1.000,"P-23-1",           233,       147.266,       73.7993,            0.,NA,NA,"",   1.01301E+06,   1.00833E+06,   1.00833E+06
C:/temp/Job-23.odb,Step-1,Increment      1: Step Time =    1.000,"P-23-1",           234,       127.862,       71.9845,            0.,NA,NA,"",   1.02819E+06,   1.02271E+06,   1.02271E+06
C:/temp/Job-23.odb,Step-1,Increment      1: Step Time =    1.000,"P-23-1",           235,       115.357,       73.7188,            0.,NA,NA,"",   1.03870E+06,   1.03891E+06,   1.03891E+06
C:/temp/Job-23.odb,Step-1,Increment      1: Step Time =    1.000,"P-23-1",           236,       105.896,       74.2946,            0.,NA,NA,"",   1.02344E+06,   1.03712E+06,   1.03712E+06
C:/temp/Job-23.odb,Step-1,Increment      1: Step Time =    1.000,"P-23-1",           237,       95.0051,       73.3019,            0.,NA,NA,"",   1.01586E+06,   1.03515E+06,   1.03515E+06
C:/temp/Job-23.odb,Step-1,Increment      1: Step Time =    1.000,"P-23-1",           238,       81.5514,       70.9203,            0.,NA,NA,"",   1.02384E+06,   1.03603E+06,   1.03603E+06
C:/temp/Job-23.odb,Step-1,Increment      1: Step Time =    1.000,"P-23-1",           239,       74.4424,       72.6980,            0.,NA,NA,"",   1.01520E+06,   1.03078E+06,   1.03078E+06
C:/temp/Job-23.odb,Step-1,Increment      1: Step Time =    1.000,"P-23-1",           240,       63.8501,       73.5694,            0.,NA,NA,"",   994.135E+03,   1.02054E+06,   1.02054E+06
C:/temp/Job-23.odb,Step-1,Increment      1: Step Time =    1.000,"P-23-1",           241,       53.9852,       72.4646,            0.,NA,NA,"",   972.376E+03,   1.01079E+06,   1.01079E+06
C:/temp/Job-23.odb,Step-1,Increment      1: Step Time =    1.000,"P-23-1",           242,       44.5407,       73.8781,            0.,NA,NA,"",   949.427E+03,   1.00069E+06,   1.00069E+06
C:/temp/Job-23.odb,Step-1,Increment      1: Step Time =    1.000,"P-23-1",           243,       30.7323,       72.8838,            0.,NA,NA,"",   915.770E+03,   985.569E+03,   985.569E+03
C:/temp/Job-23.odb,Step-1,Increment      1: Step Time =    1.000,"P-23-1",           244,       20.8203,       71.2514,            0.,NA,NA,"",   889.398E+03,   972.375E+03,   972.375E+03
C:/temp/Job-23.odb,Step-1,Increment      1: Step Time =    1.000,"P-23-1",           245,       8.65582,       75.3330,            0.,NA,NA,"",   849.010E+03,   947.765E+03,   947.765E+03
C:/temp/Job-23.odb,Step-1,Increment      1: Step Time =    1.000,"P-23-1",           246,       189.941,       85.2452,            0.,NA,NA,"",   1.00567E+06,   1.00013E+06,   1.00013E+06
C:/temp/Job-23.odb,Step-1,Increment      1: Step Time =    1.000,"P-23-1",           247,       178.024,       84.6505,            0.,NA,NA,"",   1.00516E+06,   1.00059E+06,   1.00059E+06
C:/temp/Job-23.odb,Step-1,Increment      1: Step Time =    1.000,"P-23-1",           248,       166.999,       81.3635,            0.,NA,NA,"",   1.00568E+06,   1.00162E+06,   1.00162E+06
C:/temp/Job-23.odb,Step-1,Increment      1: Step Time =    1.000,"P-23-1",           249,       158.341,       82.6069,            0.,NA,NA,"",   1.00583E+06,   1.00210E+06,   1.00210E+06
C:/temp/Job-23.odb,Step-1,Increment      1: Step Time =    1.000,"P-23-1",           250,       146.771,       82.0467,            0.,NA,NA,"",   1.00809E+06,   1.00430E+06,   1.00430E+06
C:/temp/Job-23.odb,Step-1,Increment      1: Step Time =    1.000,"P-23-1",           251,       133.410,       81.2342,            0.,NA,NA,"",   1.01783E+06,   1.01251E+06,   1.01251E+06
C:/temp/Job-23.odb,Step-1,Increment      1: Step Time =    1.000,"P-23-1",           252,       126.919,       85.6054,            0.,NA,NA,"",   1.01617E+06,   1.01028E+06,   1.01028E+06
C:/temp/Job-23.odb,Step-1,Increment      1: Step Time =    1.000,"P-23-1",           253,       115.528,       84.9858,            0.,NA,NA,"",   1.05515E+06,   1.04309E+06,   1.04309E+06
C:/temp/Job-23.odb,Step-1,Increment      1: Step Time =    1.000,"P-23-1",           254,       107.931,       82.4706,            0.,NA,NA,"",   1.05973E+06,   1.06585E+06,   1.06585E+06
C:/temp/Job-23.odb,Step-1,Increment      1: Step Time =    1.000,"P-23-1",           255,       92.1914,       81.9615,            0.,NA,NA,"",   1.05094E+06,   1.06491E+06,   1.06491E+06
C:/temp/Job-23.odb,Step-1,Increment      1: Step Time =    1.000,"P-23-1",           256,       84.1312,       84.2876,            0.,NA,NA,"",   1.04207E+06,   1.04533E+06,   1.04533E+06
C:/temp/Job-23.odb,Step-1,Increment      1: Step Time =    1.000,"P-23-1",           257,       70.2596,       84.8023,            0.,NA,NA,"",    989.97E+03,   1.01240E+06,   1.01240E+06
C:/temp/Job-23.odb,Step-1,Increment      1: Step Time =    1.000,"P-23-1",           258,       60.8946,       80.8995,            0.,NA,NA,"",   976.163E+03,   1.00904E+06,   1.00904E+06
C:/temp/Job-23.odb,Step-1,Increment      1: Step Time =    1.000,"P-23-1",           259,       52.4811,       85.0600,            0.,NA,NA,"",   953.941E+03,   998.641E+03,   998.641E+03
C:/temp/Job-23.odb,Step-1,Increment      1: Step Time =    1.000,"P-23-1",           260,       42.6347,       83.7530,            0.,NA,NA,"",   934.440E+03,   991.202E+03,   991.202E+03
C:/temp/Job-23.odb,Step-1,Increment      1: Step Time =    1.000,"P-23-1",           261,       31.9102,       80.8454,            0.,NA,NA,"",   911.246E+03,   981.567E+03,   981.567E+03
C:/temp/Job-23.odb,Step-1,Increment      1: Step Time =    1.000,"P-23-1",           262,       22.4098,       82.0359,            0.,NA,NA,"",   884.142E+03,   967.218E+03,   967.218E+03
C:/temp/Job-23.odb,Step-1,Increment      1: Step Time =    1.000,"P-23-1",           263,       9.31053,       84.8702,            0.,NA,NA,"",   845.574E+03,   944.143E+03,   944.143E+03
C:/temp/Job-23.odb,Step-1,Increment      1: Step Time =    1.000,"P-23-1",           264,       189.843,       114.986,            0.,NA,NA,"",   1.00567E+06,   1.00015E+06,   1.00015E+06
C:/temp/Job-23.odb,Step-1,Increment      1: Step Time =    1.000,"P-23-1",           265,       176.449,       114.669,            0.,NA,NA,"",   1.00510E+06,   1.00063E+06,   1.00063E+06
C:/temp/Job-23.odb,Step-1,Increment      1: Step Time =    1.000,"P-23-1",           266,       166.638,       113.395,            0.,NA,NA,"",   1.00480E+06,   1.00095E+06,   1.00095E+06
C:/temp/Job-23.odb,Step-1,Increment      1: Step Time =    1.000,"P-23-1",           267,       157.405,       118.871,            0.,NA,NA,"",   1.00678E+06,   1.00293E+06,   1.00293E+06
C:/temp/Job-23.odb,Step-1,Increment      1: Step Time =    1.000,"P-23-1",           268,       147.550,       116.624,            0.,NA,NA,"",   1.00671E+06,   1.00318E+06,   1.00318E+06
C:/temp/Job-23.odb,Step-1,Increment      1: Step Time =    1.000,"P-23-1",           269,       134.854,       115.943,            0.,NA,NA,"",   1.01232E+06,   1.00786E+06,   1.00786E+06
C:/temp/Job-23.odb,Step-1,Increment      1: Step Time =    1.000,"P-23-1",           270,       126.552,       117.685,            0.,NA,NA,"",   1.02543E+06,   1.01826E+06,   1.01826E+06
C:/temp/Job-23.odb,Step-1,Increment      1: Step Time =    1.000,"P-23-1",           271,       115.128,       115.593,            0.,NA,NA,"",   1.05831E+06,   1.04684E+06,   1.04684E+06
C:/temp/Job-23.odb,Step-1,Increment      1: Step Time =    1.000,"P-23-1",           272,       107.448,       117.938,            0.,NA,NA,"",   1.05561E+06,   1.06423E+06,   1.06423E+06
C:/temp/Job-23.odb,Step-1,Increment      1: Step Time =    1.000,"P-23-1",           273,       91.9823,       117.405,            0.,NA,NA,"",   1.05604E+06,   1.06827E+06,   1.06827E+06
C:/temp/Job-23.odb,Step-1,Increment      1: Step Time =    1.000,"P-23-1",           274,       84.5609,       114.798,            0.,NA,NA,"",   1.04411E+06,   1.04577E+06,   1.04577E+06
C:/temp/Job-23.odb,Step-1,Increment      1: Step Time =    1.000,"P-23-1",           275,       73.3989,       117.229,            0.,NA,NA,"",   1.00256E+06,   1.02002E+06,   1.02002E+06
C:/temp/Job-23.odb,Step-1,Increment      1: Step Time =    1.000,"P-23-1",           276,       52.2873,       115.482,            0.,NA,NA,"",   954.399E+03,   999.124E+03,   999.124E+03
C:/temp/Job-23.odb,Step-1,Increment      1: Step Time =    1.000,"P-23-1",           277,       41.8172,       114.593,            0.,NA,NA,"",   931.934E+03,   990.259E+03,   990.259E+03
C:/temp/Job-23.odb,Step-1,Increment      1: Step Time =    1.000,"P-23-1",           278,       33.8186,       117.231,            0.,NA,NA,"",   914.016E+03,   982.611E+03,   982.611E+03
C:/temp/Job-23.odb,Step-1,Increment      1: Step Time =    1.000,"P-23-1",           279,       24.3366,       117.404,            0.,NA,NA,"",   887.990E+03,   969.204E+03,   969.204E+03
C:/temp/Job-23.odb,Step-1,Increment      1: Step Time =    1.000,"P-23-1",           280,       10.3040,       115.613,            0.,NA,NA,"",   848.331E+03,   945.903E+03,   945.903E+03
C:/temp/Job-23.odb,Step-1,Increment      1: Step Time =    1.000,"P-23-1",           281,       190.497,       125.021,            0.,NA,NA,"",   1.00568E+06,   1.00028E+06,   1.00028E+06
C:/temp/Job-23.odb,Step-1,Increment      1: Step Time =    1.000,"P-23-1",           282,       181.557,       125.613,            0.,NA,NA,"",   1.00565E+06,   1.00089E+06,   1.00089E+06
C:/temp/Job-23.odb,Step-1,Increment      1: Step Time =    1.000,"P-23-1",           283,       168.892,       125.315,            0.,NA,NA,"",   1.00661E+06,   1.00232E+06,   1.00232E+06
C:/temp/Job-23.odb,Step-1,Increment      1: Step Time =    1.000,"P-23-1",           284,       159.615,       129.215,            0.,NA,NA,"",   1.00898E+06,   1.00462E+06,   1.00462E+06
C:/temp/Job-23.odb,Step-1,Increment      1: Step Time =    1.000,"P-23-1",           285,       148.933,       128.960,            0.,NA,NA,"",   1.01267E+06,   1.00798E+06,   1.00798E+06
C:/temp/Job-23.odb,Step-1,Increment      1: Step Time =    1.000,"P-23-1",           286,       139.565,       126.734,            0.,NA,NA,"",   1.01830E+06,   1.01311E+06,   1.01311E+06
C:/temp/Job-23.odb,Step-1,Increment      1: Step Time =    1.000,"P-23-1",           287,       124.825,       123.632,            0.,NA,NA,"",   1.03297E+06,   1.02668E+06,   1.02668E+06
C:/temp/Job-23.odb,Step-1,Increment      1: Step Time =    1.000,"P-23-1",           288,       119.100,       128.634,            0.,NA,NA,"",   1.03300E+06,   1.03050E+06,   1.03050E+06
C:/temp/Job-23.odb,Step-1,Increment      1: Step Time =    1.000,"P-23-1",           289,       104.866,       126.303,            0.,NA,NA,"",   1.01843E+06,   1.03441E+06,   1.03441E+06
C:/temp/Job-23.odb,Step-1,Increment      1: Step Time =    1.000,"P-23-1",           290,       93.7546,       125.612,            0.,NA,NA,"",   1.02004E+06,   1.03865E+06,   1.03865E+06
C:/temp/Job-23.odb,Step-1,Increment      1: Step Time =    1.000,"P-23-1",           291,       82.3779,       129.506,            0.,NA,NA,"",   1.02394E+06,   1.03598E+06,   1.03598E+06
C:/temp/Job-23.odb,Step-1,Increment      1: Step Time =    1.000,"P-23-1",           292,       71.7180,       129.390,            0.,NA,NA,"",   1.00893E+06,   1.02708E+06,   1.02708E+06
C:/temp/Job-23.odb,Step-1,Increment      1: Step Time =    1.000,"P-23-1",           293,       64.4814,       126.683,            0.,NA,NA,"",   994.336E+03,   1.01995E+06,   1.01995E+06
C:/temp/Job-23.odb,Step-1,Increment      1: Step Time =    1.000,"P-23-1",           294,       39.4951,       128.495,            0.,NA,NA,"",   940.165E+03,   997.378E+03,   997.378E+03
C:/temp/Job-23.odb,Step-1,Increment      1: Step Time =    1.000,"P-23-1",           295,       30.8107,       126.809,            0.,NA,NA,"",   915.311E+03,   985.332E+03,   985.332E+03
C:/temp/Job-23.odb,Step-1,Increment      1: Step Time =    1.000,"P-23-1",           296,       22.6835,       125.600,            0.,NA,NA,"",   891.169E+03,   972.527E+03,   972.527E+03
C:/temp/Job-23.odb,Step-1,Increment      1: Step Time =    1.000,"P-23-1",           297,       9.24027,       125.964,            0.,NA,NA,"",   852.146E+03,   949.972E+03,   949.972E+03
C:/temp/Job-23.odb,Step-1,Increment      1: Step Time =    1.000,"P-23-1",           298,       190.583,       134.789,            0.,NA,NA,"",   1.00539E+06,   1.00035E+06,   1.00035E+06
C:/temp/Job-23.odb,Step-1,Increment      1: Step Time =    1.000,"P-23-1",           299,       176.127,       137.530,            0.,NA,NA,"",   1.00612E+06,   1.00185E+06,   1.00185E+06
C:/temp/Job-23.odb,Step-1,Increment      1: Step Time =    1.000,"P-23-1",           300,       167.053,       135.721,            0.,NA,NA,"",   1.00761E+06,   1.00335E+06,   1.00335E+06
C:/temp/Job-23.odb,Step-1,Increment      1: Step Time =    1.000,"P-23-1",           301,       157.397,       139.574,            0.,NA,NA,"",   1.01003E+06,   1.00573E+06,   1.00573E+06
C:/temp/Job-23.odb,Step-1,Increment      1: Step Time =    1.000,"P-23-1",           302,       146.985,       138.696,            0.,NA,NA,"",   1.01395E+06,   1.00931E+06,   1.00931E+06
C:/temp/Job-23.odb,Step-1,Increment      1: Step Time =    1.000,"P-23-1",           303,       136.630,       134.996,            0.,NA,NA,"",   1.01974E+06,   1.01477E+06,   1.01477E+06
C:/temp/Job-23.odb,Step-1,Increment      1: Step Time =    1.000,"P-23-1",           304,       127.883,       133.734,            0.,NA,NA,"",   1.02483E+06,   1.02087E+06,   1.02087E+06
C:/temp/Job-23.odb,Step-1,Increment      1: Step Time =    1.000,"P-23-1",           305,       115.525,       136.089,            0.,NA,NA,"",   1.02297E+06,   1.02473E+06,   1.02473E+06
C:/temp/Job-23.odb,Step-1,Increment      1: Step Time =    1.000,"P-23-1",           306,       105.170,       138.655,            0.,NA,NA,"",   1.01149E+06,   1.02065E+06,   1.02065E+06
C:/temp/Job-23.odb,Step-1,Increment      1: Step Time =    1.000,"P-23-1",           307,       90.9510,       136.784,            0.,NA,NA,"",   1.01258E+06,   1.02563E+06,   1.02563E+06
C:/temp/Job-23.odb,Step-1,Increment      1: Step Time =    1.000,"P-23-1",           308,       84.6644,       136.345,            0.,NA,NA,"",   1.01618E+06,   1.02871E+06,   1.02871E+06
C:/temp/Job-23.odb,Step-1,Increment      1: Step Time =    1.000,"P-23-1",           309,       75.4461,       136.211,            0.,NA,NA,"",   1.01336E+06,   1.02815E+06,   1.02815E+06
C:/temp/Job-23.odb,Step-1,Increment      1: Step Time =    1.000,"P-23-1",           310,       60.7543,       136.796,            0.,NA,NA,"",   994.625E+03,   1.02090E+06,   1.02090E+06
C:/temp/Job-23.odb,Step-1,Increment      1: Step Time =    1.000,"P-23-1",           311,       50.2338,       137.245,            0.,NA,NA,"",   975.017E+03,   1.01369E+06,   1.01369E+06
C:/temp/Job-23.odb,Step-1,Increment      1: Step Time =    1.000,"P-23-1",           312,       39.4335,       137.400,            0.,NA,NA,"",   951.607E+03,   1.00458E+06,   1.00458E+06
C:/temp/Job-23.odb,Step-1,Increment      1: Step Time =    1.000,"P-23-1",           313,       30.2286,       135.769,            0.,NA,NA,"",   925.098E+03,   992.414E+03,   992.414E+03
C:/temp/Job-23.odb,Step-1,Increment      1: Step Time =    1.000,"P-23-1",           314,       22.1729,       136.821,            0.,NA,NA,"",   902.394E+03,   981.507E+03,   981.507E+03
C:/temp/Job-23.odb,Step-1,Increment      1: Step Time =    1.000,"P-23-1",           315,       9.08123,       135.947,            0.,NA,NA,"",   860.887E+03,   957.837E+03,   957.837E+03
C:/temp/Job-23.odb,Step-1,Increment      1: Step Time =    1.000,"P-23-1",           316,       189.820,       149.532,            0.,NA,NA,"",   1.00423E+06,   1.00031E+06,   1.00031E+06
C:/temp/Job-23.odb,Step-1,Increment      1: Step Time =    1.000,"P-23-1",           317,       178.883,       147.084,            0.,NA,NA,"",   1.00511E+06,   1.00127E+06,   1.00127E+06
C:/temp/Job-23.odb,Step-1,Increment      1: Step Time =    1.000,"P-23-1",           318,       169.060,       148.980,            0.,NA,NA,"",   1.00607E+06,   1.00238E+06,   1.00238E+06
C:/temp/Job-23.odb,Step-1,Increment      1: Step Time =    1.000,"P-23-1",           319,       157.230,       146.555,            0.,NA,NA,"",   1.00885E+06,   1.00490E+06,   1.00490E+06
C:/temp/Job-23.odb,Step-1,Increment      1: Step Time =    1.000,"P-23-1",           320,       146.490,       145.297,            0.,NA,NA,"",   1.01229E+06,   1.00816E+06,   1.00816E+06
C:/temp/Job-23.odb,Step-1,Increment      1: Step Time =    1.000,"P-23-1",           321,       133.693,       145.145,            0.,NA,NA,"",   1.01599E+06,   1.01266E+06,   1.01266E+06
C:/temp/Job-23.odb,Step-1,Increment      1: Step Time =    1.000,"P-23-1",           322,       124.921,       148.049,            0.,NA,NA,"",   1.01404E+06,   1.01271E+06,   1.01271E+06
C:/temp/Job-23.odb,Step-1,Increment      1: Step Time =    1.000,"P-23-1",           323,       113.818,       147.016,            0.,NA,NA,"",   1.01221E+06,   1.01475E+06,   1.01475E+06
C:/temp/Job-23.odb,Step-1,Increment      1: Step Time =    1.000,"P-23-1",           324,       105.184,       148.886,            0.,NA,NA,"",   1.00678E+06,   1.01269E+06,   1.01269E+06
C:/temp/Job-23.odb,Step-1,Increment      1: Step Time =    1.000,"P-23-1",           325,       95.9860,       149.835,            0.,NA,NA,"",   1.00563E+06,   1.01362E+06,   1.01362E+06
C:/temp/Job-23.odb,Step-1,Increment      1: Step Time =    1.000,"P-23-1",           326,       87.6216,       149.410,            0.,NA,NA,"",   1.00727E+06,   1.01658E+06,   1.01658E+06
C:/temp/Job-23.odb,Step-1,Increment      1: Step Time =    1.000,"P-23-1",           327,       74.2103,       145.071,            0.,NA,NA,"",   1.00930E+06,   1.02330E+06,   1.02330E+06
C:/temp/Job-23.odb,Step-1,Increment      1: Step Time =    1.000,"P-23-1",           328,       64.3030,       150.033,            0.,NA,NA,"",   1.00293E+06,   1.02119E+06,   1.02119E+06
C:/temp/Job-23.odb,Step-1,Increment      1: Step Time =    1.000,"P-23-1",           329,       52.1530,       146.109,            0.,NA,NA,"",   988.143E+03,   1.01909E+06,   1.01909E+06
C:/temp/Job-23.odb,Step-1,Increment      1: Step Time =    1.000,"P-23-1",           330,       42.8152,       145.580,            0.,NA,NA,"",   970.721E+03,   1.01391E+06,   1.01391E+06
C:/temp/Job-23.odb,Step-1,Increment      1: Step Time =    1.000,"P-23-1",           331,       28.6405,       145.176,            0.,NA,NA,"",   935.813E+03,   1.00056E+06,   1.00056E+06
C:/temp/Job-23.odb,Step-1,Increment      1: Step Time =    1.000,"P-23-1",           332,       19.3756,       146.494,            0.,NA,NA,"",   909.277E+03,   988.770E+03,   988.770E+03
C:/temp/Job-23.odb,Step-1,Increment      1: Step Time =    1.000,"P-23-1",           333,       9.43565,       150.710,            0.,NA,NA,"",   883.428E+03,   977.316E+03,   977.316E+03
C:/temp/Job-23.odb,Step-1,Increment      1: Step Time =    1.000,"P-23-1",           334,       190.432,       159.655,            0.,NA,NA,"",   1.00302E+06,   1.00008E+06,   1.00008E+06
C:/temp/Job-23.odb,Step-1,Increment      1: Step Time =    1.000,"P-23-1",           335,       176.640,       155.431,            0.,NA,NA,"",   1.00403E+06,   1.00085E+06,   1.00085E+06
C:/temp/Job-23.odb,Step-1,Increment      1: Step Time =    1.000,"P-23-1",           336,       165.740,       157.857,            0.,NA,NA,"",   1.00431E+06,   1.00130E+06,   1.00130E+06
C:/temp/Job-23.odb,Step-1,Increment      1: Step Time =    1.000,"P-23-1",           337,       155.511,       158.698,            0.,NA,NA,"",   1.00502E+06,   1.00204E+06,   1.00204E+06
C:/temp/Job-23.odb,Step-1,Increment      1: Step Time =    1.000,"P-23-1",           338,       149.213,       154.709,            0.,NA,NA,"",   1.00757E+06,   1.00427E+06,   1.00427E+06
C:/temp/Job-23.odb,Step-1,Increment      1: Step Time =    1.000,"P-23-1",           339,       135.307,       157.641,            0.,NA,NA,"",   1.00706E+06,   1.00479E+06,   1.00479E+06
C:/temp/Job-23.odb,Step-1,Increment      1: Step Time =    1.000,"P-23-1",           340,       125.705,       159.243,            0.,NA,NA,"",   1.00503E+06,   1.00415E+06,   1.00415E+06
C:/temp/Job-23.odb,Step-1,Increment      1: Step Time =    1.000,"P-23-1",           341,       119.050,       154.941,            0.,NA,NA,"",   1.00728E+06,   1.00773E+06,   1.00773E+06
C:/temp/Job-23.odb,Step-1,Increment      1: Step Time =    1.000,"P-23-1",           342,       104.586,       161.119,            0.,NA,NA,"",   999.231E+03,   1.00245E+06,   1.00245E+06
C:/temp/Job-23.odb,Step-1,Increment      1: Step Time =    1.000,"P-23-1",           343,       84.7721,       160.744,            0.,NA,NA,"",   1.00076E+06,   1.00704E+06,   1.00704E+06
C:/temp/Job-23.odb,Step-1,Increment      1: Step Time =    1.000,"P-23-1",           344,       76.5985,       159.975,            0.,NA,NA,"",   1.00249E+06,   1.01072E+06,   1.01072E+06
C:/temp/Job-23.odb,Step-1,Increment      1: Step Time =    1.000,"P-23-1",           345,       63.6087,       157.675,            0.,NA,NA,"",   1.00251E+06,   1.01720E+06,   1.01720E+06
C:/temp/Job-23.odb,Step-1,Increment      1: Step Time =    1.000,"P-23-1",           346,       54.0937,       160.338,            0.,NA,NA,"",   998.905E+03,   1.01858E+06,   1.01858E+06
C:/temp/Job-23.odb,Step-1,Increment      1: Step Time =    1.000,"P-23-1",           347,       39.6743,       158.030,            0.,NA,NA,"",   984.641E+03,   1.02217E+06,   1.02217E+06
C:/temp/Job-23.odb,Step-1,Increment      1: Step Time =    1.000,"P-23-1",           348,       31.1564,       158.558,            0.,NA,NA,"",   970.060E+03,   1.02019E+06,   1.02019E+06
C:/temp/Job-23.odb,Step-1,Increment      1: Step Time =    1.000,"P-23-1",           349,       24.3561,       156.299,            0.,NA,NA,"",   946.821E+03,   1.01103E+06,   1.01103E+06
C:/temp/Job-23.odb,Step-1,Increment      1: Step Time =    1.000,"P-23-1",           350,       9.03684,       160.255,            0.,NA,NA,"",   904.631E+03,   995.918E+03,   995.918E+03
C:/temp/Job-23.odb,Step-1,Increment      1: Step Time =    1.000,"P-23-1",           351,       190.478,       169.582,            0.,NA,NA,"",   1.00170E+06,   999.796E+03,   999.796E+03
C:/temp/Job-23.odb,Step-1,Increment      1: Step Time =    1.000,"P-23-1",           352,       176.545,       172.137,            0.,NA,NA,"",   1.00058E+06,   998.868E+03,   998.868E+03
C:/temp/Job-23.odb,Step-1,Increment      1: Step Time =    1.000,"P-23-1",           353,       167.359,       170.743,            0.,NA,NA,"",   1.00042E+06,   998.552E+03,   998.552E+03
C:/temp/Job-23.odb,Step-1,Increment      1: Step Time =    1.000,"P-23-1",           354,       145.696,       166.073,            0.,NA,NA,"",   1.00145E+06,   999.327E+03,   999.327E+03
C:/temp/Job-23.odb,Step-1,Increment      1: Step Time =    1.000,"P-23-1",           355,       135.245,       167.120,            0.,NA,NA,"",   999.882E+03,   998.367E+03,   998.367E+03
C:/temp/Job-23.odb,Step-1,Increment      1: Step Time =    1.000,"P-23-1",           356,       125.114,       169.422,            0.,NA,NA,"",   996.125E+03,   995.615E+03,   995.615E+03
C:/temp/Job-23.odb,Step-1,Increment      1: Step Time =    1.000,"P-23-1",           357,       114.740,       170.227,            0.,NA,NA,"",   993.192E+03,   993.749E+03,   993.749E+03
C:/temp/Job-23.odb,Step-1,Increment      1: Step Time =    1.000,"P-23-1",           358,       105.153,       172.097,            0.,NA,NA,"",   989.513E+03,   990.899E+03,   990.899E+03
C:/temp/Job-23.odb,Step-1,Increment      1: Step Time =    1.000,"P-23-1",           359,       93.2516,       167.363,            0.,NA,NA,"",   993.980E+03,   997.395E+03,   997.395E+03
C:/temp/Job-23.odb,Step-1,Increment      1: Step Time =    1.000,"P-23-1",           360,       84.9660,       168.279,            0.,NA,NA,"",   994.256E+03,   998.325E+03,   998.325E+03
C:/temp/Job-23.odb,Step-1,Increment      1: Step Time =    1.000,"P-23-1",           361,       76.7411,       169.486,            0.,NA,NA,"",   994.200E+03,   999.261E+03,   999.261E+03
C:/temp/Job-23.odb,Step-1,Increment      1: Step Time =    1.000,"P-23-1",           362,       63.7592,       169.474,            0.,NA,NA,"",   997.659E+03,   1.00605E+06,   1.00605E+06
C:/temp/Job-23.odb,Step-1,Increment      1: Step Time =    1.000,"P-23-1",           363,       54.5336,       166.868,            0.,NA,NA,"",   999.679E+03,   1.01470E+06,   1.01470E+06
C:/temp/Job-23.odb,Step-1,Increment      1: Step Time =    1.000,"P-23-1",           364,       39.3121,       168.108,            0.,NA,NA,"",   998.939E+03,   1.02601E+06,   1.02601E+06
C:/temp/Job-23.odb,Step-1,Increment      1: Step Time =    1.000,"P-23-1",           365,       29.5481,       167.232,            0.,NA,NA,"",   990.104E+03,   1.03299E+06,   1.03299E+06
C:/temp/Job-23.odb,Step-1,Increment      1: Step Time =    1.000,"P-23-1",           366,       19.0889,       168.333,            0.,NA,NA,"",   970.232E+03,   1.03355E+06,   1.03355E+06
C:/temp/Job-23.odb,Step-1,Increment      1: Step Time =    1.000,"P-23-1",           367,       9.32238,       169.821,            0.,NA,NA,"",   941.376E+03,   1.02695E+06,   1.02695E+06
C:/temp/Job-23.odb,Step-1,Increment      1: Step Time =    1.000,"P-23-1",           368,       190.122,       179.693,            0.,NA,NA,"",   1.00047E+06,   999.498E+03,   999.498E+03
C:/temp/Job-23.odb,Step-1,Increment      1: Step Time =    1.000,"P-23-1",           369,       179.635,       179.103,            0.,NA,NA,"",   999.550E+03,   998.442E+03,   998.442E+03
C:/temp/Job-23.odb,Step-1,Increment      1: Step Time =    1.000,"P-23-1",           370,       164.077,       179.586,            0.,NA,NA,"",   997.195E+03,   996.124E+03,   996.124E+03
C:/temp/Job-23.odb,Step-1,Increment      1: Step Time =    1.000,"P-23-1",           371,       155.702,       175.387,            0.,NA,NA,"",   997.524E+03,   996.131E+03,   996.131E+03
C:/temp/Job-23.odb,Step-1,Increment      1: Step Time =    1.000,"P-23-1",           372,       146.269,       177.096,            0.,NA,NA,"",   994.932E+03,   993.774E+03,   993.774E+03
C:/temp/Job-23.odb,Step-1,Increment      1: Step Time =    1.000,"P-23-1",           373,       133.552,       177.590,            0.,NA,NA,"",   991.471E+03,   990.704E+03,   990.704E+03
C:/temp/Job-23.odb,Step-1,Increment      1: Step Time =    1.000,"P-23-1",           374,       122.365,       181.970,            0.,NA,NA,"",   983.813E+03,   983.581E+03,   983.581E+03
C:/temp/Job-23.odb,Step-1,Increment      1: Step Time =    1.000,"P-23-1",           375,       114.203,       181.711,            0.,NA,NA,"",   981.019E+03,   981.203E+03,   981.203E+03
C:/temp/Job-23.odb,Step-1,Increment      1: Step Time =    1.000,"P-23-1",           376,       105.025,       181.273,            0.,NA,NA,"",   978.604E+03,   979.161E+03,   979.161E+03
C:/temp/Job-23.odb,Step-1,Increment      1: Step Time =    1.000,"P-23-1",           377,       95.8903,       180.847,            0.,NA,NA,"",   977.208E+03,   978.173E+03,   978.173E+03
C:/temp/Job-23.odb,Step-1,Increment      1: Step Time =    1.000,"P-23-1",           378,       87.7819,       179.326,            0.,NA,NA,"",   979.031E+03,   980.524E+03,   980.524E+03
C:/temp/Job-23.odb,Step-1,Increment      1: Step Time =    1.000,"P-23-1",           379,       73.1791,       179.418,            0.,NA,NA,"",   980.903E+03,   983.495E+03,   983.495E+03
C:/temp/Job-23.odb,Step-1,Increment      1: Step Time =    1.000,"P-23-1",           380,       63.0493,       177.903,            0.,NA,NA,"",   987.312E+03,   991.987E+03,   991.987E+03
C:/temp/Job-23.odb,Step-1,Increment      1: Step Time =    1.000,"P-23-1",           381,       54.7390,       178.056,            0.,NA,NA,"",   992.053E+03,   999.068E+03,   999.068E+03
C:/temp/Job-23.odb,Step-1,Increment      1: Step Time =    1.000,"P-23-1",           382,       41.6718,       179.891,            0.,NA,NA,"",   1.00168E+06,   1.01332E+06,   1.01332E+06
C:/temp/Job-23.odb,Step-1,Increment      1: Step Time =    1.000,"P-23-1",           383,       32.5751,       181.378,            0.,NA,NA,"",   1.01447E+06,   1.03058E+06,   1.03058E+06
C:/temp/Job-23.odb,Step-1,Increment      1: Step Time =    1.000,"P-23-1",           384,       19.2974,       179.140,            0.,NA,NA,"",   1.02882E+06,   1.07179E+06,   1.07179E+06
C:/temp/Job-23.odb,Step-1,Increment      1: Step Time =    1.000,"P-23-1",           385,       9.86194,       179.655,            0.,NA,NA,"",   1.00593E+06,   1.07945E+06,   1.07945E+06
C:/temp/Job-23.odb,Step-1,Increment      1: Step Time =    1.000,"P-23-1",           386,       190.069,       189.967,            0.,NA,NA,"",   999.715E+03,   999.418E+03,   999.418E+03
C:/temp/Job-23.odb,Step-1,Increment      1: Step Time =    1.000,"P-23-1",           387,       175.246,       189.164,            0.,NA,NA,"",   997.609E+03,   997.218E+03,   997.218E+03
C:/temp/Job-23.odb,Step-1,Increment      1: Step Time =    1.000,"P-23-1",           388,       165.428,       190.868,            0.,NA,NA,"",   994.920E+03,   994.677E+03,   994.677E+03
C:/temp/Job-23.odb,Step-1,Increment      1: Step Time =    1.000,"P-23-1",           389,       156.650,       190.324,            0.,NA,NA,"",   992.099E+03,   991.806E+03,   991.806E+03
C:/temp/Job-23.odb,Step-1,Increment      1: Step Time =    1.000,"P-23-1",           390,       148.645,       187.306,            0.,NA,NA,"",   990.468E+03,    989.98E+03,    989.98E+03
C:/temp/Job-23.odb,Step-1,Increment      1: Step Time =    1.000,"P-23-1",           391,       133.195,       189.604,            0.,NA,NA,"",   982.092E+03,   981.903E+03,   981.903E+03
C:/temp/Job-23.odb,Step-1,Increment      1: Step Time =    1.000,"P-23-1",           392,       123.949,       190.662,            0.,NA,NA,"",   976.182E+03,   976.094E+03,   976.094E+03
C:/temp/Job-23.odb,Step-1,Increment      1: Step Time =    1.000,"P-23-1",           393,       114.489,       190.712,            0.,NA,NA,"",   970.617E+03,   970.646E+03,   970.646E+03
C:/temp/Job-23.odb,Step-1,Increment      1: Step Time =    1.000,"P-23-1",           394,       104.885,       190.465,            0.,NA,NA,"",   965.715E+03,   965.846E+03,   965.846E+03
C:/temp/Job-23.odb,Step-1,Increment      1: Step Time =    1.000,"P-23-1",           395,       95.0401,       190.128,            0.,NA,NA,"",   961.913E+03,   962.137E+03,   962.137E+03
C:/temp/Job-23.odb,Step-1,Increment      1: Step Time =    1.000,"P-23-1",           396,       84.7740,       189.569,            0.,NA,NA,"",   959.669E+03,   960.058E+03,   960.058E+03
C:/temp/Job-23.odb,Step-1,Increment      1: Step Time =    1.000,"P-23-1",           397,       74.5454,       190.294,            0.,NA,NA,"",   956.648E+03,   957.179E+03,   957.179E+03
C:/temp/Job-23.odb,Step-1,Increment      1: Step Time =    1.000,"P-23-1",           398,       64.9662,       191.078,            0.,NA,NA,"",   955.017E+03,   955.806E+03,   955.806E+03
C:/temp/Job-23.odb,Step-1,Increment      1: Step Time =    1.000,"P-23-1",           399,       52.1378,       186.796,            0.,NA,NA,"",   976.220E+03,   979.090E+03,   979.090E+03
C:/temp/Job-23.odb,Step-1,Increment      1: Step Time =    1.000,"P-23-1",           400,       41.5821,       188.119,            0.,NA,NA,"",   986.437E+03,   991.006E+03,   991.006E+03
C:/temp/Job-23.odb,Step-1,Increment      1: Step Time =    1.000,"P-23-1",           401,       30.6331,       187.989,            0.,NA,NA,"",   1.01415E+06,   1.02338E+06,   1.02338E+06
C:/temp/Job-23.odb,Step-1,Increment      1: Step Time =    1.000,"P-23-1",           402,       19.9981,       189.385,            0.,NA,NA,"",   1.06432E+06,   1.08061E+06,   1.08061E+06
C:/temp/Job-23.odb,Step-1,Increment      1: Step Time =    1.000,"P-23-1",           403,       10.0798,       189.774,            0.,NA,NA,"",   1.14417E+06,   1.18454E+06,   1.18454E+06
C:/temp/Job-23.odb,Step-1,Increment      1: Step Time =    1.000,"P-23-1",           404,          195.,            0.,            0.,NA,NA,"",   1.00001E+06,   999.995E+03,   999.995E+03
C:/temp/Job-23.odb,Step-1,Increment      1: Step Time =    1.000,"P-23-1",           405,          185.,            0.,            0.,NA,NA,"",   999.497E+03,   999.449E+03,   999.449E+03
C:/temp/Job-23.odb,Step-1,Increment      1: Step Time =    1.000,"P-23-1",           406,          175.,            0.,            0.,NA,NA,"",   997.640E+03,   997.587E+03,   997.587E+03
C:/temp/Job-23.odb,Step-1,Increment      1: Step Time =    1.000,"P-23-1",           407,          165.,            0.,            0.,NA,NA,"",   994.447E+03,   994.409E+03,   994.409E+03
C:/temp/Job-23.odb,Step-1,Increment      1: Step Time =    1.000,"P-23-1",           408,          155.,            0.,            0.,NA,NA,"",   990.130E+03,   990.108E+03,   990.108E+03
C:/temp/Job-23.odb,Step-1,Increment      1: Step Time =    1.000,"P-23-1",           409,          145.,            0.,            0.,NA,NA,"",   984.523E+03,   984.507E+03,   984.507E+03
C:/temp/Job-23.odb,Step-1,Increment      1: Step Time =    1.000,"P-23-1",           410,          135.,            0.,            0.,NA,NA,"",   977.896E+03,   977.863E+03,   977.863E+03
C:/temp/Job-23.odb,Step-1,Increment      1: Step Time =    1.000,"P-23-1",           411,          125.,            0.,            0.,NA,NA,"",   970.486E+03,   970.463E+03,   970.463E+03
C:/temp/Job-23.odb,Step-1,Increment      1: Step Time =    1.000,"P-23-1",           412,          115.,            0.,            0.,NA,NA,"",   962.850E+03,   962.832E+03,   962.832E+03
C:/temp/Job-23.odb,Step-1,Increment      1: Step Time =    1.000,"P-23-1",           413,          105.,            0.,            0.,NA,NA,"",   955.142E+03,   955.169E+03,   955.169E+03
C:/temp/Job-23.odb,Step-1,Increment      1: Step Time =    1.000,"P-23-1",           414,           95.,            0.,            0.,NA,NA,"",   947.892E+03,   947.927E+03,   947.927E+03
C:/temp/Job-23.odb,Step-1,Increment      1: Step Time =    1.000,"P-23-1",           415,           85.,            0.,            0.,NA,NA,"",   941.529E+03,   941.578E+03,   941.578E+03
C:/temp/Job-23.odb,Step-1,Increment      1: Step Time =    1.000,"P-23-1",           416,           75.,            0.,            0.,NA,NA,"",   936.662E+03,   936.751E+03,   936.751E+03
C:/temp/Job-23.odb,Step-1,Increment      1: Step Time =    1.000,"P-23-1",           417,           65.,            0.,            0.,NA,NA,"",   934.544E+03,   934.745E+03,   934.745E+03
C:/temp/Job-23.odb,Step-1,Increment      1: Step Time =    1.000,"P-23-1",           418,           55.,            0.,            0.,NA,NA,"",   936.133E+03,   936.223E+03,   936.223E+03
C:/temp/Job-23.odb,Step-1,Increment      1: Step Time =    1.000,"P-23-1",           419,           45.,            0.,            0.,NA,NA,"",   939.994E+03,   940.555E+03,   940.555E+03
C:/temp/Job-23.odb,Step-1,Increment      1: Step Time =    1.000,"P-23-1",           420,           35.,            0.,            0.,NA,NA,"",   954.192E+03,   955.098E+03,   955.098E+03
C:/temp/Job-23.odb,Step-1,Increment      1: Step Time =    1.000,"P-23-1",           421,           25.,            0.,            0.,NA,NA,"",   990.703E+03,   992.461E+03,   992.461E+03
C:/temp/Job-23.odb,Step-1,Increment      1: Step Time =    1.000,"P-23-1",           422,           15.,            0.,            0.,NA,NA,"",   1.07826E+06,   1.08354E+06,   1.08354E+06
C:/temp/Job-23.odb,Step-1,Increment      1: Step Time =    1.000,"P-23-1",           423,            5.,            0.,            0.,NA,NA,"",   1.37613E+06,   1.40766E+06,   1.40766E+06
C:/temp/Job-23.odb,Step-1,Increment      1: Step Time =    1.000,"P-23-1",           424,          200.,          195.,            0.,NA,NA,"",   999.975E+03,   999.973E+03,   999.973E+03
C:/temp/Job-23.odb,Step-1,Increment      1: Step Time =    1.000,"P-23-1",           425,          200.,          185.,            0.,NA,NA,"",   1.00018E+06,   999.921E+03,   999.921E+03
C:/temp/Job-23.odb,Step-1,Increment      1: Step Time =    1.000,"P-23-1",           426,          200.,          175.,            0.,NA,NA,"",   1.00105E+06,   999.954E+03,   999.954E+03
C:/temp/Job-23.odb,Step-1,Increment      1: Step Time =    1.000,"P-23-1",           427,          200.,          165.,            0.,NA,NA,"",   1.00234E+06,   999.988E+03,   999.988E+03
C:/temp/Job-23.odb,Step-1,Increment      1: Step Time =    1.000,"P-23-1",           428,          200.,          155.,            0.,NA,NA,"",   1.00372E+06,   1.00002E+06,   1.00002E+06
C:/temp/Job-23.odb,Step-1,Increment      1: Step Time =    1.000,"P-23-1",           429,          200.,          145.,            0.,NA,NA,"",   1.00490E+06,   1.00005E+06,   1.00005E+06
C:/temp/Job-23.odb,Step-1,Increment      1: Step Time =    1.000,"P-23-1",           430,          200.,          135.,            0.,NA,NA,"",   1.00574E+06,   1.00005E+06,   1.00005E+06
C:/temp/Job-23.odb,Step-1,Increment      1: Step Time =    1.000,"P-23-1",           431,          200.,          125.,            0.,NA,NA,"",   1.00619E+06,   1.00004E+06,   1.00004E+06
C:/temp/Job-23.odb,Step-1,Increment      1: Step Time =    1.000,"P-23-1",           432,          200.,          115.,            0.,NA,NA,"",   1.00633E+06,   1.00001E+06,   1.00001E+06
C:/temp/Job-23.odb,Step-1,Increment      1: Step Time =    1.000,"P-23-1",           433,          200.,          105.,            0.,NA,NA,"",   1.00636E+06,   1.00000E+06,   1.00000E+06
C:/temp/Job-23.odb,Step-1,Increment      1: Step Time =    1.000,"P-23-1",           434,          200.,           95.,            0.,NA,NA,"",   1.00636E+06,   1.00000E+06,   1.00000E+06
C:/temp/Job-23.odb,Step-1,Increment      1: Step Time =    1.000,"P-23-1",           435,          200.,           85.,            0.,NA,NA,"",   1.00633E+06,   1.00001E+06,   1.00001E+06
C:/temp/Job-23.odb,Step-1,Increment      1: Step Time =    1.000,"P-23-1",           436,          200.,           75.,            0.,NA,NA,"",   1.00617E+06,   1.00003E+06,   1.00003E+06
C:/temp/Job-23.odb,Step-1,Increment      1: Step Time =    1.000,"P-23-1",           437,          200.,           65.,            0.,NA,NA,"",   1.00573E+06,   1.00007E+06,   1.00007E+06
C:/temp/Job-23.odb,Step-1,Increment      1: Step Time =    1.000,"P-23-1",           438,          200.,           55.,            0.,NA,NA,"",   1.00483E+06,   1.00005E+06,   1.00005E+06
C:/temp/Job-23.odb,Step-1,Increment      1: Step Time =    1.000,"P-23-1",           439,          200.,           45.,            0.,NA,NA,"",   1.00361E+06,   999.993E+03,   999.993E+03
C:/temp/Job-23.odb,Step-1,Increment      1: Step Time =    1.000,"P-23-1",           440,          200.,           35.,            0.,NA,NA,"",   1.00229E+06,   999.983E+03,   999.983E+03
C:/temp/Job-23.odb,Step-1,Increment      1: Step Time =    1.000,"P-23-1",           441,          200.,           25.,            0.,NA,NA,"",   1.00104E+06,   999.964E+03,   999.964E+03
C:/temp/Job-23.odb,Step-1,Increment      1: Step Time =    1.000,"P-23-1",           442,          200.,           15.,            0.,NA,NA,"",   1.00018E+06,   999.925E+03,   999.925E+03
C:/temp/Job-23.odb,Step-1,Increment      1: Step Time =    1.000,"P-23-1",           443,          200.,            5.,            0.,NA,NA,"",   999.976E+03,   999.974E+03,   999.974E+03
C:/temp/Job-23.odb,Step-1,Increment      1: Step Time =    1.000,"P-23-1",           444,            5.,          200.,            0.,NA,NA,"",   1.37664E+06,   1.40819E+06,   1.40819E+06
C:/temp/Job-23.odb,Step-1,Increment      1: Step Time =    1.000,"P-23-1",           445,           15.,          200.,            0.,NA,NA,"",   1.07915E+06,   1.08456E+06,   1.08456E+06
C:/temp/Job-23.odb,Step-1,Increment      1: Step Time =    1.000,"P-23-1",           446,           25.,          200.,            0.,NA,NA,"",   992.975E+03,   995.105E+03,   995.105E+03
C:/temp/Job-23.odb,Step-1,Increment      1: Step Time =    1.000,"P-23-1",           447,           35.,          200.,            0.,NA,NA,"",   956.697E+03,   957.657E+03,   957.657E+03
C:/temp/Job-23.odb,Step-1,Increment      1: Step Time =    1.000,"P-23-1",           448,           45.,          200.,            0.,NA,NA,"",   939.391E+03,   939.890E+03,   939.890E+03
C:/temp/Job-23.odb,Step-1,Increment      1: Step Time =    1.000,"P-23-1",           449,           55.,          200.,            0.,NA,NA,"",   932.803E+03,   933.020E+03,   933.020E+03
C:/temp/Job-23.odb,Step-1,Increment      1: Step Time =    1.000,"P-23-1",           450,           65.,          200.,            0.,NA,NA,"",   932.708E+03,   932.822E+03,   932.822E+03
C:/temp/Job-23.odb,Step-1,Increment      1: Step Time =    1.000,"P-23-1",           451,           75.,          200.,            0.,NA,NA,"",   936.201E+03,   936.284E+03,   936.284E+03
C:/temp/Job-23.odb,Step-1,Increment      1: Step Time =    1.000,"P-23-1",           452,           85.,          200.,            0.,NA,NA,"",   941.593E+03,   941.607E+03,   941.607E+03
C:/temp/Job-23.odb,Step-1,Increment      1: Step Time =    1.000,"P-23-1",           453,           95.,          200.,            0.,NA,NA,"",   947.806E+03,   947.829E+03,   947.829E+03
C:/temp/Job-23.odb,Step-1,Increment      1: Step Time =    1.000,"P-23-1",           454,          105.,          200.,            0.,NA,NA,"",   954.911E+03,   954.923E+03,   954.923E+03
C:/temp/Job-23.odb,Step-1,Increment      1: Step Time =    1.000,"P-23-1",           455,          115.,          200.,            0.,NA,NA,"",   962.497E+03,   962.506E+03,   962.506E+03
C:/temp/Job-23.odb,Step-1,Increment      1: Step Time =    1.000,"P-23-1",           456,          125.,          200.,            0.,NA,NA,"",   970.313E+03,   970.323E+03,   970.323E+03
C:/temp/Job-23.odb,Step-1,Increment      1: Step Time =    1.000,"P-23-1",           457,          135.,          200.,            0.,NA,NA,"",   977.901E+03,   977.950E+03,   977.950E+03
C:/temp/Job-23.odb,Step-1,Increment      1: Step Time =    1.000,"P-23-1",           458,          145.,          200.,            0.,NA,NA,"",   984.885E+03,   984.780E+03,   984.780E+03
C:/temp/Job-23.odb,Step-1,Increment      1: Step Time =    1.000,"P-23-1",           459,          155.,          200.,            0.,NA,NA,"",   990.428E+03,   990.348E+03,   990.348E+03
C:/temp/Job-23.odb,Step-1,Increment      1: Step Time =    1.000,"P-23-1",           460,          165.,          200.,            0.,NA,NA,"",   994.694E+03,   994.663E+03,   994.663E+03
C:/temp/Job-23.odb,Step-1,Increment      1: Step Time =    1.000,"P-23-1",           461,          175.,          200.,            0.,NA,NA,"",   997.745E+03,   997.708E+03,   997.708E+03
C:/temp/Job-23.odb,Step-1,Increment      1: Step Time =    1.000,"P-23-1",           462,          185.,          200.,            0.,NA,NA,"",   999.518E+03,   999.472E+03,   999.472E+03
C:/temp/Job-23.odb,Step-1,Increment      1: Step Time =    1.000,"P-23-1",           463,          195.,          200.,            0.,NA,NA,"",   1.00001E+06,   999.999E+03,   999.999E+03
C:/temp/Job-23.odb,Step-1,Increment      1: Step Time =    1.000,"P-23-1",           464,            0.,            5.,            0.,NA,NA,"",   1.33121E+06,   1.41382E+06,   1.41382E+06
C:/temp/Job-23.odb,Step-1,Increment      1: Step Time =    1.000,"P-23-1",           465,            0.,           15.,            0.,NA,NA,"",   1.01741E+06,   1.11543E+06,   1.11543E+06
C:/temp/Job-23.odb,Step-1,Increment      1: Step Time =    1.000,"P-23-1",           466,            0.,           25.,            0.,NA,NA,"",   933.348E+03,   1.03383E+06,   1.03383E+06
C:/temp/Job-23.odb,Step-1,Increment      1: Step Time =    1.000,"P-23-1",           467,            0.,           35.,            0.,NA,NA,"",   891.613E+03,   993.617E+03,   993.617E+03
C:/temp/Job-23.odb,Step-1,Increment      1: Step Time =    1.000,"P-23-1",           468,            0.,           45.,            0.,NA,NA,"",   867.133E+03,   969.996E+03,   969.996E+03
C:/temp/Job-23.odb,Step-1,Increment      1: Step Time =    1.000,"P-23-1",           469,            0.,           55.,            0.,NA,NA,"",   851.032E+03,   954.750E+03,   954.750E+03
C:/temp/Job-23.odb,Step-1,Increment      1: Step Time =    1.000,"P-23-1",           470,            0.,           65.,            0.,NA,NA,"",   839.306E+03,   943.838E+03,   943.838E+03
C:/temp/Job-23.odb,Step-1,Increment      1: Step Time =    1.000,"P-23-1",           471,            0.,           75.,            0.,NA,NA,"",   831.216E+03,   936.232E+03,   936.232E+03
C:/temp/Job-23.odb,Step-1,Increment      1: Step Time =    1.000,"P-23-1",           472,            0.,           85.,            0.,NA,NA,"",   826.766E+03,   931.778E+03,   931.778E+03
C:/temp/Job-23.odb,Step-1,Increment      1: Step Time =    1.000,"P-23-1",           473,            0.,           95.,            0.,NA,NA,"",   824.933E+03,   929.867E+03,   929.867E+03
C:/temp/Job-23.odb,Step-1,Increment      1: Step Time =    1.000,"P-23-1",           474,            0.,          105.,            0.,NA,NA,"",   825.017E+03,   929.896E+03,   929.896E+03
C:/temp/Job-23.odb,Step-1,Increment      1: Step Time =    1.000,"P-23-1",           475,            0.,          115.,            0.,NA,NA,"",   827.418E+03,   932.251E+03,   932.251E+03
C:/temp/Job-23.odb,Step-1,Increment      1: Step Time =    1.000,"P-23-1",           476,            0.,          125.,            0.,NA,NA,"",   831.905E+03,   936.692E+03,   936.692E+03
C:/temp/Job-23.odb,Step-1,Increment      1: Step Time =    1.000,"P-23-1",           477,            0.,          135.,            0.,NA,NA,"",   839.426E+03,   944.001E+03,   944.001E+03
C:/temp/Job-23.odb,Step-1,Increment      1: Step Time =    1.000,"P-23-1",           478,            0.,          145.,            0.,NA,NA,"",   850.424E+03,   954.531E+03,   954.531E+03
C:/temp/Job-23.odb,Step-1,Increment      1: Step Time =    1.000,"P-23-1",           479,            0.,          155.,            0.,NA,NA,"",   866.170E+03,    969.58E+03,    969.58E+03
C:/temp/Job-23.odb,Step-1,Increment      1: Step Time =    1.000,"P-23-1",           480,            0.,          165.,            0.,NA,NA,"",   890.672E+03,   993.014E+03,   993.014E+03
C:/temp/Job-23.odb,Step-1,Increment      1: Step Time =    1.000,"P-23-1",           481,            0.,          175.,            0.,NA,NA,"",   932.589E+03,   1.03327E+06,   1.03327E+06
C:/temp/Job-23.odb,Step-1,Increment      1: Step Time =    1.000,"P-23-1",           482,            0.,          185.,            0.,NA,NA,"",   1.01687E+06,   1.11498E+06,   1.11498E+06
C:/temp/Job-23.odb,Step-1,Increment      1: Step Time =    1.000,"P-23-1",           483,            0.,          195.,            0.,NA,NA,"",   1.33067E+06,   1.41338E+06,   1.41338E+06
C:/temp/Job-23.odb,Step-1,Increment      1: Step Time =    1.000,"P-23-1",           484,       102.405,       107.150,            0.,NA,NA,"",   1.29713E+06,   1.35191E+06,   1.35191E+06
C:/temp/Job-23.odb,Step-1,Increment      1: Step Time =    1.000,"P-23-1",           485,       107.096,       102.532,            0.,NA,NA,"",   798.173E+03,   720.909E+03,   720.909E+03
C:/temp/Job-23.odb,Step-1,Increment      1: Step Time =    1.000,"P-23-1",           486,       107.101,       97.5695,            0.,NA,NA,"",   787.918E+03,   711.919E+03,   711.919E+03
C:/temp/Job-23.odb,Step-1,Increment      1: Step Time =    1.000,"P-23-1",           487,       102.490,       92.8890,            0.,NA,NA,"",   1.30018E+06,   1.35170E+06,   1.35170E+06
C:/temp/Job-23.odb,Step-1,Increment      1: Step Time =    1.000,"P-23-1",           488,       97.5430,       92.8497,            0.,NA,NA,"",   1.29573E+06,   1.35094E+06,   1.35094E+06
C:/temp/Job-23.odb,Step-1,Increment      1: Step Time =    1.000,"P-23-1",           489,       92.8860,       97.4548,            0.,NA,NA,"",   793.105E+03,   723.567E+03,   723.567E+03
C:/temp/Job-23.odb,Step-1,Increment      1: Step Time =    1.000,"P-23-1",           490,       92.9013,       102.415,            0.,NA,NA,"",   780.323E+03,   712.140E+03,   712.140E+03
C:/temp/Job-23.odb,Step-1,Increment      1: Step Time =    1.000,"P-23-1",           491,       97.4923,       107.101,            0.,NA,NA,"",   1.29934E+06,   1.35223E+06,   1.35223E+06
C:/temp/Job-23.odb,Step-1,Increment      1: Step Time =    1.000,"P-23-1",           492,       95.1330,       4.85584,            0.,NA,NA,"",   952.575E+03,   952.654E+03,   952.654E+03
C:/temp/Job-23.odb,Step-1,Increment      1: Step Time =    1.000,"P-23-1",           493,       105.080,       5.03841,            0.,NA,NA,"",   959.101E+03,   959.152E+03,   959.152E+03
C:/temp/Job-23.odb,Step-1,Increment      1: Step Time =    1.000,"P-23-1",           494,       124.532,       195.304,            0.,NA,NA,"",   972.260E+03,   972.238E+03,   972.238E+03
C:/temp/Job-23.odb,Step-1,Increment      1: Step Time =    1.000,"P-23-1",           495,       114.732,       195.345,            0.,NA,NA,"",   965.224E+03,   965.232E+03,   965.232E+03
C:/temp/Job-23.odb,Step-1,Increment      1: Step Time =    1.000,"P-23-1",           496,       15.0875,       194.777,            0.,NA,NA,"",   1.09496E+06,   1.10467E+06,   1.10467E+06
C:/temp/Job-23.odb,Step-1,Increment      1: Step Time =    1.000,"P-23-1",           497,       5.05477,       194.929,            0.,NA,NA,"",   1.28903E+06,   1.33801E+06,   1.33801E+06
C:/temp/Job-23.odb,Step-1,Increment      1: Step Time =    1.000,"P-23-1",           498,       5.06217,       10.0907,            0.,NA,NA,"",   1.12910E+06,   1.20427E+06,   1.20427E+06
C:/temp/Job-23.odb,Step-1,Increment      1: Step Time =    1.000,"P-23-1",           499,       5.02142,       20.0808,            0.,NA,NA,"",   983.477E+03,   1.07386E+06,   1.07386E+06
C:/temp/Job-23.odb,Step-1,Increment      1: Step Time =    1.000,"P-23-1",           500,       4.91486,       30.0140,            0.,NA,NA,"",   921.799E+03,   1.01754E+06,   1.01754E+06
C:/temp/Job-23.odb,Step-1,Increment      1: Step Time =    1.000,"P-23-1",           501,       5.00415,       40.0533,            0.,NA,NA,"",   888.198E+03,   986.533E+03,   986.533E+03
C:/temp/Job-23.odb,Step-1,Increment      1: Step Time =    1.000,"P-23-1",           502,       5.42281,       50.2452,            0.,NA,NA,"",   867.938E+03,   967.472E+03,   967.472E+03
C:/temp/Job-23.odb,Step-1,Increment      1: Step Time =    1.000,"P-23-1",           503,       5.02948,       184.868,            0.,NA,NA,"",   1.03093E+06,   1.11733E+06,   1.11733E+06
C:/temp/Job-23.odb,Step-1,Increment      1: Step Time =    1.000,"P-23-1",           504,       15.0259,       5.03231,            0.,NA,NA,"",   1.09452E+06,   1.10386E+06,   1.10386E+06
C:/temp/Job-23.odb,Step-1,Increment      1: Step Time =    1.000,"P-23-1",           505,       24.9029,       4.83911,            0.,NA,NA,"",   1.00903E+06,   1.01251E+06,   1.01251E+06
C:/temp/Job-23.odb,Step-1,Increment      1: Step Time =    1.000,"P-23-1",           506,       34.7790,       4.81175,            0.,NA,NA,"",   969.836E+03,   971.529E+03,   971.529E+03
C:/temp/Job-23.odb,Step-1,Increment      1: Step Time =    1.000,"P-23-1",           507,       44.4323,       4.96777,            0.,NA,NA,"",   952.441E+03,   953.422E+03,   953.422E+03
C:/temp/Job-23.odb,Step-1,Increment      1: Step Time =    1.000,"P-23-1",           508,       55.1229,       6.99958,            0.,NA,NA,"",   951.964E+03,   952.695E+03,   952.695E+03
C:/temp/Job-23.odb,Step-1,Increment      1: Step Time =    1.000,"P-23-1",           509,       65.6879,       5.18323,            0.,NA,NA,"",   942.679E+03,    943.04E+03,    943.04E+03
C:/temp/Job-23.odb,Step-1,Increment      1: Step Time =    1.000,"P-23-1",           510,       75.4790,       4.68783,            0.,NA,NA,"",   943.272E+03,   943.455E+03,   943.455E+03
C:/temp/Job-23.odb,Step-1,Increment      1: Step Time =    1.000,"P-23-1",           511,       85.2912,       4.69927,            0.,NA,NA,"",   947.049E+03,   947.172E+03,   947.172E+03
C:/temp/Job-23.odb,Step-1,Increment      1: Step Time =    1.000,"P-23-1",           512,       115.143,       5.17341,            0.,NA,NA,"",   966.042E+03,   966.029E+03,   966.029E+03
C:/temp/Job-23.odb,Step-1,Increment      1: Step Time =    1.000,"P-23-1",           513,       134.342,       194.692,            0.,NA,NA,"",   979.226E+03,   979.206E+03,   979.206E+03
C:/temp/Job-23.odb,Step-1,Increment      1: Step Time =    1.000,"P-23-1",           514,       125.153,       4.82224,            0.,NA,NA,"",   972.798E+03,   972.746E+03,   972.746E+03
C:/temp/Job-23.odb,Step-1,Increment      1: Step Time =    1.000,"P-23-1",           515,       145.059,       192.547,            0.,NA,NA,"",   986.593E+03,   986.367E+03,   986.367E+03
C:/temp/Job-23.odb,Step-1,Increment      1: Step Time =    1.000,"P-23-1",           516,       134.999,       4.43849,            0.,NA,NA,"",   979.238E+03,   979.164E+03,   979.164E+03
C:/temp/Job-23.odb,Step-1,Increment      1: Step Time =    1.000,"P-23-1",           517,       155.617,       195.013,            0.,NA,NA,"",   990.860E+03,   990.732E+03,   990.732E+03
C:/temp/Job-23.odb,Step-1,Increment      1: Step Time =    1.000,"P-23-1",           518,       144.726,       4.40828,            0.,NA,NA,"",   985.189E+03,   985.121E+03,   985.121E+03
C:/temp/Job-23.odb,Step-1,Increment      1: Step Time =    1.000,"P-23-1",           519,       154.512,       5.09029,            0.,NA,NA,"",   990.411E+03,   990.317E+03,   990.317E+03
C:/temp/Job-23.odb,Step-1,Increment      1: Step Time =    1.000,"P-23-1",           520,       165.302,       195.355,            0.,NA,NA,"",   994.685E+03,   994.602E+03,   994.602E+03
C:/temp/Job-23.odb,Step-1,Increment      1: Step Time =    1.000,"P-23-1",           521,       164.417,       5.47964,            0.,NA,NA,"",   994.494E+03,   994.362E+03,   994.362E+03
C:/temp/Job-23.odb,Step-1,Increment      1: Step Time =    1.000,"P-23-1",           522,       175.196,       194.839,            0.,NA,NA,"",   997.586E+03,   997.465E+03,   997.465E+03
C:/temp/Job-23.odb,Step-1,Increment      1: Step Time =    1.000,"P-23-1",           523,       174.834,       5.41269,            0.,NA,NA,"",   997.495E+03,   997.352E+03,   997.352E+03
C:/temp/Job-23.odb,Step-1,Increment      1: Step Time =    1.000,"P-23-1",           524,       185.099,       194.998,            0.,NA,NA,"",   999.337E+03,   999.214E+03,   999.214E+03
C:/temp/Job-23.odb,Step-1,Increment      1: Step Time =    1.000,"P-23-1",           525,       184.957,       5.14728,            0.,NA,NA,"",   999.304E+03,   999.174E+03,   999.174E+03
C:/temp/Job-23.odb,Step-1,Increment      1: Step Time =    1.000,"P-23-1",           526,       195.142,       105.016,            0.,NA,NA,"",   1.00610E+06,   1.00001E+06,   1.00001E+06
C:/temp/Job-23.odb,Step-1,Increment      1: Step Time =    1.000,"P-23-1",           527,       195.024,       114.993,            0.,NA,NA,"",   1.00609E+06,   1.00004E+06,   1.00004E+06
C:/temp/Job-23.odb,Step-1,Increment      1: Step Time =    1.000,"P-23-1",           528,       195.222,       124.965,            0.,NA,NA,"",   1.00598E+06,   1.00010E+06,   1.00010E+06
C:/temp/Job-23.odb,Step-1,Increment      1: Step Time =    1.000,"P-23-1",           529,       195.279,       134.926,            0.,NA,NA,"",   1.00558E+06,   1.00013E+06,   1.00013E+06
C:/temp/Job-23.odb,Step-1,Increment      1: Step Time =    1.000,"P-23-1",           530,       195.063,       144.833,            0.,NA,NA,"",   1.00479E+06,   1.00013E+06,   1.00013E+06
C:/temp/Job-23.odb,Step-1,Increment      1: Step Time =    1.000,"P-23-1",           531,       195.006,       195.009,            0.,NA,NA,"",   999.952E+03,   999.905E+03,   999.905E+03
C:/temp/Job-23.odb,Step-1,Increment      1: Step Time =    1.000,"P-23-1",           532,       194.989,       5.03543,            0.,NA,NA,"",   999.952E+03,   999.903E+03,   999.903E+03
C:/temp/Job-23.odb,Step-1,Increment      1: Step Time =    1.000,"P-23-1",           533,       195.068,       15.0226,            0.,NA,NA,"",   1.00018E+06,   999.784E+03,   999.784E+03
C:/temp/Job-23.odb,Step-1,Increment      1: Step Time =    1.000,"P-23-1",           534,       195.228,       24.8434,            0.,NA,NA,"",   1.00107E+06,   999.875E+03,   999.875E+03
C:/temp/Job-23.odb,Step-1,Increment      1: Step Time =    1.000,"P-23-1",           535,       195.216,       34.5098,            0.,NA,NA,"",   1.00225E+06,   999.955E+03,   999.955E+03
C:/temp/Job-23.odb,Step-1,Increment      1: Step Time =    1.000,"P-23-1",           536,       194.529,       44.1568,            0.,NA,NA,"",   1.00353E+06,   1.00005E+06,   1.00005E+06
C:/temp/Job-23.odb,Step-1,Increment      1: Step Time =    1.000,"P-23-1",           537,       192.867,       54.8495,            0.,NA,NA,"",   1.00471E+06,   1.00022E+06,   1.00022E+06
C:/temp/Job-23.odb,Step-1,Increment      1: Step Time =    1.000,"P-23-1",           538,       194.921,       65.3751,            0.,NA,NA,"",   1.00559E+06,   1.00015E+06,   1.00015E+06
C:/temp/Job-23.odb,Step-1,Increment      1: Step Time =    1.000,"P-23-1",           539,       195.223,       75.2022,            0.,NA,NA,"",   1.00597E+06,   1.00009E+06,   1.00009E+06
C:/temp/Job-23.odb,Step-1,Increment      1: Step Time =    1.000,"P-23-1",           540,       195.064,       85.1408,            0.,NA,NA,"",   1.00609E+06,   1.00004E+06,   1.00004E+06
C:/temp/Job-23.odb,Step-1,Increment      1: Step Time =    1.000,"P-23-1",           541,       195.148,       95.0598,            0.,NA,NA,"",   1.00611E+06,   1.00001E+06,   1.00001E+06
C:/temp/Job-23.odb,Step-1,Increment      1: Step Time =    1.000,"P-23-1",           542,       104.908,       195.212,            0.,NA,NA,"",   958.589E+03,   958.624E+03,   958.624E+03
C:/temp/Job-23.odb,Step-1,Increment      1: Step Time =    1.000,"P-23-1",           543,       94.9538,       195.025,            0.,NA,NA,"",   952.705E+03,   952.772E+03,   952.772E+03
C:/temp/Job-23.odb,Step-1,Increment      1: Step Time =    1.000,"P-23-1",           544,       84.8869,       194.868,            0.,NA,NA,"",   947.664E+03,   947.761E+03,   947.761E+03
C:/temp/Job-23.odb,Step-1,Increment      1: Step Time =    1.000,"P-23-1",           545,       74.8726,       195.189,            0.,NA,NA,"",   943.223E+03,   943.407E+03,   943.407E+03
C:/temp/Job-23.odb,Step-1,Increment      1: Step Time =    1.000,"P-23-1",           546,       65.0464,       195.567,            0.,NA,NA,"",   940.366E+03,   940.624E+03,   940.624E+03
C:/temp/Job-23.odb,Step-1,Increment      1: Step Time =    1.000,"P-23-1",           547,       55.3125,       195.621,            0.,NA,NA,"",   941.696E+03,   942.111E+03,   942.111E+03
C:/temp/Job-23.odb,Step-1,Increment      1: Step Time =    1.000,"P-23-1",           548,       45.5269,       194.898,            0.,NA,NA,"",   951.724E+03,   952.770E+03,   952.770E+03
C:/temp/Job-23.odb,Step-1,Increment      1: Step Time =    1.000,"P-23-1",           549,       35.5819,       194.369,            0.,NA,NA,"",   972.617E+03,   974.697E+03,   974.697E+03
C:/temp/Job-23.odb,Step-1,Increment      1: Step Time =    1.000,"P-23-1",           550,       25.2164,       194.399,            0.,NA,NA,"",   1.01226E+06,   1.01649E+06,   1.01649E+06
C:/temp/Job-23.odb,Step-1,Increment      1: Step Time =    1.000,"P-23-1",           551,       4.81988,       174.888,            0.,NA,NA,"",   944.851E+03,   1.03910E+06,   1.03910E+06
C:/temp/Job-23.odb,Step-1,Increment      1: Step Time =    1.000,"P-23-1",           552,       4.55341,       165.040,            0.,NA,NA,"",   900.563E+03,   998.613E+03,   998.613E+03
C:/temp/Job-23.odb,Step-1,Increment      1: Step Time =    1.000,"P-23-1",           553,       4.52183,       160.106,            0.,NA,NA,"",   886.326E+03,   985.514E+03,   985.514E+03
C:/temp/Job-23.odb,Step-1,Increment      1: Step Time =    1.000,"P-23-1",           554,       4.63240,       150.298,            0.,NA,NA,"",   866.055E+03,   966.737E+03,   966.737E+03
C:/temp/Job-23.odb,Step-1,Increment      1: Step Time =    1.000,"P-23-1",           555,       4.60238,       140.420,            0.,NA,NA,"",   851.981E+03,   953.702E+03,   953.702E+03
C:/temp/Job-23.odb,Step-1,Increment      1: Step Time =    1.000,"P-23-1",           556,       4.56633,       130.451,            0.,NA,NA,"",   842.110E+03,   944.518E+03,   944.518E+03
C:/temp/Job-23.odb,Step-1,Increment      1: Step Time =    1.000,"P-23-1",           557,       4.88547,       120.289,            0.,NA,NA,"",   836.027E+03,   938.606E+03,   938.606E+03
C:/temp/Job-23.odb,Step-1,Increment      1: Step Time =    1.000,"P-23-1",           558,       5.10061,       110.150,            0.,NA,NA,"",   832.650E+03,   935.270E+03,   935.270E+03
C:/temp/Job-23.odb,Step-1,Increment      1: Step Time =    1.000,"P-23-1",           559,       5.08766,       99.9924,            0.,NA,NA,"",   831.277E+03,   933.993E+03,   933.993E+03
C:/temp/Job-23.odb,Step-1,Increment      1: Step Time =    1.000,"P-23-1",           560,       4.88920,       90.0341,            0.,NA,NA,"",   831.937E+03,   934.791E+03,   934.791E+03
C:/temp/Job-23.odb,Step-1,Increment      1: Step Time =    1.000,"P-23-1",           561,       4.46380,       80.1094,            0.,NA,NA,"",   834.632E+03,   937.656E+03,   937.656E+03
C:/temp/Job-23.odb,Step-1,Increment      1: Step Time =    1.000,"P-23-1",           562,       4.35969,       70.3186,            0.,NA,NA,"",   840.627E+03,   943.422E+03,   943.422E+03
C:/temp/Job-23.odb,Step-1,Increment      1: Step Time =    1.000,"P-23-1",           563,       5.00229,       60.3980,            0.,NA,NA,"",   852.413E+03,   953.659E+03,   953.659E+03
C:/temp/Job-23.odb,Step-1,Increment      1: Step Time =    1.000,"P-23-1",           564,       195.052,       154.755,            0.,NA,NA,"",   1.00368E+06,   1.00007E+06,   1.00007E+06
C:/temp/Job-23.odb,Step-1,Increment      1: Step Time =    1.000,"P-23-1",           565,       195.203,       164.800,            0.,NA,NA,"",   1.00235E+06,   999.973E+03,   999.973E+03
C:/temp/Job-23.odb,Step-1,Increment      1: Step Time =    1.000,"P-23-1",           566,       195.114,       174.854,            0.,NA,NA,"",   1.00109E+06,   999.869E+03,   999.869E+03
C:/temp/Job-23.odb,Step-1,Increment      1: Step Time =    1.000,"P-23-1",           567,       195.012,       184.930,            0.,NA,NA,"",   1.00018E+06,   999.779E+03,   999.779E+03
C:/temp/Job-23.odb,Step-1,Increment      1: Step Time =    1.000,"P-23-1",           568,       189.980,       5.08118,            0.,NA,NA,"",   999.768E+03,   999.658E+03,   999.658E+03
C:/temp/Job-23.odb,Step-1,Increment      1: Step Time =    1.000,"P-23-1",           569,       179.938,       5.23669,            0.,NA,NA,"",   998.552E+03,   998.416E+03,   998.416E+03
C:/temp/Job-23.odb,Step-1,Increment      1: Step Time =    1.000,"P-23-1",           570,       169.674,       5.58756,            0.,NA,NA,"",   996.166E+03,   996.018E+03,   996.018E+03
C:/temp/Job-23.odb,Step-1,Increment      1: Step Time =    1.000,"P-23-1",           571,       159.364,       5.51237,            0.,NA,NA,"",   992.572E+03,   992.458E+03,   992.458E+03
C:/temp/Job-23.odb,Step-1,Increment      1: Step Time =    1.000,"P-23-1",           572,       149.610,       4.65485,            0.,NA,NA,"",   987.906E+03,   987.836E+03,   987.836E+03
C:/temp/Job-23.odb,Step-1,Increment      1: Step Time =    1.000,"P-23-1",           573,       139.868,       4.35530,            0.,NA,NA,"",   982.293E+03,   982.223E+03,   982.223E+03
C:/temp/Job-23.odb,Step-1,Increment      1: Step Time =    1.000,"P-23-1",           574,       130.091,       4.60648,            0.,NA,NA,"",   976.074E+03,   975.998E+03,   975.998E+03
C:/temp/Job-23.odb,Step-1,Increment      1: Step Time =    1.000,"P-23-1",           575,       120.166,       5.04239,            0.,NA,NA,"",   969.432E+03,   969.405E+03,   969.405E+03
C:/temp/Job-23.odb,Step-1,Increment      1: Step Time =    1.000,"P-23-1",           576,       110.119,       5.13782,            0.,NA,NA,"",   962.585E+03,   962.614E+03,   962.614E+03
C:/temp/Job-23.odb,Step-1,Increment      1: Step Time =    1.000,"P-23-1",           577,       100.090,       4.93191,            0.,NA,NA,"",   955.728E+03,   955.790E+03,   955.790E+03
C:/temp/Job-23.odb,Step-1,Increment      1: Step Time =    1.000,"P-23-1",           578,       90.2011,       4.76360,            0.,NA,NA,"",   949.668E+03,   949.767E+03,   949.767E+03
C:/temp/Job-23.odb,Step-1,Increment      1: Step Time =    1.000,"P-23-1",           579,       80.3811,       4.65028,            0.,NA,NA,"",   944.886E+03,   945.022E+03,   945.022E+03
C:/temp/Job-23.odb,Step-1,Increment      1: Step Time =    1.000,"P-23-1",           580,       70.5778,       4.85205,            0.,NA,NA,"",   942.485E+03,   942.730E+03,   942.730E+03
C:/temp/Job-23.odb,Step-1,Increment      1: Step Time =    1.000,"P-23-1",           581,       60.7126,       5.81983,            0.,NA,NA,"",   945.128E+03,   945.536E+03,   945.536E+03
C:/temp/Job-23.odb,Step-1,Increment      1: Step Time =    1.000,"P-23-1",           582,       49.3526,       5.43088,            0.,NA,NA,"",   949.655E+03,   950.374E+03,   950.374E+03
C:/temp/Job-23.odb,Step-1,Increment      1: Step Time =    1.000,"P-23-1",           583,       39.6219,       4.86298,            0.,NA,NA,"",   959.236E+03,   960.436E+03,   960.436E+03
C:/temp/Job-23.odb,Step-1,Increment      1: Step Time =    1.000,"P-23-1",           584,       29.8467,       4.78862,            0.,NA,NA,"",   985.847E+03,   988.180E+03,   988.180E+03
C:/temp/Job-23.odb,Step-1,Increment      1: Step Time =    1.000,"P-23-1",           585,       19.9571,       4.91646,            0.,NA,NA,"",   1.04492E+06,   1.05008E+06,   1.05008E+06
C:/temp/Job-23.odb,Step-1,Increment      1: Step Time =    1.000,"P-23-1",           586,       10.0505,       5.06058,            0.,NA,NA,"",   1.18464E+06,   1.19845E+06,   1.19845E+06
C:/temp/Job-23.odb,Step-1,Increment      1: Step Time =    1.000,"P-23-1",           587,       195.008,       189.981,            0.,NA,NA,"",   999.955E+03,   999.788E+03,   999.788E+03
C:/temp/Job-23.odb,Step-1,Increment      1: Step Time =    1.000,"P-23-1",           588,       195.049,       179.876,            0.,NA,NA,"",   1.00057E+06,   999.817E+03,   999.817E+03
C:/temp/Job-23.odb,Step-1,Increment      1: Step Time =    1.000,"P-23-1",           589,       195.189,       169.817,            0.,NA,NA,"",   1.00169E+06,   999.922E+03,   999.922E+03
C:/temp/Job-23.odb,Step-1,Increment      1: Step Time =    1.000,"P-23-1",           590,       195.160,       159.779,            0.,NA,NA,"",   1.00303E+06,   1.00003E+06,   1.00003E+06
C:/temp/Job-23.odb,Step-1,Increment      1: Step Time =    1.000,"P-23-1",           591,          195.,       149.769,            0.,NA,NA,"",   1.00427E+06,   1.00010E+06,   1.00010E+06
C:/temp/Job-23.odb,Step-1,Increment      1: Step Time =    1.000,"P-23-1",           592,       195.185,       139.879,            0.,NA,NA,"",   1.00523E+06,   1.00013E+06,   1.00013E+06
C:/temp/Job-23.odb,Step-1,Increment      1: Step Time =    1.000,"P-23-1",           593,       195.294,       129.959,            0.,NA,NA,"",   1.00582E+06,   1.00011E+06,   1.00011E+06
C:/temp/Job-23.odb,Step-1,Increment      1: Step Time =    1.000,"P-23-1",           594,       195.103,       119.955,            0.,NA,NA,"",   1.00606E+06,   1.00007E+06,   1.00007E+06
C:/temp/Job-23.odb,Step-1,Increment      1: Step Time =    1.000,"P-23-1",           595,       195.070,       110.026,            0.,NA,NA,"",   1.00611E+06,   1.00003E+06,   1.00003E+06
C:/temp/Job-23.odb,Step-1,Increment      1: Step Time =    1.000,"P-23-1",           596,       195.179,       100.030,            0.,NA,NA,"",   1.00610E+06,   999.999E+03,   999.999E+03
C:/temp/Job-23.odb,Step-1,Increment      1: Step Time =    1.000,"P-23-1",           597,       195.089,       90.0899,            0.,NA,NA,"",   1.00611E+06,   1.00002E+06,   1.00002E+06
C:/temp/Job-23.odb,Step-1,Increment      1: Step Time =    1.000,"P-23-1",           598,       195.152,       80.1904,            0.,NA,NA,"",   1.00606E+06,   1.00007E+06,   1.00007E+06
C:/temp/Job-23.odb,Step-1,Increment      1: Step Time =    1.000,"P-23-1",           599,       195.164,       70.2440,            0.,NA,NA,"",   1.00581E+06,   1.00011E+06,   1.00011E+06
C:/temp/Job-23.odb,Step-1,Increment      1: Step Time =    1.000,"P-23-1",           600,       194.315,       60.4248,            0.,NA,NA,"",   1.00528E+06,   1.00022E+06,   1.00022E+06
C:/temp/Job-23.odb,Step-1,Increment      1: Step Time =    1.000,"P-23-1",           601,       194.165,       49.1705,            0.,NA,NA,"",   1.00411E+06,   1.00008E+06,   1.00008E+06
C:/temp/Job-23.odb,Step-1,Increment      1: Step Time =    1.000,"P-23-1",           602,       194.998,       39.3483,            0.,NA,NA,"",   1.00291E+06,   1.00001E+06,   1.00001E+06
C:/temp/Job-23.odb,Step-1,Increment      1: Step Time =    1.000,"P-23-1",           603,       195.274,       29.6897,            0.,NA,NA,"",   1.00164E+06,   999.916E+03,   999.916E+03
C:/temp/Job-23.odb,Step-1,Increment      1: Step Time =    1.000,"P-23-1",           604,       195.150,       19.9611,            0.,NA,NA,"",   1.00056E+06,   999.823E+03,   999.823E+03
C:/temp/Job-23.odb,Step-1,Increment      1: Step Time =    1.000,"P-23-1",           605,       195.017,       10.0417,            0.,NA,NA,"",   999.960E+03,   999.791E+03,   999.791E+03
C:/temp/Job-23.odb,Step-1,Increment      1: Step Time =    1.000,"P-23-1",           606,       10.0679,       194.866,            0.,NA,NA,"",   1.18464E+06,   1.19871E+06,   1.19871E+06
C:/temp/Job-23.odb,Step-1,Increment      1: Step Time =    1.000,"P-23-1",           607,       20.1008,       194.627,            0.,NA,NA,"",   1.04672E+06,   1.05237E+06,   1.05237E+06
C:/temp/Job-23.odb,Step-1,Increment      1: Step Time =    1.000,"P-23-1",           608,       30.3473,       194.181,            0.,NA,NA,"",   989.589E+03,   992.576E+03,   992.576E+03
C:/temp/Job-23.odb,Step-1,Increment      1: Step Time =    1.000,"P-23-1",           609,       40.6723,       194.405,            0.,NA,NA,"",   960.325E+03,   961.975E+03,   961.975E+03
C:/temp/Job-23.odb,Step-1,Increment      1: Step Time =    1.000,"P-23-1",           610,       50.4310,       195.376,            0.,NA,NA,"",   945.346E+03,   945.932E+03,   945.932E+03
C:/temp/Job-23.odb,Step-1,Increment      1: Step Time =    1.000,"P-23-1",           611,       60.1726,       195.663,            0.,NA,NA,"",   940.322E+03,   940.636E+03,   940.636E+03
C:/temp/Job-23.odb,Step-1,Increment      1: Step Time =    1.000,"P-23-1",           612,       69.9499,       195.396,            0.,NA,NA,"",   941.493E+03,   941.693E+03,   941.693E+03
C:/temp/Job-23.odb,Step-1,Increment      1: Step Time =    1.000,"P-23-1",           613,       79.8575,       194.983,            0.,NA,NA,"",   945.354E+03,   945.497E+03,   945.497E+03
C:/temp/Job-23.odb,Step-1,Increment      1: Step Time =    1.000,"P-23-1",           614,       89.9142,       194.916,            0.,NA,NA,"",   950.087E+03,   950.186E+03,   950.186E+03
C:/temp/Job-23.odb,Step-1,Increment      1: Step Time =    1.000,"P-23-1",           615,       99.9489,       195.140,            0.,NA,NA,"",   955.533E+03,   955.573E+03,   955.573E+03
C:/temp/Job-23.odb,Step-1,Increment      1: Step Time =    1.000,"P-23-1",           616,       109.832,       195.300,            0.,NA,NA,"",   961.841E+03,   961.863E+03,   961.863E+03
C:/temp/Job-23.odb,Step-1,Increment      1: Step Time =    1.000,"P-23-1",           617,       119.635,       195.375,            0.,NA,NA,"",   968.715E+03,   968.705E+03,   968.705E+03
C:/temp/Job-23.odb,Step-1,Increment      1: Step Time =    1.000,"P-23-1",           618,       129.441,       195.094,            0.,NA,NA,"",   975.796E+03,   975.763E+03,   975.763E+03
C:/temp/Job-23.odb,Step-1,Increment      1: Step Time =    1.000,"P-23-1",           619,       139.356,       193.932,            0.,NA,NA,"",   982.652E+03,   982.591E+03,   982.591E+03
C:/temp/Job-23.odb,Step-1,Increment      1: Step Time =    1.000,"P-23-1",           620,       150.683,       194.206,            0.,NA,NA,"",   988.738E+03,   988.534E+03,   988.534E+03
C:/temp/Job-23.odb,Step-1,Increment      1: Step Time =    1.000,"P-23-1",           621,       160.445,       195.347,            0.,NA,NA,"",   992.864E+03,   992.781E+03,   992.781E+03
C:/temp/Job-23.odb,Step-1,Increment      1: Step Time =    1.000,"P-23-1",           622,       170.227,       195.130,            0.,NA,NA,"",   996.278E+03,   996.174E+03,   996.174E+03
C:/temp/Job-23.odb,Step-1,Increment      1: Step Time =    1.000,"P-23-1",           623,       180.149,       194.923,            0.,NA,NA,"",   998.605E+03,   998.477E+03,   998.477E+03
C:/temp/Job-23.odb,Step-1,Increment      1: Step Time =    1.000,"P-23-1",           624,       190.039,       195.009,            0.,NA,NA,"",   999.775E+03,   999.669E+03,   999.669E+03
C:/temp/Job-23.odb,Step-1,Increment      1: Step Time =    1.000,"P-23-1",           625,       5.05880,       15.1109,            0.,NA,NA,"",   1.03204E+06,   1.11816E+06,   1.11816E+06
C:/temp/Job-23.odb,Step-1,Increment      1: Step Time =    1.000,"P-23-1",           626,       4.97150,       25.0371,            0.,NA,NA,"",   946.353E+03,   1.04006E+06,   1.04006E+06
C:/temp/Job-23.odb,Step-1,Increment      1: Step Time =    1.000,"P-23-1",           627,       4.92699,       35.0196,            0.,NA,NA,"",   902.288E+03,   999.599E+03,   999.599E+03
C:/temp/Job-23.odb,Step-1,Increment      1: Step Time =    1.000,"P-23-1",           628,       5.19559,       45.1227,            0.,NA,NA,"",   876.796E+03,   975.823E+03,   975.823E+03
C:/temp/Job-23.odb,Step-1,Increment      1: Step Time =    1.000,"P-23-1",           629,       5.52854,       55.3779,            0.,NA,NA,"",   860.086E+03,   960.303E+03,   960.303E+03
C:/temp/Job-23.odb,Step-1,Increment      1: Step Time =    1.000,"P-23-1",           630,       4.54775,       65.4161,            0.,NA,NA,"",   845.481E+03,   947.736E+03,   947.736E+03
C:/temp/Job-23.odb,Step-1,Increment      1: Step Time =    1.000,"P-23-1",           631,       4.34030,       75.2011,            0.,NA,NA,"",   837.076E+03,   940.082E+03,   940.082E+03
C:/temp/Job-23.odb,Step-1,Increment      1: Step Time =    1.000,"P-23-1",           632,       4.66240,       85.0487,            0.,NA,NA,"",   832.978E+03,   935.920E+03,   935.920E+03
C:/temp/Job-23.odb,Step-1,Increment      1: Step Time =    1.000,"P-23-1",           633,       5.07093,       95.0039,            0.,NA,NA,"",    831.36E+03,   934.153E+03,   934.153E+03
C:/temp/Job-23.odb,Step-1,Increment      1: Step Time =    1.000,"P-23-1",           634,       5.10288,       105.065,            0.,NA,NA,"",   831.690E+03,   934.338E+03,   934.338E+03
C:/temp/Job-23.odb,Step-1,Increment      1: Step Time =    1.000,"P-23-1",           635,       5.08570,       115.246,            0.,NA,NA,"",   834.065E+03,   936.674E+03,   936.674E+03
C:/temp/Job-23.odb,Step-1,Increment      1: Step Time =    1.000,"P-23-1",           636,       4.69558,       125.407,            0.,NA,NA,"",   838.629E+03,   941.161E+03,   941.161E+03
C:/temp/Job-23.odb,Step-1,Increment      1: Step Time =    1.000,"P-23-1",           637,       4.55644,       135.480,            0.,NA,NA,"",   846.500E+03,   948.632E+03,   948.632E+03
C:/temp/Job-23.odb,Step-1,Increment      1: Step Time =    1.000,"P-23-1",           638,       4.64574,       145.388,            0.,NA,NA,"",   858.385E+03,   959.621E+03,   959.621E+03
C:/temp/Job-23.odb,Step-1,Increment      1: Step Time =    1.000,"P-23-1",           639,       4.56639,       155.194,            0.,NA,NA,"",   874.846E+03,   974.901E+03,   974.901E+03
C:/temp/Job-23.odb,Step-1,Increment      1: Step Time =    1.000,"P-23-1",           640,       4.65384,       169.969,            0.,NA,NA,"",   920.267E+03,   1.01664E+06,   1.01664E+06
C:/temp/Job-23.odb,Step-1,Increment      1: Step Time =    1.000,"P-23-1",           641,       4.93016,       179.870,            0.,NA,NA,"",   981.886E+03,   1.07273E+06,   1.07273E+06
C:/temp/Job-23.odb,Step-1,Increment      1: Step Time =    1.000,"P-23-1",           642,       5.05226,       189.893,            0.,NA,NA,"",   1.12819E+06,   1.20356E+06,   1.20356E+06
C:/temp/Job-23.odb,Step-1,Increment      1: Step Time =    1.000,"P-23-1",           643,       104.832,       109.885,            0.,NA,NA,"",   1.14518E+06,   1.14409E+06,   1.14409E+06
C:/temp/Job-23.odb,Step-1,Increment      1: Step Time =    1.000,"P-23-1",           644,       109.746,       105.074,            0.,NA,NA,"",   1.03995E+06,   997.275E+03,   997.275E+03
C:/temp/Job-23.odb,Step-1,Increment      1: Step Time =    1.000,"P-23-1",           645,       109.774,       95.1020,            0.,NA,NA,"",   1.02929E+06,   987.719E+03,   987.719E+03
C:/temp/Job-23.odb,Step-1,Increment      1: Step Time =    1.000,"P-23-1",           646,       105.001,       90.2513,            0.,NA,NA,"",   1.15007E+06,   1.14512E+06,   1.14512E+06
C:/temp/Job-23.odb,Step-1,Increment      1: Step Time =    1.000,"P-23-1",           647,       95.0501,       90.1127,            0.,NA,NA,"",   1.14209E+06,   1.14372E+06,   1.14372E+06
C:/temp/Job-23.odb,Step-1,Increment      1: Step Time =    1.000,"P-23-1",           648,       90.2128,       94.8963,            0.,NA,NA,"",   1.03244E+06,   999.611E+03,   999.611E+03
C:/temp/Job-23.odb,Step-1,Increment      1: Step Time =    1.000,"P-23-1",           649,       90.2245,       104.860,            0.,NA,NA,"",   1.01909E+06,   987.372E+03,   987.372E+03
C:/temp/Job-23.odb,Step-1,Increment      1: Step Time =    1.000,"P-23-1",           650,       94.9762,       109.727,            0.,NA,NA,"",   1.14750E+06,   1.14636E+06,   1.14636E+06
C:/temp/Job-23.odb,Step-1,Increment      1: Step Time =    1.000,"P-23-1",           651,       100.033,       90.3574,            0.,NA,NA,"",   1.12307E+06,   1.21331E+06,   1.21331E+06
C:/temp/Job-23.odb,Step-1,Increment      1: Step Time =    1.000,"P-23-1",           652,       109.621,       100.075,            0.,NA,NA,"",   671.522E+03,   665.072E+03,   665.072E+03
C:/temp/Job-23.odb,Step-1,Increment      1: Step Time =    1.000,"P-23-1",           653,       90.3855,       99.8935,            0.,NA,NA,"",   664.220E+03,   666.652E+03,   666.652E+03
C:/temp/Job-23.odb,Step-1,Increment      1: Step Time =    1.000,"P-23-1",           654,       99.9000,       109.639,            0.,NA,NA,"",   1.12287E+06,   1.21341E+06,   1.21341E+06
C:/temp/Job-23.odb,Step-1,Increment      1: Step Time =    1.000,"P-23-1",           655,       139.777,       8.76292,            0.,NA,NA,"",   984.486E+03,   984.274E+03,   984.274E+03
C:/temp/Job-23.odb,Step-1,Increment      1: Step Time =    1.000,"P-23-1",           656,       130.356,       9.26773,            0.,NA,NA,"",   979.826E+03,   979.646E+03,   979.646E+03
C:/temp/Job-23.odb,Step-1,Increment      1: Step Time =    1.000,"P-23-1",           657,       120.506,       10.1642,            0.,NA,NA,"",   975.123E+03,   975.058E+03,   975.058E+03
C:/temp/Job-23.odb,Step-1,Increment      1: Step Time =    1.000,"P-23-1",           658,       110.123,       10.3051,            0.,NA,NA,"",   969.627E+03,   969.717E+03,   969.717E+03
C:/temp/Job-23.odb,Step-1,Increment      1: Step Time =    1.000,"P-23-1",           659,       100.102,       9.83443,            0.,NA,NA,"",   963.955E+03,   964.151E+03,   964.151E+03
C:/temp/Job-23.odb,Step-1,Increment      1: Step Time =    1.000,"P-23-1",           660,       80.8127,       9.28647,            0.,NA,NA,"",   956.247E+03,   956.669E+03,   956.669E+03
C:/temp/Job-23.odb,Step-1,Increment      1: Step Time =    1.000,"P-23-1",           661,       71.3947,       9.66392,            0.,NA,NA,"",   956.301E+03,   956.953E+03,   956.953E+03
C:/temp/Job-23.odb,Step-1,Increment      1: Step Time =    1.000,"P-23-1",           662,       62.4172,       11.2104,            0.,NA,NA,"",   962.672E+03,   963.984E+03,   963.984E+03
C:/temp/Job-23.odb,Step-1,Increment      1: Step Time =    1.000,"P-23-1",           663,       190.352,       139.638,            0.,NA,NA,"",   1.00512E+06,   1.00038E+06,   1.00038E+06
C:/temp/Job-23.odb,Step-1,Increment      1: Step Time =    1.000,"P-23-1",           664,       190.645,       129.930,            0.,NA,NA,"",   1.00558E+06,   1.00032E+06,   1.00032E+06
C:/temp/Job-23.odb,Step-1,Increment      1: Step Time =    1.000,"P-23-1",           665,       190.146,       119.985,            0.,NA,NA,"",    1.0057E+06,   1.00022E+06,   1.00022E+06
C:/temp/Job-23.odb,Step-1,Increment      1: Step Time =    1.000,"P-23-1",           666,       190.083,       109.973,            0.,NA,NA,"",   1.00564E+06,   1.00007E+06,   1.00007E+06
C:/temp/Job-23.odb,Step-1,Increment      1: Step Time =    1.000,"P-23-1",           667,       190.089,       90.2282,            0.,NA,NA,"",   1.00565E+06,   1.00008E+06,   1.00008E+06
C:/temp/Job-23.odb,Step-1,Increment      1: Step Time =    1.000,"P-23-1",           668,       190.301,       80.2885,            0.,NA,NA,"",   1.00570E+06,   1.00021E+06,   1.00021E+06
C:/temp/Job-23.odb,Step-1,Increment      1: Step Time =    1.000,"P-23-1",           669,       190.402,       70.5826,            0.,NA,NA,"",   1.00555E+06,   1.00031E+06,   1.00031E+06
C:/temp/Job-23.odb,Step-1,Increment      1: Step Time =    1.000,"P-23-1",           670,       189.392,       61.7862,            0.,NA,NA,"",   1.00521E+06,   1.00047E+06,   1.00047E+06
C:/temp/Job-23.odb,Step-1,Increment      1: Step Time =    1.000,"P-23-1",           671,       60.2967,       191.305,            0.,NA,NA,"",   955.630E+03,   956.524E+03,   956.524E+03
C:/temp/Job-23.odb,Step-1,Increment      1: Step Time =    1.000,"P-23-1",           672,       69.7318,       190.705,            0.,NA,NA,"",   955.488E+03,   956.136E+03,   956.136E+03
C:/temp/Job-23.odb,Step-1,Increment      1: Step Time =    1.000,"P-23-1",           673,       79.5589,       189.877,            0.,NA,NA,"",   958.143E+03,   958.634E+03,   958.634E+03
C:/temp/Job-23.odb,Step-1,Increment      1: Step Time =    1.000,"P-23-1",           674,       89.9605,       189.836,            0.,NA,NA,"",   960.753E+03,   961.048E+03,   961.048E+03
C:/temp/Job-23.odb,Step-1,Increment      1: Step Time =    1.000,"P-23-1",           675,       100.006,       190.360,            0.,NA,NA,"",   963.601E+03,   963.772E+03,   963.772E+03
C:/temp/Job-23.odb,Step-1,Increment      1: Step Time =    1.000,"P-23-1",           676,       109.709,       190.625,            0.,NA,NA,"",   968.093E+03,   968.169E+03,   968.169E+03
C:/temp/Job-23.odb,Step-1,Increment      1: Step Time =    1.000,"P-23-1",           677,       119.214,       190.799,            0.,NA,NA,"",   973.301E+03,   973.279E+03,   973.279E+03
C:/temp/Job-23.odb,Step-1,Increment      1: Step Time =    1.000,"P-23-1",           678,       9.74649,       61.3463,            0.,NA,NA,"",   865.924E+03,   961.765E+03,   961.765E+03
C:/temp/Job-23.odb,Step-1,Increment      1: Step Time =    1.000,"P-23-1",           679,       8.61142,       70.6892,            0.,NA,NA,"",   852.524E+03,   950.951E+03,   950.951E+03
C:/temp/Job-23.odb,Step-1,Increment      1: Step Time =    1.000,"P-23-1",           680,       8.88366,       80.0497,            0.,NA,NA,"",   846.727E+03,   945.517E+03,   945.517E+03
C:/temp/Job-23.odb,Step-1,Increment      1: Step Time =    1.000,"P-23-1",           681,       9.89362,       89.8470,            0.,NA,NA,"",   845.309E+03,   943.476E+03,   943.476E+03
C:/temp/Job-23.odb,Step-1,Increment      1: Step Time =    1.000,"P-23-1",           682,       10.2936,       100.014,            0.,NA,NA,"",   844.890E+03,   942.809E+03,   942.809E+03
C:/temp/Job-23.odb,Step-1,Increment      1: Step Time =    1.000,"P-23-1",           683,       10.2524,       110.352,            0.,NA,NA,"",   846.437E+03,   944.191E+03,   944.191E+03
C:/temp/Job-23.odb,Step-1,Increment      1: Step Time =    1.000,"P-23-1",           684,       9.76528,       120.818,            0.,NA,NA,"",   849.965E+03,   947.651E+03,   947.651E+03
C:/temp/Job-23.odb,Step-1,Increment      1: Step Time =    1.000,"P-23-1",           685,       9.04787,       131.016,            0.,NA,NA,"",   855.707E+03,   953.311E+03,   953.311E+03
C:/temp/Job-23.odb,Step-1,Increment      1: Step Time =    1.000,"P-23-1",           686,       9.26096,       140.887,            0.,NA,NA,"",   867.422E+03,   963.421E+03,   963.421E+03
C:/temp/Job-23.odb,Step-1,Increment      1: Step Time =    1.000,"P-23-1",           687,       90.3755,       9.54312,            0.,NA,NA,"",   959.461E+03,   959.751E+03,   959.751E+03
C:/temp/Job-23.odb,Step-1,Increment      1: Step Time =    1.000,"P-23-1",           688,       190.365,       100.047,            0.,NA,NA,"",   1.00563E+06,   1.00001E+06,   1.00001E+06
C:/temp/Job-23.odb,Step-1,Increment      1: Step Time =    1.000,"P-23-1",           689,       128.606,       190.280,            0.,NA,NA,"",   979.155E+03,   979.018E+03,   979.018E+03
C:/temp/Job-23.odb,Step-1,Increment      1: Step Time =    1.000,"P-23-1",           690,       137.607,       188.451,            0.,NA,NA,"",   985.081E+03,   984.798E+03,   984.798E+03
C:/temp/Job-23.odb,Step-1,Increment      1: Step Time =    1.000,"P-23-1",           691,       107.330,       107.524,            0.,NA,NA,"",   1.18222E+06,   1.13163E+06,   1.13163E+06
C:/temp/Job-23.odb,Step-1,Increment      1: Step Time =    1.000,"P-23-1",           692,       92.5889,       92.4642,            0.,NA,NA,"",   1.17458E+06,   1.13101E+06,   1.13101E+06
C:/temp/Job-23.odb,Step-1,Increment      1: Step Time =    1.000,"P-23-1",           693,       92.5710,       107.331,            0.,NA,NA,"",   1.17252E+06,   1.12700E+06,   1.12700E+06
C:/temp/Job-23.odb,Step-1,Increment      1: Step Time =    1.000,"P-23-1",           694,       107.418,       92.6414,            0.,NA,NA,"",   1.17892E+06,   1.12641E+06,   1.12641E+06
C:/temp/Job-23.odb,Step-1,Increment      1: Step Time =    1.000,"P-23-1",           695,       15.8306,       60.0581,            0.,NA,NA,"",   887.103E+03,   974.448E+03,   974.448E+03
C:/temp/Job-23.odb,Step-1,Increment      1: Step Time =    1.000,"P-23-1",           696,       185.565,       139.194,            0.,NA,NA,"",   1.00525E+06,   1.00076E+06,   1.00076E+06
C:/temp/Job-23.odb,Step-1,Increment      1: Step Time =    1.000,"P-23-1",           697,       60.3899,       17.6680,            0.,NA,NA,"",   980.799E+03,   984.449E+03,   984.449E+03
C:/temp/Job-23.odb,Step-1,Increment      1: Step Time =    1.000,"P-23-1",           698,       139.455,       181.700,            0.,NA,NA,"",   990.380E+03,   989.688E+03,   989.688E+03
C:/temp/Job-23.odb,Step-1,Increment      1: Step Time =    1.000,"P-23-1",           699,       139.796,       13.2611,            0.,NA,NA,"",   987.087E+03,   986.664E+03,   986.664E+03
C:/temp/Job-23.odb,Step-1,Increment      1: Step Time =    1.000,"P-23-1",           700,       183.125,       60.2907,            0.,NA,NA,"",   1.00538E+06,   1.00100E+06,   1.00100E+06
C:/temp/Job-23.odb,Step-1,Increment      1: Step Time =    1.000,"P-23-1",           701,       13.9516,       141.296,            0.,NA,NA,"",   883.142E+03,   972.689E+03,   972.689E+03
C:/temp/Job-23.odb,Step-1,Increment      1: Step Time =    1.000,"P-23-1",           702,       60.2651,       186.952,            0.,NA,NA,"",   969.114E+03,   971.003E+03,   971.003E+03
C:/temp/Job-23.odb,Step-1,Increment      1: Step Time =    1.000,"P-23-1",           703,       112.318,       102.616,            0.,NA,NA,"",   851.407E+03,   849.121E+03,   849.121E+03
C:/temp/Job-23.odb,Step-1,Increment      1: Step Time =    1.000,"P-23-1",           704,       102.341,       112.373,            0.,NA,NA,"",   1.05467E+06,   1.10469E+06,   1.10469E+06
C:/temp/Job-23.odb,Step-1,Increment      1: Step Time =    1.000,"P-23-1",           705,       87.6930,       97.3313,            0.,NA,NA,"",   844.057E+03,   852.503E+03,   852.503E+03
C:/temp/Job-23.odb,Step-1,Increment      1: Step Time =    1.000,"P-23-1",           706,       97.5221,       87.6249,            0.,NA,NA,"",   1.05506E+06,   1.10555E+06,   1.10555E+06
C:/temp/Job-23.odb,Step-1,Increment      1: Step Time =    1.000,"P-23-1",           707,       102.573,       87.7299,            0.,NA,NA,"",   1.06003E+06,   1.10741E+06,   1.10741E+06
C:/temp/Job-23.odb,Step-1,Increment      1: Step Time =    1.000,"P-23-1",           708,       87.7134,       102.368,            0.,NA,NA,"",   831.686E+03,   842.342E+03,   842.342E+03
C:/temp/Job-23.odb,Step-1,Increment      1: Step Time =    1.000,"P-23-1",           709,       97.3542,       112.253,            0.,NA,NA,"",   1.05994E+06,   1.10863E+06,   1.10863E+06
C:/temp/Job-23.odb,Step-1,Increment      1: Step Time =    1.000,"P-23-1",           710,       112.308,       97.5663,            0.,NA,NA,"",   844.086E+03,   843.236E+03,   843.236E+03
C:/temp/Job-23.odb,Step-1,Increment      1: Step Time =    1.000,"P-23-1",           711,       69.2839,       185.896,            0.,NA,NA,"",   968.420E+03,   969.877E+03,   969.877E+03
C:/temp/Job-23.odb,Step-1,Increment      1: Step Time =    1.000,"P-23-1",           712,       13.3957,       131.638,            0.,NA,NA,"",   869.342E+03,   961.689E+03,   961.689E+03
C:/temp/Job-23.odb,Step-1,Increment      1: Step Time =    1.000,"P-23-1",           713,       130.825,       13.9556,            0.,NA,NA,"",   983.893E+03,   983.541E+03,   983.541E+03
C:/temp/Job-23.odb,Step-1,Increment      1: Step Time =    1.000,"P-23-1",           714,       185.888,       71.0737,            0.,NA,NA,"",   1.00553E+06,   1.00060E+06,   1.00060E+06
C:/temp/Job-23.odb,Step-1,Increment      1: Step Time =    1.000,"P-23-1",           715,       127.507,       185.644,            0.,NA,NA,"",   982.534E+03,   982.267E+03,   982.267E+03
C:/temp/Job-23.odb,Step-1,Increment      1: Step Time =    1.000,"P-23-1",           716,       12.7627,       71.0119,            0.,NA,NA,"",   864.657E+03,   958.292E+03,   958.292E+03
C:/temp/Job-23.odb,Step-1,Increment      1: Step Time =    1.000,"P-23-1",           717,       186.097,       129.903,            0.,NA,NA,"",   1.00556E+06,   1.00063E+06,   1.00063E+06
C:/temp/Job-23.odb,Step-1,Increment      1: Step Time =    1.000,"P-23-1",           718,       72.4527,       14.3610,            0.,NA,NA,"",   968.122E+03,   969.290E+03,   969.290E+03
C:/temp/Job-23.odb,Step-1,Increment      1: Step Time =    1.000,"P-23-1",           719,       78.9754,       184.829,            0.,NA,NA,"",   969.551E+03,   970.666E+03,   970.666E+03
C:/temp/Job-23.odb,Step-1,Increment      1: Step Time =    1.000,"P-23-1",           720,       14.5029,       121.813,            0.,NA,NA,"",   864.117E+03,   956.485E+03,   956.485E+03
C:/temp/Job-23.odb,Step-1,Increment      1: Step Time =    1.000,"P-23-1",           721,       118.754,       186.374,            0.,NA,NA,"",   977.844E+03,   977.822E+03,   977.822E+03
C:/temp/Job-23.odb,Step-1,Increment      1: Step Time =    1.000,"P-23-1",           722,       121.168,       15.2044,            0.,NA,NA,"",   980.716E+03,   980.590E+03,   980.590E+03
C:/temp/Job-23.odb,Step-1,Increment      1: Step Time =    1.000,"P-23-1",           723,       13.2221,       79.7578,            0.,NA,NA,"",   859.156E+03,   953.256E+03,   953.256E+03
C:/temp/Job-23.odb,Step-1,Increment      1: Step Time =    1.000,"P-23-1",           724,       185.641,       79.9853,            0.,NA,NA,"",   1.00551E+06,   1.00042E+06,   1.00042E+06
C:/temp/Job-23.odb,Step-1,Increment      1: Step Time =    1.000,"P-23-1",           725,       185.241,       120.323,            0.,NA,NA,"",   1.00552E+06,   1.00045E+06,   1.00045E+06
C:/temp/Job-23.odb,Step-1,Increment      1: Step Time =    1.000,"P-23-1",           726,       81.2772,       13.8224,            0.,NA,NA,"",   966.345E+03,   967.245E+03,   967.245E+03
C:/temp/Job-23.odb,Step-1,Increment      1: Step Time =    1.000,"P-23-1",           727,       90.3918,       184.940,            0.,NA,NA,"",   969.920E+03,   970.565E+03,   970.565E+03
C:/temp/Job-23.odb,Step-1,Increment      1: Step Time =    1.000,"P-23-1",           728,       15.3414,       110.363,            0.,NA,NA,"",   860.171E+03,   952.590E+03,   952.590E+03
C:/temp/Job-23.odb,Step-1,Increment      1: Step Time =    1.000,"P-23-1",           729,       109.645,       186.016,            0.,NA,NA,"",   974.093E+03,   974.269E+03,   974.269E+03
C:/temp/Job-23.odb,Step-1,Increment      1: Step Time =    1.000,"P-23-1",           730,       14.8574,       89.1538,            0.,NA,NA,"",   858.858E+03,   951.896E+03,   951.896E+03
C:/temp/Job-23.odb,Step-1,Increment      1: Step Time =    1.000,"P-23-1",           731,       185.153,       109.622,            0.,NA,NA,"",   1.00525E+06,   1.00014E+06,   1.00014E+06
C:/temp/Job-23.odb,Step-1,Increment      1: Step Time =    1.000,"P-23-1",           732,       109.791,       15.3457,            0.,NA,NA,"",   975.919E+03,   976.150E+03,   976.150E+03
C:/temp/Job-23.odb,Step-1,Increment      1: Step Time =    1.000,"P-23-1",           733,       90.5271,       14.3431,            0.,NA,NA,"",   968.497E+03,   969.123E+03,   969.123E+03
C:/temp/Job-23.odb,Step-1,Increment      1: Step Time =    1.000,"P-23-1",           734,       185.065,       90.5751,            0.,NA,NA,"",   1.00525E+06,   1.00015E+06,   1.00015E+06
C:/temp/Job-23.odb,Step-1,Increment      1: Step Time =    1.000,"P-23-1",           735,       100.076,       85.0459,            0.,NA,NA,"",   1.01411E+06,   1.06951E+06,   1.06951E+06
C:/temp/Job-23.odb,Step-1,Increment      1: Step Time =    1.000,"P-23-1",           736,       115.019,       100.076,            0.,NA,NA,"",   826.952E+03,   841.645E+03,   841.645E+03
C:/temp/Job-23.odb,Step-1,Increment      1: Step Time =    1.000,"P-23-1",           737,       85.0617,       99.8247,            0.,NA,NA,"",   814.215E+03,   841.957E+03,   841.957E+03
C:/temp/Job-23.odb,Step-1,Increment      1: Step Time =    1.000,"P-23-1",           738,       99.7841,       114.948,            0.,NA,NA,"",   1.01407E+06,   1.06962E+06,   1.06962E+06
C:/temp/Job-23.odb,Step-1,Increment      1: Step Time =    1.000,"P-23-1",           739,       112.370,       107.698,            0.,NA,NA,"",   1.04951E+06,   1.02261E+06,   1.02261E+06
C:/temp/Job-23.odb,Step-1,Increment      1: Step Time =    1.000,"P-23-1",           740,       107.354,       112.618,            0.,NA,NA,"",   1.10815E+06,   1.10267E+06,   1.10267E+06
C:/temp/Job-23.odb,Step-1,Increment      1: Step Time =    1.000,"P-23-1",           741,       87.5377,       92.2533,            0.,NA,NA,"",   1.03828E+06,   1.02385E+06,   1.02385E+06
C:/temp/Job-23.odb,Step-1,Increment      1: Step Time =    1.000,"P-23-1",           742,       92.4254,       87.3623,            0.,NA,NA,"",   1.10265E+06,   1.10276E+06,   1.10276E+06
C:/temp/Job-23.odb,Step-1,Increment      1: Step Time =    1.000,"P-23-1",           743,       92.3626,       112.292,            0.,NA,NA,"",   1.10693E+06,   1.10480E+06,   1.10480E+06
C:/temp/Job-23.odb,Step-1,Increment      1: Step Time =    1.000,"P-23-1",           744,       87.5713,       107.364,            0.,NA,NA,"",   1.03198E+06,   1.01763E+06,   1.01763E+06
C:/temp/Job-23.odb,Step-1,Increment      1: Step Time =    1.000,"P-23-1",           745,       107.613,       87.6602,            0.,NA,NA,"",   1.11148E+06,   1.10301E+06,   1.10301E+06
C:/temp/Job-23.odb,Step-1,Increment      1: Step Time =    1.000,"P-23-1",           746,       112.396,       92.5570,            0.,NA,NA,"",   1.04390E+06,   1.01733E+06,   1.01733E+06
C:/temp/Job-23.odb,Step-1,Increment      1: Step Time =    1.000,"P-23-1",           747,       64.6738,       186.537,            0.,NA,NA,"",   968.184E+03,   969.904E+03,   969.904E+03
C:/temp/Job-23.odb,Step-1,Increment      1: Step Time =    1.000,"P-23-1",           748,       17.9375,       136.762,            0.,NA,NA,"",   889.252E+03,   974.485E+03,   974.485E+03
C:/temp/Job-23.odb,Step-1,Increment      1: Step Time =    1.000,"P-23-1",           749,       184.407,       66.4986,            0.,NA,NA,"",   1.00549E+06,   1.00079E+06,   1.00079E+06
C:/temp/Job-23.odb,Step-1,Increment      1: Step Time =    1.000,"P-23-1",           750,       135.411,       13.4917,            0.,NA,NA,"",   985.490E+03,   985.091E+03,   985.091E+03
C:/temp/Job-23.odb,Step-1,Increment      1: Step Time =    1.000,"P-23-1",           751,       185.947,       134.528,            0.,NA,NA,"",   1.00546E+06,   1.00071E+06,   1.00071E+06
C:/temp/Job-23.odb,Step-1,Increment      1: Step Time =    1.000,"P-23-1",           752,       135.606,       183.201,            0.,NA,NA,"",   987.835E+03,   987.329E+03,   987.329E+03
C:/temp/Job-23.odb,Step-1,Increment      1: Step Time =    1.000,"P-23-1",           753,       64.3072,       16.4620,            0.,NA,NA,"",   975.612E+03,   978.093E+03,   978.093E+03
C:/temp/Job-23.odb,Step-1,Increment      1: Step Time =    1.000,"P-23-1",           754,       16.6437,       64.5854,            0.,NA,NA,"",   885.071E+03,   971.933E+03,   971.933E+03
C:/temp/Job-23.odb,Step-1,Increment      1: Step Time =    1.000,"P-23-1",           755,       73.9696,       185.198,            0.,NA,NA,"",   968.865E+03,   970.125E+03,   970.125E+03
C:/temp/Job-23.odb,Step-1,Increment      1: Step Time =    1.000,"P-23-1",           756,       13.6669,       126.818,            0.,NA,NA,"",   865.464E+03,   958.265E+03,   958.265E+03
C:/temp/Job-23.odb,Step-1,Increment      1: Step Time =    1.000,"P-23-1",           757,       126.147,       14.6839,            0.,NA,NA,"",   982.313E+03,   982.042E+03,   982.042E+03
C:/temp/Job-23.odb,Step-1,Increment      1: Step Time =    1.000,"P-23-1",           758,       186.172,       75.4361,            0.,NA,NA,"",   1.00556E+06,   1.00050E+06,   1.00050E+06
C:/temp/Job-23.odb,Step-1,Increment      1: Step Time =    1.000,"P-23-1",           759,       123.178,       186.212,            0.,NA,NA,"",   980.122E+03,   979.958E+03,   979.958E+03
C:/temp/Job-23.odb,Step-1,Increment      1: Step Time =    1.000,"P-23-1",           760,       12.8520,       75.3151,            0.,NA,NA,"",   861.314E+03,   955.332E+03,   955.332E+03
C:/temp/Job-23.odb,Step-1,Increment      1: Step Time =    1.000,"P-23-1",           761,       185.904,       125.211,            0.,NA,NA,"",   1.00559E+06,   1.00055E+06,   1.00055E+06
C:/temp/Job-23.odb,Step-1,Increment      1: Step Time =    1.000,"P-23-1",           762,       76.8088,       13.8999,            0.,NA,NA,"",   966.597E+03,   967.553E+03,   967.553E+03
C:/temp/Job-23.odb,Step-1,Increment      1: Step Time =    1.000,"P-23-1",           763,       84.7998,       183.728,            0.,NA,NA,"",   971.655E+03,   972.671E+03,   972.671E+03
C:/temp/Job-23.odb,Step-1,Increment      1: Step Time =    1.000,"P-23-1",           764,       16.4018,       116.292,            0.,NA,NA,"",   865.932E+03,   956.649E+03,   956.649E+03
C:/temp/Job-23.odb,Step-1,Increment      1: Step Time =    1.000,"P-23-1",           765,       115.424,       16.4543,            0.,NA,NA,"",   979.617E+03,   979.718E+03,   979.718E+03
C:/temp/Job-23.odb,Step-1,Increment      1: Step Time =    1.000,"P-23-1",           766,       114.252,       186.253,            0.,NA,NA,"",   975.845E+03,   975.928E+03,   975.928E+03
C:/temp/Job-23.odb,Step-1,Increment      1: Step Time =    1.000,"P-23-1",           767,       184.175,       85.1704,            0.,NA,NA,"",   1.00534E+06,   1.00032E+06,   1.00032E+06
C:/temp/Job-23.odb,Step-1,Increment      1: Step Time =    1.000,"P-23-1",           768,       13.8487,       84.3040,            0.,NA,NA,"",   858.171E+03,   952.019E+03,   952.019E+03
C:/temp/Job-23.odb,Step-1,Increment      1: Step Time =    1.000,"P-23-1",           769,       183.865,       114.956,            0.,NA,NA,"",   1.00532E+06,   1.00033E+06,   1.00033E+06
C:/temp/Job-23.odb,Step-1,Increment      1: Step Time =    1.000,"P-23-1",           770,       85.8519,       14.0408,            0.,NA,NA,"",   967.138E+03,   967.907E+03,   967.907E+03
C:/temp/Job-23.odb,Step-1,Increment      1: Step Time =    1.000,"P-23-1",           771,       95.3742,       185.448,            0.,NA,NA,"",   969.939E+03,   970.457E+03,   970.457E+03
C:/temp/Job-23.odb,Step-1,Increment      1: Step Time =    1.000,"P-23-1",           772,       15.1502,       105.295,            0.,NA,NA,"",   857.920E+03,   950.948E+03,   950.948E+03
C:/temp/Job-23.odb,Step-1,Increment      1: Step Time =    1.000,"P-23-1",           773,       104.933,       185.880,            0.,NA,NA,"",   972.415E+03,   972.715E+03,   972.715E+03
C:/temp/Job-23.odb,Step-1,Increment      1: Step Time =    1.000,"P-23-1",           774,       16.5868,       94.6703,            0.,NA,NA,"",   862.296E+03,   953.518E+03,   953.518E+03
C:/temp/Job-23.odb,Step-1,Increment      1: Step Time =    1.000,"P-23-1",           775,       185.496,       104.768,            0.,NA,NA,"",   1.00521E+06,   1.00006E+06,   1.00006E+06
C:/temp/Job-23.odb,Step-1,Increment      1: Step Time =    1.000,"P-23-1",           776,       104.831,       14.9250,            0.,NA,NA,"",   973.471E+03,   973.809E+03,   973.809E+03
C:/temp/Job-23.odb,Step-1,Increment      1: Step Time =    1.000,"P-23-1",           777,       95.3022,       14.5462,            0.,NA,NA,"",   969.953E+03,   970.497E+03,   970.497E+03
C:/temp/Job-23.odb,Step-1,Increment      1: Step Time =    1.000,"P-23-1",           778,       185.382,       95.3866,            0.,NA,NA,"",   1.00520E+06,   1.00006E+06,   1.00006E+06
C:/temp/Job-23.odb,Step-1,Increment      1: Step Time =    1.000,"P-23-1",           779,       94.7158,       114.853,            0.,NA,NA,"",   1.07003E+06,   1.08868E+06,   1.08868E+06
C:/temp/Job-23.odb,Step-1,Increment      1: Step Time =    1.000,"P-23-1",           780,       104.856,       115.154,            0.,NA,NA,"",   1.06595E+06,   1.08386E+06,   1.08386E+06
C:/temp/Job-23.odb,Step-1,Increment      1: Step Time =    1.000,"P-23-1",           781,       114.984,       94.9832,            0.,NA,NA,"",   965.355E+03,   954.955E+03,   954.955E+03
C:/temp/Job-23.odb,Step-1,Increment      1: Step Time =    1.000,"P-23-1",           782,       115.025,       105.219,            0.,NA,NA,"",   970.393E+03,   959.222E+03,   959.222E+03
C:/temp/Job-23.odb,Step-1,Increment      1: Step Time =    1.000,"P-23-1",           783,       84.9593,       94.7109,            0.,NA,NA,"",   959.702E+03,   962.443E+03,   962.443E+03
C:/temp/Job-23.odb,Step-1,Increment      1: Step Time =    1.000,"P-23-1",           784,       84.9991,       104.896,            0.,NA,NA,"",   950.017E+03,   954.260E+03,   954.260E+03
C:/temp/Job-23.odb,Step-1,Increment      1: Step Time =    1.000,"P-23-1",           785,       94.9093,       84.8134,            0.,NA,NA,"",   1.06429E+06,   1.08481E+06,   1.08481E+06
C:/temp/Job-23.odb,Step-1,Increment      1: Step Time =    1.000,"P-23-1",           786,       105.203,       85.0928,            0.,NA,NA,"",   1.07201E+06,   1.08686E+06,   1.08686E+06
C:/temp/Job-23.odb,Step-1,Increment      1: Step Time =    1.000,"P-23-1",           787,       109.876,       110.182,            0.,NA,NA,"",   1.09818E+06,   1.07519E+06,   1.07519E+06
C:/temp/Job-23.odb,Step-1,Increment      1: Step Time =    1.000,"P-23-1",           788,       89.9563,       89.7891,            0.,NA,NA,"",   1.08828E+06,   1.07481E+06,   1.07481E+06
C:/temp/Job-23.odb,Step-1,Increment      1: Step Time =    1.000,"P-23-1",           789,       89.9695,       109.834,            0.,NA,NA,"",   1.08831E+06,   1.07314E+06,   1.07314E+06
C:/temp/Job-23.odb,Step-1,Increment      1: Step Time =    1.000,"P-23-1",           790,       110.008,       90.1069,            0.,NA,NA,"",   1.09632E+06,   1.07189E+06,   1.07189E+06
C:/temp/Job-23.odb,Step-1,Increment      1: Step Time =    1.000,"P-23-1",           791,       56.0588,       182.850,            0.,NA,NA,"",   982.452E+03,   986.381E+03,   986.381E+03
C:/temp/Job-23.odb,Step-1,Increment      1: Step Time =    1.000,"P-23-1",           792,       18.5662,       141.488,            0.,NA,NA,"",   898.054E+03,   980.895E+03,   980.895E+03
C:/temp/Job-23.odb,Step-1,Increment      1: Step Time =    1.000,"P-23-1",           793,       176.591,       58.9766,            0.,NA,NA,"",   1.00590E+06,   1.00175E+06,   1.00175E+06
C:/temp/Job-23.odb,Step-1,Increment      1: Step Time =    1.000,"P-23-1",           794,       143.992,       17.7462,            0.,NA,NA,"",   991.229E+03,   990.518E+03,   990.518E+03
C:/temp/Job-23.odb,Step-1,Increment      1: Step Time =    1.000,"P-23-1",           795,       180.041,       142.861,            0.,NA,NA,"",   1.00540E+06,   1.00129E+06,   1.00129E+06
C:/temp/Job-23.odb,Step-1,Increment      1: Step Time =    1.000,"P-23-1",           796,       137.619,       177.627,            0.,NA,NA,"",   992.504E+03,   991.606E+03,   991.606E+03
C:/temp/Job-23.odb,Step-1,Increment      1: Step Time =    1.000,"P-23-1",           797,       62.0546,       21.8332,            0.,NA,NA,"",   986.899E+03,   991.847E+03,   991.847E+03
C:/temp/Job-23.odb,Step-1,Increment      1: Step Time =    1.000,"P-23-1",           798,       68.4099,       181.018,            0.,NA,NA,"",   979.311E+03,   981.994E+03,   981.994E+03
C:/temp/Job-23.odb,Step-1,Increment      1: Step Time =    1.000,"P-23-1",           799,       17.6280,       132.268,            0.,NA,NA,"",   882.838E+03,   969.608E+03,   969.608E+03
C:/temp/Job-23.odb,Step-1,Increment      1: Step Time =    1.000,"P-23-1",           800,       82.3139,       179.146,            0.,NA,NA,"",   979.748E+03,   981.566E+03,   981.566E+03
C:/temp/Job-23.odb,Step-1,Increment      1: Step Time =    1.000,"P-23-1",           801,       131.581,       18.4343,            0.,NA,NA,"",   987.795E+03,   987.239E+03,   987.239E+03
C:/temp/Job-23.odb,Step-1,Increment      1: Step Time =    1.000,"P-23-1",           802,       182.036,       71.7740,            0.,NA,NA,"",   1.00565E+06,   1.00094E+06,   1.00094E+06
C:/temp/Job-23.odb,Step-1,Increment      1: Step Time =    1.000,"P-23-1",           803,       20.8423,       120.039,            0.,NA,NA,"",   880.826E+03,   965.737E+03,   965.737E+03
C:/temp/Job-23.odb,Step-1,Increment      1: Step Time =    1.000,"P-23-1",           804,       129.968,       180.242,            0.,NA,NA,"",   988.096E+03,   987.604E+03,   987.604E+03
C:/temp/Job-23.odb,Step-1,Increment      1: Step Time =    1.000,"P-23-1",           805,       16.9817,       67.4749,            0.,NA,NA,"",   882.010E+03,   969.340E+03,   969.340E+03
C:/temp/Job-23.odb,Step-1,Increment      1: Step Time =    1.000,"P-23-1",           806,       181.627,       129.827,            0.,NA,NA,"",   1.00573E+06,   1.00104E+06,   1.00104E+06
C:/temp/Job-23.odb,Step-1,Increment      1: Step Time =    1.000,"P-23-1",           807,       69.8926,       19.7593,            0.,NA,NA,"",   980.192E+03,   982.916E+03,   982.916E+03
C:/temp/Job-23.odb,Step-1,Increment      1: Step Time =    1.000,"P-23-1",           808,       118.121,       21.0552,            0.,NA,NA,"",   985.539E+03,   985.571E+03,   985.571E+03
C:/temp/Job-23.odb,Step-1,Increment      1: Step Time =    1.000,"P-23-1",           809,       179.960,       82.1503,            0.,NA,NA,"",   1.00534E+06,   1.00064E+06,   1.00064E+06
C:/temp/Job-23.odb,Step-1,Increment      1: Step Time =    1.000,"P-23-1",           810,       17.5086,       79.1660,            0.,NA,NA,"",   871.566E+03,   960.692E+03,   960.692E+03
C:/temp/Job-23.odb,Step-1,Increment      1: Step Time =    1.000,"P-23-1",           811,       178.826,       117.855,            0.,NA,NA,"",   1.00537E+06,   1.00073E+06,   1.00073E+06
C:/temp/Job-23.odb,Step-1,Increment      1: Step Time =    1.000,"P-23-1",           812,       91.5367,       180.373,            0.,NA,NA,"",   977.570E+03,   978.750E+03,   978.750E+03
C:/temp/Job-23.odb,Step-1,Increment      1: Step Time =    1.000,"P-23-1",           813,       20.1576,       109.704,            0.,NA,NA,"",   873.263E+03,   960.159E+03,   960.159E+03
C:/temp/Job-23.odb,Step-1,Increment      1: Step Time =    1.000,"P-23-1",           814,       15.5192,       100.330,            0.,NA,NA,"",   858.523E+03,   951.190E+03,   951.190E+03
C:/temp/Job-23.odb,Step-1,Increment      1: Step Time =    1.000,"P-23-1",           815,       100.184,       185.732,            0.,NA,NA,"",   970.936E+03,   971.356E+03,   971.356E+03
C:/temp/Job-23.odb,Step-1,Increment      1: Step Time =    1.000,"P-23-1",           816,       21.3244,       91.3110,            0.,NA,NA,"",   875.944E+03,   961.571E+03,   961.571E+03
C:/temp/Job-23.odb,Step-1,Increment      1: Step Time =    1.000,"P-23-1",           817,       180.578,       108.717,            0.,NA,NA,"",   1.00496E+06,   1.00024E+06,   1.00024E+06
C:/temp/Job-23.odb,Step-1,Increment      1: Step Time =    1.000,"P-23-1",           818,       108.841,       20.1384,            0.,NA,NA,"",   981.558E+03,   982.068E+03,   982.068E+03
C:/temp/Job-23.odb,Step-1,Increment      1: Step Time =    1.000,"P-23-1",           819,       100.057,       14.7029,            0.,NA,NA,"",   971.573E+03,   972.018E+03,   972.018E+03
C:/temp/Job-23.odb,Step-1,Increment      1: Step Time =    1.000,"P-23-1",           820,       180.162,       91.4183,            0.,NA,NA,"",   1.00489E+06,   1.00023E+06,   1.00023E+06
C:/temp/Job-23.odb,Step-1,Increment      1: Step Time =    1.000,"P-23-1",           821,       185.499,       100.052,            0.,NA,NA,"",   1.00518E+06,   1.00003E+06,   1.00003E+06
C:/temp/Job-23.odb,Step-1,Increment      1: Step Time =    1.000,"P-23-1",           822,       117.757,       97.4334,            0.,NA,NA,"",   907.709E+03,   914.465E+03,   914.465E+03
C:/temp/Job-23.odb,Step-1,Increment      1: Step Time =    1.000,"P-23-1",           823,       82.3365,       102.400,            0.,NA,NA,"",   890.497E+03,    913.67E+03,    913.67E+03
C:/temp/Job-23.odb,Step-1,Increment      1: Step Time =    1.000,"P-23-1",           824,       97.5072,       82.2197,            0.,NA,NA,"",   1.01819E+06,   1.05423E+06,   1.05423E+06
C:/temp/Job-23.odb,Step-1,Increment      1: Step Time =    1.000,"P-23-1",           825,       102.280,       117.750,            0.,NA,NA,"",   1.01853E+06,   1.05349E+06,   1.05349E+06
C:/temp/Job-23.odb,Step-1,Increment      1: Step Time =    1.000,"P-23-1",           826,       115.005,       110.389,            0.,NA,NA,"",   1.04650E+06,   1.02941E+06,   1.02941E+06
C:/temp/Job-23.odb,Step-1,Increment      1: Step Time =    1.000,"P-23-1",           827,       89.6203,       114.833,            0.,NA,NA,"",   1.07168E+06,   1.07216E+06,   1.07216E+06
C:/temp/Job-23.odb,Step-1,Increment      1: Step Time =    1.000,"P-23-1",           828,       84.8029,       89.5656,            0.,NA,NA,"",   1.03329E+06,   1.03084E+06,   1.03084E+06
C:/temp/Job-23.odb,Step-1,Increment      1: Step Time =    1.000,"P-23-1",           829,       110.360,       85.0644,            0.,NA,NA,"",   1.07837E+06,   1.06989E+06,   1.06989E+06
C:/temp/Job-23.odb,Step-1,Increment      1: Step Time =    1.000,"P-23-1",           830,       97.1317,       117.550,            0.,NA,NA,"",   1.02210E+06,   1.05703E+06,   1.05703E+06
C:/temp/Job-23.odb,Step-1,Increment      1: Step Time =    1.000,"P-23-1",           831,       117.816,       102.654,            0.,NA,NA,"",   909.174E+03,   915.753E+03,   915.753E+03
C:/temp/Job-23.odb,Step-1,Increment      1: Step Time =    1.000,"P-23-1",           832,       82.3200,       97.2177,            0.,NA,NA,"",   896.121E+03,   918.196E+03,   918.196E+03
C:/temp/Job-23.odb,Step-1,Increment      1: Step Time =    1.000,"P-23-1",           833,       102.725,       82.4249,            0.,NA,NA,"",   1.02244E+06,   1.05577E+06,   1.05577E+06
C:/temp/Job-23.odb,Step-1,Increment      1: Step Time =    1.000,"P-23-1",           834,       173.866,       88.3052,            0.,NA,NA,"",   1.00477E+06,   1.00052E+06,   1.00052E+06
C:/temp/Job-23.odb,Step-1,Increment      1: Step Time =    1.000,"P-23-1",           835,       90.6706,       24.1240,            0.,NA,NA,"",   984.039E+03,   985.948E+03,   985.948E+03
C:/temp/Job-23.odb,Step-1,Increment      1: Step Time =    1.000,"P-23-1",           836,       108.509,       24.8611,            0.,NA,NA,"",   986.885E+03,   987.772E+03,   987.772E+03
C:/temp/Job-23.odb,Step-1,Increment      1: Step Time =    1.000,"P-23-1",           837,       176.038,       109.047,            0.,NA,NA,"",   1.00472E+06,   1.00035E+06,   1.00035E+06
C:/temp/Job-23.odb,Step-1,Increment      1: Step Time =    1.000,"P-23-1",           838,       25.3837,       88.8951,            0.,NA,NA,"",   887.451E+03,   968.129E+03,   968.129E+03
C:/temp/Job-23.odb,Step-1,Increment      1: Step Time =    1.000,"P-23-1",           839,       109.667,       176.895,            0.,NA,NA,"",   985.097E+03,   985.677E+03,   985.677E+03
C:/temp/Job-23.odb,Step-1,Increment      1: Step Time =    1.000,"P-23-1",           840,       25.9118,       112.053,            0.,NA,NA,"",   889.068E+03,   969.008E+03,   969.008E+03
C:/temp/Job-23.odb,Step-1,Increment      1: Step Time =    1.000,"P-23-1",           841,       92.2901,       175.968,            0.,NA,NA,"",   984.121E+03,   985.988E+03,   985.988E+03
C:/temp/Job-23.odb,Step-1,Increment      1: Step Time =    1.000,"P-23-1",           842,       78.6839,       22.6078,            0.,NA,NA,"",   983.058E+03,   985.449E+03,   985.449E+03
C:/temp/Job-23.odb,Step-1,Increment      1: Step Time =    1.000,"P-23-1",           843,       177.424,       122.692,            0.,NA,NA,"",   1.00565E+06,   1.00109E+06,   1.00109E+06
C:/temp/Job-23.odb,Step-1,Increment      1: Step Time =    1.000,"P-23-1",           844,       21.8696,       78.2382,            0.,NA,NA,"",   884.560E+03,   968.098E+03,   968.098E+03
C:/temp/Job-23.odb,Step-1,Increment      1: Step Time =    1.000,"P-23-1",           845,       177.416,       77.0775,            0.,NA,NA,"",   1.00571E+06,   1.00116E+06,   1.00116E+06
C:/temp/Job-23.odb,Step-1,Increment      1: Step Time =    1.000,"P-23-1",           846,       121.210,       177.806,            0.,NA,NA,"",   987.472E+03,   987.253E+03,   987.253E+03
C:/temp/Job-23.odb,Step-1,Increment      1: Step Time =    1.000,"P-23-1",           847,       119.799,       24.7478,            0.,NA,NA,"",   989.785E+03,   989.710E+03,   989.710E+03
C:/temp/Job-23.odb,Step-1,Increment      1: Step Time =    1.000,"P-23-1",           848,       24.1993,       122.732,            0.,NA,NA,"",   893.193E+03,   972.989E+03,   972.989E+03
C:/temp/Job-23.odb,Step-1,Increment      1: Step Time =    1.000,"P-23-1",           849,       80.8250,       175.545,            0.,NA,NA,"",   985.706E+03,   988.427E+03,   988.427E+03
C:/temp/Job-23.odb,Step-1,Increment      1: Step Time =    1.000,"P-23-1",           850,       23.6551,       57.8443,            0.,NA,NA,"",   914.642E+03,   989.512E+03,   989.512E+03
C:/temp/Job-23.odb,Step-1,Increment      1: Step Time =    1.000,"P-23-1",           851,       59.3356,       25.3227,            0.,NA,NA,"",   992.911E+03,   1.00020E+06,   1.00020E+06
C:/temp/Job-23.odb,Step-1,Increment      1: Step Time =    1.000,"P-23-1",           852,       175.349,       141.674,            0.,NA,NA,"",   1.00604E+06,   1.00193E+06,   1.00193E+06
C:/temp/Job-23.odb,Step-1,Increment      1: Step Time =    1.000,"P-23-1",           853,       140.217,       173.639,            0.,NA,NA,"",   995.867E+03,   994.580E+03,   994.580E+03
C:/temp/Job-23.odb,Step-1,Increment      1: Step Time =    1.000,"P-23-1",           854,       140.180,       22.9714,            0.,NA,NA,"",   993.471E+03,   992.458E+03,   992.458E+03
C:/temp/Job-23.odb,Step-1,Increment      1: Step Time =    1.000,"P-23-1",           855,       173.413,       60.7859,            0.,NA,NA,"",   1.00650E+06,   1.00230E+06,   1.00230E+06
C:/temp/Job-23.odb,Step-1,Increment      1: Step Time =    1.000,"P-23-1",           856,       23.0200,       141.293,            0.,NA,NA,"",   911.858E+03,   987.871E+03,   987.871E+03
C:/temp/Job-23.odb,Step-1,Increment      1: Step Time =    1.000,"P-23-1",           857,       59.5239,       178.338,            0.,NA,NA,"",   988.670E+03,   994.109E+03,   994.109E+03
C:/temp/Job-23.odb,Step-1,Increment      1: Step Time =    1.000,"P-23-1",           858,       70.4941,       25.4834,            0.,NA,NA,"",   989.679E+03,   994.168E+03,   994.168E+03
C:/temp/Job-23.odb,Step-1,Increment      1: Step Time =    1.000,"P-23-1",           859,       129.190,       174.692,            0.,NA,NA,"",   992.623E+03,   991.944E+03,   991.944E+03
C:/temp/Job-23.odb,Step-1,Increment      1: Step Time =    1.000,"P-23-1",           860,       130.473,       24.2027,            0.,NA,NA,"",   991.969E+03,   991.215E+03,   991.215E+03
C:/temp/Job-23.odb,Step-1,Increment      1: Step Time =    1.000,"P-23-1",           861,       177.877,       68.2154,            0.,NA,NA,"",   1.00595E+06,   1.00146E+06,   1.00146E+06
C:/temp/Job-23.odb,Step-1,Increment      1: Step Time =    1.000,"P-23-1",           862,       26.8265,       127.676,            0.,NA,NA,"",   904.841E+03,   980.240E+03,   980.240E+03
C:/temp/Job-23.odb,Step-1,Increment      1: Step Time =    1.000,"P-23-1",           863,       70.3197,       174.606,            0.,NA,NA,"",   989.520E+03,   994.026E+03,   994.026E+03
C:/temp/Job-23.odb,Step-1,Increment      1: Step Time =    1.000,"P-23-1",           864,       56.0907,       187.109,            0.,NA,NA,"",   971.387E+03,   973.561E+03,   973.561E+03
C:/temp/Job-23.odb,Step-1,Increment      1: Step Time =    1.000,"P-23-1",           865,       14.3697,       146.309,            0.,NA,NA,"",   892.751E+03,   980.168E+03,   980.168E+03
C:/temp/Job-23.odb,Step-1,Increment      1: Step Time =    1.000,"P-23-1",           866,       78.1538,       180.226,            0.,NA,NA,"",   978.640E+03,   980.536E+03,   980.536E+03
C:/temp/Job-23.odb,Step-1,Increment      1: Step Time =    1.000,"P-23-1",           867,       184.580,       54.6377,            0.,NA,NA,"",   1.00476E+06,   1.00070E+06,   1.00070E+06
C:/temp/Job-23.odb,Step-1,Increment      1: Step Time =    1.000,"P-23-1",           868,       143.968,       13.1890,            0.,NA,NA,"",   988.674E+03,   988.248E+03,   988.248E+03
C:/temp/Job-23.odb,Step-1,Increment      1: Step Time =    1.000,"P-23-1",           869,       145.447,       183.692,            0.,NA,NA,"",   991.078E+03,   990.401E+03,   990.401E+03
C:/temp/Job-23.odb,Step-1,Increment      1: Step Time =    1.000,"P-23-1",           870,       184.990,       144.036,            0.,NA,NA,"",   1.00494E+06,   1.00076E+06,   1.00076E+06
C:/temp/Job-23.odb,Step-1,Increment      1: Step Time =    1.000,"P-23-1",           871,       19.3820,       58.2651,            0.,NA,NA,"",   899.575E+03,   981.747E+03,   981.747E+03
C:/temp/Job-23.odb,Step-1,Increment      1: Step Time =    1.000,"P-23-1",           872,       54.6929,       15.1056,            0.,NA,NA,"",   979.086E+03,   982.341E+03,   982.341E+03
C:/temp/Job-23.odb,Step-1,Increment      1: Step Time =    1.000,"P-23-1",           873,       19.4576,       87.4840,            0.,NA,NA,"",   872.390E+03,   959.964E+03,   959.964E+03
C:/temp/Job-23.odb,Step-1,Increment      1: Step Time =    1.000,"P-23-1",           874,       179.400,       112.011,            0.,NA,NA,"",   1.00506E+06,   1.00041E+06,   1.00041E+06
C:/temp/Job-23.odb,Step-1,Increment      1: Step Time =    1.000,"P-23-1",           875,       114.986,       89.9775,            0.,NA,NA,"",   1.04399E+06,   1.02664E+06,   1.02664E+06
C:/temp/Job-23.odb,Step-1,Increment      1: Step Time =    1.000,"P-23-1",           876,       84.9384,       109.887,            0.,NA,NA,"",   1.03073E+06,   1.02769E+06,   1.02769E+06
C:/temp/Job-23.odb,Step-1,Increment      1: Step Time =    1.000,"P-23-1",           877,       89.6067,       84.5357,            0.,NA,NA,"",   1.06765E+06,   1.06999E+06,   1.06999E+06
C:/temp/Job-23.odb,Step-1,Increment      1: Step Time =    1.000,"P-23-1",           878,       109.977,       115.393,            0.,NA,NA,"",   1.07607E+06,   1.07003E+06,   1.07003E+06
C:/temp/Job-23.odb,Step-1,Increment      1: Step Time =    1.000,"P-23-1",           879,       120.611,       105.339,            0.,NA,NA,"",   965.453E+03,   964.555E+03,   964.555E+03
C:/temp/Job-23.odb,Step-1,Increment      1: Step Time =    1.000,"P-23-1",           880,       104.862,       120.621,            0.,NA,NA,"",   1.03076E+06,   1.04995E+06,   1.04995E+06
C:/temp/Job-23.odb,Step-1,Increment      1: Step Time =    1.000,"P-23-1",           881,       79.4998,       94.5240,            0.,NA,NA,"",   949.345E+03,   967.151E+03,   967.151E+03
C:/temp/Job-23.odb,Step-1,Increment      1: Step Time =    1.000,"P-23-1",           882,       94.8687,       79.2339,            0.,NA,NA,"",   1.02853E+06,   1.05085E+06,   1.05085E+06
C:/temp/Job-23.odb,Step-1,Increment      1: Step Time =    1.000,"P-23-1",           883,       105.489,       79.7313,            0.,NA,NA,"",   1.03541E+06,   1.05246E+06,   1.05246E+06
C:/temp/Job-23.odb,Step-1,Increment      1: Step Time =    1.000,"P-23-1",           884,       79.5193,       105.130,            0.,NA,NA,"",   944.876E+03,   963.548E+03,   963.548E+03
C:/temp/Job-23.odb,Step-1,Increment      1: Step Time =    1.000,"P-23-1",           885,       94.3490,       120.152,            0.,NA,NA,"",   1.03346E+06,   1.05450E+06,   1.05450E+06
C:/temp/Job-23.odb,Step-1,Increment      1: Step Time =    1.000,"P-23-1",           886,       120.414,       94.6843,            0.,NA,NA,"",   964.176E+03,   963.355E+03,   963.355E+03
C:/temp/Job-23.odb,Step-1,Increment      1: Step Time =    1.000,"P-23-1",           887,       99.5980,       120.382,            0.,NA,NA,"",   1.00625E+06,   1.04074E+06,   1.04074E+06
C:/temp/Job-23.odb,Step-1,Increment      1: Step Time =    1.000,"P-23-1",           888,       100.208,       79.6149,            0.,NA,NA,"",   1.00598E+06,   1.04039E+06,   1.04039E+06
C:/temp/Job-23.odb,Step-1,Increment      1: Step Time =    1.000,"P-23-1",           889,       79.5911,       99.8154,            0.,NA,NA,"",   895.824E+03,   924.034E+03,   924.034E+03
C:/temp/Job-23.odb,Step-1,Increment      1: Step Time =    1.000,"P-23-1",           890,       120.701,       99.9708,            0.,NA,NA,"",   914.572E+03,   924.270E+03,   924.270E+03
C:/temp/Job-23.odb,Step-1,Increment      1: Step Time =    1.000,"P-23-1",           891,       112.490,       112.897,            0.,NA,NA,"",   1.07946E+06,   1.06210E+06,   1.06210E+06
C:/temp/Job-23.odb,Step-1,Increment      1: Step Time =    1.000,"P-23-1",           892,       87.3013,       112.343,            0.,NA,NA,"",   1.06917E+06,   1.06203E+06,   1.06203E+06
C:/temp/Job-23.odb,Step-1,Increment      1: Step Time =    1.000,"P-23-1",           893,       87.1585,       87.0389,            0.,NA,NA,"",   1.06808E+06,   1.06248E+06,   1.06248E+06
C:/temp/Job-23.odb,Step-1,Increment      1: Step Time =    1.000,"P-23-1",           894,       112.683,       87.5375,            0.,NA,NA,"",   1.07896E+06,   1.06028E+06,   1.06028E+06
C:/temp/Job-23.odb,Step-1,Increment      1: Step Time =    1.000,"P-23-1",           895,       110.785,       79.8270,            0.,NA,NA,"",   1.05314E+06,   1.05332E+06,   1.05332E+06
C:/temp/Job-23.odb,Step-1,Increment      1: Step Time =    1.000,"P-23-1",           896,       120.245,       110.596,            0.,NA,NA,"",   1.01736E+06,   1.00805E+06,   1.00805E+06
C:/temp/Job-23.odb,Step-1,Increment      1: Step Time =    1.000,"P-23-1",           897,       79.4421,       89.3263,            0.,NA,NA,"",   999.113E+03,   1.00954E+06,   1.00954E+06
C:/temp/Job-23.odb,Step-1,Increment      1: Step Time =    1.000,"P-23-1",           898,       89.0561,       119.950,            0.,NA,NA,"",   1.04760E+06,   1.05647E+06,   1.05647E+06
C:/temp/Job-23.odb,Step-1,Increment      1: Step Time =    1.000,"P-23-1",           899,       110.187,       120.799,            0.,NA,NA,"",   1.04937E+06,   1.05194E+06,   1.05194E+06
C:/temp/Job-23.odb,Step-1,Increment      1: Step Time =    1.000,"P-23-1",           900,       79.7029,       110.289,            0.,NA,NA,"",   998.163E+03,   1.00833E+06,   1.00833E+06
C:/temp/Job-23.odb,Step-1,Increment      1: Step Time =    1.000,"P-23-1",           901,       89.2963,       78.9446,            0.,NA,NA,"",   1.04243E+06,   1.05305E+06,   1.05305E+06
C:/temp/Job-23.odb,Step-1,Increment      1: Step Time =    1.000,"P-23-1",           902,       119.995,       89.6814,            0.,NA,NA,"",   1.01531E+06,   1.00620E+06,   1.00620E+06
C:/temp/Job-23.odb,Step-1,Increment      1: Step Time =    1.000,"P-23-1",           903,       55.7178,       191.300,            0.,NA,NA,"",   957.987E+03,   959.090E+03,   959.090E+03
C:/temp/Job-23.odb,Step-1,Increment      1: Step Time =    1.000,"P-23-1",           904,       144.349,       8.81974,            0.,NA,NA,"",   986.739E+03,   986.525E+03,   986.525E+03
C:/temp/Job-23.odb,Step-1,Increment      1: Step Time =    1.000,"P-23-1",           905,       190.039,       144.566,            0.,NA,NA,"",   1.00473E+06,   1.00037E+06,   1.00037E+06
C:/temp/Job-23.odb,Step-1,Increment      1: Step Time =    1.000,"P-23-1",           906,       96.4070,       176.344,            0.,NA,NA,"",   983.723E+03,   985.269E+03,   985.269E+03
C:/temp/Job-23.odb,Step-1,Increment      1: Step Time =    1.000,"P-23-1",           907,       11.7924,       56.0786,            0.,NA,NA,"",   879.995E+03,   971.926E+03,   971.926E+03
C:/temp/Job-23.odb,Step-1,Increment      1: Step Time =    1.000,"P-23-1",           908,       25.6381,       106.240,            0.,NA,NA,"",   886.949E+03,   967.420E+03,   967.420E+03
C:/temp/Job-23.odb,Step-1,Increment      1: Step Time =    1.000,"P-23-1",           909,       105.122,       176.756,            0.,NA,NA,"",   984.257E+03,   985.153E+03,   985.153E+03
C:/temp/Job-23.odb,Step-1,Increment      1: Step Time =    1.000,"P-23-1",           910,       27.3830,       91.8177,            0.,NA,NA,"",   891.508E+03,   969.826E+03,   969.826E+03
C:/temp/Job-23.odb,Step-1,Increment      1: Step Time =    1.000,"P-23-1",           911,       170.701,       105.070,            0.,NA,NA,"",   1.00397E+06,   1.00008E+06,   1.00008E+06
C:/temp/Job-23.odb,Step-1,Increment      1: Step Time =    1.000,"P-23-1",           912,       104.415,       24.9986,            0.,NA,NA,"",   986.191E+03,   987.363E+03,   987.363E+03
C:/temp/Job-23.odb,Step-1,Increment      1: Step Time =    1.000,"P-23-1",           913,       95.5142,       24.6674,            0.,NA,NA,"",   984.688E+03,   986.367E+03,   986.367E+03
C:/temp/Job-23.odb,Step-1,Increment      1: Step Time =    1.000,"P-23-1",           914,       174.252,       95.4913,            0.,NA,NA,"",   1.00426E+06,   1.00010E+06,   1.00010E+06
C:/temp/Job-23.odb,Step-1,Increment      1: Step Time =    1.000,"P-23-1",           915,       84.0353,       173.499,            0.,NA,NA,"",   987.857E+03,   990.585E+03,   990.585E+03
C:/temp/Job-23.odb,Step-1,Increment      1: Step Time =    1.000,"P-23-1",           916,       29.0980,       115.529,            0.,NA,NA,"",   900.178E+03,   975.328E+03,   975.328E+03
C:/temp/Job-23.odb,Step-1,Increment      1: Step Time =    1.000,"P-23-1",           917,       116.670,       26.9010,            0.,NA,NA,"",   990.842E+03,   991.026E+03,   991.026E+03
C:/temp/Job-23.odb,Step-1,Increment      1: Step Time =    1.000,"P-23-1",           918,       174.634,       83.9330,            0.,NA,NA,"",   1.00527E+06,   1.00089E+06,   1.00089E+06
C:/temp/Job-23.odb,Step-1,Increment      1: Step Time =    1.000,"P-23-1",           919,       114.872,       176.735,            0.,NA,NA,"",   986.730E+03,   987.011E+03,   987.011E+03
C:/temp/Job-23.odb,Step-1,Increment      1: Step Time =    1.000,"P-23-1",           920,       27.7855,       83.6472,            0.,NA,NA,"",   896.822E+03,   973.831E+03,   973.831E+03
C:/temp/Job-23.odb,Step-1,Increment      1: Step Time =    1.000,"P-23-1",           921,       172.249,       116.489,            0.,NA,NA,"",   1.00525E+06,   1.00101E+06,   1.00101E+06
C:/temp/Job-23.odb,Step-1,Increment      1: Step Time =    1.000,"P-23-1",           922,       85.1955,       23.9730,            0.,NA,NA,"",   984.396E+03,   986.694E+03,   986.694E+03
C:/temp/Job-23.odb,Step-1,Increment      1: Step Time =    1.000,"P-23-1",           923,       65.0374,       172.621,            0.,NA,NA,"",   994.362E+03,   1.00099E+06,   1.00099E+06
C:/temp/Job-23.odb,Step-1,Increment      1: Step Time =    1.000,"P-23-1",           924,       25.4072,       132.666,            0.,NA,NA,"",   906.344E+03,   982.256E+03,   982.256E+03
C:/temp/Job-23.odb,Step-1,Increment      1: Step Time =    1.000,"P-23-1",           925,       75.8375,       175.294,            0.,NA,NA,"",   987.125E+03,   990.543E+03,   990.543E+03
C:/temp/Job-23.odb,Step-1,Increment      1: Step Time =    1.000,"P-23-1",           926,       135.869,       22.5669,            0.,NA,NA,"",   992.034E+03,   991.166E+03,   991.166E+03
C:/temp/Job-23.odb,Step-1,Increment      1: Step Time =    1.000,"P-23-1",           927,       173.422,       64.2105,            0.,NA,NA,"",   1.00657E+06,   1.00227E+06,   1.00227E+06
C:/temp/Job-23.odb,Step-1,Increment      1: Step Time =    1.000,"P-23-1",           928,       29.3187,       123.350,            0.,NA,NA,"",   907.163E+03,   980.513E+03,   980.513E+03
C:/temp/Job-23.odb,Step-1,Increment      1: Step Time =    1.000,"P-23-1",           929,       134.817,       172.118,            0.,NA,NA,"",   996.067E+03,   994.915E+03,   994.915E+03
C:/temp/Job-23.odb,Step-1,Increment      1: Step Time =    1.000,"P-23-1",           930,       171.551,       136.560,            0.,NA,NA,"",   1.00682E+06,   1.00257E+06,   1.00257E+06
C:/temp/Job-23.odb,Step-1,Increment      1: Step Time =    1.000,"P-23-1",           931,       24.0225,       62.4938,            0.,NA,NA,"",   908.042E+03,   984.620E+03,   984.620E+03
C:/temp/Job-23.odb,Step-1,Increment      1: Step Time =    1.000,"P-23-1",           932,       64.7023,       27.4606,            0.,NA,NA,"",   993.789E+03,   1.00064E+06,   1.00064E+06
C:/temp/Job-23.odb,Step-1,Increment      1: Step Time =    1.000,"P-23-1",           933,       124.894,       24.5843,            0.,NA,NA,"",   990.955E+03,   990.518E+03,   990.518E+03
C:/temp/Job-23.odb,Step-1,Increment      1: Step Time =    1.000,"P-23-1",           934,       173.372,       73.7075,            0.,NA,NA,"",   1.00621E+06,   1.00180E+06,   1.00180E+06
C:/temp/Job-23.odb,Step-1,Increment      1: Step Time =    1.000,"P-23-1",           935,       117.615,       113.091,            0.,NA,NA,"",   1.04407E+06,   1.03091E+06,   1.03091E+06
C:/temp/Job-23.odb,Step-1,Increment      1: Step Time =    1.000,"P-23-1",           936,       86.7064,       117.333,            0.,NA,NA,"",   1.05402E+06,   1.05733E+06,   1.05733E+06
C:/temp/Job-23.odb,Step-1,Increment      1: Step Time =    1.000,"P-23-1",           937,       82.0415,       86.9526,            0.,NA,NA,"",   1.02545E+06,   1.02995E+06,   1.02995E+06
C:/temp/Job-23.odb,Step-1,Increment      1: Step Time =    1.000,"P-23-1",           938,       113.266,       82.4899,            0.,NA,NA,"",   1.06249E+06,   1.05465E+06,   1.05465E+06
C:/temp/Job-23.odb,Step-1,Increment      1: Step Time =    1.000,"P-23-1",           939,       82.4574,       112.333,            0.,NA,NA,"",   1.02532E+06,   1.02893E+06,   1.02893E+06
C:/temp/Job-23.odb,Step-1,Increment      1: Step Time =    1.000,"P-23-1",           940,       112.701,       118.172,            0.,NA,NA,"",   1.06165E+06,   1.05556E+06,   1.05556E+06
C:/temp/Job-23.odb,Step-1,Increment      1: Step Time =    1.000,"P-23-1",           941,       86.5254,       81.6256,            0.,NA,NA,"",   1.05009E+06,   1.05534E+06,   1.05534E+06
C:/temp/Job-23.odb,Step-1,Increment      1: Step Time =    1.000,"P-23-1",           942,       117.485,       87.4918,            0.,NA,NA,"",   1.03947E+06,   1.02661E+06,   1.02661E+06
C:/temp/Job-23.odb,Step-1,Increment      1: Step Time =    1.000,"P-23-1",           943,       123.750,       102.697,            0.,NA,NA,"",   949.362E+03,   954.414E+03,   954.414E+03
C:/temp/Job-23.odb,Step-1,Increment      1: Step Time =    1.000,"P-23-1",           944,       102.155,       123.333,            0.,NA,NA,"",   1.01180E+06,   1.03616E+06,   1.03616E+06
C:/temp/Job-23.odb,Step-1,Increment      1: Step Time =    1.000,"P-23-1",           945,       76.7556,       97.0935,            0.,NA,NA,"",   929.618E+03,   955.783E+03,   955.783E+03
C:/temp/Job-23.odb,Step-1,Increment      1: Step Time =    1.000,"P-23-1",           946,       97.6687,       76.5663,            0.,NA,NA,"",   1.01071E+06,   1.03652E+06,   1.03652E+06
C:/temp/Job-23.odb,Step-1,Increment      1: Step Time =    1.000,"P-23-1",           947,       103.014,       76.9827,            0.,NA,NA,"",   1.01480E+06,   1.03792E+06,   1.03792E+06
C:/temp/Job-23.odb,Step-1,Increment      1: Step Time =    1.000,"P-23-1",           948,       76.7339,       102.558,            0.,NA,NA,"",   927.825E+03,   954.436E+03,   954.436E+03
C:/temp/Job-23.odb,Step-1,Increment      1: Step Time =    1.000,"P-23-1",           949,       96.7601,       123.034,            0.,NA,NA,"",   1.01372E+06,   1.03892E+06,   1.03892E+06
C:/temp/Job-23.odb,Step-1,Increment      1: Step Time =    1.000,"P-23-1",           950,       176.767,       133.500,            0.,NA,NA,"",   1.00614E+06,   1.00172E+06,   1.00172E+06
C:/temp/Job-23.odb,Step-1,Increment      1: Step Time =    1.000,"P-23-1",           951,       21.7225,       66.7708,            0.,NA,NA,"",   896.236E+03,   977.131E+03,   977.131E+03
C:/temp/Job-23.odb,Step-1,Increment      1: Step Time =    1.000,"P-23-1",           952,       123.531,       97.1306,            0.,NA,NA,"",   950.029E+03,   954.818E+03,   954.818E+03
C:/temp/Job-23.odb,Step-1,Increment      1: Step Time =    1.000,"P-23-1",           953,       122.886,       91.8057,            0.,NA,NA,"",   991.689E+03,   987.877E+03,   987.877E+03
C:/temp/Job-23.odb,Step-1,Increment      1: Step Time =    1.000,"P-23-1",           954,       108.463,       76.8751,            0.,NA,NA,"",   1.03622E+06,   1.04533E+06,   1.04533E+06
C:/temp/Job-23.odb,Step-1,Increment      1: Step Time =    1.000,"P-23-1",           955,       76.5804,       108.201,            0.,NA,NA,"",   972.169E+03,   990.393E+03,   990.393E+03
C:/temp/Job-23.odb,Step-1,Increment      1: Step Time =    1.000,"P-23-1",           956,       91.3870,       122.723,            0.,NA,NA,"",   1.03265E+06,   1.04794E+06,   1.04794E+06
C:/temp/Job-23.odb,Step-1,Increment      1: Step Time =    1.000,"P-23-1",           957,       92.0946,       76.0887,            0.,NA,NA,"",   1.02746E+06,   1.04405E+06,   1.04405E+06
C:/temp/Job-23.odb,Step-1,Increment      1: Step Time =    1.000,"P-23-1",           958,       76.6097,       91.6889,            0.,NA,NA,"",   972.471E+03,   990.520E+03,   990.520E+03
C:/temp/Job-23.odb,Step-1,Increment      1: Step Time =    1.000,"P-23-1",           959,       122.176,       19.7653,            0.,NA,NA,"",   985.674E+03,   985.473E+03,   985.473E+03
C:/temp/Job-23.odb,Step-1,Increment      1: Step Time =    1.000,"P-23-1",           960,       123.233,       108.156,            0.,NA,NA,"",   990.918E+03,   987.452E+03,   987.452E+03
C:/temp/Job-23.odb,Step-1,Increment      1: Step Time =    1.000,"P-23-1",           961,       107.591,       123.541,            0.,NA,NA,"",   1.03176E+06,   1.04292E+06,   1.04292E+06
C:/temp/Job-23.odb,Step-1,Increment      1: Step Time =    1.000,"P-23-1",           962,       64.0474,       182.049,            0.,NA,NA,"",   979.219E+03,   982.287E+03,   982.287E+03
C:/temp/Job-23.odb,Step-1,Increment      1: Step Time =    1.000,"P-23-1",           963,       135.811,       18.0338,            0.,NA,NA,"",   988.799E+03,   988.165E+03,   988.165E+03
C:/temp/Job-23.odb,Step-1,Increment      1: Step Time =    1.000,"P-23-1",           964,       100.728,       176.602,            0.,NA,NA,"",   983.750E+03,   984.978E+03,   984.978E+03
C:/temp/Job-23.odb,Step-1,Increment      1: Step Time =    1.000,"P-23-1",           965,       88.0464,       171.230,            0.,NA,NA,"",   990.296E+03,   993.204E+03,   993.204E+03
C:/temp/Job-23.odb,Step-1,Increment      1: Step Time =    1.000,"P-23-1",           966,       81.9986,       170.416,            0.,NA,NA,"",   992.260E+03,   996.160E+03,   996.160E+03
C:/temp/Job-23.odb,Step-1,Increment      1: Step Time =    1.000,"P-23-1",           967,       25.3837,       102.324,            0.,NA,NA,"",   885.280E+03,   966.367E+03,   966.367E+03
C:/temp/Job-23.odb,Step-1,Increment      1: Step Time =    1.000,"P-23-1",           968,       31.7147,       112.303,            0.,NA,NA,"",   905.381E+03,   977.268E+03,   977.268E+03
C:/temp/Job-23.odb,Step-1,Increment      1: Step Time =    1.000,"P-23-1",           969,       32.7871,       121.366,            0.,NA,NA,"",   914.335E+03,   983.595E+03,   983.595E+03
C:/temp/Job-23.odb,Step-1,Increment      1: Step Time =    1.000,"P-23-1",           970,       60.8234,       174.151,            0.,NA,NA,"",   993.705E+03,   1.00073E+06,   1.00073E+06
C:/temp/Job-23.odb,Step-1,Increment      1: Step Time =    1.000,"P-23-1",           971,       109.387,       172.416,            0.,NA,NA,"",   990.028E+03,    990.98E+03,    990.98E+03
C:/temp/Job-23.odb,Step-1,Increment      1: Step Time =    1.000,"P-23-1",           972,       68.2294,       170.381,            0.,NA,NA,"",   995.403E+03,   1.00204E+06,   1.00204E+06
C:/temp/Job-23.odb,Step-1,Increment      1: Step Time =    1.000,"P-23-1",           973,       27.3894,       140.766,            0.,NA,NA,"",   924.521E+03,   993.821E+03,   993.821E+03
C:/temp/Job-23.odb,Step-1,Increment      1: Step Time =    1.000,"P-23-1",           974,       30.4632,       90.4453,            0.,NA,NA,"",   900.338E+03,   974.545E+03,   974.545E+03
C:/temp/Job-23.odb,Step-1,Increment      1: Step Time =    1.000,"P-23-1",           975,       28.8173,       131.745,            0.,NA,NA,"",   915.595E+03,   986.655E+03,   986.655E+03
C:/temp/Job-23.odb,Step-1,Increment      1: Step Time =    1.000,"P-23-1",           976,       175.211,       100.335,            0.,NA,NA,"",   1.00427E+06,   1.00004E+06,   1.00004E+06
C:/temp/Job-23.odb,Step-1,Increment      1: Step Time =    1.000,"P-23-1",           977,       170.913,       108.906,            0.,NA,NA,"",   1.00437E+06,   1.00038E+06,   1.00038E+06
C:/temp/Job-23.odb,Step-1,Increment      1: Step Time =    1.000,"P-23-1",           978,       100.089,       24.9833,            0.,NA,NA,"",   985.490E+03,   986.906E+03,   986.906E+03
C:/temp/Job-23.odb,Step-1,Increment      1: Step Time =    1.000,"P-23-1",           979,       113.162,       28.6614,            0.,NA,NA,"",   991.652E+03,   992.270E+03,   992.270E+03
C:/temp/Job-23.odb,Step-1,Increment      1: Step Time =    1.000,"P-23-1",           980,       169.647,       85.9092,            0.,NA,NA,"",   1.00496E+06,   1.00093E+06,   1.00093E+06
C:/temp/Job-23.odb,Step-1,Increment      1: Step Time =    1.000,"P-23-1",           981,       90.7520,       28.8139,            0.,NA,NA,"",   990.247E+03,   993.150E+03,   993.150E+03
C:/temp/Job-23.odb,Step-1,Increment      1: Step Time =    1.000,"P-23-1",           982,       118.766,       30.5528,            0.,NA,NA,"",   994.837E+03,   994.934E+03,   994.934E+03
C:/temp/Job-23.odb,Step-1,Increment      1: Step Time =    1.000,"P-23-1",           983,       171.824,       78.4264,            0.,NA,NA,"",   1.00592E+06,   1.00160E+06,   1.00160E+06
C:/temp/Job-23.odb,Step-1,Increment      1: Step Time =    1.000,"P-23-1",           984,       119.323,       173.251,            0.,NA,NA,"",   991.441E+03,   991.403E+03,   991.403E+03
C:/temp/Job-23.odb,Step-1,Increment      1: Step Time =    1.000,"P-23-1",           985,       27.1032,       77.0757,            0.,NA,NA,"",   900.319E+03,   976.776E+03,   976.776E+03
C:/temp/Job-23.odb,Step-1,Increment      1: Step Time =    1.000,"P-23-1",           986,       168.301,       121.458,            0.,NA,NA,"",   1.00616E+06,   1.00197E+06,   1.00197E+06
C:/temp/Job-23.odb,Step-1,Increment      1: Step Time =    1.000,"P-23-1",           987,       80.4981,       27.4642,            0.,NA,NA,"",   989.925E+03,   993.432E+03,   993.432E+03
C:/temp/Job-23.odb,Step-1,Increment      1: Step Time =    1.000,"P-23-1",           988,       139.320,       27.8947,            0.,NA,NA,"",   996.799E+03,   995.447E+03,   995.447E+03
C:/temp/Job-23.odb,Step-1,Increment      1: Step Time =    1.000,"P-23-1",           989,       170.049,       58.9677,            0.,NA,NA,"",   1.00693E+06,   1.00281E+06,   1.00281E+06
C:/temp/Job-23.odb,Step-1,Increment      1: Step Time =    1.000,"P-23-1",           990,       134.293,       27.3017,            0.,NA,NA,"",   995.433E+03,   994.349E+03,   994.349E+03
C:/temp/Job-23.odb,Step-1,Increment      1: Step Time =    1.000,"P-23-1",           991,       173.067,       68.4811,            0.,NA,NA,"",   1.00650E+06,   1.00213E+06,   1.00213E+06
C:/temp/Job-23.odb,Step-1,Increment      1: Step Time =    1.000,"P-23-1",           992,       140.143,       167.341,            0.,NA,NA,"",   1.00030E+06,   998.499E+03,   998.499E+03
C:/temp/Job-23.odb,Step-1,Increment      1: Step Time =    1.000,"P-23-1",           993,       170.935,       140.643,            0.,NA,NA,"",   1.00676E+06,   1.00264E+06,   1.00264E+06
C:/temp/Job-23.odb,Step-1,Increment      1: Step Time =    1.000,"P-23-1",           994,       28.4642,       57.7598,            0.,NA,NA,"",   929.601E+03,   996.711E+03,   996.711E+03
C:/temp/Job-23.odb,Step-1,Increment      1: Step Time =    1.000,"P-23-1",           995,       59.2259,       31.2283,            0.,NA,NA,"",   998.604E+03,   1.00947E+06,   1.00947E+06
C:/temp/Job-23.odb,Step-1,Increment      1: Step Time =    1.000,"P-23-1",           996,       153.587,       10.2001,            0.,NA,NA,"",   991.214E+03,   990.917E+03,   990.917E+03
C:/temp/Job-23.odb,Step-1,Increment      1: Step Time =    1.000,"P-23-1",           997,       190.150,       154.624,            0.,NA,NA,"",   1.00365E+06,   1.00020E+06,   1.00020E+06
C:/temp/Job-23.odb,Step-1,Increment      1: Step Time =    1.000,"P-23-1",           998,       46.5468,       189.844,            0.,NA,NA,"",   972.231E+03,   974.642E+03,   974.642E+03
C:/temp/Job-23.odb,Step-1,Increment      1: Step Time =    1.000,"P-23-1",           999,       10.8764,       50.2549,            0.,NA,NA,"",   886.897E+03,   978.655E+03,   978.655E+03
C:/temp/Job-23.odb,Step-1,Increment      1: Step Time =    1.000,"P-23-1",          1000,       124.659,       173.505,            0.,NA,NA,"",   992.531E+03,   992.099E+03,   992.099E+03
C:/temp/Job-23.odb,Step-1,Increment      1: Step Time =    1.000,"P-23-1",          1001,       75.0337,       26.9519,            0.,NA,NA,"",   990.591E+03,   994.782E+03,   994.782E+03
C:/temp/Job-23.odb,Step-1,Increment      1: Step Time =    1.000,"P-23-1",          1002,       81.6874,       18.0975,            0.,NA,NA,"",   975.031E+03,   976.573E+03,   976.573E+03
C:/temp/Job-23.odb,Step-1,Increment      1: Step Time =    1.000,"P-23-1",          1003,       118.335,       182.262,            0.,NA,NA,"",   982.234E+03,   982.232E+03,   982.232E+03
C:/temp/Job-23.odb,Step-1,Increment      1: Step Time =    1.000,"P-23-1",          1004,       181.444,       78.7920,            0.,NA,NA,"",   1.00550E+06,   1.00072E+06,   1.00072E+06
C:/temp/Job-23.odb,Step-1,Increment      1: Step Time =    1.000,"P-23-1",          1005,       180.445,       100.085,            0.,NA,NA,"",   1.00474E+06,   1.00005E+06,   1.00005E+06
C:/temp/Job-23.odb,Step-1,Increment      1: Step Time =    1.000,"P-23-1",          1006,       100.017,       19.7049,            0.,NA,NA,"",   978.741E+03,   979.573E+03,   979.573E+03
C:/temp/Job-23.odb,Step-1,Increment      1: Step Time =    1.000,"P-23-1",          1007,       20.5161,       101.416,            0.,NA,NA,"",   872.174E+03,   959.128E+03,   959.128E+03
C:/temp/Job-23.odb,Step-1,Increment      1: Step Time =    1.000,"P-23-1",          1008,       100.453,       181.153,            0.,NA,NA,"",   977.650E+03,   978.416E+03,   978.416E+03
C:/temp/Job-23.odb,Step-1,Increment      1: Step Time =    1.000,"P-23-1",          1009,       181.489,       68.8745,            0.,NA,NA,"",   1.00566E+06,   1.00104E+06,   1.00104E+06
C:/temp/Job-23.odb,Step-1,Increment      1: Step Time =    1.000,"P-23-1",          1010,       21.6272,       132.704,            0.,NA,NA,"",   895.413E+03,   976.603E+03,   976.603E+03
C:/temp/Job-23.odb,Step-1,Increment      1: Step Time =    1.000,"P-23-1",          1011,       122.659,       113.282,            0.,NA,NA,"",   1.02254E+06,   1.01434E+06,   1.01434E+06
C:/temp/Job-23.odb,Step-1,Increment      1: Step Time =    1.000,"P-23-1",          1012,       86.0306,       122.430,            0.,NA,NA,"",   1.03811E+06,   1.04745E+06,   1.04745E+06
C:/temp/Job-23.odb,Step-1,Increment      1: Step Time =    1.000,"P-23-1",          1013,       113.516,       77.5412,            0.,NA,NA,"",   1.04545E+06,   1.04328E+06,   1.04328E+06
C:/temp/Job-23.odb,Step-1,Increment      1: Step Time =    1.000,"P-23-1",          1014,       76.7982,       86.3367,            0.,NA,NA,"",   1.00623E+06,   1.01890E+06,   1.01890E+06
C:/temp/Job-23.odb,Step-1,Increment      1: Step Time =    1.000,"P-23-1",          1015,       119.687,       85.5740,            0.,NA,NA,"",   1.03742E+06,   1.02730E+06,   1.02730E+06
C:/temp/Job-23.odb,Step-1,Increment      1: Step Time =    1.000,"P-23-1",          1016,       83.2948,       78.6460,            0.,NA,NA,"",   1.03660E+06,   1.04493E+06,   1.04493E+06
C:/temp/Job-23.odb,Step-1,Increment      1: Step Time =    1.000,"P-23-1",          1017,       115.574,       120.890,            0.,NA,NA,"",   1.04905E+06,   1.04357E+06,   1.04357E+06
C:/temp/Job-23.odb,Step-1,Increment      1: Step Time =    1.000,"P-23-1",          1018,       80.4585,       114.305,            0.,NA,NA,"",   1.02552E+06,   1.03254E+06,   1.03254E+06
C:/temp/Job-23.odb,Step-1,Increment      1: Step Time =    1.000,"P-23-1",          1019,       83.6180,       119.779,            0.,NA,NA,"",   1.04056E+06,   1.04715E+06,   1.04715E+06
C:/temp/Job-23.odb,Step-1,Increment      1: Step Time =    1.000,"P-23-1",          1020,       116.109,       79.9617,            0.,NA,NA,"",   1.05102E+06,   1.04409E+06,   1.04409E+06
C:/temp/Job-23.odb,Step-1,Increment      1: Step Time =    1.000,"P-23-1",          1021,       77.6768,       113.445,            0.,NA,NA,"",   1.00987E+06,   1.02076E+06,   1.02076E+06
C:/temp/Job-23.odb,Step-1,Increment      1: Step Time =    1.000,"P-23-1",          1022,       122.153,       86.8462,            0.,NA,NA,"",   1.02619E+06,   1.01677E+06,   1.01677E+06
C:/temp/Job-23.odb,Step-1,Increment      1: Step Time =    1.000,"P-23-1",          1023,       48.4461,       185.346,            0.,NA,NA,"",   984.438E+03,   988.743E+03,   988.743E+03
C:/temp/Job-23.odb,Step-1,Increment      1: Step Time =    1.000,"P-23-1",          1024,       151.806,       14.9134,            0.,NA,NA,"",   992.361E+03,   991.778E+03,   991.778E+03
C:/temp/Job-23.odb,Step-1,Increment      1: Step Time =    1.000,"P-23-1",          1025,       185.496,       154.874,            0.,NA,NA,"",   1.00371E+06,   1.00038E+06,   1.00038E+06
C:/temp/Job-23.odb,Step-1,Increment      1: Step Time =    1.000,"P-23-1",          1026,       16.0940,       49.5534,            0.,NA,NA,"",   906.286E+03,   989.344E+03,   989.344E+03
C:/temp/Job-23.odb,Step-1,Increment      1: Step Time =    1.000,"P-23-1",          1027,       126.922,       99.8345,            0.,NA,NA,"",   957.522E+03,   962.488E+03,   962.488E+03
C:/temp/Job-23.odb,Step-1,Increment      1: Step Time =    1.000,"P-23-1",          1028,       100.618,       74.0268,            0.,NA,NA,"",   1.00793E+06,   1.03086E+06,   1.03086E+06
C:/temp/Job-23.odb,Step-1,Increment      1: Step Time =    1.000,"P-23-1",          1029,       73.9178,       99.7709,            0.,NA,NA,"",   932.716E+03,   962.106E+03,   962.106E+03
C:/temp/Job-23.odb,Step-1,Increment      1: Step Time =    1.000,"P-23-1",          1030,       99.2571,       126.069,            0.,NA,NA,"",   1.00812E+06,   1.03118E+06,   1.03118E+06
C:/temp/Job-23.odb,Step-1,Increment      1: Step Time =    1.000,"P-23-1",          1031,       24.1264,       72.9515,            0.,NA,NA,"",   896.318E+03,   975.789E+03,   975.789E+03
C:/temp/Job-23.odb,Step-1,Increment      1: Step Time =    1.000,"P-23-1",          1032,       173.094,       129.013,            0.,NA,NA,"",   1.00649E+06,   1.00210E+06,   1.00210E+06
C:/temp/Job-23.odb,Step-1,Increment      1: Step Time =    1.000,"P-23-1",          1033,       56.2151,       173.036,            0.,NA,NA,"",   996.677E+03,   1.00648E+06,   1.00648E+06
C:/temp/Job-23.odb,Step-1,Increment      1: Step Time =    1.000,"P-23-1",          1034,       24.0551,       145.947,            0.,NA,NA,"",   923.877E+03,   995.679E+03,   995.679E+03
C:/temp/Job-23.odb,Step-1,Increment      1: Step Time =    1.000,"P-23-1",          1035,       100.940,       172.082,            0.,NA,NA,"",   989.129E+03,   990.952E+03,   990.952E+03
C:/temp/Job-23.odb,Step-1,Increment      1: Step Time =    1.000,"P-23-1",          1036,       170.156,       101.171,            0.,NA,NA,"",   1.00370E+06,   999.892E+03,   999.892E+03
C:/temp/Job-23.odb,Step-1,Increment      1: Step Time =    1.000,"P-23-1",          1037,       100.366,       30.7821,            0.,NA,NA,"",   991.876E+03,   994.205E+03,   994.205E+03
C:/temp/Job-23.odb,Step-1,Increment      1: Step Time =    1.000,"P-23-1",          1038,       124.958,       177.466,            0.,NA,NA,"",   989.037E+03,   988.649E+03,   988.649E+03
C:/temp/Job-23.odb,Step-1,Increment      1: Step Time =    1.000,"P-23-1",          1039,       143.835,       28.7651,            0.,NA,NA,"",   998.129E+03,   996.546E+03,   996.546E+03
C:/temp/Job-23.odb,Step-1,Increment      1: Step Time =    1.000,"P-23-1",          1040,       172.997,       54.4437,            0.,NA,NA,"",   1.00596E+06,   1.00207E+06,   1.00207E+06
C:/temp/Job-23.odb,Step-1,Increment      1: Step Time =    1.000,"P-23-1",          1041,       74.8825,       22.8222,            0.,NA,NA,"",   984.459E+03,   987.400E+03,   987.400E+03
C:/temp/Job-23.odb,Step-1,Increment      1: Step Time =    1.000,"P-23-1",          1042,       145.246,       172.248,            0.,NA,NA,"",   997.595E+03,   996.057E+03,   996.057E+03
C:/temp/Job-23.odb,Step-1,Increment      1: Step Time =    1.000,"P-23-1",          1043,       174.363,       145.829,            0.,NA,NA,"",   1.00578E+06,   1.00190E+06,   1.00190E+06
C:/temp/Job-23.odb,Step-1,Increment      1: Step Time =    1.000,"P-23-1",          1044,       27.0368,       52.8274,            0.,NA,NA,"",   934.805E+03,   1.00117E+06,   1.00117E+06
C:/temp/Job-23.odb,Step-1,Increment      1: Step Time =    1.000,"P-23-1",          1045,       54.0181,       26.1679,            0.,NA,NA,"",   996.659E+03,   1.00668E+06,   1.00668E+06
C:/temp/Job-23.odb,Step-1,Increment      1: Step Time =    1.000,"P-23-1",          1046,       129.983,       170.628,            0.,NA,NA,"",   996.156E+03,   995.255E+03,   995.255E+03
C:/temp/Job-23.odb,Step-1,Increment      1: Step Time =    1.000,"P-23-1",          1047,       125.098,       88.7406,            0.,NA,NA,"",   1.00835E+06,   1.00280E+06,   1.00280E+06
C:/temp/Job-23.odb,Step-1,Increment      1: Step Time =    1.000,"P-23-1",          1048,       69.3359,       29.6113,            0.,NA,NA,"",   994.624E+03,   1.00100E+06,   1.00100E+06
C:/temp/Job-23.odb,Step-1,Increment      1: Step Time =    1.000,"P-23-1",          1049,       89.1742,       72.9330,            0.,NA,NA,"",   1.02624E+06,   1.03973E+06,   1.03973E+06
C:/temp/Job-23.odb,Step-1,Increment      1: Step Time =    1.000,"P-23-1",          1050,       111.769,       73.9137,            0.,NA,NA,"",   1.03618E+06,   1.04010E+06,   1.04010E+06
C:/temp/Job-23.odb,Step-1,Increment      1: Step Time =    1.000,"P-23-1",          1051,       110.497,       126.477,            0.,NA,NA,"",   1.03242E+06,   1.03792E+06,   1.03792E+06
C:/temp/Job-23.odb,Step-1,Increment      1: Step Time =    1.000,"P-23-1",          1052,       73.3395,       112.211,            0.,NA,NA,"",   986.282E+03,   1.00619E+06,   1.00619E+06
C:/temp/Job-23.odb,Step-1,Increment      1: Step Time =    1.000,"P-23-1",          1053,       88.3287,       125.211,            0.,NA,NA,"",   1.03118E+06,   1.04349E+06,   1.04349E+06
C:/temp/Job-23.odb,Step-1,Increment      1: Step Time =    1.000,"P-23-1",          1054,       125.556,       111.058,            0.,NA,NA,"",   1.00672E+06,   1.00147E+06,   1.00147E+06
C:/temp/Job-23.odb,Step-1,Increment      1: Step Time =    1.000,"P-23-1",          1055,       77.3510,       116.800,            0.,NA,NA,"",   1.01143E+06,   1.02329E+06,   1.02329E+06
C:/temp/Job-23.odb,Step-1,Increment      1: Step Time =    1.000,"P-23-1",          1056,       83.0464,       124.811,            0.,NA,NA,"",   1.03041E+06,   1.04090E+06,   1.04090E+06
C:/temp/Job-23.odb,Step-1,Increment      1: Step Time =    1.000,"P-23-1",          1057,       115.610,       76.0848,            0.,NA,NA,"",   1.04235E+06,   1.03938E+06,   1.03938E+06
C:/temp/Job-23.odb,Step-1,Increment      1: Step Time =    1.000,"P-23-1",          1058,       123.618,       83.6521,            0.,NA,NA,"",   1.03048E+06,   1.02210E+06,   1.02210E+06
C:/temp/Job-23.odb,Step-1,Increment      1: Step Time =    1.000,"P-23-1",          1059,       120.189,       115.741,            0.,NA,NA,"",   1.03861E+06,   1.02862E+06,   1.02862E+06
C:/temp/Job-23.odb,Step-1,Increment      1: Step Time =    1.000,"P-23-1",          1060,       81.1276,       117.090,            0.,NA,NA,"",   1.02979E+06,   1.03658E+06,   1.03658E+06
C:/temp/Job-23.odb,Step-1,Increment      1: Step Time =    1.000,"P-23-1",          1061,       119.319,       82.4048,            0.,NA,NA,"",   1.04599E+06,   1.03624E+06,   1.03624E+06
C:/temp/Job-23.odb,Step-1,Increment      1: Step Time =    1.000,"P-23-1",          1062,       50.6598,       175.613,            0.,NA,NA,"",   997.999E+03,   1.00857E+06,   1.00857E+06
C:/temp/Job-23.odb,Step-1,Increment      1: Step Time =    1.000,"P-23-1",          1063,       25.3931,       150.542,            0.,NA,NA,"",   937.376E+03,   1.00400E+06,   1.00400E+06
C:/temp/Job-23.odb,Step-1,Increment      1: Step Time =    1.000,"P-23-1",          1064,       117.916,       118.286,            0.,NA,NA,"",   1.04960E+06,   1.04009E+06,   1.04009E+06
C:/temp/Job-23.odb,Step-1,Increment      1: Step Time =    1.000,"P-23-1",          1065,       79.8688,       81.4647,            0.,NA,NA,"",   1.02878E+06,   1.03771E+06,   1.03771E+06
C:/temp/Job-23.odb,Step-1,Increment      1: Step Time =    1.000,"P-23-1",          1066,       177.466,       48.9990,            0.,NA,NA,"",   1.00469E+06,   1.00116E+06,   1.00116E+06
C:/temp/Job-23.odb,Step-1,Increment      1: Step Time =    1.000,"P-23-1",          1067,       150.191,       25.8400,            0.,NA,NA,"",   997.260E+03,   995.809E+03,   995.809E+03
C:/temp/Job-23.odb,Step-1,Increment      1: Step Time =    1.000,"P-23-1",          1068,       151.043,       177.464,            0.,NA,NA,"",   995.801E+03,   994.617E+03,   994.617E+03
C:/temp/Job-23.odb,Step-1,Increment      1: Step Time =    1.000,"P-23-1",          1069,       177.375,       151.051,            0.,NA,NA,"",   1.00468E+06,   1.00115E+06,   1.00115E+06
C:/temp/Job-23.odb,Step-1,Increment      1: Step Time =    1.000,"P-23-1",          1070,       25.7218,       48.3596,            0.,NA,NA,"",   940.252E+03,   1.00577E+06,   1.00577E+06
C:/temp/Job-23.odb,Step-1,Increment      1: Step Time =    1.000,"P-23-1",          1071,       48.0253,       22.0920,            0.,NA,NA,"",   996.452E+03,   1.00647E+06,   1.00647E+06
C:/temp/Job-23.odb,Step-1,Increment      1: Step Time =    1.000,"P-23-1",          1072,       113.097,       123.632,            0.,NA,NA,"",   1.04281E+06,   1.04281E+06,   1.04281E+06
C:/temp/Job-23.odb,Step-1,Increment      1: Step Time =    1.000,"P-23-1",          1073,       86.3370,       75.9094,            0.,NA,NA,"",   1.03371E+06,   1.04450E+06,   1.04450E+06
C:/temp/Job-23.odb,Step-1,Increment      1: Step Time =    1.000,"P-23-1",          1074,       96.1052,       128.775,            0.,NA,NA,"",   1.01173E+06,   1.03055E+06,   1.03055E+06
C:/temp/Job-23.odb,Step-1,Increment      1: Step Time =    1.000,"P-23-1",          1075,       98.1137,       70.5644,            0.,NA,NA,"",   1.00958E+06,   1.02842E+06,   1.02842E+06
C:/temp/Job-23.odb,Step-1,Increment      1: Step Time =    1.000,"P-23-1",          1076,       90.5294,       128.155,            0.,NA,NA,"",   1.02180E+06,   1.03670E+06,   1.03670E+06
C:/temp/Job-23.odb,Step-1,Increment      1: Step Time =    1.000,"P-23-1",          1077,       70.5079,       108.282,            0.,NA,NA,"",   963.327E+03,   990.314E+03,   990.314E+03
C:/temp/Job-23.odb,Step-1,Increment      1: Step Time =    1.000,"P-23-1",          1078,       108.210,       70.3238,            0.,NA,NA,"",   1.02261E+06,   1.03138E+06,   1.03138E+06
C:/temp/Job-23.odb,Step-1,Increment      1: Step Time =    1.000,"P-23-1",          1079,       103.859,       71.6260,            0.,NA,NA,"",   1.01439E+06,   1.02981E+06,   1.02981E+06
C:/temp/Job-23.odb,Step-1,Increment      1: Step Time =    1.000,"P-23-1",          1080,       128.809,       109.060,            0.,NA,NA,"",   995.140E+03,   993.045E+03,   993.045E+03
C:/temp/Job-23.odb,Step-1,Increment      1: Step Time =    1.000,"P-23-1",          1081,       107.830,       129.368,            0.,NA,NA,"",   1.02144E+06,   1.03151E+06,   1.03151E+06
C:/temp/Job-23.odb,Step-1,Increment      1: Step Time =    1.000,"P-23-1",          1082,       70.8277,       91.2546,            0.,NA,NA,"",   966.952E+03,   992.927E+03,   992.927E+03
C:/temp/Job-23.odb,Step-1,Increment      1: Step Time =    1.000,"P-23-1",          1083,       128.406,       90.8436,            0.,NA,NA,"",   994.762E+03,   992.608E+03,   992.608E+03
C:/temp/Job-23.odb,Step-1,Increment      1: Step Time =    1.000,"P-23-1",          1084,       91.9823,       69.6777,            0.,NA,NA,"",   1.01708E+06,   1.03243E+06,   1.03243E+06
C:/temp/Job-23.odb,Step-1,Increment      1: Step Time =    1.000,"P-23-1",          1085,       130.670,       103.137,            0.,NA,NA,"",   974.990E+03,   977.318E+03,   977.318E+03
C:/temp/Job-23.odb,Step-1,Increment      1: Step Time =    1.000,"P-23-1",          1086,       71.0856,       96.8910,            0.,NA,NA,"",   945.670E+03,   975.707E+03,   975.707E+03
C:/temp/Job-23.odb,Step-1,Increment      1: Step Time =    1.000,"P-23-1",          1087,       16.9871,       75.0955,            0.,NA,NA,"",   873.880E+03,   962.735E+03,   962.735E+03
C:/temp/Job-23.odb,Step-1,Increment      1: Step Time =    1.000,"P-23-1",          1088,       180.756,       121.440,            0.,NA,NA,"",   1.00553E+06,   1.00079E+06,   1.00079E+06
C:/temp/Job-23.odb,Step-1,Increment      1: Step Time =    1.000,"P-23-1",          1089,       26.6863,       69.1783,            0.,NA,NA,"",   907.268E+03,   982.069E+03,   982.069E+03
C:/temp/Job-23.odb,Step-1,Increment      1: Step Time =    1.000,"P-23-1",          1090,       172.227,       132.654,            0.,NA,NA,"",   1.00674E+06,   1.00239E+06,   1.00239E+06
C:/temp/Job-23.odb,Step-1,Increment      1: Step Time =    1.000,"P-23-1",          1091,       97.0307,       164.544,            0.,NA,NA,"",   996.502E+03,   1.00008E+06,   1.00008E+06
C:/temp/Job-23.odb,Step-1,Increment      1: Step Time =    1.000,"P-23-1",          1092,       165.393,       101.913,            0.,NA,NA,"",   1.00297E+06,   999.591E+03,   999.591E+03
C:/temp/Job-23.odb,Step-1,Increment      1: Step Time =    1.000,"P-23-1",          1093,       101.744,       68.0247,            0.,NA,NA,"",   1.01021E+06,   1.02576E+06,   1.02576E+06
C:/temp/Job-23.odb,Step-1,Increment      1: Step Time =    1.000,"P-23-1",          1094,       124.840,       115.779,            0.,NA,NA,"",   1.02580E+06,   1.01791E+06,   1.01791E+06
C:/temp/Job-23.odb,Step-1,Increment      1: Step Time =    1.000,"P-23-1",          1095,       118.068,       77.0950,            0.,NA,NA,"",   1.04445E+06,   1.03876E+06,   1.03876E+06
C:/temp/Job-23.odb,Step-1,Increment      1: Step Time =    1.000,"P-23-1",          1096,       116.133,       126.300,            0.,NA,NA,"",   1.03803E+06,   1.03621E+06,   1.03621E+06
C:/temp/Job-23.odb,Step-1,Increment      1: Step Time =    1.000,"P-23-1",          1097,       79.5135,       84.8863,            0.,NA,NA,"",   1.02039E+06,   1.02949E+06,   1.02949E+06
C:/temp/Job-23.odb,Step-1,Increment      1: Step Time =    1.000,"P-23-1",          1098,       80.5506,       75.2929,            0.,NA,NA,"",   1.02728E+06,   1.03858E+06,   1.03858E+06
C:/temp/Job-23.odb,Step-1,Increment      1: Step Time =    1.000,"P-23-1",          1099,       98.6420,       132.207,            0.,NA,NA,"",   1.00917E+06,   1.02561E+06,   1.02561E+06
C:/temp/Job-23.odb,Step-1,Increment      1: Step Time =    1.000,"P-23-1",          1100,       85.2572,       127.538,            0.,NA,NA,"",   1.02707E+06,   1.03895E+06,   1.03895E+06
C:/temp/Job-23.odb,Step-1,Increment      1: Step Time =    1.000,"P-23-1",          1101,       68.6707,       113.833,            0.,NA,NA,"",   982.811E+03,   1.00796E+06,   1.00796E+06
C:/temp/Job-23.odb,Step-1,Increment      1: Step Time =    1.000,"P-23-1",          1102,       127.536,       114.016,            0.,NA,NA,"",   1.01490E+06,   1.00910E+06,   1.00910E+06
C:/temp/Job-23.odb,Step-1,Increment      1: Step Time =    1.000,"P-23-1",          1103,       122.836,       118.216,            0.,NA,NA,"",   1.03456E+06,   1.02615E+06,   1.02615E+06
C:/temp/Job-23.odb,Step-1,Increment      1: Step Time =    1.000,"P-23-1",          1104,       95.1345,       66.5813,            0.,NA,NA,"",   1.01127E+06,   1.02654E+06,   1.02654E+06
C:/temp/Job-23.odb,Step-1,Increment      1: Step Time =    1.000,"P-23-1",          1105,       113.696,       129.382,            0.,NA,NA,"",   1.03055E+06,   1.03279E+06,   1.03279E+06
C:/temp/Job-23.odb,Step-1,Increment      1: Step Time =    1.000,"P-23-1",          1106,       104.899,       132.353,            0.,NA,NA,"",   1.01386E+06,   1.02627E+06,   1.02627E+06
C:/temp/Job-23.odb,Step-1,Increment      1: Step Time =    1.000,"P-23-1",          1107,       67.4291,       88.4137,            0.,NA,NA,"",   972.967E+03,   1.00111E+06,   1.00111E+06
C:/temp/Job-23.odb,Step-1,Increment      1: Step Time =    1.000,"P-23-1",          1108,       130.378,       87.5916,            0.,NA,NA,"",   1.00623E+06,   1.00215E+06,   1.00215E+06
C:/temp/Job-23.odb,Step-1,Increment      1: Step Time =    1.000,"P-23-1",          1109,       86.0092,       70.0600,            0.,NA,NA,"",   1.02348E+06,   1.03604E+06,   1.03604E+06
C:/temp/Job-23.odb,Step-1,Increment      1: Step Time =    1.000,"P-23-1",          1110,       80.5914,       122.231,            0.,NA,NA,"",   1.02904E+06,   1.03954E+06,   1.03954E+06
C:/temp/Job-23.odb,Step-1,Increment      1: Step Time =    1.000,"P-23-1",          1111,       68.1863,       99.5075,            0.,NA,NA,"",   946.093E+03,   979.080E+03,   979.080E+03
C:/temp/Job-23.odb,Step-1,Increment      1: Step Time =    1.000,"P-23-1",          1112,       92.6864,       131.315,            0.,NA,NA,"",   1.01494E+06,   1.03057E+06,   1.03057E+06
C:/temp/Job-23.odb,Step-1,Increment      1: Step Time =    1.000,"P-23-1",          1113,       47.8924,       179.137,            0.,NA,NA,"",   995.665E+03,   1.00463E+06,   1.00463E+06
C:/temp/Job-23.odb,Step-1,Increment      1: Step Time =    1.000,"P-23-1",          1114,       20.3854,       152.316,            0.,NA,NA,"",   925.829E+03,   1.00014E+06,   1.00014E+06
C:/temp/Job-23.odb,Step-1,Increment      1: Step Time =    1.000,"P-23-1",          1115,       173.041,       48.4969,            0.,NA,NA,"",   1.00502E+06,   1.00154E+06,   1.00154E+06
C:/temp/Job-23.odb,Step-1,Increment      1: Step Time =    1.000,"P-23-1",          1116,       180.498,       49.2312,            0.,NA,NA,"",   1.00446E+06,   1.00088E+06,   1.00088E+06
C:/temp/Job-23.odb,Step-1,Increment      1: Step Time =    1.000,"P-23-1",          1117,       152.819,       21.5060,            0.,NA,NA,"",   995.430E+03,   994.346E+03,   994.346E+03
C:/temp/Job-23.odb,Step-1,Increment      1: Step Time =    1.000,"P-23-1",          1118,       153.559,       179.187,            0.,NA,NA,"",   995.508E+03,   994.435E+03,   994.435E+03
C:/temp/Job-23.odb,Step-1,Increment      1: Step Time =    1.000,"P-23-1",          1119,       149.386,       172.311,            0.,NA,NA,"",   998.267E+03,   996.645E+03,   996.645E+03
C:/temp/Job-23.odb,Step-1,Increment      1: Step Time =    1.000,"P-23-1",          1120,       180.876,       152.039,            0.,NA,NA,"",   1.00428E+06,   1.00080E+06,   1.00080E+06
C:/temp/Job-23.odb,Step-1,Increment      1: Step Time =    1.000,"P-23-1",          1121,       21.0772,       48.9162,            0.,NA,NA,"",   924.630E+03,   998.657E+03,   998.657E+03
C:/temp/Job-23.odb,Step-1,Increment      1: Step Time =    1.000,"P-23-1",          1122,       48.0191,       17.5779,            0.,NA,NA,"",   992.060E+03,   999.282E+03,   999.282E+03
C:/temp/Job-23.odb,Step-1,Increment      1: Step Time =    1.000,"P-23-1",          1123,       49.2091,       26.9315,            0.,NA,NA,"",   999.863E+03,   1.01312E+06,   1.01312E+06
C:/temp/Job-23.odb,Step-1,Increment      1: Step Time =    1.000,"P-23-1",          1124,       68.1913,       94.0447,            0.,NA,NA,"",   956.407E+03,   987.186E+03,   987.186E+03
C:/temp/Job-23.odb,Step-1,Increment      1: Step Time =    1.000,"P-23-1",          1125,       132.223,       107.294,            0.,NA,NA,"",   989.433E+03,   989.149E+03,   989.149E+03
C:/temp/Job-23.odb,Step-1,Increment      1: Step Time =    1.000,"P-23-1",          1126,       101.576,       135.733,            0.,NA,NA,"",   1.00966E+06,   1.02247E+06,   1.02247E+06
C:/temp/Job-23.odb,Step-1,Increment      1: Step Time =    1.000,"P-23-1",          1127,       27.1631,       154.627,            0.,NA,NA,"",   949.788E+03,   1.01074E+06,   1.01074E+06
C:/temp/Job-23.odb,Step-1,Increment      1: Step Time =    1.000,"P-23-1",          1128,       74.9805,       82.8678,            0.,NA,NA,"",   1.00921E+06,   1.02390E+06,   1.02390E+06
C:/temp/Job-23.odb,Step-1,Increment      1: Step Time =    1.000,"P-23-1",          1129,       152.872,       173.602,            0.,NA,NA,"",   998.112E+03,   996.549E+03,   996.549E+03
C:/temp/Job-23.odb,Step-1,Increment      1: Step Time =    1.000,"P-23-1",          1130,       44.9045,       27.9243,            0.,NA,NA,"",   1.00212E+06,   1.01932E+06,   1.01932E+06
C:/temp/Job-23.odb,Step-1,Increment      1: Step Time =    1.000,"P-23-1",          1131,       74.0939,       121.930,            0.,NA,NA,"",   1.01389E+06,   1.02936E+06,   1.02936E+06
C:/temp/Job-23.odb,Step-1,Increment      1: Step Time =    1.000,"P-23-1",          1132,       118.840,       73.6532,            0.,NA,NA,"",   1.03751E+06,   1.03350E+06,   1.03350E+06
C:/temp/Job-23.odb,Step-1,Increment      1: Step Time =    1.000,"P-23-1",          1133,       125.769,       79.9656,            0.,NA,NA,"",   1.02928E+06,   1.02162E+06,   1.02162E+06
C:/temp/Job-23.odb,Step-1,Increment      1: Step Time =    1.000,"P-23-1",          1134,       168.078,       47.9085,            0.,NA,NA,"",   1.00550E+06,   1.00203E+06,   1.00203E+06
C:/temp/Job-23.odb,Step-1,Increment      1: Step Time =    1.000,"P-23-1",          1135,       150.704,       167.774,            0.,NA,NA,"",   1.00067E+06,   998.604E+03,   998.604E+03
C:/temp/Job-23.odb,Step-1,Increment      1: Step Time =    1.000,"P-23-1",          1136,       50.2540,       31.7925,            0.,NA,NA,"",   1.00032E+06,   1.01698E+06,   1.01698E+06
C:/temp/Job-23.odb,Step-1,Increment      1: Step Time =    1.000,"P-23-1",          1137,       30.0103,       149.657,            0.,NA,NA,"",   947.522E+03,   1.00720E+06,   1.00720E+06
C:/temp/Job-23.odb,Step-1,Increment      1: Step Time =    1.000,"P-23-1",          1138,       88.9718,       133.619,            0.,NA,NA,"",   1.01665E+06,   1.03014E+06,   1.03014E+06
C:/temp/Job-23.odb,Step-1,Increment      1: Step Time =    1.000,"P-23-1",          1139,       94.9961,       134.984,            0.,NA,NA,"",   1.01076E+06,   1.02519E+06,   1.02519E+06
C:/temp/Job-23.odb,Step-1,Increment      1: Step Time =    1.000,"P-23-1",          1140,       66.9627,       110.338,            0.,NA,NA,"",   968.795E+03,   998.094E+03,   998.094E+03
C:/temp/Job-23.odb,Step-1,Increment      1: Step Time =    1.000,"P-23-1",          1141,       99.0317,       64.1301,            0.,NA,NA,"",   1.00909E+06,   1.02269E+06,   1.02269E+06
C:/temp/Job-23.odb,Step-1,Increment      1: Step Time =    1.000,"P-23-1",          1142,       120.969,       120.913,            0.,NA,NA,"",   1.03915E+06,   1.03180E+06,   1.03180E+06
C:/temp/Job-23.odb,Step-1,Increment      1: Step Time =    1.000,"P-23-1",          1143,       76.9508,       77.1356,            0.,NA,NA,"",   1.01855E+06,   1.03225E+06,   1.03225E+06
C:/temp/Job-23.odb,Step-1,Increment      1: Step Time =    1.000,"P-23-1",          1144,       134.944,       111.359,            0.,NA,NA,"",   1.00136E+06,   998.726E+03,   998.726E+03
C:/temp/Job-23.odb,Step-1,Increment      1: Step Time =    1.000,"P-23-1",          1145,       108.294,       135.471,            0.,NA,NA,"",   1.01605E+06,   1.02408E+06,   1.02408E+06
C:/temp/Job-23.odb,Step-1,Increment      1: Step Time =    1.000,"P-23-1",          1146,       65.4561,       96.6689,            0.,NA,NA,"",   950.785E+03,   985.442E+03,   985.442E+03
C:/temp/Job-23.odb,Step-1,Increment      1: Step Time =    1.000,"P-23-1",          1147,       111.255,       132.557,            0.,NA,NA,"",   1.02278E+06,   1.02829E+06,   1.02829E+06
C:/temp/Job-23.odb,Step-1,Increment      1: Step Time =    1.000,"P-23-1",          1148,       65.1446,       91.4385,            0.,NA,NA,"",   961.520E+03,   994.025E+03,   994.025E+03
C:/temp/Job-23.odb,Step-1,Increment      1: Step Time =    1.000,"P-23-1",          1149,       131.807,       116.381,            0.,NA,NA,"",   1.01457E+06,   1.00918E+06,   1.00918E+06
C:/temp/Job-23.odb,Step-1,Increment      1: Step Time =    1.000,"P-23-1",          1150,       88.2867,       66.1891,            0.,NA,NA,"",   1.01742E+06,   1.03063E+06,   1.03063E+06
C:/temp/Job-23.odb,Step-1,Increment      1: Step Time =    1.000,"P-23-1",          1151,       125.855,       120.093,            0.,NA,NA,"",   1.02808E+06,   1.02129E+06,   1.02129E+06
C:/temp/Job-23.odb,Step-1,Increment      1: Step Time =    1.000,"P-23-1",          1152,       134.025,       89.5130,            0.,NA,NA,"",   999.130E+03,   996.981E+03,   996.981E+03
C:/temp/Job-23.odb,Step-1,Increment      1: Step Time =    1.000,"P-23-1",          1153,       83.6518,       132.495,            0.,NA,NA,"",   1.02050E+06,   1.03301E+06,   1.03301E+06
C:/temp/Job-23.odb,Step-1,Increment      1: Step Time =    1.000,"P-23-1",          1154,       121.442,       130.413,            0.,NA,NA,"",   1.03242E+06,   1.02864E+06,   1.02864E+06
C:/temp/Job-23.odb,Step-1,Increment      1: Step Time =    1.000,"P-23-1",          1155,       78.2602,       119.663,            0.,NA,NA,"",   1.01655E+06,   1.02874E+06,   1.02874E+06
C:/temp/Job-23.odb,Step-1,Increment      1: Step Time =    1.000,"P-23-1",          1156,       65.1770,       82.7600,            0.,NA,NA,"",   981.430E+03,   1.00979E+06,   1.00979E+06
C:/temp/Job-23.odb,Step-1,Increment      1: Step Time =    1.000,"P-23-1",          1157,       82.4293,       68.0217,            0.,NA,NA,"",   1.02094E+06,   1.03329E+06,   1.03329E+06
C:/temp/Job-23.odb,Step-1,Increment      1: Step Time =    1.000,"P-23-1",          1158,       121.455,       78.4520,            0.,NA,NA,"",   1.03780E+06,   1.03090E+06,   1.03090E+06
C:/temp/Job-23.odb,Step-1,Increment      1: Step Time =    1.000,"P-23-1",          1159,       68.8726,       117.772,            0.,NA,NA,"",   992.070E+03,   1.01495E+06,   1.01495E+06
C:/temp/Job-23.odb,Step-1,Increment      1: Step Time =    1.000,"P-23-1",          1160,       80.3077,       127.070,            0.,NA,NA,"",   1.02426E+06,   1.03651E+06,   1.03651E+06
C:/temp/Job-23.odb,Step-1,Increment      1: Step Time =    1.000,"P-23-1",          1161,       132.078,       84.3868,            0.,NA,NA,"",   1.01275E+06,   1.00798E+06,   1.00798E+06
C:/temp/Job-23.odb,Step-1,Increment      1: Step Time =    1.000,"P-23-1",          1162,       44.7235,       176.305,            0.,NA,NA,"",   1.00121E+06,   1.01472E+06,   1.01472E+06
C:/temp/Job-23.odb,Step-1,Increment      1: Step Time =    1.000,"P-23-1",          1163,       50.9147,       181.463,            0.,NA,NA,"",   990.046E+03,   995.972E+03,   995.972E+03
C:/temp/Job-23.odb,Step-1,Increment      1: Step Time =    1.000,"P-23-1",          1164,       14.5282,       151.376,            0.,NA,NA,"",   903.001E+03,   988.428E+03,   988.428E+03
C:/temp/Job-23.odb,Step-1,Increment      1: Step Time =    1.000,"P-23-1",          1165,       178.729,       45.1058,            0.,NA,NA,"",   1.00406E+06,   1.00079E+06,   1.00079E+06
C:/temp/Job-23.odb,Step-1,Increment      1: Step Time =    1.000,"P-23-1",          1166,       184.530,       49.5343,            0.,NA,NA,"",   1.00419E+06,   1.00055E+06,   1.00055E+06
C:/temp/Job-23.odb,Step-1,Increment      1: Step Time =    1.000,"P-23-1",          1167,       156.731,       23.9149,            0.,NA,NA,"",   997.253E+03,   995.934E+03,   995.934E+03
C:/temp/Job-23.odb,Step-1,Increment      1: Step Time =    1.000,"P-23-1",          1168,       149.450,       19.1759,            0.,NA,NA,"",   993.534E+03,   992.666E+03,   992.666E+03
C:/temp/Job-23.odb,Step-1,Increment      1: Step Time =    1.000,"P-23-1",          1169,       184.133,       149.401,            0.,NA,NA,"",   1.00444E+06,   1.00069E+06,   1.00069E+06
C:/temp/Job-23.odb,Step-1,Increment      1: Step Time =    1.000,"P-23-1",          1170,       151.323,       183.078,            0.,NA,NA,"",   993.250E+03,   992.479E+03,   992.479E+03
C:/temp/Job-23.odb,Step-1,Increment      1: Step Time =    1.000,"P-23-1",          1171,       49.6125,       14.7481,            0.,NA,NA,"",   984.100E+03,   988.806E+03,   988.806E+03
C:/temp/Job-23.odb,Step-1,Increment      1: Step Time =    1.000,"P-23-1",          1172,       17.4412,       54.1593,            0.,NA,NA,"",   901.668E+03,   984.588E+03,   984.588E+03
C:/temp/Job-23.odb,Step-1,Increment      1: Step Time =    1.000,"P-23-1",          1173,       118.656,       123.536,            0.,NA,NA,"",   1.04164E+06,   1.03632E+06,   1.03632E+06
C:/temp/Job-23.odb,Step-1,Increment      1: Step Time =    1.000,"P-23-1",          1174,       73.0331,       78.9824,            0.,NA,NA,"",   1.00883E+06,   1.02587E+06,   1.02587E+06
C:/temp/Job-23.odb,Step-1,Increment      1: Step Time =    1.000,"P-23-1",          1175,       174.016,       42.5008,            0.,NA,NA,"",   1.00380E+06,   1.00078E+06,   1.00078E+06
C:/temp/Job-23.odb,Step-1,Increment      1: Step Time =    1.000,"P-23-1",          1176,       161.068,       26.3442,            0.,NA,NA,"",   998.802E+03,   997.251E+03,   997.251E+03
C:/temp/Job-23.odb,Step-1,Increment      1: Step Time =    1.000,"P-23-1",          1177,       26.5617,       161.561,            0.,NA,NA,"",   967.894E+03,   1.02290E+06,   1.02290E+06
C:/temp/Job-23.odb,Step-1,Increment      1: Step Time =    1.000,"P-23-1",          1178,       37.3218,       176.048,            0.,NA,NA,"",   1.00696E+06,   1.02658E+06,   1.02658E+06
C:/temp/Job-23.odb,Step-1,Increment      1: Step Time =    1.000,"P-23-1",          1179,       73.5701,       88.5437,            0.,NA,NA,"",   984.665E+03,   1.00432E+06,   1.00432E+06
C:/temp/Job-23.odb,Step-1,Increment      1: Step Time =    1.000,"P-23-1",          1180,       100.552,       57.8427,            0.,NA,NA,"",   1.00803E+06,   1.01793E+06,   1.01793E+06
C:/temp/Job-23.odb,Step-1,Increment      1: Step Time =    1.000,"P-23-1",          1181,       118.719,       70.0380,            0.,NA,NA,"",   1.03199E+06,   1.03005E+06,   1.03005E+06
C:/temp/Job-23.odb,Step-1,Increment      1: Step Time =    1.000,"P-23-1",          1182,       97.6113,       139.839,            0.,NA,NA,"",   1.00851E+06,   1.02026E+06,   1.02026E+06
C:/temp/Job-23.odb,Step-1,Increment      1: Step Time =    1.000,"P-23-1",          1183,       67.8474,       104.982,            0.,NA,NA,"",   953.783E+03,   985.437E+03,   985.437E+03
C:/temp/Job-23.odb,Step-1,Increment      1: Step Time =    1.000,"P-23-1",          1184,       80.1246,       130.792,            0.,NA,NA,"",   1.02076E+06,   1.03373E+06,   1.03373E+06
C:/temp/Job-23.odb,Step-1,Increment      1: Step Time =    1.000,"P-23-1",          1185,       87.6962,       138.237,            0.,NA,NA,"",   1.01341E+06,   1.02584E+06,   1.02584E+06
C:/temp/Job-23.odb,Step-1,Increment      1: Step Time =    1.000,"P-23-1",          1186,       78.5539,       71.5731,            0.,NA,NA,"",   1.02000E+06,   1.03352E+06,   1.03352E+06
C:/temp/Job-23.odb,Step-1,Increment      1: Step Time =    1.000,"P-23-1",          1187,       62.5112,       99.0073,            0.,NA,NA,"",   949.114E+03,   986.804E+03,   986.804E+03
C:/temp/Job-23.odb,Step-1,Increment      1: Step Time =    1.000,"P-23-1",          1188,       103.170,       61.5967,            0.,NA,NA,"",   1.00987E+06,   1.02035E+06,   1.02035E+06
C:/temp/Job-23.odb,Step-1,Increment      1: Step Time =    1.000,"P-23-1",          1189,       133.599,       99.0513,            0.,NA,NA,"",   980.919E+03,   982.592E+03,   982.592E+03
C:/temp/Job-23.odb,Step-1,Increment      1: Step Time =    1.000,"P-23-1",          1190,       135.726,       86.0363,            0.,NA,NA,"",   1.00710E+06,   1.00350E+06,   1.00350E+06
C:/temp/Job-23.odb,Step-1,Increment      1: Step Time =    1.000,"P-23-1",          1191,       132.076,       93.0341,            0.,NA,NA,"",   988.798E+03,   988.457E+03,   988.457E+03
C:/temp/Job-23.odb,Step-1,Increment      1: Step Time =    1.000,"P-23-1",          1192,       121.727,       126.180,            0.,NA,NA,"",   1.03525E+06,   1.03035E+06,   1.03035E+06
C:/temp/Job-23.odb,Step-1,Increment      1: Step Time =    1.000,"P-23-1",          1193,       70.1021,       80.8825,            0.,NA,NA,"",   999.631E+03,   1.02053E+06,   1.02053E+06
C:/temp/Job-23.odb,Step-1,Increment      1: Step Time =    1.000,"P-23-1",          1194,       59.9736,       96.0757,            0.,NA,NA,"",   949.992E+03,   989.663E+03,   989.663E+03
C:/temp/Job-23.odb,Step-1,Increment      1: Step Time =    1.000,"P-23-1",          1195,       34.4558,       148.812,            0.,NA,NA,"",   957.024E+03,   1.01042E+06,   1.01042E+06
C:/temp/Job-23.odb,Step-1,Increment      1: Step Time =    1.000,"P-23-1",          1196,       137.583,       101.571,            0.,NA,NA,"",   986.860E+03,   987.500E+03,   987.500E+03
C:/temp/Job-23.odb,Step-1,Increment      1: Step Time =    1.000,"P-23-1",          1197,       162.731,       51.7555,            0.,NA,NA,"",   1.00721E+06,   1.00343E+06,   1.00343E+06
C:/temp/Job-23.odb,Step-1,Increment      1: Step Time =    1.000,"P-23-1",          1198,       149.487,       161.160,            0.,NA,NA,"",   1.00426E+06,   1.00158E+06,   1.00158E+06
C:/temp/Job-23.odb,Step-1,Increment      1: Step Time =    1.000,"P-23-1",          1199,       50.9698,       36.5061,            0.,NA,NA,"",   998.781E+03,   1.01866E+06,   1.01866E+06
C:/temp/Job-23.odb,Step-1,Increment      1: Step Time =    1.000,"P-23-1",          1200,       47.9235,       173.220,            0.,NA,NA,"",   1.00077E+06,   1.01508E+06,   1.01508E+06
C:/temp/Job-23.odb,Step-1,Increment      1: Step Time =    1.000,"P-23-1",          1201,       18.6625,       157.342,            0.,NA,NA,"",   932.686E+03,   1.00712E+06,   1.00712E+06
C:/temp/Job-23.odb,Step-1,Increment      1: Step Time =    1.000,"P-23-1",          1202,       154.572,       28.2790,            0.,NA,NA,"",   999.048E+03,   997.324E+03,   997.324E+03
C:/temp/Job-23.odb,Step-1,Increment      1: Step Time =    1.000,"P-23-1",          1203,       182.024,       47.1306,            0.,NA,NA,"",   1.00417E+06,   1.00072E+06,   1.00072E+06
C:/temp/Job-23.odb,Step-1,Increment      1: Step Time =    1.000,"P-23-1",          1204,       156.309,       180.717,            0.,NA,NA,"",   995.532E+03,   994.552E+03,   994.552E+03
C:/temp/Job-23.odb,Step-1,Increment      1: Step Time =    1.000,"P-23-1",          1205,       43.7827,       15.6201,            0.,NA,NA,"",   992.777E+03,   999.184E+03,   999.184E+03
C:/temp/Job-23.odb,Step-1,Increment      1: Step Time =    1.000,"P-23-1",          1206,       129.766,       79.9757,            0.,NA,NA,"",   1.02219E+06,   1.01523E+06,   1.01523E+06
C:/temp/Job-23.odb,Step-1,Increment      1: Step Time =    1.000,"P-23-1",          1207,       78.0943,       129.522,            0.,NA,NA,"",   1.01941E+06,   1.03299E+06,   1.03299E+06
C:/temp/Job-23.odb,Step-1,Increment      1: Step Time =    1.000,"P-23-1",          1208,       80.0534,       133.251,            0.,NA,NA,"",   1.01848E+06,   1.03145E+06,   1.03145E+06
C:/temp/Job-23.odb,Step-1,Increment      1: Step Time =    1.000,"P-23-1",          1209,       83.6278,       73.0895,            0.,NA,NA,"",   1.02865E+06,   1.03987E+06,   1.03987E+06
C:/temp/Job-23.odb,Step-1,Increment      1: Step Time =    1.000,"P-23-1",          1210,       106.020,       65.5369,            0.,NA,NA,"",   1.01388E+06,   1.02457E+06,   1.02457E+06
C:/temp/Job-23.odb,Step-1,Increment      1: Step Time =    1.000,"P-23-1",          1211,       92.1575,       140.807,            0.,NA,NA,"",   1.00974E+06,   1.02162E+06,   1.02162E+06
C:/temp/Job-23.odb,Step-1,Increment      1: Step Time =    1.000,"P-23-1",          1212,       114.668,       71.0587,            0.,NA,NA,"",   1.03387E+06,   1.03527E+06,   1.03527E+06
C:/temp/Job-23.odb,Step-1,Increment      1: Step Time =    1.000,"P-23-1",          1213,       123.528,       69.8389,            0.,NA,NA,"",   1.03040E+06,   1.02632E+06,   1.02632E+06
C:/temp/Job-23.odb,Step-1,Increment      1: Step Time =    1.000,"P-23-1",          1214,       95.3054,       55.7678,            0.,NA,NA,"",   1.00709E+06,   1.01757E+06,   1.01757E+06
C:/temp/Job-23.odb,Step-1,Increment      1: Step Time =    1.000,"P-23-1",          1215,       120.876,       132.995,            0.,NA,NA,"",   1.02940E+06,   1.02701E+06,   1.02701E+06
C:/temp/Job-23.odb,Step-1,Increment      1: Step Time =    1.000,"P-23-1",          1216,       66.8110,       78.9509,            0.,NA,NA,"",   991.615E+03,   1.01629E+06,   1.01629E+06
C:/temp/Job-23.odb,Step-1,Increment      1: Step Time =    1.000,"P-23-1",          1217,       140.883,       104.839,            0.,NA,NA,"",   994.089E+03,   993.381E+03,   993.381E+03
C:/temp/Job-23.odb,Step-1,Increment      1: Step Time =    1.000,"P-23-1",          1218,       57.7427,       92.7834,            0.,NA,NA,"",   952.979E+03,   993.899E+03,   993.899E+03
C:/temp/Job-23.odb,Step-1,Increment      1: Step Time =    1.000,"P-23-1",          1219,       22.6959,       159.613,            0.,NA,NA,"",   951.592E+03,   1.01618E+06,   1.01618E+06
C:/temp/Job-23.odb,Step-1,Increment      1: Step Time =    1.000,"P-23-1",          1220,       35.9006,       181.357,            0.,NA,NA,"",   1.00940E+06,   1.02344E+06,   1.02344E+06
C:/temp/Job-23.odb,Step-1,Increment      1: Step Time =    1.000,"P-23-1",          1221,       178.403,       39.3001,            0.,NA,NA,"",   1.00300E+06,   1.00025E+06,   1.00025E+06
C:/temp/Job-23.odb,Step-1,Increment      1: Step Time =    1.000,"P-23-1",          1222,       168.114,       19.9765,            0.,NA,NA,"",   997.638E+03,   996.653E+03,   996.653E+03
C:/temp/Job-23.odb,Step-1,Increment      1: Step Time =    1.000,"P-23-1",          1223,       37.0773,       143.000,            0.,NA,NA,"",   953.862E+03,   1.00714E+06,   1.00714E+06
C:/temp/Job-23.odb,Step-1,Increment      1: Step Time =    1.000,"P-23-1",          1224,       36.0963,       154.201,            0.,NA,NA,"",   970.798E+03,   1.01724E+06,   1.01724E+06
C:/temp/Job-23.odb,Step-1,Increment      1: Step Time =    1.000,"P-23-1",          1225,       161.434,       55.2636,            0.,NA,NA,"",   1.00811E+06,   1.00410E+06,   1.00410E+06
C:/temp/Job-23.odb,Step-1,Increment      1: Step Time =    1.000,"P-23-1",          1226,       163.196,       47.4150,            0.,NA,NA,"",   1.00612E+06,   1.00266E+06,   1.00266E+06
C:/temp/Job-23.odb,Step-1,Increment      1: Step Time =    1.000,"P-23-1",          1227,       143.188,       161.127,            0.,NA,NA,"",   1.00457E+06,   1.00207E+06,   1.00207E+06
C:/temp/Job-23.odb,Step-1,Increment      1: Step Time =    1.000,"P-23-1",          1228,       153.098,       163.196,            0.,NA,NA,"",   1.00299E+06,   1.00047E+06,   1.00047E+06
C:/temp/Job-23.odb,Step-1,Increment      1: Step Time =    1.000,"P-23-1",          1229,       55.0164,       35.9003,            0.,NA,NA,"",   1.00013E+06,   1.01658E+06,   1.01658E+06
C:/temp/Job-23.odb,Step-1,Increment      1: Step Time =    1.000,"P-23-1",          1230,       46.8405,       37.1343,            0.,NA,NA,"",   996.705E+03,   1.02091E+06,   1.02091E+06
C:/temp/Job-23.odb,Step-1,Increment      1: Step Time =    1.000,"P-23-1",          1231,       152.490,       32.6908,            0.,NA,NA,"",   1.00106E+06,   998.939E+03,   998.939E+03
C:/temp/Job-23.odb,Step-1,Increment      1: Step Time =    1.000,"P-23-1",          1232,       68.9188,       121.928,            0.,NA,NA,"",   998.389E+03,   1.02030E+06,   1.02030E+06
C:/temp/Job-23.odb,Step-1,Increment      1: Step Time =    1.000,"P-23-1",          1233,       48.9404,       167.289,            0.,NA,NA,"",   999.317E+03,   1.01783E+06,   1.01783E+06
C:/temp/Job-23.odb,Step-1,Increment      1: Step Time =    1.000,"P-23-1",          1234,       101.934,       129.250,            0.,NA,NA,"",   1.01062E+06,   1.02809E+06,   1.02809E+06
C:/temp/Job-23.odb,Step-1,Increment      1: Step Time =    1.000,"P-23-1",          1235,       94.1769,       163.129,            0.,NA,NA,"",   997.693E+03,   1.00189E+06,   1.00189E+06
C:/temp/Job-23.odb,Step-1,Increment      1: Step Time =    1.000,"P-23-1",          1236,       160.705,       105.663,            0.,NA,NA,"",   1.00272E+06,   999.586E+03,   999.586E+03
C:/temp/Job-23.odb,Step-1,Increment      1: Step Time =    1.000,"P-23-1",          1237,       38.8071,       26.7918,            0.,NA,NA,"",   1.00423E+06,   1.02646E+06,   1.02646E+06
C:/temp/Job-23.odb,Step-1,Increment      1: Step Time =    1.000,"P-23-1",          1238,       158.864,       171.746,            0.,NA,NA,"",   999.465E+03,   997.717E+03,   997.717E+03
C:/temp/Job-23.odb,Step-1,Increment      1: Step Time =    1.000,"P-23-1",          1239,       106.036,       36.2838,            0.,NA,NA,"",   997.298E+03,   999.766E+03,   999.766E+03
C:/temp/Job-23.odb,Step-1,Increment      1: Step Time =    1.000,"P-23-1",          1240,       78.1597,       67.3515,            0.,NA,NA,"",   1.01756E+06,   1.03141E+06,   1.03141E+06
C:/temp/Job-23.odb,Step-1,Increment      1: Step Time =    1.000,"P-23-1",          1241,       75.5487,       127.830,            0.,NA,NA,"",   1.01726E+06,   1.03161E+06,   1.03161E+06
C:/temp/Job-23.odb,Step-1,Increment      1: Step Time =    1.000,"P-23-1",          1242,       111.122,       62.1490,            0.,NA,NA,"",   1.01723E+06,   1.02241E+06,   1.02241E+06
C:/temp/Job-23.odb,Step-1,Increment      1: Step Time =    1.000,"P-23-1",          1243,       117.756,       66.0424,            0.,NA,NA,"",   1.02605E+06,   1.02623E+06,   1.02623E+06
C:/temp/Job-23.odb,Step-1,Increment      1: Step Time =    1.000,"P-23-1",          1244,       122.361,       65.3484,            0.,NA,NA,"",   1.02616E+06,   1.02367E+06,   1.02367E+06
C:/temp/Job-23.odb,Step-1,Increment      1: Step Time =    1.000,"P-23-1",          1245,       124.537,       129.427,            0.,NA,NA,"",   1.03201E+06,   1.02693E+06,   1.02693E+06
C:/temp/Job-23.odb,Step-1,Increment      1: Step Time =    1.000,"P-23-1",          1246,       91.2348,       61.4143,            0.,NA,NA,"",   1.01173E+06,   1.02425E+06,   1.02425E+06
C:/temp/Job-23.odb,Step-1,Increment      1: Step Time =    1.000,"P-23-1",          1247,       98.4645,       54.1521,            0.,NA,NA,"",   1.00736E+06,   1.01628E+06,   1.01628E+06
C:/temp/Job-23.odb,Step-1,Increment      1: Step Time =    1.000,"P-23-1",          1248,       141.244,       110.914,            0.,NA,NA,"",   1.00058E+06,   998.359E+03,   998.359E+03
C:/temp/Job-23.odb,Step-1,Increment      1: Step Time =    1.000,"P-23-1",          1249,       144.277,       102.123,            0.,NA,NA,"",   994.681E+03,   993.803E+03,   993.803E+03
C:/temp/Job-23.odb,Step-1,Increment      1: Step Time =    1.000,"P-23-1",          1250,       56.7921,       98.1054,            0.,NA,NA,"",   946.971E+03,   989.958E+03,   989.958E+03
C:/temp/Job-23.odb,Step-1,Increment      1: Step Time =    1.000,"P-23-1",          1251,       60.7065,       91.9671,            0.,NA,NA,"",   956.260E+03,   993.898E+03,   993.898E+03
C:/temp/Job-23.odb,Step-1,Increment      1: Step Time =    1.000,"P-23-1",          1252,       63.6516,       117.740,            0.,NA,NA,"",   978.930E+03,   1.00909E+06,   1.00909E+06
C:/temp/Job-23.odb,Step-1,Increment      1: Step Time =    1.000,"P-23-1",          1253,       31.5478,       139.925,            0.,NA,NA,"",   935.049E+03,   998.303E+03,   998.303E+03
C:/temp/Job-23.odb,Step-1,Increment      1: Step Time =    1.000,"P-23-1",          1254,       40.4892,       151.777,            0.,NA,NA,"",   975.068E+03,   1.01699E+06,   1.01699E+06
C:/temp/Job-23.odb,Step-1,Increment      1: Step Time =    1.000,"P-23-1",          1255,       30.7053,       172.998,            0.,NA,NA,"",   1.00681E+06,   1.03794E+06,   1.03794E+06
C:/temp/Job-23.odb,Step-1,Increment      1: Step Time =    1.000,"P-23-1",          1256,       13.4023,       160.646,            0.,NA,NA,"",   923.102E+03,   1.00585E+06,   1.00585E+06
C:/temp/Job-23.odb,Step-1,Increment      1: Step Time =    1.000,"P-23-1",          1257,       25.2507,       165.468,            0.,NA,NA,"",   976.690E+03,   1.02985E+06,   1.02985E+06
C:/temp/Job-23.odb,Step-1,Increment      1: Step Time =    1.000,"P-23-1",          1258,       184.575,       39.7771,            0.,NA,NA,"",   1.00296E+06,   1.00013E+06,   1.00013E+06
C:/temp/Job-23.odb,Step-1,Increment      1: Step Time =    1.000,"P-23-1",          1259,       176.361,       35.4368,            0.,NA,NA,"",   1.00227E+06,   999.852E+03,   999.852E+03
C:/temp/Job-23.odb,Step-1,Increment      1: Step Time =    1.000,"P-23-1",          1260,       168.016,       24.5561,            0.,NA,NA,"",   998.936E+03,   997.553E+03,   997.553E+03
C:/temp/Job-23.odb,Step-1,Increment      1: Step Time =    1.000,"P-23-1",          1261,       164.658,       18.5986,            0.,NA,NA,"",   996.729E+03,   995.837E+03,   995.837E+03
C:/temp/Job-23.odb,Step-1,Increment      1: Step Time =    1.000,"P-23-1",          1262,       165.656,       57.2128,            0.,NA,NA,"",   1.00754E+06,   1.00348E+06,   1.00348E+06
C:/temp/Job-23.odb,Step-1,Increment      1: Step Time =    1.000,"P-23-1",          1263,       158.961,       47.0955,            0.,NA,NA,"",   1.00664E+06,   1.00319E+06,   1.00319E+06
C:/temp/Job-23.odb,Step-1,Increment      1: Step Time =    1.000,"P-23-1",          1264,       139.302,       162.584,            0.,NA,NA,"",   1.00364E+06,   1.00149E+06,   1.00149E+06
C:/temp/Job-23.odb,Step-1,Increment      1: Step Time =    1.000,"P-23-1",          1265,       152.113,       157.202,            0.,NA,NA,"",   1.00614E+06,   1.00301E+06,   1.00301E+06
C:/temp/Job-23.odb,Step-1,Increment      1: Step Time =    1.000,"P-23-1",          1266,       59.1781,       35.9257,            0.,NA,NA,"",   1.00065E+06,   1.01463E+06,   1.01463E+06
C:/temp/Job-23.odb,Step-1,Increment      1: Step Time =    1.000,"P-23-1",          1267,       47.1931,       41.5100,            0.,NA,NA,"",   993.366E+03,   1.02086E+06,   1.02086E+06
C:/temp/Job-23.odb,Step-1,Increment      1: Step Time =    1.000,"P-23-1",          1268,       89.7464,       166.717,            0.,NA,NA,"",   994.993E+03,   998.785E+03,   998.785E+03
C:/temp/Job-23.odb,Step-1,Increment      1: Step Time =    1.000,"P-23-1",          1269,       99.8556,       162.950,            0.,NA,NA,"",   997.490E+03,   1.00105E+06,   1.00105E+06
C:/temp/Job-23.odb,Step-1,Increment      1: Step Time =    1.000,"P-23-1",          1270,       41.6029,       161.966,            0.,NA,NA,"",   993.178E+03,   1.02378E+06,   1.02378E+06
C:/temp/Job-23.odb,Step-1,Increment      1: Step Time =    1.000,"P-23-1",          1271,       156.949,       35.2172,            0.,NA,NA,"",   1.00231E+06,   999.902E+03,   999.902E+03
C:/temp/Job-23.odb,Step-1,Increment      1: Step Time =    1.000,"P-23-1",          1272,       161.245,       102.053,            0.,NA,NA,"",   1.00250E+06,   999.570E+03,   999.570E+03
C:/temp/Job-23.odb,Step-1,Increment      1: Step Time =    1.000,"P-23-1",          1273,       166.139,       109.363,            0.,NA,NA,"",   1.00404E+06,   1.00039E+06,   1.00039E+06
C:/temp/Job-23.odb,Step-1,Increment      1: Step Time =    1.000,"P-23-1",          1274,       100.890,       37.6137,            0.,NA,NA,"",   998.018E+03,   1.00166E+06,   1.00166E+06
C:/temp/Job-23.odb,Step-1,Increment      1: Step Time =    1.000,"P-23-1",          1275,       110.652,       34.8124,            0.,NA,NA,"",   996.890E+03,    998.35E+03,    998.35E+03
C:/temp/Job-23.odb,Step-1,Increment      1: Step Time =    1.000,"P-23-1",          1276,       38.6924,       32.0031,            0.,NA,NA,"",   998.494E+03,   1.02663E+06,   1.02663E+06
C:/temp/Job-23.odb,Step-1,Increment      1: Step Time =    1.000,"P-23-1",          1277,       162.577,       171.396,            0.,NA,NA,"",   999.920E+03,   998.120E+03,   998.120E+03
C:/temp/Job-23.odb,Step-1,Increment      1: Step Time =    1.000,"P-23-1",          1278,       79.8492,       136.677,            0.,NA,NA,"",   1.01565E+06,   1.02890E+06,   1.02890E+06
C:/temp/Job-23.odb,Step-1,Increment      1: Step Time =    1.000,"P-23-1",          1279,       29.9461,       102.039,            0.,NA,NA,"",   897.297E+03,    972.55E+03,    972.55E+03
C:/temp/Job-23.odb,Step-1,Increment      1: Step Time =    1.000,"P-23-1",          1280,       70.9325,       102.460,            0.,NA,NA,"",   944.237E+03,   974.743E+03,   974.743E+03
C:/temp/Job-23.odb,Step-1,Increment      1: Step Time =    1.000,"P-23-1",          1281,       167.025,       88.4379,            0.,NA,NA,"",   1.00446E+06,   1.00067E+06,   1.00067E+06
C:/temp/Job-23.odb,Step-1,Increment      1: Step Time =    1.000,"P-23-1",          1282,       89.5768,       32.9599,            0.,NA,NA,"",   994.688E+03,   998.655E+03,   998.655E+03
C:/temp/Job-23.odb,Step-1,Increment      1: Step Time =    1.000,"P-23-1",          1283,       110.079,       167.499,            0.,NA,NA,"",   995.012E+03,   996.444E+03,   996.444E+03
C:/temp/Job-23.odb,Step-1,Increment      1: Step Time =    1.000,"P-23-1",          1284,       129.709,       96.5382,            0.,NA,NA,"",   974.640E+03,   976.962E+03,   976.962E+03
C:/temp/Job-23.odb,Step-1,Increment      1: Step Time =    1.000,"P-23-1",          1285,       32.0962,       108.097,            0.,NA,NA,"",   904.234E+03,   976.235E+03,   976.235E+03
C:/temp/Job-23.odb,Step-1,Increment      1: Step Time =    1.000,"P-23-1",          1286,       161.059,       176.856,            0.,NA,NA,"",   997.710E+03,   996.408E+03,   996.408E+03
C:/temp/Job-23.odb,Step-1,Increment      1: Step Time =    1.000,"P-23-1",          1287,       35.2691,       24.9013,            0.,NA,NA,"",   1.00804E+06,   1.03134E+06,   1.03134E+06
C:/temp/Job-23.odb,Step-1,Increment      1: Step Time =    1.000,"P-23-1",          1288,       79.1457,       32.3856,            0.,NA,NA,"",   995.762E+03,   1.00095E+06,   1.00095E+06
C:/temp/Job-23.odb,Step-1,Increment      1: Step Time =    1.000,"P-23-1",          1289,       167.200,       77.4325,            0.,NA,NA,"",   1.00643E+06,   1.00224E+06,   1.00224E+06
C:/temp/Job-23.odb,Step-1,Increment      1: Step Time =    1.000,"P-23-1",          1290,       120.791,       164.143,            0.,NA,NA,"",   999.987E+03,   1.00000E+06,   1.00000E+06
C:/temp/Job-23.odb,Step-1,Increment      1: Step Time =    1.000,"P-23-1",          1291,       105.096,       167.172,            0.,NA,NA,"",   994.388E+03,   996.479E+03,   996.479E+03
C:/temp/Job-23.odb,Step-1,Increment      1: Step Time =    1.000,"P-23-1",          1292,       94.6731,       36.0008,            0.,NA,NA,"",   997.025E+03,   1.00112E+06,   1.00112E+06
C:/temp/Job-23.odb,Step-1,Increment      1: Step Time =    1.000,"P-23-1",          1293,       164.671,       98.7293,            0.,NA,NA,"",   1.00282E+06,   999.424E+03,   999.424E+03
C:/temp/Job-23.odb,Step-1,Increment      1: Step Time =    1.000,"P-23-1",          1294,       47.2290,       13.4058,            0.,NA,NA,"",   982.578E+03,   986.065E+03,   986.065E+03
C:/temp/Job-23.odb,Step-1,Increment      1: Step Time =    1.000,"P-23-1",          1295,       154.468,       184.756,            0.,NA,NA,"",   993.349E+03,   992.696E+03,   992.696E+03
C:/temp/Job-23.odb,Step-1,Increment      1: Step Time =    1.000,"P-23-1",          1296,       186.106,       47.4388,            0.,NA,NA,"",   1.00395E+06,   1.00042E+06,   1.00042E+06
C:/temp/Job-23.odb,Step-1,Increment      1: Step Time =    1.000,"P-23-1",          1297,       36.9732,       121.610,            0.,NA,NA,"",   926.059E+03,   989.130E+03,   989.130E+03
C:/temp/Job-23.odb,Step-1,Increment      1: Step Time =    1.000,"P-23-1",          1298,       68.2316,       34.7497,            0.,NA,NA,"",   999.748E+03,   1.00852E+06,   1.00852E+06
C:/temp/Job-23.odb,Step-1,Increment      1: Step Time =    1.000,"P-23-1",          1299,       130.336,       166.006,            0.,NA,NA,"",   1.00009E+06,   998.923E+03,   998.923E+03
C:/temp/Job-23.odb,Step-1,Increment      1: Step Time =    1.000,"P-23-1",          1300,       13.9753,       156.121,            0.,NA,NA,"",   912.626E+03,   996.680E+03,   996.680E+03
C:/temp/Job-23.odb,Step-1,Increment      1: Step Time =    1.000,"P-23-1",          1301,       34.6756,       159.197,            0.,NA,NA,"",   978.886E+03,   1.02252E+06,   1.02252E+06
C:/temp/Job-23.odb,Step-1,Increment      1: Step Time =    1.000,"P-23-1",          1302,       150.346,       37.0221,            0.,NA,NA,"",   1.00332E+06,   1.00080E+06,   1.00080E+06
C:/temp/Job-23.odb,Step-1,Increment      1: Step Time =    1.000,"P-23-1",          1303,       167.485,       68.0162,            0.,NA,NA,"",   1.00751E+06,   1.00317E+06,   1.00317E+06
C:/temp/Job-23.odb,Step-1,Increment      1: Step Time =    1.000,"P-23-1",          1304,       51.9785,       164.357,            0.,NA,NA,"",   999.390E+03,   1.01791E+06,   1.01791E+06
C:/temp/Job-23.odb,Step-1,Increment      1: Step Time =    1.000,"P-23-1",          1305,       72.4932,       126.275,            0.,NA,NA,"",   1.01132E+06,   1.02862E+06,   1.02862E+06
C:/temp/Job-23.odb,Step-1,Increment      1: Step Time =    1.000,"P-23-1",          1306,       58.5954,       119.084,            0.,NA,NA,"",   971.029E+03,   1.00686E+06,   1.00686E+06
C:/temp/Job-23.odb,Step-1,Increment      1: Step Time =    1.000,"P-23-1",          1307,       76.6450,       132.612,            0.,NA,NA,"",   1.01647E+06,   1.03076E+06,   1.03076E+06
C:/temp/Job-23.odb,Step-1,Increment      1: Step Time =    1.000,"P-23-1",          1308,       153.391,       49.6778,            0.,NA,NA,"",   1.00860E+06,   1.00490E+06,   1.00490E+06
C:/temp/Job-23.odb,Step-1,Increment      1: Step Time =    1.000,"P-23-1",          1309,       112.853,       67.3539,            0.,NA,NA,"",   1.02558E+06,   1.02879E+06,   1.02879E+06
C:/temp/Job-23.odb,Step-1,Increment      1: Step Time =    1.000,"P-23-1",          1310,       64.1328,       122.289,            0.,NA,NA,"",   988.189E+03,   1.01579E+06,   1.01579E+06
C:/temp/Job-23.odb,Step-1,Increment      1: Step Time =    1.000,"P-23-1",          1311,       109.519,       54.8442,            0.,NA,NA,"",   1.01059E+06,   1.01570E+06,   1.01570E+06
C:/temp/Job-23.odb,Step-1,Increment      1: Step Time =    1.000,"P-23-1",          1312,       122.058,       61.3316,            0.,NA,NA,"",   1.02221E+06,   1.02084E+06,   1.02084E+06
C:/temp/Job-23.odb,Step-1,Increment      1: Step Time =    1.000,"P-23-1",          1313,       143.910,       108.160,            0.,NA,NA,"",   999.264E+03,   997.423E+03,   997.423E+03
C:/temp/Job-23.odb,Step-1,Increment      1: Step Time =    1.000,"P-23-1",          1314,       130.623,       76.6943,            0.,NA,NA,"",   1.02410E+06,   1.01805E+06,   1.01805E+06
C:/temp/Job-23.odb,Step-1,Increment      1: Step Time =    1.000,"P-23-1",          1315,       141.371,       97.6529,            0.,NA,NA,"",   992.503E+03,   992.119E+03,   992.119E+03
C:/temp/Job-23.odb,Step-1,Increment      1: Step Time =    1.000,"P-23-1",          1316,       59.4084,       101.224,            0.,NA,NA,"",   948.327E+03,   988.824E+03,   988.824E+03
C:/temp/Job-23.odb,Step-1,Increment      1: Step Time =    1.000,"P-23-1",          1317,       128.902,       130.783,            0.,NA,NA,"",   1.02616E+06,   1.02123E+06,   1.02123E+06
C:/temp/Job-23.odb,Step-1,Increment      1: Step Time =    1.000,"P-23-1",          1318,       47.5784,       45.8638,            0.,NA,NA,"",   989.156E+03,   1.02006E+06,   1.02006E+06
C:/temp/Job-23.odb,Step-1,Increment      1: Step Time =    1.000,"P-23-1",          1319,       83.5513,       141.041,            0.,NA,NA,"",   1.01335E+06,   1.02512E+06,   1.02512E+06
C:/temp/Job-23.odb,Step-1,Increment      1: Step Time =    1.000,"P-23-1",          1320,       151.731,       151.621,            0.,NA,NA,"",   1.00839E+06,   1.00481E+06,   1.00481E+06
C:/temp/Job-23.odb,Step-1,Increment      1: Step Time =    1.000,"P-23-1",          1321,       44.5303,       149.721,            0.,NA,NA,"",   979.588E+03,   1.01749E+06,   1.01749E+06
C:/temp/Job-23.odb,Step-1,Increment      1: Step Time =    1.000,"P-23-1",          1322,       30.5567,       162.972,            0.,NA,NA,"",   980.840E+03,   1.02682E+06,   1.02682E+06
C:/temp/Job-23.odb,Step-1,Increment      1: Step Time =    1.000,"P-23-1",          1323,       38.1601,       163.580,            0.,NA,NA,"",   991.545E+03,   1.02549E+06,   1.02549E+06
C:/temp/Job-23.odb,Step-1,Increment      1: Step Time =    1.000,"P-23-1",          1324,       44.9744,       183.132,            0.,NA,NA,"",   993.224E+03,   1.00031E+06,   1.00031E+06
C:/temp/Job-23.odb,Step-1,Increment      1: Step Time =    1.000,"P-23-1",          1325,       16.5662,       164.924,            0.,NA,NA,"",   947.939E+03,   1.02076E+06,   1.02076E+06
C:/temp/Job-23.odb,Step-1,Increment      1: Step Time =    1.000,"P-23-1",          1326,       172.159,       36.9337,            0.,NA,NA,"",   1.00261E+06,   1.00007E+06,   1.00007E+06
C:/temp/Job-23.odb,Step-1,Increment      1: Step Time =    1.000,"P-23-1",          1327,       185.190,       33.7681,            0.,NA,NA,"",   1.00216E+06,   999.850E+03,   999.850E+03
C:/temp/Job-23.odb,Step-1,Increment      1: Step Time =    1.000,"P-23-1",          1328,       155.436,       16.9729,            0.,NA,NA,"",   994.154E+03,   993.413E+03,   993.413E+03
C:/temp/Job-23.odb,Step-1,Increment      1: Step Time =    1.000,"P-23-1",          1329,       163.422,       32.8459,            0.,NA,NA,"",   1.00142E+06,   999.231E+03,   999.231E+03
C:/temp/Job-23.odb,Step-1,Increment      1: Step Time =    1.000,"P-23-1",          1330,       160.742,       166.625,            0.,NA,NA,"",   1.00146E+06,   999.241E+03,   999.241E+03
C:/temp/Job-23.odb,Step-1,Increment      1: Step Time =    1.000,"P-23-1",          1331,       40.3164,       33.9119,            0.,NA,NA,"",   996.796E+03,   1.02479E+06,   1.02479E+06
C:/temp/Job-23.odb,Step-1,Increment      1: Step Time =    1.000,"P-23-1",          1332,       48.4805,       157.796,            0.,NA,NA,"",   994.162E+03,   1.02086E+06,   1.02086E+06
C:/temp/Job-23.odb,Step-1,Increment      1: Step Time =    1.000,"P-23-1",          1333,       56.5464,       163.429,            0.,NA,NA,"",   1.00014E+06,   1.01603E+06,   1.01603E+06
C:/temp/Job-23.odb,Step-1,Increment      1: Step Time =    1.000,"P-23-1",          1334,       164.741,       174.112,            0.,NA,NA,"",   999.243E+03,   997.649E+03,   997.649E+03
C:/temp/Job-23.odb,Step-1,Increment      1: Step Time =    1.000,"P-23-1",          1335,       162.297,       182.630,            0.,NA,NA,"",   995.993E+03,   995.159E+03,   995.159E+03
C:/temp/Job-23.odb,Step-1,Increment      1: Step Time =    1.000,"P-23-1",          1336,       33.3435,       28.7698,            0.,NA,NA,"",   1.00215E+06,   1.03361E+06,   1.03361E+06
C:/temp/Job-23.odb,Step-1,Increment      1: Step Time =    1.000,"P-23-1",          1337,       32.7609,       19.3940,            0.,NA,NA,"",   1.01684E+06,   1.03464E+06,   1.03464E+06
C:/temp/Job-23.odb,Step-1,Increment      1: Step Time =    1.000,"P-23-1",          1338,       140.671,       38.0095,            0.,NA,NA,"",   1.00405E+06,   1.00178E+06,   1.00178E+06
C:/temp/Job-23.odb,Step-1,Increment      1: Step Time =    1.000,"P-23-1",          1339,       154.481,       39.4106,            0.,NA,NA,"",   1.00431E+06,   1.00150E+06,   1.00150E+06
C:/temp/Job-23.odb,Step-1,Increment      1: Step Time =    1.000,"P-23-1",          1340,       135.782,       74.8109,            0.,NA,NA,"",   1.02007E+06,   1.01452E+06,   1.01452E+06
C:/temp/Job-23.odb,Step-1,Increment      1: Step Time =    1.000,"P-23-1",          1341,       73.7236,       131.184,            0.,NA,NA,"",   1.01286E+06,   1.02938E+06,   1.02938E+06
C:/temp/Job-23.odb,Step-1,Increment      1: Step Time =    1.000,"P-23-1",          1342,       126.515,       67.7062,            0.,NA,NA,"",   1.02762E+06,   1.02329E+06,   1.02329E+06
C:/temp/Job-23.odb,Step-1,Increment      1: Step Time =    1.000,"P-23-1",          1343,       68.6680,       126.139,            0.,NA,NA,"",   1.00308E+06,   1.02425E+06,   1.02425E+06
C:/temp/Job-23.odb,Step-1,Increment      1: Step Time =    1.000,"P-23-1",          1344,       131.798,       73.3986,            0.,NA,NA,"",   1.02514E+06,   1.01923E+06,   1.01923E+06
C:/temp/Job-23.odb,Step-1,Increment      1: Step Time =    1.000,"P-23-1",          1345,       87.6780,       141.403,            0.,NA,NA,"",   1.01204E+06,   1.02350E+06,   1.02350E+06
C:/temp/Job-23.odb,Step-1,Increment      1: Step Time =    1.000,"P-23-1",          1346,       59.5522,       123.065,            0.,NA,NA,"",   979.067E+03,   1.01201E+06,   1.01201E+06
C:/temp/Job-23.odb,Step-1,Increment      1: Step Time =    1.000,"P-23-1",          1347,       141.953,       116.655,            0.,NA,NA,"",   1.00805E+06,   1.00430E+06,   1.00430E+06
C:/temp/Job-23.odb,Step-1,Increment      1: Step Time =    1.000,"P-23-1",          1348,       103.841,       55.1175,            0.,NA,NA,"",   1.00817E+06,   1.01589E+06,   1.01589E+06
C:/temp/Job-23.odb,Step-1,Increment      1: Step Time =    1.000,"P-23-1",          1349,       117.533,       57.1543,            0.,NA,NA,"",   1.01691E+06,   1.01801E+06,   1.01801E+06
C:/temp/Job-23.odb,Step-1,Increment      1: Step Time =    1.000,"P-23-1",          1350,       79.2334,       140.807,            0.,NA,NA,"",   1.01297E+06,   1.02588E+06,   1.02588E+06
C:/temp/Job-23.odb,Step-1,Increment      1: Step Time =    1.000,"P-23-1",          1351,       56.3901,       88.4074,            0.,NA,NA,"",   956.535E+03,   997.559E+03,   997.559E+03
C:/temp/Job-23.odb,Step-1,Increment      1: Step Time =    1.000,"P-23-1",          1352,       142.244,       92.7553,            0.,NA,NA,"",   996.512E+03,   995.206E+03,   995.206E+03
C:/temp/Job-23.odb,Step-1,Increment      1: Step Time =    1.000,"P-23-1",          1353,       133.475,       123.806,            0.,NA,NA,"",   1.02179E+06,   1.01594E+06,   1.01594E+06
C:/temp/Job-23.odb,Step-1,Increment      1: Step Time =    1.000,"P-23-1",          1354,       59.0145,       106.422,            0.,NA,NA,"",   952.492E+03,   992.453E+03,   992.453E+03
C:/temp/Job-23.odb,Step-1,Increment      1: Step Time =    1.000,"P-23-1",          1355,       13.2210,       165.116,            0.,NA,NA,"",   938.014E+03,   1.01767E+06,   1.01767E+06
C:/temp/Job-23.odb,Step-1,Increment      1: Step Time =    1.000,"P-23-1",          1356,       167.473,       38.0753,            0.,NA,NA,"",   1.00300E+06,   1.00036E+06,   1.00036E+06
C:/temp/Job-23.odb,Step-1,Increment      1: Step Time =    1.000,"P-23-1",          1357,       151.142,       53.3711,            0.,NA,NA,"",   1.01041E+06,   1.00641E+06,   1.00641E+06
C:/temp/Job-23.odb,Step-1,Increment      1: Step Time =    1.000,"P-23-1",          1358,       146.718,       111.230,            0.,NA,NA,"",   1.00238E+06,   999.816E+03,   999.816E+03
C:/temp/Job-23.odb,Step-1,Increment      1: Step Time =    1.000,"P-23-1",          1359,       13.9413,       169.513,            0.,NA,NA,"",   959.063E+03,   1.03336E+06,   1.03336E+06
C:/temp/Job-23.odb,Step-1,Increment      1: Step Time =    1.000,"P-23-1",          1360,       186.626,       37.4087,            0.,NA,NA,"",   1.00268E+06,   1.00003E+06,   1.00003E+06
C:/temp/Job-23.odb,Step-1,Increment      1: Step Time =    1.000,"P-23-1",          1361,       51.7537,       91.0290,            0.,NA,NA,"",   945.956E+03,   993.262E+03,   993.262E+03
C:/temp/Job-23.odb,Step-1,Increment      1: Step Time =    1.000,"P-23-1",          1362,       46.9483,       143.700,            0.,NA,NA,"",   976.427E+03,   1.01534E+06,   1.01534E+06
C:/temp/Job-23.odb,Step-1,Increment      1: Step Time =    1.000,"P-23-1",          1363,       181.810,       29.0019,            0.,NA,NA,"",   1.00132E+06,   999.429E+03,   999.429E+03
C:/temp/Job-23.odb,Step-1,Increment      1: Step Time =    1.000,"P-23-1",          1364,       146.464,       151.628,            0.,NA,NA,"",   1.00956E+06,   1.00601E+06,   1.00601E+06
C:/temp/Job-23.odb,Step-1,Increment      1: Step Time =    1.000,"P-23-1",          1365,       52.9712,       46.4978,            0.,NA,NA,"",   994.481E+03,   1.02024E+06,   1.02024E+06
C:/temp/Job-23.odb,Step-1,Increment      1: Step Time =    1.000,"P-23-1",          1366,       34.3861,       169.698,            0.,NA,NA,"",   1.00008E+06,   1.03171E+06,   1.03171E+06
C:/temp/Job-23.odb,Step-1,Increment      1: Step Time =    1.000,"P-23-1",          1367,       165.731,       28.6919,            0.,NA,NA,"",   1.00008E+06,   998.288E+03,   998.288E+03
C:/temp/Job-23.odb,Step-1,Increment      1: Step Time =    1.000,"P-23-1",          1368,       156.998,       164.964,            0.,NA,NA,"",   1.00210E+06,   999.738E+03,   999.738E+03
C:/temp/Job-23.odb,Step-1,Increment      1: Step Time =    1.000,"P-23-1",          1369,       42.7802,       37.3649,            0.,NA,NA,"",   994.356E+03,   1.02286E+06,   1.02286E+06
C:/temp/Job-23.odb,Step-1,Increment      1: Step Time =    1.000,"P-23-1",          1370,       144.344,       39.4038,            0.,NA,NA,"",   1.00494E+06,   1.00235E+06,   1.00235E+06
C:/temp/Job-23.odb,Step-1,Increment      1: Step Time =    1.000,"P-23-1",          1371,       35.5673,       104.684,            0.,NA,NA,"",   911.043E+03,   979.276E+03,   979.276E+03
C:/temp/Job-23.odb,Step-1,Increment      1: Step Time =    1.000,"P-23-1",          1372,       37.2045,       118.529,            0.,NA,NA,"",   923.386E+03,   987.337E+03,   987.337E+03
C:/temp/Job-23.odb,Step-1,Increment      1: Step Time =    1.000,"P-23-1",          1373,       60.0798,       127.357,            0.,NA,NA,"",   985.571E+03,   1.01614E+06,   1.01614E+06
C:/temp/Job-23.odb,Step-1,Increment      1: Step Time =    1.000,"P-23-1",          1374,       58.8891,       161.979,            0.,NA,NA,"",   1.00043E+06,   1.01607E+06,   1.01607E+06
C:/temp/Job-23.odb,Step-1,Increment      1: Step Time =    1.000,"P-23-1",          1375,       138.870,       41.8720,            0.,NA,NA,"",   1.00673E+06,   1.00421E+06,   1.00421E+06
C:/temp/Job-23.odb,Step-1,Increment      1: Step Time =    1.000,"P-23-1",          1376,       58.9901,       157.794,            0.,NA,NA,"",   1.00030E+06,   1.01801E+06,   1.01801E+06
C:/temp/Job-23.odb,Step-1,Increment      1: Step Time =    1.000,"P-23-1",          1377,       142.281,       43.3036,            0.,NA,NA,"",   1.00742E+06,   1.00455E+06,   1.00455E+06
C:/temp/Job-23.odb,Step-1,Increment      1: Step Time =    1.000,"P-23-1",          1378,       70.7322,       134.869,            0.,NA,NA,"",   1.00855E+06,   1.02663E+06,   1.02663E+06
C:/temp/Job-23.odb,Step-1,Increment      1: Step Time =    1.000,"P-23-1",          1379,       134.548,       78.0380,            0.,NA,NA,"",   1.01924E+06,   1.01359E+06,   1.01359E+06
C:/temp/Job-23.odb,Step-1,Increment      1: Step Time =    1.000,"P-23-1",          1380,       130.504,       65.3927,            0.,NA,NA,"",   1.02349E+06,   1.01902E+06,   1.01902E+06
C:/temp/Job-23.odb,Step-1,Increment      1: Step Time =    1.000,"P-23-1",          1381,       60.8722,       114.171,            0.,NA,NA,"",   968.057E+03,   1.00300E+06,   1.00300E+06
C:/temp/Job-23.odb,Step-1,Increment      1: Step Time =    1.000,"P-23-1",          1382,       54.3347,       119.732,            0.,NA,NA,"",   963.604E+03,   1.00441E+06,   1.00441E+06
C:/temp/Job-23.odb,Step-1,Increment      1: Step Time =    1.000,"P-23-1",          1383,       92.2009,       145.147,            0.,NA,NA,"",   1.00799E+06,   1.01827E+06,   1.01827E+06
C:/temp/Job-23.odb,Step-1,Increment      1: Step Time =    1.000,"P-23-1",          1384,       83.1574,       145.345,            0.,NA,NA,"",   1.01062E+06,   1.02164E+06,   1.02164E+06
C:/temp/Job-23.odb,Step-1,Increment      1: Step Time =    1.000,"P-23-1",          1385,       106.559,       52.0119,            0.,NA,NA,"",   1.00761E+06,   1.01347E+06,   1.01347E+06
C:/temp/Job-23.odb,Step-1,Increment      1: Step Time =    1.000,"P-23-1",          1386,       113.119,       56.7195,            0.,NA,NA,"",   1.01422E+06,   1.01754E+06,   1.01754E+06
C:/temp/Job-23.odb,Step-1,Increment      1: Step Time =    1.000,"P-23-1",          1387,       133.060,       70.1758,            0.,NA,NA,"",   1.02354E+06,   1.01813E+06,   1.01813E+06
C:/temp/Job-23.odb,Step-1,Increment      1: Step Time =    1.000,"P-23-1",          1388,       144.314,       113.858,            0.,NA,NA,"",   1.00494E+06,   1.00192E+06,   1.00192E+06
C:/temp/Job-23.odb,Step-1,Increment      1: Step Time =    1.000,"P-23-1",          1389,       137.998,       91.3573,            0.,NA,NA,"",   996.914E+03,   995.474E+03,   995.474E+03
C:/temp/Job-23.odb,Step-1,Increment      1: Step Time =    1.000,"P-23-1",          1390,       132.927,       132.458,            0.,NA,NA,"",   1.02250E+06,   1.01755E+06,   1.01755E+06
C:/temp/Job-23.odb,Step-1,Increment      1: Step Time =    1.000,"P-23-1",          1391,       132.552,       120.103,            0.,NA,NA,"",   1.02062E+06,   1.01466E+06,   1.01466E+06
C:/temp/Job-23.odb,Step-1,Increment      1: Step Time =    1.000,"P-23-1",          1392,       152.711,       106.798,            0.,NA,NA,"",   1.00068E+06,   998.310E+03,   998.310E+03
C:/temp/Job-23.odb,Step-1,Increment      1: Step Time =    1.000,"P-23-1",          1393,       48.0025,       93.4208,            0.,NA,NA,"",   937.441E+03,   989.865E+03,   989.865E+03
C:/temp/Job-23.odb,Step-1,Increment      1: Step Time =    1.000,"P-23-1",          1394,       48.4342,       147.799,            0.,NA,NA,"",   983.890E+03,   1.01815E+06,   1.01815E+06
C:/temp/Job-23.odb,Step-1,Increment      1: Step Time =    1.000,"P-23-1",          1395,       45.3826,       139.618,            0.,NA,NA,"",   968.263E+03,   1.01172E+06,   1.01172E+06
C:/temp/Job-23.odb,Step-1,Increment      1: Step Time =    1.000,"P-23-1",          1396,       146.643,       51.3392,            0.,NA,NA,"",   1.01096E+06,   1.00712E+06,   1.00712E+06
C:/temp/Job-23.odb,Step-1,Increment      1: Step Time =    1.000,"P-23-1",          1397,       155.081,       55.9796,            0.,NA,NA,"",   1.00999E+06,   1.00585E+06,   1.00585E+06
C:/temp/Job-23.odb,Step-1,Increment      1: Step Time =    1.000,"P-23-1",          1398,       163.208,       42.9072,            0.,NA,NA,"",   1.00482E+06,   1.00172E+06,   1.00172E+06
C:/temp/Job-23.odb,Step-1,Increment      1: Step Time =    1.000,"P-23-1",          1399,       19.0463,       173.973,            0.,NA,NA,"",   997.972E+03,   1.05245E+06,   1.05245E+06
C:/temp/Job-23.odb,Step-1,Increment      1: Step Time =    1.000,"P-23-1",          1400,       143.755,       154.659,            0.,NA,NA,"",   1.00850E+06,   1.00533E+06,   1.00533E+06
C:/temp/Job-23.odb,Step-1,Increment      1: Step Time =    1.000,"P-23-1",          1401,       149.163,       148.620,            0.,NA,NA,"",   1.01019E+06,   1.00635E+06,   1.00635E+06
C:/temp/Job-23.odb,Step-1,Increment      1: Step Time =    1.000,"P-23-1",          1402,       57.5156,       44.1870,            0.,NA,NA,"",   999.417E+03,   1.01941E+06,   1.01941E+06
C:/temp/Job-23.odb,Step-1,Increment      1: Step Time =    1.000,"P-23-1",          1403,       50.7671,       50.7580,            0.,NA,NA,"",   988.271E+03,   1.01889E+06,   1.01889E+06
C:/temp/Job-23.odb,Step-1,Increment      1: Step Time =    1.000,"P-23-1",          1404,       179.487,       25.6656,            0.,NA,NA,"",   1.00048E+06,   998.915E+03,   998.915E+03
C:/temp/Job-23.odb,Step-1,Increment      1: Step Time =    1.000,"P-23-1",          1405,       35.9950,       113.420,            0.,NA,NA,"",   915.843E+03,   982.481E+03,   982.481E+03
C:/temp/Job-23.odb,Step-1,Increment      1: Step Time =    1.000,"P-23-1",          1406,       39.7222,       121.169,            0.,NA,NA,"",   932.674E+03,   992.066E+03,   992.066E+03
C:/temp/Job-23.odb,Step-1,Increment      1: Step Time =    1.000,"P-23-1",          1407,       34.2833,       101.195,            0.,NA,NA,"",   908.204E+03,   977.858E+03,   977.858E+03
C:/temp/Job-23.odb,Step-1,Increment      1: Step Time =    1.000,"P-23-1",          1408,       87.6694,       145.326,            0.,NA,NA,"",   1.00958E+06,   1.02017E+06,   1.02017E+06
C:/temp/Job-23.odb,Step-1,Increment      1: Step Time =    1.000,"P-23-1",          1409,       83.1161,       149.588,            0.,NA,NA,"",   1.00814E+06,   1.01810E+06,   1.01810E+06
C:/temp/Job-23.odb,Step-1,Increment      1: Step Time =    1.000,"P-23-1",          1410,       137.146,       71.6256,            0.,NA,NA,"",   1.02052E+06,   1.01506E+06,   1.01506E+06
C:/temp/Job-23.odb,Step-1,Increment      1: Step Time =    1.000,"P-23-1",          1411,       46.5032,       53.7246,            0.,NA,NA,"",   978.714E+03,   1.01668E+06,   1.01668E+06
C:/temp/Job-23.odb,Step-1,Increment      1: Step Time =    1.000,"P-23-1",          1412,       151.955,       145.994,            0.,NA,NA,"",   1.01041E+06,   1.00635E+06,   1.00635E+06
C:/temp/Job-23.odb,Step-1,Increment      1: Step Time =    1.000,"P-23-1",          1413,       143.414,       48.4551,            0.,NA,NA,"",   1.01047E+06,   1.00699E+06,   1.00699E+06
C:/temp/Job-23.odb,Step-1,Increment      1: Step Time =    1.000,"P-23-1",          1414,       139.550,       87.5697,            0.,NA,NA,"",   1.00311E+06,   1.00038E+06,   1.00038E+06
C:/temp/Job-23.odb,Step-1,Increment      1: Step Time =    1.000,"P-23-1",          1415,       111.501,       51.4215,            0.,NA,NA,"",   1.00965E+06,   1.01304E+06,   1.01304E+06
C:/temp/Job-23.odb,Step-1,Increment      1: Step Time =    1.000,"P-23-1",          1416,       56.0282,       153.465,            0.,NA,NA,"",   997.162E+03,   1.02005E+06,   1.02005E+06
C:/temp/Job-23.odb,Step-1,Increment      1: Step Time =    1.000,"P-23-1",          1417,       60.4105,       131.945,            0.,NA,NA,"",   990.589E+03,   1.01910E+06,   1.01910E+06
C:/temp/Job-23.odb,Step-1,Increment      1: Step Time =    1.000,"P-23-1",          1418,       70.4379,       139.920,            0.,NA,NA,"",   1.00799E+06,   1.02521E+06,   1.02521E+06
C:/temp/Job-23.odb,Step-1,Increment      1: Step Time =    1.000,"P-23-1",          1419,       56.7055,       112.845,            0.,NA,NA,"",   958.169E+03,   998.769E+03,   998.769E+03
C:/temp/Job-23.odb,Step-1,Increment      1: Step Time =    1.000,"P-23-1",          1420,       131.084,       57.0657,            0.,NA,NA,"",   1.01789E+06,   1.01458E+06,   1.01458E+06
C:/temp/Job-23.odb,Step-1,Increment      1: Step Time =    1.000,"P-23-1",          1421,       129.438,       68.8764,            0.,NA,NA,"",   1.02606E+06,   1.02119E+06,   1.02119E+06
C:/temp/Job-23.odb,Step-1,Increment      1: Step Time =    1.000,"P-23-1",          1422,       78.6663,       145.330,            0.,NA,NA,"",   1.01057E+06,   1.02269E+06,   1.02269E+06
C:/temp/Job-23.odb,Step-1,Increment      1: Step Time =    1.000,"P-23-1",          1423,       61.5576,       109.256,            0.,NA,NA,"",   959.948E+03,   996.048E+03,   996.048E+03
C:/temp/Job-23.odb,Step-1,Increment      1: Step Time =    1.000,"P-23-1",          1424,       58.8864,       165.024,            0.,NA,NA,"",   1.00050E+06,   1.01415E+06,   1.01415E+06
C:/temp/Job-23.odb,Step-1,Increment      1: Step Time =    1.000,"P-23-1",          1425,       138.373,       32.6347,            0.,NA,NA,"",   1.00010E+06,   998.429E+03,   998.429E+03
C:/temp/Job-23.odb,Step-1,Increment      1: Step Time =    1.000,"P-23-1",          1426,       153.391,       103.176,            0.,NA,NA,"",   999.795E+03,   997.658E+03,   997.658E+03
C:/temp/Job-23.odb,Step-1,Increment      1: Step Time =    1.000,"P-23-1",          1427,       154.242,       110.245,            0.,NA,NA,"",   1.00255E+06,   999.708E+03,   999.708E+03
C:/temp/Job-23.odb,Step-1,Increment      1: Step Time =    1.000,"P-23-1",          1428,       50.8445,       96.9851,            0.,NA,NA,"",   940.975E+03,   990.270E+03,   990.270E+03
C:/temp/Job-23.odb,Step-1,Increment      1: Step Time =    1.000,"P-23-1",          1429,       44.1138,       89.3808,            0.,NA,NA,"",   933.271E+03,   989.710E+03,   989.710E+03
C:/temp/Job-23.odb,Step-1,Increment      1: Step Time =    1.000,"P-23-1",          1430,       55.2914,       123.696,            0.,NA,NA,"",   971.111E+03,   1.00893E+06,   1.00893E+06
C:/temp/Job-23.odb,Step-1,Increment      1: Step Time =    1.000,"P-23-1",          1431,       50.2414,       151.809,            0.,NA,NA,"",   990.516E+03,   1.01998E+06,   1.01998E+06
C:/temp/Job-23.odb,Step-1,Increment      1: Step Time =    1.000,"P-23-1",          1432,       41.1573,       141.424,            0.,NA,NA,"",   961.455E+03,   1.00961E+06,   1.00961E+06
C:/temp/Job-23.odb,Step-1,Increment      1: Step Time =    1.000,"P-23-1",          1433,       149.382,       47.3892,            0.,NA,NA,"",   1.00863E+06,   1.00512E+06,   1.00512E+06
C:/temp/Job-23.odb,Step-1,Increment      1: Step Time =    1.000,"P-23-1",          1434,       152.275,       59.3971,            0.,NA,NA,"",   1.01163E+06,   1.00724E+06,   1.00724E+06
C:/temp/Job-23.odb,Step-1,Increment      1: Step Time =    1.000,"P-23-1",          1435,       42.3991,       123.253,            0.,NA,NA,"",   941.311E+03,   996.405E+03,   996.405E+03
C:/temp/Job-23.odb,Step-1,Increment      1: Step Time =    1.000,"P-23-1",          1436,       154.524,       149.327,            0.,NA,NA,"",   1.00874E+06,   1.00497E+06,   1.00497E+06
C:/temp/Job-23.odb,Step-1,Increment      1: Step Time =    1.000,"P-23-1",          1437,       140.908,       151.331,            0.,NA,NA,"",   1.01087E+06,   1.00752E+06,   1.00752E+06
C:/temp/Job-23.odb,Step-1,Increment      1: Step Time =    1.000,"P-23-1",          1438,       140.985,       157.267,            0.,NA,NA,"",   1.00718E+06,   1.00443E+06,   1.00443E+06
C:/temp/Job-23.odb,Step-1,Increment      1: Step Time =    1.000,"P-23-1",          1439,       46.6611,       49.8705,            0.,NA,NA,"",   983.808E+03,   1.01848E+06,   1.01848E+06
C:/temp/Job-23.odb,Step-1,Increment      1: Step Time =    1.000,"P-23-1",          1440,       56.7125,       50.6525,            0.,NA,NA,"",   995.764E+03,   1.02051E+06,   1.02051E+06
C:/temp/Job-23.odb,Step-1,Increment      1: Step Time =    1.000,"P-23-1",          1441,       55.6396,       40.1924,            0.,NA,NA,"",   999.523E+03,   1.01836E+06,   1.01836E+06
C:/temp/Job-23.odb,Step-1,Increment      1: Step Time =    1.000,"P-23-1",          1442,       23.8322,       169.591,            0.,NA,NA,"",   988.127E+03,   1.03834E+06,   1.03834E+06
C:/temp/Job-23.odb,Step-1,Increment      1: Step Time =    1.000,"P-23-1",          1443,       175.897,       30.5808,            0.,NA,NA,"",   1.00127E+06,   999.284E+03,   999.284E+03
C:/temp/Job-23.odb,Step-1,Increment      1: Step Time =    1.000,"P-23-1",          1444,       185.287,       24.8111,            0.,NA,NA,"",   1.00072E+06,   999.275E+03,   999.275E+03
C:/temp/Job-23.odb,Step-1,Increment      1: Step Time =    1.000,"P-23-1",          1445,       64.8287,       131.256,            0.,NA,NA,"",   998.836E+03,   1.02266E+06,   1.02266E+06
C:/temp/Job-23.odb,Step-1,Increment      1: Step Time =    1.000,"P-23-1",          1446,       138.772,       131.308,            0.,NA,NA,"",   1.02082E+06,   1.01529E+06,   1.01529E+06
C:/temp/Job-23.odb,Step-1,Increment      1: Step Time =    1.000,"P-23-1",          1447,       43.1321,       118.735,            0.,NA,NA,"",   938.452E+03,   993.996E+03,   993.996E+03
C:/temp/Job-23.odb,Step-1,Increment      1: Step Time =    1.000,"P-23-1",          1448,       65.2878,       114.535,            0.,NA,NA,"",   976.814E+03,   1.00574E+06,   1.00574E+06
C:/temp/Job-23.odb,Step-1,Increment      1: Step Time =    1.000,"P-23-1",          1449,       51.2833,       120.745,            0.,NA,NA,"",   958.832E+03,   1.00284E+06,   1.00284E+06
C:/temp/Job-23.odb,Step-1,Increment      1: Step Time =    1.000,"P-23-1",          1450,       87.7147,       153.438,            0.,NA,NA,"",   1.00517E+06,   1.01314E+06,   1.01314E+06
C:/temp/Job-23.odb,Step-1,Increment      1: Step Time =    1.000,"P-23-1",          1451,       134.128,       66.9306,            0.,NA,NA,"",   1.02207E+06,   1.01706E+06,   1.01706E+06
C:/temp/Job-23.odb,Step-1,Increment      1: Step Time =    1.000,"P-23-1",          1452,       141.925,       73.5725,            0.,NA,NA,"",   1.01544E+06,   1.01044E+06,   1.01044E+06
C:/temp/Job-23.odb,Step-1,Increment      1: Step Time =    1.000,"P-23-1",          1453,       146.919,       92.9533,            0.,NA,NA,"",   998.317E+03,   996.535E+03,   996.535E+03
C:/temp/Job-23.odb,Step-1,Increment      1: Step Time =    1.000,"P-23-1",          1454,       55.8579,       132.310,            0.,NA,NA,"",   981.667E+03,   1.01545E+06,   1.01545E+06
C:/temp/Job-23.odb,Step-1,Increment      1: Step Time =    1.000,"P-23-1",          1455,       74.8085,       140.434,            0.,NA,NA,"",   1.01124E+06,   1.02594E+06,   1.02594E+06
C:/temp/Job-23.odb,Step-1,Increment      1: Step Time =    1.000,"P-23-1",          1456,       78.4936,       149.996,            0.,NA,NA,"",   1.00819E+06,   1.01916E+06,   1.01916E+06
C:/temp/Job-23.odb,Step-1,Increment      1: Step Time =    1.000,"P-23-1",          1457,       58.6253,       39.2248,            0.,NA,NA,"",   1.00086E+06,   1.01697E+06,   1.01697E+06
C:/temp/Job-23.odb,Step-1,Increment      1: Step Time =    1.000,"P-23-1",          1458,       138.590,       159.096,            0.,NA,NA,"",   1.00598E+06,   1.00352E+06,   1.00352E+06
C:/temp/Job-23.odb,Step-1,Increment      1: Step Time =    1.000,"P-23-1",          1459,       114.262,       52.5436,            0.,NA,NA,"",   1.01145E+06,   1.01387E+06,   1.01387E+06
C:/temp/Job-23.odb,Step-1,Increment      1: Step Time =    1.000,"P-23-1",          1460,       106.341,       46.0949,            0.,NA,NA,"",   1.00440E+06,   1.00886E+06,   1.00886E+06
C:/temp/Job-23.odb,Step-1,Increment      1: Step Time =    1.000,"P-23-1",          1461,       136.553,       59.5568,            0.,NA,NA,"",   1.01771E+06,   1.01346E+06,   1.01346E+06
C:/temp/Job-23.odb,Step-1,Increment      1: Step Time =    1.000,"P-23-1",          1462,       126.720,       57.1617,            0.,NA,NA,"",   1.01868E+06,   1.01633E+06,   1.01633E+06
C:/temp/Job-23.odb,Step-1,Increment      1: Step Time =    1.000,"P-23-1",          1463,       142.396,       53.2892,            0.,NA,NA,"",   1.01280E+06,   1.00892E+06,   1.00892E+06
C:/temp/Job-23.odb,Step-1,Increment      1: Step Time =    1.000,"P-23-1",          1464,       59.4102,       150.245,            0.,NA,NA,"",   998.947E+03,   1.02061E+06,   1.02061E+06
C:/temp/Job-23.odb,Step-1,Increment      1: Step Time =    1.000,"P-23-1",          1465,       50.1993,       54.1884,            0.,NA,NA,"",   984.454E+03,   1.01793E+06,   1.01793E+06
C:/temp/Job-23.odb,Step-1,Increment      1: Step Time =    1.000,"P-23-1",          1466,       35.4991,       138.803,            0.,NA,NA,"",   943.704E+03,   1.00163E+06,   1.00163E+06
C:/temp/Job-23.odb,Step-1,Increment      1: Step Time =    1.000,"P-23-1",          1467,       65.4488,       135.853,            0.,NA,NA,"",   1.00142E+06,   1.02352E+06,   1.02352E+06
C:/temp/Job-23.odb,Step-1,Increment      1: Step Time =    1.000,"P-23-1",          1468,       148.578,       100.328,            0.,NA,NA,"",   997.652E+03,   996.147E+03,   996.147E+03
C:/temp/Job-23.odb,Step-1,Increment      1: Step Time =    1.000,"P-23-1",          1469,       53.4915,       100.369,            0.,NA,NA,"",   943.831E+03,   990.206E+03,   990.206E+03
C:/temp/Job-23.odb,Step-1,Increment      1: Step Time =    1.000,"P-23-1",          1470,       44.9482,       96.0946,            0.,NA,NA,"",   930.987E+03,   987.556E+03,   987.556E+03
C:/temp/Job-23.odb,Step-1,Increment      1: Step Time =    1.000,"P-23-1",          1471,       61.3586,       161.677,            0.,NA,NA,"",   1.00097E+06,   1.01529E+06,   1.01529E+06
C:/temp/Job-23.odb,Step-1,Increment      1: Step Time =    1.000,"P-23-1",          1472,       43.3565,       135.421,            0.,NA,NA,"",   958.320E+03,   1.00676E+06,   1.00676E+06
C:/temp/Job-23.odb,Step-1,Increment      1: Step Time =    1.000,"P-23-1",          1473,       136.966,       36.9002,            0.,NA,NA,"",   1.00310E+06,   1.00119E+06,   1.00119E+06
C:/temp/Job-23.odb,Step-1,Increment      1: Step Time =    1.000,"P-23-1",          1474,       144.495,       128.618,            0.,NA,NA,"",   1.01453E+06,   1.00965E+06,   1.00965E+06
C:/temp/Job-23.odb,Step-1,Increment      1: Step Time =    1.000,"P-23-1",          1475,       53.8549,       111.544,            0.,NA,NA,"",   952.590E+03,   996.358E+03,   996.358E+03
C:/temp/Job-23.odb,Step-1,Increment      1: Step Time =    1.000,"P-23-1",          1476,       135.541,       151.235,            0.,NA,NA,"",   1.01163E+06,   1.00875E+06,   1.00875E+06
C:/temp/Job-23.odb,Step-1,Increment      1: Step Time =    1.000,"P-23-1",          1477,       60.4496,       48.1039,            0.,NA,NA,"",   1.00046E+06,   1.02055E+06,   1.02055E+06
C:/temp/Job-23.odb,Step-1,Increment      1: Step Time =    1.000,"P-23-1",          1478,       14.3871,       174.340,            0.,NA,NA,"",   986.670E+03,   1.05347E+06,   1.05347E+06
C:/temp/Job-23.odb,Step-1,Increment      1: Step Time =    1.000,"P-23-1",          1479,       38.4773,       45.0309,            0.,NA,NA,"",   976.797E+03,   1.01906E+06,   1.01906E+06
C:/temp/Job-23.odb,Step-1,Increment      1: Step Time =    1.000,"P-23-1",          1480,       157.205,       153.541,            0.,NA,NA,"",   1.00679E+06,   1.00335E+06,   1.00335E+06
C:/temp/Job-23.odb,Step-1,Increment      1: Step Time =    1.000,"P-23-1",          1481,       138.357,       79.5207,            0.,NA,NA,"",   1.01508E+06,   1.01020E+06,   1.01020E+06
C:/temp/Job-23.odb,Step-1,Increment      1: Step Time =    1.000,"P-23-1",          1482,       151.862,       43.4058,            0.,NA,NA,"",   1.00646E+06,   1.00328E+06,   1.00328E+06
C:/temp/Job-23.odb,Step-1,Increment      1: Step Time =    1.000,"P-23-1",          1483,       101.332,       51.7192,            0.,NA,NA,"",   1.00620E+06,   1.01357E+06,   1.01357E+06
C:/temp/Job-23.odb,Step-1,Increment      1: Step Time =    1.000,"P-23-1",          1484,       162.892,       81.5666,            0.,NA,NA,"",   1.00590E+06,   1.00201E+06,   1.00201E+06
C:/temp/Job-23.odb,Step-1,Increment      1: Step Time =    1.000,"P-23-1",          1485,       116.644,       163.925,            0.,NA,NA,"",   999.248E+03,   999.924E+03,   999.924E+03
C:/temp/Job-23.odb,Step-1,Increment      1: Step Time =    1.000,"P-23-1",          1486,       139.556,       76.5007,            0.,NA,NA,"",   1.01572E+06,   1.01063E+06,   1.01063E+06
C:/temp/Job-23.odb,Step-1,Increment      1: Step Time =    1.000,"P-23-1",          1487,       83.5649,       34.1811,            0.,NA,NA,"",   996.612E+03,   1.00152E+06,   1.00152E+06
C:/temp/Job-23.odb,Step-1,Increment      1: Step Time =    1.000,"P-23-1",          1488,       161.792,       72.7326,            0.,NA,NA,"",   1.00812E+06,   1.00383E+06,   1.00383E+06
C:/temp/Job-23.odb,Step-1,Increment      1: Step Time =    1.000,"P-23-1",          1489,       41.6908,       98.4033,            0.,NA,NA,"",   923.938E+03,   984.590E+03,   984.590E+03
C:/temp/Job-23.odb,Step-1,Increment      1: Step Time =    1.000,"P-23-1",          1490,       96.4883,       51.0308,            0.,NA,NA,"",   1.00573E+06,   1.01395E+06,   1.01395E+06
C:/temp/Job-23.odb,Step-1,Increment      1: Step Time =    1.000,"P-23-1",          1491,       142.845,       77.5038,            0.,NA,NA,"",   1.01282E+06,   1.00814E+06,   1.00814E+06
C:/temp/Job-23.odb,Step-1,Increment      1: Step Time =    1.000,"P-23-1",          1492,       142.365,       65.9651,            0.,NA,NA,"",   1.01695E+06,   1.01198E+06,   1.01198E+06
C:/temp/Job-23.odb,Step-1,Increment      1: Step Time =    1.000,"P-23-1",          1493,       50.0216,       102.895,            0.,NA,NA,"",   939.523E+03,   989.876E+03,   989.876E+03
C:/temp/Job-23.odb,Step-1,Increment      1: Step Time =    1.000,"P-23-1",          1494,       153.542,       99.0271,            0.,NA,NA,"",   1.00007E+06,   997.887E+03,   997.887E+03
C:/temp/Job-23.odb,Step-1,Increment      1: Step Time =    1.000,"P-23-1",          1495,       140.298,       57.9294,            0.,NA,NA,"",   1.01559E+06,   1.01132E+06,   1.01132E+06
C:/temp/Job-23.odb,Step-1,Increment      1: Step Time =    1.000,"P-23-1",          1496,       64.1824,       45.2405,            0.,NA,NA,"",   1.00316E+06,   1.01886E+06,   1.01886E+06
C:/temp/Job-23.odb,Step-1,Increment      1: Step Time =    1.000,"P-23-1",          1497,       132.569,       153.732,            0.,NA,NA,"",   1.00984E+06,   1.00760E+06,   1.00760E+06
C:/temp/Job-23.odb,Step-1,Increment      1: Step Time =    1.000,"P-23-1",          1498,       73.3506,       150.653,            0.,NA,NA,"",   1.00709E+06,   1.01978E+06,   1.01978E+06
C:/temp/Job-23.odb,Step-1,Increment      1: Step Time =    1.000,"P-23-1",          1499,       45.6690,       113.758,            0.,NA,NA,"",   938.007E+03,   992.034E+03,   992.034E+03
C:/temp/Job-23.odb,Step-1,Increment      1: Step Time =    1.000,"P-23-1",          1500,       142.430,       69.2493,            0.,NA,NA,"",   1.01667E+06,   1.01162E+06,   1.01162E+06
C:/temp/Job-23.odb,Step-1,Increment      1: Step Time =    1.000,"P-23-1",          1501,       91.9758,       149.502,            0.,NA,NA,"",   1.00639E+06,   1.01507E+06,   1.01507E+06
C:/temp/Job-23.odb,Step-1,Increment      1: Step Time =    1.000,"P-23-1",          1502,       83.4263,       153.671,            0.,NA,NA,"",   1.00566E+06,   1.01443E+06,   1.01443E+06
C:/temp/Job-23.odb,Step-1,Increment      1: Step Time =    1.000,"P-23-1",          1503,       65.9291,       140.231,            0.,NA,NA,"",   1.00326E+06,   1.02390E+06,   1.02390E+06
C:/temp/Job-23.odb,Step-1,Increment      1: Step Time =    1.000,"P-23-1",          1504,       134.992,       55.7455,            0.,NA,NA,"",   1.01631E+06,   1.01261E+06,   1.01261E+06
C:/temp/Job-23.odb,Step-1,Increment      1: Step Time =    1.000,"P-23-1",          1505,       98.9854,       48.5267,            0.,NA,NA,"",   1.00431E+06,   1.01128E+06,   1.01128E+06
C:/temp/Job-23.odb,Step-1,Increment      1: Step Time =    1.000,"P-23-1",          1506,       113.786,       49.2139,            0.,NA,NA,"",   1.00904E+06,   1.01133E+06,   1.01133E+06
C:/temp/Job-23.odb,Step-1,Increment      1: Step Time =    1.000,"P-23-1",          1507,       56.2020,       108.748,            0.,NA,NA,"",   951.989E+03,   994.354E+03,   994.354E+03
C:/temp/Job-23.odb,Step-1,Increment      1: Step Time =    1.000,"P-23-1",          1508,       57.4316,       146.963,            0.,NA,NA,"",   995.197E+03,   1.02062E+06,   1.02062E+06
C:/temp/Job-23.odb,Step-1,Increment      1: Step Time =    1.000,"P-23-1",          1509,       43.9766,       101.846,            0.,NA,NA,"",   928.324E+03,   986.186E+03,   986.186E+03
C:/temp/Job-23.odb,Step-1,Increment      1: Step Time =    1.000,"P-23-1",          1510,       42.1356,       93.2694,            0.,NA,NA,"",   924.683E+03,   984.442E+03,   984.442E+03
C:/temp/Job-23.odb,Step-1,Increment      1: Step Time =    1.000,"P-23-1",          1511,       143.720,       56.2326,            0.,NA,NA,"",   1.01365E+06,   1.00945E+06,   1.00945E+06
C:/temp/Job-23.odb,Step-1,Increment      1: Step Time =    1.000,"P-23-1",          1512,       142.338,       122.653,            0.,NA,NA,"",   1.01408E+06,   1.00932E+06,   1.00932E+06
C:/temp/Job-23.odb,Step-1,Increment      1: Step Time =    1.000,"P-23-1",          1513,       143.910,       133.805,            0.,NA,NA,"",   1.01582E+06,   1.01103E+06,   1.01103E+06
C:/temp/Job-23.odb,Step-1,Increment      1: Step Time =    1.000,"P-23-1",          1514,       152.915,       140.530,            0.,NA,NA,"",   1.01129E+06,   1.00693E+06,   1.00693E+06
C:/temp/Job-23.odb,Step-1,Increment      1: Step Time =    1.000,"P-23-1",          1515,       140.534,       144.918,            0.,NA,NA,"",   1.01435E+06,   1.01038E+06,   1.01038E+06
C:/temp/Job-23.odb,Step-1,Increment      1: Step Time =    1.000,"P-23-1",          1516,       46.7361,       56.9248,            0.,NA,NA,"",   974.893E+03,   1.01462E+06,   1.01462E+06
C:/temp/Job-23.odb,Step-1,Increment      1: Step Time =    1.000,"P-23-1",          1517,       59.3466,       54.6978,            0.,NA,NA,"",   997.021E+03,   1.02118E+06,   1.02118E+06
C:/temp/Job-23.odb,Step-1,Increment      1: Step Time =    1.000,"P-23-1",          1518,       36.2372,       50.8659,            0.,NA,NA,"",   962.102E+03,   1.01246E+06,   1.01246E+06
C:/temp/Job-23.odb,Step-1,Increment      1: Step Time =    1.000,"P-23-1",          1519,       162.028,       146.325,            0.,NA,NA,"",   1.00788E+06,   1.00396E+06,   1.00396E+06
C:/temp/Job-23.odb,Step-1,Increment      1: Step Time =    1.000,"P-23-1",          1520,       162.307,       77.4167,            0.,NA,NA,"",   1.00693E+06,   1.00285E+06,   1.00285E+06
C:/temp/Job-23.odb,Step-1,Increment      1: Step Time =    1.000,"P-23-1",          1521,       160.824,       66.9341,            0.,NA,NA,"",   1.00917E+06,   1.00479E+06,   1.00479E+06
C:/temp/Job-23.odb,Step-1,Increment      1: Step Time =    1.000,"P-23-1",          1522,       120.351,       159.550,            0.,NA,NA,"",   1.00375E+06,   1.00394E+06,   1.00394E+06
C:/temp/Job-23.odb,Step-1,Increment      1: Step Time =    1.000,"P-23-1",          1523,       78.2236,       36.9874,            0.,NA,NA,"",   1.00003E+06,   1.00680E+06,   1.00680E+06
C:/temp/Job-23.odb,Step-1,Increment      1: Step Time =    1.000,"P-23-1",          1524,       63.7702,       37.4712,            0.,NA,NA,"",   1.00149E+06,   1.01346E+06,   1.01346E+06
C:/temp/Job-23.odb,Step-1,Increment      1: Step Time =    1.000,"P-23-1",          1525,       135.220,       162.468,            0.,NA,NA,"",   1.00343E+06,   1.00155E+06,   1.00155E+06
C:/temp/Job-23.odb,Step-1,Increment      1: Step Time =    1.000,"P-23-1",          1526,       45.9996,       105.821,            0.,NA,NA,"",   933.643E+03,   988.638E+03,   988.638E+03
C:/temp/Job-23.odb,Step-1,Increment      1: Step Time =    1.000,"P-23-1",          1527,       96.2581,       45.6427,            0.,NA,NA,"",   1.00328E+06,   1.00992E+06,   1.00992E+06
C:/temp/Job-23.odb,Step-1,Increment      1: Step Time =    1.000,"P-23-1",          1528,       113.467,       164.898,            0.,NA,NA,"",   997.730E+03,   998.806E+03,   998.806E+03
C:/temp/Job-23.odb,Step-1,Increment      1: Step Time =    1.000,"P-23-1",          1529,       38.8397,       92.4939,            0.,NA,NA,"",   918.705E+03,   982.224E+03,   982.224E+03
C:/temp/Job-23.odb,Step-1,Increment      1: Step Time =    1.000,"P-23-1",          1530,       56.2443,       103.510,            0.,NA,NA,"",   947.281E+03,   990.704E+03,   990.704E+03
C:/temp/Job-23.odb,Step-1,Increment      1: Step Time =    1.000,"P-23-1",          1531,       147.058,       96.6451,            0.,NA,NA,"",   997.830E+03,   996.292E+03,   996.292E+03
C:/temp/Job-23.odb,Step-1,Increment      1: Step Time =    1.000,"P-23-1",          1532,       152.255,       92.1465,            0.,NA,NA,"",   1.00139E+06,   998.967E+03,   998.967E+03
C:/temp/Job-23.odb,Step-1,Increment      1: Step Time =    1.000,"P-23-1",          1533,       142.607,       61.2970,            0.,NA,NA,"",   1.01588E+06,   1.01126E+06,   1.01126E+06
C:/temp/Job-23.odb,Step-1,Increment      1: Step Time =    1.000,"P-23-1",          1534,       141.031,       84.0693,            0.,NA,NA,"",   1.00794E+06,   1.00428E+06,   1.00428E+06
C:/temp/Job-23.odb,Step-1,Increment      1: Step Time =    1.000,"P-23-1",          1535,       61.2656,       142.636,            0.,NA,NA,"",   998.141E+03,   1.02185E+06,   1.02185E+06
C:/temp/Job-23.odb,Step-1,Increment      1: Step Time =    1.000,"P-23-1",          1536,       70.0535,       144.278,            0.,NA,NA,"",   1.00699E+06,   1.02337E+06,   1.02337E+06
C:/temp/Job-23.odb,Step-1,Increment      1: Step Time =    1.000,"P-23-1",          1537,       96.7057,       145.393,            0.,NA,NA,"",   1.00707E+06,   1.01650E+06,   1.01650E+06
C:/temp/Job-23.odb,Step-1,Increment      1: Step Time =    1.000,"P-23-1",          1538,       35.0705,       93.1259,            0.,NA,NA,"",   911.063E+03,   979.619E+03,   979.619E+03
C:/temp/Job-23.odb,Step-1,Increment      1: Step Time =    1.000,"P-23-1",          1539,       157.996,       101.038,            0.,NA,NA,"",   1.00149E+06,   998.810E+03,   998.810E+03
C:/temp/Job-23.odb,Step-1,Increment      1: Step Time =    1.000,"P-23-1",          1540,       47.8742,       118.412,            0.,NA,NA,"",   948.773E+03,   998.322E+03,   998.322E+03
C:/temp/Job-23.odb,Step-1,Increment      1: Step Time =    1.000,"P-23-1",          1541,       47.4000,       127.570,            0.,NA,NA,"",   957.919E+03,   1.00467E+06,   1.00467E+06
C:/temp/Job-23.odb,Step-1,Increment      1: Step Time =    1.000,"P-23-1",          1542,       69.0724,       148.461,            0.,NA,NA,"",   1.00587E+06,   1.02167E+06,   1.02167E+06
C:/temp/Job-23.odb,Step-1,Increment      1: Step Time =    1.000,"P-23-1",          1543,       44.7706,       109.979,            0.,NA,NA,"",   933.255E+03,   989.185E+03,   989.185E+03
C:/temp/Job-23.odb,Step-1,Increment      1: Step Time =    1.000,"P-23-1",          1544,       37.5521,       133.554,            0.,NA,NA,"",   941.524E+03,   999.188E+03,   999.188E+03
C:/temp/Job-23.odb,Step-1,Increment      1: Step Time =    1.000,"P-23-1",          1545,       51.1964,       142.051,            0.,NA,NA,"",   982.472E+03,   1.01710E+06,   1.01710E+06
C:/temp/Job-23.odb,Step-1,Increment      1: Step Time =    1.000,"P-23-1",          1546,       62.5344,       147.583,            0.,NA,NA,"",   1.00126E+06,   1.02166E+06,   1.02166E+06
C:/temp/Job-23.odb,Step-1,Increment      1: Step Time =    1.000,"P-23-1",          1547,       136.678,       122.629,            0.,NA,NA,"",   1.01644E+06,   1.01133E+06,   1.01133E+06
C:/temp/Job-23.odb,Step-1,Increment      1: Step Time =    1.000,"P-23-1",          1548,       163.564,       151.668,            0.,NA,NA,"",   1.00630E+06,   1.00277E+06,   1.00277E+06
C:/temp/Job-23.odb,Step-1,Increment      1: Step Time =    1.000,"P-23-1",          1549,       159.694,       143.983,            0.,NA,NA,"",   1.00891E+06,   1.00481E+06,   1.00481E+06
C:/temp/Job-23.odb,Step-1,Increment      1: Step Time =    1.000,"P-23-1",          1550,       37.7629,       55.3749,            0.,NA,NA,"",   958.557E+03,   1.00942E+06,   1.00942E+06
C:/temp/Job-23.odb,Step-1,Increment      1: Step Time =    1.000,"P-23-1",          1551,       34.4512,       46.7670,            0.,NA,NA,"",   965.994E+03,   1.01560E+06,   1.01560E+06
C:/temp/Job-23.odb,Step-1,Increment      1: Step Time =    1.000,"P-23-1",          1552,       101.466,       45.6336,            0.,NA,NA,"",   1.00314E+06,   1.00860E+06,   1.00860E+06
C:/temp/Job-23.odb,Step-1,Increment      1: Step Time =    1.000,"P-23-1",          1553,       80.2167,       158.452,            0.,NA,NA,"",   1.00309E+06,   1.01100E+06,   1.01100E+06
C:/temp/Job-23.odb,Step-1,Increment      1: Step Time =    1.000,"P-23-1",          1554,       33.9231,       134.744,            0.,NA,NA,"",   933.882E+03,   996.159E+03,   996.159E+03
C:/temp/Job-23.odb,Step-1,Increment      1: Step Time =    1.000,"P-23-1",          1555,       101.055,       146.845,            0.,NA,NA,"",   1.00665E+06,   1.01460E+06,   1.01460E+06
C:/temp/Job-23.odb,Step-1,Increment      1: Step Time =    1.000,"P-23-1",          1556,       66.9913,       151.811,            0.,NA,NA,"",   1.00434E+06,   1.02004E+06,   1.02004E+06
C:/temp/Job-23.odb,Step-1,Increment      1: Step Time =    1.000,"P-23-1",          1557,       51.4767,       127.851,            0.,NA,NA,"",   967.443E+03,   1.00865E+06,   1.00865E+06
C:/temp/Job-23.odb,Step-1,Increment      1: Step Time =    1.000,"P-23-1",          1558,       111.537,       46.0537,            0.,NA,NA,"",   1.00598E+06,   1.00862E+06,   1.00862E+06
C:/temp/Job-23.odb,Step-1,Increment      1: Step Time =    1.000,"P-23-1",          1559,       39.4472,       109.966,            0.,NA,NA,"",   921.656E+03,   984.562E+03,   984.562E+03
C:/temp/Job-23.odb,Step-1,Increment      1: Step Time =    1.000,"P-23-1",          1560,       138.992,       119.559,            0.,NA,NA,"",   1.01195E+06,   1.00756E+06,   1.00756E+06
C:/temp/Job-23.odb,Step-1,Increment      1: Step Time =    1.000,"P-23-1",          1561,       43.8351,       131.470,            0.,NA,NA,"",   954.402E+03,   1.00420E+06,   1.00420E+06
C:/temp/Job-23.odb,Step-1,Increment      1: Step Time =    1.000,"P-23-1",          1562,       131.777,       158.500,            0.,NA,NA,"",   1.00618E+06,   1.00439E+06,   1.00439E+06
C:/temp/Job-23.odb,Step-1,Increment      1: Step Time =    1.000,"P-23-1",          1563,       125.435,       164.708,            0.,NA,NA,"",   1.00032E+06,   999.646E+03,   999.646E+03
C:/temp/Job-23.odb,Step-1,Increment      1: Step Time =    1.000,"P-23-1",          1564,       73.6184,       35.7773,            0.,NA,NA,"",   999.759E+03,   1.00710E+06,   1.00710E+06
C:/temp/Job-23.odb,Step-1,Increment      1: Step Time =    1.000,"P-23-1",          1565,       83.0318,       165.280,            0.,NA,NA,"",   997.281E+03,   1.00250E+06,   1.00250E+06
C:/temp/Job-23.odb,Step-1,Increment      1: Step Time =    1.000,"P-23-1",          1566,       34.3844,       89.6287,            0.,NA,NA,"",   910.039E+03,   979.416E+03,   979.416E+03
C:/temp/Job-23.odb,Step-1,Increment      1: Step Time =    1.000,"P-23-1",          1567,       154.806,       143.463,            0.,NA,NA,"",   1.01018E+06,   1.00601E+06,   1.00601E+06
C:/temp/Job-23.odb,Step-1,Increment      1: Step Time =    1.000,"P-23-1",          1568,       43.7102,       58.3410,            0.,NA,NA,"",   967.796E+03,   1.01206E+06,   1.01206E+06
C:/temp/Job-23.odb,Step-1,Increment      1: Step Time =    1.000,"P-23-1",          1569,       35.8892,       129.601,            0.,NA,NA,"",   932.122E+03,   993.978E+03,   993.978E+03
C:/temp/Job-23.odb,Step-1,Increment      1: Step Time =    1.000,"P-23-1",          1570,       114.289,       155.475,            0.,NA,NA,"",   1.00556E+06,   1.00728E+06,   1.00728E+06
C:/temp/Job-23.odb,Step-1,Increment      1: Step Time =    1.000,"P-23-1",          1571,       108.251,       42.1385,            0.,NA,NA,"",   1.00219E+06,   1.00529E+06,   1.00529E+06
C:/temp/Job-23.odb,Step-1,Increment      1: Step Time =    1.000,"P-23-1",          1572,       47.1677,       123.375,            0.,NA,NA,"",   952.764E+03,   1.00139E+06,   1.00139E+06
C:/temp/Job-23.odb,Step-1,Increment      1: Step Time =    1.000,"P-23-1",          1573,       99.9173,       150.871,            0.,NA,NA,"",   1.00499E+06,   1.01188E+06,   1.01188E+06
C:/temp/Job-23.odb,Step-1,Increment      1: Step Time =    1.000,"P-23-1",          1574,       55.6920,       127.796,            0.,NA,NA,"",   976.654E+03,   1.01242E+06,   1.01242E+06
C:/temp/Job-23.odb,Step-1,Increment      1: Step Time =    1.000,"P-23-1",          1575,       147.944,       121.957,            0.,NA,NA,"",   1.01104E+06,   1.00666E+06,   1.00666E+06
C:/temp/Job-23.odb,Step-1,Increment      1: Step Time =    1.000,"P-23-1",          1576,       78.1736,       163.803,            0.,NA,NA,"",   999.382E+03,   1.00600E+06,   1.00600E+06
C:/temp/Job-23.odb,Step-1,Increment      1: Step Time =    1.000,"P-23-1",          1577,       86.1606,       163.572,            0.,NA,NA,"",   998.188E+03,   1.00331E+06,   1.00331E+06
C:/temp/Job-23.odb,Step-1,Increment      1: Step Time =    1.000,"P-23-1",          1578,       37.7859,       85.2292,            0.,NA,NA,"",   921.416E+03,   985.284E+03,   985.284E+03
C:/temp/Job-23.odb,Step-1,Increment      1: Step Time =    1.000,"P-23-1",          1579,       32.3340,       130.706,            0.,NA,NA,"",   924.114E+03,   990.499E+03,   990.499E+03
C:/temp/Job-23.odb,Step-1,Increment      1: Step Time =    1.000,"P-23-1",          1580,       108.695,       156.175,            0.,NA,NA,"",   1.00350E+06,   1.00679E+06,   1.00679E+06
C:/temp/Job-23.odb,Step-1,Increment      1: Step Time =    1.000,"P-23-1",          1581,       66.5586,       156.652,            0.,NA,NA,"",   1.00366E+06,   1.01708E+06,   1.01708E+06
C:/temp/Job-23.odb,Step-1,Increment      1: Step Time =    1.000,"P-23-1",          1582,       61.7727,       153.064,            0.,NA,NA,"",   1.00156E+06,   1.01983E+06,   1.01983E+06
C:/temp/Job-23.odb,Step-1,Increment      1: Step Time =    1.000,"P-23-1",          1583,       112.727,       39.6512,            0.,NA,NA,"",   1.00132E+06,   1.00293E+06,   1.00293E+06
C:/temp/Job-23.odb,Step-1,Increment      1: Step Time =    1.000,"P-23-1",          1584,       95.7424,       154.095,            0.,NA,NA,"",   1.00379E+06,   1.01037E+06,   1.01037E+06
C:/temp/Job-23.odb,Step-1,Increment      1: Step Time =    1.000,"P-23-1",          1585,       75.1780,       155.726,            0.,NA,NA,"",   1.00514E+06,   1.01529E+06,   1.01529E+06
C:/temp/Job-23.odb,Step-1,Increment      1: Step Time =    1.000,"P-23-1",          1586,       145.023,       119.451,            0.,NA,NA,"",   1.00954E+06,   1.00555E+06,   1.00555E+06
C:/temp/Job-23.odb,Step-1,Increment      1: Step Time =    1.000,"P-23-1",          1587,       87.7848,       157.083,            0.,NA,NA,"",   1.00286E+06,   1.00972E+06,   1.00972E+06
C:/temp/Job-23.odb,Step-1,Increment      1: Step Time =    1.000,"P-23-1",          1588,       113.767,       151.128,            0.,NA,NA,"",   1.00845E+06,   1.01085E+06,   1.01085E+06
C:/temp/Job-23.odb,Step-1,Increment      1: Step Time =    1.000,"P-23-1",          1589,       101.005,       156.742,            0.,NA,NA,"",   1.00211E+06,   1.00710E+06,   1.00710E+06
C:/temp/Job-23.odb,Step-1,Increment      1: Step Time =    1.000,"P-23-1",          1590,       33.3322,       85.7977,            0.,NA,NA,"",   910.111E+03,   980.020E+03,   980.020E+03
C:/temp/Job-23.odb,Step-1,Increment      1: Step Time =    1.000,"P-23-1",          1591,       64.6176,       154.686,            0.,NA,NA,"",   1.00311E+06,   1.01863E+06,   1.01863E+06
C:/temp/Job-23.odb,Step-1,Increment      1: Step Time =    1.000,"P-23-1",          1592,       64.6123,       161.202,            0.,NA,NA,"",   1.00199E+06,   1.01463E+06,   1.01463E+06
C:/temp/Job-23.odb,Step-1,Increment      1: Step Time =    1.000,"P-23-1",          1593,       98.8226,       153.879,            0.,NA,NA,"",   1.00364E+06,   1.00984E+06,   1.00984E+06
C:/temp/Job-23.odb,Step-1,Increment      1: Step Time =    1.000,"P-23-1",          1594,       90.1008,       162.112,            0.,NA,NA,"",   998.949E+03,   1.00404E+06,   1.00404E+06
C:/temp/Job-23.odb,Step-1,Increment      1: Step Time =    1.000,"P-23-1",          1595,       96.5084,       158.917,            0.,NA,NA,"",   1.00066E+06,   1.00569E+06,   1.00569E+06
C:/temp/Job-23.odb,Step-1,Increment      1: Step Time =    1.000,"P-23-1",          1596,       109.464,       150.705,            0.,NA,NA,"",   1.00743E+06,   1.01142E+06,   1.01142E+06
C:/temp/Job-23.odb,Step-1,Increment      1: Step Time =    1.000,"P-23-1",          1597,       74.8045,       165.872,            0.,NA,NA,"",   998.356E+03,   1.00498E+06,   1.00498E+06
C:/temp/Job-23.odb,Step-1,Increment      1: Step Time =    1.000,"P-23-1",          1598,       110.252,       146.531,            0.,NA,NA,"",   1.01075E+06,   1.01502E+06,   1.01502E+06
C:/temp/Job-23.odb,Step-1,Increment      1: Step Time =    1.000,"P-23-1",          1599,       106.577,       144.842,            0.,NA,NA,"",   1.00921E+06,   1.01572E+06,   1.01572E+06
C:/temp/Job-23.odb,Step-1,Increment      1: Step Time =    1.000,"P-23-1",          1600,       114.503,       142.944,            0.,NA,NA,"",   1.01564E+06,   1.01780E+06,   1.01780E+06
C:/temp/Job-23.odb,Step-1,Increment      1: Step Time =    1.000,"P-23-1",          1601,       108.659,       141.372,            0.,NA,NA,"",   1.01209E+06,   1.01846E+06,   1.01846E+06
C:/temp/Job-23.odb,Step-1,Increment      1: Step Time =    1.000,"P-23-1",          1602,       118.945,       145.153,            0.,NA,NA,"",   1.01493E+06,   1.01533E+06,   1.01533E+06
C:/temp/Job-23.odb,Step-1,Increment      1: Step Time =    1.000,"P-23-1",          1603,       121.354,       149.506,            0.,NA,NA,"",   1.01220E+06,   1.01187E+06,   1.01187E+06
C:/temp/Job-23.odb,Step-1,Increment      1: Step Time =    1.000,"P-23-1",          1604,       117.637,       140.992,            0.,NA,NA,"",   1.01818E+06,   1.01898E+06,   1.01898E+06
C:/temp/Job-23.odb,Step-1,Increment      1: Step Time =    1.000,"P-23-1",          1605,       124.314,       136.198,            0.,NA,NA,"",   1.02405E+06,   1.02125E+06,   1.02125E+06
C:/temp/Job-23.odb,Step-1,Increment      1: Step Time =    1.000,"P-23-1",          1606,       121.553,       140.208,            0.,NA,NA,"",   1.02043E+06,   1.01966E+06,   1.01966E+06
C:/temp/Job-23.odb,Step-1,Increment      1: Step Time =    1.000,"P-23-1",          1607,       124.389,       133.070,            0.,NA,NA,"",   1.02759E+06,   1.02401E+06,   1.02401E+06
C:/temp/Job-23.odb,Step-1,Increment      1: Step Time =    1.000,"P-23-1",          1608,       149.178,       125.171,            0.,NA,NA,"",   1.01161E+06,   1.00712E+06,   1.00712E+06
C:/temp/Job-23.odb,Step-1,Increment      1: Step Time =    1.000,"P-23-1",          1609,       65.6899,       166.108,            0.,NA,NA,"",   999.611E+03,   1.00915E+06,   1.00915E+06
C:/temp/Job-23.odb,Step-1,Increment      1: Step Time =    1.000,"P-23-1",          1610,       91.4715,       48.8930,            0.,NA,NA,"",   1.00579E+06,   1.01368E+06,   1.01368E+06
C:/temp/Job-23.odb,Step-1,Increment      1: Step Time =    1.000,"P-23-1",          1611,       129.210,       155.889,            0.,NA,NA,"",   1.00807E+06,   1.00637E+06,   1.00637E+06
C:/temp/Job-23.odb,Step-1,Increment      1: Step Time =    1.000,"P-23-1",          1612,       39.3418,       36.3347,            0.,NA,NA,"",   992.571E+03,   1.02422E+06,   1.02422E+06
C:/temp/Job-23.odb,Step-1,Increment      1: Step Time =    1.000,"P-23-1",          1613,       163.219,       162.215,            0.,NA,NA,"",   1.00306E+06,   1.00043E+06,   1.00043E+06
C:/temp/Job-23.odb,Step-1,Increment      1: Step Time =    1.000,"P-23-1",          1614,       123.052,       144.072,            0.,NA,NA,"",   1.01724E+06,   1.01628E+06,   1.01628E+06
C:/temp/Job-23.odb,Step-1,Increment      1: Step Time =    1.000,"P-23-1",          1615,       163.427,       61.7511,            0.,NA,NA,"",   1.00843E+06,   1.00418E+06,   1.00418E+06
C:/temp/Job-23.odb,Step-1,Increment      1: Step Time =    1.000,"P-23-1",          1616,       38.7802,       79.4930,            0.,NA,NA,"",   929.341E+03,   990.374E+03,   990.374E+03
C:/temp/Job-23.odb,Step-1,Increment      1: Step Time =    1.000,"P-23-1",          1617,       34.3519,       125.714,            0.,NA,NA,"",   923.525E+03,   989.008E+03,   989.008E+03
C:/temp/Job-23.odb,Step-1,Increment      1: Step Time =    1.000,"P-23-1",          1618,       190.262,       38.3945,            0.,NA,NA,"",   1.00280E+06,   1.00004E+06,   1.00004E+06
C:/temp/Job-23.odb,Step-1,Increment      1: Step Time =    1.000,"P-23-1",          1619,       161.533,       109.863,            0.,NA,NA,"",   1.00368E+06,   1.00036E+06,   1.00036E+06
C:/temp/Job-23.odb,Step-1,Increment      1: Step Time =    1.000,"P-23-1",          1620,       174.693,       24.2038,            0.,NA,NA,"",   999.607E+03,   998.223E+03,   998.223E+03
C:/temp/Job-23.odb,Step-1,Increment      1: Step Time =    1.000,"P-23-1",          1621,       91.0434,       38.9017,            0.,NA,NA,"",   999.494E+03,   1.00483E+06,   1.00483E+06
C:/temp/Job-23.odb,Step-1,Increment      1: Step Time =    1.000,"P-23-1",          1622,       163.509,       90.5658,            0.,NA,NA,"",   1.00377E+06,   1.00030E+06,   1.00030E+06
C:/temp/Job-23.odb,Step-1,Increment      1: Step Time =    1.000,"P-23-1",          1623,       166.593,       15.2290,            0.,NA,NA,"",   996.191E+03,   995.563E+03,   995.563E+03
C:/temp/Job-23.odb,Step-1,Increment      1: Step Time =    1.000,"P-23-1",          1624,       23.3496,       174.098,            0.,NA,NA,"",   1.00665E+06,   1.05026E+06,   1.05026E+06
C:/temp/Job-23.odb,Step-1,Increment      1: Step Time =    1.000,"P-23-1",          1625,       55.1641,       56.9399,            0.,NA,NA,"",   990.160E+03,   1.01958E+06,   1.01958E+06
C:/temp/Job-23.odb,Step-1,Increment      1: Step Time =    1.000,"P-23-1",          1626,       166.228,       143.790,            0.,NA,NA,"",   1.00740E+06,   1.00338E+06,   1.00338E+06
C:/temp/Job-23.odb,Step-1,Increment      1: Step Time =    1.000,"P-23-1",          1627,       33.1306,       56.7912,            0.,NA,NA,"",   944.342E+03,   1.00346E+06,   1.00346E+06
C:/temp/Job-23.odb,Step-1,Increment      1: Step Time =    1.000,"P-23-1",          1628,       143.587,       141.641,            0.,NA,NA,"",   1.01460E+06,   1.01024E+06,   1.01024E+06
C:/temp/Job-23.odb,Step-1,Increment      1: Step Time =    1.000,"P-23-1",          1629,       115.646,       159.891,            0.,NA,NA,"",   1.00237E+06,   1.00343E+06,   1.00343E+06
C:/temp/Job-23.odb,Step-1,Increment      1: Step Time =    1.000,"P-23-1",          1630,       161.951,       38.1025,            0.,NA,NA,"",   1.00332E+06,   1.00064E+06,   1.00064E+06
C:/temp/Job-23.odb,Step-1,Increment      1: Step Time =    1.000,"P-23-1",          1631,       33.8855,       184.289,            0.,NA,NA,"",   1.01117E+06,   1.02279E+06,   1.02279E+06
C:/temp/Job-23.odb,Step-1,Increment      1: Step Time =    1.000,"P-23-1",          1632,       133.402,       51.6339,            0.,NA,NA,"",   1.01383E+06,   1.01084E+06,   1.01084E+06
C:/temp/Job-23.odb,Step-1,Increment      1: Step Time =    1.000,"P-23-1",          1633,       35.0480,       33.0500,            0.,NA,NA,"",   994.014E+03,   1.02962E+06,   1.02962E+06
C:/temp/Job-23.odb,Step-1,Increment      1: Step Time =    1.000,"P-23-1",          1634,       55.8826,       141.484,            0.,NA,NA,"",   989.629E+03,   1.01944E+06,   1.01944E+06
C:/temp/Job-23.odb,Step-1,Increment      1: Step Time =    1.000,"P-23-1",          1635,       38.2456,       100.130,            0.,NA,NA,"",   916.498E+03,   981.399E+03,   981.399E+03
C:/temp/Job-23.odb,Step-1,Increment      1: Step Time =    1.000,"P-23-1",          1636,       140.112,       46.8246,            0.,NA,NA,"",   1.00989E+06,   1.00679E+06,   1.00679E+06
C:/temp/Job-23.odb,Step-1,Increment      1: Step Time =    1.000,"P-23-1",          1637,       147.820,       68.9330,            0.,NA,NA,"",   1.01389E+06,   1.00909E+06,   1.00909E+06
C:/temp/Job-23.odb,Step-1,Increment      1: Step Time =    1.000,"P-23-1",          1638,       91.8482,       153.769,            0.,NA,NA,"",   1.00423E+06,   1.01153E+06,   1.01153E+06
C:/temp/Job-23.odb,Step-1,Increment      1: Step Time =    1.000,"P-23-1",          1639,       149.026,       56.6374,            0.,NA,NA,"",   1.01217E+06,   1.00791E+06,   1.00791E+06
C:/temp/Job-23.odb,Step-1,Increment      1: Step Time =    1.000,"P-23-1",          1640,       50.3657,       108.908,            0.,NA,NA,"",   944.462E+03,   993.030E+03,   993.030E+03
C:/temp/Job-23.odb,Step-1,Increment      1: Step Time =    1.000,"P-23-1",          1641,       135.281,       40.6521,            0.,NA,NA,"",   1.00584E+06,   1.00376E+06,   1.00376E+06
C:/temp/Job-23.odb,Step-1,Increment      1: Step Time =    1.000,"P-23-1",          1642,       79.9824,       167.248,            0.,NA,NA,"",   996.014E+03,   1.00122E+06,   1.00122E+06
C:/temp/Job-23.odb,Step-1,Increment      1: Step Time =    1.000,"P-23-1",          1643,       9.00583,       165.101,            0.,NA,NA,"",   920.817E+03,   1.00975E+06,   1.00975E+06
C:/temp/Job-23.odb,Step-1,Increment      1: Step Time =    1.000,"P-23-1",          1644,       98.4857,       42.2711,            0.,NA,NA,"",   1.00140E+06,   1.00668E+06,   1.00668E+06
C:/temp/Job-23.odb,Step-1,Increment      1: Step Time =    1.000,"P-23-1",          1645,       91.7615,       55.6376,            0.,NA,NA,"",   1.00739E+06,   1.01816E+06,   1.01816E+06
C:/temp/Job-23.odb,Step-1,Increment      1: Step Time =    1.000,"P-23-1",          1646,       139.070,       113.754,            0.,NA,NA,"",   1.00461E+06,   1.00167E+06,   1.00167E+06
C:/temp/Job-23.odb,Step-1,Increment      1: Step Time =    1.000,"P-23-1",          1647,       131.725,       32.2353,            0.,NA,NA,"",   998.723E+03,   997.531E+03,   997.531E+03
C:/temp/Job-23.odb,Step-1,Increment      1: Step Time =    1.000,"P-23-1",          1648,       37.0831,       39.1935,            0.,NA,NA,"",   985.238E+03,   1.02355E+06,   1.02355E+06
C:/temp/Job-23.odb,Step-1,Increment      1: Step Time =    1.000,"P-23-1",          1649,       161.444,       155.811,            0.,NA,NA,"",   1.00536E+06,   1.00216E+06,   1.00216E+06
C:/temp/Job-23.odb,Step-1,Increment      1: Step Time =    1.000,"P-23-1",          1650,       39.6386,       59.9583,            0.,NA,NA,"",   956.467E+03,   1.00730E+06,   1.00730E+06
C:/temp/Job-23.odb,Step-1,Increment      1: Step Time =    1.000,"P-23-1",          1651,       162.668,       143.232,            0.,NA,NA,"",   1.00838E+06,   1.00427E+06,   1.00427E+06
C:/temp/Job-23.odb,Step-1,Increment      1: Step Time =    1.000,"P-23-1",          1652,       152.473,       113.418,            0.,NA,NA,"",   1.00406E+06,   1.00101E+06,   1.00101E+06
C:/temp/Job-23.odb,Step-1,Increment      1: Step Time =    1.000,"P-23-1",          1653,       34.4389,       163.887,            0.,NA,NA,"",   988.268E+03,   1.02713E+06,   1.02713E+06
C:/temp/Job-23.odb,Step-1,Increment      1: Step Time =    1.000,"P-23-1",          1654,       79.0568,       63.0975,            0.,NA,NA,"",   1.01487E+06,   1.02836E+06,   1.02836E+06
C:/temp/Job-23.odb,Step-1,Increment      1: Step Time =    1.000,"P-23-1",          1655,       47.5074,       131.502,            0.,NA,NA,"",   962.553E+03,   1.00765E+06,   1.00765E+06
C:/temp/Job-23.odb,Step-1,Increment      1: Step Time =    1.000,"P-23-1",          1656,       103.754,       153.194,            0.,NA,NA,"",   1.00420E+06,   1.00950E+06,   1.00950E+06
C:/temp/Job-23.odb,Step-1,Increment      1: Step Time =    1.000,"P-23-1",          1657,       48.9408,       65.4020,            0.,NA,NA,"",   969.697E+03,   1.01121E+06,   1.01121E+06
C:/temp/Job-23.odb,Step-1,Increment      1: Step Time =    1.000,"P-23-1",          1658,       151.031,       136.596,            0.,NA,NA,"",   1.01254E+06,   1.00795E+06,   1.00795E+06
C:/temp/Job-23.odb,Step-1,Increment      1: Step Time =    1.000,"P-23-1",          1659,       135.475,       119.536,            0.,NA,NA,"",   1.01496E+06,   1.01006E+06,   1.01006E+06
C:/temp/Job-23.odb,Step-1,Increment      1: Step Time =    1.000,"P-23-1",          1660,       90.6321,       19.2252,            0.,NA,NA,"",   976.766E+03,   977.932E+03,   977.932E+03
C:/temp/Job-23.odb,Step-1,Increment      1: Step Time =    1.000,"P-23-1",          1661,       179.116,       87.4964,            0.,NA,NA,"",   1.00502E+06,   1.00039E+06,   1.00039E+06
C:/temp/Job-23.odb,Step-1,Increment      1: Step Time =    1.000,"P-23-1",          1662,       109.663,       181.458,            0.,NA,NA,"",   979.854E+03,   980.196E+03,   980.196E+03
C:/temp/Job-23.odb,Step-1,Increment      1: Step Time =    1.000,"P-23-1",          1663,       21.7097,       113.894,            0.,NA,NA,"",   879.052E+03,   963.821E+03,   963.821E+03
C:/temp/Job-23.odb,Step-1,Increment      1: Step Time =    1.000,"P-23-1",          1664,       147.348,       78.0770,            0.,NA,NA,"",   1.01051E+06,   1.00623E+06,   1.00623E+06
C:/temp/Job-23.odb,Step-1,Increment      1: Step Time =    1.000,"P-23-1",          1665,       163.977,       10.4702,            0.,NA,NA,"",   994.827E+03,   994.490E+03,   994.490E+03
C:/temp/Job-23.odb,Step-1,Increment      1: Step Time =    1.000,"P-23-1",          1666,       34.4482,       9.71826,            0.,NA,NA,"",   995.616E+03,   1.00059E+06,   1.00059E+06
C:/temp/Job-23.odb,Step-1,Increment      1: Step Time =    1.000,"P-23-1",          1667,       9.82809,       35.0280,            0.,NA,NA,"",   923.712E+03,   1.01103E+06,   1.01103E+06
C:/temp/Job-23.odb,Step-1,Increment      1: Step Time =    1.000,"P-23-1",          1668,       160.973,       190.860,            0.,NA,NA,"",   993.513E+03,   993.265E+03,   993.265E+03
C:/temp/Job-23.odb,Step-1,Increment      1: Step Time =    1.000,"P-23-1",          1669,       190.552,       164.600,            0.,NA,NA,"",   1.00237E+06,   999.947E+03,   999.947E+03
C:/temp/Job-23.odb,Step-1,Increment      1: Step Time =    1.000,"P-23-1",          1670,       36.1321,       189.212,            0.,NA,NA,"",   997.528E+03,   1.00220E+06,   1.00220E+06
C:/temp/Job-23.odb,Step-1,Increment      1: Step Time =    1.000,"P-23-1",          1671,       42.8454,       155.881,            0.,NA,NA,"",   985.593E+03,   1.02073E+06,   1.02073E+06
C:/temp/Job-23.odb,Step-1,Increment      1: Step Time =    1.000,"P-23-1",          1672,       111.754,       138.784,            0.,NA,NA,"",   1.01697E+06,   1.02175E+06,   1.02175E+06
C:/temp/Job-23.odb,Step-1,Increment      1: Step Time =    1.000,"P-23-1",          1673,       185.729,       29.1431,            0.,NA,NA,"",   1.00145E+06,   999.578E+03,   999.578E+03
C:/temp/Job-23.odb,Step-1,Increment      1: Step Time =    1.000,"P-23-1",          1674,       171.507,       22.7853,            0.,NA,NA,"",   998.926E+03,   997.683E+03,   997.683E+03
C:/temp/Job-23.odb,Step-1,Increment      1: Step Time =    1.000,"P-23-1",          1675,       38.6882,       15.2445,            0.,NA,NA,"",   1.00118E+06,   1.00976E+06,   1.00976E+06
C:/temp/Job-23.odb,Step-1,Increment      1: Step Time =    1.000,"P-23-1",          1676,       157.920,       185.888,            0.,NA,NA,"",    993.82E+03,   993.258E+03,   993.258E+03
C:/temp/Job-23.odb,Step-1,Increment      1: Step Time =    1.000,"P-23-1",          1677,       185.109,       20.1553,            0.,NA,NA,"",   1.00006E+06,   999.016E+03,   999.016E+03
C:/temp/Job-23.odb,Step-1,Increment      1: Step Time =    1.000,"P-23-1",          1678,       24.8020,       9.57038,            0.,NA,NA,"",   1.03528E+06,   1.04450E+06,   1.04450E+06
C:/temp/Job-23.odb,Step-1,Increment      1: Step Time =    1.000,"P-23-1",          1679,       10.0318,       25.1046,            0.,NA,NA,"",   972.602E+03,   1.05153E+06,   1.05153E+06
C:/temp/Job-23.odb,Step-1,Increment      1: Step Time =    1.000,"P-23-1",          1680,       9.59693,       174.691,            0.,NA,NA,"",   968.888E+03,   1.04958E+06,   1.04958E+06
C:/temp/Job-23.odb,Step-1,Increment      1: Step Time =    1.000,"P-23-1",          1681,       174.972,       10.5475,            0.,NA,NA,"",   997.514E+03,    997.15E+03,    997.15E+03
C:/temp/Job-23.odb,Step-1,Increment      1: Step Time =    1.000,"P-23-1",          1682,       190.466,       29.3917,            0.,NA,NA,"",   1.00158E+06,   999.770E+03,   999.770E+03
C:/temp/Job-23.odb,Step-1,Increment      1: Step Time =    1.000,"P-23-1",          1683,       25.0552,       188.921,            0.,NA,NA,"",   1.03701E+06,   1.04854E+06,   1.04854E+06
C:/temp/Job-23.odb,Step-1,Increment      1: Step Time =    1.000,"P-23-1",          1684,       170.050,       190.402,            0.,NA,NA,"",   996.264E+03,   995.978E+03,   995.978E+03
C:/temp/Job-23.odb,Step-1,Increment      1: Step Time =    1.000,"P-23-1",          1685,       190.299,       174.622,            0.,NA,NA,"",   1.00105E+06,   999.639E+03,   999.639E+03
C:/temp/Job-23.odb,Step-1,Increment      1: Step Time =    1.000,"P-23-1",          1686,       61.4646,       89.3927,            0.,NA,NA,"",   960.984E+03,   996.656E+03,   996.656E+03
C:/temp/Job-23.odb,Step-1,Increment      1: Step Time =    1.000,"P-23-1",          1687,       122.689,       52.2389,            0.,NA,NA,"",   1.01412E+06,   1.01350E+06,   1.01350E+06
C:/temp/Job-23.odb,Step-1,Increment      1: Step Time =    1.000,"P-23-1",          1688,       18.8676,       123.681,            0.,NA,NA,"",   877.903E+03,   964.777E+03,   964.777E+03
C:/temp/Job-23.odb,Step-1,Increment      1: Step Time =    1.000,"P-23-1",          1689,       153.721,       154.059,            0.,NA,NA,"",   1.00708E+06,   1.00371E+06,   1.00371E+06
C:/temp/Job-23.odb,Step-1,Increment      1: Step Time =    1.000,"P-23-1",          1690,       43.6169,       45.5875,            0.,NA,NA,"",   985.321E+03,   1.02036E+06,   1.02036E+06
C:/temp/Job-23.odb,Step-1,Increment      1: Step Time =    1.000,"P-23-1",          1691,       55.7817,       137.031,            0.,NA,NA,"",   985.982E+03,   1.01770E+06,   1.01770E+06
C:/temp/Job-23.odb,Step-1,Increment      1: Step Time =    1.000,"P-23-1",          1692,       29.5914,       27.6845,            0.,NA,NA,"",   1.00379E+06,   1.03883E+06,   1.03883E+06
C:/temp/Job-23.odb,Step-1,Increment      1: Step Time =    1.000,"P-23-1",          1693,       32.6731,       97.7157,            0.,NA,NA,"",   903.827E+03,   975.674E+03,   975.674E+03
C:/temp/Job-23.odb,Step-1,Increment      1: Step Time =    1.000,"P-23-1",          1694,       168.032,       177.440,            0.,NA,NA,"",   998.417E+03,   997.170E+03,   997.170E+03
C:/temp/Job-23.odb,Step-1,Increment      1: Step Time =    1.000,"P-23-1",          1695,       9.98260,       184.715,            0.,NA,NA,"",   1.05886E+06,   1.12120E+06,   1.12120E+06
C:/temp/Job-23.odb,Step-1,Increment      1: Step Time =    1.000,"P-23-1",          1696,       184.999,       10.1998,            0.,NA,NA,"",   999.184E+03,   998.838E+03,   998.838E+03
C:/temp/Job-23.odb,Step-1,Increment      1: Step Time =    1.000,"P-23-1",          1697,       15.1075,       10.0616,            0.,NA,NA,"",   1.10497E+06,   1.12631E+06,   1.12631E+06
C:/temp/Job-23.odb,Step-1,Increment      1: Step Time =    1.000,"P-23-1",          1698,       10.1660,       15.1945,            0.,NA,NA,"",   1.06103E+06,   1.12220E+06,   1.12220E+06
C:/temp/Job-23.odb,Step-1,Increment      1: Step Time =    1.000,"P-23-1",          1699,       180.430,       189.868,            0.,NA,NA,"",   998.523E+03,   998.179E+03,   998.179E+03
C:/temp/Job-23.odb,Step-1,Increment      1: Step Time =    1.000,"P-23-1",          1700,       190.088,       184.828,            0.,NA,NA,"",   999.994E+03,   999.399E+03,   999.399E+03
C:/temp/Job-23.odb,Step-1,Increment      1: Step Time =    1.000,"P-23-1",          1701,       190.196,       20.0012,            0.,NA,NA,"",   1.00045E+06,   999.500E+03,   999.500E+03
C:/temp/Job-23.odb,Step-1,Increment      1: Step Time =    1.000,"P-23-1",          1702,       15.0265,       189.625,            0.,NA,NA,"",   1.10434E+06,   1.12705E+06,   1.12705E+06
C:/temp/Job-23.odb,Step-1,Increment      1: Step Time =    1.000,"P-23-1",          1703,       117.854,       150.808,            0.,NA,NA,"",   1.01014E+06,   1.01110E+06,   1.01110E+06
C:/temp/Job-23.odb,Step-1,Increment      1: Step Time =    1.000,"P-23-1",          1704,       27.8054,       170.765,            0.,NA,NA,"",   998.486E+03,   1.03784E+06,   1.03784E+06
C:/temp/Job-23.odb,Step-1,Increment      1: Step Time =    1.000,"P-23-1",          1705,       14.6363,       179.421,            0.,NA,NA,"",   1.02118E+06,   1.07798E+06,   1.07798E+06
C:/temp/Job-23.odb,Step-1,Increment      1: Step Time =    1.000,"P-23-1",          1706,       62.5355,       77.1905,            0.,NA,NA,"",   985.377E+03,   1.01476E+06,   1.01476E+06
C:/temp/Job-23.odb,Step-1,Increment      1: Step Time =    1.000,"P-23-1",          1707,       69.4686,       74.6913,            0.,NA,NA,"",   1.00401E+06,   1.02455E+06,   1.02455E+06
C:/temp/Job-23.odb,Step-1,Increment      1: Step Time =    1.000,"P-23-1",          1708,       167.235,       131.073,            0.,NA,NA,"",   1.00749E+06,   1.00317E+06,   1.00317E+06
C:/temp/Job-23.odb,Step-1,Increment      1: Step Time =    1.000,"P-23-1",          1709,       34.1056,       69.1701,            0.,NA,NA,"",   929.395E+03,   993.030E+03,   993.030E+03
C:/temp/Job-23.odb,Step-1,Increment      1: Step Time =    1.000,"P-23-1",          1710,       181.220,       155.562,            0.,NA,NA,"",   1.00381E+06,   1.00058E+06,   1.00058E+06
C:/temp/Job-23.odb,Step-1,Increment      1: Step Time =    1.000,"P-23-1",          1711,       15.2777,       44.7528,            0.,NA,NA,"",   914.630E+03,   996.781E+03,   996.781E+03
C:/temp/Job-23.odb,Step-1,Increment      1: Step Time =    1.000,"P-23-1",          1712,       65.5847,       147.310,            0.,NA,NA,"",   1.00352E+06,   1.02216E+06,   1.02216E+06
C:/temp/Job-23.odb,Step-1,Increment      1: Step Time =    1.000,"P-23-1",          1713,       167.602,       153.423,            0.,NA,NA,"",   1.00529E+06,   1.00193E+06,   1.00193E+06
C:/temp/Job-23.odb,Step-1,Increment      1: Step Time =    1.000,"P-23-1",          1714,       133.134,       148.923,            0.,NA,NA,"",   1.01331E+06,   1.01060E+06,   1.01060E+06
C:/temp/Job-23.odb,Step-1,Increment      1: Step Time =    1.000,"P-23-1",          1715,       30.1656,       47.7320,            0.,NA,NA,"",   953.775E+03,   1.01120E+06,   1.01120E+06
C:/temp/Job-23.odb,Step-1,Increment      1: Step Time =    1.000,"P-23-1",          1716,       72.8759,       67.0954,            0.,NA,NA,"",   1.01140E+06,   1.02831E+06,   1.02831E+06
C:/temp/Job-23.odb,Step-1,Increment      1: Step Time =    1.000,"P-23-1",          1717,       163.287,       122.600,            0.,NA,NA,"",   1.00700E+06,   1.00286E+06,   1.00286E+06
C:/temp/Job-23.odb,Step-1,Increment      1: Step Time =    1.000,"P-23-1",          1718,       34.7594,       76.4334,            0.,NA,NA,"",   922.786E+03,   988.110E+03,   988.110E+03
C:/temp/Job-23.odb,Step-1,Increment      1: Step Time =    1.000,"P-23-1",          1719,       121.422,       33.8321,            0.,NA,NA,"",   998.195E+03,   998.045E+03,   998.045E+03
C:/temp/Job-23.odb,Step-1,Increment      1: Step Time =    1.000,"P-23-1",          1720,       173.176,       150.129,            0.,NA,NA,"",   1.00531E+06,   1.00171E+06,   1.00171E+06
C:/temp/Job-23.odb,Step-1,Increment      1: Step Time =    1.000,"P-23-1",          1721,       117.633,       47.4805,            0.,NA,NA,"",   1.00873E+06,   1.00978E+06,   1.00978E+06
C:/temp/Job-23.odb,Step-1,Increment      1: Step Time =    1.000,"P-23-1",          1722,       155.463,       45.7612,            0.,NA,NA,"",   1.00682E+06,   1.00344E+06,   1.00344E+06
C:/temp/Job-23.odb,Step-1,Increment      1: Step Time =    1.000,"P-23-1",          1723,       77.6723,       41.8275,            0.,NA,NA,"",   1.00363E+06,   1.01219E+06,   1.01219E+06
C:/temp/Job-23.odb,Step-1,Increment      1: Step Time =    1.000,"P-23-1",          1724,       148.154,       30.4989,            0.,NA,NA,"",   999.596E+03,   997.753E+03,   997.753E+03
C:/temp/Job-23.odb,Step-1,Increment      1: Step Time =    1.000,"P-23-1",          1725,       123.247,       153.914,            0.,NA,NA,"",   1.00903E+06,   1.00846E+06,   1.00846E+06
C:/temp/Job-23.odb,Step-1,Increment      1: Step Time =    1.000,"P-23-1",          1726,       157.419,       78.1184,            0.,NA,NA,"",   1.00768E+06,   1.00363E+06,   1.00363E+06
C:/temp/Job-23.odb,Step-1,Increment      1: Step Time =    1.000,"P-23-1",          1727,       131.013,       135.614,            0.,NA,NA,"",   1.02277E+06,   1.01837E+06,   1.01837E+06
C:/temp/Job-23.odb,Step-1,Increment      1: Step Time =    1.000,"P-23-1",          1728,       149.276,       87.7943,            0.,NA,NA,"",   1.00311E+06,   1.00036E+06,   1.00036E+06
C:/temp/Job-23.odb,Step-1,Increment      1: Step Time =    1.000,"P-23-1",          1729,       61.3825,       58.6832,            0.,NA,NA,"",   998.103E+03,   1.02203E+06,   1.02203E+06
C:/temp/Job-23.odb,Step-1,Increment      1: Step Time =    1.000,"P-23-1",          1730,       114.703,       43.9701,            0.,NA,NA,"",   1.00520E+06,   1.00679E+06,   1.00679E+06
C:/temp/Job-23.odb,Step-1,Increment      1: Step Time =    1.000,"P-23-1",          1731,       164.034,       13.8509,            0.,NA,NA,"",   995.390E+03,   994.853E+03,   994.853E+03
C:/temp/Job-23.odb,Step-1,Increment      1: Step Time =    1.000,"P-23-1",          1732,       137.153,       141.604,            0.,NA,NA,"",   1.01712E+06,   1.01292E+06,   1.01292E+06
C:/temp/Job-23.odb,Step-1,Increment      1: Step Time =    1.000,"P-23-1",          1733,       51.8081,       171.130,            0.,NA,NA,"",   999.437E+03,   1.01288E+06,   1.01288E+06
C:/temp/Job-23.odb,Step-1,Increment      1: Step Time =    1.000,"P-23-1",          1734,       155.336,       69.3153,            0.,NA,NA,"",   1.01070E+06,   1.00619E+06,   1.00619E+06
C:/temp/Job-23.odb,Step-1,Increment      1: Step Time =    1.000,"P-23-1",          1735,       36.2656,       185.787,            0.,NA,NA,"",   1.00687E+06,   1.01553E+06,   1.01553E+06
C:/temp/Job-23.odb,Step-1,Increment      1: Step Time =    1.000,"P-23-1",          1736,       9.41924,       145.860,            0.,NA,NA,"",   875.138E+03,   970.064E+03,   970.064E+03
C:/temp/Job-23.odb,Step-1,Increment      1: Step Time =    1.000,"P-23-1",          1737,       187.529,       57.9406,            0.,NA,NA,"",   1.00497E+06,   1.00057E+06,   1.00057E+06
C:/temp/Job-23.odb,Step-1,Increment      1: Step Time =    1.000,"P-23-1",          1738,       141.776,       186.620,            0.,NA,NA,"",   988.107E+03,   987.668E+03,   987.668E+03
C:/temp/Job-23.odb,Step-1,Increment      1: Step Time =    1.000,"P-23-1",          1739,       58.2841,       12.7518,            0.,NA,NA,"",   969.342E+03,   971.540E+03,   971.540E+03
C:/temp/Job-23.odb,Step-1,Increment      1: Step Time =    1.000,"P-23-1",          1740,       165.339,       186.679,            0.,NA,NA,"",   995.623E+03,   995.127E+03,   995.127E+03
C:/temp/Job-23.odb,Step-1,Increment      1: Step Time =    1.000,"P-23-1",          1741,       29.3028,       14.1461,            0.,NA,NA,"",   1.02476E+06,   1.03718E+06,   1.03718E+06
C:/temp/Job-23.odb,Step-1,Increment      1: Step Time =    1.000,"P-23-1",          1742,       33.8573,       14.6272,            0.,NA,NA,"",   1.01129E+06,   1.02178E+06,   1.02178E+06
C:/temp/Job-23.odb,Step-1,Increment      1: Step Time =    1.000,"P-23-1",          1743,       161.562,       186.608,            0.,NA,NA,"",   994.655E+03,   994.142E+03,   994.142E+03
C:/temp/Job-23.odb,Step-1,Increment      1: Step Time =    1.000,"P-23-1",          1744,       162.731,       135.413,            0.,NA,NA,"",   1.00861E+06,   1.00429E+06,   1.00429E+06
C:/temp/Job-23.odb,Step-1,Increment      1: Step Time =    1.000,"P-23-1",          1745,       38.0053,       66.4115,            0.,NA,NA,"",   942.880E+03,   999.862E+03,   999.862E+03
C:/temp/Job-23.odb,Step-1,Increment      1: Step Time =    1.000,"P-23-1",          1746,       74.6836,       61.9968,            0.,NA,NA,"",   1.01122E+06,   1.02638E+06,   1.02638E+06
C:/temp/Job-23.odb,Step-1,Increment      1: Step Time =    1.000,"P-23-1",          1747,       128.838,       146.528,            0.,NA,NA,"",   1.01554E+06,   1.01315E+06,   1.01315E+06
C:/temp/Job-23.odb,Step-1,Increment      1: Step Time =    1.000,"P-23-1",          1748,       70.0690,       53.9524,            0.,NA,NA,"",   1.00765E+06,   1.02328E+06,   1.02328E+06
C:/temp/Job-23.odb,Step-1,Increment      1: Step Time =    1.000,"P-23-1",          1749,       169.870,       167.440,            0.,NA,NA,"",   1.00141E+06,   999.263E+03,   999.263E+03
C:/temp/Job-23.odb,Step-1,Increment      1: Step Time =    1.000,"P-23-1",          1750,       31.9732,       36.0050,            0.,NA,NA,"",   985.826E+03,   1.02807E+06,   1.02807E+06
C:/temp/Job-23.odb,Step-1,Increment      1: Step Time =    1.000,"P-23-1",          1751,       41.5643,       76.6468,            0.,NA,NA,"",   939.200E+03,   995.525E+03,   995.525E+03
C:/temp/Job-23.odb,Step-1,Increment      1: Step Time =    1.000,"P-23-1",          1752,       79.7984,       59.0419,            0.,NA,NA,"",   1.01191E+06,   1.02522E+06,   1.02522E+06
C:/temp/Job-23.odb,Step-1,Increment      1: Step Time =    1.000,"P-23-1",          1753,       152.658,       84.0359,            0.,NA,NA,"",   1.00566E+06,   1.00222E+06,   1.00222E+06
C:/temp/Job-23.odb,Step-1,Increment      1: Step Time =    1.000,"P-23-1",          1754,       161.968,       114.016,            0.,NA,NA,"",   1.00487E+06,   1.00124E+06,   1.00124E+06
C:/temp/Job-23.odb,Step-1,Increment      1: Step Time =    1.000,"P-23-1",          1755,       157.500,       110.312,            0.,NA,NA,"",   1.00316E+06,   1.00012E+06,   1.00012E+06
C:/temp/Job-23.odb,Step-1,Increment      1: Step Time =    1.000,"P-23-1",          1756,       85.0985,       58.5407,            0.,NA,NA,"",   1.01297E+06,   1.02461E+06,   1.02461E+06
C:/temp/Job-23.odb,Step-1,Increment      1: Step Time =    1.000,"P-23-1",          1757,       186.041,       164.382,            0.,NA,NA,"",   1.00239E+06,   999.931E+03,   999.931E+03
C:/temp/Job-23.odb,Step-1,Increment      1: Step Time =    1.000,"P-23-1",          1758,       14.6879,       35.0793,            0.,NA,NA,"",   942.670E+03,   1.01934E+06,   1.01934E+06
C:/temp/Job-23.odb,Step-1,Increment      1: Step Time =    1.000,"P-23-1",          1759,       23.6617,       178.837,            0.,NA,NA,"",   1.02598E+06,   1.05983E+06,   1.05983E+06
C:/temp/Job-23.odb,Step-1,Increment      1: Step Time =    1.000,"P-23-1",          1760,       27.9125,       178.233,            0.,NA,NA,"",   1.02077E+06,   1.04888E+06,   1.04888E+06
C:/temp/Job-23.odb,Step-1,Increment      1: Step Time =    1.000,"P-23-1",          1761,       24.2921,       183.780,            0.,NA,NA,"",   1.03781E+06,   1.06062E+06,   1.06062E+06
C:/temp/Job-23.odb,Step-1,Increment      1: Step Time =    1.000,"P-23-1",          1762,       175.536,       15.3456,            0.,NA,NA,"",   998.105E+03,   997.421E+03,   997.421E+03
C:/temp/Job-23.odb,Step-1,Increment      1: Step Time =    1.000,"P-23-1",          1763,       185.530,       174.257,            0.,NA,NA,"",   1.00084E+06,   999.329E+03,   999.329E+03
C:/temp/Job-23.odb,Step-1,Increment      1: Step Time =    1.000,"P-23-1",          1764,       24.7304,       14.0045,            0.,NA,NA,"",   1.03901E+06,   1.05674E+06,   1.05674E+06
C:/temp/Job-23.odb,Step-1,Increment      1: Step Time =    1.000,"P-23-1",          1765,       172.763,       184.850,            0.,NA,NA,"",   997.507E+03,   996.863E+03,   996.863E+03
C:/temp/Job-23.odb,Step-1,Increment      1: Step Time =    1.000,"P-23-1",          1766,       15.2078,       25.2417,            0.,NA,NA,"",   992.034E+03,   1.05548E+06,   1.05548E+06
C:/temp/Job-23.odb,Step-1,Increment      1: Step Time =    1.000,"P-23-1",          1767,       59.4407,       64.5794,            0.,NA,NA,"",   991.958E+03,   1.02002E+06,   1.02002E+06
C:/temp/Job-23.odb,Step-1,Increment      1: Step Time =    1.000,"P-23-1",          1768,       71.9701,       46.4532,            0.,NA,NA,"",   1.00590E+06,   1.01805E+06,   1.01805E+06
C:/temp/Job-23.odb,Step-1,Increment      1: Step Time =    1.000,"P-23-1",          1769,       126.837,       152.105,            0.,NA,NA,"",   1.01089E+06,   1.00940E+06,   1.00940E+06
C:/temp/Job-23.odb,Step-1,Increment      1: Step Time =    1.000,"P-23-1",          1770,       128.626,       138.025,            0.,NA,NA,"",   1.02176E+06,   1.01832E+06,   1.01832E+06
C:/temp/Job-23.odb,Step-1,Increment      1: Step Time =    1.000,"P-23-1",          1771,       87.3951,       52.6472,            0.,NA,NA,"",   1.00859E+06,   1.01836E+06,   1.01836E+06
C:/temp/Job-23.odb,Step-1,Increment      1: Step Time =    1.000,"P-23-1",          1772,       47.9190,       9.99277,            0.,NA,NA,"",   969.638E+03,   972.001E+03,   972.001E+03
C:/temp/Job-23.odb,Step-1,Increment      1: Step Time =    1.000,"P-23-1",          1773,       189.288,       47.8348,            0.,NA,NA,"",   1.00395E+06,   1.00026E+06,   1.00026E+06
C:/temp/Job-23.odb,Step-1,Increment      1: Step Time =    1.000,"P-23-1",          1774,       9.22236,       155.522,            0.,NA,NA,"",   893.070E+03,   985.820E+03,   985.820E+03
C:/temp/Job-23.odb,Step-1,Increment      1: Step Time =    1.000,"P-23-1",          1775,       152.484,       189.208,            0.,NA,NA,"",   990.943E+03,   990.570E+03,   990.570E+03
C:/temp/Job-23.odb,Step-1,Increment      1: Step Time =    1.000,"P-23-1",          1776,       151.780,       71.0015,            0.,NA,NA,"",   1.01181E+06,   1.00720E+06,   1.00720E+06
C:/temp/Job-23.odb,Step-1,Increment      1: Step Time =    1.000,"P-23-1",          1777,       137.789,       50.6194,            0.,NA,NA,"",   1.01249E+06,   1.00914E+06,   1.00914E+06
C:/temp/Job-23.odb,Step-1,Increment      1: Step Time =    1.000,"P-23-1",          1778,       85.6486,       43.1581,            0.,NA,NA,"",   1.00373E+06,   1.01096E+06,   1.01096E+06
C:/temp/Job-23.odb,Step-1,Increment      1: Step Time =    1.000,"P-23-1",          1779,       14.8409,       184.528,            0.,NA,NA,"",   1.06899E+06,   1.11031E+06,   1.11031E+06
C:/temp/Job-23.odb,Step-1,Increment      1: Step Time =    1.000,"P-23-1",          1780,       185.067,       15.2016,            0.,NA,NA,"",   999.491E+03,   998.832E+03,   998.832E+03
C:/temp/Job-23.odb,Step-1,Increment      1: Step Time =    1.000,"P-23-1",          1781,       185.266,       184.748,            0.,NA,NA,"",   999.509E+03,   998.851E+03,   998.851E+03
C:/temp/Job-23.odb,Step-1,Increment      1: Step Time =    1.000,"P-23-1",          1782,       15.3010,       15.1490,            0.,NA,NA,"",   1.07166E+06,   1.11014E+06,   1.11014E+06
C:/temp/Job-23.odb,Step-1,Increment      1: Step Time =    1.000,"P-23-1",          1783,       133.643,       44.1087,            0.,NA,NA,"",   1.00850E+06,   1.00624E+06,   1.00624E+06
C:/temp/Job-23.odb,Step-1,Increment      1: Step Time =    1.000,"P-23-1",          1784,       56.9353,       79.1156,            0.,NA,NA,"",   970.944E+03,   1.00782E+06,   1.00782E+06
C:/temp/Job-23.odb,Step-1,Increment      1: Step Time =    1.000,"P-23-1",          1785,       124.781,       36.2897,            0.,NA,NA,"",   1.00097E+06,   1.00037E+06,   1.00037E+06
C:/temp/Job-23.odb,Step-1,Increment      1: Step Time =    1.000,"P-23-1",          1786,       68.2871,       69.5658,            0.,NA,NA,"",   1.00324E+06,   1.02442E+06,   1.02442E+06
C:/temp/Job-23.odb,Step-1,Increment      1: Step Time =    1.000,"P-23-1",          1787,       87.0294,       166.176,            0.,NA,NA,"",   995.899E+03,   1.00015E+06,   1.00015E+06
C:/temp/Job-23.odb,Step-1,Increment      1: Step Time =    1.000,"P-23-1",          1788,       151.980,       74.3345,            0.,NA,NA,"",   1.01063E+06,   1.00620E+06,   1.00620E+06
C:/temp/Job-23.odb,Step-1,Increment      1: Step Time =    1.000,"P-23-1",          1789,       180.168,       15.2520,            0.,NA,NA,"",   998.822E+03,   998.152E+03,   998.152E+03
C:/temp/Job-23.odb,Step-1,Increment      1: Step Time =    1.000,"P-23-1",          1790,       170.662,       173.505,            0.,NA,NA,"",   999.902E+03,   998.271E+03,   998.271E+03
C:/temp/Job-23.odb,Step-1,Increment      1: Step Time =    1.000,"P-23-1",          1791,       28.5338,       31.7635,            0.,NA,NA,"",   992.110E+03,   1.03492E+06,   1.03492E+06
C:/temp/Job-23.odb,Step-1,Increment      1: Step Time =    1.000,"P-23-1",          1792,       121.153,       43.2658,            0.,NA,NA,"",   1.00602E+06,   1.00599E+06,   1.00599E+06
C:/temp/Job-23.odb,Step-1,Increment      1: Step Time =    1.000,"P-23-1",          1793,       149.249,       132.541,            0.,NA,NA,"",   1.01327E+06,   1.00852E+06,   1.00852E+06
C:/temp/Job-23.odb,Step-1,Increment      1: Step Time =    1.000,"P-23-1",          1794,       51.6905,       68.9964,            0.,NA,NA,"",   971.673E+03,   1.01127E+06,   1.01127E+06
C:/temp/Job-23.odb,Step-1,Increment      1: Step Time =    1.000,"P-23-1",          1795,       27.2617,       174.168,            0.,NA,NA,"",   1.00917E+06,   1.04395E+06,   1.04395E+06
C:/temp/Job-23.odb,Step-1,Increment      1: Step Time =    1.000,"P-23-1",          1796,       162.474,       118.295,            0.,NA,NA,"",   1.00605E+06,   1.00214E+06,   1.00214E+06
C:/temp/Job-23.odb,Step-1,Increment      1: Step Time =    1.000,"P-23-1",          1797,       152.155,       65.7162,            0.,NA,NA,"",   1.01220E+06,   1.00757E+06,   1.00757E+06
C:/temp/Job-23.odb,Step-1,Increment      1: Step Time =    1.000,"P-23-1",          1798,       172.579,       179.246,            0.,NA,NA,"",   998.543E+03,   997.468E+03,   997.468E+03
C:/temp/Job-23.odb,Step-1,Increment      1: Step Time =    1.000,"P-23-1",          1799,       26.6426,       22.4608,            0.,NA,NA,"",   1.02000E+06,   1.05110E+06,   1.05110E+06
C:/temp/Job-23.odb,Step-1,Increment      1: Step Time =    1.000,"P-23-1",          1800,       37.8897,       73.1510,            0.,NA,NA,"",   934.027E+03,   994.078E+03,   994.078E+03
C:/temp/Job-23.odb,Step-1,Increment      1: Step Time =    1.000,"P-23-1",          1801,       164.627,       126.800,            0.,NA,NA,"",   1.00751E+06,   1.00324E+06,   1.00324E+06
C:/temp/Job-23.odb,Step-1,Increment      1: Step Time =    1.000,"P-23-1",          1802,       19.6157,       184.255,            0.,NA,NA,"",   1.05474E+06,   1.08388E+06,   1.08388E+06
C:/temp/Job-23.odb,Step-1,Increment      1: Step Time =    1.000,"P-23-1",          1803,       29.0289,       43.6379,            0.,NA,NA,"",   960.317E+03,   1.01608E+06,   1.01608E+06
C:/temp/Job-23.odb,Step-1,Increment      1: Step Time =    1.000,"P-23-1",          1804,       130.887,       141.087,            0.,NA,NA,"",   1.01949E+06,   1.01596E+06,   1.01596E+06
C:/temp/Job-23.odb,Step-1,Increment      1: Step Time =    1.000,"P-23-1",          1805,       66.2806,       57.0866,            0.,NA,NA,"",   1.00405E+06,   1.02344E+06,   1.02344E+06
C:/temp/Job-23.odb,Step-1,Increment      1: Step Time =    1.000,"P-23-1",          1806,       171.992,       154.842,            0.,NA,NA,"",   1.00453E+06,   1.00129E+06,   1.00129E+06
C:/temp/Job-23.odb,Step-1,Increment      1: Step Time =    1.000,"P-23-1",          1807,       154.988,       134.955,            0.,NA,NA,"",   1.01098E+06,   1.00653E+06,   1.00653E+06
C:/temp/Job-23.odb,Step-1,Increment      1: Step Time =    1.000,"P-23-1",          1808,       19.5675,       39.8238,            0.,NA,NA,"",   943.516E+03,   1.01391E+06,   1.01391E+06
C:/temp/Job-23.odb,Step-1,Increment      1: Step Time =    1.000,"P-23-1",          1809,       181.404,       159.769,            0.,NA,NA,"",   1.00314E+06,   1.00027E+06,   1.00027E+06
C:/temp/Job-23.odb,Step-1,Increment      1: Step Time =    1.000,"P-23-1",          1810,       44.9783,       67.8216,            0.,NA,NA,"",   957.783E+03,   1.00583E+06,   1.00583E+06
C:/temp/Job-23.odb,Step-1,Increment      1: Step Time =    1.000,"P-23-1",          1811,       82.0465,       47.2309,            0.,NA,NA,"",   1.00658E+06,   1.01570E+06,   1.01570E+06
C:/temp/Job-23.odb,Step-1,Increment      1: Step Time =    1.000,"P-23-1",          1812,       117.754,       37.8365,            0.,NA,NA,"",   1.00089E+06,   1.00137E+06,   1.00137E+06
C:/temp/Job-23.odb,Step-1,Increment      1: Step Time =    1.000,"P-23-1",          1813,       168.342,       182.050,            0.,NA,NA,"",   997.235E+03,   996.406E+03,   996.406E+03
C:/temp/Job-23.odb,Step-1,Increment      1: Step Time =    1.000,"P-23-1",          1814,       28.3979,       18.5152,            0.,NA,NA,"",   1.02725E+06,   1.04825E+06,   1.04825E+06
C:/temp/Job-23.odb,Step-1,Increment      1: Step Time =    1.000,"P-23-1",          1815,       35.1927,       35.7307,            0.,NA,NA,"",   988.842E+03,   1.02732E+06,   1.02732E+06
C:/temp/Job-23.odb,Step-1,Increment      1: Step Time =    1.000,"P-23-1",          1816,       166.921,       164.489,            0.,NA,NA,"",   1.00219E+06,   999.786E+03,   999.786E+03
C:/temp/Job-23.odb,Step-1,Increment      1: Step Time =    1.000,"P-23-1",          1817,       35.0527,       61.8442,            0.,NA,NA,"",   942.044E+03,   1.00076E+06,   1.00076E+06
C:/temp/Job-23.odb,Step-1,Increment      1: Step Time =    1.000,"P-23-1",          1818,       166.687,       139.832,            0.,NA,NA,"",   1.00761E+06,   1.00344E+06,   1.00344E+06
C:/temp/Job-23.odb,Step-1,Increment      1: Step Time =    1.000,"P-23-1",          1819,       158.971,       59.0033,            0.,NA,NA,"",   1.00931E+06,   1.00508E+06,   1.00508E+06
C:/temp/Job-23.odb,Step-1,Increment      1: Step Time =    1.000,"P-23-1",          1820,       38.7771,       89.0829,            0.,NA,NA,"",   921.977E+03,   985.338E+03,   985.338E+03
C:/temp/Job-23.odb,Step-1,Increment      1: Step Time =    1.000,"P-23-1",          1821,       151.921,       119.160,            0.,NA,NA,"",   1.00771E+06,   1.00387E+06,   1.00387E+06
C:/temp/Job-23.odb,Step-1,Increment      1: Step Time =    1.000,"P-23-1",          1822,       86.1319,       39.4145,            0.,NA,NA,"",   1.00087E+06,   1.00704E+06,   1.00704E+06
C:/temp/Job-23.odb,Step-1,Increment      1: Step Time =    1.000,"P-23-1",          1823,       164.294,       85.3479,            0.,NA,NA,"",   1.00504E+06,   1.00126E+06,   1.00126E+06
C:/temp/Job-23.odb,Step-1,Increment      1: Step Time =    1.000,"P-23-1",          1824,       171.447,       15.8471,            0.,NA,NA,"",   997.418E+03,   996.711E+03,   996.711E+03
C:/temp/Job-23.odb,Step-1,Increment      1: Step Time =    1.000,"P-23-1",          1825,       175.610,       19.8934,            0.,NA,NA,"",   998.937E+03,   997.883E+03,   997.883E+03
C:/temp/Job-23.odb,Step-1,Increment      1: Step Time =    1.000,"P-23-1",          1826,       72.1865,       57.2317,            0.,NA,NA,"",   1.00845E+06,   1.02408E+06,   1.02408E+06
C:/temp/Job-23.odb,Step-1,Increment      1: Step Time =    1.000,"P-23-1",          1827,       146.059,       59.1801,            0.,NA,NA,"",   1.01395E+06,   1.00948E+06,   1.00948E+06
C:/temp/Job-23.odb,Step-1,Increment      1: Step Time =    1.000,"P-23-1",          1828,       130.260,       150.258,            0.,NA,NA,"",   1.01253E+06,   1.01020E+06,   1.01020E+06
C:/temp/Job-23.odb,Step-1,Increment      1: Step Time =    1.000,"P-23-1",          1829,       58.3666,       75.6854,            0.,NA,NA,"",   977.827E+03,   1.01175E+06,   1.01175E+06
C:/temp/Job-23.odb,Step-1,Increment      1: Step Time =    1.000,"P-23-1",          1830,       185.918,       169.216,            0.,NA,NA,"",   1.00164E+06,   999.653E+03,   999.653E+03
C:/temp/Job-23.odb,Step-1,Increment      1: Step Time =    1.000,"P-23-1",          1831,       14.8677,       30.1981,            0.,NA,NA,"",   963.902E+03,   1.03529E+06,   1.03529E+06
C:/temp/Job-23.odb,Step-1,Increment      1: Step Time =    1.000,"P-23-1",          1832,       152.372,       78.6613,            0.,NA,NA,"",   1.00887E+06,   1.00481E+06,   1.00481E+06
C:/temp/Job-23.odb,Step-1,Increment      1: Step Time =    1.000,"P-23-1",          1833,       185.127,       179.423,            0.,NA,NA,"",   1.00011E+06,   999.041E+03,   999.041E+03
C:/temp/Job-23.odb,Step-1,Increment      1: Step Time =    1.000,"P-23-1",          1834,       20.2326,       14.7371,            0.,NA,NA,"",   1.05661E+06,   1.08210E+06,   1.08210E+06
C:/temp/Job-23.odb,Step-1,Increment      1: Step Time =    1.000,"P-23-1",          1835,       177.426,       185.256,            0.,NA,NA,"",   998.387E+03,   997.741E+03,   997.741E+03
C:/temp/Job-23.odb,Step-1,Increment      1: Step Time =    1.000,"P-23-1",          1836,       15.5153,       20.2322,            0.,NA,NA,"",   1.02592E+06,   1.07914E+06,   1.07914E+06
C:/temp/Job-23.odb,Step-1,Increment      1: Step Time =    1.000,"P-23-1",          1837,       19.4561,       35.2366,            0.,NA,NA,"",   958.433E+03,   1.02470E+06,   1.02470E+06
C:/temp/Job-23.odb,Step-1,Increment      1: Step Time =    1.000,"P-23-1",          1838,       181.602,       164.139,            0.,NA,NA,"",   1.00241E+06,   999.935E+03,   999.935E+03
C:/temp/Job-23.odb,Step-1,Increment      1: Step Time =    1.000,"P-23-1",          1839,       145.470,       64.5440,            0.,NA,NA,"",   1.01533E+06,   1.01051E+06,   1.01051E+06
C:/temp/Job-23.odb,Step-1,Increment      1: Step Time =    1.000,"P-23-1",          1840,       158.296,       123.824,            0.,NA,NA,"",   1.00827E+06,   1.00409E+06,   1.00409E+06
C:/temp/Job-23.odb,Step-1,Increment      1: Step Time =    1.000,"P-23-1",          1841,       85.8944,       47.4280,            0.,NA,NA,"",   1.00540E+06,   1.01395E+06,   1.01395E+06
C:/temp/Job-23.odb,Step-1,Increment      1: Step Time =    1.000,"P-23-1",          1842,       153.521,       129.922,            0.,NA,NA,"",   1.01113E+06,   1.00655E+06,   1.00655E+06
C:/temp/Job-23.odb,Step-1,Increment      1: Step Time =    1.000,"P-23-1",          1843,       41.2791,       70.3487,            0.,NA,NA,"",   945.768E+03,   1.00006E+06,   1.00006E+06
C:/temp/Job-23.odb,Step-1,Increment      1: Step Time =    1.000,"P-23-1",          1844,       47.8790,       71.3163,            0.,NA,NA,"",   960.191E+03,   1.00597E+06,   1.00597E+06
C:/temp/Job-23.odb,Step-1,Increment      1: Step Time =    1.000,"P-23-1",          1845,       163.224,       131.991,            0.,NA,NA,"",   1.00836E+06,   1.00403E+06,   1.00403E+06
C:/temp/Job-23.odb,Step-1,Increment      1: Step Time =    1.000,"P-23-1",          1846,       177.191,       164.031,            0.,NA,NA,"",   1.00237E+06,   999.912E+03,   999.912E+03
C:/temp/Job-23.odb,Step-1,Increment      1: Step Time =    1.000,"P-23-1",          1847,       23.9805,       35.4856,            0.,NA,NA,"",   970.963E+03,   1.02777E+06,   1.02777E+06
C:/temp/Job-23.odb,Step-1,Increment      1: Step Time =    1.000,"P-23-1",          1848,       122.595,       39.9155,            0.,NA,NA,"",   1.00367E+06,   1.00338E+06,   1.00338E+06
C:/temp/Job-23.odb,Step-1,Increment      1: Step Time =    1.000,"P-23-1",          1849,       169.159,       186.168,            0.,NA,NA,"",   996.567E+03,   996.036E+03,   996.036E+03
C:/temp/Job-23.odb,Step-1,Increment      1: Step Time =    1.000,"P-23-1",          1850,       68.7994,       63.4478,            0.,NA,NA,"",   1.00661E+06,   1.02573E+06,   1.02573E+06
C:/temp/Job-23.odb,Step-1,Increment      1: Step Time =    1.000,"P-23-1",          1851,       180.811,       184.894,            0.,NA,NA,"",   998.924E+03,   998.253E+03,   998.253E+03
C:/temp/Job-23.odb,Step-1,Increment      1: Step Time =    1.000,"P-23-1",          1852,       133.994,       138.360,            0.,NA,NA,"",   1.01995E+06,   1.01562E+06,   1.01562E+06
C:/temp/Job-23.odb,Step-1,Increment      1: Step Time =    1.000,"P-23-1",          1853,       47.8439,       77.0044,            0.,NA,NA,"",   953.708E+03,   1.00172E+06,   1.00172E+06
C:/temp/Job-23.odb,Step-1,Increment      1: Step Time =    1.000,"P-23-1",          1854,       123.384,       46.8174,            0.,NA,NA,"",   1.00935E+06,   1.00881E+06,   1.00881E+06
C:/temp/Job-23.odb,Step-1,Increment      1: Step Time =    1.000,"P-23-1",          1855,       173.036,       164.792,            0.,NA,NA,"",   1.00208E+06,   999.726E+03,   999.726E+03
C:/temp/Job-23.odb,Step-1,Increment      1: Step Time =    1.000,"P-23-1",          1856,       28.3854,       39.6912,            0.,NA,NA,"",   969.049E+03,   1.02205E+06,   1.02205E+06
C:/temp/Job-23.odb,Step-1,Increment      1: Step Time =    1.000,"P-23-1",          1857,       78.0717,       51.6029,            0.,NA,NA,"",   1.00895E+06,   1.02039E+06,   1.02039E+06
C:/temp/Job-23.odb,Step-1,Increment      1: Step Time =    1.000,"P-23-1",          1858,       55.1861,       75.0988,            0.,NA,NA,"",   972.119E+03,   1.00967E+06,   1.00967E+06
C:/temp/Job-23.odb,Step-1,Increment      1: Step Time =    1.000,"P-23-1",          1859,       140.345,       137.994,            0.,NA,NA,"",   1.01727E+06,   1.01262E+06,   1.01262E+06
C:/temp/Job-23.odb,Step-1,Increment      1: Step Time =    1.000,"P-23-1",          1860,       55.7012,       66.8811,            0.,NA,NA,"",   982.375E+03,   1.01598E+06,   1.01598E+06
C:/temp/Job-23.odb,Step-1,Increment      1: Step Time =    1.000,"P-23-1",          1861,       46.9957,       84.5065,            0.,NA,NA,"",   943.214E+03,   994.765E+03,   994.765E+03
C:/temp/Job-23.odb,Step-1,Increment      1: Step Time =    1.000,"P-23-1",          1862,       132.728,       47.0022,            0.,NA,NA,"",   1.01058E+06,   1.00814E+06,   1.00814E+06
C:/temp/Job-23.odb,Step-1,Increment      1: Step Time =    1.000,"P-23-1",          1863,       75.8698,       57.2959,            0.,NA,NA,"",   1.01028E+06,   1.02430E+06,   1.02430E+06
C:/temp/Job-23.odb,Step-1,Increment      1: Step Time =    1.000,"P-23-1",          1864,       64.7072,       70.5566,            0.,NA,NA,"",   997.357E+03,   1.02208E+06,   1.02208E+06
C:/temp/Job-23.odb,Step-1,Increment      1: Step Time =    1.000,"P-23-1",          1865,       82.2301,       55.2354,            0.,NA,NA,"",   1.01183E+06,   1.02320E+06,   1.02320E+06
C:/temp/Job-23.odb,Step-1,Increment      1: Step Time =    1.000,"P-23-1",          1866,       174.810,       175.982,            0.,NA,NA,"",   999.595E+03,   998.219E+03,   998.219E+03
C:/temp/Job-23.odb,Step-1,Increment      1: Step Time =    1.000,"P-23-1",          1867,       25.2169,       26.6404,            0.,NA,NA,"",   1.00443E+06,   1.04580E+06,   1.04580E+06
C:/temp/Job-23.odb,Step-1,Increment      1: Step Time =    1.000,"P-23-1",          1868,       126.193,       42.1274,            0.,NA,NA,"",   1.00603E+06,   1.00502E+06,   1.00502E+06
C:/temp/Job-23.odb,Step-1,Increment      1: Step Time =    1.000,"P-23-1",          1869,       65.9466,       61.0118,            0.,NA,NA,"",   1.00251E+06,   1.02350E+06,   1.02350E+06
C:/temp/Job-23.odb,Step-1,Increment      1: Step Time =    1.000,"P-23-1",          1870,       153.375,       124.539,            0.,NA,NA,"",   1.00978E+06,   1.00551E+06,   1.00551E+06
C:/temp/Job-23.odb,Step-1,Increment      1: Step Time =    1.000,"P-23-1",          1871,       24.9225,       17.5109,            0.,NA,NA,"",   1.03371E+06,   1.05737E+06,   1.05737E+06
C:/temp/Job-23.odb,Step-1,Increment      1: Step Time =    1.000,"P-23-1",          1872,       171.146,       181.984,            0.,NA,NA,"",   997.706E+03,   996.861E+03,   996.861E+03
C:/temp/Job-23.odb,Step-1,Increment      1: Step Time =    1.000,"P-23-1",          1873,       130.544,       53.8531,            0.,NA,NA,"",   1.01574E+06,   1.01293E+06,   1.01293E+06
C:/temp/Job-23.odb,Step-1,Increment      1: Step Time =    1.000,"P-23-1",          1874,       50.6158,       74.5111,            0.,NA,NA,"",   962.638E+03,   1.00610E+06,   1.00610E+06
C:/temp/Job-23.odb,Step-1,Increment      1: Step Time =    1.000,"P-23-1",          1875,       51.2874,       79.6860,            0.,NA,NA,"",   957.999E+03,   1.00246E+06,   1.00246E+06
C:/temp/Job-23.odb,Step-1,Increment      1: Step Time =    1.000,"P-23-1",          1876,       62.0824,       68.0412,            0.,NA,NA,"",   993.560E+03,   1.02018E+06,   1.02018E+06
C:/temp/Job-23.odb,Step-1,Increment      1: Step Time =    1.000,"P-23-1",          1877,       20.3720,       25.6182,            0.,NA,NA,"",   1.00107E+06,   1.05180E+06,   1.05180E+06
C:/temp/Job-23.odb,Step-1,Increment      1: Step Time =    1.000,"P-23-1",          1878,       180.910,       173.599,            0.,NA,NA,"",   1.00063E+06,   999.037E+03,   999.037E+03
C:/temp/Job-23.odb,Step-1,Increment      1: Step Time =    1.000,"P-23-1",          1879,       127.205,       52.8074,            0.,NA,NA,"",   1.01510E+06,   1.01312E+06,   1.01312E+06
C:/temp/Job-23.odb,Step-1,Increment      1: Step Time =    1.000,"P-23-1",          1880,       28.1838,       35.7823,            0.,NA,NA,"",   979.442E+03,   1.02838E+06,   1.02838E+06
C:/temp/Job-23.odb,Step-1,Increment      1: Step Time =    1.000,"P-23-1",          1881,       172.783,       170.233,            0.,NA,NA,"",   1.00085E+06,   998.938E+03,   998.938E+03
C:/temp/Job-23.odb,Step-1,Increment      1: Step Time =    1.000,"P-23-1",          1882,       145.733,       124.697,            0.,NA,NA,"",   1.01327E+06,   1.00848E+06,   1.00848E+06
C:/temp/Job-23.odb,Step-1,Increment      1: Step Time =    1.000,"P-23-1",          1883,       79.0638,       55.7445,            0.,NA,NA,"",   1.00988E+06,   1.02257E+06,   1.02257E+06
C:/temp/Job-23.odb,Step-1,Increment      1: Step Time =    1.000,"P-23-1",          1884,       58.7574,       71.2637,            0.,NA,NA,"",   983.962E+03,   1.01576E+06,   1.01576E+06
C:/temp/Job-23.odb,Step-1,Increment      1: Step Time =    1.000,"P-23-1",          1885,       5.03862,       5.04303,            0.,NA,NA,"",   1.28934E+06,   1.33818E+06,   1.33818E+06
C:/temp/Job-23.odb,Step-1,Increment      1: Step Time =    1.000,"P-23-1",          1886,       43.6954,       9.93802,            0.,NA,NA,"",   975.102E+03,   977.966E+03,   977.966E+03
C:/temp/Job-23.odb,Step-1,Increment      1: Step Time =    1.000,"P-23-1",          1887,       51.1505,       190.887,            0.,NA,NA,"",   962.940E+03,   964.564E+03,   964.564E+03
C:/temp/Job-23.odb,Step-1,Increment      1: Step Time =    1.000,"P-23-1",          1888,       148.944,       9.23797,            0.,NA,NA,"",   988.986E+03,   988.751E+03,   988.751E+03
C:/temp/Job-23.odb,Step-1,Increment      1: Step Time =    1.000,"P-23-1",          1889,       190.086,       15.0933,            0.,NA,NA,"",   999.991E+03,   999.399E+03,   999.399E+03
C:/temp/Job-23.odb,Step-1,Increment      1: Step Time =    1.000,"P-23-1",          1890,       185.217,       189.942,            0.,NA,NA,"",   999.197E+03,   998.869E+03,   998.869E+03
C:/temp/Job-23.odb,Step-1,Increment      1: Step Time =    1.000,"P-23-1",          1891,       10.3165,       45.0722,            0.,NA,NA,"",   896.085E+03,   987.065E+03,   987.065E+03
C:/temp/Job-23.odb,Step-1,Increment      1: Step Time =    1.000,"P-23-1",          1892,       28.6914,       182.832,            0.,NA,NA,"",   1.02456E+06,   1.04335E+06,   1.04335E+06
C:/temp/Job-23.odb,Step-1,Increment      1: Step Time =    1.000,"P-23-1",          1893,       185.917,       159.677,            0.,NA,NA,"",   1.00306E+06,   1.00016E+06,   1.00016E+06
C:/temp/Job-23.odb,Step-1,Increment      1: Step Time =    1.000,"P-23-1",          1894,       175.638,       182.143,            0.,NA,NA,"",   998.476E+03,   997.636E+03,   997.636E+03
C:/temp/Job-23.odb,Step-1,Increment      1: Step Time =    1.000,"P-23-1",          1895,       142.908,       179.062,            0.,NA,NA,"",   992.912E+03,   991.967E+03,   991.967E+03
C:/temp/Job-23.odb,Step-1,Increment      1: Step Time =    1.000,"P-23-1",          1896,       131.685,       184.613,            0.,NA,NA,"",   985.217E+03,   984.848E+03,   984.848E+03
C:/temp/Job-23.odb,Step-1,Increment      1: Step Time =    1.000,"P-23-1",          1897,       56.7218,       19.7706,            0.,NA,NA,"",   986.715E+03,   991.903E+03,   991.903E+03
C:/temp/Job-23.odb,Step-1,Increment      1: Step Time =    1.000,"P-23-1",          1898,       68.2486,       15.2539,            0.,NA,NA,"",    971.43E+03,   973.114E+03,   973.114E+03
C:/temp/Job-23.odb,Step-1,Increment      1: Step Time =    1.000,"P-23-1",          1899,       184.612,       44.9064,            0.,NA,NA,"",   1.00378E+06,   1.00046E+06,   1.00046E+06
C:/temp/Job-23.odb,Step-1,Increment      1: Step Time =    1.000,"P-23-1",          1900,       185.493,       62.8875,            0.,NA,NA,"",   1.00537E+06,   1.00078E+06,   1.00078E+06
C:/temp/Job-23.odb,Step-1,Increment      1: Step Time =    1.000,"P-23-1",          1901,       180.543,       56.8761,            0.,NA,NA,"",   1.00530E+06,   1.00120E+06,   1.00120E+06
C:/temp/Job-23.odb,Step-1,Increment      1: Step Time =    1.000,"P-23-1",          1902,       38.9310,       183.767,            0.,NA,NA,"",   1.00295E+06,   1.01292E+06,   1.01292E+06
C:/temp/Job-23.odb,Step-1,Increment      1: Step Time =    1.000,"P-23-1",          1903,       161.452,       15.9408,            0.,NA,NA,"",   995.408E+03,   994.715E+03,   994.715E+03
C:/temp/Job-23.odb,Step-1,Increment      1: Step Time =    1.000,"P-23-1",          1904,       51.4628,       17.1558,            0.,NA,NA,"",   987.225E+03,   992.782E+03,   992.782E+03
C:/temp/Job-23.odb,Step-1,Increment      1: Step Time =    1.000,"P-23-1",          1905,       168.694,       16.9074,            0.,NA,NA,"",   996.952E+03,   996.214E+03,   996.214E+03
C:/temp/Job-23.odb,Step-1,Increment      1: Step Time =    1.000,"P-23-1",          1906,       181.970,       51.7041,            0.,NA,NA,"",   1.00456E+06,   1.00081E+06,   1.00081E+06
C:/temp/Job-23.odb,Step-1,Increment      1: Step Time =    1.000,"P-23-1",          1907,       148.523,       180.591,            0.,NA,NA,"",   993.587E+03,   992.676E+03,   992.676E+03
C:/temp/Job-23.odb,Step-1,Increment      1: Step Time =    1.000,"P-23-1",          1908,       32.1647,       177.076,            0.,NA,NA,"",   1.01411E+06,   1.03808E+06,   1.03808E+06
C:/temp/Job-23.odb,Step-1,Increment      1: Step Time =    1.000,"P-23-1",          1909,       14.8402,       39.9293,            0.,NA,NA,"",   926.631E+03,   1.00670E+06,   1.00670E+06
C:/temp/Job-23.odb,Step-1,Increment      1: Step Time =    1.000,"P-23-1",          1910,       181.547,       168.713,            0.,NA,NA,"",   1.00157E+06,   999.526E+03,   999.526E+03
C:/temp/Job-23.odb,Step-1,Increment      1: Step Time =    1.000,"P-23-1",          1911,       163.016,       22.3440,            0.,NA,NA,"",   997.623E+03,   996.429E+03,   996.429E+03
C:/temp/Job-23.odb,Step-1,Increment      1: Step Time =    1.000,"P-23-1",          1912,       159.371,       181.618,            0.,NA,NA,"",   995.708E+03,   994.822E+03,   994.822E+03
C:/temp/Job-23.odb,Step-1,Increment      1: Step Time =    1.000,"P-23-1",          1913,       13.7334,       63.1353,            0.,NA,NA,"",   877.224E+03,   967.889E+03,   967.889E+03
C:/temp/Job-23.odb,Step-1,Increment      1: Step Time =    1.000,"P-23-1",          1914,       12.9359,       66.9297,            0.,NA,NA,"",   869.520E+03,   962.275E+03,   962.275E+03
C:/temp/Job-23.odb,Step-1,Increment      1: Step Time =    1.000,"P-23-1",          1915,       13.5729,       136.458,            0.,NA,NA,"",   875.316E+03,   966.562E+03,   966.562E+03
C:/temp/Job-23.odb,Step-1,Increment      1: Step Time =    1.000,"P-23-1",          1916,       181.879,       36.9428,            0.,NA,NA,"",   1.00248E+06,   999.956E+03,   999.956E+03
C:/temp/Job-23.odb,Step-1,Increment      1: Step Time =    1.000,"P-23-1",          1917,       53.0338,       183.606,            0.,NA,NA,"",   984.181E+03,   988.308E+03,   988.308E+03
C:/temp/Job-23.odb,Step-1,Increment      1: Step Time =    1.000,"P-23-1",          1918,       147.130,       16.9225,            0.,NA,NA,"",   991.847E+03,   991.155E+03,   991.155E+03
C:/temp/Job-23.odb,Step-1,Increment      1: Step Time =    1.000,"P-23-1",          1919,       177.504,       168.110,            0.,NA,NA,"",   1.00148E+06,   999.403E+03,   999.403E+03
C:/temp/Job-23.odb,Step-1,Increment      1: Step Time =    1.000,"P-23-1",          1920,       148.875,       175.757,            0.,NA,NA,"",   996.295E+03,   995.000E+03,   995.000E+03
C:/temp/Job-23.odb,Step-1,Increment      1: Step Time =    1.000,"P-23-1",          1921,       59.9412,       182.547,            0.,NA,NA,"",   980.603E+03,   984.170E+03,   984.170E+03
C:/temp/Job-23.odb,Step-1,Increment      1: Step Time =    1.000,"P-23-1",          1922,       140.001,       18.0208,            0.,NA,NA,"",   990.138E+03,   989.446E+03,   989.446E+03
C:/temp/Job-23.odb,Step-1,Increment      1: Step Time =    1.000,"P-23-1",          1923,       176.548,       159.818,            0.,NA,NA,"",   1.00324E+06,   1.00041E+06,   1.00041E+06
C:/temp/Job-23.odb,Step-1,Increment      1: Step Time =    1.000,"P-23-1",          1924,       165.154,       182.805,            0.,NA,NA,"",   996.573E+03,   995.747E+03,   995.747E+03
C:/temp/Job-23.odb,Step-1,Increment      1: Step Time =    1.000,"P-23-1",          1925,       41.6013,       172.629,            0.,NA,NA,"",   1.00269E+06,   1.02253E+06,   1.02253E+06
C:/temp/Job-23.odb,Step-1,Increment      1: Step Time =    1.000,"P-23-1",          1926,       179.632,       34.6837,            0.,NA,NA,"",   1.00209E+06,   999.762E+03,   999.762E+03
C:/temp/Job-23.odb,Step-1,Increment      1: Step Time =    1.000,"P-23-1",          1927,       126.172,       181.393,            0.,NA,NA,"",   985.666E+03,   985.318E+03,   985.318E+03
C:/temp/Job-23.odb,Step-1,Increment      1: Step Time =    1.000,"P-23-1",          1928,       19.7358,       30.5185,            0.,NA,NA,"",   978.418E+03,   1.03825E+06,   1.03825E+06
C:/temp/Job-23.odb,Step-1,Increment      1: Step Time =    1.000,"P-23-1",          1929,       73.7298,       18.7401,            0.,NA,NA,"",   977.106E+03,   979.004E+03,   979.004E+03
C:/temp/Job-23.odb,Step-1,Increment      1: Step Time =    1.000,"P-23-1",          1930,       20.1408,       44.4088,            0.,NA,NA,"",   932.294E+03,   1.00517E+06,   1.00517E+06
C:/temp/Job-23.odb,Step-1,Increment      1: Step Time =    1.000,"P-23-1",          1931,       37.3876,       20.4994,            0.,NA,NA,"",   1.00832E+06,   1.02363E+06,   1.02363E+06
C:/temp/Job-23.odb,Step-1,Increment      1: Step Time =    1.000,"P-23-1",          1932,       180.823,       138.460,            0.,NA,NA,"",   1.00560E+06,   1.00125E+06,   1.00125E+06
C:/temp/Job-23.odb,Step-1,Increment      1: Step Time =    1.000,"P-23-1",          1933,       181.350,       134.112,            0.,NA,NA,"",   1.00571E+06,   1.00116E+06,   1.00116E+06
C:/temp/Job-23.odb,Step-1,Increment      1: Step Time =    1.000,"P-23-1",          1934,       45.4600,       169.790,            0.,NA,NA,"",   1.00028E+06,   1.01945E+06,   1.01945E+06
C:/temp/Job-23.odb,Step-1,Increment      1: Step Time =    1.000,"P-23-1",          1935,       180.608,       104.538,            0.,NA,NA,"",   1.00480E+06,   1.00010E+06,   1.00010E+06
C:/temp/Job-23.odb,Step-1,Increment      1: Step Time =    1.000,"P-23-1",          1936,       182.262,       75.2439,            0.,NA,NA,"",   1.00560E+06,   1.00082E+06,   1.00082E+06
C:/temp/Job-23.odb,Step-1,Increment      1: Step Time =    1.000,"P-23-1",          1937,       16.8784,       71.1593,            0.,NA,NA,"",   877.665E+03,   965.793E+03,   965.793E+03
C:/temp/Job-23.odb,Step-1,Increment      1: Step Time =    1.000,"P-23-1",          1938,       18.2447,       83.2773,            0.,NA,NA,"",   870.936E+03,   959.643E+03,   959.643E+03
C:/temp/Job-23.odb,Step-1,Increment      1: Step Time =    1.000,"P-23-1",          1939,       157.710,       177.458,            0.,NA,NA,"",   997.040E+03,   995.782E+03,   995.782E+03
C:/temp/Job-23.odb,Step-1,Increment      1: Step Time =    1.000,"P-23-1",          1940,       17.8686,       127.874,            0.,NA,NA,"",   878.759E+03,   966.169E+03,   966.169E+03
C:/temp/Job-23.odb,Step-1,Increment      1: Step Time =    1.000,"P-23-1",          1941,       24.3183,       94.2949,            0.,NA,NA,"",   882.722E+03,   965.083E+03,   965.083E+03
C:/temp/Job-23.odb,Step-1,Increment      1: Step Time =    1.000,"P-23-1",          1942,       115.011,       23.3908,            0.,NA,NA,"",   986.734E+03,   986.949E+03,   986.949E+03
C:/temp/Job-23.odb,Step-1,Increment      1: Step Time =    1.000,"P-23-1",          1943,       85.5742,       176.894,            0.,NA,NA,"",   982.776E+03,   984.711E+03,   984.711E+03
C:/temp/Job-23.odb,Step-1,Increment      1: Step Time =    1.000,"P-23-1",          1944,       174.449,       167.759,            0.,NA,NA,"",   1.00142E+06,   999.326E+03,   999.326E+03
C:/temp/Job-23.odb,Step-1,Increment      1: Step Time =    1.000,"P-23-1",          1945,       170.800,       160.282,            0.,NA,NA,"",   1.00329E+06,   1.00052E+06,   1.00052E+06
C:/temp/Job-23.odb,Step-1,Increment      1: Step Time =    1.000,"P-23-1",          1946,       46.2717,       32.5935,            0.,NA,NA,"",   999.585E+03,   1.02032E+06,   1.02032E+06
C:/temp/Job-23.odb,Step-1,Increment      1: Step Time =    1.000,"P-23-1",          1947,       178.039,       72.0409,            0.,NA,NA,"",   1.00587E+06,   1.00131E+06,   1.00131E+06
C:/temp/Job-23.odb,Step-1,Increment      1: Step Time =    1.000,"P-23-1",          1948,       172.322,       27.7181,            0.,NA,NA,"",   1.00029E+06,   998.589E+03,   998.589E+03
C:/temp/Job-23.odb,Step-1,Increment      1: Step Time =    1.000,"P-23-1",          1949,       17.5697,       161.645,            0.,NA,NA,"",   942.118E+03,   1.01568E+06,   1.01568E+06
C:/temp/Job-23.odb,Step-1,Increment      1: Step Time =    1.000,"P-23-1",          1950,       175.906,       80.2213,            0.,NA,NA,"",   1.00555E+06,   1.00107E+06,   1.00107E+06
C:/temp/Job-23.odb,Step-1,Increment      1: Step Time =    1.000,"P-23-1",          1951,       167.106,       34.2593,            0.,NA,NA,"",   1.00196E+06,   999.639E+03,   999.639E+03
C:/temp/Job-23.odb,Step-1,Increment      1: Step Time =    1.000,"P-23-1",          1952,       177.216,       129.566,            0.,NA,NA,"",   1.00606E+06,   1.00155E+06,   1.00155E+06
C:/temp/Job-23.odb,Step-1,Increment      1: Step Time =    1.000,"P-23-1",          1953,       177.337,       125.776,            0.,NA,NA,"",   1.00585E+06,   1.00130E+06,   1.00130E+06
C:/temp/Job-23.odb,Step-1,Increment      1: Step Time =    1.000,"P-23-1",          1954,       174.001,       120.598,            0.,NA,NA,"",   1.00567E+06,   1.00128E+06,   1.00128E+06
C:/temp/Job-23.odb,Step-1,Increment      1: Step Time =    1.000,"P-23-1",          1955,       146.469,       158.058,            0.,NA,NA,"",   1.00614E+06,   1.00322E+06,   1.00322E+06
C:/temp/Job-23.odb,Step-1,Increment      1: Step Time =    1.000,"P-23-1",          1956,       122.344,       23.0594,            0.,NA,NA,"",   988.971E+03,   988.721E+03,   988.721E+03
C:/temp/Job-23.odb,Step-1,Increment      1: Step Time =    1.000,"P-23-1",          1957,       132.621,       21.8160,            0.,NA,NA,"",   990.690E+03,   989.963E+03,   989.963E+03
C:/temp/Job-23.odb,Step-1,Increment      1: Step Time =    1.000,"P-23-1",          1958,       127.663,       27.1743,            0.,NA,NA,"",   993.856E+03,   993.154E+03,   993.154E+03
C:/temp/Job-23.odb,Step-1,Increment      1: Step Time =    1.000,"P-23-1",          1959,       176.018,       91.7826,            0.,NA,NA,"",   1.00468E+06,   1.00033E+06,   1.00033E+06
C:/temp/Job-23.odb,Step-1,Increment      1: Step Time =    1.000,"P-23-1",          1960,       174.613,       112.142,            0.,NA,NA,"",   1.00479E+06,   1.00050E+06,   1.00050E+06
C:/temp/Job-23.odb,Step-1,Increment      1: Step Time =    1.000,"P-23-1",          1961,       78.2205,       177.011,            0.,NA,NA,"",   984.169E+03,   986.821E+03,   986.821E+03
C:/temp/Job-23.odb,Step-1,Increment      1: Step Time =    1.000,"P-23-1",          1962,       66.7722,       176.489,            0.,NA,NA,"",   987.920E+03,   992.414E+03,   992.414E+03
C:/temp/Job-23.odb,Step-1,Increment      1: Step Time =    1.000,"P-23-1",          1963,       73.5022,       172.015,            0.,NA,NA,"",   991.895E+03,   996.601E+03,   996.601E+03
C:/temp/Job-23.odb,Step-1,Increment      1: Step Time =    1.000,"P-23-1",          1964,       23.7340,       85.6057,            0.,NA,NA,"",   884.860E+03,   967.101E+03,   967.101E+03
C:/temp/Job-23.odb,Step-1,Increment      1: Step Time =    1.000,"P-23-1",          1965,       20.8829,       74.5918,            0.,NA,NA,"",   885.896E+03,   969.716E+03,   969.716E+03
C:/temp/Job-23.odb,Step-1,Increment      1: Step Time =    1.000,"P-23-1",          1966,       18.7252,       63.1553,            0.,NA,NA,"",   892.395E+03,   976.413E+03,   976.413E+03
C:/temp/Job-23.odb,Step-1,Increment      1: Step Time =    1.000,"P-23-1",          1967,       23.9797,       109.293,            0.,NA,NA,"",   882.613E+03,   965.335E+03,   965.335E+03
C:/temp/Job-23.odb,Step-1,Increment      1: Step Time =    1.000,"P-23-1",          1968,       25.7562,       99.1013,            0.,NA,NA,"",   885.817E+03,   966.539E+03,   966.539E+03
C:/temp/Job-23.odb,Step-1,Increment      1: Step Time =    1.000,"P-23-1",          1969,       26.7391,       120.541,            0.,NA,NA,"",   897.999E+03,   975.077E+03,   975.077E+03
C:/temp/Job-23.odb,Step-1,Increment      1: Step Time =    1.000,"P-23-1",          1970,       21.6797,       128.883,            0.,NA,NA,"",   891.787E+03,   973.677E+03,   973.677E+03
C:/temp/Job-23.odb,Step-1,Increment      1: Step Time =    1.000,"P-23-1",          1971,       24.7256,       44.0623,            0.,NA,NA,"",   947.682E+03,   1.01162E+06,   1.01162E+06
C:/temp/Job-23.odb,Step-1,Increment      1: Step Time =    1.000,"P-23-1",          1972,       65.1513,       101.928,            0.,NA,NA,"",   949.146E+03,   984.367E+03,   984.367E+03
C:/temp/Job-23.odb,Step-1,Increment      1: Step Time =    1.000,"P-23-1",          1973,       43.3023,       165.960,            0.,NA,NA,"",   997.858E+03,   1.02261E+06,   1.02261E+06
C:/temp/Job-23.odb,Step-1,Increment      1: Step Time =    1.000,"P-23-1",          1974,       46.8034,       163.723,            0.,NA,NA,"",   997.453E+03,   1.02096E+06,   1.02096E+06
C:/temp/Job-23.odb,Step-1,Increment      1: Step Time =    1.000,"P-23-1",          1975,       41.3534,       29.7979,            0.,NA,NA,"",   1.00154E+06,   1.02409E+06,   1.02409E+06
C:/temp/Job-23.odb,Step-1,Increment      1: Step Time =    1.000,"P-23-1",          1976,       154.882,       169.504,            0.,NA,NA,"",   1.00015E+06,   998.206E+03,   998.206E+03
C:/temp/Job-23.odb,Step-1,Increment      1: Step Time =    1.000,"P-23-1",          1977,       134.834,       105.006,            0.,NA,NA,"",   985.303E+03,   985.942E+03,   985.942E+03
C:/temp/Job-23.odb,Step-1,Increment      1: Step Time =    1.000,"P-23-1",          1978,       27.4403,       96.5464,            0.,NA,NA,"",   890.306E+03,   969.011E+03,   969.011E+03
C:/temp/Job-23.odb,Step-1,Increment      1: Step Time =    1.000,"P-23-1",          1979,       71.7580,       22.8335,            0.,NA,NA,"",   985.297E+03,   988.703E+03,   988.703E+03
C:/temp/Job-23.odb,Step-1,Increment      1: Step Time =    1.000,"P-23-1",          1980,       128.048,       177.338,            0.,NA,NA,"",   990.039E+03,   989.508E+03,   989.508E+03
C:/temp/Job-23.odb,Step-1,Increment      1: Step Time =    1.000,"P-23-1",          1981,       81.7227,       21.5688,            0.,NA,NA,"",   981.232E+03,   983.332E+03,   983.332E+03
C:/temp/Job-23.odb,Step-1,Increment      1: Step Time =    1.000,"P-23-1",          1982,       118.249,       178.929,            0.,NA,NA,"",   985.678E+03,   985.665E+03,   985.665E+03
C:/temp/Job-23.odb,Step-1,Increment      1: Step Time =    1.000,"P-23-1",          1983,       29.3810,       119.038,            0.,NA,NA,"",   903.455E+03,   977.697E+03,   977.697E+03
C:/temp/Job-23.odb,Step-1,Increment      1: Step Time =    1.000,"P-23-1",          1984,       171.090,       112.695,            0.,NA,NA,"",   1.00478E+06,   1.00069E+06,   1.00069E+06
C:/temp/Job-23.odb,Step-1,Increment      1: Step Time =    1.000,"P-23-1",          1985,       78.8598,       172.604,            0.,NA,NA,"",   990.121E+03,   993.942E+03,   993.942E+03
C:/temp/Job-23.odb,Step-1,Increment      1: Step Time =    1.000,"P-23-1",          1986,       122.054,       27.7373,            0.,NA,NA,"",   993.128E+03,   992.891E+03,   992.891E+03
C:/temp/Job-23.odb,Step-1,Increment      1: Step Time =    1.000,"P-23-1",          1987,       28.7306,       109.781,            0.,NA,NA,"",   896.531E+03,   972.613E+03,   972.613E+03
C:/temp/Job-23.odb,Step-1,Increment      1: Step Time =    1.000,"P-23-1",          1988,       170.360,       91.5290,            0.,NA,NA,"",   1.00419E+06,   1.00029E+06,   1.00029E+06
C:/temp/Job-23.odb,Step-1,Increment      1: Step Time =    1.000,"P-23-1",          1989,       88.6523,       175.733,            0.,NA,NA,"",   984.438E+03,   986.431E+03,   986.431E+03
C:/temp/Job-23.odb,Step-1,Increment      1: Step Time =    1.000,"P-23-1",          1990,       112.132,       24.6245,            0.,NA,NA,"",   987.365E+03,   987.883E+03,   987.883E+03
C:/temp/Job-23.odb,Step-1,Increment      1: Step Time =    1.000,"P-23-1",          1991,       170.860,       82.4054,            0.,NA,NA,"",   1.00545E+06,   1.00125E+06,   1.00125E+06
C:/temp/Job-23.odb,Step-1,Increment      1: Step Time =    1.000,"P-23-1",          1992,       26.8861,       124.643,            0.,NA,NA,"",   901.779E+03,   977.951E+03,   977.951E+03
C:/temp/Job-23.odb,Step-1,Increment      1: Step Time =    1.000,"P-23-1",          1993,       24.7020,       129.702,            0.,NA,NA,"",   900.950E+03,   978.757E+03,   978.757E+03
C:/temp/Job-23.odb,Step-1,Increment      1: Step Time =    1.000,"P-23-1",          1994,       26.3052,       136.533,            0.,NA,NA,"",   914.534E+03,   987.529E+03,   987.529E+03
C:/temp/Job-23.odb,Step-1,Increment      1: Step Time =    1.000,"P-23-1",          1995,       57.6196,       168.649,            0.,NA,NA,"",   999.089E+03,   1.01101E+06,   1.01101E+06
C:/temp/Job-23.odb,Step-1,Increment      1: Step Time =    1.000,"P-23-1",          1996,       60.9280,       169.410,            0.,NA,NA,"",   998.164E+03,   1.00791E+06,   1.00791E+06
C:/temp/Job-23.odb,Step-1,Increment      1: Step Time =    1.000,"P-23-1",          1997,       50.1308,       161.566,            0.,NA,NA,"",   997.949E+03,   1.02007E+06,   1.02007E+06
C:/temp/Job-23.odb,Step-1,Increment      1: Step Time =    1.000,"P-23-1",          1998,       21.2658,       163.676,            0.,NA,NA,"",   960.478E+03,   1.02412E+06,   1.02412E+06
C:/temp/Job-23.odb,Step-1,Increment      1: Step Time =    1.000,"P-23-1",          1999,       170.171,       144.763,            0.,NA,NA,"",   1.00655E+06,   1.00261E+06,   1.00261E+06
C:/temp/Job-23.odb,Step-1,Increment      1: Step Time =    1.000,"P-23-1",          2000,       173.333,       125.155,            0.,NA,NA,"",   1.00612E+06,   1.00173E+06,   1.00173E+06
C:/temp/Job-23.odb,Step-1,Increment      1: Step Time =    1.000,"P-23-1",          2001,       167.430,       117.505,            0.,NA,NA,"",   1.00555E+06,   1.00150E+06,   1.00150E+06
C:/temp/Job-23.odb,Step-1,Increment      1: Step Time =    1.000,"P-23-1",          2002,       44.9340,       159.891,            0.,NA,NA,"",   993.471E+03,   1.02218E+06,   1.02218E+06
C:/temp/Job-23.odb,Step-1,Increment      1: Step Time =    1.000,"P-23-1",          2003,       64.6371,       107.180,            0.,NA,NA,"",   957.831E+03,   991.577E+03,   991.577E+03
C:/temp/Job-23.odb,Step-1,Increment      1: Step Time =    1.000,"P-23-1",          2004,       102.591,       142.553,            0.,NA,NA,"",   1.00844E+06,   1.01744E+06,   1.01744E+06
C:/temp/Job-23.odb,Step-1,Increment      1: Step Time =    1.000,"P-23-1",          2005,       36.4226,       30.1025,            0.,NA,NA,"",   1.00040E+06,   1.02946E+06,   1.02946E+06
C:/temp/Job-23.odb,Step-1,Increment      1: Step Time =    1.000,"P-23-1",          2006,       71.4290,       168.128,            0.,NA,NA,"",   996.925E+03,   1.00356E+06,   1.00356E+06
C:/temp/Job-23.odb,Step-1,Increment      1: Step Time =    1.000,"P-23-1",          2007,       130.180,       29.8286,            0.,NA,NA,"",   996.687E+03,   995.709E+03,   995.709E+03
C:/temp/Job-23.odb,Step-1,Increment      1: Step Time =    1.000,"P-23-1",          2008,       146.281,       35.0935,            0.,NA,NA,"",   1.00225E+06,   1.00001E+06,   1.00001E+06
C:/temp/Job-23.odb,Step-1,Increment      1: Step Time =    1.000,"P-23-1",          2009,       127.305,       32.8738,            0.,NA,NA,"",   998.523E+03,   997.686E+03,   997.686E+03
C:/temp/Job-23.odb,Step-1,Increment      1: Step Time =    1.000,"P-23-1",          2010,       29.2882,       87.0861,            0.,NA,NA,"",   898.917E+03,   974.265E+03,   974.265E+03
C:/temp/Job-23.odb,Step-1,Increment      1: Step Time =    1.000,"P-23-1",          2011,       159.291,       160.348,            0.,NA,NA,"",   1.00401E+06,   1.00119E+06,   1.00119E+06
C:/temp/Job-23.odb,Step-1,Increment      1: Step Time =    1.000,"P-23-1",          2012,       130.779,       112.616,            0.,NA,NA,"",   1.00619E+06,   1.00227E+06,   1.00227E+06
C:/temp/Job-23.odb,Step-1,Increment      1: Step Time =    1.000,"P-23-1",          2013,       130.823,       161.660,            0.,NA,NA,"",   1.00379E+06,   1.00231E+06,   1.00231E+06
C:/temp/Job-23.odb,Step-1,Increment      1: Step Time =    1.000,"P-23-1",          2014,       69.6238,       39.5206,            0.,NA,NA,"",   1.00269E+06,   1.01299E+06,   1.01299E+06
C:/temp/Job-23.odb,Step-1,Increment      1: Step Time =    1.000,"P-23-1",          2015,       67.2695,       42.1692,            0.,NA,NA,"",   1.00359E+06,   1.01605E+06,   1.01605E+06
C:/temp/Job-23.odb,Step-1,Increment      1: Step Time =    1.000,"P-23-1",          2016,       134.599,       32.0922,            0.,NA,NA,"",   999.200E+03,   997.812E+03,   997.812E+03
C:/temp/Job-23.odb,Step-1,Increment      1: Step Time =    1.000,"P-23-1",          2017,       164.287,       168.265,            0.,NA,NA,"",   1.00092E+06,   998.864E+03,   998.864E+03
C:/temp/Job-23.odb,Step-1,Increment      1: Step Time =    1.000,"P-23-1",          2018,       31.1483,       154.159,            0.,NA,NA,"",   959.366E+03,   1.01411E+06,   1.01411E+06
C:/temp/Job-23.odb,Step-1,Increment      1: Step Time =    1.000,"P-23-1",          2019,       169.677,       128.417,            0.,NA,NA,"",   1.00688E+06,   1.00254E+06,   1.00254E+06
C:/temp/Job-23.odb,Step-1,Increment      1: Step Time =    1.000,"P-23-1",          2020,       25.8655,       80.9979,            0.,NA,NA,"",   894.444E+03,   973.050E+03,   973.050E+03
C:/temp/Job-23.odb,Step-1,Increment      1: Step Time =    1.000,"P-23-1",          2021,       87.1672,       130.540,            0.,NA,NA,"",   1.02202E+06,   1.03496E+06,   1.03496E+06
C:/temp/Job-23.odb,Step-1,Increment      1: Step Time =    1.000,"P-23-1",          2022,       166.579,       93.8775,            0.,NA,NA,"",   1.00348E+06,   999.935E+03,   999.935E+03
C:/temp/Job-23.odb,Step-1,Increment      1: Step Time =    1.000,"P-23-1",          2023,       27.4779,       157.992,            0.,NA,NA,"",   959.877E+03,   1.01674E+06,   1.01674E+06
C:/temp/Job-23.odb,Step-1,Increment      1: Step Time =    1.000,"P-23-1",          2024,       138.201,       154.251,            0.,NA,NA,"",   1.00955E+06,   1.00666E+06,   1.00666E+06
C:/temp/Job-23.odb,Step-1,Increment      1: Step Time =    1.000,"P-23-1",          2025,       143.598,       148.293,            0.,NA,NA,"",   1.01178E+06,   1.00802E+06,   1.00802E+06
C:/temp/Job-23.odb,Step-1,Increment      1: Step Time =    1.000,"P-23-1",          2026,       130.176,       34.8817,            0.,NA,NA,"",   1.00065E+06,   999.440E+03,   999.440E+03
C:/temp/Job-23.odb,Step-1,Increment      1: Step Time =    1.000,"P-23-1",          2027,       37.1161,       34.2914,            0.,NA,NA,"",   992.886E+03,   1.02715E+06,   1.02715E+06
C:/temp/Job-23.odb,Step-1,Increment      1: Step Time =    1.000,"P-23-1",          2028,       33.0213,       43.0561,            0.,NA,NA,"",   971.412E+03,   1.01950E+06,   1.01950E+06
C:/temp/Job-23.odb,Step-1,Increment      1: Step Time =    1.000,"P-23-1",          2029,       165.289,       147.706,            0.,NA,NA,"",   1.00699E+06,   1.00318E+06,   1.00318E+06
C:/temp/Job-23.odb,Step-1,Increment      1: Step Time =    1.000,"P-23-1",          2030,       166.898,       84.1407,            0.,NA,NA,"",   1.00525E+06,   1.00131E+06,   1.00131E+06
C:/temp/Job-23.odb,Step-1,Increment      1: Step Time =    1.000,"P-23-1",          2031,       63.2053,       86.2036,            0.,NA,NA,"",   971.332E+03,   1.00345E+06,   1.00345E+06
C:/temp/Job-23.odb,Step-1,Increment      1: Step Time =    1.000,"P-23-1",          2032,       32.9333,       144.226,            0.,NA,NA,"",   945.335E+03,   1.00407E+06,   1.00407E+06
C:/temp/Job-23.odb,Step-1,Increment      1: Step Time =    1.000,"P-23-1",          2033,       38.1434,       124.882,            0.,NA,NA,"",   932.400E+03,   992.855E+03,   992.855E+03
C:/temp/Job-23.odb,Step-1,Increment      1: Step Time =    1.000,"P-23-1",          2034,       38.8291,       116.131,            0.,NA,NA,"",   925.663E+03,   987.849E+03,   987.849E+03
C:/temp/Job-23.odb,Step-1,Increment      1: Step Time =    1.000,"P-23-1",          2035,       37.4382,       160.114,            0.,NA,NA,"",   984.582E+03,   1.02342E+06,   1.02342E+06
C:/temp/Job-23.odb,Step-1,Increment      1: Step Time =    1.000,"P-23-1",          2036,       46.4986,       153.794,            0.,NA,NA,"",   987.732E+03,   1.01998E+06,   1.01998E+06
C:/temp/Job-23.odb,Step-1,Increment      1: Step Time =    1.000,"P-23-1",          2037,       128.658,       82.6966,            0.,NA,NA,"",   1.02129E+06,   1.01423E+06,   1.01423E+06
C:/temp/Job-23.odb,Step-1,Increment      1: Step Time =    1.000,"P-23-1",          2038,       143.361,       88.8901,            0.,NA,NA,"",   1.00195E+06,   999.510E+03,   999.510E+03
C:/temp/Job-23.odb,Step-1,Increment      1: Step Time =    1.000,"P-23-1",          2039,       146.583,       89.9878,            0.,NA,NA,"",   1.00098E+06,   998.692E+03,   998.692E+03
C:/temp/Job-23.odb,Step-1,Increment      1: Step Time =    1.000,"P-23-1",          2040,       117.185,       131.832,            0.,NA,NA,"",   1.02946E+06,   1.02926E+06,   1.02926E+06
C:/temp/Job-23.odb,Step-1,Increment      1: Step Time =    1.000,"P-23-1",          2041,       29.1562,       99.0268,            0.,NA,NA,"",   894.674E+03,   971.140E+03,   971.140E+03
C:/temp/Job-23.odb,Step-1,Increment      1: Step Time =    1.000,"P-23-1",          2042,       33.0868,       110.217,            0.,NA,NA,"",   908.098E+03,   978.202E+03,   978.202E+03
C:/temp/Job-23.odb,Step-1,Increment      1: Step Time =    1.000,"P-23-1",          2043,       61.7229,       165.514,            0.,NA,NA,"",   1.00024E+06,   1.01213E+06,   1.01213E+06
C:/temp/Job-23.odb,Step-1,Increment      1: Step Time =    1.000,"P-23-1",          2044,       69.4736,       164.052,            0.,NA,NA,"",   1.00058E+06,   1.00958E+06,   1.00958E+06
C:/temp/Job-23.odb,Step-1,Increment      1: Step Time =    1.000,"P-23-1",          2045,       73.0683,       161.924,            0.,NA,NA,"",   1.00163E+06,   1.01020E+06,   1.01020E+06
C:/temp/Job-23.odb,Step-1,Increment      1: Step Time =    1.000,"P-23-1",          2046,       133.408,       35.9686,            0.,NA,NA,"",   1.00211E+06,   1.00054E+06,   1.00054E+06
C:/temp/Job-23.odb,Step-1,Increment      1: Step Time =    1.000,"P-23-1",          2047,       148.095,       41.2178,            0.,NA,NA,"",   1.00573E+06,   1.00283E+06,   1.00283E+06
C:/temp/Job-23.odb,Step-1,Increment      1: Step Time =    1.000,"P-23-1",          2048,       63.6476,       112.116,            0.,NA,NA,"",   970.236E+03,   1.00224E+06,   1.00224E+06
C:/temp/Job-23.odb,Step-1,Increment      1: Step Time =    1.000,"P-23-1",          2049,       150.133,       103.857,            0.,NA,NA,"",    998.29E+03,   996.498E+03,   996.498E+03
C:/temp/Job-23.odb,Step-1,Increment      1: Step Time =    1.000,"P-23-1",          2050,       128.885,       117.112,            0.,NA,NA,"",   1.02044E+06,   1.01444E+06,   1.01444E+06
C:/temp/Job-23.odb,Step-1,Increment      1: Step Time =    1.000,"P-23-1",          2051,       120.456,       168.558,            0.,NA,NA,"",   996.043E+03,   995.976E+03,   995.976E+03
C:/temp/Job-23.odb,Step-1,Increment      1: Step Time =    1.000,"P-23-1",          2052,       77.4012,       46.7893,            0.,NA,NA,"",   1.00676E+06,   1.01704E+06,   1.01704E+06
C:/temp/Job-23.odb,Step-1,Increment      1: Step Time =    1.000,"P-23-1",          2053,       52.2463,       155.863,            0.,NA,NA,"",   995.667E+03,   1.02013E+06,   1.02013E+06
C:/temp/Job-23.odb,Step-1,Increment      1: Step Time =    1.000,"P-23-1",          2054,       137.577,       116.251,            0.,NA,NA,"",   1.01087E+06,   1.00674E+06,   1.00674E+06
C:/temp/Job-23.odb,Step-1,Increment      1: Step Time =    1.000,"P-23-1",          2055,       36.3806,       96.5350,            0.,NA,NA,"",   912.894E+03,   980.015E+03,   980.015E+03
C:/temp/Job-23.odb,Step-1,Increment      1: Step Time =    1.000,"P-23-1",          2056,       36.2358,       42.3677,            0.,NA,NA,"",   977.869E+03,   1.02055E+06,   1.02055E+06
C:/temp/Job-23.odb,Step-1,Increment      1: Step Time =    1.000,"P-23-1",          2057,       162.977,       95.9285,            0.,NA,NA,"",   1.00283E+06,   999.562E+03,   999.562E+03
C:/temp/Job-23.odb,Step-1,Increment      1: Step Time =    1.000,"P-23-1",          2058,       159.776,       92.8236,            0.,NA,NA,"",   1.00270E+06,   999.638E+03,   999.638E+03
C:/temp/Job-23.odb,Step-1,Increment      1: Step Time =    1.000,"P-23-1",          2059,       160.525,       86.9289,            0.,NA,NA,"",   1.00454E+06,   1.00105E+06,   1.00105E+06
C:/temp/Job-23.odb,Step-1,Increment      1: Step Time =    1.000,"P-23-1",          2060,       41.3529,       49.1090,            0.,NA,NA,"",   976.060E+03,   1.01707E+06,   1.01707E+06
C:/temp/Job-23.odb,Step-1,Increment      1: Step Time =    1.000,"P-23-1",          2061,       77.6429,       124.747,            0.,NA,NA,"",   1.02024E+06,   1.03318E+06,   1.03318E+06
C:/temp/Job-23.odb,Step-1,Increment      1: Step Time =    1.000,"P-23-1",          2062,       35.7839,       110.389,            0.,NA,NA,"",   913.044E+03,   980.584E+03,   980.584E+03
C:/temp/Job-23.odb,Step-1,Increment      1: Step Time =    1.000,"P-23-1",          2063,       160.058,       149.586,            0.,NA,NA,"",   1.00748E+06,   1.00375E+06,   1.00375E+06
C:/temp/Job-23.odb,Step-1,Increment      1: Step Time =    1.000,"P-23-1",          2064,       81.5006,       162.092,            0.,NA,NA,"",   1.00017E+06,   1.00662E+06,   1.00662E+06
C:/temp/Job-23.odb,Step-1,Increment      1: Step Time =    1.000,"P-23-1",          2065,       156.580,       95.5991,            0.,NA,NA,"",   1.00151E+06,   998.901E+03,   998.901E+03
C:/temp/Job-23.odb,Step-1,Increment      1: Step Time =    1.000,"P-23-1",          2066,       38.6368,       147.338,            0.,NA,NA,"",   964.519E+03,   1.01243E+06,   1.01243E+06
C:/temp/Job-23.odb,Step-1,Increment      1: Step Time =    1.000,"P-23-1",          2067,       46.2404,       61.8075,            0.,NA,NA,"",   968.239E+03,   1.01143E+06,   1.01143E+06
C:/temp/Job-23.odb,Step-1,Increment      1: Step Time =    1.000,"P-23-1",          2068,       131.714,       39.5805,            0.,NA,NA,"",   1.00467E+06,   1.00304E+06,   1.00304E+06
C:/temp/Job-23.odb,Step-1,Increment      1: Step Time =    1.000,"P-23-1",          2069,       157.130,       103.929,            0.,NA,NA,"",   1.00152E+06,   998.844E+03,   998.844E+03
C:/temp/Job-23.odb,Step-1,Increment      1: Step Time =    1.000,"P-23-1",          2070,       39.9164,       118.778,            0.,NA,NA,"",   930.941E+03,   990.869E+03,   990.869E+03
C:/temp/Job-23.odb,Step-1,Increment      1: Step Time =    1.000,"P-23-1",          2071,       116.314,       167.210,            0.,NA,NA,"",   996.364E+03,   996.905E+03,   996.905E+03
C:/temp/Job-23.odb,Step-1,Increment      1: Step Time =    1.000,"P-23-1",          2072,       120.564,       136.365,            0.,NA,NA,"",   1.02427E+06,   1.02291E+06,   1.02291E+06
C:/temp/Job-23.odb,Step-1,Increment      1: Step Time =    1.000,"P-23-1",          2073,       81.9063,       42.6262,            0.,NA,NA,"",   1.00378E+06,   1.01158E+06,   1.01158E+06
C:/temp/Job-23.odb,Step-1,Increment      1: Step Time =    1.000,"P-23-1",          2074,       149.578,       109.187,            0.,NA,NA,"",   1.00172E+06,   999.258E+03,   999.258E+03
C:/temp/Job-23.odb,Step-1,Increment      1: Step Time =    1.000,"P-23-1",          2075,       58.8625,       111.221,            0.,NA,NA,"",   959.314E+03,   997.867E+03,   997.867E+03
C:/temp/Job-23.odb,Step-1,Increment      1: Step Time =    1.000,"P-23-1",          2076,       47.4984,       99.4910,            0.,NA,NA,"",   934.709E+03,   988.407E+03,   988.407E+03
C:/temp/Job-23.odb,Step-1,Increment      1: Step Time =    1.000,"P-23-1",          2077,       109.009,       48.8446,            0.,NA,NA,"",   1.00685E+06,   1.01102E+06,   1.01102E+06
C:/temp/Job-23.odb,Step-1,Increment      1: Step Time =    1.000,"P-23-1",          2078,       122.650,       74.3566,            0.,NA,NA,"",   1.03533E+06,   1.02957E+06,   1.02957E+06
C:/temp/Job-23.odb,Step-1,Increment      1: Step Time =    1.000,"P-23-1",          2079,       126.660,       75.6519,            0.,NA,NA,"",   1.03123E+06,   1.02497E+06,   1.02497E+06
C:/temp/Job-23.odb,Step-1,Increment      1: Step Time =    1.000,"P-23-1",          2080,       137.148,       82.7046,            0.,NA,NA,"",   1.01177E+06,   1.00729E+06,   1.00729E+06
C:/temp/Job-23.odb,Step-1,Increment      1: Step Time =    1.000,"P-23-1",          2081,       145.172,       85.5186,            0.,NA,NA,"",   1.00536E+06,   1.00215E+06,   1.00215E+06
C:/temp/Job-23.odb,Step-1,Increment      1: Step Time =    1.000,"P-23-1",          2082,       92.5886,       171.653,            0.,NA,NA,"",   989.449E+03,   992.047E+03,   992.047E+03
C:/temp/Job-23.odb,Step-1,Increment      1: Step Time =    1.000,"P-23-1",          2083,       96.7622,       172.003,            0.,NA,NA,"",   989.028E+03,   991.275E+03,   991.275E+03
C:/temp/Job-23.odb,Step-1,Increment      1: Step Time =    1.000,"P-23-1",          2084,       113.055,       172.982,            0.,NA,NA,"",   990.313E+03,   990.908E+03,   990.908E+03
C:/temp/Job-23.odb,Step-1,Increment      1: Step Time =    1.000,"P-23-1",          2085,       58.8546,       84.4134,            0.,NA,NA,"",   967.103E+03,   1.00367E+06,   1.00367E+06
C:/temp/Job-23.odb,Step-1,Increment      1: Step Time =    1.000,"P-23-1",          2086,       156.934,       106.773,            0.,NA,NA,"",   1.00214E+06,   999.332E+03,   999.332E+03
C:/temp/Job-23.odb,Step-1,Increment      1: Step Time =    1.000,"P-23-1",          2087,       111.125,       143.641,            0.,NA,NA,"",   1.01289E+06,   1.01710E+06,   1.01710E+06
C:/temp/Job-23.odb,Step-1,Increment      1: Step Time =    1.000,"P-23-1",          2088,       109.193,       29.7793,            0.,NA,NA,"",   991.985E+03,   993.198E+03,   993.198E+03
C:/temp/Job-23.odb,Step-1,Increment      1: Step Time =    1.000,"P-23-1",          2089,       86.9071,       27.9386,            0.,NA,NA,"",   989.561E+03,   992.573E+03,   992.573E+03
C:/temp/Job-23.odb,Step-1,Increment      1: Step Time =    1.000,"P-23-1",          2090,       149.543,       142.658,            0.,NA,NA,"",   1.01216E+06,   1.00785E+06,   1.00785E+06
C:/temp/Job-23.odb,Step-1,Increment      1: Step Time =    1.000,"P-23-1",          2091,       36.3620,       81.8149,            0.,NA,NA,"",   921.411E+03,   986.004E+03,   986.004E+03
C:/temp/Job-23.odb,Step-1,Increment      1: Step Time =    1.000,"P-23-1",          2092,       67.9861,       159.964,            0.,NA,NA,"",   1.00284E+06,   1.01430E+06,   1.01430E+06
C:/temp/Job-23.odb,Step-1,Increment      1: Step Time =    1.000,"P-23-1",          2093,       71.4934,       157.886,            0.,NA,NA,"",   1.00389E+06,   1.01466E+06,   1.01466E+06
C:/temp/Job-23.odb,Step-1,Increment      1: Step Time =    1.000,"P-23-1",          2094,       157.354,       114.294,            0.,NA,NA,"",   1.00488E+06,   1.00146E+06,   1.00146E+06
C:/temp/Job-23.odb,Step-1,Increment      1: Step Time =    1.000,"P-23-1",          2095,       137.825,       148.126,            0.,NA,NA,"",   1.01338E+06,   1.00986E+06,   1.00986E+06
C:/temp/Job-23.odb,Step-1,Increment      1: Step Time =    1.000,"P-23-1",          2096,       53.8753,       149.720,            0.,NA,NA,"",   993.037E+03,   1.02018E+06,   1.02018E+06
C:/temp/Job-23.odb,Step-1,Increment      1: Step Time =    1.000,"P-23-1",          2097,       88.7777,       46.6752,            0.,NA,NA,"",   1.00465E+06,   1.01259E+06,   1.01259E+06
C:/temp/Job-23.odb,Step-1,Increment      1: Step Time =    1.000,"P-23-1",          2098,       43.2622,       127.634,            0.,NA,NA,"",   948.823E+03,   1.00094E+06,   1.00094E+06
C:/temp/Job-23.odb,Step-1,Increment      1: Step Time =    1.000,"P-23-1",          2099,       122.206,       57.0457,            0.,NA,NA,"",   1.01835E+06,   1.01749E+06,   1.01749E+06
C:/temp/Job-23.odb,Step-1,Increment      1: Step Time =    1.000,"P-23-1",          2100,       129.304,       120.446,            0.,NA,NA,"",   1.02468E+06,   1.01818E+06,   1.01818E+06
C:/temp/Job-23.odb,Step-1,Increment      1: Step Time =    1.000,"P-23-1",          2101,       67.4679,       49.4996,            0.,NA,NA,"",   1.00487E+06,   1.02062E+06,   1.02062E+06
C:/temp/Job-23.odb,Step-1,Increment      1: Step Time =    1.000,"P-23-1",          2102,       156.294,       89.0594,            0.,NA,NA,"",   1.00355E+06,   1.00046E+06,   1.00046E+06
C:/temp/Job-23.odb,Step-1,Increment      1: Step Time =    1.000,"P-23-1",          2103,       97.0087,       167.893,            0.,NA,NA,"",   993.412E+03,   996.449E+03,   996.449E+03
C:/temp/Job-23.odb,Step-1,Increment      1: Step Time =    1.000,"P-23-1",          2104,       100.891,       167.564,            0.,NA,NA,"",   993.747E+03,   996.322E+03,   996.322E+03
C:/temp/Job-23.odb,Step-1,Increment      1: Step Time =    1.000,"P-23-1",          2105,       53.0061,       62.9313,            0.,NA,NA,"",   980.775E+03,   1.01588E+06,   1.01588E+06
C:/temp/Job-23.odb,Step-1,Increment      1: Step Time =    1.000,"P-23-1",          2106,       40.8114,       132.183,            0.,NA,NA,"",   948.260E+03,   1.00175E+06,   1.00175E+06
C:/temp/Job-23.odb,Step-1,Increment      1: Step Time =    1.000,"P-23-1",          2107,       89.0987,       43.4562,            0.,NA,NA,"",   1.00316E+06,   1.01004E+06,   1.01004E+06
C:/temp/Job-23.odb,Step-1,Increment      1: Step Time =    1.000,"P-23-1",          2108,       87.6660,       36.1745,            0.,NA,NA,"",   997.740E+03,   1.00274E+06,   1.00274E+06
C:/temp/Job-23.odb,Step-1,Increment      1: Step Time =    1.000,"P-23-1",          2109,       162.382,       139.416,            0.,NA,NA,"",   1.00868E+06,   1.00443E+06,   1.00443E+06
C:/temp/Job-23.odb,Step-1,Increment      1: Step Time =    1.000,"P-23-1",          2110,       79.2111,       154.426,            0.,NA,NA,"",   1.00576E+06,   1.01523E+06,   1.01523E+06
C:/temp/Job-23.odb,Step-1,Increment      1: Step Time =    1.000,"P-23-1",          2111,       129.497,       123.891,            0.,NA,NA,"",   1.02649E+06,   1.02009E+06,   1.02009E+06
C:/temp/Job-23.odb,Step-1,Increment      1: Step Time =    1.000,"P-23-1",          2112,       126.291,       126.945,            0.,NA,NA,"",   1.03069E+06,   1.02516E+06,   1.02516E+06
C:/temp/Job-23.odb,Step-1,Increment      1: Step Time =    1.000,"P-23-1",          2113,       35.7995,       107.967,            0.,NA,NA,"",   912.348E+03,   980.124E+03,   980.124E+03
C:/temp/Job-23.odb,Step-1,Increment      1: Step Time =    1.000,"P-23-1",          2114,       45.2386,       79.8448,            0.,NA,NA,"",   944.601E+03,   997.024E+03,   997.024E+03
C:/temp/Job-23.odb,Step-1,Increment      1: Step Time =    1.000,"P-23-1",          2115,       111.592,       160.963,            0.,NA,NA,"",   1.00033E+06,   1.00219E+06,   1.00219E+06
C:/temp/Job-23.odb,Step-1,Increment      1: Step Time =    1.000,"P-23-1",          2116,       130.022,       43.4386,            0.,NA,NA,"",   1.00761E+06,   1.00594E+06,   1.00594E+06
C:/temp/Job-23.odb,Step-1,Increment      1: Step Time =    1.000,"P-23-1",          2117,       125.335,       139.391,            0.,NA,NA,"",   1.02172E+06,   1.01918E+06,   1.01918E+06
C:/temp/Job-23.odb,Step-1,Increment      1: Step Time =    1.000,"P-23-1",          2118,       129.811,       127.538,            0.,NA,NA,"",   1.02777E+06,   1.02180E+06,   1.02180E+06
C:/temp/Job-23.odb,Step-1,Increment      1: Step Time =    1.000,"P-23-1",          2119,       68.8522,       130.408,            0.,NA,NA,"",   1.00590E+06,   1.02589E+06,   1.02589E+06
C:/temp/Job-23.odb,Step-1,Increment      1: Step Time =    1.000,"P-23-1",          2120,       94.6702,       48.4990,            0.,NA,NA,"",   1.00432E+06,   1.01184E+06,   1.01184E+06
C:/temp/Job-23.odb,Step-1,Increment      1: Step Time =    1.000,"P-23-1",          2121,       142.200,       80.7928,            0.,NA,NA,"",   1.01130E+06,   1.00696E+06,   1.00696E+06
C:/temp/Job-23.odb,Step-1,Increment      1: Step Time =    1.000,"P-23-1",          2122,       48.4016,       111.934,            0.,NA,NA,"",   942.187E+03,   992.935E+03,   992.935E+03
C:/temp/Job-23.odb,Step-1,Increment      1: Step Time =    1.000,"P-23-1",          2123,       65.6505,       65.8590,            0.,NA,NA,"",   1.00138E+06,   1.02385E+06,   1.02385E+06
C:/temp/Job-23.odb,Step-1,Increment      1: Step Time =    1.000,"P-23-1",          2124,       69.6197,       154.227,            0.,NA,NA,"",   1.00504E+06,   1.01813E+06,   1.01813E+06
C:/temp/Job-23.odb,Step-1,Increment      1: Step Time =    1.000,"P-23-1",          2125,       83.9473,       157.429,            0.,NA,NA,"",   1.00329E+06,   1.01080E+06,   1.01080E+06
C:/temp/Job-23.odb,Step-1,Increment      1: Step Time =    1.000,"P-23-1",          2126,       54.9359,       82.1641,            0.,NA,NA,"",   962.616E+03,   1.00320E+06,   1.00320E+06
C:/temp/Job-23.odb,Step-1,Increment      1: Step Time =    1.000,"P-23-1",          2127,       48.7533,       87.5516,            0.,NA,NA,"",   944.747E+03,   994.642E+03,   994.642E+03
C:/temp/Job-23.odb,Step-1,Increment      1: Step Time =    1.000,"P-23-1",          2128,       127.027,       142.835,            0.,NA,NA,"",   1.01864E+06,   1.01623E+06,   1.01623E+06
C:/temp/Job-23.odb,Step-1,Increment      1: Step Time =    1.000,"P-23-1",          2129,       141.299,       50.8909,            0.,NA,NA,"",   1.01200E+06,   1.00836E+06,   1.00836E+06
C:/temp/Job-23.odb,Step-1,Increment      1: Step Time =    1.000,"P-23-1",          2130,       126.476,       64.7900,            0.,NA,NA,"",   1.02499E+06,   1.02124E+06,   1.02124E+06
C:/temp/Job-23.odb,Step-1,Increment      1: Step Time =    1.000,"P-23-1",          2131,       126.981,       135.936,            0.,NA,NA,"",   1.02468E+06,   1.02088E+06,   1.02088E+06
C:/temp/Job-23.odb,Step-1,Increment      1: Step Time =    1.000,"P-23-1",          2132,       135.197,       48.5922,            0.,NA,NA,"",   1.01128E+06,   1.00844E+06,   1.00844E+06
C:/temp/Job-23.odb,Step-1,Increment      1: Step Time =    1.000,"P-23-1",          2133,       116.868,       147.576,            0.,NA,NA,"",   1.01215E+06,   1.01392E+06,   1.01392E+06
C:/temp/Job-23.odb,Step-1,Increment      1: Step Time =    1.000,"P-23-1",          2134,       57.1736,       115.485,            0.,NA,NA,"",   964.270E+03,   1.00295E+06,   1.00295E+06
C:/temp/Job-23.odb,Step-1,Increment      1: Step Time =    1.000,"P-23-1",          2135,       55.2539,       144.890,            0.,NA,NA,"",   991.487E+03,   1.01999E+06,   1.01999E+06
C:/temp/Job-23.odb,Step-1,Increment      1: Step Time =    1.000,"P-23-1",          2136,       87.5457,       159.897,            0.,NA,NA,"",   1.00106E+06,   1.00718E+06,   1.00718E+06
C:/temp/Job-23.odb,Step-1,Increment      1: Step Time =    1.000,"P-23-1",          2137,       91.6364,       157.886,            0.,NA,NA,"",   1.00180E+06,   1.00787E+06,   1.00787E+06
C:/temp/Job-23.odb,Step-1,Increment      1: Step Time =    1.000,"P-23-1",          2138,       51.3879,       132.160,            0.,NA,NA,"",   972.265E+03,   1.01162E+06,   1.01162E+06
C:/temp/Job-23.odb,Step-1,Increment      1: Step Time =    1.000,"P-23-1",          2139,       51.2286,       123.923,            0.,NA,NA,"",   962.536E+03,   1.00549E+06,   1.00549E+06
C:/temp/Job-23.odb,Step-1,Increment      1: Step Time =    1.000,"P-23-1",          2140,       148.963,       113.885,            0.,NA,NA,"",   1.00508E+06,   1.00192E+06,   1.00192E+06
C:/temp/Job-23.odb,Step-1,Increment      1: Step Time =    1.000,"P-23-1",          2141,       158.748,       134.637,            0.,NA,NA,"",   1.00975E+06,   1.00535E+06,   1.00535E+06
C:/temp/Job-23.odb,Step-1,Increment      1: Step Time =    1.000,"P-23-1",          2142,       53.4513,       77.1847,            0.,NA,NA,"",   966.462E+03,   1.00699E+06,   1.00699E+06
C:/temp/Job-23.odb,Step-1,Increment      1: Step Time =    1.000,"P-23-1",          2143,       57.1651,       60.7362,            0.,NA,NA,"",   990.212E+03,   1.01943E+06,   1.01943E+06
C:/temp/Job-23.odb,Step-1,Increment      1: Step Time =    1.000,"P-23-1",          2144,       95.4525,       40.6856,            0.,NA,NA,"",   1.00043E+06,   1.00557E+06,   1.00557E+06
C:/temp/Job-23.odb,Step-1,Increment      1: Step Time =    1.000,"P-23-1",          2145,       108.796,       162.990,            0.,NA,NA,"",   998.338E+03,   1.00060E+06,   1.00060E+06
C:/temp/Job-23.odb,Step-1,Increment      1: Step Time =    1.000,"P-23-1",          2146,       88.8215,       40.5423,            0.,NA,NA,"",   1.00124E+06,   1.00735E+06,   1.00735E+06
C:/temp/Job-23.odb,Step-1,Increment      1: Step Time =    1.000,"P-23-1",          2147,       138.117,       68.0464,            0.,NA,NA,"",   1.01952E+06,   1.01435E+06,   1.01435E+06
C:/temp/Job-23.odb,Step-1,Increment      1: Step Time =    1.000,"P-23-1",          2148,       132.027,       61.3324,            0.,NA,NA,"",   1.02044E+06,   1.01639E+06,   1.01639E+06
C:/temp/Job-23.odb,Step-1,Increment      1: Step Time =    1.000,"P-23-1",          2149,       134.716,       128.411,            0.,NA,NA,"",   1.02290E+06,   1.01737E+06,   1.01737E+06
C:/temp/Job-23.odb,Step-1,Increment      1: Step Time =    1.000,"P-23-1",          2150,       135.006,       64.1225,            0.,NA,NA,"",   1.02035E+06,   1.01565E+06,   1.01565E+06
C:/temp/Job-23.odb,Step-1,Increment      1: Step Time =    1.000,"P-23-1",          2151,       47.0447,       134.675,            0.,NA,NA,"",   965.441E+03,   1.00954E+06,   1.00954E+06
C:/temp/Job-23.odb,Step-1,Increment      1: Step Time =    1.000,"P-23-1",          2152,       48.9860,       82.2069,            0.,NA,NA,"",   950.014E+03,   998.386E+03,   998.386E+03
C:/temp/Job-23.odb,Step-1,Increment      1: Step Time =    1.000,"P-23-1",          2153,       65.9401,       143.752,            0.,NA,NA,"",   1.00384E+06,   1.02331E+06,   1.02331E+06
