ODB Name,Step,Frame,Part Instance Name,    Node Label,X,Y,Z,Section Name,Material Name,Section Point,       S-Mises,S-Max. In-Plane Principal (Abs),S-Max. Principal (Abs)
C:/temp/Job-24.odb,Step-1,Increment      1: Step Time =    1.000,"P-24-1",             1,       85.2473,       155.058,            0.,NA,NA,"",   3.41253E+06,   3.45955E+06,   3.45955E+06
C:/temp/Job-24.odb,Step-1,Increment      1: Step Time =    1.000,"P-24-1",             2,          71.5,       149.363,            0.,NA,NA,"",   1.32639E+06,   1.31851E+06,   1.31851E+06
C:/temp/Job-24.odb,Step-1,Increment      1: Step Time =    1.000,"P-24-1",             3,       59.6949,       140.305,            0.,NA,NA,"",   604.088E+03,  -494.303E+03,  -494.303E+03
C:/temp/Job-24.odb,Step-1,Increment      1: Step Time =    1.000,"P-24-1",             4,       50.6366,         128.5,            0.,NA,NA,"",   1.09899E+06,  -1.11111E+06,  -1.11111E+06
C:/temp/Job-24.odb,Step-1,Increment      1: Step Time =    1.000,"P-24-1",             5,       44.9422,       114.753,            0.,NA,NA,"",   972.513E+03,  -987.209E+03,  -987.209E+03
C:/temp/Job-24.odb,Step-1,Increment      1: Step Time =    1.000,"P-24-1",             6,           43.,          100.,            0.,NA,NA,"",   814.987E+03,  -833.979E+03,  -833.979E+03
C:/temp/Job-24.odb,Step-1,Increment      1: Step Time =    1.000,"P-24-1",             7,       44.9422,       85.2473,            0.,NA,NA,"",   962.690E+03,  -979.325E+03,  -979.325E+03
C:/temp/Job-24.odb,Step-1,Increment      1: Step Time =    1.000,"P-24-1",             8,       50.6366,          71.5,            0.,NA,NA,"",   1.05914E+06,  -1.07095E+06,  -1.07095E+06
C:/temp/Job-24.odb,Step-1,Increment      1: Step Time =    1.000,"P-24-1",             9,       59.6949,       59.6949,            0.,NA,NA,"",   586.751E+03,  -466.113E+03,  -466.113E+03
C:/temp/Job-24.odb,Step-1,Increment      1: Step Time =    1.000,"P-24-1",            10,          71.5,       50.6366,            0.,NA,NA,"",   1.36313E+06,   1.37005E+06,   1.37005E+06
C:/temp/Job-24.odb,Step-1,Increment      1: Step Time =    1.000,"P-24-1",            11,       85.2473,       44.9422,            0.,NA,NA,"",   3.49241E+06,   3.53440E+06,   3.53440E+06
C:/temp/Job-24.odb,Step-1,Increment      1: Step Time =    1.000,"P-24-1",            12,          100.,           43.,            0.,NA,NA,"",   5.03239E+06,   5.11473E+06,   5.11473E+06
C:/temp/Job-24.odb,Step-1,Increment      1: Step Time =    1.000,"P-24-1",            13,       114.753,       44.9422,            0.,NA,NA,"",   5.17143E+06,   5.25432E+06,   5.25432E+06
C:/temp/Job-24.odb,Step-1,Increment      1: Step Time =    1.000,"P-24-1",            14,         128.5,       50.6366,            0.,NA,NA,"",   4.00124E+06,   4.05678E+06,   4.05678E+06
C:/temp/Job-24.odb,Step-1,Increment      1: Step Time =    1.000,"P-24-1",            15,       140.305,       59.6949,            0.,NA,NA,"",   2.08394E+06,   2.09357E+06,   2.09357E+06
C:/temp/Job-24.odb,Step-1,Increment      1: Step Time =    1.000,"P-24-1",            16,       149.363,          71.5,            0.,NA,NA,"",   582.341E+03,  -90.7871E+03,  -90.7871E+03
C:/temp/Job-24.odb,Step-1,Increment      1: Step Time =    1.000,"P-24-1",            17,       155.058,       85.2473,            0.,NA,NA,"",   2.09356E+06,  -2.10939E+06,  -2.10939E+06
C:/temp/Job-24.odb,Step-1,Increment      1: Step Time =    1.000,"P-24-1",            18,          157.,          100.,            0.,NA,NA,"",   2.82331E+06,  -2.85215E+06,  -2.85215E+06
C:/temp/Job-24.odb,Step-1,Increment      1: Step Time =    1.000,"P-24-1",            19,       155.058,       114.753,            0.,NA,NA,"",   1.94237E+06,  -1.96569E+06,  -1.96569E+06
C:/temp/Job-24.odb,Step-1,Increment      1: Step Time =    1.000,"P-24-1",            20,       149.363,         128.5,            0.,NA,NA,"",   732.904E+03,   29.5953E+03,   29.5953E+03
C:/temp/Job-24.odb,Step-1,Increment      1: Step Time =    1.000,"P-24-1",            21,       140.305,       140.305,            0.,NA,NA,"",   2.08098E+06,   2.09669E+06,   2.09669E+06
C:/temp/Job-24.odb,Step-1,Increment      1: Step Time =    1.000,"P-24-1",            22,         128.5,       149.363,            0.,NA,NA,"",   4.01454E+06,   4.07609E+06,   4.07609E+06
C:/temp/Job-24.odb,Step-1,Increment      1: Step Time =    1.000,"P-24-1",            23,       114.753,       155.058,            0.,NA,NA,"",   5.09415E+06,   5.18716E+06,   5.18716E+06
C:/temp/Job-24.odb,Step-1,Increment      1: Step Time =    1.000,"P-24-1",            24,          100.,          157.,            0.,NA,NA,"",   4.92896E+06,   5.01667E+06,   5.01667E+06
C:/temp/Job-24.odb,Step-1,Increment      1: Step Time =    1.000,"P-24-1",            25,          190.,            0.,            0.,NA,NA,"",   979.941E+03,   979.261E+03,   979.261E+03
C:/temp/Job-24.odb,Step-1,Increment      1: Step Time =    1.000,"P-24-1",            26,          180.,            0.,            0.,NA,NA,"",   940.004E+03,   939.464E+03,   939.464E+03
C:/temp/Job-24.odb,Step-1,Increment      1: Step Time =    1.000,"P-24-1",            27,          170.,            0.,            0.,NA,NA,"",   882.087E+03,   880.400E+03,   880.400E+03
C:/temp/Job-24.odb,Step-1,Increment      1: Step Time =    1.000,"P-24-1",            28,          160.,            0.,            0.,NA,NA,"",   778.044E+03,   775.628E+03,   775.628E+03
C:/temp/Job-24.odb,Step-1,Increment      1: Step Time =    1.000,"P-24-1",            29,          150.,            0.,            0.,NA,NA,"",   607.279E+03,   603.467E+03,   603.467E+03
C:/temp/Job-24.odb,Step-1,Increment      1: Step Time =    1.000,"P-24-1",            30,          140.,            0.,            0.,NA,NA,"",   386.957E+03,   381.558E+03,   381.558E+03
C:/temp/Job-24.odb,Step-1,Increment      1: Step Time =    1.000,"P-24-1",            31,          130.,            0.,            0.,NA,NA,"",   165.168E+03,   159.227E+03,   159.227E+03
C:/temp/Job-24.odb,Step-1,Increment      1: Step Time =    1.000,"P-24-1",            32,          120.,            0.,            0.,NA,NA,"",   39.3315E+03,   11.5264E+03,   11.5264E+03
C:/temp/Job-24.odb,Step-1,Increment      1: Step Time =    1.000,"P-24-1",            33,          110.,            0.,            0.,NA,NA,"",   76.7241E+03,   65.5807E+03,   65.5807E+03
C:/temp/Job-24.odb,Step-1,Increment      1: Step Time =    1.000,"P-24-1",            34,          100.,            0.,            0.,NA,NA,"",   309.494E+03,   301.916E+03,   301.916E+03
C:/temp/Job-24.odb,Step-1,Increment      1: Step Time =    1.000,"P-24-1",            35,           90.,            0.,            0.,NA,NA,"",   731.588E+03,   724.277E+03,   724.277E+03
C:/temp/Job-24.odb,Step-1,Increment      1: Step Time =    1.000,"P-24-1",            36,           80.,            0.,            0.,NA,NA,"",   1.28089E+06,   1.27302E+06,   1.27302E+06
C:/temp/Job-24.odb,Step-1,Increment      1: Step Time =    1.000,"P-24-1",            37,           70.,            0.,            0.,NA,NA,"",   1.82339E+06,   1.81651E+06,   1.81651E+06
C:/temp/Job-24.odb,Step-1,Increment      1: Step Time =    1.000,"P-24-1",            38,           60.,            0.,            0.,NA,NA,"",   2.26287E+06,   2.25625E+06,   2.25625E+06
C:/temp/Job-24.odb,Step-1,Increment      1: Step Time =    1.000,"P-24-1",            39,           50.,            0.,            0.,NA,NA,"",   2.57424E+06,   2.56840E+06,   2.56840E+06
C:/temp/Job-24.odb,Step-1,Increment      1: Step Time =    1.000,"P-24-1",            40,           40.,            0.,            0.,NA,NA,"",   2.76485E+06,   2.76037E+06,   2.76037E+06
C:/temp/Job-24.odb,Step-1,Increment      1: Step Time =    1.000,"P-24-1",            41,           30.,            0.,            0.,NA,NA,"",   2.85566E+06,   2.85307E+06,   2.85307E+06
C:/temp/Job-24.odb,Step-1,Increment      1: Step Time =    1.000,"P-24-1",            42,           20.,            0.,            0.,NA,NA,"",   2.89607E+06,   2.89471E+06,   2.89471E+06
C:/temp/Job-24.odb,Step-1,Increment      1: Step Time =    1.000,"P-24-1",            43,           10.,            0.,            0.,NA,NA,"",   2.99781E+06,   3.00035E+06,   3.00035E+06
C:/temp/Job-24.odb,Step-1,Increment      1: Step Time =    1.000,"P-24-1",            44,          200.,            0.,            0.,NA,NA,"",   998.652E+03,   997.253E+03,   997.253E+03
C:/temp/Job-24.odb,Step-1,Increment      1: Step Time =    1.000,"P-24-1",            45,            0.,            0.,            0.,NA,NA,"",   3.44229E+06,   3.61193E+06,   3.61193E+06
C:/temp/Job-24.odb,Step-1,Increment      1: Step Time =    1.000,"P-24-1",            46,          200.,          190.,            0.,NA,NA,"",   1.00945E+06,   999.721E+03,   999.721E+03
C:/temp/Job-24.odb,Step-1,Increment      1: Step Time =    1.000,"P-24-1",            47,          200.,          180.,            0.,NA,NA,"",   1.02323E+06,   1.00449E+06,   1.00449E+06
C:/temp/Job-24.odb,Step-1,Increment      1: Step Time =    1.000,"P-24-1",            48,          200.,          170.,            0.,NA,NA,"",   1.00315E+06,   1.01170E+06,   1.01170E+06
C:/temp/Job-24.odb,Step-1,Increment      1: Step Time =    1.000,"P-24-1",            49,          200.,          160.,            0.,NA,NA,"",   932.059E+03,   1.01457E+06,   1.01457E+06
C:/temp/Job-24.odb,Step-1,Increment      1: Step Time =    1.000,"P-24-1",            50,          200.,          150.,            0.,NA,NA,"",   900.258E+03,   1.03185E+06,   1.03185E+06
C:/temp/Job-24.odb,Step-1,Increment      1: Step Time =    1.000,"P-24-1",            51,          200.,          140.,            0.,NA,NA,"",   1.09286E+06,   1.21507E+06,   1.21507E+06
C:/temp/Job-24.odb,Step-1,Increment      1: Step Time =    1.000,"P-24-1",            52,          200.,          130.,            0.,NA,NA,"",   1.53500E+06,   1.76686E+06,   1.76686E+06
C:/temp/Job-24.odb,Step-1,Increment      1: Step Time =    1.000,"P-24-1",            53,          200.,          120.,            0.,NA,NA,"",   2.05228E+06,   2.35749E+06,   2.35749E+06
C:/temp/Job-24.odb,Step-1,Increment      1: Step Time =    1.000,"P-24-1",            54,          200.,          110.,            0.,NA,NA,"",   2.46104E+06,   2.79856E+06,   2.79856E+06
C:/temp/Job-24.odb,Step-1,Increment      1: Step Time =    1.000,"P-24-1",            55,          200.,          100.,            0.,NA,NA,"",   2.62116E+06,   2.96870E+06,   2.96870E+06
C:/temp/Job-24.odb,Step-1,Increment      1: Step Time =    1.000,"P-24-1",            56,          200.,           90.,            0.,NA,NA,"",   2.45907E+06,   2.79762E+06,   2.79762E+06
C:/temp/Job-24.odb,Step-1,Increment      1: Step Time =    1.000,"P-24-1",            57,          200.,           80.,            0.,NA,NA,"",   2.06048E+06,   2.36627E+06,   2.36627E+06
C:/temp/Job-24.odb,Step-1,Increment      1: Step Time =    1.000,"P-24-1",            58,          200.,           70.,            0.,NA,NA,"",   1.54138E+06,   1.77502E+06,   1.77502E+06
C:/temp/Job-24.odb,Step-1,Increment      1: Step Time =    1.000,"P-24-1",            59,          200.,           60.,            0.,NA,NA,"",   1.09405E+06,   1.22214E+06,   1.22214E+06
C:/temp/Job-24.odb,Step-1,Increment      1: Step Time =    1.000,"P-24-1",            60,          200.,           50.,            0.,NA,NA,"",   904.537E+03,   1.03818E+06,   1.03818E+06
C:/temp/Job-24.odb,Step-1,Increment      1: Step Time =    1.000,"P-24-1",            61,          200.,           40.,            0.,NA,NA,"",   933.265E+03,   1.01692E+06,   1.01692E+06
C:/temp/Job-24.odb,Step-1,Increment      1: Step Time =    1.000,"P-24-1",            62,          200.,           30.,            0.,NA,NA,"",   1.00144E+06,   1.01091E+06,   1.01091E+06
C:/temp/Job-24.odb,Step-1,Increment      1: Step Time =    1.000,"P-24-1",            63,          200.,           20.,            0.,NA,NA,"",   1.02312E+06,   1.00544E+06,   1.00544E+06
C:/temp/Job-24.odb,Step-1,Increment      1: Step Time =    1.000,"P-24-1",            64,          200.,           10.,            0.,NA,NA,"",   1.00975E+06,   999.929E+03,   999.929E+03
C:/temp/Job-24.odb,Step-1,Increment      1: Step Time =    1.000,"P-24-1",            65,          200.,          200.,            0.,NA,NA,"",   998.704E+03,   997.352E+03,   997.352E+03
C:/temp/Job-24.odb,Step-1,Increment      1: Step Time =    1.000,"P-24-1",            66,           10.,          200.,            0.,NA,NA,"",   3.00239E+06,   3.00399E+06,   3.00399E+06
C:/temp/Job-24.odb,Step-1,Increment      1: Step Time =    1.000,"P-24-1",            67,           20.,          200.,            0.,NA,NA,"",   2.89608E+06,   2.89480E+06,   2.89480E+06
C:/temp/Job-24.odb,Step-1,Increment      1: Step Time =    1.000,"P-24-1",            68,           30.,          200.,            0.,NA,NA,"",   2.85218E+06,   2.85016E+06,   2.85016E+06
C:/temp/Job-24.odb,Step-1,Increment      1: Step Time =    1.000,"P-24-1",            69,           40.,          200.,            0.,NA,NA,"",   2.76835E+06,   2.76521E+06,   2.76521E+06
C:/temp/Job-24.odb,Step-1,Increment      1: Step Time =    1.000,"P-24-1",            70,           50.,          200.,            0.,NA,NA,"",   2.58776E+06,   2.58357E+06,   2.58357E+06
C:/temp/Job-24.odb,Step-1,Increment      1: Step Time =    1.000,"P-24-1",            71,           60.,          200.,            0.,NA,NA,"",   2.27146E+06,   2.26507E+06,   2.26507E+06
C:/temp/Job-24.odb,Step-1,Increment      1: Step Time =    1.000,"P-24-1",            72,           70.,          200.,            0.,NA,NA,"",   1.82702E+06,   1.81801E+06,   1.81801E+06
C:/temp/Job-24.odb,Step-1,Increment      1: Step Time =    1.000,"P-24-1",            73,           80.,          200.,            0.,NA,NA,"",   1.28556E+06,   1.27693E+06,   1.27693E+06
C:/temp/Job-24.odb,Step-1,Increment      1: Step Time =    1.000,"P-24-1",            74,           90.,          200.,            0.,NA,NA,"",   740.737E+03,   733.755E+03,   733.755E+03
C:/temp/Job-24.odb,Step-1,Increment      1: Step Time =    1.000,"P-24-1",            75,          100.,          200.,            0.,NA,NA,"",   299.759E+03,   291.178E+03,   291.178E+03
C:/temp/Job-24.odb,Step-1,Increment      1: Step Time =    1.000,"P-24-1",            76,          110.,          200.,            0.,NA,NA,"",   63.6206E+03,   27.6956E+03,   27.6956E+03
C:/temp/Job-24.odb,Step-1,Increment      1: Step Time =    1.000,"P-24-1",            77,          120.,          200.,            0.,NA,NA,"",   43.7792E+03,   7.30712E+03,   7.30712E+03
C:/temp/Job-24.odb,Step-1,Increment      1: Step Time =    1.000,"P-24-1",            78,          130.,          200.,            0.,NA,NA,"",   170.601E+03,   162.640E+03,   162.640E+03
C:/temp/Job-24.odb,Step-1,Increment      1: Step Time =    1.000,"P-24-1",            79,          140.,          200.,            0.,NA,NA,"",   387.698E+03,   382.854E+03,   382.854E+03
C:/temp/Job-24.odb,Step-1,Increment      1: Step Time =    1.000,"P-24-1",            80,          150.,          200.,            0.,NA,NA,"",   608.886E+03,   604.848E+03,   604.848E+03
C:/temp/Job-24.odb,Step-1,Increment      1: Step Time =    1.000,"P-24-1",            81,          160.,          200.,            0.,NA,NA,"",   781.535E+03,   778.391E+03,   778.391E+03
C:/temp/Job-24.odb,Step-1,Increment      1: Step Time =    1.000,"P-24-1",            82,          170.,          200.,            0.,NA,NA,"",   884.663E+03,   883.140E+03,   883.140E+03
C:/temp/Job-24.odb,Step-1,Increment      1: Step Time =    1.000,"P-24-1",            83,          180.,          200.,            0.,NA,NA,"",   941.451E+03,   940.837E+03,   940.837E+03
C:/temp/Job-24.odb,Step-1,Increment      1: Step Time =    1.000,"P-24-1",            84,          190.,          200.,            0.,NA,NA,"",   980.179E+03,   979.500E+03,   979.500E+03
C:/temp/Job-24.odb,Step-1,Increment      1: Step Time =    1.000,"P-24-1",            85,            0.,          200.,            0.,NA,NA,"",   3.44255E+06,   3.61560E+06,   3.61560E+06
C:/temp/Job-24.odb,Step-1,Increment      1: Step Time =    1.000,"P-24-1",            86,            0.,           10.,            0.,NA,NA,"",   2.42450E+06,   2.66192E+06,   2.66192E+06
C:/temp/Job-24.odb,Step-1,Increment      1: Step Time =    1.000,"P-24-1",            87,            0.,           20.,            0.,NA,NA,"",   1.85838E+06,   2.06770E+06,   2.06770E+06
C:/temp/Job-24.odb,Step-1,Increment      1: Step Time =    1.000,"P-24-1",            88,            0.,           30.,            0.,NA,NA,"",   1.41562E+06,   1.58138E+06,   1.58138E+06
C:/temp/Job-24.odb,Step-1,Increment      1: Step Time =    1.000,"P-24-1",            89,            0.,           40.,            0.,NA,NA,"",   1.03073E+06,   1.15180E+06,   1.15180E+06
C:/temp/Job-24.odb,Step-1,Increment      1: Step Time =    1.000,"P-24-1",            90,            0.,           50.,            0.,NA,NA,"",   691.826E+03,   767.725E+03,   767.725E+03
C:/temp/Job-24.odb,Step-1,Increment      1: Step Time =    1.000,"P-24-1",            91,            0.,           60.,            0.,NA,NA,"",   407.678E+03,   439.671E+03,   439.671E+03
C:/temp/Job-24.odb,Step-1,Increment      1: Step Time =    1.000,"P-24-1",            92,            0.,           70.,            0.,NA,NA,"",   206.280E+03,   183.579E+03,   183.579E+03
C:/temp/Job-24.odb,Step-1,Increment      1: Step Time =    1.000,"P-24-1",            93,            0.,           80.,            0.,NA,NA,"",   161.184E+03,  -145.014E+03,  -145.014E+03
C:/temp/Job-24.odb,Step-1,Increment      1: Step Time =    1.000,"P-24-1",            94,            0.,           90.,            0.,NA,NA,"",   209.596E+03,  -228.358E+03,  -228.358E+03
C:/temp/Job-24.odb,Step-1,Increment      1: Step Time =    1.000,"P-24-1",            95,            0.,          100.,            0.,NA,NA,"",   233.617E+03,  -259.035E+03,  -259.035E+03
C:/temp/Job-24.odb,Step-1,Increment      1: Step Time =    1.000,"P-24-1",            96,            0.,          110.,            0.,NA,NA,"",   207.832E+03,  -226.163E+03,  -226.163E+03
C:/temp/Job-24.odb,Step-1,Increment      1: Step Time =    1.000,"P-24-1",            97,            0.,          120.,            0.,NA,NA,"",   156.944E+03,  -139.697E+03,  -139.697E+03
C:/temp/Job-24.odb,Step-1,Increment      1: Step Time =    1.000,"P-24-1",            98,            0.,          130.,            0.,NA,NA,"",   202.873E+03,   182.130E+03,   182.130E+03
C:/temp/Job-24.odb,Step-1,Increment      1: Step Time =    1.000,"P-24-1",            99,            0.,          140.,            0.,NA,NA,"",   407.493E+03,   440.135E+03,   440.135E+03
C:/temp/Job-24.odb,Step-1,Increment      1: Step Time =    1.000,"P-24-1",           100,            0.,          150.,            0.,NA,NA,"",   694.903E+03,   772.304E+03,   772.304E+03
C:/temp/Job-24.odb,Step-1,Increment      1: Step Time =    1.000,"P-24-1",           101,            0.,          160.,            0.,NA,NA,"",   1.03059E+06,   1.15313E+06,   1.15313E+06
C:/temp/Job-24.odb,Step-1,Increment      1: Step Time =    1.000,"P-24-1",           102,            0.,          170.,            0.,NA,NA,"",   1.41275E+06,   1.58013E+06,   1.58013E+06
C:/temp/Job-24.odb,Step-1,Increment      1: Step Time =    1.000,"P-24-1",           103,            0.,          180.,            0.,NA,NA,"",   1.85387E+06,   2.06407E+06,   2.06407E+06
C:/temp/Job-24.odb,Step-1,Increment      1: Step Time =    1.000,"P-24-1",           104,            0.,          190.,            0.,NA,NA,"",   2.42297E+06,   2.66171E+06,   2.66171E+06
C:/temp/Job-24.odb,Step-1,Increment      1: Step Time =    1.000,"P-24-1",           105,       189.738,       40.9306,            0.,NA,NA,"",   1.10495E+06,   1.16550E+06,   1.16550E+06
C:/temp/Job-24.odb,Step-1,Increment      1: Step Time =    1.000,"P-24-1",           106,       160.069,       75.3681,            0.,NA,NA,"",   1.35853E+06,  -990.547E+03,  -990.547E+03
C:/temp/Job-24.odb,Step-1,Increment      1: Step Time =    1.000,"P-24-1",           107,       40.0033,       72.4507,            0.,NA,NA,"",   586.856E+03,  -608.420E+03,  -608.420E+03
C:/temp/Job-24.odb,Step-1,Increment      1: Step Time =    1.000,"P-24-1",           108,       160.025,       127.443,            0.,NA,NA,"",   1.46405E+06,  -405.292E+03,  -405.292E+03
C:/temp/Job-24.odb,Step-1,Increment      1: Step Time =    1.000,"P-24-1",           109,       39.1334,       124.278,            0.,NA,NA,"",   604.314E+03,  -638.067E+03,  -638.067E+03
C:/temp/Job-24.odb,Step-1,Increment      1: Step Time =    1.000,"P-24-1",           110,       188.727,       158.641,            0.,NA,NA,"",   1.13962E+06,   1.19355E+06,   1.19355E+06
C:/temp/Job-24.odb,Step-1,Increment      1: Step Time =    1.000,"P-24-1",           111,       181.014,       156.121,            0.,NA,NA,"",   1.43942E+06,   1.40919E+06,   1.40919E+06
C:/temp/Job-24.odb,Step-1,Increment      1: Step Time =    1.000,"P-24-1",           112,       170.519,       156.895,            0.,NA,NA,"",   1.78309E+06,   1.63006E+06,   1.63006E+06
C:/temp/Job-24.odb,Step-1,Increment      1: Step Time =    1.000,"P-24-1",           113,       157.880,       159.008,            0.,NA,NA,"",   2.08324E+06,   1.90742E+06,   1.90742E+06
C:/temp/Job-24.odb,Step-1,Increment      1: Step Time =    1.000,"P-24-1",           114,       148.521,       160.212,            0.,NA,NA,"",   2.25841E+06,   2.16199E+06,   2.16199E+06
C:/temp/Job-24.odb,Step-1,Increment      1: Step Time =    1.000,"P-24-1",           115,       139.048,       157.468,            0.,NA,NA,"",   2.61473E+06,   2.65281E+06,   2.65281E+06
C:/temp/Job-24.odb,Step-1,Increment      1: Step Time =    1.000,"P-24-1",           116,       128.115,       160.297,            0.,NA,NA,"",   3.21368E+06,   3.35244E+06,   3.35244E+06
C:/temp/Job-24.odb,Step-1,Increment      1: Step Time =    1.000,"P-24-1",           117,       72.5699,       159.082,            0.,NA,NA,"",   2.22167E+06,   2.14207E+06,   2.14207E+06
C:/temp/Job-24.odb,Step-1,Increment      1: Step Time =    1.000,"P-24-1",           118,       63.3725,       155.945,            0.,NA,NA,"",   1.70547E+06,   1.50145E+06,   1.50145E+06
C:/temp/Job-24.odb,Step-1,Increment      1: Step Time =    1.000,"P-24-1",           119,       50.5994,       163.925,            0.,NA,NA,"",   1.94598E+06,   1.71713E+06,   1.71713E+06
C:/temp/Job-24.odb,Step-1,Increment      1: Step Time =    1.000,"P-24-1",           120,       41.0508,       160.016,            0.,NA,NA,"",   1.58689E+06,   1.41348E+06,   1.41348E+06
C:/temp/Job-24.odb,Step-1,Increment      1: Step Time =    1.000,"P-24-1",           121,       31.1996,       157.947,            0.,NA,NA,"",   1.30074E+06,   1.21979E+06,   1.21979E+06
C:/temp/Job-24.odb,Step-1,Increment      1: Step Time =    1.000,"P-24-1",           122,       19.6263,       157.707,            0.,NA,NA,"",   1.12463E+06,   1.15284E+06,   1.15284E+06
C:/temp/Job-24.odb,Step-1,Increment      1: Step Time =    1.000,"P-24-1",           123,       9.65266,       158.833,            0.,NA,NA,"",   1.05606E+06,   1.14773E+06,   1.14773E+06
C:/temp/Job-24.odb,Step-1,Increment      1: Step Time =    1.000,"P-24-1",           124,       9.67692,       149.202,            0.,NA,NA,"",   680.511E+03,   744.584E+03,   744.584E+03
C:/temp/Job-24.odb,Step-1,Increment      1: Step Time =    1.000,"P-24-1",           125,       20.2552,       148.229,            0.,NA,NA,"",   707.263E+03,    718.32E+03,    718.32E+03
C:/temp/Job-24.odb,Step-1,Increment      1: Step Time =    1.000,"P-24-1",           126,       30.4904,       147.998,            0.,NA,NA,"",   808.723E+03,   726.671E+03,   726.671E+03
C:/temp/Job-24.odb,Step-1,Increment      1: Step Time =    1.000,"P-24-1",           127,       39.5261,       149.932,            0.,NA,NA,"",   1.02053E+06,   840.074E+03,   840.074E+03
C:/temp/Job-24.odb,Step-1,Increment      1: Step Time =    1.000,"P-24-1",           128,       49.7155,       151.768,            0.,NA,NA,"",   1.25402E+06,   988.732E+03,   988.732E+03
C:/temp/Job-24.odb,Step-1,Increment      1: Step Time =    1.000,"P-24-1",           129,       60.8300,       149.044,            0.,NA,NA,"",   922.761E+03,   577.718E+03,   577.718E+03
C:/temp/Job-24.odb,Step-1,Increment      1: Step Time =    1.000,"P-24-1",           130,       136.712,       148.541,            0.,NA,NA,"",   2.96825E+06,   3.01012E+06,   3.01012E+06
C:/temp/Job-24.odb,Step-1,Increment      1: Step Time =    1.000,"P-24-1",           131,       148.121,       146.766,            0.,NA,NA,"",   2.17220E+06,   2.04127E+06,   2.04127E+06
C:/temp/Job-24.odb,Step-1,Increment      1: Step Time =    1.000,"P-24-1",           132,       159.507,       148.020,            0.,NA,NA,"",   2.14812E+06,   1.86308E+06,   1.86308E+06
C:/temp/Job-24.odb,Step-1,Increment      1: Step Time =    1.000,"P-24-1",           133,       168.632,       141.469,            0.,NA,NA,"",   2.00231E+06,   1.67050E+06,   1.67050E+06
C:/temp/Job-24.odb,Step-1,Increment      1: Step Time =    1.000,"P-24-1",           134,       179.023,       145.434,            0.,NA,NA,"",   1.68133E+06,   1.57747E+06,   1.57747E+06
C:/temp/Job-24.odb,Step-1,Increment      1: Step Time =    1.000,"P-24-1",           135,       187.173,       148.980,            0.,NA,NA,"",   1.28309E+06,   1.35047E+06,   1.35047E+06
C:/temp/Job-24.odb,Step-1,Increment      1: Step Time =    1.000,"P-24-1",           136,       147.566,       140.175,            0.,NA,NA,"",   1.71008E+06,   1.61425E+06,   1.61425E+06
C:/temp/Job-24.odb,Step-1,Increment      1: Step Time =    1.000,"P-24-1",           137,       158.170,       137.219,            0.,NA,NA,"",   1.83756E+06,   1.42995E+06,   1.42995E+06
C:/temp/Job-24.odb,Step-1,Increment      1: Step Time =    1.000,"P-24-1",           138,       168.152,       133.074,            0.,NA,NA,"",   1.90091E+06,   1.44587E+06,   1.44587E+06
C:/temp/Job-24.odb,Step-1,Increment      1: Step Time =    1.000,"P-24-1",           139,       179.773,       138.017,            0.,NA,NA,"",   1.68999E+06,   1.59254E+06,   1.59254E+06
C:/temp/Job-24.odb,Step-1,Increment      1: Step Time =    1.000,"P-24-1",           140,       190.625,       135.799,            0.,NA,NA,"",   1.34890E+06,   1.51277E+06,   1.51277E+06
C:/temp/Job-24.odb,Step-1,Increment      1: Step Time =    1.000,"P-24-1",           141,       170.924,       122.127,            0.,NA,NA,"",   1.49475E+06,   1.05270E+06,   1.05270E+06
C:/temp/Job-24.odb,Step-1,Increment      1: Step Time =    1.000,"P-24-1",           142,       180.470,       127.795,            0.,NA,NA,"",   1.59647E+06,   1.53029E+06,   1.53029E+06
C:/temp/Job-24.odb,Step-1,Increment      1: Step Time =    1.000,"P-24-1",           143,       189.940,       126.114,            0.,NA,NA,"",   1.50915E+06,   1.70145E+06,   1.70145E+06
C:/temp/Job-24.odb,Step-1,Increment      1: Step Time =    1.000,"P-24-1",           144,       189.039,       115.689,            0.,NA,NA,"",   1.56095E+06,   1.77709E+06,   1.77709E+06
C:/temp/Job-24.odb,Step-1,Increment      1: Step Time =    1.000,"P-24-1",           145,       176.834,       113.917,            0.,NA,NA,"",   1.05543E+06,   933.510E+03,   933.510E+03
C:/temp/Job-24.odb,Step-1,Increment      1: Step Time =    1.000,"P-24-1",           146,       169.191,       117.360,            0.,NA,NA,"",   1.25900E+06,  -22.8073E+03,  -22.8073E+03
C:/temp/Job-24.odb,Step-1,Increment      1: Step Time =    1.000,"P-24-1",           147,       172.234,       106.186,            0.,NA,NA,"",   642.354E+03,  -133.875E+03,  -133.875E+03
C:/temp/Job-24.odb,Step-1,Increment      1: Step Time =    1.000,"P-24-1",           148,       180.913,       104.444,            0.,NA,NA,"",   769.943E+03,   880.932E+03,   880.932E+03
C:/temp/Job-24.odb,Step-1,Increment      1: Step Time =    1.000,"P-24-1",           149,       189.670,       105.256,            0.,NA,NA,"",   1.58894E+06,   1.82750E+06,   1.82750E+06
C:/temp/Job-24.odb,Step-1,Increment      1: Step Time =    1.000,"P-24-1",           150,       169.885,       92.0805,            0.,NA,NA,"",   885.913E+03,  -724.459E+03,  -724.459E+03
C:/temp/Job-24.odb,Step-1,Increment      1: Step Time =    1.000,"P-24-1",           151,       179.653,       96.4167,            0.,NA,NA,"",   660.697E+03,   748.515E+03,   748.515E+03
C:/temp/Job-24.odb,Step-1,Increment      1: Step Time =    1.000,"P-24-1",           152,       189.799,       95.1437,            0.,NA,NA,"",   1.61112E+06,   1.85393E+06,   1.85393E+06
C:/temp/Job-24.odb,Step-1,Increment      1: Step Time =    1.000,"P-24-1",           153,       166.833,       81.3226,            0.,NA,NA,"",   1.36032E+06,  -549.248E+03,  -549.248E+03
C:/temp/Job-24.odb,Step-1,Increment      1: Step Time =    1.000,"P-24-1",           154,       178.365,       84.6627,            0.,NA,NA,"",   1.15135E+06,   1.08733E+06,   1.08733E+06
C:/temp/Job-24.odb,Step-1,Increment      1: Step Time =    1.000,"P-24-1",           155,       189.616,       85.0344,            0.,NA,NA,"",   1.58385E+06,   1.81110E+06,   1.81110E+06
C:/temp/Job-24.odb,Step-1,Increment      1: Step Time =    1.000,"P-24-1",           156,       150.867,       65.8433,            0.,NA,NA,"",   1.10083E+06,   913.514E+03,   913.514E+03
C:/temp/Job-24.odb,Step-1,Increment      1: Step Time =    1.000,"P-24-1",           157,       161.105,       61.0693,            0.,NA,NA,"",   2.00196E+06,   1.58291E+06,   1.58291E+06
C:/temp/Job-24.odb,Step-1,Increment      1: Step Time =    1.000,"P-24-1",           158,       171.447,       63.3946,            0.,NA,NA,"",   1.92426E+06,   1.58808E+06,   1.58808E+06
C:/temp/Job-24.odb,Step-1,Increment      1: Step Time =    1.000,"P-24-1",           159,       180.971,       64.7686,            0.,NA,NA,"",   1.64894E+06,   1.58598E+06,   1.58598E+06
C:/temp/Job-24.odb,Step-1,Increment      1: Step Time =    1.000,"P-24-1",           160,       190.429,       64.9902,            0.,NA,NA,"",   1.36383E+06,   1.52850E+06,   1.52850E+06
C:/temp/Job-24.odb,Step-1,Increment      1: Step Time =    1.000,"P-24-1",           161,       190.115,       74.8182,            0.,NA,NA,"",   1.51934E+06,   1.71621E+06,   1.71621E+06
C:/temp/Job-24.odb,Step-1,Increment      1: Step Time =    1.000,"P-24-1",           162,       181.148,       74.0204,            0.,NA,NA,"",   1.54163E+06,   1.50655E+06,   1.50655E+06
C:/temp/Job-24.odb,Step-1,Increment      1: Step Time =    1.000,"P-24-1",           163,       167.093,       75.1390,            0.,NA,NA,"",   1.59549E+06,   112.245E+03,   112.245E+03
C:/temp/Job-24.odb,Step-1,Increment      1: Step Time =    1.000,"P-24-1",           164,       139.001,       51.0308,            0.,NA,NA,"",   2.72849E+06,   2.75169E+06,   2.75169E+06
C:/temp/Job-24.odb,Step-1,Increment      1: Step Time =    1.000,"P-24-1",           165,       149.492,       48.5376,            0.,NA,NA,"",   2.27653E+06,   2.14654E+06,   2.14654E+06
C:/temp/Job-24.odb,Step-1,Increment      1: Step Time =    1.000,"P-24-1",           166,       158.697,       51.0961,            0.,NA,NA,"",   2.15135E+06,   1.87670E+06,   1.87670E+06
C:/temp/Job-24.odb,Step-1,Increment      1: Step Time =    1.000,"P-24-1",           167,       173.036,       54.8763,            0.,NA,NA,"",   1.87995E+06,   1.65951E+06,   1.65951E+06
C:/temp/Job-24.odb,Step-1,Increment      1: Step Time =    1.000,"P-24-1",           168,       179.469,       51.9988,            0.,NA,NA,"",   1.61976E+06,   1.54118E+06,   1.54118E+06
C:/temp/Job-24.odb,Step-1,Increment      1: Step Time =    1.000,"P-24-1",           169,       190.097,       50.5961,            0.,NA,NA,"",   1.16857E+06,   1.27225E+06,   1.27225E+06
C:/temp/Job-24.odb,Step-1,Increment      1: Step Time =    1.000,"P-24-1",           170,       127.681,       40.5932,            0.,NA,NA,"",   3.33349E+06,   3.47304E+06,   3.47304E+06
C:/temp/Job-24.odb,Step-1,Increment      1: Step Time =    1.000,"P-24-1",           171,       11.5742,       42.3038,            0.,NA,NA,"",   1.02927E+06,   1.10735E+06,   1.10735E+06
C:/temp/Job-24.odb,Step-1,Increment      1: Step Time =    1.000,"P-24-1",           172,       20.6637,       40.3114,            0.,NA,NA,"",   1.23611E+06,   1.26038E+06,   1.26038E+06
C:/temp/Job-24.odb,Step-1,Increment      1: Step Time =    1.000,"P-24-1",           173,       29.4154,       40.6726,            0.,NA,NA,"",   1.33843E+06,   1.27680E+06,   1.27680E+06
C:/temp/Job-24.odb,Step-1,Increment      1: Step Time =    1.000,"P-24-1",           174,       39.0832,       40.7516,            0.,NA,NA,"",   1.51113E+06,   1.35641E+06,   1.35641E+06
C:/temp/Job-24.odb,Step-1,Increment      1: Step Time =    1.000,"P-24-1",           175,       51.3554,       38.8394,            0.,NA,NA,"",   1.85374E+06,   1.60916E+06,   1.60916E+06
C:/temp/Job-24.odb,Step-1,Increment      1: Step Time =    1.000,"P-24-1",           176,       59.5208,       39.9832,            0.,NA,NA,"",   1.95042E+06,   1.70487E+06,   1.70487E+06
C:/temp/Job-24.odb,Step-1,Increment      1: Step Time =    1.000,"P-24-1",           177,       75.3924,       38.0222,            0.,NA,NA,"",   2.50606E+06,   2.43928E+06,   2.43928E+06
C:/temp/Job-24.odb,Step-1,Increment      1: Step Time =    1.000,"P-24-1",           178,       136.562,       44.1896,            0.,NA,NA,"",   2.80455E+06,   2.86736E+06,   2.86736E+06
C:/temp/Job-24.odb,Step-1,Increment      1: Step Time =    1.000,"P-24-1",           179,       148.632,       37.9372,            0.,NA,NA,"",   2.20525E+06,   2.11802E+06,   2.11802E+06
C:/temp/Job-24.odb,Step-1,Increment      1: Step Time =    1.000,"P-24-1",           180,       158.042,       40.1514,            0.,NA,NA,"",   2.05578E+06,   1.89056E+06,   1.89056E+06
C:/temp/Job-24.odb,Step-1,Increment      1: Step Time =    1.000,"P-24-1",           181,       168.809,       40.0525,            0.,NA,NA,"",   1.76832E+06,   1.62984E+06,   1.62984E+06
C:/temp/Job-24.odb,Step-1,Increment      1: Step Time =    1.000,"P-24-1",           182,       178.401,       42.3123,            0.,NA,NA,"",   1.50980E+06,   1.45132E+06,   1.45132E+06
C:/temp/Job-24.odb,Step-1,Increment      1: Step Time =    1.000,"P-24-1",           183,       65.7905,       48.9764,            0.,NA,NA,"",   1.12225E+06,   1.03414E+06,   1.03414E+06
C:/temp/Job-24.odb,Step-1,Increment      1: Step Time =    1.000,"P-24-1",           184,       48.1914,       49.8526,            0.,NA,NA,"",   1.13616E+06,   861.710E+03,   861.710E+03
C:/temp/Job-24.odb,Step-1,Increment      1: Step Time =    1.000,"P-24-1",           185,       36.8225,       50.8044,            0.,NA,NA,"",   952.279E+03,   799.110E+03,   799.110E+03
C:/temp/Job-24.odb,Step-1,Increment      1: Step Time =    1.000,"P-24-1",           186,       29.4815,       52.2730,            0.,NA,NA,"",   776.135E+03,   704.156E+03,   704.156E+03
C:/temp/Job-24.odb,Step-1,Increment      1: Step Time =    1.000,"P-24-1",           187,       22.9836,       51.6051,            0.,NA,NA,"",   726.403E+03,   717.515E+03,   717.515E+03
C:/temp/Job-24.odb,Step-1,Increment      1: Step Time =    1.000,"P-24-1",           188,       9.20070,       51.7042,            0.,NA,NA,"",   649.046E+03,   710.822E+03,   710.822E+03
C:/temp/Job-24.odb,Step-1,Increment      1: Step Time =    1.000,"P-24-1",           189,       50.8380,       60.8857,            0.,NA,NA,"",   709.559E+03,  -632.320E+03,  -632.320E+03
C:/temp/Job-24.odb,Step-1,Increment      1: Step Time =    1.000,"P-24-1",           190,       43.7126,       63.2993,            0.,NA,NA,"",   561.537E+03,  -490.097E+03,  -490.097E+03
C:/temp/Job-24.odb,Step-1,Increment      1: Step Time =    1.000,"P-24-1",           191,       30.9690,       63.9614,            0.,NA,NA,"",   336.045E+03,  -12.3842E+03,  -12.3842E+03
C:/temp/Job-24.odb,Step-1,Increment      1: Step Time =    1.000,"P-24-1",           192,       22.9940,       62.4863,            0.,NA,NA,"",   303.594E+03,   277.586E+03,   277.586E+03
C:/temp/Job-24.odb,Step-1,Increment      1: Step Time =    1.000,"P-24-1",           193,       8.72133,       65.4833,            0.,NA,NA,"",   226.576E+03,   246.220E+03,   246.220E+03
C:/temp/Job-24.odb,Step-1,Increment      1: Step Time =    1.000,"P-24-1",           194,       29.4264,       74.3083,            0.,NA,NA,"",   236.640E+03,  -255.839E+03,  -255.839E+03
C:/temp/Job-24.odb,Step-1,Increment      1: Step Time =    1.000,"P-24-1",           195,       17.7746,       74.3917,            0.,NA,NA,"",   57.8502E+03,  -49.3228E+03,  -49.3228E+03
C:/temp/Job-24.odb,Step-1,Increment      1: Step Time =    1.000,"P-24-1",           196,       9.20419,       74.9019,            0.,NA,NA,"",   108.235E+03,  -4.91674E+03,  -4.91674E+03
C:/temp/Job-24.odb,Step-1,Increment      1: Step Time =    1.000,"P-24-1",           197,       10.5279,       84.7913,            0.,NA,NA,"",   184.152E+03,  -195.499E+03,  -195.499E+03
C:/temp/Job-24.odb,Step-1,Increment      1: Step Time =    1.000,"P-24-1",           198,       22.6162,       86.1462,            0.,NA,NA,"",   222.808E+03,  -256.958E+03,  -256.958E+03
C:/temp/Job-24.odb,Step-1,Increment      1: Step Time =    1.000,"P-24-1",           199,       31.2813,       84.2430,            0.,NA,NA,"",   397.747E+03,  -445.108E+03,  -445.108E+03
C:/temp/Job-24.odb,Step-1,Increment      1: Step Time =    1.000,"P-24-1",           200,       29.6384,       93.7097,            0.,NA,NA,"",   364.776E+03,  -416.627E+03,  -416.627E+03
C:/temp/Job-24.odb,Step-1,Increment      1: Step Time =    1.000,"P-24-1",           201,       21.3404,       95.7621,            0.,NA,NA,"",   237.694E+03,  -264.144E+03,  -264.144E+03
C:/temp/Job-24.odb,Step-1,Increment      1: Step Time =    1.000,"P-24-1",           202,       10.6176,       95.1528,            0.,NA,NA,"",   240.555E+03,  -265.526E+03,  -265.526E+03
C:/temp/Job-24.odb,Step-1,Increment      1: Step Time =    1.000,"P-24-1",           203,       30.0347,       106.100,            0.,NA,NA,"",   380.132E+03,  -432.601E+03,  -432.601E+03
C:/temp/Job-24.odb,Step-1,Increment      1: Step Time =    1.000,"P-24-1",           204,       20.4513,       106.156,            0.,NA,NA,"",   232.525E+03,  -262.494E+03,  -262.494E+03
C:/temp/Job-24.odb,Step-1,Increment      1: Step Time =    1.000,"P-24-1",           205,       10.3956,       105.481,            0.,NA,NA,"",   238.659E+03,  -262.651E+03,  -262.651E+03
C:/temp/Job-24.odb,Step-1,Increment      1: Step Time =    1.000,"P-24-1",           206,       31.5268,       116.298,            0.,NA,NA,"",   402.216E+03,  -447.844E+03,  -447.844E+03
C:/temp/Job-24.odb,Step-1,Increment      1: Step Time =    1.000,"P-24-1",           207,       20.7282,       116.132,            0.,NA,NA,"",   187.144E+03,  -215.421E+03,  -215.421E+03
C:/temp/Job-24.odb,Step-1,Increment      1: Step Time =    1.000,"P-24-1",           208,       10.2585,       115.547,            0.,NA,NA,"",   179.602E+03,  -189.394E+03,  -189.394E+03
C:/temp/Job-24.odb,Step-1,Increment      1: Step Time =    1.000,"P-24-1",           209,       49.2680,       133.880,            0.,NA,NA,"",   848.313E+03,  -851.047E+03,  -851.047E+03
C:/temp/Job-24.odb,Step-1,Increment      1: Step Time =    1.000,"P-24-1",           210,       40.6598,       138.346,            0.,NA,NA,"",   526.362E+03,  -224.823E+03,  -224.823E+03
C:/temp/Job-24.odb,Step-1,Increment      1: Step Time =    1.000,"P-24-1",           211,       30.2023,       138.886,            0.,NA,NA,"",   427.294E+03,   324.954E+03,   324.954E+03
C:/temp/Job-24.odb,Step-1,Increment      1: Step Time =    1.000,"P-24-1",           212,       19.4785,       135.574,            0.,NA,NA,"",   233.029E+03,   232.134E+03,   232.134E+03
C:/temp/Job-24.odb,Step-1,Increment      1: Step Time =    1.000,"P-24-1",           213,       9.74401,       134.878,            0.,NA,NA,"",   227.694E+03,   247.923E+03,   247.923E+03
C:/temp/Job-24.odb,Step-1,Increment      1: Step Time =    1.000,"P-24-1",           214,       10.1023,       125.332,            0.,NA,NA,"",   99.0803E+03,  -5.15653E+03,  -5.15653E+03
C:/temp/Job-24.odb,Step-1,Increment      1: Step Time =    1.000,"P-24-1",           215,       20.8323,       125.782,            0.,NA,NA,"",   84.7362E+03,  -79.2884E+03,  -79.2884E+03
C:/temp/Job-24.odb,Step-1,Increment      1: Step Time =    1.000,"P-24-1",           216,       31.0041,       126.392,            0.,NA,NA,"",   271.419E+03,  -291.775E+03,  -291.775E+03
C:/temp/Job-24.odb,Step-1,Increment      1: Step Time =    1.000,"P-24-1",           217,       189.595,       10.2811,            0.,NA,NA,"",   1.00565E+06,   1.00280E+06,   1.00280E+06
C:/temp/Job-24.odb,Step-1,Increment      1: Step Time =    1.000,"P-24-1",           218,       179.434,       10.0202,            0.,NA,NA,"",   1.01438E+06,   1.01028E+06,   1.01028E+06
C:/temp/Job-24.odb,Step-1,Increment      1: Step Time =    1.000,"P-24-1",           219,       169.251,       9.80007,            0.,NA,NA,"",   1.02562E+06,   1.01242E+06,   1.01242E+06
C:/temp/Job-24.odb,Step-1,Increment      1: Step Time =    1.000,"P-24-1",           220,       158.714,       10.3312,            0.,NA,NA,"",   1.03509E+06,   1.01058E+06,   1.01058E+06
C:/temp/Job-24.odb,Step-1,Increment      1: Step Time =    1.000,"P-24-1",           221,       149.620,       9.25992,            0.,NA,NA,"",   956.037E+03,   932.867E+03,   932.867E+03
C:/temp/Job-24.odb,Step-1,Increment      1: Step Time =    1.000,"P-24-1",           222,       135.059,       9.63494,            0.,NA,NA,"",   852.676E+03,   845.375E+03,   845.375E+03
C:/temp/Job-24.odb,Step-1,Increment      1: Step Time =    1.000,"P-24-1",           223,       124.991,       9.81171,            0.,NA,NA,"",   767.811E+03,   791.069E+03,   791.069E+03
C:/temp/Job-24.odb,Step-1,Increment      1: Step Time =    1.000,"P-24-1",           224,       114.860,       10.1457,            0.,NA,NA,"",   785.093E+03,   830.505E+03,   830.505E+03
C:/temp/Job-24.odb,Step-1,Increment      1: Step Time =    1.000,"P-24-1",           225,       104.558,       10.2586,            0.,NA,NA,"",   1.00274E+06,   1.02530E+06,   1.02530E+06
C:/temp/Job-24.odb,Step-1,Increment      1: Step Time =    1.000,"P-24-1",           226,       94.4123,       9.82776,            0.,NA,NA,"",   1.28939E+06,   1.27032E+06,   1.27032E+06
C:/temp/Job-24.odb,Step-1,Increment      1: Step Time =    1.000,"P-24-1",           227,       84.8014,       9.33262,            0.,NA,NA,"",   1.59992E+06,   1.54514E+06,   1.54514E+06
C:/temp/Job-24.odb,Step-1,Increment      1: Step Time =    1.000,"P-24-1",           228,       75.2568,       9.64988,            0.,NA,NA,"",   1.91796E+06,   1.84913E+06,   1.84913E+06
C:/temp/Job-24.odb,Step-1,Increment      1: Step Time =    1.000,"P-24-1",           229,       65.4540,       10.5977,            0.,NA,NA,"",   2.17869E+06,   2.10782E+06,   2.10782E+06
C:/temp/Job-24.odb,Step-1,Increment      1: Step Time =    1.000,"P-24-1",           230,       50.5085,       10.9066,            0.,NA,NA,"",   2.40807E+06,   2.35637E+06,   2.35637E+06
C:/temp/Job-24.odb,Step-1,Increment      1: Step Time =    1.000,"P-24-1",           231,       40.7697,       10.3725,            0.,NA,NA,"",   2.50350E+06,   2.47219E+06,   2.47219E+06
C:/temp/Job-24.odb,Step-1,Increment      1: Step Time =    1.000,"P-24-1",           232,       30.8311,       9.85805,            0.,NA,NA,"",   2.58033E+06,   2.56627E+06,   2.56627E+06
C:/temp/Job-24.odb,Step-1,Increment      1: Step Time =    1.000,"P-24-1",           233,       20.7537,       9.89319,            0.,NA,NA,"",   2.63195E+06,   2.63977E+06,   2.63977E+06
C:/temp/Job-24.odb,Step-1,Increment      1: Step Time =    1.000,"P-24-1",           234,       10.5840,       10.1210,            0.,NA,NA,"",   2.66876E+06,   2.74478E+06,   2.74478E+06
C:/temp/Job-24.odb,Step-1,Increment      1: Step Time =    1.000,"P-24-1",           235,       189.240,       20.7515,            0.,NA,NA,"",   1.04447E+06,   1.04613E+06,   1.04613E+06
C:/temp/Job-24.odb,Step-1,Increment      1: Step Time =    1.000,"P-24-1",           236,       176.737,       23.6673,            0.,NA,NA,"",   1.22651E+06,   1.20512E+06,   1.20512E+06
C:/temp/Job-24.odb,Step-1,Increment      1: Step Time =    1.000,"P-24-1",           237,       168.444,       22.9061,            0.,NA,NA,"",   1.35320E+06,   1.30432E+06,   1.30432E+06
C:/temp/Job-24.odb,Step-1,Increment      1: Step Time =    1.000,"P-24-1",           238,       158.712,       19.4175,            0.,NA,NA,"",   1.36136E+06,   1.30873E+06,   1.30873E+06
C:/temp/Job-24.odb,Step-1,Increment      1: Step Time =    1.000,"P-24-1",           239,       145.280,       21.0490,            0.,NA,NA,"",   1.55494E+06,   1.52278E+06,   1.52278E+06
C:/temp/Job-24.odb,Step-1,Increment      1: Step Time =    1.000,"P-24-1",           240,       134.776,       18.5077,            0.,NA,NA,"",   1.45145E+06,   1.46787E+06,   1.46787E+06
C:/temp/Job-24.odb,Step-1,Increment      1: Step Time =    1.000,"P-24-1",           241,       125.324,       19.0409,            0.,NA,NA,"",   1.51048E+06,   1.58746E+06,   1.58746E+06
C:/temp/Job-24.odb,Step-1,Increment      1: Step Time =    1.000,"P-24-1",           242,       114.371,       20.7020,            0.,NA,NA,"",   1.76980E+06,   1.90051E+06,   1.90051E+06
C:/temp/Job-24.odb,Step-1,Increment      1: Step Time =    1.000,"P-24-1",           243,       104.302,       19.9603,            0.,NA,NA,"",   1.87917E+06,   1.97929E+06,   1.97929E+06
C:/temp/Job-24.odb,Step-1,Increment      1: Step Time =    1.000,"P-24-1",           244,       92.1175,       19.4950,            0.,NA,NA,"",   2.12795E+06,   2.12739E+06,   2.12739E+06
C:/temp/Job-24.odb,Step-1,Increment      1: Step Time =    1.000,"P-24-1",           245,       84.4146,       19.4271,            0.,NA,NA,"",   2.25801E+06,   2.18732E+06,   2.18732E+06
C:/temp/Job-24.odb,Step-1,Increment      1: Step Time =    1.000,"P-24-1",           246,       77.1652,       18.7814,            0.,NA,NA,"",   2.31492E+06,   2.19606E+06,   2.19606E+06
C:/temp/Job-24.odb,Step-1,Increment      1: Step Time =    1.000,"P-24-1",           247,       67.4175,       22.3448,            0.,NA,NA,"",   2.44698E+06,   2.27742E+06,   2.27742E+06
C:/temp/Job-24.odb,Step-1,Increment      1: Step Time =    1.000,"P-24-1",           248,       40.3049,       20.8040,            0.,NA,NA,"",   2.25213E+06,   2.16701E+06,   2.16701E+06
C:/temp/Job-24.odb,Step-1,Increment      1: Step Time =    1.000,"P-24-1",           249,       31.3332,       18.6438,            0.,NA,NA,"",   2.27527E+06,   2.23782E+06,   2.23782E+06
C:/temp/Job-24.odb,Step-1,Increment      1: Step Time =    1.000,"P-24-1",           250,       21.5026,       20.2543,            0.,NA,NA,"",   2.18039E+06,   2.20096E+06,   2.20096E+06
C:/temp/Job-24.odb,Step-1,Increment      1: Step Time =    1.000,"P-24-1",           251,       12.5587,       21.0261,            0.,NA,NA,"",   2.03297E+06,   2.13438E+06,   2.13438E+06
C:/temp/Job-24.odb,Step-1,Increment      1: Step Time =    1.000,"P-24-1",           252,       189.732,       31.0324,            0.,NA,NA,"",   1.06888E+06,   1.09304E+06,   1.09304E+06
C:/temp/Job-24.odb,Step-1,Increment      1: Step Time =    1.000,"P-24-1",           253,       179.073,       31.2956,            0.,NA,NA,"",   1.29494E+06,   1.27247E+06,   1.27247E+06
C:/temp/Job-24.odb,Step-1,Increment      1: Step Time =    1.000,"P-24-1",           254,       166.311,       31.3114,            0.,NA,NA,"",   1.61749E+06,   1.52537E+06,   1.52537E+06
C:/temp/Job-24.odb,Step-1,Increment      1: Step Time =    1.000,"P-24-1",           255,       159.584,       28.8281,            0.,NA,NA,"",   1.68858E+06,   1.59673E+06,   1.59673E+06
C:/temp/Job-24.odb,Step-1,Increment      1: Step Time =    1.000,"P-24-1",           256,       146.163,       32.3877,            0.,NA,NA,"",   2.08350E+06,   2.03191E+06,   2.03191E+06
C:/temp/Job-24.odb,Step-1,Increment      1: Step Time =    1.000,"P-24-1",           257,       136.265,       31.9865,            0.,NA,NA,"",   2.25554E+06,   2.30511E+06,   2.30511E+06
C:/temp/Job-24.odb,Step-1,Increment      1: Step Time =    1.000,"P-24-1",           258,       123.072,       30.7100,            0.,NA,NA,"",   2.53535E+06,   2.69990E+06,   2.69990E+06
C:/temp/Job-24.odb,Step-1,Increment      1: Step Time =    1.000,"P-24-1",           259,       117.895,       29.9581,            0.,NA,NA,"",   2.65566E+06,   2.83882E+06,   2.83882E+06
C:/temp/Job-24.odb,Step-1,Increment      1: Step Time =    1.000,"P-24-1",           260,       106.093,       28.9040,            0.,NA,NA,"",   2.80697E+06,   2.98715E+06,   2.98715E+06
C:/temp/Job-24.odb,Step-1,Increment      1: Step Time =    1.000,"P-24-1",           261,       93.7775,       30.2697,            0.,NA,NA,"",   2.95671E+06,   3.05317E+06,   3.05317E+06
C:/temp/Job-24.odb,Step-1,Increment      1: Step Time =    1.000,"P-24-1",           262,       83.4942,       31.5562,            0.,NA,NA,"",   2.81278E+06,   2.80033E+06,   2.80033E+06
C:/temp/Job-24.odb,Step-1,Increment      1: Step Time =    1.000,"P-24-1",           263,       72.6073,       31.9608,            0.,NA,NA,"",   2.54478E+06,   2.39746E+06,   2.39746E+06
C:/temp/Job-24.odb,Step-1,Increment      1: Step Time =    1.000,"P-24-1",           264,       64.3909,       30.9505,            0.,NA,NA,"",   2.39581E+06,   2.17740E+06,   2.17740E+06
C:/temp/Job-24.odb,Step-1,Increment      1: Step Time =    1.000,"P-24-1",           265,       52.2104,       27.2593,            0.,NA,NA,"",   2.23152E+06,   2.04664E+06,   2.04664E+06
C:/temp/Job-24.odb,Step-1,Increment      1: Step Time =    1.000,"P-24-1",           266,       42.3315,       31.3794,            0.,NA,NA,"",   1.96448E+06,   1.80886E+06,   1.80886E+06
C:/temp/Job-24.odb,Step-1,Increment      1: Step Time =    1.000,"P-24-1",           267,       32.9634,       32.6433,            0.,NA,NA,"",   1.75815E+06,   1.67517E+06,   1.67517E+06
C:/temp/Job-24.odb,Step-1,Increment      1: Step Time =    1.000,"P-24-1",           268,       22.5579,       31.0266,            0.,NA,NA,"",   1.68438E+06,   1.69543E+06,   1.69543E+06
C:/temp/Job-24.odb,Step-1,Increment      1: Step Time =    1.000,"P-24-1",           269,       10.6329,       31.4810,            0.,NA,NA,"",   1.48478E+06,   1.59580E+06,   1.59580E+06
C:/temp/Job-24.odb,Step-1,Increment      1: Step Time =    1.000,"P-24-1",           270,       190.178,       169.695,            0.,NA,NA,"",   1.05666E+06,   1.07963E+06,   1.07963E+06
C:/temp/Job-24.odb,Step-1,Increment      1: Step Time =    1.000,"P-24-1",           271,       178.167,       170.183,            0.,NA,NA,"",   1.28548E+06,   1.26258E+06,   1.26258E+06
C:/temp/Job-24.odb,Step-1,Increment      1: Step Time =    1.000,"P-24-1",           272,       167.203,       168.371,            0.,NA,NA,"",   1.60701E+06,   1.51352E+06,   1.51352E+06
C:/temp/Job-24.odb,Step-1,Increment      1: Step Time =    1.000,"P-24-1",           273,       157.499,       168.903,            0.,NA,NA,"",   1.81203E+06,   1.70598E+06,   1.70598E+06
C:/temp/Job-24.odb,Step-1,Increment      1: Step Time =    1.000,"P-24-1",           274,       148.645,       166.526,            0.,NA,NA,"",   2.05827E+06,   1.98246E+06,   1.98246E+06
C:/temp/Job-24.odb,Step-1,Increment      1: Step Time =    1.000,"P-24-1",           275,       136.340,       168.449,            0.,NA,NA,"",   2.22909E+06,   2.27781E+06,   2.27781E+06
C:/temp/Job-24.odb,Step-1,Increment      1: Step Time =    1.000,"P-24-1",           276,       126.718,       171.828,            0.,NA,NA,"",   2.22106E+06,   2.34887E+06,   2.34887E+06
C:/temp/Job-24.odb,Step-1,Increment      1: Step Time =    1.000,"P-24-1",           277,       116.761,       172.252,            0.,NA,NA,"",   2.42466E+06,   2.59695E+06,   2.59695E+06
C:/temp/Job-24.odb,Step-1,Increment      1: Step Time =    1.000,"P-24-1",           278,       105.347,       172.637,            0.,NA,NA,"",   2.62830E+06,   2.79525E+06,   2.79525E+06
C:/temp/Job-24.odb,Step-1,Increment      1: Step Time =    1.000,"P-24-1",           279,       92.9080,       170.350,            0.,NA,NA,"",   2.87058E+06,   2.95896E+06,   2.95896E+06
C:/temp/Job-24.odb,Step-1,Increment      1: Step Time =    1.000,"P-24-1",           280,       81.6834,       170.056,            0.,NA,NA,"",   2.72296E+06,   2.67601E+06,   2.67601E+06
C:/temp/Job-24.odb,Step-1,Increment      1: Step Time =    1.000,"P-24-1",           281,       74.9981,       170.042,            0.,NA,NA,"",   2.60002E+06,   2.46355E+06,   2.46355E+06
C:/temp/Job-24.odb,Step-1,Increment      1: Step Time =    1.000,"P-24-1",           282,       65.8803,       166.863,            0.,NA,NA,"",   2.40001E+06,   2.18536E+06,   2.18536E+06
C:/temp/Job-24.odb,Step-1,Increment      1: Step Time =    1.000,"P-24-1",           283,       54.1412,       171.623,            0.,NA,NA,"",   2.25189E+06,   2.04671E+06,   2.04671E+06
C:/temp/Job-24.odb,Step-1,Increment      1: Step Time =    1.000,"P-24-1",           284,       42.3165,       172.684,            0.,NA,NA,"",   2.08970E+06,   1.96103E+06,   1.96103E+06
C:/temp/Job-24.odb,Step-1,Increment      1: Step Time =    1.000,"P-24-1",           285,       34.1128,       168.884,            0.,NA,NA,"",   1.85028E+06,   1.76188E+06,   1.76188E+06
C:/temp/Job-24.odb,Step-1,Increment      1: Step Time =    1.000,"P-24-1",           286,       19.1257,       166.503,            0.,NA,NA,"",   1.52417E+06,   1.56235E+06,   1.56235E+06
C:/temp/Job-24.odb,Step-1,Increment      1: Step Time =    1.000,"P-24-1",           287,       9.90523,       168.396,            0.,NA,NA,"",   1.46493E+06,   1.58099E+06,   1.58099E+06
C:/temp/Job-24.odb,Step-1,Increment      1: Step Time =    1.000,"P-24-1",           288,       190.143,       179.753,            0.,NA,NA,"",   1.03476E+06,   1.03604E+06,   1.03604E+06
C:/temp/Job-24.odb,Step-1,Increment      1: Step Time =    1.000,"P-24-1",           289,       176.592,       176.731,            0.,NA,NA,"",   1.22077E+06,   1.19869E+06,   1.19869E+06
C:/temp/Job-24.odb,Step-1,Increment      1: Step Time =    1.000,"P-24-1",           290,       167.991,       181.471,            0.,NA,NA,"",   1.23575E+06,   1.20009E+06,   1.20009E+06
C:/temp/Job-24.odb,Step-1,Increment      1: Step Time =    1.000,"P-24-1",           291,       159.073,       181.018,            0.,NA,NA,"",   1.35355E+06,   1.30048E+06,   1.30048E+06
C:/temp/Job-24.odb,Step-1,Increment      1: Step Time =    1.000,"P-24-1",           292,       149.455,       180.894,            0.,NA,NA,"",   1.45132E+06,   1.40351E+06,   1.40351E+06
C:/temp/Job-24.odb,Step-1,Increment      1: Step Time =    1.000,"P-24-1",           293,       133.447,       178.612,            0.,NA,NA,"",   1.64582E+06,   1.68651E+06,   1.68651E+06
C:/temp/Job-24.odb,Step-1,Increment      1: Step Time =    1.000,"P-24-1",           294,       124.532,       180.601,            0.,NA,NA,"",   1.53492E+06,   1.61577E+06,   1.61577E+06
C:/temp/Job-24.odb,Step-1,Increment      1: Step Time =    1.000,"P-24-1",           295,       117.308,       179.087,            0.,NA,NA,"",   1.75270E+06,   1.88523E+06,   1.88523E+06
C:/temp/Job-24.odb,Step-1,Increment      1: Step Time =    1.000,"P-24-1",           296,       104.828,       181.576,            0.,NA,NA,"",   1.72583E+06,   1.81191E+06,   1.81191E+06
C:/temp/Job-24.odb,Step-1,Increment      1: Step Time =    1.000,"P-24-1",           297,       90.5888,       177.527,            0.,NA,NA,"",   2.37908E+06,   2.38213E+06,   2.38213E+06
C:/temp/Job-24.odb,Step-1,Increment      1: Step Time =    1.000,"P-24-1",           298,       86.0633,       177.064,            0.,NA,NA,"",   2.44674E+06,   2.41106E+06,   2.41106E+06
C:/temp/Job-24.odb,Step-1,Increment      1: Step Time =    1.000,"P-24-1",           299,       75.3875,       179.719,            0.,NA,NA,"",   2.40255E+06,   2.26884E+06,   2.26884E+06
C:/temp/Job-24.odb,Step-1,Increment      1: Step Time =    1.000,"P-24-1",           300,       63.6821,       178.691,            0.,NA,NA,"",   2.39405E+06,   2.22615E+06,   2.22615E+06
C:/temp/Job-24.odb,Step-1,Increment      1: Step Time =    1.000,"P-24-1",           301,       40.2184,       176.206,            0.,NA,NA,"",   2.15786E+06,   2.05779E+06,   2.05779E+06
C:/temp/Job-24.odb,Step-1,Increment      1: Step Time =    1.000,"P-24-1",           302,       31.4969,       179.528,            0.,NA,NA,"",   2.21893E+06,   2.17997E+06,   2.17997E+06
C:/temp/Job-24.odb,Step-1,Increment      1: Step Time =    1.000,"P-24-1",           303,       22.7031,       178.098,            0.,NA,NA,"",   2.10904E+06,   2.11821E+06,   2.11821E+06
C:/temp/Job-24.odb,Step-1,Increment      1: Step Time =    1.000,"P-24-1",           304,       11.4742,       178.846,            0.,NA,NA,"",   2.00854E+06,   2.12027E+06,   2.12027E+06
C:/temp/Job-24.odb,Step-1,Increment      1: Step Time =    1.000,"P-24-1",           305,       189.804,       189.700,            0.,NA,NA,"",   1.00528E+06,   1.00258E+06,   1.00258E+06
C:/temp/Job-24.odb,Step-1,Increment      1: Step Time =    1.000,"P-24-1",           306,       179.318,       189.432,            0.,NA,NA,"",   1.02042E+06,   1.01590E+06,   1.01590E+06
C:/temp/Job-24.odb,Step-1,Increment      1: Step Time =    1.000,"P-24-1",           307,       169.115,       190.290,            0.,NA,NA,"",   1.02513E+06,   1.01157E+06,   1.01157E+06
C:/temp/Job-24.odb,Step-1,Increment      1: Step Time =    1.000,"P-24-1",           308,       159.350,       190.324,            0.,NA,NA,"",   1.01471E+06,   992.228E+03,   992.228E+03
C:/temp/Job-24.odb,Step-1,Increment      1: Step Time =    1.000,"P-24-1",           309,       149.349,       190.034,            0.,NA,NA,"",   991.570E+03,   965.936E+03,   965.936E+03
C:/temp/Job-24.odb,Step-1,Increment      1: Step Time =    1.000,"P-24-1",           310,       134.453,       189.862,            0.,NA,NA,"",   876.522E+03,   871.465E+03,   871.465E+03
C:/temp/Job-24.odb,Step-1,Increment      1: Step Time =    1.000,"P-24-1",           311,       124.754,       189.993,            0.,NA,NA,"",   787.847E+03,   811.624E+03,   811.624E+03
C:/temp/Job-24.odb,Step-1,Increment      1: Step Time =    1.000,"P-24-1",           312,       114.957,       189.683,            0.,NA,NA,"",   797.292E+03,   845.595E+03,   845.595E+03
C:/temp/Job-24.odb,Step-1,Increment      1: Step Time =    1.000,"P-24-1",           313,       105.280,       190.423,            0.,NA,NA,"",   922.782E+03,   943.810E+03,   943.810E+03
C:/temp/Job-24.odb,Step-1,Increment      1: Step Time =    1.000,"P-24-1",           314,       95.6026,       190.501,            0.,NA,NA,"",   1.22174E+06,   1.20537E+06,   1.20537E+06
C:/temp/Job-24.odb,Step-1,Increment      1: Step Time =    1.000,"P-24-1",           315,       85.2871,       189.764,            0.,NA,NA,"",   1.63962E+06,   1.58617E+06,   1.58617E+06
C:/temp/Job-24.odb,Step-1,Increment      1: Step Time =    1.000,"P-24-1",           316,       74.7380,       189.956,            0.,NA,NA,"",   1.95683E+06,   1.88267E+06,   1.88267E+06
C:/temp/Job-24.odb,Step-1,Increment      1: Step Time =    1.000,"P-24-1",           317,       64.7127,       190.177,            0.,NA,NA,"",   2.18307E+06,   2.11824E+06,   2.11824E+06
C:/temp/Job-24.odb,Step-1,Increment      1: Step Time =    1.000,"P-24-1",           318,       50.9627,       186.638,            0.,NA,NA,"",   2.37435E+06,   2.30397E+06,   2.30397E+06
C:/temp/Job-24.odb,Step-1,Increment      1: Step Time =    1.000,"P-24-1",           319,       40.9382,       189.102,            0.,NA,NA,"",   2.48366E+06,   2.45019E+06,   2.45019E+06
C:/temp/Job-24.odb,Step-1,Increment      1: Step Time =    1.000,"P-24-1",           320,       30.4778,       189.681,            0.,NA,NA,"",   2.56616E+06,   2.55343E+06,   2.55343E+06
C:/temp/Job-24.odb,Step-1,Increment      1: Step Time =    1.000,"P-24-1",           321,       20.5838,       189.358,            0.,NA,NA,"",   2.60605E+06,   2.61544E+06,   2.61544E+06
C:/temp/Job-24.odb,Step-1,Increment      1: Step Time =    1.000,"P-24-1",           322,       10.3425,       189.730,            0.,NA,NA,"",   2.65840E+06,   2.73952E+06,   2.73952E+06
C:/temp/Job-24.odb,Step-1,Increment      1: Step Time =    1.000,"P-24-1",           323,       95.0321,       156.783,            0.,NA,NA,"",   4.54868E+06,   4.62624E+06,   4.62624E+06
C:/temp/Job-24.odb,Step-1,Increment      1: Step Time =    1.000,"P-24-1",           324,       90.1021,       156.134,            0.,NA,NA,"",   4.03575E+06,   4.09942E+06,   4.09942E+06
C:/temp/Job-24.odb,Step-1,Increment      1: Step Time =    1.000,"P-24-1",           325,       80.5049,       153.562,            0.,NA,NA,"",   2.70481E+06,   2.73538E+06,   2.73538E+06
C:/temp/Job-24.odb,Step-1,Increment      1: Step Time =    1.000,"P-24-1",           326,       75.9108,       151.660,            0.,NA,NA,"",   1.98559E+06,   1.99906E+06,   1.99906E+06
C:/temp/Job-24.odb,Step-1,Increment      1: Step Time =    1.000,"P-24-1",           327,       67.3061,       146.692,            0.,NA,NA,"",   783.557E+03,   744.132E+03,   744.132E+03
C:/temp/Job-24.odb,Step-1,Increment      1: Step Time =    1.000,"P-24-1",           328,       63.3611,       143.665,            0.,NA,NA,"",   512.648E+03,   71.3294E+03,   71.3294E+03
C:/temp/Job-24.odb,Step-1,Increment      1: Step Time =    1.000,"P-24-1",           329,       56.3355,       136.639,            0.,NA,NA,"",   820.396E+03,  -807.071E+03,  -807.071E+03
C:/temp/Job-24.odb,Step-1,Increment      1: Step Time =    1.000,"P-24-1",           330,       53.3083,       132.694,            0.,NA,NA,"",   1.01158E+06,  -1.01577E+06,  -1.01577E+06
C:/temp/Job-24.odb,Step-1,Increment      1: Step Time =    1.000,"P-24-1",           331,       48.3405,       124.089,            0.,NA,NA,"",   1.09669E+06,  -1.11266E+06,  -1.11266E+06
C:/temp/Job-24.odb,Step-1,Increment      1: Step Time =    1.000,"P-24-1",           332,       46.4375,       119.495,            0.,NA,NA,"",   1.04524E+06,  -1.06094E+06,  -1.06094E+06
C:/temp/Job-24.odb,Step-1,Increment      1: Step Time =    1.000,"P-24-1",           333,       43.8660,       109.898,            0.,NA,NA,"",   896.126E+03,  -912.285E+03,  -912.285E+03
C:/temp/Job-24.odb,Step-1,Increment      1: Step Time =    1.000,"P-24-1",           334,       43.2169,       104.968,            0.,NA,NA,"",   837.700E+03,  -855.283E+03,  -855.283E+03
C:/temp/Job-24.odb,Step-1,Increment      1: Step Time =    1.000,"P-24-1",           335,       43.2169,       95.0321,            0.,NA,NA,"",   834.152E+03,  -853.181E+03,  -853.181E+03
C:/temp/Job-24.odb,Step-1,Increment      1: Step Time =    1.000,"P-24-1",           336,       43.8660,       90.1021,            0.,NA,NA,"",   887.764E+03,  -906.286E+03,  -906.286E+03
C:/temp/Job-24.odb,Step-1,Increment      1: Step Time =    1.000,"P-24-1",           337,       46.4375,       80.5049,            0.,NA,NA,"",   1.03531E+06,  -1.05111E+06,  -1.05111E+06
C:/temp/Job-24.odb,Step-1,Increment      1: Step Time =    1.000,"P-24-1",           338,       48.3405,       75.9108,            0.,NA,NA,"",   1.07769E+06,  -1.09166E+06,  -1.09166E+06
C:/temp/Job-24.odb,Step-1,Increment      1: Step Time =    1.000,"P-24-1",           339,       53.3083,       67.3061,            0.,NA,NA,"",   961.512E+03,  -964.166E+03,  -964.166E+03
C:/temp/Job-24.odb,Step-1,Increment      1: Step Time =    1.000,"P-24-1",           340,       56.3355,       63.3611,            0.,NA,NA,"",   781.449E+03,  -764.983E+03,  -764.983E+03
C:/temp/Job-24.odb,Step-1,Increment      1: Step Time =    1.000,"P-24-1",           341,       63.3611,       56.3355,            0.,NA,NA,"",   491.124E+03,   84.1317E+03,   84.1317E+03
C:/temp/Job-24.odb,Step-1,Increment      1: Step Time =    1.000,"P-24-1",           342,       67.3061,       53.3083,            0.,NA,NA,"",    778.18E+03,   752.018E+03,   752.018E+03
C:/temp/Job-24.odb,Step-1,Increment      1: Step Time =    1.000,"P-24-1",           343,       75.9108,       48.3405,            0.,NA,NA,"",   2.05284E+06,   2.06912E+06,   2.06912E+06
C:/temp/Job-24.odb,Step-1,Increment      1: Step Time =    1.000,"P-24-1",           344,       80.5049,       46.4375,            0.,NA,NA,"",   2.77204E+06,   2.79594E+06,   2.79594E+06
C:/temp/Job-24.odb,Step-1,Increment      1: Step Time =    1.000,"P-24-1",           345,       90.1021,       43.8660,            0.,NA,NA,"",   4.13591E+06,   4.19209E+06,   4.19209E+06
C:/temp/Job-24.odb,Step-1,Increment      1: Step Time =    1.000,"P-24-1",           346,       95.0321,       43.2169,            0.,NA,NA,"",   4.65945E+06,   4.72982E+06,   4.72982E+06
C:/temp/Job-24.odb,Step-1,Increment      1: Step Time =    1.000,"P-24-1",           347,       104.968,       43.2169,            0.,NA,NA,"",   5.23822E+06,   5.32953E+06,   5.32953E+06
C:/temp/Job-24.odb,Step-1,Increment      1: Step Time =    1.000,"P-24-1",           348,       109.898,       43.8660,            0.,NA,NA,"",   5.28379E+06,   5.37534E+06,   5.37534E+06
C:/temp/Job-24.odb,Step-1,Increment      1: Step Time =    1.000,"P-24-1",           349,       119.495,       46.4375,            0.,NA,NA,"",   4.90197E+06,   4.97563E+06,   4.97563E+06
C:/temp/Job-24.odb,Step-1,Increment      1: Step Time =    1.000,"P-24-1",           350,       124.089,       48.3405,            0.,NA,NA,"",   4.50235E+06,   4.56606E+06,   4.56606E+06
C:/temp/Job-24.odb,Step-1,Increment      1: Step Time =    1.000,"P-24-1",           351,       132.694,       53.3083,            0.,NA,NA,"",   3.43115E+06,   3.47477E+06,   3.47477E+06
C:/temp/Job-24.odb,Step-1,Increment      1: Step Time =    1.000,"P-24-1",           352,       136.639,       56.3355,            0.,NA,NA,"",   2.82302E+06,   2.84724E+06,   2.84724E+06
C:/temp/Job-24.odb,Step-1,Increment      1: Step Time =    1.000,"P-24-1",           353,       143.665,       63.3611,            0.,NA,NA,"",   1.35806E+06,   1.35159E+06,   1.35159E+06
C:/temp/Job-24.odb,Step-1,Increment      1: Step Time =    1.000,"P-24-1",           354,       146.692,       67.3061,            0.,NA,NA,"",   770.401E+03,   712.673E+03,   712.673E+03
C:/temp/Job-24.odb,Step-1,Increment      1: Step Time =    1.000,"P-24-1",           355,       151.660,       75.9108,            0.,NA,NA,"",   941.539E+03,  -907.306E+03,  -907.306E+03
C:/temp/Job-24.odb,Step-1,Increment      1: Step Time =    1.000,"P-24-1",           356,       153.562,       80.5049,            0.,NA,NA,"",   1.54171E+06,  -1.53561E+06,  -1.53561E+06
C:/temp/Job-24.odb,Step-1,Increment      1: Step Time =    1.000,"P-24-1",           357,       156.134,       90.1021,            0.,NA,NA,"",   2.50577E+06,  -2.53354E+06,  -2.53354E+06
C:/temp/Job-24.odb,Step-1,Increment      1: Step Time =    1.000,"P-24-1",           358,       156.783,       95.0321,            0.,NA,NA,"",   2.76301E+06,  -2.79518E+06,  -2.79518E+06
C:/temp/Job-24.odb,Step-1,Increment      1: Step Time =    1.000,"P-24-1",           359,       156.783,       104.968,            0.,NA,NA,"",   2.65629E+06,  -2.68681E+06,  -2.68681E+06
C:/temp/Job-24.odb,Step-1,Increment      1: Step Time =    1.000,"P-24-1",           360,       156.134,       109.898,            0.,NA,NA,"",   2.34362E+06,  -2.38293E+06,  -2.38293E+06
C:/temp/Job-24.odb,Step-1,Increment      1: Step Time =    1.000,"P-24-1",           361,       153.562,       119.495,            0.,NA,NA,"",   1.44178E+06,  -1.43525E+06,  -1.43525E+06
C:/temp/Job-24.odb,Step-1,Increment      1: Step Time =    1.000,"P-24-1",           362,       151.660,       124.089,            0.,NA,NA,"",   933.192E+03,  -863.144E+03,  -863.144E+03
C:/temp/Job-24.odb,Step-1,Increment      1: Step Time =    1.000,"P-24-1",           363,       146.692,       132.694,            0.,NA,NA,"",   986.387E+03,   885.477E+03,   885.477E+03
C:/temp/Job-24.odb,Step-1,Increment      1: Step Time =    1.000,"P-24-1",           364,       143.665,       136.639,            0.,NA,NA,"",   1.49090E+06,   1.45636E+06,   1.45636E+06
C:/temp/Job-24.odb,Step-1,Increment      1: Step Time =    1.000,"P-24-1",           365,       136.639,       143.665,            0.,NA,NA,"",   2.77470E+06,   2.81237E+06,   2.81237E+06
C:/temp/Job-24.odb,Step-1,Increment      1: Step Time =    1.000,"P-24-1",           366,       132.694,       146.692,            0.,NA,NA,"",   3.48390E+06,   3.52648E+06,   3.52648E+06
C:/temp/Job-24.odb,Step-1,Increment      1: Step Time =    1.000,"P-24-1",           367,       124.089,       151.660,            0.,NA,NA,"",   4.46835E+06,   4.54271E+06,   4.54271E+06
C:/temp/Job-24.odb,Step-1,Increment      1: Step Time =    1.000,"P-24-1",           368,       119.495,       153.562,            0.,NA,NA,"",   4.84183E+06,   4.92468E+06,   4.92468E+06
C:/temp/Job-24.odb,Step-1,Increment      1: Step Time =    1.000,"P-24-1",           369,       109.898,       156.134,            0.,NA,NA,"",   5.20014E+06,   5.29795E+06,   5.29795E+06
C:/temp/Job-24.odb,Step-1,Increment      1: Step Time =    1.000,"P-24-1",           370,       104.968,       156.783,            0.,NA,NA,"",   5.14694E+06,   5.24221E+06,   5.24221E+06
C:/temp/Job-24.odb,Step-1,Increment      1: Step Time =    1.000,"P-24-1",           371,          195.,            0.,            0.,NA,NA,"",   993.545E+03,   992.383E+03,   992.383E+03
C:/temp/Job-24.odb,Step-1,Increment      1: Step Time =    1.000,"P-24-1",           372,          185.,            0.,            0.,NA,NA,"",   961.255E+03,   960.969E+03,   960.969E+03
C:/temp/Job-24.odb,Step-1,Increment      1: Step Time =    1.000,"P-24-1",           373,          175.,            0.,            0.,NA,NA,"",   914.790E+03,   913.703E+03,   913.703E+03
C:/temp/Job-24.odb,Step-1,Increment      1: Step Time =    1.000,"P-24-1",           374,          165.,            0.,            0.,NA,NA,"",   838.337E+03,   835.578E+03,   835.578E+03
C:/temp/Job-24.odb,Step-1,Increment      1: Step Time =    1.000,"P-24-1",           375,          155.,            0.,            0.,NA,NA,"",   700.844E+03,   698.066E+03,   698.066E+03
C:/temp/Job-24.odb,Step-1,Increment      1: Step Time =    1.000,"P-24-1",           376,          145.,            0.,            0.,NA,NA,"",   500.063E+03,   496.079E+03,   496.079E+03
C:/temp/Job-24.odb,Step-1,Increment      1: Step Time =    1.000,"P-24-1",           377,          135.,            0.,            0.,NA,NA,"",   271.823E+03,   265.953E+03,   265.953E+03
C:/temp/Job-24.odb,Step-1,Increment      1: Step Time =    1.000,"P-24-1",           378,          125.,            0.,            0.,NA,NA,"",   83.5502E+03,   75.9095E+03,   75.9095E+03
C:/temp/Job-24.odb,Step-1,Increment      1: Step Time =    1.000,"P-24-1",           379,          115.,            0.,            0.,NA,NA,"",   36.0276E+03,   7.16064E+03,   7.16064E+03
C:/temp/Job-24.odb,Step-1,Increment      1: Step Time =    1.000,"P-24-1",           380,          105.,            0.,            0.,NA,NA,"",   166.573E+03,   157.509E+03,   157.509E+03
C:/temp/Job-24.odb,Step-1,Increment      1: Step Time =    1.000,"P-24-1",           381,           95.,            0.,            0.,NA,NA,"",   501.415E+03,   492.729E+03,   492.729E+03
C:/temp/Job-24.odb,Step-1,Increment      1: Step Time =    1.000,"P-24-1",           382,           85.,            0.,            0.,NA,NA,"",   996.383E+03,   989.569E+03,   989.569E+03
C:/temp/Job-24.odb,Step-1,Increment      1: Step Time =    1.000,"P-24-1",           383,           75.,            0.,            0.,NA,NA,"",   1.56077E+06,   1.55387E+06,   1.55387E+06
C:/temp/Job-24.odb,Step-1,Increment      1: Step Time =    1.000,"P-24-1",           384,           65.,            0.,            0.,NA,NA,"",   2.05903E+06,   2.05216E+06,   2.05216E+06
C:/temp/Job-24.odb,Step-1,Increment      1: Step Time =    1.000,"P-24-1",           385,           55.,            0.,            0.,NA,NA,"",   2.43442E+06,   2.42831E+06,   2.42831E+06
C:/temp/Job-24.odb,Step-1,Increment      1: Step Time =    1.000,"P-24-1",           386,           45.,            0.,            0.,NA,NA,"",   2.68252E+06,   2.67835E+06,   2.67835E+06
C:/temp/Job-24.odb,Step-1,Increment      1: Step Time =    1.000,"P-24-1",           387,           35.,            0.,            0.,NA,NA,"",   2.81955E+06,   2.81708E+06,   2.81708E+06
C:/temp/Job-24.odb,Step-1,Increment      1: Step Time =    1.000,"P-24-1",           388,           25.,            0.,            0.,NA,NA,"",   2.87597E+06,   2.87643E+06,   2.87643E+06
C:/temp/Job-24.odb,Step-1,Increment      1: Step Time =    1.000,"P-24-1",           389,           15.,            0.,            0.,NA,NA,"",   2.91971E+06,   2.92794E+06,   2.92794E+06
C:/temp/Job-24.odb,Step-1,Increment      1: Step Time =    1.000,"P-24-1",           390,            5.,            0.,            0.,NA,NA,"",   3.25629E+06,   3.32981E+06,   3.32981E+06
C:/temp/Job-24.odb,Step-1,Increment      1: Step Time =    1.000,"P-24-1",           391,          200.,          195.,            0.,NA,NA,"",   1.00160E+06,   997.891E+03,   997.891E+03
C:/temp/Job-24.odb,Step-1,Increment      1: Step Time =    1.000,"P-24-1",           392,          200.,          185.,            0.,NA,NA,"",   1.01840E+06,   1.00211E+06,   1.00211E+06
C:/temp/Job-24.odb,Step-1,Increment      1: Step Time =    1.000,"P-24-1",           393,          200.,          175.,            0.,NA,NA,"",   1.01926E+06,   1.00736E+06,   1.00736E+06
C:/temp/Job-24.odb,Step-1,Increment      1: Step Time =    1.000,"P-24-1",           394,          200.,          165.,            0.,NA,NA,"",   970.495E+03,   1.01283E+06,   1.01283E+06
C:/temp/Job-24.odb,Step-1,Increment      1: Step Time =    1.000,"P-24-1",           395,          200.,          155.,            0.,NA,NA,"",   903.245E+03,   1.02177E+06,   1.02177E+06
C:/temp/Job-24.odb,Step-1,Increment      1: Step Time =    1.000,"P-24-1",           396,          200.,          145.,            0.,NA,NA,"",   958.845E+03,   1.07458E+06,   1.07458E+06
C:/temp/Job-24.odb,Step-1,Increment      1: Step Time =    1.000,"P-24-1",           397,          200.,          135.,            0.,NA,NA,"",   1.29023E+06,   1.46423E+06,   1.46423E+06
C:/temp/Job-24.odb,Step-1,Increment      1: Step Time =    1.000,"P-24-1",           398,          200.,          125.,            0.,NA,NA,"",   1.79912E+06,   2.07434E+06,   2.07434E+06
C:/temp/Job-24.odb,Step-1,Increment      1: Step Time =    1.000,"P-24-1",           399,          200.,          115.,            0.,NA,NA,"",   2.27781E+06,   2.60299E+06,   2.60299E+06
C:/temp/Job-24.odb,Step-1,Increment      1: Step Time =    1.000,"P-24-1",           400,          200.,          105.,            0.,NA,NA,"",   2.58066E+06,   2.92575E+06,   2.92575E+06
C:/temp/Job-24.odb,Step-1,Increment      1: Step Time =    1.000,"P-24-1",           401,          200.,           95.,            0.,NA,NA,"",   2.57721E+06,   2.92273E+06,   2.92273E+06
C:/temp/Job-24.odb,Step-1,Increment      1: Step Time =    1.000,"P-24-1",           402,          200.,           85.,            0.,NA,NA,"",   2.28307E+06,   2.60857E+06,   2.60857E+06
C:/temp/Job-24.odb,Step-1,Increment      1: Step Time =    1.000,"P-24-1",           403,          200.,           75.,            0.,NA,NA,"",   1.80605E+06,   2.08247E+06,   2.08247E+06
C:/temp/Job-24.odb,Step-1,Increment      1: Step Time =    1.000,"P-24-1",           404,          200.,           65.,            0.,NA,NA,"",   1.29418E+06,   1.47116E+06,   1.47116E+06
C:/temp/Job-24.odb,Step-1,Increment      1: Step Time =    1.000,"P-24-1",           405,          200.,           55.,            0.,NA,NA,"",    963.25E+03,   1.08488E+06,   1.08488E+06
C:/temp/Job-24.odb,Step-1,Increment      1: Step Time =    1.000,"P-24-1",           406,          200.,           45.,            0.,NA,NA,"",   904.273E+03,   1.02418E+06,   1.02418E+06
C:/temp/Job-24.odb,Step-1,Increment      1: Step Time =    1.000,"P-24-1",           407,          200.,           35.,            0.,NA,NA,"",   970.607E+03,   1.01314E+06,   1.01314E+06
C:/temp/Job-24.odb,Step-1,Increment      1: Step Time =    1.000,"P-24-1",           408,          200.,           25.,            0.,NA,NA,"",   1.01775E+06,   1.00739E+06,   1.00739E+06
C:/temp/Job-24.odb,Step-1,Increment      1: Step Time =    1.000,"P-24-1",           409,          200.,           15.,            0.,NA,NA,"",   1.01855E+06,   1.00258E+06,   1.00258E+06
C:/temp/Job-24.odb,Step-1,Increment      1: Step Time =    1.000,"P-24-1",           410,          200.,            5.,            0.,NA,NA,"",   1.00162E+06,   997.803E+03,   997.803E+03
C:/temp/Job-24.odb,Step-1,Increment      1: Step Time =    1.000,"P-24-1",           411,            5.,          200.,            0.,NA,NA,"",   3.25876E+06,   3.33357E+06,   3.33357E+06
C:/temp/Job-24.odb,Step-1,Increment      1: Step Time =    1.000,"P-24-1",           412,           15.,          200.,            0.,NA,NA,"",   2.92123E+06,   2.93019E+06,   2.93019E+06
C:/temp/Job-24.odb,Step-1,Increment      1: Step Time =    1.000,"P-24-1",           413,           25.,          200.,            0.,NA,NA,"",   2.87432E+06,   2.87470E+06,   2.87470E+06
C:/temp/Job-24.odb,Step-1,Increment      1: Step Time =    1.000,"P-24-1",           414,           35.,          200.,            0.,NA,NA,"",   2.81801E+06,   2.81581E+06,   2.81581E+06
C:/temp/Job-24.odb,Step-1,Increment      1: Step Time =    1.000,"P-24-1",           415,           45.,          200.,            0.,NA,NA,"",   2.69423E+06,   2.69071E+06,   2.69071E+06
C:/temp/Job-24.odb,Step-1,Increment      1: Step Time =    1.000,"P-24-1",           416,           55.,          200.,            0.,NA,NA,"",   2.44585E+06,   2.44116E+06,   2.44116E+06
C:/temp/Job-24.odb,Step-1,Increment      1: Step Time =    1.000,"P-24-1",           417,           65.,          200.,            0.,NA,NA,"",   2.06418E+06,   2.05681E+06,   2.05681E+06
C:/temp/Job-24.odb,Step-1,Increment      1: Step Time =    1.000,"P-24-1",           418,           75.,          200.,            0.,NA,NA,"",   1.56271E+06,   1.55413E+06,   1.55413E+06
C:/temp/Job-24.odb,Step-1,Increment      1: Step Time =    1.000,"P-24-1",           419,           85.,          200.,            0.,NA,NA,"",   1.00868E+06,   999.985E+03,   999.985E+03
C:/temp/Job-24.odb,Step-1,Increment      1: Step Time =    1.000,"P-24-1",           420,           95.,          200.,            0.,NA,NA,"",   499.535E+03,   492.175E+03,   492.175E+03
C:/temp/Job-24.odb,Step-1,Increment      1: Step Time =    1.000,"P-24-1",           421,          105.,          200.,            0.,NA,NA,"",   149.288E+03,   140.614E+03,   140.614E+03
C:/temp/Job-24.odb,Step-1,Increment      1: Step Time =    1.000,"P-24-1",           422,          115.,          200.,            0.,NA,NA,"",   36.8093E+03,  -25.0143E+03,  -25.0143E+03
C:/temp/Job-24.odb,Step-1,Increment      1: Step Time =    1.000,"P-24-1",           423,          125.,          200.,            0.,NA,NA,"",   87.0686E+03,   77.3372E+03,   77.3372E+03
C:/temp/Job-24.odb,Step-1,Increment      1: Step Time =    1.000,"P-24-1",           424,          135.,          200.,            0.,NA,NA,"",   274.202E+03,    268.22E+03,    268.22E+03
C:/temp/Job-24.odb,Step-1,Increment      1: Step Time =    1.000,"P-24-1",           425,          145.,          200.,            0.,NA,NA,"",   501.978E+03,   497.297E+03,   497.297E+03
C:/temp/Job-24.odb,Step-1,Increment      1: Step Time =    1.000,"P-24-1",           426,          155.,          200.,            0.,NA,NA,"",   703.776E+03,   699.929E+03,   699.929E+03
C:/temp/Job-24.odb,Step-1,Increment      1: Step Time =    1.000,"P-24-1",           427,          165.,          200.,            0.,NA,NA,"",   841.331E+03,   838.817E+03,   838.817E+03
C:/temp/Job-24.odb,Step-1,Increment      1: Step Time =    1.000,"P-24-1",           428,          175.,          200.,            0.,NA,NA,"",   916.765E+03,   915.784E+03,   915.784E+03
C:/temp/Job-24.odb,Step-1,Increment      1: Step Time =    1.000,"P-24-1",           429,          185.,          200.,            0.,NA,NA,"",   961.930E+03,   961.629E+03,   961.629E+03
C:/temp/Job-24.odb,Step-1,Increment      1: Step Time =    1.000,"P-24-1",           430,          195.,          200.,            0.,NA,NA,"",   993.683E+03,   992.502E+03,   992.502E+03
C:/temp/Job-24.odb,Step-1,Increment      1: Step Time =    1.000,"P-24-1",           431,            0.,            5.,            0.,NA,NA,"",   3.01242E+06,   3.21892E+06,   3.21892E+06
C:/temp/Job-24.odb,Step-1,Increment      1: Step Time =    1.000,"P-24-1",           432,            0.,           15.,            0.,NA,NA,"",   2.11589E+06,   2.34093E+06,   2.34093E+06
C:/temp/Job-24.odb,Step-1,Increment      1: Step Time =    1.000,"P-24-1",           433,            0.,           25.,            0.,NA,NA,"",   1.63498E+06,   1.82401E+06,   1.82401E+06
C:/temp/Job-24.odb,Step-1,Increment      1: Step Time =    1.000,"P-24-1",           434,            0.,           35.,            0.,NA,NA,"",   1.21390E+06,   1.35638E+06,   1.35638E+06
C:/temp/Job-24.odb,Step-1,Increment      1: Step Time =    1.000,"P-24-1",           435,            0.,           45.,            0.,NA,NA,"",   858.979E+03,   957.595E+03,   957.595E+03
C:/temp/Job-24.odb,Step-1,Increment      1: Step Time =    1.000,"P-24-1",           436,            0.,           55.,            0.,NA,NA,"",   541.564E+03,   595.482E+03,   595.482E+03
C:/temp/Job-24.odb,Step-1,Increment      1: Step Time =    1.000,"P-24-1",           437,            0.,           65.,            0.,NA,NA,"",   292.388E+03,   300.803E+03,   300.803E+03
C:/temp/Job-24.odb,Step-1,Increment      1: Step Time =    1.000,"P-24-1",           438,            0.,           75.,            0.,NA,NA,"",   162.039E+03,   6.14842E+03,   6.14842E+03
C:/temp/Job-24.odb,Step-1,Increment      1: Step Time =    1.000,"P-24-1",           439,            0.,           85.,            0.,NA,NA,"",   184.313E+03,  -192.010E+03,  -192.010E+03
C:/temp/Job-24.odb,Step-1,Increment      1: Step Time =    1.000,"P-24-1",           440,            0.,           95.,            0.,NA,NA,"",   227.424E+03,  -251.238E+03,  -251.238E+03
C:/temp/Job-24.odb,Step-1,Increment      1: Step Time =    1.000,"P-24-1",           441,            0.,          105.,            0.,NA,NA,"",   226.402E+03,  -250.332E+03,  -250.332E+03
C:/temp/Job-24.odb,Step-1,Increment      1: Step Time =    1.000,"P-24-1",           442,            0.,          115.,            0.,NA,NA,"",   180.580E+03,  -188.018E+03,  -188.018E+03
C:/temp/Job-24.odb,Step-1,Increment      1: Step Time =    1.000,"P-24-1",           443,            0.,          125.,            0.,NA,NA,"",   158.684E+03,   7.94333E+03,   7.94333E+03
C:/temp/Job-24.odb,Step-1,Increment      1: Step Time =    1.000,"P-24-1",           444,            0.,          135.,            0.,NA,NA,"",   290.456E+03,   299.749E+03,   299.749E+03
C:/temp/Job-24.odb,Step-1,Increment      1: Step Time =    1.000,"P-24-1",           445,            0.,          145.,            0.,NA,NA,"",   544.123E+03,   599.093E+03,   599.093E+03
C:/temp/Job-24.odb,Step-1,Increment      1: Step Time =    1.000,"P-24-1",           446,            0.,          155.,            0.,NA,NA,"",   858.157E+03,   957.772E+03,   957.772E+03
C:/temp/Job-24.odb,Step-1,Increment      1: Step Time =    1.000,"P-24-1",           447,            0.,          165.,            0.,NA,NA,"",   1.21516E+06,   1.36024E+06,   1.36024E+06
C:/temp/Job-24.odb,Step-1,Increment      1: Step Time =    1.000,"P-24-1",           448,            0.,          175.,            0.,NA,NA,"",   1.62913E+06,   1.81881E+06,   1.81881E+06
C:/temp/Job-24.odb,Step-1,Increment      1: Step Time =    1.000,"P-24-1",           449,            0.,          185.,            0.,NA,NA,"",   2.11438E+06,   2.34104E+06,   2.34104E+06
C:/temp/Job-24.odb,Step-1,Increment      1: Step Time =    1.000,"P-24-1",           450,            0.,          195.,            0.,NA,NA,"",   3.01109E+06,   3.21956E+06,   3.21956E+06
C:/temp/Job-24.odb,Step-1,Increment      1: Step Time =    1.000,"P-24-1",           451,       52.5129,       56.7810,            0.,NA,NA,"",   736.785E+03,  -230.783E+03,  -230.783E+03
C:/temp/Job-24.odb,Step-1,Increment      1: Step Time =    1.000,"P-24-1",           452,       134.755,       48.9011,            0.,NA,NA,"",   3.18353E+06,   3.24349E+06,   3.24349E+06
C:/temp/Job-24.odb,Step-1,Increment      1: Step Time =    1.000,"P-24-1",           453,       47.1649,       129.646,            0.,NA,NA,"",   934.657E+03,  -951.572E+03,  -951.572E+03
C:/temp/Job-24.odb,Step-1,Increment      1: Step Time =    1.000,"P-24-1",           454,       152.032,       136.731,            0.,NA,NA,"",   1.45114E+06,   1.22379E+06,   1.22379E+06
C:/temp/Job-24.odb,Step-1,Increment      1: Step Time =    1.000,"P-24-1",           455,       133.949,       150.518,            0.,NA,NA,"",    3.2752E+06,   3.33227E+06,   3.33227E+06
C:/temp/Job-24.odb,Step-1,Increment      1: Step Time =    1.000,"P-24-1",           456,       48.6664,       65.1757,            0.,NA,NA,"",   784.803E+03,  -774.543E+03,  -774.543E+03
C:/temp/Job-24.odb,Step-1,Increment      1: Step Time =    1.000,"P-24-1",           457,       70.0009,       46.5661,            0.,NA,NA,"",   1.56947E+06,   1.52987E+06,   1.52987E+06
C:/temp/Job-24.odb,Step-1,Increment      1: Step Time =    1.000,"P-24-1",           458,       65.1600,       151.143,            0.,NA,NA,"",   1.12984E+06,   1.02265E+06,   1.02265E+06
C:/temp/Job-24.odb,Step-1,Increment      1: Step Time =    1.000,"P-24-1",           459,       152.886,       70.1144,            0.,NA,NA,"",   887.009E+03,  -10.8704E+03,  -10.8704E+03
C:/temp/Job-24.odb,Step-1,Increment      1: Step Time =    1.000,"P-24-1",           460,       56.6627,       147.359,            0.,NA,NA,"",   878.885E+03,   262.447E+03,   262.447E+03
C:/temp/Job-24.odb,Step-1,Increment      1: Step Time =    1.000,"P-24-1",           461,       144.325,       143.573,            0.,NA,NA,"",   2.10217E+06,   2.07168E+06,   2.07168E+06
C:/temp/Job-24.odb,Step-1,Increment      1: Step Time =    1.000,"P-24-1",           462,       57.3050,       46.7772,            0.,NA,NA,"",   1.44865E+06,   1.18652E+06,   1.18652E+06
C:/temp/Job-24.odb,Step-1,Increment      1: Step Time =    1.000,"P-24-1",           463,       69.6242,       153.256,            0.,NA,NA,"",   1.53528E+06,   1.48254E+06,   1.48254E+06
C:/temp/Job-24.odb,Step-1,Increment      1: Step Time =    1.000,"P-24-1",           464,       153.993,       130.953,            0.,NA,NA,"",   1.08004E+06,   112.404E+03,   112.404E+03
C:/temp/Job-24.odb,Step-1,Increment      1: Step Time =    1.000,"P-24-1",           465,       130.165,       153.205,            0.,NA,NA,"",   3.66342E+06,   3.74905E+06,   3.74905E+06
C:/temp/Job-24.odb,Step-1,Increment      1: Step Time =    1.000,"P-24-1",           466,       105.684,       38.3887,            0.,NA,NA,"",   4.56493E+06,   4.70328E+06,   4.70328E+06
C:/temp/Job-24.odb,Step-1,Increment      1: Step Time =    1.000,"P-24-1",           467,       39.3161,       89.0431,            0.,NA,NA,"",   764.543E+03,  -795.607E+03,  -795.607E+03
C:/temp/Job-24.odb,Step-1,Increment      1: Step Time =    1.000,"P-24-1",           468,       46.4442,       69.6006,            0.,NA,NA,"",   863.135E+03,  -875.601E+03,  -875.601E+03
C:/temp/Job-24.odb,Step-1,Increment      1: Step Time =    1.000,"P-24-1",           469,       121.158,       42.6395,            0.,NA,NA,"",   4.38963E+06,   4.50484E+06,   4.50484E+06
C:/temp/Job-24.odb,Step-1,Increment      1: Step Time =    1.000,"P-24-1",           470,       40.9762,       115.246,            0.,NA,NA,"",   848.066E+03,  -873.886E+03,  -873.886E+03
C:/temp/Job-24.odb,Step-1,Increment      1: Step Time =    1.000,"P-24-1",           471,       84.7117,       40.8321,            0.,NA,NA,"",   3.31253E+06,   3.36100E+06,   3.36100E+06
C:/temp/Job-24.odb,Step-1,Increment      1: Step Time =    1.000,"P-24-1",           472,       39.7798,       110.259,            0.,NA,NA,"",   785.311E+03,  -813.518E+03,  -813.518E+03
C:/temp/Job-24.odb,Step-1,Increment      1: Step Time =    1.000,"P-24-1",           473,       44.0992,       125.074,            0.,NA,NA,"",   883.149E+03,  -907.880E+03,  -907.880E+03
C:/temp/Job-24.odb,Step-1,Increment      1: Step Time =    1.000,"P-24-1",           474,       158.720,       84.3960,            0.,NA,NA,"",   1.81147E+06,  -1.79601E+06,  -1.79601E+06
C:/temp/Job-24.odb,Step-1,Increment      1: Step Time =    1.000,"P-24-1",           475,       160.856,       94.1957,            0.,NA,NA,"",   2.23700E+06,  -2.27164E+06,  -2.27164E+06
C:/temp/Job-24.odb,Step-1,Increment      1: Step Time =    1.000,"P-24-1",           476,       159.625,       116.284,            0.,NA,NA,"",   1.69060E+06,  -1.65106E+06,  -1.65106E+06
C:/temp/Job-24.odb,Step-1,Increment      1: Step Time =    1.000,"P-24-1",           477,       89.6777,       39.7259,            0.,NA,NA,"",   3.80775E+06,   3.88329E+06,   3.88329E+06
C:/temp/Job-24.odb,Step-1,Increment      1: Step Time =    1.000,"P-24-1",           478,       116.162,       160.001,            0.,NA,NA,"",   4.42030E+06,   4.55971E+06,   4.55971E+06
C:/temp/Job-24.odb,Step-1,Increment      1: Step Time =    1.000,"P-24-1",           479,       151.643,       57.3547,            0.,NA,NA,"",   1.96131E+06,   1.74811E+06,   1.74811E+06
C:/temp/Job-24.odb,Step-1,Increment      1: Step Time =    1.000,"P-24-1",           480,       155.665,       74.6341,            0.,NA,NA,"",   1.10712E+06,  -904.019E+03,  -904.019E+03
C:/temp/Job-24.odb,Step-1,Increment      1: Step Time =    1.000,"P-24-1",           481,       38.4288,       99.7767,            0.,NA,NA,"",   708.138E+03,  -741.925E+03,  -741.925E+03
C:/temp/Job-24.odb,Step-1,Increment      1: Step Time =    1.000,"P-24-1",           482,       100.144,       38.3153,            0.,NA,NA,"",   4.44891E+06,   4.57123E+06,   4.57123E+06
C:/temp/Job-24.odb,Step-1,Increment      1: Step Time =    1.000,"P-24-1",           483,       162.283,       110.687,            0.,NA,NA,"",   1.74264E+06,  -1.73148E+06,  -1.73148E+06
C:/temp/Job-24.odb,Step-1,Increment      1: Step Time =    1.000,"P-24-1",           484,       161.336,       99.3225,            0.,NA,NA,"",   2.27038E+06,  -2.30803E+06,  -2.30803E+06
C:/temp/Job-24.odb,Step-1,Increment      1: Step Time =    1.000,"P-24-1",           485,       110.902,       161.601,            0.,NA,NA,"",   4.46411E+06,   4.61087E+06,   4.61087E+06
C:/temp/Job-24.odb,Step-1,Increment      1: Step Time =    1.000,"P-24-1",           486,       111.182,       39.0501,            0.,NA,NA,"",   4.59139E+06,   4.73281E+06,   4.73281E+06
C:/temp/Job-24.odb,Step-1,Increment      1: Step Time =    1.000,"P-24-1",           487,       38.6599,       94.4178,            0.,NA,NA,"",   720.416E+03,  -753.867E+03,  -753.867E+03
C:/temp/Job-24.odb,Step-1,Increment      1: Step Time =    1.000,"P-24-1",           488,       161.704,       104.616,            0.,NA,NA,"",   2.11165E+06,  -2.14641E+06,  -2.14641E+06
C:/temp/Job-24.odb,Step-1,Increment      1: Step Time =    1.000,"P-24-1",           489,       130.374,       46.7041,            0.,NA,NA,"",   3.65098E+06,   3.73443E+06,   3.73443E+06
C:/temp/Job-24.odb,Step-1,Increment      1: Step Time =    1.000,"P-24-1",           490,       160.013,       89.1910,            0.,NA,NA,"",   2.07706E+06,   -2.0947E+06,   -2.0947E+06
C:/temp/Job-24.odb,Step-1,Increment      1: Step Time =    1.000,"P-24-1",           491,       116.269,       40.7212,            0.,NA,NA,"",   4.55313E+06,   4.68327E+06,   4.68327E+06
C:/temp/Job-24.odb,Step-1,Increment      1: Step Time =    1.000,"P-24-1",           492,       157.638,       121.146,            0.,NA,NA,"",   1.39843E+06,  -1.29426E+06,  -1.29426E+06
C:/temp/Job-24.odb,Step-1,Increment      1: Step Time =    1.000,"P-24-1",           493,       121.185,       158.012,            0.,NA,NA,"",   4.27535E+06,   4.40018E+06,   4.40018E+06
C:/temp/Job-24.odb,Step-1,Increment      1: Step Time =    1.000,"P-24-1",           494,       42.4495,       78.9674,            0.,NA,NA,"",   880.374E+03,  -904.541E+03,  -904.541E+03
C:/temp/Job-24.odb,Step-1,Increment      1: Step Time =    1.000,"P-24-1",           495,       94.2217,       161.729,            0.,NA,NA,"",   4.05060E+06,   4.15257E+06,   4.15257E+06
C:/temp/Job-24.odb,Step-1,Increment      1: Step Time =    1.000,"P-24-1",           496,       74.6116,       43.3500,            0.,NA,NA,"",   2.17580E+06,   2.15074E+06,   2.15074E+06
C:/temp/Job-24.odb,Step-1,Increment      1: Step Time =    1.000,"P-24-1",           497,       142.994,       52.6795,            0.,NA,NA,"",   2.35894E+06,   2.33973E+06,   2.33973E+06
C:/temp/Job-24.odb,Step-1,Increment      1: Step Time =    1.000,"P-24-1",           498,       40.7527,       83.9147,            0.,NA,NA,"",   826.704E+03,  -854.132E+03,  -854.132E+03
C:/temp/Job-24.odb,Step-1,Increment      1: Step Time =    1.000,"P-24-1",           499,       45.9786,       142.065,            0.,NA,NA,"",   697.019E+03,  -225.781E+03,  -225.781E+03
C:/temp/Job-24.odb,Step-1,Increment      1: Step Time =    1.000,"P-24-1",           500,       38.9128,       105.088,            0.,NA,NA,"",   732.994E+03,  -764.728E+03,  -764.728E+03
C:/temp/Job-24.odb,Step-1,Increment      1: Step Time =    1.000,"P-24-1",           501,       94.8189,       38.8949,            0.,NA,NA,"",   4.19929E+06,   4.29871E+06,   4.29871E+06
C:/temp/Job-24.odb,Step-1,Increment      1: Step Time =    1.000,"P-24-1",           502,       78.8773,       157.251,            0.,NA,NA,"",   2.63044E+06,   2.64708E+06,   2.64708E+06
C:/temp/Job-24.odb,Step-1,Increment      1: Step Time =    1.000,"P-24-1",           503,       105.387,       162.182,            0.,NA,NA,"",   4.44374E+06,   4.58409E+06,   4.58409E+06
C:/temp/Job-24.odb,Step-1,Increment      1: Step Time =    1.000,"P-24-1",           504,       141.715,       147.002,            0.,NA,NA,"",   2.44092E+06,   2.44970E+06,   2.44970E+06
C:/temp/Job-24.odb,Step-1,Increment      1: Step Time =    1.000,"P-24-1",           505,       99.8130,       162.277,            0.,NA,NA,"",   4.32019E+06,   4.44586E+06,   4.44586E+06
C:/temp/Job-24.odb,Step-1,Increment      1: Step Time =    1.000,"P-24-1",           506,       124.867,       194.993,            0.,NA,NA,"",   329.955E+03,   330.744E+03,   330.744E+03
C:/temp/Job-24.odb,Step-1,Increment      1: Step Time =    1.000,"P-24-1",           507,       194.942,       125.444,            0.,NA,NA,"",   1.66798E+06,   1.92041E+06,   1.92041E+06
C:/temp/Job-24.odb,Step-1,Increment      1: Step Time =    1.000,"P-24-1",           508,       195.383,       135.280,            0.,NA,NA,"",   1.28996E+06,   1.47503E+06,   1.47503E+06
C:/temp/Job-24.odb,Step-1,Increment      1: Step Time =    1.000,"P-24-1",           509,       134.751,       194.977,            0.,NA,NA,"",   481.836E+03,   473.499E+03,   473.499E+03
C:/temp/Job-24.odb,Step-1,Increment      1: Step Time =    1.000,"P-24-1",           510,       194.858,       95.0512,            0.,NA,NA,"",   2.22955E+06,   2.54209E+06,   2.54209E+06
C:/temp/Job-24.odb,Step-1,Increment      1: Step Time =    1.000,"P-24-1",           511,       135.029,       4.83958,            0.,NA,NA,"",   473.668E+03,   465.319E+03,   465.319E+03
C:/temp/Job-24.odb,Step-1,Increment      1: Step Time =    1.000,"P-24-1",           512,       144.924,       4.72592,            0.,NA,NA,"",   645.994E+03,   634.497E+03,   634.497E+03
C:/temp/Job-24.odb,Step-1,Increment      1: Step Time =    1.000,"P-24-1",           513,       154.632,       4.66289,            0.,NA,NA,"",   794.733E+03,   785.577E+03,   785.577E+03
C:/temp/Job-24.odb,Step-1,Increment      1: Step Time =    1.000,"P-24-1",           514,       104.803,       5.15041,            0.,NA,NA,"",   459.352E+03,   458.411E+03,   458.411E+03
C:/temp/Job-24.odb,Step-1,Increment      1: Step Time =    1.000,"P-24-1",           515,       114.919,       5.09128,            0.,NA,NA,"",   292.167E+03,   291.610E+03,   291.610E+03
C:/temp/Job-24.odb,Step-1,Increment      1: Step Time =    1.000,"P-24-1",           516,       94.7873,       4.93162,            0.,NA,NA,"",   778.367E+03,   762.748E+03,   762.748E+03
C:/temp/Job-24.odb,Step-1,Increment      1: Step Time =    1.000,"P-24-1",           517,       84.9110,       4.70083,            0.,NA,NA,"",   1.20718E+06,   1.18265E+06,   1.18265E+06
C:/temp/Job-24.odb,Step-1,Increment      1: Step Time =    1.000,"P-24-1",           518,       75.0394,       4.84695,            0.,NA,NA,"",   1.67815E+06,   1.65105E+06,   1.65105E+06
C:/temp/Job-24.odb,Step-1,Increment      1: Step Time =    1.000,"P-24-1",           519,       4.98091,       125.131,            0.,NA,NA,"",   138.464E+03,   5.67473E+03,   5.67473E+03
C:/temp/Job-24.odb,Step-1,Increment      1: Step Time =    1.000,"P-24-1",           520,       64.9235,       195.165,            0.,NA,NA,"",   2.09367E+06,   2.06983E+06,   2.06983E+06
C:/temp/Job-24.odb,Step-1,Increment      1: Step Time =    1.000,"P-24-1",           521,       55.1465,       195.448,            0.,NA,NA,"",   2.40685E+06,   2.39082E+06,   2.39082E+06
C:/temp/Job-24.odb,Step-1,Increment      1: Step Time =    1.000,"P-24-1",           522,       45.3303,       195.175,            0.,NA,NA,"",   2.60925E+06,   2.59750E+06,   2.59750E+06
C:/temp/Job-24.odb,Step-1,Increment      1: Step Time =    1.000,"P-24-1",           523,       5.23051,       105.210,            0.,NA,NA,"",   233.380E+03,  -255.589E+03,  -255.589E+03
C:/temp/Job-24.odb,Step-1,Increment      1: Step Time =    1.000,"P-24-1",           524,       4.64131,       75.0547,            0.,NA,NA,"",   143.678E+03,   3.08394E+03,   3.08394E+03
C:/temp/Job-24.odb,Step-1,Increment      1: Step Time =    1.000,"P-24-1",           525,       4.33444,       65.2644,            0.,NA,NA,"",   268.083E+03,   281.840E+03,   281.840E+03
C:/temp/Job-24.odb,Step-1,Increment      1: Step Time =    1.000,"P-24-1",           526,       65.1327,       5.21794,            0.,NA,NA,"",   2.08901E+06,   2.06328E+06,   2.06328E+06
C:/temp/Job-24.odb,Step-1,Increment      1: Step Time =    1.000,"P-24-1",           527,       74.8904,       194.951,            0.,NA,NA,"",   1.69528E+06,   1.66532E+06,   1.66532E+06
C:/temp/Job-24.odb,Step-1,Increment      1: Step Time =    1.000,"P-24-1",           528,       85.1051,       194.883,            0.,NA,NA,"",   1.22529E+06,   1.19898E+06,   1.19898E+06
C:/temp/Job-24.odb,Step-1,Increment      1: Step Time =    1.000,"P-24-1",           529,       95.2485,       195.163,            0.,NA,NA,"",   758.921E+03,   744.659E+03,   744.659E+03
C:/temp/Job-24.odb,Step-1,Increment      1: Step Time =    1.000,"P-24-1",           530,       5.37270,       10.1735,            0.,NA,NA,"",   2.54025E+06,   2.71720E+06,   2.71720E+06
C:/temp/Job-24.odb,Step-1,Increment      1: Step Time =    1.000,"P-24-1",           531,       5.67270,       15.3312,            0.,NA,NA,"",   2.18938E+06,   2.37414E+06,   2.37414E+06
C:/temp/Job-24.odb,Step-1,Increment      1: Step Time =    1.000,"P-24-1",           532,       5.71967,       25.5615,            0.,NA,NA,"",   1.67077E+06,   1.83456E+06,   1.83456E+06
C:/temp/Job-24.odb,Step-1,Increment      1: Step Time =    1.000,"P-24-1",           533,       5.48790,       35.9021,            0.,NA,NA,"",   1.22699E+06,   1.35548E+06,   1.35548E+06
C:/temp/Job-24.odb,Step-1,Increment      1: Step Time =    1.000,"P-24-1",           534,       5.03134,       45.8398,            0.,NA,NA,"",   847.562E+03,   938.098E+03,   938.098E+03
C:/temp/Job-24.odb,Step-1,Increment      1: Step Time =    1.000,"P-24-1",           535,       4.39176,       55.5762,            0.,NA,NA,"",   523.790E+03,   576.862E+03,   576.862E+03
C:/temp/Job-24.odb,Step-1,Increment      1: Step Time =    1.000,"P-24-1",           536,       15.3170,       5.02520,            0.,NA,NA,"",   2.84282E+06,   2.85531E+06,   2.85531E+06
C:/temp/Job-24.odb,Step-1,Increment      1: Step Time =    1.000,"P-24-1",           537,       25.3918,       4.97044,            0.,NA,NA,"",   2.78612E+06,   2.78450E+06,   2.78450E+06
C:/temp/Job-24.odb,Step-1,Increment      1: Step Time =    1.000,"P-24-1",           538,       35.4593,       5.04575,            0.,NA,NA,"",   2.72286E+06,   2.71432E+06,   2.71432E+06
C:/temp/Job-24.odb,Step-1,Increment      1: Step Time =    1.000,"P-24-1",           539,       45.3739,       5.25001,            0.,NA,NA,"",   2.59838E+06,   2.58402E+06,   2.58402E+06
C:/temp/Job-24.odb,Step-1,Increment      1: Step Time =    1.000,"P-24-1",           540,       55.2099,       5.36734,            0.,NA,NA,"",   2.39325E+06,   2.37224E+06,   2.37224E+06
C:/temp/Job-24.odb,Step-1,Increment      1: Step Time =    1.000,"P-24-1",           541,       124.972,       4.94238,            0.,NA,NA,"",   320.672E+03,   322.171E+03,   322.171E+03
C:/temp/Job-24.odb,Step-1,Increment      1: Step Time =    1.000,"P-24-1",           542,       164.520,       5.01482,            0.,NA,NA,"",   898.769E+03,   891.298E+03,   891.298E+03
C:/temp/Job-24.odb,Step-1,Increment      1: Step Time =    1.000,"P-24-1",           543,       174.673,       4.98648,            0.,NA,NA,"",   948.050E+03,   944.966E+03,   944.966E+03
C:/temp/Job-24.odb,Step-1,Increment      1: Step Time =    1.000,"P-24-1",           544,       184.778,       5.11168,            0.,NA,NA,"",   975.984E+03,   975.099E+03,   975.099E+03
C:/temp/Job-24.odb,Step-1,Increment      1: Step Time =    1.000,"P-24-1",           545,       195.167,       55.1591,            0.,NA,NA,"",   1.03790E+06,   1.17727E+06,   1.17727E+06
C:/temp/Job-24.odb,Step-1,Increment      1: Step Time =    1.000,"P-24-1",           546,       195.197,       65.0161,            0.,NA,NA,"",   1.30001E+06,   1.48692E+06,   1.48692E+06
C:/temp/Job-24.odb,Step-1,Increment      1: Step Time =    1.000,"P-24-1",           547,       195.014,       74.9668,            0.,NA,NA,"",   1.68159E+06,   1.93623E+06,   1.93623E+06
C:/temp/Job-24.odb,Step-1,Increment      1: Step Time =    1.000,"P-24-1",           548,       194.822,       85.0309,            0.,NA,NA,"",   2.02067E+06,   2.31446E+06,   2.31446E+06
C:/temp/Job-24.odb,Step-1,Increment      1: Step Time =    1.000,"P-24-1",           549,       194.876,       5.10366,            0.,NA,NA,"",   997.455E+03,   994.460E+03,   994.460E+03
C:/temp/Job-24.odb,Step-1,Increment      1: Step Time =    1.000,"P-24-1",           550,       194.677,       15.2805,            0.,NA,NA,"",   1.01800E+06,   1.00814E+06,   1.00814E+06
C:/temp/Job-24.odb,Step-1,Increment      1: Step Time =    1.000,"P-24-1",           551,       194.757,       25.4329,            0.,NA,NA,"",   1.02355E+06,   1.02361E+06,   1.02361E+06
C:/temp/Job-24.odb,Step-1,Increment      1: Step Time =    1.000,"P-24-1",           552,       194.881,       35.4802,            0.,NA,NA,"",   996.282E+03,   1.04356E+06,   1.04356E+06
C:/temp/Job-24.odb,Step-1,Increment      1: Step Time =    1.000,"P-24-1",           553,       194.996,       45.3496,            0.,NA,NA,"",   968.813E+03,   1.08253E+06,   1.08253E+06
C:/temp/Job-24.odb,Step-1,Increment      1: Step Time =    1.000,"P-24-1",           554,       194.753,       105.179,            0.,NA,NA,"",   2.22271E+06,   2.53321E+06,   2.53321E+06
C:/temp/Job-24.odb,Step-1,Increment      1: Step Time =    1.000,"P-24-1",           555,       194.585,       115.321,            0.,NA,NA,"",   2.00471E+06,   2.29593E+06,   2.29593E+06
C:/temp/Job-24.odb,Step-1,Increment      1: Step Time =    1.000,"P-24-1",           556,       195.682,       144.903,            0.,NA,NA,"",   1.01902E+06,   1.15683E+06,   1.15683E+06
C:/temp/Job-24.odb,Step-1,Increment      1: Step Time =    1.000,"P-24-1",           557,       195.260,       154.634,            0.,NA,NA,"",   963.488E+03,   1.07761E+06,   1.07761E+06
C:/temp/Job-24.odb,Step-1,Increment      1: Step Time =    1.000,"P-24-1",           558,       144.639,       194.950,            0.,NA,NA,"",   657.290E+03,   645.751E+03,   645.751E+03
C:/temp/Job-24.odb,Step-1,Increment      1: Step Time =    1.000,"P-24-1",           559,       194.780,       164.594,            0.,NA,NA,"",   999.915E+03,   1.04547E+06,   1.04547E+06
C:/temp/Job-24.odb,Step-1,Increment      1: Step Time =    1.000,"P-24-1",           560,       154.654,       195.066,            0.,NA,NA,"",   802.763E+03,   792.009E+03,   792.009E+03
C:/temp/Job-24.odb,Step-1,Increment      1: Step Time =    1.000,"P-24-1",           561,       195.057,       174.855,            0.,NA,NA,"",   1.02210E+06,   1.02040E+06,   1.02040E+06
C:/temp/Job-24.odb,Step-1,Increment      1: Step Time =    1.000,"P-24-1",           562,       164.616,       195.138,            0.,NA,NA,"",   898.092E+03,   890.974E+03,   890.974E+03
C:/temp/Job-24.odb,Step-1,Increment      1: Step Time =    1.000,"P-24-1",           563,       194.967,       184.882,            0.,NA,NA,"",   1.01668E+06,   1.00633E+06,   1.00633E+06
C:/temp/Job-24.odb,Step-1,Increment      1: Step Time =    1.000,"P-24-1",           564,       174.659,       194.911,            0.,NA,NA,"",   950.252E+03,   947.242E+03,   947.242E+03
C:/temp/Job-24.odb,Step-1,Increment      1: Step Time =    1.000,"P-24-1",           565,       194.923,       194.907,            0.,NA,NA,"",   997.663E+03,   994.679E+03,   994.679E+03
C:/temp/Job-24.odb,Step-1,Increment      1: Step Time =    1.000,"P-24-1",           566,       184.765,       194.741,            0.,NA,NA,"",   977.447E+03,   976.518E+03,   976.518E+03
C:/temp/Job-24.odb,Step-1,Increment      1: Step Time =    1.000,"P-24-1",           567,       105.195,       195.172,            0.,NA,NA,"",   422.702E+03,   422.185E+03,   422.185E+03
C:/temp/Job-24.odb,Step-1,Increment      1: Step Time =    1.000,"P-24-1",           568,       115.008,       194.958,            0.,NA,NA,"",   288.007E+03,   270.595E+03,   270.595E+03
C:/temp/Job-24.odb,Step-1,Increment      1: Step Time =    1.000,"P-24-1",           569,       35.2962,       194.786,            0.,NA,NA,"",   2.71735E+06,   2.70941E+06,   2.70941E+06
C:/temp/Job-24.odb,Step-1,Increment      1: Step Time =    1.000,"P-24-1",           570,       25.2495,       194.782,            0.,NA,NA,"",   2.77947E+06,   2.77816E+06,   2.77816E+06
C:/temp/Job-24.odb,Step-1,Increment      1: Step Time =    1.000,"P-24-1",           571,       15.2532,       194.789,            0.,NA,NA,"",   2.84008E+06,   2.85326E+06,   2.85326E+06
C:/temp/Job-24.odb,Step-1,Increment      1: Step Time =    1.000,"P-24-1",           572,       5.13049,       194.897,            0.,NA,NA,"",   3.00542E+06,   3.12627E+06,   3.12627E+06
C:/temp/Job-24.odb,Step-1,Increment      1: Step Time =    1.000,"P-24-1",           573,       5.40998,       184.659,            0.,NA,NA,"",   2.18101E+06,   2.36961E+06,   2.36961E+06
C:/temp/Job-24.odb,Step-1,Increment      1: Step Time =    1.000,"P-24-1",           574,       5.31466,       174.338,            0.,NA,NA,"",   1.65914E+06,   1.82594E+06,   1.82594E+06
C:/temp/Job-24.odb,Step-1,Increment      1: Step Time =    1.000,"P-24-1",           575,       4.87405,       164.347,            0.,NA,NA,"",   1.22747E+06,   1.36025E+06,   1.36025E+06
C:/temp/Job-24.odb,Step-1,Increment      1: Step Time =    1.000,"P-24-1",           576,       4.79338,       154.528,            0.,NA,NA,"",   856.946E+03,   950.680E+03,   950.680E+03
C:/temp/Job-24.odb,Step-1,Increment      1: Step Time =    1.000,"P-24-1",           577,       4.77347,       144.724,            0.,NA,NA,"",   531.218E+03,   585.646E+03,   585.646E+03
C:/temp/Job-24.odb,Step-1,Increment      1: Step Time =    1.000,"P-24-1",           578,       4.82713,       134.913,            0.,NA,NA,"",   266.302E+03,   281.091E+03,   281.091E+03
C:/temp/Job-24.odb,Step-1,Increment      1: Step Time =    1.000,"P-24-1",           579,       5.17268,       84.9939,            0.,NA,NA,"",   186.376E+03,  -193.491E+03,  -193.491E+03
C:/temp/Job-24.odb,Step-1,Increment      1: Step Time =    1.000,"P-24-1",           580,       5.32218,       95.0570,            0.,NA,NA,"",   235.113E+03,  -257.451E+03,  -257.451E+03
C:/temp/Job-24.odb,Step-1,Increment      1: Step Time =    1.000,"P-24-1",           581,       5.10827,       115.247,            0.,NA,NA,"",   181.948E+03,  -188.240E+03,  -188.240E+03
C:/temp/Job-24.odb,Step-1,Increment      1: Step Time =    1.000,"P-24-1",           582,       189.805,       5.13770,            0.,NA,NA,"",   987.599E+03,   986.075E+03,   986.075E+03
C:/temp/Job-24.odb,Step-1,Increment      1: Step Time =    1.000,"P-24-1",           583,       179.743,       5.04684,            0.,NA,NA,"",   963.402E+03,   961.822E+03,   961.822E+03
C:/temp/Job-24.odb,Step-1,Increment      1: Step Time =    1.000,"P-24-1",           584,       169.598,       4.97468,            0.,NA,NA,"",   927.265E+03,   922.386E+03,   922.386E+03
C:/temp/Job-24.odb,Step-1,Increment      1: Step Time =    1.000,"P-24-1",           585,       159.493,       4.97146,            0.,NA,NA,"",   856.712E+03,   847.830E+03,   847.830E+03
C:/temp/Job-24.odb,Step-1,Increment      1: Step Time =    1.000,"P-24-1",           586,       149.765,       4.61583,            0.,NA,NA,"",   721.518E+03,   711.310E+03,   711.310E+03
C:/temp/Job-24.odb,Step-1,Increment      1: Step Time =    1.000,"P-24-1",           587,       140.022,       4.80179,            0.,NA,NA,"",   562.663E+03,   551.427E+03,   551.427E+03
C:/temp/Job-24.odb,Step-1,Increment      1: Step Time =    1.000,"P-24-1",           588,       130.003,       4.87480,            0.,NA,NA,"",   389.340E+03,   385.643E+03,   385.643E+03
C:/temp/Job-24.odb,Step-1,Increment      1: Step Time =    1.000,"P-24-1",           589,       119.945,       5.02219,            0.,NA,NA,"",   284.596E+03,   281.589E+03,   281.589E+03
C:/temp/Job-24.odb,Step-1,Increment      1: Step Time =    1.000,"P-24-1",           590,       109.879,       5.13438,            0.,NA,NA,"",   348.966E+03,   355.114E+03,   355.114E+03
C:/temp/Job-24.odb,Step-1,Increment      1: Step Time =    1.000,"P-24-1",           591,       99.7654,       5.07262,            0.,NA,NA,"",   607.087E+03,   597.942E+03,   597.942E+03
C:/temp/Job-24.odb,Step-1,Increment      1: Step Time =    1.000,"P-24-1",           592,       89.8317,       4.76772,            0.,NA,NA,"",   980.099E+03,   959.812E+03,   959.812E+03
C:/temp/Job-24.odb,Step-1,Increment      1: Step Time =    1.000,"P-24-1",           593,       79.9880,       4.71056,            0.,NA,NA,"",   1.44398E+06,   1.41695E+06,   1.41695E+06
C:/temp/Job-24.odb,Step-1,Increment      1: Step Time =    1.000,"P-24-1",           594,       70.0816,       5.03578,            0.,NA,NA,"",   1.89637E+06,   1.86960E+06,   1.86960E+06
C:/temp/Job-24.odb,Step-1,Increment      1: Step Time =    1.000,"P-24-1",           595,       60.1683,       5.34306,            0.,NA,NA,"",   2.25437E+06,   2.23077E+06,   2.23077E+06
C:/temp/Job-24.odb,Step-1,Increment      1: Step Time =    1.000,"P-24-1",           596,       50.2864,       5.34153,            0.,NA,NA,"",   2.50734E+06,   2.48956E+06,   2.48956E+06
C:/temp/Job-24.odb,Step-1,Increment      1: Step Time =    1.000,"P-24-1",           597,       40.4380,       5.14729,            0.,NA,NA,"",   2.66928E+06,   2.65802E+06,   2.65802E+06
C:/temp/Job-24.odb,Step-1,Increment      1: Step Time =    1.000,"P-24-1",           598,       30.4407,       4.98252,            0.,NA,NA,"",   2.76064E+06,   2.75531E+06,   2.75531E+06
C:/temp/Job-24.odb,Step-1,Increment      1: Step Time =    1.000,"P-24-1",           599,       20.3650,       4.98421,            0.,NA,NA,"",   2.81286E+06,   2.81499E+06,   2.81499E+06
C:/temp/Job-24.odb,Step-1,Increment      1: Step Time =    1.000,"P-24-1",           600,       10.2606,       5.08074,            0.,NA,NA,"",   2.92775E+06,   2.95370E+06,   2.95370E+06
C:/temp/Job-24.odb,Step-1,Increment      1: Step Time =    1.000,"P-24-1",           601,       194.917,       189.871,            0.,NA,NA,"",   1.00701E+06,   1.00000E+06,   1.00000E+06
C:/temp/Job-24.odb,Step-1,Increment      1: Step Time =    1.000,"P-24-1",           602,       195.038,       179.895,            0.,NA,NA,"",   1.02237E+06,   1.01258E+06,   1.01258E+06
C:/temp/Job-24.odb,Step-1,Increment      1: Step Time =    1.000,"P-24-1",           603,       194.963,       169.754,            0.,NA,NA,"",   1.01468E+06,   1.03137E+06,   1.03137E+06
C:/temp/Job-24.odb,Step-1,Increment      1: Step Time =    1.000,"P-24-1",           604,       194.734,       159.503,            0.,NA,NA,"",   982.123E+03,   1.06206E+06,   1.06206E+06
C:/temp/Job-24.odb,Step-1,Increment      1: Step Time =    1.000,"P-24-1",           605,       195.620,       149.732,            0.,NA,NA,"",   964.703E+03,   1.10007E+06,   1.10007E+06
C:/temp/Job-24.odb,Step-1,Increment      1: Step Time =    1.000,"P-24-1",           606,       195.579,       140.085,            0.,NA,NA,"",   1.13145E+06,   1.28150E+06,   1.28150E+06
C:/temp/Job-24.odb,Step-1,Increment      1: Step Time =    1.000,"P-24-1",           607,       195.168,       130.416,            0.,NA,NA,"",   1.47529E+06,   1.69819E+06,   1.69819E+06
C:/temp/Job-24.odb,Step-1,Increment      1: Step Time =    1.000,"P-24-1",           608,       194.723,       120.389,            0.,NA,NA,"",   1.84962E+06,   2.12423E+06,   2.12423E+06
C:/temp/Job-24.odb,Step-1,Increment      1: Step Time =    1.000,"P-24-1",           609,       194.628,       110.265,            0.,NA,NA,"",   2.13213E+06,   2.43474E+06,   2.43474E+06
C:/temp/Job-24.odb,Step-1,Increment      1: Step Time =    1.000,"P-24-1",           610,       194.848,       100.083,            0.,NA,NA,"",   2.25759E+06,   2.57173E+06,   2.57173E+06
C:/temp/Job-24.odb,Step-1,Increment      1: Step Time =    1.000,"P-24-1",           611,       194.825,       90.0441,            0.,NA,NA,"",   2.14608E+06,   2.45185E+06,   2.45185E+06
C:/temp/Job-24.odb,Step-1,Increment      1: Step Time =    1.000,"P-24-1",           612,       194.900,       80.0068,            0.,NA,NA,"",   1.86368E+06,   2.14084E+06,   2.14084E+06
C:/temp/Job-24.odb,Step-1,Increment      1: Step Time =    1.000,"P-24-1",           613,       195.132,       69.9688,            0.,NA,NA,"",   1.48666E+06,   1.71119E+06,   1.71119E+06
C:/temp/Job-24.odb,Step-1,Increment      1: Step Time =    1.000,"P-24-1",           614,       195.220,       60.0880,            0.,NA,NA,"",   1.14438E+06,   1.29724E+06,   1.29724E+06
C:/temp/Job-24.odb,Step-1,Increment      1: Step Time =    1.000,"P-24-1",           615,       195.093,       50.2512,            0.,NA,NA,"",   982.995E+03,   1.11681E+06,   1.11681E+06
C:/temp/Job-24.odb,Step-1,Increment      1: Step Time =    1.000,"P-24-1",           616,       194.924,       40.4329,            0.,NA,NA,"",   978.072E+03,   1.05950E+06,   1.05950E+06
C:/temp/Job-24.odb,Step-1,Increment      1: Step Time =    1.000,"P-24-1",           617,       194.832,       30.4892,            0.,NA,NA,"",   1.01435E+06,   1.03310E+06,   1.03310E+06
C:/temp/Job-24.odb,Step-1,Increment      1: Step Time =    1.000,"P-24-1",           618,       194.650,       20.3571,            0.,NA,NA,"",   1.02371E+06,   1.01522E+06,   1.01522E+06
C:/temp/Job-24.odb,Step-1,Increment      1: Step Time =    1.000,"P-24-1",           619,       194.762,       10.1887,            0.,NA,NA,"",   1.00754E+06,   1.00053E+06,   1.00053E+06
C:/temp/Job-24.odb,Step-1,Increment      1: Step Time =    1.000,"P-24-1",           620,       10.1917,       194.840,            0.,NA,NA,"",   2.92773E+06,   2.95467E+06,   2.95467E+06
C:/temp/Job-24.odb,Step-1,Increment      1: Step Time =    1.000,"P-24-1",           621,       20.2848,       194.740,            0.,NA,NA,"",   2.80719E+06,   2.81001E+06,   2.81001E+06
C:/temp/Job-24.odb,Step-1,Increment      1: Step Time =    1.000,"P-24-1",           622,       30.2431,       194.811,            0.,NA,NA,"",   2.75430E+06,   2.74967E+06,   2.74967E+06
C:/temp/Job-24.odb,Step-1,Increment      1: Step Time =    1.000,"P-24-1",           623,       40.3571,       194.783,            0.,NA,NA,"",   2.66959E+06,   2.65950E+06,   2.65950E+06
C:/temp/Job-24.odb,Step-1,Increment      1: Step Time =    1.000,"P-24-1",           624,       50.2744,       195.425,            0.,NA,NA,"",   2.52344E+06,   2.51021E+06,   2.51021E+06
C:/temp/Job-24.odb,Step-1,Increment      1: Step Time =    1.000,"P-24-1",           625,       60.0277,       195.323,            0.,NA,NA,"",   2.26161E+06,   2.24196E+06,   2.24196E+06
C:/temp/Job-24.odb,Step-1,Increment      1: Step Time =    1.000,"P-24-1",           626,       69.8633,       195.035,            0.,NA,NA,"",   1.90633E+06,   1.87782E+06,   1.87782E+06
C:/temp/Job-24.odb,Step-1,Increment      1: Step Time =    1.000,"P-24-1",           627,       79.9862,       194.897,            0.,NA,NA,"",   1.46416E+06,   1.43519E+06,   1.43519E+06
C:/temp/Job-24.odb,Step-1,Increment      1: Step Time =    1.000,"P-24-1",           628,       90.1890,       195.021,            0.,NA,NA,"",   985.669E+03,   965.462E+03,   965.462E+03
C:/temp/Job-24.odb,Step-1,Increment      1: Step Time =    1.000,"P-24-1",           629,       100.243,       195.230,            0.,NA,NA,"",   568.430E+03,   559.654E+03,   559.654E+03
C:/temp/Job-24.odb,Step-1,Increment      1: Step Time =    1.000,"P-24-1",           630,       110.136,       195.063,            0.,NA,NA,"",   328.033E+03,   321.296E+03,   321.296E+03
C:/temp/Job-24.odb,Step-1,Increment      1: Step Time =    1.000,"P-24-1",           631,       119.904,       194.966,            0.,NA,NA,"",   290.191E+03,   283.785E+03,   283.785E+03
C:/temp/Job-24.odb,Step-1,Increment      1: Step Time =    1.000,"P-24-1",           632,       129.827,       195.004,            0.,NA,NA,"",   398.998E+03,   393.879E+03,   393.879E+03
C:/temp/Job-24.odb,Step-1,Increment      1: Step Time =    1.000,"P-24-1",           633,       139.670,       194.950,            0.,NA,NA,"",   570.740E+03,   560.436E+03,   560.436E+03
C:/temp/Job-24.odb,Step-1,Increment      1: Step Time =    1.000,"P-24-1",           634,       149.642,       195.006,            0.,NA,NA,"",   735.642E+03,   724.165E+03,   724.165E+03
C:/temp/Job-24.odb,Step-1,Increment      1: Step Time =    1.000,"P-24-1",           635,       159.646,       195.134,            0.,NA,NA,"",   856.671E+03,   847.527E+03,   847.527E+03
C:/temp/Job-24.odb,Step-1,Increment      1: Step Time =    1.000,"P-24-1",           636,       169.608,       195.075,            0.,NA,NA,"",   928.611E+03,   923.731E+03,   923.731E+03
C:/temp/Job-24.odb,Step-1,Increment      1: Step Time =    1.000,"P-24-1",           637,       179.698,       194.754,            0.,NA,NA,"",   965.663E+03,   963.960E+03,   963.960E+03
C:/temp/Job-24.odb,Step-1,Increment      1: Step Time =    1.000,"P-24-1",           638,       189.852,       194.816,            0.,NA,NA,"",   988.254E+03,   986.757E+03,   986.757E+03
C:/temp/Job-24.odb,Step-1,Increment      1: Step Time =    1.000,"P-24-1",           639,       5.96730,       20.5141,            0.,NA,NA,"",   1.92204E+06,   2.09730E+06,   2.09730E+06
C:/temp/Job-24.odb,Step-1,Increment      1: Step Time =    1.000,"P-24-1",           640,       5.51402,       30.7179,            0.,NA,NA,"",   1.44061E+06,   1.58845E+06,   1.58845E+06
C:/temp/Job-24.odb,Step-1,Increment      1: Step Time =    1.000,"P-24-1",           641,       5.48878,       41.0156,            0.,NA,NA,"",   1.03080E+06,   1.13973E+06,   1.13973E+06
C:/temp/Job-24.odb,Step-1,Increment      1: Step Time =    1.000,"P-24-1",           642,       4.62357,       50.7221,            0.,NA,NA,"",   677.085E+03,   748.967E+03,   748.967E+03
C:/temp/Job-24.odb,Step-1,Increment      1: Step Time =    1.000,"P-24-1",           643,       4.30619,       60.4130,            0.,NA,NA,"",   385.984E+03,   420.097E+03,   420.097E+03
C:/temp/Job-24.odb,Step-1,Increment      1: Step Time =    1.000,"P-24-1",           644,       4.44053,       70.1329,            0.,NA,NA,"",   181.478E+03,   167.621E+03,   167.621E+03
C:/temp/Job-24.odb,Step-1,Increment      1: Step Time =    1.000,"P-24-1",           645,       4.90564,       80.0326,            0.,NA,NA,"",   154.723E+03,  -140.798E+03,  -140.798E+03
C:/temp/Job-24.odb,Step-1,Increment      1: Step Time =    1.000,"P-24-1",           646,       5.30094,       89.9880,            0.,NA,NA,"",   215.787E+03,  -232.890E+03,  -232.890E+03
C:/temp/Job-24.odb,Step-1,Increment      1: Step Time =    1.000,"P-24-1",           647,       5.28697,       100.138,            0.,NA,NA,"",   241.038E+03,  -265.036E+03,  -265.036E+03
C:/temp/Job-24.odb,Step-1,Increment      1: Step Time =    1.000,"P-24-1",           648,       5.16978,       110.247,            0.,NA,NA,"",   212.974E+03,  -229.764E+03,  -229.764E+03
C:/temp/Job-24.odb,Step-1,Increment      1: Step Time =    1.000,"P-24-1",           649,       5.04629,       120.211,            0.,NA,NA,"",   148.921E+03,  -133.982E+03,  -133.982E+03
C:/temp/Job-24.odb,Step-1,Increment      1: Step Time =    1.000,"P-24-1",           650,       4.90343,       130.023,            0.,NA,NA,"",   177.413E+03,   165.779E+03,   165.779E+03
C:/temp/Job-24.odb,Step-1,Increment      1: Step Time =    1.000,"P-24-1",           651,       4.77812,       139.815,            0.,NA,NA,"",   388.287E+03,   423.396E+03,   423.396E+03
C:/temp/Job-24.odb,Step-1,Increment      1: Step Time =    1.000,"P-24-1",           652,       4.77743,       149.619,            0.,NA,NA,"",   688.506E+03,   762.395E+03,   762.395E+03
C:/temp/Job-24.odb,Step-1,Increment      1: Step Time =    1.000,"P-24-1",           653,       4.80309,       159.430,            0.,NA,NA,"",   1.03720E+06,   1.15061E+06,   1.15061E+06
C:/temp/Job-24.odb,Step-1,Increment      1: Step Time =    1.000,"P-24-1",           654,       5.03231,       169.291,            0.,NA,NA,"",   1.43232E+06,   1.58325E+06,   1.58325E+06
C:/temp/Job-24.odb,Step-1,Increment      1: Step Time =    1.000,"P-24-1",           655,       5.57848,       179.438,            0.,NA,NA,"",   1.91043E+06,   2.08962E+06,   2.08962E+06
C:/temp/Job-24.odb,Step-1,Increment      1: Step Time =    1.000,"P-24-1",           656,       5.24674,       189.810,            0.,NA,NA,"",   2.53554E+06,   2.71550E+06,   2.71550E+06
C:/temp/Job-24.odb,Step-1,Increment      1: Step Time =    1.000,"P-24-1",           657,       157.572,       71.8655,            0.,NA,NA,"",   1.29044E+06,  -233.860E+03,  -233.860E+03
C:/temp/Job-24.odb,Step-1,Increment      1: Step Time =    1.000,"P-24-1",           658,       132.432,       157.325,            0.,NA,NA,"",   3.06696E+06,   3.16899E+06,   3.16899E+06
C:/temp/Job-24.odb,Step-1,Increment      1: Step Time =    1.000,"P-24-1",           659,       158.810,       132.219,            0.,NA,NA,"",   1.61008E+06,   724.380E+03,   724.380E+03
C:/temp/Job-24.odb,Step-1,Increment      1: Step Time =    1.000,"P-24-1",           660,       67.9542,       157.513,            0.,NA,NA,"",   1.92740E+06,   1.78946E+06,   1.78946E+06
C:/temp/Job-24.odb,Step-1,Increment      1: Step Time =    1.000,"P-24-1",           661,       42.3913,       127.809,            0.,NA,NA,"",   679.227E+03,  -705.458E+03,  -705.458E+03
C:/temp/Job-24.odb,Step-1,Increment      1: Step Time =    1.000,"P-24-1",           662,       71.3980,       41.1441,            0.,NA,NA,"",   2.13165E+06,   2.03549E+06,   2.03549E+06
C:/temp/Job-24.odb,Step-1,Increment      1: Step Time =    1.000,"P-24-1",           663,       132.202,       42.3558,            0.,NA,NA,"",   3.07347E+06,   3.18085E+06,   3.18085E+06
C:/temp/Job-24.odb,Step-1,Increment      1: Step Time =    1.000,"P-24-1",           664,       41.8051,       67.7712,            0.,NA,NA,"",   556.356E+03,  -552.431E+03,  -552.431E+03
C:/temp/Job-24.odb,Step-1,Increment      1: Step Time =    1.000,"P-24-1",           665,       140.885,       45.9001,            0.,NA,NA,"",   2.57415E+06,   2.58022E+06,   2.58022E+06
C:/temp/Job-24.odb,Step-1,Increment      1: Step Time =    1.000,"P-24-1",           666,       45.6018,       138.351,            0.,NA,NA,"",   595.943E+03,  -495.176E+03,  -495.176E+03
C:/temp/Job-24.odb,Step-1,Increment      1: Step Time =    1.000,"P-24-1",           667,       153.824,       142.954,            0.,NA,NA,"",   2.01374E+06,   1.75280E+06,   1.75280E+06
C:/temp/Job-24.odb,Step-1,Increment      1: Step Time =    1.000,"P-24-1",           668,       139.433,       150.735,            0.,NA,NA,"",   2.69472E+06,   2.73090E+06,   2.73090E+06
C:/temp/Job-24.odb,Step-1,Increment      1: Step Time =    1.000,"P-24-1",           669,       45.4501,       58.9093,            0.,NA,NA,"",   656.673E+03,  -221.836E+03,  -221.836E+03
C:/temp/Job-24.odb,Step-1,Increment      1: Step Time =    1.000,"P-24-1",           670,       60.7183,       45.6554,            0.,NA,NA,"",   1.54759E+06,   1.30933E+06,   1.30933E+06
C:/temp/Job-24.odb,Step-1,Increment      1: Step Time =    1.000,"P-24-1",           671,       58.8913,       154.424,            0.,NA,NA,"",   1.54152E+06,   1.28769E+06,   1.28769E+06
C:/temp/Job-24.odb,Step-1,Increment      1: Step Time =    1.000,"P-24-1",           672,       154.810,       60.2132,            0.,NA,NA,"",   1.89642E+06,   1.58518E+06,   1.58518E+06
C:/temp/Job-24.odb,Step-1,Increment      1: Step Time =    1.000,"P-24-1",           673,       74.2204,       155.275,            0.,NA,NA,"",   2.05756E+06,   2.04286E+06,   2.04286E+06
C:/temp/Job-24.odb,Step-1,Increment      1: Step Time =    1.000,"P-24-1",           674,       155.811,       125.953,            0.,NA,NA,"",   1.11163E+06,  -874.730E+03,  -874.730E+03
C:/temp/Job-24.odb,Step-1,Increment      1: Step Time =    1.000,"P-24-1",           675,       157.141,       79.7077,            0.,NA,NA,"",   1.44927E+06,  -1.38347E+06,  -1.38347E+06
C:/temp/Job-24.odb,Step-1,Increment      1: Step Time =    1.000,"P-24-1",           676,       79.8211,       42.1321,            0.,NA,NA,"",   2.75740E+06,   2.77332E+06,   2.77332E+06
C:/temp/Job-24.odb,Step-1,Increment      1: Step Time =    1.000,"P-24-1",           677,       44.3399,       74.1901,            0.,NA,NA,"",   897.147E+03,  -917.474E+03,  -917.474E+03
C:/temp/Job-24.odb,Step-1,Increment      1: Step Time =    1.000,"P-24-1",           678,       125.869,       155.787,            0.,NA,NA,"",   4.01079E+06,   4.11924E+06,   4.11924E+06
C:/temp/Job-24.odb,Step-1,Increment      1: Step Time =    1.000,"P-24-1",           679,       42.4781,       120.047,            0.,NA,NA,"",   896.871E+03,  -922.026E+03,  -922.026E+03
C:/temp/Job-24.odb,Step-1,Increment      1: Step Time =    1.000,"P-24-1",           680,       125.852,       44.6095,            0.,NA,NA,"",   4.07148E+06,   4.17130E+06,   4.17130E+06
C:/temp/Job-24.odb,Step-1,Increment      1: Step Time =    1.000,"P-24-1",           681,       140.091,       9.67142,            0.,NA,NA,"",   898.948E+03,   881.898E+03,   881.898E+03
C:/temp/Job-24.odb,Step-1,Increment      1: Step Time =    1.000,"P-24-1",           682,       119.918,       10.0019,            0.,NA,NA,"",   755.951E+03,   794.222E+03,   794.222E+03
C:/temp/Job-24.odb,Step-1,Increment      1: Step Time =    1.000,"P-24-1",           683,       109.760,       10.1947,            0.,NA,NA,"",   869.127E+03,   911.194E+03,   911.194E+03
C:/temp/Job-24.odb,Step-1,Increment      1: Step Time =    1.000,"P-24-1",           684,       191.075,       140.358,            0.,NA,NA,"",   1.25403E+06,   1.40420E+06,   1.40420E+06
C:/temp/Job-24.odb,Step-1,Increment      1: Step Time =    1.000,"P-24-1",           685,       190.282,       131.090,            0.,NA,NA,"",   1.43710E+06,   1.61540E+06,   1.61540E+06
C:/temp/Job-24.odb,Step-1,Increment      1: Step Time =    1.000,"P-24-1",           686,       189.267,       110.438,            0.,NA,NA,"",   1.56610E+06,   1.79523E+06,   1.79523E+06
C:/temp/Job-24.odb,Step-1,Increment      1: Step Time =    1.000,"P-24-1",           687,       189.884,       100.121,            0.,NA,NA,"",   1.61129E+06,   1.85435E+06,   1.85435E+06
C:/temp/Job-24.odb,Step-1,Increment      1: Step Time =    1.000,"P-24-1",           688,       189.839,       79.9274,            0.,NA,NA,"",   1.56279E+06,   1.77509E+06,   1.77509E+06
C:/temp/Job-24.odb,Step-1,Increment      1: Step Time =    1.000,"P-24-1",           689,       190.334,       69.8469,            0.,NA,NA,"",   1.44814E+06,   1.62998E+06,   1.62998E+06
C:/temp/Job-24.odb,Step-1,Increment      1: Step Time =    1.000,"P-24-1",           690,       190.460,       60.1615,            0.,NA,NA,"",   1.28391E+06,   1.42915E+06,   1.42915E+06
C:/temp/Job-24.odb,Step-1,Increment      1: Step Time =    1.000,"P-24-1",           691,       59.9178,       190.533,            0.,NA,NA,"",   2.27549E+06,   2.22030E+06,   2.22030E+06
C:/temp/Job-24.odb,Step-1,Increment      1: Step Time =    1.000,"P-24-1",           692,       119.821,       189.851,            0.,NA,NA,"",   778.201E+03,   818.909E+03,   818.909E+03
C:/temp/Job-24.odb,Step-1,Increment      1: Step Time =    1.000,"P-24-1",           693,       8.68507,       60.8693,            0.,NA,NA,"",   348.566E+03,   383.233E+03,   383.233E+03
C:/temp/Job-24.odb,Step-1,Increment      1: Step Time =    1.000,"P-24-1",           694,       8.86713,       70.1528,            0.,NA,NA,"",   136.333E+03,   134.960E+03,   134.960E+03
C:/temp/Job-24.odb,Step-1,Increment      1: Step Time =    1.000,"P-24-1",           695,       10.5029,       100.339,            0.,NA,NA,"",   246.355E+03,  -272.486E+03,  -272.486E+03
C:/temp/Job-24.odb,Step-1,Increment      1: Step Time =    1.000,"P-24-1",           696,       10.1953,       120.469,            0.,NA,NA,"",   132.240E+03,  -126.705E+03,  -126.705E+03
C:/temp/Job-24.odb,Step-1,Increment      1: Step Time =    1.000,"P-24-1",           697,       9.61368,       139.641,            0.,NA,NA,"",   360.932E+03,   395.667E+03,   395.667E+03
C:/temp/Job-24.odb,Step-1,Increment      1: Step Time =    1.000,"P-24-1",           698,       130.021,       9.65893,            0.,NA,NA,"",   805.741E+03,   811.281E+03,   811.281E+03
C:/temp/Job-24.odb,Step-1,Increment      1: Step Time =    1.000,"P-24-1",           699,       99.3809,       10.1502,            0.,NA,NA,"",   1.14721E+06,   1.14582E+06,   1.14582E+06
C:/temp/Job-24.odb,Step-1,Increment      1: Step Time =    1.000,"P-24-1",           700,       89.5400,       9.44559,            0.,NA,NA,"",   1.44216E+06,   1.40410E+06,   1.40410E+06
C:/temp/Job-24.odb,Step-1,Increment      1: Step Time =    1.000,"P-24-1",           701,       80.0872,       9.32098,            0.,NA,NA,"",   1.75937E+06,   1.69593E+06,   1.69593E+06
C:/temp/Job-24.odb,Step-1,Increment      1: Step Time =    1.000,"P-24-1",           702,       70.3964,       10.1363,            0.,NA,NA,"",   2.05984E+06,   1.98853E+06,   1.98853E+06
C:/temp/Job-24.odb,Step-1,Increment      1: Step Time =    1.000,"P-24-1",           703,       60.4502,       10.8945,            0.,NA,NA,"",   2.27539E+06,   2.20729E+06,   2.20729E+06
C:/temp/Job-24.odb,Step-1,Increment      1: Step Time =    1.000,"P-24-1",           704,       189.493,       120.980,            0.,NA,NA,"",   1.55118E+06,   1.75522E+06,   1.75522E+06
C:/temp/Job-24.odb,Step-1,Increment      1: Step Time =    1.000,"P-24-1",           705,       189.646,       90.1249,            0.,NA,NA,"",   1.59734E+06,   1.83500E+06,   1.83500E+06
C:/temp/Job-24.odb,Step-1,Increment      1: Step Time =    1.000,"P-24-1",           706,       69.6525,       189.992,            0.,NA,NA,"",   2.07794E+06,   2.00558E+06,   2.00558E+06
C:/temp/Job-24.odb,Step-1,Increment      1: Step Time =    1.000,"P-24-1",           707,       79.9463,       189.923,            0.,NA,NA,"",   1.81205E+06,   1.74515E+06,   1.74515E+06
C:/temp/Job-24.odb,Step-1,Increment      1: Step Time =    1.000,"P-24-1",           708,       90.5356,       190.177,            0.,NA,NA,"",   1.43335E+06,   1.39786E+06,   1.39786E+06
C:/temp/Job-24.odb,Step-1,Increment      1: Step Time =    1.000,"P-24-1",           709,       100.478,       190.603,            0.,NA,NA,"",   1.04809E+06,   1.04949E+06,   1.04949E+06
C:/temp/Job-24.odb,Step-1,Increment      1: Step Time =    1.000,"P-24-1",           710,       110.114,       190.083,            0.,NA,NA,"",   842.664E+03,   882.697E+03,   882.697E+03
C:/temp/Job-24.odb,Step-1,Increment      1: Step Time =    1.000,"P-24-1",           711,       129.633,       189.977,            0.,NA,NA,"",   825.505E+03,   833.177E+03,   833.177E+03
C:/temp/Job-24.odb,Step-1,Increment      1: Step Time =    1.000,"P-24-1",           712,       139.305,       189.816,            0.,NA,NA,"",   925.715E+03,   910.731E+03,   910.731E+03
C:/temp/Job-24.odb,Step-1,Increment      1: Step Time =    1.000,"P-24-1",           713,       9.76922,       79.8190,            0.,NA,NA,"",   139.137E+03,  -133.470E+03,  -133.470E+03
C:/temp/Job-24.odb,Step-1,Increment      1: Step Time =    1.000,"P-24-1",           714,       10.6713,       89.9257,            0.,NA,NA,"",   219.621E+03,  -239.752E+03,  -239.752E+03
C:/temp/Job-24.odb,Step-1,Increment      1: Step Time =    1.000,"P-24-1",           715,       10.3189,       110.555,            0.,NA,NA,"",   215.987E+03,  -234.770E+03,  -234.770E+03
C:/temp/Job-24.odb,Step-1,Increment      1: Step Time =    1.000,"P-24-1",           716,       9.95432,       130.114,            0.,NA,NA,"",   129.477E+03,   130.280E+03,   130.280E+03
C:/temp/Job-24.odb,Step-1,Increment      1: Step Time =    1.000,"P-24-1",           717,       166.219,       114.620,            0.,NA,NA,"",   1.25610E+06,  -1.03458E+06,  -1.03458E+06
C:/temp/Job-24.odb,Step-1,Increment      1: Step Time =    1.000,"P-24-1",           718,       162.736,         83.25,            0.,NA,NA,"",   1.42280E+06,  -1.26602E+06,  -1.26602E+06
C:/temp/Job-24.odb,Step-1,Increment      1: Step Time =    1.000,"P-24-1",           719,       112.211,       167.829,            0.,NA,NA,"",   3.15105E+06,   3.34322E+06,   3.34322E+06
C:/temp/Job-24.odb,Step-1,Increment      1: Step Time =    1.000,"P-24-1",           720,       34.1976,       87.7309,            0.,NA,NA,"",   515.620E+03,  -564.095E+03,  -564.095E+03
C:/temp/Job-24.odb,Step-1,Increment      1: Step Time =    1.000,"P-24-1",           721,       118.254,       36.6253,            0.,NA,NA,"",   3.54775E+06,   3.73286E+06,   3.73286E+06
C:/temp/Job-24.odb,Step-1,Increment      1: Step Time =    1.000,"P-24-1",           722,       36.5484,       82.3133,            0.,NA,NA,"",   588.492E+03,  -629.545E+03,  -629.545E+03
C:/temp/Job-24.odb,Step-1,Increment      1: Step Time =    1.000,"P-24-1",           723,       35.4133,       110.716,            0.,NA,NA,"",   576.343E+03,  -623.044E+03,  -623.044E+03
C:/temp/Job-24.odb,Step-1,Increment      1: Step Time =    1.000,"P-24-1",           724,       84.2187,       36.3375,            0.,NA,NA,"",   3.02064E+06,   3.05618E+06,   3.05618E+06
C:/temp/Job-24.odb,Step-1,Increment      1: Step Time =    1.000,"P-24-1",           725,       89.1717,       35.2899,            0.,NA,NA,"",   3.27493E+06,   3.35951E+06,   3.35951E+06
C:/temp/Job-24.odb,Step-1,Increment      1: Step Time =    1.000,"P-24-1",           726,       81.5998,       163.282,            0.,NA,NA,"",   2.85962E+06,   2.86645E+06,   2.86645E+06
C:/temp/Job-24.odb,Step-1,Increment      1: Step Time =    1.000,"P-24-1",           727,       33.3720,       99.6415,            0.,NA,NA,"",   491.305E+03,  -546.082E+03,  -546.082E+03
C:/temp/Job-24.odb,Step-1,Increment      1: Step Time =    1.000,"P-24-1",           728,       99.9829,       33.3234,            0.,NA,NA,"",   3.43325E+06,   3.59402E+06,   3.59402E+06
C:/temp/Job-24.odb,Step-1,Increment      1: Step Time =    1.000,"P-24-1",           729,       36.5140,       115.747,            0.,NA,NA,"",   606.622E+03,  -648.589E+03,  -648.589E+03
C:/temp/Job-24.odb,Step-1,Increment      1: Step Time =    1.000,"P-24-1",           730,       112.920,       33.4271,            0.,NA,NA,"",   3.32315E+06,   3.51781E+06,   3.51781E+06
C:/temp/Job-24.odb,Step-1,Increment      1: Step Time =    1.000,"P-24-1",           731,       165.812,       98.2387,            0.,NA,NA,"",   1.32554E+06,  -1.34663E+06,  -1.34663E+06
C:/temp/Job-24.odb,Step-1,Increment      1: Step Time =    1.000,"P-24-1",           732,       86.7502,       166.235,            0.,NA,NA,"",   3.04600E+06,   3.09167E+06,   3.09167E+06
C:/temp/Job-24.odb,Step-1,Increment      1: Step Time =    1.000,"P-24-1",           733,       118.031,       164.876,            0.,NA,NA,"",   3.33705E+06,   3.52515E+06,   3.52515E+06
C:/temp/Job-24.odb,Step-1,Increment      1: Step Time =    1.000,"P-24-1",           734,       164.418,       87.8908,            0.,NA,NA,"",   1.41100E+06,  -1.33050E+06,  -1.33050E+06
C:/temp/Job-24.odb,Step-1,Increment      1: Step Time =    1.000,"P-24-1",           735,       163.572,       118.491,            0.,NA,NA,"",   1.40709E+06,  -1.15990E+06,  -1.15990E+06
C:/temp/Job-24.odb,Step-1,Increment      1: Step Time =    1.000,"P-24-1",           736,       99.3227,       167.760,            0.,NA,NA,"",   3.27883E+06,   3.43561E+06,   3.43561E+06
C:/temp/Job-24.odb,Step-1,Increment      1: Step Time =    1.000,"P-24-1",           737,       13.1396,       61.3739,            0.,NA,NA,"",   322.642E+03,   350.800E+03,   350.800E+03
C:/temp/Job-24.odb,Step-1,Increment      1: Step Time =    1.000,"P-24-1",           738,       60.8894,       16.6994,            0.,NA,NA,"",   2.34449E+06,   2.21917E+06,   2.21917E+06
C:/temp/Job-24.odb,Step-1,Increment      1: Step Time =    1.000,"P-24-1",           739,       185.737,       60.2436,            0.,NA,NA,"",   1.46499E+06,   1.52182E+06,   1.52182E+06
C:/temp/Job-24.odb,Step-1,Increment      1: Step Time =    1.000,"P-24-1",           740,       59.5341,       185.620,            0.,NA,NA,"",   2.32227E+06,   2.22161E+06,   2.22161E+06
C:/temp/Job-24.odb,Step-1,Increment      1: Step Time =    1.000,"P-24-1",           741,       14.4161,       139.484,            0.,NA,NA,"",   352.861E+03,   378.697E+03,   378.697E+03
C:/temp/Job-24.odb,Step-1,Increment      1: Step Time =    1.000,"P-24-1",           742,       140.093,       14.5306,            0.,NA,NA,"",   1.21380E+06,   1.19917E+06,   1.19917E+06
C:/temp/Job-24.odb,Step-1,Increment      1: Step Time =    1.000,"P-24-1",           743,       186.544,       140.976,            0.,NA,NA,"",   1.42081E+06,   1.49261E+06,   1.49261E+06
C:/temp/Job-24.odb,Step-1,Increment      1: Step Time =    1.000,"P-24-1",           744,       138.924,       184.593,            0.,NA,NA,"",   1.26626E+06,   1.25796E+06,   1.25796E+06
C:/temp/Job-24.odb,Step-1,Increment      1: Step Time =    1.000,"P-24-1",           745,       123.259,       162.573,            0.,NA,NA,"",   3.32572E+06,   3.49425E+06,   3.49425E+06
C:/temp/Job-24.odb,Step-1,Increment      1: Step Time =    1.000,"P-24-1",           746,       160.974,       79.0802,            0.,NA,NA,"",   1.37713E+06,  -1.14023E+06,  -1.14023E+06
C:/temp/Job-24.odb,Step-1,Increment      1: Step Time =    1.000,"P-24-1",           747,       79.5884,       37.4956,            0.,NA,NA,"",   2.74506E+06,   2.72829E+06,   2.72829E+06
C:/temp/Job-24.odb,Step-1,Increment      1: Step Time =    1.000,"P-24-1",           748,       37.8829,       120.310,            0.,NA,NA,"",   621.591E+03,  -659.001E+03,  -659.001E+03
C:/temp/Job-24.odb,Step-1,Increment      1: Step Time =    1.000,"P-24-1",           749,       123.048,       38.8008,            0.,NA,NA,"",   3.52712E+06,   3.69207E+06,   3.69207E+06
C:/temp/Job-24.odb,Step-1,Increment      1: Step Time =    1.000,"P-24-1",           750,       38.2475,       77.3369,            0.,NA,NA,"",   606.065E+03,  -639.449E+03,  -639.449E+03
C:/temp/Job-24.odb,Step-1,Increment      1: Step Time =    1.000,"P-24-1",           751,       76.9908,       160.898,            0.,NA,NA,"",   2.55982E+06,   2.52726E+06,   2.52726E+06
C:/temp/Job-24.odb,Step-1,Increment      1: Step Time =    1.000,"P-24-1",           752,       161.612,       122.811,            0.,NA,NA,"",   1.43923E+06,  -1.07693E+06,  -1.07693E+06
C:/temp/Job-24.odb,Step-1,Increment      1: Step Time =    1.000,"P-24-1",           753,       13.2357,       70.1304,            0.,NA,NA,"",   96.4209E+03,   97.6857E+03,   97.6857E+03
C:/temp/Job-24.odb,Step-1,Increment      1: Step Time =    1.000,"P-24-1",           754,       130.046,       14.2665,            0.,NA,NA,"",   1.15954E+06,   1.18237E+06,   1.18237E+06
C:/temp/Job-24.odb,Step-1,Increment      1: Step Time =    1.000,"P-24-1",           755,       71.1445,       15.2903,            0.,NA,NA,"",   2.23752E+06,   2.12189E+06,   2.12189E+06
C:/temp/Job-24.odb,Step-1,Increment      1: Step Time =    1.000,"P-24-1",           756,       15.2454,       130.357,            0.,NA,NA,"",   96.8776E+03,   96.9482E+03,   96.9482E+03
C:/temp/Job-24.odb,Step-1,Increment      1: Step Time =    1.000,"P-24-1",           757,       185.342,       131.953,            0.,NA,NA,"",   1.52556E+06,   1.59510E+06,   1.59510E+06
C:/temp/Job-24.odb,Step-1,Increment      1: Step Time =    1.000,"P-24-1",           758,       69.4691,       184.816,            0.,NA,NA,"",   2.26027E+06,   2.13978E+06,   2.13978E+06
C:/temp/Job-24.odb,Step-1,Increment      1: Step Time =    1.000,"P-24-1",           759,       185.641,       69.6202,            0.,NA,NA,"",   1.51016E+06,   1.59813E+06,   1.59813E+06
C:/temp/Job-24.odb,Step-1,Increment      1: Step Time =    1.000,"P-24-1",           760,       129.355,       184.965,            0.,NA,NA,"",   1.21087E+06,   1.24161E+06,   1.24161E+06
C:/temp/Job-24.odb,Step-1,Increment      1: Step Time =    1.000,"P-24-1",           761,       156.556,       68.8325,            0.,NA,NA,"",   1.39088E+06,   564.191E+03,   564.191E+03
C:/temp/Job-24.odb,Step-1,Increment      1: Step Time =    1.000,"P-24-1",           762,       160.565,       72.1913,            0.,NA,NA,"",   1.47608E+06,   30.9837E+03,   30.9837E+03
C:/temp/Job-24.odb,Step-1,Increment      1: Step Time =    1.000,"P-24-1",           763,       71.1876,       162.914,            0.,NA,NA,"",   2.38816E+06,   2.24815E+06,   2.24815E+06
C:/temp/Job-24.odb,Step-1,Increment      1: Step Time =    1.000,"P-24-1",           764,       164.255,       128.510,            0.,NA,NA,"",   1.71443E+06,   653.758E+03,   653.758E+03
C:/temp/Job-24.odb,Step-1,Increment      1: Step Time =    1.000,"P-24-1",           765,       136.277,       154.131,            0.,NA,NA,"",   2.90016E+06,   2.96525E+06,   2.96525E+06
C:/temp/Job-24.odb,Step-1,Increment      1: Step Time =    1.000,"P-24-1",           766,       71.4818,       37.2320,            0.,NA,NA,"",   2.34568E+06,   2.21822E+06,   2.21822E+06
C:/temp/Job-24.odb,Step-1,Increment      1: Step Time =    1.000,"P-24-1",           767,       68.2369,       42.5770,            0.,NA,NA,"",   1.93839E+06,   1.80850E+06,   1.80850E+06
C:/temp/Job-24.odb,Step-1,Increment      1: Step Time =    1.000,"P-24-1",           768,       35.3194,       70.7498,            0.,NA,NA,"",   374.625E+03,  -379.055E+03,  -379.055E+03
C:/temp/Job-24.odb,Step-1,Increment      1: Step Time =    1.000,"P-24-1",           769,       43.6675,       130.841,            0.,NA,NA,"",   654.045E+03,  -669.837E+03,  -669.837E+03
C:/temp/Job-24.odb,Step-1,Increment      1: Step Time =    1.000,"P-24-1",           770,       39.1134,       127.699,            0.,NA,NA,"",   541.619E+03,  -567.045E+03,  -567.045E+03
C:/temp/Job-24.odb,Step-1,Increment      1: Step Time =    1.000,"P-24-1",           771,       129.477,       36.2792,            0.,NA,NA,"",   2.80061E+06,   2.93156E+06,   2.93156E+06
C:/temp/Job-24.odb,Step-1,Increment      1: Step Time =    1.000,"P-24-1",           772,       14.2010,       79.1087,            0.,NA,NA,"",   118.869E+03,  -125.072E+03,  -125.072E+03
C:/temp/Job-24.odb,Step-1,Increment      1: Step Time =    1.000,"P-24-1",           773,       119.934,       14.9366,            0.,NA,NA,"",   1.19595E+06,   1.26993E+06,   1.26993E+06
C:/temp/Job-24.odb,Step-1,Increment      1: Step Time =    1.000,"P-24-1",           774,       15.4513,       120.737,            0.,NA,NA,"",   119.491E+03,  -128.860E+03,  -128.860E+03
C:/temp/Job-24.odb,Step-1,Increment      1: Step Time =    1.000,"P-24-1",           775,       80.3407,       13.6783,            0.,NA,NA,"",   2.03334E+06,   1.94365E+06,   1.94365E+06
C:/temp/Job-24.odb,Step-1,Increment      1: Step Time =    1.000,"P-24-1",           776,       79.7580,       185.336,            0.,NA,NA,"",   2.10507E+06,   2.01082E+06,   2.01082E+06
C:/temp/Job-24.odb,Step-1,Increment      1: Step Time =    1.000,"P-24-1",           777,       184.568,       121.928,            0.,NA,NA,"",   1.46079E+06,   1.55581E+06,   1.55581E+06
C:/temp/Job-24.odb,Step-1,Increment      1: Step Time =    1.000,"P-24-1",           778,       184.867,       79.6666,            0.,NA,NA,"",   1.42204E+06,   1.53282E+06,   1.53282E+06
C:/temp/Job-24.odb,Step-1,Increment      1: Step Time =    1.000,"P-24-1",           779,       119.935,       184.851,            0.,NA,NA,"",   1.21342E+06,   1.28731E+06,   1.28731E+06
C:/temp/Job-24.odb,Step-1,Increment      1: Step Time =    1.000,"P-24-1",           780,       109.649,       15.0901,            0.,NA,NA,"",   1.33972E+06,   1.41967E+06,   1.41967E+06
C:/temp/Job-24.odb,Step-1,Increment      1: Step Time =    1.000,"P-24-1",           781,       16.0036,       89.9830,            0.,NA,NA,"",   214.733E+03,  -243.547E+03,  -243.547E+03
C:/temp/Job-24.odb,Step-1,Increment      1: Step Time =    1.000,"P-24-1",           782,       89.0872,       13.9021,            0.,NA,NA,"",   1.83480E+06,   1.79259E+06,   1.79259E+06
C:/temp/Job-24.odb,Step-1,Increment      1: Step Time =    1.000,"P-24-1",           783,       15.4561,       110.883,            0.,NA,NA,"",   210.301E+03,  -237.147E+03,  -237.147E+03
C:/temp/Job-24.odb,Step-1,Increment      1: Step Time =    1.000,"P-24-1",           784,       91.2208,       185.635,            0.,NA,NA,"",   1.78732E+06,   1.75901E+06,   1.75901E+06
C:/temp/Job-24.odb,Step-1,Increment      1: Step Time =    1.000,"P-24-1",           785,       183.935,       110.211,            0.,NA,NA,"",   1.15020E+06,   1.29349E+06,   1.29349E+06
C:/temp/Job-24.odb,Step-1,Increment      1: Step Time =    1.000,"P-24-1",           786,       184.430,       90.3360,            0.,NA,NA,"",   1.17841E+06,   1.33734E+06,   1.33734E+06
C:/temp/Job-24.odb,Step-1,Increment      1: Step Time =    1.000,"P-24-1",           787,       109.700,       185.292,            0.,NA,NA,"",   1.30124E+06,   1.37476E+06,   1.37476E+06
C:/temp/Job-24.odb,Step-1,Increment      1: Step Time =    1.000,"P-24-1",           788,       120.938,       33.1472,            0.,NA,NA,"",   2.89673E+06,   3.07917E+06,   3.07917E+06
C:/temp/Job-24.odb,Step-1,Increment      1: Step Time =    1.000,"P-24-1",           789,       164.494,       77.7600,            0.,NA,NA,"",   1.45372E+06,  -979.265E+03,  -979.265E+03
C:/temp/Job-24.odb,Step-1,Increment      1: Step Time =    1.000,"P-24-1",           790,       32.3087,       80.4000,            0.,NA,NA,"",   400.024E+03,  -441.444E+03,  -441.444E+03
C:/temp/Job-24.odb,Step-1,Increment      1: Step Time =    1.000,"P-24-1",           791,       32.4793,       121.574,            0.,NA,NA,"",   382.323E+03,  -418.747E+03,  -418.747E+03
C:/temp/Job-24.odb,Step-1,Increment      1: Step Time =    1.000,"P-24-1",           792,       120.653,       169.311,            0.,NA,NA,"",   2.63571E+06,   2.81341E+06,   2.81341E+06
C:/temp/Job-24.odb,Step-1,Increment      1: Step Time =    1.000,"P-24-1",           793,       167.241,       120.553,            0.,NA,NA,"",   1.42483E+06,  -26.9121E+03,  -26.9121E+03
C:/temp/Job-24.odb,Step-1,Increment      1: Step Time =    1.000,"P-24-1",           794,       78.3619,       167.000,            0.,NA,NA,"",   2.69796E+06,   2.62759E+06,   2.62759E+06
C:/temp/Job-24.odb,Step-1,Increment      1: Step Time =    1.000,"P-24-1",           795,       78.9727,       33.0105,            0.,NA,NA,"",   2.70803E+06,   2.64225E+06,   2.64225E+06
C:/temp/Job-24.odb,Step-1,Increment      1: Step Time =    1.000,"P-24-1",           796,       15.6173,       100.632,            0.,NA,NA,"",   238.157E+03,  -270.888E+03,  -270.888E+03
C:/temp/Job-24.odb,Step-1,Increment      1: Step Time =    1.000,"P-24-1",           797,       98.7715,       15.3415,            0.,NA,NA,"",   1.61862E+06,   1.64416E+06,   1.64416E+06
C:/temp/Job-24.odb,Step-1,Increment      1: Step Time =    1.000,"P-24-1",           798,       185.267,       100.138,            0.,NA,NA,"",   1.11486E+06,   1.28564E+06,   1.28564E+06
C:/temp/Job-24.odb,Step-1,Increment      1: Step Time =    1.000,"P-24-1",           799,       100.658,       186.181,            0.,NA,NA,"",   1.44117E+06,   1.46998E+06,   1.46998E+06
C:/temp/Job-24.odb,Step-1,Increment      1: Step Time =    1.000,"P-24-1",           800,       13.1051,       65.7193,            0.,NA,NA,"",   196.497E+03,   213.591E+03,   213.591E+03
C:/temp/Job-24.odb,Step-1,Increment      1: Step Time =    1.000,"P-24-1",           801,       66.1795,       16.2574,            0.,NA,NA,"",   2.31083E+06,   2.18682E+06,   2.18682E+06
C:/temp/Job-24.odb,Step-1,Increment      1: Step Time =    1.000,"P-24-1",           802,       185.727,       64.8995,            0.,NA,NA,"",   1.49683E+06,   1.56906E+06,   1.56906E+06
C:/temp/Job-24.odb,Step-1,Increment      1: Step Time =    1.000,"P-24-1",           803,       64.3632,       184.862,            0.,NA,NA,"",   2.29844E+06,   2.18305E+06,   2.18305E+06
C:/temp/Job-24.odb,Step-1,Increment      1: Step Time =    1.000,"P-24-1",           804,       134.983,       14.2283,            0.,NA,NA,"",   1.18016E+06,   1.18219E+06,   1.18219E+06
C:/temp/Job-24.odb,Step-1,Increment      1: Step Time =    1.000,"P-24-1",           805,       14.6837,       135.000,            0.,NA,NA,"",   212.063E+03,   226.296E+03,   226.296E+03
C:/temp/Job-24.odb,Step-1,Increment      1: Step Time =    1.000,"P-24-1",           806,       185.641,       136.663,            0.,NA,NA,"",   1.49335E+06,   1.55827E+06,   1.55827E+06
C:/temp/Job-24.odb,Step-1,Increment      1: Step Time =    1.000,"P-24-1",           807,       134.060,       184.573,            0.,NA,NA,"",   1.24744E+06,   1.25890E+06,   1.25890E+06
C:/temp/Job-24.odb,Step-1,Increment      1: Step Time =    1.000,"P-24-1",           808,       13.4724,       74.5767,            0.,NA,NA,"",   71.4253E+03,  -17.9447E+03,  -17.9447E+03
C:/temp/Job-24.odb,Step-1,Increment      1: Step Time =    1.000,"P-24-1",           809,       75.8676,       14.2962,            0.,NA,NA,"",   2.13550E+06,   2.03184E+06,   2.03184E+06
C:/temp/Job-24.odb,Step-1,Increment      1: Step Time =    1.000,"P-24-1",           810,       15.4088,       125.589,            0.,NA,NA,"",   68.7704E+03,  -25.1738E+03,  -25.1738E+03
C:/temp/Job-24.odb,Step-1,Increment      1: Step Time =    1.000,"P-24-1",           811,       125.051,       14.5267,            0.,NA,NA,"",   1.16187E+06,   1.21192E+06,   1.21192E+06
C:/temp/Job-24.odb,Step-1,Increment      1: Step Time =    1.000,"P-24-1",           812,       185.442,       74.5022,            0.,NA,NA,"",   1.49301E+06,   1.59269E+06,   1.59269E+06
C:/temp/Job-24.odb,Step-1,Increment      1: Step Time =    1.000,"P-24-1",           813,       74.7181,       185.020,            0.,NA,NA,"",   2.19184E+06,   2.07787E+06,   2.07787E+06
C:/temp/Job-24.odb,Step-1,Increment      1: Step Time =    1.000,"P-24-1",           814,       185.107,       126.991,            0.,NA,NA,"",   1.51949E+06,   1.60414E+06,   1.60414E+06
C:/temp/Job-24.odb,Step-1,Increment      1: Step Time =    1.000,"P-24-1",           815,       124.663,       185.162,            0.,NA,NA,"",   1.18350E+06,   1.23365E+06,   1.23365E+06
C:/temp/Job-24.odb,Step-1,Increment      1: Step Time =    1.000,"P-24-1",           816,       165.844,       66.0910,            0.,NA,NA,"",   1.91662E+06,   1.43401E+06,   1.43401E+06
C:/temp/Job-24.odb,Step-1,Increment      1: Step Time =    1.000,"P-24-1",           817,       66.6335,       162.063,            0.,NA,NA,"",   2.22987E+06,   2.03363E+06,   2.03363E+06
C:/temp/Job-24.odb,Step-1,Increment      1: Step Time =    1.000,"P-24-1",           818,       135.339,       161.240,            0.,NA,NA,"",   2.65649E+06,   2.73153E+06,   2.73153E+06
C:/temp/Job-24.odb,Step-1,Increment      1: Step Time =    1.000,"P-24-1",           819,       163.563,       132.865,            0.,NA,NA,"",   1.84847E+06,   1.32855E+06,   1.32855E+06
C:/temp/Job-24.odb,Step-1,Increment      1: Step Time =    1.000,"P-24-1",           820,       66.7217,       37.4965,            0.,NA,NA,"",   2.21514E+06,   2.02037E+06,   2.02037E+06
C:/temp/Job-24.odb,Step-1,Increment      1: Step Time =    1.000,"P-24-1",           821,       36.7499,       65.9244,            0.,NA,NA,"",   399.124E+03,  -340.176E+03,  -340.176E+03
C:/temp/Job-24.odb,Step-1,Increment      1: Step Time =    1.000,"P-24-1",           822,       35.7509,       138.263,            0.,NA,NA,"",   458.883E+03,   135.585E+03,   135.585E+03
C:/temp/Job-24.odb,Step-1,Increment      1: Step Time =    1.000,"P-24-1",           823,       134.075,       37.6053,            0.,NA,NA,"",   2.65557E+06,   2.74250E+06,   2.74250E+06
C:/temp/Job-24.odb,Step-1,Increment      1: Step Time =    1.000,"P-24-1",           824,       15.4594,       115.851,            0.,NA,NA,"",   173.134E+03,  -193.006E+03,  -193.006E+03
C:/temp/Job-24.odb,Step-1,Increment      1: Step Time =    1.000,"P-24-1",           825,       84.6821,       13.9039,            0.,NA,NA,"",   1.93840E+06,   1.86720E+06,   1.86720E+06
C:/temp/Job-24.odb,Step-1,Increment      1: Step Time =    1.000,"P-24-1",           826,       16.5248,       84.1661,            0.,NA,NA,"",   175.888E+03,  -197.880E+03,  -197.880E+03
C:/temp/Job-24.odb,Step-1,Increment      1: Step Time =    1.000,"P-24-1",           827,       114.710,       15.2036,            0.,NA,NA,"",   1.25654E+06,   1.34164E+06,   1.34164E+06
C:/temp/Job-24.odb,Step-1,Increment      1: Step Time =    1.000,"P-24-1",           828,       184.289,       84.9567,            0.,NA,NA,"",   1.30024E+06,   1.43300E+06,   1.43300E+06
C:/temp/Job-24.odb,Step-1,Increment      1: Step Time =    1.000,"P-24-1",           829,       114.752,       183.801,            0.,NA,NA,"",   1.36424E+06,   1.46148E+06,   1.46148E+06
C:/temp/Job-24.odb,Step-1,Increment      1: Step Time =    1.000,"P-24-1",           830,       85.5770,       184.264,            0.,NA,NA,"",   2.03686E+06,   1.97612E+06,   1.97612E+06
C:/temp/Job-24.odb,Step-1,Increment      1: Step Time =    1.000,"P-24-1",           831,       182.880,       116.130,            0.,NA,NA,"",   1.28708E+06,   1.36484E+06,   1.36484E+06
C:/temp/Job-24.odb,Step-1,Increment      1: Step Time =    1.000,"P-24-1",           832,       93.7057,       14.6262,            0.,NA,NA,"",   1.73336E+06,   1.72482E+06,   1.72482E+06
C:/temp/Job-24.odb,Step-1,Increment      1: Step Time =    1.000,"P-24-1",           833,       15.4843,       105.817,            0.,NA,NA,"",   231.549E+03,  -262.744E+03,  -262.744E+03
C:/temp/Job-24.odb,Step-1,Increment      1: Step Time =    1.000,"P-24-1",           834,       184.836,       95.4420,            0.,NA,NA,"",   1.11602E+06,   1.28595E+06,   1.28595E+06
C:/temp/Job-24.odb,Step-1,Increment      1: Step Time =    1.000,"P-24-1",           835,       105.128,       185.956,            0.,NA,NA,"",   1.33929E+06,   1.38994E+06,   1.38994E+06
C:/temp/Job-24.odb,Step-1,Increment      1: Step Time =    1.000,"P-24-1",           836,       77.1944,       29.0955,            0.,NA,NA,"",   2.63688E+06,   2.52601E+06,   2.52601E+06
C:/temp/Job-24.odb,Step-1,Increment      1: Step Time =    1.000,"P-24-1",           837,       170.123,       78.0548,            0.,NA,NA,"",   1.49050E+06,   548.289E+03,   548.289E+03
C:/temp/Job-24.odb,Step-1,Increment      1: Step Time =    1.000,"P-24-1",           838,       122.054,       27.9140,            0.,NA,NA,"",   2.30777E+06,   2.46324E+06,   2.46324E+06
C:/temp/Job-24.odb,Step-1,Increment      1: Step Time =    1.000,"P-24-1",           839,       27.0715,       79.3232,            0.,NA,NA,"",   240.012E+03,  -272.200E+03,  -272.200E+03
C:/temp/Job-24.odb,Step-1,Increment      1: Step Time =    1.000,"P-24-1",           840,       26.3002,       121.142,            0.,NA,NA,"",   218.843E+03,  -248.293E+03,  -248.293E+03
C:/temp/Job-24.odb,Step-1,Increment      1: Step Time =    1.000,"P-24-1",           841,       123.066,       173.210,            0.,NA,NA,"",   2.17884E+06,   2.32603E+06,   2.32603E+06
C:/temp/Job-24.odb,Step-1,Increment      1: Step Time =    1.000,"P-24-1",           842,       172.180,       118.592,            0.,NA,NA,"",   1.31488E+06,   930.535E+03,   930.535E+03
C:/temp/Job-24.odb,Step-1,Increment      1: Step Time =    1.000,"P-24-1",           843,       77.7044,       173.065,            0.,NA,NA,"",   2.58531E+06,   2.47210E+06,   2.47210E+06
C:/temp/Job-24.odb,Step-1,Increment      1: Step Time =    1.000,"P-24-1",           844,       15.8764,       95.3908,            0.,NA,NA,"",   232.659E+03,  -264.689E+03,  -264.689E+03
C:/temp/Job-24.odb,Step-1,Increment      1: Step Time =    1.000,"P-24-1",           845,       104.255,       15.2508,            0.,NA,NA,"",   1.46874E+06,   1.52740E+06,   1.52740E+06
C:/temp/Job-24.odb,Step-1,Increment      1: Step Time =    1.000,"P-24-1",           846,       184.949,       105.118,            0.,NA,NA,"",   1.11643E+06,   1.28522E+06,   1.28522E+06
C:/temp/Job-24.odb,Step-1,Increment      1: Step Time =    1.000,"P-24-1",           847,       96.0806,       186.135,            0.,NA,NA,"",   1.59207E+06,   1.59350E+06,   1.59350E+06
C:/temp/Job-24.odb,Step-1,Increment      1: Step Time =    1.000,"P-24-1",           848,       111.334,       27.8724,            0.,NA,NA,"",   2.57170E+06,   2.75243E+06,   2.75243E+06
C:/temp/Job-24.odb,Step-1,Increment      1: Step Time =    1.000,"P-24-1",           849,       169.763,       85.9414,            0.,NA,NA,"",   1.13398E+06,  -178.370E+03,  -178.370E+03
C:/temp/Job-24.odb,Step-1,Increment      1: Step Time =    1.000,"P-24-1",           850,       29.0172,       89.1218,            0.,NA,NA,"",   349.457E+03,  -398.336E+03,  -398.336E+03
C:/temp/Job-24.odb,Step-1,Increment      1: Step Time =    1.000,"P-24-1",           851,       30.7288,       111.159,            0.,NA,NA,"",   399.065E+03,  -449.831E+03,  -449.831E+03
C:/temp/Job-24.odb,Step-1,Increment      1: Step Time =    1.000,"P-24-1",           852,       88.6971,       30.3707,            0.,NA,NA,"",   2.89738E+06,   2.94750E+06,   2.94750E+06
C:/temp/Job-24.odb,Step-1,Increment      1: Step Time =    1.000,"P-24-1",           853,       88.2498,       171.140,            0.,NA,NA,"",   2.77804E+06,   2.80576E+06,   2.80576E+06
C:/temp/Job-24.odb,Step-1,Increment      1: Step Time =    1.000,"P-24-1",           854,       170.009,       111.967,            0.,NA,NA,"",   1.01083E+06,  -448.586E+03,  -448.586E+03
C:/temp/Job-24.odb,Step-1,Increment      1: Step Time =    1.000,"P-24-1",           855,       110.008,       173.436,            0.,NA,NA,"",   2.43697E+06,   2.60941E+06,   2.60941E+06
C:/temp/Job-24.odb,Step-1,Increment      1: Step Time =    1.000,"P-24-1",           856,       164.137,       9.94993,            0.,NA,NA,"",   1.02752E+06,   1.00918E+06,   1.00918E+06
C:/temp/Job-24.odb,Step-1,Increment      1: Step Time =    1.000,"P-24-1",           857,       9.70391,       163.585,            0.,NA,NA,"",   1.25398E+06,   1.35933E+06,   1.35933E+06
C:/temp/Job-24.odb,Step-1,Increment      1: Step Time =    1.000,"P-24-1",           858,       35.8269,       10.0555,            0.,NA,NA,"",   2.54647E+06,   2.52338E+06,   2.52338E+06
C:/temp/Job-24.odb,Step-1,Increment      1: Step Time =    1.000,"P-24-1",           859,       10.7778,       36.6299,            0.,NA,NA,"",   1.26533E+06,   1.36358E+06,   1.36358E+06
C:/temp/Job-24.odb,Step-1,Increment      1: Step Time =    1.000,"P-24-1",           860,       189.666,       164.464,            0.,NA,NA,"",   1.08009E+06,   1.11960E+06,   1.11960E+06
C:/temp/Job-24.odb,Step-1,Increment      1: Step Time =    1.000,"P-24-1",           861,       164.234,       190.393,            0.,NA,NA,"",   1.02050E+06,   1.00242E+06,   1.00242E+06
C:/temp/Job-24.odb,Step-1,Increment      1: Step Time =    1.000,"P-24-1",           862,       189.705,       36.0010,            0.,NA,NA,"",   1.08340E+06,   1.12462E+06,   1.12462E+06
C:/temp/Job-24.odb,Step-1,Increment      1: Step Time =    1.000,"P-24-1",           863,       35.4567,       189.637,            0.,NA,NA,"",   2.53807E+06,   2.51676E+06,   2.51676E+06
C:/temp/Job-24.odb,Step-1,Increment      1: Step Time =    1.000,"P-24-1",           864,       20.9148,       90.6098,            0.,NA,NA,"",   223.634E+03,  -256.431E+03,  -256.431E+03
C:/temp/Job-24.odb,Step-1,Increment      1: Step Time =    1.000,"P-24-1",           865,       109.445,       19.5449,            0.,NA,NA,"",   1.73947E+06,   1.85304E+06,   1.85304E+06
C:/temp/Job-24.odb,Step-1,Increment      1: Step Time =    1.000,"P-24-1",           866,       178.605,       108.783,            0.,NA,NA,"",   805.339E+03,   828.367E+03,   828.367E+03
C:/temp/Job-24.odb,Step-1,Increment      1: Step Time =    1.000,"P-24-1",           867,       88.6623,       180.121,            0.,NA,NA,"",   2.24585E+06,   2.21973E+06,   2.21973E+06
C:/temp/Job-24.odb,Step-1,Increment      1: Step Time =    1.000,"P-24-1",           868,       20.5364,       101.084,            0.,NA,NA,"",   236.905E+03,  -262.380E+03,  -262.380E+03
C:/temp/Job-24.odb,Step-1,Increment      1: Step Time =    1.000,"P-24-1",           869,       97.9161,       21.0238,            0.,NA,NA,"",   2.13437E+06,   2.20239E+06,   2.20239E+06
C:/temp/Job-24.odb,Step-1,Increment      1: Step Time =    1.000,"P-24-1",           870,       181.309,       100.353,            0.,NA,NA,"",   748.930E+03,   858.641E+03,   858.641E+03
C:/temp/Job-24.odb,Step-1,Increment      1: Step Time =    1.000,"P-24-1",           871,       100.814,       181.852,            0.,NA,NA,"",   1.80480E+06,   1.87091E+06,   1.87091E+06
C:/temp/Job-24.odb,Step-1,Increment      1: Step Time =    1.000,"P-24-1",           872,       164.048,       14.6074,            0.,NA,NA,"",   1.16955E+06,   1.13802E+06,   1.13802E+06
C:/temp/Job-24.odb,Step-1,Increment      1: Step Time =    1.000,"P-24-1",           873,       14.5179,       162.792,            0.,NA,NA,"",   1.28252E+06,   1.35485E+06,   1.35485E+06
C:/temp/Job-24.odb,Step-1,Increment      1: Step Time =    1.000,"P-24-1",           874,       35.9773,       14.9325,            0.,NA,NA,"",   2.39788E+06,   2.35665E+06,   2.35665E+06
C:/temp/Job-24.odb,Step-1,Increment      1: Step Time =    1.000,"P-24-1",           875,       15.4171,       36.6668,            0.,NA,NA,"",   1.32271E+06,   1.38859E+06,   1.38859E+06
C:/temp/Job-24.odb,Step-1,Increment      1: Step Time =    1.000,"P-24-1",           876,       185.084,       165.093,            0.,NA,NA,"",   1.18586E+06,   1.20130E+06,   1.20130E+06
C:/temp/Job-24.odb,Step-1,Increment      1: Step Time =    1.000,"P-24-1",           877,       163.909,       185.774,            0.,NA,NA,"",   1.15516E+06,   1.12397E+06,   1.12397E+06
C:/temp/Job-24.odb,Step-1,Increment      1: Step Time =    1.000,"P-24-1",           878,       184.403,       36.4668,            0.,NA,NA,"",   1.22864E+06,   1.23741E+06,   1.23741E+06
C:/temp/Job-24.odb,Step-1,Increment      1: Step Time =    1.000,"P-24-1",           879,       35.2437,       184.674,            0.,NA,NA,"",   2.38485E+06,   2.34505E+06,   2.34505E+06
C:/temp/Job-24.odb,Step-1,Increment      1: Step Time =    1.000,"P-24-1",           880,       17.7100,       57.9001,            0.,NA,NA,"",   452.821E+03,   471.111E+03,   471.111E+03
C:/temp/Job-24.odb,Step-1,Increment      1: Step Time =    1.000,"P-24-1",           881,       61.3774,       22.6135,            0.,NA,NA,"",   2.39663E+06,   2.21844E+06,   2.21844E+06
C:/temp/Job-24.odb,Step-1,Increment      1: Step Time =    1.000,"P-24-1",           882,       58.5677,       180.811,            0.,NA,NA,"",   2.35974E+06,   2.21766E+06,   2.21766E+06
C:/temp/Job-24.odb,Step-1,Increment      1: Step Time =    1.000,"P-24-1",           883,       181.088,       60.3184,            0.,NA,NA,"",   1.63829E+06,   1.57842E+06,   1.57842E+06
C:/temp/Job-24.odb,Step-1,Increment      1: Step Time =    1.000,"P-24-1",           884,       139.626,       18.9310,            0.,NA,NA,"",   1.48097E+06,   1.47431E+06,   1.47431E+06
C:/temp/Job-24.odb,Step-1,Increment      1: Step Time =    1.000,"P-24-1",           885,       19.0422,       139.321,            0.,NA,NA,"",   353.783E+03,   362.237E+03,   362.237E+03
C:/temp/Job-24.odb,Step-1,Increment      1: Step Time =    1.000,"P-24-1",           886,       182.238,       142.475,            0.,NA,NA,"",   1.56634E+06,   1.54240E+06,   1.54240E+06
C:/temp/Job-24.odb,Step-1,Increment      1: Step Time =    1.000,"P-24-1",           887,       138.664,       179.465,            0.,NA,NA,"",   1.57267E+06,   1.57579E+06,   1.57579E+06
C:/temp/Job-24.odb,Step-1,Increment      1: Step Time =    1.000,"P-24-1",           888,       17.5629,       70.2109,            0.,NA,NA,"",   75.6743E+03,   52.8568E+03,   52.8568E+03
C:/temp/Job-24.odb,Step-1,Increment      1: Step Time =    1.000,"P-24-1",           889,       72.6527,       20.3451,            0.,NA,NA,"",   2.40787E+06,   2.26437E+06,   2.26437E+06
C:/temp/Job-24.odb,Step-1,Increment      1: Step Time =    1.000,"P-24-1",           890,       180.380,       132.658,            0.,NA,NA,"",   1.66065E+06,   1.57981E+06,   1.57981E+06
C:/temp/Job-24.odb,Step-1,Increment      1: Step Time =    1.000,"P-24-1",           891,       128.727,       180.192,            0.,NA,NA,"",   1.54690E+06,   1.60577E+06,   1.60577E+06
C:/temp/Job-24.odb,Step-1,Increment      1: Step Time =    1.000,"P-24-1",           892,       130.126,       18.6381,            0.,NA,NA,"",   1.46693E+06,   1.51139E+06,   1.51139E+06
C:/temp/Job-24.odb,Step-1,Increment      1: Step Time =    1.000,"P-24-1",           893,       21.1119,       130.982,            0.,NA,NA,"",   120.967E+03,   68.6576E+03,   68.6576E+03
C:/temp/Job-24.odb,Step-1,Increment      1: Step Time =    1.000,"P-24-1",           894,       69.5348,       179.684,            0.,NA,NA,"",   2.40609E+06,   2.24714E+06,   2.24714E+06
C:/temp/Job-24.odb,Step-1,Increment      1: Step Time =    1.000,"P-24-1",           895,       180.947,       69.4054,            0.,NA,NA,"",   1.61701E+06,   1.56430E+06,   1.56430E+06
C:/temp/Job-24.odb,Step-1,Increment      1: Step Time =    1.000,"P-24-1",           896,       170.602,       67.7129,            0.,NA,NA,"",   1.86834E+06,   1.46318E+06,   1.46318E+06
C:/temp/Job-24.odb,Step-1,Increment      1: Step Time =    1.000,"P-24-1",           897,       71.1464,       167.052,            0.,NA,NA,"",   2.52191E+06,   2.35613E+06,   2.35613E+06
C:/temp/Job-24.odb,Step-1,Increment      1: Step Time =    1.000,"P-24-1",           898,       131.207,       165.673,            0.,NA,NA,"",   2.57330E+06,   2.68129E+06,   2.68129E+06
C:/temp/Job-24.odb,Step-1,Increment      1: Step Time =    1.000,"P-24-1",           899,       169.186,       125.475,            0.,NA,NA,"",   1.65210E+06,   1.15788E+06,   1.15788E+06
C:/temp/Job-24.odb,Step-1,Increment      1: Step Time =    1.000,"P-24-1",           900,       68.0502,       32.2289,            0.,NA,NA,"",   2.44564E+06,   2.24766E+06,   2.24766E+06
C:/temp/Job-24.odb,Step-1,Increment      1: Step Time =    1.000,"P-24-1",           901,       30.5011,       69.4437,            0.,NA,NA,"",   244.629E+03,  -223.834E+03,  -223.834E+03
C:/temp/Job-24.odb,Step-1,Increment      1: Step Time =    1.000,"P-24-1",           902,       126.327,       31.2107,            0.,NA,NA,"",   2.48704E+06,   2.63227E+06,   2.63227E+06
C:/temp/Job-24.odb,Step-1,Increment      1: Step Time =    1.000,"P-24-1",           903,       30.3583,       134.596,            0.,NA,NA,"",   291.234E+03,   15.2017E+03,   15.2017E+03
C:/temp/Job-24.odb,Step-1,Increment      1: Step Time =    1.000,"P-24-1",           904,       120.149,       19.7097,            0.,NA,NA,"",   1.60263E+06,   1.71223E+06,   1.71223E+06
C:/temp/Job-24.odb,Step-1,Increment      1: Step Time =    1.000,"P-24-1",           905,       82.6534,       179.749,            0.,NA,NA,"",   2.35027E+06,   2.27026E+06,   2.27026E+06
C:/temp/Job-24.odb,Step-1,Increment      1: Step Time =    1.000,"P-24-1",           906,       179.503,       119.547,            0.,NA,NA,"",   1.35078E+06,   1.29268E+06,   1.29268E+06
C:/temp/Job-24.odb,Step-1,Increment      1: Step Time =    1.000,"P-24-1",           907,       82.1350,       26.9132,            0.,NA,NA,"",   2.63745E+06,   2.57397E+06,   2.57397E+06
C:/temp/Job-24.odb,Step-1,Increment      1: Step Time =    1.000,"P-24-1",           908,       173.596,       81.3043,            0.,NA,NA,"",   1.32463E+06,   1.00074E+06,   1.00074E+06
C:/temp/Job-24.odb,Step-1,Increment      1: Step Time =    1.000,"P-24-1",           909,       116.085,       25.7465,            0.,NA,NA,"",   2.24634E+06,   2.41299E+06,   2.41299E+06
C:/temp/Job-24.odb,Step-1,Increment      1: Step Time =    1.000,"P-24-1",           910,       27.5963,       84.8411,            0.,NA,NA,"",   307.148E+03,  -350.246E+03,  -350.246E+03
C:/temp/Job-24.odb,Step-1,Increment      1: Step Time =    1.000,"P-24-1",           911,       26.0897,       116.320,            0.,NA,NA,"",   259.358E+03,  -297.115E+03,  -297.115E+03
C:/temp/Job-24.odb,Step-1,Increment      1: Step Time =    1.000,"P-24-1",           912,       172.030,       115.237,            0.,NA,NA,"",   1.12701E+06,   393.595E+03,   393.595E+03
C:/temp/Job-24.odb,Step-1,Increment      1: Step Time =    1.000,"P-24-1",           913,       113.982,       176.013,            0.,NA,NA,"",   2.08952E+06,   2.24493E+06,   2.24493E+06
C:/temp/Job-24.odb,Step-1,Increment      1: Step Time =    1.000,"P-24-1",           914,       83.9149,       173.533,            0.,NA,NA,"",   2.63477E+06,   2.59606E+06,   2.59606E+06
C:/temp/Job-24.odb,Step-1,Increment      1: Step Time =    1.000,"P-24-1",           915,       108.585,       181.197,            0.,NA,NA,"",   1.69398E+06,   1.79883E+06,   1.79883E+06
C:/temp/Job-24.odb,Step-1,Increment      1: Step Time =    1.000,"P-24-1",           916,       167.788,       108.009,            0.,NA,NA,"",   1.04208E+06,  -958.169E+03,  -958.169E+03
C:/temp/Job-24.odb,Step-1,Increment      1: Step Time =    1.000,"P-24-1",           917,       93.2700,       166.338,            0.,NA,NA,"",   3.30546E+06,   3.42117E+06,   3.42117E+06
C:/temp/Job-24.odb,Step-1,Increment      1: Step Time =    1.000,"P-24-1",           918,       34.0768,       93.8685,            0.,NA,NA,"",   517.390E+03,  -570.383E+03,  -570.383E+03
C:/temp/Job-24.odb,Step-1,Increment      1: Step Time =    1.000,"P-24-1",           919,       106.214,       33.5614,            0.,NA,NA,"",   3.49215E+06,   3.68262E+06,   3.68262E+06
C:/temp/Job-24.odb,Step-1,Increment      1: Step Time =    1.000,"P-24-1",           920,       175.892,       104.737,            0.,NA,NA,"",   471.519E+03,   451.974E+03,   451.974E+03
C:/temp/Job-24.odb,Step-1,Increment      1: Step Time =    1.000,"P-24-1",           921,       104.920,       177.315,            0.,NA,NA,"",   2.12112E+06,   2.24844E+06,   2.24844E+06
C:/temp/Job-24.odb,Step-1,Increment      1: Step Time =    1.000,"P-24-1",           922,       93.2860,       174.129,            0.,NA,NA,"",   2.57604E+06,   2.63453E+06,   2.63453E+06
C:/temp/Job-24.odb,Step-1,Increment      1: Step Time =    1.000,"P-24-1",           923,       94.3994,       25.6023,            0.,NA,NA,"",   2.57752E+06,   2.64991E+06,   2.64991E+06
C:/temp/Job-24.odb,Step-1,Increment      1: Step Time =    1.000,"P-24-1",           924,       25.2813,       106.336,            0.,NA,NA,"",   274.919E+03,  -311.060E+03,  -311.060E+03
C:/temp/Job-24.odb,Step-1,Increment      1: Step Time =    1.000,"P-24-1",           925,       25.4153,       94.0851,            0.,NA,NA,"",   273.880E+03,  -309.233E+03,  -309.233E+03
C:/temp/Job-24.odb,Step-1,Increment      1: Step Time =    1.000,"P-24-1",           926,       174.554,       91.6936,            0.,NA,NA,"",   736.256E+03,   141.927E+03,   141.927E+03
C:/temp/Job-24.odb,Step-1,Increment      1: Step Time =    1.000,"P-24-1",           927,       105.184,       24.2613,            0.,NA,NA,"",   2.29774E+06,   2.44058E+06,   2.44058E+06
C:/temp/Job-24.odb,Step-1,Increment      1: Step Time =    1.000,"P-24-1",           928,       32.6387,       141.741,            0.,NA,NA,"",   549.808E+03,   425.803E+03,   425.803E+03
C:/temp/Job-24.odb,Step-1,Increment      1: Step Time =    1.000,"P-24-1",           929,       138.365,       39.4476,            0.,NA,NA,"",   2.53615E+06,   2.57098E+06,   2.57098E+06
C:/temp/Job-24.odb,Step-1,Increment      1: Step Time =    1.000,"P-24-1",           930,       62.4218,       35.1544,            0.,NA,NA,"",   2.23564E+06,   2.00585E+06,   2.00585E+06
C:/temp/Job-24.odb,Step-1,Increment      1: Step Time =    1.000,"P-24-1",           931,       38.5660,       61.3671,            0.,NA,NA,"",   510.371E+03,  -155.817E+03,  -155.817E+03
C:/temp/Job-24.odb,Step-1,Increment      1: Step Time =    1.000,"P-24-1",           932,       138.965,       164.343,            0.,NA,NA,"",   2.36760E+06,   2.39746E+06,   2.39746E+06
C:/temp/Job-24.odb,Step-1,Increment      1: Step Time =    1.000,"P-24-1",           933,       163.402,       137.331,            0.,NA,NA,"",   1.97809E+06,   1.53359E+06,   1.53359E+06
C:/temp/Job-24.odb,Step-1,Increment      1: Step Time =    1.000,"P-24-1",           934,       166.485,       62.1577,            0.,NA,NA,"",   2.00056E+06,   1.58590E+06,   1.58590E+06
C:/temp/Job-24.odb,Step-1,Increment      1: Step Time =    1.000,"P-24-1",           935,       61.8906,       160.997,            0.,NA,NA,"",   2.06203E+06,   1.82383E+06,   1.82383E+06
C:/temp/Job-24.odb,Step-1,Increment      1: Step Time =    1.000,"P-24-1",           936,       88.4333,       24.3649,            0.,NA,NA,"",   2.51476E+06,   2.51270E+06,   2.51270E+06
C:/temp/Job-24.odb,Step-1,Increment      1: Step Time =    1.000,"P-24-1",           937,       25.6883,       111.304,            0.,NA,NA,"",   275.039E+03,  -315.698E+03,  -315.698E+03
C:/temp/Job-24.odb,Step-1,Increment      1: Step Time =    1.000,"P-24-1",           938,       174.167,       87.4801,            0.,NA,NA,"",   969.849E+03,   391.227E+03,   391.227E+03
C:/temp/Job-24.odb,Step-1,Increment      1: Step Time =    1.000,"P-24-1",           939,       108.602,       177.698,            0.,NA,NA,"",   2.02036E+06,   2.15861E+06,   2.15861E+06
C:/temp/Job-24.odb,Step-1,Increment      1: Step Time =    1.000,"P-24-1",           940,       120.974,       24.1104,            0.,NA,NA,"",   1.97942E+06,   2.11718E+06,   2.11718E+06
C:/temp/Job-24.odb,Step-1,Increment      1: Step Time =    1.000,"P-24-1",           941,       23.0928,       81.6576,            0.,NA,NA,"",   189.485E+03,  -218.652E+03,  -218.652E+03
C:/temp/Job-24.odb,Step-1,Increment      1: Step Time =    1.000,"P-24-1",           942,       79.7093,       22.7105,            0.,NA,NA,"",   2.47860E+06,   2.37524E+06,   2.37524E+06
C:/temp/Job-24.odb,Step-1,Increment      1: Step Time =    1.000,"P-24-1",           943,       175.987,       118.934,            0.,NA,NA,"",   1.32674E+06,   1.14179E+06,   1.14179E+06
C:/temp/Job-24.odb,Step-1,Increment      1: Step Time =    1.000,"P-24-1",           944,       79.9291,       176.374,            0.,NA,NA,"",   2.51432E+06,   2.41738E+06,   2.41738E+06
C:/temp/Job-24.odb,Step-1,Increment      1: Step Time =    1.000,"P-24-1",           945,       176.018,       77.0276,            0.,NA,NA,"",   1.50412E+06,   1.29307E+06,   1.29307E+06
C:/temp/Job-24.odb,Step-1,Increment      1: Step Time =    1.000,"P-24-1",           946,       124.125,       176.586,            0.,NA,NA,"",   1.85980E+06,   1.97332E+06,   1.97332E+06
C:/temp/Job-24.odb,Step-1,Increment      1: Step Time =    1.000,"P-24-1",           947,       178.380,       103.250,            0.,NA,NA,"",   507.873E+03,   579.294E+03,   579.294E+03
C:/temp/Job-24.odb,Step-1,Increment      1: Step Time =    1.000,"P-24-1",           948,       97.1439,       177.756,            0.,NA,NA,"",   2.26928E+06,   2.34263E+06,   2.34263E+06
C:/temp/Job-24.odb,Step-1,Increment      1: Step Time =    1.000,"P-24-1",           949,       140.152,       24.9614,            0.,NA,NA,"",   1.81384E+06,   1.81477E+06,   1.81477E+06
C:/temp/Job-24.odb,Step-1,Increment      1: Step Time =    1.000,"P-24-1",           950,       23.6337,       142.383,            0.,NA,NA,"",   506.483E+03,   486.571E+03,   486.571E+03
C:/temp/Job-24.odb,Step-1,Increment      1: Step Time =    1.000,"P-24-1",           951,       24.8349,       58.0806,            0.,NA,NA,"",   487.855E+03,   459.182E+03,   459.182E+03
C:/temp/Job-24.odb,Step-1,Increment      1: Step Time =    1.000,"P-24-1",           952,       62.9277,       26.2076,            0.,NA,NA,"",   2.42854E+06,   2.22580E+06,   2.22580E+06
C:/temp/Job-24.odb,Step-1,Increment      1: Step Time =    1.000,"P-24-1",           953,       60.0272,       175.349,            0.,NA,NA,"",   2.38465E+06,   2.19068E+06,   2.19068E+06
C:/temp/Job-24.odb,Step-1,Increment      1: Step Time =    1.000,"P-24-1",           954,       176.692,       59.9922,            0.,NA,NA,"",   1.79502E+06,   1.61780E+06,   1.61780E+06
C:/temp/Job-24.odb,Step-1,Increment      1: Step Time =    1.000,"P-24-1",           955,       176.526,       142.310,            0.,NA,NA,"",   1.79892E+06,   1.62158E+06,   1.62158E+06
C:/temp/Job-24.odb,Step-1,Increment      1: Step Time =    1.000,"P-24-1",           956,       142.284,       175.642,            0.,NA,NA,"",   1.75451E+06,   1.73653E+06,   1.73653E+06
C:/temp/Job-24.odb,Step-1,Increment      1: Step Time =    1.000,"P-24-1",           957,       175.649,       69.7599,            0.,NA,NA,"",   1.72722E+06,   1.48680E+06,   1.48680E+06
C:/temp/Job-24.odb,Step-1,Increment      1: Step Time =    1.000,"P-24-1",           958,       130.438,       175.382,            0.,NA,NA,"",   1.87660E+06,   1.95348E+06,   1.95348E+06
C:/temp/Job-24.odb,Step-1,Increment      1: Step Time =    1.000,"P-24-1",           959,       174.130,       110.075,            0.,NA,NA,"",   800.301E+03,   335.700E+03,   335.700E+03
C:/temp/Job-24.odb,Step-1,Increment      1: Step Time =    1.000,"P-24-1",           960,       89.4963,       174.895,            0.,NA,NA,"",   2.53607E+06,   2.54804E+06,   2.54804E+06
C:/temp/Job-24.odb,Step-1,Increment      1: Step Time =    1.000,"P-24-1",           961,       24.6596,       90.1576,            0.,NA,NA,"",   261.338E+03,  -299.698E+03,  -299.698E+03
C:/temp/Job-24.odb,Step-1,Increment      1: Step Time =    1.000,"P-24-1",           962,       109.960,       23.3327,            0.,NA,NA,"",   2.09585E+06,   2.24260E+06,   2.24260E+06
C:/temp/Job-24.odb,Step-1,Increment      1: Step Time =    1.000,"P-24-1",           963,       130.915,       171.571,            0.,NA,NA,"",   2.14346E+06,   2.23461E+06,   2.23461E+06
C:/temp/Job-24.odb,Step-1,Increment      1: Step Time =    1.000,"P-24-1",           964,       172.102,       126.321,            0.,NA,NA,"",   1.66394E+06,   1.28598E+06,   1.28598E+06
C:/temp/Job-24.odb,Step-1,Increment      1: Step Time =    1.000,"P-24-1",           965,       72.2305,       172.761,            0.,NA,NA,"",   2.54133E+06,   2.36982E+06,   2.36982E+06
C:/temp/Job-24.odb,Step-1,Increment      1: Step Time =    1.000,"P-24-1",           966,       126.319,       27.3262,            0.,NA,NA,"",   2.14467E+06,   2.26815E+06,   2.26815E+06
C:/temp/Job-24.odb,Step-1,Increment      1: Step Time =    1.000,"P-24-1",           967,       25.9412,       130.049,            0.,NA,NA,"",   153.627E+03,  -86.2676E+03,  -86.2676E+03
C:/temp/Job-24.odb,Step-1,Increment      1: Step Time =    1.000,"P-24-1",           968,       25.9045,       72.8743,            0.,NA,NA,"",   145.354E+03,  -153.740E+03,  -153.740E+03
C:/temp/Job-24.odb,Step-1,Increment      1: Step Time =    1.000,"P-24-1",           969,       71.0115,       26.9222,            0.,NA,NA,"",   2.53820E+06,   2.36595E+06,   2.36595E+06
C:/temp/Job-24.odb,Step-1,Increment      1: Step Time =    1.000,"P-24-1",           970,       14.6027,       167.345,            0.,NA,NA,"",   1.49198E+06,   1.56973E+06,   1.56973E+06
C:/temp/Job-24.odb,Step-1,Increment      1: Step Time =    1.000,"P-24-1",           971,       168.670,       18.8150,            0.,NA,NA,"",   1.24529E+06,   1.20965E+06,   1.20965E+06
C:/temp/Job-24.odb,Step-1,Increment      1: Step Time =    1.000,"P-24-1",           972,       15.2495,       32.2702,            0.,NA,NA,"",   1.52038E+06,   1.59395E+06,   1.59395E+06
C:/temp/Job-24.odb,Step-1,Increment      1: Step Time =    1.000,"P-24-1",           973,       31.1311,       14.4855,            0.,NA,NA,"",   2.42124E+06,   2.39471E+06,   2.39471E+06
C:/temp/Job-24.odb,Step-1,Increment      1: Step Time =    1.000,"P-24-1",           974,       181.729,       170.070,            0.,NA,NA,"",   1.20910E+06,   1.20507E+06,   1.20507E+06
C:/temp/Job-24.odb,Step-1,Increment      1: Step Time =    1.000,"P-24-1",           975,       168.535,       185.782,            0.,NA,NA,"",   1.13129E+06,   1.10656E+06,   1.10656E+06
C:/temp/Job-24.odb,Step-1,Increment      1: Step Time =    1.000,"P-24-1",           976,       184.651,       31.5359,            0.,NA,NA,"",   1.16907E+06,   1.17651E+06,   1.17651E+06
C:/temp/Job-24.odb,Step-1,Increment      1: Step Time =    1.000,"P-24-1",           977,       30.8053,       184.585,            0.,NA,NA,"",   2.39014E+06,   2.36551E+06,   2.36551E+06
C:/temp/Job-24.odb,Step-1,Increment      1: Step Time =    1.000,"P-24-1",           978,       13.2676,       57.1094,            0.,NA,NA,"",   464.223E+03,   502.131E+03,   502.131E+03
C:/temp/Job-24.odb,Step-1,Increment      1: Step Time =    1.000,"P-24-1",           979,       55.7023,       16.8670,            0.,NA,NA,"",   2.34906E+06,   2.23275E+06,   2.23275E+06
C:/temp/Job-24.odb,Step-1,Increment      1: Step Time =    1.000,"P-24-1",           980,       187.296,       145.122,            0.,NA,NA,"",   1.34245E+06,   1.41671E+06,   1.41671E+06
C:/temp/Job-24.odb,Step-1,Increment      1: Step Time =    1.000,"P-24-1",           981,       144.070,       184.759,            0.,NA,NA,"",   1.26379E+06,   1.23670E+06,   1.23670E+06
C:/temp/Job-24.odb,Step-1,Increment      1: Step Time =    1.000,"P-24-1",           982,       55.0251,       186.320,            0.,NA,NA,"",   2.34811E+06,   2.26541E+06,   2.26541E+06
C:/temp/Job-24.odb,Step-1,Increment      1: Step Time =    1.000,"P-24-1",           983,       185.526,       55.6511,            0.,NA,NA,"",   1.42796E+06,   1.46887E+06,   1.46887E+06
C:/temp/Job-24.odb,Step-1,Increment      1: Step Time =    1.000,"P-24-1",           984,       14.5106,       144.059,            0.,NA,NA,"",   508.941E+03,   544.478E+03,   544.478E+03
C:/temp/Job-24.odb,Step-1,Increment      1: Step Time =    1.000,"P-24-1",           985,       145.196,       14.8814,            0.,NA,NA,"",   1.22883E+06,   1.19832E+06,   1.19832E+06
C:/temp/Job-24.odb,Step-1,Increment      1: Step Time =    1.000,"P-24-1",           986,       100.874,       172.963,            0.,NA,NA,"",   2.66919E+06,   2.81498E+06,   2.81498E+06
C:/temp/Job-24.odb,Step-1,Increment      1: Step Time =    1.000,"P-24-1",           987,       174.897,       100.604,            0.,NA,NA,"",   347.329E+03,   182.168E+03,   182.168E+03
C:/temp/Job-24.odb,Step-1,Increment      1: Step Time =    1.000,"P-24-1",           988,       97.1121,       173.816,            0.,NA,NA,"",   2.61952E+06,   2.72749E+06,   2.72749E+06
C:/temp/Job-24.odb,Step-1,Increment      1: Step Time =    1.000,"P-24-1",           989,       97.6161,       26.9128,            0.,NA,NA,"",   2.67003E+06,   2.78609E+06,   2.78609E+06
C:/temp/Job-24.odb,Step-1,Increment      1: Step Time =    1.000,"P-24-1",           990,       25.0190,       101.593,            0.,NA,NA,"",   277.008E+03,  -307.630E+03,  -307.630E+03
C:/temp/Job-24.odb,Step-1,Increment      1: Step Time =    1.000,"P-24-1",           991,       29.3108,       97.8935,            0.,NA,NA,"",   360.742E+03,  -412.872E+03,  -412.872E+03
C:/temp/Job-24.odb,Step-1,Increment      1: Step Time =    1.000,"P-24-1",           992,       170.281,       97.1360,            0.,NA,NA,"",   700.927E+03,  -627.238E+03,  -627.238E+03
C:/temp/Job-24.odb,Step-1,Increment      1: Step Time =    1.000,"P-24-1",           993,       101.345,       29.2159,            0.,NA,NA,"",   2.91367E+06,   3.08005E+06,   3.08005E+06
C:/temp/Job-24.odb,Step-1,Increment      1: Step Time =    1.000,"P-24-1",           994,       36.2428,       141.687,            0.,NA,NA,"",   587.392E+03,   414.624E+03,   414.624E+03
C:/temp/Job-24.odb,Step-1,Increment      1: Step Time =    1.000,"P-24-1",           995,       142.684,       41.1318,            0.,NA,NA,"",   2.42644E+06,   2.40676E+06,   2.40676E+06
C:/temp/Job-24.odb,Step-1,Increment      1: Step Time =    1.000,"P-24-1",           996,       55.8086,       35.8169,            0.,NA,NA,"",   2.08756E+06,   1.84443E+06,   1.84443E+06
C:/temp/Job-24.odb,Step-1,Increment      1: Step Time =    1.000,"P-24-1",           997,       40.2788,       56.9703,            0.,NA,NA,"",   689.931E+03,   288.532E+03,   288.532E+03
C:/temp/Job-24.odb,Step-1,Increment      1: Step Time =    1.000,"P-24-1",           998,       142.168,       160.563,            0.,NA,NA,"",   2.41005E+06,   2.40170E+06,   2.40170E+06
C:/temp/Job-24.odb,Step-1,Increment      1: Step Time =    1.000,"P-24-1",           999,       158.720,       142.609,            0.,NA,NA,"",   2.05425E+06,   1.71143E+06,   1.71143E+06
C:/temp/Job-24.odb,Step-1,Increment      1: Step Time =    1.000,"P-24-1",          1000,       162.110,       56.8867,            0.,NA,NA,"",   2.08190E+06,   1.72503E+06,   1.72503E+06
C:/temp/Job-24.odb,Step-1,Increment      1: Step Time =    1.000,"P-24-1",          1001,       57.1641,       159.794,            0.,NA,NA,"",   1.89001E+06,   1.63177E+06,   1.63177E+06
C:/temp/Job-24.odb,Step-1,Increment      1: Step Time =    1.000,"P-24-1",          1002,       180.183,       78.9299,            0.,NA,NA,"",   1.40856E+06,   1.37220E+06,   1.37220E+06
C:/temp/Job-24.odb,Step-1,Increment      1: Step Time =    1.000,"P-24-1",          1003,       20.7943,       120.947,            0.,NA,NA,"",   137.056E+03,  -157.849E+03,  -157.849E+03
C:/temp/Job-24.odb,Step-1,Increment      1: Step Time =    1.000,"P-24-1",          1004,       120.622,       180.412,            0.,NA,NA,"",   1.58658E+06,   1.69459E+06,   1.69459E+06
C:/temp/Job-24.odb,Step-1,Increment      1: Step Time =    1.000,"P-24-1",          1005,       80.5648,       17.2521,            0.,NA,NA,"",   2.21168E+06,   2.11079E+06,   2.11079E+06
C:/temp/Job-24.odb,Step-1,Increment      1: Step Time =    1.000,"P-24-1",          1006,       60.8355,       166.256,            0.,NA,NA,"",   2.26371E+06,   2.02570E+06,   2.02570E+06
C:/temp/Job-24.odb,Step-1,Increment      1: Step Time =    1.000,"P-24-1",          1007,       167.259,       58.0293,            0.,NA,NA,"",   2.03077E+06,   1.68311E+06,   1.68311E+06
C:/temp/Job-24.odb,Step-1,Increment      1: Step Time =    1.000,"P-24-1",          1008,       33.4856,       59.2036,            0.,NA,NA,"",   525.503E+03,   264.160E+03,   264.160E+03
C:/temp/Job-24.odb,Step-1,Increment      1: Step Time =    1.000,"P-24-1",          1009,       59.0282,       32.3990,            0.,NA,NA,"",   2.25057E+06,   2.01839E+06,   2.01839E+06
C:/temp/Job-24.odb,Step-1,Increment      1: Step Time =    1.000,"P-24-1",          1010,       142.645,       167.049,            0.,NA,NA,"",   2.15351E+06,   2.13690E+06,   2.13690E+06
C:/temp/Job-24.odb,Step-1,Increment      1: Step Time =    1.000,"P-24-1",          1011,       168.427,       137.063,            0.,NA,NA,"",   1.97340E+06,   1.57988E+06,   1.57988E+06
C:/temp/Job-24.odb,Step-1,Increment      1: Step Time =    1.000,"P-24-1",          1012,       140.376,       35.0425,            0.,NA,NA,"",   2.29241E+06,   2.29860E+06,   2.29860E+06
C:/temp/Job-24.odb,Step-1,Increment      1: Step Time =    1.000,"P-24-1",          1013,       31.6812,       144.467,            0.,NA,NA,"",   651.737E+03,   547.747E+03,   547.747E+03
C:/temp/Job-24.odb,Step-1,Increment      1: Step Time =    1.000,"P-24-1",          1014,       74.7600,       164.348,            0.,NA,NA,"",   2.56130E+06,   2.46270E+06,   2.46270E+06
C:/temp/Job-24.odb,Step-1,Increment      1: Step Time =    1.000,"P-24-1",          1015,       165.516,       124.290,            0.,NA,NA,"",   1.58025E+06,   31.8976E+03,   31.8976E+03
C:/temp/Job-24.odb,Step-1,Increment      1: Step Time =    1.000,"P-24-1",          1016,       33.8122,       75.7205,            0.,NA,NA,"",   391.683E+03,  -421.634E+03,  -421.634E+03
C:/temp/Job-24.odb,Step-1,Increment      1: Step Time =    1.000,"P-24-1",          1017,       125.003,       34.9914,            0.,NA,NA,"",   2.92617E+06,   3.09091E+06,   3.09091E+06
C:/temp/Job-24.odb,Step-1,Increment      1: Step Time =    1.000,"P-24-1",          1018,       130.358,       22.9264,            0.,NA,NA,"",   1.75645E+06,   1.82232E+06,   1.82232E+06
C:/temp/Job-24.odb,Step-1,Increment      1: Step Time =    1.000,"P-24-1",          1019,       70.2220,       175.387,            0.,NA,NA,"",   2.49067E+06,   2.31167E+06,   2.31167E+06
C:/temp/Job-24.odb,Step-1,Increment      1: Step Time =    1.000,"P-24-1",          1020,       21.5699,       70.2952,            0.,NA,NA,"",   91.1641E+03,   18.2150E+03,   18.2150E+03
C:/temp/Job-24.odb,Step-1,Increment      1: Step Time =    1.000,"P-24-1",          1021,       175.989,       132.394,            0.,NA,NA,"",   1.76629E+06,   1.54660E+06,   1.54660E+06
C:/temp/Job-24.odb,Step-1,Increment      1: Step Time =    1.000,"P-24-1",          1022,       8.82218,       56.3006,            0.,NA,NA,"",   490.740E+03,   539.526E+03,   539.526E+03
C:/temp/Job-24.odb,Step-1,Increment      1: Step Time =    1.000,"P-24-1",          1023,       55.2182,       190.868,            0.,NA,NA,"",   2.35697E+06,   2.31188E+06,   2.31188E+06
C:/temp/Job-24.odb,Step-1,Increment      1: Step Time =    1.000,"P-24-1",          1024,       144.957,       9.60073,            0.,NA,NA,"",   934.745E+03,   910.833E+03,   910.833E+03
C:/temp/Job-24.odb,Step-1,Increment      1: Step Time =    1.000,"P-24-1",          1025,       191.419,       144.910,            0.,NA,NA,"",   1.16644E+06,   1.30335E+06,   1.30335E+06
C:/temp/Job-24.odb,Step-1,Increment      1: Step Time =    1.000,"P-24-1",          1026,       135.326,       26.8379,            0.,NA,NA,"",   1.97014E+06,   2.01400E+06,   2.01400E+06
C:/temp/Job-24.odb,Step-1,Increment      1: Step Time =    1.000,"P-24-1",          1027,       23.7196,       137.905,            0.,NA,NA,"",   329.706E+03,   301.980E+03,   301.980E+03
C:/temp/Job-24.odb,Step-1,Increment      1: Step Time =    1.000,"P-24-1",          1028,       26.5187,       65.2460,            0.,NA,NA,"",   244.274E+03,   87.1324E+03,   87.1324E+03
C:/temp/Job-24.odb,Step-1,Increment      1: Step Time =    1.000,"P-24-1",          1029,       65.7421,       26.9413,            0.,NA,NA,"",   2.47054E+06,   2.26782E+06,   2.26782E+06
C:/temp/Job-24.odb,Step-1,Increment      1: Step Time =    1.000,"P-24-1",          1030,       65.8543,       172.518,            0.,NA,NA,"",   2.45469E+06,   2.25325E+06,   2.25325E+06
C:/temp/Job-24.odb,Step-1,Increment      1: Step Time =    1.000,"P-24-1",          1031,       176.224,       64.4772,            0.,NA,NA,"",   1.79773E+06,   1.58879E+06,   1.58879E+06
C:/temp/Job-24.odb,Step-1,Increment      1: Step Time =    1.000,"P-24-1",          1032,       173.986,       136.337,            0.,NA,NA,"",   1.86514E+06,   1.59294E+06,   1.59294E+06
C:/temp/Job-24.odb,Step-1,Increment      1: Step Time =    1.000,"P-24-1",          1033,       134.970,       173.298,            0.,NA,NA,"",   1.98147E+06,   2.03081E+06,   2.03081E+06
C:/temp/Job-24.odb,Step-1,Increment      1: Step Time =    1.000,"P-24-1",          1034,       175.132,       123.843,            0.,NA,NA,"",   1.53800E+06,   1.28057E+06,   1.28057E+06
C:/temp/Job-24.odb,Step-1,Increment      1: Step Time =    1.000,"P-24-1",          1035,       127.542,       176.045,            0.,NA,NA,"",   1.85715E+06,   1.94913E+06,   1.94913E+06
C:/temp/Job-24.odb,Step-1,Increment      1: Step Time =    1.000,"P-24-1",          1036,       74.0643,       175.335,            0.,NA,NA,"",   2.52256E+06,   2.36884E+06,   2.36884E+06
C:/temp/Job-24.odb,Step-1,Increment      1: Step Time =    1.000,"P-24-1",          1037,       172.652,       74.1455,            0.,NA,NA,"",   1.64433E+06,   1.27145E+06,   1.27145E+06
C:/temp/Job-24.odb,Step-1,Increment      1: Step Time =    1.000,"P-24-1",          1038,       125.786,       23.2926,            0.,NA,NA,"",   1.83285E+06,   1.93414E+06,   1.93414E+06
C:/temp/Job-24.odb,Step-1,Increment      1: Step Time =    1.000,"P-24-1",          1039,       25.3470,       133.669,            0.,NA,NA,"",   209.830E+03,   89.5194E+03,   89.5194E+03
C:/temp/Job-24.odb,Step-1,Increment      1: Step Time =    1.000,"P-24-1",          1040,       25.9933,       125.770,            0.,NA,NA,"",   165.829E+03,  -180.252E+03,  -180.252E+03
C:/temp/Job-24.odb,Step-1,Increment      1: Step Time =    1.000,"P-24-1",          1041,       22.5003,       75.2742,            0.,NA,NA,"",   109.373E+03,  -122.118E+03,  -122.118E+03
C:/temp/Job-24.odb,Step-1,Increment      1: Step Time =    1.000,"P-24-1",          1042,       75.0647,       24.8750,            0.,NA,NA,"",   2.54805E+06,   2.40637E+06,   2.40637E+06
C:/temp/Job-24.odb,Step-1,Increment      1: Step Time =    1.000,"P-24-1",          1043,       68.3227,       28.5290,            0.,NA,NA,"",   2.51087E+06,   2.31788E+06,   2.31788E+06
C:/temp/Job-24.odb,Step-1,Increment      1: Step Time =    1.000,"P-24-1",          1044,       15.1244,       171.787,            0.,NA,NA,"",   1.71820E+06,   1.79405E+06,   1.79405E+06
C:/temp/Job-24.odb,Step-1,Increment      1: Step Time =    1.000,"P-24-1",          1045,       19.4684,       162.149,            0.,NA,NA,"",   1.32471E+06,   1.35822E+06,   1.35822E+06
C:/temp/Job-24.odb,Step-1,Increment      1: Step Time =    1.000,"P-24-1",          1046,       163.838,       19.0671,            0.,NA,NA,"",   1.30697E+06,   1.26132E+06,   1.26132E+06
C:/temp/Job-24.odb,Step-1,Increment      1: Step Time =    1.000,"P-24-1",          1047,       16.0739,       27.9745,            0.,NA,NA,"",   1.73443E+06,   1.80337E+06,   1.80337E+06
C:/temp/Job-24.odb,Step-1,Increment      1: Step Time =    1.000,"P-24-1",          1048,       26.1673,       14.5518,            0.,NA,NA,"",   2.42715E+06,   2.41988E+06,   2.41988E+06
C:/temp/Job-24.odb,Step-1,Increment      1: Step Time =    1.000,"P-24-1",          1049,       35.6943,       19.4671,            0.,NA,NA,"",   2.26751E+06,   2.20892E+06,   2.20892E+06
C:/temp/Job-24.odb,Step-1,Increment      1: Step Time =    1.000,"P-24-1",          1050,       19.2693,       33.0199,            0.,NA,NA,"",   1.54735E+06,   1.58673E+06,   1.58673E+06
C:/temp/Job-24.odb,Step-1,Increment      1: Step Time =    1.000,"P-24-1",          1051,       181.027,       165.944,            0.,NA,NA,"",   1.28447E+06,   1.27203E+06,   1.27203E+06
C:/temp/Job-24.odb,Step-1,Increment      1: Step Time =    1.000,"P-24-1",          1052,       163.756,       181.166,            0.,NA,NA,"",   1.29447E+06,   1.24876E+06,   1.24876E+06
C:/temp/Job-24.odb,Step-1,Increment      1: Step Time =    1.000,"P-24-1",          1053,       173.357,       185.298,            0.,NA,NA,"",   1.11175E+06,   1.09457E+06,   1.09457E+06
C:/temp/Job-24.odb,Step-1,Increment      1: Step Time =    1.000,"P-24-1",          1054,       179.014,       36.7138,            0.,NA,NA,"",   1.39247E+06,   1.35736E+06,   1.35736E+06
C:/temp/Job-24.odb,Step-1,Increment      1: Step Time =    1.000,"P-24-1",          1055,       35.5697,       179.849,            0.,NA,NA,"",   2.24047E+06,   2.17992E+06,   2.17992E+06
C:/temp/Job-24.odb,Step-1,Increment      1: Step Time =    1.000,"P-24-1",          1056,       26.0806,       184.196,            0.,NA,NA,"",   2.38137E+06,   2.37463E+06,   2.37463E+06
C:/temp/Job-24.odb,Step-1,Increment      1: Step Time =    1.000,"P-24-1",          1057,       184.864,       26.7489,            0.,NA,NA,"",   1.12361E+06,   1.12806E+06,   1.12806E+06
C:/temp/Job-24.odb,Step-1,Increment      1: Step Time =    1.000,"P-24-1",          1058,       40.8056,       141.957,            0.,NA,NA,"",   648.726E+03,   220.193E+03,   220.193E+03
C:/temp/Job-24.odb,Step-1,Increment      1: Step Time =    1.000,"P-24-1",          1059,       144.486,       36.7213,            0.,NA,NA,"",   2.26863E+06,   2.22974E+06,   2.22974E+06
C:/temp/Job-24.odb,Step-1,Increment      1: Step Time =    1.000,"P-24-1",          1060,       55.6130,       42.6976,            0.,NA,NA,"",   1.70588E+06,   1.44291E+06,   1.44291E+06
C:/temp/Job-24.odb,Step-1,Increment      1: Step Time =    1.000,"P-24-1",          1061,       35.1271,       54.8216,            0.,NA,NA,"",   727.406E+03,   580.530E+03,   580.530E+03
C:/temp/Job-24.odb,Step-1,Increment      1: Step Time =    1.000,"P-24-1",          1062,       142.490,       153.814,            0.,NA,NA,"",   2.48281E+06,   2.47675E+06,   2.47675E+06
C:/temp/Job-24.odb,Step-1,Increment      1: Step Time =    1.000,"P-24-1",          1063,       163.808,       142.140,            0.,NA,NA,"",   2.06484E+06,   1.69207E+06,   1.69207E+06
C:/temp/Job-24.odb,Step-1,Increment      1: Step Time =    1.000,"P-24-1",          1064,       157.079,       55.5345,            0.,NA,NA,"",   2.09732E+06,   1.78940E+06,   1.78940E+06
C:/temp/Job-24.odb,Step-1,Increment      1: Step Time =    1.000,"P-24-1",          1065,       55.5471,       165.445,            0.,NA,NA,"",   2.11327E+06,   1.87207E+06,   1.87207E+06
C:/temp/Job-24.odb,Step-1,Increment      1: Step Time =    1.000,"P-24-1",          1066,       94.3473,       34.5435,            0.,NA,NA,"",   3.44944E+06,   3.57142E+06,   3.57142E+06
C:/temp/Job-24.odb,Step-1,Increment      1: Step Time =    1.000,"P-24-1",          1067,       105.578,       167.495,            0.,NA,NA,"",   3.33870E+06,   3.52370E+06,   3.52370E+06
C:/temp/Job-24.odb,Step-1,Increment      1: Step Time =    1.000,"P-24-1",          1068,       165.272,       93.0711,            0.,NA,NA,"",   1.37932E+06,  -1.36686E+06,  -1.36686E+06
C:/temp/Job-24.odb,Step-1,Increment      1: Step Time =    1.000,"P-24-1",          1069,       34.4894,       105.438,            0.,NA,NA,"",   538.812E+03,  -590.605E+03,  -590.605E+03
C:/temp/Job-24.odb,Step-1,Increment      1: Step Time =    1.000,"P-24-1",          1070,       60.3750,       171.380,            0.,NA,NA,"",   2.35904E+06,   2.13966E+06,   2.13966E+06
C:/temp/Job-24.odb,Step-1,Increment      1: Step Time =    1.000,"P-24-1",          1071,       168.363,       53.7635,            0.,NA,NA,"",   2.00025E+06,   1.72075E+06,   1.72075E+06
C:/temp/Job-24.odb,Step-1,Increment      1: Step Time =    1.000,"P-24-1",          1072,       172.139,       59.1224,            0.,NA,NA,"",   1.92864E+06,   1.65069E+06,   1.65069E+06
C:/temp/Job-24.odb,Step-1,Increment      1: Step Time =    1.000,"P-24-1",          1073,       26.9907,       60.3334,            0.,NA,NA,"",   417.929E+03,   360.065E+03,   360.065E+03
C:/temp/Job-24.odb,Step-1,Increment      1: Step Time =    1.000,"P-24-1",          1074,       53.5160,       31.4662,            0.,NA,NA,"",   2.16435E+06,   1.94457E+06,   1.94457E+06
C:/temp/Job-24.odb,Step-1,Increment      1: Step Time =    1.000,"P-24-1",          1075,       61.2581,       28.9693,            0.,NA,NA,"",   2.36857E+06,   2.15167E+06,   2.15167E+06
C:/temp/Job-24.odb,Step-1,Increment      1: Step Time =    1.000,"P-24-1",          1076,       145.414,       163.548,            0.,NA,NA,"",   2.23259E+06,   2.18256E+06,   2.18256E+06
C:/temp/Job-24.odb,Step-1,Increment      1: Step Time =    1.000,"P-24-1",          1077,       140.440,       170.694,            0.,NA,NA,"",   2.02978E+06,   2.03378E+06,   2.03378E+06
C:/temp/Job-24.odb,Step-1,Increment      1: Step Time =    1.000,"P-24-1",          1078,       173.101,       141.019,            0.,NA,NA,"",   1.89705E+06,   1.64403E+06,   1.64403E+06
C:/temp/Job-24.odb,Step-1,Increment      1: Step Time =    1.000,"P-24-1",          1079,       141.606,       28.7425,            0.,NA,NA,"",   1.98553E+06,   1.97579E+06,   1.97579E+06
C:/temp/Job-24.odb,Step-1,Increment      1: Step Time =    1.000,"P-24-1",          1080,       35.8322,       145.272,            0.,NA,NA,"",   742.723E+03,   590.738E+03,   590.738E+03
C:/temp/Job-24.odb,Step-1,Increment      1: Step Time =    1.000,"P-24-1",          1081,       28.0418,       143.038,            0.,NA,NA,"",   557.884E+03,   497.267E+03,   497.267E+03
C:/temp/Job-24.odb,Step-1,Increment      1: Step Time =    1.000,"P-24-1",          1082,       50.7866,       182.173,            0.,NA,NA,"",   2.33191E+06,   2.22654E+06,   2.22654E+06
C:/temp/Job-24.odb,Step-1,Increment      1: Step Time =    1.000,"P-24-1",          1083,       185.007,       51.0991,            0.,NA,NA,"",   1.38962E+06,   1.41569E+06,   1.41569E+06
C:/temp/Job-24.odb,Step-1,Increment      1: Step Time =    1.000,"P-24-1",          1084,       182.382,       149.172,            0.,NA,NA,"",   1.48857E+06,   1.47062E+06,   1.47062E+06
C:/temp/Job-24.odb,Step-1,Increment      1: Step Time =    1.000,"P-24-1",          1085,       149.238,       185.249,            0.,NA,NA,"",   1.23861E+06,   1.20112E+06,   1.20112E+06
C:/temp/Job-24.odb,Step-1,Increment      1: Step Time =    1.000,"P-24-1",          1086,       18.7045,       50.5809,            0.,NA,NA,"",   750.302E+03,   773.213E+03,   773.213E+03
C:/temp/Job-24.odb,Step-1,Increment      1: Step Time =    1.000,"P-24-1",          1087,       50.6369,       16.8199,            0.,NA,NA,"",   2.34582E+06,   2.24750E+06,   2.24750E+06
C:/temp/Job-24.odb,Step-1,Increment      1: Step Time =    1.000,"P-24-1",          1088,       14.7168,       148.739,            0.,NA,NA,"",   685.576E+03,   729.566E+03,   729.566E+03
C:/temp/Job-24.odb,Step-1,Increment      1: Step Time =    1.000,"P-24-1",          1089,       150.076,       14.0117,            0.,NA,NA,"",   1.19454E+06,   1.15887E+06,   1.15887E+06
C:/temp/Job-24.odb,Step-1,Increment      1: Step Time =    1.000,"P-24-1",          1090,       88.6459,       17.6221,            0.,NA,NA,"",   2.10114E+06,   2.06177E+06,   2.06177E+06
C:/temp/Job-24.odb,Step-1,Increment      1: Step Time =    1.000,"P-24-1",          1091,       20.5781,       111.166,            0.,NA,NA,"",   218.439E+03,  -250.595E+03,  -250.595E+03
C:/temp/Job-24.odb,Step-1,Increment      1: Step Time =    1.000,"P-24-1",          1092,       179.370,       90.8442,            0.,NA,NA,"",   871.788E+03,   928.970E+03,   928.970E+03
C:/temp/Job-24.odb,Step-1,Increment      1: Step Time =    1.000,"P-24-1",          1093,       111.612,       179.612,            0.,NA,NA,"",   1.79359E+06,   1.92373E+06,   1.92373E+06
C:/temp/Job-24.odb,Step-1,Increment      1: Step Time =    1.000,"P-24-1",          1094,       152.648,       53.9949,            0.,NA,NA,"",   2.09093E+06,   1.87738E+06,   1.87738E+06
C:/temp/Job-24.odb,Step-1,Increment      1: Step Time =    1.000,"P-24-1",          1095,       45.6490,       146.215,            0.,NA,NA,"",   884.169E+03,   375.440E+03,   375.440E+03
C:/temp/Job-24.odb,Step-1,Increment      1: Step Time =    1.000,"P-24-1",          1096,       53.7930,       46.5250,            0.,NA,NA,"",   1.42521E+06,   1.15525E+06,   1.15525E+06
C:/temp/Job-24.odb,Step-1,Increment      1: Step Time =    1.000,"P-24-1",          1097,       34.7284,       23.6886,            0.,NA,NA,"",   2.13052E+06,   2.06205E+06,   2.06205E+06
C:/temp/Job-24.odb,Step-1,Increment      1: Step Time =    1.000,"P-24-1",          1098,       22.7234,       33.4507,            0.,NA,NA,"",   1.57902E+06,   1.58771E+06,   1.58771E+06
C:/temp/Job-24.odb,Step-1,Increment      1: Step Time =    1.000,"P-24-1",          1099,       23.6517,       166.517,            0.,NA,NA,"",   1.59889E+06,   1.59891E+06,   1.59891E+06
C:/temp/Job-24.odb,Step-1,Increment      1: Step Time =    1.000,"P-24-1",          1100,       163.860,       23.3338,            0.,NA,NA,"",   1.43463E+06,   1.37322E+06,   1.37322E+06
C:/temp/Job-24.odb,Step-1,Increment      1: Step Time =    1.000,"P-24-1",          1101,       174.058,       36.8608,            0.,NA,NA,"",   1.55006E+06,   1.47152E+06,   1.47152E+06
C:/temp/Job-24.odb,Step-1,Increment      1: Step Time =    1.000,"P-24-1",          1102,       36.5454,       175.378,            0.,NA,NA,"",   2.10783E+06,   2.02580E+06,   2.02580E+06
C:/temp/Job-24.odb,Step-1,Increment      1: Step Time =    1.000,"P-24-1",          1103,       177.642,       166.842,            0.,NA,NA,"",   1.35918E+06,   1.32398E+06,   1.32398E+06
C:/temp/Job-24.odb,Step-1,Increment      1: Step Time =    1.000,"P-24-1",          1104,       164.152,       176.029,            0.,NA,NA,"",   1.44627E+06,   1.38171E+06,   1.38171E+06
C:/temp/Job-24.odb,Step-1,Increment      1: Step Time =    1.000,"P-24-1",          1105,       17.3720,       77.7983,            0.,NA,NA,"",   101.635E+03,  -114.243E+03,  -114.243E+03
C:/temp/Job-24.odb,Step-1,Increment      1: Step Time =    1.000,"P-24-1",          1106,       79.3468,       181.713,            0.,NA,NA,"",   2.29364E+06,   2.18691E+06,   2.18691E+06
C:/temp/Job-24.odb,Step-1,Increment      1: Step Time =    1.000,"P-24-1",          1107,       180.075,       123.263,            0.,NA,NA,"",   1.48358E+06,   1.42006E+06,   1.42006E+06
C:/temp/Job-24.odb,Step-1,Increment      1: Step Time =    1.000,"P-24-1",          1108,       14.5324,       158.238,            0.,NA,NA,"",   1.08604E+06,   1.15035E+06,   1.15035E+06
C:/temp/Job-24.odb,Step-1,Increment      1: Step Time =    1.000,"P-24-1",          1109,       159.306,       14.9605,            0.,NA,NA,"",   1.19755E+06,   1.15981E+06,   1.15981E+06
C:/temp/Job-24.odb,Step-1,Increment      1: Step Time =    1.000,"P-24-1",          1110,       20.4605,       174.083,            0.,NA,NA,"",   1.89712E+06,   1.93004E+06,   1.93004E+06
C:/temp/Job-24.odb,Step-1,Increment      1: Step Time =    1.000,"P-24-1",          1111,       173.331,       18.9736,            0.,NA,NA,"",   1.19118E+06,   1.16645E+06,   1.16645E+06
C:/temp/Job-24.odb,Step-1,Increment      1: Step Time =    1.000,"P-24-1",          1112,       174.333,       9.83676,            0.,NA,NA,"",   1.02086E+06,   1.01262E+06,   1.01262E+06
C:/temp/Job-24.odb,Step-1,Increment      1: Step Time =    1.000,"P-24-1",          1113,       26.8356,       19.0163,            0.,NA,NA,"",   2.25391E+06,   2.23955E+06,   2.23955E+06
C:/temp/Job-24.odb,Step-1,Increment      1: Step Time =    1.000,"P-24-1",          1114,       21.9677,       26.9450,            0.,NA,NA,"",   1.86128E+06,   1.87774E+06,   1.87774E+06
C:/temp/Job-24.odb,Step-1,Increment      1: Step Time =    1.000,"P-24-1",          1115,       11.2352,       26.4086,            0.,NA,NA,"",   1.72415E+06,   1.83841E+06,   1.83841E+06
C:/temp/Job-24.odb,Step-1,Increment      1: Step Time =    1.000,"P-24-1",          1116,       40.8271,       15.6519,            0.,NA,NA,"",   2.37225E+06,   2.31324E+06,   2.31324E+06
C:/temp/Job-24.odb,Step-1,Increment      1: Step Time =    1.000,"P-24-1",          1117,       16.5018,       40.9382,            0.,NA,NA,"",   1.14846E+06,   1.20065E+06,   1.20065E+06
C:/temp/Job-24.odb,Step-1,Increment      1: Step Time =    1.000,"P-24-1",          1118,       190.298,       174.766,            0.,NA,NA,"",   1.04564E+06,   1.05521E+06,   1.05521E+06
C:/temp/Job-24.odb,Step-1,Increment      1: Step Time =    1.000,"P-24-1",          1119,       181.614,       174.303,            0.,NA,NA,"",   1.16486E+06,   1.16055E+06,   1.16055E+06
C:/temp/Job-24.odb,Step-1,Increment      1: Step Time =    1.000,"P-24-1",          1120,       174.923,       179.712,            0.,NA,NA,"",   1.19551E+06,   1.17313E+06,   1.17313E+06
C:/temp/Job-24.odb,Step-1,Increment      1: Step Time =    1.000,"P-24-1",          1121,       159.159,       185.660,            0.,NA,NA,"",   1.18053E+06,   1.14351E+06,   1.14351E+06
C:/temp/Job-24.odb,Step-1,Increment      1: Step Time =    1.000,"P-24-1",          1122,       183.621,       160.468,            0.,NA,NA,"",    1.2847E+06,   1.28929E+06,   1.28929E+06
C:/temp/Job-24.odb,Step-1,Increment      1: Step Time =    1.000,"P-24-1",          1123,       25.5494,       189.501,            0.,NA,NA,"",   2.58636E+06,   2.58279E+06,   2.58279E+06
C:/temp/Job-24.odb,Step-1,Increment      1: Step Time =    1.000,"P-24-1",          1124,       184.335,       41.5121,            0.,NA,NA,"",   1.29117E+06,   1.30147E+06,   1.30147E+06
C:/temp/Job-24.odb,Step-1,Increment      1: Step Time =    1.000,"P-24-1",          1125,       39.3935,       180.035,            0.,NA,NA,"",   2.26394E+06,   2.18418E+06,   2.18418E+06
C:/temp/Job-24.odb,Step-1,Increment      1: Step Time =    1.000,"P-24-1",          1126,       179.605,       25.0073,            0.,NA,NA,"",   1.19209E+06,   1.18125E+06,   1.18125E+06
C:/temp/Job-24.odb,Step-1,Increment      1: Step Time =    1.000,"P-24-1",          1127,       27.2247,       179.138,            0.,NA,NA,"",   2.18266E+06,   2.16494E+06,   2.16494E+06
C:/temp/Job-24.odb,Step-1,Increment      1: Step Time =    1.000,"P-24-1",          1128,       154.076,       9.10264,            0.,NA,NA,"",   982.292E+03,   960.319E+03,   960.319E+03
C:/temp/Job-24.odb,Step-1,Increment      1: Step Time =    1.000,"P-24-1",          1129,       190.788,       153.820,            0.,NA,NA,"",   1.10156E+06,   1.19540E+06,   1.19540E+06
C:/temp/Job-24.odb,Step-1,Increment      1: Step Time =    1.000,"P-24-1",          1130,       46.0042,       190.539,            0.,NA,NA,"",   2.47500E+06,   2.44103E+06,   2.44103E+06
C:/temp/Job-24.odb,Step-1,Increment      1: Step Time =    1.000,"P-24-1",          1131,       9.97732,       47.1327,            0.,NA,NA,"",   819.711E+03,   892.589E+03,   892.589E+03
C:/temp/Job-24.odb,Step-1,Increment      1: Step Time =    1.000,"P-24-1",          1132,       177.356,       55.9470,            0.,NA,NA,"",   1.74935E+06,   1.60719E+06,   1.60719E+06
C:/temp/Job-24.odb,Step-1,Increment      1: Step Time =    1.000,"P-24-1",          1133,       56.5489,       29.2266,            0.,NA,NA,"",   2.26986E+06,   2.05282E+06,   2.05282E+06
C:/temp/Job-24.odb,Step-1,Increment      1: Step Time =    1.000,"P-24-1",          1134,       146.242,       169.701,            0.,NA,NA,"",   1.97746E+06,   1.92807E+06,   1.92807E+06
C:/temp/Job-24.odb,Step-1,Increment      1: Step Time =    1.000,"P-24-1",          1135,       26.7377,       146.761,            0.,NA,NA,"",   704.186E+03,   665.718E+03,   665.718E+03
C:/temp/Job-24.odb,Step-1,Increment      1: Step Time =    1.000,"P-24-1",          1136,       69.8246,       170.748,            0.,NA,NA,"",   2.52321E+06,   2.33540E+06,   2.33540E+06
C:/temp/Job-24.odb,Step-1,Increment      1: Step Time =    1.000,"P-24-1",          1137,       130.734,       27.2297,            0.,NA,NA,"",   2.05608E+06,   2.14228E+06,   2.14228E+06
C:/temp/Job-24.odb,Step-1,Increment      1: Step Time =    1.000,"P-24-1",          1138,       172.337,       129.149,            0.,NA,NA,"",   1.75513E+06,   1.38769E+06,   1.38769E+06
C:/temp/Job-24.odb,Step-1,Increment      1: Step Time =    1.000,"P-24-1",          1139,       25.5015,       68.8822,            0.,NA,NA,"",   161.766E+03,  -30.5319E+03,  -30.5319E+03
C:/temp/Job-24.odb,Step-1,Increment      1: Step Time =    1.000,"P-24-1",          1140,       56.5212,       176.434,            0.,NA,NA,"",   2.34513E+06,   2.16852E+06,   2.16852E+06
C:/temp/Job-24.odb,Step-1,Increment      1: Step Time =    1.000,"P-24-1",          1141,       147.551,       26.9217,            0.,NA,NA,"",   1.82225E+06,   1.76990E+06,   1.76990E+06
C:/temp/Job-24.odb,Step-1,Increment      1: Step Time =    1.000,"P-24-1",          1142,       173.580,       144.576,            0.,NA,NA,"",   1.87102E+06,   1.65109E+06,   1.65109E+06
C:/temp/Job-24.odb,Step-1,Increment      1: Step Time =    1.000,"P-24-1",          1143,       25.5737,       55.7851,            0.,NA,NA,"",   592.700E+03,   561.162E+03,   561.162E+03
C:/temp/Job-24.odb,Step-1,Increment      1: Step Time =    1.000,"P-24-1",          1144,       189.897,       45.7750,            0.,NA,NA,"",   1.13303E+06,   1.21469E+06,   1.21469E+06
C:/temp/Job-24.odb,Step-1,Increment      1: Step Time =    1.000,"P-24-1",          1145,       154.391,       190.219,            0.,NA,NA,"",   1.00648E+06,   980.981E+03,   980.981E+03
C:/temp/Job-24.odb,Step-1,Increment      1: Step Time =    1.000,"P-24-1",          1146,       45.6581,       10.7045,            0.,NA,NA,"",   2.45670E+06,   2.41586E+06,   2.41586E+06
C:/temp/Job-24.odb,Step-1,Increment      1: Step Time =    1.000,"P-24-1",          1147,       9.65318,       154.017,            0.,NA,NA,"",   863.127E+03,   940.801E+03,   940.801E+03
C:/temp/Job-24.odb,Step-1,Increment      1: Step Time =    1.000,"P-24-1",          1148,       41.8071,       52.6645,            0.,NA,NA,"",   914.588E+03,   691.462E+03,   691.462E+03
C:/temp/Job-24.odb,Step-1,Increment      1: Step Time =    1.000,"P-24-1",          1149,       52.6021,       158.416,            0.,NA,NA,"",   1.72188E+06,   1.46377E+06,   1.46377E+06
C:/temp/Job-24.odb,Step-1,Increment      1: Step Time =    1.000,"P-24-1",          1150,       146.948,       42.5183,            0.,NA,NA,"",   2.32601E+06,   2.24857E+06,   2.24857E+06
C:/temp/Job-24.odb,Step-1,Increment      1: Step Time =    1.000,"P-24-1",          1151,       174.454,       50.7558,            0.,NA,NA,"",   1.78859E+06,   1.62555E+06,   1.62555E+06
C:/temp/Job-24.odb,Step-1,Increment      1: Step Time =    1.000,"P-24-1",          1152,       50.6508,       23.0954,            0.,NA,NA,"",   2.27199E+06,   2.12594E+06,   2.12594E+06
C:/temp/Job-24.odb,Step-1,Increment      1: Step Time =    1.000,"P-24-1",          1153,       152.003,       169.403,            0.,NA,NA,"",   1.89075E+06,   1.80281E+06,   1.80281E+06
C:/temp/Job-24.odb,Step-1,Increment      1: Step Time =    1.000,"P-24-1",          1154,       24.8459,       150.183,            0.,NA,NA,"",   846.068E+03,   827.167E+03,   827.167E+03
C:/temp/Job-24.odb,Step-1,Increment      1: Step Time =    1.000,"P-24-1",          1155,       32.4277,       27.6896,            0.,NA,NA,"",   1.94776E+06,   1.88227E+06,   1.88227E+06
C:/temp/Job-24.odb,Step-1,Increment      1: Step Time =    1.000,"P-24-1",          1156,       25.9648,       33.1212,            0.,NA,NA,"",   1.63553E+06,   1.61384E+06,   1.61384E+06
C:/temp/Job-24.odb,Step-1,Increment      1: Step Time =    1.000,"P-24-1",          1157,       28.2953,       168.675,            0.,NA,NA,"",   1.75339E+06,   1.71453E+06,   1.71453E+06
C:/temp/Job-24.odb,Step-1,Increment      1: Step Time =    1.000,"P-24-1",          1158,       168.225,       26.2201,            0.,NA,NA,"",   1.43420E+06,   1.37356E+06,   1.37356E+06
C:/temp/Job-24.odb,Step-1,Increment      1: Step Time =    1.000,"P-24-1",          1159,       173.309,       32.6570,            0.,NA,NA,"",   1.47391E+06,   1.41164E+06,   1.41164E+06
C:/temp/Job-24.odb,Step-1,Increment      1: Step Time =    1.000,"P-24-1",          1160,       32.5623,       174.485,            0.,NA,NA,"",   2.04129E+06,   1.98256E+06,   1.98256E+06
C:/temp/Job-24.odb,Step-1,Increment      1: Step Time =    1.000,"P-24-1",          1161,       174.962,       170.066,            0.,NA,NA,"",   1.36358E+06,   1.32114E+06,   1.32114E+06
C:/temp/Job-24.odb,Step-1,Increment      1: Step Time =    1.000,"P-24-1",          1162,       168.104,       177.563,            0.,NA,NA,"",   1.33134E+06,   1.28493E+06,   1.28493E+06
C:/temp/Job-24.odb,Step-1,Increment      1: Step Time =    1.000,"P-24-1",          1163,       16.4785,       175.892,            0.,NA,NA,"",   1.93620E+06,   2.00162E+06,   2.00162E+06
C:/temp/Job-24.odb,Step-1,Increment      1: Step Time =    1.000,"P-24-1",          1164,       21.2036,       14.7864,            0.,NA,NA,"",   2.43128E+06,    2.4444E+06,    2.4444E+06
C:/temp/Job-24.odb,Step-1,Increment      1: Step Time =    1.000,"P-24-1",          1165,       18.0548,       24.0843,            0.,NA,NA,"",   1.94465E+06,   1.99581E+06,   1.99581E+06
C:/temp/Job-24.odb,Step-1,Increment      1: Step Time =    1.000,"P-24-1",          1166,       178.724,       183.617,            0.,NA,NA,"",   1.09559E+06,   1.08651E+06,   1.08651E+06
C:/temp/Job-24.odb,Step-1,Increment      1: Step Time =    1.000,"P-24-1",          1167,       183.299,       21.3008,            0.,NA,NA,"",   1.10179E+06,   1.09985E+06,   1.09985E+06
C:/temp/Job-24.odb,Step-1,Increment      1: Step Time =    1.000,"P-24-1",          1168,       20.8121,       183.466,            0.,NA,NA,"",   2.35393E+06,   2.37077E+06,   2.37077E+06
C:/temp/Job-24.odb,Step-1,Increment      1: Step Time =    1.000,"P-24-1",          1169,       184.697,       46.3181,            0.,NA,NA,"",   1.34506E+06,   1.36075E+06,   1.36075E+06
C:/temp/Job-24.odb,Step-1,Increment      1: Step Time =    1.000,"P-24-1",          1170,       154.263,       185.521,            0.,NA,NA,"",   1.20701E+06,   1.16700E+06,   1.16700E+06
C:/temp/Job-24.odb,Step-1,Increment      1: Step Time =    1.000,"P-24-1",          1171,       45.7422,       16.4336,            0.,NA,NA,"",    2.3531E+06,   2.27464E+06,   2.27464E+06
C:/temp/Job-24.odb,Step-1,Increment      1: Step Time =    1.000,"P-24-1",          1172,       14.5737,       153.548,            0.,NA,NA,"",   884.617E+03,   938.660E+03,   938.660E+03
C:/temp/Job-24.odb,Step-1,Increment      1: Step Time =    1.000,"P-24-1",          1173,       43.1814,       47.9359,            0.,NA,NA,"",   1.19335E+06,   976.461E+03,   976.461E+03
C:/temp/Job-24.odb,Step-1,Increment      1: Step Time =    1.000,"P-24-1",          1174,       47.8825,       156.911,            0.,NA,NA,"",   1.55434E+06,   1.31617E+06,   1.31617E+06
C:/temp/Job-24.odb,Step-1,Increment      1: Step Time =    1.000,"P-24-1",          1175,       151.406,       43.7591,            0.,NA,NA,"",   2.24878E+06,   2.10802E+06,   2.10802E+06
C:/temp/Job-24.odb,Step-1,Increment      1: Step Time =    1.000,"P-24-1",          1176,       153.186,       148.657,            0.,NA,NA,"",   2.20536E+06,   1.98750E+06,   1.98750E+06
C:/temp/Job-24.odb,Step-1,Increment      1: Step Time =    1.000,"P-24-1",          1177,       154.133,       49.7001,            0.,NA,NA,"",   2.19795E+06,   1.98587E+06,   1.98587E+06
C:/temp/Job-24.odb,Step-1,Increment      1: Step Time =    1.000,"P-24-1",          1178,       49.3597,       44.6024,            0.,NA,NA,"",   1.47815E+06,   1.21840E+06,   1.21840E+06
C:/temp/Job-24.odb,Step-1,Increment      1: Step Time =    1.000,"P-24-1",          1179,       149.092,       153.246,            0.,NA,NA,"",   2.30980E+06,   2.18006E+06,   2.18006E+06
C:/temp/Job-24.odb,Step-1,Increment      1: Step Time =    1.000,"P-24-1",          1180,       44.5503,       150.814,            0.,NA,NA,"",   1.13246E+06,   899.218E+03,   899.218E+03
C:/temp/Job-24.odb,Step-1,Increment      1: Step Time =    1.000,"P-24-1",          1181,       44.1136,       185.083,            0.,NA,NA,"",   2.37556E+06,   2.31304E+06,   2.31304E+06
C:/temp/Job-24.odb,Step-1,Increment      1: Step Time =    1.000,"P-24-1",          1182,       184.745,       154.137,            0.,NA,NA,"",   1.32504E+06,   1.34637E+06,   1.34637E+06
C:/temp/Job-24.odb,Step-1,Increment      1: Step Time =    1.000,"P-24-1",          1183,       15.8384,       46.2463,            0.,NA,NA,"",   905.343E+03,   954.311E+03,   954.311E+03
C:/temp/Job-24.odb,Step-1,Increment      1: Step Time =    1.000,"P-24-1",          1184,       155.839,       14.2648,            0.,NA,NA,"",   1.18848E+06,   1.14997E+06,   1.14997E+06
C:/temp/Job-24.odb,Step-1,Increment      1: Step Time =    1.000,"P-24-1",          1185,       24.6478,       48.1765,            0.,NA,NA,"",   912.837E+03,   894.664E+03,   894.664E+03
C:/temp/Job-24.odb,Step-1,Increment      1: Step Time =    1.000,"P-24-1",          1186,       175.597,       148.073,            0.,NA,NA,"",   1.77638E+06,   1.61534E+06,   1.61534E+06
C:/temp/Job-24.odb,Step-1,Increment      1: Step Time =    1.000,"P-24-1",          1187,       49.2756,       176.506,            0.,NA,NA,"",   2.26556E+06,   2.12054E+06,   2.12054E+06
C:/temp/Job-24.odb,Step-1,Increment      1: Step Time =    1.000,"P-24-1",          1188,       172.458,       174.227,            0.,NA,NA,"",   1.35220E+06,   1.30650E+06,   1.30650E+06
C:/temp/Job-24.odb,Step-1,Increment      1: Step Time =    1.000,"P-24-1",          1189,       175.031,       172.602,            0.,NA,NA,"",   1.32001E+06,   1.28372E+06,   1.28372E+06
C:/temp/Job-24.odb,Step-1,Increment      1: Step Time =    1.000,"P-24-1",          1190,       28.4932,       174.313,            0.,NA,NA,"",   1.98873E+06,   1.95503E+06,   1.95503E+06
C:/temp/Job-24.odb,Step-1,Increment      1: Step Time =    1.000,"P-24-1",          1191,       25.2420,       174.508,            0.,NA,NA,"",   1.96556E+06,   1.95417E+06,   1.95417E+06
C:/temp/Job-24.odb,Step-1,Increment      1: Step Time =    1.000,"P-24-1",          1192,       171.466,       28.3460,            0.,NA,NA,"",   1.40915E+06,   1.35578E+06,   1.35578E+06
C:/temp/Job-24.odb,Step-1,Increment      1: Step Time =    1.000,"P-24-1",          1193,       28.8197,       23.3506,            0.,NA,NA,"",   2.09526E+06,   2.06321E+06,   2.06321E+06
C:/temp/Job-24.odb,Step-1,Increment      1: Step Time =    1.000,"P-24-1",          1194,       15.1428,       181.110,            0.,NA,NA,"",   2.17766E+06,   2.24974E+06,   2.24974E+06
C:/temp/Job-24.odb,Step-1,Increment      1: Step Time =    1.000,"P-24-1",          1195,       169.806,       49.5140,            0.,NA,NA,"",   1.91886E+06,   1.70203E+06,   1.70203E+06
C:/temp/Job-24.odb,Step-1,Increment      1: Step Time =    1.000,"P-24-1",          1196,       49.5967,       27.6318,            0.,NA,NA,"",   2.18034E+06,   2.00749E+06,   2.00749E+06
C:/temp/Job-24.odb,Step-1,Increment      1: Step Time =    1.000,"P-24-1",          1197,       54.7634,       26.5212,            0.,NA,NA,"",   2.28768E+06,   2.09099E+06,   2.09099E+06
C:/temp/Job-24.odb,Step-1,Increment      1: Step Time =    1.000,"P-24-1",          1198,       154.241,       166.464,            0.,NA,NA,"",   1.94935E+06,   1.83808E+06,   1.83808E+06
C:/temp/Job-24.odb,Step-1,Increment      1: Step Time =    1.000,"P-24-1",          1199,       147.074,       175.521,            0.,NA,NA,"",   1.70205E+06,   1.65416E+06,   1.65416E+06
C:/temp/Job-24.odb,Step-1,Increment      1: Step Time =    1.000,"P-24-1",          1200,       28.6652,       152.029,            0.,NA,NA,"",   976.479E+03,   918.644E+03,   918.644E+03
C:/temp/Job-24.odb,Step-1,Increment      1: Step Time =    1.000,"P-24-1",          1201,       23.6385,       145.685,            0.,NA,NA,"",   635.026E+03,   621.878E+03,   621.878E+03
C:/temp/Job-24.odb,Step-1,Increment      1: Step Time =    1.000,"P-24-1",          1202,       37.9926,       29.5855,            0.,NA,NA,"",   1.94690E+06,   1.83198E+06,   1.83198E+06
C:/temp/Job-24.odb,Step-1,Increment      1: Step Time =    1.000,"P-24-1",          1203,       26.5240,       36.2550,            0.,NA,NA,"",   1.49800E+06,   1.46940E+06,   1.46940E+06
C:/temp/Job-24.odb,Step-1,Increment      1: Step Time =    1.000,"P-24-1",          1204,       164.506,       27.5868,            0.,NA,NA,"",   1.54568E+06,   1.46760E+06,   1.46760E+06
C:/temp/Job-24.odb,Step-1,Increment      1: Step Time =    1.000,"P-24-1",          1205,       29.7840,       162.910,            0.,NA,NA,"",   1.51439E+06,   1.45295E+06,   1.45295E+06
C:/temp/Job-24.odb,Step-1,Increment      1: Step Time =    1.000,"P-24-1",          1206,       38.1115,       171.744,            0.,NA,NA,"",   2.00900E+06,   1.90562E+06,   1.90562E+06
C:/temp/Job-24.odb,Step-1,Increment      1: Step Time =    1.000,"P-24-1",          1207,       170.377,       37.1078,            0.,NA,NA,"",   1.66651E+06,   1.55779E+06,   1.55779E+06
C:/temp/Job-24.odb,Step-1,Increment      1: Step Time =    1.000,"P-24-1",          1208,       173.149,       166.159,            0.,NA,NA,"",   1.49948E+06,   1.42884E+06,   1.42884E+06
C:/temp/Job-24.odb,Step-1,Increment      1: Step Time =    1.000,"P-24-1",          1209,       162.069,       170.559,            0.,NA,NA,"",   1.66579E+06,   1.57027E+06,   1.57027E+06
C:/temp/Job-24.odb,Step-1,Increment      1: Step Time =    1.000,"P-24-1",          1210,       16.5842,       18.4980,            0.,NA,NA,"",   2.22080E+06,   2.27733E+06,   2.27733E+06
C:/temp/Job-24.odb,Step-1,Increment      1: Step Time =    1.000,"P-24-1",          1211,       178.968,       14.9228,            0.,NA,NA,"",   1.07515E+06,   1.06738E+06,   1.06738E+06
C:/temp/Job-24.odb,Step-1,Increment      1: Step Time =    1.000,"P-24-1",          1212,       15.3557,       184.766,            0.,NA,NA,"",   2.38006E+06,   2.43619E+06,   2.43619E+06
C:/temp/Job-24.odb,Step-1,Increment      1: Step Time =    1.000,"P-24-1",          1213,       185.306,       179.445,            0.,NA,NA,"",   1.07259E+06,   1.07378E+06,   1.07378E+06
C:/temp/Job-24.odb,Step-1,Increment      1: Step Time =    1.000,"P-24-1",          1214,       179.690,       47.0039,            0.,NA,NA,"",   1.53618E+06,   1.47989E+06,   1.47989E+06
C:/temp/Job-24.odb,Step-1,Increment      1: Step Time =    1.000,"P-24-1",          1215,       154.214,       180.935,            0.,NA,NA,"",   1.40142E+06,   1.34650E+06,   1.34650E+06
C:/temp/Job-24.odb,Step-1,Increment      1: Step Time =    1.000,"P-24-1",          1216,       45.3843,       22.6553,            0.,NA,NA,"",   2.24103E+06,   2.11968E+06,   2.11968E+06
C:/temp/Job-24.odb,Step-1,Increment      1: Step Time =    1.000,"P-24-1",          1217,       19.4073,       153.304,            0.,NA,NA,"",   921.257E+03,   943.942E+03,   943.942E+03
C:/temp/Job-24.odb,Step-1,Increment      1: Step Time =    1.000,"P-24-1",          1218,       38.2480,       46.1945,            0.,NA,NA,"",   1.21693E+06,   1.05792E+06,   1.05792E+06
C:/temp/Job-24.odb,Step-1,Increment      1: Step Time =    1.000,"P-24-1",          1219,       45.8827,       161.875,            0.,NA,NA,"",   1.76253E+06,   1.55579E+06,   1.55579E+06
C:/temp/Job-24.odb,Step-1,Increment      1: Step Time =    1.000,"P-24-1",          1220,       153.267,       38.9525,            0.,NA,NA,"",   2.12838E+06,   1.99671E+06,   1.99671E+06
C:/temp/Job-24.odb,Step-1,Increment      1: Step Time =    1.000,"P-24-1",          1221,       156.100,       154.530,            0.,NA,NA,"",   2.18896E+06,   1.98534E+06,   1.98534E+06
C:/temp/Job-24.odb,Step-1,Increment      1: Step Time =    1.000,"P-24-1",          1222,       48.0384,       183.081,            0.,NA,NA,"",   2.33195E+06,   2.24181E+06,   2.24181E+06
C:/temp/Job-24.odb,Step-1,Increment      1: Step Time =    1.000,"P-24-1",          1223,       178.295,       151.853,            0.,NA,NA,"",   1.62286E+06,   1.53241E+06,   1.53241E+06
C:/temp/Job-24.odb,Step-1,Increment      1: Step Time =    1.000,"P-24-1",          1224,       22.5209,       43.9699,            0.,NA,NA,"",   1.08959E+06,   1.09604E+06,   1.09604E+06
C:/temp/Job-24.odb,Step-1,Increment      1: Step Time =    1.000,"P-24-1",          1225,       152.618,       18.9819,            0.,NA,NA,"",   1.39924E+06,   1.34974E+06,   1.34974E+06
C:/temp/Job-24.odb,Step-1,Increment      1: Step Time =    1.000,"P-24-1",          1226,       27.8364,       28.7162,            0.,NA,NA,"",   1.84578E+06,   1.81308E+06,   1.81308E+06
C:/temp/Job-24.odb,Step-1,Increment      1: Step Time =    1.000,"P-24-1",          1227,       54.5061,       153.040,            0.,NA,NA,"",   1.39333E+06,   1.12279E+06,   1.12279E+06
C:/temp/Job-24.odb,Step-1,Increment      1: Step Time =    1.000,"P-24-1",          1228,       150.483,       144.212,            0.,NA,NA,"",   2.04897E+06,   1.86058E+06,   1.86058E+06
C:/temp/Job-24.odb,Step-1,Increment      1: Step Time =    1.000,"P-24-1",          1229,       46.9149,       54.5861,            0.,NA,NA,"",   855.569E+03,   355.166E+03,   355.166E+03
C:/temp/Job-24.odb,Step-1,Increment      1: Step Time =    1.000,"P-24-1",          1230,       145.071,       47.3330,            0.,NA,NA,"",   2.40453E+06,   2.34661E+06,   2.34661E+06
C:/temp/Job-24.odb,Step-1,Increment      1: Step Time =    1.000,"P-24-1",          1231,       178.112,       19.5694,            0.,NA,NA,"",   1.14592E+06,   1.13262E+06,   1.13262E+06
C:/temp/Job-24.odb,Step-1,Increment      1: Step Time =    1.000,"P-24-1",          1232,       180.710,       178.615,            0.,NA,NA,"",   1.13115E+06,   1.12449E+06,   1.12449E+06
C:/temp/Job-24.odb,Step-1,Increment      1: Step Time =    1.000,"P-24-1",          1233,       175.744,       46.5332,            0.,NA,NA,"",   1.67612E+06,   1.56248E+06,   1.56248E+06
C:/temp/Job-24.odb,Step-1,Increment      1: Step Time =    1.000,"P-24-1",          1234,       165.118,       48.1190,            0.,NA,NA,"",   2.01920E+06,   1.78084E+06,   1.78084E+06
C:/temp/Job-24.odb,Step-1,Increment      1: Step Time =    1.000,"P-24-1",          1235,       43.1645,       26.8794,            0.,NA,NA,"",   2.11895E+06,   1.98253E+06,   1.98253E+06
C:/temp/Job-24.odb,Step-1,Increment      1: Step Time =    1.000,"P-24-1",          1236,       50.1535,       32.6216,            0.,NA,NA,"",   2.07390E+06,   1.86305E+06,   1.86305E+06
C:/temp/Job-24.odb,Step-1,Increment      1: Step Time =    1.000,"P-24-1",          1237,       151.389,       163.460,            0.,NA,NA,"",   2.10500E+06,   1.99370E+06,   1.99370E+06
C:/temp/Job-24.odb,Step-1,Increment      1: Step Time =    1.000,"P-24-1",          1238,       153.757,       175.937,            0.,NA,NA,"",   1.61342E+06,   1.54413E+06,   1.54413E+06
C:/temp/Job-24.odb,Step-1,Increment      1: Step Time =    1.000,"P-24-1",          1239,       25.5959,       156.755,            0.,NA,NA,"",   1.14907E+06,   1.12500E+06,   1.12500E+06
C:/temp/Job-24.odb,Step-1,Increment      1: Step Time =    1.000,"P-24-1",          1240,       34.7701,       149.111,            0.,NA,NA,"",   914.853E+03,   784.877E+03,   784.877E+03
C:/temp/Job-24.odb,Step-1,Increment      1: Step Time =    1.000,"P-24-1",          1241,       39.0778,       25.2933,            0.,NA,NA,"",   2.11291E+06,   2.00880E+06,   2.00880E+06
C:/temp/Job-24.odb,Step-1,Increment      1: Step Time =    1.000,"P-24-1",          1242,       24.7253,       162.060,            0.,NA,NA,"",   1.40410E+06,   1.39209E+06,   1.39209E+06
C:/temp/Job-24.odb,Step-1,Increment      1: Step Time =    1.000,"P-24-1",          1243,       173.247,       41.1519,            0.,NA,NA,"",   1.65845E+06,   1.54929E+06,   1.54929E+06
C:/temp/Job-24.odb,Step-1,Increment      1: Step Time =    1.000,"P-24-1",          1244,       159.097,       176.613,            0.,NA,NA,"",   1.51863E+06,   1.44750E+06,   1.44750E+06
C:/temp/Job-24.odb,Step-1,Increment      1: Step Time =    1.000,"P-24-1",          1245,       11.1510,       15.2388,            0.,NA,NA,"",   2.33161E+06,   2.43865E+06,   2.43865E+06
C:/temp/Job-24.odb,Step-1,Increment      1: Step Time =    1.000,"P-24-1",          1246,       184.489,       10.2289,            0.,NA,NA,"",   1.00857E+06,   1.00653E+06,   1.00653E+06
C:/temp/Job-24.odb,Step-1,Increment      1: Step Time =    1.000,"P-24-1",          1247,       15.4316,       189.618,            0.,NA,NA,"",   2.64136E+06,   2.67079E+06,   2.67079E+06
C:/temp/Job-24.odb,Step-1,Increment      1: Step Time =    1.000,"P-24-1",          1248,       189.904,       184.695,            0.,NA,NA,"",   1.02130E+06,   1.01902E+06,   1.01902E+06
C:/temp/Job-24.odb,Step-1,Increment      1: Step Time =    1.000,"P-24-1",          1249,       33.7084,       45.0001,            0.,NA,NA,"",   1.21107E+06,   1.10378E+06,   1.10378E+06
C:/temp/Job-24.odb,Step-1,Increment      1: Step Time =    1.000,"P-24-1",          1250,       154.632,       34.0861,            0.,NA,NA,"",   1.96928E+06,   1.85767E+06,   1.85767E+06
C:/temp/Job-24.odb,Step-1,Increment      1: Step Time =    1.000,"P-24-1",          1251,       161.083,       153.443,            0.,NA,NA,"",   2.10112E+06,   1.87183E+06,   1.87183E+06
C:/temp/Job-24.odb,Step-1,Increment      1: Step Time =    1.000,"P-24-1",          1252,       43.7507,       176.424,            0.,NA,NA,"",   2.20045E+06,   2.08037E+06,   2.08037E+06
C:/temp/Job-24.odb,Step-1,Increment      1: Step Time =    1.000,"P-24-1",          1253,       174.253,       154.302,            0.,NA,NA,"",   1.71566E+06,   1.58323E+06,   1.58323E+06
C:/temp/Job-24.odb,Step-1,Increment      1: Step Time =    1.000,"P-24-1",          1254,       25.8693,       42.6966,            0.,NA,NA,"",   1.19461E+06,   1.16783E+06,   1.16783E+06
C:/temp/Job-24.odb,Step-1,Increment      1: Step Time =    1.000,"P-24-1",          1255,       153.439,       24.5491,            0.,NA,NA,"",   1.63398E+06,   1.56714E+06,   1.56714E+06
C:/temp/Job-24.odb,Step-1,Increment      1: Step Time =    1.000,"P-24-1",          1256,       187.469,       152.364,            0.,NA,NA,"",   1.23606E+06,   1.29848E+06,   1.29848E+06
C:/temp/Job-24.odb,Step-1,Increment      1: Step Time =    1.000,"P-24-1",          1257,       47.2185,       186.413,            0.,NA,NA,"",   2.38692E+06,   2.32212E+06,   2.32212E+06
C:/temp/Job-24.odb,Step-1,Increment      1: Step Time =    1.000,"P-24-1",          1258,       153.432,       12.5380,            0.,NA,NA,"",   1.13665E+06,   1.10400E+06,   1.10400E+06
C:/temp/Job-24.odb,Step-1,Increment      1: Step Time =    1.000,"P-24-1",          1259,       14.4827,       49.1421,            0.,NA,NA,"",   782.212E+03,   833.194E+03,   833.194E+03
C:/temp/Job-24.odb,Step-1,Increment      1: Step Time =    1.000,"P-24-1",          1260,       44.4618,       42.7844,            0.,NA,NA,"",   1.50662E+06,   1.29212E+06,   1.29212E+06
C:/temp/Job-24.odb,Step-1,Increment      1: Step Time =    1.000,"P-24-1",          1261,       42.9083,       155.530,            0.,NA,NA,"",   1.38610E+06,   1.18416E+06,   1.18416E+06
C:/temp/Job-24.odb,Step-1,Increment      1: Step Time =    1.000,"P-24-1",          1262,       155.980,       45.0659,            0.,NA,NA,"",   2.18189E+06,   1.98609E+06,   1.98609E+06
C:/temp/Job-24.odb,Step-1,Increment      1: Step Time =    1.000,"P-24-1",          1263,       152.058,       157.053,            0.,NA,NA,"",   2.23844E+06,   2.08541E+06,   2.08541E+06
C:/temp/Job-24.odb,Step-1,Increment      1: Step Time =    1.000,"P-24-1",          1264,       164.895,       37.8011,            0.,NA,NA,"",   1.82931E+06,   1.68677E+06,   1.68677E+06
C:/temp/Job-24.odb,Step-1,Increment      1: Step Time =    1.000,"P-24-1",          1265,       38.0778,       167.350,            0.,NA,NA,"",   1.84354E+06,   1.71554E+06,   1.71554E+06
C:/temp/Job-24.odb,Step-1,Increment      1: Step Time =    1.000,"P-24-1",          1266,       164.216,       163.849,            0.,NA,NA,"",   1.81365E+06,   1.68033E+06,   1.68033E+06
C:/temp/Job-24.odb,Step-1,Increment      1: Step Time =    1.000,"P-24-1",          1267,       158.480,       166.423,            0.,NA,NA,"",   1.85472E+06,   1.73608E+06,   1.73608E+06
C:/temp/Job-24.odb,Step-1,Increment      1: Step Time =    1.000,"P-24-1",          1268,       29.7474,       36.6020,            0.,NA,NA,"",   1.53822E+06,   1.47440E+06,   1.47440E+06
C:/temp/Job-24.odb,Step-1,Increment      1: Step Time =    1.000,"P-24-1",          1269,       37.3710,       33.7951,            0.,NA,NA,"",   1.77235E+06,   1.65157E+06,   1.65157E+06
C:/temp/Job-24.odb,Step-1,Increment      1: Step Time =    1.000,"P-24-1",          1270,       34.7200,       163.523,            0.,NA,NA,"",   1.62486E+06,   1.51890E+06,   1.51890E+06
C:/temp/Job-24.odb,Step-1,Increment      1: Step Time =    1.000,"P-24-1",          1271,       161.157,       165.893,            0.,NA,NA,"",   1.81996E+06,   1.69758E+06,   1.69758E+06
C:/temp/Job-24.odb,Step-1,Increment      1: Step Time =    1.000,"P-24-1",          1272,       39.2092,       164.165,            0.,NA,NA,"",   1.74236E+06,   1.59486E+06,   1.59486E+06
C:/temp/Job-24.odb,Step-1,Increment      1: Step Time =    1.000,"P-24-1",          1273,       36.4685,       36.9932,            0.,NA,NA,"",   1.62964E+06,   1.50605E+06,   1.50605E+06
C:/temp/Job-24.odb,Step-1,Increment      1: Step Time =    1.000,"P-24-1",          1274,       26.5818,       38.7962,            0.,NA,NA,"",   1.38491E+06,   1.35394E+06,   1.35394E+06
C:/temp/Job-24.odb,Step-1,Increment      1: Step Time =    1.000,"P-24-1",          1275,       158.853,       23.9442,            0.,NA,NA,"",   1.52317E+06,   1.45364E+06,   1.45364E+06
C:/temp/Job-24.odb,Step-1,Increment      1: Step Time =    1.000,"P-24-1",          1276,       177.071,       158.224,            0.,NA,NA,"",   1.54609E+06,   1.47112E+06,   1.47112E+06
C:/temp/Job-24.odb,Step-1,Increment      1: Step Time =    1.000,"P-24-1",          1277,       184.657,       184.356,            0.,NA,NA,"",   1.04483E+06,   1.04317E+06,   1.04317E+06
C:/temp/Job-24.odb,Step-1,Increment      1: Step Time =    1.000,"P-24-1",          1278,       184.057,       15.4848,            0.,NA,NA,"",   1.04753E+06,   1.04516E+06,   1.04516E+06
C:/temp/Job-24.odb,Step-1,Increment      1: Step Time =    1.000,"P-24-1",          1279,       16.1406,       14.6271,            0.,NA,NA,"",   2.42000E+06,   2.46523E+06,   2.46523E+06
C:/temp/Job-24.odb,Step-1,Increment      1: Step Time =    1.000,"P-24-1",          1280,       33.1027,       153.384,            0.,NA,NA,"",   1.10444E+06,   999.837E+03,   999.837E+03
C:/temp/Job-24.odb,Step-1,Increment      1: Step Time =    1.000,"P-24-1",          1281,       156.601,       164.078,            0.,NA,NA,"",   1.96715E+06,   1.83509E+06,   1.83509E+06
C:/temp/Job-24.odb,Step-1,Increment      1: Step Time =    1.000,"P-24-1",          1282,       46.3207,       32.4430,            0.,NA,NA,"",   2.00494E+06,   1.81687E+06,   1.81687E+06
C:/temp/Job-24.odb,Step-1,Increment      1: Step Time =    1.000,"P-24-1",          1283,       166.955,       43.8691,            0.,NA,NA,"",   1.89940E+06,   1.71599E+06,   1.71599E+06
C:/temp/Job-24.odb,Step-1,Increment      1: Step Time =    1.000,"P-24-1",          1284,       145.558,       156.929,            0.,NA,NA,"",   2.38113E+06,   2.31964E+06,   2.31964E+06
C:/temp/Job-24.odb,Step-1,Increment      1: Step Time =    1.000,"P-24-1",          1285,       40.4498,       145.828,            0.,NA,NA,"",   819.104E+03,   608.185E+03,   608.185E+03
C:/temp/Job-24.odb,Step-1,Increment      1: Step Time =    1.000,"P-24-1",          1286,       160.608,       34.4598,            0.,NA,NA,"",   1.84851E+06,   1.72337E+06,   1.72337E+06
C:/temp/Job-24.odb,Step-1,Increment      1: Step Time =    1.000,"P-24-1",          1287,       161.927,       158.286,            0.,NA,NA,"",   2.00209E+06,   1.82042E+06,   1.82042E+06
C:/temp/Job-24.odb,Step-1,Increment      1: Step Time =    1.000,"P-24-1",          1288,       33.8725,       40.9675,            0.,NA,NA,"",   1.40550E+06,   1.29817E+06,   1.29817E+06
C:/temp/Job-24.odb,Step-1,Increment      1: Step Time =    1.000,"P-24-1",          1289,       43.5770,       166.272,            0.,NA,NA,"",   1.89248E+06,   1.71634E+06,   1.71634E+06
C:/temp/Job-24.odb,Step-1,Increment      1: Step Time =    1.000,"P-24-1",          1290,       166.692,       153.154,            0.,NA,NA,"",   1.96210E+06,   1.74548E+06,   1.74548E+06
C:/temp/Job-24.odb,Step-1,Increment      1: Step Time =    1.000,"P-24-1",          1291,       47.9981,       169.968,            0.,NA,NA,"",   2.09749E+06,   1.91315E+06,   1.91315E+06
C:/temp/Job-24.odb,Step-1,Increment      1: Step Time =    1.000,"P-24-1",          1292,       154.621,       29.2464,            0.,NA,NA,"",   1.81018E+06,   1.72221E+06,   1.72221E+06
C:/temp/Job-24.odb,Step-1,Increment      1: Step Time =    1.000,"P-24-1",          1293,       30.3517,       43.9398,            0.,NA,NA,"",   1.20469E+06,   1.12970E+06,   1.12970E+06
C:/temp/Job-24.odb,Step-1,Increment      1: Step Time =    1.000,"P-24-1",          1294,       154.455,       160.821,            0.,NA,NA,"",   2.11318E+06,   1.96468E+06,   1.96468E+06
C:/temp/Job-24.odb,Step-1,Increment      1: Step Time =    1.000,"P-24-1",          1295,       37.9348,       154.433,            0.,NA,NA,"",   1.23671E+06,   1.08198E+06,   1.08198E+06
C:/temp/Job-24.odb,Step-1,Increment      1: Step Time =    1.000,"P-24-1",          1296,       160.500,       46.5610,            0.,NA,NA,"",    2.1065E+06,   1.87584E+06,   1.87584E+06
C:/temp/Job-24.odb,Step-1,Increment      1: Step Time =    1.000,"P-24-1",          1297,       45.8799,       37.6364,            0.,NA,NA,"",   1.79213E+06,   1.58443E+06,   1.58443E+06
C:/temp/Job-24.odb,Step-1,Increment      1: Step Time =    1.000,"P-24-1",          1298,       189.343,       15.5018,            0.,NA,NA,"",   1.02635E+06,   1.02401E+06,   1.02401E+06
C:/temp/Job-24.odb,Step-1,Increment      1: Step Time =    1.000,"P-24-1",          1299,       184.590,       189.492,            0.,NA,NA,"",   1.01115E+06,   1.00922E+06,   1.00922E+06
C:/temp/Job-24.odb,Step-1,Increment      1: Step Time =    1.000,"P-24-1",          1300,       15.6958,       9.93360,            0.,NA,NA,"",   2.66014E+06,   2.68596E+06,   2.68596E+06
C:/temp/Job-24.odb,Step-1,Increment      1: Step Time =    1.000,"P-24-1",          1301,       10.5235,       184.595,            0.,NA,NA,"",   2.31026E+06,   2.42565E+06,   2.42565E+06
C:/temp/Job-24.odb,Step-1,Increment      1: Step Time =    1.000,"P-24-1",          1302,       159.332,       162.605,            0.,NA,NA,"",   1.95365E+06,   1.80629E+06,   1.80629E+06
C:/temp/Job-24.odb,Step-1,Increment      1: Step Time =    1.000,"P-24-1",          1303,       162.492,       42.0212,            0.,NA,NA,"",   1.98587E+06,   1.80116E+06,   1.80116E+06
C:/temp/Job-24.odb,Step-1,Increment      1: Step Time =    1.000,"P-24-1",          1304,       36.2042,       158.953,            0.,NA,NA,"",   1.43633E+06,   1.30632E+06,   1.30632E+06
C:/temp/Job-24.odb,Step-1,Increment      1: Step Time =    1.000,"P-24-1",          1305,       41.3413,       35.8641,            0.,NA,NA,"",   1.76823E+06,   1.60450E+06,   1.60450E+06
C:/temp/Job-24.odb,Step-1,Increment      1: Step Time =    1.000,"P-24-1",          1306,       40.5475,       169.403,            0.,NA,NA,"",   1.95277E+06,   1.81591E+06,   1.81591E+06
C:/temp/Job-24.odb,Step-1,Increment      1: Step Time =    1.000,"P-24-1",          1307,       161.762,       161.585,            0.,NA,NA,"",   1.92719E+06,   1.77319E+06,   1.77319E+06
C:/temp/Job-24.odb,Step-1,Increment      1: Step Time =    1.000,"P-24-1",          1308,       150.734,       29.9122,            0.,NA,NA,"",   1.89458E+06,   1.81802E+06,   1.81802E+06
C:/temp/Job-24.odb,Step-1,Increment      1: Step Time =    1.000,"P-24-1",          1309,       171.463,       150.400,            0.,NA,NA,"",   1.86961E+06,   1.67063E+06,   1.67063E+06
C:/temp/Job-24.odb,Step-1,Increment      1: Step Time =    1.000,"P-24-1",          1310,       28.1298,       45.9684,            0.,NA,NA,"",   1.08249E+06,   1.02886E+06,   1.02886E+06
C:/temp/Job-24.odb,Step-1,Increment      1: Step Time =    1.000,"P-24-1",          1311,       164.825,       147.291,            0.,NA,NA,"",   2.06963E+06,   1.77133E+06,   1.77133E+06
C:/temp/Job-24.odb,Step-1,Increment      1: Step Time =    1.000,"P-24-1",          1312,       149.956,       33.5560,            0.,NA,NA,"",   2.03856E+06,   1.95409E+06,   1.95409E+06
C:/temp/Job-24.odb,Step-1,Increment      1: Step Time =    1.000,"P-24-1",          1313,       31.9761,       48.7249,            0.,NA,NA,"",   999.774E+03,   904.816E+03,   904.816E+03
C:/temp/Job-24.odb,Step-1,Increment      1: Step Time =    1.000,"P-24-1",          1314,       25.7703,       9.82358,            0.,NA,NA,"",   2.60957E+06,   2.60486E+06,   2.60486E+06
C:/temp/Job-24.odb,Step-1,Increment      1: Step Time =    1.000,"P-24-1",          1315,       10.3932,       173.364,            0.,NA,NA,"",   1.70463E+06,   1.82542E+06,   1.82542E+06
C:/temp/Job-24.odb,Step-1,Increment      1: Step Time =    1.000,"P-24-1",          1316,       189.606,       25.9788,            0.,NA,NA,"",   1.05800E+06,   1.06850E+06,   1.06850E+06
C:/temp/Job-24.odb,Step-1,Increment      1: Step Time =    1.000,"P-24-1",          1317,       174.176,       189.938,            0.,NA,NA,"",   1.02573E+06,   1.01696E+06,   1.01696E+06
C:/temp/Job-24.odb,Step-1,Increment      1: Step Time =    1.000,"P-24-1",          1318,       125.442,       167.217,            0.,NA,NA,"",   2.68303E+06,   2.84093E+06,   2.84093E+06
C:/temp/Job-24.odb,Step-1,Increment      1: Step Time =    1.000,"P-24-1",          1319,       162.876,       75.3459,            0.,NA,NA,"",   1.48263E+06,  -971.513E+03,  -971.513E+03
C:/temp/Job-24.odb,Step-1,Increment      1: Step Time =    1.000,"P-24-1",          1320,       35.6320,       124.581,            0.,NA,NA,"",   450.975E+03,  -485.060E+03,  -485.060E+03
C:/temp/Job-24.odb,Step-1,Increment      1: Step Time =    1.000,"P-24-1",          1321,       190.343,       55.3538,            0.,NA,NA,"",   1.21714E+06,   1.34202E+06,   1.34202E+06
C:/temp/Job-24.odb,Step-1,Increment      1: Step Time =    1.000,"P-24-1",          1322,       55.4606,       10.9963,            0.,NA,NA,"",   2.35078E+06,   2.28919E+06,   2.28919E+06
C:/temp/Job-24.odb,Step-1,Increment      1: Step Time =    1.000,"P-24-1",          1323,       144.305,       189.878,            0.,NA,NA,"",   965.040E+03,   943.091E+03,   943.091E+03
C:/temp/Job-24.odb,Step-1,Increment      1: Step Time =    1.000,"P-24-1",          1324,       9.61080,       144.425,            0.,NA,NA,"",   513.738E+03,   563.253E+03,   563.253E+03
C:/temp/Job-24.odb,Step-1,Increment      1: Step Time =    1.000,"P-24-1",          1325,       5.17360,       5.09502,            0.,NA,NA,"",   3.00588E+06,   3.12469E+06,   3.12469E+06
C:/temp/Job-24.odb,Step-1,Increment      1: Step Time =    1.000,"P-24-1",          1326,       83.6974,       159.198,            0.,NA,NA,"",   3.18634E+06,   3.22991E+06,   3.22991E+06
C:/temp/Job-24.odb,Step-1,Increment      1: Step Time =    1.000,"P-24-1",          1327,       88.6965,       160.870,            0.,NA,NA,"",   3.66364E+06,   3.73596E+06,   3.73596E+06
C:/temp/Job-24.odb,Step-1,Increment      1: Step Time =    1.000,"P-24-1",          1328,       149.011,       61.8406,            0.,NA,NA,"",   1.54849E+06,   1.42537E+06,   1.42537E+06
C:/temp/Job-24.odb,Step-1,Increment      1: Step Time =    1.000,"P-24-1",          1329,       147.350,       58.1193,            0.,NA,NA,"",   1.89648E+06,   1.80841E+06,   1.80841E+06
C:/temp/Job-24.odb,Step-1,Increment      1: Step Time =    1.000,"P-24-1",          1330,       147.900,       53.3798,            0.,NA,NA,"",   2.14122E+06,   2.04493E+06,   2.04493E+06
C:/temp/Job-24.odb,Step-1,Increment      1: Step Time =    1.000,"P-24-1",          1331,       61.7304,       50.9015,            0.,NA,NA,"",   912.370E+03,   594.261E+03,   594.261E+03
C:/temp/Job-24.odb,Step-1,Increment      1: Step Time =    1.000,"P-24-1",          1332,       57.9905,       52.0774,            0.,NA,NA,"",   912.475E+03,   321.552E+03,   321.552E+03
C:/temp/Job-24.odb,Step-1,Increment      1: Step Time =    1.000,"P-24-1",          1333,       53.2314,       51.5337,            0.,NA,NA,"",   1.02027E+06,   534.658E+03,   534.658E+03
C:/temp/Job-24.odb,Step-1,Increment      1: Step Time =    1.000,"P-24-1",          1334,       50.8478,       137.971,            0.,NA,NA,"",   722.563E+03,  -679.677E+03,  -679.677E+03
C:/temp/Job-24.odb,Step-1,Increment      1: Step Time =    1.000,"P-24-1",          1335,       51.7322,       141.795,            0.,NA,NA,"",   691.183E+03,  -525.498E+03,  -525.498E+03
C:/temp/Job-24.odb,Step-1,Increment      1: Step Time =    1.000,"P-24-1",          1336,       51.1712,       146.614,            0.,NA,NA,"",   895.601E+03,   165.341E+03,   165.341E+03
C:/temp/Job-24.odb,Step-1,Increment      1: Step Time =    1.000,"P-24-1",          1337,       191.394,       149.328,            0.,NA,NA,"",   1.10895E+06,   1.22982E+06,   1.22982E+06
C:/temp/Job-24.odb,Step-1,Increment      1: Step Time =    1.000,"P-24-1",          1338,       50.6385,       190.954,            0.,NA,NA,"",   2.42691E+06,   2.38951E+06,   2.38951E+06
C:/temp/Job-24.odb,Step-1,Increment      1: Step Time =    1.000,"P-24-1",          1339,       155.681,       64.8230,            0.,NA,NA,"",   1.62200E+06,   1.22844E+06,   1.22844E+06
C:/temp/Job-24.odb,Step-1,Increment      1: Step Time =    1.000,"P-24-1",          1340,       64.4776,       44.5034,            0.,NA,NA,"",   1.70732E+06,   1.52317E+06,   1.52317E+06
C:/temp/Job-24.odb,Step-1,Increment      1: Step Time =    1.000,"P-24-1",          1341,       44.7815,       134.587,            0.,NA,NA,"",   600.566E+03,  -584.481E+03,  -584.481E+03
C:/temp/Job-24.odb,Step-1,Increment      1: Step Time =    1.000,"P-24-1",          1342,       145.542,       150.231,            0.,NA,NA,"",   2.32173E+06,   2.25652E+06,   2.25652E+06
C:/temp/Job-24.odb,Step-1,Increment      1: Step Time =    1.000,"P-24-1",          1343,       39.2486,       184.281,            0.,NA,NA,"",   2.37290E+06,   2.31710E+06,   2.31710E+06
C:/temp/Job-24.odb,Step-1,Increment      1: Step Time =    1.000,"P-24-1",          1344,       166.509,       103.241,            0.,NA,NA,"",   1.19441E+06,  -1.19799E+06,  -1.19799E+06
C:/temp/Job-24.odb,Step-1,Increment      1: Step Time =    1.000,"P-24-1",          1345,       160.877,       65.0302,            0.,NA,NA,"",   1.86413E+06,   1.37927E+06,   1.37927E+06
C:/temp/Job-24.odb,Step-1,Increment      1: Step Time =    1.000,"P-24-1",          1346,       160.792,       68.7893,            0.,NA,NA,"",   1.67729E+06,   1.12302E+06,   1.12302E+06
C:/temp/Job-24.odb,Step-1,Increment      1: Step Time =    1.000,"P-24-1",          1347,       185.787,       174.641,            0.,NA,NA,"",   1.09655E+06,   1.10335E+06,   1.10335E+06
C:/temp/Job-24.odb,Step-1,Increment      1: Step Time =    1.000,"P-24-1",          1348,       185.762,       169.865,            0.,NA,NA,"",   1.12726E+06,   1.14081E+06,   1.14081E+06
C:/temp/Job-24.odb,Step-1,Increment      1: Step Time =    1.000,"P-24-1",          1349,       173.906,       14.5192,            0.,NA,NA,"",   1.10441E+06,   1.08869E+06,   1.08869E+06
C:/temp/Job-24.odb,Step-1,Increment      1: Step Time =    1.000,"P-24-1",          1350,       168.956,       14.4193,            0.,NA,NA,"",   1.13430E+06,   1.11028E+06,   1.11028E+06
C:/temp/Job-24.odb,Step-1,Increment      1: Step Time =    1.000,"P-24-1",          1351,       63.4420,       40.6756,            0.,NA,NA,"",   2.00637E+06,   1.78497E+06,   1.78497E+06
C:/temp/Job-24.odb,Step-1,Increment      1: Step Time =    1.000,"P-24-1",          1352,       40.1512,       134.806,            0.,NA,NA,"",   467.591E+03,  -416.536E+03,  -416.536E+03
C:/temp/Job-24.odb,Step-1,Increment      1: Step Time =    1.000,"P-24-1",          1353,       39.5267,       131.212,            0.,NA,NA,"",   477.021E+03,  -477.911E+03,  -477.911E+03
C:/temp/Job-24.odb,Step-1,Increment      1: Step Time =    1.000,"P-24-1",          1354,       42.0978,       183.343,            0.,NA,NA,"",   2.35083E+06,   2.28532E+06,   2.28532E+06
C:/temp/Job-24.odb,Step-1,Increment      1: Step Time =    1.000,"P-24-1",          1355,       163.534,       52.4976,            0.,NA,NA,"",   2.08995E+06,   1.79282E+06,   1.79282E+06
C:/temp/Job-24.odb,Step-1,Increment      1: Step Time =    1.000,"P-24-1",          1356,       96.4587,       170.681,            0.,NA,NA,"",   2.89173E+06,   3.01783E+06,   3.01783E+06
C:/temp/Job-24.odb,Step-1,Increment      1: Step Time =    1.000,"P-24-1",          1357,       42.8953,       180.202,            0.,NA,NA,"",   2.28825E+06,   2.19691E+06,   2.19691E+06
C:/temp/Job-24.odb,Step-1,Increment      1: Step Time =    1.000,"P-24-1",          1358,       13.6682,       52.9258,            0.,NA,NA,"",   622.341E+03,   668.813E+03,   668.813E+03
C:/temp/Job-24.odb,Step-1,Increment      1: Step Time =    1.000,"P-24-1",          1359,       35.3526,       134.775,            0.,NA,NA,"",   376.286E+03,  -182.649E+03,  -182.649E+03
C:/temp/Job-24.odb,Step-1,Increment      1: Step Time =    1.000,"P-24-1",          1360,       35.1255,       131.081,            0.,NA,NA,"",   351.854E+03,  -339.205E+03,  -339.205E+03
C:/temp/Job-24.odb,Step-1,Increment      1: Step Time =    1.000,"P-24-1",          1361,       35.1095,       127.440,            0.,NA,NA,"",   392.144E+03,  -415.439E+03,  -415.439E+03
C:/temp/Job-24.odb,Step-1,Increment      1: Step Time =    1.000,"P-24-1",          1362,       170.949,       101.750,            0.,NA,NA,"",   599.527E+03,  -394.103E+03,  -394.103E+03
C:/temp/Job-24.odb,Step-1,Increment      1: Step Time =    1.000,"P-24-1",          1363,       97.9746,       29.8808,            0.,NA,NA,"",   2.96038E+06,   3.09501E+06,   3.09501E+06
C:/temp/Job-24.odb,Step-1,Increment      1: Step Time =    1.000,"P-24-1",          1364,       179.453,       162.037,            0.,NA,NA,"",   1.40028E+06,   1.36470E+06,   1.36470E+06
C:/temp/Job-24.odb,Step-1,Increment      1: Step Time =    1.000,"P-24-1",          1365,       165.023,       69.8080,            0.,NA,NA,"",   1.77980E+06,   1.21708E+06,   1.21708E+06
C:/temp/Job-24.odb,Step-1,Increment      1: Step Time =    1.000,"P-24-1",          1366,       163.950,       73.0527,            0.,NA,NA,"",   1.60473E+06,   73.5033E+03,   73.5033E+03
C:/temp/Job-24.odb,Step-1,Increment      1: Step Time =    1.000,"P-24-1",          1367,       29.2782,       101.477,            0.,NA,NA,"",   362.295E+03,  -414.504E+03,  -414.504E+03
C:/temp/Job-24.odb,Step-1,Increment      1: Step Time =    1.000,"P-24-1",          1368,       18.5124,       179.462,            0.,NA,NA,"",   2.15427E+06,   2.19750E+06,   2.19750E+06
C:/temp/Job-24.odb,Step-1,Increment      1: Step Time =    1.000,"P-24-1",          1369,       18.5611,       44.7269,            0.,NA,NA,"",   998.208E+03,   1.03291E+06,   1.03291E+06
C:/temp/Job-24.odb,Step-1,Increment      1: Step Time =    1.000,"P-24-1",          1370,       75.6709,       34.2688,            0.,NA,NA,"",   2.61475E+06,   2.51857E+06,   2.51857E+06
C:/temp/Job-24.odb,Step-1,Increment      1: Step Time =    1.000,"P-24-1",          1371,       184.003,       145.515,            0.,NA,NA,"",   1.47320E+06,   1.48576E+06,   1.48576E+06
C:/temp/Job-24.odb,Step-1,Increment      1: Step Time =    1.000,"P-24-1",          1372,       171.502,       45.2643,            0.,NA,NA,"",   1.79412E+06,   1.63620E+06,   1.63620E+06
C:/temp/Job-24.odb,Step-1,Increment      1: Step Time =    1.000,"P-24-1",          1373,       30.5866,       130.594,            0.,NA,NA,"",   240.006E+03,  -219.895E+03,  -219.895E+03
C:/temp/Job-24.odb,Step-1,Increment      1: Step Time =    1.000,"P-24-1",          1374,       19.9517,       29.6671,            0.,NA,NA,"",   1.71028E+06,   1.74326E+06,   1.74326E+06
C:/temp/Job-24.odb,Step-1,Increment      1: Step Time =    1.000,"P-24-1",          1375,       19.5520,       36.6091,            0.,NA,NA,"",   1.38613E+06,   1.42183E+06,   1.42183E+06
C:/temp/Job-24.odb,Step-1,Increment      1: Step Time =    1.000,"P-24-1",          1376,       19.3526,       47.7393,            0.,NA,NA,"",   875.442E+03,   898.796E+03,   898.796E+03
C:/temp/Job-24.odb,Step-1,Increment      1: Step Time =    1.000,"P-24-1",          1377,       18.0166,       54.0231,            0.,NA,NA,"",   603.950E+03,   626.788E+03,   626.788E+03
C:/temp/Job-24.odb,Step-1,Increment      1: Step Time =    1.000,"P-24-1",          1378,       181.253,       27.5033,            0.,NA,NA,"",   1.18698E+06,   1.18068E+06,   1.18068E+06
C:/temp/Job-24.odb,Step-1,Increment      1: Step Time =    1.000,"P-24-1",          1379,       172.545,       23.3534,            0.,NA,NA,"",   1.28358E+06,   1.24822E+06,   1.24822E+06
C:/temp/Job-24.odb,Step-1,Increment      1: Step Time =    1.000,"P-24-1",          1380,       181.028,       56.1685,            0.,NA,NA,"",   1.60974E+06,   1.55321E+06,   1.55321E+06
C:/temp/Job-24.odb,Step-1,Increment      1: Step Time =    1.000,"P-24-1",          1381,       54.3751,       181.871,            0.,NA,NA,"",   2.34362E+06,   2.22014E+06,   2.22014E+06
C:/temp/Job-24.odb,Step-1,Increment      1: Step Time =    1.000,"P-24-1",          1382,       45.9953,       181.236,            0.,NA,NA,"",   2.31006E+06,   2.21660E+06,   2.21660E+06
C:/temp/Job-24.odb,Step-1,Increment      1: Step Time =    1.000,"P-24-1",          1383,       92.5152,       181.498,            0.,NA,NA,"",   2.07574E+06,   2.07369E+06,   2.07369E+06
C:/temp/Job-24.odb,Step-1,Increment      1: Step Time =    1.000,"P-24-1",          1384,       96.6649,       181.902,            0.,NA,NA,"",   1.92259E+06,   1.95654E+06,   1.95654E+06
C:/temp/Job-24.odb,Step-1,Increment      1: Step Time =    1.000,"P-24-1",          1385,       93.4215,       177.750,            0.,NA,NA,"",   2.34113E+06,   2.37124E+06,   2.37124E+06
C:/temp/Job-24.odb,Step-1,Increment      1: Step Time =    1.000,"P-24-1",          1386,       171.953,       181.266,            0.,NA,NA,"",   1.19569E+06,   1.16931E+06,   1.16931E+06
C:/temp/Job-24.odb,Step-1,Increment      1: Step Time =    1.000,"P-24-1",          1387,       177.871,       173.605,            0.,NA,NA,"",   1.24768E+06,   1.22673E+06,   1.22673E+06
C:/temp/Job-24.odb,Step-1,Increment      1: Step Time =    1.000,"P-24-1",          1388,       175.957,       163.785,            0.,NA,NA,"",   1.47826E+06,   1.41624E+06,   1.41624E+06
C:/temp/Job-24.odb,Step-1,Increment      1: Step Time =    1.000,"P-24-1",          1389,       173.421,       160.607,            0.,NA,NA,"",   1.62548E+06,   1.52330E+06,   1.52330E+06
C:/temp/Job-24.odb,Step-1,Increment      1: Step Time =    1.000,"P-24-1",          1390,       144.172,       179.464,            0.,NA,NA,"",   1.55380E+06,   1.52410E+06,   1.52410E+06
C:/temp/Job-24.odb,Step-1,Increment      1: Step Time =    1.000,"P-24-1",          1391,       169.015,       71.6943,            0.,NA,NA,"",   1.75363E+06,   1.25887E+06,   1.25887E+06
C:/temp/Job-24.odb,Step-1,Increment      1: Step Time =    1.000,"P-24-1",          1392,       168.368,       129.132,            0.,NA,NA,"",   1.79456E+06,   1.29358E+06,   1.29358E+06
C:/temp/Job-24.odb,Step-1,Increment      1: Step Time =    1.000,"P-24-1",          1393,       169.517,       145.982,            0.,NA,NA,"",   1.96857E+06,   1.70283E+06,   1.70283E+06
C:/temp/Job-24.odb,Step-1,Increment      1: Step Time =    1.000,"P-24-1",          1394,       144.083,       172.890,            0.,NA,NA,"",   1.86358E+06,   1.83365E+06,   1.83365E+06
C:/temp/Job-24.odb,Step-1,Increment      1: Step Time =    1.000,"P-24-1",          1395,       138.994,       174.894,            0.,NA,NA,"",   1.83487E+06,   1.84462E+06,   1.84462E+06
C:/temp/Job-24.odb,Step-1,Increment      1: Step Time =    1.000,"P-24-1",          1396,       25.3997,       97.5345,            0.,NA,NA,"",   278.474E+03,  -309.268E+03,  -309.268E+03
C:/temp/Job-24.odb,Step-1,Increment      1: Step Time =    1.000,"P-24-1",          1397,       100.502,       25.2534,            0.,NA,NA,"",   2.50582E+06,   2.63932E+06,   2.63932E+06
C:/temp/Job-24.odb,Step-1,Increment      1: Step Time =    1.000,"P-24-1",          1398,       178.333,       100.233,            0.,NA,NA,"",   457.052E+03,   521.254E+03,   521.254E+03
C:/temp/Job-24.odb,Step-1,Increment      1: Step Time =    1.000,"P-24-1",          1399,       100.977,       177.498,            0.,NA,NA,"",   2.19499E+06,   2.30303E+06,   2.30303E+06
C:/temp/Job-24.odb,Step-1,Increment      1: Step Time =    1.000,"P-24-1",          1400,       166.584,       159.361,            0.,NA,NA,"",   1.85227E+06,   1.69168E+06,   1.69168E+06
C:/temp/Job-24.odb,Step-1,Increment      1: Step Time =    1.000,"P-24-1",          1401,       174.760,       96.3939,            0.,NA,NA,"",   470.043E+03,   96.8891E+03,   96.8891E+03
C:/temp/Job-24.odb,Step-1,Increment      1: Step Time =    1.000,"P-24-1",          1402,       120.295,       176.127,            0.,NA,NA,"",   1.96461E+06,   2.10570E+06,   2.10570E+06
C:/temp/Job-24.odb,Step-1,Increment      1: Step Time =    1.000,"P-24-1",          1403,       17.7524,       61.9533,            0.,NA,NA,"",   305.545E+03,   317.849E+03,   317.849E+03
C:/temp/Job-24.odb,Step-1,Increment      1: Step Time =    1.000,"P-24-1",          1404,       17.5252,       66.0464,            0.,NA,NA,"",   176.574E+03,   180.844E+03,   180.844E+03
C:/temp/Job-24.odb,Step-1,Increment      1: Step Time =    1.000,"P-24-1",          1405,       172.512,       132.598,            0.,NA,NA,"",   1.85081E+06,   1.50533E+06,   1.50533E+06
C:/temp/Job-24.odb,Step-1,Increment      1: Step Time =    1.000,"P-24-1",          1406,       25.0545,       24.8081,            0.,NA,NA,"",   1.99263E+06,   1.98488E+06,   1.98488E+06
C:/temp/Job-24.odb,Step-1,Increment      1: Step Time =    1.000,"P-24-1",          1407,       142.747,       31.8898,            0.,NA,NA,"",   2.11778E+06,   2.09852E+06,   2.09852E+06
C:/temp/Job-24.odb,Step-1,Increment      1: Step Time =    1.000,"P-24-1",          1408,       29.0233,       56.9550,            0.,NA,NA,"",   565.772E+03,   491.977E+03,   491.977E+03
C:/temp/Job-24.odb,Step-1,Increment      1: Step Time =    1.000,"P-24-1",          1409,       176.127,       128.320,            0.,NA,NA,"",   1.67371E+06,   1.45436E+06,   1.45436E+06
C:/temp/Job-24.odb,Step-1,Increment      1: Step Time =    1.000,"P-24-1",          1410,       53.5225,       178.168,            0.,NA,NA,"",   2.32149E+06,   2.16731E+06,   2.16731E+06
C:/temp/Job-24.odb,Step-1,Increment      1: Step Time =    1.000,"P-24-1",          1411,       56.0354,       22.8670,            0.,NA,NA,"",   2.33875E+06,   2.16733E+06,   2.16733E+06
C:/temp/Job-24.odb,Step-1,Increment      1: Step Time =    1.000,"P-24-1",          1412,       19.2325,       170.428,            0.,NA,NA,"",   1.71593E+06,   1.75454E+06,   1.75454E+06
C:/temp/Job-24.odb,Step-1,Increment      1: Step Time =    1.000,"P-24-1",          1413,       19.2908,       143.426,            0.,NA,NA,"",   503.372E+03,   515.278E+03,   515.278E+03
C:/temp/Job-24.odb,Step-1,Increment      1: Step Time =    1.000,"P-24-1",          1414,       149.768,       172.496,            0.,NA,NA,"",   1.80700E+06,   1.74124E+06,   1.74124E+06
C:/temp/Job-24.odb,Step-1,Increment      1: Step Time =    1.000,"P-24-1",          1415,       175.242,       167.702,            0.,NA,NA,"",   1.40644E+06,   1.35718E+06,   1.35718E+06
C:/temp/Job-24.odb,Step-1,Increment      1: Step Time =    1.000,"P-24-1",          1416,       170.147,       163.619,            0.,NA,NA,"",   1.65204E+06,   1.54407E+06,   1.54407E+06
C:/temp/Job-24.odb,Step-1,Increment      1: Step Time =    1.000,"P-24-1",          1417,       171.701,       177.967,            0.,NA,NA,"",   1.27305E+06,   1.23754E+06,   1.23754E+06
C:/temp/Job-24.odb,Step-1,Increment      1: Step Time =    1.000,"P-24-1",          1418,       22.0458,       54.8706,            0.,NA,NA,"",   599.033E+03,   595.220E+03,   595.220E+03
C:/temp/Job-24.odb,Step-1,Increment      1: Step Time =    1.000,"P-24-1",          1419,       21.8848,       58.3965,            0.,NA,NA,"",   464.977E+03,   457.711E+03,   457.711E+03
C:/temp/Job-24.odb,Step-1,Increment      1: Step Time =    1.000,"P-24-1",          1420,       23.1271,       36.4301,            0.,NA,NA,"",   1.44705E+06,   1.45266E+06,   1.45266E+06
C:/temp/Job-24.odb,Step-1,Increment      1: Step Time =    1.000,"P-24-1",          1421,       24.0616,       39.6433,            0.,NA,NA,"",   1.31764E+06,   1.31148E+06,   1.31148E+06
C:/temp/Job-24.odb,Step-1,Increment      1: Step Time =    1.000,"P-24-1",          1422,       176.617,       27.3413,            0.,NA,NA,"",   1.28505E+06,   1.25815E+06,   1.25815E+06
C:/temp/Job-24.odb,Step-1,Increment      1: Step Time =    1.000,"P-24-1",          1423,       150.033,       177.546,            0.,NA,NA,"",   1.59290E+06,   1.53737E+06,   1.53737E+06
C:/temp/Job-24.odb,Step-1,Increment      1: Step Time =    1.000,"P-24-1",          1424,       58.8208,       26.3603,            0.,NA,NA,"",   2.35098E+06,   2.14780E+06,   2.14780E+06
C:/temp/Job-24.odb,Step-1,Increment      1: Step Time =    1.000,"P-24-1",          1425,       22.4208,       169.637,            0.,NA,NA,"",   1.72198E+06,   1.73484E+06,   1.73484E+06
C:/temp/Job-24.odb,Step-1,Increment      1: Step Time =    1.000,"P-24-1",          1426,       130.733,       31.6871,            0.,NA,NA,"",   2.39343E+06,   2.50103E+06,   2.50103E+06
C:/temp/Job-24.odb,Step-1,Increment      1: Step Time =    1.000,"P-24-1",          1427,       171.770,       169.658,            0.,NA,NA,"",   1.46016E+06,   1.39595E+06,   1.39595E+06
C:/temp/Job-24.odb,Step-1,Increment      1: Step Time =    1.000,"P-24-1",          1428,       46.3999,       27.4759,            0.,NA,NA,"",   2.14650E+06,   1.98627E+06,   1.98627E+06
C:/temp/Job-24.odb,Step-1,Increment      1: Step Time =    1.000,"P-24-1",          1429,       21.6922,       66.6805,            0.,NA,NA,"",   167.700E+03,   146.064E+03,   146.064E+03
C:/temp/Job-24.odb,Step-1,Increment      1: Step Time =    1.000,"P-24-1",          1430,       155.586,       171.871,            0.,NA,NA,"",   1.73801E+06,   1.64897E+06,   1.64897E+06
C:/temp/Job-24.odb,Step-1,Increment      1: Step Time =    1.000,"P-24-1",          1431,       19.9810,       79.7437,            0.,NA,NA,"",   141.440E+03,  -162.585E+03,  -162.585E+03
C:/temp/Job-24.odb,Step-1,Increment      1: Step Time =    1.000,"P-24-1",          1432,       168.612,       34.5573,            0.,NA,NA,"",   1.65451E+06,   1.55174E+06,   1.55174E+06
C:/temp/Job-24.odb,Step-1,Increment      1: Step Time =    1.000,"P-24-1",          1433,       33.2555,       36.9256,            0.,NA,NA,"",   1.58395E+06,   1.48683E+06,   1.48683E+06
C:/temp/Job-24.odb,Step-1,Increment      1: Step Time =    1.000,"P-24-1",          1434,       177.717,       73.6861,            0.,NA,NA,"",   1.59993E+06,   1.44524E+06,   1.44524E+06
C:/temp/Job-24.odb,Step-1,Increment      1: Step Time =    1.000,"P-24-1",          1435,       24.6588,       29.8789,            0.,NA,NA,"",   1.75922E+06,   1.75179E+06,   1.75179E+06
C:/temp/Job-24.odb,Step-1,Increment      1: Step Time =    1.000,"P-24-1",          1436,       26.0802,       53.3217,            0.,NA,NA,"",   696.773E+03,   663.711E+03,   663.711E+03
C:/temp/Job-24.odb,Step-1,Increment      1: Step Time =    1.000,"P-24-1",          1437,       138.268,       22.2152,            0.,NA,NA,"",   1.66626E+06,   1.67350E+06,   1.67350E+06
C:/temp/Job-24.odb,Step-1,Increment      1: Step Time =    1.000,"P-24-1",          1438,       24.0416,       171.790,            0.,NA,NA,"",   1.84051E+06,   1.84217E+06,   1.84217E+06
C:/temp/Job-24.odb,Step-1,Increment      1: Step Time =    1.000,"P-24-1",          1439,       134.638,       22.6155,            0.,NA,NA,"",   1.70658E+06,   1.73888E+06,   1.73888E+06
C:/temp/Job-24.odb,Step-1,Increment      1: Step Time =    1.000,"P-24-1",          1440,       31.4888,       21.8995,            0.,NA,NA,"",   2.16318E+06,   2.11677E+06,   2.11677E+06
C:/temp/Job-24.odb,Step-1,Increment      1: Step Time =    1.000,"P-24-1",          1441,       23.3119,       153.380,            0.,NA,NA,"",   958.411E+03,   953.293E+03,   953.293E+03
C:/temp/Job-24.odb,Step-1,Increment      1: Step Time =    1.000,"P-24-1",          1442,       29.1978,       32.6823,            0.,NA,NA,"",   1.70553E+06,   1.65359E+06,   1.65359E+06
C:/temp/Job-24.odb,Step-1,Increment      1: Step Time =    1.000,"P-24-1",          1443,       168.105,       173.963,            0.,NA,NA,"",   1.44253E+06,   1.37954E+06,   1.37954E+06
C:/temp/Job-24.odb,Step-1,Increment      1: Step Time =    1.000,"P-24-1",          1444,       158.926,       173.159,            0.,NA,NA,"",   1.63512E+06,   1.54965E+06,   1.54965E+06
