ODB Name,Step,Frame,Part Instance Name,    Node Label,X,Y,Z,Section Name,Material Name,Section Point,       S-Mises,S-Max. In-Plane Principal (Abs),S-Max. Principal (Abs)
C:/temp/Job-25.odb,Step-1,Increment      1: Step Time =    1.000,"P-25-1",             1,       90.3368,       124.138,            0.,NA,NA,"",   2.21636E+06,   2.26797E+06,   2.26797E+06
C:/temp/Job-25.odb,Step-1,Increment      1: Step Time =    1.000,"P-25-1",             2,       82.0579,       118.817,            0.,NA,NA,"",   1.13822E+06,   1.13163E+06,   1.13163E+06
C:/temp/Job-25.odb,Step-1,Increment      1: Step Time =    1.000,"P-25-1",             3,       76.3496,       110.801,            0.,NA,NA,"",   445.629E+03,  -110.015E+03,  -110.015E+03
C:/temp/Job-25.odb,Step-1,Increment      1: Step Time =    1.000,"P-25-1",             4,       74.0294,       101.237,            0.,NA,NA,"",   674.501E+03,  -684.290E+03,  -684.290E+03
C:/temp/Job-25.odb,Step-1,Increment      1: Step Time =    1.000,"P-25-1",             5,       75.4300,       91.4962,            0.,NA,NA,"",   439.463E+03,  -386.224E+03,  -386.224E+03
C:/temp/Job-25.odb,Step-1,Increment      1: Step Time =    1.000,"P-25-1",             6,       80.3505,       82.9736,            0.,NA,NA,"",   795.651E+03,   776.911E+03,   776.911E+03
C:/temp/Job-25.odb,Step-1,Increment      1: Step Time =    1.000,"P-25-1",             7,       88.0861,       76.8903,            0.,NA,NA,"",   1.90365E+06,   1.94680E+06,   1.94680E+06
C:/temp/Job-25.odb,Step-1,Increment      1: Step Time =    1.000,"P-25-1",             8,       102.471,       74.1177,            0.,NA,NA,"",   2.71866E+06,   2.80438E+06,   2.80438E+06
C:/temp/Job-25.odb,Step-1,Increment      1: Step Time =    1.000,"P-25-1",             9,       111.914,       76.8903,            0.,NA,NA,"",   2.07703E+06,   2.12488E+06,   2.12488E+06
C:/temp/Job-25.odb,Step-1,Increment      1: Step Time =    1.000,"P-25-1",            10,       119.649,       82.9736,            0.,NA,NA,"",   877.532E+03,   851.515E+03,   851.515E+03
C:/temp/Job-25.odb,Step-1,Increment      1: Step Time =    1.000,"P-25-1",            11,       124.570,       91.4962,            0.,NA,NA,"",   606.362E+03,  -576.025E+03,  -576.025E+03
C:/temp/Job-25.odb,Step-1,Increment      1: Step Time =    1.000,"P-25-1",            12,       125.971,       101.237,            0.,NA,NA,"",   915.931E+03,  -929.336E+03,  -929.336E+03
C:/temp/Job-25.odb,Step-1,Increment      1: Step Time =    1.000,"P-25-1",            13,       123.650,       110.801,            0.,NA,NA,"",   570.840E+03,  -150.287E+03,  -150.287E+03
C:/temp/Job-25.odb,Step-1,Increment      1: Step Time =    1.000,"P-25-1",            14,       117.942,       118.817,            0.,NA,NA,"",   1.28239E+06,   1.27600E+06,   1.27600E+06
C:/temp/Job-25.odb,Step-1,Increment      1: Step Time =    1.000,"P-25-1",            15,       109.663,       124.138,            0.,NA,NA,"",   2.33899E+06,   2.39799E+06,   2.39799E+06
C:/temp/Job-25.odb,Step-1,Increment      1: Step Time =    1.000,"P-25-1",            16,          100.,          126.,            0.,NA,NA,"",   2.52828E+06,   2.65036E+06,   2.65036E+06
C:/temp/Job-25.odb,Step-1,Increment      1: Step Time =    1.000,"P-25-1",            17,          190.,            0.,            0.,NA,NA,"",   998.942E+03,   999.037E+03,   999.037E+03
C:/temp/Job-25.odb,Step-1,Increment      1: Step Time =    1.000,"P-25-1",            18,          180.,            0.,            0.,NA,NA,"",   999.561E+03,   999.621E+03,   999.621E+03
C:/temp/Job-25.odb,Step-1,Increment      1: Step Time =    1.000,"P-25-1",            19,          170.,            0.,            0.,NA,NA,"",   1.00127E+06,   1.00097E+06,   1.00097E+06
C:/temp/Job-25.odb,Step-1,Increment      1: Step Time =    1.000,"P-25-1",            20,          160.,            0.,            0.,NA,NA,"",   996.828E+03,   996.494E+03,   996.494E+03
C:/temp/Job-25.odb,Step-1,Increment      1: Step Time =    1.000,"P-25-1",            21,          150.,            0.,            0.,NA,NA,"",   980.565E+03,   980.208E+03,   980.208E+03
C:/temp/Job-25.odb,Step-1,Increment      1: Step Time =    1.000,"P-25-1",            22,          140.,            0.,            0.,NA,NA,"",   949.089E+03,   948.760E+03,   948.760E+03
C:/temp/Job-25.odb,Step-1,Increment      1: Step Time =    1.000,"P-25-1",            23,          130.,            0.,            0.,NA,NA,"",   908.379E+03,   908.223E+03,   908.223E+03
C:/temp/Job-25.odb,Step-1,Increment      1: Step Time =    1.000,"P-25-1",            24,          120.,            0.,            0.,NA,NA,"",   867.437E+03,   867.788E+03,   867.788E+03
C:/temp/Job-25.odb,Step-1,Increment      1: Step Time =    1.000,"P-25-1",            25,          110.,            0.,            0.,NA,NA,"",   840.359E+03,   841.212E+03,   841.212E+03
C:/temp/Job-25.odb,Step-1,Increment      1: Step Time =    1.000,"P-25-1",            26,          100.,            0.,            0.,NA,NA,"",   839.892E+03,   840.897E+03,   840.897E+03
C:/temp/Job-25.odb,Step-1,Increment      1: Step Time =    1.000,"P-25-1",            27,           90.,            0.,            0.,NA,NA,"",   871.397E+03,   872.144E+03,   872.144E+03
C:/temp/Job-25.odb,Step-1,Increment      1: Step Time =    1.000,"P-25-1",            28,           80.,            0.,            0.,NA,NA,"",   930.790E+03,   930.991E+03,   930.991E+03
C:/temp/Job-25.odb,Step-1,Increment      1: Step Time =    1.000,"P-25-1",            29,           70.,            0.,            0.,NA,NA,"",   1.00502E+06,   1.00496E+06,   1.00496E+06
C:/temp/Job-25.odb,Step-1,Increment      1: Step Time =    1.000,"P-25-1",            30,           60.,            0.,            0.,NA,NA,"",   1.08086E+06,   1.08091E+06,   1.08091E+06
C:/temp/Job-25.odb,Step-1,Increment      1: Step Time =    1.000,"P-25-1",            31,           50.,            0.,            0.,NA,NA,"",   1.14432E+06,   1.14259E+06,   1.14259E+06
C:/temp/Job-25.odb,Step-1,Increment      1: Step Time =    1.000,"P-25-1",            32,           40.,            0.,            0.,NA,NA,"",   1.19283E+06,   1.19247E+06,   1.19247E+06
C:/temp/Job-25.odb,Step-1,Increment      1: Step Time =    1.000,"P-25-1",            33,           30.,            0.,            0.,NA,NA,"",   1.23584E+06,   1.23605E+06,   1.23605E+06
C:/temp/Job-25.odb,Step-1,Increment      1: Step Time =    1.000,"P-25-1",            34,           20.,            0.,            0.,NA,NA,"",   1.29588E+06,   1.29627E+06,   1.29627E+06
C:/temp/Job-25.odb,Step-1,Increment      1: Step Time =    1.000,"P-25-1",            35,           10.,            0.,            0.,NA,NA,"",   1.43560E+06,   1.43774E+06,   1.43774E+06
C:/temp/Job-25.odb,Step-1,Increment      1: Step Time =    1.000,"P-25-1",            36,          200.,            0.,            0.,NA,NA,"",   999.885E+03,   999.770E+03,   999.770E+03
C:/temp/Job-25.odb,Step-1,Increment      1: Step Time =    1.000,"P-25-1",            37,            0.,            0.,            0.,NA,NA,"",   1.79140E+06,   1.88007E+06,   1.88007E+06
C:/temp/Job-25.odb,Step-1,Increment      1: Step Time =    1.000,"P-25-1",            38,          200.,          190.,            0.,NA,NA,"",   1.00081E+06,   1.00029E+06,   1.00029E+06
C:/temp/Job-25.odb,Step-1,Increment      1: Step Time =    1.000,"P-25-1",            39,          200.,          180.,            0.,NA,NA,"",   1.00001E+06,   1.00076E+06,   1.00076E+06
C:/temp/Job-25.odb,Step-1,Increment      1: Step Time =    1.000,"P-25-1",            40,          200.,          170.,            0.,NA,NA,"",   993.995E+03,   1.00145E+06,   1.00145E+06
C:/temp/Job-25.odb,Step-1,Increment      1: Step Time =    1.000,"P-25-1",            41,          200.,          160.,            0.,NA,NA,"",   979.139E+03,   1.00138E+06,   1.00138E+06
C:/temp/Job-25.odb,Step-1,Increment      1: Step Time =    1.000,"P-25-1",            42,          200.,          150.,            0.,NA,NA,"",   955.219E+03,   1.00106E+06,   1.00106E+06
C:/temp/Job-25.odb,Step-1,Increment      1: Step Time =    1.000,"P-25-1",            43,          200.,          140.,            0.,NA,NA,"",   926.050E+03,   1.00116E+06,   1.00116E+06
C:/temp/Job-25.odb,Step-1,Increment      1: Step Time =    1.000,"P-25-1",            44,          200.,          130.,            0.,NA,NA,"",   898.951E+03,   1.00063E+06,   1.00063E+06
C:/temp/Job-25.odb,Step-1,Increment      1: Step Time =    1.000,"P-25-1",            45,          200.,          120.,            0.,NA,NA,"",   879.092E+03,   999.239E+03,   999.239E+03
C:/temp/Job-25.odb,Step-1,Increment      1: Step Time =    1.000,"P-25-1",            46,          200.,          110.,            0.,NA,NA,"",   868.980E+03,   997.797E+03,   997.797E+03
C:/temp/Job-25.odb,Step-1,Increment      1: Step Time =    1.000,"P-25-1",            47,          200.,          100.,            0.,NA,NA,"",   866.267E+03,   997.216E+03,   997.216E+03
C:/temp/Job-25.odb,Step-1,Increment      1: Step Time =    1.000,"P-25-1",            48,          200.,           90.,            0.,NA,NA,"",   869.132E+03,   998.018E+03,   998.018E+03
C:/temp/Job-25.odb,Step-1,Increment      1: Step Time =    1.000,"P-25-1",            49,          200.,           80.,            0.,NA,NA,"",   879.083E+03,   999.321E+03,   999.321E+03
C:/temp/Job-25.odb,Step-1,Increment      1: Step Time =    1.000,"P-25-1",            50,          200.,           70.,            0.,NA,NA,"",   898.484E+03,   999.808E+03,   999.808E+03
C:/temp/Job-25.odb,Step-1,Increment      1: Step Time =    1.000,"P-25-1",            51,          200.,           60.,            0.,NA,NA,"",   927.358E+03,   999.834E+03,   999.834E+03
C:/temp/Job-25.odb,Step-1,Increment      1: Step Time =    1.000,"P-25-1",            52,          200.,           50.,            0.,NA,NA,"",   961.059E+03,   1.00502E+06,   1.00502E+06
C:/temp/Job-25.odb,Step-1,Increment      1: Step Time =    1.000,"P-25-1",            53,          200.,           40.,            0.,NA,NA,"",   981.112E+03,   1.00134E+06,   1.00134E+06
C:/temp/Job-25.odb,Step-1,Increment      1: Step Time =    1.000,"P-25-1",            54,          200.,           30.,            0.,NA,NA,"",   994.478E+03,   1.00071E+06,   1.00071E+06
C:/temp/Job-25.odb,Step-1,Increment      1: Step Time =    1.000,"P-25-1",            55,          200.,           20.,            0.,NA,NA,"",   1.00011E+06,   1.00043E+06,   1.00043E+06
C:/temp/Job-25.odb,Step-1,Increment      1: Step Time =    1.000,"P-25-1",            56,          200.,           10.,            0.,NA,NA,"",   1.00072E+06,   1.00017E+06,   1.00017E+06
C:/temp/Job-25.odb,Step-1,Increment      1: Step Time =    1.000,"P-25-1",            57,          200.,          200.,            0.,NA,NA,"",   999.875E+03,   999.751E+03,   999.751E+03
C:/temp/Job-25.odb,Step-1,Increment      1: Step Time =    1.000,"P-25-1",            58,           10.,          200.,            0.,NA,NA,"",   1.43436E+06,   1.43668E+06,   1.43668E+06
C:/temp/Job-25.odb,Step-1,Increment      1: Step Time =    1.000,"P-25-1",            59,           20.,          200.,            0.,NA,NA,"",   1.29483E+06,   1.29555E+06,   1.29555E+06
C:/temp/Job-25.odb,Step-1,Increment      1: Step Time =    1.000,"P-25-1",            60,           30.,          200.,            0.,NA,NA,"",   1.23600E+06,   1.23595E+06,   1.23595E+06
C:/temp/Job-25.odb,Step-1,Increment      1: Step Time =    1.000,"P-25-1",            61,           40.,          200.,            0.,NA,NA,"",   1.19161E+06,   1.19125E+06,   1.19125E+06
C:/temp/Job-25.odb,Step-1,Increment      1: Step Time =    1.000,"P-25-1",            62,           50.,          200.,            0.,NA,NA,"",   1.14142E+06,   1.14103E+06,   1.14103E+06
C:/temp/Job-25.odb,Step-1,Increment      1: Step Time =    1.000,"P-25-1",            63,           60.,          200.,            0.,NA,NA,"",   1.07904E+06,   1.07847E+06,   1.07847E+06
C:/temp/Job-25.odb,Step-1,Increment      1: Step Time =    1.000,"P-25-1",            64,           70.,          200.,            0.,NA,NA,"",   1.00660E+06,   1.00630E+06,   1.00630E+06
C:/temp/Job-25.odb,Step-1,Increment      1: Step Time =    1.000,"P-25-1",            65,           80.,          200.,            0.,NA,NA,"",   932.765E+03,   932.984E+03,   932.984E+03
C:/temp/Job-25.odb,Step-1,Increment      1: Step Time =    1.000,"P-25-1",            66,           90.,          200.,            0.,NA,NA,"",   872.346E+03,   873.074E+03,   873.074E+03
C:/temp/Job-25.odb,Step-1,Increment      1: Step Time =    1.000,"P-25-1",            67,          100.,          200.,            0.,NA,NA,"",   838.782E+03,   839.781E+03,   839.781E+03
C:/temp/Job-25.odb,Step-1,Increment      1: Step Time =    1.000,"P-25-1",            68,          110.,          200.,            0.,NA,NA,"",   838.466E+03,   839.236E+03,   839.236E+03
C:/temp/Job-25.odb,Step-1,Increment      1: Step Time =    1.000,"P-25-1",            69,          120.,          200.,            0.,NA,NA,"",   865.664E+03,   866.017E+03,   866.017E+03
C:/temp/Job-25.odb,Step-1,Increment      1: Step Time =    1.000,"P-25-1",            70,          130.,          200.,            0.,NA,NA,"",   908.175E+03,   908.339E+03,   908.339E+03
C:/temp/Job-25.odb,Step-1,Increment      1: Step Time =    1.000,"P-25-1",            71,          140.,          200.,            0.,NA,NA,"",   953.564E+03,   953.382E+03,   953.382E+03
C:/temp/Job-25.odb,Step-1,Increment      1: Step Time =    1.000,"P-25-1",            72,          150.,          200.,            0.,NA,NA,"",   984.699E+03,   983.446E+03,   983.446E+03
C:/temp/Job-25.odb,Step-1,Increment      1: Step Time =    1.000,"P-25-1",            73,          160.,          200.,            0.,NA,NA,"",   998.066E+03,   997.783E+03,   997.783E+03
C:/temp/Job-25.odb,Step-1,Increment      1: Step Time =    1.000,"P-25-1",            74,          170.,          200.,            0.,NA,NA,"",   1.00059E+06,   1.00048E+06,   1.00048E+06
C:/temp/Job-25.odb,Step-1,Increment      1: Step Time =    1.000,"P-25-1",            75,          180.,          200.,            0.,NA,NA,"",    998.78E+03,   998.829E+03,   998.829E+03
C:/temp/Job-25.odb,Step-1,Increment      1: Step Time =    1.000,"P-25-1",            76,          190.,          200.,            0.,NA,NA,"",   998.647E+03,   998.717E+03,   998.717E+03
C:/temp/Job-25.odb,Step-1,Increment      1: Step Time =    1.000,"P-25-1",            77,            0.,          200.,            0.,NA,NA,"",   1.79124E+06,   1.87934E+06,   1.87934E+06
C:/temp/Job-25.odb,Step-1,Increment      1: Step Time =    1.000,"P-25-1",            78,            0.,           10.,            0.,NA,NA,"",   1.29450E+06,   1.41323E+06,   1.41323E+06
C:/temp/Job-25.odb,Step-1,Increment      1: Step Time =    1.000,"P-25-1",            79,            0.,           20.,            0.,NA,NA,"",   1.10730E+06,   1.22669E+06,   1.22669E+06
C:/temp/Job-25.odb,Step-1,Increment      1: Step Time =    1.000,"P-25-1",            80,            0.,           30.,            0.,NA,NA,"",   1.00336E+06,   1.11933E+06,   1.11933E+06
C:/temp/Job-25.odb,Step-1,Increment      1: Step Time =    1.000,"P-25-1",            81,            0.,           40.,            0.,NA,NA,"",   925.684E+03,   1.03668E+06,   1.03668E+06
C:/temp/Job-25.odb,Step-1,Increment      1: Step Time =    1.000,"P-25-1",            82,            0.,           50.,            0.,NA,NA,"",   854.878E+03,   958.718E+03,   958.718E+03
C:/temp/Job-25.odb,Step-1,Increment      1: Step Time =    1.000,"P-25-1",            83,            0.,           60.,            0.,NA,NA,"",   782.340E+03,   880.611E+03,   880.611E+03
C:/temp/Job-25.odb,Step-1,Increment      1: Step Time =    1.000,"P-25-1",            84,            0.,           70.,            0.,NA,NA,"",   716.297E+03,   807.710E+03,   807.710E+03
C:/temp/Job-25.odb,Step-1,Increment      1: Step Time =    1.000,"P-25-1",            85,            0.,           80.,            0.,NA,NA,"",   656.758E+03,   742.231E+03,   742.231E+03
C:/temp/Job-25.odb,Step-1,Increment      1: Step Time =    1.000,"P-25-1",            86,            0.,           90.,            0.,NA,NA,"",   614.638E+03,   696.176E+03,   696.176E+03
C:/temp/Job-25.odb,Step-1,Increment      1: Step Time =    1.000,"P-25-1",            87,            0.,          100.,            0.,NA,NA,"",   598.446E+03,   678.549E+03,   678.549E+03
C:/temp/Job-25.odb,Step-1,Increment      1: Step Time =    1.000,"P-25-1",            88,            0.,          110.,            0.,NA,NA,"",   615.210E+03,   696.770E+03,   696.770E+03
C:/temp/Job-25.odb,Step-1,Increment      1: Step Time =    1.000,"P-25-1",            89,            0.,          120.,            0.,NA,NA,"",   657.794E+03,   743.316E+03,   743.316E+03
C:/temp/Job-25.odb,Step-1,Increment      1: Step Time =    1.000,"P-25-1",            90,            0.,          130.,            0.,NA,NA,"",   717.449E+03,   808.884E+03,   808.884E+03
C:/temp/Job-25.odb,Step-1,Increment      1: Step Time =    1.000,"P-25-1",            91,            0.,          140.,            0.,NA,NA,"",   783.636E+03,   881.979E+03,   881.979E+03
C:/temp/Job-25.odb,Step-1,Increment      1: Step Time =    1.000,"P-25-1",            92,            0.,          150.,            0.,NA,NA,"",   851.990E+03,   957.159E+03,   957.159E+03
C:/temp/Job-25.odb,Step-1,Increment      1: Step Time =    1.000,"P-25-1",            93,            0.,          160.,            0.,NA,NA,"",   922.429E+03,   1.03367E+06,   1.03367E+06
C:/temp/Job-25.odb,Step-1,Increment      1: Step Time =    1.000,"P-25-1",            94,            0.,          170.,            0.,NA,NA,"",   1.00167E+06,   1.11719E+06,   1.11719E+06
C:/temp/Job-25.odb,Step-1,Increment      1: Step Time =    1.000,"P-25-1",            95,            0.,          180.,            0.,NA,NA,"",   1.10539E+06,   1.22425E+06,   1.22425E+06
C:/temp/Job-25.odb,Step-1,Increment      1: Step Time =    1.000,"P-25-1",            96,            0.,          190.,            0.,NA,NA,"",   1.29234E+06,   1.41059E+06,   1.41059E+06
C:/temp/Job-25.odb,Step-1,Increment      1: Step Time =    1.000,"P-25-1",            97,       190.634,       75.7295,            0.,NA,NA,"",   907.649E+03,   1.00007E+06,   1.00007E+06
C:/temp/Job-25.odb,Step-1,Increment      1: Step Time =    1.000,"P-25-1",            98,       190.263,       124.830,            0.,NA,NA,"",   910.133E+03,   1.00066E+06,   1.00066E+06
C:/temp/Job-25.odb,Step-1,Increment      1: Step Time =    1.000,"P-25-1",            99,       180.398,       124.579,            0.,NA,NA,"",   940.105E+03,   996.167E+03,   996.167E+03
C:/temp/Job-25.odb,Step-1,Increment      1: Step Time =    1.000,"P-25-1",           100,       159.351,       127.609,            0.,NA,NA,"",   1.08816E+06,   1.03593E+06,   1.03593E+06
C:/temp/Job-25.odb,Step-1,Increment      1: Step Time =    1.000,"P-25-1",           101,       146.890,       126.566,            0.,NA,NA,"",   1.21377E+06,   1.08258E+06,   1.08258E+06
C:/temp/Job-25.odb,Step-1,Increment      1: Step Time =    1.000,"P-25-1",           102,       134.796,       125.558,            0.,NA,NA,"",   1.37701E+06,   1.18373E+06,   1.18373E+06
C:/temp/Job-25.odb,Step-1,Increment      1: Step Time =    1.000,"P-25-1",           103,       124.852,       126.051,            0.,NA,NA,"",   1.50922E+06,   1.38740E+06,   1.38740E+06
C:/temp/Job-25.odb,Step-1,Increment      1: Step Time =    1.000,"P-25-1",           104,       116.194,       125.021,            0.,NA,NA,"",   1.75493E+06,   1.78673E+06,   1.78673E+06
C:/temp/Job-25.odb,Step-1,Increment      1: Step Time =    1.000,"P-25-1",           105,       84.0739,       125.476,            0.,NA,NA,"",   1.64051E+06,   1.66997E+06,   1.66997E+06
C:/temp/Job-25.odb,Step-1,Increment      1: Step Time =    1.000,"P-25-1",           106,       73.2138,       129.484,            0.,NA,NA,"",   1.42209E+06,   1.32065E+06,   1.32065E+06
C:/temp/Job-25.odb,Step-1,Increment      1: Step Time =    1.000,"P-25-1",           107,       64.1811,       125.201,            0.,NA,NA,"",   1.16830E+06,   1.03308E+06,   1.03308E+06
C:/temp/Job-25.odb,Step-1,Increment      1: Step Time =    1.000,"P-25-1",           108,       51.9597,       126.607,            0.,NA,NA,"",   992.137E+03,   935.775E+03,   935.775E+03
C:/temp/Job-25.odb,Step-1,Increment      1: Step Time =    1.000,"P-25-1",           109,       41.7104,       125.161,            0.,NA,NA,"",   836.841E+03,   844.958E+03,   844.958E+03
C:/temp/Job-25.odb,Step-1,Increment      1: Step Time =    1.000,"P-25-1",           110,       30.5121,       125.508,            0.,NA,NA,"",   765.095E+03,   816.133E+03,   816.133E+03
C:/temp/Job-25.odb,Step-1,Increment      1: Step Time =    1.000,"P-25-1",           111,       23.5062,       127.060,            0.,NA,NA,"",   752.381E+03,   817.513E+03,   817.513E+03
C:/temp/Job-25.odb,Step-1,Increment      1: Step Time =    1.000,"P-25-1",           112,       9.75883,       125.573,            0.,NA,NA,"",   699.131E+03,   783.600E+03,   783.600E+03
C:/temp/Job-25.odb,Step-1,Increment      1: Step Time =    1.000,"P-25-1",           113,       10.2583,       115.234,            0.,NA,NA,"",   630.316E+03,   713.002E+03,   713.002E+03
C:/temp/Job-25.odb,Step-1,Increment      1: Step Time =    1.000,"P-25-1",           114,       22.0922,       115.339,            0.,NA,NA,"",   629.034E+03,   704.857E+03,   704.857E+03
C:/temp/Job-25.odb,Step-1,Increment      1: Step Time =    1.000,"P-25-1",           115,       30.9206,       114.879,            0.,NA,NA,"",   628.057E+03,   690.918E+03,   690.918E+03
C:/temp/Job-25.odb,Step-1,Increment      1: Step Time =    1.000,"P-25-1",           116,       43.9161,       118.351,            0.,NA,NA,"",   720.467E+03,   732.305E+03,   732.305E+03
C:/temp/Job-25.odb,Step-1,Increment      1: Step Time =    1.000,"P-25-1",           117,       52.9009,       114.751,            0.,NA,NA,"",   687.573E+03,   657.046E+03,   657.046E+03
C:/temp/Job-25.odb,Step-1,Increment      1: Step Time =    1.000,"P-25-1",           118,       61.5142,       115.341,            0.,NA,NA,"",   794.849E+03,   666.874E+03,   666.874E+03
C:/temp/Job-25.odb,Step-1,Increment      1: Step Time =    1.000,"P-25-1",           119,       71.6517,       115.716,            0.,NA,NA,"",   735.709E+03,   560.869E+03,   560.869E+03
C:/temp/Job-25.odb,Step-1,Increment      1: Step Time =    1.000,"P-25-1",           120,       128.685,       115.585,            0.,NA,NA,"",   886.184E+03,   656.465E+03,   656.465E+03
C:/temp/Job-25.odb,Step-1,Increment      1: Step Time =    1.000,"P-25-1",           121,       139.999,       115.540,            0.,NA,NA,"",   982.378E+03,   794.298E+03,   794.298E+03
C:/temp/Job-25.odb,Step-1,Increment      1: Step Time =    1.000,"P-25-1",           122,       150.627,       114.746,            0.,NA,NA,"",   875.498E+03,   808.803E+03,   808.803E+03
C:/temp/Job-25.odb,Step-1,Increment      1: Step Time =    1.000,"P-25-1",           123,       161.104,       114.046,            0.,NA,NA,"",   848.307E+03,   851.274E+03,   851.274E+03
C:/temp/Job-25.odb,Step-1,Increment      1: Step Time =    1.000,"P-25-1",           124,       170.530,       114.465,            0.,NA,NA,"",   867.692E+03,   909.164E+03,   909.164E+03
C:/temp/Job-25.odb,Step-1,Increment      1: Step Time =    1.000,"P-25-1",           125,       180.154,       114.563,            0.,NA,NA,"",   882.130E+03,   954.851E+03,   954.851E+03
C:/temp/Job-25.odb,Step-1,Increment      1: Step Time =    1.000,"P-25-1",           126,       190.110,       114.847,            0.,NA,NA,"",   882.458E+03,   987.514E+03,   987.514E+03
C:/temp/Job-25.odb,Step-1,Increment      1: Step Time =    1.000,"P-25-1",           127,       134.738,       105.787,            0.,NA,NA,"",   518.842E+03,  -155.103E+03,  -155.103E+03
C:/temp/Job-25.odb,Step-1,Increment      1: Step Time =    1.000,"P-25-1",           128,       144.873,       105.288,            0.,NA,NA,"",   528.572E+03,   480.922E+03,   480.922E+03
C:/temp/Job-25.odb,Step-1,Increment      1: Step Time =    1.000,"P-25-1",           129,       155.729,       105.061,            0.,NA,NA,"",   654.405E+03,   671.477E+03,   671.477E+03
C:/temp/Job-25.odb,Step-1,Increment      1: Step Time =    1.000,"P-25-1",           130,       167.795,       105.813,            0.,NA,NA,"",   776.756E+03,   826.876E+03,   826.876E+03
C:/temp/Job-25.odb,Step-1,Increment      1: Step Time =    1.000,"P-25-1",           131,       180.000,       104.591,            0.,NA,NA,"",   839.274E+03,   922.847E+03,   922.847E+03
C:/temp/Job-25.odb,Step-1,Increment      1: Step Time =    1.000,"P-25-1",           132,       190.146,       104.956,            0.,NA,NA,"",   865.594E+03,   977.920E+03,   977.920E+03
C:/temp/Job-25.odb,Step-1,Increment      1: Step Time =    1.000,"P-25-1",           133,       140.596,       93.3333,            0.,NA,NA,"",   546.714E+03,   428.061E+03,   428.061E+03
C:/temp/Job-25.odb,Step-1,Increment      1: Step Time =    1.000,"P-25-1",           134,       150.018,       94.2295,            0.,NA,NA,"",   595.731E+03,   582.459E+03,   582.459E+03
C:/temp/Job-25.odb,Step-1,Increment      1: Step Time =    1.000,"P-25-1",           135,       161.811,       95.9963,            0.,NA,NA,"",   706.846E+03,   745.638E+03,   745.638E+03
C:/temp/Job-25.odb,Step-1,Increment      1: Step Time =    1.000,"P-25-1",           136,       171.584,       95.2361,            0.,NA,NA,"",   793.452E+03,   854.371E+03,   854.371E+03
C:/temp/Job-25.odb,Step-1,Increment      1: Step Time =    1.000,"P-25-1",           137,       180.733,       95.0691,            0.,NA,NA,"",   844.674E+03,   929.946E+03,   929.946E+03
C:/temp/Job-25.odb,Step-1,Increment      1: Step Time =    1.000,"P-25-1",           138,       190.297,       95.1211,            0.,NA,NA,"",   865.863E+03,   978.587E+03,   978.587E+03
C:/temp/Job-25.odb,Step-1,Increment      1: Step Time =    1.000,"P-25-1",           139,       126.282,       85.3605,            0.,NA,NA,"",   723.431E+03,   363.290E+03,   363.290E+03
C:/temp/Job-25.odb,Step-1,Increment      1: Step Time =    1.000,"P-25-1",           140,       137.985,       87.2585,            0.,NA,NA,"",   871.394E+03,   662.956E+03,   662.956E+03
C:/temp/Job-25.odb,Step-1,Increment      1: Step Time =    1.000,"P-25-1",           141,       148.740,       83.1051,            0.,NA,NA,"",   955.351E+03,   860.650E+03,   860.650E+03
C:/temp/Job-25.odb,Step-1,Increment      1: Step Time =    1.000,"P-25-1",           142,       156.269,       81.8917,            0.,NA,NA,"",   952.705E+03,   911.993E+03,   911.993E+03
C:/temp/Job-25.odb,Step-1,Increment      1: Step Time =    1.000,"P-25-1",           143,       166.440,       85.7214,            0.,NA,NA,"",   862.516E+03,   886.078E+03,   886.078E+03
C:/temp/Job-25.odb,Step-1,Increment      1: Step Time =    1.000,"P-25-1",           144,       180.972,       85.4688,            0.,NA,NA,"",   883.655E+03,   959.254E+03,   959.254E+03
C:/temp/Job-25.odb,Step-1,Increment      1: Step Time =    1.000,"P-25-1",           145,       190.495,       85.3024,            0.,NA,NA,"",   882.598E+03,   988.787E+03,   988.787E+03
C:/temp/Job-25.odb,Step-1,Increment      1: Step Time =    1.000,"P-25-1",           146,       114.286,       72.8442,            0.,NA,NA,"",   1.90634E+06,    1.9606E+06,    1.9606E+06
C:/temp/Job-25.odb,Step-1,Increment      1: Step Time =    1.000,"P-25-1",           147,       9.82008,       74.4878,            0.,NA,NA,"",   698.043E+03,   782.408E+03,   782.408E+03
C:/temp/Job-25.odb,Step-1,Increment      1: Step Time =    1.000,"P-25-1",           148,       20.4225,       72.5646,            0.,NA,NA,"",   741.502E+03,   813.022E+03,   813.022E+03
C:/temp/Job-25.odb,Step-1,Increment      1: Step Time =    1.000,"P-25-1",           149,       32.5637,       77.0833,            0.,NA,NA,"",   740.552E+03,   787.916E+03,   787.916E+03
C:/temp/Job-25.odb,Step-1,Increment      1: Step Time =    1.000,"P-25-1",           150,       39.0972,       72.4550,            0.,NA,NA,"",   863.198E+03,   877.324E+03,   877.324E+03
C:/temp/Job-25.odb,Step-1,Increment      1: Step Time =    1.000,"P-25-1",           151,       51.7491,       72.7035,            0.,NA,NA,"",   1.00932E+06,   952.582E+03,   952.582E+03
C:/temp/Job-25.odb,Step-1,Increment      1: Step Time =    1.000,"P-25-1",           152,       62.1934,       74.1017,            0.,NA,NA,"",   1.15676E+06,   1.03333E+06,   1.03333E+06
C:/temp/Job-25.odb,Step-1,Increment      1: Step Time =    1.000,"P-25-1",           153,       73.7154,       75.3315,            0.,NA,NA,"",   1.28375E+06,   1.16710E+06,   1.16710E+06
C:/temp/Job-25.odb,Step-1,Increment      1: Step Time =    1.000,"P-25-1",           154,       85.5517,       73.3717,            0.,NA,NA,"",   1.77958E+06,   1.81885E+06,   1.81885E+06
C:/temp/Job-25.odb,Step-1,Increment      1: Step Time =    1.000,"P-25-1",           155,       126.612,       74.0784,            0.,NA,NA,"",   1.46620E+06,   1.32562E+06,   1.32562E+06
C:/temp/Job-25.odb,Step-1,Increment      1: Step Time =    1.000,"P-25-1",           156,       141.566,       74.1085,            0.,NA,NA,"",   1.28206E+06,   1.11381E+06,   1.11381E+06
C:/temp/Job-25.odb,Step-1,Increment      1: Step Time =    1.000,"P-25-1",           157,       149.319,       70.8315,            0.,NA,NA,"",   1.22256E+06,   1.11078E+06,   1.11078E+06
C:/temp/Job-25.odb,Step-1,Increment      1: Step Time =    1.000,"P-25-1",           158,       157.439,       73.9411,            0.,NA,NA,"",   1.08103E+06,   1.02285E+06,   1.02285E+06
C:/temp/Job-25.odb,Step-1,Increment      1: Step Time =    1.000,"P-25-1",           159,       167.862,       75.4935,            0.,NA,NA,"",   991.885E+03,   993.816E+03,   993.816E+03
C:/temp/Job-25.odb,Step-1,Increment      1: Step Time =    1.000,"P-25-1",           160,       181.334,       76.1500,            0.,NA,NA,"",   935.704E+03,   995.778E+03,   995.778E+03
C:/temp/Job-25.odb,Step-1,Increment      1: Step Time =    1.000,"P-25-1",           161,       74.1356,       83.7082,            0.,NA,NA,"",   699.950E+03,   452.767E+03,   452.767E+03
C:/temp/Job-25.odb,Step-1,Increment      1: Step Time =    1.000,"P-25-1",           162,       61.6037,       84.1230,            0.,NA,NA,"",   811.771E+03,   681.890E+03,   681.890E+03
C:/temp/Job-25.odb,Step-1,Increment      1: Step Time =    1.000,"P-25-1",           163,       49.4135,       83.6342,            0.,NA,NA,"",   716.132E+03,   699.436E+03,   699.436E+03
C:/temp/Job-25.odb,Step-1,Increment      1: Step Time =    1.000,"P-25-1",           164,       42.3933,       82.3835,            0.,NA,NA,"",   699.740E+03,   720.723E+03,   720.723E+03
C:/temp/Job-25.odb,Step-1,Increment      1: Step Time =    1.000,"P-25-1",           165,       32.2573,       83.4433,            0.,NA,NA,"",   648.838E+03,   707.142E+03,   707.142E+03
C:/temp/Job-25.odb,Step-1,Increment      1: Step Time =    1.000,"P-25-1",           166,       23.9381,       84.4308,            0.,NA,NA,"",   629.427E+03,   702.878E+03,   702.878E+03
C:/temp/Job-25.odb,Step-1,Increment      1: Step Time =    1.000,"P-25-1",           167,       10.5276,       84.7553,            0.,NA,NA,"",   629.228E+03,   711.821E+03,   711.821E+03
C:/temp/Job-25.odb,Step-1,Increment      1: Step Time =    1.000,"P-25-1",           168,       60.4047,       96.1314,            0.,NA,NA,"",   296.754E+03,   161.053E+03,   161.053E+03
C:/temp/Job-25.odb,Step-1,Increment      1: Step Time =    1.000,"P-25-1",           169,       50.0472,       94.7147,            0.,NA,NA,"",   407.720E+03,   437.482E+03,   437.482E+03
C:/temp/Job-25.odb,Step-1,Increment      1: Step Time =    1.000,"P-25-1",           170,       39.6827,       94.8851,            0.,NA,NA,"",   492.303E+03,   550.914E+03,   550.914E+03
C:/temp/Job-25.odb,Step-1,Increment      1: Step Time =    1.000,"P-25-1",           171,       30.5367,       94.9159,            0.,NA,NA,"",   540.371E+03,   611.020E+03,   611.020E+03
C:/temp/Job-25.odb,Step-1,Increment      1: Step Time =    1.000,"P-25-1",           172,       23.4554,       96.7312,            0.,NA,NA,"",   559.277E+03,   636.036E+03,   636.036E+03
C:/temp/Job-25.odb,Step-1,Increment      1: Step Time =    1.000,"P-25-1",           173,       9.80478,       95.2025,            0.,NA,NA,"",   589.159E+03,   670.725E+03,   670.725E+03
C:/temp/Job-25.odb,Step-1,Increment      1: Step Time =    1.000,"P-25-1",           174,       52.6394,       105.321,            0.,NA,NA,"",   406.627E+03,   422.841E+03,   422.841E+03
C:/temp/Job-25.odb,Step-1,Increment      1: Step Time =    1.000,"P-25-1",           175,       43.4723,       102.990,            0.,NA,NA,"",   454.514E+03,   506.726E+03,   506.726E+03
C:/temp/Job-25.odb,Step-1,Increment      1: Step Time =    1.000,"P-25-1",           176,       31.3770,       104.212,            0.,NA,NA,"",   536.289E+03,   605.918E+03,   605.918E+03
C:/temp/Job-25.odb,Step-1,Increment      1: Step Time =    1.000,"P-25-1",           177,       19.2948,       104.933,            0.,NA,NA,"",   573.924E+03,   652.914E+03,   652.914E+03
C:/temp/Job-25.odb,Step-1,Increment      1: Step Time =    1.000,"P-25-1",           178,       9.68452,       105.088,            0.,NA,NA,"",   590.543E+03,   672.144E+03,   672.144E+03
C:/temp/Job-25.odb,Step-1,Increment      1: Step Time =    1.000,"P-25-1",           179,       190.101,       10.5351,            0.,NA,NA,"",   1.00118E+06,   1.00204E+06,   1.00204E+06
C:/temp/Job-25.odb,Step-1,Increment      1: Step Time =    1.000,"P-25-1",           180,       179.079,       12.3904,            0.,NA,NA,"",   1.01022E+06,   1.01040E+06,   1.01040E+06
C:/temp/Job-25.odb,Step-1,Increment      1: Step Time =    1.000,"P-25-1",           181,       168.887,       10.2480,            0.,NA,NA,"",   1.01480E+06,   1.01305E+06,   1.01305E+06
C:/temp/Job-25.odb,Step-1,Increment      1: Step Time =    1.000,"P-25-1",           182,       158.239,       11.3502,            0.,NA,NA,"",   1.02207E+06,   1.01791E+06,   1.01791E+06
C:/temp/Job-25.odb,Step-1,Increment      1: Step Time =    1.000,"P-25-1",           183,       148.735,       8.62712,            0.,NA,NA,"",   1.00404E+06,   1.00098E+06,   1.00098E+06
C:/temp/Job-25.odb,Step-1,Increment      1: Step Time =    1.000,"P-25-1",           184,       134.928,       9.68551,            0.,NA,NA,"",   982.937E+03,   980.729E+03,   980.729E+03
C:/temp/Job-25.odb,Step-1,Increment      1: Step Time =    1.000,"P-25-1",           185,       125.072,       10.1246,            0.,NA,NA,"",   959.529E+03,   960.551E+03,   960.551E+03
C:/temp/Job-25.odb,Step-1,Increment      1: Step Time =    1.000,"P-25-1",           186,       114.999,       10.2591,            0.,NA,NA,"",   936.347E+03,   941.892E+03,   941.892E+03
C:/temp/Job-25.odb,Step-1,Increment      1: Step Time =    1.000,"P-25-1",           187,       104.903,       10.1671,            0.,NA,NA,"",   926.892E+03,   935.014E+03,   935.014E+03
C:/temp/Job-25.odb,Step-1,Increment      1: Step Time =    1.000,"P-25-1",           188,       94.9082,       9.85851,            0.,NA,NA,"",   939.968E+03,   947.284E+03,   947.284E+03
C:/temp/Job-25.odb,Step-1,Increment      1: Step Time =    1.000,"P-25-1",           189,       85.0666,       9.47952,            0.,NA,NA,"",   976.226E+03,   979.877E+03,   979.877E+03
C:/temp/Job-25.odb,Step-1,Increment      1: Step Time =    1.000,"P-25-1",           190,       75.5641,       9.30297,            0.,NA,NA,"",   1.02678E+06,   1.02643E+06,   1.02643E+06
C:/temp/Job-25.odb,Step-1,Increment      1: Step Time =    1.000,"P-25-1",           191,       66.3708,       9.97529,            0.,NA,NA,"",   1.08418E+06,   1.08112E+06,   1.08112E+06
C:/temp/Job-25.odb,Step-1,Increment      1: Step Time =    1.000,"P-25-1",           192,       51.8620,       11.4490,            0.,NA,NA,"",   1.16269E+06,   1.15698E+06,   1.15698E+06
C:/temp/Job-25.odb,Step-1,Increment      1: Step Time =    1.000,"P-25-1",           193,       39.6115,       9.51489,            0.,NA,NA,"",   1.20415E+06,   1.20244E+06,   1.20244E+06
C:/temp/Job-25.odb,Step-1,Increment      1: Step Time =    1.000,"P-25-1",           194,       30.2451,       9.74788,            0.,NA,NA,"",   1.24406E+06,   1.24666E+06,   1.24666E+06
C:/temp/Job-25.odb,Step-1,Increment      1: Step Time =    1.000,"P-25-1",           195,       20.0552,       10.8713,            0.,NA,NA,"",   1.29368E+06,   1.30894E+06,   1.30894E+06
C:/temp/Job-25.odb,Step-1,Increment      1: Step Time =    1.000,"P-25-1",           196,       9.76725,       9.78355,            0.,NA,NA,"",   1.38023E+06,   1.42706E+06,   1.42706E+06
C:/temp/Job-25.odb,Step-1,Increment      1: Step Time =    1.000,"P-25-1",           197,       191.586,       25.0693,            0.,NA,NA,"",   999.625E+03,   1.00523E+06,   1.00523E+06
C:/temp/Job-25.odb,Step-1,Increment      1: Step Time =    1.000,"P-25-1",           198,       178.248,       25.1323,            0.,NA,NA,"",   1.02695E+06,   1.02739E+06,   1.02739E+06
C:/temp/Job-25.odb,Step-1,Increment      1: Step Time =    1.000,"P-25-1",           199,       168.954,       23.3537,            0.,NA,NA,"",   1.05016E+06,   1.04347E+06,   1.04347E+06
C:/temp/Job-25.odb,Step-1,Increment      1: Step Time =    1.000,"P-25-1",           200,       160.498,       21.0387,            0.,NA,NA,"",   1.06181E+06,   1.05107E+06,   1.05107E+06
C:/temp/Job-25.odb,Step-1,Increment      1: Step Time =    1.000,"P-25-1",           201,       145.325,       18.6615,            0.,NA,NA,"",   1.06186E+06,   1.05096E+06,   1.05096E+06
C:/temp/Job-25.odb,Step-1,Increment      1: Step Time =    1.000,"P-25-1",           202,       135.339,       19.1951,            0.,NA,NA,"",   1.05891E+06,   1.05213E+06,   1.05213E+06
C:/temp/Job-25.odb,Step-1,Increment      1: Step Time =    1.000,"P-25-1",           203,       125.360,       20.3031,            0.,NA,NA,"",   1.04904E+06,   1.05188E+06,   1.05188E+06
C:/temp/Job-25.odb,Step-1,Increment      1: Step Time =    1.000,"P-25-1",           204,       114.893,       20.4403,            0.,NA,NA,"",   1.02280E+06,   1.04062E+06,   1.04062E+06
C:/temp/Job-25.odb,Step-1,Increment      1: Step Time =    1.000,"P-25-1",           205,       104.428,       20.4105,            0.,NA,NA,"",   1.00977E+06,   1.03602E+06,   1.03602E+06
C:/temp/Job-25.odb,Step-1,Increment      1: Step Time =    1.000,"P-25-1",           206,       94.1742,       19.9102,            0.,NA,NA,"",   1.02548E+06,   1.04865E+06,   1.04865E+06
C:/temp/Job-25.odb,Step-1,Increment      1: Step Time =    1.000,"P-25-1",           207,       84.7555,       19.1840,            0.,NA,NA,"",   1.06276E+06,   1.07484E+06,   1.07484E+06
C:/temp/Job-25.odb,Step-1,Increment      1: Step Time =    1.000,"P-25-1",           208,       75.7279,       18.7591,            0.,NA,NA,"",   1.10497E+06,   1.10447E+06,   1.10447E+06
C:/temp/Job-25.odb,Step-1,Increment      1: Step Time =    1.000,"P-25-1",           209,       65.8179,       21.2933,            0.,NA,NA,"",   1.16369E+06,   1.15338E+06,   1.15338E+06
C:/temp/Job-25.odb,Step-1,Increment      1: Step Time =    1.000,"P-25-1",           210,       52.2840,       21.0607,            0.,NA,NA,"",   1.19997E+06,   1.18634E+06,   1.18634E+06
C:/temp/Job-25.odb,Step-1,Increment      1: Step Time =    1.000,"P-25-1",           211,       42.8290,       20.9631,            0.,NA,NA,"",   1.21432E+06,   1.20667E+06,   1.20667E+06
C:/temp/Job-25.odb,Step-1,Increment      1: Step Time =    1.000,"P-25-1",           212,       31.4398,       24.0017,            0.,NA,NA,"",   1.21027E+06,   1.21963E+06,   1.21963E+06
C:/temp/Job-25.odb,Step-1,Increment      1: Step Time =    1.000,"P-25-1",           213,       18.8300,       19.7660,            0.,NA,NA,"",   1.22088E+06,   1.26171E+06,   1.26171E+06
C:/temp/Job-25.odb,Step-1,Increment      1: Step Time =    1.000,"P-25-1",           214,       10.6536,       19.9346,            0.,NA,NA,"",   1.18415E+06,   1.26142E+06,   1.26142E+06
C:/temp/Job-25.odb,Step-1,Increment      1: Step Time =    1.000,"P-25-1",           215,       191.691,       34.0767,            0.,NA,NA,"",   993.839E+03,   1.00731E+06,   1.00731E+06
C:/temp/Job-25.odb,Step-1,Increment      1: Step Time =    1.000,"P-25-1",           216,       182.940,       33.0617,            0.,NA,NA,"",   1.01747E+06,   1.02491E+06,   1.02491E+06
C:/temp/Job-25.odb,Step-1,Increment      1: Step Time =    1.000,"P-25-1",           217,       170.446,       33.1557,            0.,NA,NA,"",   1.07245E+06,   1.06283E+06,   1.06283E+06
C:/temp/Job-25.odb,Step-1,Increment      1: Step Time =    1.000,"P-25-1",           218,       158.710,       31.1546,            0.,NA,NA,"",   1.11657E+06,   1.09403E+06,   1.09403E+06
C:/temp/Job-25.odb,Step-1,Increment      1: Step Time =    1.000,"P-25-1",           219,       145.959,       30.9547,            0.,NA,NA,"",   1.15352E+06,   1.12671E+06,   1.12671E+06
C:/temp/Job-25.odb,Step-1,Increment      1: Step Time =    1.000,"P-25-1",           220,       137.396,       32.8652,            0.,NA,NA,"",   1.17862E+06,   1.15617E+06,   1.15617E+06
C:/temp/Job-25.odb,Step-1,Increment      1: Step Time =    1.000,"P-25-1",           221,       124.243,       30.4230,            0.,NA,NA,"",   1.13400E+06,   1.14183E+06,   1.14183E+06
C:/temp/Job-25.odb,Step-1,Increment      1: Step Time =    1.000,"P-25-1",           222,       115.597,       30.7274,            0.,NA,NA,"",   1.10358E+06,   1.13382E+06,   1.13382E+06
C:/temp/Job-25.odb,Step-1,Increment      1: Step Time =    1.000,"P-25-1",           223,       103.245,       31.2410,            0.,NA,NA,"",   1.07789E+06,   1.13188E+06,   1.13188E+06
C:/temp/Job-25.odb,Step-1,Increment      1: Step Time =    1.000,"P-25-1",           224,       93.4073,       31.8169,            0.,NA,NA,"",   1.10197E+06,   1.14909E+06,   1.14909E+06
C:/temp/Job-25.odb,Step-1,Increment      1: Step Time =    1.000,"P-25-1",           225,       84.5606,       31.1813,            0.,NA,NA,"",   1.15042E+06,   1.17712E+06,   1.17712E+06
C:/temp/Job-25.odb,Step-1,Increment      1: Step Time =    1.000,"P-25-1",           226,       75.0044,       28.3238,            0.,NA,NA,"",   1.18028E+06,   1.17935E+06,   1.17935E+06
C:/temp/Job-25.odb,Step-1,Increment      1: Step Time =    1.000,"P-25-1",           227,       64.1756,       32.7581,            0.,NA,NA,"",   1.24454E+06,   1.22235E+06,   1.22235E+06
C:/temp/Job-25.odb,Step-1,Increment      1: Step Time =    1.000,"P-25-1",           228,       52.9303,       31.0444,            0.,NA,NA,"",   1.23385E+06,   1.21059E+06,   1.21059E+06
C:/temp/Job-25.odb,Step-1,Increment      1: Step Time =    1.000,"P-25-1",           229,       39.7104,       31.1466,            0.,NA,NA,"",   1.20556E+06,   1.19963E+06,   1.19963E+06
C:/temp/Job-25.odb,Step-1,Increment      1: Step Time =    1.000,"P-25-1",           230,       30.8308,       32.4958,            0.,NA,NA,"",   1.16615E+06,   1.18296E+06,   1.18296E+06
C:/temp/Job-25.odb,Step-1,Increment      1: Step Time =    1.000,"P-25-1",           231,       23.2154,       32.9010,            0.,NA,NA,"",   1.12953E+06,   1.16988E+06,   1.16988E+06
C:/temp/Job-25.odb,Step-1,Increment      1: Step Time =    1.000,"P-25-1",           232,       9.73854,       34.4558,            0.,NA,NA,"",   1.02122E+06,   1.11261E+06,   1.11261E+06
C:/temp/Job-25.odb,Step-1,Increment      1: Step Time =    1.000,"P-25-1",           233,       190.545,       42.7855,            0.,NA,NA,"",   986.999E+03,   1.01214E+06,   1.01214E+06
C:/temp/Job-25.odb,Step-1,Increment      1: Step Time =    1.000,"P-25-1",           234,       176.681,       42.3429,            0.,NA,NA,"",   1.05139E+06,   1.05299E+06,   1.05299E+06
C:/temp/Job-25.odb,Step-1,Increment      1: Step Time =    1.000,"P-25-1",           235,       160.447,       40.7517,            0.,NA,NA,"",   1.14966E+06,   1.11799E+06,   1.11799E+06
C:/temp/Job-25.odb,Step-1,Increment      1: Step Time =    1.000,"P-25-1",           236,       143.086,       40.7496,            0.,NA,NA,"",   1.24120E+06,   1.19607E+06,   1.19607E+06
C:/temp/Job-25.odb,Step-1,Increment      1: Step Time =    1.000,"P-25-1",           237,       134.509,       42.4123,            0.,NA,NA,"",   1.27270E+06,   1.23834E+06,   1.23834E+06
C:/temp/Job-25.odb,Step-1,Increment      1: Step Time =    1.000,"P-25-1",           238,       126.316,       43.9782,            0.,NA,NA,"",   1.28371E+06,   1.27628E+06,   1.27628E+06
C:/temp/Job-25.odb,Step-1,Increment      1: Step Time =    1.000,"P-25-1",           239,       118.087,       43.2796,            0.,NA,NA,"",   1.23391E+06,   1.26894E+06,   1.26894E+06
C:/temp/Job-25.odb,Step-1,Increment      1: Step Time =    1.000,"P-25-1",           240,       106.586,       39.5357,            0.,NA,NA,"",   1.13602E+06,   1.20891E+06,   1.20891E+06
C:/temp/Job-25.odb,Step-1,Increment      1: Step Time =    1.000,"P-25-1",           241,       95.6005,       41.8099,            0.,NA,NA,"",   1.16467E+06,   1.24458E+06,   1.24458E+06
C:/temp/Job-25.odb,Step-1,Increment      1: Step Time =    1.000,"P-25-1",           242,       82.6983,       41.4601,            0.,NA,NA,"",   1.24985E+06,   1.27768E+06,   1.27768E+06
C:/temp/Job-25.odb,Step-1,Increment      1: Step Time =    1.000,"P-25-1",           243,       74.8874,       39.4294,            0.,NA,NA,"",   1.26919E+06,   1.26588E+06,   1.26588E+06
C:/temp/Job-25.odb,Step-1,Increment      1: Step Time =    1.000,"P-25-1",           244,       64.1553,       43.7000,            0.,NA,NA,"",   1.30852E+06,   1.26986E+06,   1.26986E+06
C:/temp/Job-25.odb,Step-1,Increment      1: Step Time =    1.000,"P-25-1",           245,       55.8732,       43.2162,            0.,NA,NA,"",   1.27106E+06,   1.23142E+06,   1.23142E+06
C:/temp/Job-25.odb,Step-1,Increment      1: Step Time =    1.000,"P-25-1",           246,       43.6969,       40.3464,            0.,NA,NA,"",   1.20093E+06,   1.18442E+06,   1.18442E+06
C:/temp/Job-25.odb,Step-1,Increment      1: Step Time =    1.000,"P-25-1",           247,       32.5939,       42.9237,            0.,NA,NA,"",   1.11285E+06,   1.12887E+06,   1.12887E+06
C:/temp/Job-25.odb,Step-1,Increment      1: Step Time =    1.000,"P-25-1",           248,       20.8059,       41.9721,            0.,NA,NA,"",   1.03687E+06,   1.09269E+06,   1.09269E+06
C:/temp/Job-25.odb,Step-1,Increment      1: Step Time =    1.000,"P-25-1",           249,       11.4497,       43.9402,            0.,NA,NA,"",   955.048E+03,   1.04082E+06,   1.04082E+06
C:/temp/Job-25.odb,Step-1,Increment      1: Step Time =    1.000,"P-25-1",           250,       187.240,       50.8971,            0.,NA,NA,"",   990.221E+03,   1.02262E+06,   1.02262E+06
C:/temp/Job-25.odb,Step-1,Increment      1: Step Time =    1.000,"P-25-1",           251,       177.287,       53.4498,            0.,NA,NA,"",   1.04417E+06,   1.05394E+06,   1.05394E+06
C:/temp/Job-25.odb,Step-1,Increment      1: Step Time =    1.000,"P-25-1",           252,       168.138,       50.2491,            0.,NA,NA,"",   1.11236E+06,   1.09308E+06,   1.09308E+06
C:/temp/Job-25.odb,Step-1,Increment      1: Step Time =    1.000,"P-25-1",           253,       158.854,       51.2865,            0.,NA,NA,"",   1.19230E+06,   1.14292E+06,   1.14292E+06
C:/temp/Job-25.odb,Step-1,Increment      1: Step Time =    1.000,"P-25-1",           254,       148.920,       53.3711,            0.,NA,NA,"",   1.28898E+06,   1.21001E+06,   1.21001E+06
C:/temp/Job-25.odb,Step-1,Increment      1: Step Time =    1.000,"P-25-1",           255,       139.390,       54.2101,            0.,NA,NA,"",   1.37561E+06,   1.28837E+06,   1.28837E+06
C:/temp/Job-25.odb,Step-1,Increment      1: Step Time =    1.000,"P-25-1",           256,       126.905,       49.4207,            0.,NA,NA,"",   1.34348E+06,   1.32466E+06,   1.32466E+06
C:/temp/Job-25.odb,Step-1,Increment      1: Step Time =    1.000,"P-25-1",           257,       116.610,       53.2039,            0.,NA,NA,"",   1.35743E+06,   1.40694E+06,   1.40694E+06
C:/temp/Job-25.odb,Step-1,Increment      1: Step Time =    1.000,"P-25-1",           258,       106.777,       51.0900,            0.,NA,NA,"",   1.26766E+06,   1.37718E+06,   1.37718E+06
C:/temp/Job-25.odb,Step-1,Increment      1: Step Time =    1.000,"P-25-1",           259,       96.2537,       50.1977,            0.,NA,NA,"",   1.25531E+06,   1.36457E+06,   1.36457E+06
C:/temp/Job-25.odb,Step-1,Increment      1: Step Time =    1.000,"P-25-1",           260,       83.1972,       51.3676,            0.,NA,NA,"",   1.35445E+06,   1.39166E+06,   1.39166E+06
C:/temp/Job-25.odb,Step-1,Increment      1: Step Time =    1.000,"P-25-1",           261,       73.0203,       51.2406,            0.,NA,NA,"",   1.37719E+06,   1.34962E+06,   1.34962E+06
C:/temp/Job-25.odb,Step-1,Increment      1: Step Time =    1.000,"P-25-1",           262,       62.9207,       52.1573,            0.,NA,NA,"",   1.33802E+06,   1.28000E+06,   1.28000E+06
C:/temp/Job-25.odb,Step-1,Increment      1: Step Time =    1.000,"P-25-1",           263,       53.1130,       51.0770,            0.,NA,NA,"",   1.24802E+06,   1.20084E+06,   1.20084E+06
C:/temp/Job-25.odb,Step-1,Increment      1: Step Time =    1.000,"P-25-1",           264,       42.3764,       55.0686,            0.,NA,NA,"",   1.11051E+06,   1.09559E+06,   1.09559E+06
C:/temp/Job-25.odb,Step-1,Increment      1: Step Time =    1.000,"P-25-1",           265,       32.1306,       54.4842,            0.,NA,NA,"",   1.01501E+06,   1.03868E+06,   1.03868E+06
C:/temp/Job-25.odb,Step-1,Increment      1: Step Time =    1.000,"P-25-1",           266,       19.7975,       56.0964,            0.,NA,NA,"",   901.668E+03,   967.015E+03,   967.015E+03
C:/temp/Job-25.odb,Step-1,Increment      1: Step Time =    1.000,"P-25-1",           267,       9.55560,       52.9846,            0.,NA,NA,"",   868.995E+03,    958.09E+03,    958.09E+03
C:/temp/Job-25.odb,Step-1,Increment      1: Step Time =    1.000,"P-25-1",           268,       189.932,       66.4779,            0.,NA,NA,"",   937.674E+03,   1.00868E+06,   1.00868E+06
C:/temp/Job-25.odb,Step-1,Increment      1: Step Time =    1.000,"P-25-1",           269,       178.943,       66.3355,            0.,NA,NA,"",   995.402E+03,   1.02860E+06,   1.02860E+06
C:/temp/Job-25.odb,Step-1,Increment      1: Step Time =    1.000,"P-25-1",           270,       168.474,       65.5158,            0.,NA,NA,"",   1.07139E+06,   1.05889E+06,   1.05889E+06
C:/temp/Job-25.odb,Step-1,Increment      1: Step Time =    1.000,"P-25-1",           271,       159.394,       65.1728,            0.,NA,NA,"",   1.15431E+06,   1.09756E+06,   1.09756E+06
C:/temp/Job-25.odb,Step-1,Increment      1: Step Time =    1.000,"P-25-1",           272,       146.441,       61.6604,            0.,NA,NA,"",   1.32660E+06,   1.21628E+06,   1.21628E+06
C:/temp/Job-25.odb,Step-1,Increment      1: Step Time =    1.000,"P-25-1",           273,       134.814,       63.1464,            0.,NA,NA,"",   1.46564E+06,   1.34085E+06,   1.34085E+06
C:/temp/Job-25.odb,Step-1,Increment      1: Step Time =    1.000,"P-25-1",           274,       121.164,       60.5135,            0.,NA,NA,"",   1.49717E+06,   1.49844E+06,   1.49844E+06
C:/temp/Job-25.odb,Step-1,Increment      1: Step Time =    1.000,"P-25-1",           275,       113.194,       62.6717,            0.,NA,NA,"",   1.54068E+06,   1.62942E+06,   1.62942E+06
C:/temp/Job-25.odb,Step-1,Increment      1: Step Time =    1.000,"P-25-1",           276,       106.079,       64.0663,            0.,NA,NA,"",   1.67259E+06,   1.82066E+06,   1.82066E+06
C:/temp/Job-25.odb,Step-1,Increment      1: Step Time =    1.000,"P-25-1",           277,       92.9310,       61.1831,            0.,NA,NA,"",   1.54075E+06,   1.67095E+06,   1.67095E+06
C:/temp/Job-25.odb,Step-1,Increment      1: Step Time =    1.000,"P-25-1",           278,       83.0102,       63.2714,            0.,NA,NA,"",   1.52825E+06,   1.55993E+06,   1.55993E+06
C:/temp/Job-25.odb,Step-1,Increment      1: Step Time =    1.000,"P-25-1",           279,       73.3303,       65.3929,            0.,NA,NA,"",   1.46333E+06,   1.38958E+06,   1.38958E+06
C:/temp/Job-25.odb,Step-1,Increment      1: Step Time =    1.000,"P-25-1",           280,       63.1410,       62.9870,            0.,NA,NA,"",   1.32968E+06,   1.23841E+06,   1.23841E+06
C:/temp/Job-25.odb,Step-1,Increment      1: Step Time =    1.000,"P-25-1",           281,       52.4119,       61.6510,            0.,NA,NA,"",   1.17672E+06,   1.12011E+06,   1.12011E+06
C:/temp/Job-25.odb,Step-1,Increment      1: Step Time =    1.000,"P-25-1",           282,       41.4907,       61.1876,            0.,NA,NA,"",   1.03937E+06,   1.03110E+06,   1.03110E+06
C:/temp/Job-25.odb,Step-1,Increment      1: Step Time =    1.000,"P-25-1",           283,       32.4579,       69.4723,            0.,NA,NA,"",   850.876E+03,   886.505E+03,   886.505E+03
C:/temp/Job-25.odb,Step-1,Increment      1: Step Time =    1.000,"P-25-1",           284,       19.9644,       64.5867,            0.,NA,NA,"",   821.860E+03,   890.343E+03,   890.343E+03
C:/temp/Job-25.odb,Step-1,Increment      1: Step Time =    1.000,"P-25-1",           285,       9.31699,       65.0080,            0.,NA,NA,"",   772.908E+03,   859.650E+03,   859.650E+03
C:/temp/Job-25.odb,Step-1,Increment      1: Step Time =    1.000,"P-25-1",           286,       190.544,       134.764,            0.,NA,NA,"",   938.994E+03,   1.00965E+06,   1.00965E+06
C:/temp/Job-25.odb,Step-1,Increment      1: Step Time =    1.000,"P-25-1",           287,       180.992,       134.500,            0.,NA,NA,"",   986.368E+03,   1.02556E+06,   1.02556E+06
C:/temp/Job-25.odb,Step-1,Increment      1: Step Time =    1.000,"P-25-1",           288,       168.860,       139.009,            0.,NA,NA,"",   1.09524E+06,   1.07816E+06,   1.07816E+06
C:/temp/Job-25.odb,Step-1,Increment      1: Step Time =    1.000,"P-25-1",           289,       157.708,       138.882,            0.,NA,NA,"",   1.19491E+06,   1.13085E+06,   1.13085E+06
C:/temp/Job-25.odb,Step-1,Increment      1: Step Time =    1.000,"P-25-1",           290,       147.088,       138.663,            0.,NA,NA,"",   1.32251E+06,   1.21375E+06,   1.21375E+06
C:/temp/Job-25.odb,Step-1,Increment      1: Step Time =    1.000,"P-25-1",           291,       138.849,       135.301,            0.,NA,NA,"",   1.42888E+06,   1.29149E+06,   1.29149E+06
C:/temp/Job-25.odb,Step-1,Increment      1: Step Time =    1.000,"P-25-1",           292,       126.389,       137.411,            0.,NA,NA,"",   1.51434E+06,   1.44843E+06,   1.44843E+06
C:/temp/Job-25.odb,Step-1,Increment      1: Step Time =    1.000,"P-25-1",           293,       115.083,       137.723,            0.,NA,NA,"",   1.53119E+06,   1.59943E+06,   1.59943E+06
C:/temp/Job-25.odb,Step-1,Increment      1: Step Time =    1.000,"P-25-1",           294,       104.381,       139.887,            0.,NA,NA,"",   1.50059E+06,   1.64799E+06,   1.64799E+06
C:/temp/Job-25.odb,Step-1,Increment      1: Step Time =    1.000,"P-25-1",           295,       94.0016,       135.872,            0.,NA,NA,"",   1.65389E+06,   1.79744E+06,   1.79744E+06
C:/temp/Job-25.odb,Step-1,Increment      1: Step Time =    1.000,"P-25-1",           296,       84.5974,       136.652,            0.,NA,NA,"",   1.54232E+06,   1.59234E+06,   1.59234E+06
C:/temp/Job-25.odb,Step-1,Increment      1: Step Time =    1.000,"P-25-1",           297,       77.4093,       137.371,            0.,NA,NA,"",   1.49436E+06,   1.46515E+06,   1.46515E+06
C:/temp/Job-25.odb,Step-1,Increment      1: Step Time =    1.000,"P-25-1",           298,       62.0056,       140.661,            0.,NA,NA,"",   1.33226E+06,   1.25502E+06,   1.25502E+06
C:/temp/Job-25.odb,Step-1,Increment      1: Step Time =    1.000,"P-25-1",           299,       53.2760,       136.189,            0.,NA,NA,"",   1.17290E+06,   1.10777E+06,   1.10777E+06
C:/temp/Job-25.odb,Step-1,Increment      1: Step Time =    1.000,"P-25-1",           300,       38.6212,       133.930,            0.,NA,NA,"",   939.713E+03,   948.886E+03,   948.886E+03
C:/temp/Job-25.odb,Step-1,Increment      1: Step Time =    1.000,"P-25-1",           301,       29.6608,       136.077,            0.,NA,NA,"",   890.472E+03,   931.214E+03,   931.214E+03
C:/temp/Job-25.odb,Step-1,Increment      1: Step Time =    1.000,"P-25-1",           302,       19.0906,       135.975,            0.,NA,NA,"",   822.832E+03,   892.703E+03,   892.703E+03
C:/temp/Job-25.odb,Step-1,Increment      1: Step Time =    1.000,"P-25-1",           303,       9.53126,       135.497,            0.,NA,NA,"",   776.640E+03,   863.351E+03,   863.351E+03
C:/temp/Job-25.odb,Step-1,Increment      1: Step Time =    1.000,"P-25-1",           304,       191.428,       148.662,            0.,NA,NA,"",   969.961E+03,   1.01120E+06,   1.01120E+06
C:/temp/Job-25.odb,Step-1,Increment      1: Step Time =    1.000,"P-25-1",           305,       180.996,       145.067,            0.,NA,NA,"",   1.01886E+06,   1.04112E+06,   1.04112E+06
C:/temp/Job-25.odb,Step-1,Increment      1: Step Time =    1.000,"P-25-1",           306,       168.509,       146.681,            0.,NA,NA,"",   1.11111E+06,   1.09228E+06,   1.09228E+06
C:/temp/Job-25.odb,Step-1,Increment      1: Step Time =    1.000,"P-25-1",           307,       158.964,       146.014,            0.,NA,NA,"",   1.19428E+06,   1.14213E+06,   1.14213E+06
C:/temp/Job-25.odb,Step-1,Increment      1: Step Time =    1.000,"P-25-1",           308,       146.671,       148.802,            0.,NA,NA,"",   1.30245E+06,   1.22621E+06,   1.22621E+06
C:/temp/Job-25.odb,Step-1,Increment      1: Step Time =    1.000,"P-25-1",           309,       136.535,       144.932,            0.,NA,NA,"",   1.39598E+06,   1.31239E+06,   1.31239E+06
C:/temp/Job-25.odb,Step-1,Increment      1: Step Time =    1.000,"P-25-1",           310,       124.536,       149.478,            0.,NA,NA,"",   1.35582E+06,   1.34656E+06,   1.34656E+06
C:/temp/Job-25.odb,Step-1,Increment      1: Step Time =    1.000,"P-25-1",           311,       114.468,       149.284,            0.,NA,NA,"",   1.30354E+06,   1.36875E+06,   1.36875E+06
C:/temp/Job-25.odb,Step-1,Increment      1: Step Time =    1.000,"P-25-1",           312,       104.198,       148.117,            0.,NA,NA,"",   1.27226E+06,   1.39087E+06,   1.39087E+06
C:/temp/Job-25.odb,Step-1,Increment      1: Step Time =    1.000,"P-25-1",           313,       92.5052,       148.924,            0.,NA,NA,"",   1.29240E+06,   1.38838E+06,   1.38838E+06
C:/temp/Job-25.odb,Step-1,Increment      1: Step Time =    1.000,"P-25-1",           314,       83.1970,       149.526,            0.,NA,NA,"",   1.34578E+06,   1.38124E+06,   1.38124E+06
C:/temp/Job-25.odb,Step-1,Increment      1: Step Time =    1.000,"P-25-1",           315,       72.6738,       150.124,            0.,NA,NA,"",   1.36395E+06,   1.33656E+06,   1.33656E+06
C:/temp/Job-25.odb,Step-1,Increment      1: Step Time =    1.000,"P-25-1",           316,       61.5482,       149.718,            0.,NA,NA,"",   1.32072E+06,   1.26789E+06,   1.26789E+06
C:/temp/Job-25.odb,Step-1,Increment      1: Step Time =    1.000,"P-25-1",           317,       53.0732,       145.836,            0.,NA,NA,"",   1.23991E+06,   1.18845E+06,   1.18845E+06
C:/temp/Job-25.odb,Step-1,Increment      1: Step Time =    1.000,"P-25-1",           318,       40.4503,       148.241,            0.,NA,NA,"",   1.12042E+06,   1.11078E+06,   1.11078E+06
C:/temp/Job-25.odb,Step-1,Increment      1: Step Time =    1.000,"P-25-1",           319,       32.1659,       146.412,            0.,NA,NA,"",   1.02602E+06,   1.04820E+06,   1.04820E+06
C:/temp/Job-25.odb,Step-1,Increment      1: Step Time =    1.000,"P-25-1",           320,       18.9650,       145.454,            0.,NA,NA,"",   913.306E+03,   979.719E+03,   979.719E+03
C:/temp/Job-25.odb,Step-1,Increment      1: Step Time =    1.000,"P-25-1",           321,       9.53359,       145.226,            0.,NA,NA,"",   854.482E+03,     943.6E+03,     943.6E+03
C:/temp/Job-25.odb,Step-1,Increment      1: Step Time =    1.000,"P-25-1",           322,       188.740,       158.357,            0.,NA,NA,"",   995.777E+03,   1.01660E+06,   1.01660E+06
C:/temp/Job-25.odb,Step-1,Increment      1: Step Time =    1.000,"P-25-1",           323,       179.162,       161.503,            0.,NA,NA,"",   1.03772E+06,   1.04223E+06,   1.04223E+06
C:/temp/Job-25.odb,Step-1,Increment      1: Step Time =    1.000,"P-25-1",           324,       166.572,       157.391,            0.,NA,NA,"",   1.11575E+06,   1.09475E+06,   1.09475E+06
C:/temp/Job-25.odb,Step-1,Increment      1: Step Time =    1.000,"P-25-1",           325,       150.377,       158.414,            0.,NA,NA,"",   1.21556E+06,   1.16826E+06,   1.16826E+06
C:/temp/Job-25.odb,Step-1,Increment      1: Step Time =    1.000,"P-25-1",           326,       134.480,       156.581,            0.,NA,NA,"",   1.28638E+06,   1.24871E+06,   1.24871E+06
C:/temp/Job-25.odb,Step-1,Increment      1: Step Time =    1.000,"P-25-1",           327,       123.826,       158.355,            0.,NA,NA,"",   1.24445E+06,   1.25040E+06,   1.25040E+06
C:/temp/Job-25.odb,Step-1,Increment      1: Step Time =    1.000,"P-25-1",           328,       115.020,       160.640,            0.,NA,NA,"",   1.17309E+06,   1.22056E+06,   1.22056E+06
C:/temp/Job-25.odb,Step-1,Increment      1: Step Time =    1.000,"P-25-1",           329,       105.984,       157.752,            0.,NA,NA,"",   1.15492E+06,   1.23822E+06,   1.23822E+06
C:/temp/Job-25.odb,Step-1,Increment      1: Step Time =    1.000,"P-25-1",           330,       96.6853,       157.113,            0.,NA,NA,"",   1.16903E+06,   1.25631E+06,   1.25631E+06
C:/temp/Job-25.odb,Step-1,Increment      1: Step Time =    1.000,"P-25-1",           331,       84.9953,       157.394,            0.,NA,NA,"",   1.24658E+06,   1.28740E+06,   1.28740E+06
C:/temp/Job-25.odb,Step-1,Increment      1: Step Time =    1.000,"P-25-1",           332,       73.5903,       156.057,            0.,NA,NA,"",   1.31399E+06,   1.30060E+06,   1.30060E+06
C:/temp/Job-25.odb,Step-1,Increment      1: Step Time =    1.000,"P-25-1",           333,       64.6283,       160.743,            0.,NA,NA,"",   1.28322E+06,   1.25325E+06,   1.25325E+06
C:/temp/Job-25.odb,Step-1,Increment      1: Step Time =    1.000,"P-25-1",           334,       53.1676,       156.914,            0.,NA,NA,"",   1.25569E+06,   1.21969E+06,   1.21969E+06
C:/temp/Job-25.odb,Step-1,Increment      1: Step Time =    1.000,"P-25-1",           335,       42.8566,       156.541,            0.,NA,NA,"",   1.18537E+06,   1.16993E+06,   1.16993E+06
C:/temp/Job-25.odb,Step-1,Increment      1: Step Time =    1.000,"P-25-1",           336,       32.1983,       155.760,            0.,NA,NA,"",   1.10164E+06,   1.11927E+06,   1.11927E+06
C:/temp/Job-25.odb,Step-1,Increment      1: Step Time =    1.000,"P-25-1",           337,       21.6419,       156.796,            0.,NA,NA,"",   1.03342E+06,   1.08655E+06,   1.08655E+06
C:/temp/Job-25.odb,Step-1,Increment      1: Step Time =    1.000,"P-25-1",           338,       9.95836,       160.033,            0.,NA,NA,"",   975.531E+03,   1.06631E+06,   1.06631E+06
C:/temp/Job-25.odb,Step-1,Increment      1: Step Time =    1.000,"P-25-1",           339,       190.014,       169.053,            0.,NA,NA,"",   999.943E+03,   1.00964E+06,   1.00964E+06
C:/temp/Job-25.odb,Step-1,Increment      1: Step Time =    1.000,"P-25-1",           340,       178.002,       169.859,            0.,NA,NA,"",   1.03444E+06,   1.03537E+06,   1.03537E+06
C:/temp/Job-25.odb,Step-1,Increment      1: Step Time =    1.000,"P-25-1",           341,       168.605,       170.807,            0.,NA,NA,"",   1.06851E+06,   1.05867E+06,   1.05867E+06
C:/temp/Job-25.odb,Step-1,Increment      1: Step Time =    1.000,"P-25-1",           342,       157.379,       166.348,            0.,NA,NA,"",   1.13411E+06,   1.10718E+06,   1.10718E+06
C:/temp/Job-25.odb,Step-1,Increment      1: Step Time =    1.000,"P-25-1",           343,       148.301,       168.254,            0.,NA,NA,"",   1.15271E+06,   1.12386E+06,   1.12386E+06
C:/temp/Job-25.odb,Step-1,Increment      1: Step Time =    1.000,"P-25-1",           344,       135.055,       168.500,            0.,NA,NA,"",   1.16875E+06,   1.15101E+06,   1.15101E+06
C:/temp/Job-25.odb,Step-1,Increment      1: Step Time =    1.000,"P-25-1",           345,       126.058,       167.226,            0.,NA,NA,"",   1.16273E+06,   1.16578E+06,   1.16578E+06
C:/temp/Job-25.odb,Step-1,Increment      1: Step Time =    1.000,"P-25-1",           346,       114.354,       167.138,            0.,NA,NA,"",   1.11565E+06,   1.15495E+06,   1.15495E+06
C:/temp/Job-25.odb,Step-1,Increment      1: Step Time =    1.000,"P-25-1",           347,       104.496,       170.130,            0.,NA,NA,"",   1.06913E+06,   1.11679E+06,   1.11679E+06
C:/temp/Job-25.odb,Step-1,Increment      1: Step Time =    1.000,"P-25-1",           348,       93.6672,       170.425,            0.,NA,NA,"",   1.08798E+06,   1.13195E+06,   1.13195E+06
C:/temp/Job-25.odb,Step-1,Increment      1: Step Time =    1.000,"P-25-1",           349,       83.6859,       164.939,            0.,NA,NA,"",   1.18759E+06,   1.21554E+06,   1.21554E+06
C:/temp/Job-25.odb,Step-1,Increment      1: Step Time =    1.000,"P-25-1",           350,       74.8498,       171.160,            0.,NA,NA,"",   1.18448E+06,   1.18316E+06,   1.18316E+06
C:/temp/Job-25.odb,Step-1,Increment      1: Step Time =    1.000,"P-25-1",           351,       64.6249,       166.670,            0.,NA,NA,"",   1.24744E+06,   1.22518E+06,   1.22518E+06
C:/temp/Job-25.odb,Step-1,Increment      1: Step Time =    1.000,"P-25-1",           352,       52.7719,       170.389,            0.,NA,NA,"",   1.22865E+06,   1.20762E+06,   1.20762E+06
C:/temp/Job-25.odb,Step-1,Increment      1: Step Time =    1.000,"P-25-1",           353,       41.4424,       170.466,            0.,NA,NA,"",   1.21398E+06,   1.20507E+06,   1.20507E+06
C:/temp/Job-25.odb,Step-1,Increment      1: Step Time =    1.000,"P-25-1",           354,       31.3197,       168.071,            0.,NA,NA,"",   1.17510E+06,   1.18983E+06,   1.18983E+06
C:/temp/Job-25.odb,Step-1,Increment      1: Step Time =    1.000,"P-25-1",           355,       23.5688,       168.363,            0.,NA,NA,"",   1.14166E+06,   1.18003E+06,   1.18003E+06
C:/temp/Job-25.odb,Step-1,Increment      1: Step Time =    1.000,"P-25-1",           356,       9.90473,       169.550,            0.,NA,NA,"",   1.05966E+06,   1.15046E+06,   1.15046E+06
C:/temp/Job-25.odb,Step-1,Increment      1: Step Time =    1.000,"P-25-1",           357,       188.159,       179.264,            0.,NA,NA,"",   1.00459E+06,   1.00800E+06,   1.00800E+06
C:/temp/Job-25.odb,Step-1,Increment      1: Step Time =    1.000,"P-25-1",           358,       177.203,       178.106,            0.,NA,NA,"",   1.02499E+06,   1.02477E+06,   1.02477E+06
C:/temp/Job-25.odb,Step-1,Increment      1: Step Time =    1.000,"P-25-1",           359,       166.954,       181.978,            0.,NA,NA,"",   1.03666E+06,   1.03157E+06,   1.03157E+06
C:/temp/Job-25.odb,Step-1,Increment      1: Step Time =    1.000,"P-25-1",           360,       157.034,       175.859,            0.,NA,NA,"",   1.08300E+06,   1.06788E+06,   1.06788E+06
C:/temp/Job-25.odb,Step-1,Increment      1: Step Time =    1.000,"P-25-1",           361,       146.103,       177.376,            0.,NA,NA,"",   1.09160E+06,   1.07572E+06,   1.07572E+06
C:/temp/Job-25.odb,Step-1,Increment      1: Step Time =    1.000,"P-25-1",           362,       133.633,       178.990,            0.,NA,NA,"",   1.07072E+06,   1.06433E+06,   1.06433E+06
C:/temp/Job-25.odb,Step-1,Increment      1: Step Time =    1.000,"P-25-1",           363,       123.654,       180.908,            0.,NA,NA,"",   1.03500E+06,   1.04000E+06,   1.04000E+06
C:/temp/Job-25.odb,Step-1,Increment      1: Step Time =    1.000,"P-25-1",           364,       113.952,       180.483,            0.,NA,NA,"",   1.01439E+06,   1.03185E+06,   1.03185E+06
C:/temp/Job-25.odb,Step-1,Increment      1: Step Time =    1.000,"P-25-1",           365,       103.994,       180.588,            0.,NA,NA,"",   1.00368E+06,   1.02745E+06,   1.02745E+06
C:/temp/Job-25.odb,Step-1,Increment      1: Step Time =    1.000,"P-25-1",           366,       94.4166,       180.693,            0.,NA,NA,"",   1.02081E+06,   1.04363E+06,   1.04363E+06
C:/temp/Job-25.odb,Step-1,Increment      1: Step Time =    1.000,"P-25-1",           367,       84.4415,       180.417,            0.,NA,NA,"",   1.06538E+06,   1.07760E+06,   1.07760E+06
C:/temp/Job-25.odb,Step-1,Increment      1: Step Time =    1.000,"P-25-1",           368,       74.6741,       181.074,            0.,NA,NA,"",   1.11081E+06,   1.10941E+06,   1.10941E+06
C:/temp/Job-25.odb,Step-1,Increment      1: Step Time =    1.000,"P-25-1",           369,       65.1670,       181.185,            0.,NA,NA,"",   1.15150E+06,   1.14210E+06,   1.14210E+06
C:/temp/Job-25.odb,Step-1,Increment      1: Step Time =    1.000,"P-25-1",           370,       54.4295,       179.748,            0.,NA,NA,"",   1.19123E+06,   1.17823E+06,   1.17823E+06
C:/temp/Job-25.odb,Step-1,Increment      1: Step Time =    1.000,"P-25-1",           371,       39.9576,       174.684,            0.,NA,NA,"",   1.21639E+06,   1.21033E+06,   1.21033E+06
C:/temp/Job-25.odb,Step-1,Increment      1: Step Time =    1.000,"P-25-1",           372,       30.7954,       179.260,            0.,NA,NA,"",   1.22554E+06,   1.23361E+06,   1.23361E+06
C:/temp/Job-25.odb,Step-1,Increment      1: Step Time =    1.000,"P-25-1",           373,       21.8340,       178.233,            0.,NA,NA,"",   1.21263E+06,   1.24424E+06,   1.24424E+06
C:/temp/Job-25.odb,Step-1,Increment      1: Step Time =    1.000,"P-25-1",           374,       10.9264,       179.142,            0.,NA,NA,"",   1.16987E+06,   1.24808E+06,   1.24808E+06
C:/temp/Job-25.odb,Step-1,Increment      1: Step Time =    1.000,"P-25-1",           375,       189.620,       190.148,            0.,NA,NA,"",   1.00134E+06,   1.00204E+06,   1.00204E+06
C:/temp/Job-25.odb,Step-1,Increment      1: Step Time =    1.000,"P-25-1",           376,       174.997,       191.379,            0.,NA,NA,"",   1.00797E+06,   1.00771E+06,   1.00771E+06
C:/temp/Job-25.odb,Step-1,Increment      1: Step Time =    1.000,"P-25-1",           377,       165.952,       191.490,            0.,NA,NA,"",   1.01151E+06,   1.01008E+06,   1.01008E+06
C:/temp/Job-25.odb,Step-1,Increment      1: Step Time =    1.000,"P-25-1",           378,       157.148,       190.428,            0.,NA,NA,"",   1.01404E+06,   1.01093E+06,   1.01093E+06
C:/temp/Job-25.odb,Step-1,Increment      1: Step Time =    1.000,"P-25-1",           379,       148.940,       187.206,            0.,NA,NA,"",   1.02755E+06,   1.02122E+06,   1.02122E+06
C:/temp/Job-25.odb,Step-1,Increment      1: Step Time =    1.000,"P-25-1",           380,       133.439,       189.911,            0.,NA,NA,"",   982.714E+03,   981.113E+03,   981.113E+03
C:/temp/Job-25.odb,Step-1,Increment      1: Step Time =    1.000,"P-25-1",           381,       124.123,       190.530,            0.,NA,NA,"",   951.482E+03,   952.884E+03,   952.884E+03
C:/temp/Job-25.odb,Step-1,Increment      1: Step Time =    1.000,"P-25-1",           382,       114.503,       190.376,            0.,NA,NA,"",   929.443E+03,   934.506E+03,   934.506E+03
C:/temp/Job-25.odb,Step-1,Increment      1: Step Time =    1.000,"P-25-1",           383,       104.631,       190.265,            0.,NA,NA,"",   922.501E+03,   930.255E+03,   930.255E+03
C:/temp/Job-25.odb,Step-1,Increment      1: Step Time =    1.000,"P-25-1",           384,       94.6747,       190.174,            0.,NA,NA,"",   940.046E+03,   947.314E+03,   947.314E+03
C:/temp/Job-25.odb,Step-1,Increment      1: Step Time =    1.000,"P-25-1",           385,       84.7823,       190.152,            0.,NA,NA,"",   980.796E+03,   984.383E+03,   984.383E+03
C:/temp/Job-25.odb,Step-1,Increment      1: Step Time =    1.000,"P-25-1",           386,       74.8406,       190.318,            0.,NA,NA,"",   1.03377E+06,   1.03315E+06,   1.03315E+06
C:/temp/Job-25.odb,Step-1,Increment      1: Step Time =    1.000,"P-25-1",           387,       64.9112,       190.425,            0.,NA,NA,"",   1.08959E+06,   1.08597E+06,   1.08597E+06
C:/temp/Job-25.odb,Step-1,Increment      1: Step Time =    1.000,"P-25-1",           388,       50.7128,       190.780,            0.,NA,NA,"",   1.15780E+06,   1.15406E+06,   1.15406E+06
C:/temp/Job-25.odb,Step-1,Increment      1: Step Time =    1.000,"P-25-1",           389,       41.0471,       188.789,            0.,NA,NA,"",   1.20253E+06,   1.19987E+06,   1.19987E+06
C:/temp/Job-25.odb,Step-1,Increment      1: Step Time =    1.000,"P-25-1",           390,       30.3487,       189.558,            0.,NA,NA,"",   1.24418E+06,   1.24685E+06,   1.24685E+06
C:/temp/Job-25.odb,Step-1,Increment      1: Step Time =    1.000,"P-25-1",           391,       20.1951,       189.454,            0.,NA,NA,"",   1.29512E+06,   1.30897E+06,   1.30897E+06
C:/temp/Job-25.odb,Step-1,Increment      1: Step Time =    1.000,"P-25-1",           392,       10.2091,       189.801,            0.,NA,NA,"",   1.37111E+06,   1.41791E+06,   1.41791E+06
C:/temp/Job-25.odb,Step-1,Increment      1: Step Time =    1.000,"P-25-1",           393,       95.0795,       125.530,            0.,NA,NA,"",   2.55402E+06,   2.63135E+06,   2.63135E+06
C:/temp/Job-25.odb,Step-1,Increment      1: Step Time =    1.000,"P-25-1",           394,       85.9433,       121.873,            0.,NA,NA,"",   1.69927E+06,   1.73603E+06,   1.73603E+06
C:/temp/Job-25.odb,Step-1,Increment      1: Step Time =    1.000,"P-25-1",           395,       78.8210,       115.081,            0.,NA,NA,"",   687.128E+03,   590.321E+03,   590.321E+03
C:/temp/Job-25.odb,Step-1,Increment      1: Step Time =    1.000,"P-25-1",           396,       74.7329,       106.130,            0.,NA,NA,"",   583.085E+03,  -576.594E+03,  -576.594E+03
C:/temp/Job-25.odb,Step-1,Increment      1: Step Time =    1.000,"P-25-1",           397,       74.2646,       96.2998,            0.,NA,NA,"",   559.481E+03,  -557.214E+03,  -557.214E+03
C:/temp/Job-25.odb,Step-1,Increment      1: Step Time =    1.000,"P-25-1",           398,       77.4833,           87.,            0.,NA,NA,"",   441.484E+03,   128.421E+03,   128.421E+03
C:/temp/Job-25.odb,Step-1,Increment      1: Step Time =    1.000,"P-25-1",           399,       83.9279,       79.5626,            0.,NA,NA,"",   1.34639E+06,   1.36833E+06,   1.36833E+06
C:/temp/Job-25.odb,Step-1,Increment      1: Step Time =    1.000,"P-25-1",           400,       92.6750,       75.0532,            0.,NA,NA,"",   2.32853E+06,   2.39957E+06,   2.39957E+06
C:/temp/Job-25.odb,Step-1,Increment      1: Step Time =    1.000,"P-25-1",           401,       97.5285,       74.1177,            0.,NA,NA,"",   2.49927E+06,   2.61181E+06,   2.61181E+06
C:/temp/Job-25.odb,Step-1,Increment      1: Step Time =    1.000,"P-25-1",           402,       107.325,       75.0532,            0.,NA,NA,"",   2.52493E+06,   2.59199E+06,   2.59199E+06
C:/temp/Job-25.odb,Step-1,Increment      1: Step Time =    1.000,"P-25-1",           403,       116.072,       79.5626,            0.,NA,NA,"",   1.49919E+06,   1.52282E+06,   1.52282E+06
C:/temp/Job-25.odb,Step-1,Increment      1: Step Time =    1.000,"P-25-1",           404,       122.517,           87.,            0.,NA,NA,"",   505.280E+03,   49.1573E+03,   49.1573E+03
C:/temp/Job-25.odb,Step-1,Increment      1: Step Time =    1.000,"P-25-1",           405,       125.735,       96.2998,            0.,NA,NA,"",   851.484E+03,  -861.231E+03,  -861.231E+03
C:/temp/Job-25.odb,Step-1,Increment      1: Step Time =    1.000,"P-25-1",           406,       125.267,       106.130,            0.,NA,NA,"",   759.043E+03,  -754.711E+03,  -754.711E+03
C:/temp/Job-25.odb,Step-1,Increment      1: Step Time =    1.000,"P-25-1",           407,       121.179,       115.081,            0.,NA,NA,"",   805.136E+03,   678.667E+03,   678.667E+03
C:/temp/Job-25.odb,Step-1,Increment      1: Step Time =    1.000,"P-25-1",           408,       114.057,       121.873,            0.,NA,NA,"",   1.86641E+06,   1.90844E+06,   1.90844E+06
C:/temp/Job-25.odb,Step-1,Increment      1: Step Time =    1.000,"P-25-1",           409,       104.921,       125.530,            0.,NA,NA,"",   2.59722E+06,   2.67914E+06,   2.67914E+06
C:/temp/Job-25.odb,Step-1,Increment      1: Step Time =    1.000,"P-25-1",           410,          195.,            0.,            0.,NA,NA,"",   999.519E+03,   999.487E+03,   999.487E+03
C:/temp/Job-25.odb,Step-1,Increment      1: Step Time =    1.000,"P-25-1",           411,          185.,            0.,            0.,NA,NA,"",   998.929E+03,   999.037E+03,   999.037E+03
C:/temp/Job-25.odb,Step-1,Increment      1: Step Time =    1.000,"P-25-1",           412,          175.,            0.,            0.,NA,NA,"",   1.00057E+06,   1.00052E+06,   1.00052E+06
C:/temp/Job-25.odb,Step-1,Increment      1: Step Time =    1.000,"P-25-1",           413,          165.,            0.,            0.,NA,NA,"",   1.00014E+06,   999.828E+03,   999.828E+03
C:/temp/Job-25.odb,Step-1,Increment      1: Step Time =    1.000,"P-25-1",           414,          155.,            0.,            0.,NA,NA,"",   990.716E+03,   990.304E+03,   990.304E+03
C:/temp/Job-25.odb,Step-1,Increment      1: Step Time =    1.000,"P-25-1",           415,          145.,            0.,            0.,NA,NA,"",   966.522E+03,   966.098E+03,   966.098E+03
C:/temp/Job-25.odb,Step-1,Increment      1: Step Time =    1.000,"P-25-1",           416,          135.,            0.,            0.,NA,NA,"",   929.481E+03,   929.170E+03,   929.170E+03
C:/temp/Job-25.odb,Step-1,Increment      1: Step Time =    1.000,"P-25-1",           417,          125.,            0.,            0.,NA,NA,"",   887.050E+03,   887.181E+03,   887.181E+03
C:/temp/Job-25.odb,Step-1,Increment      1: Step Time =    1.000,"P-25-1",           418,          115.,            0.,            0.,NA,NA,"",   851.152E+03,   851.862E+03,   851.862E+03
C:/temp/Job-25.odb,Step-1,Increment      1: Step Time =    1.000,"P-25-1",           419,          105.,            0.,            0.,NA,NA,"",   836.224E+03,   837.229E+03,   837.229E+03
C:/temp/Job-25.odb,Step-1,Increment      1: Step Time =    1.000,"P-25-1",           420,           95.,            0.,            0.,NA,NA,"",   851.747E+03,   852.603E+03,   852.603E+03
C:/temp/Job-25.odb,Step-1,Increment      1: Step Time =    1.000,"P-25-1",           421,           85.,            0.,            0.,NA,NA,"",   898.352E+03,   898.796E+03,   898.796E+03
C:/temp/Job-25.odb,Step-1,Increment      1: Step Time =    1.000,"P-25-1",           422,           75.,            0.,            0.,NA,NA,"",   966.851E+03,   967.004E+03,   967.004E+03
C:/temp/Job-25.odb,Step-1,Increment      1: Step Time =    1.000,"P-25-1",           423,           65.,            0.,            0.,NA,NA,"",   1.04315E+06,   1.04344E+06,   1.04344E+06
C:/temp/Job-25.odb,Step-1,Increment      1: Step Time =    1.000,"P-25-1",           424,           55.,            0.,            0.,NA,NA,"",   1.11437E+06,   1.11333E+06,   1.11333E+06
C:/temp/Job-25.odb,Step-1,Increment      1: Step Time =    1.000,"P-25-1",           425,           45.,            0.,            0.,NA,NA,"",   1.17025E+06,   1.16977E+06,   1.16977E+06
C:/temp/Job-25.odb,Step-1,Increment      1: Step Time =    1.000,"P-25-1",           426,           35.,            0.,            0.,NA,NA,"",   1.21336E+06,   1.21368E+06,   1.21368E+06
C:/temp/Job-25.odb,Step-1,Increment      1: Step Time =    1.000,"P-25-1",           427,           25.,            0.,            0.,NA,NA,"",   1.26124E+06,   1.26273E+06,   1.26273E+06
C:/temp/Job-25.odb,Step-1,Increment      1: Step Time =    1.000,"P-25-1",           428,           15.,            0.,            0.,NA,NA,"",   1.34231E+06,   1.34850E+06,   1.34850E+06
C:/temp/Job-25.odb,Step-1,Increment      1: Step Time =    1.000,"P-25-1",           429,            5.,            0.,            0.,NA,NA,"",   1.64857E+06,   1.68669E+06,   1.68669E+06
C:/temp/Job-25.odb,Step-1,Increment      1: Step Time =    1.000,"P-25-1",           430,          200.,          195.,            0.,NA,NA,"",   1.00020E+06,   999.915E+03,   999.915E+03
C:/temp/Job-25.odb,Step-1,Increment      1: Step Time =    1.000,"P-25-1",           431,          200.,          185.,            0.,NA,NA,"",   1.00086E+06,   1.00055E+06,   1.00055E+06
C:/temp/Job-25.odb,Step-1,Increment      1: Step Time =    1.000,"P-25-1",           432,          200.,          175.,            0.,NA,NA,"",   998.036E+03,   1.00116E+06,   1.00116E+06
C:/temp/Job-25.odb,Step-1,Increment      1: Step Time =    1.000,"P-25-1",           433,          200.,          165.,            0.,NA,NA,"",   987.217E+03,   1.00115E+06,   1.00115E+06
C:/temp/Job-25.odb,Step-1,Increment      1: Step Time =    1.000,"P-25-1",           434,          200.,          155.,            0.,NA,NA,"",   968.511E+03,   1.00128E+06,   1.00128E+06
C:/temp/Job-25.odb,Step-1,Increment      1: Step Time =    1.000,"P-25-1",           435,          200.,          145.,            0.,NA,NA,"",   940.892E+03,   1.00129E+06,   1.00129E+06
C:/temp/Job-25.odb,Step-1,Increment      1: Step Time =    1.000,"P-25-1",           436,          200.,          135.,            0.,NA,NA,"",   912.155E+03,   1.00125E+06,   1.00125E+06
C:/temp/Job-25.odb,Step-1,Increment      1: Step Time =    1.000,"P-25-1",           437,          200.,          125.,            0.,NA,NA,"",   887.792E+03,   999.986E+03,   999.986E+03
C:/temp/Job-25.odb,Step-1,Increment      1: Step Time =    1.000,"P-25-1",           438,          200.,          115.,            0.,NA,NA,"",   872.859E+03,   998.425E+03,   998.425E+03
C:/temp/Job-25.odb,Step-1,Increment      1: Step Time =    1.000,"P-25-1",           439,          200.,          105.,            0.,NA,NA,"",   866.891E+03,   997.347E+03,   997.347E+03
C:/temp/Job-25.odb,Step-1,Increment      1: Step Time =    1.000,"P-25-1",           440,          200.,           95.,            0.,NA,NA,"",   866.930E+03,   997.411E+03,   997.411E+03
C:/temp/Job-25.odb,Step-1,Increment      1: Step Time =    1.000,"P-25-1",           441,          200.,           85.,            0.,NA,NA,"",   872.871E+03,   998.518E+03,   998.518E+03
C:/temp/Job-25.odb,Step-1,Increment      1: Step Time =    1.000,"P-25-1",           442,          200.,           75.,            0.,NA,NA,"",   887.412E+03,   999.589E+03,   999.589E+03
C:/temp/Job-25.odb,Step-1,Increment      1: Step Time =    1.000,"P-25-1",           443,          200.,           65.,            0.,NA,NA,"",   911.595E+03,   999.407E+03,   999.407E+03
C:/temp/Job-25.odb,Step-1,Increment      1: Step Time =    1.000,"P-25-1",           444,          200.,           55.,            0.,NA,NA,"",   945.873E+03,   1.00375E+06,   1.00375E+06
C:/temp/Job-25.odb,Step-1,Increment      1: Step Time =    1.000,"P-25-1",           445,          200.,           45.,            0.,NA,NA,"",   971.704E+03,   1.00250E+06,   1.00250E+06
C:/temp/Job-25.odb,Step-1,Increment      1: Step Time =    1.000,"P-25-1",           446,          200.,           35.,            0.,NA,NA,"",   988.870E+03,   1.00097E+06,   1.00097E+06
C:/temp/Job-25.odb,Step-1,Increment      1: Step Time =    1.000,"P-25-1",           447,          200.,           25.,            0.,NA,NA,"",   998.192E+03,   1.00061E+06,   1.00061E+06
C:/temp/Job-25.odb,Step-1,Increment      1: Step Time =    1.000,"P-25-1",           448,          200.,           15.,            0.,NA,NA,"",   1.00088E+06,   1.00037E+06,   1.00037E+06
C:/temp/Job-25.odb,Step-1,Increment      1: Step Time =    1.000,"P-25-1",           449,          200.,            5.,            0.,NA,NA,"",   1.00019E+06,   999.917E+03,   999.917E+03
C:/temp/Job-25.odb,Step-1,Increment      1: Step Time =    1.000,"P-25-1",           450,            5.,          200.,            0.,NA,NA,"",   1.64616E+06,   1.68487E+06,   1.68487E+06
C:/temp/Job-25.odb,Step-1,Increment      1: Step Time =    1.000,"P-25-1",           451,           15.,          200.,            0.,NA,NA,"",   1.34260E+06,   1.34860E+06,   1.34860E+06
C:/temp/Job-25.odb,Step-1,Increment      1: Step Time =    1.000,"P-25-1",           452,           25.,          200.,            0.,NA,NA,"",   1.26108E+06,   1.26232E+06,   1.26232E+06
C:/temp/Job-25.odb,Step-1,Increment      1: Step Time =    1.000,"P-25-1",           453,           35.,          200.,            0.,NA,NA,"",   1.21276E+06,   1.21306E+06,   1.21306E+06
C:/temp/Job-25.odb,Step-1,Increment      1: Step Time =    1.000,"P-25-1",           454,           45.,          200.,            0.,NA,NA,"",   1.16809E+06,   1.16788E+06,   1.16788E+06
C:/temp/Job-25.odb,Step-1,Increment      1: Step Time =    1.000,"P-25-1",           455,           55.,          200.,            0.,NA,NA,"",   1.11145E+06,   1.11111E+06,   1.11111E+06
C:/temp/Job-25.odb,Step-1,Increment      1: Step Time =    1.000,"P-25-1",           456,           65.,          200.,            0.,NA,NA,"",   1.04363E+06,   1.04329E+06,   1.04329E+06
C:/temp/Job-25.odb,Step-1,Increment      1: Step Time =    1.000,"P-25-1",           457,           75.,          200.,            0.,NA,NA,"",   968.959E+03,   968.937E+03,   968.937E+03
C:/temp/Job-25.odb,Step-1,Increment      1: Step Time =    1.000,"P-25-1",           458,           85.,          200.,            0.,NA,NA,"",   899.936E+03,   900.437E+03,   900.437E+03
C:/temp/Job-25.odb,Step-1,Increment      1: Step Time =    1.000,"P-25-1",           459,           95.,          200.,            0.,NA,NA,"",   851.510E+03,   852.464E+03,   852.464E+03
C:/temp/Job-25.odb,Step-1,Increment      1: Step Time =    1.000,"P-25-1",           460,          105.,          200.,            0.,NA,NA,"",   834.498E+03,   835.494E+03,   835.494E+03
C:/temp/Job-25.odb,Step-1,Increment      1: Step Time =    1.000,"P-25-1",           461,          115.,          200.,            0.,NA,NA,"",   849.278E+03,   849.896E+03,   849.896E+03
C:/temp/Job-25.odb,Step-1,Increment      1: Step Time =    1.000,"P-25-1",           462,          125.,          200.,            0.,NA,NA,"",   885.761E+03,   885.997E+03,   885.997E+03
C:/temp/Job-25.odb,Step-1,Increment      1: Step Time =    1.000,"P-25-1",           463,          135.,          200.,            0.,NA,NA,"",   931.418E+03,   931.546E+03,   931.546E+03
C:/temp/Job-25.odb,Step-1,Increment      1: Step Time =    1.000,"P-25-1",           464,          145.,          200.,            0.,NA,NA,"",   971.884E+03,   970.592E+03,   970.592E+03
C:/temp/Job-25.odb,Step-1,Increment      1: Step Time =    1.000,"P-25-1",           465,          155.,          200.,            0.,NA,NA,"",   993.149E+03,   992.660E+03,   992.660E+03
C:/temp/Job-25.odb,Step-1,Increment      1: Step Time =    1.000,"P-25-1",           466,          165.,          200.,            0.,NA,NA,"",   1.00028E+06,   1.00012E+06,   1.00012E+06
C:/temp/Job-25.odb,Step-1,Increment      1: Step Time =    1.000,"P-25-1",           467,          175.,          200.,            0.,NA,NA,"",   999.741E+03,   999.741E+03,   999.741E+03
C:/temp/Job-25.odb,Step-1,Increment      1: Step Time =    1.000,"P-25-1",           468,          185.,          200.,            0.,NA,NA,"",   998.321E+03,   998.417E+03,   998.417E+03
C:/temp/Job-25.odb,Step-1,Increment      1: Step Time =    1.000,"P-25-1",           469,          195.,          200.,            0.,NA,NA,"",   999.451E+03,   999.399E+03,   999.399E+03
C:/temp/Job-25.odb,Step-1,Increment      1: Step Time =    1.000,"P-25-1",           470,            0.,            5.,            0.,NA,NA,"",   1.57529E+06,   1.67814E+06,   1.67814E+06
C:/temp/Job-25.odb,Step-1,Increment      1: Step Time =    1.000,"P-25-1",           471,            0.,           15.,            0.,NA,NA,"",   1.18335E+06,   1.30322E+06,   1.30322E+06
C:/temp/Job-25.odb,Step-1,Increment      1: Step Time =    1.000,"P-25-1",           472,            0.,           25.,            0.,NA,NA,"",   1.05126E+06,   1.16925E+06,   1.16925E+06
C:/temp/Job-25.odb,Step-1,Increment      1: Step Time =    1.000,"P-25-1",           473,            0.,           35.,            0.,NA,NA,"",   962.390E+03,   1.07633E+06,   1.07633E+06
C:/temp/Job-25.odb,Step-1,Increment      1: Step Time =    1.000,"P-25-1",           474,            0.,           45.,            0.,NA,NA,"",   890.221E+03,   997.722E+03,   997.722E+03
C:/temp/Job-25.odb,Step-1,Increment      1: Step Time =    1.000,"P-25-1",           475,            0.,           55.,            0.,NA,NA,"",   818.548E+03,   919.557E+03,   919.557E+03
C:/temp/Job-25.odb,Step-1,Increment      1: Step Time =    1.000,"P-25-1",           476,            0.,           65.,            0.,NA,NA,"",   749.016E+03,   843.929E+03,   843.929E+03
C:/temp/Job-25.odb,Step-1,Increment      1: Step Time =    1.000,"P-25-1",           477,            0.,           75.,            0.,NA,NA,"",   684.898E+03,   773.123E+03,   773.123E+03
C:/temp/Job-25.odb,Step-1,Increment      1: Step Time =    1.000,"P-25-1",           478,            0.,           85.,            0.,NA,NA,"",   633.044E+03,   716.248E+03,   716.248E+03
C:/temp/Job-25.odb,Step-1,Increment      1: Step Time =    1.000,"P-25-1",           479,            0.,           95.,            0.,NA,NA,"",   602.601E+03,   683.083E+03,   683.083E+03
C:/temp/Job-25.odb,Step-1,Increment      1: Step Time =    1.000,"P-25-1",           480,            0.,          105.,            0.,NA,NA,"",   602.941E+03,   683.415E+03,   683.415E+03
C:/temp/Job-25.odb,Step-1,Increment      1: Step Time =    1.000,"P-25-1",           481,            0.,          115.,            0.,NA,NA,"",   633.859E+03,   717.092E+03,   717.092E+03
C:/temp/Job-25.odb,Step-1,Increment      1: Step Time =    1.000,"P-25-1",           482,            0.,          125.,            0.,NA,NA,"",   686.078E+03,   774.350E+03,   774.350E+03
C:/temp/Job-25.odb,Step-1,Increment      1: Step Time =    1.000,"P-25-1",           483,            0.,          135.,            0.,NA,NA,"",   750.216E+03,   845.106E+03,   845.106E+03
C:/temp/Job-25.odb,Step-1,Increment      1: Step Time =    1.000,"P-25-1",           484,            0.,          145.,            0.,NA,NA,"",   817.539E+03,   919.362E+03,   919.362E+03
C:/temp/Job-25.odb,Step-1,Increment      1: Step Time =    1.000,"P-25-1",           485,            0.,          155.,            0.,NA,NA,"",   886.903E+03,   995.109E+03,   995.109E+03
C:/temp/Job-25.odb,Step-1,Increment      1: Step Time =    1.000,"P-25-1",           486,            0.,          165.,            0.,NA,NA,"",   960.607E+03,   1.07453E+06,   1.07453E+06
C:/temp/Job-25.odb,Step-1,Increment      1: Step Time =    1.000,"P-25-1",           487,            0.,          175.,            0.,NA,NA,"",   1.04947E+06,   1.16748E+06,   1.16748E+06
C:/temp/Job-25.odb,Step-1,Increment      1: Step Time =    1.000,"P-25-1",           488,            0.,          185.,            0.,NA,NA,"",   1.18317E+06,   1.30228E+06,   1.30228E+06
C:/temp/Job-25.odb,Step-1,Increment      1: Step Time =    1.000,"P-25-1",           489,            0.,          195.,            0.,NA,NA,"",   1.57202E+06,   1.67411E+06,   1.67411E+06
C:/temp/Job-25.odb,Step-1,Increment      1: Step Time =    1.000,"P-25-1",           490,       128.394,       90.3345,            0.,NA,NA,"",   647.530E+03,  -287.245E+03,  -287.245E+03
C:/temp/Job-25.odb,Step-1,Increment      1: Step Time =    1.000,"P-25-1",           491,       96.9174,       131.843,            0.,NA,NA,"",   2.10228E+06,   2.24503E+06,   2.24503E+06
C:/temp/Job-25.odb,Step-1,Increment      1: Step Time =    1.000,"P-25-1",           492,       120.326,       75.3120,            0.,NA,NA,"",   1.51460E+06,   1.48688E+06,   1.48688E+06
C:/temp/Job-25.odb,Step-1,Increment      1: Step Time =    1.000,"P-25-1",           493,       68.8477,       91.2831,            0.,NA,NA,"",   545.048E+03,  -46.6166E+03,  -46.6166E+03
C:/temp/Job-25.odb,Step-1,Increment      1: Step Time =    1.000,"P-25-1",           494,       79.8188,       123.125,            0.,NA,NA,"",   1.28510E+06,   1.25244E+06,   1.25244E+06
C:/temp/Job-25.odb,Step-1,Increment      1: Step Time =    1.000,"P-25-1",           495,       89.6448,       70.8353,            0.,NA,NA,"",   2.03402E+06,   2.11277E+06,   2.11277E+06
C:/temp/Job-25.odb,Step-1,Increment      1: Step Time =    1.000,"P-25-1",           496,       104.348,       69.4349,            0.,NA,NA,"",   2.28914E+06,   2.41005E+06,   2.41005E+06
C:/temp/Job-25.odb,Step-1,Increment      1: Step Time =    1.000,"P-25-1",           497,       108.067,       130.006,            0.,NA,NA,"",   2.19804E+06,   2.30182E+06,   2.30182E+06
C:/temp/Job-25.odb,Step-1,Increment      1: Step Time =    1.000,"P-25-1",           498,       71.3260,       111.588,            0.,NA,NA,"",   554.089E+03,  -3.03931E+03,  -3.03931E+03
C:/temp/Job-25.odb,Step-1,Increment      1: Step Time =    1.000,"P-25-1",           499,       67.4727,       98.5778,            0.,NA,NA,"",   398.654E+03,  -366.021E+03,  -366.021E+03
C:/temp/Job-25.odb,Step-1,Increment      1: Step Time =    1.000,"P-25-1",           500,       81.3406,       76.2846,            0.,NA,NA,"",   1.38761E+06,   1.38401E+06,   1.38401E+06
C:/temp/Job-25.odb,Step-1,Increment      1: Step Time =    1.000,"P-25-1",           501,       119.930,       122.477,            0.,NA,NA,"",   1.39946E+06,   1.36539E+06,   1.36539E+06
C:/temp/Job-25.odb,Step-1,Increment      1: Step Time =    1.000,"P-25-1",           502,       93.1636,       68.4362,            0.,NA,NA,"",   2.02706E+06,   2.15020E+06,   2.15020E+06
C:/temp/Job-25.odb,Step-1,Increment      1: Step Time =    1.000,"P-25-1",           503,       130.096,       100.878,            0.,NA,NA,"",   685.416E+03,  -684.490E+03,  -684.490E+03
C:/temp/Job-25.odb,Step-1,Increment      1: Step Time =    1.000,"P-25-1",           504,       123.829,       120.964,            0.,NA,NA,"",   1.20198E+06,   1.08730E+06,   1.08730E+06
C:/temp/Job-25.odb,Step-1,Increment      1: Step Time =    1.000,"P-25-1",           505,       129.709,       95.5342,            0.,NA,NA,"",   687.491E+03,  -660.731E+03,  -660.731E+03
C:/temp/Job-25.odb,Step-1,Increment      1: Step Time =    1.000,"P-25-1",           506,       92.9140,       129.636,            0.,NA,NA,"",   2.20511E+06,   2.30592E+06,   2.30592E+06
C:/temp/Job-25.odb,Step-1,Increment      1: Step Time =    1.000,"P-25-1",           507,       129.809,       106.152,            0.,NA,NA,"",   649.417E+03,  -591.630E+03,  -591.630E+03
C:/temp/Job-25.odb,Step-1,Increment      1: Step Time =    1.000,"P-25-1",           508,       104.345,       132.298,            0.,NA,NA,"",   2.07478E+06,   2.21697E+06,   2.21697E+06
C:/temp/Job-25.odb,Step-1,Increment      1: Step Time =    1.000,"P-25-1",           509,       71.4083,       87.8378,            0.,NA,NA,"",   604.604E+03,   80.8285E+03,   80.8285E+03
C:/temp/Job-25.odb,Step-1,Increment      1: Step Time =    1.000,"P-25-1",           510,       68.8207,       102.797,            0.,NA,NA,"",   482.631E+03,  -458.487E+03,  -458.487E+03
C:/temp/Job-25.odb,Step-1,Increment      1: Step Time =    1.000,"P-25-1",           511,       100.112,       68.3098,            0.,NA,NA,"",   2.14737E+06,   2.29082E+06,   2.29082E+06
C:/temp/Job-25.odb,Step-1,Increment      1: Step Time =    1.000,"P-25-1",           512,       75.8091,       121.244,            0.,NA,NA,"",   1.07027E+06,   975.193E+03,   975.193E+03
C:/temp/Job-25.odb,Step-1,Increment      1: Step Time =    1.000,"P-25-1",           513,       195.102,       44.1511,            0.,NA,NA,"",   975.483E+03,   1.00509E+06,   1.00509E+06
C:/temp/Job-25.odb,Step-1,Increment      1: Step Time =    1.000,"P-25-1",           514,       5.18547,       39.7312,            0.,NA,NA,"",   945.232E+03,   1.04957E+06,   1.04957E+06
C:/temp/Job-25.odb,Step-1,Increment      1: Step Time =    1.000,"P-25-1",           515,       4.80528,       29.9006,            0.,NA,NA,"",   1.02330E+06,   1.13149E+06,   1.13149E+06
C:/temp/Job-25.odb,Step-1,Increment      1: Step Time =    1.000,"P-25-1",           516,       5.13219,       19.9514,            0.,NA,NA,"",   1.13521E+06,   1.24151E+06,   1.24151E+06
C:/temp/Job-25.odb,Step-1,Increment      1: Step Time =    1.000,"P-25-1",           517,       25.0818,       5.08814,            0.,NA,NA,"",   1.26619E+06,   1.26877E+06,   1.26877E+06
C:/temp/Job-25.odb,Step-1,Increment      1: Step Time =    1.000,"P-25-1",           518,       34.9522,       4.73139,            0.,NA,NA,"",   1.21723E+06,   1.21727E+06,   1.21727E+06
C:/temp/Job-25.odb,Step-1,Increment      1: Step Time =    1.000,"P-25-1",           519,       134.425,       194.784,            0.,NA,NA,"",   947.978E+03,   947.589E+03,   947.589E+03
C:/temp/Job-25.odb,Step-1,Increment      1: Step Time =    1.000,"P-25-1",           520,       124.576,       195.270,            0.,NA,NA,"",   908.056E+03,   908.555E+03,   908.555E+03
C:/temp/Job-25.odb,Step-1,Increment      1: Step Time =    1.000,"P-25-1",           521,       4.76532,       145.130,            0.,NA,NA,"",   829.604E+03,   927.411E+03,   927.411E+03
C:/temp/Job-25.odb,Step-1,Increment      1: Step Time =    1.000,"P-25-1",           522,       4.76674,       135.236,            0.,NA,NA,"",   758.526E+03,   850.939E+03,   850.939E+03
C:/temp/Job-25.odb,Step-1,Increment      1: Step Time =    1.000,"P-25-1",           523,       84.8963,       195.072,            0.,NA,NA,"",   928.400E+03,   929.673E+03,   929.673E+03
C:/temp/Job-25.odb,Step-1,Increment      1: Step Time =    1.000,"P-25-1",           524,       94.8376,       195.076,            0.,NA,NA,"",   883.389E+03,   886.000E+03,   886.000E+03
C:/temp/Job-25.odb,Step-1,Increment      1: Step Time =    1.000,"P-25-1",           525,       45.3609,       195.085,            0.,NA,NA,"",   1.17138E+06,   1.17026E+06,   1.17026E+06
C:/temp/Job-25.odb,Step-1,Increment      1: Step Time =    1.000,"P-25-1",           526,       35.3071,       194.682,            0.,NA,NA,"",   1.21717E+06,   1.21697E+06,   1.21697E+06
C:/temp/Job-25.odb,Step-1,Increment      1: Step Time =    1.000,"P-25-1",           527,       25.1526,       194.758,            0.,NA,NA,"",   1.26683E+06,   1.26914E+06,   1.26914E+06
C:/temp/Job-25.odb,Step-1,Increment      1: Step Time =    1.000,"P-25-1",           528,       4.92396,       9.90437,            0.,NA,NA,"",   1.34053E+06,   1.43319E+06,   1.43319E+06
C:/temp/Job-25.odb,Step-1,Increment      1: Step Time =    1.000,"P-25-1",           529,       14.9396,       5.05593,            0.,NA,NA,"",   1.34962E+06,   1.35988E+06,   1.35988E+06
C:/temp/Job-25.odb,Step-1,Increment      1: Step Time =    1.000,"P-25-1",           530,       44.5495,       4.79807,            0.,NA,NA,"",   1.17467E+06,   1.17346E+06,   1.17346E+06
C:/temp/Job-25.odb,Step-1,Increment      1: Step Time =    1.000,"P-25-1",           531,       55.0501,       6.95307,            0.,NA,NA,"",   1.12943E+06,   1.12643E+06,   1.12643E+06
C:/temp/Job-25.odb,Step-1,Increment      1: Step Time =    1.000,"P-25-1",           532,       65.5001,       5.08898,            0.,NA,NA,"",   1.05624E+06,   1.05551E+06,   1.05551E+06
C:/temp/Job-25.odb,Step-1,Increment      1: Step Time =    1.000,"P-25-1",           533,       75.2773,       4.64164,            0.,NA,NA,"",   987.063E+03,   986.968E+03,   986.968E+03
C:/temp/Job-25.odb,Step-1,Increment      1: Step Time =    1.000,"P-25-1",           534,       85.0798,       4.72548,            0.,NA,NA,"",   925.432E+03,   926.699E+03,   926.699E+03
C:/temp/Job-25.odb,Step-1,Increment      1: Step Time =    1.000,"P-25-1",           535,       95.0035,       4.92156,            0.,NA,NA,"",   883.302E+03,   885.864E+03,   885.864E+03
C:/temp/Job-25.odb,Step-1,Increment      1: Step Time =    1.000,"P-25-1",           536,       104.984,       5.07152,            0.,NA,NA,"",   868.858E+03,   871.723E+03,   871.723E+03
C:/temp/Job-25.odb,Step-1,Increment      1: Step Time =    1.000,"P-25-1",           537,       115.007,       5.12210,            0.,NA,NA,"",   881.286E+03,   883.237E+03,   883.237E+03
C:/temp/Job-25.odb,Step-1,Increment      1: Step Time =    1.000,"P-25-1",           538,       125.006,       5.04153,            0.,NA,NA,"",   911.766E+03,   912.093E+03,   912.093E+03
C:/temp/Job-25.odb,Step-1,Increment      1: Step Time =    1.000,"P-25-1",           539,       134.903,       4.80981,            0.,NA,NA,"",   946.745E+03,   945.930E+03,   945.930E+03
C:/temp/Job-25.odb,Step-1,Increment      1: Step Time =    1.000,"P-25-1",           540,       144.647,       4.45211,            0.,NA,NA,"",   975.908E+03,   974.842E+03,   974.842E+03
C:/temp/Job-25.odb,Step-1,Increment      1: Step Time =    1.000,"P-25-1",           541,       154.414,       4.79449,            0.,NA,NA,"",   997.324E+03,   996.049E+03,   996.049E+03
C:/temp/Job-25.odb,Step-1,Increment      1: Step Time =    1.000,"P-25-1",           542,       164.351,       5.32001,            0.,NA,NA,"",   1.00550E+06,   1.00451E+06,   1.00451E+06
C:/temp/Job-25.odb,Step-1,Increment      1: Step Time =    1.000,"P-25-1",           543,       174.579,       5.49393,            0.,NA,NA,"",   1.00438E+06,   1.00412E+06,   1.00412E+06
C:/temp/Job-25.odb,Step-1,Increment      1: Step Time =    1.000,"P-25-1",           544,       184.770,       5.63751,            0.,NA,NA,"",   1.00089E+06,   1.00123E+06,   1.00123E+06
C:/temp/Job-25.odb,Step-1,Increment      1: Step Time =    1.000,"P-25-1",           545,       194.987,       5.12073,            0.,NA,NA,"",   999.934E+03,   999.888E+03,   999.888E+03
C:/temp/Job-25.odb,Step-1,Increment      1: Step Time =    1.000,"P-25-1",           546,       195.313,       15.1386,            0.,NA,NA,"",   1.00063E+06,   1.00109E+06,   1.00109E+06
C:/temp/Job-25.odb,Step-1,Increment      1: Step Time =    1.000,"P-25-1",           547,       195.779,       24.9471,            0.,NA,NA,"",   997.986E+03,   1.00179E+06,   1.00179E+06
C:/temp/Job-25.odb,Step-1,Increment      1: Step Time =    1.000,"P-25-1",           548,       195.830,       34.5797,            0.,NA,NA,"",   989.658E+03,   1.00265E+06,   1.00265E+06
C:/temp/Job-25.odb,Step-1,Increment      1: Step Time =    1.000,"P-25-1",           549,       192.552,       54.7000,            0.,NA,NA,"",   960.236E+03,   1.01052E+06,   1.01052E+06
C:/temp/Job-25.odb,Step-1,Increment      1: Step Time =    1.000,"P-25-1",           550,       194.796,       65.5289,            0.,NA,NA,"",   919.722E+03,   1.00229E+06,   1.00229E+06
C:/temp/Job-25.odb,Step-1,Increment      1: Step Time =    1.000,"P-25-1",           551,       195.311,       75.3524,            0.,NA,NA,"",   894.144E+03,   1.00004E+06,   1.00004E+06
C:/temp/Job-25.odb,Step-1,Increment      1: Step Time =    1.000,"P-25-1",           552,       195.263,       85.1738,            0.,NA,NA,"",   876.619E+03,   996.182E+03,   996.182E+03
C:/temp/Job-25.odb,Step-1,Increment      1: Step Time =    1.000,"P-25-1",           553,       195.151,       95.0787,            0.,NA,NA,"",   867.539E+03,   992.575E+03,   992.575E+03
C:/temp/Job-25.odb,Step-1,Increment      1: Step Time =    1.000,"P-25-1",           554,       195.086,       104.997,            0.,NA,NA,"",   867.442E+03,   992.348E+03,   992.348E+03
C:/temp/Job-25.odb,Step-1,Increment      1: Step Time =    1.000,"P-25-1",           555,       195.066,       114.932,            0.,NA,NA,"",   876.688E+03,   995.814E+03,   995.814E+03
C:/temp/Job-25.odb,Step-1,Increment      1: Step Time =    1.000,"P-25-1",           556,       195.142,       124.907,            0.,NA,NA,"",   895.082E+03,   1.00041E+06,   1.00041E+06
C:/temp/Job-25.odb,Step-1,Increment      1: Step Time =    1.000,"P-25-1",           557,       195.312,       134.851,            0.,NA,NA,"",   920.220E+03,   1.00362E+06,   1.00362E+06
C:/temp/Job-25.odb,Step-1,Increment      1: Step Time =    1.000,"P-25-1",           558,       195.610,       144.619,            0.,NA,NA,"",   946.030E+03,   1.00387E+06,   1.00387E+06
C:/temp/Job-25.odb,Step-1,Increment      1: Step Time =    1.000,"P-25-1",           559,       194.913,       195.009,            0.,NA,NA,"",   999.933E+03,   999.851E+03,   999.851E+03
C:/temp/Job-25.odb,Step-1,Increment      1: Step Time =    1.000,"P-25-1",           560,       184.916,       195.301,            0.,NA,NA,"",   999.976E+03,   1.00024E+06,   1.00024E+06
C:/temp/Job-25.odb,Step-1,Increment      1: Step Time =    1.000,"P-25-1",           561,       175.076,       195.698,            0.,NA,NA,"",   1.00232E+06,   1.00226E+06,   1.00226E+06
C:/temp/Job-25.odb,Step-1,Increment      1: Step Time =    1.000,"P-25-1",           562,       165.438,       195.751,            0.,NA,NA,"",   1.00359E+06,   1.00309E+06,   1.00309E+06
C:/temp/Job-25.odb,Step-1,Increment      1: Step Time =    1.000,"P-25-1",           563,       155.826,       195.050,            0.,NA,NA,"",   999.067E+03,   997.900E+03,   997.900E+03
C:/temp/Job-25.odb,Step-1,Increment      1: Step Time =    1.000,"P-25-1",           564,       145.236,       192.551,            0.,NA,NA,"",   993.374E+03,   990.343E+03,   990.343E+03
C:/temp/Job-25.odb,Step-1,Increment      1: Step Time =    1.000,"P-25-1",           565,       114.741,       195.218,            0.,NA,NA,"",   877.443E+03,   879.174E+03,   879.174E+03
C:/temp/Job-25.odb,Step-1,Increment      1: Step Time =    1.000,"P-25-1",           566,       104.813,       195.129,            0.,NA,NA,"",   866.150E+03,   868.928E+03,   868.928E+03
C:/temp/Job-25.odb,Step-1,Increment      1: Step Time =    1.000,"P-25-1",           567,       74.9296,       195.139,            0.,NA,NA,"",   990.991E+03,   990.745E+03,   990.745E+03
C:/temp/Job-25.odb,Step-1,Increment      1: Step Time =    1.000,"P-25-1",           568,       64.9707,       195.233,            0.,NA,NA,"",   1.05840E+06,   1.05712E+06,   1.05712E+06
C:/temp/Job-25.odb,Step-1,Increment      1: Step Time =    1.000,"P-25-1",           569,       55.1789,       195.366,            0.,NA,NA,"",   1.11888E+06,   1.11747E+06,   1.11747E+06
C:/temp/Job-25.odb,Step-1,Increment      1: Step Time =    1.000,"P-25-1",           570,       15.1451,       194.851,            0.,NA,NA,"",   1.34698E+06,   1.35730E+06,   1.35730E+06
C:/temp/Job-25.odb,Step-1,Increment      1: Step Time =    1.000,"P-25-1",           571,       5.08848,       194.926,            0.,NA,NA,"",   1.53703E+06,   1.59733E+06,   1.59733E+06
C:/temp/Job-25.odb,Step-1,Increment      1: Step Time =    1.000,"P-25-1",           572,       5.24454,       184.752,            0.,NA,NA,"",   1.20633E+06,   1.30911E+06,   1.30911E+06
C:/temp/Job-25.odb,Step-1,Increment      1: Step Time =    1.000,"P-25-1",           573,       5.00351,       174.751,            0.,NA,NA,"",   1.06853E+06,   1.17625E+06,   1.17625E+06
C:/temp/Job-25.odb,Step-1,Increment      1: Step Time =    1.000,"P-25-1",           574,       4.83072,       164.905,            0.,NA,NA,"",   978.613E+03,   1.08536E+06,   1.08536E+06
C:/temp/Job-25.odb,Step-1,Increment      1: Step Time =    1.000,"P-25-1",           575,       4.86025,       155.093,            0.,NA,NA,"",   902.710E+03,   1.00548E+06,   1.00548E+06
C:/temp/Job-25.odb,Step-1,Increment      1: Step Time =    1.000,"P-25-1",           576,       4.91889,       125.236,            0.,NA,NA,"",   689.775E+03,   777.013E+03,   777.013E+03
C:/temp/Job-25.odb,Step-1,Increment      1: Step Time =    1.000,"P-25-1",           577,       5.06936,       115.126,            0.,NA,NA,"",   632.324E+03,   715.671E+03,   715.671E+03
C:/temp/Job-25.odb,Step-1,Increment      1: Step Time =    1.000,"P-25-1",           578,       4.87672,       105.076,            0.,NA,NA,"",   598.618E+03,   679.722E+03,   679.722E+03
C:/temp/Job-25.odb,Step-1,Increment      1: Step Time =    1.000,"P-25-1",           579,       4.94347,       95.0292,            0.,NA,NA,"",   597.992E+03,   679.091E+03,   679.091E+03
C:/temp/Job-25.odb,Step-1,Increment      1: Step Time =    1.000,"P-25-1",           580,       5.16770,       84.8767,            0.,NA,NA,"",   631.427E+03,   714.744E+03,   714.744E+03
C:/temp/Job-25.odb,Step-1,Increment      1: Step Time =    1.000,"P-25-1",           581,       4.88663,       74.8408,            0.,NA,NA,"",   688.441E+03,   775.629E+03,   775.629E+03
C:/temp/Job-25.odb,Step-1,Increment      1: Step Time =    1.000,"P-25-1",           582,       4.61483,       65.0498,            0.,NA,NA,"",   756.261E+03,    848.73E+03,    848.73E+03
C:/temp/Job-25.odb,Step-1,Increment      1: Step Time =    1.000,"P-25-1",           583,       4.86510,       55.4546,            0.,NA,NA,"",   826.688E+03,   923.966E+03,   923.966E+03
C:/temp/Job-25.odb,Step-1,Increment      1: Step Time =    1.000,"P-25-1",           584,       195.239,       154.400,            0.,NA,NA,"",   971.816E+03,   1.00458E+06,   1.00458E+06
C:/temp/Job-25.odb,Step-1,Increment      1: Step Time =    1.000,"P-25-1",           585,       194.753,       164.395,            0.,NA,NA,"",   989.534E+03,   1.00435E+06,   1.00435E+06
C:/temp/Job-25.odb,Step-1,Increment      1: Step Time =    1.000,"P-25-1",           586,       194.668,       174.632,            0.,NA,NA,"",   998.601E+03,   1.00318E+06,   1.00318E+06
C:/temp/Job-25.odb,Step-1,Increment      1: Step Time =    1.000,"P-25-1",           587,       194.500,       184.847,            0.,NA,NA,"",   1.00104E+06,   1.00168E+06,   1.00168E+06
C:/temp/Job-25.odb,Step-1,Increment      1: Step Time =    1.000,"P-25-1",           588,       189.921,       5.35007,            0.,NA,NA,"",   999.863E+03,   1.00016E+06,   1.00016E+06
C:/temp/Job-25.odb,Step-1,Increment      1: Step Time =    1.000,"P-25-1",           589,       179.619,       5.85390,            0.,NA,NA,"",   1.00263E+06,   1.00277E+06,   1.00277E+06
C:/temp/Job-25.odb,Step-1,Increment      1: Step Time =    1.000,"P-25-1",           590,       169.447,       5.29382,            0.,NA,NA,"",   1.00562E+06,   1.00490E+06,   1.00490E+06
C:/temp/Job-25.odb,Step-1,Increment      1: Step Time =    1.000,"P-25-1",           591,       159.287,       5.32296,            0.,NA,NA,"",   1.00318E+06,   1.00197E+06,   1.00197E+06
C:/temp/Job-25.odb,Step-1,Increment      1: Step Time =    1.000,"P-25-1",           592,       149.420,       4.42873,            0.,NA,NA,"",   987.739E+03,   986.606E+03,   986.606E+03
C:/temp/Job-25.odb,Step-1,Increment      1: Step Time =    1.000,"P-25-1",           593,       139.813,       4.62667,            0.,NA,NA,"",   962.355E+03,   961.350E+03,   961.350E+03
C:/temp/Job-25.odb,Step-1,Increment      1: Step Time =    1.000,"P-25-1",           594,       129.963,       4.93772,            0.,NA,NA,"",   929.472E+03,   929.109E+03,   929.109E+03
C:/temp/Job-25.odb,Step-1,Increment      1: Step Time =    1.000,"P-25-1",           595,       120.015,       5.09937,            0.,NA,NA,"",   895.119E+03,   896.245E+03,   896.245E+03
C:/temp/Job-25.odb,Step-1,Increment      1: Step Time =    1.000,"P-25-1",           596,       109.992,       5.11135,            0.,NA,NA,"",   872.090E+03,   874.622E+03,   874.622E+03
C:/temp/Job-25.odb,Step-1,Increment      1: Step Time =    1.000,"P-25-1",           597,       99.9894,       5.00617,            0.,NA,NA,"",   872.454E+03,   875.332E+03,   875.332E+03
C:/temp/Job-25.odb,Step-1,Increment      1: Step Time =    1.000,"P-25-1",           598,       90.0324,       4.81838,            0.,NA,NA,"",   901.257E+03,   903.282E+03,   903.282E+03
C:/temp/Job-25.odb,Step-1,Increment      1: Step Time =    1.000,"P-25-1",           599,       80.1631,       4.64917,            0.,NA,NA,"",   954.595E+03,   955.108E+03,   955.108E+03
C:/temp/Job-25.odb,Step-1,Increment      1: Step Time =    1.000,"P-25-1",           600,       70.3987,       4.76124,            0.,NA,NA,"",   1.02149E+06,   1.02094E+06,   1.02094E+06
C:/temp/Job-25.odb,Step-1,Increment      1: Step Time =    1.000,"P-25-1",           601,       60.5422,       5.74608,            0.,NA,NA,"",   1.09118E+06,   1.08977E+06,   1.08977E+06
C:/temp/Job-25.odb,Step-1,Increment      1: Step Time =    1.000,"P-25-1",           602,       49.4156,       5.31543,            0.,NA,NA,"",   1.15253E+06,   1.15030E+06,   1.15030E+06
C:/temp/Job-25.odb,Step-1,Increment      1: Step Time =    1.000,"P-25-1",           603,       39.7897,       4.69800,            0.,NA,NA,"",   1.19591E+06,   1.19540E+06,   1.19540E+06
C:/temp/Job-25.odb,Step-1,Increment      1: Step Time =    1.000,"P-25-1",           604,       30.0429,       4.87173,            0.,NA,NA,"",   1.23986E+06,   1.24096E+06,   1.24096E+06
C:/temp/Job-25.odb,Step-1,Increment      1: Step Time =    1.000,"P-25-1",           605,       20.0473,       5.25637,            0.,NA,NA,"",   1.30135E+06,   1.30636E+06,   1.30636E+06
C:/temp/Job-25.odb,Step-1,Increment      1: Step Time =    1.000,"P-25-1",           606,       9.89946,       4.94492,            0.,NA,NA,"",   1.44275E+06,   1.45851E+06,   1.45851E+06
C:/temp/Job-25.odb,Step-1,Increment      1: Step Time =    1.000,"P-25-1",           607,       194.737,       189.971,            0.,NA,NA,"",   1.00077E+06,   1.00078E+06,   1.00078E+06
C:/temp/Job-25.odb,Step-1,Increment      1: Step Time =    1.000,"P-25-1",           608,       194.337,       179.708,            0.,NA,NA,"",   1.00041E+06,   1.00246E+06,   1.00246E+06
C:/temp/Job-25.odb,Step-1,Increment      1: Step Time =    1.000,"P-25-1",           609,       194.830,       169.499,            0.,NA,NA,"",   995.078E+03,   1.00378E+06,   1.00378E+06
C:/temp/Job-25.odb,Step-1,Increment      1: Step Time =    1.000,"P-25-1",           610,       194.717,       159.318,            0.,NA,NA,"",   982.176E+03,   1.00491E+06,   1.00491E+06
C:/temp/Job-25.odb,Step-1,Increment      1: Step Time =    1.000,"P-25-1",           611,       195.608,       149.389,            0.,NA,NA,"",   958.916E+03,   1.00386E+06,   1.00386E+06
C:/temp/Job-25.odb,Step-1,Increment      1: Step Time =    1.000,"P-25-1",           612,       195.456,       139.778,            0.,NA,NA,"",   933.303E+03,   1.00402E+06,   1.00402E+06
C:/temp/Job-25.odb,Step-1,Increment      1: Step Time =    1.000,"P-25-1",           613,       195.216,       129.885,            0.,NA,NA,"",   907.132E+03,   1.00232E+06,   1.00232E+06
C:/temp/Job-25.odb,Step-1,Increment      1: Step Time =    1.000,"P-25-1",           614,       195.096,       119.920,            0.,NA,NA,"",   884.807E+03,   998.158E+03,   998.158E+03
C:/temp/Job-25.odb,Step-1,Increment      1: Step Time =    1.000,"P-25-1",           615,       195.072,       109.954,            0.,NA,NA,"",   870.903E+03,   993.764E+03,   993.764E+03
C:/temp/Job-25.odb,Step-1,Increment      1: Step Time =    1.000,"P-25-1",           616,       195.121,       100.042,            0.,NA,NA,"",   866.326E+03,   991.903E+03,   991.903E+03
C:/temp/Job-25.odb,Step-1,Increment      1: Step Time =    1.000,"P-25-1",           617,       195.210,       90.1171,            0.,NA,NA,"",   871.004E+03,   994.148E+03,   994.148E+03
C:/temp/Job-25.odb,Step-1,Increment      1: Step Time =    1.000,"P-25-1",           618,       195.317,       80.2481,            0.,NA,NA,"",   884.397E+03,   998.327E+03,   998.327E+03
C:/temp/Job-25.odb,Step-1,Increment      1: Step Time =    1.000,"P-25-1",           619,       195.172,       70.4560,            0.,NA,NA,"",   906.051E+03,   1.00139E+06,   1.00139E+06
C:/temp/Job-25.odb,Step-1,Increment      1: Step Time =    1.000,"P-25-1",           620,       194.019,       60.4849,            0.,NA,NA,"",   936.578E+03,   1.00453E+06,   1.00453E+06
C:/temp/Job-25.odb,Step-1,Increment      1: Step Time =    1.000,"P-25-1",           621,       194.213,       49.0872,            0.,NA,NA,"",   968.178E+03,   1.00811E+06,   1.00811E+06
C:/temp/Job-25.odb,Step-1,Increment      1: Step Time =    1.000,"P-25-1",           622,       195.609,       39.3515,            0.,NA,NA,"",   982.984E+03,   1.00336E+06,   1.00336E+06
C:/temp/Job-25.odb,Step-1,Increment      1: Step Time =    1.000,"P-25-1",           623,       195.900,       29.7891,            0.,NA,NA,"",   994.604E+03,   1.00213E+06,   1.00213E+06
C:/temp/Job-25.odb,Step-1,Increment      1: Step Time =    1.000,"P-25-1",           624,       195.573,       20.0749,            0.,NA,NA,"",   999.860E+03,   1.00144E+06,   1.00144E+06
C:/temp/Job-25.odb,Step-1,Increment      1: Step Time =    1.000,"P-25-1",           625,       195.100,       10.1758,            0.,NA,NA,"",   1.00057E+06,   1.00060E+06,   1.00060E+06
C:/temp/Job-25.odb,Step-1,Increment      1: Step Time =    1.000,"P-25-1",           626,       10.1167,       194.889,            0.,NA,NA,"",   1.43677E+06,   1.45307E+06,   1.45307E+06
C:/temp/Job-25.odb,Step-1,Increment      1: Step Time =    1.000,"P-25-1",           627,       20.1336,       194.774,            0.,NA,NA,"",   1.30170E+06,   1.30652E+06,   1.30652E+06
C:/temp/Job-25.odb,Step-1,Increment      1: Step Time =    1.000,"P-25-1",           628,       30.2005,       194.733,            0.,NA,NA,"",   1.24056E+06,   1.24140E+06,   1.24140E+06
C:/temp/Job-25.odb,Step-1,Increment      1: Step Time =    1.000,"P-25-1",           629,       40.3955,       194.660,            0.,NA,NA,"",   1.19479E+06,   1.19402E+06,   1.19402E+06
C:/temp/Job-25.odb,Step-1,Increment      1: Step Time =    1.000,"P-25-1",           630,       50.3122,       195.338,            0.,NA,NA,"",   1.14586E+06,   1.14464E+06,   1.14464E+06
C:/temp/Job-25.odb,Step-1,Increment      1: Step Time =    1.000,"P-25-1",           631,       60.0373,       195.302,            0.,NA,NA,"",   1.08985E+06,   1.08838E+06,   1.08838E+06
C:/temp/Job-25.odb,Step-1,Increment      1: Step Time =    1.000,"P-25-1",           632,       69.9418,       195.188,            0.,NA,NA,"",   1.02505E+06,   1.02414E+06,   1.02414E+06
C:/temp/Job-25.odb,Step-1,Increment      1: Step Time =    1.000,"P-25-1",           633,       79.9154,       195.106,            0.,NA,NA,"",   958.245E+03,   958.743E+03,   958.743E+03
C:/temp/Job-25.odb,Step-1,Increment      1: Step Time =    1.000,"P-25-1",           634,       89.8650,       195.073,            0.,NA,NA,"",   902.979E+03,   904.994E+03,   904.994E+03
C:/temp/Job-25.odb,Step-1,Increment      1: Step Time =    1.000,"P-25-1",           635,       99.8298,       195.105,            0.,NA,NA,"",   870.919E+03,   873.800E+03,   873.800E+03
C:/temp/Job-25.odb,Step-1,Increment      1: Step Time =    1.000,"P-25-1",           636,       109.787,       195.172,            0.,NA,NA,"",   868.732E+03,   871.051E+03,   871.051E+03
C:/temp/Job-25.odb,Step-1,Increment      1: Step Time =    1.000,"P-25-1",           637,       119.669,       195.266,            0.,NA,NA,"",   890.975E+03,   892.038E+03,   892.038E+03
C:/temp/Job-25.odb,Step-1,Increment      1: Step Time =    1.000,"P-25-1",           638,       129.482,       195.142,            0.,NA,NA,"",   927.501E+03,   927.542E+03,   927.542E+03
C:/temp/Job-25.odb,Step-1,Increment      1: Step Time =    1.000,"P-25-1",           639,       139.471,       194.019,            0.,NA,NA,"",   969.131E+03,   967.844E+03,   967.844E+03
C:/temp/Job-25.odb,Step-1,Increment      1: Step Time =    1.000,"P-25-1",           640,       150.868,       194.180,            0.,NA,NA,"",   995.183E+03,   993.049E+03,   993.049E+03
C:/temp/Job-25.odb,Step-1,Increment      1: Step Time =    1.000,"P-25-1",           641,       160.655,       195.539,            0.,NA,NA,"",   1.00227E+06,   1.00153E+06,   1.00153E+06
C:/temp/Job-25.odb,Step-1,Increment      1: Step Time =    1.000,"P-25-1",           642,       170.230,       195.805,            0.,NA,NA,"",   1.00340E+06,   1.00312E+06,   1.00312E+06
C:/temp/Job-25.odb,Step-1,Increment      1: Step Time =    1.000,"P-25-1",           643,       179.964,       195.518,            0.,NA,NA,"",   1.00099E+06,   1.00114E+06,   1.00114E+06
C:/temp/Job-25.odb,Step-1,Increment      1: Step Time =    1.000,"P-25-1",           644,       189.885,       195.117,            0.,NA,NA,"",   999.636E+03,   999.854E+03,   999.854E+03
C:/temp/Job-25.odb,Step-1,Increment      1: Step Time =    1.000,"P-25-1",           645,       4.99286,       14.9055,            0.,NA,NA,"",   1.20945E+06,   1.31326E+06,   1.31326E+06
C:/temp/Job-25.odb,Step-1,Increment      1: Step Time =    1.000,"P-25-1",           646,       4.93340,       24.9519,            0.,NA,NA,"",   1.07208E+06,   1.18018E+06,   1.18018E+06
C:/temp/Job-25.odb,Step-1,Increment      1: Step Time =    1.000,"P-25-1",           647,       4.90373,       34.8086,            0.,NA,NA,"",   981.418E+03,   1.08830E+06,   1.08830E+06
C:/temp/Job-25.odb,Step-1,Increment      1: Step Time =    1.000,"P-25-1",           648,       5.65087,       44.7310,            0.,NA,NA,"",   910.802E+03,   1.01179E+06,   1.01179E+06
C:/temp/Job-25.odb,Step-1,Increment      1: Step Time =    1.000,"P-25-1",           649,       6.21154,       50.1393,            0.,NA,NA,"",   873.131E+03,   969.802E+03,   969.802E+03
C:/temp/Job-25.odb,Step-1,Increment      1: Step Time =    1.000,"P-25-1",           650,       4.60723,       60.2461,            0.,NA,NA,"",    790.65E+03,   885.868E+03,   885.868E+03
C:/temp/Job-25.odb,Step-1,Increment      1: Step Time =    1.000,"P-25-1",           651,       4.71595,       69.9137,            0.,NA,NA,"",   721.881E+03,   811.598E+03,   811.598E+03
C:/temp/Job-25.odb,Step-1,Increment      1: Step Time =    1.000,"P-25-1",           652,       5.07428,       79.8385,            0.,NA,NA,"",   657.513E+03,   742.564E+03,   742.564E+03
C:/temp/Job-25.odb,Step-1,Increment      1: Step Time =    1.000,"P-25-1",           653,       5.09396,       89.9460,            0.,NA,NA,"",   611.113E+03,   693.093E+03,   693.093E+03
C:/temp/Job-25.odb,Step-1,Increment      1: Step Time =    1.000,"P-25-1",           654,       4.86175,       100.066,            0.,NA,NA,"",   593.771E+03,   674.561E+03,   674.561E+03
C:/temp/Job-25.odb,Step-1,Increment      1: Step Time =    1.000,"P-25-1",           655,       4.98334,       110.094,            0.,NA,NA,"",   611.987E+03,   693.977E+03,   693.977E+03
C:/temp/Job-25.odb,Step-1,Increment      1: Step Time =    1.000,"P-25-1",           656,       5.02517,       120.166,            0.,NA,NA,"",   658.551E+03,   743.646E+03,   743.646E+03
C:/temp/Job-25.odb,Step-1,Increment      1: Step Time =    1.000,"P-25-1",           657,       4.82161,       130.262,            0.,NA,NA,"",   723.616E+03,   813.342E+03,   813.342E+03
C:/temp/Job-25.odb,Step-1,Increment      1: Step Time =    1.000,"P-25-1",           658,       4.74783,       140.181,            0.,NA,NA,"",   793.902E+03,   889.051E+03,   889.051E+03
C:/temp/Job-25.odb,Step-1,Increment      1: Step Time =    1.000,"P-25-1",           659,       4.80854,       150.104,            0.,NA,NA,"",   866.009E+03,   966.375E+03,   966.375E+03
C:/temp/Job-25.odb,Step-1,Increment      1: Step Time =    1.000,"P-25-1",           660,       4.87317,       159.997,            0.,NA,NA,"",   939.426E+03,   1.04430E+06,   1.04430E+06
C:/temp/Job-25.odb,Step-1,Increment      1: Step Time =    1.000,"P-25-1",           661,       4.89853,       169.809,            0.,NA,NA,"",   1.02106E+06,   1.12898E+06,   1.12898E+06
C:/temp/Job-25.odb,Step-1,Increment      1: Step Time =    1.000,"P-25-1",           662,       5.26960,       179.673,            0.,NA,NA,"",   1.13118E+06,   1.23702E+06,   1.23702E+06
C:/temp/Job-25.odb,Step-1,Increment      1: Step Time =    1.000,"P-25-1",           663,       5.15860,       189.862,            0.,NA,NA,"",   1.33626E+06,   1.42775E+06,   1.42775E+06
C:/temp/Job-25.odb,Step-1,Increment      1: Step Time =    1.000,"P-25-1",           664,       109.111,       70.8977,            0.,NA,NA,"",   2.19790E+06,   2.29131E+06,   2.29131E+06
C:/temp/Job-25.odb,Step-1,Increment      1: Step Time =    1.000,"P-25-1",           665,       129.185,       111.122,            0.,NA,NA,"",   680.864E+03,  -20.5173E+03,  -20.5173E+03
C:/temp/Job-25.odb,Step-1,Increment      1: Step Time =    1.000,"P-25-1",           666,       130.689,       83.8321,            0.,NA,NA,"",   1.03203E+06,   770.962E+03,   770.962E+03
C:/temp/Job-25.odb,Step-1,Increment      1: Step Time =    1.000,"P-25-1",           667,       67.7571,       84.0930,            0.,NA,NA,"",   849.961E+03,   655.644E+03,   655.644E+03
C:/temp/Job-25.odb,Step-1,Increment      1: Step Time =    1.000,"P-25-1",           668,       78.0718,       127.472,            0.,NA,NA,"",   1.46010E+06,   1.39839E+06,   1.39839E+06
C:/temp/Job-25.odb,Step-1,Increment      1: Step Time =    1.000,"P-25-1",           669,       119.214,       128.513,            0.,NA,NA,"",   1.62823E+06,   1.61633E+06,   1.61633E+06
C:/temp/Job-25.odb,Step-1,Increment      1: Step Time =    1.000,"P-25-1",           670,       86.2823,       66.9534,            0.,NA,NA,"",   1.64557E+06,   1.71517E+06,   1.71517E+06
C:/temp/Job-25.odb,Step-1,Increment      1: Step Time =    1.000,"P-25-1",           671,       115.845,       68.5446,            0.,NA,NA,"",   1.67848E+06,   1.72969E+06,   1.72969E+06
C:/temp/Job-25.odb,Step-1,Increment      1: Step Time =    1.000,"P-25-1",           672,       77.3555,       79.6622,            0.,NA,NA,"",    992.35E+03,   931.403E+03,   931.403E+03
C:/temp/Job-25.odb,Step-1,Increment      1: Step Time =    1.000,"P-25-1",           673,       112.207,       127.633,            0.,NA,NA,"",   2.07010E+06,   2.13841E+06,   2.13841E+06
C:/temp/Job-25.odb,Step-1,Increment      1: Step Time =    1.000,"P-25-1",           674,       139.804,       9.33818,            0.,NA,NA,"",   991.922E+03,    989.02E+03,    989.02E+03
C:/temp/Job-25.odb,Step-1,Increment      1: Step Time =    1.000,"P-25-1",           675,       120.048,       10.2189,            0.,NA,NA,"",   947.100E+03,   950.450E+03,   950.450E+03
C:/temp/Job-25.odb,Step-1,Increment      1: Step Time =    1.000,"P-25-1",           676,       109.934,       10.2404,            0.,NA,NA,"",   929.157E+03,   936.396E+03,   936.396E+03
C:/temp/Job-25.odb,Step-1,Increment      1: Step Time =    1.000,"P-25-1",           677,       99.8800,       10.0356,            0.,NA,NA,"",   930.429E+03,   938.571E+03,   938.571E+03
C:/temp/Job-25.odb,Step-1,Increment      1: Step Time =    1.000,"P-25-1",           678,       89.9594,       9.64544,            0.,NA,NA,"",   955.414E+03,   961.131E+03,   961.131E+03
C:/temp/Job-25.odb,Step-1,Increment      1: Step Time =    1.000,"P-25-1",           679,       80.2700,       9.34148,            0.,NA,NA,"",   1.00039E+06,   1.00190E+06,   1.00190E+06
C:/temp/Job-25.odb,Step-1,Increment      1: Step Time =    1.000,"P-25-1",           680,       70.9310,       9.46314,            0.,NA,NA,"",   1.05492E+06,   1.05315E+06,   1.05315E+06
C:/temp/Job-25.odb,Step-1,Increment      1: Step Time =    1.000,"P-25-1",           681,       62.0249,       11.0302,            0.,NA,NA,"",   1.11383E+06,   1.10922E+06,   1.10922E+06
C:/temp/Job-25.odb,Step-1,Increment      1: Step Time =    1.000,"P-25-1",           682,       190.781,       139.674,            0.,NA,NA,"",   951.572E+03,   1.01164E+06,   1.01164E+06
C:/temp/Job-25.odb,Step-1,Increment      1: Step Time =    1.000,"P-25-1",           683,       190.393,       129.782,            0.,NA,NA,"",   924.842E+03,   1.00592E+06,   1.00592E+06
C:/temp/Job-25.odb,Step-1,Increment      1: Step Time =    1.000,"P-25-1",           684,       190.176,       119.831,            0.,NA,NA,"",   895.556E+03,   994.172E+03,   994.172E+03
C:/temp/Job-25.odb,Step-1,Increment      1: Step Time =    1.000,"P-25-1",           685,       190.113,       109.864,            0.,NA,NA,"",   872.197E+03,   981.797E+03,   981.797E+03
C:/temp/Job-25.odb,Step-1,Increment      1: Step Time =    1.000,"P-25-1",           686,       190.231,       100.051,            0.,NA,NA,"",   863.377E+03,   976.757E+03,   976.757E+03
C:/temp/Job-25.odb,Step-1,Increment      1: Step Time =    1.000,"P-25-1",           687,       190.407,       90.1959,            0.,NA,NA,"",   872.683E+03,   983.018E+03,   983.018E+03
C:/temp/Job-25.odb,Step-1,Increment      1: Step Time =    1.000,"P-25-1",           688,       190.604,       80.4768,            0.,NA,NA,"",   894.433E+03,   994.656E+03,   994.656E+03
C:/temp/Job-25.odb,Step-1,Increment      1: Step Time =    1.000,"P-25-1",           689,       190.472,       71.0729,            0.,NA,NA,"",   921.793E+03,   1.00445E+06,   1.00445E+06
C:/temp/Job-25.odb,Step-1,Increment      1: Step Time =    1.000,"P-25-1",           690,       188.785,       62.0617,            0.,NA,NA,"",   956.359E+03,   1.01424E+06,   1.01424E+06
C:/temp/Job-25.odb,Step-1,Increment      1: Step Time =    1.000,"P-25-1",           691,       60.0223,       190.494,            0.,NA,NA,"",   1.11465E+06,   1.11059E+06,   1.11059E+06
C:/temp/Job-25.odb,Step-1,Increment      1: Step Time =    1.000,"P-25-1",           692,       69.8819,       190.399,            0.,NA,NA,"",   1.06206E+06,   1.05964E+06,   1.05964E+06
C:/temp/Job-25.odb,Step-1,Increment      1: Step Time =    1.000,"P-25-1",           693,       79.8132,       190.248,            0.,NA,NA,"",   1.00616E+06,   1.00765E+06,   1.00765E+06
C:/temp/Job-25.odb,Step-1,Increment      1: Step Time =    1.000,"P-25-1",           694,       109.569,       190.316,            0.,NA,NA,"",   923.544E+03,   930.189E+03,   930.189E+03
C:/temp/Job-25.odb,Step-1,Increment      1: Step Time =    1.000,"P-25-1",           695,       119.337,       190.467,            0.,NA,NA,"",   939.146E+03,   942.366E+03,   942.366E+03
C:/temp/Job-25.odb,Step-1,Increment      1: Step Time =    1.000,"P-25-1",           696,       128.808,       190.404,            0.,NA,NA,"",   965.939E+03,   965.877E+03,   965.877E+03
C:/temp/Job-25.odb,Step-1,Increment      1: Step Time =    1.000,"P-25-1",           697,       9.19473,       60.4843,            0.,NA,NA,"",   809.759E+03,   897.794E+03,   897.794E+03
C:/temp/Job-25.odb,Step-1,Increment      1: Step Time =    1.000,"P-25-1",           698,       9.47703,       69.6775,            0.,NA,NA,"",   735.337E+03,   820.830E+03,   820.830E+03
C:/temp/Job-25.odb,Step-1,Increment      1: Step Time =    1.000,"P-25-1",           699,       10.2260,       79.5072,            0.,NA,NA,"",     661.8E+03,    745.17E+03,    745.17E+03
C:/temp/Job-25.odb,Step-1,Increment      1: Step Time =    1.000,"P-25-1",           700,       10.2054,       90.0357,            0.,NA,NA,"",   604.130E+03,   686.122E+03,   686.122E+03
C:/temp/Job-25.odb,Step-1,Increment      1: Step Time =    1.000,"P-25-1",           701,       9.64411,       100.190,            0.,NA,NA,"",   585.227E+03,   666.645E+03,   666.645E+03
C:/temp/Job-25.odb,Step-1,Increment      1: Step Time =    1.000,"P-25-1",           702,       9.96090,       110.093,            0.,NA,NA,"",   605.883E+03,   687.943E+03,   687.943E+03
C:/temp/Job-25.odb,Step-1,Increment      1: Step Time =    1.000,"P-25-1",           703,       10.0349,       120.425,            0.,NA,NA,"",   662.239E+03,   745.729E+03,   745.729E+03
C:/temp/Job-25.odb,Step-1,Increment      1: Step Time =    1.000,"P-25-1",           704,       9.59662,       130.583,            0.,NA,NA,"",   737.674E+03,   823.214E+03,   823.214E+03
C:/temp/Job-25.odb,Step-1,Increment      1: Step Time =    1.000,"P-25-1",           705,       89.7198,       190.153,            0.,NA,NA,"",   958.341E+03,   963.973E+03,   963.973E+03
C:/temp/Job-25.odb,Step-1,Increment      1: Step Time =    1.000,"P-25-1",           706,       99.6565,       190.243,            0.,NA,NA,"",   927.728E+03,   935.784E+03,   935.784E+03
C:/temp/Job-25.odb,Step-1,Increment      1: Step Time =    1.000,"P-25-1",           707,       137.852,       188.791,            0.,NA,NA,"",   1.00188E+06,   998.359E+03,   998.359E+03
C:/temp/Job-25.odb,Step-1,Increment      1: Step Time =    1.000,"P-25-1",           708,       132.927,       89.0161,            0.,NA,NA,"",   755.825E+03,   290.425E+03,   290.425E+03
C:/temp/Job-25.odb,Step-1,Increment      1: Step Time =    1.000,"P-25-1",           709,       65.1141,       87.3765,            0.,NA,NA,"",   673.569E+03,   504.242E+03,   504.242E+03
C:/temp/Job-25.odb,Step-1,Increment      1: Step Time =    1.000,"P-25-1",           710,       129.074,       120.531,            0.,NA,NA,"",   1.21096E+06,   1.01589E+06,   1.01589E+06
C:/temp/Job-25.odb,Step-1,Increment      1: Step Time =    1.000,"P-25-1",           711,       70.7195,       120.527,            0.,NA,NA,"",   1.03333E+06,   883.369E+03,   883.369E+03
C:/temp/Job-25.odb,Step-1,Increment      1: Step Time =    1.000,"P-25-1",           712,       89.6188,       64.2395,            0.,NA,NA,"",   1.61155E+06,   1.71880E+06,   1.71880E+06
C:/temp/Job-25.odb,Step-1,Increment      1: Step Time =    1.000,"P-25-1",           713,       110.959,       66.6043,            0.,NA,NA,"",   1.73401E+06,   1.84621E+06,   1.84621E+06
C:/temp/Job-25.odb,Step-1,Increment      1: Step Time =    1.000,"P-25-1",           714,       66.1891,       115.711,            0.,NA,NA,"",   841.801E+03,   653.727E+03,   653.727E+03
C:/temp/Job-25.odb,Step-1,Increment      1: Step Time =    1.000,"P-25-1",           715,       134.550,       115.654,            0.,NA,NA,"",   1.03166E+06,   776.862E+03,   776.862E+03
C:/temp/Job-25.odb,Step-1,Increment      1: Step Time =    1.000,"P-25-1",           716,       100.831,       135.666,            0.,NA,NA,"",   1.78225E+06,   1.94219E+06,   1.94219E+06
C:/temp/Job-25.odb,Step-1,Increment      1: Step Time =    1.000,"P-25-1",           717,       134.839,       100.284,            0.,NA,NA,"",   401.843E+03,  -218.760E+03,  -218.760E+03
C:/temp/Job-25.odb,Step-1,Increment      1: Step Time =    1.000,"P-25-1",           718,       59.9868,       17.5113,            0.,NA,NA,"",   1.16210E+06,   1.15171E+06,   1.15171E+06
C:/temp/Job-25.odb,Step-1,Increment      1: Step Time =    1.000,"P-25-1",           719,       13.8544,       60.4524,            0.,NA,NA,"",   832.859E+03,   911.794E+03,   911.794E+03
C:/temp/Job-25.odb,Step-1,Increment      1: Step Time =    1.000,"P-25-1",           720,       182.254,       60.2936,            0.,NA,NA,"",   998.160E+03,   1.03223E+06,   1.03223E+06
C:/temp/Job-25.odb,Step-1,Increment      1: Step Time =    1.000,"P-25-1",           721,       59.9733,       185.541,            0.,NA,NA,"",   1.14405E+06,   1.13610E+06,   1.13610E+06
C:/temp/Job-25.odb,Step-1,Increment      1: Step Time =    1.000,"P-25-1",           722,       140.008,       14.0709,            0.,NA,NA,"",   1.02596E+06,   1.02013E+06,   1.02013E+06
C:/temp/Job-25.odb,Step-1,Increment      1: Step Time =    1.000,"P-25-1",           723,       14.2824,       140.523,            0.,NA,NA,"",   840.023E+03,   919.024E+03,   919.024E+03
C:/temp/Job-25.odb,Step-1,Increment      1: Step Time =    1.000,"P-25-1",           724,       185.977,       139.709,            0.,NA,NA,"",   976.145E+03,   1.02246E+06,   1.02246E+06
C:/temp/Job-25.odb,Step-1,Increment      1: Step Time =    1.000,"P-25-1",           725,       139.543,       182.331,            0.,NA,NA,"",   1.05440E+06,   1.04596E+06,   1.04596E+06
C:/temp/Job-25.odb,Step-1,Increment      1: Step Time =    1.000,"P-25-1",           726,       111.689,       134.015,            0.,NA,NA,"",   1.68254E+06,   1.79026E+06,   1.79026E+06
C:/temp/Job-25.odb,Step-1,Increment      1: Step Time =    1.000,"P-25-1",           727,       115.624,       131.341,            0.,NA,NA,"",   1.70217E+06,   1.75408E+06,   1.75408E+06
C:/temp/Job-25.odb,Step-1,Increment      1: Step Time =    1.000,"P-25-1",           728,       70.5101,       80.0907,            0.,NA,NA,"",   1.04862E+06,   874.170E+03,   874.170E+03
C:/temp/Job-25.odb,Step-1,Increment      1: Step Time =    1.000,"P-25-1",           729,       57.0675,       101.525,            0.,NA,NA,"",   274.283E+03,   275.680E+03,   275.680E+03
C:/temp/Job-25.odb,Step-1,Increment      1: Step Time =    1.000,"P-25-1",           730,       139.853,       99.9508,            0.,NA,NA,"",   368.677E+03,   172.953E+03,   172.953E+03
C:/temp/Job-25.odb,Step-1,Increment      1: Step Time =    1.000,"P-25-1",           731,       130.011,       9.92015,            0.,NA,NA,"",   971.882E+03,   970.973E+03,   970.973E+03
C:/temp/Job-25.odb,Step-1,Increment      1: Step Time =    1.000,"P-25-1",           732,       14.1711,       69.2779,            0.,NA,NA,"",   753.924E+03,   833.341E+03,   833.341E+03
C:/temp/Job-25.odb,Step-1,Increment      1: Step Time =    1.000,"P-25-1",           733,       71.4539,       14.0345,            0.,NA,NA,"",   1.08771E+06,   1.08471E+06,   1.08471E+06
C:/temp/Job-25.odb,Step-1,Increment      1: Step Time =    1.000,"P-25-1",           734,       14.3159,       130.946,            0.,NA,NA,"",   755.510E+03,   835.174E+03,   835.174E+03
C:/temp/Job-25.odb,Step-1,Increment      1: Step Time =    1.000,"P-25-1",           735,       69.8820,       185.721,            0.,NA,NA,"",   1.09798E+06,   1.09374E+06,   1.09374E+06
C:/temp/Job-25.odb,Step-1,Increment      1: Step Time =    1.000,"P-25-1",           736,       185.543,       129.651,            0.,NA,NA,"",   944.356E+03,   1.00946E+06,   1.00946E+06
C:/temp/Job-25.odb,Step-1,Increment      1: Step Time =    1.000,"P-25-1",           737,       185.961,       71.6907,            0.,NA,NA,"",   937.919E+03,   1.00681E+06,   1.00681E+06
C:/temp/Job-25.odb,Step-1,Increment      1: Step Time =    1.000,"P-25-1",           738,       128.165,       185.837,            0.,NA,NA,"",   1.00342E+06,   1.00347E+06,   1.00347E+06
C:/temp/Job-25.odb,Step-1,Increment      1: Step Time =    1.000,"P-25-1",           739,       128.406,       78.8897,            0.,NA,NA,"",   1.28935E+06,   1.09099E+06,   1.09099E+06
C:/temp/Job-25.odb,Step-1,Increment      1: Step Time =    1.000,"P-25-1",           740,       82.1837,       129.587,            0.,NA,NA,"",   1.57828E+06,   1.58470E+06,   1.58470E+06
C:/temp/Job-25.odb,Step-1,Increment      1: Step Time =    1.000,"P-25-1",           741,       74.0352,       125.926,            0.,NA,NA,"",   1.36032E+06,   1.24862E+06,   1.24862E+06
C:/temp/Job-25.odb,Step-1,Increment      1: Step Time =    1.000,"P-25-1",           742,       121.382,       125.744,            0.,NA,NA,"",   1.54082E+06,   1.47500E+06,   1.47500E+06
C:/temp/Job-25.odb,Step-1,Increment      1: Step Time =    1.000,"P-25-1",           743,       82.6439,       69.7093,            0.,NA,NA,"",   1.60114E+06,   1.61776E+06,   1.61776E+06
C:/temp/Job-25.odb,Step-1,Increment      1: Step Time =    1.000,"P-25-1",           744,       120.939,       69.6103,            0.,NA,NA,"",   1.59646E+06,   1.57070E+06,   1.57070E+06
C:/temp/Job-25.odb,Step-1,Increment      1: Step Time =    1.000,"P-25-1",           745,       15.2754,       78.7959,            0.,NA,NA,"",   672.564E+03,   752.465E+03,   752.465E+03
C:/temp/Job-25.odb,Step-1,Increment      1: Step Time =    1.000,"P-25-1",           746,       120.090,       15.3214,            0.,NA,NA,"",   993.208E+03,   999.955E+03,   999.955E+03
C:/temp/Job-25.odb,Step-1,Increment      1: Step Time =    1.000,"P-25-1",           747,       80.2941,       14.0854,            0.,NA,NA,"",   1.04334E+06,   1.04657E+06,   1.04657E+06
C:/temp/Job-25.odb,Step-1,Increment      1: Step Time =    1.000,"P-25-1",           748,       14.9147,       120.955,            0.,NA,NA,"",   670.847E+03,   751.172E+03,   751.172E+03
C:/temp/Job-25.odb,Step-1,Increment      1: Step Time =    1.000,"P-25-1",           749,       79.6774,       185.478,            0.,NA,NA,"",   1.04902E+06,   1.05225E+06,   1.05225E+06
C:/temp/Job-25.odb,Step-1,Increment      1: Step Time =    1.000,"P-25-1",           750,       185.240,       119.725,            0.,NA,NA,"",   904.790E+03,   986.928E+03,   986.928E+03
C:/temp/Job-25.odb,Step-1,Increment      1: Step Time =    1.000,"P-25-1",           751,       185.878,       80.6497,            0.,NA,NA,"",   903.035E+03,   987.759E+03,   987.759E+03
C:/temp/Job-25.odb,Step-1,Increment      1: Step Time =    1.000,"P-25-1",           752,       119.040,       185.560,            0.,NA,NA,"",   983.424E+03,   990.063E+03,   990.063E+03
C:/temp/Job-25.odb,Step-1,Increment      1: Step Time =    1.000,"P-25-1",           753,       134.620,       110.891,            0.,NA,NA,"",   780.982E+03,   331.721E+03,   331.721E+03
C:/temp/Job-25.odb,Step-1,Increment      1: Step Time =    1.000,"P-25-1",           754,       66.3472,       111.710,            0.,NA,NA,"",   654.926E+03,   291.644E+03,   291.644E+03
C:/temp/Job-25.odb,Step-1,Increment      1: Step Time =    1.000,"P-25-1",           755,       15.1896,       90.5176,            0.,NA,NA,"",   595.793E+03,   676.464E+03,   676.464E+03
C:/temp/Job-25.odb,Step-1,Increment      1: Step Time =    1.000,"P-25-1",           756,       109.812,       15.3787,            0.,NA,NA,"",    975.38E+03,   989.611E+03,   989.611E+03
C:/temp/Job-25.odb,Step-1,Increment      1: Step Time =    1.000,"P-25-1",           757,       89.7571,       14.4932,            0.,NA,NA,"",   1.00108E+06,   1.01245E+06,   1.01245E+06
C:/temp/Job-25.odb,Step-1,Increment      1: Step Time =    1.000,"P-25-1",           758,       14.8037,       109.795,            0.,NA,NA,"",   599.118E+03,   679.964E+03,   679.964E+03
C:/temp/Job-25.odb,Step-1,Increment      1: Step Time =    1.000,"P-25-1",           759,       89.5663,       185.235,            0.,NA,NA,"",   1.00379E+06,   1.01481E+06,   1.01481E+06
C:/temp/Job-25.odb,Step-1,Increment      1: Step Time =    1.000,"P-25-1",           760,       185.105,       109.705,            0.,NA,NA,"",   867.412E+03,   962.110E+03,   962.110E+03
C:/temp/Job-25.odb,Step-1,Increment      1: Step Time =    1.000,"P-25-1",           761,       185.622,       90.2415,            0.,NA,NA,"",   869.542E+03,   965.547E+03,   965.547E+03
C:/temp/Job-25.odb,Step-1,Increment      1: Step Time =    1.000,"P-25-1",           762,       109.296,       185.440,            0.,NA,NA,"",   968.138E+03,   981.494E+03,   981.494E+03
C:/temp/Job-25.odb,Step-1,Increment      1: Step Time =    1.000,"P-25-1",           763,       99.6279,       15.0879,            0.,NA,NA,"",   976.237E+03,   992.347E+03,   992.347E+03
C:/temp/Job-25.odb,Step-1,Increment      1: Step Time =    1.000,"P-25-1",           764,       14.3645,       100.403,            0.,NA,NA,"",   577.246E+03,   658.021E+03,   658.021E+03
C:/temp/Job-25.odb,Step-1,Increment      1: Step Time =    1.000,"P-25-1",           765,       185.340,       100.012,            0.,NA,NA,"",   853.580E+03,   953.050E+03,   953.050E+03
C:/temp/Job-25.odb,Step-1,Increment      1: Step Time =    1.000,"P-25-1",           766,       99.4640,       185.474,            0.,NA,NA,"",   972.043E+03,   987.633E+03,   987.633E+03
C:/temp/Job-25.odb,Step-1,Increment      1: Step Time =    1.000,"P-25-1",           767,       14.1805,       64.8325,            0.,NA,NA,"",   793.942E+03,   873.139E+03,   873.139E+03
C:/temp/Job-25.odb,Step-1,Increment      1: Step Time =    1.000,"P-25-1",           768,       63.6644,       15.9913,            0.,NA,NA,"",   1.13740E+06,   1.12972E+06,   1.12972E+06
C:/temp/Job-25.odb,Step-1,Increment      1: Step Time =    1.000,"P-25-1",           769,       183.972,       63.9317,            0.,NA,NA,"",   975.878E+03,   1.02263E+06,   1.02263E+06
C:/temp/Job-25.odb,Step-1,Increment      1: Step Time =    1.000,"P-25-1",           770,       64.9599,       185.701,            0.,NA,NA,"",   1.12163E+06,   1.11514E+06,   1.11514E+06
C:/temp/Job-25.odb,Step-1,Increment      1: Step Time =    1.000,"P-25-1",           771,       14.2773,       135.742,            0.,NA,NA,"",   798.016E+03,   877.300E+03,   877.300E+03
C:/temp/Job-25.odb,Step-1,Increment      1: Step Time =    1.000,"P-25-1",           772,       135.052,       14.4918,            0.,NA,NA,"",   1.02092E+06,   1.01674E+06,   1.01674E+06
C:/temp/Job-25.odb,Step-1,Increment      1: Step Time =    1.000,"P-25-1",           773,       185.750,       134.634,            0.,NA,NA,"",   961.514E+03,   1.01724E+06,   1.01724E+06
C:/temp/Job-25.odb,Step-1,Increment      1: Step Time =    1.000,"P-25-1",           774,       135.966,       183.998,            0.,NA,NA,"",   1.03493E+06,   1.02959E+06,   1.02959E+06
C:/temp/Job-25.odb,Step-1,Increment      1: Step Time =    1.000,"P-25-1",           775,       108.014,       136.740,            0.,NA,NA,"",   1.60301E+06,   1.74030E+06,   1.74030E+06
C:/temp/Job-25.odb,Step-1,Increment      1: Step Time =    1.000,"P-25-1",           776,       139.776,       105.461,            0.,NA,NA,"",   499.206E+03,   271.813E+03,   271.813E+03
C:/temp/Job-25.odb,Step-1,Increment      1: Step Time =    1.000,"P-25-1",           777,       57.1574,       105.932,            0.,NA,NA,"",   387.321E+03,   367.131E+03,   367.131E+03
C:/temp/Job-25.odb,Step-1,Increment      1: Step Time =    1.000,"P-25-1",           778,       14.4757,       126.044,            0.,NA,NA,"",   712.707E+03,   792.776E+03,   792.776E+03
C:/temp/Job-25.odb,Step-1,Increment      1: Step Time =    1.000,"P-25-1",           779,       125.187,       15.1934,            0.,NA,NA,"",   1.00488E+06,   1.00691E+06,   1.00691E+06
C:/temp/Job-25.odb,Step-1,Increment      1: Step Time =    1.000,"P-25-1",           780,       14.8020,       73.8261,            0.,NA,NA,"",   713.036E+03,   792.736E+03,   792.736E+03
C:/temp/Job-25.odb,Step-1,Increment      1: Step Time =    1.000,"P-25-1",           781,       75.7632,       13.9962,            0.,NA,NA,"",   1.06620E+06,   1.06576E+06,   1.06576E+06
C:/temp/Job-25.odb,Step-1,Increment      1: Step Time =    1.000,"P-25-1",           782,       185.993,       76.0605,            0.,NA,NA,"",   921.122E+03,   998.329E+03,   998.329E+03
C:/temp/Job-25.odb,Step-1,Increment      1: Step Time =    1.000,"P-25-1",           783,       74.7808,       185.664,            0.,NA,NA,"",   1.07389E+06,   1.07291E+06,   1.07291E+06
C:/temp/Job-25.odb,Step-1,Increment      1: Step Time =    1.000,"P-25-1",           784,       185.373,       124.691,            0.,NA,NA,"",   925.352E+03,   999.322E+03,   999.322E+03
C:/temp/Job-25.odb,Step-1,Increment      1: Step Time =    1.000,"P-25-1",           785,       123.716,       185.746,            0.,NA,NA,"",   992.891E+03,   996.029E+03,   996.029E+03
C:/temp/Job-25.odb,Step-1,Increment      1: Step Time =    1.000,"P-25-1",           786,       123.600,       80.5562,            0.,NA,NA,"",   1.05939E+06,   959.648E+03,   959.648E+03
C:/temp/Job-25.odb,Step-1,Increment      1: Step Time =    1.000,"P-25-1",           787,       88.5168,       127.678,            0.,NA,NA,"",   2.00528E+06,   2.07099E+06,   2.07099E+06
C:/temp/Job-25.odb,Step-1,Increment      1: Step Time =    1.000,"P-25-1",           788,       80.0759,       133.767,            0.,NA,NA,"",   1.54611E+06,   1.53022E+06,   1.53022E+06
C:/temp/Job-25.odb,Step-1,Increment      1: Step Time =    1.000,"P-25-1",           789,       78.6805,       72.5865,            0.,NA,NA,"",   1.45831E+06,   1.41216E+06,   1.41216E+06
C:/temp/Job-25.odb,Step-1,Increment      1: Step Time =    1.000,"P-25-1",           790,       117.101,       64.4833,            0.,NA,NA,"",   1.57661E+06,   1.61546E+06,   1.61546E+06
C:/temp/Job-25.odb,Step-1,Increment      1: Step Time =    1.000,"P-25-1",           791,       16.5742,       84.6729,            0.,NA,NA,"",   628.460E+03,   708.130E+03,   708.130E+03
C:/temp/Job-25.odb,Step-1,Increment      1: Step Time =    1.000,"P-25-1",           792,       114.936,       15.3726,            0.,NA,NA,"",   982.542E+03,   993.600E+03,   993.600E+03
C:/temp/Job-25.odb,Step-1,Increment      1: Step Time =    1.000,"P-25-1",           793,       84.9673,       14.2749,            0.,NA,NA,"",   1.02073E+06,   1.02812E+06,   1.02812E+06
C:/temp/Job-25.odb,Step-1,Increment      1: Step Time =    1.000,"P-25-1",           794,       15.9824,       115.350,            0.,NA,NA,"",   630.318E+03,   710.345E+03,   710.345E+03
C:/temp/Job-25.odb,Step-1,Increment      1: Step Time =    1.000,"P-25-1",           795,       185.755,       85.4118,            0.,NA,NA,"",   884.996E+03,   976.186E+03,   976.186E+03
C:/temp/Job-25.odb,Step-1,Increment      1: Step Time =    1.000,"P-25-1",           796,       114.221,       185.466,            0.,NA,NA,"",   974.334E+03,   984.766E+03,   984.766E+03
C:/temp/Job-25.odb,Step-1,Increment      1: Step Time =    1.000,"P-25-1",           797,       84.6518,       185.319,            0.,NA,NA,"",   1.02522E+06,   1.03259E+06,   1.03259E+06
C:/temp/Job-25.odb,Step-1,Increment      1: Step Time =    1.000,"P-25-1",           798,       185.146,       114.695,            0.,NA,NA,"",   884.081E+03,   973.321E+03,   973.321E+03
C:/temp/Job-25.odb,Step-1,Increment      1: Step Time =    1.000,"P-25-1",           799,       94.6281,       14.8205,            0.,NA,NA,"",   985.942E+03,   1.00032E+06,   1.00032E+06
C:/temp/Job-25.odb,Step-1,Increment      1: Step Time =    1.000,"P-25-1",           800,       14.4359,       105.039,            0.,NA,NA,"",   582.790E+03,   663.660E+03,   663.660E+03
C:/temp/Job-25.odb,Step-1,Increment      1: Step Time =    1.000,"P-25-1",           801,       185.507,       95.1217,            0.,NA,NA,"",   858.331E+03,   957.114E+03,   957.114E+03
C:/temp/Job-25.odb,Step-1,Increment      1: Step Time =    1.000,"P-25-1",           802,       104.363,       185.461,            0.,NA,NA,"",   967.242E+03,   982.208E+03,   982.208E+03
C:/temp/Job-25.odb,Step-1,Increment      1: Step Time =    1.000,"P-25-1",           803,       104.693,       15.2764,            0.,NA,NA,"",   972.757E+03,   988.872E+03,   988.872E+03
C:/temp/Job-25.odb,Step-1,Increment      1: Step Time =    1.000,"P-25-1",           804,       14.5737,       95.6334,            0.,NA,NA,"",   580.348E+03,   661.124E+03,   661.124E+03
C:/temp/Job-25.odb,Step-1,Increment      1: Step Time =    1.000,"P-25-1",           805,       185.181,       104.830,            0.,NA,NA,"",   857.057E+03,   955.160E+03,   955.160E+03
C:/temp/Job-25.odb,Step-1,Increment      1: Step Time =    1.000,"P-25-1",           806,       94.4890,       185.391,            0.,NA,NA,"",   984.737E+03,   998.976E+03,   998.976E+03
C:/temp/Job-25.odb,Step-1,Increment      1: Step Time =    1.000,"P-25-1",           807,       63.9372,       80.7980,            0.,NA,NA,"",   976.198E+03,   824.462E+03,   824.462E+03
C:/temp/Job-25.odb,Step-1,Increment      1: Step Time =    1.000,"P-25-1",           808,       119.190,       135.073,            0.,NA,NA,"",   1.57434E+06,   1.58290E+06,   1.58290E+06
C:/temp/Job-25.odb,Step-1,Increment      1: Step Time =    1.000,"P-25-1",           809,       134.667,       120.554,            0.,NA,NA,"",   1.22976E+06,   1.00409E+06,   1.00409E+06
C:/temp/Job-25.odb,Step-1,Increment      1: Step Time =    1.000,"P-25-1",           810,       79.6729,       66.0244,            0.,NA,NA,"",   1.52435E+06,   1.50826E+06,   1.50826E+06
C:/temp/Job-25.odb,Step-1,Increment      1: Step Time =    1.000,"P-25-1",           811,       90.4719,       133.318,            0.,NA,NA,"",   1.72366E+06,   1.84089E+06,   1.84089E+06
C:/temp/Job-25.odb,Step-1,Increment      1: Step Time =    1.000,"P-25-1",           812,       96.3078,       65.0322,            0.,NA,NA,"",   1.81649E+06,   1.96732E+06,   1.96732E+06
C:/temp/Job-25.odb,Step-1,Increment      1: Step Time =    1.000,"P-25-1",           813,       109.721,       60.1308,            0.,NA,NA,"",   1.46817E+06,   1.58479E+06,   1.58479E+06
C:/temp/Job-25.odb,Step-1,Increment      1: Step Time =    1.000,"P-25-1",           814,       135.338,       82.1721,            0.,NA,NA,"",   1.14082E+06,   904.562E+03,   904.562E+03
C:/temp/Job-25.odb,Step-1,Increment      1: Step Time =    1.000,"P-25-1",           815,       69.4896,       125.569,            0.,NA,NA,"",   1.26665E+06,   1.12938E+06,   1.12938E+06
C:/temp/Job-25.odb,Step-1,Increment      1: Step Time =    1.000,"P-25-1",           816,       129.594,       125.808,            0.,NA,NA,"",   1.44716E+06,   1.27723E+06,   1.27723E+06
C:/temp/Job-25.odb,Step-1,Increment      1: Step Time =    1.000,"P-25-1",           817,       124.046,       131.788,            0.,NA,NA,"",   1.57254E+06,   1.49927E+06,   1.49927E+06
C:/temp/Job-25.odb,Step-1,Increment      1: Step Time =    1.000,"P-25-1",           818,       139.861,       110.587,            0.,NA,NA,"",   753.110E+03,   582.713E+03,   582.713E+03
C:/temp/Job-25.odb,Step-1,Increment      1: Step Time =    1.000,"P-25-1",           819,       111.362,       140.472,            0.,NA,NA,"",   1.46604E+06,   1.56988E+06,   1.56988E+06
C:/temp/Job-25.odb,Step-1,Increment      1: Step Time =    1.000,"P-25-1",           820,       163.858,       10.5488,            0.,NA,NA,"",   1.01784E+06,   1.01511E+06,   1.01511E+06
C:/temp/Job-25.odb,Step-1,Increment      1: Step Time =    1.000,"P-25-1",           821,       9.60180,       164.823,            0.,NA,NA,"",   1.01505E+06,   1.10623E+06,   1.10623E+06
C:/temp/Job-25.odb,Step-1,Increment      1: Step Time =    1.000,"P-25-1",           822,       10.3160,       39.1182,            0.,NA,NA,"",   985.342E+03,   1.07505E+06,   1.07505E+06
C:/temp/Job-25.odb,Step-1,Increment      1: Step Time =    1.000,"P-25-1",           823,       34.9680,       9.55034,            0.,NA,NA,"",   1.22390E+06,   1.22384E+06,   1.22384E+06
C:/temp/Job-25.odb,Step-1,Increment      1: Step Time =    1.000,"P-25-1",           824,       161.563,       191.192,            0.,NA,NA,"",   1.01259E+06,   1.01050E+06,   1.01050E+06
C:/temp/Job-25.odb,Step-1,Increment      1: Step Time =    1.000,"P-25-1",           825,       189.634,       164.025,            0.,NA,NA,"",   997.955E+03,   1.01236E+06,   1.01236E+06
C:/temp/Job-25.odb,Step-1,Increment      1: Step Time =    1.000,"P-25-1",           826,       35.4436,       189.389,            0.,NA,NA,"",   1.22356E+06,   1.22319E+06,   1.22319E+06
C:/temp/Job-25.odb,Step-1,Increment      1: Step Time =    1.000,"P-25-1",           827,       191.367,       38.4307,            0.,NA,NA,"",   990.131E+03,   1.00912E+06,   1.00912E+06
C:/temp/Job-25.odb,Step-1,Increment      1: Step Time =    1.000,"P-25-1",           828,       101.894,       64.6278,            0.,NA,NA,"",   1.72955E+06,   1.89284E+06,   1.89284E+06
C:/temp/Job-25.odb,Step-1,Increment      1: Step Time =    1.000,"P-25-1",           829,       133.160,       77.4115,            0.,NA,NA,"",   1.33238E+06,   1.11488E+06,   1.11488E+06
C:/temp/Job-25.odb,Step-1,Increment      1: Step Time =    1.000,"P-25-1",           830,       109.631,       20.4936,            0.,NA,NA,"",   1.01382E+06,   1.03679E+06,   1.03679E+06
C:/temp/Job-25.odb,Step-1,Increment      1: Step Time =    1.000,"P-25-1",           831,       21.4409,       87.6479,            0.,NA,NA,"",   604.709E+03,   681.585E+03,   681.585E+03
C:/temp/Job-25.odb,Step-1,Increment      1: Step Time =    1.000,"P-25-1",           832,       180.002,       109.482,            0.,NA,NA,"",   855.533E+03,   934.665E+03,   934.665E+03
C:/temp/Job-25.odb,Step-1,Increment      1: Step Time =    1.000,"P-25-1",           833,       89.4455,       180.197,            0.,NA,NA,"",   1.04286E+06,   1.06100E+06,   1.06100E+06
C:/temp/Job-25.odb,Step-1,Increment      1: Step Time =    1.000,"P-25-1",           834,       99.2317,       20.1600,            0.,NA,NA,"",   1.01398E+06,   1.04022E+06,   1.04022E+06
C:/temp/Job-25.odb,Step-1,Increment      1: Step Time =    1.000,"P-25-1",           835,       19.1844,       100.722,            0.,NA,NA,"",   567.729E+03,   646.767E+03,   646.767E+03
C:/temp/Job-25.odb,Step-1,Increment      1: Step Time =    1.000,"P-25-1",           836,       180.475,       99.8817,            0.,NA,NA,"",   836.813E+03,   922.616E+03,   922.616E+03
C:/temp/Job-25.odb,Step-1,Increment      1: Step Time =    1.000,"P-25-1",           837,       99.2180,       180.911,            0.,NA,NA,"",   1.00701E+06,   1.03145E+06,   1.03145E+06
C:/temp/Job-25.odb,Step-1,Increment      1: Step Time =    1.000,"P-25-1",           838,       139.572,       80.0119,            0.,NA,NA,"",   1.16582E+06,   970.180E+03,   970.180E+03
C:/temp/Job-25.odb,Step-1,Increment      1: Step Time =    1.000,"P-25-1",           839,       66.3599,       76.9705,            0.,NA,NA,"",   1.14948E+06,   997.094E+03,   997.094E+03
C:/temp/Job-25.odb,Step-1,Increment      1: Step Time =    1.000,"P-25-1",           840,       76.3779,       68.7424,            0.,NA,NA,"",   1.48495E+06,   1.41798E+06,   1.41798E+06
C:/temp/Job-25.odb,Step-1,Increment      1: Step Time =    1.000,"P-25-1",           841,       121.347,       64.8843,            0.,NA,NA,"",   1.56867E+06,   1.55187E+06,   1.55187E+06
C:/temp/Job-25.odb,Step-1,Increment      1: Step Time =    1.000,"P-25-1",           842,       99.5142,       61.5835,            0.,NA,NA,"",   1.58970E+06,   1.74537E+06,   1.74537E+06
C:/temp/Job-25.odb,Step-1,Increment      1: Step Time =    1.000,"P-25-1",           843,       88.7244,       136.332,            0.,NA,NA,"",   1.56988E+06,   1.67051E+06,   1.67051E+06
C:/temp/Job-25.odb,Step-1,Increment      1: Step Time =    1.000,"P-25-1",           844,       76.5073,       62.4949,            0.,NA,NA,"",   1.48181E+06,   1.44420E+06,   1.44420E+06
C:/temp/Job-25.odb,Step-1,Increment      1: Step Time =    1.000,"P-25-1",           845,       118.017,       61.3567,            0.,NA,NA,"",   1.50787E+06,   1.54205E+06,   1.54205E+06
C:/temp/Job-25.odb,Step-1,Increment      1: Step Time =    1.000,"P-25-1",           846,       59.9071,       77.9727,            0.,NA,NA,"",   1.01818E+06,   901.369E+03,   901.369E+03
C:/temp/Job-25.odb,Step-1,Increment      1: Step Time =    1.000,"P-25-1",           847,       164.088,       15.3272,            0.,NA,NA,"",   1.03281E+06,   1.02778E+06,   1.02778E+06
C:/temp/Job-25.odb,Step-1,Increment      1: Step Time =    1.000,"P-25-1",           848,       13.6152,       164.842,            0.,NA,NA,"",   1.04296E+06,   1.12091E+06,   1.12091E+06
C:/temp/Job-25.odb,Step-1,Increment      1: Step Time =    1.000,"P-25-1",           849,       15.1319,       38.2529,            0.,NA,NA,"",   1.02816E+06,   1.10112E+06,   1.10112E+06
C:/temp/Job-25.odb,Step-1,Increment      1: Step Time =    1.000,"P-25-1",           850,       35.0146,       14.3862,            0.,NA,NA,"",   1.22659E+06,   1.22688E+06,   1.22688E+06
C:/temp/Job-25.odb,Step-1,Increment      1: Step Time =    1.000,"P-25-1",           851,       162.574,       187.093,            0.,NA,NA,"",   1.02597E+06,   1.02182E+06,   1.02182E+06
C:/temp/Job-25.odb,Step-1,Increment      1: Step Time =    1.000,"P-25-1",           852,       184.991,       164.492,            0.,NA,NA,"",   1.01248E+06,   1.02291E+06,   1.02291E+06
C:/temp/Job-25.odb,Step-1,Increment      1: Step Time =    1.000,"P-25-1",           853,       35.1005,       184.258,            0.,NA,NA,"",   1.22530E+06,   1.22561E+06,   1.22561E+06
C:/temp/Job-25.odb,Step-1,Increment      1: Step Time =    1.000,"P-25-1",           854,       187.447,       37.3836,            0.,NA,NA,"",   1.00226E+06,   1.01737E+06,   1.01737E+06
C:/temp/Job-25.odb,Step-1,Increment      1: Step Time =    1.000,"P-25-1",           855,       17.8532,       60.3680,            0.,NA,NA,"",   851.607E+03,   922.889E+03,   922.889E+03
C:/temp/Job-25.odb,Step-1,Increment      1: Step Time =    1.000,"P-25-1",           856,       61.7315,       21.4742,            0.,NA,NA,"",   1.17899E+06,   1.16599E+06,   1.16599E+06
C:/temp/Job-25.odb,Step-1,Increment      1: Step Time =    1.000,"P-25-1",           857,       60.1725,       180.647,            0.,NA,NA,"",   1.17195E+06,   1.15993E+06,   1.15993E+06
C:/temp/Job-25.odb,Step-1,Increment      1: Step Time =    1.000,"P-25-1",           858,       178.577,       62.3524,            0.,NA,NA,"",   1.01345E+06,   1.03879E+06,   1.03879E+06
C:/temp/Job-25.odb,Step-1,Increment      1: Step Time =    1.000,"P-25-1",           859,       140.175,       18.4912,            0.,NA,NA,"",   1.05950E+06,   1.05017E+06,   1.05017E+06
C:/temp/Job-25.odb,Step-1,Increment      1: Step Time =    1.000,"P-25-1",           860,       19.0599,       140.676,            0.,NA,NA,"",   867.953E+03,   935.974E+03,   935.974E+03
C:/temp/Job-25.odb,Step-1,Increment      1: Step Time =    1.000,"P-25-1",           861,       181.274,       139.598,            0.,NA,NA,"",   1.00385E+06,   1.03485E+06,   1.03485E+06
C:/temp/Job-25.odb,Step-1,Increment      1: Step Time =    1.000,"P-25-1",           862,       137.508,       178.699,            0.,NA,NA,"",   1.07873E+06,   1.06869E+06,   1.06869E+06
C:/temp/Job-25.odb,Step-1,Increment      1: Step Time =    1.000,"P-25-1",           863,       144.913,       100.320,            0.,NA,NA,"",   438.097E+03,   415.373E+03,   415.373E+03
C:/temp/Job-25.odb,Step-1,Increment      1: Step Time =    1.000,"P-25-1",           864,       52.8415,       102.041,            0.,NA,NA,"",   336.278E+03,   363.127E+03,   363.127E+03
C:/temp/Job-25.odb,Step-1,Increment      1: Step Time =    1.000,"P-25-1",           865,       18.1928,       68.8603,            0.,NA,NA,"",   771.684E+03,   845.271E+03,   845.271E+03
C:/temp/Job-25.odb,Step-1,Increment      1: Step Time =    1.000,"P-25-1",           866,       68.3526,       18.1601,            0.,NA,NA,"",   1.13259E+06,   1.12593E+06,   1.12593E+06
C:/temp/Job-25.odb,Step-1,Increment      1: Step Time =    1.000,"P-25-1",           867,       180.651,       129.495,            0.,NA,NA,"",   965.284E+03,   1.01263E+06,   1.01263E+06
C:/temp/Job-25.odb,Step-1,Increment      1: Step Time =    1.000,"P-25-1",           868,       131.265,       181.883,            0.,NA,NA,"",   1.04279E+06,   1.03959E+06,   1.03959E+06
C:/temp/Job-25.odb,Step-1,Increment      1: Step Time =    1.000,"P-25-1",           869,       130.157,       14.9081,            0.,NA,NA,"",   1.01416E+06,   1.01243E+06,   1.01243E+06
C:/temp/Job-25.odb,Step-1,Increment      1: Step Time =    1.000,"P-25-1",           870,       19.0233,       131.297,            0.,NA,NA,"",   777.536E+03,   849.258E+03,   849.258E+03
C:/temp/Job-25.odb,Step-1,Increment      1: Step Time =    1.000,"P-25-1",           871,       69.9928,       181.254,            0.,NA,NA,"",   1.13095E+06,   1.12511E+06,   1.12511E+06
C:/temp/Job-25.odb,Step-1,Increment      1: Step Time =    1.000,"P-25-1",           872,       181.939,       68.6732,            0.,NA,NA,"",   969.132E+03,   1.01783E+06,   1.01783E+06
C:/temp/Job-25.odb,Step-1,Increment      1: Step Time =    1.000,"P-25-1",           873,       20.6302,       118.063,            0.,NA,NA,"",   650.340E+03,   726.109E+03,   726.109E+03
C:/temp/Job-25.odb,Step-1,Increment      1: Step Time =    1.000,"P-25-1",           874,       21.1315,       81.6339,            0.,NA,NA,"",   652.817E+03,   728.162E+03,   728.162E+03
C:/temp/Job-25.odb,Step-1,Increment      1: Step Time =    1.000,"P-25-1",           875,       120.114,       20.2775,            0.,NA,NA,"",   1.03567E+06,   1.04643E+06,   1.04643E+06
C:/temp/Job-25.odb,Step-1,Increment      1: Step Time =    1.000,"P-25-1",           876,       79.4504,       180.881,            0.,NA,NA,"",   1.08881E+06,   1.09383E+06,   1.09383E+06
C:/temp/Job-25.odb,Step-1,Increment      1: Step Time =    1.000,"P-25-1",           877,       180.275,       119.606,            0.,NA,NA,"",   911.854E+03,   976.634E+03,   976.634E+03
C:/temp/Job-25.odb,Step-1,Increment      1: Step Time =    1.000,"P-25-1",           878,       19.3244,       108.959,            0.,NA,NA,"",   589.688E+03,   668.309E+03,   668.309E+03
C:/temp/Job-25.odb,Step-1,Increment      1: Step Time =    1.000,"P-25-1",           879,       69.2489,       131.262,            0.,NA,NA,"",   1.38243E+06,   1.27287E+06,   1.27287E+06
C:/temp/Job-25.odb,Step-1,Increment      1: Step Time =    1.000,"P-25-1",           880,       130.005,       131.107,            0.,NA,NA,"",   1.51197E+06,   1.37405E+06,   1.37405E+06
C:/temp/Job-25.odb,Step-1,Increment      1: Step Time =    1.000,"P-25-1",           881,       140.319,       120.646,            0.,NA,NA,"",   1.16999E+06,   981.691E+03,   981.691E+03
C:/temp/Job-25.odb,Step-1,Increment      1: Step Time =    1.000,"P-25-1",           882,       114.446,       143.852,            0.,NA,NA,"",   1.39459E+06,   1.46680E+06,   1.46680E+06
C:/temp/Job-25.odb,Step-1,Increment      1: Step Time =    1.000,"P-25-1",           883,       106.802,       56.9665,            0.,NA,NA,"",   1.38394E+06,   1.50887E+06,   1.50887E+06
C:/temp/Job-25.odb,Step-1,Increment      1: Step Time =    1.000,"P-25-1",           884,       65.4379,       120.165,            0.,NA,NA,"",   1.01350E+06,   852.790E+03,   852.790E+03
C:/temp/Job-25.odb,Step-1,Increment      1: Step Time =    1.000,"P-25-1",           885,       107.810,       143.721,            0.,NA,NA,"",   1.37437E+06,   1.49446E+06,   1.49446E+06
C:/temp/Job-25.odb,Step-1,Increment      1: Step Time =    1.000,"P-25-1",           886,       115.865,       59.1878,            0.,NA,NA,"",   1.45835E+06,   1.51589E+06,   1.51589E+06
C:/temp/Job-25.odb,Step-1,Increment      1: Step Time =    1.000,"P-25-1",           887,       145.359,       115.266,            0.,NA,NA,"",   924.080E+03,   801.286E+03,   801.286E+03
C:/temp/Job-25.odb,Step-1,Increment      1: Step Time =    1.000,"P-25-1",           888,       57.0948,       116.314,            0.,NA,NA,"",   781.837E+03,   702.101E+03,   702.101E+03
C:/temp/Job-25.odb,Step-1,Increment      1: Step Time =    1.000,"P-25-1",           889,       86.4271,       131.647,            0.,NA,NA,"",   1.69579E+06,   1.76484E+06,   1.76484E+06
C:/temp/Job-25.odb,Step-1,Increment      1: Step Time =    1.000,"P-25-1",           890,       93.7487,       142.437,            0.,NA,NA,"",   1.41568E+06,   1.53796E+06,   1.53796E+06
C:/temp/Job-25.odb,Step-1,Increment      1: Step Time =    1.000,"P-25-1",           891,       76.1656,       131.427,            0.,NA,NA,"",   1.48753E+06,   1.41870E+06,   1.41870E+06
C:/temp/Job-25.odb,Step-1,Increment      1: Step Time =    1.000,"P-25-1",           892,       55.7765,       111.173,            0.,NA,NA,"",   589.622E+03,   545.685E+03,   545.685E+03
C:/temp/Job-25.odb,Step-1,Increment      1: Step Time =    1.000,"P-25-1",           893,       145.070,       110.283,            0.,NA,NA,"",   726.358E+03,   635.166E+03,   635.166E+03
C:/temp/Job-25.odb,Step-1,Increment      1: Step Time =    1.000,"P-25-1",           894,       88.8946,       24.1379,            0.,NA,NA,"",   1.07533E+06,   1.09966E+06,   1.09966E+06
C:/temp/Job-25.odb,Step-1,Increment      1: Step Time =    1.000,"P-25-1",           895,       24.4853,       111.599,            0.,NA,NA,"",   596.564E+03,   670.996E+03,   670.996E+03
C:/temp/Job-25.odb,Step-1,Increment      1: Step Time =    1.000,"P-25-1",           896,       176.137,       90.3296,            0.,NA,NA,"",   845.684E+03,   913.253E+03,   913.253E+03
C:/temp/Job-25.odb,Step-1,Increment      1: Step Time =    1.000,"P-25-1",           897,       108.529,       175.980,            0.,NA,NA,"",   1.03762E+06,   1.06925E+06,   1.06925E+06
C:/temp/Job-25.odb,Step-1,Increment      1: Step Time =    1.000,"P-25-1",           898,       79.9361,       23.6553,            0.,NA,NA,"",   1.12131E+06,   1.12858E+06,   1.12858E+06
C:/temp/Job-25.odb,Step-1,Increment      1: Step Time =    1.000,"P-25-1",           899,       23.9165,       122.939,            0.,NA,NA,"",   707.002E+03,   774.590E+03,   774.590E+03
C:/temp/Job-25.odb,Step-1,Increment      1: Step Time =    1.000,"P-25-1",           900,       24.3517,       79.6229,            0.,NA,NA,"",   682.460E+03,   751.549E+03,   751.549E+03
C:/temp/Job-25.odb,Step-1,Increment      1: Step Time =    1.000,"P-25-1",           901,       120.086,       24.8704,            0.,NA,NA,"",   1.07448E+06,   1.08909E+06,   1.08909E+06
C:/temp/Job-25.odb,Step-1,Increment      1: Step Time =    1.000,"P-25-1",           902,       79.0600,       176.584,            0.,NA,NA,"",   1.12517E+06,   1.13137E+06,   1.13137E+06
C:/temp/Job-25.odb,Step-1,Increment      1: Step Time =    1.000,"P-25-1",           903,       175.285,       119.459,            0.,NA,NA,"",   915.989E+03,   962.716E+03,   962.716E+03
C:/temp/Job-25.odb,Step-1,Increment      1: Step Time =    1.000,"P-25-1",           904,       176.454,       80.6976,            0.,NA,NA,"",   916.138E+03,   966.835E+03,   966.835E+03
C:/temp/Job-25.odb,Step-1,Increment      1: Step Time =    1.000,"P-25-1",           905,       118.798,       174.821,            0.,NA,NA,"",   1.07295E+06,   1.08972E+06,   1.08972E+06
C:/temp/Job-25.odb,Step-1,Increment      1: Step Time =    1.000,"P-25-1",           906,       175.870,       99.4653,            0.,NA,NA,"",   815.732E+03,   889.727E+03,   889.727E+03
C:/temp/Job-25.odb,Step-1,Increment      1: Step Time =    1.000,"P-25-1",           907,       98.7661,       176.814,            0.,NA,NA,"",   1.03354E+06,   1.06577E+06,   1.06577E+06
C:/temp/Job-25.odb,Step-1,Increment      1: Step Time =    1.000,"P-25-1",           908,       98.9541,       25.0886,            0.,NA,NA,"",   1.04618E+06,   1.08352E+06,   1.08352E+06
C:/temp/Job-25.odb,Step-1,Increment      1: Step Time =    1.000,"P-25-1",           909,       24.0898,       100.879,            0.,NA,NA,"",   555.873E+03,   632.222E+03,   632.222E+03
C:/temp/Job-25.odb,Step-1,Increment      1: Step Time =    1.000,"P-25-1",           910,       143.645,       22.7850,            0.,NA,NA,"",   1.09174E+06,   1.07703E+06,   1.07703E+06
C:/temp/Job-25.odb,Step-1,Increment      1: Step Time =    1.000,"P-25-1",           911,       23.8765,       140.868,            0.,NA,NA,"",   901.060E+03,   955.701E+03,   955.701E+03
C:/temp/Job-25.odb,Step-1,Increment      1: Step Time =    1.000,"P-25-1",           912,       23.9977,       60.6961,            0.,NA,NA,"",   887.003E+03,   942.102E+03,   942.102E+03
C:/temp/Job-25.odb,Step-1,Increment      1: Step Time =    1.000,"P-25-1",           913,       58.9472,       25.5439,            0.,NA,NA,"",   1.20764E+06,   1.18985E+06,   1.18985E+06
C:/temp/Job-25.odb,Step-1,Increment      1: Step Time =    1.000,"P-25-1",           914,       61.5021,       176.121,            0.,NA,NA,"",   1.19471E+06,   1.17922E+06,   1.17922E+06
C:/temp/Job-25.odb,Step-1,Increment      1: Step Time =    1.000,"P-25-1",           915,       174.613,       60.1326,            0.,NA,NA,"",   1.04764E+06,   1.05547E+06,   1.05547E+06
C:/temp/Job-25.odb,Step-1,Increment      1: Step Time =    1.000,"P-25-1",           916,       176.296,       143.113,            0.,NA,NA,"",   1.04773E+06,   1.05669E+06,   1.05669E+06
C:/temp/Job-25.odb,Step-1,Increment      1: Step Time =    1.000,"P-25-1",           917,       139.678,       174.893,            0.,NA,NA,"",   1.11206E+06,   1.09640E+06,   1.09640E+06
C:/temp/Job-25.odb,Step-1,Increment      1: Step Time =    1.000,"P-25-1",           918,       23.7699,       131.471,            0.,NA,NA,"",   802.147E+03,   863.744E+03,   863.744E+03
C:/temp/Job-25.odb,Step-1,Increment      1: Step Time =    1.000,"P-25-1",           919,       177.388,       71.2526,            0.,NA,NA,"",    980.22E+03,   1.01516E+06,   1.01516E+06
C:/temp/Job-25.odb,Step-1,Increment      1: Step Time =    1.000,"P-25-1",           920,       70.7084,       22.9489,            0.,NA,NA,"",   1.15882E+06,   1.15223E+06,   1.15223E+06
C:/temp/Job-25.odb,Step-1,Increment      1: Step Time =    1.000,"P-25-1",           921,       128.871,       177.247,            0.,NA,NA,"",   1.07855E+06,   1.07691E+06,   1.07691E+06
C:/temp/Job-25.odb,Step-1,Increment      1: Step Time =    1.000,"P-25-1",           922,       143.276,       84.2700,            0.,NA,NA,"",   968.604E+03,   821.254E+03,   821.254E+03
C:/temp/Job-25.odb,Step-1,Increment      1: Step Time =    1.000,"P-25-1",           923,       96.4646,       57.6819,            0.,NA,NA,"",   1.42505E+06,   1.56315E+06,   1.56315E+06
C:/temp/Job-25.odb,Step-1,Increment      1: Step Time =    1.000,"P-25-1",           924,       90.8988,       139.060,            0.,NA,NA,"",   1.51776E+06,   1.62987E+06,   1.62987E+06
C:/temp/Job-25.odb,Step-1,Increment      1: Step Time =    1.000,"P-25-1",           925,       79.7612,       59.7561,            0.,NA,NA,"",   1.47755E+06,   1.47730E+06,   1.47730E+06
C:/temp/Job-25.odb,Step-1,Increment      1: Step Time =    1.000,"P-25-1",           926,       55.8267,       84.3706,            0.,NA,NA,"",   746.785E+03,   679.934E+03,   679.934E+03
C:/temp/Job-25.odb,Step-1,Increment      1: Step Time =    1.000,"P-25-1",           927,       15.5239,       169.147,            0.,NA,NA,"",   1.09654E+06,   1.16477E+06,   1.16477E+06
C:/temp/Job-25.odb,Step-1,Increment      1: Step Time =    1.000,"P-25-1",           928,       168.428,       14.8041,            0.,NA,NA,"",   1.02577E+06,   1.02256E+06,   1.02256E+06
C:/temp/Job-25.odb,Step-1,Increment      1: Step Time =    1.000,"P-25-1",           929,       18.9203,       29.5480,            0.,NA,NA,"",   1.13281E+06,   1.18622E+06,   1.18622E+06
C:/temp/Job-25.odb,Step-1,Increment      1: Step Time =    1.000,"P-25-1",           930,       30.5686,       14.6304,            0.,NA,NA,"",   1.24102E+06,   1.24541E+06,   1.24541E+06
C:/temp/Job-25.odb,Step-1,Increment      1: Step Time =    1.000,"P-25-1",           931,       166.478,       187.214,            0.,NA,NA,"",   1.02248E+06,   1.01953E+06,   1.01953E+06
C:/temp/Job-25.odb,Step-1,Increment      1: Step Time =    1.000,"P-25-1",           932,       185.648,       168.840,            0.,NA,NA,"",   1.00981E+06,   1.01781E+06,   1.01781E+06
C:/temp/Job-25.odb,Step-1,Increment      1: Step Time =    1.000,"P-25-1",           933,       187.686,       33.5629,            0.,NA,NA,"",   1.00319E+06,   1.01467E+06,   1.01467E+06
C:/temp/Job-25.odb,Step-1,Increment      1: Step Time =    1.000,"P-25-1",           934,       30.4560,       184.386,            0.,NA,NA,"",   1.23905E+06,   1.24401E+06,   1.24401E+06
C:/temp/Job-25.odb,Step-1,Increment      1: Step Time =    1.000,"P-25-1",           935,       54.4855,       15.0407,            0.,NA,NA,"",   1.16876E+06,   1.15998E+06,   1.15998E+06
C:/temp/Job-25.odb,Step-1,Increment      1: Step Time =    1.000,"P-25-1",           936,       13.9671,       56.2624,            0.,NA,NA,"",   868.103E+03,   947.243E+03,   947.243E+03
C:/temp/Job-25.odb,Step-1,Increment      1: Step Time =    1.000,"P-25-1",           937,       186.314,       144.739,            0.,NA,NA,"",   986.467E+03,   1.02430E+06,   1.02430E+06
C:/temp/Job-25.odb,Step-1,Increment      1: Step Time =    1.000,"P-25-1",           938,       145.637,       183.835,            0.,NA,NA,"",   1.04610E+06,   1.03715E+06,   1.03715E+06
C:/temp/Job-25.odb,Step-1,Increment      1: Step Time =    1.000,"P-25-1",           939,       183.817,       54.1283,            0.,NA,NA,"",   1.00208E+06,   1.03169E+06,   1.03169E+06
C:/temp/Job-25.odb,Step-1,Increment      1: Step Time =    1.000,"P-25-1",           940,       55.2846,       185.647,            0.,NA,NA,"",   1.16151E+06,   1.15346E+06,   1.15346E+06
C:/temp/Job-25.odb,Step-1,Increment      1: Step Time =    1.000,"P-25-1",           941,       14.2425,       145.304,            0.,NA,NA,"",   881.640E+03,   960.518E+03,   960.518E+03
C:/temp/Job-25.odb,Step-1,Increment      1: Step Time =    1.000,"P-25-1",           942,       144.928,       13.6511,            0.,NA,NA,"",   1.02838E+06,   1.02196E+06,   1.02196E+06
C:/temp/Job-25.odb,Step-1,Increment      1: Step Time =    1.000,"P-25-1",           943,       145.155,       96.0636,            0.,NA,NA,"",   477.007E+03,    446.87E+03,    446.87E+03
C:/temp/Job-25.odb,Step-1,Increment      1: Step Time =    1.000,"P-25-1",           944,       118.010,       141.524,            0.,NA,NA,"",   1.46071E+06,   1.49536E+06,   1.49536E+06
C:/temp/Job-25.odb,Step-1,Increment      1: Step Time =    1.000,"P-25-1",           945,       104.749,       54.0429,            0.,NA,NA,"",   1.31359E+06,   1.43837E+06,   1.43837E+06
C:/temp/Job-25.odb,Step-1,Increment      1: Step Time =    1.000,"P-25-1",           946,       60.6819,       119.221,            0.,NA,NA,"",   928.323E+03,   805.846E+03,   805.846E+03
C:/temp/Job-25.odb,Step-1,Increment      1: Step Time =    1.000,"P-25-1",           947,       111.376,       146.671,            0.,NA,NA,"",   1.32587E+06,   1.41667E+06,   1.41667E+06
C:/temp/Job-25.odb,Step-1,Increment      1: Step Time =    1.000,"P-25-1",           948,       113.081,       56.5646,            0.,NA,NA,"",   1.39487E+06,   1.47645E+06,   1.47645E+06
C:/temp/Job-25.odb,Step-1,Increment      1: Step Time =    1.000,"P-25-1",           949,       96.5868,       146.302,            0.,NA,NA,"",   1.31639E+06,   1.43854E+06,   1.43854E+06
C:/temp/Job-25.odb,Step-1,Increment      1: Step Time =    1.000,"P-25-1",           950,       136.160,       71.6437,            0.,NA,NA,"",   1.40849E+06,   1.22872E+06,   1.22872E+06
C:/temp/Job-25.odb,Step-1,Increment      1: Step Time =    1.000,"P-25-1",           951,       130.775,       68.4323,            0.,NA,NA,"",   1.50625E+06,   1.36357E+06,   1.36357E+06
C:/temp/Job-25.odb,Step-1,Increment      1: Step Time =    1.000,"P-25-1",           952,       68.6136,       72.8686,            0.,NA,NA,"",   1.30164E+06,   1.16431E+06,   1.16431E+06
C:/temp/Job-25.odb,Step-1,Increment      1: Step Time =    1.000,"P-25-1",           953,       150.343,       109.946,            0.,NA,NA,"",   722.532E+03,   685.264E+03,   685.264E+03
C:/temp/Job-25.odb,Step-1,Increment      1: Step Time =    1.000,"P-25-1",           954,       54.2648,       120.266,            0.,NA,NA,"",   855.411E+03,   791.059E+03,   791.059E+03
C:/temp/Job-25.odb,Step-1,Increment      1: Step Time =    1.000,"P-25-1",           955,       145.961,       120.513,            0.,NA,NA,"",   1.08675E+06,   951.537E+03,   951.537E+03
C:/temp/Job-25.odb,Step-1,Increment      1: Step Time =    1.000,"P-25-1",           956,       134.859,       130.316,            0.,NA,NA,"",   1.44550E+06,   1.28249E+06,   1.28249E+06
C:/temp/Job-25.odb,Step-1,Increment      1: Step Time =    1.000,"P-25-1",           957,       181.141,       80.7450,            0.,NA,NA,"",   910.019E+03,   978.120E+03,   978.120E+03
C:/temp/Job-25.odb,Step-1,Increment      1: Step Time =    1.000,"P-25-1",           958,       19.5582,       122.065,            0.,NA,NA,"",   686.213E+03,   761.219E+03,   761.219E+03
C:/temp/Job-25.odb,Step-1,Increment      1: Step Time =    1.000,"P-25-1",           959,       118.830,       180.435,            0.,NA,NA,"",   1.02610E+06,   1.03715E+06,   1.03715E+06
C:/temp/Job-25.odb,Step-1,Increment      1: Step Time =    1.000,"P-25-1",           960,       80.2068,       18.9322,            0.,NA,NA,"",   1.08485E+06,   1.09000E+06,   1.09000E+06
C:/temp/Job-25.odb,Step-1,Increment      1: Step Time =    1.000,"P-25-1",           961,       47.6303,       100.382,            0.,NA,NA,"",   393.267E+03,   438.740E+03,   438.740E+03
C:/temp/Job-25.odb,Step-1,Increment      1: Step Time =    1.000,"P-25-1",           962,       150.239,       100.048,            0.,NA,NA,"",   530.966E+03,   539.546E+03,   539.546E+03
C:/temp/Job-25.odb,Step-1,Increment      1: Step Time =    1.000,"P-25-1",           963,       87.3554,       141.279,            0.,NA,NA,"",   1.45556E+06,   1.53073E+06,   1.53073E+06
C:/temp/Job-25.odb,Step-1,Increment      1: Step Time =    1.000,"P-25-1",           964,       140.468,       125.814,            0.,NA,NA,"",   1.29982E+06,   1.12297E+06,   1.12297E+06
C:/temp/Job-25.odb,Step-1,Increment      1: Step Time =    1.000,"P-25-1",           965,       55.7964,       75.5699,            0.,NA,NA,"",   1.01252E+06,   929.193E+03,   929.193E+03
C:/temp/Job-25.odb,Step-1,Increment      1: Step Time =    1.000,"P-25-1",           966,       131.963,       136.986,            0.,NA,NA,"",   1.48645E+06,   1.37638E+06,   1.37638E+06
C:/temp/Job-25.odb,Step-1,Increment      1: Step Time =    1.000,"P-25-1",           967,       139.839,       130.721,            0.,NA,NA,"",   1.38063E+06,   1.22189E+06,   1.22189E+06
C:/temp/Job-25.odb,Step-1,Increment      1: Step Time =    1.000,"P-25-1",           968,       90.0653,       145.077,            0.,NA,NA,"",   1.36916E+06,   1.46035E+06,   1.46035E+06
C:/temp/Job-25.odb,Step-1,Increment      1: Step Time =    1.000,"P-25-1",           969,       135.307,       67.4448,            0.,NA,NA,"",   1.45779E+06,   1.30450E+06,   1.30450E+06
C:/temp/Job-25.odb,Step-1,Increment      1: Step Time =    1.000,"P-25-1",           970,       9.24070,       56.3117,            0.,NA,NA,"",   844.361E+03,   933.220E+03,   933.220E+03
C:/temp/Job-25.odb,Step-1,Increment      1: Step Time =    1.000,"P-25-1",           971,       55.3466,       190.640,            0.,NA,NA,"",   1.13689E+06,   1.13283E+06,   1.13283E+06
C:/temp/Job-25.odb,Step-1,Increment      1: Step Time =    1.000,"P-25-1",           972,       144.461,       8.89962,            0.,NA,NA,"",   998.618E+03,   995.551E+03,   995.551E+03
C:/temp/Job-25.odb,Step-1,Increment      1: Step Time =    1.000,"P-25-1",           973,       191.151,       144.350,            0.,NA,NA,"",   961.527E+03,   1.01176E+06,   1.01176E+06
C:/temp/Job-25.odb,Step-1,Increment      1: Step Time =    1.000,"P-25-1",           974,       25.0670,       105.583,            0.,NA,NA,"",   562.768E+03,   638.095E+03,   638.095E+03
C:/temp/Job-25.odb,Step-1,Increment      1: Step Time =    1.000,"P-25-1",           975,       93.5150,       25.4442,            0.,NA,NA,"",   1.06536E+06,   1.09875E+06,   1.09875E+06
C:/temp/Job-25.odb,Step-1,Increment      1: Step Time =    1.000,"P-25-1",           976,       176.086,       95.0010,            0.,NA,NA,"",   823.678E+03,   896.320E+03,   896.320E+03
C:/temp/Job-25.odb,Step-1,Increment      1: Step Time =    1.000,"P-25-1",           977,       103.266,       175.348,            0.,NA,NA,"",   1.03787E+06,   1.07372E+06,   1.07372E+06
C:/temp/Job-25.odb,Step-1,Increment      1: Step Time =    1.000,"P-25-1",           978,       25.6256,       115.245,            0.,NA,NA,"",   627.755E+03,   699.362E+03,   699.362E+03
C:/temp/Job-25.odb,Step-1,Increment      1: Step Time =    1.000,"P-25-1",           979,       84.3560,       24.4710,            0.,NA,NA,"",   1.10244E+06,   1.11932E+06,   1.11932E+06
C:/temp/Job-25.odb,Step-1,Increment      1: Step Time =    1.000,"P-25-1",           980,       26.5406,       82.2649,            0.,NA,NA,"",   655.135E+03,   723.188E+03,   723.188E+03
C:/temp/Job-25.odb,Step-1,Increment      1: Step Time =    1.000,"P-25-1",           981,       114.922,       25.3964,            0.,NA,NA,"",   1.06029E+06,   1.08500E+06,   1.08500E+06
C:/temp/Job-25.odb,Step-1,Increment      1: Step Time =    1.000,"P-25-1",           982,       175.245,       114.466,            0.,NA,NA,"",   876.865E+03,   933.793E+03,   933.793E+03
C:/temp/Job-25.odb,Step-1,Increment      1: Step Time =    1.000,"P-25-1",           983,       113.454,       175.599,            0.,NA,NA,"",   1.04908E+06,   1.07478E+06,   1.07478E+06
C:/temp/Job-25.odb,Step-1,Increment      1: Step Time =    1.000,"P-25-1",           984,       83.9026,       175.719,            0.,NA,NA,"",   1.10353E+06,   1.11973E+06,   1.11973E+06
C:/temp/Job-25.odb,Step-1,Increment      1: Step Time =    1.000,"P-25-1",           985,       176.239,       85.5484,            0.,NA,NA,"",   878.767E+03,   938.593E+03,   938.593E+03
C:/temp/Job-25.odb,Step-1,Increment      1: Step Time =    1.000,"P-25-1",           986,       24.0695,       136.096,            0.,NA,NA,"",   851.664E+03,   909.494E+03,   909.494E+03
C:/temp/Job-25.odb,Step-1,Increment      1: Step Time =    1.000,"P-25-1",           987,       137.919,       27.0274,            0.,NA,NA,"",   1.12679E+06,   1.11101E+06,   1.11101E+06
C:/temp/Job-25.odb,Step-1,Increment      1: Step Time =    1.000,"P-25-1",           988,       64.7004,       27.0254,            0.,NA,NA,"",   1.20664E+06,   1.19078E+06,   1.19078E+06
C:/temp/Job-25.odb,Step-1,Increment      1: Step Time =    1.000,"P-25-1",           989,       27.8590,       65.0691,            0.,NA,NA,"",   867.447E+03,   914.369E+03,   914.369E+03
C:/temp/Job-25.odb,Step-1,Increment      1: Step Time =    1.000,"P-25-1",           990,       66.2714,       174.073,            0.,NA,NA,"",   1.19652E+06,   1.18248E+06,   1.18248E+06
C:/temp/Job-25.odb,Step-1,Increment      1: Step Time =    1.000,"P-25-1",           991,       173.573,       65.7005,            0.,NA,NA,"",   1.03294E+06,   1.04300E+06,   1.04300E+06
C:/temp/Job-25.odb,Step-1,Increment      1: Step Time =    1.000,"P-25-1",           992,       171.800,       134.771,            0.,NA,NA,"",   1.04923E+06,   1.05000E+06,   1.05000E+06
C:/temp/Job-25.odb,Step-1,Increment      1: Step Time =    1.000,"P-25-1",           993,       134.477,       173.677,            0.,NA,NA,"",   1.12016E+06,   1.10906E+06,   1.10906E+06
C:/temp/Job-25.odb,Step-1,Increment      1: Step Time =    1.000,"P-25-1",           994,       144.838,       80.2654,            0.,NA,NA,"",   1.08820E+06,   944.771E+03,   944.771E+03
C:/temp/Job-25.odb,Step-1,Increment      1: Step Time =    1.000,"P-25-1",           995,       89.5893,       57.5283,            0.,NA,NA,"",   1.42971E+06,   1.52480E+06,   1.52480E+06
C:/temp/Job-25.odb,Step-1,Increment      1: Step Time =    1.000,"P-25-1",           996,       76.5063,       56.0086,            0.,NA,NA,"",   1.42873E+06,   1.41093E+06,   1.41093E+06
C:/temp/Job-25.odb,Step-1,Increment      1: Step Time =    1.000,"P-25-1",           997,       59.1512,       86.8352,            0.,NA,NA,"",   669.633E+03,   577.396E+03,   577.396E+03
C:/temp/Job-25.odb,Step-1,Increment      1: Step Time =    1.000,"P-25-1",           998,       172.300,       15.0251,            0.,NA,NA,"",   1.02138E+06,   1.01955E+06,   1.01955E+06
C:/temp/Job-25.odb,Step-1,Increment      1: Step Time =    1.000,"P-25-1",           999,       19.6622,       164.890,            0.,NA,NA,"",   1.08749E+06,   1.14202E+06,   1.14202E+06
C:/temp/Job-25.odb,Step-1,Increment      1: Step Time =    1.000,"P-25-1",          1000,       164.539,       19.8417,            0.,NA,NA,"",   1.04873E+06,   1.04111E+06,   1.04111E+06
C:/temp/Job-25.odb,Step-1,Increment      1: Step Time =    1.000,"P-25-1",          1001,       34.9917,       19.0673,            0.,NA,NA,"",   1.22421E+06,   1.22463E+06,   1.22463E+06
C:/temp/Job-25.odb,Step-1,Increment      1: Step Time =    1.000,"P-25-1",          1002,       19.1252,       33.4963,            0.,NA,NA,"",   1.09874E+06,   1.15457E+06,   1.15457E+06
C:/temp/Job-25.odb,Step-1,Increment      1: Step Time =    1.000,"P-25-1",          1003,       26.1388,       15.1361,            0.,NA,NA,"",   1.25334E+06,   1.26492E+06,   1.26492E+06
C:/temp/Job-25.odb,Step-1,Increment      1: Step Time =    1.000,"P-25-1",          1004,       14.3887,       25.7449,            0.,NA,NA,"",   1.14218E+06,   1.20982E+06,   1.20982E+06
C:/temp/Job-25.odb,Step-1,Increment      1: Step Time =    1.000,"P-25-1",          1005,       185.593,       172.761,            0.,NA,NA,"",   1.00929E+06,   1.01508E+06,   1.01508E+06
C:/temp/Job-25.odb,Step-1,Increment      1: Step Time =    1.000,"P-25-1",          1006,       170.431,       187.512,            0.,NA,NA,"",   1.01842E+06,   1.01665E+06,   1.01665E+06
C:/temp/Job-25.odb,Step-1,Increment      1: Step Time =    1.000,"P-25-1",          1007,       163.242,       183.732,            0.,NA,NA,"",   1.03702E+06,   1.03108E+06,   1.03108E+06
C:/temp/Job-25.odb,Step-1,Increment      1: Step Time =    1.000,"P-25-1",          1008,       180.745,       165.393,            0.,NA,NA,"",   1.02932E+06,   1.03420E+06,   1.03420E+06
C:/temp/Job-25.odb,Step-1,Increment      1: Step Time =    1.000,"P-25-1",          1009,       184.351,       36.6324,            0.,NA,NA,"",   1.01338E+06,   1.02464E+06,   1.02464E+06
C:/temp/Job-25.odb,Step-1,Increment      1: Step Time =    1.000,"P-25-1",          1010,       35.1435,       179.191,            0.,NA,NA,"",   1.22205E+06,   1.22302E+06,   1.22302E+06
C:/temp/Job-25.odb,Step-1,Increment      1: Step Time =    1.000,"P-25-1",          1011,       188.016,       29.6473,            0.,NA,NA,"",   1.00382E+06,   1.01222E+06,   1.01222E+06
C:/temp/Job-25.odb,Step-1,Increment      1: Step Time =    1.000,"P-25-1",          1012,       25.5180,       184.205,            0.,NA,NA,"",   1.25220E+06,   1.26534E+06,   1.26534E+06
C:/temp/Job-25.odb,Step-1,Increment      1: Step Time =    1.000,"P-25-1",          1013,       122.014,       139.428,            0.,NA,NA,"",   1.50483E+06,   1.48963E+06,   1.48963E+06
C:/temp/Job-25.odb,Step-1,Increment      1: Step Time =    1.000,"P-25-1",          1014,       100.661,       143.363,            0.,NA,NA,"",   1.38773E+06,   1.52979E+06,   1.52979E+06
C:/temp/Job-25.odb,Step-1,Increment      1: Step Time =    1.000,"P-25-1",          1015,       50.0321,       122.347,            0.,NA,NA,"",   869.962E+03,    831.92E+03,    831.92E+03
C:/temp/Job-25.odb,Step-1,Increment      1: Step Time =    1.000,"P-25-1",          1016,       151.362,       119.624,            0.,NA,NA,"",   1.00887E+06,   924.791E+03,   924.791E+03
C:/temp/Job-25.odb,Step-1,Increment      1: Step Time =    1.000,"P-25-1",          1017,       49.6539,       103.499,            0.,NA,NA,"",   399.798E+03,   434.200E+03,   434.200E+03
C:/temp/Job-25.odb,Step-1,Increment      1: Step Time =    1.000,"P-25-1",          1018,       150.257,       105.087,            0.,NA,NA,"",   589.327E+03,   583.253E+03,   583.253E+03
C:/temp/Job-25.odb,Step-1,Increment      1: Step Time =    1.000,"P-25-1",          1019,       83.9665,       143.747,            0.,NA,NA,"",   1.42349E+06,   1.46599E+06,   1.46599E+06
C:/temp/Job-25.odb,Step-1,Increment      1: Step Time =    1.000,"P-25-1",          1020,       58.1685,       71.3865,            0.,NA,NA,"",    1.1425E+06,   1.04640E+06,   1.04640E+06
C:/temp/Job-25.odb,Step-1,Increment      1: Step Time =    1.000,"P-25-1",          1021,       53.3708,       80.2499,            0.,NA,NA,"",   852.897E+03,   793.964E+03,   793.964E+03
C:/temp/Job-25.odb,Step-1,Increment      1: Step Time =    1.000,"P-25-1",          1022,       73.5555,       70.8524,            0.,NA,NA,"",   1.42524E+06,   1.32369E+06,   1.32369E+06
C:/temp/Job-25.odb,Step-1,Increment      1: Step Time =    1.000,"P-25-1",          1023,       75.3492,       23.5171,            0.,NA,NA,"",   1.14258E+06,   1.14215E+06,   1.14215E+06
C:/temp/Job-25.odb,Step-1,Increment      1: Step Time =    1.000,"P-25-1",          1024,       124.218,       176.260,            0.,NA,NA,"",   1.07619E+06,   1.08188E+06,   1.08188E+06
C:/temp/Job-25.odb,Step-1,Increment      1: Step Time =    1.000,"P-25-1",          1025,       27.4626,       126.994,            0.,NA,NA,"",   768.910E+03,   825.543E+03,   825.543E+03
C:/temp/Job-25.odb,Step-1,Increment      1: Step Time =    1.000,"P-25-1",          1026,       176.811,       75.9345,            0.,NA,NA,"",   952.014E+03,   993.750E+03,   993.750E+03
C:/temp/Job-25.odb,Step-1,Increment      1: Step Time =    1.000,"P-25-1",          1027,       57.9020,       124.398,            0.,NA,NA,"",   1.03197E+06,   932.779E+03,   932.779E+03
C:/temp/Job-25.odb,Step-1,Increment      1: Step Time =    1.000,"P-25-1",          1028,       28.4899,       91.8381,            0.,NA,NA,"",   563.752E+03,   635.791E+03,   635.791E+03
C:/temp/Job-25.odb,Step-1,Increment      1: Step Time =    1.000,"P-25-1",          1029,       104.039,       25.5585,            0.,NA,NA,"",   1.04202E+06,   1.08040E+06,   1.08040E+06
C:/temp/Job-25.odb,Step-1,Increment      1: Step Time =    1.000,"P-25-1",          1030,       174.145,       103.991,            0.,NA,NA,"",   809.921E+03,   878.008E+03,   878.008E+03
C:/temp/Job-25.odb,Step-1,Increment      1: Step Time =    1.000,"P-25-1",          1031,       94.7906,       176.561,            0.,NA,NA,"",   1.04610E+06,   1.07662E+06,   1.07662E+06
C:/temp/Job-25.odb,Step-1,Increment      1: Step Time =    1.000,"P-25-1",          1032,       64.5183,       70.0530,            0.,NA,NA,"",   1.27965E+06,   1.15922E+06,   1.15922E+06
C:/temp/Job-25.odb,Step-1,Increment      1: Step Time =    1.000,"P-25-1",          1033,       130.274,       63.8078,            0.,NA,NA,"",   1.51142E+06,   1.40522E+06,   1.40522E+06
C:/temp/Job-25.odb,Step-1,Increment      1: Step Time =    1.000,"P-25-1",          1034,       155.949,       114.278,            0.,NA,NA,"",   850.874E+03,   825.645E+03,   825.645E+03
C:/temp/Job-25.odb,Step-1,Increment      1: Step Time =    1.000,"P-25-1",          1035,       99.0373,       150.513,            0.,NA,NA,"",   1.23514E+06,   1.34835E+06,   1.34835E+06
C:/temp/Job-25.odb,Step-1,Increment      1: Step Time =    1.000,"P-25-1",          1036,       119.522,       56.5233,            0.,NA,NA,"",   1.42303E+06,   1.44776E+06,   1.44776E+06
C:/temp/Job-25.odb,Step-1,Increment      1: Step Time =    1.000,"P-25-1",          1037,       116.962,       147.149,            0.,NA,NA,"",   1.35342E+06,   1.40125E+06,   1.40125E+06
C:/temp/Job-25.odb,Step-1,Increment      1: Step Time =    1.000,"P-25-1",          1038,       156.288,       95.6439,            0.,NA,NA,"",   644.941E+03,   666.949E+03,   666.949E+03
C:/temp/Job-25.odb,Step-1,Increment      1: Step Time =    1.000,"P-25-1",          1039,       45.7597,       96.7300,            0.,NA,NA,"",   426.301E+03,   474.364E+03,   474.364E+03
C:/temp/Job-25.odb,Step-1,Increment      1: Step Time =    1.000,"P-25-1",          1040,       145.931,       89.6108,            0.,NA,NA,"",   732.872E+03,   651.942E+03,   651.942E+03
C:/temp/Job-25.odb,Step-1,Increment      1: Step Time =    1.000,"P-25-1",          1041,       124.789,       144.472,            0.,NA,NA,"",   1.42909E+06,   1.40377E+06,   1.40377E+06
C:/temp/Job-25.odb,Step-1,Increment      1: Step Time =    1.000,"P-25-1",          1042,       121.290,       149.245,            0.,NA,NA,"",   1.35146E+06,   1.36322E+06,   1.36322E+06
C:/temp/Job-25.odb,Step-1,Increment      1: Step Time =    1.000,"P-25-1",          1043,       88.5248,       151.259,            0.,NA,NA,"",   1.28852E+06,   1.35751E+06,   1.35751E+06
C:/temp/Job-25.odb,Step-1,Increment      1: Step Time =    1.000,"P-25-1",          1044,       130.490,       20.0076,            0.,NA,NA,"",   1.05701E+06,   1.05395E+06,   1.05395E+06
C:/temp/Job-25.odb,Step-1,Increment      1: Step Time =    1.000,"P-25-1",          1045,       70.1113,       176.930,            0.,NA,NA,"",   1.16278E+06,   1.15522E+06,   1.15522E+06
C:/temp/Job-25.odb,Step-1,Increment      1: Step Time =    1.000,"P-25-1",          1046,       24.3041,       68.6322,            0.,NA,NA,"",   804.214E+03,   864.188E+03,   864.188E+03
C:/temp/Job-25.odb,Step-1,Increment      1: Step Time =    1.000,"P-25-1",          1047,       175.643,       129.438,            0.,NA,NA,"",   990.219E+03,   1.01712E+06,   1.01712E+06
C:/temp/Job-25.odb,Step-1,Increment      1: Step Time =    1.000,"P-25-1",          1048,       35.2893,       23.2915,            0.,NA,NA,"",   1.21657E+06,   1.21732E+06,   1.21732E+06
C:/temp/Job-25.odb,Step-1,Increment      1: Step Time =    1.000,"P-25-1",          1049,       24.1619,       36.6918,            0.,NA,NA,"",   1.10389E+06,   1.14451E+06,   1.14451E+06
C:/temp/Job-25.odb,Step-1,Increment      1: Step Time =    1.000,"P-25-1",          1050,       22.9788,       161.546,            0.,NA,NA,"",   1.08038E+06,   1.12673E+06,   1.12673E+06
C:/temp/Job-25.odb,Step-1,Increment      1: Step Time =    1.000,"P-25-1",          1051,       165.078,       24.1559,            0.,NA,NA,"",   1.06390E+06,   1.05360E+06,   1.05360E+06
C:/temp/Job-25.odb,Step-1,Increment      1: Step Time =    1.000,"P-25-1",          1052,       179.106,       36.5527,            0.,NA,NA,"",   1.03670E+06,   1.04036E+06,   1.04036E+06
C:/temp/Job-25.odb,Step-1,Increment      1: Step Time =    1.000,"P-25-1",          1053,       35.5745,       174.309,            0.,NA,NA,"",   1.21217E+06,   1.21383E+06,   1.21383E+06
C:/temp/Job-25.odb,Step-1,Increment      1: Step Time =    1.000,"P-25-1",          1054,       162.940,       178.195,            0.,NA,NA,"",   1.05893E+06,   1.04922E+06,   1.04922E+06
C:/temp/Job-25.odb,Step-1,Increment      1: Step Time =    1.000,"P-25-1",          1055,       177.037,       166.701,            0.,NA,NA,"",   1.04299E+06,   1.04291E+06,   1.04291E+06
C:/temp/Job-25.odb,Step-1,Increment      1: Step Time =    1.000,"P-25-1",          1056,       135.231,       134.175,            0.,NA,NA,"",   1.46313E+06,   1.32093E+06,   1.32093E+06
C:/temp/Job-25.odb,Step-1,Increment      1: Step Time =    1.000,"P-25-1",          1057,       127.545,       141.541,            0.,NA,NA,"",   1.46847E+06,   1.41049E+06,   1.41049E+06
C:/temp/Job-25.odb,Step-1,Increment      1: Step Time =    1.000,"P-25-1",          1058,       140.396,       70.3474,            0.,NA,NA,"",   1.36154E+06,   1.19898E+06,   1.19898E+06
C:/temp/Job-25.odb,Step-1,Increment      1: Step Time =    1.000,"P-25-1",          1059,       90.4397,       29.7168,            0.,NA,NA,"",   1.10518E+06,   1.14325E+06,   1.14325E+06
C:/temp/Job-25.odb,Step-1,Increment      1: Step Time =    1.000,"P-25-1",          1060,       171.467,       90.5381,            0.,NA,NA,"",   824.003E+03,   877.783E+03,   877.783E+03
C:/temp/Job-25.odb,Step-1,Increment      1: Step Time =    1.000,"P-25-1",          1061,       112.114,       170.534,            0.,NA,NA,"",   1.08182E+06,   1.11919E+06,   1.11919E+06
C:/temp/Job-25.odb,Step-1,Increment      1: Step Time =    1.000,"P-25-1",          1062,       29.7021,       79.8853,            0.,NA,NA,"",   690.587E+03,   750.268E+03,   750.268E+03
C:/temp/Job-25.odb,Step-1,Increment      1: Step Time =    1.000,"P-25-1",          1063,       120.032,       28.4721,            0.,NA,NA,"",   1.10180E+06,   1.11922E+06,   1.11922E+06
C:/temp/Job-25.odb,Step-1,Increment      1: Step Time =    1.000,"P-25-1",          1064,       27.6768,       123.681,            0.,NA,NA,"",   729.855E+03,   789.651E+03,   789.651E+03
C:/temp/Job-25.odb,Step-1,Increment      1: Step Time =    1.000,"P-25-1",          1065,       80.4547,       28.4612,            0.,NA,NA,"",   1.15429E+06,   1.16609E+06,   1.16609E+06
C:/temp/Job-25.odb,Step-1,Increment      1: Step Time =    1.000,"P-25-1",          1066,       170.448,       119.058,            0.,NA,NA,"",   916.961E+03,   945.899E+03,   945.899E+03
C:/temp/Job-25.odb,Step-1,Increment      1: Step Time =    1.000,"P-25-1",          1067,       78.7337,       173.105,            0.,NA,NA,"",   1.15137E+06,   1.15813E+06,   1.15813E+06
C:/temp/Job-25.odb,Step-1,Increment      1: Step Time =    1.000,"P-25-1",          1068,       121.529,       170.785,            0.,NA,NA,"",   1.11468E+06,   1.12868E+06,   1.12868E+06
C:/temp/Job-25.odb,Step-1,Increment      1: Step Time =    1.000,"P-25-1",          1069,       171.918,       80.6252,            0.,NA,NA,"",   923.350E+03,   955.751E+03,   955.751E+03
C:/temp/Job-25.odb,Step-1,Increment      1: Step Time =    1.000,"P-25-1",          1070,       28.6377,       141.244,            0.,NA,NA,"",   940.272E+03,   979.576E+03,   979.576E+03
C:/temp/Job-25.odb,Step-1,Increment      1: Step Time =    1.000,"P-25-1",          1071,       140.168,       30.0268,            0.,NA,NA,"",   1.15312E+06,   1.13159E+06,   1.13159E+06
C:/temp/Job-25.odb,Step-1,Increment      1: Step Time =    1.000,"P-25-1",          1072,       58.4548,       32.6081,            0.,NA,NA,"",   1.24559E+06,   1.21929E+06,   1.21929E+06
C:/temp/Job-25.odb,Step-1,Increment      1: Step Time =    1.000,"P-25-1",          1073,       31.2051,       61.5547,            0.,NA,NA,"",   933.184E+03,   965.444E+03,   965.444E+03
C:/temp/Job-25.odb,Step-1,Increment      1: Step Time =    1.000,"P-25-1",          1074,       63.9524,       172.303,            0.,NA,NA,"",   1.21187E+06,   1.19448E+06,   1.19448E+06
C:/temp/Job-25.odb,Step-1,Increment      1: Step Time =    1.000,"P-25-1",          1075,       168.843,       60.4573,            0.,NA,NA,"",   1.09272E+06,   1.07728E+06,   1.07728E+06
C:/temp/Job-25.odb,Step-1,Increment      1: Step Time =    1.000,"P-25-1",          1076,       139.571,       169.342,            0.,NA,NA,"",   1.16264E+06,   1.13915E+06,   1.13915E+06
C:/temp/Job-25.odb,Step-1,Increment      1: Step Time =    1.000,"P-25-1",          1077,       147.068,       75.7908,            0.,NA,NA,"",   1.17000E+06,   1.04262E+06,   1.04262E+06
C:/temp/Job-25.odb,Step-1,Increment      1: Step Time =    1.000,"P-25-1",          1078,       73.2006,       58.9384,            0.,NA,NA,"",   1.43739E+06,   1.38956E+06,   1.38956E+06
C:/temp/Job-25.odb,Step-1,Increment      1: Step Time =    1.000,"P-25-1",          1079,       62.1034,       90.1102,            0.,NA,NA,"",   535.110E+03,   411.939E+03,   411.939E+03
C:/temp/Job-25.odb,Step-1,Increment      1: Step Time =    1.000,"P-25-1",          1080,       173.770,       10.6839,            0.,NA,NA,"",   1.01250E+06,   1.01159E+06,   1.01159E+06
C:/temp/Job-25.odb,Step-1,Increment      1: Step Time =    1.000,"P-25-1",          1081,       19.7748,       171.933,            0.,NA,NA,"",   1.15080E+06,   1.19837E+06,   1.19837E+06
C:/temp/Job-25.odb,Step-1,Increment      1: Step Time =    1.000,"P-25-1",          1082,       172.001,       18.5315,            0.,NA,NA,"",   1.02954E+06,   1.02678E+06,   1.02678E+06
C:/temp/Job-25.odb,Step-1,Increment      1: Step Time =    1.000,"P-25-1",          1083,       15.9086,       160.409,            0.,NA,NA,"",   1.02229E+06,   1.09396E+06,   1.09396E+06
C:/temp/Job-25.odb,Step-1,Increment      1: Step Time =    1.000,"P-25-1",          1084,       159.621,       16.5622,            0.,NA,NA,"",   1.04292E+06,   1.03551E+06,   1.03551E+06
C:/temp/Job-25.odb,Step-1,Increment      1: Step Time =    1.000,"P-25-1",          1085,       9.57295,       29.8394,            0.,NA,NA,"",   1.06159E+06,   1.15289E+06,   1.15289E+06
C:/temp/Job-25.odb,Step-1,Increment      1: Step Time =    1.000,"P-25-1",          1086,       26.6764,       19.9605,            0.,NA,NA,"",   1.22720E+06,   1.24379E+06,   1.24379E+06
C:/temp/Job-25.odb,Step-1,Increment      1: Step Time =    1.000,"P-25-1",          1087,       18.9121,       25.7422,            0.,NA,NA,"",   1.16585E+06,   1.21539E+06,   1.21539E+06
C:/temp/Job-25.odb,Step-1,Increment      1: Step Time =    1.000,"P-25-1",          1088,       39.5082,       14.4907,            0.,NA,NA,"",   1.21355E+06,   1.21028E+06,   1.21028E+06
C:/temp/Job-25.odb,Step-1,Increment      1: Step Time =    1.000,"P-25-1",          1089,       16.0228,       42.2630,            0.,NA,NA,"",   998.290E+03,   1.07033E+06,   1.07033E+06
C:/temp/Job-25.odb,Step-1,Increment      1: Step Time =    1.000,"P-25-1",          1090,       182.244,       172.766,            0.,NA,NA,"",   1.01744E+06,   1.02151E+06,   1.02151E+06
C:/temp/Job-25.odb,Step-1,Increment      1: Step Time =    1.000,"P-25-1",          1091,       170.400,       184.037,            0.,NA,NA,"",   1.02578E+06,   1.02312E+06,   1.02312E+06
C:/temp/Job-25.odb,Step-1,Increment      1: Step Time =    1.000,"P-25-1",          1092,       158.724,       186.220,            0.,NA,NA,"",   1.03096E+06,   1.02539E+06,   1.02539E+06
C:/temp/Job-25.odb,Step-1,Increment      1: Step Time =    1.000,"P-25-1",          1093,       183.588,       160.082,            0.,NA,NA,"",   1.01764E+06,   1.02979E+06,   1.02979E+06
C:/temp/Job-25.odb,Step-1,Increment      1: Step Time =    1.000,"P-25-1",          1094,       189.736,       173.964,            0.,NA,NA,"",   1.00217E+06,   1.00835E+06,   1.00835E+06
C:/temp/Job-25.odb,Step-1,Increment      1: Step Time =    1.000,"P-25-1",          1095,       26.2779,       179.044,            0.,NA,NA,"",   1.22361E+06,   1.24197E+06,   1.24197E+06
C:/temp/Job-25.odb,Step-1,Increment      1: Step Time =    1.000,"P-25-1",          1096,       184.906,       29.7530,            0.,NA,NA,"",   1.01068E+06,   1.01775E+06,   1.01775E+06
C:/temp/Job-25.odb,Step-1,Increment      1: Step Time =    1.000,"P-25-1",          1097,       25.2656,       189.473,            0.,NA,NA,"",   1.26897E+06,   1.27561E+06,   1.27561E+06
C:/temp/Job-25.odb,Step-1,Increment      1: Step Time =    1.000,"P-25-1",          1098,       186.503,       41.1224,            0.,NA,NA,"",   1.00278E+06,   1.02113E+06,   1.02113E+06
C:/temp/Job-25.odb,Step-1,Increment      1: Step Time =    1.000,"P-25-1",          1099,       39.4072,       179.040,            0.,NA,NA,"",   1.21795E+06,   1.21361E+06,   1.21361E+06
C:/temp/Job-25.odb,Step-1,Increment      1: Step Time =    1.000,"P-25-1",          1100,       153.379,       9.31140,            0.,NA,NA,"",   1.01150E+06,   1.00816E+06,   1.00816E+06
C:/temp/Job-25.odb,Step-1,Increment      1: Step Time =    1.000,"P-25-1",          1101,       190.753,       153.367,            0.,NA,NA,"",   980.783E+03,   1.01240E+06,   1.01240E+06
C:/temp/Job-25.odb,Step-1,Increment      1: Step Time =    1.000,"P-25-1",          1102,       46.1111,       190.344,            0.,NA,NA,"",   1.17983E+06,   1.17629E+06,   1.17629E+06
C:/temp/Job-25.odb,Step-1,Increment      1: Step Time =    1.000,"P-25-1",          1103,       48.5229,       118.305,            0.,NA,NA,"",   750.858E+03,   735.525E+03,   735.525E+03
C:/temp/Job-25.odb,Step-1,Increment      1: Step Time =    1.000,"P-25-1",          1104,       50.6097,       109.230,            0.,NA,NA,"",   512.895E+03,   522.456E+03,   522.456E+03
C:/temp/Job-25.odb,Step-1,Increment      1: Step Time =    1.000,"P-25-1",          1105,       155.892,       100.301,            0.,NA,NA,"",   617.149E+03,   643.152E+03,   643.152E+03
C:/temp/Job-25.odb,Step-1,Increment      1: Step Time =    1.000,"P-25-1",          1106,       66.9724,       65.9731,            0.,NA,NA,"",   1.37305E+06,   1.26817E+06,   1.26817E+06
C:/temp/Job-25.odb,Step-1,Increment      1: Step Time =    1.000,"P-25-1",          1107,       69.9138,       27.8731,            0.,NA,NA,"",   1.19690E+06,   1.18703E+06,   1.18703E+06
C:/temp/Job-25.odb,Step-1,Increment      1: Step Time =    1.000,"P-25-1",          1108,       129.834,       172.656,            0.,NA,NA,"",   1.12026E+06,   1.11604E+06,   1.11604E+06
C:/temp/Job-25.odb,Step-1,Increment      1: Step Time =    1.000,"P-25-1",          1109,       172.828,       70.7225,            0.,NA,NA,"",   1.00699E+06,   1.02226E+06,   1.02226E+06
C:/temp/Job-25.odb,Step-1,Increment      1: Step Time =    1.000,"P-25-1",          1110,       60.5881,       67.2398,            0.,NA,NA,"",   1.24841E+06,   1.14954E+06,   1.14954E+06
C:/temp/Job-25.odb,Step-1,Increment      1: Step Time =    1.000,"P-25-1",          1111,       23.7101,       92.9337,            0.,NA,NA,"",   569.523E+03,   645.754E+03,   645.754E+03
C:/temp/Job-25.odb,Step-1,Increment      1: Step Time =    1.000,"P-25-1",          1112,       109.443,       25.5903,            0.,NA,NA,"",   1.04873E+06,   1.08220E+06,   1.08220E+06
C:/temp/Job-25.odb,Step-1,Increment      1: Step Time =    1.000,"P-25-1",          1113,       27.2439,       96.4037,            0.,NA,NA,"",   548.373E+03,   622.497E+03,   622.497E+03
C:/temp/Job-25.odb,Step-1,Increment      1: Step Time =    1.000,"P-25-1",          1114,       98.5919,       29.4458,            0.,NA,NA,"",   1.07375E+06,   1.12151E+06,   1.12151E+06
C:/temp/Job-25.odb,Step-1,Increment      1: Step Time =    1.000,"P-25-1",          1115,       174.858,       109.386,            0.,NA,NA,"",   840.512E+03,   904.349E+03,   904.349E+03
C:/temp/Job-25.odb,Step-1,Increment      1: Step Time =    1.000,"P-25-1",          1116,       171.992,       99.6760,            0.,NA,NA,"",   787.900E+03,   851.826E+03,   851.826E+03
C:/temp/Job-25.odb,Step-1,Increment      1: Step Time =    1.000,"P-25-1",          1117,       89.5890,       174.372,            0.,NA,NA,"",   1.08230E+06,   1.11071E+06,   1.11071E+06
C:/temp/Job-25.odb,Step-1,Increment      1: Step Time =    1.000,"P-25-1",          1118,       100.291,       171.591,            0.,NA,NA,"",   1.06286E+06,   1.10847E+06,   1.10847E+06
C:/temp/Job-25.odb,Step-1,Increment      1: Step Time =    1.000,"P-25-1",          1119,       148.825,       134.557,            0.,NA,NA,"",   1.28289E+06,   1.17082E+06,   1.17082E+06
C:/temp/Job-25.odb,Step-1,Increment      1: Step Time =    1.000,"P-25-1",          1120,       130.056,       54.5746,            0.,NA,NA,"",   1.41652E+06,   1.36202E+06,   1.36202E+06
C:/temp/Job-25.odb,Step-1,Increment      1: Step Time =    1.000,"P-25-1",          1121,       124.395,       53.9310,            0.,NA,NA,"",   1.40143E+06,   1.38847E+06,   1.38847E+06
C:/temp/Job-25.odb,Step-1,Increment      1: Step Time =    1.000,"P-25-1",          1122,       155.749,       109.710,            0.,NA,NA,"",   743.009E+03,   740.213E+03,   740.213E+03
C:/temp/Job-25.odb,Step-1,Increment      1: Step Time =    1.000,"P-25-1",          1123,       94.6332,       152.928,            0.,NA,NA,"",   1.22445E+06,   1.31870E+06,   1.31870E+06
C:/temp/Job-25.odb,Step-1,Increment      1: Step Time =    1.000,"P-25-1",          1124,       153.238,       89.8212,            0.,NA,NA,"",   748.035E+03,   727.532E+03,   727.532E+03
C:/temp/Job-25.odb,Step-1,Increment      1: Step Time =    1.000,"P-25-1",          1125,       41.5594,       98.9729,            0.,NA,NA,"",   460.339E+03,   517.881E+03,   517.881E+03
C:/temp/Job-25.odb,Step-1,Increment      1: Step Time =    1.000,"P-25-1",          1126,       48.0855,       90.4955,            0.,NA,NA,"",   516.623E+03,   539.580E+03,   539.580E+03
C:/temp/Job-25.odb,Step-1,Increment      1: Step Time =    1.000,"P-25-1",          1127,       134.692,       58.7787,            0.,NA,NA,"",   1.44269E+06,   1.34402E+06,   1.34402E+06
C:/temp/Job-25.odb,Step-1,Increment      1: Step Time =    1.000,"P-25-1",          1128,       58.1664,       130.412,            0.,NA,NA,"",   1.17239E+06,   1.07752E+06,   1.07752E+06
C:/temp/Job-25.odb,Step-1,Increment      1: Step Time =    1.000,"P-25-1",          1129,       58.4129,       92.2029,            0.,NA,NA,"",   448.724E+03,   387.179E+03,   387.179E+03
C:/temp/Job-25.odb,Step-1,Increment      1: Step Time =    1.000,"P-25-1",          1130,       58.9828,       60.2982,            0.,NA,NA,"",   1.28315E+06,   1.20728E+06,   1.20728E+06
C:/temp/Job-25.odb,Step-1,Increment      1: Step Time =    1.000,"P-25-1",          1131,       134.838,       54.5288,            0.,NA,NA,"",   1.40386E+06,   1.32626E+06,   1.32626E+06
C:/temp/Job-25.odb,Step-1,Increment      1: Step Time =    1.000,"P-25-1",          1132,       145.608,       72.4724,            0.,NA,NA,"",   1.24825E+06,   1.11195E+06,   1.11195E+06
C:/temp/Job-25.odb,Step-1,Increment      1: Step Time =    1.000,"P-25-1",          1133,       151.613,       12.8822,            0.,NA,NA,"",   1.02705E+06,   1.02120E+06,   1.02120E+06
C:/temp/Job-25.odb,Step-1,Increment      1: Step Time =    1.000,"P-25-1",          1134,       15.0173,       48.1018,            0.,NA,NA,"",   948.723E+03,   1.02397E+06,   1.02397E+06
C:/temp/Job-25.odb,Step-1,Increment      1: Step Time =    1.000,"P-25-1",          1135,       187.155,       151.615,            0.,NA,NA,"",   992.773E+03,   1.02171E+06,   1.02171E+06
C:/temp/Job-25.odb,Step-1,Increment      1: Step Time =    1.000,"P-25-1",          1136,       47.5532,       186.166,            0.,NA,NA,"",   1.18826E+06,   1.18175E+06,   1.18175E+06
C:/temp/Job-25.odb,Step-1,Increment      1: Step Time =    1.000,"P-25-1",          1137,       69.9109,       62.1441,            0.,NA,NA,"",   1.42215E+06,   1.34438E+06,   1.34438E+06
C:/temp/Job-25.odb,Step-1,Increment      1: Step Time =    1.000,"P-25-1",          1138,       115.283,       156.124,            0.,NA,NA,"",   1.22372E+06,   1.27587E+06,   1.27587E+06
C:/temp/Job-25.odb,Step-1,Increment      1: Step Time =    1.000,"P-25-1",          1139,       24.3815,       74.9250,            0.,NA,NA,"",   732.555E+03,   797.888E+03,   797.888E+03
C:/temp/Job-25.odb,Step-1,Increment      1: Step Time =    1.000,"P-25-1",          1140,       175.195,       124.449,            0.,NA,NA,"",   956.257E+03,   992.019E+03,   992.019E+03
C:/temp/Job-25.odb,Step-1,Increment      1: Step Time =    1.000,"P-25-1",          1141,       125.328,       25.3143,            0.,NA,NA,"",   1.09127E+06,   1.09505E+06,   1.09505E+06
C:/temp/Job-25.odb,Step-1,Increment      1: Step Time =    1.000,"P-25-1",          1142,       74.6133,       176.555,            0.,NA,NA,"",   1.14602E+06,   1.14432E+06,   1.14432E+06
C:/temp/Job-25.odb,Step-1,Increment      1: Step Time =    1.000,"P-25-1",          1143,       28.0737,       35.0841,            0.,NA,NA,"",   1.13868E+06,   1.16523E+06,   1.16523E+06
C:/temp/Job-25.odb,Step-1,Increment      1: Step Time =    1.000,"P-25-1",          1144,       32.3782,       28.6975,            0.,NA,NA,"",   1.19358E+06,   1.20320E+06,   1.20320E+06
C:/temp/Job-25.odb,Step-1,Increment      1: Step Time =    1.000,"P-25-1",          1145,       169.209,       27.6314,            0.,NA,NA,"",   1.06306E+06,   1.05418E+06,   1.05418E+06
C:/temp/Job-25.odb,Step-1,Increment      1: Step Time =    1.000,"P-25-1",          1146,       176.445,       32.1903,            0.,NA,NA,"",   1.04386E+06,   1.04276E+06,   1.04276E+06
C:/temp/Job-25.odb,Step-1,Increment      1: Step Time =    1.000,"P-25-1",          1147,       31.2454,       174.061,            0.,NA,NA,"",   1.20507E+06,   1.21583E+06,   1.21583E+06
C:/temp/Job-25.odb,Step-1,Increment      1: Step Time =    1.000,"P-25-1",          1148,       174.467,       169.046,            0.,NA,NA,"",   1.04869E+06,   1.04570E+06,   1.04570E+06
C:/temp/Job-25.odb,Step-1,Increment      1: Step Time =    1.000,"P-25-1",          1149,       166.703,       174.842,            0.,NA,NA,"",   1.06357E+06,   1.05381E+06,   1.05381E+06
C:/temp/Job-25.odb,Step-1,Increment      1: Step Time =    1.000,"P-25-1",          1150,       131.446,       142.596,            0.,NA,NA,"",   1.44307E+06,   1.36967E+06,   1.36967E+06
C:/temp/Job-25.odb,Step-1,Increment      1: Step Time =    1.000,"P-25-1",          1151,       143.254,       61.7771,            0.,NA,NA,"",   1.36324E+06,   1.24443E+06,   1.24443E+06
C:/temp/Job-25.odb,Step-1,Increment      1: Step Time =    1.000,"P-25-1",          1152,       23.4999,       145.763,            0.,NA,NA,"",   948.682E+03,   1.00107E+06,   1.00107E+06
C:/temp/Job-25.odb,Step-1,Increment      1: Step Time =    1.000,"P-25-1",          1153,       143.471,       27.8394,            0.,NA,NA,"",   1.13174E+06,   1.11092E+06,   1.11092E+06
C:/temp/Job-25.odb,Step-1,Increment      1: Step Time =    1.000,"P-25-1",          1154,       53.1636,       26.0541,            0.,NA,NA,"",   1.21783E+06,   1.19943E+06,   1.19943E+06
C:/temp/Job-25.odb,Step-1,Increment      1: Step Time =    1.000,"P-25-1",          1155,       27.8871,       57.3363,            0.,NA,NA,"",   950.671E+03,   991.026E+03,   991.026E+03
C:/temp/Job-25.odb,Step-1,Increment      1: Step Time =    1.000,"P-25-1",          1156,       173.091,       55.0177,            0.,NA,NA,"",   1.07222E+06,   1.06976E+06,   1.06976E+06
C:/temp/Job-25.odb,Step-1,Increment      1: Step Time =    1.000,"P-25-1",          1157,       144.450,       173.380,            0.,NA,NA,"",   1.12319E+06,   1.10231E+06,   1.10231E+06
C:/temp/Job-25.odb,Step-1,Increment      1: Step Time =    1.000,"P-25-1",          1158,       170.601,       143.732,            0.,NA,NA,"",   1.09230E+06,   1.08084E+06,   1.08084E+06
C:/temp/Job-25.odb,Step-1,Increment      1: Step Time =    1.000,"P-25-1",          1159,       13.7891,       174.755,            0.,NA,NA,"",   1.14223E+06,   1.21345E+06,   1.21345E+06
C:/temp/Job-25.odb,Step-1,Increment      1: Step Time =    1.000,"P-25-1",          1160,       175.174,       16.7565,            0.,NA,NA,"",   1.02094E+06,   1.01983E+06,   1.01983E+06
C:/temp/Job-25.odb,Step-1,Increment      1: Step Time =    1.000,"P-25-1",          1161,       14.9611,       22.1612,            0.,NA,NA,"",   1.18774E+06,   1.24778E+06,   1.24778E+06
C:/temp/Job-25.odb,Step-1,Increment      1: Step Time =    1.000,"P-25-1",          1162,       21.9561,       15.8457,            0.,NA,NA,"",   1.26113E+06,   1.28268E+06,   1.28268E+06
C:/temp/Job-25.odb,Step-1,Increment      1: Step Time =    1.000,"P-25-1",          1163,       174.618,       187.127,            0.,NA,NA,"",   1.01433E+06,   1.01368E+06,   1.01368E+06
C:/temp/Job-25.odb,Step-1,Increment      1: Step Time =    1.000,"P-25-1",          1164,       184.118,       175.686,            0.,NA,NA,"",   1.01155E+06,   1.01550E+06,   1.01550E+06
C:/temp/Job-25.odb,Step-1,Increment      1: Step Time =    1.000,"P-25-1",          1165,       19.9513,       183.614,            0.,NA,NA,"",   1.26213E+06,   1.29024E+06,   1.29024E+06
C:/temp/Job-25.odb,Step-1,Increment      1: Step Time =    1.000,"P-25-1",          1166,       187.577,       25.5651,            0.,NA,NA,"",   1.00457E+06,   1.01040E+06,   1.01040E+06
C:/temp/Job-25.odb,Step-1,Increment      1: Step Time =    1.000,"P-25-1",          1167,       115.862,       46.9442,            0.,NA,NA,"",   1.26282E+06,   1.31402E+06,   1.31402E+06
C:/temp/Job-25.odb,Step-1,Increment      1: Step Time =    1.000,"P-25-1",          1168,       45.7273,       123.557,            0.,NA,NA,"",   848.941E+03,   837.548E+03,   837.548E+03
C:/temp/Job-25.odb,Step-1,Increment      1: Step Time =    1.000,"P-25-1",          1169,       54.2034,       68.6115,            0.,NA,NA,"",   1.12062E+06,   1.04939E+06,   1.04939E+06
C:/temp/Job-25.odb,Step-1,Increment      1: Step Time =    1.000,"P-25-1",          1170,       151.139,       130.915,            0.,NA,NA,"",   1.22037E+06,   1.11803E+06,   1.11803E+06
C:/temp/Job-25.odb,Step-1,Increment      1: Step Time =    1.000,"P-25-1",          1171,       100.782,       155.022,            0.,NA,NA,"",   1.17622E+06,   1.27470E+06,   1.27470E+06
C:/temp/Job-25.odb,Step-1,Increment      1: Step Time =    1.000,"P-25-1",          1172,       52.7879,       88.1504,            0.,NA,NA,"",   592.676E+03,   566.743E+03,   566.743E+03
C:/temp/Job-25.odb,Step-1,Increment      1: Step Time =    1.000,"P-25-1",          1173,       43.7468,       92.7507,            0.,NA,NA,"",   490.996E+03,   537.692E+03,   537.692E+03
C:/temp/Job-25.odb,Step-1,Increment      1: Step Time =    1.000,"P-25-1",          1174,       139.220,       58.3086,            0.,NA,NA,"",   1.40193E+06,   1.29611E+06,   1.29611E+06
C:/temp/Job-25.odb,Step-1,Increment      1: Step Time =    1.000,"P-25-1",          1175,       63.5456,       130.529,            0.,NA,NA,"",   1.27050E+06,   1.15653E+06,   1.15653E+06
C:/temp/Job-25.odb,Step-1,Increment      1: Step Time =    1.000,"P-25-1",          1176,       109.316,       30.4862,            0.,NA,NA,"",   1.08143E+06,   1.12571E+06,   1.12571E+06
C:/temp/Job-25.odb,Step-1,Increment      1: Step Time =    1.000,"P-25-1",          1177,       31.3605,       89.4492,            0.,NA,NA,"",   575.507E+03,   642.446E+03,   642.446E+03
C:/temp/Job-25.odb,Step-1,Increment      1: Step Time =    1.000,"P-25-1",          1178,       170.087,       110.084,            0.,NA,NA,"",   824.610E+03,   874.503E+03,   874.503E+03
C:/temp/Job-25.odb,Step-1,Increment      1: Step Time =    1.000,"P-25-1",          1179,       86.5336,       169.145,            0.,NA,NA,"",   1.13702E+06,   1.16772E+06,   1.16772E+06
C:/temp/Job-25.odb,Step-1,Increment      1: Step Time =    1.000,"P-25-1",          1180,       66.0355,       58.2831,            0.,NA,NA,"",   1.38006E+06,   1.30657E+06,   1.30657E+06
C:/temp/Job-25.odb,Step-1,Increment      1: Step Time =    1.000,"P-25-1",          1181,       167.130,       100.568,            0.,NA,NA,"",   749.037E+03,   802.384E+03,   802.384E+03
C:/temp/Job-25.odb,Step-1,Increment      1: Step Time =    1.000,"P-25-1",          1182,       101.617,       165.639,            0.,NA,NA,"",   1.09642E+06,   1.15886E+06,   1.15886E+06
C:/temp/Job-25.odb,Step-1,Increment      1: Step Time =    1.000,"P-25-1",          1183,       32.1114,       98.1813,            0.,NA,NA,"",   521.898E+03,   591.140E+03,   591.140E+03
C:/temp/Job-25.odb,Step-1,Increment      1: Step Time =    1.000,"P-25-1",          1184,       99.1282,       35.1540,            0.,NA,NA,"",   1.10297E+06,   1.16867E+06,   1.16867E+06
C:/temp/Job-25.odb,Step-1,Increment      1: Step Time =    1.000,"P-25-1",          1185,       44.5990,       184.592,            0.,NA,NA,"",   1.19848E+06,   1.19281E+06,   1.19281E+06
C:/temp/Job-25.odb,Step-1,Increment      1: Step Time =    1.000,"P-25-1",          1186,       184.780,       154.203,            0.,NA,NA,"",   1.00729E+06,   1.02840E+06,   1.02840E+06
C:/temp/Job-25.odb,Step-1,Increment      1: Step Time =    1.000,"P-25-1",          1187,       16.0355,       45.5150,            0.,NA,NA,"",   971.823E+03,   1.04466E+06,   1.04466E+06
C:/temp/Job-25.odb,Step-1,Increment      1: Step Time =    1.000,"P-25-1",          1188,       154.024,       15.2003,            0.,NA,NA,"",   1.03933E+06,   1.03183E+06,   1.03183E+06
C:/temp/Job-25.odb,Step-1,Increment      1: Step Time =    1.000,"P-25-1",          1189,       90.2141,       155.276,            0.,NA,NA,"",    1.2296E+06,   1.29925E+06,   1.29925E+06
C:/temp/Job-25.odb,Step-1,Increment      1: Step Time =    1.000,"P-25-1",          1190,       156.572,       118.782,            0.,NA,NA,"",   950.727E+03,   909.069E+03,   909.069E+03
C:/temp/Job-25.odb,Step-1,Increment      1: Step Time =    1.000,"P-25-1",          1191,       166.805,       90.9536,            0.,NA,NA,"",   793.050E+03,   834.111E+03,   834.111E+03
C:/temp/Job-25.odb,Step-1,Increment      1: Step Time =    1.000,"P-25-1",          1192,       108.286,       166.926,            0.,NA,NA,"",   1.09491E+06,   1.14767E+06,   1.14767E+06
C:/temp/Job-25.odb,Step-1,Increment      1: Step Time =    1.000,"P-25-1",          1193,       35.1159,       110.839,            0.,NA,NA,"",   575.484E+03,   635.770E+03,   635.770E+03
C:/temp/Job-25.odb,Step-1,Increment      1: Step Time =    1.000,"P-25-1",          1194,       88.0954,       33.6189,            0.,NA,NA,"",   1.14467E+06,   1.18572E+06,   1.18572E+06
C:/temp/Job-25.odb,Step-1,Increment      1: Step Time =    1.000,"P-25-1",          1195,       86.2822,       54.2291,            0.,NA,NA,"",   1.37868E+06,   1.44156E+06,   1.44156E+06
C:/temp/Job-25.odb,Step-1,Increment      1: Step Time =    1.000,"P-25-1",          1196,       157.380,       91.5122,            0.,NA,NA,"",   723.813E+03,    733.55E+03,    733.55E+03
C:/temp/Job-25.odb,Step-1,Increment      1: Step Time =    1.000,"P-25-1",          1197,       123.901,       47.1091,            0.,NA,NA,"",   1.31239E+06,   1.31387E+06,   1.31387E+06
C:/temp/Job-25.odb,Step-1,Increment      1: Step Time =    1.000,"P-25-1",          1198,       165.792,       121.509,            0.,NA,NA,"",    958.79E+03,   958.928E+03,   958.928E+03
C:/temp/Job-25.odb,Step-1,Increment      1: Step Time =    1.000,"P-25-1",          1199,       79.3762,       167.856,            0.,NA,NA,"",   1.19056E+06,   1.20180E+06,   1.20180E+06
C:/temp/Job-25.odb,Step-1,Increment      1: Step Time =    1.000,"P-25-1",          1200,       122.116,       167.273,            0.,NA,NA,"",   1.14734E+06,   1.16172E+06,   1.16172E+06
C:/temp/Job-25.odb,Step-1,Increment      1: Step Time =    1.000,"P-25-1",          1201,       167.665,       80.4131,            0.,NA,NA,"",   933.269E+03,   946.916E+03,   946.916E+03
C:/temp/Job-25.odb,Step-1,Increment      1: Step Time =    1.000,"P-25-1",          1202,       35.7783,       80.9838,            0.,NA,NA,"",   695.690E+03,   739.414E+03,   739.414E+03
C:/temp/Job-25.odb,Step-1,Increment      1: Step Time =    1.000,"P-25-1",          1203,       119.897,       33.8767,            0.,NA,NA,"",   1.14776E+06,   1.16908E+06,   1.16908E+06
C:/temp/Job-25.odb,Step-1,Increment      1: Step Time =    1.000,"P-25-1",          1204,       32.9429,       122.076,            0.,NA,NA,"",   732.606E+03,   780.876E+03,   780.876E+03
C:/temp/Job-25.odb,Step-1,Increment      1: Step Time =    1.000,"P-25-1",          1205,       79.0773,       33.5114,            0.,NA,NA,"",   1.20251E+06,   1.21294E+06,   1.21294E+06
C:/temp/Job-25.odb,Step-1,Increment      1: Step Time =    1.000,"P-25-1",          1206,       161.136,       109.696,            0.,NA,NA,"",   774.938E+03,   794.899E+03,   794.899E+03
C:/temp/Job-25.odb,Step-1,Increment      1: Step Time =    1.000,"P-25-1",          1207,       181.559,       42.3134,            0.,NA,NA,"",   1.02666E+06,   1.03734E+06,   1.03734E+06
C:/temp/Job-25.odb,Step-1,Increment      1: Step Time =    1.000,"P-25-1",          1208,       157.295,       181.105,            0.,NA,NA,"",   1.05640E+06,   1.04639E+06,   1.04639E+06
C:/temp/Job-25.odb,Step-1,Increment      1: Step Time =    1.000,"P-25-1",          1209,       44.1314,       14.9124,            0.,NA,NA,"",   1.20012E+06,   1.19362E+06,   1.19362E+06
C:/temp/Job-25.odb,Step-1,Increment      1: Step Time =    1.000,"P-25-1",          1210,       18.2900,       154.059,            0.,NA,NA,"",   985.071E+03,   1.05121E+06,   1.05121E+06
C:/temp/Job-25.odb,Step-1,Increment      1: Step Time =    1.000,"P-25-1",          1211,       167.928,       70.6466,            0.,NA,NA,"",   1.03865E+06,   1.03124E+06,   1.03124E+06
C:/temp/Job-25.odb,Step-1,Increment      1: Step Time =    1.000,"P-25-1",          1212,       33.4127,       129.231,            0.,NA,NA,"",   832.049E+03,   868.152E+03,   868.152E+03
C:/temp/Job-25.odb,Step-1,Increment      1: Step Time =    1.000,"P-25-1",          1213,       130.460,       167.438,            0.,NA,NA,"",   1.17109E+06,   1.16209E+06,   1.16209E+06
C:/temp/Job-25.odb,Step-1,Increment      1: Step Time =    1.000,"P-25-1",          1214,       69.5056,       33.2538,            0.,NA,NA,"",   1.23717E+06,   1.22312E+06,   1.22312E+06
C:/temp/Job-25.odb,Step-1,Increment      1: Step Time =    1.000,"P-25-1",          1215,       171.486,       177.995,            0.,NA,NA,"",   1.03954E+06,   1.03532E+06,   1.03532E+06
C:/temp/Job-25.odb,Step-1,Increment      1: Step Time =    1.000,"P-25-1",          1216,       178.199,       174.144,            0.,NA,NA,"",   1.02751E+06,   1.02838E+06,   1.02838E+06
C:/temp/Job-25.odb,Step-1,Increment      1: Step Time =    1.000,"P-25-1",          1217,       180.161,       29.2043,            0.,NA,NA,"",   1.02568E+06,   1.02855E+06,   1.02855E+06
C:/temp/Job-25.odb,Step-1,Increment      1: Step Time =    1.000,"P-25-1",          1218,       27.0454,       174.135,            0.,NA,NA,"",   1.19338E+06,   1.21591E+06,   1.21591E+06
C:/temp/Job-25.odb,Step-1,Increment      1: Step Time =    1.000,"P-25-1",          1219,       23.1902,       173.420,            0.,NA,NA,"",   1.17814E+06,   1.21289E+06,   1.21289E+06
C:/temp/Job-25.odb,Step-1,Increment      1: Step Time =    1.000,"P-25-1",          1220,       172.840,       22.6059,            0.,NA,NA,"",   1.03738E+06,   1.03389E+06,   1.03389E+06
C:/temp/Job-25.odb,Step-1,Increment      1: Step Time =    1.000,"P-25-1",          1221,       27.3097,       24.6103,            0.,NA,NA,"",   1.20170E+06,   1.22207E+06,   1.22207E+06
C:/temp/Job-25.odb,Step-1,Increment      1: Step Time =    1.000,"P-25-1",          1222,       23.2033,       29.1575,            0.,NA,NA,"",   1.15620E+06,   1.19395E+06,   1.19395E+06
C:/temp/Job-25.odb,Step-1,Increment      1: Step Time =    1.000,"P-25-1",          1223,       142.976,       136.655,            0.,NA,NA,"",   1.37667E+06,   1.25068E+06,   1.25068E+06
C:/temp/Job-25.odb,Step-1,Increment      1: Step Time =    1.000,"P-25-1",          1224,       37.3669,       100.782,            0.,NA,NA,"",   491.758E+03,   555.335E+03,   555.335E+03
C:/temp/Job-25.odb,Step-1,Increment      1: Step Time =    1.000,"P-25-1",          1225,       55.9083,       97.4013,            0.,NA,NA,"",   286.971E+03,   296.141E+03,   296.141E+03
C:/temp/Job-25.odb,Step-1,Increment      1: Step Time =    1.000,"P-25-1",          1226,       153.115,       84.9017,            0.,NA,NA,"",   885.933E+03,   837.715E+03,   837.715E+03
C:/temp/Job-25.odb,Step-1,Increment      1: Step Time =    1.000,"P-25-1",          1227,       45.4132,       86.3371,            0.,NA,NA,"",   618.903E+03,   638.326E+03,   638.326E+03
C:/temp/Job-25.odb,Step-1,Increment      1: Step Time =    1.000,"P-25-1",          1228,       156.246,       85.9527,            0.,NA,NA,"",   859.555E+03,   835.933E+03,   835.933E+03
C:/temp/Job-25.odb,Step-1,Increment      1: Step Time =    1.000,"P-25-1",          1229,       41.3825,       88.7488,            0.,NA,NA,"",   565.443E+03,   609.747E+03,   609.747E+03
C:/temp/Job-25.odb,Step-1,Increment      1: Step Time =    1.000,"P-25-1",          1230,       24.6304,       52.6672,            0.,NA,NA,"",   971.569E+03,   1.01946E+06,   1.01946E+06
C:/temp/Job-25.odb,Step-1,Increment      1: Step Time =    1.000,"P-25-1",          1231,       47.7092,       21.3559,            0.,NA,NA,"",   1.20877E+06,   1.19692E+06,   1.19692E+06
C:/temp/Job-25.odb,Step-1,Increment      1: Step Time =    1.000,"P-25-1",          1232,       151.536,       177.026,            0.,NA,NA,"",   1.08841E+06,   1.07224E+06,   1.07224E+06
C:/temp/Job-25.odb,Step-1,Increment      1: Step Time =    1.000,"P-25-1",          1233,       171.719,       149.616,            0.,NA,NA,"",   1.08654E+06,   1.07791E+06,   1.07791E+06
C:/temp/Job-25.odb,Step-1,Increment      1: Step Time =    1.000,"P-25-1",          1234,       22.9919,       150.885,            0.,NA,NA,"",   993.281E+03,   1.04431E+06,   1.04431E+06
C:/temp/Job-25.odb,Step-1,Increment      1: Step Time =    1.000,"P-25-1",          1235,       148.641,       27.4490,            0.,NA,NA,"",   1.12165E+06,   1.09987E+06,   1.09987E+06
C:/temp/Job-25.odb,Step-1,Increment      1: Step Time =    1.000,"P-25-1",          1236,       177.321,       47.8826,            0.,NA,NA,"",   1.04828E+06,   1.05405E+06,   1.05405E+06
C:/temp/Job-25.odb,Step-1,Increment      1: Step Time =    1.000,"P-25-1",          1237,       49.8359,       176.341,            0.,NA,NA,"",   1.21198E+06,   1.19729E+06,   1.19729E+06
C:/temp/Job-25.odb,Step-1,Increment      1: Step Time =    1.000,"P-25-1",          1238,       64.9297,       94.0689,            0.,NA,NA,"",   402.289E+03,      -527.387,      -527.387
C:/temp/Job-25.odb,Step-1,Increment      1: Step Time =    1.000,"P-25-1",          1239,       47.7046,       113.830,            0.,NA,NA,"",   633.700E+03,   640.430E+03,   640.430E+03
C:/temp/Job-25.odb,Step-1,Increment      1: Step Time =    1.000,"P-25-1",          1240,       42.9379,       110.275,            0.,NA,NA,"",   551.939E+03,   591.910E+03,   591.910E+03
C:/temp/Job-25.odb,Step-1,Increment      1: Step Time =    1.000,"P-25-1",          1241,       17.5831,       13.9008,            0.,NA,NA,"",   1.29326E+06,   1.31875E+06,   1.31875E+06
C:/temp/Job-25.odb,Step-1,Increment      1: Step Time =    1.000,"P-25-1",          1242,       15.7925,       180.840,            0.,NA,NA,"",   1.22563E+06,   1.27742E+06,   1.27742E+06
C:/temp/Job-25.odb,Step-1,Increment      1: Step Time =    1.000,"P-25-1",          1243,       186.734,       21.2294,            0.,NA,NA,"",   1.00550E+06,   1.00926E+06,   1.00926E+06
C:/temp/Job-25.odb,Step-1,Increment      1: Step Time =    1.000,"P-25-1",          1244,       179.115,       186.535,            0.,NA,NA,"",   1.01073E+06,   1.01110E+06,   1.01110E+06
C:/temp/Job-25.odb,Step-1,Increment      1: Step Time =    1.000,"P-25-1",          1245,       182.811,       150.665,            0.,NA,NA,"",   1.01355E+06,   1.03511E+06,   1.03511E+06
C:/temp/Job-25.odb,Step-1,Increment      1: Step Time =    1.000,"P-25-1",          1246,       150.598,       17.0440,            0.,NA,NA,"",   1.04917E+06,   1.03984E+06,   1.03984E+06
C:/temp/Job-25.odb,Step-1,Increment      1: Step Time =    1.000,"P-25-1",          1247,       17.4120,       50.9926,            0.,NA,NA,"",    934.95E+03,   1.00521E+06,   1.00521E+06
C:/temp/Job-25.odb,Step-1,Increment      1: Step Time =    1.000,"P-25-1",          1248,       19.7948,       77.6318,            0.,NA,NA,"",   688.473E+03,   763.581E+03,   763.581E+03
C:/temp/Job-25.odb,Step-1,Increment      1: Step Time =    1.000,"P-25-1",          1249,       115.058,       153.268,            0.,NA,NA,"",   1.25600E+06,   1.31197E+06,   1.31197E+06
C:/temp/Job-25.odb,Step-1,Increment      1: Step Time =    1.000,"P-25-1",          1250,       118.954,       155.307,            0.,NA,NA,"",   1.25769E+06,   1.28708E+06,   1.28708E+06
C:/temp/Job-25.odb,Step-1,Increment      1: Step Time =    1.000,"P-25-1",          1251,       28.2090,       73.1777,            0.,NA,NA,"",   768.221E+03,   822.944E+03,   822.944E+03
C:/temp/Job-25.odb,Step-1,Increment      1: Step Time =    1.000,"P-25-1",          1252,       170.612,       129.806,            0.,NA,NA,"",   1.02274E+06,   1.02678E+06,   1.02678E+06
C:/temp/Job-25.odb,Step-1,Increment      1: Step Time =    1.000,"P-25-1",          1253,       131.282,       25.6002,            0.,NA,NA,"",   1.10717E+06,   1.10106E+06,   1.10106E+06
C:/temp/Job-25.odb,Step-1,Increment      1: Step Time =    1.000,"P-25-1",          1254,       67.6570,       169.448,            0.,NA,NA,"",   1.22352E+06,   1.20789E+06,   1.20789E+06
C:/temp/Job-25.odb,Step-1,Increment      1: Step Time =    1.000,"P-25-1",          1255,       36.0060,       27.2946,            0.,NA,NA,"",   1.20982E+06,   1.21047E+06,   1.21047E+06
C:/temp/Job-25.odb,Step-1,Increment      1: Step Time =    1.000,"P-25-1",          1256,       30.3694,       38.7001,            0.,NA,NA,"",   1.12717E+06,   1.14830E+06,   1.14830E+06
C:/temp/Job-25.odb,Step-1,Increment      1: Step Time =    1.000,"P-25-1",          1257,       165.512,       28.2091,            0.,NA,NA,"",   1.07649E+06,   1.06389E+06,   1.06389E+06
C:/temp/Job-25.odb,Step-1,Increment      1: Step Time =    1.000,"P-25-1",          1258,       27.5323,       162.860,            0.,NA,NA,"",   1.11849E+06,   1.14862E+06,   1.14862E+06
C:/temp/Job-25.odb,Step-1,Increment      1: Step Time =    1.000,"P-25-1",          1259,       172.871,       35.7702,            0.,NA,NA,"",   1.06751E+06,   1.06049E+06,   1.06049E+06
C:/temp/Job-25.odb,Step-1,Increment      1: Step Time =    1.000,"P-25-1",          1260,       36.3540,       169.820,            0.,NA,NA,"",   1.20076E+06,   1.20210E+06,   1.20210E+06
C:/temp/Job-25.odb,Step-1,Increment      1: Step Time =    1.000,"P-25-1",          1261,       163.543,       172.564,            0.,NA,NA,"",   1.08106E+06,   1.06714E+06,   1.06714E+06
C:/temp/Job-25.odb,Step-1,Increment      1: Step Time =    1.000,"P-25-1",          1262,       170.501,       166.084,            0.,NA,NA,"",   1.07351E+06,   1.06398E+06,   1.06398E+06
C:/temp/Job-25.odb,Step-1,Increment      1: Step Time =    1.000,"P-25-1",          1263,       14.7768,       17.5539,            0.,NA,NA,"",   1.24085E+06,   1.29198E+06,   1.29198E+06
C:/temp/Job-25.odb,Step-1,Increment      1: Step Time =    1.000,"P-25-1",          1264,       181.121,       18.0062,            0.,NA,NA,"",   1.01270E+06,   1.01407E+06,   1.01407E+06
C:/temp/Job-25.odb,Step-1,Increment      1: Step Time =    1.000,"P-25-1",          1265,       15.0716,       184.863,            0.,NA,NA,"",   1.28195E+06,   1.32450E+06,   1.32450E+06
C:/temp/Job-25.odb,Step-1,Increment      1: Step Time =    1.000,"P-25-1",          1266,       182.813,       181.324,            0.,NA,NA,"",   1.01083E+06,   1.01275E+06,   1.01275E+06
C:/temp/Job-25.odb,Step-1,Increment      1: Step Time =    1.000,"P-25-1",          1267,       166.147,       110.159,            0.,NA,NA,"",   803.677E+03,   840.042E+03,   840.042E+03
C:/temp/Job-25.odb,Step-1,Increment      1: Step Time =    1.000,"P-25-1",          1268,       113.095,       50.4389,            0.,NA,NA,"",   1.29185E+06,   1.36471E+06,   1.36471E+06
C:/temp/Job-25.odb,Step-1,Increment      1: Step Time =    1.000,"P-25-1",          1269,       152.682,       124.425,            0.,NA,NA,"",   1.10055E+06,   1.01289E+06,   1.01289E+06
C:/temp/Job-25.odb,Step-1,Increment      1: Step Time =    1.000,"P-25-1",          1270,       152.804,       137.150,            0.,NA,NA,"",   1.24211E+06,   1.15387E+06,   1.15387E+06
C:/temp/Job-25.odb,Step-1,Increment      1: Step Time =    1.000,"P-25-1",          1271,       104.699,       153.637,            0.,NA,NA,"",   1.19069E+06,   1.28978E+06,   1.28978E+06
C:/temp/Job-25.odb,Step-1,Increment      1: Step Time =    1.000,"P-25-1",          1272,       58.0194,       135.694,            0.,NA,NA,"",   1.24523E+06,   1.16084E+06,   1.16084E+06
C:/temp/Job-25.odb,Step-1,Increment      1: Step Time =    1.000,"P-25-1",          1273,       161.425,       118.251,            0.,NA,NA,"",   922.072E+03,   910.453E+03,   910.453E+03
C:/temp/Job-25.odb,Step-1,Increment      1: Step Time =    1.000,"P-25-1",          1274,       84.5665,       152.993,            0.,NA,NA,"",   1.29543E+06,   1.33903E+06,   1.33903E+06
C:/temp/Job-25.odb,Step-1,Increment      1: Step Time =    1.000,"P-25-1",          1275,       86.2868,       60.5348,            0.,NA,NA,"",   1.50103E+06,   1.56926E+06,   1.56926E+06
C:/temp/Job-25.odb,Step-1,Increment      1: Step Time =    1.000,"P-25-1",          1276,       89.3291,       50.7866,            0.,NA,NA,"",   1.30758E+06,   1.38661E+06,   1.38661E+06
C:/temp/Job-25.odb,Step-1,Increment      1: Step Time =    1.000,"P-25-1",          1277,       166.037,       114.230,            0.,NA,NA,"",   857.151E+03,   880.938E+03,   880.938E+03
C:/temp/Job-25.odb,Step-1,Increment      1: Step Time =    1.000,"P-25-1",          1278,       117.248,       37.4259,            0.,NA,NA,"",   1.16698E+06,   1.20104E+06,   1.20104E+06
C:/temp/Job-25.odb,Step-1,Increment      1: Step Time =    1.000,"P-25-1",          1279,       38.6770,       84.8264,            0.,NA,NA,"",   636.542E+03,   679.537E+03,   679.537E+03
C:/temp/Job-25.odb,Step-1,Increment      1: Step Time =    1.000,"P-25-1",          1280,       141.457,       140.629,            0.,NA,NA,"",   1.38213E+06,   1.27413E+06,   1.27413E+06
C:/temp/Job-25.odb,Step-1,Increment      1: Step Time =    1.000,"P-25-1",          1281,       26.3884,       32.4772,            0.,NA,NA,"",   1.14785E+06,   1.17795E+06,   1.17795E+06
C:/temp/Job-25.odb,Step-1,Increment      1: Step Time =    1.000,"P-25-1",          1282,       173.637,       28.1069,            0.,NA,NA,"",   1.04751E+06,   1.04331E+06,   1.04331E+06
C:/temp/Job-25.odb,Step-1,Increment      1: Step Time =    1.000,"P-25-1",          1283,       173.073,       173.017,            0.,NA,NA,"",   1.04685E+06,   1.04274E+06,   1.04274E+06
C:/temp/Job-25.odb,Step-1,Increment      1: Step Time =    1.000,"P-25-1",          1284,       92.3869,       159.469,            0.,NA,NA,"",   1.17360E+06,   1.24143E+06,   1.24143E+06
C:/temp/Job-25.odb,Step-1,Increment      1: Step Time =    1.000,"P-25-1",          1285,       38.2251,       105.974,            0.,NA,NA,"",   514.842E+03,   574.135E+03,   574.135E+03
C:/temp/Job-25.odb,Step-1,Increment      1: Step Time =    1.000,"P-25-1",          1286,       166.876,       95.7328,            0.,NA,NA,"",   754.907E+03,   805.125E+03,   805.125E+03
C:/temp/Job-25.odb,Step-1,Increment      1: Step Time =    1.000,"P-25-1",          1287,       105.273,       163.357,            0.,NA,NA,"",   1.11179E+06,   1.17854E+06,   1.17854E+06
C:/temp/Job-25.odb,Step-1,Increment      1: Step Time =    1.000,"P-25-1",          1288,       111.480,       164.011,            0.,NA,NA,"",   1.12491E+06,   1.17811E+06,   1.17811E+06
C:/temp/Job-25.odb,Step-1,Increment      1: Step Time =    1.000,"P-25-1",          1289,       163.626,       83.4705,            0.,NA,NA,"",   899.778E+03,   903.616E+03,   903.616E+03
C:/temp/Job-25.odb,Step-1,Increment      1: Step Time =    1.000,"P-25-1",          1290,       39.4397,       114.287,            0.,NA,NA,"",   625.011E+03,   667.283E+03,   667.283E+03
C:/temp/Job-25.odb,Step-1,Increment      1: Step Time =    1.000,"P-25-1",          1291,       82.4527,       34.9049,            0.,NA,NA,"",   1.19271E+06,   1.21557E+06,   1.21557E+06
C:/temp/Job-25.odb,Step-1,Increment      1: Step Time =    1.000,"P-25-1",          1292,       130.868,       50.4204,            0.,NA,NA,"",   1.36416E+06,   1.32172E+06,   1.32172E+06
C:/temp/Job-25.odb,Step-1,Increment      1: Step Time =    1.000,"P-25-1",          1293,       45.8814,       79.6342,            0.,NA,NA,"",   787.253E+03,   781.558E+03,   781.558E+03
C:/temp/Job-25.odb,Step-1,Increment      1: Step Time =    1.000,"P-25-1",          1294,       57.6674,       140.726,            0.,NA,NA,"",   1.27583E+06,   1.20404E+06,   1.20404E+06
C:/temp/Job-25.odb,Step-1,Increment      1: Step Time =    1.000,"P-25-1",          1295,       35.8450,       96.6580,            0.,NA,NA,"",   504.816E+03,   569.633E+03,   569.633E+03
C:/temp/Job-25.odb,Step-1,Increment      1: Step Time =    1.000,"P-25-1",          1296,       48.1137,       26.1842,            0.,NA,NA,"",   1.21944E+06,   1.20387E+06,   1.20387E+06
C:/temp/Job-25.odb,Step-1,Increment      1: Step Time =    1.000,"P-25-1",          1297,       48.0074,       17.0634,            0.,NA,NA,"",   1.19799E+06,   1.18903E+06,   1.18903E+06
C:/temp/Job-25.odb,Step-1,Increment      1: Step Time =    1.000,"P-25-1",          1298,       148.842,       172.294,            0.,NA,NA,"",   1.12295E+06,   1.10042E+06,   1.10042E+06
C:/temp/Job-25.odb,Step-1,Increment      1: Step Time =    1.000,"P-25-1",          1299,       154.352,       179.153,            0.,NA,NA,"",   1.07193E+06,   1.05879E+06,   1.05879E+06
C:/temp/Job-25.odb,Step-1,Increment      1: Step Time =    1.000,"P-25-1",          1300,       27.4226,       151.202,            0.,NA,NA,"",   1.02916E+06,   1.06526E+06,   1.06526E+06
C:/temp/Job-25.odb,Step-1,Increment      1: Step Time =    1.000,"P-25-1",          1301,       18.7234,       150.122,            0.,NA,NA,"",   955.268E+03,   1.02109E+06,   1.02109E+06
C:/temp/Job-25.odb,Step-1,Increment      1: Step Time =    1.000,"P-25-1",          1302,       172.367,       50.2799,            0.,NA,NA,"",   1.08036E+06,   1.07381E+06,   1.07381E+06
C:/temp/Job-25.odb,Step-1,Increment      1: Step Time =    1.000,"P-25-1",          1303,       179.579,       45.1648,            0.,NA,NA,"",   1.03654E+06,   1.04550E+06,   1.04550E+06
C:/temp/Job-25.odb,Step-1,Increment      1: Step Time =    1.000,"P-25-1",          1304,       18.4726,       16.6749,            0.,NA,NA,"",   1.26511E+06,   1.29827E+06,   1.29827E+06
C:/temp/Job-25.odb,Step-1,Increment      1: Step Time =    1.000,"P-25-1",          1305,       176.878,       20.6069,            0.,NA,NA,"",   1.02412E+06,   1.02348E+06,   1.02348E+06
C:/temp/Job-25.odb,Step-1,Increment      1: Step Time =    1.000,"P-25-1",          1306,       180.934,       177.464,            0.,NA,NA,"",   1.01628E+06,   1.01850E+06,   1.01850E+06
C:/temp/Job-25.odb,Step-1,Increment      1: Step Time =    1.000,"P-25-1",          1307,       178.710,       150.465,            0.,NA,NA,"",   1.03857E+06,   1.04970E+06,   1.04970E+06
C:/temp/Job-25.odb,Step-1,Increment      1: Step Time =    1.000,"P-25-1",          1308,       49.8749,       182.966,            0.,NA,NA,"",   1.19065E+06,   1.18126E+06,   1.18126E+06
C:/temp/Job-25.odb,Step-1,Increment      1: Step Time =    1.000,"P-25-1",          1309,       150.239,       20.9201,            0.,NA,NA,"",   1.07430E+06,   1.06089E+06,   1.06089E+06
C:/temp/Job-25.odb,Step-1,Increment      1: Step Time =    1.000,"P-25-1",          1310,       21.4451,       47.3449,            0.,NA,NA,"",   994.184E+03,   1.05055E+06,   1.05055E+06
C:/temp/Job-25.odb,Step-1,Increment      1: Step Time =    1.000,"P-25-1",          1311,       111.849,       155.059,            0.,NA,NA,"",   1.20974E+06,   1.28186E+06,   1.28186E+06
C:/temp/Job-25.odb,Step-1,Increment      1: Step Time =    1.000,"P-25-1",          1312,       123.742,       153.193,            0.,NA,NA,"",   1.30283E+06,   1.30533E+06,   1.30533E+06
C:/temp/Job-25.odb,Step-1,Increment      1: Step Time =    1.000,"P-25-1",          1313,       39.0202,       22.7436,            0.,NA,NA,"",   1.21834E+06,   1.21413E+06,   1.21413E+06
C:/temp/Job-25.odb,Step-1,Increment      1: Step Time =    1.000,"P-25-1",          1314,       27.1721,       156.566,            0.,NA,NA,"",   1.07032E+06,   1.10432E+06,   1.10432E+06
C:/temp/Job-25.odb,Step-1,Increment      1: Step Time =    1.000,"P-25-1",          1315,       172.538,       41.1792,            0.,NA,NA,"",   1.07716E+06,   1.06905E+06,   1.06905E+06
C:/temp/Job-25.odb,Step-1,Increment      1: Step Time =    1.000,"P-25-1",          1316,       158.782,       170.357,            0.,NA,NA,"",   1.10870E+06,   1.08813E+06,   1.08813E+06
C:/temp/Job-25.odb,Step-1,Increment      1: Step Time =    1.000,"P-25-1",          1317,       9.78105,       14.5715,            0.,NA,NA,"",   1.26293E+06,   1.33383E+06,   1.33383E+06
C:/temp/Job-25.odb,Step-1,Increment      1: Step Time =    1.000,"P-25-1",          1318,       184.879,       11.2536,            0.,NA,NA,"",   1.00401E+06,   1.00500E+06,   1.00500E+06
C:/temp/Job-25.odb,Step-1,Increment      1: Step Time =    1.000,"P-25-1",          1319,       15.2048,       189.733,            0.,NA,NA,"",   1.33433E+06,   1.35830E+06,   1.35830E+06
C:/temp/Job-25.odb,Step-1,Increment      1: Step Time =    1.000,"P-25-1",          1320,       189.090,       184.991,            0.,NA,NA,"",   1.00275E+06,   1.00444E+06,   1.00444E+06
C:/temp/Job-25.odb,Step-1,Increment      1: Step Time =    1.000,"P-25-1",          1321,       90.7398,       166.362,            0.,NA,NA,"",   1.13007E+06,   1.17685E+06,   1.17685E+06
C:/temp/Job-25.odb,Step-1,Increment      1: Step Time =    1.000,"P-25-1",          1322,       161.508,       105.244,            0.,NA,NA,"",   717.749E+03,   751.968E+03,   751.968E+03
C:/temp/Job-25.odb,Step-1,Increment      1: Step Time =    1.000,"P-25-1",          1323,       110.070,       53.8019,            0.,NA,NA,"",   1.32827E+06,   1.42767E+06,   1.42767E+06
C:/temp/Job-25.odb,Step-1,Increment      1: Step Time =    1.000,"P-25-1",          1324,       153.795,       133.904,            0.,NA,NA,"",   1.21584E+06,   1.12947E+06,   1.12947E+06
C:/temp/Job-25.odb,Step-1,Increment      1: Step Time =    1.000,"P-25-1",          1325,       52.9091,       131.317,            0.,NA,NA,"",   1.09500E+06,   1.02965E+06,   1.02965E+06
C:/temp/Job-25.odb,Step-1,Increment      1: Step Time =    1.000,"P-25-1",          1326,       85.6380,       48.0081,            0.,NA,NA,"",   1.29879E+06,   1.35027E+06,   1.35027E+06
C:/temp/Job-25.odb,Step-1,Increment      1: Step Time =    1.000,"P-25-1",          1327,       80.8132,       161.351,            0.,NA,NA,"",   1.23585E+06,   1.25481E+06,   1.25481E+06
C:/temp/Job-25.odb,Step-1,Increment      1: Step Time =    1.000,"P-25-1",          1328,       120.480,       39.7384,            0.,NA,NA,"",   1.20687E+06,   1.22879E+06,   1.22879E+06
C:/temp/Job-25.odb,Step-1,Increment      1: Step Time =    1.000,"P-25-1",          1329,       39.1208,       78.5201,            0.,NA,NA,"",   755.106E+03,   781.237E+03,   781.237E+03
C:/temp/Job-25.odb,Step-1,Increment      1: Step Time =    1.000,"P-25-1",          1330,       113.657,       35.4179,            0.,NA,NA,"",   1.13293E+06,   1.17724E+06,   1.17724E+06
C:/temp/Job-25.odb,Step-1,Increment      1: Step Time =    1.000,"P-25-1",          1331,       34.9348,       87.1330,            0.,NA,NA,"",   597.750E+03,   655.653E+03,   655.653E+03
C:/temp/Job-25.odb,Step-1,Increment      1: Step Time =    1.000,"P-25-1",          1332,       80.5600,       151.076,            0.,NA,NA,"",   1.34165E+06,   1.35886E+06,   1.35886E+06
C:/temp/Job-25.odb,Step-1,Increment      1: Step Time =    1.000,"P-25-1",          1333,       94.9517,       163.722,            0.,NA,NA,"",   1.12537E+06,   1.18871E+06,   1.18871E+06
C:/temp/Job-25.odb,Step-1,Increment      1: Step Time =    1.000,"P-25-1",          1334,       108.465,       161.021,            0.,NA,NA,"",   1.13619E+06,   1.20453E+06,   1.20453E+06
C:/temp/Job-25.odb,Step-1,Increment      1: Step Time =    1.000,"P-25-1",          1335,       91.7243,       35.5789,            0.,NA,NA,"",   1.13616E+06,   1.19071E+06,   1.19071E+06
C:/temp/Job-25.odb,Step-1,Increment      1: Step Time =    1.000,"P-25-1",          1336,       121.179,       163.482,            0.,NA,NA,"",   1.17926E+06,   1.19804E+06,   1.19804E+06
C:/temp/Job-25.odb,Step-1,Increment      1: Step Time =    1.000,"P-25-1",          1337,       159.204,       77.2281,            0.,NA,NA,"",   1.01334E+06,   974.184E+03,   974.184E+03
C:/temp/Job-25.odb,Step-1,Increment      1: Step Time =    1.000,"P-25-1",          1338,       79.7505,       37.4327,            0.,NA,NA,"",   1.22949E+06,   1.24352E+06,   1.24352E+06
C:/temp/Job-25.odb,Step-1,Increment      1: Step Time =    1.000,"P-25-1",          1339,       39.4111,       121.446,            0.,NA,NA,"",   754.617E+03,   780.902E+03,   780.902E+03
C:/temp/Job-25.odb,Step-1,Increment      1: Step Time =    1.000,"P-25-1",          1340,       135.173,       46.4024,            0.,NA,NA,"",   1.31730E+06,   1.27033E+06,   1.27033E+06
C:/temp/Job-25.odb,Step-1,Increment      1: Step Time =    1.000,"P-25-1",          1341,       152.782,       81.8773,            0.,NA,NA,"",   958.179E+03,   894.413E+03,   894.413E+03
C:/temp/Job-25.odb,Step-1,Increment      1: Step Time =    1.000,"P-25-1",          1342,       173.280,       45.2823,            0.,NA,NA,"",   1.07376E+06,   1.06828E+06,   1.06828E+06
C:/temp/Job-25.odb,Step-1,Increment      1: Step Time =    1.000,"P-25-1",          1343,       153.920,       172.449,            0.,NA,NA,"",   1.11068E+06,   1.08978E+06,   1.08978E+06
C:/temp/Job-25.odb,Step-1,Increment      1: Step Time =    1.000,"P-25-1",          1344,       43.6640,       26.3611,            0.,NA,NA,"",   1.21845E+06,   1.20708E+06,   1.20708E+06
C:/temp/Job-25.odb,Step-1,Increment      1: Step Time =    1.000,"P-25-1",          1345,       31.9589,       151.048,            0.,NA,NA,"",   1.06377E+06,   1.08459E+06,   1.08459E+06
C:/temp/Job-25.odb,Step-1,Increment      1: Step Time =    1.000,"P-25-1",          1346,       168.402,       44.8187,            0.,NA,NA,"",   1.10554E+06,   1.08839E+06,   1.08839E+06
C:/temp/Job-25.odb,Step-1,Increment      1: Step Time =    1.000,"P-25-1",          1347,       152.937,       167.412,            0.,NA,NA,"",   1.14415E+06,   1.11563E+06,   1.11563E+06
C:/temp/Job-25.odb,Step-1,Increment      1: Step Time =    1.000,"P-25-1",          1348,       48.1778,       30.8893,            0.,NA,NA,"",   1.22607E+06,   1.20707E+06,   1.20707E+06
C:/temp/Job-25.odb,Step-1,Increment      1: Step Time =    1.000,"P-25-1",          1349,       128.147,       150.810,            0.,NA,NA,"",   1.34782E+06,   1.32112E+06,   1.32112E+06
C:/temp/Job-25.odb,Step-1,Increment      1: Step Time =    1.000,"P-25-1",          1350,       161.178,       132.408,            0.,NA,NA,"",   1.12432E+06,   1.07584E+06,   1.07584E+06
C:/temp/Job-25.odb,Step-1,Increment      1: Step Time =    1.000,"P-25-1",          1351,       108.496,       153.746,            0.,NA,NA,"",   1.20227E+06,   1.29203E+06,   1.29203E+06
C:/temp/Job-25.odb,Step-1,Increment      1: Step Time =    1.000,"P-25-1",          1352,       27.2883,       45.2700,            0.,NA,NA,"",   1.05651E+06,   1.09147E+06,   1.09147E+06
C:/temp/Job-25.odb,Step-1,Increment      1: Step Time =    1.000,"P-25-1",          1353,       153.753,       28.6942,            0.,NA,NA,"",   1.11962E+06,   1.09691E+06,   1.09691E+06
C:/temp/Job-25.odb,Step-1,Increment      1: Step Time =    1.000,"P-25-1",          1354,       44.7355,       174.323,            0.,NA,NA,"",   1.21862E+06,   1.20623E+06,   1.20623E+06
C:/temp/Job-25.odb,Step-1,Increment      1: Step Time =    1.000,"P-25-1",          1355,       170.709,       155.545,            0.,NA,NA,"",   1.09196E+06,   1.07981E+06,   1.07981E+06
C:/temp/Job-25.odb,Step-1,Increment      1: Step Time =    1.000,"P-25-1",          1356,       150.211,       86.9422,            0.,NA,NA,"",   833.889E+03,   774.587E+03,   774.587E+03
C:/temp/Job-25.odb,Step-1,Increment      1: Step Time =    1.000,"P-25-1",          1357,       61.6397,       145.261,            0.,NA,NA,"",   1.32791E+06,   1.26433E+06,   1.26433E+06
C:/temp/Job-25.odb,Step-1,Increment      1: Step Time =    1.000,"P-25-1",          1358,       49.5824,       14.4392,            0.,NA,NA,"",   1.18432E+06,   1.17703E+06,   1.17703E+06
C:/temp/Job-25.odb,Step-1,Increment      1: Step Time =    1.000,"P-25-1",          1359,       151.789,       182.966,            0.,NA,NA,"",   1.05227E+06,   1.04249E+06,   1.04249E+06
C:/temp/Job-25.odb,Step-1,Increment      1: Step Time =    1.000,"P-25-1",          1360,       14.2169,       150.086,            0.,NA,NA,"",   921.641E+03,   1.00039E+06,   1.00039E+06
C:/temp/Job-25.odb,Step-1,Increment      1: Step Time =    1.000,"P-25-1",          1361,       183.128,       47.8962,            0.,NA,NA,"",   1.01528E+06,   1.03453E+06,   1.03453E+06
C:/temp/Job-25.odb,Step-1,Increment      1: Step Time =    1.000,"P-25-1",          1362,       33.8833,       92.9938,            0.,NA,NA,"",   537.168E+03,   602.935E+03,   602.935E+03
C:/temp/Job-25.odb,Step-1,Increment      1: Step Time =    1.000,"P-25-1",          1363,       109.306,       37.7443,            0.,NA,NA,"",   1.13219E+06,   1.19504E+06,   1.19504E+06
C:/temp/Job-25.odb,Step-1,Increment      1: Step Time =    1.000,"P-25-1",          1364,       80.9023,       49.1694,            0.,NA,NA,"",   1.34209E+06,   1.36445E+06,   1.36445E+06
C:/temp/Job-25.odb,Step-1,Increment      1: Step Time =    1.000,"P-25-1",          1365,       87.8157,       44.0541,            0.,NA,NA,"",   1.23760E+06,   1.29516E+06,   1.29516E+06
C:/temp/Job-25.odb,Step-1,Increment      1: Step Time =    1.000,"P-25-1",          1366,       76.9427,       164.556,            0.,NA,NA,"",   1.22909E+06,   1.23301E+06,   1.23301E+06
C:/temp/Job-25.odb,Step-1,Increment      1: Step Time =    1.000,"P-25-1",          1367,       114.856,       41.0995,            0.,NA,NA,"",   1.18930E+06,   1.23857E+06,   1.23857E+06
C:/temp/Job-25.odb,Step-1,Increment      1: Step Time =    1.000,"P-25-1",          1368,       126.179,       38.7545,            0.,NA,NA,"",   1.22197E+06,   1.22138E+06,   1.22138E+06
C:/temp/Job-25.odb,Step-1,Increment      1: Step Time =    1.000,"P-25-1",          1369,       35.7319,       74.5508,            0.,NA,NA,"",   797.959E+03,   830.183E+03,   830.183E+03
C:/temp/Job-25.odb,Step-1,Increment      1: Step Time =    1.000,"P-25-1",          1370,       80.8216,       146.367,            0.,NA,NA,"",   1.39621E+06,   1.41323E+06,   1.41323E+06
C:/temp/Job-25.odb,Step-1,Increment      1: Step Time =    1.000,"P-25-1",          1371,       98.9900,       161.430,            0.,NA,NA,"",   1.12624E+06,   1.20218E+06,   1.20218E+06
C:/temp/Job-25.odb,Step-1,Increment      1: Step Time =    1.000,"P-25-1",          1372,       131.554,       46.7601,            0.,NA,NA,"",   1.31963E+06,   1.28477E+06,   1.28477E+06
C:/temp/Job-25.odb,Step-1,Increment      1: Step Time =    1.000,"P-25-1",          1373,       144.001,       49.4590,            0.,NA,NA,"",   1.30844E+06,   1.23702E+06,   1.23702E+06
C:/temp/Job-25.odb,Step-1,Increment      1: Step Time =    1.000,"P-25-1",          1374,       48.0143,       132.432,            0.,NA,NA,"",   1.03523E+06,   998.994E+03,   998.994E+03
C:/temp/Job-25.odb,Step-1,Increment      1: Step Time =    1.000,"P-25-1",          1375,       183.959,       185.806,            0.,NA,NA,"",   1.00654E+06,   1.00789E+06,   1.00789E+06
C:/temp/Job-25.odb,Step-1,Increment      1: Step Time =    1.000,"P-25-1",          1376,       185.766,       16.4592,            0.,NA,NA,"",   1.00556E+06,   1.00766E+06,   1.00766E+06
C:/temp/Job-25.odb,Step-1,Increment      1: Step Time =    1.000,"P-25-1",          1377,       14.1184,       13.8757,            0.,NA,NA,"",   1.29924E+06,   1.33934E+06,   1.33934E+06
C:/temp/Job-25.odb,Step-1,Increment      1: Step Time =    1.000,"P-25-1",          1378,       109.556,       47.8323,            0.,NA,NA,"",   1.23282E+06,   1.32079E+06,   1.32079E+06
C:/temp/Job-25.odb,Step-1,Increment      1: Step Time =    1.000,"P-25-1",          1379,       27.2662,       170.083,            0.,NA,NA,"",   1.16911E+06,   1.19474E+06,   1.19474E+06
C:/temp/Job-25.odb,Step-1,Increment      1: Step Time =    1.000,"P-25-1",          1380,       161.650,       100.599,            0.,NA,NA,"",   693.447E+03,   734.346E+03,   734.346E+03
C:/temp/Job-25.odb,Step-1,Increment      1: Step Time =    1.000,"P-25-1",          1381,       125.574,       162.449,            0.,NA,NA,"",   1.20846E+06,   1.21124E+06,   1.21124E+06
C:/temp/Job-25.odb,Step-1,Increment      1: Step Time =    1.000,"P-25-1",          1382,       74.5469,       33.5591,            0.,NA,NA,"",   1.22166E+06,   1.21930E+06,   1.21930E+06
C:/temp/Job-25.odb,Step-1,Increment      1: Step Time =    1.000,"P-25-1",          1383,       36.0538,       124.761,            0.,NA,NA,"",   788.292E+03,   821.276E+03,   821.276E+03
C:/temp/Job-25.odb,Step-1,Increment      1: Step Time =    1.000,"P-25-1",          1384,       163.423,       75.8565,            0.,NA,NA,"",   1.00872E+06,   989.043E+03,   989.043E+03
C:/temp/Job-25.odb,Step-1,Increment      1: Step Time =    1.000,"P-25-1",          1385,       87.9376,       162.013,            0.,NA,NA,"",   1.18195E+06,   1.22886E+06,   1.22886E+06
C:/temp/Job-25.odb,Step-1,Increment      1: Step Time =    1.000,"P-25-1",          1386,       104.905,       36.0329,            0.,NA,NA,"",   1.10846E+06,   1.17410E+06,   1.17410E+06
C:/temp/Job-25.odb,Step-1,Increment      1: Step Time =    1.000,"P-25-1",          1387,       136.015,       163.451,            0.,NA,NA,"",   1.21571E+06,   1.18853E+06,   1.18853E+06
C:/temp/Job-25.odb,Step-1,Increment      1: Step Time =    1.000,"P-25-1",          1388,       64.3515,       38.3529,            0.,NA,NA,"",   1.27904E+06,   1.24934E+06,   1.24934E+06
C:/temp/Job-25.odb,Step-1,Increment      1: Step Time =    1.000,"P-25-1",          1389,       34.1178,       134.122,            0.,NA,NA,"",   902.696E+03,   930.070E+03,   930.070E+03
C:/temp/Job-25.odb,Step-1,Increment      1: Step Time =    1.000,"P-25-1",          1390,       163.663,       65.4721,            0.,NA,NA,"",   1.11182E+06,   1.07699E+06,   1.07699E+06
C:/temp/Job-25.odb,Step-1,Increment      1: Step Time =    1.000,"P-25-1",          1391,       164.054,       126.468,            0.,NA,NA,"",   1.03411E+06,   1.01176E+06,   1.01176E+06
C:/temp/Job-25.odb,Step-1,Increment      1: Step Time =    1.000,"P-25-1",          1392,       129.731,       146.799,            0.,NA,NA,"",   1.39564E+06,   1.34880E+06,   1.34880E+06
C:/temp/Job-25.odb,Step-1,Increment      1: Step Time =    1.000,"P-25-1",          1393,       92.3008,       46.7589,            0.,NA,NA,"",   1.23406E+06,   1.31876E+06,   1.31876E+06
C:/temp/Job-25.odb,Step-1,Increment      1: Step Time =    1.000,"P-25-1",          1394,       155.122,       184.859,            0.,NA,NA,"",   1.03981E+06,   1.03237E+06,   1.03237E+06
C:/temp/Job-25.odb,Step-1,Increment      1: Step Time =    1.000,"P-25-1",          1395,       185.095,       44.6350,            0.,NA,NA,"",   1.00756E+06,   1.02722E+06,   1.02722E+06
C:/temp/Job-25.odb,Step-1,Increment      1: Step Time =    1.000,"P-25-1",          1396,       14.5414,       155.048,            0.,NA,NA,"",   966.337E+03,   1.04295E+06,   1.04295E+06
C:/temp/Job-25.odb,Step-1,Increment      1: Step Time =    1.000,"P-25-1",          1397,       47.3278,       13.0148,            0.,NA,NA,"",   1.18357E+06,   1.17737E+06,   1.17737E+06
C:/temp/Job-25.odb,Step-1,Increment      1: Step Time =    1.000,"P-25-1",          1398,       131.018,       43.8032,            0.,NA,NA,"",   1.28766E+06,   1.26100E+06,   1.26100E+06
C:/temp/Job-25.odb,Step-1,Increment      1: Step Time =    1.000,"P-25-1",          1399,       190.564,       15.5892,            0.,NA,NA,"",   1.00159E+06,   1.00340E+06,   1.00340E+06
C:/temp/Job-25.odb,Step-1,Increment      1: Step Time =    1.000,"P-25-1",          1400,       184.593,       190.554,            0.,NA,NA,"",   1.00304E+06,   1.00379E+06,   1.00379E+06
C:/temp/Job-25.odb,Step-1,Increment      1: Step Time =    1.000,"P-25-1",          1401,       14.5702,       9.75215,            0.,NA,NA,"",   1.34547E+06,   1.36829E+06,   1.36829E+06
C:/temp/Job-25.odb,Step-1,Increment      1: Step Time =    1.000,"P-25-1",          1402,       10.3251,       184.635,            0.,NA,NA,"",   1.25406E+06,   1.32347E+06,   1.32347E+06
C:/temp/Job-25.odb,Step-1,Increment      1: Step Time =    1.000,"P-25-1",          1403,       112.318,       44.5580,            0.,NA,NA,"",   1.21018E+06,   1.27764E+06,   1.27764E+06
C:/temp/Job-25.odb,Step-1,Increment      1: Step Time =    1.000,"P-25-1",          1404,       130.396,       31.0117,            0.,NA,NA,"",   1.15585E+06,   1.14751E+06,   1.14751E+06
C:/temp/Job-25.odb,Step-1,Increment      1: Step Time =    1.000,"P-25-1",          1405,       72.2545,       166.288,            0.,NA,NA,"",   1.23487E+06,   1.22599E+06,   1.22599E+06
C:/temp/Job-25.odb,Step-1,Increment      1: Step Time =    1.000,"P-25-1",          1406,       106.217,       45.3047,            0.,NA,NA,"",   1.18700E+06,   1.27847E+06,   1.27847E+06
C:/temp/Job-25.odb,Step-1,Increment      1: Step Time =    1.000,"P-25-1",          1407,       174.854,       163.335,            0.,NA,NA,"",   1.05684E+06,   1.05399E+06,   1.05399E+06
C:/temp/Job-25.odb,Step-1,Increment      1: Step Time =    1.000,"P-25-1",          1408,       25.6346,       40.8028,            0.,NA,NA,"",   1.08022E+06,   1.11860E+06,   1.11860E+06
C:/temp/Job-25.odb,Step-1,Increment      1: Step Time =    1.000,"P-25-1",          1409,       161.253,       25.3179,            0.,NA,NA,"",   1.07977E+06,   1.06558E+06,   1.06558E+06
C:/temp/Job-25.odb,Step-1,Increment      1: Step Time =    1.000,"P-25-1",          1410,       35.6389,       146.796,            0.,NA,NA,"",   1.05783E+06,   1.06788E+06,   1.06788E+06
C:/temp/Job-25.odb,Step-1,Increment      1: Step Time =    1.000,"P-25-1",          1411,       163.669,       50.3721,            0.,NA,NA,"",   1.14988E+06,   1.11616E+06,   1.11616E+06
C:/temp/Job-25.odb,Step-1,Increment      1: Step Time =    1.000,"P-25-1",          1412,       152.075,       162.800,            0.,NA,NA,"",   1.17918E+06,   1.14176E+06,   1.14176E+06
C:/temp/Job-25.odb,Step-1,Increment      1: Step Time =    1.000,"P-25-1",          1413,       52.1269,       35.2090,            0.,NA,NA,"",   1.24434E+06,   1.21656E+06,   1.21656E+06
C:/temp/Job-25.odb,Step-1,Increment      1: Step Time =    1.000,"P-25-1",          1414,       29.5381,       49.9491,            0.,NA,NA,"",   1.03509E+06,   1.06508E+06,   1.06508E+06
C:/temp/Job-25.odb,Step-1,Increment      1: Step Time =    1.000,"P-25-1",          1415,       164.742,       153.567,            0.,NA,NA,"",   1.13487E+06,   1.10738E+06,   1.10738E+06
C:/temp/Job-25.odb,Step-1,Increment      1: Step Time =    1.000,"P-25-1",          1416,       150.042,       30.3873,            0.,NA,NA,"",   1.14059E+06,   1.11424E+06,   1.11424E+06
C:/temp/Job-25.odb,Step-1,Increment      1: Step Time =    1.000,"P-25-1",          1417,       47.7621,       170.376,            0.,NA,NA,"",   1.22579E+06,   1.20826E+06,   1.20826E+06
C:/temp/Job-25.odb,Step-1,Increment      1: Step Time =    1.000,"P-25-1",          1418,       108.357,       156.634,            0.,NA,NA,"",   1.17010E+06,   1.25278E+06,   1.25278E+06
C:/temp/Job-25.odb,Step-1,Increment      1: Step Time =    1.000,"P-25-1",          1419,       111.834,       39.1499,            0.,NA,NA,"",   1.15346E+06,   1.21191E+06,   1.21191E+06
C:/temp/Job-25.odb,Step-1,Increment      1: Step Time =    1.000,"P-25-1",          1420,       57.2697,       145.630,            0.,NA,NA,"",   1.28590E+06,   1.22598E+06,   1.22598E+06
C:/temp/Job-25.odb,Step-1,Increment      1: Step Time =    1.000,"P-25-1",          1421,       65.9966,       140.900,            0.,NA,NA,"",   1.37745E+06,    1.3034E+06,    1.3034E+06
C:/temp/Job-25.odb,Step-1,Increment      1: Step Time =    1.000,"P-25-1",          1422,       78.0718,       149.218,            0.,NA,NA,"",   1.37011E+06,   1.37101E+06,   1.37101E+06
C:/temp/Job-25.odb,Step-1,Increment      1: Step Time =    1.000,"P-25-1",          1423,       128.747,       45.9735,            0.,NA,NA,"",   1.30810E+06,   1.28608E+06,   1.28608E+06
C:/temp/Job-25.odb,Step-1,Increment      1: Step Time =    1.000,"P-25-1",          1424,       139.258,       45.7916,            0.,NA,NA,"",   1.30146E+06,   1.24648E+06,   1.24648E+06
C:/temp/Job-25.odb,Step-1,Increment      1: Step Time =    1.000,"P-25-1",          1425,       100.781,       38.8345,            0.,NA,NA,"",   1.12552E+06,   1.20149E+06,   1.20149E+06
C:/temp/Job-25.odb,Step-1,Increment      1: Step Time =    1.000,"P-25-1",          1426,       130.862,       161.079,            0.,NA,NA,"",   1.23609E+06,   1.21882E+06,   1.21882E+06
C:/temp/Job-25.odb,Step-1,Increment      1: Step Time =    1.000,"P-25-1",          1427,       140.068,       164.900,            0.,NA,NA,"",   1.19990E+06,   1.16852E+06,   1.16852E+06
C:/temp/Job-25.odb,Step-1,Increment      1: Step Time =    1.000,"P-25-1",          1428,       69.3276,       38.7598,            0.,NA,NA,"",   1.27914E+06,   1.25895E+06,   1.25895E+06
C:/temp/Job-25.odb,Step-1,Increment      1: Step Time =    1.000,"P-25-1",          1429,       38.3778,       129.856,            0.,NA,NA,"",   880.241E+03,   895.234E+03,   895.234E+03
C:/temp/Job-25.odb,Step-1,Increment      1: Step Time =    1.000,"P-25-1",          1430,       162.425,       70.9837,            0.,NA,NA,"",   1.07911E+06,   1.04309E+06,   1.04309E+06
C:/temp/Job-25.odb,Step-1,Increment      1: Step Time =    1.000,"P-25-1",          1431,       163.961,       60.5993,            0.,NA,NA,"",   1.13418E+06,   1.09836E+06,   1.09836E+06
C:/temp/Job-25.odb,Step-1,Increment      1: Step Time =    1.000,"P-25-1",          1432,       165.768,       131.027,            0.,NA,NA,"",   1.06843E+06,   1.04658E+06,   1.04658E+06
C:/temp/Job-25.odb,Step-1,Increment      1: Step Time =    1.000,"P-25-1",          1433,       99.4754,       45.9072,            0.,NA,NA,"",   1.19135E+06,   1.29076E+06,   1.29076E+06
C:/temp/Job-25.odb,Step-1,Increment      1: Step Time =    1.000,"P-25-1",          1434,       81.7569,       46.1125,            0.,NA,NA,"",   1.30587E+06,   1.33196E+06,   1.33196E+06
C:/temp/Job-25.odb,Step-1,Increment      1: Step Time =    1.000,"P-25-1",          1435,       48.4718,       136.973,            0.,NA,NA,"",   1.10702E+06,   1.06569E+06,   1.06569E+06
C:/temp/Job-25.odb,Step-1,Increment      1: Step Time =    1.000,"P-25-1",          1436,       157.367,       161.535,            0.,NA,NA,"",   1.15754E+06,   1.12406E+06,   1.12406E+06
C:/temp/Job-25.odb,Step-1,Increment      1: Step Time =    1.000,"P-25-1",          1437,       37.7175,       154.810,            0.,NA,NA,"",   1.14011E+06,   1.13873E+06,   1.13873E+06
C:/temp/Job-25.odb,Step-1,Increment      1: Step Time =    1.000,"P-25-1",          1438,       43.6993,       35.6656,            0.,NA,NA,"",   1.21081E+06,   1.19627E+06,   1.19627E+06
C:/temp/Job-25.odb,Step-1,Increment      1: Step Time =    1.000,"P-25-1",          1439,       163.479,       43.8792,            0.,NA,NA,"",   1.14086E+06,   1.11155E+06,   1.11155E+06
C:/temp/Job-25.odb,Step-1,Increment      1: Step Time =    1.000,"P-25-1",          1440,       157.704,       123.262,            0.,NA,NA,"",   1.03068E+06,   980.476E+03,   980.476E+03
C:/temp/Job-25.odb,Step-1,Increment      1: Step Time =    1.000,"P-25-1",          1441,       153.117,       77.3936,            0.,NA,NA,"",   1.05894E+06,   980.263E+03,   980.263E+03
C:/temp/Job-25.odb,Step-1,Increment      1: Step Time =    1.000,"P-25-1",          1442,       77.9615,       143.508,            0.,NA,NA,"",   1.43226E+06,   1.42315E+06,   1.42315E+06
C:/temp/Job-25.odb,Step-1,Increment      1: Step Time =    1.000,"P-25-1",          1443,       47.1387,       128.027,            0.,NA,NA,"",   952.734E+03,   925.641E+03,   925.641E+03
C:/temp/Job-25.odb,Step-1,Increment      1: Step Time =    1.000,"P-25-1",          1444,       148.389,       79.1899,            0.,NA,NA,"",   1.07489E+06,   959.120E+03,   959.120E+03
C:/temp/Job-25.odb,Step-1,Increment      1: Step Time =    1.000,"P-25-1",          1445,       34.4556,       164.177,            0.,NA,NA,"",   1.16847E+06,   1.17585E+06,   1.17585E+06
C:/temp/Job-25.odb,Step-1,Increment      1: Step Time =    1.000,"P-25-1",          1446,       166.043,       165.904,            0.,NA,NA,"",   1.09398E+06,   1.07808E+06,   1.07808E+06
C:/temp/Job-25.odb,Step-1,Increment      1: Step Time =    1.000,"P-25-1",          1447,       34.7045,       35.6049,            0.,NA,NA,"",   1.17009E+06,   1.17673E+06,   1.17673E+06
C:/temp/Job-25.odb,Step-1,Increment      1: Step Time =    1.000,"P-25-1",          1448,       165.724,       32.2612,            0.,NA,NA,"",   1.08913E+06,   1.07413E+06,   1.07413E+06
C:/temp/Job-25.odb,Step-1,Increment      1: Step Time =    1.000,"P-25-1",          1449,       144.048,       53.7709,            0.,NA,NA,"",   1.33523E+06,   1.24836E+06,   1.24836E+06
C:/temp/Job-25.odb,Step-1,Increment      1: Step Time =    1.000,"P-25-1",          1450,       69.9767,       153.599,            0.,NA,NA,"",   1.33388E+06,   1.30358E+06,   1.30358E+06
C:/temp/Job-25.odb,Step-1,Increment      1: Step Time =    1.000,"P-25-1",          1451,       162.915,       137.945,            0.,NA,NA,"",   1.14050E+06,   1.09890E+06,   1.09890E+06
C:/temp/Job-25.odb,Step-1,Increment      1: Step Time =    1.000,"P-25-1",          1452,       77.6010,       45.8768,            0.,NA,NA,"",   1.31771E+06,   1.32086E+06,   1.32086E+06
C:/temp/Job-25.odb,Step-1,Increment      1: Step Time =    1.000,"P-25-1",          1453,       132.794,       38.0376,            0.,NA,NA,"",   1.22567E+06,   1.20448E+06,   1.20448E+06
C:/temp/Job-25.odb,Step-1,Increment      1: Step Time =    1.000,"P-25-1",          1454,       100.593,       54.0051,            0.,NA,NA,"",   1.31335E+06,   1.44240E+06,   1.44240E+06
C:/temp/Job-25.odb,Step-1,Increment      1: Step Time =    1.000,"P-25-1",          1455,       33.2360,       142.111,            0.,NA,NA,"",   989.108E+03,   1.01119E+06,   1.01119E+06
C:/temp/Job-25.odb,Step-1,Increment      1: Step Time =    1.000,"P-25-1",          1456,       163.871,       55.7260,            0.,NA,NA,"",   1.14664E+06,   1.11105E+06,   1.11105E+06
C:/temp/Job-25.odb,Step-1,Increment      1: Step Time =    1.000,"P-25-1",          1457,       143.474,       165.018,            0.,NA,NA,"",   1.19120E+06,   1.15750E+06,   1.15750E+06
C:/temp/Job-25.odb,Step-1,Increment      1: Step Time =    1.000,"P-25-1",          1458,       55.4773,       35.6551,            0.,NA,NA,"",   1.25415E+06,   1.22386E+06,   1.22386E+06
C:/temp/Job-25.odb,Step-1,Increment      1: Step Time =    1.000,"P-25-1",          1459,       67.2390,       136.473,            0.,NA,NA,"",   1.38643E+06,   1.29661E+06,   1.29661E+06
C:/temp/Job-25.odb,Step-1,Increment      1: Step Time =    1.000,"P-25-1",          1460,       80.4159,       154.641,            0.,NA,NA,"",   1.30374E+06,   1.32192E+06,   1.32192E+06
C:/temp/Job-25.odb,Step-1,Increment      1: Step Time =    1.000,"P-25-1",          1461,       142.018,       161.211,            0.,NA,NA,"",   1.22697E+06,   1.18701E+06,   1.18701E+06
C:/temp/Job-25.odb,Step-1,Increment      1: Step Time =    1.000,"P-25-1",          1462,       59.9043,       38.4715,            0.,NA,NA,"",   1.27296E+06,   1.23946E+06,   1.23946E+06
C:/temp/Job-25.odb,Step-1,Increment      1: Step Time =    1.000,"P-25-1",          1463,       34.1047,       137.904,            0.,NA,NA,"",   950.903E+03,   973.885E+03,   973.885E+03
C:/temp/Job-25.odb,Step-1,Increment      1: Step Time =    1.000,"P-25-1",          1464,       159.397,       60.8036,            0.,NA,NA,"",   1.17766E+06,   1.12175E+06,   1.12175E+06
C:/temp/Job-25.odb,Step-1,Increment      1: Step Time =    1.000,"P-25-1",          1465,       42.7568,       129.176,            0.,NA,NA,"",   918.391E+03,   913.132E+03,   913.132E+03
C:/temp/Job-25.odb,Step-1,Increment      1: Step Time =    1.000,"P-25-1",          1466,       48.7428,       141.495,            0.,NA,NA,"",   1.16028E+06,   1.11848E+06,   1.11848E+06
C:/temp/Job-25.odb,Step-1,Increment      1: Step Time =    1.000,"P-25-1",          1467,       160.905,       164.890,            0.,NA,NA,"",   1.12508E+06,   1.10034E+06,   1.10034E+06
C:/temp/Job-25.odb,Step-1,Increment      1: Step Time =    1.000,"P-25-1",          1468,       36.8653,       162.223,            0.,NA,NA,"",   1.17103E+06,   1.17238E+06,   1.17238E+06
C:/temp/Job-25.odb,Step-1,Increment      1: Step Time =    1.000,"P-25-1",          1469,       39.3112,       35.5543,            0.,NA,NA,"",   1.19330E+06,   1.18760E+06,   1.18760E+06
C:/temp/Job-25.odb,Step-1,Increment      1: Step Time =    1.000,"P-25-1",          1470,       166.188,       37.2308,            0.,NA,NA,"",   1.10410E+06,   1.08590E+06,   1.08590E+06
C:/temp/Job-25.odb,Step-1,Increment      1: Step Time =    1.000,"P-25-1",          1471,       151.178,       73.8127,            0.,NA,NA,"",   1.15565E+06,   1.05498E+06,   1.05498E+06
C:/temp/Job-25.odb,Step-1,Increment      1: Step Time =    1.000,"P-25-1",          1472,       80.9981,       140.267,            0.,NA,NA,"",   1.47405E+06,   1.48603E+06,   1.48603E+06
C:/temp/Job-25.odb,Step-1,Increment      1: Step Time =    1.000,"P-25-1",          1473,       32.6109,       160.509,            0.,NA,NA,"",   1.13798E+06,   1.15124E+06,   1.15124E+06
C:/temp/Job-25.odb,Step-1,Increment      1: Step Time =    1.000,"P-25-1",          1474,       163.655,       168.911,            0.,NA,NA,"",   1.09543E+06,   1.07843E+06,   1.07843E+06
C:/temp/Job-25.odb,Step-1,Increment      1: Step Time =    1.000,"P-25-1",          1475,       35.9623,       30.8475,            0.,NA,NA,"",   1.19713E+06,   1.19910E+06,   1.19910E+06
C:/temp/Job-25.odb,Step-1,Increment      1: Step Time =    1.000,"P-25-1",          1476,       169.779,       39.8259,            0.,NA,NA,"",   1.09019E+06,   1.07722E+06,   1.07722E+06
C:/temp/Job-25.odb,Step-1,Increment      1: Step Time =    1.000,"P-25-1",          1477,       66.1752,       145.093,            0.,NA,NA,"",   1.36774E+06,   1.30811E+06,   1.30811E+06
C:/temp/Job-25.odb,Step-1,Increment      1: Step Time =    1.000,"P-25-1",          1478,       57.0274,       150.476,            0.,NA,NA,"",   1.28716E+06,   1.23708E+06,   1.23708E+06
C:/temp/Job-25.odb,Step-1,Increment      1: Step Time =    1.000,"P-25-1",          1479,       38.0523,       40.3463,            0.,NA,NA,"",   1.16572E+06,   1.16419E+06,   1.16419E+06
C:/temp/Job-25.odb,Step-1,Increment      1: Step Time =    1.000,"P-25-1",          1480,       42.7444,       163.721,            0.,NA,NA,"",   1.20635E+06,   1.19360E+06,   1.19360E+06
C:/temp/Job-25.odb,Step-1,Increment      1: Step Time =    1.000,"P-25-1",          1481,       160.925,       35.8693,            0.,NA,NA,"",   1.12829E+06,   1.10278E+06,   1.10278E+06
C:/temp/Job-25.odb,Step-1,Increment      1: Step Time =    1.000,"P-25-1",          1482,       162.139,       159.121,            0.,NA,NA,"",   1.13969E+06,   1.11089E+06,   1.11089E+06
C:/temp/Job-25.odb,Step-1,Increment      1: Step Time =    1.000,"P-25-1",          1483,       150.955,       34.3870,            0.,NA,NA,"",   1.16429E+06,   1.13178E+06,   1.13178E+06
C:/temp/Job-25.odb,Step-1,Increment      1: Step Time =    1.000,"P-25-1",          1484,       45.8321,       167.031,            0.,NA,NA,"",   1.22359E+06,   1.20643E+06,   1.20643E+06
C:/temp/Job-25.odb,Step-1,Increment      1: Step Time =    1.000,"P-25-1",          1485,       160.519,       155.007,            0.,NA,NA,"",   1.16351E+06,   1.12676E+06,   1.12676E+06
C:/temp/Job-25.odb,Step-1,Increment      1: Step Time =    1.000,"P-25-1",          1486,       34.5278,       47.6556,            0.,NA,NA,"",   1.09470E+06,   1.10611E+06,   1.10611E+06
C:/temp/Job-25.odb,Step-1,Increment      1: Step Time =    1.000,"P-25-1",          1487,       103.173,       42.3504,            0.,NA,NA,"",   1.15346E+06,   1.23923E+06,   1.23923E+06
C:/temp/Job-25.odb,Step-1,Increment      1: Step Time =    1.000,"P-25-1",          1488,       72.1524,       144.339,            0.,NA,NA,"",   1.40813E+06,   1.36412E+06,   1.36412E+06
C:/temp/Job-25.odb,Step-1,Increment      1: Step Time =    1.000,"P-25-1",          1489,       161.820,       87.7096,            0.,NA,NA,"",   819.303E+03,   831.029E+03,   831.029E+03
C:/temp/Job-25.odb,Step-1,Increment      1: Step Time =    1.000,"P-25-1",          1490,       59.9788,       43.6272,            0.,NA,NA,"",   1.29178E+06,   1.25047E+06,   1.25047E+06
C:/temp/Job-25.odb,Step-1,Increment      1: Step Time =    1.000,"P-25-1",          1491,       141.366,       156.291,            0.,NA,NA,"",   1.27251E+06,   1.22108E+06,   1.22108E+06
C:/temp/Job-25.odb,Step-1,Increment      1: Step Time =    1.000,"P-25-1",          1492,       43.8882,       142.358,            0.,NA,NA,"",   1.10603E+06,   1.08467E+06,   1.08467E+06
C:/temp/Job-25.odb,Step-1,Increment      1: Step Time =    1.000,"P-25-1",          1493,       154.263,       57.0560,            0.,NA,NA,"",   1.23858E+06,   1.16632E+06,   1.16632E+06
C:/temp/Job-25.odb,Step-1,Increment      1: Step Time =    1.000,"P-25-1",          1494,       167.384,       135.591,            0.,NA,NA,"",   1.08881E+06,   1.06898E+06,   1.06898E+06
C:/temp/Job-25.odb,Step-1,Increment      1: Step Time =    1.000,"P-25-1",          1495,       138.651,       41.5255,            0.,NA,NA,"",   1.26020E+06,   1.21860E+06,   1.21860E+06
C:/temp/Job-25.odb,Step-1,Increment      1: Step Time =    1.000,"P-25-1",          1496,       53.2586,       140.982,            0.,NA,NA,"",   1.21770E+06,   1.15850E+06,   1.15850E+06
C:/temp/Job-25.odb,Step-1,Increment      1: Step Time =    1.000,"P-25-1",          1497,       155.139,       70.4761,            0.,NA,NA,"",   1.15435E+06,   1.07714E+06,   1.07714E+06
C:/temp/Job-25.odb,Step-1,Increment      1: Step Time =    1.000,"P-25-1",          1498,       64.8981,       148.784,            0.,NA,NA,"",   1.34378E+06,   1.29190E+06,   1.29190E+06
C:/temp/Job-25.odb,Step-1,Increment      1: Step Time =    1.000,"P-25-1",          1499,       62.8189,       154.385,            0.,NA,NA,"",   1.30815E+06,   1.26653E+06,   1.26653E+06
C:/temp/Job-25.odb,Step-1,Increment      1: Step Time =    1.000,"P-25-1",          1500,       73.5197,       134.707,            0.,NA,NA,"",   1.47033E+06,   1.39791E+06,   1.39791E+06
C:/temp/Job-25.odb,Step-1,Increment      1: Step Time =    1.000,"P-25-1",          1501,       129.059,       41.0960,            0.,NA,NA,"",   1.25530E+06,   1.24106E+06,   1.24106E+06
C:/temp/Job-25.odb,Step-1,Increment      1: Step Time =    1.000,"P-25-1",          1502,       92.9605,       54.0312,            0.,NA,NA,"",   1.33862E+06,   1.44787E+06,   1.44787E+06
C:/temp/Job-25.odb,Step-1,Increment      1: Step Time =    1.000,"P-25-1",          1503,       52.0877,       151.277,            0.,NA,NA,"",   1.24450E+06,   1.20277E+06,   1.20277E+06
C:/temp/Job-25.odb,Step-1,Increment      1: Step Time =    1.000,"P-25-1",          1504,       67.0519,       157.124,            0.,NA,NA,"",   1.30706E+06,   1.27603E+06,   1.27603E+06
C:/temp/Job-25.odb,Step-1,Increment      1: Step Time =    1.000,"P-25-1",          1505,       63.9130,       48.5652,            0.,NA,NA,"",   1.32964E+06,   1.28148E+06,   1.28148E+06
C:/temp/Job-25.odb,Step-1,Increment      1: Step Time =    1.000,"P-25-1",          1506,       137.537,       152.799,            0.,NA,NA,"",   1.31796E+06,   1.26169E+06,   1.26169E+06
C:/temp/Job-25.odb,Step-1,Increment      1: Step Time =    1.000,"P-25-1",          1507,       154.941,       61.4019,            0.,NA,NA,"",   1.22299E+06,   1.14688E+06,   1.14688E+06
C:/temp/Job-25.odb,Step-1,Increment      1: Step Time =    1.000,"P-25-1",          1508,       141.631,       32.7811,            0.,NA,NA,"",   1.17698E+06,   1.14956E+06,   1.14956E+06
C:/temp/Job-25.odb,Step-1,Increment      1: Step Time =    1.000,"P-25-1",          1509,       152.123,       69.1335,            0.,NA,NA,"",   1.20755E+06,   1.11072E+06,   1.11072E+06
C:/temp/Job-25.odb,Step-1,Increment      1: Step Time =    1.000,"P-25-1",          1510,       57.4960,       154.699,            0.,NA,NA,"",   1.28237E+06,   1.24005E+06,   1.24005E+06
C:/temp/Job-25.odb,Step-1,Increment      1: Step Time =    1.000,"P-25-1",          1511,       49.0109,       149.223,            0.,NA,NA,"",   1.21000E+06,   1.17325E+06,   1.17325E+06
C:/temp/Job-25.odb,Step-1,Increment      1: Step Time =    1.000,"P-25-1",          1512,       166.832,       141.389,            0.,NA,NA,"",   1.11825E+06,   1.09294E+06,   1.09294E+06
C:/temp/Job-25.odb,Step-1,Increment      1: Step Time =    1.000,"P-25-1",          1513,       44.6601,       146.691,            0.,NA,NA,"",   1.15043E+06,   1.12618E+06,   1.12618E+06
C:/temp/Job-25.odb,Step-1,Increment      1: Step Time =    1.000,"P-25-1",          1514,       151.721,       66.1812,            0.,NA,NA,"",   1.23354E+06,   1.13740E+06,   1.13740E+06
C:/temp/Job-25.odb,Step-1,Increment      1: Step Time =    1.000,"P-25-1",          1515,       148.205,       67.5543,            0.,NA,NA,"",   1.27216E+06,   1.15622E+06,   1.15622E+06
C:/temp/Job-25.odb,Step-1,Increment      1: Step Time =    1.000,"P-25-1",          1516,       59.5661,       49.0645,            0.,NA,NA,"",   1.30531E+06,   1.25341E+06,   1.25341E+06
C:/temp/Job-25.odb,Step-1,Increment      1: Step Time =    1.000,"P-25-1",          1517,       68.7955,       44.3106,            0.,NA,NA,"",   1.32013E+06,   1.29027E+06,   1.29027E+06
C:/temp/Job-25.odb,Step-1,Increment      1: Step Time =    1.000,"P-25-1",          1518,       140.327,       149.255,            0.,NA,NA,"",   1.34006E+06,   1.26672E+06,   1.26672E+06
C:/temp/Job-25.odb,Step-1,Increment      1: Step Time =    1.000,"P-25-1",          1519,       131.172,       152.981,            0.,NA,NA,"",   1.32218E+06,   1.28714E+06,   1.28714E+06
C:/temp/Job-25.odb,Step-1,Increment      1: Step Time =    1.000,"P-25-1",          1520,       148.878,       58.3392,            0.,NA,NA,"",   1.29826E+06,   1.20490E+06,   1.20490E+06
C:/temp/Job-25.odb,Step-1,Increment      1: Step Time =    1.000,"P-25-1",          1521,       45.7358,       150.646,            0.,NA,NA,"",   1.18706E+06,   1.16043E+06,   1.16043E+06
C:/temp/Job-25.odb,Step-1,Increment      1: Step Time =    1.000,"P-25-1",          1522,       59.7817,       162.019,            0.,NA,NA,"",   1.27051E+06,   1.23871E+06,   1.23871E+06
C:/temp/Job-25.odb,Step-1,Increment      1: Step Time =    1.000,"P-25-1",          1523,       48.9949,       156.935,            0.,NA,NA,"",   1.22975E+06,   1.20057E+06,   1.20057E+06
C:/temp/Job-25.odb,Step-1,Increment      1: Step Time =    1.000,"P-25-1",          1524,       41.8017,       152.281,            0.,NA,NA,"",   1.16029E+06,   1.14576E+06,   1.14576E+06
C:/temp/Job-25.odb,Step-1,Increment      1: Step Time =    1.000,"P-25-1",          1525,       164.863,       144.627,            0.,NA,NA,"",   1.14126E+06,   1.10862E+06,   1.10862E+06
C:/temp/Job-25.odb,Step-1,Increment      1: Step Time =    1.000,"P-25-1",          1526,       54.6775,       47.2130,            0.,NA,NA,"",   1.26545E+06,   1.22116E+06,   1.22116E+06
C:/temp/Job-25.odb,Step-1,Increment      1: Step Time =    1.000,"P-25-1",          1527,       143.984,       152.187,            0.,NA,NA,"",   1.29532E+06,   1.22999E+06,   1.22999E+06
C:/temp/Job-25.odb,Step-1,Increment      1: Step Time =    1.000,"P-25-1",          1528,       133.782,       149.323,            0.,NA,NA,"",   1.36016E+06,   1.30433E+06,   1.30433E+06
C:/temp/Job-25.odb,Step-1,Increment      1: Step Time =    1.000,"P-25-1",          1529,       153.886,       52.4011,            0.,NA,NA,"",   1.24032E+06,   1.17474E+06,   1.17474E+06
C:/temp/Job-25.odb,Step-1,Increment      1: Step Time =    1.000,"P-25-1",          1530,       61.7868,       164.166,            0.,NA,NA,"",   1.26330E+06,   1.23492E+06,   1.23492E+06
C:/temp/Job-25.odb,Step-1,Increment      1: Step Time =    1.000,"P-25-1",          1531,       56.2560,       162.804,            0.,NA,NA,"",   1.26051E+06,   1.22961E+06,   1.22961E+06
C:/temp/Job-25.odb,Step-1,Increment      1: Step Time =    1.000,"P-25-1",          1532,       68.1567,       49.4444,            0.,NA,NA,"",   1.34975E+06,   1.30796E+06,   1.30796E+06
C:/temp/Job-25.odb,Step-1,Increment      1: Step Time =    1.000,"P-25-1",          1533,       143.752,       57.8960,            0.,NA,NA,"",   1.35464E+06,   1.25200E+06,   1.25200E+06
C:/temp/Job-25.odb,Step-1,Increment      1: Step Time =    1.000,"P-25-1",          1534,       155.034,       155.492,            0.,NA,NA,"",   1.20285E+06,   1.15524E+06,   1.15524E+06
C:/temp/Job-25.odb,Step-1,Increment      1: Step Time =    1.000,"P-25-1",          1535,       49.7597,       44.9701,            0.,NA,NA,"",   1.23093E+06,   1.19801E+06,   1.19801E+06
C:/temp/Job-25.odb,Step-1,Increment      1: Step Time =    1.000,"P-25-1",          1536,       153.363,       47.7087,            0.,NA,NA,"",   1.22952E+06,   1.17267E+06,   1.17267E+06
C:/temp/Job-25.odb,Step-1,Increment      1: Step Time =    1.000,"P-25-1",          1537,       73.3959,       45.1936,            0.,NA,NA,"",   1.32408E+06,   1.30821E+06,   1.30821E+06
C:/temp/Job-25.odb,Step-1,Increment      1: Step Time =    1.000,"P-25-1",          1538,       66.7148,       53.5902,            0.,NA,NA,"",   1.37135E+06,   1.31412E+06,   1.31412E+06
C:/temp/Job-25.odb,Step-1,Increment      1: Step Time =    1.000,"P-25-1",          1539,       47.4076,       153.917,            0.,NA,NA,"",   1.21446E+06,   1.18613E+06,   1.18613E+06
C:/temp/Job-25.odb,Step-1,Increment      1: Step Time =    1.000,"P-25-1",          1540,       57.8818,       166.946,            0.,NA,NA,"",   1.24576E+06,   1.21984E+06,   1.21984E+06
C:/temp/Job-25.odb,Step-1,Increment      1: Step Time =    1.000,"P-25-1",          1541,       150.485,       151.687,            0.,NA,NA,"",   1.25549E+06,   1.19236E+06,   1.19236E+06
C:/temp/Job-25.odb,Step-1,Increment      1: Step Time =    1.000,"P-25-1",          1542,       48.2725,       39.8995,            0.,NA,NA,"",   1.22842E+06,   1.20203E+06,   1.20203E+06
C:/temp/Job-25.odb,Step-1,Increment      1: Step Time =    1.000,"P-25-1",          1543,       49.3724,       49.8654,            0.,NA,NA,"",   1.21401E+06,   1.17716E+06,   1.17716E+06
C:/temp/Job-25.odb,Step-1,Increment      1: Step Time =    1.000,"P-25-1",          1544,       148.653,       48.7194,            0.,NA,NA,"",   1.27012E+06,   1.20390E+06,   1.20390E+06
C:/temp/Job-25.odb,Step-1,Increment      1: Step Time =    1.000,"P-25-1",          1545,       158.146,       46.2852,            0.,NA,NA,"",   1.18719E+06,   1.14277E+06,   1.14277E+06
C:/temp/Job-25.odb,Step-1,Increment      1: Step Time =    1.000,"P-25-1",          1546,       77.7894,       50.0114,            0.,NA,NA,"",   1.36013E+06,   1.36214E+06,   1.36214E+06
C:/temp/Job-25.odb,Step-1,Increment      1: Step Time =    1.000,"P-25-1",          1547,       78.3266,       42.3479,            0.,NA,NA,"",   1.28197E+06,   1.29000E+06,   1.29000E+06
C:/temp/Job-25.odb,Step-1,Increment      1: Step Time =    1.000,"P-25-1",          1548,       46.4702,       160.268,            0.,NA,NA,"",   1.21978E+06,   1.19720E+06,   1.19720E+06
C:/temp/Job-25.odb,Step-1,Increment      1: Step Time =    1.000,"P-25-1",          1549,       68.1156,       163.269,            0.,NA,NA,"",   1.26694E+06,   1.24600E+06,   1.24600E+06
C:/temp/Job-25.odb,Step-1,Increment      1: Step Time =    1.000,"P-25-1",          1550,       50.9158,       163.533,            0.,NA,NA,"",   1.24144E+06,   1.21479E+06,   1.21479E+06
C:/temp/Job-25.odb,Step-1,Increment      1: Step Time =    1.000,"P-25-1",          1551,       156.694,       150.092,            0.,NA,NA,"",   1.20830E+06,   1.15513E+06,   1.15513E+06
C:/temp/Job-25.odb,Step-1,Increment      1: Step Time =    1.000,"P-25-1",          1552,       148.148,       44.2206,            0.,NA,NA,"",   1.24541E+06,   1.19076E+06,   1.19076E+06
C:/temp/Job-25.odb,Step-1,Increment      1: Step Time =    1.000,"P-25-1",          1553,       45.2513,       49.9904,            0.,NA,NA,"",   1.17399E+06,   1.14998E+06,   1.14998E+06
C:/temp/Job-25.odb,Step-1,Increment      1: Step Time =    1.000,"P-25-1",          1554,       143.630,       45.0595,            0.,NA,NA,"",   1.27636E+06,   1.21903E+06,   1.21903E+06
C:/temp/Job-25.odb,Step-1,Increment      1: Step Time =    1.000,"P-25-1",          1555,       152.888,       147.656,            0.,NA,NA,"",   1.24917E+06,   1.18141E+06,   1.18141E+06
C:/temp/Job-25.odb,Step-1,Increment      1: Step Time =    1.000,"P-25-1",          1556,       46.1801,       54.3512,            0.,NA,NA,"",   1.15940E+06,   1.13084E+06,   1.13084E+06
C:/temp/Job-25.odb,Step-1,Increment      1: Step Time =    1.000,"P-25-1",          1557,       149.040,       145.023,            0.,NA,NA,"",   1.29502E+06,   1.21090E+06,   1.21090E+06
C:/temp/Job-25.odb,Step-1,Increment      1: Step Time =    1.000,"P-25-1",          1558,       50.3756,       54.5011,            0.,NA,NA,"",   1.20428E+06,   1.16143E+06,   1.16143E+06
C:/temp/Job-25.odb,Step-1,Increment      1: Step Time =    1.000,"P-25-1",          1559,       151.858,       38.6815,            0.,NA,NA,"",   1.18903E+06,   1.14916E+06,   1.14916E+06
C:/temp/Job-25.odb,Step-1,Increment      1: Step Time =    1.000,"P-25-1",          1560,       40.8653,       50.7659,            0.,NA,NA,"",   1.12738E+06,   1.11791E+06,   1.11791E+06
C:/temp/Job-25.odb,Step-1,Increment      1: Step Time =    1.000,"P-25-1",          1561,       155.182,       143.401,            0.,NA,NA,"",   1.23069E+06,   1.16205E+06,   1.16205E+06
C:/temp/Job-25.odb,Step-1,Increment      1: Step Time =    1.000,"P-25-1",          1562,       43.8162,       58.4196,            0.,NA,NA,"",   1.09759E+06,   1.07758E+06,   1.07758E+06
C:/temp/Job-25.odb,Step-1,Increment      1: Step Time =    1.000,"P-25-1",          1563,       145.269,       142.617,            0.,NA,NA,"",   1.33819E+06,   1.23957E+06,   1.23957E+06
C:/temp/Job-25.odb,Step-1,Increment      1: Step Time =    1.000,"P-25-1",          1564,       54.7505,       57.5590,            0.,NA,NA,"",   1.23828E+06,   1.17945E+06,   1.17945E+06
C:/temp/Job-25.odb,Step-1,Increment      1: Step Time =    1.000,"P-25-1",          1565,       146.762,       35.4643,            0.,NA,NA,"",   1.18663E+06,   1.15149E+06,   1.15149E+06
C:/temp/Job-25.odb,Step-1,Increment      1: Step Time =    1.000,"P-25-1",          1566,       163.035,       148.930,            0.,NA,NA,"",   1.15586E+06,   1.11993E+06,   1.11993E+06
C:/temp/Job-25.odb,Step-1,Increment      1: Step Time =    1.000,"P-25-1",          1567,       36.5057,       52.3266,            0.,NA,NA,"",   1.07470E+06,   1.08124E+06,   1.08124E+06
C:/temp/Job-25.odb,Step-1,Increment      1: Step Time =    1.000,"P-25-1",          1568,       38.6840,       56.7591,            0.,NA,NA,"",   1.05463E+06,   1.05569E+06,   1.05569E+06
C:/temp/Job-25.odb,Step-1,Increment      1: Step Time =    1.000,"P-25-1",          1569,       39.4624,       45.9758,            0.,NA,NA,"",   1.14537E+06,   1.14004E+06,   1.14004E+06
C:/temp/Job-25.odb,Step-1,Increment      1: Step Time =    1.000,"P-25-1",          1570,       156.173,       37.3054,            0.,NA,NA,"",   1.16023E+06,   1.12655E+06,   1.12655E+06
C:/temp/Job-25.odb,Step-1,Increment      1: Step Time =    1.000,"P-25-1",          1571,       160.010,       151.359,            0.,NA,NA,"",   1.17853E+06,   1.13591E+06,   1.13591E+06
C:/temp/Job-25.odb,Step-1,Increment      1: Step Time =    1.000,"P-25-1",          1572,       140.379,       143.899,            0.,NA,NA,"",   1.37623E+06,   1.28104E+06,   1.28104E+06
C:/temp/Job-25.odb,Step-1,Increment      1: Step Time =    1.000,"P-25-1",          1573,       57.1248,       53.5096,            0.,NA,NA,"",   1.28240E+06,   1.22487E+06,   1.22487E+06
C:/temp/Job-25.odb,Step-1,Increment      1: Step Time =    1.000,"P-25-1",          1574,       142.354,       36.5688,            0.,NA,NA,"",   1.20603E+06,   1.17105E+06,   1.17105E+06
C:/temp/Job-25.odb,Step-1,Increment      1: Step Time =    1.000,"P-25-1",          1575,       61.1699,       56.0708,            0.,NA,NA,"",   1.32385E+06,   1.25608E+06,   1.25608E+06
C:/temp/Job-25.odb,Step-1,Increment      1: Step Time =    1.000,"P-25-1",          1576,       34.8403,       58.8006,            0.,NA,NA,"",   997.474E+03,   1.01409E+06,   1.01409E+06
C:/temp/Job-25.odb,Step-1,Increment      1: Step Time =    1.000,"P-25-1",          1577,       37.3158,       62.5766,            0.,NA,NA,"",   978.836E+03,    989.82E+03,    989.82E+03
C:/temp/Job-25.odb,Step-1,Increment      1: Step Time =    1.000,"P-25-1",          1578,       137.214,       139.454,            0.,NA,NA,"",   1.43429E+06,   1.32226E+06,   1.32226E+06
C:/temp/Job-25.odb,Step-1,Increment      1: Step Time =    1.000,"P-25-1",          1579,       121.357,       45.2365,            0.,NA,NA,"",   1.27671E+06,   1.29526E+06,   1.29526E+06
C:/temp/Job-25.odb,Step-1,Increment      1: Step Time =    1.000,"P-25-1",          1580,       42.3401,       75.9418,            0.,NA,NA,"",   830.099E+03,   835.479E+03,   835.479E+03
C:/temp/Job-25.odb,Step-1,Increment      1: Step Time =    1.000,"P-25-1",          1581,       38.4283,       66.4332,            0.,NA,NA,"",   941.989E+03,   950.955E+03,   950.955E+03
C:/temp/Job-25.odb,Step-1,Increment      1: Step Time =    1.000,"P-25-1",          1582,       89.4017,       19.4339,            0.,NA,NA,"",   1.04186E+06,   1.06022E+06,   1.06022E+06
C:/temp/Job-25.odb,Step-1,Increment      1: Step Time =    1.000,"P-25-1",          1583,       20.4374,       112.733,            0.,NA,NA,"",   611.368E+03,   688.850E+03,   688.850E+03
C:/temp/Job-25.odb,Step-1,Increment      1: Step Time =    1.000,"P-25-1",          1584,       180.879,       90.2738,            0.,NA,NA,"",   860.520E+03,   942.158E+03,   942.158E+03
C:/temp/Job-25.odb,Step-1,Increment      1: Step Time =    1.000,"P-25-1",          1585,       108.903,       180.586,            0.,NA,NA,"",   1.00555E+06,   1.02774E+06,   1.02774E+06
C:/temp/Job-25.odb,Step-1,Increment      1: Step Time =    1.000,"P-25-1",          1586,       34.5602,       64.9449,            0.,NA,NA,"",   925.052E+03,   948.744E+03,   948.744E+03
C:/temp/Job-25.odb,Step-1,Increment      1: Step Time =    1.000,"P-25-1",          1587,       161.144,       142.204,            0.,NA,NA,"",   1.16996E+06,   1.12244E+06,   1.12244E+06
C:/temp/Job-25.odb,Step-1,Increment      1: Step Time =    1.000,"P-25-1",          1588,       151.086,       141.028,            0.,NA,NA,"",   1.27299E+06,   1.18495E+06,   1.18495E+06
C:/temp/Job-25.odb,Step-1,Increment      1: Step Time =    1.000,"P-25-1",          1589,       159.115,       68.8627,            0.,NA,NA,"",   1.13076E+06,   1.07435E+06,   1.07435E+06
C:/temp/Job-25.odb,Step-1,Increment      1: Step Time =    1.000,"P-25-1",          1590,       54.2319,       93.2548,            0.,NA,NA,"",   411.255E+03,   407.379E+03,   407.379E+03
C:/temp/Job-25.odb,Step-1,Increment      1: Step Time =    1.000,"P-25-1",          1591,       146.211,       160.287,            0.,NA,NA,"",   1.22328E+06,   1.17872E+06,   1.17872E+06
C:/temp/Job-25.odb,Step-1,Increment      1: Step Time =    1.000,"P-25-1",          1592,       159.173,       56.1955,            0.,NA,NA,"",   1.18952E+06,   1.13619E+06,   1.13619E+06
C:/temp/Job-25.odb,Step-1,Increment      1: Step Time =    1.000,"P-25-1",          1593,       38.4479,       143.463,            0.,NA,NA,"",   1.05496E+06,   1.05619E+06,   1.05619E+06
C:/temp/Job-25.odb,Step-1,Increment      1: Step Time =    1.000,"P-25-1",          1594,       49.0489,       76.4543,            0.,NA,NA,"",   891.950E+03,   858.968E+03,   858.968E+03
C:/temp/Job-25.odb,Step-1,Increment      1: Step Time =    1.000,"P-25-1",          1595,       36.6898,       69.3659,            0.,NA,NA,"",   886.313E+03,   905.650E+03,   905.650E+03
C:/temp/Job-25.odb,Step-1,Increment      1: Step Time =    1.000,"P-25-1",          1596,       74.3620,       162.035,            0.,NA,NA,"",   1.26158E+06,   1.25611E+06,   1.25611E+06
C:/temp/Job-25.odb,Step-1,Increment      1: Step Time =    1.000,"P-25-1",          1597,       47.8031,       58.7658,            0.,NA,NA,"",   1.14178E+06,   1.10608E+06,   1.10608E+06
C:/temp/Job-25.odb,Step-1,Increment      1: Step Time =    1.000,"P-25-1",          1598,       25.3678,       10.1375,            0.,NA,NA,"",   1.26954E+06,   1.27550E+06,   1.27550E+06
C:/temp/Job-25.odb,Step-1,Increment      1: Step Time =    1.000,"P-25-1",          1599,       9.80292,       174.314,            0.,NA,NA,"",   1.10533E+06,   1.19379E+06,   1.19379E+06
C:/temp/Job-25.odb,Step-1,Increment      1: Step Time =    1.000,"P-25-1",          1600,       191.865,       29.6617,            0.,NA,NA,"",   997.187E+03,   1.00618E+06,   1.00618E+06
C:/temp/Job-25.odb,Step-1,Increment      1: Step Time =    1.000,"P-25-1",          1601,       170.385,       191.613,            0.,NA,NA,"",   1.01003E+06,   1.00919E+06,   1.00919E+06
C:/temp/Job-25.odb,Step-1,Increment      1: Step Time =    1.000,"P-25-1",          1602,       62.0087,       100.563,            0.,NA,NA,"",   236.256E+03,   31.6694E+03,   31.6694E+03
C:/temp/Job-25.odb,Step-1,Increment      1: Step Time =    1.000,"P-25-1",          1603,       112.635,       151.890,            0.,NA,NA,"",   1.25557E+06,   1.32740E+06,   1.32740E+06
C:/temp/Job-25.odb,Step-1,Increment      1: Step Time =    1.000,"P-25-1",          1604,       60.8532,       169.943,            0.,NA,NA,"",   1.23006E+06,   1.20848E+06,   1.20848E+06
C:/temp/Job-25.odb,Step-1,Increment      1: Step Time =    1.000,"P-25-1",          1605,       86.5084,       147.425,            0.,NA,NA,"",   1.35436E+06,   1.41599E+06,   1.41599E+06
C:/temp/Job-25.odb,Step-1,Increment      1: Step Time =    1.000,"P-25-1",          1606,       50.2277,       65.7857,            0.,NA,NA,"",   1.09749E+06,   1.04851E+06,   1.04851E+06
C:/temp/Job-25.odb,Step-1,Increment      1: Step Time =    1.000,"P-25-1",          1607,       90.1324,       39.8801,            0.,NA,NA,"",   1.18076E+06,   1.23941E+06,   1.23941E+06
C:/temp/Job-25.odb,Step-1,Increment      1: Step Time =    1.000,"P-25-1",          1608,       127.495,       155.451,            0.,NA,NA,"",   1.29104E+06,   1.27726E+06,   1.27726E+06
C:/temp/Job-25.odb,Step-1,Increment      1: Step Time =    1.000,"P-25-1",          1609,       102.722,       159.406,            0.,NA,NA,"",   1.13759E+06,   1.21936E+06,   1.21936E+06
C:/temp/Job-25.odb,Step-1,Increment      1: Step Time =    1.000,"P-25-1",          1610,       186.912,       57.8561,            0.,NA,NA,"",   977.884E+03,    1.0218E+06,    1.0218E+06
C:/temp/Job-25.odb,Step-1,Increment      1: Step Time =    1.000,"P-25-1",          1611,       58.0043,       12.6504,            0.,NA,NA,"",   1.14206E+06,   1.13557E+06,   1.13557E+06
C:/temp/Job-25.odb,Step-1,Increment      1: Step Time =    1.000,"P-25-1",          1612,       142.004,       186.934,            0.,NA,NA,"",   1.02317E+06,   1.01730E+06,   1.01730E+06
C:/temp/Job-25.odb,Step-1,Increment      1: Step Time =    1.000,"P-25-1",          1613,       9.50472,       140.353,            0.,NA,NA,"",   815.589E+03,   903.533E+03,   903.533E+03
C:/temp/Job-25.odb,Step-1,Increment      1: Step Time =    1.000,"P-25-1",          1614,       70.7998,       159.667,            0.,NA,NA,"",   1.28949E+06,   1.27140E+06,   1.27140E+06
C:/temp/Job-25.odb,Step-1,Increment      1: Step Time =    1.000,"P-25-1",          1615,       44.3485,       66.9128,            0.,NA,NA,"",   1.00009E+06,   982.611E+03,   982.611E+03
C:/temp/Job-25.odb,Step-1,Increment      1: Step Time =    1.000,"P-25-1",          1616,       45.2817,       73.0168,            0.,NA,NA,"",   915.652E+03,   899.747E+03,   899.747E+03
C:/temp/Job-25.odb,Step-1,Increment      1: Step Time =    1.000,"P-25-1",          1617,       48.0388,       9.73362,            0.,NA,NA,"",   1.16939E+06,   1.16553E+06,   1.16553E+06
C:/temp/Job-25.odb,Step-1,Increment      1: Step Time =    1.000,"P-25-1",          1618,       189.278,       46.9932,            0.,NA,NA,"",   986.169E+03,   1.01651E+06,   1.01651E+06
C:/temp/Job-25.odb,Step-1,Increment      1: Step Time =    1.000,"P-25-1",          1619,       152.881,       189.186,            0.,NA,NA,"",   1.01804E+06,   1.01352E+06,   1.01352E+06
C:/temp/Job-25.odb,Step-1,Increment      1: Step Time =    1.000,"P-25-1",          1620,       9.59434,       150.148,            0.,NA,NA,"",   894.038E+03,   983.946E+03,   983.946E+03
C:/temp/Job-25.odb,Step-1,Increment      1: Step Time =    1.000,"P-25-1",          1621,       46.1554,       63.2436,            0.,NA,NA,"",   1.07234E+06,   1.04344E+06,   1.04344E+06
C:/temp/Job-25.odb,Step-1,Increment      1: Step Time =    1.000,"P-25-1",          1622,       47.9124,       69.6379,            0.,NA,NA,"",   1.00599E+06,   971.457E+03,   971.457E+03
C:/temp/Job-25.odb,Step-1,Increment      1: Step Time =    1.000,"P-25-1",          1623,       134.516,       94.5352,            0.,NA,NA,"",   513.330E+03,  -69.6883E+03,  -69.6883E+03
C:/temp/Job-25.odb,Step-1,Increment      1: Step Time =    1.000,"P-25-1",          1624,       4.94376,       4.95024,            0.,NA,NA,"",   1.54186E+06,   1.60217E+06,   1.60217E+06
C:/temp/Job-25.odb,Step-1,Increment      1: Step Time =    1.000,"P-25-1",          1625,       70.4114,       107.067,            0.,NA,NA,"",   519.983E+03,  -449.758E+03,  -449.758E+03
C:/temp/Job-25.odb,Step-1,Increment      1: Step Time =    1.000,"P-25-1",          1626,       43.9674,       9.55226,            0.,NA,NA,"",   1.18588E+06,   1.18290E+06,   1.18290E+06
C:/temp/Job-25.odb,Step-1,Increment      1: Step Time =    1.000,"P-25-1",          1627,       9.76895,       25.1343,            0.,NA,NA,"",   1.11124E+06,   1.19944E+06,   1.19944E+06
C:/temp/Job-25.odb,Step-1,Increment      1: Step Time =    1.000,"P-25-1",          1628,       191.140,       20.4467,            0.,NA,NA,"",   1.00108E+06,   1.00440E+06,   1.00440E+06
C:/temp/Job-25.odb,Step-1,Increment      1: Step Time =    1.000,"P-25-1",          1629,       179.692,       191.017,            0.,NA,NA,"",   1.00547E+06,   1.00580E+06,   1.00580E+06
C:/temp/Job-25.odb,Step-1,Increment      1: Step Time =    1.000,"P-25-1",          1630,       97.3568,       139.280,            0.,NA,NA,"",   1.53161E+06,   1.68144E+06,   1.68144E+06
C:/temp/Job-25.odb,Step-1,Increment      1: Step Time =    1.000,"P-25-1",          1631,       66.6228,       108.217,            0.,NA,NA,"",   495.598E+03,  -84.2262E+03,  -84.2262E+03
C:/temp/Job-25.odb,Step-1,Increment      1: Step Time =    1.000,"P-25-1",          1632,       9.78013,       155.179,            0.,NA,NA,"",   935.994E+03,   1.02626E+06,   1.02626E+06
C:/temp/Job-25.odb,Step-1,Increment      1: Step Time =    1.000,"P-25-1",          1633,       103.210,       59.2114,            0.,NA,NA,"",   1.45911E+06,   1.60358E+06,   1.60358E+06
C:/temp/Job-25.odb,Step-1,Increment      1: Step Time =    1.000,"P-25-1",          1634,       39.3268,       183.665,            0.,NA,NA,"",   1.21448E+06,   1.21099E+06,   1.21099E+06
C:/temp/Job-25.odb,Step-1,Increment      1: Step Time =    1.000,"P-25-1",          1635,       11.4354,       48.4551,            0.,NA,NA,"",   920.665E+03,   1.00568E+06,   1.00568E+06
C:/temp/Job-25.odb,Step-1,Increment      1: Step Time =    1.000,"P-25-1",          1636,       13.1075,       52.1925,            0.,NA,NA,"",   894.215E+03,   975.839E+03,   975.839E+03
C:/temp/Job-25.odb,Step-1,Increment      1: Step Time =    1.000,"P-25-1",          1637,       126.004,       69.2719,            0.,NA,NA,"",   1.54799E+06,   1.44872E+06,   1.44872E+06
C:/temp/Job-25.odb,Step-1,Increment      1: Step Time =    1.000,"P-25-1",          1638,       56.3477,       19.7306,            0.,NA,NA,"",   1.18454E+06,   1.17173E+06,   1.17173E+06
C:/temp/Job-25.odb,Step-1,Increment      1: Step Time =    1.000,"P-25-1",          1639,       67.3430,       14.5620,            0.,NA,NA,"",   1.11214E+06,   1.10687E+06,   1.10687E+06
C:/temp/Job-25.odb,Step-1,Increment      1: Step Time =    1.000,"P-25-1",          1640,       148.282,       12.1674,            0.,NA,NA,"",   1.02125E+06,   1.01596E+06,   1.01596E+06
C:/temp/Job-25.odb,Step-1,Increment      1: Step Time =    1.000,"P-25-1",          1641,       179.575,       56.9262,            0.,NA,NA,"",   1.02288E+06,   1.04380E+06,   1.04380E+06
C:/temp/Job-25.odb,Step-1,Increment      1: Step Time =    1.000,"P-25-1",          1642,       185.440,       67.5784,            0.,NA,NA,"",   956.277E+03,   1.01470E+06,   1.01470E+06
C:/temp/Job-25.odb,Step-1,Increment      1: Step Time =    1.000,"P-25-1",          1643,       187.850,       148.180,            0.,NA,NA,"",   983.568E+03,   1.01958E+06,   1.01958E+06
C:/temp/Job-25.odb,Step-1,Increment      1: Step Time =    1.000,"P-25-1",          1644,       142.806,       179.695,            0.,NA,NA,"",   1.07502E+06,   1.06268E+06,   1.06268E+06
C:/temp/Job-25.odb,Step-1,Increment      1: Step Time =    1.000,"P-25-1",          1645,       132.316,       185.400,            0.,NA,NA,"",   1.01785E+06,   1.01506E+06,   1.01506E+06
C:/temp/Job-25.odb,Step-1,Increment      1: Step Time =    1.000,"P-25-1",          1646,       50.9987,       186.477,            0.,NA,NA,"",   1.17546E+06,   1.16832E+06,   1.16832E+06
C:/temp/Job-25.odb,Step-1,Increment      1: Step Time =    1.000,"P-25-1",          1647,       155.248,       18.7826,            0.,NA,NA,"",   1.05768E+06,   1.04718E+06,   1.04718E+06
C:/temp/Job-25.odb,Step-1,Increment      1: Step Time =    1.000,"P-25-1",          1648,       181.129,       155.724,            0.,NA,NA,"",   1.02746E+06,   1.03951E+06,   1.03951E+06
C:/temp/Job-25.odb,Step-1,Increment      1: Step Time =    1.000,"P-25-1",          1649,       56.9172,       89.0584,            0.,NA,NA,"",   571.165E+03,   511.080E+03,   511.080E+03
C:/temp/Job-25.odb,Step-1,Increment      1: Step Time =    1.000,"P-25-1",          1650,       61.5887,       111.041,            0.,NA,NA,"",   617.368E+03,   495.756E+03,   495.756E+03
C:/temp/Job-25.odb,Step-1,Increment      1: Step Time =    1.000,"P-25-1",          1651,       63.1283,       105.618,            0.,NA,NA,"",   380.138E+03,   116.052E+03,   116.052E+03
C:/temp/Job-25.odb,Step-1,Increment      1: Step Time =    1.000,"P-25-1",          1652,       14.2813,       29.7820,            0.,NA,NA,"",   1.09929E+06,   1.17154E+06,   1.17154E+06
C:/temp/Job-25.odb,Step-1,Increment      1: Step Time =    1.000,"P-25-1",          1653,       14.5355,       34.0093,            0.,NA,NA,"",   1.06158E+06,   1.13524E+06,   1.13524E+06
C:/temp/Job-25.odb,Step-1,Increment      1: Step Time =    1.000,"P-25-1",          1654,       51.3040,       16.8827,            0.,NA,NA,"",   1.18847E+06,   1.17869E+06,   1.17869E+06
C:/temp/Job-25.odb,Step-1,Increment      1: Step Time =    1.000,"P-25-1",          1655,       42.4664,       182.627,            0.,NA,NA,"",   1.20695E+06,   1.20147E+06,   1.20147E+06
C:/temp/Job-25.odb,Step-1,Increment      1: Step Time =    1.000,"P-25-1",          1656,       16.0735,       19.8345,            0.,NA,NA,"",   1.21464E+06,   1.26732E+06,   1.26732E+06
C:/temp/Job-25.odb,Step-1,Increment      1: Step Time =    1.000,"P-25-1",          1657,       182.408,       22.7995,            0.,NA,NA,"",   1.01357E+06,   1.01653E+06,   1.01653E+06
C:/temp/Job-25.odb,Step-1,Increment      1: Step Time =    1.000,"P-25-1",          1658,       178.116,       182.159,            0.,NA,NA,"",   1.01795E+06,   1.01799E+06,   1.01799E+06
C:/temp/Job-25.odb,Step-1,Increment      1: Step Time =    1.000,"P-25-1",          1659,       148.773,       180.516,            0.,NA,NA,"",   1.06777E+06,   1.05545E+06,   1.05545E+06
C:/temp/Job-25.odb,Step-1,Increment      1: Step Time =    1.000,"P-25-1",          1660,       180.587,       50.8437,            0.,NA,NA,"",   1.02539E+06,   1.04229E+06,   1.04229E+06
C:/temp/Job-25.odb,Step-1,Increment      1: Step Time =    1.000,"P-25-1",          1661,       71.1557,       138.388,            0.,NA,NA,"",   1.43433E+06,   1.36528E+06,   1.36528E+06
C:/temp/Job-25.odb,Step-1,Increment      1: Step Time =    1.000,"P-25-1",          1662,       62.7194,       135.737,            0.,NA,NA,"",   1.32024E+06,   1.22566E+06,   1.22566E+06
C:/temp/Job-25.odb,Step-1,Increment      1: Step Time =    1.000,"P-25-1",          1663,       43.4562,       179.128,            0.,NA,NA,"",   1.21187E+06,   1.20354E+06,   1.20354E+06
C:/temp/Job-25.odb,Step-1,Increment      1: Step Time =    1.000,"P-25-1",          1664,       51.6386,       98.5899,            0.,NA,NA,"",   334.057E+03,   367.219E+03,   367.219E+03
C:/temp/Job-25.odb,Step-1,Increment      1: Step Time =    1.000,"P-25-1",          1665,       19.8349,       37.6227,            0.,NA,NA,"",   1.06834E+06,   1.12453E+06,   1.12453E+06
C:/temp/Job-25.odb,Step-1,Increment      1: Step Time =    1.000,"P-25-1",          1666,       182.866,       39.1014,            0.,NA,NA,"",   1.01890E+06,   1.03008E+06,   1.03008E+06
C:/temp/Job-25.odb,Step-1,Increment      1: Step Time =    1.000,"P-25-1",          1667,       160.602,       182.305,            0.,NA,NA,"",   1.04470E+06,   1.03713E+06,   1.03713E+06
C:/temp/Job-25.odb,Step-1,Increment      1: Step Time =    1.000,"P-25-1",          1668,       156.371,       22.7749,            0.,NA,NA,"",   1.07816E+06,   1.06390E+06,   1.06390E+06
C:/temp/Job-25.odb,Step-1,Increment      1: Step Time =    1.000,"P-25-1",          1669,       57.9014,       81.5327,            0.,NA,NA,"",   874.645E+03,   778.633E+03,   778.633E+03
C:/temp/Job-25.odb,Step-1,Increment      1: Step Time =    1.000,"P-25-1",          1670,       109.187,       150.044,            0.,NA,NA,"",   1.25890E+06,   1.35369E+06,   1.35369E+06
C:/temp/Job-25.odb,Step-1,Increment      1: Step Time =    1.000,"P-25-1",          1671,       83.0463,       57.1139,            0.,NA,NA,"",   1.43834E+06,   1.47358E+06,   1.47358E+06
C:/temp/Job-25.odb,Step-1,Increment      1: Step Time =    1.000,"P-25-1",          1672,       152.264,       24.8285,            0.,NA,NA,"",   1.09792E+06,   1.07994E+06,   1.07994E+06
C:/temp/Job-25.odb,Step-1,Increment      1: Step Time =    1.000,"P-25-1",          1673,       177.085,       157.428,            0.,NA,NA,"",   1.05015E+06,   1.05263E+06,   1.05263E+06
C:/temp/Job-25.odb,Step-1,Increment      1: Step Time =    1.000,"P-25-1",          1674,       103.197,       48.9265,            0.,NA,NA,"",   1.22340E+06,   1.33278E+06,   1.33278E+06
C:/temp/Job-25.odb,Step-1,Increment      1: Step Time =    1.000,"P-25-1",          1675,       174.677,       153.234,            0.,NA,NA,"",   1.06680E+06,   1.06498E+06,   1.06498E+06
C:/temp/Job-25.odb,Step-1,Increment      1: Step Time =    1.000,"P-25-1",          1676,       125.749,       64.4403,            0.,NA,NA,"",   1.54417E+06,   1.47722E+06,   1.47722E+06
C:/temp/Job-25.odb,Step-1,Increment      1: Step Time =    1.000,"P-25-1",          1677,       131.667,       72.8780,            0.,NA,NA,"",   1.44746E+06,   1.26681E+06,   1.26681E+06
C:/temp/Job-25.odb,Step-1,Increment      1: Step Time =    1.000,"P-25-1",          1678,       144.587,       132.076,            0.,NA,NA,"",   1.32686E+06,   1.18969E+06,   1.18969E+06
C:/temp/Job-25.odb,Step-1,Increment      1: Step Time =    1.000,"P-25-1",          1679,       17.7422,       176.512,            0.,NA,NA,"",   1.18297E+06,   1.23397E+06,   1.23397E+06
C:/temp/Job-25.odb,Step-1,Increment      1: Step Time =    1.000,"P-25-1",          1680,       70.5517,       68.8565,            0.,NA,NA,"",   1.41119E+06,   1.30170E+06,   1.30170E+06
C:/temp/Job-25.odb,Step-1,Increment      1: Step Time =    1.000,"P-25-1",          1681,       150.061,       14.8349,            0.,NA,NA,"",   1.03804E+06,   1.03038E+06,   1.03038E+06
C:/temp/Job-25.odb,Step-1,Increment      1: Step Time =    1.000,"P-25-1",          1682,       147.802,       14.4798,            0.,NA,NA,"",   1.03751E+06,   1.02996E+06,   1.02996E+06
C:/temp/Job-25.odb,Step-1,Increment      1: Step Time =    1.000,"P-25-1",          1683,       185.125,       150.057,            0.,NA,NA,"",   1.00249E+06,   1.02885E+06,   1.02885E+06
C:/temp/Job-25.odb,Step-1,Increment      1: Step Time =    1.000,"P-25-1",          1684,       185.460,       147.699,            0.,NA,NA,"",   999.106E+03,   1.02860E+06,   1.02860E+06
C:/temp/Job-25.odb,Step-1,Increment      1: Step Time =    1.000,"P-25-1",          1685,       173.610,       182.753,            0.,NA,NA,"",   1.02352E+06,   1.02179E+06,   1.02179E+06
C:/temp/Job-25.odb,Step-1,Increment      1: Step Time =    1.000,"P-25-1",          1686,       183.672,       26.8344,            0.,NA,NA,"",   1.01265E+06,   1.01772E+06,   1.01772E+06
C:/temp/Job-25.odb,Step-1,Increment      1: Step Time =    1.000,"P-25-1",          1687,       22.1051,       20.6126,            0.,NA,NA,"",   1.21904E+06,   1.24900E+06,   1.24900E+06
C:/temp/Job-25.odb,Step-1,Increment      1: Step Time =    1.000,"P-25-1",          1688,       175.635,       50.4741,            0.,NA,NA,"",   1.05818E+06,   1.06076E+06,   1.06076E+06
C:/temp/Job-25.odb,Step-1,Increment      1: Step Time =    1.000,"P-25-1",          1689,       148.909,       175.557,            0.,NA,NA,"",   1.10163E+06,   1.08336E+06,   1.08336E+06
C:/temp/Job-25.odb,Step-1,Increment      1: Step Time =    1.000,"P-25-1",          1690,       18.7188,       22.3374,            0.,NA,NA,"",   1.18888E+06,   1.23464E+06,   1.23464E+06
C:/temp/Job-25.odb,Step-1,Increment      1: Step Time =    1.000,"P-25-1",          1691,       168.446,       19.0873,            0.,NA,NA,"",   1.03799E+06,   1.03306E+06,   1.03306E+06
C:/temp/Job-25.odb,Step-1,Increment      1: Step Time =    1.000,"P-25-1",          1692,       181.678,       169.197,            0.,NA,NA,"",   1.02268E+06,   1.02720E+06,   1.02720E+06
C:/temp/Job-25.odb,Step-1,Increment      1: Step Time =    1.000,"P-25-1",          1693,       74.7316,       140.856,            0.,NA,NA,"",   1.45029E+06,   1.41082E+06,   1.41082E+06
C:/temp/Job-25.odb,Step-1,Increment      1: Step Time =    1.000,"P-25-1",          1694,       127.955,       181.395,            0.,NA,NA,"",   1.04056E+06,   1.04032E+06,   1.04032E+06
C:/temp/Job-25.odb,Step-1,Increment      1: Step Time =    1.000,"P-25-1",          1695,       71.6002,       18.5596,            0.,NA,NA,"",   1.12191E+06,   1.11757E+06,   1.11757E+06
C:/temp/Job-25.odb,Step-1,Increment      1: Step Time =    1.000,"P-25-1",          1696,       181.574,       71.9731,            0.,NA,NA,"",   956.811E+03,   1.00982E+06,   1.00982E+06
C:/temp/Job-25.odb,Step-1,Increment      1: Step Time =    1.000,"P-25-1",          1697,       47.0778,       180.659,            0.,NA,NA,"",   1.20153E+06,   1.19174E+06,   1.19174E+06
C:/temp/Job-25.odb,Step-1,Increment      1: Step Time =    1.000,"P-25-1",          1698,       51.9360,       117.702,            0.,NA,NA,"",   753.751E+03,   719.509E+03,   719.509E+03
C:/temp/Job-25.odb,Step-1,Increment      1: Step Time =    1.000,"P-25-1",          1699,       38.9155,       19.1650,            0.,NA,NA,"",   1.21750E+06,   1.21404E+06,   1.21404E+06
C:/temp/Job-25.odb,Step-1,Increment      1: Step Time =    1.000,"P-25-1",          1700,       30.8960,       19.3899,            0.,NA,NA,"",   1.22820E+06,   1.23560E+06,   1.23560E+06
C:/temp/Job-25.odb,Step-1,Increment      1: Step Time =    1.000,"P-25-1",          1701,       168.485,       55.4892,            0.,NA,NA,"",   1.10700E+06,   1.08883E+06,   1.08883E+06
C:/temp/Job-25.odb,Step-1,Increment      1: Step Time =    1.000,"P-25-1",          1702,       143.855,       169.078,            0.,NA,NA,"",   1.15797E+06,   1.13085E+06,   1.13085E+06
C:/temp/Job-25.odb,Step-1,Increment      1: Step Time =    1.000,"P-25-1",          1703,       179.078,       40.5501,            0.,NA,NA,"",   1.03888E+06,   1.04408E+06,   1.04408E+06
C:/temp/Job-25.odb,Step-1,Increment      1: Step Time =    1.000,"P-25-1",          1704,       158.993,       178.343,            0.,NA,NA,"",   1.06618E+06,   1.05458E+06,   1.05458E+06
C:/temp/Job-25.odb,Step-1,Increment      1: Step Time =    1.000,"P-25-1",          1705,       80.0318,       53.7473,            0.,NA,NA,"",   1.39912E+06,   1.41149E+06,   1.41149E+06
C:/temp/Job-25.odb,Step-1,Increment      1: Step Time =    1.000,"P-25-1",          1706,       69.0834,       142.109,            0.,NA,NA,"",   1.40321E+06,   1.34011E+06,   1.34011E+06
C:/temp/Job-25.odb,Step-1,Increment      1: Step Time =    1.000,"P-25-1",          1707,       125.344,       59.5047,            0.,NA,NA,"",   1.48387E+06,   1.44481E+06,   1.44481E+06
C:/temp/Job-25.odb,Step-1,Increment      1: Step Time =    1.000,"P-25-1",          1708,       130.000,       59.0943,            0.,NA,NA,"",   1.46949E+06,   1.39465E+06,   1.39465E+06
C:/temp/Job-25.odb,Step-1,Increment      1: Step Time =    1.000,"P-25-1",          1709,       137.522,       75.7871,            0.,NA,NA,"",   1.31350E+06,   1.11489E+06,   1.11489E+06
C:/temp/Job-25.odb,Step-1,Increment      1: Step Time =    1.000,"P-25-1",          1710,       157.491,       26.9116,            0.,NA,NA,"",   1.09849E+06,   1.08008E+06,   1.08008E+06
C:/temp/Job-25.odb,Step-1,Increment      1: Step Time =    1.000,"P-25-1",          1711,       172.806,       159.427,            0.,NA,NA,"",   1.07361E+06,   1.06671E+06,   1.06671E+06
C:/temp/Job-25.odb,Step-1,Increment      1: Step Time =    1.000,"P-25-1",          1712,       120.283,       145.499,            0.,NA,NA,"",   1.39868E+06,   1.41547E+06,   1.41547E+06
C:/temp/Job-25.odb,Step-1,Increment      1: Step Time =    1.000,"P-25-1",          1713,       168.478,       152.041,            0.,NA,NA,"",   1.11024E+06,   1.09189E+06,   1.09189E+06
C:/temp/Job-25.odb,Step-1,Increment      1: Step Time =    1.000,"P-25-1",          1714,       174.325,       146.702,            0.,NA,NA,"",   1.06620E+06,   1.06667E+06,   1.06667E+06
C:/temp/Job-25.odb,Step-1,Increment      1: Step Time =    1.000,"P-25-1",          1715,       183.090,       147.761,            0.,NA,NA,"",   1.01214E+06,   1.03581E+06,   1.03581E+06
C:/temp/Job-25.odb,Step-1,Increment      1: Step Time =    1.000,"P-25-1",          1716,       146.474,       24.8369,            0.,NA,NA,"",   1.10508E+06,   1.08714E+06,   1.08714E+06
C:/temp/Job-25.odb,Step-1,Increment      1: Step Time =    1.000,"P-25-1",          1717,       147.853,       16.7262,            0.,NA,NA,"",   1.04996E+06,   1.04057E+06,   1.04057E+06
C:/temp/Job-25.odb,Step-1,Increment      1: Step Time =    1.000,"P-25-1",          1718,       46.5340,       106.572,            0.,NA,NA,"",   471.956E+03,   511.033E+03,   511.033E+03
C:/temp/Job-25.odb,Step-1,Increment      1: Step Time =    1.000,"P-25-1",          1719,       154.956,       128.917,            0.,NA,NA,"",   1.15112E+06,   1.07054E+06,   1.07054E+06
C:/temp/Job-25.odb,Step-1,Increment      1: Step Time =    1.000,"P-25-1",          1720,       22.9943,       25.1120,            0.,NA,NA,"",   1.18708E+06,   1.22141E+06,   1.22141E+06
C:/temp/Job-25.odb,Step-1,Increment      1: Step Time =    1.000,"P-25-1",          1721,       56.5857,       64.4588,            0.,NA,NA,"",   1.21388E+06,   1.13643E+06,   1.13643E+06
C:/temp/Job-25.odb,Step-1,Increment      1: Step Time =    1.000,"P-25-1",          1722,       43.8218,       31.0434,            0.,NA,NA,"",   1.21711E+06,   1.20393E+06,   1.20393E+06
C:/temp/Job-25.odb,Step-1,Increment      1: Step Time =    1.000,"P-25-1",          1723,       175.197,       38.8666,            0.,NA,NA,"",   1.06058E+06,   1.05728E+06,   1.05728E+06
C:/temp/Job-25.odb,Step-1,Increment      1: Step Time =    1.000,"P-25-1",          1724,       160.540,       174.090,            0.,NA,NA,"",   1.08408E+06,   1.06911E+06,   1.06911E+06
C:/temp/Job-25.odb,Step-1,Increment      1: Step Time =    1.000,"P-25-1",          1725,       75.1884,       146.793,            0.,NA,NA,"",   1.39555E+06,   1.37473E+06,   1.37473E+06
C:/temp/Job-25.odb,Step-1,Increment      1: Step Time =    1.000,"P-25-1",          1726,       116.846,       152.018,            0.,NA,NA,"",   1.28301E+06,   1.32966E+06,   1.32966E+06
C:/temp/Job-25.odb,Step-1,Increment      1: Step Time =    1.000,"P-25-1",          1727,       172.754,       139.939,            0.,NA,NA,"",   1.06695E+06,   1.06506E+06,   1.06506E+06
C:/temp/Job-25.odb,Step-1,Increment      1: Step Time =    1.000,"P-25-1",          1728,       166.732,       149.167,            0.,NA,NA,"",   1.12489E+06,   1.10090E+06,   1.10090E+06
C:/temp/Job-25.odb,Step-1,Increment      1: Step Time =    1.000,"P-25-1",          1729,       168.583,       161.294,            0.,NA,NA,"",   1.09551E+06,   1.08048E+06,   1.08048E+06
C:/temp/Job-25.odb,Step-1,Increment      1: Step Time =    1.000,"P-25-1",          1730,       141.276,       25.1804,            0.,NA,NA,"",   1.11126E+06,   1.09493E+06,   1.09493E+06
C:/temp/Job-25.odb,Step-1,Increment      1: Step Time =    1.000,"P-25-1",          1731,       162.031,       29.3042,            0.,NA,NA,"",   1.09369E+06,   1.07676E+06,   1.07676E+06
C:/temp/Job-25.odb,Step-1,Increment      1: Step Time =    1.000,"P-25-1",          1732,       154.968,       32.8952,            0.,NA,NA,"",   1.14052E+06,   1.11249E+06,   1.11249E+06
C:/temp/Job-25.odb,Step-1,Increment      1: Step Time =    1.000,"P-25-1",          1733,       35.8049,       118.100,            0.,NA,NA,"",   684.630E+03,    730.19E+03,    730.19E+03
C:/temp/Job-25.odb,Step-1,Increment      1: Step Time =    1.000,"P-25-1",          1734,       43.2875,       133.355,            0.,NA,NA,"",   986.484E+03,   974.095E+03,   974.095E+03
C:/temp/Job-25.odb,Step-1,Increment      1: Step Time =    1.000,"P-25-1",          1735,       118.840,       150.189,            0.,NA,NA,"",   1.32322E+06,   1.35448E+06,   1.35448E+06
C:/temp/Job-25.odb,Step-1,Increment      1: Step Time =    1.000,"P-25-1",          1736,       147.507,       164.093,            0.,NA,NA,"",   1.18797E+06,   1.15144E+06,   1.15144E+06
C:/temp/Job-25.odb,Step-1,Increment      1: Step Time =    1.000,"P-25-1",          1737,       19.7997,       91.7708,            0.,NA,NA,"",   583.502E+03,   662.065E+03,   662.065E+03
C:/temp/Job-25.odb,Step-1,Increment      1: Step Time =    1.000,"P-25-1",          1738,       19.1919,       96.2847,            0.,NA,NA,"",   570.451E+03,   649.510E+03,   649.510E+03
C:/temp/Job-25.odb,Step-1,Increment      1: Step Time =    1.000,"P-25-1",          1739,       19.0893,       126.624,            0.,NA,NA,"",   731.173E+03,   804.725E+03,   804.725E+03
C:/temp/Job-25.odb,Step-1,Increment      1: Step Time =    1.000,"P-25-1",          1740,       109.221,       42.2229,            0.,NA,NA,"",   1.16771E+06,   1.24210E+06,   1.24210E+06
C:/temp/Job-25.odb,Step-1,Increment      1: Step Time =    1.000,"P-25-1",          1741,       85.8309,       37.5244,            0.,NA,NA,"",   1.19002E+06,   1.22840E+06,   1.22840E+06
C:/temp/Job-25.odb,Step-1,Increment      1: Step Time =    1.000,"P-25-1",          1742,       95.5041,       36.5567,            0.,NA,NA,"",   1.12225E+06,   1.18765E+06,   1.18765E+06
C:/temp/Job-25.odb,Step-1,Increment      1: Step Time =    1.000,"P-25-1",          1743,       37.4900,       90.9388,            0.,NA,NA,"",   542.836E+03,   600.966E+03,   600.966E+03
C:/temp/Job-25.odb,Step-1,Increment      1: Step Time =    1.000,"P-25-1",          1744,       97.6839,       167.775,            0.,NA,NA,"",   1.08979E+06,   1.14502E+06,   1.14502E+06
C:/temp/Job-25.odb,Step-1,Increment      1: Step Time =    1.000,"P-25-1",          1745,       110.899,       158.388,            0.,NA,NA,"",   1.16846E+06,   1.23838E+06,   1.23838E+06
C:/temp/Job-25.odb,Step-1,Increment      1: Step Time =    1.000,"P-25-1",          1746,       139.598,       66.4593,            0.,NA,NA,"",   1.40367E+06,   1.25683E+06,   1.25683E+06
C:/temp/Job-25.odb,Step-1,Increment      1: Step Time =    1.000,"P-25-1",          1747,       143.111,       77.6190,            0.,NA,NA,"",   1.17564E+06,   1.01669E+06,   1.01669E+06
C:/temp/Job-25.odb,Step-1,Increment      1: Step Time =    1.000,"P-25-1",          1748,       48.0382,       35.3552,            0.,NA,NA,"",   1.22874E+06,   1.20636E+06,   1.20636E+06
C:/temp/Job-25.odb,Step-1,Increment      1: Step Time =    1.000,"P-25-1",          1749,       39.7023,       26.8732,            0.,NA,NA,"",   1.21498E+06,   1.20957E+06,   1.20957E+06
C:/temp/Job-25.odb,Step-1,Increment      1: Step Time =    1.000,"P-25-1",          1750,       69.5846,       147.658,            0.,NA,NA,"",   1.37291E+06,   1.32813E+06,   1.32813E+06
C:/temp/Job-25.odb,Step-1,Increment      1: Step Time =    1.000,"P-25-1",          1751,       57.2807,       174.048,            0.,NA,NA,"",   1.21231E+06,   1.19401E+06,   1.19401E+06
C:/temp/Job-25.odb,Step-1,Increment      1: Step Time =    1.000,"P-25-1",          1752,       56.0414,       39.0769,            0.,NA,NA,"",   1.26440E+06,   1.23011E+06,   1.23011E+06
C:/temp/Job-25.odb,Step-1,Increment      1: Step Time =    1.000,"P-25-1",          1753,       140.197,       22.3464,            0.,NA,NA,"",   1.08827E+06,   1.07545E+06,   1.07545E+06
C:/temp/Job-25.odb,Step-1,Increment      1: Step Time =    1.000,"P-25-1",          1754,       176.841,       139.197,            0.,NA,NA,"",   1.03283E+06,   1.04818E+06,   1.04818E+06
C:/temp/Job-25.odb,Step-1,Increment      1: Step Time =    1.000,"P-25-1",          1755,       136.116,       23.4687,            0.,NA,NA,"",   1.09525E+06,   1.08465E+06,   1.08465E+06
C:/temp/Job-25.odb,Step-1,Increment      1: Step Time =    1.000,"P-25-1",          1756,       176.284,       134.423,            0.,NA,NA,"",   1.01588E+06,   1.03636E+06,   1.03636E+06
C:/temp/Job-25.odb,Step-1,Increment      1: Step Time =    1.000,"P-25-1",          1757,       139.202,       62.3810,            0.,NA,NA,"",   1.41387E+06,   1.28771E+06,   1.28771E+06
C:/temp/Job-25.odb,Step-1,Increment      1: Step Time =    1.000,"P-25-1",          1758,       43.5845,       137.784,            0.,NA,NA,"",   1.04984E+06,   1.03248E+06,   1.03248E+06
C:/temp/Job-25.odb,Step-1,Increment      1: Step Time =    1.000,"P-25-1",          1759,       27.8482,       29.3208,            0.,NA,NA,"",   1.17255E+06,   1.19608E+06,   1.19608E+06
C:/temp/Job-25.odb,Step-1,Increment      1: Step Time =    1.000,"P-25-1",          1760,       69.9745,       55.4331,            0.,NA,NA,"",   1.40145E+06,   1.34816E+06,   1.34816E+06
C:/temp/Job-25.odb,Step-1,Increment      1: Step Time =    1.000,"P-25-1",          1761,       76.0338,       152.543,            0.,NA,NA,"",   1.34025E+06,   1.33248E+06,   1.33248E+06
C:/temp/Job-25.odb,Step-1,Increment      1: Step Time =    1.000,"P-25-1",          1762,       120.285,       49.4985,            0.,NA,NA,"",   1.32188E+06,   1.34492E+06,   1.34492E+06
C:/temp/Job-25.odb,Step-1,Increment      1: Step Time =    1.000,"P-25-1",          1763,       48.9871,       145.753,            0.,NA,NA,"",   1.19243E+06,   1.15339E+06,   1.15339E+06
C:/temp/Job-25.odb,Step-1,Increment      1: Step Time =    1.000,"P-25-1",          1764,       65.7472,       177.179,            0.,NA,NA,"",   1.17819E+06,   1.16605E+06,   1.16605E+06
C:/temp/Job-25.odb,Step-1,Increment      1: Step Time =    1.000,"P-25-1",          1765,       120.820,       152.105,            0.,NA,NA,"",   1.30958E+06,   1.32700E+06,   1.32700E+06
C:/temp/Job-25.odb,Step-1,Increment      1: Step Time =    1.000,"P-25-1",          1766,       119.738,       159.565,            0.,NA,NA,"",   1.21164E+06,   1.23684E+06,   1.23684E+06
C:/temp/Job-25.odb,Step-1,Increment      1: Step Time =    1.000,"P-25-1",          1767,       168.528,       31.2524,            0.,NA,NA,"",   1.07553E+06,   1.06422E+06,   1.06422E+06
C:/temp/Job-25.odb,Step-1,Increment      1: Step Time =    1.000,"P-25-1",          1768,       163.056,       32.4406,            0.,NA,NA,"",   1.10126E+06,   1.08288E+06,   1.08288E+06
C:/temp/Job-25.odb,Step-1,Increment      1: Step Time =    1.000,"P-25-1",          1769,       147.487,       39.7801,            0.,NA,NA,"",   1.21681E+06,   1.17264E+06,   1.17264E+06
C:/temp/Job-25.odb,Step-1,Increment      1: Step Time =    1.000,"P-25-1",          1770,       52.1268,       39.1969,            0.,NA,NA,"",   1.24995E+06,   1.21773E+06,   1.21773E+06
C:/temp/Job-25.odb,Step-1,Increment      1: Step Time =    1.000,"P-25-1",          1771,       24.9724,       119.050,            0.,NA,NA,"",   666.321E+03,   735.647E+03,   735.647E+03
C:/temp/Job-25.odb,Step-1,Increment      1: Step Time =    1.000,"P-25-1",          1772,       96.6858,       33.1339,            0.,NA,NA,"",   1.09704E+06,   1.15306E+06,   1.15306E+06
C:/temp/Job-25.odb,Step-1,Increment      1: Step Time =    1.000,"P-25-1",          1773,       144.438,       68.9928,            0.,NA,NA,"",   1.31424E+06,   1.17533E+06,   1.17533E+06
C:/temp/Job-25.odb,Step-1,Increment      1: Step Time =    1.000,"P-25-1",          1774,       135.117,       50.4190,            0.,NA,NA,"",   1.36169E+06,   1.30054E+06,   1.30054E+06
C:/temp/Job-25.odb,Step-1,Increment      1: Step Time =    1.000,"P-25-1",          1775,       23.0507,       108.714,            0.,NA,NA,"",   580.738E+03,   657.163E+03,   657.163E+03
C:/temp/Job-25.odb,Step-1,Increment      1: Step Time =    1.000,"P-25-1",          1776,       25.4105,       89.5163,            0.,NA,NA,"",   585.723E+03,   659.852E+03,   659.852E+03
C:/temp/Job-25.odb,Step-1,Increment      1: Step Time =    1.000,"P-25-1",          1777,       22.8239,       77.4094,            0.,NA,NA,"",   702.891E+03,   773.291E+03,   773.291E+03
C:/temp/Job-25.odb,Step-1,Increment      1: Step Time =    1.000,"P-25-1",          1778,       41.8434,       69.8110,            0.,NA,NA,"",   930.113E+03,   926.901E+03,   926.901E+03
C:/temp/Job-25.odb,Step-1,Increment      1: Step Time =    1.000,"P-25-1",          1779,       139.452,       50.0035,            0.,NA,NA,"",   1.34020E+06,   1.27008E+06,   1.27008E+06
C:/temp/Job-25.odb,Step-1,Increment      1: Step Time =    1.000,"P-25-1",          1780,       162.270,       122.453,            0.,NA,NA,"",   985.590E+03,   965.724E+03,   965.724E+03
C:/temp/Job-25.odb,Step-1,Increment      1: Step Time =    1.000,"P-25-1",          1781,       143.115,       146.227,            0.,NA,NA,"",   1.34574E+06,   1.25831E+06,   1.25831E+06
C:/temp/Job-25.odb,Step-1,Increment      1: Step Time =    1.000,"P-25-1",          1782,       38.7164,       138.265,            0.,NA,NA,"",   999.216E+03,   1.00344E+06,   1.00344E+06
C:/temp/Job-25.odb,Step-1,Increment      1: Step Time =    1.000,"P-25-1",          1783,       66.9224,       151.104,            0.,NA,NA,"",   1.34201E+06,   1.29843E+06,   1.29843E+06
C:/temp/Job-25.odb,Step-1,Increment      1: Step Time =    1.000,"P-25-1",          1784,       28.0562,       85.9341,            0.,NA,NA,"",   615.918E+03,   684.893E+03,   684.893E+03
C:/temp/Job-25.odb,Step-1,Increment      1: Step Time =    1.000,"P-25-1",          1785,       162.116,       91.6030,            0.,NA,NA,"",   751.386E+03,   780.057E+03,   780.057E+03
C:/temp/Job-25.odb,Step-1,Increment      1: Step Time =    1.000,"P-25-1",          1786,       157.037,       133.411,            0.,NA,NA,"",   1.17801E+06,   1.10710E+06,   1.10710E+06
C:/temp/Job-25.odb,Step-1,Increment      1: Step Time =    1.000,"P-25-1",          1787,       156.889,       41.9330,            0.,NA,NA,"",   1.17582E+06,   1.13677E+06,   1.13677E+06
C:/temp/Job-25.odb,Step-1,Increment      1: Step Time =    1.000,"P-25-1",          1788,       172.345,       75.6554,            0.,NA,NA,"",   970.711E+03,   993.389E+03,   993.389E+03
C:/temp/Job-25.odb,Step-1,Increment      1: Step Time =    1.000,"P-25-1",          1789,       125.433,       171.845,            0.,NA,NA,"",   1.11681E+06,   1.12158E+06,   1.12158E+06
C:/temp/Job-25.odb,Step-1,Increment      1: Step Time =    1.000,"P-25-1",          1790,       96.8948,       173.699,            0.,NA,NA,"",   1.05755E+06,   1.09631E+06,   1.09631E+06
C:/temp/Job-25.odb,Step-1,Increment      1: Step Time =    1.000,"P-25-1",          1791,       138.152,       159.427,            0.,NA,NA,"",   1.25340E+06,   1.21426E+06,   1.21426E+06
C:/temp/Job-25.odb,Step-1,Increment      1: Step Time =    1.000,"P-25-1",          1792,       37.6151,       166.151,            0.,NA,NA,"",   1.19205E+06,   1.19122E+06,   1.19122E+06
C:/temp/Job-25.odb,Step-1,Increment      1: Step Time =    1.000,"P-25-1",          1793,       40.5361,       166.897,            0.,NA,NA,"",   1.20589E+06,   1.19818E+06,   1.19818E+06
C:/temp/Job-25.odb,Step-1,Increment      1: Step Time =    1.000,"P-25-1",          1794,       87.1719,       27.6035,            0.,NA,NA,"",   1.10856E+06,   1.13587E+06,   1.13587E+06
C:/temp/Job-25.odb,Step-1,Increment      1: Step Time =    1.000,"P-25-1",          1795,       38.6401,       126.594,            0.,NA,NA,"",   834.013E+03,   853.884E+03,   853.884E+03
C:/temp/Job-25.odb,Step-1,Increment      1: Step Time =    1.000,"P-25-1",          1796,       29.2199,       119.919,            0.,NA,NA,"",   689.366E+03,   750.064E+03,   750.064E+03
C:/temp/Job-25.odb,Step-1,Increment      1: Step Time =    1.000,"P-25-1",          1797,       143.605,       65.4764,            0.,NA,NA,"",   1.35290E+06,   1.22055E+06,   1.22055E+06
C:/temp/Job-25.odb,Step-1,Increment      1: Step Time =    1.000,"P-25-1",          1798,       117.412,       164.874,            0.,NA,NA,"",   1.14685E+06,   1.17856E+06,   1.17856E+06
C:/temp/Job-25.odb,Step-1,Increment      1: Step Time =    1.000,"P-25-1",          1799,       82.1535,       171.357,            0.,NA,NA,"",   1.14559E+06,   1.16169E+06,   1.16169E+06
C:/temp/Job-25.odb,Step-1,Increment      1: Step Time =    1.000,"P-25-1",          1800,       152.591,       43.1578,            0.,NA,NA,"",   1.21074E+06,   1.16285E+06,   1.16285E+06
C:/temp/Job-25.odb,Step-1,Increment      1: Step Time =    1.000,"P-25-1",          1801,       44.4932,       45.2724,            0.,NA,NA,"",   1.18895E+06,   1.16911E+06,   1.16911E+06
C:/temp/Job-25.odb,Step-1,Increment      1: Step Time =    1.000,"P-25-1",          1802,       95.2097,       28.8632,            0.,NA,NA,"",   1.07981E+06,   1.12217E+06,   1.12217E+06
C:/temp/Job-25.odb,Step-1,Increment      1: Step Time =    1.000,"P-25-1",          1803,       169.317,       124.355,            0.,NA,NA,"",   977.802E+03,   987.382E+03,   987.382E+03
C:/temp/Job-25.odb,Step-1,Increment      1: Step Time =    1.000,"P-25-1",          1804,       26.7976,       77.0860,            0.,NA,NA,"",   717.146E+03,   779.126E+03,   779.126E+03
C:/temp/Job-25.odb,Step-1,Increment      1: Step Time =    1.000,"P-25-1",          1805,       27.8961,       146.092,            0.,NA,NA,"",   986.194E+03,   1.02378E+06,   1.02378E+06
C:/temp/Job-25.odb,Step-1,Increment      1: Step Time =    1.000,"P-25-1",          1806,       134.538,       29.0939,            0.,NA,NA,"",   1.14252E+06,   1.12856E+06,   1.12856E+06
C:/temp/Job-25.odb,Step-1,Increment      1: Step Time =    1.000,"P-25-1",          1807,       52.6015,       42.4568,            0.,NA,NA,"",   1.25322E+06,   1.21723E+06,   1.21723E+06
C:/temp/Job-25.odb,Step-1,Increment      1: Step Time =    1.000,"P-25-1",          1808,       39.2017,       163.233,            0.,NA,NA,"",   1.18579E+06,   1.18194E+06,   1.18194E+06
C:/temp/Job-25.odb,Step-1,Increment      1: Step Time =    1.000,"P-25-1",          1809,       36.8329,       159.446,            0.,NA,NA,"",   1.16022E+06,   1.16069E+06,   1.16069E+06
C:/temp/Job-25.odb,Step-1,Increment      1: Step Time =    1.000,"P-25-1",          1810,       69.7201,       172.800,            0.,NA,NA,"",   1.19452E+06,   1.18393E+06,   1.18393E+06
C:/temp/Job-25.odb,Step-1,Increment      1: Step Time =    1.000,"P-25-1",          1811,       122.252,       155.641,            0.,NA,NA,"",   1.26991E+06,   1.28049E+06,   1.28049E+06
C:/temp/Job-25.odb,Step-1,Increment      1: Step Time =    1.000,"P-25-1",          1812,       119.161,       168.288,            0.,NA,NA,"",   1.12549E+06,   1.14715E+06,   1.14715E+06
C:/temp/Job-25.odb,Step-1,Increment      1: Step Time =    1.000,"P-25-1",          1813,       116.278,       170.224,            0.,NA,NA,"",   1.09991E+06,   1.12779E+06,   1.12779E+06
C:/temp/Job-25.odb,Step-1,Increment      1: Step Time =    1.000,"P-25-1",          1814,       28.0811,       110.060,            0.,NA,NA,"",   578.566E+03,   649.538E+03,   649.538E+03
C:/temp/Job-25.odb,Step-1,Increment      1: Step Time =    1.000,"P-25-1",          1815,       33.5841,       101.084,            0.,NA,NA,"",   512.434E+03,   579.979E+03,   579.979E+03
C:/temp/Job-25.odb,Step-1,Increment      1: Step Time =    1.000,"P-25-1",          1816,       77.4317,       158.530,            0.,NA,NA,"",   1.28030E+06,   1.28441E+06,   1.28441E+06
C:/temp/Job-25.odb,Step-1,Increment      1: Step Time =    1.000,"P-25-1",          1817,       155.339,       65.6699,            0.,NA,NA,"",   1.19547E+06,   1.11814E+06,   1.11814E+06
C:/temp/Job-25.odb,Step-1,Increment      1: Step Time =    1.000,"P-25-1",          1818,       163.819,       80.1535,            0.,NA,NA,"",   944.076E+03,   938.943E+03,   938.943E+03
C:/temp/Job-25.odb,Step-1,Increment      1: Step Time =    1.000,"P-25-1",          1819,       159.948,       80.9703,            0.,NA,NA,"",   948.547E+03,   926.239E+03,   926.239E+03
C:/temp/Job-25.odb,Step-1,Increment      1: Step Time =    1.000,"P-25-1",          1820,       164.385,       162.775,            0.,NA,NA,"",   1.11315E+06,   1.09211E+06,   1.09211E+06
C:/temp/Job-25.odb,Step-1,Increment      1: Step Time =    1.000,"P-25-1",          1821,       41.3727,       64.8465,            0.,NA,NA,"",   993.615E+03,   987.832E+03,   987.832E+03
C:/temp/Job-25.odb,Step-1,Increment      1: Step Time =    1.000,"P-25-1",          1822,       31.4440,       108.293,            0.,NA,NA,"",   559.804E+03,   627.766E+03,   627.766E+03
C:/temp/Job-25.odb,Step-1,Increment      1: Step Time =    1.000,"P-25-1",          1823,       145.104,       157.145,            0.,NA,NA,"",   1.25109E+06,   1.19975E+06,   1.19975E+06
C:/temp/Job-25.odb,Step-1,Increment      1: Step Time =    1.000,"P-25-1",          1824,       147.545,       154.769,            0.,NA,NA,"",   1.25504E+06,   1.19804E+06,   1.19804E+06
C:/temp/Job-25.odb,Step-1,Increment      1: Step Time =    1.000,"P-25-1",          1825,       158.374,       88.4316,            0.,NA,NA,"",   796.651E+03,   796.495E+03,   796.495E+03
C:/temp/Job-25.odb,Step-1,Increment      1: Step Time =    1.000,"P-25-1",          1826,       137.865,       37.3139,            0.,NA,NA,"",   1.22026E+06,   1.18920E+06,   1.18920E+06
C:/temp/Job-25.odb,Step-1,Increment      1: Step Time =    1.000,"P-25-1",          1827,       57.0225,       158.337,            0.,NA,NA,"",   1.27287E+06,   1.23668E+06,   1.23668E+06
C:/temp/Job-25.odb,Step-1,Increment      1: Step Time =    1.000,"P-25-1",          1828,       61.0802,       158.832,            0.,NA,NA,"",   1.28367E+06,   1.24853E+06,   1.24853E+06
C:/temp/Job-25.odb,Step-1,Increment      1: Step Time =    1.000,"P-25-1",          1829,       40.3846,       160.510,            0.,NA,NA,"",   1.18393E+06,   1.17553E+06,   1.17553E+06
C:/temp/Job-25.odb,Step-1,Increment      1: Step Time =    1.000,"P-25-1",          1830,       109.277,       34.7516,            0.,NA,NA,"",   1.11160E+06,   1.16614E+06,   1.16614E+06
C:/temp/Job-25.odb,Step-1,Increment      1: Step Time =    1.000,"P-25-1",          1831,       123.615,       41.9102,            0.,NA,NA,"",   1.24770E+06,   1.25585E+06,   1.25585E+06
C:/temp/Job-25.odb,Step-1,Increment      1: Step Time =    1.000,"P-25-1",          1832,       147.364,       64.2846,            0.,NA,NA,"",   1.30675E+06,   1.19265E+06,   1.19265E+06
C:/temp/Job-25.odb,Step-1,Increment      1: Step Time =    1.000,"P-25-1",          1833,       166.048,       118.236,            0.,NA,NA,"",   915.341E+03,   925.844E+03,   925.844E+03
C:/temp/Job-25.odb,Step-1,Increment      1: Step Time =    1.000,"P-25-1",          1834,       156.124,       78.8562,            0.,NA,NA,"",   1.00870E+06,   956.907E+03,   956.907E+03
C:/temp/Job-25.odb,Step-1,Increment      1: Step Time =    1.000,"P-25-1",          1835,       108.451,       172.337,            0.,NA,NA,"",   1.06030E+06,   1.09933E+06,   1.09933E+06
C:/temp/Job-25.odb,Step-1,Increment      1: Step Time =    1.000,"P-25-1",          1836,       26.5022,       93.7197,            0.,NA,NA,"",   559.000E+03,   633.444E+03,   633.444E+03
C:/temp/Job-25.odb,Step-1,Increment      1: Step Time =    1.000,"P-25-1",          1837,       171.496,       85.6534,            0.,NA,NA,"",   871.096E+03,   914.533E+03,   914.533E+03
C:/temp/Job-25.odb,Step-1,Increment      1: Step Time =    1.000,"P-25-1",          1838,       28.5990,       99.9525,            0.,NA,NA,"",   540.642E+03,   613.757E+03,   613.757E+03
C:/temp/Job-25.odb,Step-1,Increment      1: Step Time =    1.000,"P-25-1",          1839,       36.5220,       150.239,            0.,NA,NA,"",   1.09421E+06,   1.09949E+06,   1.09949E+06
C:/temp/Job-25.odb,Step-1,Increment      1: Step Time =    1.000,"P-25-1",          1840,       150.858,       62.5226,            0.,NA,NA,"",   1.26468E+06,   1.16978E+06,   1.16978E+06
C:/temp/Job-25.odb,Step-1,Increment      1: Step Time =    1.000,"P-25-1",          1841,       28.5618,       131.019,            0.,NA,NA,"",   821.960E+03,   871.951E+03,   871.951E+03
C:/temp/Job-25.odb,Step-1,Increment      1: Step Time =    1.000,"P-25-1",          1842,       160.499,       84.5295,            0.,NA,NA,"",   888.441E+03,   881.707E+03,   881.707E+03
C:/temp/Job-25.odb,Step-1,Increment      1: Step Time =    1.000,"P-25-1",          1843,       122.908,       36.5691,            0.,NA,NA,"",   1.18579E+06,   1.19727E+06,   1.19727E+06
C:/temp/Job-25.odb,Step-1,Increment      1: Step Time =    1.000,"P-25-1",          1844,       133.590,       34.0340,            0.,NA,NA,"",   1.18759E+06,   1.16953E+06,   1.16953E+06
C:/temp/Job-25.odb,Step-1,Increment      1: Step Time =    1.000,"P-25-1",          1845,       128.654,       35.3941,            0.,NA,NA,"",   1.19410E+06,   1.18854E+06,   1.18854E+06
C:/temp/Job-25.odb,Step-1,Increment      1: Step Time =    1.000,"P-25-1",          1846,       125.254,       34.0804,            0.,NA,NA,"",   1.17301E+06,   1.17763E+06,   1.17763E+06
