ODB Name,Step,Frame,Part Instance Name,    Node Label,X,Y,Z,Section Name,Material Name,Section Point,       S-Mises,S-Max. In-Plane Principal (Abs),S-Max. Principal (Abs)
C:/temp/Job-26.odb,Step-1,Increment      1: Step Time =    1.000,"P-26-1",             1,       90.1411,       122.974,            0.,NA,NA,"",   2.14044E+06,   2.19196E+06,   2.19196E+06
C:/temp/Job-26.odb,Step-1,Increment      1: Step Time =    1.000,"P-26-1",             2,       81.8802,       117.224,            0.,NA,NA,"",   1.00056E+06,   982.024E+03,   982.024E+03
C:/temp/Job-26.odb,Step-1,Increment      1: Step Time =    1.000,"P-26-1",             3,       76.5562,       108.683,            0.,NA,NA,"",   413.786E+03,  -358.366E+03,  -358.366E+03
C:/temp/Job-26.odb,Step-1,Increment      1: Step Time =    1.000,"P-26-1",             4,       75.0321,       98.7338,            0.,NA,NA,"",   635.443E+03,  -642.275E+03,  -642.275E+03
C:/temp/Job-26.odb,Step-1,Increment      1: Step Time =    1.000,"P-26-1",             5,       77.5549,       88.9901,            0.,NA,NA,"",   426.956E+03,  -36.5558E+03,  -36.5558E+03
C:/temp/Job-26.odb,Step-1,Increment      1: Step Time =    1.000,"P-26-1",             6,       83.7157,       81.0310,            0.,NA,NA,"",   1.22700E+06,   1.23931E+06,   1.23931E+06
C:/temp/Job-26.odb,Step-1,Increment      1: Step Time =    1.000,"P-26-1",             7,       92.5159,       76.1465,            0.,NA,NA,"",   2.28162E+06,   2.34916E+06,   2.34916E+06
C:/temp/Job-26.odb,Step-1,Increment      1: Step Time =    1.000,"P-26-1",             8,       107.484,       76.1465,            0.,NA,NA,"",   2.38814E+06,   2.45594E+06,   2.45594E+06
C:/temp/Job-26.odb,Step-1,Increment      1: Step Time =    1.000,"P-26-1",             9,       116.284,       81.0310,            0.,NA,NA,"",   1.32617E+06,   1.34733E+06,   1.34733E+06
C:/temp/Job-26.odb,Step-1,Increment      1: Step Time =    1.000,"P-26-1",            10,       122.445,       88.9901,            0.,NA,NA,"",   497.820E+03,  -41.2323E+03,  -41.2323E+03
C:/temp/Job-26.odb,Step-1,Increment      1: Step Time =    1.000,"P-26-1",            11,       124.968,       98.7338,            0.,NA,NA,"",   832.768E+03,  -841.226E+03,  -841.226E+03
C:/temp/Job-26.odb,Step-1,Increment      1: Step Time =    1.000,"P-26-1",            12,       123.444,       108.683,            0.,NA,NA,"",   594.580E+03,  -496.932E+03,  -496.932E+03
C:/temp/Job-26.odb,Step-1,Increment      1: Step Time =    1.000,"P-26-1",            13,       118.120,       117.224,            0.,NA,NA,"",   1.04903E+06,   1.02244E+06,   1.02244E+06
C:/temp/Job-26.odb,Step-1,Increment      1: Step Time =    1.000,"P-26-1",            14,       109.859,       122.974,            0.,NA,NA,"",   2.17042E+06,   2.24287E+06,   2.24287E+06
C:/temp/Job-26.odb,Step-1,Increment      1: Step Time =    1.000,"P-26-1",            15,          100.,          125.,            0.,NA,NA,"",   2.50678E+06,   2.62018E+06,   2.62018E+06
C:/temp/Job-26.odb,Step-1,Increment      1: Step Time =    1.000,"P-26-1",            16,          190.,            0.,            0.,NA,NA,"",   998.934E+03,   999.012E+03,   999.012E+03
C:/temp/Job-26.odb,Step-1,Increment      1: Step Time =    1.000,"P-26-1",            17,          180.,            0.,            0.,NA,NA,"",   999.289E+03,   999.327E+03,   999.327E+03
C:/temp/Job-26.odb,Step-1,Increment      1: Step Time =    1.000,"P-26-1",            18,          170.,            0.,            0.,NA,NA,"",   1.00040E+06,   1.00023E+06,   1.00023E+06
C:/temp/Job-26.odb,Step-1,Increment      1: Step Time =    1.000,"P-26-1",            19,          160.,            0.,            0.,NA,NA,"",   996.465E+03,   996.125E+03,   996.125E+03
C:/temp/Job-26.odb,Step-1,Increment      1: Step Time =    1.000,"P-26-1",            20,          150.,            0.,            0.,NA,NA,"",   981.265E+03,   980.851E+03,   980.851E+03
C:/temp/Job-26.odb,Step-1,Increment      1: Step Time =    1.000,"P-26-1",            21,          140.,            0.,            0.,NA,NA,"",   952.478E+03,   952.124E+03,   952.124E+03
C:/temp/Job-26.odb,Step-1,Increment      1: Step Time =    1.000,"P-26-1",            22,          130.,            0.,            0.,NA,NA,"",   913.863E+03,   913.800E+03,   913.800E+03
C:/temp/Job-26.odb,Step-1,Increment      1: Step Time =    1.000,"P-26-1",            23,          120.,            0.,            0.,NA,NA,"",   875.384E+03,   875.799E+03,   875.799E+03
C:/temp/Job-26.odb,Step-1,Increment      1: Step Time =    1.000,"P-26-1",            24,          110.,            0.,            0.,NA,NA,"",   850.204E+03,   850.974E+03,   850.974E+03
C:/temp/Job-26.odb,Step-1,Increment      1: Step Time =    1.000,"P-26-1",            25,          100.,            0.,            0.,NA,NA,"",   849.189E+03,   850.061E+03,   850.061E+03
C:/temp/Job-26.odb,Step-1,Increment      1: Step Time =    1.000,"P-26-1",            26,           90.,            0.,            0.,NA,NA,"",   877.563E+03,   878.208E+03,   878.208E+03
C:/temp/Job-26.odb,Step-1,Increment      1: Step Time =    1.000,"P-26-1",            27,           80.,            0.,            0.,NA,NA,"",   931.082E+03,   931.290E+03,   931.290E+03
C:/temp/Job-26.odb,Step-1,Increment      1: Step Time =    1.000,"P-26-1",            28,           70.,            0.,            0.,NA,NA,"",   997.977E+03,   998.049E+03,   998.049E+03
C:/temp/Job-26.odb,Step-1,Increment      1: Step Time =    1.000,"P-26-1",            29,           60.,            0.,            0.,NA,NA,"",   1.06781E+06,   1.06802E+06,   1.06802E+06
C:/temp/Job-26.odb,Step-1,Increment      1: Step Time =    1.000,"P-26-1",            30,           50.,            0.,            0.,NA,NA,"",   1.12704E+06,   1.12521E+06,   1.12521E+06
C:/temp/Job-26.odb,Step-1,Increment      1: Step Time =    1.000,"P-26-1",            31,           40.,            0.,            0.,NA,NA,"",   1.17239E+06,   1.17198E+06,   1.17198E+06
C:/temp/Job-26.odb,Step-1,Increment      1: Step Time =    1.000,"P-26-1",            32,           30.,            0.,            0.,NA,NA,"",   1.21380E+06,   1.21381E+06,   1.21381E+06
C:/temp/Job-26.odb,Step-1,Increment      1: Step Time =    1.000,"P-26-1",            33,           20.,            0.,            0.,NA,NA,"",   1.27227E+06,   1.27293E+06,   1.27293E+06
C:/temp/Job-26.odb,Step-1,Increment      1: Step Time =    1.000,"P-26-1",            34,           10.,            0.,            0.,NA,NA,"",   1.41229E+06,   1.41498E+06,   1.41498E+06
C:/temp/Job-26.odb,Step-1,Increment      1: Step Time =    1.000,"P-26-1",            35,          200.,            0.,            0.,NA,NA,"",   999.892E+03,   999.782E+03,   999.782E+03
C:/temp/Job-26.odb,Step-1,Increment      1: Step Time =    1.000,"P-26-1",            36,            0.,            0.,            0.,NA,NA,"",   1.76558E+06,   1.85134E+06,   1.85134E+06
C:/temp/Job-26.odb,Step-1,Increment      1: Step Time =    1.000,"P-26-1",            37,          200.,          190.,            0.,NA,NA,"",   1.00073E+06,   1.00024E+06,   1.00024E+06
C:/temp/Job-26.odb,Step-1,Increment      1: Step Time =    1.000,"P-26-1",            38,          200.,          180.,            0.,NA,NA,"",   1.00002E+06,   1.00066E+06,   1.00066E+06
C:/temp/Job-26.odb,Step-1,Increment      1: Step Time =    1.000,"P-26-1",            39,          200.,          170.,            0.,NA,NA,"",   994.425E+03,   1.00097E+06,   1.00097E+06
C:/temp/Job-26.odb,Step-1,Increment      1: Step Time =    1.000,"P-26-1",            40,          200.,          160.,            0.,NA,NA,"",   981.255E+03,   1.00118E+06,   1.00118E+06
C:/temp/Job-26.odb,Step-1,Increment      1: Step Time =    1.000,"P-26-1",            41,          200.,          150.,            0.,NA,NA,"",   959.762E+03,   1.00132E+06,   1.00132E+06
C:/temp/Job-26.odb,Step-1,Increment      1: Step Time =    1.000,"P-26-1",            42,          200.,          140.,            0.,NA,NA,"",   932.720E+03,   1.00124E+06,   1.00124E+06
C:/temp/Job-26.odb,Step-1,Increment      1: Step Time =    1.000,"P-26-1",            43,          200.,          130.,            0.,NA,NA,"",   905.810E+03,   1.00057E+06,   1.00057E+06
C:/temp/Job-26.odb,Step-1,Increment      1: Step Time =    1.000,"P-26-1",            44,          200.,          120.,            0.,NA,NA,"",   885.067E+03,   999.184E+03,   999.184E+03
C:/temp/Job-26.odb,Step-1,Increment      1: Step Time =    1.000,"P-26-1",            45,          200.,          110.,            0.,NA,NA,"",   873.548E+03,   997.857E+03,   997.857E+03
C:/temp/Job-26.odb,Step-1,Increment      1: Step Time =    1.000,"P-26-1",            46,          200.,          100.,            0.,NA,NA,"",   869.986E+03,   997.297E+03,   997.297E+03
C:/temp/Job-26.odb,Step-1,Increment      1: Step Time =    1.000,"P-26-1",            47,          200.,           90.,            0.,NA,NA,"",   873.073E+03,   997.898E+03,   997.898E+03
C:/temp/Job-26.odb,Step-1,Increment      1: Step Time =    1.000,"P-26-1",            48,          200.,           80.,            0.,NA,NA,"",   884.296E+03,   999.320E+03,   999.320E+03
C:/temp/Job-26.odb,Step-1,Increment      1: Step Time =    1.000,"P-26-1",            49,          200.,           70.,            0.,NA,NA,"",   904.383E+03,   999.850E+03,   999.850E+03
C:/temp/Job-26.odb,Step-1,Increment      1: Step Time =    1.000,"P-26-1",            50,          200.,           60.,            0.,NA,NA,"",   932.315E+03,   999.789E+03,   999.789E+03
C:/temp/Job-26.odb,Step-1,Increment      1: Step Time =    1.000,"P-26-1",            51,          200.,           50.,            0.,NA,NA,"",   963.901E+03,   1.00460E+06,   1.00460E+06
C:/temp/Job-26.odb,Step-1,Increment      1: Step Time =    1.000,"P-26-1",            52,          200.,           40.,            0.,NA,NA,"",   982.514E+03,   1.00121E+06,   1.00121E+06
C:/temp/Job-26.odb,Step-1,Increment      1: Step Time =    1.000,"P-26-1",            53,          200.,           30.,            0.,NA,NA,"",   994.693E+03,   1.00068E+06,   1.00068E+06
C:/temp/Job-26.odb,Step-1,Increment      1: Step Time =    1.000,"P-26-1",            54,          200.,           20.,            0.,NA,NA,"",   999.939E+03,   1.00053E+06,   1.00053E+06
C:/temp/Job-26.odb,Step-1,Increment      1: Step Time =    1.000,"P-26-1",            55,          200.,           10.,            0.,NA,NA,"",   1.00067E+06,   1.00022E+06,   1.00022E+06
C:/temp/Job-26.odb,Step-1,Increment      1: Step Time =    1.000,"P-26-1",            56,          200.,          200.,            0.,NA,NA,"",   999.891E+03,   999.777E+03,   999.777E+03
C:/temp/Job-26.odb,Step-1,Increment      1: Step Time =    1.000,"P-26-1",            57,           10.,          200.,            0.,NA,NA,"",   1.41387E+06,   1.41656E+06,   1.41656E+06
C:/temp/Job-26.odb,Step-1,Increment      1: Step Time =    1.000,"P-26-1",            58,           20.,          200.,            0.,NA,NA,"",   1.27481E+06,   1.27548E+06,   1.27548E+06
C:/temp/Job-26.odb,Step-1,Increment      1: Step Time =    1.000,"P-26-1",            59,           30.,          200.,            0.,NA,NA,"",   1.21355E+06,   1.21390E+06,   1.21390E+06
C:/temp/Job-26.odb,Step-1,Increment      1: Step Time =    1.000,"P-26-1",            60,           40.,          200.,            0.,NA,NA,"",   1.17092E+06,   1.17073E+06,   1.17073E+06
C:/temp/Job-26.odb,Step-1,Increment      1: Step Time =    1.000,"P-26-1",            61,           50.,          200.,            0.,NA,NA,"",   1.12348E+06,   1.12311E+06,   1.12311E+06
C:/temp/Job-26.odb,Step-1,Increment      1: Step Time =    1.000,"P-26-1",            62,           60.,          200.,            0.,NA,NA,"",   1.06573E+06,   1.06522E+06,   1.06522E+06
C:/temp/Job-26.odb,Step-1,Increment      1: Step Time =    1.000,"P-26-1",            63,           70.,          200.,            0.,NA,NA,"",   999.577E+03,   999.283E+03,   999.283E+03
C:/temp/Job-26.odb,Step-1,Increment      1: Step Time =    1.000,"P-26-1",            64,           80.,          200.,            0.,NA,NA,"",   932.574E+03,   932.720E+03,   932.720E+03
C:/temp/Job-26.odb,Step-1,Increment      1: Step Time =    1.000,"P-26-1",            65,           90.,          200.,            0.,NA,NA,"",   878.306E+03,   878.998E+03,   878.998E+03
C:/temp/Job-26.odb,Step-1,Increment      1: Step Time =    1.000,"P-26-1",            66,          100.,          200.,            0.,NA,NA,"",   848.038E+03,   849.061E+03,   849.061E+03
C:/temp/Job-26.odb,Step-1,Increment      1: Step Time =    1.000,"P-26-1",            67,          110.,          200.,            0.,NA,NA,"",   848.367E+03,   849.110E+03,   849.110E+03
C:/temp/Job-26.odb,Step-1,Increment      1: Step Time =    1.000,"P-26-1",            68,          120.,          200.,            0.,NA,NA,"",   874.070E+03,   874.322E+03,   874.322E+03
C:/temp/Job-26.odb,Step-1,Increment      1: Step Time =    1.000,"P-26-1",            69,          130.,          200.,            0.,NA,NA,"",   913.353E+03,   913.447E+03,   913.447E+03
C:/temp/Job-26.odb,Step-1,Increment      1: Step Time =    1.000,"P-26-1",            70,          140.,          200.,            0.,NA,NA,"",   955.244E+03,   955.063E+03,   955.063E+03
C:/temp/Job-26.odb,Step-1,Increment      1: Step Time =    1.000,"P-26-1",            71,          150.,          200.,            0.,NA,NA,"",   984.217E+03,   983.049E+03,   983.049E+03
C:/temp/Job-26.odb,Step-1,Increment      1: Step Time =    1.000,"P-26-1",            72,          160.,          200.,            0.,NA,NA,"",   997.160E+03,   996.914E+03,   996.914E+03
C:/temp/Job-26.odb,Step-1,Increment      1: Step Time =    1.000,"P-26-1",            73,          170.,          200.,            0.,NA,NA,"",   1.00002E+06,   999.948E+03,   999.948E+03
C:/temp/Job-26.odb,Step-1,Increment      1: Step Time =    1.000,"P-26-1",            74,          180.,          200.,            0.,NA,NA,"",   998.907E+03,   998.967E+03,   998.967E+03
C:/temp/Job-26.odb,Step-1,Increment      1: Step Time =    1.000,"P-26-1",            75,          190.,          200.,            0.,NA,NA,"",   998.831E+03,   998.902E+03,   998.902E+03
C:/temp/Job-26.odb,Step-1,Increment      1: Step Time =    1.000,"P-26-1",            76,            0.,          200.,            0.,NA,NA,"",   1.76617E+06,   1.85246E+06,   1.85246E+06
C:/temp/Job-26.odb,Step-1,Increment      1: Step Time =    1.000,"P-26-1",            77,            0.,           10.,            0.,NA,NA,"",   1.27625E+06,   1.39282E+06,   1.39282E+06
C:/temp/Job-26.odb,Step-1,Increment      1: Step Time =    1.000,"P-26-1",            78,            0.,           20.,            0.,NA,NA,"",   1.09423E+06,   1.21163E+06,   1.21163E+06
C:/temp/Job-26.odb,Step-1,Increment      1: Step Time =    1.000,"P-26-1",            79,            0.,           30.,            0.,NA,NA,"",   994.352E+03,   1.10832E+06,   1.10832E+06
C:/temp/Job-26.odb,Step-1,Increment      1: Step Time =    1.000,"P-26-1",            80,            0.,           40.,            0.,NA,NA,"",   918.995E+03,   1.02872E+06,   1.02872E+06
C:/temp/Job-26.odb,Step-1,Increment      1: Step Time =    1.000,"P-26-1",            81,            0.,           50.,            0.,NA,NA,"",   850.763E+03,   955.569E+03,   955.569E+03
C:/temp/Job-26.odb,Step-1,Increment      1: Step Time =    1.000,"P-26-1",            82,            0.,           60.,            0.,NA,NA,"",   785.157E+03,   884.242E+03,   884.242E+03
C:/temp/Job-26.odb,Step-1,Increment      1: Step Time =    1.000,"P-26-1",            83,            0.,           70.,            0.,NA,NA,"",   724.404E+03,   817.153E+03,   817.153E+03
C:/temp/Job-26.odb,Step-1,Increment      1: Step Time =    1.000,"P-26-1",            84,            0.,           80.,            0.,NA,NA,"",   671.136E+03,   758.362E+03,   758.362E+03
C:/temp/Job-26.odb,Step-1,Increment      1: Step Time =    1.000,"P-26-1",            85,            0.,           90.,            0.,NA,NA,"",   632.323E+03,   715.841E+03,   715.841E+03
C:/temp/Job-26.odb,Step-1,Increment      1: Step Time =    1.000,"P-26-1",            86,            0.,          100.,            0.,NA,NA,"",   617.373E+03,   699.594E+03,   699.594E+03
C:/temp/Job-26.odb,Step-1,Increment      1: Step Time =    1.000,"P-26-1",            87,            0.,          110.,            0.,NA,NA,"",   631.476E+03,   714.984E+03,   714.984E+03
C:/temp/Job-26.odb,Step-1,Increment      1: Step Time =    1.000,"P-26-1",            88,            0.,          120.,            0.,NA,NA,"",   669.876E+03,   756.998E+03,   756.998E+03
C:/temp/Job-26.odb,Step-1,Increment      1: Step Time =    1.000,"P-26-1",            89,            0.,          130.,            0.,NA,NA,"",   724.896E+03,   817.326E+03,   817.326E+03
C:/temp/Job-26.odb,Step-1,Increment      1: Step Time =    1.000,"P-26-1",            90,            0.,          140.,            0.,NA,NA,"",   790.305E+03,   888.008E+03,   888.008E+03
C:/temp/Job-26.odb,Step-1,Increment      1: Step Time =    1.000,"P-26-1",            91,            0.,          150.,            0.,NA,NA,"",   856.387E+03,   961.306E+03,   961.306E+03
C:/temp/Job-26.odb,Step-1,Increment      1: Step Time =    1.000,"P-26-1",            92,            0.,          160.,            0.,NA,NA,"",   919.223E+03,   1.03072E+06,   1.03072E+06
C:/temp/Job-26.odb,Step-1,Increment      1: Step Time =    1.000,"P-26-1",            93,            0.,          170.,            0.,NA,NA,"",   992.522E+03,   1.10862E+06,   1.10862E+06
C:/temp/Job-26.odb,Step-1,Increment      1: Step Time =    1.000,"P-26-1",            94,            0.,          180.,            0.,NA,NA,"",   1.09171E+06,   1.21048E+06,   1.21048E+06
C:/temp/Job-26.odb,Step-1,Increment      1: Step Time =    1.000,"P-26-1",            95,            0.,          190.,            0.,NA,NA,"",   1.27434E+06,   1.39165E+06,   1.39165E+06
C:/temp/Job-26.odb,Step-1,Increment      1: Step Time =    1.000,"P-26-1",            96,       190.650,       75.6061,            0.,NA,NA,"",   913.146E+03,   999.900E+03,   999.900E+03
C:/temp/Job-26.odb,Step-1,Increment      1: Step Time =    1.000,"P-26-1",            97,       190.071,       125.290,            0.,NA,NA,"",   917.967E+03,   1.00101E+06,   1.00101E+06
C:/temp/Job-26.odb,Step-1,Increment      1: Step Time =    1.000,"P-26-1",            98,       179.918,       125.913,            0.,NA,NA,"",   953.653E+03,   1.00133E+06,   1.00133E+06
C:/temp/Job-26.odb,Step-1,Increment      1: Step Time =    1.000,"P-26-1",            99,       169.800,       126.920,            0.,NA,NA,"",   1.00021E+06,   1.00707E+06,   1.00707E+06
C:/temp/Job-26.odb,Step-1,Increment      1: Step Time =    1.000,"P-26-1",           100,       159.921,       124.960,            0.,NA,NA,"",   1.03937E+06,   1.00439E+06,   1.00439E+06
C:/temp/Job-26.odb,Step-1,Increment      1: Step Time =    1.000,"P-26-1",           101,       147.748,       124.402,            0.,NA,NA,"",   1.14527E+06,   1.03365E+06,   1.03365E+06
C:/temp/Job-26.odb,Step-1,Increment      1: Step Time =    1.000,"P-26-1",           102,       134.500,       125.666,            0.,NA,NA,"",   1.38585E+06,   1.19942E+06,   1.19942E+06
C:/temp/Job-26.odb,Step-1,Increment      1: Step Time =    1.000,"P-26-1",           103,       125.031,       129.190,            0.,NA,NA,"",   1.54049E+06,   1.42765E+06,   1.42765E+06
C:/temp/Job-26.odb,Step-1,Increment      1: Step Time =    1.000,"P-26-1",           104,       113.374,       127.802,            0.,NA,NA,"",   1.87884E+06,   1.94648E+06,   1.94648E+06
C:/temp/Job-26.odb,Step-1,Increment      1: Step Time =    1.000,"P-26-1",           105,       84.0041,       125.473,            0.,NA,NA,"",   1.60119E+06,   1.62135E+06,   1.62135E+06
C:/temp/Job-26.odb,Step-1,Increment      1: Step Time =    1.000,"P-26-1",           106,       71.2732,       127.514,            0.,NA,NA,"",   1.35264E+06,   1.22544E+06,   1.22544E+06
C:/temp/Job-26.odb,Step-1,Increment      1: Step Time =    1.000,"P-26-1",           107,       61.6551,       127.033,            0.,NA,NA,"",   1.15368E+06,   1.04621E+06,   1.04621E+06
C:/temp/Job-26.odb,Step-1,Increment      1: Step Time =    1.000,"P-26-1",           108,       52.0299,       128.000,            0.,NA,NA,"",   1.01903E+06,   970.150E+03,   970.150E+03
C:/temp/Job-26.odb,Step-1,Increment      1: Step Time =    1.000,"P-26-1",           109,       41.5829,       125.567,            0.,NA,NA,"",   854.338E+03,   865.137E+03,   865.137E+03
C:/temp/Job-26.odb,Step-1,Increment      1: Step Time =    1.000,"P-26-1",           110,       23.8326,       127.082,            0.,NA,NA,"",   759.726E+03,   826.486E+03,   826.486E+03
C:/temp/Job-26.odb,Step-1,Increment      1: Step Time =    1.000,"P-26-1",           111,       9.58188,       124.837,            0.,NA,NA,"",   704.624E+03,   790.413E+03,   790.413E+03
C:/temp/Job-26.odb,Step-1,Increment      1: Step Time =    1.000,"P-26-1",           112,       10.1455,       114.795,            0.,NA,NA,"",   644.297E+03,   728.502E+03,   728.502E+03
C:/temp/Job-26.odb,Step-1,Increment      1: Step Time =    1.000,"P-26-1",           113,       31.3729,       115.457,            0.,NA,NA,"",   648.642E+03,   712.706E+03,   712.706E+03
C:/temp/Job-26.odb,Step-1,Increment      1: Step Time =    1.000,"P-26-1",           114,       37.9729,       116.497,            0.,NA,NA,"",   672.832E+03,   717.892E+03,   717.892E+03
C:/temp/Job-26.odb,Step-1,Increment      1: Step Time =    1.000,"P-26-1",           115,       54.3766,       117.446,            0.,NA,NA,"",   804.145E+03,   755.698E+03,   755.698E+03
C:/temp/Job-26.odb,Step-1,Increment      1: Step Time =    1.000,"P-26-1",           116,       60.9457,       115.803,            0.,NA,NA,"",   820.096E+03,   715.235E+03,   715.235E+03
C:/temp/Job-26.odb,Step-1,Increment      1: Step Time =    1.000,"P-26-1",           117,       74.4697,       115.333,            0.,NA,NA,"",   715.576E+03,   468.083E+03,   468.083E+03
C:/temp/Job-26.odb,Step-1,Increment      1: Step Time =    1.000,"P-26-1",           118,       125.930,       116.496,            0.,NA,NA,"",   934.372E+03,   623.284E+03,   623.284E+03
C:/temp/Job-26.odb,Step-1,Increment      1: Step Time =    1.000,"P-26-1",           119,       136.626,       113.284,            0.,NA,NA,"",   908.498E+03,   704.729E+03,   704.729E+03
C:/temp/Job-26.odb,Step-1,Increment      1: Step Time =    1.000,"P-26-1",           120,       146.462,       112.928,            0.,NA,NA,"",   831.702E+03,   754.559E+03,   754.559E+03
C:/temp/Job-26.odb,Step-1,Increment      1: Step Time =    1.000,"P-26-1",           121,       159.980,       116.380,            0.,NA,NA,"",   900.012E+03,   890.930E+03,   890.930E+03
C:/temp/Job-26.odb,Step-1,Increment      1: Step Time =    1.000,"P-26-1",           122,       169.368,       116.685,            0.,NA,NA,"",   902.601E+03,   931.905E+03,   931.905E+03
C:/temp/Job-26.odb,Step-1,Increment      1: Step Time =    1.000,"P-26-1",           123,       179.509,       115.900,            0.,NA,NA,"",   898.206E+03,   962.151E+03,   962.151E+03
C:/temp/Job-26.odb,Step-1,Increment      1: Step Time =    1.000,"P-26-1",           124,       189.824,       115.294,            0.,NA,NA,"",   890.795E+03,   988.415E+03,   988.415E+03
C:/temp/Job-26.odb,Step-1,Increment      1: Step Time =    1.000,"P-26-1",           125,       139.157,       104.845,            0.,NA,NA,"",   469.504E+03,   372.606E+03,   372.606E+03
C:/temp/Job-26.odb,Step-1,Increment      1: Step Time =    1.000,"P-26-1",           126,       149.107,       104.572,            0.,NA,NA,"",   584.364E+03,   581.287E+03,   581.287E+03
C:/temp/Job-26.odb,Step-1,Increment      1: Step Time =    1.000,"P-26-1",           127,       158.537,       103.286,            0.,NA,NA,"",   686.355E+03,   717.296E+03,   717.296E+03
C:/temp/Job-26.odb,Step-1,Increment      1: Step Time =    1.000,"P-26-1",           128,       168.077,       106.030,            0.,NA,NA,"",   795.395E+03,   842.419E+03,   842.419E+03
C:/temp/Job-26.odb,Step-1,Increment      1: Step Time =    1.000,"P-26-1",           129,       179.126,       105.305,            0.,NA,NA,"",   849.051E+03,   924.793E+03,   924.793E+03
C:/temp/Job-26.odb,Step-1,Increment      1: Step Time =    1.000,"P-26-1",           130,       189.723,       105.159,            0.,NA,NA,"",   872.815E+03,   978.365E+03,   978.365E+03
C:/temp/Job-26.odb,Step-1,Increment      1: Step Time =    1.000,"P-26-1",           131,       137.852,       94.6227,            0.,NA,NA,"",   489.211E+03,   213.840E+03,   213.840E+03
C:/temp/Job-26.odb,Step-1,Increment      1: Step Time =    1.000,"P-26-1",           132,       148.262,       94.9035,            0.,NA,NA,"",   568.643E+03,   560.048E+03,   560.048E+03
C:/temp/Job-26.odb,Step-1,Increment      1: Step Time =    1.000,"P-26-1",           133,       156.230,       95.9946,            0.,NA,NA,"",   655.047E+03,   680.898E+03,   680.898E+03
C:/temp/Job-26.odb,Step-1,Increment      1: Step Time =    1.000,"P-26-1",           134,       167.830,       94.2051,            0.,NA,NA,"",   784.517E+03,   832.314E+03,   832.314E+03
C:/temp/Job-26.odb,Step-1,Increment      1: Step Time =    1.000,"P-26-1",           135,       179.559,       94.5556,            0.,NA,NA,"",   848.314E+03,   925.541E+03,   925.541E+03
C:/temp/Job-26.odb,Step-1,Increment      1: Step Time =    1.000,"P-26-1",           136,       189.961,       95.0993,            0.,NA,NA,"",   871.818E+03,   978.254E+03,   978.254E+03
C:/temp/Job-26.odb,Step-1,Increment      1: Step Time =    1.000,"P-26-1",           137,       126.086,       85.8225,            0.,NA,NA,"",   774.735E+03,   374.411E+03,   374.411E+03
C:/temp/Job-26.odb,Step-1,Increment      1: Step Time =    1.000,"P-26-1",           138,       138.411,       84.5730,            0.,NA,NA,"",   996.742E+03,   810.744E+03,   810.744E+03
C:/temp/Job-26.odb,Step-1,Increment      1: Step Time =    1.000,"P-26-1",           139,       148.529,       84.7502,            0.,NA,NA,"",   911.920E+03,   831.540E+03,   831.540E+03
C:/temp/Job-26.odb,Step-1,Increment      1: Step Time =    1.000,"P-26-1",           140,       159.715,       85.0994,            0.,NA,NA,"",   871.557E+03,   866.968E+03,   866.968E+03
C:/temp/Job-26.odb,Step-1,Increment      1: Step Time =    1.000,"P-26-1",           141,       168.785,       83.3644,            0.,NA,NA,"",   899.838E+03,   926.606E+03,   926.606E+03
C:/temp/Job-26.odb,Step-1,Increment      1: Step Time =    1.000,"P-26-1",           142,       180.664,       84.8883,            0.,NA,NA,"",   894.685E+03,   963.834E+03,   963.834E+03
C:/temp/Job-26.odb,Step-1,Increment      1: Step Time =    1.000,"P-26-1",           143,       190.386,       85.1842,            0.,NA,NA,"",   888.423E+03,   988.575E+03,   988.575E+03
C:/temp/Job-26.odb,Step-1,Increment      1: Step Time =    1.000,"P-26-1",           144,       9.13132,       75.3238,            0.,NA,NA,"",   703.728E+03,   789.927E+03,   789.927E+03
C:/temp/Job-26.odb,Step-1,Increment      1: Step Time =    1.000,"P-26-1",           145,       18.8959,       75.4143,            0.,NA,NA,"",   722.795E+03,   799.229E+03,   799.229E+03
C:/temp/Job-26.odb,Step-1,Increment      1: Step Time =    1.000,"P-26-1",           146,       32.5140,       75.1349,            0.,NA,NA,"",   775.141E+03,   823.167E+03,   823.167E+03
C:/temp/Job-26.odb,Step-1,Increment      1: Step Time =    1.000,"P-26-1",           147,       40.7288,       75.7245,            0.,NA,NA,"",   819.033E+03,   839.078E+03,   839.078E+03
C:/temp/Job-26.odb,Step-1,Increment      1: Step Time =    1.000,"P-26-1",           148,       51.9465,       71.5247,            0.,NA,NA,"",   1.02798E+06,   979.692E+03,   979.692E+03
C:/temp/Job-26.odb,Step-1,Increment      1: Step Time =    1.000,"P-26-1",           149,       62.5803,       74.1518,            0.,NA,NA,"",   1.16037E+06,   1.04485E+06,   1.04485E+06
C:/temp/Job-26.odb,Step-1,Increment      1: Step Time =    1.000,"P-26-1",           150,       73.8657,       74.5002,            0.,NA,NA,"",   1.33063E+06,   1.21797E+06,   1.21797E+06
C:/temp/Job-26.odb,Step-1,Increment      1: Step Time =    1.000,"P-26-1",           151,       85.3085,       74.0764,            0.,NA,NA,"",   1.71573E+06,   1.74737E+06,   1.74737E+06
C:/temp/Job-26.odb,Step-1,Increment      1: Step Time =    1.000,"P-26-1",           152,       115.915,       73.1017,            0.,NA,NA,"",   1.73853E+06,   1.77373E+06,   1.77373E+06
C:/temp/Job-26.odb,Step-1,Increment      1: Step Time =    1.000,"P-26-1",           153,       128.675,       72.3490,            0.,NA,NA,"",   1.48831E+06,   1.33117E+06,   1.33117E+06
C:/temp/Job-26.odb,Step-1,Increment      1: Step Time =    1.000,"P-26-1",           154,       134.508,       73.6611,            0.,NA,NA,"",   1.39114E+06,   1.21092E+06,   1.21092E+06
C:/temp/Job-26.odb,Step-1,Increment      1: Step Time =    1.000,"P-26-1",           155,       146.566,       72.4892,            0.,NA,NA,"",   1.22117E+06,   1.10144E+06,   1.10144E+06
C:/temp/Job-26.odb,Step-1,Increment      1: Step Time =    1.000,"P-26-1",           156,       163.023,       74.6183,            0.,NA,NA,"",   1.02332E+06,   1.00126E+06,   1.00126E+06
C:/temp/Job-26.odb,Step-1,Increment      1: Step Time =    1.000,"P-26-1",           157,       172.416,       74.4209,            0.,NA,NA,"",   978.006E+03,   998.111E+03,   998.111E+03
C:/temp/Job-26.odb,Step-1,Increment      1: Step Time =    1.000,"P-26-1",           158,       181.406,       75.6462,            0.,NA,NA,"",   941.170E+03,   996.961E+03,   996.961E+03
C:/temp/Job-26.odb,Step-1,Increment      1: Step Time =    1.000,"P-26-1",           159,       73.7454,       86.5527,            0.,NA,NA,"",   615.873E+03,   281.967E+03,   281.967E+03
C:/temp/Job-26.odb,Step-1,Increment      1: Step Time =    1.000,"P-26-1",           160,       62.7423,       85.2258,            0.,NA,NA,"",   794.636E+03,   670.390E+03,   670.390E+03
C:/temp/Job-26.odb,Step-1,Increment      1: Step Time =    1.000,"P-26-1",           161,       51.0090,       84.8745,            0.,NA,NA,"",   705.692E+03,   692.381E+03,   692.381E+03
C:/temp/Job-26.odb,Step-1,Increment      1: Step Time =    1.000,"P-26-1",           162,       40.6266,       83.7650,            0.,NA,NA,"",   682.568E+03,   719.766E+03,   719.766E+03
C:/temp/Job-26.odb,Step-1,Increment      1: Step Time =    1.000,"P-26-1",           163,       32.5163,       82.5671,            0.,NA,NA,"",   685.367E+03,   743.985E+03,   743.985E+03
C:/temp/Job-26.odb,Step-1,Increment      1: Step Time =    1.000,"P-26-1",           164,       9.42225,       85.0164,            0.,NA,NA,"",   646.629E+03,   731.111E+03,   731.111E+03
C:/temp/Job-26.odb,Step-1,Increment      1: Step Time =    1.000,"P-26-1",           165,       58.6933,       91.1544,            0.,NA,NA,"",   505.065E+03,   463.768E+03,   463.768E+03
C:/temp/Job-26.odb,Step-1,Increment      1: Step Time =    1.000,"P-26-1",           166,       50.3473,       94.3585,            0.,NA,NA,"",   449.462E+03,   480.816E+03,   480.816E+03
C:/temp/Job-26.odb,Step-1,Increment      1: Step Time =    1.000,"P-26-1",           167,       39.6104,       94.3885,            0.,NA,NA,"",   528.837E+03,   588.555E+03,   588.555E+03
C:/temp/Job-26.odb,Step-1,Increment      1: Step Time =    1.000,"P-26-1",           168,       23.8002,       94.0362,            0.,NA,NA,"",   590.678E+03,   668.299E+03,   668.299E+03
C:/temp/Job-26.odb,Step-1,Increment      1: Step Time =    1.000,"P-26-1",           169,       9.56308,       94.8831,            0.,NA,NA,"",   611.435E+03,   694.844E+03,   694.844E+03
C:/temp/Job-26.odb,Step-1,Increment      1: Step Time =    1.000,"P-26-1",           170,       50.5347,       102.823,            0.,NA,NA,"",   403.850E+03,   444.417E+03,   444.417E+03
C:/temp/Job-26.odb,Step-1,Increment      1: Step Time =    1.000,"P-26-1",           171,       40.8725,       103.349,            0.,NA,NA,"",   498.552E+03,   558.287E+03,   558.287E+03
C:/temp/Job-26.odb,Step-1,Increment      1: Step Time =    1.000,"P-26-1",           172,       30.7030,       101.227,            0.,NA,NA,"",   556.341E+03,   628.947E+03,   628.947E+03
C:/temp/Job-26.odb,Step-1,Increment      1: Step Time =    1.000,"P-26-1",           173,       19.8156,       103.818,            0.,NA,NA,"",   592.694E+03,   673.002E+03,   673.002E+03
C:/temp/Job-26.odb,Step-1,Increment      1: Step Time =    1.000,"P-26-1",           174,       9.83529,       104.734,            0.,NA,NA,"",   609.516E+03,   692.853E+03,   692.853E+03
C:/temp/Job-26.odb,Step-1,Increment      1: Step Time =    1.000,"P-26-1",           175,       189.633,       10.3543,            0.,NA,NA,"",   1.00142E+06,   1.00215E+06,   1.00215E+06
C:/temp/Job-26.odb,Step-1,Increment      1: Step Time =    1.000,"P-26-1",           176,       179.364,       10.4479,            0.,NA,NA,"",   1.00673E+06,   1.00691E+06,   1.00691E+06
C:/temp/Job-26.odb,Step-1,Increment      1: Step Time =    1.000,"P-26-1",           177,       169.366,       9.97815,            0.,NA,NA,"",   1.01258E+06,   1.01115E+06,   1.01115E+06
C:/temp/Job-26.odb,Step-1,Increment      1: Step Time =    1.000,"P-26-1",           178,       159.546,       9.55538,            0.,NA,NA,"",   1.01385E+06,   1.01106E+06,   1.01106E+06
C:/temp/Job-26.odb,Step-1,Increment      1: Step Time =    1.000,"P-26-1",           179,       149.712,       14.1814,            0.,NA,NA,"",   1.03119E+06,   1.02454E+06,   1.02454E+06
C:/temp/Job-26.odb,Step-1,Increment      1: Step Time =    1.000,"P-26-1",           180,       135.059,       9.70074,            0.,NA,NA,"",   983.227E+03,   981.193E+03,   981.193E+03
C:/temp/Job-26.odb,Step-1,Increment      1: Step Time =    1.000,"P-26-1",           181,       125.115,       9.99780,            0.,NA,NA,"",   960.030E+03,   961.058E+03,   961.058E+03
C:/temp/Job-26.odb,Step-1,Increment      1: Step Time =    1.000,"P-26-1",           182,       115.090,       10.2063,            0.,NA,NA,"",   938.786E+03,   943.797E+03,   943.797E+03
C:/temp/Job-26.odb,Step-1,Increment      1: Step Time =    1.000,"P-26-1",           183,       105.074,       10.1840,            0.,NA,NA,"",   929.939E+03,   937.372E+03,   937.372E+03
C:/temp/Job-26.odb,Step-1,Increment      1: Step Time =    1.000,"P-26-1",           184,       95.1815,       9.92909,            0.,NA,NA,"",   941.021E+03,   948.059E+03,   948.059E+03
C:/temp/Job-26.odb,Step-1,Increment      1: Step Time =    1.000,"P-26-1",           185,       85.3553,       9.66268,            0.,NA,NA,"",   974.432E+03,   977.979E+03,   977.979E+03
C:/temp/Job-26.odb,Step-1,Increment      1: Step Time =    1.000,"P-26-1",           186,       75.8240,       9.51345,            0.,NA,NA,"",   1.01954E+06,   1.01966E+06,   1.01966E+06
C:/temp/Job-26.odb,Step-1,Increment      1: Step Time =    1.000,"P-26-1",           187,       66.4884,       10.1213,            0.,NA,NA,"",   1.07270E+06,   1.07025E+06,   1.07025E+06
C:/temp/Job-26.odb,Step-1,Increment      1: Step Time =    1.000,"P-26-1",           188,       51.3692,       12.6264,            0.,NA,NA,"",   1.15254E+06,   1.14651E+06,   1.14651E+06
C:/temp/Job-26.odb,Step-1,Increment      1: Step Time =    1.000,"P-26-1",           189,       43.2246,       9.96325,            0.,NA,NA,"",   1.17186E+06,   1.16931E+06,   1.16931E+06
C:/temp/Job-26.odb,Step-1,Increment      1: Step Time =    1.000,"P-26-1",           190,       34.1285,       9.47756,            0.,NA,NA,"",   1.20746E+06,   1.20818E+06,   1.20818E+06
C:/temp/Job-26.odb,Step-1,Increment      1: Step Time =    1.000,"P-26-1",           191,       19.9197,       10.0694,            0.,NA,NA,"",   1.27916E+06,   1.29307E+06,   1.29307E+06
C:/temp/Job-26.odb,Step-1,Increment      1: Step Time =    1.000,"P-26-1",           192,       10.0660,       10.1573,            0.,NA,NA,"",   1.35140E+06,   1.39783E+06,   1.39783E+06
C:/temp/Job-26.odb,Step-1,Increment      1: Step Time =    1.000,"P-26-1",           193,       190.186,       25.4116,            0.,NA,NA,"",   1.00084E+06,   1.00629E+06,   1.00629E+06
C:/temp/Job-26.odb,Step-1,Increment      1: Step Time =    1.000,"P-26-1",           194,       178.486,       21.8493,            0.,NA,NA,"",   1.02005E+06,   1.02047E+06,   1.02047E+06
C:/temp/Job-26.odb,Step-1,Increment      1: Step Time =    1.000,"P-26-1",           195,       168.193,       19.6509,            0.,NA,NA,"",   1.03748E+06,   1.03223E+06,   1.03223E+06
C:/temp/Job-26.odb,Step-1,Increment      1: Step Time =    1.000,"P-26-1",           196,       158.955,       19.0871,            0.,NA,NA,"",   1.05018E+06,   1.04112E+06,   1.04112E+06
C:/temp/Job-26.odb,Step-1,Increment      1: Step Time =    1.000,"P-26-1",           197,       144.985,       19.0595,            0.,NA,NA,"",   1.05943E+06,   1.04887E+06,   1.04887E+06
C:/temp/Job-26.odb,Step-1,Increment      1: Step Time =    1.000,"P-26-1",           198,       135.389,       19.5509,            0.,NA,NA,"",   1.05630E+06,   1.04954E+06,   1.04954E+06
C:/temp/Job-26.odb,Step-1,Increment      1: Step Time =    1.000,"P-26-1",           199,       125.483,       20.2159,            0.,NA,NA,"",   1.04300E+06,   1.04598E+06,   1.04598E+06
C:/temp/Job-26.odb,Step-1,Increment      1: Step Time =    1.000,"P-26-1",           200,       115.300,       20.7631,            0.,NA,NA,"",   1.02206E+06,   1.03820E+06,   1.03820E+06
C:/temp/Job-26.odb,Step-1,Increment      1: Step Time =    1.000,"P-26-1",           201,       104.883,       20.8675,            0.,NA,NA,"",   1.00978E+06,   1.03455E+06,   1.03455E+06
C:/temp/Job-26.odb,Step-1,Increment      1: Step Time =    1.000,"P-26-1",           202,       95.0637,       19.8075,            0.,NA,NA,"",   1.01677E+06,   1.03921E+06,   1.03921E+06
C:/temp/Job-26.odb,Step-1,Increment      1: Step Time =    1.000,"P-26-1",           203,       85.6386,       19.8477,            0.,NA,NA,"",   1.05296E+06,   1.06544E+06,   1.06544E+06
C:/temp/Job-26.odb,Step-1,Increment      1: Step Time =    1.000,"P-26-1",           204,       76.3184,       19.3066,            0.,NA,NA,"",   1.09300E+06,   1.09459E+06,   1.09459E+06
C:/temp/Job-26.odb,Step-1,Increment      1: Step Time =    1.000,"P-26-1",           205,       66.0617,       21.3343,            0.,NA,NA,"",   1.14722E+06,   1.13872E+06,   1.13872E+06
C:/temp/Job-26.odb,Step-1,Increment      1: Step Time =    1.000,"P-26-1",           206,       52.5460,       22.2957,            0.,NA,NA,"",   1.18676E+06,   1.17416E+06,   1.17416E+06
C:/temp/Job-26.odb,Step-1,Increment      1: Step Time =    1.000,"P-26-1",           207,       44.0761,       24.5854,            0.,NA,NA,"",   1.20238E+06,   1.19257E+06,   1.19257E+06
C:/temp/Job-26.odb,Step-1,Increment      1: Step Time =    1.000,"P-26-1",           208,       34.5707,       19.4770,            0.,NA,NA,"",   1.20478E+06,   1.20774E+06,   1.20774E+06
C:/temp/Job-26.odb,Step-1,Increment      1: Step Time =    1.000,"P-26-1",           209,       24.9479,       19.9910,            0.,NA,NA,"",   1.21338E+06,   1.23426E+06,   1.23426E+06
C:/temp/Job-26.odb,Step-1,Increment      1: Step Time =    1.000,"P-26-1",           210,       10.1709,       20.3230,            0.,NA,NA,"",   1.16024E+06,   1.24059E+06,   1.24059E+06
C:/temp/Job-26.odb,Step-1,Increment      1: Step Time =    1.000,"P-26-1",           211,       191.271,       34.6413,            0.,NA,NA,"",   994.835E+03,   1.00761E+06,   1.00761E+06
C:/temp/Job-26.odb,Step-1,Increment      1: Step Time =    1.000,"P-26-1",           212,       181.246,       32.6620,            0.,NA,NA,"",   1.02122E+06,   1.02620E+06,   1.02620E+06
C:/temp/Job-26.odb,Step-1,Increment      1: Step Time =    1.000,"P-26-1",           213,       173.065,       32.1877,            0.,NA,NA,"",   1.05315E+06,   1.04782E+06,   1.04782E+06
C:/temp/Job-26.odb,Step-1,Increment      1: Step Time =    1.000,"P-26-1",           214,       158.235,       29.2883,            0.,NA,NA,"",   1.09903E+06,   1.07999E+06,   1.07999E+06
C:/temp/Job-26.odb,Step-1,Increment      1: Step Time =    1.000,"P-26-1",           215,       146.283,       33.3408,            0.,NA,NA,"",   1.15792E+06,   1.12866E+06,   1.12866E+06
C:/temp/Job-26.odb,Step-1,Increment      1: Step Time =    1.000,"P-26-1",           216,       136.237,       29.5121,            0.,NA,NA,"",   1.13543E+06,   1.12002E+06,   1.12002E+06
C:/temp/Job-26.odb,Step-1,Increment      1: Step Time =    1.000,"P-26-1",           217,       127.683,       33.7602,            0.,NA,NA,"",   1.15880E+06,   1.15671E+06,   1.15671E+06
C:/temp/Job-26.odb,Step-1,Increment      1: Step Time =    1.000,"P-26-1",           218,       115.550,       31.3383,            0.,NA,NA,"",   1.09644E+06,   1.12655E+06,   1.12655E+06
C:/temp/Job-26.odb,Step-1,Increment      1: Step Time =    1.000,"P-26-1",           219,       105.128,       32.0017,            0.,NA,NA,"",   1.07257E+06,   1.12238E+06,   1.12238E+06
C:/temp/Job-26.odb,Step-1,Increment      1: Step Time =    1.000,"P-26-1",           220,       94.6653,       29.6992,            0.,NA,NA,"",   1.07492E+06,   1.11894E+06,   1.11894E+06
C:/temp/Job-26.odb,Step-1,Increment      1: Step Time =    1.000,"P-26-1",           221,       85.1971,       31.2487,            0.,NA,NA,"",   1.13161E+06,   1.15698E+06,   1.15698E+06
C:/temp/Job-26.odb,Step-1,Increment      1: Step Time =    1.000,"P-26-1",           222,       74.7384,       33.8796,            0.,NA,NA,"",   1.20391E+06,   1.20341E+06,   1.20341E+06
C:/temp/Job-26.odb,Step-1,Increment      1: Step Time =    1.000,"P-26-1",           223,       64.7238,       32.1813,            0.,NA,NA,"",   1.21863E+06,   1.20076E+06,   1.20076E+06
C:/temp/Job-26.odb,Step-1,Increment      1: Step Time =    1.000,"P-26-1",           224,       55.0026,       32.1571,            0.,NA,NA,"",   1.22037E+06,   1.19820E+06,   1.19820E+06
C:/temp/Job-26.odb,Step-1,Increment      1: Step Time =    1.000,"P-26-1",           225,       44.1295,       33.3200,            0.,NA,NA,"",   1.19942E+06,   1.18779E+06,   1.18779E+06
C:/temp/Job-26.odb,Step-1,Increment      1: Step Time =    1.000,"P-26-1",           226,       30.2457,       29.3407,            0.,NA,NA,"",   1.16994E+06,   1.18706E+06,   1.18706E+06
C:/temp/Job-26.odb,Step-1,Increment      1: Step Time =    1.000,"P-26-1",           227,       20.6810,       30.1624,            0.,NA,NA,"",   1.12350E+06,   1.17159E+06,   1.17159E+06
C:/temp/Job-26.odb,Step-1,Increment      1: Step Time =    1.000,"P-26-1",           228,       10.5165,       30.4907,            0.,NA,NA,"",   1.05306E+06,   1.14037E+06,   1.14037E+06
C:/temp/Job-26.odb,Step-1,Increment      1: Step Time =    1.000,"P-26-1",           229,       190.477,       43.1830,            0.,NA,NA,"",   987.462E+03,   1.01114E+06,   1.01114E+06
C:/temp/Job-26.odb,Step-1,Increment      1: Step Time =    1.000,"P-26-1",           230,       175.518,       42.9632,            0.,NA,NA,"",   1.05442E+06,   1.05357E+06,   1.05357E+06
C:/temp/Job-26.odb,Step-1,Increment      1: Step Time =    1.000,"P-26-1",           231,       166.988,       46.5968,            0.,NA,NA,"",   1.10991E+06,   1.08979E+06,   1.08979E+06
C:/temp/Job-26.odb,Step-1,Increment      1: Step Time =    1.000,"P-26-1",           232,       158.540,       41.0615,            0.,NA,NA,"",   1.14880E+06,   1.11649E+06,   1.11649E+06
C:/temp/Job-26.odb,Step-1,Increment      1: Step Time =    1.000,"P-26-1",           233,       148.187,       42.5368,            0.,NA,NA,"",   1.21576E+06,   1.16851E+06,   1.16851E+06
C:/temp/Job-26.odb,Step-1,Increment      1: Step Time =    1.000,"P-26-1",           234,       134.722,       45.2361,            0.,NA,NA,"",   1.28598E+06,   1.24425E+06,   1.24425E+06
C:/temp/Job-26.odb,Step-1,Increment      1: Step Time =    1.000,"P-26-1",           235,       126.310,       41.5825,            0.,NA,NA,"",   1.23318E+06,   1.22966E+06,   1.22966E+06
C:/temp/Job-26.odb,Step-1,Increment      1: Step Time =    1.000,"P-26-1",           236,       117.169,       41.5587,            0.,NA,NA,"",   1.18717E+06,   1.22367E+06,   1.22367E+06
C:/temp/Job-26.odb,Step-1,Increment      1: Step Time =    1.000,"P-26-1",           237,       107.095,       42.3314,            0.,NA,NA,"",   1.14433E+06,   1.21799E+06,   1.21799E+06
C:/temp/Job-26.odb,Step-1,Increment      1: Step Time =    1.000,"P-26-1",           238,       94.6643,       36.1647,            0.,NA,NA,"",   1.10771E+06,   1.16576E+06,   1.16576E+06
C:/temp/Job-26.odb,Step-1,Increment      1: Step Time =    1.000,"P-26-1",           239,       83.0596,       41.0732,            0.,NA,NA,"",   1.21742E+06,   1.24647E+06,   1.24647E+06
C:/temp/Job-26.odb,Step-1,Increment      1: Step Time =    1.000,"P-26-1",           240,       73.4881,       42.8239,            0.,NA,NA,"",   1.27743E+06,   1.26855E+06,   1.26855E+06
C:/temp/Job-26.odb,Step-1,Increment      1: Step Time =    1.000,"P-26-1",           241,       64.4036,       43.3428,            0.,NA,NA,"",   1.28390E+06,   1.25151E+06,   1.25151E+06
C:/temp/Job-26.odb,Step-1,Increment      1: Step Time =    1.000,"P-26-1",           242,       51.6952,       42.3604,            0.,NA,NA,"",   1.22752E+06,   1.19857E+06,   1.19857E+06
C:/temp/Job-26.odb,Step-1,Increment      1: Step Time =    1.000,"P-26-1",           243,       41.2881,       40.5933,            0.,NA,NA,"",   1.17177E+06,   1.16438E+06,   1.16438E+06
C:/temp/Job-26.odb,Step-1,Increment      1: Step Time =    1.000,"P-26-1",           244,       33.2351,       39.3051,            0.,NA,NA,"",   1.12696E+06,   1.14247E+06,   1.14247E+06
C:/temp/Job-26.odb,Step-1,Increment      1: Step Time =    1.000,"P-26-1",           245,       21.9076,       39.2714,            0.,NA,NA,"",   1.06055E+06,   1.11173E+06,   1.11173E+06
C:/temp/Job-26.odb,Step-1,Increment      1: Step Time =    1.000,"P-26-1",           246,       11.8508,       41.7544,            0.,NA,NA,"",   970.506E+03,   1.05511E+06,   1.05511E+06
C:/temp/Job-26.odb,Step-1,Increment      1: Step Time =    1.000,"P-26-1",           247,       187.151,       51.1287,            0.,NA,NA,"",   990.994E+03,   1.02097E+06,   1.02097E+06
C:/temp/Job-26.odb,Step-1,Increment      1: Step Time =    1.000,"P-26-1",           248,       177.045,       53.6447,            0.,NA,NA,"",   1.04258E+06,   1.05080E+06,   1.05080E+06
C:/temp/Job-26.odb,Step-1,Increment      1: Step Time =    1.000,"P-26-1",           249,       167.989,       55.4762,            0.,NA,NA,"",   1.10242E+06,   1.08420E+06,   1.08420E+06
C:/temp/Job-26.odb,Step-1,Increment      1: Step Time =    1.000,"P-26-1",           250,       158.210,       50.8792,            0.,NA,NA,"",   1.18076E+06,   1.13481E+06,   1.13481E+06
C:/temp/Job-26.odb,Step-1,Increment      1: Step Time =    1.000,"P-26-1",           251,       148.321,       54.8400,            0.,NA,NA,"",   1.27386E+06,   1.19694E+06,   1.19694E+06
C:/temp/Job-26.odb,Step-1,Increment      1: Step Time =    1.000,"P-26-1",           252,       137.221,       54.4153,            0.,NA,NA,"",   1.35989E+06,   1.28081E+06,   1.28081E+06
C:/temp/Job-26.odb,Step-1,Increment      1: Step Time =    1.000,"P-26-1",           253,       126.407,       52.0440,            0.,NA,NA,"",   1.35754E+06,   1.33359E+06,   1.33359E+06
C:/temp/Job-26.odb,Step-1,Increment      1: Step Time =    1.000,"P-26-1",           254,       117.581,       52.1630,            0.,NA,NA,"",   1.31672E+06,   1.35678E+06,   1.35678E+06
C:/temp/Job-26.odb,Step-1,Increment      1: Step Time =    1.000,"P-26-1",           255,       102.336,       53.9667,            0.,NA,NA,"",   1.26500E+06,   1.38869E+06,   1.38869E+06
C:/temp/Job-26.odb,Step-1,Increment      1: Step Time =    1.000,"P-26-1",           256,       95.0340,       49.7835,            0.,NA,NA,"",   1.22352E+06,   1.32253E+06,   1.32253E+06
C:/temp/Job-26.odb,Step-1,Increment      1: Step Time =    1.000,"P-26-1",           257,       81.0494,       49.7525,            0.,NA,NA,"",   1.31624E+06,   1.33698E+06,   1.33698E+06
C:/temp/Job-26.odb,Step-1,Increment      1: Step Time =    1.000,"P-26-1",           258,       74.1502,       50.5770,            0.,NA,NA,"",   1.34283E+06,   1.32524E+06,   1.32524E+06
C:/temp/Job-26.odb,Step-1,Increment      1: Step Time =    1.000,"P-26-1",           259,       61.1627,       52.7884,            0.,NA,NA,"",   1.30109E+06,   1.24574E+06,   1.24574E+06
C:/temp/Job-26.odb,Step-1,Increment      1: Step Time =    1.000,"P-26-1",           260,       52.8012,       50.9183,            0.,NA,NA,"",   1.22632E+06,   1.18613E+06,   1.18613E+06
C:/temp/Job-26.odb,Step-1,Increment      1: Step Time =    1.000,"P-26-1",           261,       43.9713,       52.5208,            0.,NA,NA,"",   1.13508E+06,   1.11935E+06,   1.11935E+06
C:/temp/Job-26.odb,Step-1,Increment      1: Step Time =    1.000,"P-26-1",           262,       32.9146,       52.4386,            0.,NA,NA,"",   1.03016E+06,   1.05444E+06,   1.05444E+06
C:/temp/Job-26.odb,Step-1,Increment      1: Step Time =    1.000,"P-26-1",           263,       21.9618,       53.8564,            0.,NA,NA,"",   939.575E+03,   998.237E+03,   998.237E+03
C:/temp/Job-26.odb,Step-1,Increment      1: Step Time =    1.000,"P-26-1",           264,       13.5653,       53.2486,            0.,NA,NA,"",   891.466E+03,   972.347E+03,   972.347E+03
C:/temp/Job-26.odb,Step-1,Increment      1: Step Time =    1.000,"P-26-1",           265,       189.923,       66.4271,            0.,NA,NA,"",   941.381E+03,   1.00759E+06,   1.00759E+06
C:/temp/Job-26.odb,Step-1,Increment      1: Step Time =    1.000,"P-26-1",           266,       178.942,       66.1156,            0.,NA,NA,"",   994.786E+03,   1.02565E+06,   1.02565E+06
C:/temp/Job-26.odb,Step-1,Increment      1: Step Time =    1.000,"P-26-1",           267,       167.958,       64.6946,            0.,NA,NA,"",   1.07546E+06,   1.06026E+06,   1.06026E+06
C:/temp/Job-26.odb,Step-1,Increment      1: Step Time =    1.000,"P-26-1",           268,       157.444,       63.1834,            0.,NA,NA,"",   1.17398E+06,   1.11453E+06,   1.11453E+06
C:/temp/Job-26.odb,Step-1,Increment      1: Step Time =    1.000,"P-26-1",           269,       148.037,       65.6406,            0.,NA,NA,"",   1.26442E+06,   1.16280E+06,   1.16280E+06
C:/temp/Job-26.odb,Step-1,Increment      1: Step Time =    1.000,"P-26-1",           270,       136.159,       64.7084,            0.,NA,NA,"",   1.41973E+06,   1.29167E+06,   1.29167E+06
C:/temp/Job-26.odb,Step-1,Increment      1: Step Time =    1.000,"P-26-1",           271,       125.725,       64.7096,            0.,NA,NA,"",   1.51503E+06,   1.44183E+06,   1.44183E+06
C:/temp/Job-26.odb,Step-1,Increment      1: Step Time =    1.000,"P-26-1",           272,       112.355,       61.8190,            0.,NA,NA,"",   1.46364E+06,   1.55498E+06,   1.55498E+06
C:/temp/Job-26.odb,Step-1,Increment      1: Step Time =    1.000,"P-26-1",           273,       105.015,       60.4272,            0.,NA,NA,"",   1.42703E+06,   1.56697E+06,   1.56697E+06
C:/temp/Job-26.odb,Step-1,Increment      1: Step Time =    1.000,"P-26-1",           274,       93.7836,       62.4846,            0.,NA,NA,"",   1.51729E+06,   1.65036E+06,   1.65036E+06
C:/temp/Job-26.odb,Step-1,Increment      1: Step Time =    1.000,"P-26-1",           275,       84.6742,       63.7984,            0.,NA,NA,"",   1.50086E+06,   1.54564E+06,   1.54564E+06
C:/temp/Job-26.odb,Step-1,Increment      1: Step Time =    1.000,"P-26-1",           276,       75.5082,       64.8699,            0.,NA,NA,"",   1.47007E+06,   1.41595E+06,   1.41595E+06
C:/temp/Job-26.odb,Step-1,Increment      1: Step Time =    1.000,"P-26-1",           277,       62.8689,       63.3350,            0.,NA,NA,"",   1.30324E+06,   1.21811E+06,   1.21811E+06
C:/temp/Job-26.odb,Step-1,Increment      1: Step Time =    1.000,"P-26-1",           278,       51.2704,       65.6819,            0.,NA,NA,"",   1.10599E+06,   1.06039E+06,   1.06039E+06
C:/temp/Job-26.odb,Step-1,Increment      1: Step Time =    1.000,"P-26-1",           279,       39.9226,       61.1579,            0.,NA,NA,"",   1.01871E+06,   1.02180E+06,   1.02180E+06
C:/temp/Job-26.odb,Step-1,Increment      1: Step Time =    1.000,"P-26-1",           280,       34.1778,       64.1956,            0.,NA,NA,"",   929.738E+03,   957.114E+03,   957.114E+03
C:/temp/Job-26.odb,Step-1,Increment      1: Step Time =    1.000,"P-26-1",           281,       21.2718,       62.2993,            0.,NA,NA,"",   858.495E+03,   923.661E+03,   923.661E+03
C:/temp/Job-26.odb,Step-1,Increment      1: Step Time =    1.000,"P-26-1",           282,       8.66759,       65.8607,            0.,NA,NA,"",   769.772E+03,   858.383E+03,   858.383E+03
C:/temp/Job-26.odb,Step-1,Increment      1: Step Time =    1.000,"P-26-1",           283,       190.381,       135.118,            0.,NA,NA,"",   944.606E+03,   1.00886E+06,   1.00886E+06
C:/temp/Job-26.odb,Step-1,Increment      1: Step Time =    1.000,"P-26-1",           284,       180.463,       135.576,            0.,NA,NA,"",   993.696E+03,   1.02669E+06,   1.02669E+06
C:/temp/Job-26.odb,Step-1,Increment      1: Step Time =    1.000,"P-26-1",           285,       169.357,       137.003,            0.,NA,NA,"",   1.07019E+06,   1.06079E+06,   1.06079E+06
C:/temp/Job-26.odb,Step-1,Increment      1: Step Time =    1.000,"P-26-1",           286,       157.533,       137.675,            0.,NA,NA,"",   1.17296E+06,   1.11511E+06,   1.11511E+06
C:/temp/Job-26.odb,Step-1,Increment      1: Step Time =    1.000,"P-26-1",           287,       149.109,       136.347,            0.,NA,NA,"",   1.26339E+06,   1.16730E+06,   1.16730E+06
C:/temp/Job-26.odb,Step-1,Increment      1: Step Time =    1.000,"P-26-1",           288,       137.056,       137.882,            0.,NA,NA,"",   1.40533E+06,   1.29345E+06,   1.29345E+06
C:/temp/Job-26.odb,Step-1,Increment      1: Step Time =    1.000,"P-26-1",           289,       127.714,       138.008,            0.,NA,NA,"",   1.47473E+06,   1.39769E+06,   1.39769E+06
C:/temp/Job-26.odb,Step-1,Increment      1: Step Time =    1.000,"P-26-1",           290,       116.627,       135.925,            0.,NA,NA,"",   1.52752E+06,   1.57113E+06,   1.57113E+06
C:/temp/Job-26.odb,Step-1,Increment      1: Step Time =    1.000,"P-26-1",           291,       104.911,       138.769,            0.,NA,NA,"",   1.47469E+06,   1.61618E+06,   1.61618E+06
C:/temp/Job-26.odb,Step-1,Increment      1: Step Time =    1.000,"P-26-1",           292,       97.0291,       138.107,            0.,NA,NA,"",   1.50090E+06,   1.64701E+06,   1.64701E+06
C:/temp/Job-26.odb,Step-1,Increment      1: Step Time =    1.000,"P-26-1",           293,       83.3827,       137.398,            0.,NA,NA,"",   1.48971E+06,   1.52058E+06,   1.52058E+06
C:/temp/Job-26.odb,Step-1,Increment      1: Step Time =    1.000,"P-26-1",           294,       71.8497,       137.706,            0.,NA,NA,"",   1.42449E+06,   1.36029E+06,   1.36029E+06
C:/temp/Job-26.odb,Step-1,Increment      1: Step Time =    1.000,"P-26-1",           295,       64.0236,       136.568,            0.,NA,NA,"",   1.32865E+06,   1.24161E+06,   1.24161E+06
C:/temp/Job-26.odb,Step-1,Increment      1: Step Time =    1.000,"P-26-1",           296,       50.2953,       138.654,            0.,NA,NA,"",   1.14085E+06,   1.10074E+06,   1.10074E+06
C:/temp/Job-26.odb,Step-1,Increment      1: Step Time =    1.000,"P-26-1",           297,       41.2200,       135.842,            0.,NA,NA,"",   999.373E+03,   997.640E+03,   997.640E+03
C:/temp/Job-26.odb,Step-1,Increment      1: Step Time =    1.000,"P-26-1",           298,       32.6133,       136.234,            0.,NA,NA,"",   920.348E+03,   952.807E+03,   952.807E+03
C:/temp/Job-26.odb,Step-1,Increment      1: Step Time =    1.000,"P-26-1",           299,       20.9480,       133.208,            0.,NA,NA,"",   813.268E+03,   880.769E+03,   880.769E+03
C:/temp/Job-26.odb,Step-1,Increment      1: Step Time =    1.000,"P-26-1",           300,       9.91745,       134.226,            0.,NA,NA,"",   773.756E+03,   860.771E+03,   860.771E+03
C:/temp/Job-26.odb,Step-1,Increment      1: Step Time =    1.000,"P-26-1",           301,       185.915,       149.619,            0.,NA,NA,"",   996.446E+03,   1.02328E+06,   1.02328E+06
C:/temp/Job-26.odb,Step-1,Increment      1: Step Time =    1.000,"P-26-1",           302,       181.067,       144.911,            0.,NA,NA,"",   1.01472E+06,   1.03627E+06,   1.03627E+06
C:/temp/Job-26.odb,Step-1,Increment      1: Step Time =    1.000,"P-26-1",           303,       167.434,       145.647,            0.,NA,NA,"",   1.10785E+06,   1.08699E+06,   1.08699E+06
C:/temp/Job-26.odb,Step-1,Increment      1: Step Time =    1.000,"P-26-1",           304,       159.422,       145.736,            0.,NA,NA,"",   1.17272E+06,   1.12624E+06,   1.12624E+06
C:/temp/Job-26.odb,Step-1,Increment      1: Step Time =    1.000,"P-26-1",           305,       146.532,       146.107,            0.,NA,NA,"",   1.28728E+06,   1.20935E+06,   1.20935E+06
C:/temp/Job-26.odb,Step-1,Increment      1: Step Time =    1.000,"P-26-1",           306,       136.140,       148.646,            0.,NA,NA,"",   1.33999E+06,   1.27572E+06,   1.27572E+06
C:/temp/Job-26.odb,Step-1,Increment      1: Step Time =    1.000,"P-26-1",           307,       126.989,       147.096,            0.,NA,NA,"",   1.37330E+06,   1.34320E+06,   1.34320E+06
C:/temp/Job-26.odb,Step-1,Increment      1: Step Time =    1.000,"P-26-1",           308,       118.178,       146.508,            0.,NA,NA,"",   1.34008E+06,   1.37541E+06,   1.37541E+06
C:/temp/Job-26.odb,Step-1,Increment      1: Step Time =    1.000,"P-26-1",           309,       102.969,       146.878,            0.,NA,NA,"",   1.25466E+06,   1.37442E+06,   1.37442E+06
C:/temp/Job-26.odb,Step-1,Increment      1: Step Time =    1.000,"P-26-1",           310,       91.9783,       148.087,            0.,NA,NA,"",   1.27539E+06,   1.36670E+06,   1.36670E+06
C:/temp/Job-26.odb,Step-1,Increment      1: Step Time =    1.000,"P-26-1",           311,       85.6177,       147.157,            0.,NA,NA,"",   1.33144E+06,   1.38395E+06,   1.38395E+06
C:/temp/Job-26.odb,Step-1,Increment      1: Step Time =    1.000,"P-26-1",           312,       75.2635,       148.178,            0.,NA,NA,"",   1.35301E+06,   1.33685E+06,   1.33685E+06
C:/temp/Job-26.odb,Step-1,Increment      1: Step Time =    1.000,"P-26-1",           313,       63.5693,       146.280,            0.,NA,NA,"",   1.32339E+06,   1.26649E+06,   1.26649E+06
C:/temp/Job-26.odb,Step-1,Increment      1: Step Time =    1.000,"P-26-1",           314,       49.9997,       145.265,            0.,NA,NA,"",   1.17916E+06,   1.14389E+06,   1.14389E+06
C:/temp/Job-26.odb,Step-1,Increment      1: Step Time =    1.000,"P-26-1",           315,       40.0604,       148.076,            0.,NA,NA,"",   1.10134E+06,   1.09914E+06,   1.09914E+06
C:/temp/Job-26.odb,Step-1,Increment      1: Step Time =    1.000,"P-26-1",           316,       34.3165,       148.920,            0.,NA,NA,"",   1.05553E+06,   1.07298E+06,   1.07298E+06
C:/temp/Job-26.odb,Step-1,Increment      1: Step Time =    1.000,"P-26-1",           317,       20.7116,       148.417,            0.,NA,NA,"",   951.071E+03,   1.01246E+06,   1.01246E+06
C:/temp/Job-26.odb,Step-1,Increment      1: Step Time =    1.000,"P-26-1",           318,       11.9683,       149.356,            0.,NA,NA,"",   903.144E+03,   987.411E+03,   987.411E+03
C:/temp/Job-26.odb,Step-1,Increment      1: Step Time =    1.000,"P-26-1",           319,       190.484,       159.476,            0.,NA,NA,"",   991.622E+03,   1.01083E+06,   1.01083E+06
C:/temp/Job-26.odb,Step-1,Increment      1: Step Time =    1.000,"P-26-1",           320,       180.989,       158.768,            0.,NA,NA,"",   1.02595E+06,   1.03458E+06,   1.03458E+06
C:/temp/Job-26.odb,Step-1,Increment      1: Step Time =    1.000,"P-26-1",           321,       170.641,       157.748,            0.,NA,NA,"",   1.08248E+06,   1.07156E+06,   1.07156E+06
C:/temp/Job-26.odb,Step-1,Increment      1: Step Time =    1.000,"P-26-1",           322,       158.181,       156.990,            0.,NA,NA,"",   1.15861E+06,   1.12275E+06,   1.12275E+06
C:/temp/Job-26.odb,Step-1,Increment      1: Step Time =    1.000,"P-26-1",           323,       147.743,       157.458,            0.,NA,NA,"",   1.22069E+06,   1.17211E+06,   1.17211E+06
C:/temp/Job-26.odb,Step-1,Increment      1: Step Time =    1.000,"P-26-1",           324,       135.139,       158.400,            0.,NA,NA,"",   1.24738E+06,   1.21437E+06,   1.21437E+06
C:/temp/Job-26.odb,Step-1,Increment      1: Step Time =    1.000,"P-26-1",           325,       126.187,       157.805,            0.,NA,NA,"",   1.23545E+06,   1.23255E+06,   1.23255E+06
C:/temp/Job-26.odb,Step-1,Increment      1: Step Time =    1.000,"P-26-1",           326,       117.575,       156.940,            0.,NA,NA,"",   1.20274E+06,   1.23968E+06,   1.23968E+06
C:/temp/Job-26.odb,Step-1,Increment      1: Step Time =    1.000,"P-26-1",           327,       103.215,       158.865,            0.,NA,NA,"",   1.12509E+06,   1.20278E+06,   1.20278E+06
C:/temp/Job-26.odb,Step-1,Increment      1: Step Time =    1.000,"P-26-1",           328,       91.9060,       158.785,            0.,NA,NA,"",   1.16116E+06,   1.22565E+06,   1.22565E+06
C:/temp/Job-26.odb,Step-1,Increment      1: Step Time =    1.000,"P-26-1",           329,       85.6845,       156.826,            0.,NA,NA,"",   1.22162E+06,   1.26463E+06,   1.26463E+06
C:/temp/Job-26.odb,Step-1,Increment      1: Step Time =    1.000,"P-26-1",           330,       73.4345,       154.789,            0.,NA,NA,"",   1.29777E+06,   1.28436E+06,   1.28436E+06
C:/temp/Job-26.odb,Step-1,Increment      1: Step Time =    1.000,"P-26-1",           331,       63.8767,       155.287,            0.,NA,NA,"",   1.29030E+06,   1.25391E+06,   1.25391E+06
C:/temp/Job-26.odb,Step-1,Increment      1: Step Time =    1.000,"P-26-1",           332,       51.6707,       158.237,            0.,NA,NA,"",   1.22737E+06,   1.19875E+06,   1.19875E+06
C:/temp/Job-26.odb,Step-1,Increment      1: Step Time =    1.000,"P-26-1",           333,       40.4077,       159.189,            0.,NA,NA,"",   1.16412E+06,   1.15928E+06,   1.15928E+06
C:/temp/Job-26.odb,Step-1,Increment      1: Step Time =    1.000,"P-26-1",           334,       29.9964,       158.832,            0.,NA,NA,"",   1.09902E+06,   1.12492E+06,   1.12492E+06
C:/temp/Job-26.odb,Step-1,Increment      1: Step Time =    1.000,"P-26-1",           335,       24.9573,       158.116,            0.,NA,NA,"",   1.05712E+06,   1.10050E+06,   1.10050E+06
C:/temp/Job-26.odb,Step-1,Increment      1: Step Time =    1.000,"P-26-1",           336,       9.31070,       156.998,            0.,NA,NA,"",   943.777E+03,   1.03608E+06,   1.03608E+06
C:/temp/Job-26.odb,Step-1,Increment      1: Step Time =    1.000,"P-26-1",           337,       190.037,       169.317,            0.,NA,NA,"",   1.00028E+06,   1.00891E+06,   1.00891E+06
C:/temp/Job-26.odb,Step-1,Increment      1: Step Time =    1.000,"P-26-1",           338,       180.392,       168.056,            0.,NA,NA,"",   1.02572E+06,   1.02892E+06,   1.02892E+06
C:/temp/Job-26.odb,Step-1,Increment      1: Step Time =    1.000,"P-26-1",           339,       167.802,       172.895,            0.,NA,NA,"",   1.05964E+06,   1.05092E+06,   1.05092E+06
C:/temp/Job-26.odb,Step-1,Increment      1: Step Time =    1.000,"P-26-1",           340,       153.029,       166.463,            0.,NA,NA,"",   1.13973E+06,   1.11149E+06,   1.11149E+06
C:/temp/Job-26.odb,Step-1,Increment      1: Step Time =    1.000,"P-26-1",           341,       144.150,       167.994,            0.,NA,NA,"",   1.15256E+06,   1.12598E+06,   1.12598E+06
C:/temp/Job-26.odb,Step-1,Increment      1: Step Time =    1.000,"P-26-1",           342,       134.938,       168.400,            0.,NA,NA,"",   1.15349E+06,   1.13763E+06,   1.13763E+06
C:/temp/Job-26.odb,Step-1,Increment      1: Step Time =    1.000,"P-26-1",           343,       125.673,       167.351,            0.,NA,NA,"",   1.14462E+06,   1.14821E+06,   1.14821E+06
C:/temp/Job-26.odb,Step-1,Increment      1: Step Time =    1.000,"P-26-1",           344,       116.681,       166.574,            0.,NA,NA,"",   1.11548E+06,   1.14509E+06,   1.14509E+06
C:/temp/Job-26.odb,Step-1,Increment      1: Step Time =    1.000,"P-26-1",           345,       107.123,       168.390,            0.,NA,NA,"",   1.07347E+06,   1.12001E+06,   1.12001E+06
C:/temp/Job-26.odb,Step-1,Increment      1: Step Time =    1.000,"P-26-1",           346,       95.1630,       168.175,            0.,NA,NA,"",   1.08455E+06,   1.13310E+06,   1.13310E+06
C:/temp/Job-26.odb,Step-1,Increment      1: Step Time =    1.000,"P-26-1",           347,       84.0811,       166.143,            0.,NA,NA,"",   1.15652E+06,   1.18259E+06,   1.18259E+06
C:/temp/Job-26.odb,Step-1,Increment      1: Step Time =    1.000,"P-26-1",           348,       72.3468,       169.518,            0.,NA,NA,"",   1.19081E+06,   1.18501E+06,   1.18501E+06
C:/temp/Job-26.odb,Step-1,Increment      1: Step Time =    1.000,"P-26-1",           349,       64.4461,       167.851,            0.,NA,NA,"",   1.21935E+06,   1.20109E+06,   1.20109E+06
C:/temp/Job-26.odb,Step-1,Increment      1: Step Time =    1.000,"P-26-1",           350,       53.4057,       166.963,            0.,NA,NA,"",   1.22110E+06,   1.19874E+06,   1.19874E+06
C:/temp/Job-26.odb,Step-1,Increment      1: Step Time =    1.000,"P-26-1",           351,       44.4039,       168.196,            0.,NA,NA,"",   1.20066E+06,   1.18908E+06,   1.18908E+06
C:/temp/Job-26.odb,Step-1,Increment      1: Step Time =    1.000,"P-26-1",           352,       20.2579,       168.174,            0.,NA,NA,"",   1.10760E+06,   1.15863E+06,   1.15863E+06
C:/temp/Job-26.odb,Step-1,Increment      1: Step Time =    1.000,"P-26-1",           353,       8.12473,       165.805,            0.,NA,NA,"",   1.00342E+06,   1.10005E+06,   1.10005E+06
C:/temp/Job-26.odb,Step-1,Increment      1: Step Time =    1.000,"P-26-1",           354,       189.553,       179.342,            0.,NA,NA,"",   1.00270E+06,   1.00577E+06,   1.00577E+06
C:/temp/Job-26.odb,Step-1,Increment      1: Step Time =    1.000,"P-26-1",           355,       178.176,       178.419,            0.,NA,NA,"",   1.02106E+06,   1.02099E+06,   1.02099E+06
C:/temp/Job-26.odb,Step-1,Increment      1: Step Time =    1.000,"P-26-1",           356,       167.350,       181.154,            0.,NA,NA,"",   1.03522E+06,   1.03028E+06,   1.03028E+06
C:/temp/Job-26.odb,Step-1,Increment      1: Step Time =    1.000,"P-26-1",           357,       156.982,       175.308,            0.,NA,NA,"",   1.07918E+06,   1.06452E+06,   1.06452E+06
C:/temp/Job-26.odb,Step-1,Increment      1: Step Time =    1.000,"P-26-1",           358,       146.250,       176.987,            0.,NA,NA,"",   1.08569E+06,   1.07073E+06,   1.07073E+06
C:/temp/Job-26.odb,Step-1,Increment      1: Step Time =    1.000,"P-26-1",           359,       133.690,       178.865,            0.,NA,NA,"",   1.06453E+06,   1.05859E+06,   1.05859E+06
C:/temp/Job-26.odb,Step-1,Increment      1: Step Time =    1.000,"P-26-1",           360,       123.760,       181.031,            0.,NA,NA,"",   1.02814E+06,   1.03290E+06,   1.03290E+06
C:/temp/Job-26.odb,Step-1,Increment      1: Step Time =    1.000,"P-26-1",           361,       114.407,       180.835,            0.,NA,NA,"",   1.00927E+06,   1.02353E+06,   1.02353E+06
C:/temp/Job-26.odb,Step-1,Increment      1: Step Time =    1.000,"P-26-1",           362,       104.976,       180.637,            0.,NA,NA,"",   1.00009E+06,   1.02195E+06,   1.02195E+06
C:/temp/Job-26.odb,Step-1,Increment      1: Step Time =    1.000,"P-26-1",           363,       95.4366,       179.762,            0.,NA,NA,"",   1.01775E+06,   1.04104E+06,   1.04104E+06
C:/temp/Job-26.odb,Step-1,Increment      1: Step Time =    1.000,"P-26-1",           364,       84.7093,       179.754,            0.,NA,NA,"",   1.05988E+06,   1.07261E+06,   1.07261E+06
C:/temp/Job-26.odb,Step-1,Increment      1: Step Time =    1.000,"P-26-1",           365,       74.1761,       180.806,            0.,NA,NA,"",   1.10129E+06,   1.10040E+06,   1.10040E+06
C:/temp/Job-26.odb,Step-1,Increment      1: Step Time =    1.000,"P-26-1",           366,       65.2089,       181.997,            0.,NA,NA,"",   1.13084E+06,   1.12307E+06,   1.12307E+06
C:/temp/Job-26.odb,Step-1,Increment      1: Step Time =    1.000,"P-26-1",           367,       55.7396,       180.843,            0.,NA,NA,"",   1.16678E+06,   1.15618E+06,   1.15618E+06
C:/temp/Job-26.odb,Step-1,Increment      1: Step Time =    1.000,"P-26-1",           368,       40.4723,       177.966,            0.,NA,NA,"",   1.19941E+06,   1.19517E+06,   1.19517E+06
C:/temp/Job-26.odb,Step-1,Increment      1: Step Time =    1.000,"P-26-1",           369,       32.1132,       173.671,            0.,NA,NA,"",   1.18558E+06,   1.19668E+06,   1.19668E+06
C:/temp/Job-26.odb,Step-1,Increment      1: Step Time =    1.000,"P-26-1",           370,       20.5633,       177.843,            0.,NA,NA,"",   1.19570E+06,   1.23230E+06,   1.23230E+06
C:/temp/Job-26.odb,Step-1,Increment      1: Step Time =    1.000,"P-26-1",           371,       8.91883,       179.689,            0.,NA,NA,"",   1.14828E+06,   1.23563E+06,   1.23563E+06
C:/temp/Job-26.odb,Step-1,Increment      1: Step Time =    1.000,"P-26-1",           372,       189.645,       189.629,            0.,NA,NA,"",   1.00146E+06,   1.00214E+06,   1.00214E+06
C:/temp/Job-26.odb,Step-1,Increment      1: Step Time =    1.000,"P-26-1",           373,       174.599,       190.168,            0.,NA,NA,"",   1.00855E+06,   1.00816E+06,   1.00816E+06
C:/temp/Job-26.odb,Step-1,Increment      1: Step Time =    1.000,"P-26-1",           374,       165.363,       191.245,            0.,NA,NA,"",   1.01074E+06,   1.00924E+06,   1.00924E+06
C:/temp/Job-26.odb,Step-1,Increment      1: Step Time =    1.000,"P-26-1",           375,       156.813,       190.446,            0.,NA,NA,"",   1.01158E+06,   1.00869E+06,   1.00869E+06
C:/temp/Job-26.odb,Step-1,Increment      1: Step Time =    1.000,"P-26-1",           376,       148.847,       187.117,            0.,NA,NA,"",   1.02451E+06,   1.01862E+06,   1.01862E+06
C:/temp/Job-26.odb,Step-1,Increment      1: Step Time =    1.000,"P-26-1",           377,       133.463,       189.859,            0.,NA,NA,"",   982.157E+03,   980.770E+03,   980.770E+03
C:/temp/Job-26.odb,Step-1,Increment      1: Step Time =    1.000,"P-26-1",           378,       124.205,       190.573,            0.,NA,NA,"",   952.547E+03,   953.798E+03,   953.798E+03
C:/temp/Job-26.odb,Step-1,Increment      1: Step Time =    1.000,"P-26-1",           379,       114.665,       190.467,            0.,NA,NA,"",   932.221E+03,   936.552E+03,   936.552E+03
C:/temp/Job-26.odb,Step-1,Increment      1: Step Time =    1.000,"P-26-1",           380,       104.868,       190.261,            0.,NA,NA,"",   925.525E+03,   932.713E+03,   932.713E+03
C:/temp/Job-26.odb,Step-1,Increment      1: Step Time =    1.000,"P-26-1",           381,       94.9585,       190.010,            0.,NA,NA,"",   941.842E+03,   948.885E+03,   948.885E+03
C:/temp/Job-26.odb,Step-1,Increment      1: Step Time =    1.000,"P-26-1",           382,       84.9245,       189.962,            0.,NA,NA,"",   978.818E+03,   982.495E+03,   982.495E+03
C:/temp/Job-26.odb,Step-1,Increment      1: Step Time =    1.000,"P-26-1",           383,       74.9283,       190.344,            0.,NA,NA,"",   1.02561E+06,   1.02535E+06,   1.02535E+06
C:/temp/Job-26.odb,Step-1,Increment      1: Step Time =    1.000,"P-26-1",           384,       64.9853,       190.663,            0.,NA,NA,"",   1.07633E+06,   1.07326E+06,   1.07326E+06
C:/temp/Job-26.odb,Step-1,Increment      1: Step Time =    1.000,"P-26-1",           385,       42.2378,       188.619,            0.,NA,NA,"",   1.17985E+06,   1.17728E+06,   1.17728E+06
C:/temp/Job-26.odb,Step-1,Increment      1: Step Time =    1.000,"P-26-1",           386,       31.0600,       189.159,            0.,NA,NA,"",   1.22192E+06,   1.22479E+06,   1.22479E+06
C:/temp/Job-26.odb,Step-1,Increment      1: Step Time =    1.000,"P-26-1",           387,       20.4821,       187.912,            0.,NA,NA,"",   1.26634E+06,   1.28422E+06,   1.28422E+06
C:/temp/Job-26.odb,Step-1,Increment      1: Step Time =    1.000,"P-26-1",           388,       9.79900,       189.669,            0.,NA,NA,"",   1.34706E+06,   1.39685E+06,   1.39685E+06
C:/temp/Job-26.odb,Step-1,Increment      1: Step Time =    1.000,"P-26-1",           389,       94.9675,       124.488,            0.,NA,NA,"",   2.49360E+06,   2.57019E+06,   2.57019E+06
C:/temp/Job-26.odb,Step-1,Increment      1: Step Time =    1.000,"P-26-1",           390,       85.7183,       120.519,            0.,NA,NA,"",   1.61701E+06,   1.64752E+06,   1.64752E+06
C:/temp/Job-26.odb,Step-1,Increment      1: Step Time =    1.000,"P-26-1",           391,       78.7839,       113.224,            0.,NA,NA,"",   474.508E+03,   191.196E+03,   191.196E+03
C:/temp/Job-26.odb,Step-1,Increment      1: Step Time =    1.000,"P-26-1",           392,       75.2883,       103.786,            0.,NA,NA,"",   518.868E+03,  -512.542E+03,  -512.542E+03
C:/temp/Job-26.odb,Step-1,Increment      1: Step Time =    1.000,"P-26-1",           393,       75.7981,       93.7337,            0.,NA,NA,"",   531.373E+03,  -513.002E+03,  -513.002E+03
C:/temp/Job-26.odb,Step-1,Increment      1: Step Time =    1.000,"P-26-1",           394,       80.2306,       84.6973,            0.,NA,NA,"",   681.610E+03,   637.676E+03,   637.676E+03
C:/temp/Job-26.odb,Step-1,Increment      1: Step Time =    1.000,"P-26-1",           395,       87.8675,       78.1413,            0.,NA,NA,"",   1.80311E+06,   1.83644E+06,   1.83644E+06
C:/temp/Job-26.odb,Step-1,Increment      1: Step Time =    1.000,"P-26-1",           396,       97.4708,       75.1283,            0.,NA,NA,"",   2.45314E+06,   2.56664E+06,   2.56664E+06
C:/temp/Job-26.odb,Step-1,Increment      1: Step Time =    1.000,"P-26-1",           397,       102.529,       75.1283,            0.,NA,NA,"",   2.63227E+06,   2.71350E+06,   2.71350E+06
C:/temp/Job-26.odb,Step-1,Increment      1: Step Time =    1.000,"P-26-1",           398,       112.133,       78.1413,            0.,NA,NA,"",   1.91353E+06,   1.97654E+06,   1.97654E+06
C:/temp/Job-26.odb,Step-1,Increment      1: Step Time =    1.000,"P-26-1",           399,       119.769,       84.6973,            0.,NA,NA,"",   735.266E+03,   695.664E+03,   695.664E+03
C:/temp/Job-26.odb,Step-1,Increment      1: Step Time =    1.000,"P-26-1",           400,       124.202,       93.7337,            0.,NA,NA,"",   634.471E+03,  -600.005E+03,  -600.005E+03
C:/temp/Job-26.odb,Step-1,Increment      1: Step Time =    1.000,"P-26-1",           401,       124.712,       103.786,            0.,NA,NA,"",   784.519E+03,    -782.2E+03,    -782.2E+03
C:/temp/Job-26.odb,Step-1,Increment      1: Step Time =    1.000,"P-26-1",           402,       121.216,       113.224,            0.,NA,NA,"",   623.198E+03,   189.633E+03,   189.633E+03
C:/temp/Job-26.odb,Step-1,Increment      1: Step Time =    1.000,"P-26-1",           403,       114.282,       120.519,            0.,NA,NA,"",   1.64600E+06,   1.68403E+06,   1.68403E+06
C:/temp/Job-26.odb,Step-1,Increment      1: Step Time =    1.000,"P-26-1",           404,       105.032,       124.488,            0.,NA,NA,"",   2.52139E+06,   2.60440E+06,   2.60440E+06
C:/temp/Job-26.odb,Step-1,Increment      1: Step Time =    1.000,"P-26-1",           405,          195.,            0.,            0.,NA,NA,"",   999.536E+03,   999.502E+03,   999.502E+03
C:/temp/Job-26.odb,Step-1,Increment      1: Step Time =    1.000,"P-26-1",           406,          185.,            0.,            0.,NA,NA,"",   998.808E+03,   998.897E+03,   998.897E+03
C:/temp/Job-26.odb,Step-1,Increment      1: Step Time =    1.000,"P-26-1",           407,          175.,            0.,            0.,NA,NA,"",   1.00005E+06,   999.991E+03,   999.991E+03
C:/temp/Job-26.odb,Step-1,Increment      1: Step Time =    1.000,"P-26-1",           408,          165.,            0.,            0.,NA,NA,"",   999.474E+03,   999.231E+03,   999.231E+03
C:/temp/Job-26.odb,Step-1,Increment      1: Step Time =    1.000,"P-26-1",           409,          155.,            0.,            0.,NA,NA,"",   990.532E+03,   990.159E+03,   990.159E+03
C:/temp/Job-26.odb,Step-1,Increment      1: Step Time =    1.000,"P-26-1",           410,          145.,            0.,            0.,NA,NA,"",   968.469E+03,   968.076E+03,   968.076E+03
C:/temp/Job-26.odb,Step-1,Increment      1: Step Time =    1.000,"P-26-1",           411,          135.,            0.,            0.,NA,NA,"",   933.936E+03,   933.663E+03,   933.663E+03
C:/temp/Job-26.odb,Step-1,Increment      1: Step Time =    1.000,"P-26-1",           412,          125.,            0.,            0.,NA,NA,"",   893.905E+03,   893.979E+03,   893.979E+03
C:/temp/Job-26.odb,Step-1,Increment      1: Step Time =    1.000,"P-26-1",           413,          115.,            0.,            0.,NA,NA,"",   860.428E+03,   860.995E+03,   860.995E+03
C:/temp/Job-26.odb,Step-1,Increment      1: Step Time =    1.000,"P-26-1",           414,          105.,            0.,            0.,NA,NA,"",   846.062E+03,   847.005E+03,   847.005E+03
C:/temp/Job-26.odb,Step-1,Increment      1: Step Time =    1.000,"P-26-1",           415,           95.,            0.,            0.,NA,NA,"",   859.609E+03,   860.505E+03,   860.505E+03
C:/temp/Job-26.odb,Step-1,Increment      1: Step Time =    1.000,"P-26-1",           416,           85.,            0.,            0.,NA,NA,"",   901.832E+03,   902.294E+03,   902.294E+03
C:/temp/Job-26.odb,Step-1,Increment      1: Step Time =    1.000,"P-26-1",           417,           75.,            0.,            0.,NA,NA,"",   963.537E+03,   963.691E+03,   963.691E+03
C:/temp/Job-26.odb,Step-1,Increment      1: Step Time =    1.000,"P-26-1",           418,           65.,            0.,            0.,NA,NA,"",   1.03300E+06,   1.03332E+06,   1.03332E+06
C:/temp/Job-26.odb,Step-1,Increment      1: Step Time =    1.000,"P-26-1",           419,           55.,            0.,            0.,NA,NA,"",   1.09915E+06,   1.09822E+06,   1.09822E+06
C:/temp/Job-26.odb,Step-1,Increment      1: Step Time =    1.000,"P-26-1",           420,           45.,            0.,            0.,NA,NA,"",   1.15083E+06,   1.15030E+06,   1.15030E+06
C:/temp/Job-26.odb,Step-1,Increment      1: Step Time =    1.000,"P-26-1",           421,           35.,            0.,            0.,NA,NA,"",   1.19223E+06,   1.19254E+06,   1.19254E+06
C:/temp/Job-26.odb,Step-1,Increment      1: Step Time =    1.000,"P-26-1",           422,           25.,            0.,            0.,NA,NA,"",   1.23760E+06,   1.23919E+06,   1.23919E+06
C:/temp/Job-26.odb,Step-1,Increment      1: Step Time =    1.000,"P-26-1",           423,           15.,            0.,            0.,NA,NA,"",   1.32050E+06,   1.32636E+06,   1.32636E+06
C:/temp/Job-26.odb,Step-1,Increment      1: Step Time =    1.000,"P-26-1",           424,            5.,            0.,            0.,NA,NA,"",   1.62296E+06,   1.66044E+06,   1.66044E+06
C:/temp/Job-26.odb,Step-1,Increment      1: Step Time =    1.000,"P-26-1",           425,          200.,          195.,            0.,NA,NA,"",   1.00018E+06,   999.924E+03,   999.924E+03
C:/temp/Job-26.odb,Step-1,Increment      1: Step Time =    1.000,"P-26-1",           426,          200.,          185.,            0.,NA,NA,"",   1.00079E+06,   1.00046E+06,   1.00046E+06
C:/temp/Job-26.odb,Step-1,Increment      1: Step Time =    1.000,"P-26-1",           427,          200.,          175.,            0.,NA,NA,"",   998.021E+03,   1.00083E+06,   1.00083E+06
C:/temp/Job-26.odb,Step-1,Increment      1: Step Time =    1.000,"P-26-1",           428,          200.,          165.,            0.,NA,NA,"",   988.952E+03,   1.00113E+06,   1.00113E+06
C:/temp/Job-26.odb,Step-1,Increment      1: Step Time =    1.000,"P-26-1",           429,          200.,          155.,            0.,NA,NA,"",   971.469E+03,   1.00127E+06,   1.00127E+06
C:/temp/Job-26.odb,Step-1,Increment      1: Step Time =    1.000,"P-26-1",           430,          200.,          145.,            0.,NA,NA,"",   946.530E+03,   1.00123E+06,   1.00123E+06
C:/temp/Job-26.odb,Step-1,Increment      1: Step Time =    1.000,"P-26-1",           431,          200.,          135.,            0.,NA,NA,"",   918.758E+03,   1.00092E+06,   1.00092E+06
C:/temp/Job-26.odb,Step-1,Increment      1: Step Time =    1.000,"P-26-1",           432,          200.,          125.,            0.,NA,NA,"",   894.529E+03,   1.00009E+06,   1.00009E+06
C:/temp/Job-26.odb,Step-1,Increment      1: Step Time =    1.000,"P-26-1",           433,          200.,          115.,            0.,NA,NA,"",   878.283E+03,   998.591E+03,   998.591E+03
C:/temp/Job-26.odb,Step-1,Increment      1: Step Time =    1.000,"P-26-1",           434,          200.,          105.,            0.,NA,NA,"",   870.898E+03,   997.431E+03,   997.431E+03
C:/temp/Job-26.odb,Step-1,Increment      1: Step Time =    1.000,"P-26-1",           435,          200.,           95.,            0.,NA,NA,"",   870.666E+03,   997.456E+03,   997.456E+03
C:/temp/Job-26.odb,Step-1,Increment      1: Step Time =    1.000,"P-26-1",           436,          200.,           85.,            0.,NA,NA,"",   877.529E+03,   998.564E+03,   998.564E+03
C:/temp/Job-26.odb,Step-1,Increment      1: Step Time =    1.000,"P-26-1",           437,          200.,           75.,            0.,NA,NA,"",   893.087E+03,   999.578E+03,   999.578E+03
C:/temp/Job-26.odb,Step-1,Increment      1: Step Time =    1.000,"P-26-1",           438,          200.,           65.,            0.,NA,NA,"",   917.185E+03,   999.369E+03,   999.369E+03
C:/temp/Job-26.odb,Step-1,Increment      1: Step Time =    1.000,"P-26-1",           439,          200.,           55.,            0.,NA,NA,"",   949.621E+03,   1.00331E+06,   1.00331E+06
C:/temp/Job-26.odb,Step-1,Increment      1: Step Time =    1.000,"P-26-1",           440,          200.,           45.,            0.,NA,NA,"",   973.826E+03,   1.00230E+06,   1.00230E+06
C:/temp/Job-26.odb,Step-1,Increment      1: Step Time =    1.000,"P-26-1",           441,          200.,           35.,            0.,NA,NA,"",   989.711E+03,   1.00096E+06,   1.00096E+06
C:/temp/Job-26.odb,Step-1,Increment      1: Step Time =    1.000,"P-26-1",           442,          200.,           25.,            0.,NA,NA,"",   998.061E+03,   1.00064E+06,   1.00064E+06
C:/temp/Job-26.odb,Step-1,Increment      1: Step Time =    1.000,"P-26-1",           443,          200.,           15.,            0.,NA,NA,"",   1.00072E+06,   1.00041E+06,   1.00041E+06
C:/temp/Job-26.odb,Step-1,Increment      1: Step Time =    1.000,"P-26-1",           444,          200.,            5.,            0.,NA,NA,"",   1.00018E+06,   999.939E+03,   999.939E+03
C:/temp/Job-26.odb,Step-1,Increment      1: Step Time =    1.000,"P-26-1",           445,            5.,          200.,            0.,NA,NA,"",   1.62440E+06,   1.66209E+06,   1.66209E+06
C:/temp/Job-26.odb,Step-1,Increment      1: Step Time =    1.000,"P-26-1",           446,           15.,          200.,            0.,NA,NA,"",   1.32142E+06,   1.32781E+06,   1.32781E+06
C:/temp/Job-26.odb,Step-1,Increment      1: Step Time =    1.000,"P-26-1",           447,           25.,          200.,            0.,NA,NA,"",   1.23980E+06,   1.24134E+06,   1.24134E+06
C:/temp/Job-26.odb,Step-1,Increment      1: Step Time =    1.000,"P-26-1",           448,           35.,          200.,            0.,NA,NA,"",   1.19083E+06,   1.19127E+06,   1.19127E+06
C:/temp/Job-26.odb,Step-1,Increment      1: Step Time =    1.000,"P-26-1",           449,           45.,          200.,            0.,NA,NA,"",   1.14874E+06,   1.14868E+06,   1.14868E+06
C:/temp/Job-26.odb,Step-1,Increment      1: Step Time =    1.000,"P-26-1",           450,           55.,          200.,            0.,NA,NA,"",   1.09543E+06,   1.09515E+06,   1.09515E+06
C:/temp/Job-26.odb,Step-1,Increment      1: Step Time =    1.000,"P-26-1",           451,           65.,          200.,            0.,NA,NA,"",   1.03347E+06,   1.03314E+06,   1.03314E+06
C:/temp/Job-26.odb,Step-1,Increment      1: Step Time =    1.000,"P-26-1",           452,           75.,          200.,            0.,NA,NA,"",   965.113E+03,   965.174E+03,   965.174E+03
C:/temp/Job-26.odb,Step-1,Increment      1: Step Time =    1.000,"P-26-1",           453,           85.,          200.,            0.,NA,NA,"",   903.012E+03,   903.508E+03,   903.508E+03
C:/temp/Job-26.odb,Step-1,Increment      1: Step Time =    1.000,"P-26-1",           454,           95.,          200.,            0.,NA,NA,"",   859.643E+03,   860.481E+03,   860.481E+03
C:/temp/Job-26.odb,Step-1,Increment      1: Step Time =    1.000,"P-26-1",           455,          105.,          200.,            0.,NA,NA,"",   844.574E+03,   845.411E+03,   845.411E+03
C:/temp/Job-26.odb,Step-1,Increment      1: Step Time =    1.000,"P-26-1",           456,          115.,          200.,            0.,NA,NA,"",   858.678E+03,   859.237E+03,   859.237E+03
C:/temp/Job-26.odb,Step-1,Increment      1: Step Time =    1.000,"P-26-1",           457,          125.,          200.,            0.,NA,NA,"",   892.526E+03,   892.820E+03,   892.820E+03
C:/temp/Job-26.odb,Step-1,Increment      1: Step Time =    1.000,"P-26-1",           458,          135.,          200.,            0.,NA,NA,"",   934.647E+03,   934.847E+03,   934.847E+03
C:/temp/Job-26.odb,Step-1,Increment      1: Step Time =    1.000,"P-26-1",           459,          145.,          200.,            0.,NA,NA,"",   972.168E+03,   971.017E+03,   971.017E+03
C:/temp/Job-26.odb,Step-1,Increment      1: Step Time =    1.000,"P-26-1",           460,          155.,          200.,            0.,NA,NA,"",   992.357E+03,   991.880E+03,   991.880E+03
C:/temp/Job-26.odb,Step-1,Increment      1: Step Time =    1.000,"P-26-1",           461,          165.,          200.,            0.,NA,NA,"",   999.525E+03,   999.334E+03,   999.334E+03
C:/temp/Job-26.odb,Step-1,Increment      1: Step Time =    1.000,"P-26-1",           462,          175.,          200.,            0.,NA,NA,"",   999.634E+03,   999.580E+03,   999.580E+03
C:/temp/Job-26.odb,Step-1,Increment      1: Step Time =    1.000,"P-26-1",           463,          185.,          200.,            0.,NA,NA,"",   998.579E+03,   998.658E+03,   998.658E+03
C:/temp/Job-26.odb,Step-1,Increment      1: Step Time =    1.000,"P-26-1",           464,          195.,          200.,            0.,NA,NA,"",   999.511E+03,   999.469E+03,   999.469E+03
C:/temp/Job-26.odb,Step-1,Increment      1: Step Time =    1.000,"P-26-1",           465,            0.,            5.,            0.,NA,NA,"",   1.55195E+06,   1.65226E+06,   1.65226E+06
C:/temp/Job-26.odb,Step-1,Increment      1: Step Time =    1.000,"P-26-1",           466,            0.,           15.,            0.,NA,NA,"",   1.16891E+06,   1.28682E+06,   1.28682E+06
C:/temp/Job-26.odb,Step-1,Increment      1: Step Time =    1.000,"P-26-1",           467,            0.,           25.,            0.,NA,NA,"",   1.03973E+06,   1.15578E+06,   1.15578E+06
C:/temp/Job-26.odb,Step-1,Increment      1: Step Time =    1.000,"P-26-1",           468,            0.,           35.,            0.,NA,NA,"",   954.489E+03,   1.06632E+06,   1.06632E+06
C:/temp/Job-26.odb,Step-1,Increment      1: Step Time =    1.000,"P-26-1",           469,            0.,           45.,            0.,NA,NA,"",   885.117E+03,   992.529E+03,   992.529E+03
C:/temp/Job-26.odb,Step-1,Increment      1: Step Time =    1.000,"P-26-1",           470,            0.,           55.,            0.,NA,NA,"",   817.525E+03,   919.663E+03,   919.663E+03
C:/temp/Job-26.odb,Step-1,Increment      1: Step Time =    1.000,"P-26-1",           471,            0.,           65.,            0.,NA,NA,"",   754.216E+03,   850.064E+03,   850.064E+03
C:/temp/Job-26.odb,Step-1,Increment      1: Step Time =    1.000,"P-26-1",           472,            0.,           75.,            0.,NA,NA,"",   696.557E+03,   786.355E+03,   786.355E+03
C:/temp/Job-26.odb,Step-1,Increment      1: Step Time =    1.000,"P-26-1",           473,            0.,           85.,            0.,NA,NA,"",   649.301E+03,   734.454E+03,   734.454E+03
C:/temp/Job-26.odb,Step-1,Increment      1: Step Time =    1.000,"P-26-1",           474,            0.,           95.,            0.,NA,NA,"",   621.303E+03,   703.909E+03,   703.909E+03
C:/temp/Job-26.odb,Step-1,Increment      1: Step Time =    1.000,"P-26-1",           475,            0.,          105.,            0.,NA,NA,"",   620.933E+03,   703.518E+03,   703.518E+03
C:/temp/Job-26.odb,Step-1,Increment      1: Step Time =    1.000,"P-26-1",           476,            0.,          115.,            0.,NA,NA,"",   648.100E+03,   733.122E+03,   733.122E+03
C:/temp/Job-26.odb,Step-1,Increment      1: Step Time =    1.000,"P-26-1",           477,            0.,          125.,            0.,NA,NA,"",   696.016E+03,     785.6E+03,     785.6E+03
C:/temp/Job-26.odb,Step-1,Increment      1: Step Time =    1.000,"P-26-1",           478,            0.,          135.,            0.,NA,NA,"",   756.023E+03,   851.230E+03,   851.230E+03
C:/temp/Job-26.odb,Step-1,Increment      1: Step Time =    1.000,"P-26-1",           479,            0.,          145.,            0.,NA,NA,"",   824.313E+03,   925.089E+03,   925.089E+03
C:/temp/Job-26.odb,Step-1,Increment      1: Step Time =    1.000,"P-26-1",           480,            0.,          155.,            0.,NA,NA,"",   887.449E+03,   996.234E+03,   996.234E+03
C:/temp/Job-26.odb,Step-1,Increment      1: Step Time =    1.000,"P-26-1",           481,            0.,          165.,            0.,NA,NA,"",   954.222E+03,   1.06830E+06,   1.06830E+06
C:/temp/Job-26.odb,Step-1,Increment      1: Step Time =    1.000,"P-26-1",           482,            0.,          175.,            0.,NA,NA,"",   1.03756E+06,   1.15527E+06,   1.15527E+06
C:/temp/Job-26.odb,Step-1,Increment      1: Step Time =    1.000,"P-26-1",           483,            0.,          185.,            0.,NA,NA,"",   1.16692E+06,   1.28597E+06,   1.28597E+06
C:/temp/Job-26.odb,Step-1,Increment      1: Step Time =    1.000,"P-26-1",           484,            0.,          195.,            0.,NA,NA,"",   1.55097E+06,   1.65175E+06,   1.65175E+06
C:/temp/Job-26.odb,Step-1,Increment      1: Step Time =    1.000,"P-26-1",           485,       195.084,       44.3502,            0.,NA,NA,"",   977.125E+03,   1.00469E+06,   1.00469E+06
C:/temp/Job-26.odb,Step-1,Increment      1: Step Time =    1.000,"P-26-1",           486,       5.61507,       40.7705,            0.,NA,NA,"",   935.224E+03,   1.03756E+06,   1.03756E+06
C:/temp/Job-26.odb,Step-1,Increment      1: Step Time =    1.000,"P-26-1",           487,       5.32973,       30.3519,            0.,NA,NA,"",   1.01466E+06,   1.12004E+06,   1.12004E+06
C:/temp/Job-26.odb,Step-1,Increment      1: Step Time =    1.000,"P-26-1",           488,       5.12382,       20.1961,            0.,NA,NA,"",   1.11932E+06,   1.22450E+06,   1.22450E+06
C:/temp/Job-26.odb,Step-1,Increment      1: Step Time =    1.000,"P-26-1",           489,       24.8322,       4.90481,            0.,NA,NA,"",   1.24558E+06,   1.24818E+06,   1.24818E+06
C:/temp/Job-26.odb,Step-1,Increment      1: Step Time =    1.000,"P-26-1",           490,       34.5438,       4.73479,            0.,NA,NA,"",   1.19797E+06,   1.19816E+06,   1.19816E+06
C:/temp/Job-26.odb,Step-1,Increment      1: Step Time =    1.000,"P-26-1",           491,       134.443,       194.762,            0.,NA,NA,"",   950.006E+03,   949.704E+03,   949.704E+03
C:/temp/Job-26.odb,Step-1,Increment      1: Step Time =    1.000,"P-26-1",           492,       124.620,       195.289,            0.,NA,NA,"",   912.991E+03,   913.458E+03,   913.458E+03
C:/temp/Job-26.odb,Step-1,Increment      1: Step Time =    1.000,"P-26-1",           493,       6.85727,       145.591,            0.,NA,NA,"",   846.457E+03,   940.729E+03,   940.729E+03
C:/temp/Job-26.odb,Step-1,Increment      1: Step Time =    1.000,"P-26-1",           494,       5.04942,       134.749,            0.,NA,NA,"",   761.711E+03,   854.415E+03,   854.415E+03
C:/temp/Job-26.odb,Step-1,Increment      1: Step Time =    1.000,"P-26-1",           495,       84.9768,       195.003,            0.,NA,NA,"",   929.677E+03,   930.925E+03,   930.925E+03
C:/temp/Job-26.odb,Step-1,Increment      1: Step Time =    1.000,"P-26-1",           496,       94.9568,       195.018,            0.,NA,NA,"",   889.138E+03,   891.603E+03,   891.603E+03
C:/temp/Job-26.odb,Step-1,Increment      1: Step Time =    1.000,"P-26-1",           497,       45.5471,       195.392,            0.,NA,NA,"",   1.15160E+06,   1.15074E+06,   1.15074E+06
C:/temp/Job-26.odb,Step-1,Increment      1: Step Time =    1.000,"P-26-1",           498,       35.6889,       194.485,            0.,NA,NA,"",   1.19514E+06,   1.19519E+06,   1.19519E+06
C:/temp/Job-26.odb,Step-1,Increment      1: Step Time =    1.000,"P-26-1",           499,       25.3929,       194.349,            0.,NA,NA,"",   1.24404E+06,   1.24712E+06,   1.24712E+06
C:/temp/Job-26.odb,Step-1,Increment      1: Step Time =    1.000,"P-26-1",           500,       5.06314,       10.0954,            0.,NA,NA,"",   1.31811E+06,   1.40905E+06,   1.40905E+06
C:/temp/Job-26.odb,Step-1,Increment      1: Step Time =    1.000,"P-26-1",           501,       14.9943,       5.05338,            0.,NA,NA,"",   1.32722E+06,   1.33738E+06,   1.33738E+06
C:/temp/Job-26.odb,Step-1,Increment      1: Step Time =    1.000,"P-26-1",           502,       44.3046,       5.14478,            0.,NA,NA,"",   1.15730E+06,   1.15602E+06,   1.15602E+06
C:/temp/Job-26.odb,Step-1,Increment      1: Step Time =    1.000,"P-26-1",           503,       54.8547,       7.34942,            0.,NA,NA,"",   1.11631E+06,   1.11342E+06,   1.11342E+06
C:/temp/Job-26.odb,Step-1,Increment      1: Step Time =    1.000,"P-26-1",           504,       65.5532,       5.21644,            0.,NA,NA,"",   1.04579E+06,   1.04527E+06,   1.04527E+06
C:/temp/Job-26.odb,Step-1,Increment      1: Step Time =    1.000,"P-26-1",           505,       75.3959,       4.74399,            0.,NA,NA,"",   982.488E+03,   982.523E+03,   982.523E+03
C:/temp/Job-26.odb,Step-1,Increment      1: Step Time =    1.000,"P-26-1",           506,       85.2018,       4.79773,            0.,NA,NA,"",   927.059E+03,   928.294E+03,   928.294E+03
C:/temp/Job-26.odb,Step-1,Increment      1: Step Time =    1.000,"P-26-1",           507,       95.1155,       4.94814,            0.,NA,NA,"",   888.849E+03,   891.317E+03,   891.317E+03
C:/temp/Job-26.odb,Step-1,Increment      1: Step Time =    1.000,"P-26-1",           508,       105.056,       5.05906,            0.,NA,NA,"",   876.194E+03,   878.808E+03,   878.808E+03
C:/temp/Job-26.odb,Step-1,Increment      1: Step Time =    1.000,"P-26-1",           509,       115.038,       5.07751,            0.,NA,NA,"",   887.946E+03,   889.675E+03,   889.675E+03
C:/temp/Job-26.odb,Step-1,Increment      1: Step Time =    1.000,"P-26-1",           510,       125.035,       4.97984,            0.,NA,NA,"",   916.310E+03,   916.641E+03,   916.641E+03
C:/temp/Job-26.odb,Step-1,Increment      1: Step Time =    1.000,"P-26-1",           511,       135.002,       4.82786,            0.,NA,NA,"",   949.870E+03,   949.127E+03,   949.127E+03
C:/temp/Job-26.odb,Step-1,Increment      1: Step Time =    1.000,"P-26-1",           512,       144.929,       4.71211,            0.,NA,NA,"",   978.546E+03,   977.375E+03,   977.375E+03
C:/temp/Job-26.odb,Step-1,Increment      1: Step Time =    1.000,"P-26-1",           513,       154.841,       4.71865,            0.,NA,NA,"",   996.674E+03,   995.557E+03,   995.557E+03
C:/temp/Job-26.odb,Step-1,Increment      1: Step Time =    1.000,"P-26-1",           514,       164.762,       4.87484,            0.,NA,NA,"",   1.00366E+06,   1.00291E+06,   1.00291E+06
C:/temp/Job-26.odb,Step-1,Increment      1: Step Time =    1.000,"P-26-1",           515,       174.717,       5.11342,            0.,NA,NA,"",   1.00307E+06,   1.00289E+06,   1.00289E+06
C:/temp/Job-26.odb,Step-1,Increment      1: Step Time =    1.000,"P-26-1",           516,       184.723,       5.22885,            0.,NA,NA,"",   1.00049E+06,   1.00074E+06,   1.00074E+06
C:/temp/Job-26.odb,Step-1,Increment      1: Step Time =    1.000,"P-26-1",           517,       194.878,       5.11694,            0.,NA,NA,"",   999.974E+03,   999.931E+03,   999.931E+03
C:/temp/Job-26.odb,Step-1,Increment      1: Step Time =    1.000,"P-26-1",           518,       194.828,       15.2062,            0.,NA,NA,"",   1.00069E+06,   1.00128E+06,   1.00128E+06
C:/temp/Job-26.odb,Step-1,Increment      1: Step Time =    1.000,"P-26-1",           519,       195.145,       25.0861,            0.,NA,NA,"",    998.12E+03,   1.00203E+06,   1.00203E+06
C:/temp/Job-26.odb,Step-1,Increment      1: Step Time =    1.000,"P-26-1",           520,       195.589,       34.7593,            0.,NA,NA,"",   990.510E+03,   1.00270E+06,   1.00270E+06
C:/temp/Job-26.odb,Step-1,Increment      1: Step Time =    1.000,"P-26-1",           521,       192.530,       54.8052,            0.,NA,NA,"",   962.849E+03,   1.00951E+06,   1.00951E+06
C:/temp/Job-26.odb,Step-1,Increment      1: Step Time =    1.000,"P-26-1",           522,       194.795,       65.5037,            0.,NA,NA,"",   924.745E+03,   1.00192E+06,   1.00192E+06
C:/temp/Job-26.odb,Step-1,Increment      1: Step Time =    1.000,"P-26-1",           523,       195.314,       75.3040,            0.,NA,NA,"",   899.829E+03,   999.960E+03,   999.960E+03
C:/temp/Job-26.odb,Step-1,Increment      1: Step Time =    1.000,"P-26-1",           524,       195.207,       85.1404,            0.,NA,NA,"",   881.702E+03,   996.066E+03,   996.066E+03
C:/temp/Job-26.odb,Step-1,Increment      1: Step Time =    1.000,"P-26-1",           525,       195.000,       95.0901,            0.,NA,NA,"",   872.201E+03,   992.506E+03,   992.506E+03
C:/temp/Job-26.odb,Step-1,Increment      1: Step Time =    1.000,"P-26-1",           526,       194.887,       105.088,            0.,NA,NA,"",   872.734E+03,   992.563E+03,   992.563E+03
C:/temp/Job-26.odb,Step-1,Increment      1: Step Time =    1.000,"P-26-1",           527,       194.926,       115.122,            0.,NA,NA,"",   882.938E+03,   995.974E+03,   995.974E+03
C:/temp/Job-26.odb,Step-1,Increment      1: Step Time =    1.000,"P-26-1",           528,       195.053,       125.112,            0.,NA,NA,"",   902.078E+03,   1.00045E+06,   1.00045E+06
C:/temp/Job-26.odb,Step-1,Increment      1: Step Time =    1.000,"P-26-1",           529,       195.224,       135.026,            0.,NA,NA,"",   926.579E+03,   1.00318E+06,   1.00318E+06
C:/temp/Job-26.odb,Step-1,Increment      1: Step Time =    1.000,"P-26-1",           530,       195.327,       144.908,            0.,NA,NA,"",   952.351E+03,   1.00411E+06,   1.00411E+06
C:/temp/Job-26.odb,Step-1,Increment      1: Step Time =    1.000,"P-26-1",           531,       194.883,       194.878,            0.,NA,NA,"",   999.965E+03,   999.904E+03,   999.904E+03
C:/temp/Job-26.odb,Step-1,Increment      1: Step Time =    1.000,"P-26-1",           532,       184.795,       194.827,            0.,NA,NA,"",   1.00028E+06,   1.00052E+06,   1.00052E+06
C:/temp/Job-26.odb,Step-1,Increment      1: Step Time =    1.000,"P-26-1",           533,       174.918,       195.139,            0.,NA,NA,"",   1.00233E+06,   1.00222E+06,   1.00222E+06
C:/temp/Job-26.odb,Step-1,Increment      1: Step Time =    1.000,"P-26-1",           534,       165.243,       195.577,            0.,NA,NA,"",   1.00279E+06,   1.00227E+06,   1.00227E+06
C:/temp/Job-26.odb,Step-1,Increment      1: Step Time =    1.000,"P-26-1",           535,       155.647,       195.069,            0.,NA,NA,"",   997.801E+03,   996.690E+03,   996.690E+03
C:/temp/Job-26.odb,Step-1,Increment      1: Step Time =    1.000,"P-26-1",           536,       145.174,       192.511,            0.,NA,NA,"",   992.360E+03,   989.595E+03,   989.595E+03
C:/temp/Job-26.odb,Step-1,Increment      1: Step Time =    1.000,"P-26-1",           537,       114.812,       195.255,            0.,NA,NA,"",   884.509E+03,   886.020E+03,   886.020E+03
C:/temp/Job-26.odb,Step-1,Increment      1: Step Time =    1.000,"P-26-1",           538,       104.909,       195.130,            0.,NA,NA,"",   873.636E+03,   876.171E+03,   876.171E+03
C:/temp/Job-26.odb,Step-1,Increment      1: Step Time =    1.000,"P-26-1",           539,       75.0009,       195.163,            0.,NA,NA,"",   985.580E+03,   985.499E+03,   985.499E+03
C:/temp/Job-26.odb,Step-1,Increment      1: Step Time =    1.000,"P-26-1",           540,       65.0095,       195.314,            0.,NA,NA,"",   1.04751E+06,   1.04637E+06,   1.04637E+06
C:/temp/Job-26.odb,Step-1,Increment      1: Step Time =    1.000,"P-26-1",           541,       55.1315,       195.546,            0.,NA,NA,"",   1.10276E+06,   1.10161E+06,   1.10161E+06
C:/temp/Job-26.odb,Step-1,Increment      1: Step Time =    1.000,"P-26-1",           542,       15.1207,       194.485,            0.,NA,NA,"",   1.32685E+06,   1.33809E+06,   1.33809E+06
C:/temp/Job-26.odb,Step-1,Increment      1: Step Time =    1.000,"P-26-1",           543,       4.99166,       194.924,            0.,NA,NA,"",   1.51550E+06,   1.57559E+06,   1.57559E+06
C:/temp/Job-26.odb,Step-1,Increment      1: Step Time =    1.000,"P-26-1",           544,       4.70602,       184.929,            0.,NA,NA,"",   1.18741E+06,   1.29222E+06,   1.29222E+06
C:/temp/Job-26.odb,Step-1,Increment      1: Step Time =    1.000,"P-26-1",           545,       4.27991,       175.012,            0.,NA,NA,"",   1.05437E+06,   1.16443E+06,   1.16443E+06
C:/temp/Job-26.odb,Step-1,Increment      1: Step Time =    1.000,"P-26-1",           546,       4.09928,       165.360,            0.,NA,NA,"",   969.824E+03,   1.07841E+06,   1.07841E+06
C:/temp/Job-26.odb,Step-1,Increment      1: Step Time =    1.000,"P-26-1",           547,       4.73081,       155.763,            0.,NA,NA,"",   905.067E+03,   1.00868E+06,   1.00868E+06
C:/temp/Job-26.odb,Step-1,Increment      1: Step Time =    1.000,"P-26-1",           548,       4.82527,       124.893,            0.,NA,NA,"",   698.508E+03,   787.030E+03,   787.030E+03
C:/temp/Job-26.odb,Step-1,Increment      1: Step Time =    1.000,"P-26-1",           549,       5.00029,       114.885,            0.,NA,NA,"",   646.418E+03,   731.427E+03,   731.427E+03
C:/temp/Job-26.odb,Step-1,Increment      1: Step Time =    1.000,"P-26-1",           550,       4.90852,       104.916,            0.,NA,NA,"",   617.040E+03,   700.110E+03,   700.110E+03
C:/temp/Job-26.odb,Step-1,Increment      1: Step Time =    1.000,"P-26-1",           551,       4.78425,       94.9637,            0.,NA,NA,"",   617.839E+03,    700.92E+03,    700.92E+03
C:/temp/Job-26.odb,Step-1,Increment      1: Step Time =    1.000,"P-26-1",           552,       4.69847,       85.0304,            0.,NA,NA,"",   648.134E+03,   733.244E+03,   733.244E+03
C:/temp/Job-26.odb,Step-1,Increment      1: Step Time =    1.000,"P-26-1",           553,       4.52128,       75.1960,            0.,NA,NA,"",   698.550E+03,   787.334E+03,   787.334E+03
C:/temp/Job-26.odb,Step-1,Increment      1: Step Time =    1.000,"P-26-1",           554,       4.30402,       65.4475,            0.,NA,NA,"",   759.095E+03,   852.699E+03,   852.699E+03
C:/temp/Job-26.odb,Step-1,Increment      1: Step Time =    1.000,"P-26-1",           555,       4.37416,       55.6843,            0.,NA,NA,"",   825.011E+03,   923.472E+03,   923.472E+03
C:/temp/Job-26.odb,Step-1,Increment      1: Step Time =    1.000,"P-26-1",           556,       195.306,       154.808,            0.,NA,NA,"",   974.703E+03,   1.00398E+06,   1.00398E+06
C:/temp/Job-26.odb,Step-1,Increment      1: Step Time =    1.000,"P-26-1",           557,       195.134,       164.734,            0.,NA,NA,"",   990.359E+03,   1.00345E+06,   1.00345E+06
C:/temp/Job-26.odb,Step-1,Increment      1: Step Time =    1.000,"P-26-1",           558,       194.886,       174.702,            0.,NA,NA,"",   998.431E+03,   1.00252E+06,   1.00252E+06
C:/temp/Job-26.odb,Step-1,Increment      1: Step Time =    1.000,"P-26-1",           559,       194.769,       184.718,            0.,NA,NA,"",   1.00084E+06,   1.00139E+06,   1.00139E+06
C:/temp/Job-26.odb,Step-1,Increment      1: Step Time =    1.000,"P-26-1",           560,       189.792,       5.19746,            0.,NA,NA,"",   999.872E+03,   1.00011E+06,   1.00011E+06
C:/temp/Job-26.odb,Step-1,Increment      1: Step Time =    1.000,"P-26-1",           561,       179.709,       5.19853,            0.,NA,NA,"",   1.00172E+06,   1.00180E+06,   1.00180E+06
C:/temp/Job-26.odb,Step-1,Increment      1: Step Time =    1.000,"P-26-1",           562,       169.737,       4.98936,            0.,NA,NA,"",   1.00395E+06,   1.00348E+06,   1.00348E+06
C:/temp/Job-26.odb,Step-1,Increment      1: Step Time =    1.000,"P-26-1",           563,       159.802,       4.77598,            0.,NA,NA,"",   1.00144E+06,   1.00046E+06,   1.00046E+06
C:/temp/Job-26.odb,Step-1,Increment      1: Step Time =    1.000,"P-26-1",           564,       149.887,       4.70035,            0.,NA,NA,"",   989.075E+03,   987.884E+03,   987.884E+03
C:/temp/Job-26.odb,Step-1,Increment      1: Step Time =    1.000,"P-26-1",           565,       139.968,       4.76253,            0.,NA,NA,"",   965.276E+03,   964.248E+03,   964.248E+03
C:/temp/Job-26.odb,Step-1,Increment      1: Step Time =    1.000,"P-26-1",           566,       130.022,       4.90833,            0.,NA,NA,"",   933.149E+03,   932.883E+03,   932.883E+03
C:/temp/Job-26.odb,Step-1,Increment      1: Step Time =    1.000,"P-26-1",           567,       120.036,       5.04051,            0.,NA,NA,"",   900.740E+03,   901.806E+03,   901.806E+03
C:/temp/Job-26.odb,Step-1,Increment      1: Step Time =    1.000,"P-26-1",           568,       110.043,       5.08091,            0.,NA,NA,"",   879.422E+03,   881.679E+03,   881.679E+03
C:/temp/Job-26.odb,Step-1,Increment      1: Step Time =    1.000,"P-26-1",           569,       100.087,       5.00899,            0.,NA,NA,"",   879.120E+03,   881.804E+03,   881.804E+03
C:/temp/Job-26.odb,Step-1,Increment      1: Step Time =    1.000,"P-26-1",           570,       90.1437,       4.87055,            0.,NA,NA,"",   905.169E+03,   907.089E+03,   907.089E+03
C:/temp/Job-26.odb,Step-1,Increment      1: Step Time =    1.000,"P-26-1",           571,       80.2912,       4.74318,            0.,NA,NA,"",   953.304E+03,   953.848E+03,   953.848E+03
C:/temp/Job-26.odb,Step-1,Increment      1: Step Time =    1.000,"P-26-1",           572,       70.4927,       4.87337,            0.,NA,NA,"",   1.01372E+06,   1.01340E+06,   1.01340E+06
C:/temp/Job-26.odb,Step-1,Increment      1: Step Time =    1.000,"P-26-1",           573,       60.5254,       5.94598,            0.,NA,NA,"",   1.07879E+06,   1.07759E+06,   1.07759E+06
C:/temp/Job-26.odb,Step-1,Increment      1: Step Time =    1.000,"P-26-1",           574,       49.2816,       5.86947,            0.,NA,NA,"",   1.13684E+06,   1.13454E+06,   1.13454E+06
C:/temp/Job-26.odb,Step-1,Increment      1: Step Time =    1.000,"P-26-1",           575,       39.3979,       4.80697,            0.,NA,NA,"",   1.17771E+06,   1.17730E+06,   1.17730E+06
C:/temp/Job-26.odb,Step-1,Increment      1: Step Time =    1.000,"P-26-1",           576,       29.7053,       4.79035,            0.,NA,NA,"",   1.22000E+06,   1.22110E+06,   1.22110E+06
C:/temp/Job-26.odb,Step-1,Increment      1: Step Time =    1.000,"P-26-1",           577,       19.9261,       4.98195,            0.,NA,NA,"",   1.28059E+06,   1.28535E+06,   1.28535E+06
C:/temp/Job-26.odb,Step-1,Increment      1: Step Time =    1.000,"P-26-1",           578,       10.0321,       5.05969,            0.,NA,NA,"",   1.41624E+06,   1.43238E+06,   1.43238E+06
C:/temp/Job-26.odb,Step-1,Increment      1: Step Time =    1.000,"P-26-1",           579,       194.801,       189.789,            0.,NA,NA,"",   1.00068E+06,   1.00072E+06,   1.00072E+06
C:/temp/Job-26.odb,Step-1,Increment      1: Step Time =    1.000,"P-26-1",           580,       194.799,       179.699,            0.,NA,NA,"",   1.00017E+06,   1.00197E+06,   1.00197E+06
C:/temp/Job-26.odb,Step-1,Increment      1: Step Time =    1.000,"P-26-1",           581,       195.014,       169.714,            0.,NA,NA,"",   995.269E+03,   1.00302E+06,   1.00302E+06
C:/temp/Job-26.odb,Step-1,Increment      1: Step Time =    1.000,"P-26-1",           582,       195.241,       159.771,            0.,NA,NA,"",   983.481E+03,   1.00375E+06,   1.00375E+06
C:/temp/Job-26.odb,Step-1,Increment      1: Step Time =    1.000,"P-26-1",           583,       195.333,       149.859,            0.,NA,NA,"",   964.231E+03,   1.00414E+06,   1.00414E+06
C:/temp/Job-26.odb,Step-1,Increment      1: Step Time =    1.000,"P-26-1",           584,       195.286,       139.966,            0.,NA,NA,"",   939.584E+03,   1.00382E+06,   1.00382E+06
C:/temp/Job-26.odb,Step-1,Increment      1: Step Time =    1.000,"P-26-1",           585,       195.138,       130.077,            0.,NA,NA,"",   913.886E+03,   1.00207E+06,   1.00207E+06
C:/temp/Job-26.odb,Step-1,Increment      1: Step Time =    1.000,"P-26-1",           586,       194.986,       120.121,            0.,NA,NA,"",   891.582E+03,   998.297E+03,   998.297E+03
C:/temp/Job-26.odb,Step-1,Increment      1: Step Time =    1.000,"P-26-1",           587,       194.887,       110.105,            0.,NA,NA,"",   876.625E+03,   993.957E+03,   993.957E+03
C:/temp/Job-26.odb,Step-1,Increment      1: Step Time =    1.000,"P-26-1",           588,       194.924,       100.083,            0.,NA,NA,"",   871.272E+03,   992.068E+03,   992.068E+03
C:/temp/Job-26.odb,Step-1,Increment      1: Step Time =    1.000,"P-26-1",           589,       195.102,       90.1089,            0.,NA,NA,"",   875.703E+03,   993.945E+03,   993.945E+03
C:/temp/Job-26.odb,Step-1,Increment      1: Step Time =    1.000,"P-26-1",           590,       195.292,       80.2051,            0.,NA,NA,"",   889.858E+03,   998.243E+03,   998.243E+03
C:/temp/Job-26.odb,Step-1,Increment      1: Step Time =    1.000,"P-26-1",           591,       195.181,       70.4154,            0.,NA,NA,"",   911.542E+03,   1.00115E+06,   1.00115E+06
C:/temp/Job-26.odb,Step-1,Increment      1: Step Time =    1.000,"P-26-1",           592,       194.006,       60.4958,            0.,NA,NA,"",   940.764E+03,   1.00399E+06,   1.00399E+06
C:/temp/Job-26.odb,Step-1,Increment      1: Step Time =    1.000,"P-26-1",           593,       194.197,       49.2449,            0.,NA,NA,"",   970.283E+03,   1.00737E+06,   1.00737E+06
C:/temp/Job-26.odb,Step-1,Increment      1: Step Time =    1.000,"P-26-1",           594,       195.528,       39.5541,            0.,NA,NA,"",   984.208E+03,   1.00321E+06,   1.00321E+06
C:/temp/Job-26.odb,Step-1,Increment      1: Step Time =    1.000,"P-26-1",           595,       195.411,       29.9533,            0.,NA,NA,"",   995.051E+03,   1.00231E+06,   1.00231E+06
C:/temp/Job-26.odb,Step-1,Increment      1: Step Time =    1.000,"P-26-1",           596,       194.944,       20.1681,            0.,NA,NA,"",   999.912E+03,   1.00170E+06,   1.00170E+06
C:/temp/Job-26.odb,Step-1,Increment      1: Step Time =    1.000,"P-26-1",           597,       194.822,       10.1861,            0.,NA,NA,"",   1.00063E+06,   1.00070E+06,   1.00070E+06
C:/temp/Job-26.odb,Step-1,Increment      1: Step Time =    1.000,"P-26-1",           598,       10.0055,       194.755,            0.,NA,NA,"",   1.41683E+06,   1.43402E+06,   1.43402E+06
C:/temp/Job-26.odb,Step-1,Increment      1: Step Time =    1.000,"P-26-1",           599,       20.2781,       194.186,            0.,NA,NA,"",   1.27921E+06,   1.28502E+06,   1.28502E+06
C:/temp/Job-26.odb,Step-1,Increment      1: Step Time =    1.000,"P-26-1",           600,       30.5298,       194.457,            0.,NA,NA,"",   1.21785E+06,   1.21909E+06,   1.21909E+06
C:/temp/Job-26.odb,Step-1,Increment      1: Step Time =    1.000,"P-26-1",           601,       40.7798,       194.661,            0.,NA,NA,"",   1.17389E+06,   1.17324E+06,   1.17324E+06
C:/temp/Job-26.odb,Step-1,Increment      1: Step Time =    1.000,"P-26-1",           602,       50.3143,       195.697,            0.,NA,NA,"",   1.12729E+06,   1.12644E+06,   1.12644E+06
C:/temp/Job-26.odb,Step-1,Increment      1: Step Time =    1.000,"P-26-1",           603,       60.0222,       195.404,            0.,NA,NA,"",   1.07668E+06,   1.07537E+06,   1.07537E+06
C:/temp/Job-26.odb,Step-1,Increment      1: Step Time =    1.000,"P-26-1",           604,       70.0190,       195.251,            0.,NA,NA,"",   1.01657E+06,   1.01584E+06,   1.01584E+06
C:/temp/Job-26.odb,Step-1,Increment      1: Step Time =    1.000,"P-26-1",           605,       79.9839,       195.072,            0.,NA,NA,"",   956.279E+03,   956.814E+03,   956.814E+03
C:/temp/Job-26.odb,Step-1,Increment      1: Step Time =    1.000,"P-26-1",           606,       89.9722,       194.991,            0.,NA,NA,"",   906.816E+03,   908.766E+03,   908.766E+03
C:/temp/Job-26.odb,Step-1,Increment      1: Step Time =    1.000,"P-26-1",           607,       99.9326,       195.075,            0.,NA,NA,"",   877.884E+03,   880.617E+03,   880.617E+03
C:/temp/Job-26.odb,Step-1,Increment      1: Step Time =    1.000,"P-26-1",           608,       109.869,       195.199,            0.,NA,NA,"",   876.209E+03,   878.323E+03,   878.323E+03
C:/temp/Job-26.odb,Step-1,Increment      1: Step Time =    1.000,"P-26-1",           609,       119.728,       195.302,            0.,NA,NA,"",   897.162E+03,   898.061E+03,   898.061E+03
C:/temp/Job-26.odb,Step-1,Increment      1: Step Time =    1.000,"P-26-1",           610,       129.516,       195.142,            0.,NA,NA,"",   931.010E+03,   931.069E+03,   931.069E+03
C:/temp/Job-26.odb,Step-1,Increment      1: Step Time =    1.000,"P-26-1",           611,       139.468,       193.979,            0.,NA,NA,"",   969.801E+03,   968.639E+03,   968.639E+03
C:/temp/Job-26.odb,Step-1,Increment      1: Step Time =    1.000,"P-26-1",           612,       150.748,       194.180,            0.,NA,NA,"",   993.987E+03,   992.031E+03,   992.031E+03
C:/temp/Job-26.odb,Step-1,Increment      1: Step Time =    1.000,"P-26-1",           613,       160.445,       195.514,            0.,NA,NA,"",   1.00113E+06,   1.00041E+06,   1.00041E+06
C:/temp/Job-26.odb,Step-1,Increment      1: Step Time =    1.000,"P-26-1",           614,       170.050,       195.401,            0.,NA,NA,"",   1.00300E+06,   1.00270E+06,   1.00270E+06
C:/temp/Job-26.odb,Step-1,Increment      1: Step Time =    1.000,"P-26-1",           615,       179.835,       194.940,            0.,NA,NA,"",   1.00125E+06,   1.00136E+06,   1.00136E+06
C:/temp/Job-26.odb,Step-1,Increment      1: Step Time =    1.000,"P-26-1",           616,       189.814,       194.821,            0.,NA,NA,"",   999.803E+03,   1.00002E+06,   1.00002E+06
C:/temp/Job-26.odb,Step-1,Increment      1: Step Time =    1.000,"P-26-1",           617,       5.08786,       15.1435,            0.,NA,NA,"",   1.19158E+06,   1.29393E+06,   1.29393E+06
C:/temp/Job-26.odb,Step-1,Increment      1: Step Time =    1.000,"P-26-1",           618,       5.20288,       25.2500,            0.,NA,NA,"",   1.06018E+06,   1.16640E+06,   1.16640E+06
C:/temp/Job-26.odb,Step-1,Increment      1: Step Time =    1.000,"P-26-1",           619,       5.53799,       35.5451,            0.,NA,NA,"",   973.078E+03,   1.07691E+06,   1.07691E+06
C:/temp/Job-26.odb,Step-1,Increment      1: Step Time =    1.000,"P-26-1",           620,       5.15447,       45.7659,            0.,NA,NA,"",   897.401E+03,   998.752E+03,   998.752E+03
C:/temp/Job-26.odb,Step-1,Increment      1: Step Time =    1.000,"P-26-1",           621,       4.67768,       50.7549,            0.,NA,NA,"",   860.281E+03,   960.498E+03,   960.498E+03
C:/temp/Job-26.odb,Step-1,Increment      1: Step Time =    1.000,"P-26-1",           622,       4.27163,       60.5711,            0.,NA,NA,"",   791.497E+03,   887.630E+03,   887.630E+03
C:/temp/Job-26.odb,Step-1,Increment      1: Step Time =    1.000,"P-26-1",           623,       4.39571,       70.3146,            0.,NA,NA,"",   728.047E+03,   819.137E+03,   819.137E+03
C:/temp/Job-26.odb,Step-1,Increment      1: Step Time =    1.000,"P-26-1",           624,       4.61324,       80.0949,            0.,NA,NA,"",   671.567E+03,   758.338E+03,   758.338E+03
C:/temp/Job-26.odb,Step-1,Increment      1: Step Time =    1.000,"P-26-1",           625,       4.73789,       89.9941,            0.,NA,NA,"",   629.690E+03,   713.561E+03,   713.561E+03
C:/temp/Job-26.odb,Step-1,Increment      1: Step Time =    1.000,"P-26-1",           626,       4.83291,       99.9389,            0.,NA,NA,"",   613.380E+03,   696.191E+03,   696.191E+03
C:/temp/Job-26.odb,Step-1,Increment      1: Step Time =    1.000,"P-26-1",           627,       4.98271,       109.908,            0.,NA,NA,"",   628.517E+03,   712.340E+03,   712.340E+03
C:/temp/Job-26.odb,Step-1,Increment      1: Step Time =    1.000,"P-26-1",           628,       4.90933,       119.887,            0.,NA,NA,"",   670.160E+03,   756.746E+03,   756.746E+03
C:/temp/Job-26.odb,Step-1,Increment      1: Step Time =    1.000,"P-26-1",           629,       4.85237,       129.844,            0.,NA,NA,"",   729.339E+03,   819.998E+03,   819.998E+03
C:/temp/Job-26.odb,Step-1,Increment      1: Step Time =    1.000,"P-26-1",           630,       5.59130,       139.800,            0.,NA,NA,"",   797.826E+03,   892.106E+03,   892.106E+03
C:/temp/Job-26.odb,Step-1,Increment      1: Step Time =    1.000,"P-26-1",           631,       5.46129,       150.916,            0.,NA,NA,"",   876.108E+03,   975.971E+03,   975.971E+03
C:/temp/Job-26.odb,Step-1,Increment      1: Step Time =    1.000,"P-26-1",           632,       4.30270,       160.547,            0.,NA,NA,"",   936.454E+03,   1.04285E+06,   1.04285E+06
C:/temp/Job-26.odb,Step-1,Increment      1: Step Time =    1.000,"P-26-1",           633,       4.08997,       170.140,            0.,NA,NA,"",   1.00961E+06,   1.11935E+06,   1.11935E+06
C:/temp/Job-26.odb,Step-1,Increment      1: Step Time =    1.000,"P-26-1",           634,       4.47291,       179.943,            0.,NA,NA,"",   1.11371E+06,   1.22210E+06,   1.22210E+06
C:/temp/Job-26.odb,Step-1,Increment      1: Step Time =    1.000,"P-26-1",           635,       4.87411,       189.907,            0.,NA,NA,"",   1.31493E+06,   1.40768E+06,   1.40768E+06
C:/temp/Job-26.odb,Step-1,Increment      1: Step Time =    1.000,"P-26-1",           636,       100.683,       68.8918,            0.,NA,NA,"",   2.08707E+06,   2.22828E+06,   2.22828E+06
C:/temp/Job-26.odb,Step-1,Increment      1: Step Time =    1.000,"P-26-1",           637,       68.0657,       100.169,            0.,NA,NA,"",   370.677E+03,  -269.248E+03,  -269.248E+03
C:/temp/Job-26.odb,Step-1,Increment      1: Step Time =    1.000,"P-26-1",           638,       129.908,       100.515,            0.,NA,NA,"",   604.985E+03,  -588.167E+03,  -588.167E+03
C:/temp/Job-26.odb,Step-1,Increment      1: Step Time =    1.000,"P-26-1",           639,       76.2582,       118.963,            0.,NA,NA,"",   953.237E+03,   861.234E+03,   861.234E+03
C:/temp/Job-26.odb,Step-1,Increment      1: Step Time =    1.000,"P-26-1",           640,       131.021,       96.3106,            0.,NA,NA,"",   534.859E+03,  -473.713E+03,  -473.713E+03
C:/temp/Job-26.odb,Step-1,Increment      1: Step Time =    1.000,"P-26-1",           641,       69.8303,       95.9672,            0.,NA,NA,"",   501.350E+03,  -444.149E+03,  -444.149E+03
C:/temp/Job-26.odb,Step-1,Increment      1: Step Time =    1.000,"P-26-1",           642,       93.6914,       69.5647,            0.,NA,NA,"",   2.00263E+06,   2.12835E+06,   2.12835E+06
C:/temp/Job-26.odb,Step-1,Increment      1: Step Time =    1.000,"P-26-1",           643,       104.766,       70.3394,            0.,NA,NA,"",   2.21709E+06,   2.33342E+06,   2.33342E+06
C:/temp/Job-26.odb,Step-1,Increment      1: Step Time =    1.000,"P-26-1",           644,       76.3812,       81.6940,            0.,NA,NA,"",   889.459E+03,   791.798E+03,   791.798E+03
C:/temp/Job-26.odb,Step-1,Increment      1: Step Time =    1.000,"P-26-1",           645,       109.827,       71.5884,            0.,NA,NA,"",   2.07958E+06,   2.17112E+06,   2.17112E+06
C:/temp/Job-26.odb,Step-1,Increment      1: Step Time =    1.000,"P-26-1",           646,       123.062,       81.8126,            0.,NA,NA,"",   986.713E+03,   877.855E+03,   877.855E+03
C:/temp/Job-26.odb,Step-1,Increment      1: Step Time =    1.000,"P-26-1",           647,       103.509,       130.901,            0.,NA,NA,"",   2.07682E+06,   2.21611E+06,   2.21611E+06
C:/temp/Job-26.odb,Step-1,Increment      1: Step Time =    1.000,"P-26-1",           648,       121.376,       120.279,            0.,NA,NA,"",   1.21395E+06,   1.14082E+06,   1.14082E+06
C:/temp/Job-26.odb,Step-1,Increment      1: Step Time =    1.000,"P-26-1",           649,       107.625,       129.149,            0.,NA,NA,"",   2.14507E+06,   2.25817E+06,   2.25817E+06
C:/temp/Job-26.odb,Step-1,Increment      1: Step Time =    1.000,"P-26-1",           650,       128.988,       89.2983,            0.,NA,NA,"",   713.117E+03,   52.1254E+03,   52.1254E+03
C:/temp/Job-26.odb,Step-1,Increment      1: Step Time =    1.000,"P-26-1",           651,       80.1204,       123.927,            0.,NA,NA,"",   1.34934E+06,   1.31561E+06,   1.31561E+06
C:/temp/Job-26.odb,Step-1,Increment      1: Step Time =    1.000,"P-26-1",           652,       117.381,       123.930,            0.,NA,NA,"",   1.60229E+06,   1.60789E+06,   1.60789E+06
C:/temp/Job-26.odb,Step-1,Increment      1: Step Time =    1.000,"P-26-1",           653,       128.877,       105.391,            0.,NA,NA,"",   661.333E+03,  -598.881E+03,  -598.881E+03
C:/temp/Job-26.odb,Step-1,Increment      1: Step Time =    1.000,"P-26-1",           654,       68.7196,       107.855,            0.,NA,NA,"",   521.299E+03,  -5.11930E+03,  -5.11930E+03
C:/temp/Job-26.odb,Step-1,Increment      1: Step Time =    1.000,"P-26-1",           655,       96.8094,       130.728,            0.,NA,NA,"",   2.08266E+06,   2.22261E+06,   2.22261E+06
C:/temp/Job-26.odb,Step-1,Increment      1: Step Time =    1.000,"P-26-1",           656,       89.9226,       71.8280,            0.,NA,NA,"",   1.99677E+06,   2.07624E+06,   2.07624E+06
C:/temp/Job-26.odb,Step-1,Increment      1: Step Time =    1.000,"P-26-1",           657,       71.5931,       91.3667,            0.,NA,NA,"",   553.421E+03,  -226.280E+03,  -226.280E+03
C:/temp/Job-26.odb,Step-1,Increment      1: Step Time =    1.000,"P-26-1",           658,       72.6720,       120.101,            0.,NA,NA,"",   1.09537E+06,   934.982E+03,   934.982E+03
C:/temp/Job-26.odb,Step-1,Increment      1: Step Time =    1.000,"P-26-1",           659,       128.033,       121.931,            0.,NA,NA,"",   1.35141E+06,   1.15589E+06,   1.15589E+06
C:/temp/Job-26.odb,Step-1,Increment      1: Step Time =    1.000,"P-26-1",           660,       111.294,       66.7906,            0.,NA,NA,"",   1.64335E+06,   1.75066E+06,   1.75066E+06
C:/temp/Job-26.odb,Step-1,Increment      1: Step Time =    1.000,"P-26-1",           661,       87.3661,       67.7002,            0.,NA,NA,"",   1.62023E+06,   1.69793E+06,   1.69793E+06
C:/temp/Job-26.odb,Step-1,Increment      1: Step Time =    1.000,"P-26-1",           662,       139.981,       9.57085,            0.,NA,NA,"",   993.272E+03,   990.370E+03,   990.370E+03
C:/temp/Job-26.odb,Step-1,Increment      1: Step Time =    1.000,"P-26-1",           663,       130.094,       9.85669,            0.,NA,NA,"",   971.917E+03,   971.190E+03,   971.190E+03
C:/temp/Job-26.odb,Step-1,Increment      1: Step Time =    1.000,"P-26-1",           664,       120.103,       10.1270,            0.,NA,NA,"",   948.500E+03,   951.537E+03,   951.537E+03
C:/temp/Job-26.odb,Step-1,Increment      1: Step Time =    1.000,"P-26-1",           665,       110.066,       10.2359,            0.,NA,NA,"",   932.171E+03,   938.726E+03,   938.726E+03
C:/temp/Job-26.odb,Step-1,Increment      1: Step Time =    1.000,"P-26-1",           666,       100.130,       10.0725,            0.,NA,NA,"",   932.741E+03,   940.394E+03,   940.394E+03
C:/temp/Job-26.odb,Step-1,Increment      1: Step Time =    1.000,"P-26-1",           667,       90.2324,       9.78061,            0.,NA,NA,"",   955.327E+03,   960.885E+03,   960.885E+03
C:/temp/Job-26.odb,Step-1,Increment      1: Step Time =    1.000,"P-26-1",           668,       80.5741,       9.56349,            0.,NA,NA,"",   996.046E+03,   997.692E+03,   997.692E+03
C:/temp/Job-26.odb,Step-1,Increment      1: Step Time =    1.000,"P-26-1",           669,       71.1363,       9.64934,            0.,NA,NA,"",   1.04518E+06,   1.04406E+06,   1.04406E+06
C:/temp/Job-26.odb,Step-1,Increment      1: Step Time =    1.000,"P-26-1",           670,       62.0426,       11.1877,            0.,NA,NA,"",   1.10124E+06,   1.09719E+06,   1.09719E+06
C:/temp/Job-26.odb,Step-1,Increment      1: Step Time =    1.000,"P-26-1",           671,       190.509,       139.979,            0.,NA,NA,"",   956.697E+03,   1.01087E+06,   1.01087E+06
C:/temp/Job-26.odb,Step-1,Increment      1: Step Time =    1.000,"P-26-1",           672,       190.220,       130.226,            0.,NA,NA,"",   931.706E+03,   1.00569E+06,   1.00569E+06
C:/temp/Job-26.odb,Step-1,Increment      1: Step Time =    1.000,"P-26-1",           673,       189.935,       120.312,            0.,NA,NA,"",   903.945E+03,   995.026E+03,   995.026E+03
C:/temp/Job-26.odb,Step-1,Increment      1: Step Time =    1.000,"P-26-1",           674,       189.736,       110.235,            0.,NA,NA,"",   879.836E+03,   982.324E+03,   982.324E+03
C:/temp/Job-26.odb,Step-1,Increment      1: Step Time =    1.000,"P-26-1",           675,       189.791,       100.107,            0.,NA,NA,"",   870.142E+03,   976.958E+03,   976.958E+03
C:/temp/Job-26.odb,Step-1,Increment      1: Step Time =    1.000,"P-26-1",           676,       190.180,       90.1238,            0.,NA,NA,"",   878.127E+03,   982.403E+03,   982.403E+03
C:/temp/Job-26.odb,Step-1,Increment      1: Step Time =    1.000,"P-26-1",           677,       190.567,       80.3393,            0.,NA,NA,"",   900.637E+03,   994.906E+03,   994.906E+03
C:/temp/Job-26.odb,Step-1,Increment      1: Step Time =    1.000,"P-26-1",           678,       190.493,       70.9753,            0.,NA,NA,"",   926.364E+03,   1.00372E+06,   1.00372E+06
C:/temp/Job-26.odb,Step-1,Increment      1: Step Time =    1.000,"P-26-1",           679,       188.737,       62.0677,            0.,NA,NA,"",   958.850E+03,   1.01266E+06,   1.01266E+06
C:/temp/Job-26.odb,Step-1,Increment      1: Step Time =    1.000,"P-26-1",           680,       59.9617,       190.737,            0.,NA,NA,"",   1.10086E+06,   1.09730E+06,   1.09730E+06
C:/temp/Job-26.odb,Step-1,Increment      1: Step Time =    1.000,"P-26-1",           681,       70.0027,       190.565,            0.,NA,NA,"",   1.05060E+06,   1.04876E+06,   1.04876E+06
C:/temp/Job-26.odb,Step-1,Increment      1: Step Time =    1.000,"P-26-1",           682,       79.8983,       190.120,            0.,NA,NA,"",   1.00156E+06,   1.00322E+06,   1.00322E+06
C:/temp/Job-26.odb,Step-1,Increment      1: Step Time =    1.000,"P-26-1",           683,       109.776,       190.386,            0.,NA,NA,"",   926.562E+03,   932.480E+03,   932.480E+03
C:/temp/Job-26.odb,Step-1,Increment      1: Step Time =    1.000,"P-26-1",           684,       119.468,       190.552,            0.,NA,NA,"",   941.207E+03,   943.946E+03,   943.946E+03
C:/temp/Job-26.odb,Step-1,Increment      1: Step Time =    1.000,"P-26-1",           685,       128.864,       190.403,            0.,NA,NA,"",   966.141E+03,   966.194E+03,   966.194E+03
C:/temp/Job-26.odb,Step-1,Increment      1: Step Time =    1.000,"P-26-1",           686,       8.54892,       61.2015,            0.,NA,NA,"",   804.282E+03,   894.146E+03,   894.146E+03
C:/temp/Job-26.odb,Step-1,Increment      1: Step Time =    1.000,"P-26-1",           687,       8.87949,       70.5877,            0.,NA,NA,"",   736.024E+03,   823.374E+03,   823.374E+03
C:/temp/Job-26.odb,Step-1,Increment      1: Step Time =    1.000,"P-26-1",           688,       9.28791,       80.1351,            0.,NA,NA,"",   673.494E+03,   758.745E+03,   758.745E+03
C:/temp/Job-26.odb,Step-1,Increment      1: Step Time =    1.000,"P-26-1",           689,       9.47615,       89.9479,            0.,NA,NA,"",   625.264E+03,   709.105E+03,   709.105E+03
C:/temp/Job-26.odb,Step-1,Increment      1: Step Time =    1.000,"P-26-1",           690,       9.67099,       99.7975,            0.,NA,NA,"",   606.117E+03,   689.338E+03,   689.338E+03
C:/temp/Job-26.odb,Step-1,Increment      1: Step Time =    1.000,"P-26-1",           691,       10.0392,       109.743,            0.,NA,NA,"",   622.708E+03,   706.394E+03,   706.394E+03
C:/temp/Job-26.odb,Step-1,Increment      1: Step Time =    1.000,"P-26-1",           692,       9.78781,       119.863,            0.,NA,NA,"",   672.194E+03,   757.139E+03,   757.139E+03
C:/temp/Job-26.odb,Step-1,Increment      1: Step Time =    1.000,"P-26-1",           693,       9.66045,       129.613,            0.,NA,NA,"",   738.847E+03,   825.376E+03,   825.376E+03
C:/temp/Job-26.odb,Step-1,Increment      1: Step Time =    1.000,"P-26-1",           694,       10.4950,       138.767,            0.,NA,NA,"",   812.034E+03,   898.500E+03,   898.500E+03
C:/temp/Job-26.odb,Step-1,Increment      1: Step Time =    1.000,"P-26-1",           695,       89.9697,       189.937,            0.,NA,NA,"",   958.563E+03,   964.130E+03,   964.130E+03
C:/temp/Job-26.odb,Step-1,Increment      1: Step Time =    1.000,"P-26-1",           696,       99.9138,       190.150,            0.,NA,NA,"",   930.377E+03,   937.974E+03,   937.974E+03
C:/temp/Job-26.odb,Step-1,Increment      1: Step Time =    1.000,"P-26-1",           697,       137.852,       188.692,            0.,NA,NA,"",   1.00036E+06,   997.172E+03,   997.172E+03
C:/temp/Job-26.odb,Step-1,Increment      1: Step Time =    1.000,"P-26-1",           698,       127.600,       110.624,            0.,NA,NA,"",   688.183E+03,  -194.000E+03,  -194.000E+03
C:/temp/Job-26.odb,Step-1,Increment      1: Step Time =    1.000,"P-26-1",           699,       71.8228,       111.530,            0.,NA,NA,"",   611.214E+03,   109.123E+03,   109.123E+03
C:/temp/Job-26.odb,Step-1,Increment      1: Step Time =    1.000,"P-26-1",           700,       119.729,       77.6669,            0.,NA,NA,"",   1.39572E+06,   1.36546E+06,   1.36546E+06
C:/temp/Job-26.odb,Step-1,Increment      1: Step Time =    1.000,"P-26-1",           701,       92.9380,       128.614,            0.,NA,NA,"",   2.15471E+06,   2.25653E+06,   2.25653E+06
C:/temp/Job-26.odb,Step-1,Increment      1: Step Time =    1.000,"P-26-1",           702,       121.095,       126.986,            0.,NA,NA,"",   1.55866E+06,   1.49661E+06,   1.49661E+06
C:/temp/Job-26.odb,Step-1,Increment      1: Step Time =    1.000,"P-26-1",           703,       78.2828,       128.895,            0.,NA,NA,"",   1.49475E+06,   1.43812E+06,   1.43812E+06
C:/temp/Job-26.odb,Step-1,Increment      1: Step Time =    1.000,"P-26-1",           704,       106.880,       65.7940,            0.,NA,NA,"",   1.65601E+06,   1.79993E+06,   1.79993E+06
C:/temp/Job-26.odb,Step-1,Increment      1: Step Time =    1.000,"P-26-1",           705,       90.6292,       65.3031,            0.,NA,NA,"",   1.58685E+06,   1.69990E+06,   1.69990E+06
C:/temp/Job-26.odb,Step-1,Increment      1: Step Time =    1.000,"P-26-1",           706,       67.1802,       88.4746,            0.,NA,NA,"",   660.607E+03,   328.099E+03,   328.099E+03
C:/temp/Job-26.odb,Step-1,Increment      1: Step Time =    1.000,"P-26-1",           707,       132.487,       85.6177,            0.,NA,NA,"",   970.173E+03,   722.137E+03,   722.137E+03
C:/temp/Job-26.odb,Step-1,Increment      1: Step Time =    1.000,"P-26-1",           708,       75.9844,       123.460,            0.,NA,NA,"",   1.23965E+06,   1.14965E+06,   1.14965E+06
C:/temp/Job-26.odb,Step-1,Increment      1: Step Time =    1.000,"P-26-1",           709,       124.168,       123.760,            0.,NA,NA,"",   1.45086E+06,   1.31658E+06,   1.31658E+06
C:/temp/Job-26.odb,Step-1,Increment      1: Step Time =    1.000,"P-26-1",           710,       97.0159,       66.0229,            0.,NA,NA,"",   1.77726E+06,   1.92856E+06,   1.92856E+06
C:/temp/Job-26.odb,Step-1,Increment      1: Step Time =    1.000,"P-26-1",           711,       136.082,       98.6320,            0.,NA,NA,"",   360.325E+03,  -14.7013E+03,  -14.7013E+03
C:/temp/Job-26.odb,Step-1,Increment      1: Step Time =    1.000,"P-26-1",           712,       64.4564,       97.3030,            0.,NA,NA,"",   249.102E+03,   71.6524E+03,   71.6524E+03
C:/temp/Job-26.odb,Step-1,Increment      1: Step Time =    1.000,"P-26-1",           713,       103.131,       64.3897,            0.,NA,NA,"",   1.61438E+06,   1.76910E+06,   1.76910E+06
C:/temp/Job-26.odb,Step-1,Increment      1: Step Time =    1.000,"P-26-1",           714,       100.418,       134.485,            0.,NA,NA,"",   1.76401E+06,   1.92087E+06,   1.92087E+06
C:/temp/Job-26.odb,Step-1,Increment      1: Step Time =    1.000,"P-26-1",           715,       134.630,       102.715,            0.,NA,NA,"",   388.885E+03,  -28.5856E+03,  -28.5856E+03
C:/temp/Job-26.odb,Step-1,Increment      1: Step Time =    1.000,"P-26-1",           716,       63.0624,       103.886,            0.,NA,NA,"",   335.098E+03,   141.201E+03,   141.201E+03
C:/temp/Job-26.odb,Step-1,Increment      1: Step Time =    1.000,"P-26-1",           717,       67.7097,       115.014,            0.,NA,NA,"",   868.863E+03,   675.472E+03,   675.472E+03
C:/temp/Job-26.odb,Step-1,Increment      1: Step Time =    1.000,"P-26-1",           718,       131.516,       116.783,            0.,NA,NA,"",   1.09326E+06,   847.839E+03,   847.839E+03
C:/temp/Job-26.odb,Step-1,Increment      1: Step Time =    1.000,"P-26-1",           719,       59.9944,       17.6849,            0.,NA,NA,"",   1.14634E+06,   1.13732E+06,   1.13732E+06
C:/temp/Job-26.odb,Step-1,Increment      1: Step Time =    1.000,"P-26-1",           720,       12.7854,       61.8266,            0.,NA,NA,"",   818.165E+03,   900.999E+03,   900.999E+03
C:/temp/Job-26.odb,Step-1,Increment      1: Step Time =    1.000,"P-26-1",           721,       182.161,       60.3295,            0.,NA,NA,"",   997.719E+03,   1.02922E+06,   1.02922E+06
C:/temp/Job-26.odb,Step-1,Increment      1: Step Time =    1.000,"P-26-1",           722,       59.9598,       186.141,            0.,NA,NA,"",   1.12620E+06,   1.11957E+06,   1.11957E+06
C:/temp/Job-26.odb,Step-1,Increment      1: Step Time =    1.000,"P-26-1",           723,       15.1902,       137.815,            0.,NA,NA,"",   826.592E+03,   904.311E+03,   904.311E+03
C:/temp/Job-26.odb,Step-1,Increment      1: Step Time =    1.000,"P-26-1",           724,       140.055,       14.4163,            0.,NA,NA,"",   1.02498E+06,   1.01929E+06,   1.01929E+06
C:/temp/Job-26.odb,Step-1,Increment      1: Step Time =    1.000,"P-26-1",           725,       185.675,       140.056,            0.,NA,NA,"",   979.176E+03,   1.02079E+06,   1.02079E+06
C:/temp/Job-26.odb,Step-1,Increment      1: Step Time =    1.000,"P-26-1",           726,       139.579,       182.134,            0.,NA,NA,"",   1.04980E+06,   1.04193E+06,   1.04193E+06
C:/temp/Job-26.odb,Step-1,Increment      1: Step Time =    1.000,"P-26-1",           727,       99.7399,       62.2881,            0.,NA,NA,"",   1.52815E+06,   1.68075E+06,   1.68075E+06
C:/temp/Job-26.odb,Step-1,Increment      1: Step Time =    1.000,"P-26-1",           728,       122.088,       70.7368,            0.,NA,NA,"",   1.55886E+06,   1.50067E+06,   1.50067E+06
C:/temp/Job-26.odb,Step-1,Increment      1: Step Time =    1.000,"P-26-1",           729,       13.4554,       70.7967,            0.,NA,NA,"",   746.560E+03,   828.919E+03,   828.919E+03
C:/temp/Job-26.odb,Step-1,Increment      1: Step Time =    1.000,"P-26-1",           730,       71.7605,       14.2946,            0.,NA,NA,"",   1.07628E+06,   1.07442E+06,   1.07442E+06
C:/temp/Job-26.odb,Step-1,Increment      1: Step Time =    1.000,"P-26-1",           731,       130.232,       14.8473,            0.,NA,NA,"",   1.01111E+06,   1.00973E+06,   1.00973E+06
C:/temp/Job-26.odb,Step-1,Increment      1: Step Time =    1.000,"P-26-1",           732,       14.5353,       129.302,            0.,NA,NA,"",   749.818E+03,   830.548E+03,   830.548E+03
C:/temp/Job-26.odb,Step-1,Increment      1: Step Time =    1.000,"P-26-1",           733,       185.237,       130.463,            0.,NA,NA,"",   952.391E+03,   1.01023E+06,   1.01023E+06
C:/temp/Job-26.odb,Step-1,Increment      1: Step Time =    1.000,"P-26-1",           734,       128.229,       185.841,            0.,NA,NA,"",   1.00025E+06,   1.00051E+06,   1.00051E+06
C:/temp/Job-26.odb,Step-1,Increment      1: Step Time =    1.000,"P-26-1",           735,       69.9510,       186.048,            0.,NA,NA,"",   1.08406E+06,   1.08082E+06,   1.08082E+06
C:/temp/Job-26.odb,Step-1,Increment      1: Step Time =    1.000,"P-26-1",           736,       186.012,       71.5022,            0.,NA,NA,"",   941.577E+03,   1.00589E+06,   1.00589E+06
C:/temp/Job-26.odb,Step-1,Increment      1: Step Time =    1.000,"P-26-1",           737,       83.6077,       69.7137,            0.,NA,NA,"",   1.58360E+06,   1.60592E+06,   1.60592E+06
C:/temp/Job-26.odb,Step-1,Increment      1: Step Time =    1.000,"P-26-1",           738,       14.0441,       80.1391,            0.,NA,NA,"",   677.484E+03,   759.971E+03,   759.971E+03
C:/temp/Job-26.odb,Step-1,Increment      1: Step Time =    1.000,"P-26-1",           739,       120.220,       15.2913,            0.,NA,NA,"",   991.889E+03,   997.887E+03,   997.887E+03
C:/temp/Job-26.odb,Step-1,Increment      1: Step Time =    1.000,"P-26-1",           740,       80.8206,       14.5166,            0.,NA,NA,"",   1.03552E+06,   1.03935E+06,   1.03935E+06
C:/temp/Job-26.odb,Step-1,Increment      1: Step Time =    1.000,"P-26-1",           741,       14.3907,       120.129,            0.,NA,NA,"",   677.231E+03,   759.478E+03,   759.478E+03
C:/temp/Job-26.odb,Step-1,Increment      1: Step Time =    1.000,"P-26-1",           742,       79.6831,       185.135,            0.,NA,NA,"",   1.04317E+06,   1.04652E+06,   1.04652E+06
C:/temp/Job-26.odb,Step-1,Increment      1: Step Time =    1.000,"P-26-1",           743,       184.841,       120.586,            0.,NA,NA,"",   915.588E+03,   989.573E+03,   989.573E+03
C:/temp/Job-26.odb,Step-1,Increment      1: Step Time =    1.000,"P-26-1",           744,       185.825,       80.3440,            0.,NA,NA,"",   910.228E+03,   989.135E+03,   989.135E+03
C:/temp/Job-26.odb,Step-1,Increment      1: Step Time =    1.000,"P-26-1",           745,       119.253,       185.726,            0.,NA,NA,"",   981.212E+03,   986.863E+03,   986.863E+03
C:/temp/Job-26.odb,Step-1,Increment      1: Step Time =    1.000,"P-26-1",           746,       132.132,       111.968,            0.,NA,NA,"",   837.077E+03,   383.935E+03,   383.935E+03
C:/temp/Job-26.odb,Step-1,Increment      1: Step Time =    1.000,"P-26-1",           747,       64.4578,       111.900,            0.,NA,NA,"",   676.734E+03,   537.041E+03,   537.041E+03
C:/temp/Job-26.odb,Step-1,Increment      1: Step Time =    1.000,"P-26-1",           748,       118.757,       130.886,            0.,NA,NA,"",   1.59832E+06,   1.59460E+06,   1.59460E+06
C:/temp/Job-26.odb,Step-1,Increment      1: Step Time =    1.000,"P-26-1",           749,       82.1444,       130.610,            0.,NA,NA,"",   1.56115E+06,   1.56228E+06,   1.56228E+06
C:/temp/Job-26.odb,Step-1,Increment      1: Step Time =    1.000,"P-26-1",           750,       129.629,       82.4779,            0.,NA,NA,"",   1.14154E+06,   896.146E+03,   896.146E+03
C:/temp/Job-26.odb,Step-1,Increment      1: Step Time =    1.000,"P-26-1",           751,       133.255,       92.2297,            0.,NA,NA,"",   607.288E+03,   30.4044E+03,   30.4044E+03
C:/temp/Job-26.odb,Step-1,Increment      1: Step Time =    1.000,"P-26-1",           752,       69.4888,       83.9153,            0.,NA,NA,"",   896.437E+03,   706.091E+03,   706.091E+03
C:/temp/Job-26.odb,Step-1,Increment      1: Step Time =    1.000,"P-26-1",           753,       64.6632,       92.9434,            0.,NA,NA,"",   427.034E+03,   134.254E+03,   134.254E+03
C:/temp/Job-26.odb,Step-1,Increment      1: Step Time =    1.000,"P-26-1",           754,       14.1934,       89.8695,            0.,NA,NA,"",   621.616E+03,   704.227E+03,   704.227E+03
C:/temp/Job-26.odb,Step-1,Increment      1: Step Time =    1.000,"P-26-1",           755,       110.073,       15.4970,            0.,NA,NA,"",   975.682E+03,   988.926E+03,   988.926E+03
C:/temp/Job-26.odb,Step-1,Increment      1: Step Time =    1.000,"P-26-1",           756,       90.2665,       14.7092,            0.,NA,NA,"",   997.288E+03,   1.00837E+06,   1.00837E+06
C:/temp/Job-26.odb,Step-1,Increment      1: Step Time =    1.000,"P-26-1",           757,       15.0943,       109.357,            0.,NA,NA,"",   615.702E+03,   697.936E+03,   697.936E+03
C:/temp/Job-26.odb,Step-1,Increment      1: Step Time =    1.000,"P-26-1",           758,       90.0337,       184.807,            0.,NA,NA,"",   1.00098E+06,   1.01229E+06,   1.01229E+06
C:/temp/Job-26.odb,Step-1,Increment      1: Step Time =    1.000,"P-26-1",           759,       184.533,       110.411,            0.,NA,NA,"",   877.448E+03,   964.129E+03,   964.129E+03
C:/temp/Job-26.odb,Step-1,Increment      1: Step Time =    1.000,"P-26-1",           760,       185.265,       90.0158,            0.,NA,NA,"",   874.864E+03,   964.159E+03,   964.159E+03
C:/temp/Job-26.odb,Step-1,Increment      1: Step Time =    1.000,"P-26-1",           761,       109.704,       185.596,            0.,NA,NA,"",   967.836E+03,   979.386E+03,   979.386E+03
C:/temp/Job-26.odb,Step-1,Increment      1: Step Time =    1.000,"P-26-1",           762,       100.099,       15.2281,            0.,NA,NA,"",   975.071E+03,   990.201E+03,   990.201E+03
C:/temp/Job-26.odb,Step-1,Increment      1: Step Time =    1.000,"P-26-1",           763,       14.5263,       99.5503,            0.,NA,NA,"",   599.107E+03,   681.511E+03,   681.511E+03
C:/temp/Job-26.odb,Step-1,Increment      1: Step Time =    1.000,"P-26-1",           764,       184.550,       100.039,            0.,NA,NA,"",   861.043E+03,   953.087E+03,   953.087E+03
C:/temp/Job-26.odb,Step-1,Increment      1: Step Time =    1.000,"P-26-1",           765,       99.9753,       185.266,            0.,NA,NA,"",   971.235E+03,   986.314E+03,   986.314E+03
C:/temp/Job-26.odb,Step-1,Increment      1: Step Time =    1.000,"P-26-1",           766,       91.3208,       132.082,            0.,NA,NA,"",   1.72740E+06,   1.85173E+06,   1.85173E+06
C:/temp/Job-26.odb,Step-1,Increment      1: Step Time =    1.000,"P-26-1",           767,       60.8666,       98.6811,            0.,NA,NA,"",   265.902E+03,   238.663E+03,   238.663E+03
C:/temp/Job-26.odb,Step-1,Increment      1: Step Time =    1.000,"P-26-1",           768,       90.1781,       137.504,            0.,NA,NA,"",   1.48655E+06,   1.59011E+06,   1.59011E+06
C:/temp/Job-26.odb,Step-1,Increment      1: Step Time =    1.000,"P-26-1",           769,       87.7004,       61.3345,            0.,NA,NA,"",   1.46731E+06,   1.54427E+06,   1.54427E+06
C:/temp/Job-26.odb,Step-1,Increment      1: Step Time =    1.000,"P-26-1",           770,       13.0380,       66.2508,            0.,NA,NA,"",   782.830E+03,   865.407E+03,   865.407E+03
C:/temp/Job-26.odb,Step-1,Increment      1: Step Time =    1.000,"P-26-1",           771,       63.7835,       16.1070,            0.,NA,NA,"",   1.12296E+06,   1.11644E+06,   1.11644E+06
C:/temp/Job-26.odb,Step-1,Increment      1: Step Time =    1.000,"P-26-1",           772,       183.928,       63.8669,            0.,NA,NA,"",   976.548E+03,   1.02007E+06,   1.02007E+06
C:/temp/Job-26.odb,Step-1,Increment      1: Step Time =    1.000,"P-26-1",           773,       65.0288,       186.240,            0.,NA,NA,"",   1.10509E+06,   1.09962E+06,   1.09962E+06
C:/temp/Job-26.odb,Step-1,Increment      1: Step Time =    1.000,"P-26-1",           774,       135.175,       14.6207,            0.,NA,NA,"",   1.01908E+06,   1.01505E+06,   1.01505E+06
C:/temp/Job-26.odb,Step-1,Increment      1: Step Time =    1.000,"P-26-1",           775,       15.0384,       133.624,            0.,NA,NA,"",   788.945E+03,   868.314E+03,   868.314E+03
C:/temp/Job-26.odb,Step-1,Increment      1: Step Time =    1.000,"P-26-1",           776,       185.465,       135.290,            0.,NA,NA,"",   967.271E+03,   1.01682E+06,   1.01682E+06
C:/temp/Job-26.odb,Step-1,Increment      1: Step Time =    1.000,"P-26-1",           777,       135.995,       183.868,            0.,NA,NA,"",   1.03101E+06,   1.02616E+06,   1.02616E+06
C:/temp/Job-26.odb,Step-1,Increment      1: Step Time =    1.000,"P-26-1",           778,       96.7133,       59.3723,            0.,NA,NA,"",   1.41534E+06,   1.55473E+06,   1.55473E+06
C:/temp/Job-26.odb,Step-1,Increment      1: Step Time =    1.000,"P-26-1",           779,       14.2211,       124.767,            0.,NA,NA,"",   711.600E+03,   793.444E+03,   793.444E+03
C:/temp/Job-26.odb,Step-1,Increment      1: Step Time =    1.000,"P-26-1",           780,       125.245,       15.0879,            0.,NA,NA,"",   1.00174E+06,   1.00378E+06,   1.00378E+06
C:/temp/Job-26.odb,Step-1,Increment      1: Step Time =    1.000,"P-26-1",           781,       13.8289,       75.4383,            0.,NA,NA,"",   711.195E+03,   793.578E+03,   793.578E+03
C:/temp/Job-26.odb,Step-1,Increment      1: Step Time =    1.000,"P-26-1",           782,       76.2127,       14.3655,            0.,NA,NA,"",   1.05576E+06,   1.05657E+06,   1.05657E+06
C:/temp/Job-26.odb,Step-1,Increment      1: Step Time =    1.000,"P-26-1",           783,       185.024,       125.560,            0.,NA,NA,"",   935.014E+03,   1.00115E+06,   1.00115E+06
C:/temp/Job-26.odb,Step-1,Increment      1: Step Time =    1.000,"P-26-1",           784,       186.019,       75.7801,            0.,NA,NA,"",   926.374E+03,   998.389E+03,   998.389E+03
C:/temp/Job-26.odb,Step-1,Increment      1: Step Time =    1.000,"P-26-1",           785,       123.840,       185.835,            0.,NA,NA,"",   990.045E+03,   992.922E+03,   992.922E+03
C:/temp/Job-26.odb,Step-1,Increment      1: Step Time =    1.000,"P-26-1",           786,       74.7346,       185.606,            0.,NA,NA,"",   1.06372E+06,   1.06335E+06,   1.06335E+06
C:/temp/Job-26.odb,Step-1,Increment      1: Step Time =    1.000,"P-26-1",           787,       79.7015,       76.4220,            0.,NA,NA,"",   1.33038E+06,   1.29568E+06,   1.29568E+06
C:/temp/Job-26.odb,Step-1,Increment      1: Step Time =    1.000,"P-26-1",           788,       85.4934,       14.6397,            0.,NA,NA,"",   1.01595E+06,   1.02314E+06,   1.02314E+06
C:/temp/Job-26.odb,Step-1,Increment      1: Step Time =    1.000,"P-26-1",           789,       15.7921,       114.787,            0.,NA,NA,"",   644.298E+03,   725.919E+03,   725.919E+03
C:/temp/Job-26.odb,Step-1,Increment      1: Step Time =    1.000,"P-26-1",           790,       14.1210,       84.9877,            0.,NA,NA,"",   646.468E+03,   729.061E+03,   729.061E+03
C:/temp/Job-26.odb,Step-1,Increment      1: Step Time =    1.000,"P-26-1",           791,       115.163,       15.4465,            0.,NA,NA,"",   982.501E+03,   992.508E+03,   992.508E+03
C:/temp/Job-26.odb,Step-1,Increment      1: Step Time =    1.000,"P-26-1",           792,       185.552,       85.0987,            0.,NA,NA,"",   892.620E+03,   977.378E+03,   977.378E+03
C:/temp/Job-26.odb,Step-1,Increment      1: Step Time =    1.000,"P-26-1",           793,       114.533,       185.671,            0.,NA,NA,"",   973.388E+03,   982.109E+03,   982.109E+03
C:/temp/Job-26.odb,Step-1,Increment      1: Step Time =    1.000,"P-26-1",           794,       84.8500,       184.872,            0.,NA,NA,"",   1.02147E+06,   1.02918E+06,   1.02918E+06
C:/temp/Job-26.odb,Step-1,Increment      1: Step Time =    1.000,"P-26-1",           795,       184.666,       115.550,            0.,NA,NA,"",   895.490E+03,   976.565E+03,   976.565E+03
C:/temp/Job-26.odb,Step-1,Increment      1: Step Time =    1.000,"P-26-1",           796,       86.9423,       132.920,            0.,NA,NA,"",   1.61322E+06,   1.68564E+06,   1.68564E+06
C:/temp/Job-26.odb,Step-1,Increment      1: Step Time =    1.000,"P-26-1",           797,       72.6706,       130.645,            0.,NA,NA,"",   1.42887E+06,   1.32701E+06,   1.32701E+06
C:/temp/Job-26.odb,Step-1,Increment      1: Step Time =    1.000,"P-26-1",           798,       123.664,       132.868,            0.,NA,NA,"",   1.53903E+06,   1.47031E+06,   1.47031E+06
C:/temp/Job-26.odb,Step-1,Increment      1: Step Time =    1.000,"P-26-1",           799,       126.812,       78.8315,            0.,NA,NA,"",   1.32614E+06,   1.13346E+06,   1.13346E+06
C:/temp/Job-26.odb,Step-1,Increment      1: Step Time =    1.000,"P-26-1",           800,       135.934,       88.3057,            0.,NA,NA,"",   814.595E+03,   604.285E+03,   604.285E+03
C:/temp/Job-26.odb,Step-1,Increment      1: Step Time =    1.000,"P-26-1",           801,       95.1964,       14.9166,            0.,NA,NA,"",   982.754E+03,   996.798E+03,   996.798E+03
C:/temp/Job-26.odb,Step-1,Increment      1: Step Time =    1.000,"P-26-1",           802,       14.7715,       104.358,            0.,NA,NA,"",   601.778E+03,   684.146E+03,   684.146E+03
C:/temp/Job-26.odb,Step-1,Increment      1: Step Time =    1.000,"P-26-1",           803,       184.843,       94.9692,            0.,NA,NA,"",   863.949E+03,   955.719E+03,   955.719E+03
C:/temp/Job-26.odb,Step-1,Increment      1: Step Time =    1.000,"P-26-1",           804,       104.884,       185.464,            0.,NA,NA,"",   966.356E+03,   980.207E+03,   980.207E+03
C:/temp/Job-26.odb,Step-1,Increment      1: Step Time =    1.000,"P-26-1",           805,       105.029,       15.4359,            0.,NA,NA,"",   973.073E+03,   988.007E+03,   988.007E+03
C:/temp/Job-26.odb,Step-1,Increment      1: Step Time =    1.000,"P-26-1",           806,       14.3210,       94.7196,            0.,NA,NA,"",   605.606E+03,   688.090E+03,   688.090E+03
C:/temp/Job-26.odb,Step-1,Increment      1: Step Time =    1.000,"P-26-1",           807,       184.455,       105.216,            0.,NA,NA,"",   865.001E+03,   955.378E+03,   955.378E+03
C:/temp/Job-26.odb,Step-1,Increment      1: Step Time =    1.000,"P-26-1",           808,       95.0728,       184.978,            0.,NA,NA,"",   983.587E+03,   997.524E+03,   997.524E+03
C:/temp/Job-26.odb,Step-1,Increment      1: Step Time =    1.000,"P-26-1",           809,       99.4604,       56.4034,            0.,NA,NA,"",   1.32040E+06,   1.45416E+06,   1.45416E+06
C:/temp/Job-26.odb,Step-1,Increment      1: Step Time =    1.000,"P-26-1",           810,       60.6479,       88.7533,            0.,NA,NA,"",   613.287E+03,   535.288E+03,   535.288E+03
C:/temp/Job-26.odb,Step-1,Increment      1: Step Time =    1.000,"P-26-1",           811,       67.0843,       122.556,            0.,NA,NA,"",   1.14017E+06,   988.131E+03,   988.131E+03
C:/temp/Job-26.odb,Step-1,Increment      1: Step Time =    1.000,"P-26-1",           812,       126.216,       126.399,            0.,NA,NA,"",   1.52040E+06,   1.37307E+06,   1.37307E+06
C:/temp/Job-26.odb,Step-1,Increment      1: Step Time =    1.000,"P-26-1",           813,       132.156,       121.321,            0.,NA,NA,"",   1.29924E+06,   1.07981E+06,   1.07981E+06
C:/temp/Job-26.odb,Step-1,Increment      1: Step Time =    1.000,"P-26-1",           814,       56.0001,       103.334,            0.,NA,NA,"",   342.451E+03,   351.298E+03,   351.298E+03
C:/temp/Job-26.odb,Step-1,Increment      1: Step Time =    1.000,"P-26-1",           815,       142.207,       86.5314,            0.,NA,NA,"",   882.037E+03,   746.764E+03,   746.764E+03
C:/temp/Job-26.odb,Step-1,Increment      1: Step Time =    1.000,"P-26-1",           816,       56.1030,       86.3423,            0.,NA,NA,"",   695.723E+03,   648.172E+03,   648.172E+03
C:/temp/Job-26.odb,Step-1,Increment      1: Step Time =    1.000,"P-26-1",           817,       84.8298,       57.4358,            0.,NA,NA,"",   1.40212E+06,   1.44925E+06,   1.44925E+06
C:/temp/Job-26.odb,Step-1,Increment      1: Step Time =    1.000,"P-26-1",           818,       110.077,       20.8753,            0.,NA,NA,"",   1.01318E+06,   1.03505E+06,   1.03505E+06
C:/temp/Job-26.odb,Step-1,Increment      1: Step Time =    1.000,"P-26-1",           819,       179.302,       110.669,            0.,NA,NA,"",   870.080E+03,   941.005E+03,   941.005E+03
C:/temp/Job-26.odb,Step-1,Increment      1: Step Time =    1.000,"P-26-1",           820,       90.2129,       179.576,            0.,NA,NA,"",   1.03706E+06,   1.05619E+06,   1.05619E+06
C:/temp/Job-26.odb,Step-1,Increment      1: Step Time =    1.000,"P-26-1",           821,       99.8848,       20.5819,            0.,NA,NA,"",   1.01091E+06,   1.03584E+06,   1.03584E+06
C:/temp/Job-26.odb,Step-1,Increment      1: Step Time =    1.000,"P-26-1",           822,       19.4853,       99.1675,            0.,NA,NA,"",   590.582E+03,   671.059E+03,   671.059E+03
C:/temp/Job-26.odb,Step-1,Increment      1: Step Time =    1.000,"P-26-1",           823,       179.131,       99.8398,            0.,NA,NA,"",   841.744E+03,   919.388E+03,   919.388E+03
C:/temp/Job-26.odb,Step-1,Increment      1: Step Time =    1.000,"P-26-1",           824,       100.190,       180.546,            0.,NA,NA,"",   1.00445E+06,   1.02853E+06,   1.02853E+06
C:/temp/Job-26.odb,Step-1,Increment      1: Step Time =    1.000,"P-26-1",           825,       130.781,       76.0499,            0.,NA,NA,"",   1.40453E+06,   1.20783E+06,   1.20783E+06
C:/temp/Job-26.odb,Step-1,Increment      1: Step Time =    1.000,"P-26-1",           826,       93.2448,       141.309,            0.,NA,NA,"",   1.39385E+06,   1.51017E+06,   1.51017E+06
C:/temp/Job-26.odb,Step-1,Increment      1: Step Time =    1.000,"P-26-1",           827,       61.9379,       21.5453,            0.,NA,NA,"",   1.16184E+06,   1.15065E+06,   1.15065E+06
C:/temp/Job-26.odb,Step-1,Increment      1: Step Time =    1.000,"P-26-1",           828,       16.7961,       58.5464,            0.,NA,NA,"",   867.966E+03,   942.115E+03,   942.115E+03
C:/temp/Job-26.odb,Step-1,Increment      1: Step Time =    1.000,"P-26-1",           829,       60.5675,       181.636,            0.,NA,NA,"",   1.14971E+06,   1.13991E+06,   1.13991E+06
C:/temp/Job-26.odb,Step-1,Increment      1: Step Time =    1.000,"P-26-1",           830,       178.539,       62.2840,            0.,NA,NA,"",   1.01193E+06,   1.03524E+06,   1.03524E+06
C:/temp/Job-26.odb,Step-1,Increment      1: Step Time =    1.000,"P-26-1",           831,       19.8588,       137.725,            0.,NA,NA,"",   851.848E+03,   919.820E+03,   919.820E+03
C:/temp/Job-26.odb,Step-1,Increment      1: Step Time =    1.000,"P-26-1",           832,       140.219,       19.2823,            0.,NA,NA,"",   1.05882E+06,   1.04958E+06,   1.04958E+06
C:/temp/Job-26.odb,Step-1,Increment      1: Step Time =    1.000,"P-26-1",           833,       180.800,       140.228,            0.,NA,NA,"",   1.00618E+06,   1.03307E+06,   1.03307E+06
C:/temp/Job-26.odb,Step-1,Increment      1: Step Time =    1.000,"P-26-1",           834,       137.588,       178.503,            0.,NA,NA,"",   1.07290E+06,   1.06334E+06,   1.06334E+06
C:/temp/Job-26.odb,Step-1,Increment      1: Step Time =    1.000,"P-26-1",           835,       90.9099,       58.7613,            0.,NA,NA,"",   1.40498E+06,   1.50668E+06,   1.50668E+06
C:/temp/Job-26.odb,Step-1,Increment      1: Step Time =    1.000,"P-26-1",           836,       130.490,       19.8683,            0.,NA,NA,"",   1.05121E+06,   1.04851E+06,   1.04851E+06
C:/temp/Job-26.odb,Step-1,Increment      1: Step Time =    1.000,"P-26-1",           837,       19.4170,       128.606,            0.,NA,NA,"",   758.334E+03,   832.165E+03,   832.165E+03
C:/temp/Job-26.odb,Step-1,Increment      1: Step Time =    1.000,"P-26-1",           838,       69.8047,       181.868,            0.,NA,NA,"",   1.11507E+06,   1.11022E+06,   1.11022E+06
C:/temp/Job-26.odb,Step-1,Increment      1: Step Time =    1.000,"P-26-1",           839,       182.003,       68.4935,            0.,NA,NA,"",   969.703E+03,   1.01535E+06,   1.01535E+06
C:/temp/Job-26.odb,Step-1,Increment      1: Step Time =    1.000,"P-26-1",           840,       18.1754,       70.8287,            0.,NA,NA,"",   762.797E+03,   838.246E+03,   838.246E+03
C:/temp/Job-26.odb,Step-1,Increment      1: Step Time =    1.000,"P-26-1",           841,       68.5746,       18.3547,            0.,NA,NA,"",   1.11844E+06,   1.11320E+06,   1.11320E+06
C:/temp/Job-26.odb,Step-1,Increment      1: Step Time =    1.000,"P-26-1",           842,       180.172,       130.834,            0.,NA,NA,"",   976.504E+03,   1.01632E+06,   1.01632E+06
C:/temp/Job-26.odb,Step-1,Increment      1: Step Time =    1.000,"P-26-1",           843,       131.298,       181.832,            0.,NA,NA,"",   1.03763E+06,   1.03485E+06,   1.03485E+06
C:/temp/Job-26.odb,Step-1,Increment      1: Step Time =    1.000,"P-26-1",           844,       18.8588,       85.0093,            0.,NA,NA,"",   646.380E+03,   725.849E+03,   725.849E+03
C:/temp/Job-26.odb,Step-1,Increment      1: Step Time =    1.000,"P-26-1",           845,       120.425,       20.5665,            0.,NA,NA,"",   1.03276E+06,   1.04221E+06,   1.04221E+06
C:/temp/Job-26.odb,Step-1,Increment      1: Step Time =    1.000,"P-26-1",           846,       18.8453,       117.413,            0.,NA,NA,"",   661.269E+03,   740.467E+03,   740.467E+03
C:/temp/Job-26.odb,Step-1,Increment      1: Step Time =    1.000,"P-26-1",           847,       79.2474,       180.111,            0.,NA,NA,"",   1.08348E+06,   1.08850E+06,   1.08850E+06
C:/temp/Job-26.odb,Step-1,Increment      1: Step Time =    1.000,"P-26-1",           848,       179.684,       120.960,            0.,NA,NA,"",   927.192E+03,   983.193E+03,   983.193E+03
C:/temp/Job-26.odb,Step-1,Increment      1: Step Time =    1.000,"P-26-1",           849,       79.3556,       70.4123,            0.,NA,NA,"",   1.50310E+06,   1.46757E+06,   1.46757E+06
C:/temp/Job-26.odb,Step-1,Increment      1: Step Time =    1.000,"P-26-1",           850,       122.644,       137.083,            0.,NA,NA,"",   1.49842E+06,   1.46535E+06,   1.46535E+06
C:/temp/Job-26.odb,Step-1,Increment      1: Step Time =    1.000,"P-26-1",           851,       76.8670,       139.214,            0.,NA,NA,"",   1.44828E+06,   1.42136E+06,   1.42136E+06
C:/temp/Job-26.odb,Step-1,Increment      1: Step Time =    1.000,"P-26-1",           852,       19.9706,       108.440,            0.,NA,NA,"",   605.240E+03,   685.046E+03,   685.046E+03
C:/temp/Job-26.odb,Step-1,Increment      1: Step Time =    1.000,"P-26-1",           853,       109.385,       56.7064,            0.,NA,NA,"",   1.33865E+06,   1.44323E+06,   1.44323E+06
C:/temp/Job-26.odb,Step-1,Increment      1: Step Time =    1.000,"P-26-1",           854,       129.357,       130.153,            0.,NA,NA,"",   1.49764E+06,   1.35892E+06,   1.35892E+06
C:/temp/Job-26.odb,Step-1,Increment      1: Step Time =    1.000,"P-26-1",           855,       66.0199,       128.914,            0.,NA,NA,"",   1.27542E+06,   1.15473E+06,   1.15473E+06
C:/temp/Job-26.odb,Step-1,Increment      1: Step Time =    1.000,"P-26-1",           856,       139.512,       118.031,            0.,NA,NA,"",   1.07766E+06,   898.808E+03,   898.808E+03
C:/temp/Job-26.odb,Step-1,Increment      1: Step Time =    1.000,"P-26-1",           857,       97.2444,       53.2179,            0.,NA,NA,"",   1.26286E+06,   1.38144E+06,   1.38144E+06
C:/temp/Job-26.odb,Step-1,Increment      1: Step Time =    1.000,"P-26-1",           858,       86.6353,       140.677,            0.,NA,NA,"",   1.42838E+06,   1.49392E+06,   1.49392E+06
C:/temp/Job-26.odb,Step-1,Increment      1: Step Time =    1.000,"P-26-1",           859,       88.3177,       54.9765,            0.,NA,NA,"",   1.34533E+06,   1.42122E+06,   1.42122E+06
C:/temp/Job-26.odb,Step-1,Increment      1: Step Time =    1.000,"P-26-1",           860,       90.6425,       23.8206,            0.,NA,NA,"",   1.05603E+06,   1.07999E+06,   1.07999E+06
C:/temp/Job-26.odb,Step-1,Increment      1: Step Time =    1.000,"P-26-1",           861,       26.2376,       111.203,            0.,NA,NA,"",   611.090E+03,   685.118E+03,   685.118E+03
C:/temp/Job-26.odb,Step-1,Increment      1: Step Time =    1.000,"P-26-1",           862,       176.530,       89.2110,            0.,NA,NA,"",   862.130E+03,   925.204E+03,   925.204E+03
C:/temp/Job-26.odb,Step-1,Increment      1: Step Time =    1.000,"P-26-1",           863,       109.601,       176.474,            0.,NA,NA,"",   1.02883E+06,   1.05459E+06,   1.05459E+06
C:/temp/Job-26.odb,Step-1,Increment      1: Step Time =    1.000,"P-26-1",           864,       117.338,       141.673,            0.,NA,NA,"",   1.41596E+06,   1.45616E+06,   1.45616E+06
C:/temp/Job-26.odb,Step-1,Increment      1: Step Time =    1.000,"P-26-1",           865,       89.4420,       144.290,            0.,NA,NA,"",   1.35122E+06,   1.43595E+06,   1.43595E+06
C:/temp/Job-26.odb,Step-1,Increment      1: Step Time =    1.000,"P-26-1",           866,       74.9613,       69.6764,            0.,NA,NA,"",   1.44492E+06,   1.36535E+06,   1.36535E+06
C:/temp/Job-26.odb,Step-1,Increment      1: Step Time =    1.000,"P-26-1",           867,       23.9195,       80.4843,            0.,NA,NA,"",   686.024E+03,   758.193E+03,   758.193E+03
C:/temp/Job-26.odb,Step-1,Increment      1: Step Time =    1.000,"P-26-1",           868,       120.762,       26.0056,            0.,NA,NA,"",   1.07529E+06,   1.08789E+06,   1.08789E+06
C:/temp/Job-26.odb,Step-1,Increment      1: Step Time =    1.000,"P-26-1",           869,       80.9091,       25.0227,            0.,NA,NA,"",   1.11123E+06,   1.12176E+06,   1.12176E+06
C:/temp/Job-26.odb,Step-1,Increment      1: Step Time =    1.000,"P-26-1",           870,       22.5303,       120.428,            0.,NA,NA,"",   690.519E+03,   764.207E+03,   764.207E+03
C:/temp/Job-26.odb,Step-1,Increment      1: Step Time =    1.000,"P-26-1",           871,       78.6673,       175.144,            0.,NA,NA,"",   1.12174E+06,   1.12834E+06,   1.12834E+06
C:/temp/Job-26.odb,Step-1,Increment      1: Step Time =    1.000,"P-26-1",           872,       174.434,       121.427,            0.,NA,NA,"",   940.144E+03,   976.748E+03,   976.748E+03
C:/temp/Job-26.odb,Step-1,Increment      1: Step Time =    1.000,"P-26-1",           873,       176.520,       79.5891,            0.,NA,NA,"",   928.252E+03,   974.357E+03,   974.357E+03
C:/temp/Job-26.odb,Step-1,Increment      1: Step Time =    1.000,"P-26-1",           874,       119.048,       175.309,            0.,NA,NA,"",   1.06015E+06,   1.07504E+06,   1.07504E+06
C:/temp/Job-26.odb,Step-1,Increment      1: Step Time =    1.000,"P-26-1",           875,       173.637,       99.6387,            0.,NA,NA,"",   812.408E+03,   876.746E+03,   876.746E+03
C:/temp/Job-26.odb,Step-1,Increment      1: Step Time =    1.000,"P-26-1",           876,       100.655,       176.596,            0.,NA,NA,"",   1.02545E+06,   1.05687E+06,   1.05687E+06
C:/temp/Job-26.odb,Step-1,Increment      1: Step Time =    1.000,"P-26-1",           877,       24.5288,       98.5516,            0.,NA,NA,"",   579.364E+03,   657.001E+03,   657.001E+03
C:/temp/Job-26.odb,Step-1,Increment      1: Step Time =    1.000,"P-26-1",           878,       132.901,       70.2009,            0.,NA,NA,"",   1.45075E+06,   1.29256E+06,   1.29256E+06
C:/temp/Job-26.odb,Step-1,Increment      1: Step Time =    1.000,"P-26-1",           879,       59.4998,       25.5527,            0.,NA,NA,"",   1.18893E+06,   1.17359E+06,   1.17359E+06
C:/temp/Job-26.odb,Step-1,Increment      1: Step Time =    1.000,"P-26-1",           880,       23.5329,       55.6839,            0.,NA,NA,"",   933.874E+03,   989.196E+03,   989.196E+03
C:/temp/Job-26.odb,Step-1,Increment      1: Step Time =    1.000,"P-26-1",           881,       24.5201,       139.710,            0.,NA,NA,"",   895.692E+03,   951.113E+03,   951.113E+03
C:/temp/Job-26.odb,Step-1,Increment      1: Step Time =    1.000,"P-26-1",           882,       140.508,       24.1608,            0.,NA,NA,"",   1.09463E+06,   1.08085E+06,   1.08085E+06
C:/temp/Job-26.odb,Step-1,Increment      1: Step Time =    1.000,"P-26-1",           883,       175.926,       140.559,            0.,NA,NA,"",   1.03727E+06,   1.04797E+06,   1.04797E+06
C:/temp/Job-26.odb,Step-1,Increment      1: Step Time =    1.000,"P-26-1",           884,       139.835,       174.487,            0.,NA,NA,"",   1.10426E+06,   1.08948E+06,   1.08948E+06
C:/temp/Job-26.odb,Step-1,Increment      1: Step Time =    1.000,"P-26-1",           885,       57.7173,       175.969,            0.,NA,NA,"",   1.18580E+06,   1.17086E+06,   1.17086E+06
C:/temp/Job-26.odb,Step-1,Increment      1: Step Time =    1.000,"P-26-1",           886,       174.426,       59.9799,            0.,NA,NA,"",   1.04543E+06,   1.05182E+06,   1.05182E+06
C:/temp/Job-26.odb,Step-1,Increment      1: Step Time =    1.000,"P-26-1",           887,       71.1137,       23.2479,            0.,NA,NA,"",   1.14296E+06,   1.13839E+06,   1.13839E+06
C:/temp/Job-26.odb,Step-1,Increment      1: Step Time =    1.000,"P-26-1",           888,       128.881,       177.214,            0.,NA,NA,"",   1.07048E+06,   1.06935E+06,   1.06935E+06
C:/temp/Job-26.odb,Step-1,Increment      1: Step Time =    1.000,"P-26-1",           889,       25.4391,       130.007,            0.,NA,NA,"",   800.683E+03,   860.449E+03,   860.449E+03
C:/temp/Job-26.odb,Step-1,Increment      1: Step Time =    1.000,"P-26-1",           890,       177.484,       70.7024,            0.,NA,NA,"",   981.353E+03,   1.01400E+06,   1.01400E+06
C:/temp/Job-26.odb,Step-1,Increment      1: Step Time =    1.000,"P-26-1",           891,       80.5583,       141.034,            0.,NA,NA,"",   1.42888E+06,   1.43709E+06,   1.43709E+06
C:/temp/Job-26.odb,Step-1,Increment      1: Step Time =    1.000,"P-26-1",           892,       55.0252,       107.526,            0.,NA,NA,"",   470.146E+03,   462.309E+03,   462.309E+03
C:/temp/Job-26.odb,Step-1,Increment      1: Step Time =    1.000,"P-26-1",           893,       144.160,       82.5742,            0.,NA,NA,"",   1.01869E+06,   887.802E+03,   887.802E+03
C:/temp/Job-26.odb,Step-1,Increment      1: Step Time =    1.000,"P-26-1",           894,       57.7561,       82.2442,            0.,NA,NA,"",   854.565E+03,   776.778E+03,   776.778E+03
C:/temp/Job-26.odb,Step-1,Increment      1: Step Time =    1.000,"P-26-1",           895,       82.7107,       53.2418,            0.,NA,NA,"",   1.35224E+06,   1.38234E+06,   1.38234E+06
C:/temp/Job-26.odb,Step-1,Increment      1: Step Time =    1.000,"P-26-1",           896,       60.8693,       121.534,            0.,NA,NA,"",   1.02069E+06,   912.754E+03,   912.754E+03
C:/temp/Job-26.odb,Step-1,Increment      1: Step Time =    1.000,"P-26-1",           897,       135.726,       82.3912,            0.,NA,NA,"",   1.11658E+06,   902.620E+03,   902.620E+03
C:/temp/Job-26.odb,Step-1,Increment      1: Step Time =    1.000,"P-26-1",           898,       54.4474,       185.989,            0.,NA,NA,"",   1.14781E+06,   1.14105E+06,   1.14105E+06
C:/temp/Job-26.odb,Step-1,Increment      1: Step Time =    1.000,"P-26-1",           899,       183.667,       54.3234,            0.,NA,NA,"",   1.00217E+06,   1.02937E+06,   1.02937E+06
C:/temp/Job-26.odb,Step-1,Increment      1: Step Time =    1.000,"P-26-1",           900,       144.902,       14.2650,            0.,NA,NA,"",   1.02899E+06,   1.02250E+06,   1.02250E+06
C:/temp/Job-26.odb,Step-1,Increment      1: Step Time =    1.000,"P-26-1",           901,       14.5697,       147.013,            0.,NA,NA,"",   899.464E+03,   977.817E+03,   977.817E+03
C:/temp/Job-26.odb,Step-1,Increment      1: Step Time =    1.000,"P-26-1",           902,       12.8891,       57.5567,            0.,NA,NA,"",   853.641E+03,   936.184E+03,   936.184E+03
C:/temp/Job-26.odb,Step-1,Increment      1: Step Time =    1.000,"P-26-1",           903,       54.0623,       15.6708,            0.,NA,NA,"",   1.15587E+06,   1.14754E+06,   1.14754E+06
C:/temp/Job-26.odb,Step-1,Increment      1: Step Time =    1.000,"P-26-1",           904,       185.835,       144.844,            0.,NA,NA,"",   988.867E+03,   1.02280E+06,   1.02280E+06
C:/temp/Job-26.odb,Step-1,Increment      1: Step Time =    1.000,"P-26-1",           905,       145.619,       183.636,            0.,NA,NA,"",   1.04230E+06,   1.03393E+06,   1.03393E+06
C:/temp/Job-26.odb,Step-1,Increment      1: Step Time =    1.000,"P-26-1",           906,       82.5000,       66.1783,            0.,NA,NA,"",   1.52275E+06,   1.53737E+06,   1.53737E+06
C:/temp/Job-26.odb,Step-1,Increment      1: Step Time =    1.000,"P-26-1",           907,       140.935,       114.964,            0.,NA,NA,"",   950.496E+03,   796.739E+03,   796.739E+03
C:/temp/Job-26.odb,Step-1,Increment      1: Step Time =    1.000,"P-26-1",           908,       98.5570,       46.8110,            0.,NA,NA,"",   1.17378E+06,   1.27088E+06,   1.27088E+06
C:/temp/Job-26.odb,Step-1,Increment      1: Step Time =    1.000,"P-26-1",           909,       58.2699,       124.938,            0.,NA,NA,"",   1.05138E+06,   966.037E+03,   966.037E+03
C:/temp/Job-26.odb,Step-1,Increment      1: Step Time =    1.000,"P-26-1",           910,       55.0762,       90.4489,            0.,NA,NA,"",   537.946E+03,   521.852E+03,   521.852E+03
C:/temp/Job-26.odb,Step-1,Increment      1: Step Time =    1.000,"P-26-1",           911,       68.6326,       133.478,            0.,NA,NA,"",   1.37988E+06,   1.28295E+06,   1.28295E+06
C:/temp/Job-26.odb,Step-1,Increment      1: Step Time =    1.000,"P-26-1",           912,       55.1943,       94.6594,            0.,NA,NA,"",   403.513E+03,   412.014E+03,   412.014E+03
C:/temp/Job-26.odb,Step-1,Increment      1: Step Time =    1.000,"P-26-1",           913,       8.70020,       56.5664,            0.,NA,NA,"",   839.707E+03,   930.457E+03,   930.457E+03
C:/temp/Job-26.odb,Step-1,Increment      1: Step Time =    1.000,"P-26-1",           914,       55.0884,       190.959,            0.,NA,NA,"",   1.12188E+06,   1.11843E+06,   1.11843E+06
C:/temp/Job-26.odb,Step-1,Increment      1: Step Time =    1.000,"P-26-1",           915,       144.891,       9.47880,            0.,NA,NA,"",   1.00147E+06,   998.159E+03,   998.159E+03
C:/temp/Job-26.odb,Step-1,Increment      1: Step Time =    1.000,"P-26-1",           916,       190.596,       144.853,            0.,NA,NA,"",   967.505E+03,   1.01177E+06,   1.01177E+06
C:/temp/Job-26.odb,Step-1,Increment      1: Step Time =    1.000,"P-26-1",           917,       25.5541,       103.609,            0.,NA,NA,"",   579.721E+03,   656.490E+03,   656.490E+03
C:/temp/Job-26.odb,Step-1,Increment      1: Step Time =    1.000,"P-26-1",           918,       94.4564,       24.0984,            0.,NA,NA,"",   1.04324E+06,   1.07288E+06,   1.07288E+06
C:/temp/Job-26.odb,Step-1,Increment      1: Step Time =    1.000,"P-26-1",           919,       173.521,       93.1096,            0.,NA,NA,"",   829.666E+03,   889.852E+03,   889.852E+03
C:/temp/Job-26.odb,Step-1,Increment      1: Step Time =    1.000,"P-26-1",           920,       105.070,       175.350,            0.,NA,NA,"",   1.03094E+06,   1.06309E+06,   1.06309E+06
C:/temp/Job-26.odb,Step-1,Increment      1: Step Time =    1.000,"P-26-1",           921,       122.500,       141.730,            0.,NA,NA,"",   1.43766E+06,   1.42576E+06,   1.42576E+06
C:/temp/Job-26.odb,Step-1,Increment      1: Step Time =    1.000,"P-26-1",           922,       112.292,       142.812,            0.,NA,NA,"",   1.36933E+06,   1.45486E+06,   1.45486E+06
C:/temp/Job-26.odb,Step-1,Increment      1: Step Time =    1.000,"P-26-1",           923,       67.0956,       76.7475,            0.,NA,NA,"",   1.17821E+06,   1.03269E+06,   1.03269E+06
C:/temp/Job-26.odb,Step-1,Increment      1: Step Time =    1.000,"P-26-1",           924,       23.5126,       85.2313,            0.,NA,NA,"",   645.228E+03,   720.686E+03,   720.686E+03
C:/temp/Job-26.odb,Step-1,Increment      1: Step Time =    1.000,"P-26-1",           925,       26.7099,       116.220,            0.,NA,NA,"",   657.598E+03,   728.155E+03,   728.155E+03
C:/temp/Job-26.odb,Step-1,Increment      1: Step Time =    1.000,"P-26-1",           926,       115.488,       26.1379,            0.,NA,NA,"",   1.06037E+06,   1.08329E+06,   1.08329E+06
C:/temp/Job-26.odb,Step-1,Increment      1: Step Time =    1.000,"P-26-1",           927,       86.1880,       25.7949,            0.,NA,NA,"",   1.08847E+06,   1.10933E+06,   1.10933E+06
C:/temp/Job-26.odb,Step-1,Increment      1: Step Time =    1.000,"P-26-1",           928,       174.360,       116.350,            0.,NA,NA,"",   900.890E+03,   947.296E+03,   947.296E+03
C:/temp/Job-26.odb,Step-1,Increment      1: Step Time =    1.000,"P-26-1",           929,       114.051,       176.126,            0.,NA,NA,"",   1.04073E+06,   1.06181E+06,   1.06181E+06
C:/temp/Job-26.odb,Step-1,Increment      1: Step Time =    1.000,"P-26-1",           930,       84.5386,       174.876,            0.,NA,NA,"",   1.09392E+06,   1.11169E+06,   1.11169E+06
C:/temp/Job-26.odb,Step-1,Increment      1: Step Time =    1.000,"P-26-1",           931,       175.303,       84.8058,            0.,NA,NA,"",   889.682E+03,   941.641E+03,   941.641E+03
C:/temp/Job-26.odb,Step-1,Increment      1: Step Time =    1.000,"P-26-1",           932,       127.047,       68.5581,            0.,NA,NA,"",   1.51747E+06,   1.40498E+06,   1.40498E+06
C:/temp/Job-26.odb,Step-1,Increment      1: Step Time =    1.000,"P-26-1",           933,       24.8620,       62.3903,            0.,NA,NA,"",   878.172E+03,   934.396E+03,   934.396E+03
C:/temp/Job-26.odb,Step-1,Increment      1: Step Time =    1.000,"P-26-1",           934,       65.1551,       26.8610,            0.,NA,NA,"",   1.18584E+06,   1.17278E+06,   1.17278E+06
C:/temp/Job-26.odb,Step-1,Increment      1: Step Time =    1.000,"P-26-1",           935,       135.754,       24.5049,            0.,NA,NA,"",   1.09437E+06,   1.08404E+06,   1.08404E+06
C:/temp/Job-26.odb,Step-1,Increment      1: Step Time =    1.000,"P-26-1",           936,       25.8281,       135.835,            0.,NA,NA,"",   869.395E+03,   923.346E+03,   923.346E+03
C:/temp/Job-26.odb,Step-1,Increment      1: Step Time =    1.000,"P-26-1",           937,       175.274,       136.073,            0.,NA,NA,"",   1.02663E+06,   1.04040E+06,   1.04040E+06
C:/temp/Job-26.odb,Step-1,Increment      1: Step Time =    1.000,"P-26-1",           938,       134.539,       173.524,            0.,NA,NA,"",   1.11004E+06,   1.09967E+06,   1.09967E+06
C:/temp/Job-26.odb,Step-1,Increment      1: Step Time =    1.000,"P-26-1",           939,       63.4468,       173.477,            0.,NA,NA,"",   1.18915E+06,   1.17452E+06,   1.17452E+06
C:/temp/Job-26.odb,Step-1,Increment      1: Step Time =    1.000,"P-26-1",           940,       173.425,       65.1956,            0.,NA,NA,"",   1.03234E+06,   1.04066E+06,   1.04066E+06
C:/temp/Job-26.odb,Step-1,Increment      1: Step Time =    1.000,"P-26-1",           941,       60.1701,       109.136,            0.,NA,NA,"",   532.719E+03,   465.030E+03,   465.030E+03
C:/temp/Job-26.odb,Step-1,Increment      1: Step Time =    1.000,"P-26-1",           942,       139.828,       80.2576,            0.,NA,NA,"",   1.14700E+06,   972.348E+03,   972.348E+03
C:/temp/Job-26.odb,Step-1,Increment      1: Step Time =    1.000,"P-26-1",           943,       60.1233,       78.2577,            0.,NA,NA,"",   1.01312E+06,   910.267E+03,   910.267E+03
C:/temp/Job-26.odb,Step-1,Increment      1: Step Time =    1.000,"P-26-1",           944,       80.5694,       60.1672,            0.,NA,NA,"",   1.44676E+06,   1.45406E+06,   1.45406E+06
C:/temp/Job-26.odb,Step-1,Increment      1: Step Time =    1.000,"P-26-1",           945,       141.713,       121.964,            0.,NA,NA,"",   1.16712E+06,   1.00797E+06,   1.00797E+06
C:/temp/Job-26.odb,Step-1,Increment      1: Step Time =    1.000,"P-26-1",           946,       142.249,       110.963,            0.,NA,NA,"",   770.096E+03,   660.366E+03,   660.366E+03
C:/temp/Job-26.odb,Step-1,Increment      1: Step Time =    1.000,"P-26-1",           947,       95.8185,       43.0635,            0.,NA,NA,"",   1.15361E+06,   1.23364E+06,   1.23364E+06
C:/temp/Job-26.odb,Step-1,Increment      1: Step Time =    1.000,"P-26-1",           948,       89.2811,       48.9070,            0.,NA,NA,"",   1.25175E+06,   1.32349E+06,   1.32349E+06
C:/temp/Job-26.odb,Step-1,Increment      1: Step Time =    1.000,"P-26-1",           949,       28.2307,       126.241,            0.,NA,NA,"",   773.044E+03,   829.800E+03,   829.800E+03
C:/temp/Job-26.odb,Step-1,Increment      1: Step Time =    1.000,"P-26-1",           950,       176.952,       75.0595,            0.,NA,NA,"",   958.101E+03,   996.877E+03,   996.877E+03
C:/temp/Job-26.odb,Step-1,Increment      1: Step Time =    1.000,"P-26-1",           951,       75.9670,       24.2386,            0.,NA,NA,"",   1.12954E+06,   1.13154E+06,   1.13154E+06
C:/temp/Job-26.odb,Step-1,Increment      1: Step Time =    1.000,"P-26-1",           952,       124.210,       176.350,            0.,NA,NA,"",   1.06626E+06,   1.07210E+06,   1.07210E+06
C:/temp/Job-26.odb,Step-1,Increment      1: Step Time =    1.000,"P-26-1",           953,       87.8436,       150.744,            0.,NA,NA,"",   1.26913E+06,   1.33216E+06,   1.33216E+06
C:/temp/Job-26.odb,Step-1,Increment      1: Step Time =    1.000,"P-26-1",           954,       119.112,       180.731,            0.,NA,NA,"",   1.01937E+06,   1.02896E+06,   1.02896E+06
C:/temp/Job-26.odb,Step-1,Increment      1: Step Time =    1.000,"P-26-1",           955,       80.9911,       19.7026,            0.,NA,NA,"",   1.07347E+06,   1.08063E+06,   1.08063E+06
C:/temp/Job-26.odb,Step-1,Increment      1: Step Time =    1.000,"P-26-1",           956,       181.057,       80.1400,            0.,NA,NA,"",   918.795E+03,   981.480E+03,   981.480E+03
C:/temp/Job-26.odb,Step-1,Increment      1: Step Time =    1.000,"P-26-1",           957,       18.4543,       120.645,            0.,NA,NA,"",   684.267E+03,   762.699E+03,   762.699E+03
C:/temp/Job-26.odb,Step-1,Increment      1: Step Time =    1.000,"P-26-1",           958,       28.3824,       93.2232,            0.,NA,NA,"",   583.575E+03,   657.610E+03,   657.610E+03
C:/temp/Job-26.odb,Step-1,Increment      1: Step Time =    1.000,"P-26-1",           959,       104.747,       26.4208,            0.,NA,NA,"",   1.04179E+06,   1.07818E+06,   1.07818E+06
C:/temp/Job-26.odb,Step-1,Increment      1: Step Time =    1.000,"P-26-1",           960,       173.728,       105.504,            0.,NA,NA,"",   826.298E+03,   888.244E+03,   888.244E+03
C:/temp/Job-26.odb,Step-1,Increment      1: Step Time =    1.000,"P-26-1",           961,       96.7674,       173.743,            0.,NA,NA,"",   1.04813E+06,   1.08420E+06,   1.08420E+06
C:/temp/Job-26.odb,Step-1,Increment      1: Step Time =    1.000,"P-26-1",           962,       180.488,       89.7273,            0.,NA,NA,"",   868.053E+03,   942.453E+03,   942.453E+03
C:/temp/Job-26.odb,Step-1,Increment      1: Step Time =    1.000,"P-26-1",           963,       109.620,       180.888,            0.,NA,NA,"",   1.00196E+06,   1.02053E+06,   1.02053E+06
C:/temp/Job-26.odb,Step-1,Increment      1: Step Time =    1.000,"P-26-1",           964,       90.3004,       19.5370,            0.,NA,NA,"",   1.03218E+06,   1.04982E+06,   1.04982E+06
C:/temp/Job-26.odb,Step-1,Increment      1: Step Time =    1.000,"P-26-1",           965,       21.1281,       112.679,            0.,NA,NA,"",   628.353E+03,   706.752E+03,   706.752E+03
C:/temp/Job-26.odb,Step-1,Increment      1: Step Time =    1.000,"P-26-1",           966,       78.9054,       54.7445,            0.,NA,NA,"",   1.38204E+06,   1.38526E+06,   1.38526E+06
C:/temp/Job-26.odb,Step-1,Increment      1: Step Time =    1.000,"P-26-1",           967,       122.646,       146.229,            0.,NA,NA,"",   1.36912E+06,   1.36976E+06,   1.36976E+06
C:/temp/Job-26.odb,Step-1,Increment      1: Step Time =    1.000,"P-26-1",           968,       146.588,       78.8631,            0.,NA,NA,"",   1.09370E+06,   977.215E+03,   977.215E+03
C:/temp/Job-26.odb,Step-1,Increment      1: Step Time =    1.000,"P-26-1",           969,       127.351,       142.420,            0.,NA,NA,"",   1.43460E+06,   1.38214E+06,   1.38214E+06
C:/temp/Job-26.odb,Step-1,Increment      1: Step Time =    1.000,"P-26-1",           970,       25.7807,       65.3721,            0.,NA,NA,"",   855.961E+03,   911.518E+03,   911.518E+03
C:/temp/Job-26.odb,Step-1,Increment      1: Step Time =    1.000,"P-26-1",           971,       175.005,       131.329,            0.,NA,NA,"",   1.00596E+06,   1.02546E+06,   1.02546E+06
C:/temp/Job-26.odb,Step-1,Increment      1: Step Time =    1.000,"P-26-1",           972,       130.928,       24.8750,            0.,NA,NA,"",   1.09145E+06,   1.08637E+06,   1.08637E+06
C:/temp/Job-26.odb,Step-1,Increment      1: Step Time =    1.000,"P-26-1",           973,       69.3281,       178.581,            0.,NA,NA,"",   1.13758E+06,   1.13130E+06,   1.13130E+06
C:/temp/Job-26.odb,Step-1,Increment      1: Step Time =    1.000,"P-26-1",           974,       100.305,       142.212,            0.,NA,NA,"",   1.36222E+06,   1.50111E+06,   1.50111E+06
C:/temp/Job-26.odb,Step-1,Increment      1: Step Time =    1.000,"P-26-1",           975,       58.1679,       130.614,            0.,NA,NA,"",   1.16298E+06,   1.07657E+06,   1.07657E+06
C:/temp/Job-26.odb,Step-1,Increment      1: Step Time =    1.000,"P-26-1",           976,       57.2749,       113.488,            0.,NA,NA,"",   701.506E+03,   640.975E+03,   640.975E+03
C:/temp/Job-26.odb,Step-1,Increment      1: Step Time =    1.000,"P-26-1",           977,       59.8272,       94.4392,            0.,NA,NA,"",   386.418E+03,   354.654E+03,   354.654E+03
C:/temp/Job-26.odb,Step-1,Increment      1: Step Time =    1.000,"P-26-1",           978,       30.2036,       112.125,            0.,NA,NA,"",   613.553E+03,   682.592E+03,   682.592E+03
C:/temp/Job-26.odb,Step-1,Increment      1: Step Time =    1.000,"P-26-1",           979,       89.7388,       28.3221,            0.,NA,NA,"",   1.08926E+06,   1.12147E+06,   1.12147E+06
C:/temp/Job-26.odb,Step-1,Increment      1: Step Time =    1.000,"P-26-1",           980,       170.721,       87.6792,            0.,NA,NA,"",   857.510E+03,   900.799E+03,   900.799E+03
C:/temp/Job-26.odb,Step-1,Increment      1: Step Time =    1.000,"P-26-1",           981,       113.032,       171.752,            0.,NA,NA,"",   1.06789E+06,   1.09799E+06,   1.09799E+06
C:/temp/Job-26.odb,Step-1,Increment      1: Step Time =    1.000,"P-26-1",           982,       110.860,       137.961,            0.,NA,NA,"",   1.47185E+06,   1.57766E+06,   1.57766E+06
C:/temp/Job-26.odb,Step-1,Increment      1: Step Time =    1.000,"P-26-1",           983,       64.7927,       69.9451,            0.,NA,NA,"",   1.27327E+06,   1.16143E+06,   1.16143E+06
C:/temp/Job-26.odb,Step-1,Increment      1: Step Time =    1.000,"P-26-1",           984,       29.7276,       77.8294,            0.,NA,NA,"",   729.031E+03,   787.906E+03,   787.906E+03
C:/temp/Job-26.odb,Step-1,Increment      1: Step Time =    1.000,"P-26-1",           985,       121.320,       32.0275,            0.,NA,NA,"",   1.12502E+06,   1.13959E+06,   1.13959E+06
C:/temp/Job-26.odb,Step-1,Increment      1: Step Time =    1.000,"P-26-1",           986,       26.8866,       121.230,            0.,NA,NA,"",   709.729E+03,   775.744E+03,   775.744E+03
C:/temp/Job-26.odb,Step-1,Increment      1: Step Time =    1.000,"P-26-1",           987,       80.3400,       30.1307,            0.,NA,NA,"",   1.14938E+06,   1.16231E+06,   1.16231E+06
C:/temp/Job-26.odb,Step-1,Increment      1: Step Time =    1.000,"P-26-1",           988,       168.793,       121.932,            0.,NA,NA,"",   957.868E+03,   971.341E+03,   971.341E+03
C:/temp/Job-26.odb,Step-1,Increment      1: Step Time =    1.000,"P-26-1",           989,       78.6884,       170.485,            0.,NA,NA,"",   1.15499E+06,   1.16375E+06,   1.16375E+06
C:/temp/Job-26.odb,Step-1,Increment      1: Step Time =    1.000,"P-26-1",           990,       120.778,       171.088,            0.,NA,NA,"",   1.09712E+06,   1.11205E+06,   1.11205E+06
C:/temp/Job-26.odb,Step-1,Increment      1: Step Time =    1.000,"P-26-1",           991,       172.303,       78.7577,            0.,NA,NA,"",   939.744E+03,   968.436E+03,   968.436E+03
C:/temp/Job-26.odb,Step-1,Increment      1: Step Time =    1.000,"P-26-1",           992,       131.489,       66.4708,            0.,NA,NA,"",   1.47591E+06,   1.34602E+06,   1.34602E+06
C:/temp/Job-26.odb,Step-1,Increment      1: Step Time =    1.000,"P-26-1",           993,       59.7839,       31.7743,            0.,NA,NA,"",   1.22086E+06,   1.19950E+06,   1.19950E+06
C:/temp/Job-26.odb,Step-1,Increment      1: Step Time =    1.000,"P-26-1",           994,       28.7229,       55.8687,            0.,NA,NA,"",   972.305E+03,   1.01044E+06,   1.01044E+06
C:/temp/Job-26.odb,Step-1,Increment      1: Step Time =    1.000,"P-26-1",           995,       140.982,       29.0702,            0.,NA,NA,"",   1.13277E+06,   1.11275E+06,   1.11275E+06
C:/temp/Job-26.odb,Step-1,Increment      1: Step Time =    1.000,"P-26-1",           996,       28.5158,       138.266,            0.,NA,NA,"",   913.481E+03,   957.458E+03,   957.458E+03
C:/temp/Job-26.odb,Step-1,Increment      1: Step Time =    1.000,"P-26-1",           997,       171.323,       141.247,            0.,NA,NA,"",   1.06807E+06,   1.06335E+06,   1.06335E+06
C:/temp/Job-26.odb,Step-1,Increment      1: Step Time =    1.000,"P-26-1",           998,       139.575,       168.548,            0.,NA,NA,"",   1.15392E+06,   1.13166E+06,   1.13166E+06
C:/temp/Job-26.odb,Step-1,Increment      1: Step Time =    1.000,"P-26-1",           999,       59.4995,       170.796,            0.,NA,NA,"",   1.20795E+06,   1.18891E+06,   1.18891E+06
C:/temp/Job-26.odb,Step-1,Increment      1: Step Time =    1.000,"P-26-1",          1000,       168.296,       60.0296,            0.,NA,NA,"",   1.09240E+06,   1.07557E+06,   1.07557E+06
C:/temp/Job-26.odb,Step-1,Increment      1: Step Time =    1.000,"P-26-1",          1001,       55.5928,       75.1990,            0.,NA,NA,"",   1.01715E+06,   946.952E+03,   946.952E+03
C:/temp/Job-26.odb,Step-1,Increment      1: Step Time =    1.000,"P-26-1",          1002,       154.669,       9.45412,            0.,NA,NA,"",   1.01178E+06,   1.00860E+06,   1.00860E+06
C:/temp/Job-26.odb,Step-1,Increment      1: Step Time =    1.000,"P-26-1",          1003,       190.600,       154.601,            0.,NA,NA,"",   985.110E+03,   1.01154E+06,   1.01154E+06
C:/temp/Job-26.odb,Step-1,Increment      1: Step Time =    1.000,"P-26-1",          1004,       46.6822,       191.133,            0.,NA,NA,"",   1.15636E+06,   1.15365E+06,   1.15365E+06
C:/temp/Job-26.odb,Step-1,Increment      1: Step Time =    1.000,"P-26-1",          1005,       10.2001,       47.0186,            0.,NA,NA,"",   918.945E+03,   1.00818E+06,   1.00818E+06
C:/temp/Job-26.odb,Step-1,Increment      1: Step Time =    1.000,"P-26-1",          1006,       137.797,       109.027,            0.,NA,NA,"",   678.834E+03,   518.944E+03,   518.944E+03
C:/temp/Job-26.odb,Step-1,Increment      1: Step Time =    1.000,"P-26-1",          1007,       82.9845,       46.2651,            0.,NA,NA,"",   1.27041E+06,   1.30228E+06,   1.30228E+06
C:/temp/Job-26.odb,Step-1,Increment      1: Step Time =    1.000,"P-26-1",          1008,       31.8881,       129.506,            0.,NA,NA,"",   835.239E+03,   877.984E+03,   877.984E+03
C:/temp/Job-26.odb,Step-1,Increment      1: Step Time =    1.000,"P-26-1",          1009,       172.747,       69.8545,            0.,NA,NA,"",   1.00944E+06,   1.02251E+06,   1.02251E+06
C:/temp/Job-26.odb,Step-1,Increment      1: Step Time =    1.000,"P-26-1",          1010,       70.2979,       27.9821,            0.,NA,NA,"",   1.17784E+06,   1.17052E+06,   1.17052E+06
C:/temp/Job-26.odb,Step-1,Increment      1: Step Time =    1.000,"P-26-1",          1011,       129.742,       172.699,            0.,NA,NA,"",   1.10924E+06,   1.10557E+06,   1.10557E+06
C:/temp/Job-26.odb,Step-1,Increment      1: Step Time =    1.000,"P-26-1",          1012,       29.5223,       97.1782,            0.,NA,NA,"",   565.604E+03,   639.263E+03,   639.263E+03
C:/temp/Job-26.odb,Step-1,Increment      1: Step Time =    1.000,"P-26-1",          1013,       99.0429,       26.5817,            0.,NA,NA,"",   1.04666E+06,   1.08443E+06,   1.08443E+06
C:/temp/Job-26.odb,Step-1,Increment      1: Step Time =    1.000,"P-26-1",          1014,       23.4532,       89.7016,            0.,NA,NA,"",   613.696E+03,   690.765E+03,   690.765E+03
C:/temp/Job-26.odb,Step-1,Increment      1: Step Time =    1.000,"P-26-1",          1015,       110.116,       26.2391,            0.,NA,NA,"",   1.04690E+06,   1.07858E+06,   1.07858E+06
C:/temp/Job-26.odb,Step-1,Increment      1: Step Time =    1.000,"P-26-1",          1016,       168.406,       99.8603,            0.,NA,NA,"",   774.302E+03,   827.104E+03,   827.104E+03
C:/temp/Job-26.odb,Step-1,Increment      1: Step Time =    1.000,"P-26-1",          1017,       102.336,       170.628,            0.,NA,NA,"",   1.05717E+06,   1.10233E+06,   1.10233E+06
C:/temp/Job-26.odb,Step-1,Increment      1: Step Time =    1.000,"P-26-1",          1018,       174.156,       111.049,            0.,NA,NA,"",   859.740E+03,    915.24E+03,    915.24E+03
C:/temp/Job-26.odb,Step-1,Increment      1: Step Time =    1.000,"P-26-1",          1019,       90.3521,       174.383,            0.,NA,NA,"",   1.06872E+06,   1.09657E+06,   1.09657E+06
C:/temp/Job-26.odb,Step-1,Increment      1: Step Time =    1.000,"P-26-1",          1020,       77.8282,       49.9709,            0.,NA,NA,"",   1.33170E+06,   1.33401E+06,   1.33401E+06
C:/temp/Job-26.odb,Step-1,Increment      1: Step Time =    1.000,"P-26-1",          1021,       106.081,       134.406,            0.,NA,NA,"",   1.63983E+06,   1.79258E+06,   1.79258E+06
C:/temp/Job-26.odb,Step-1,Increment      1: Step Time =    1.000,"P-26-1",          1022,       50.3829,       89.7543,            0.,NA,NA,"",   563.598E+03,   575.114E+03,   575.114E+03
C:/temp/Job-26.odb,Step-1,Increment      1: Step Time =    1.000,"P-26-1",          1023,       66.2089,       140.218,            0.,NA,NA,"",   1.36241E+06,   1.28949E+06,   1.28949E+06
C:/temp/Job-26.odb,Step-1,Increment      1: Step Time =    1.000,"P-26-1",          1024,       90.5248,       43.9493,            0.,NA,NA,"",   1.19172E+06,   1.25932E+06,   1.25932E+06
C:/temp/Job-26.odb,Step-1,Increment      1: Step Time =    1.000,"P-26-1",          1025,       55.6890,       99.0147,            0.,NA,NA,"",   319.749E+03,   337.892E+03,   337.892E+03
C:/temp/Job-26.odb,Step-1,Increment      1: Step Time =    1.000,"P-26-1",          1026,       94.2973,       152.163,            0.,NA,NA,"",   1.20798E+06,   1.29807E+06,   1.29807E+06
C:/temp/Job-26.odb,Step-1,Increment      1: Step Time =    1.000,"P-26-1",          1027,       83.6813,       153.229,            0.,NA,NA,"",   1.27080E+06,   1.30662E+06,   1.30662E+06
C:/temp/Job-26.odb,Step-1,Increment      1: Step Time =    1.000,"P-26-1",          1028,       75.2244,       60.2060,            0.,NA,NA,"",   1.43179E+06,   1.39596E+06,   1.39596E+06
C:/temp/Job-26.odb,Step-1,Increment      1: Step Time =    1.000,"P-26-1",          1029,       99.9019,       38.7644,            0.,NA,NA,"",   1.11163E+06,   1.18243E+06,   1.18243E+06
C:/temp/Job-26.odb,Step-1,Increment      1: Step Time =    1.000,"P-26-1",          1030,       109.428,       133.519,            0.,NA,NA,"",   1.64589E+06,   1.77536E+06,   1.77536E+06
C:/temp/Job-26.odb,Step-1,Increment      1: Step Time =    1.000,"P-26-1",          1031,       154.505,       14.1986,            0.,NA,NA,"",   1.03170E+06,   1.02539E+06,   1.02539E+06
C:/temp/Job-26.odb,Step-1,Increment      1: Step Time =    1.000,"P-26-1",          1032,       14.9195,       49.1807,            0.,NA,NA,"",   933.790E+03,   1.01045E+06,   1.01045E+06
C:/temp/Job-26.odb,Step-1,Increment      1: Step Time =    1.000,"P-26-1",          1033,       185.887,       154.395,            0.,NA,NA,"",   1.00208E+06,   1.02261E+06,   1.02261E+06
C:/temp/Job-26.odb,Step-1,Increment      1: Step Time =    1.000,"P-26-1",          1034,       49.6418,       188.303,            0.,NA,NA,"",   1.15513E+06,   1.15042E+06,   1.15042E+06
C:/temp/Job-26.odb,Step-1,Increment      1: Step Time =    1.000,"P-26-1",          1035,       143.323,       76.0961,            0.,NA,NA,"",   1.20802E+06,   1.06398E+06,   1.06398E+06
C:/temp/Job-26.odb,Step-1,Increment      1: Step Time =    1.000,"P-26-1",          1036,       132.097,       143.122,            0.,NA,NA,"",   1.41182E+06,   1.33660E+06,   1.33660E+06
C:/temp/Job-26.odb,Step-1,Increment      1: Step Time =    1.000,"P-26-1",          1037,       125.923,       25.3554,            0.,NA,NA,"",   1.08558E+06,   1.08835E+06,   1.08835E+06
C:/temp/Job-26.odb,Step-1,Increment      1: Step Time =    1.000,"P-26-1",          1038,       72.4560,       175.565,            0.,NA,NA,"",   1.14596E+06,   1.14223E+06,   1.14223E+06
C:/temp/Job-26.odb,Step-1,Increment      1: Step Time =    1.000,"P-26-1",          1039,       24.8885,       75.2081,            0.,NA,NA,"",   743.314E+03,   809.429E+03,   809.429E+03
C:/temp/Job-26.odb,Step-1,Increment      1: Step Time =    1.000,"P-26-1",          1040,       174.770,       126.371,            0.,NA,NA,"",   975.620E+03,   1.00315E+06,   1.00315E+06
C:/temp/Job-26.odb,Step-1,Increment      1: Step Time =    1.000,"P-26-1",          1041,       61.2705,       133.335,            0.,NA,NA,"",   1.25563E+06,   1.16377E+06,   1.16377E+06
C:/temp/Job-26.odb,Step-1,Increment      1: Step Time =    1.000,"P-26-1",          1042,       107.383,       144.483,            0.,NA,NA,"",   1.30966E+06,   1.42224E+06,   1.42224E+06
C:/temp/Job-26.odb,Step-1,Increment      1: Step Time =    1.000,"P-26-1",          1043,       54.3675,       27.0612,            0.,NA,NA,"",   1.20229E+06,   1.18514E+06,   1.18514E+06
C:/temp/Job-26.odb,Step-1,Increment      1: Step Time =    1.000,"P-26-1",          1044,       145.580,       28.6402,            0.,NA,NA,"",   1.12496E+06,   1.10317E+06,   1.10317E+06
C:/temp/Job-26.odb,Step-1,Increment      1: Step Time =    1.000,"P-26-1",          1045,       30.8840,       146.030,            0.,NA,NA,"",   1.00554E+06,   1.03578E+06,   1.03578E+06
C:/temp/Job-26.odb,Step-1,Increment      1: Step Time =    1.000,"P-26-1",          1046,       144.687,       172.771,            0.,NA,NA,"",   1.11645E+06,   1.09658E+06,   1.09658E+06
C:/temp/Job-26.odb,Step-1,Increment      1: Step Time =    1.000,"P-26-1",          1047,       171.751,       145.428,            0.,NA,NA,"",   1.07351E+06,   1.06755E+06,   1.06755E+06
C:/temp/Job-26.odb,Step-1,Increment      1: Step Time =    1.000,"P-26-1",          1048,       172.814,       55.1147,            0.,NA,NA,"",   1.06900E+06,   1.06566E+06,   1.06566E+06
C:/temp/Job-26.odb,Step-1,Increment      1: Step Time =    1.000,"P-26-1",          1049,       53.5241,       175.295,            0.,NA,NA,"",   1.19374E+06,   1.17878E+06,   1.17878E+06
C:/temp/Job-26.odb,Step-1,Increment      1: Step Time =    1.000,"P-26-1",          1050,       102.586,       44.0659,            0.,NA,NA,"",   1.14763E+06,   1.23570E+06,   1.23570E+06
C:/temp/Job-26.odb,Step-1,Increment      1: Step Time =    1.000,"P-26-1",          1051,       45.0843,       94.1453,            0.,NA,NA,"",   495.274E+03,   543.395E+03,   543.395E+03
C:/temp/Job-26.odb,Step-1,Increment      1: Step Time =    1.000,"P-26-1",          1052,       72.0893,       146.381,            0.,NA,NA,"",   1.36635E+06,   1.33194E+06,   1.33194E+06
C:/temp/Job-26.odb,Step-1,Increment      1: Step Time =    1.000,"P-26-1",          1053,       129.795,       62.3731,            0.,NA,NA,"",   1.47182E+06,   1.37683E+06,   1.37683E+06
C:/temp/Job-26.odb,Step-1,Increment      1: Step Time =    1.000,"P-26-1",          1054,       50.4863,       98.7511,            0.,NA,NA,"",   390.667E+03,   432.012E+03,   432.012E+03
C:/temp/Job-26.odb,Step-1,Increment      1: Step Time =    1.000,"P-26-1",          1055,       89.9659,       154.601,            0.,NA,NA,"",   1.21186E+06,   1.27843E+06,   1.27843E+06
C:/temp/Job-26.odb,Step-1,Increment      1: Step Time =    1.000,"P-26-1",          1056,       98.6177,       149.562,            0.,NA,NA,"",   1.21879E+06,   1.32911E+06,   1.32911E+06
C:/temp/Job-26.odb,Step-1,Increment      1: Step Time =    1.000,"P-26-1",          1057,       81.6225,       149.785,            0.,NA,NA,"",   1.32114E+06,   1.34459E+06,   1.34459E+06
C:/temp/Job-26.odb,Step-1,Increment      1: Step Time =    1.000,"P-26-1",          1058,       69.7371,       60.8562,            0.,NA,NA,"",   1.39623E+06,   1.32730E+06,   1.32730E+06
C:/temp/Job-26.odb,Step-1,Increment      1: Step Time =    1.000,"P-26-1",          1059,       143.559,       106.831,            0.,NA,NA,"",   593.322E+03,   535.181E+03,   535.181E+03
C:/temp/Job-26.odb,Step-1,Increment      1: Step Time =    1.000,"P-26-1",          1060,       110.243,       31.4447,            0.,NA,NA,"",   1.07887E+06,   1.12071E+06,   1.12071E+06
C:/temp/Job-26.odb,Step-1,Increment      1: Step Time =    1.000,"P-26-1",          1061,       27.9440,       89.6807,            0.,NA,NA,"",   606.384E+03,   679.252E+03,   679.252E+03
C:/temp/Job-26.odb,Step-1,Increment      1: Step Time =    1.000,"P-26-1",          1062,       169.351,       111.642,            0.,NA,NA,"",   850.338E+03,   890.926E+03,   890.926E+03
C:/temp/Job-26.odb,Step-1,Increment      1: Step Time =    1.000,"P-26-1",          1063,       89.7794,       169.559,            0.,NA,NA,"",   1.10047E+06,   1.13633E+06,   1.13633E+06
C:/temp/Job-26.odb,Step-1,Increment      1: Step Time =    1.000,"P-26-1",          1064,       119.340,       150.855,            0.,NA,NA,"",   1.28641E+06,   1.31379E+06,   1.31379E+06
C:/temp/Job-26.odb,Step-1,Increment      1: Step Time =    1.000,"P-26-1",          1065,       163.523,       99.6756,            0.,NA,NA,"",   727.070E+03,   770.332E+03,   770.332E+03
C:/temp/Job-26.odb,Step-1,Increment      1: Step Time =    1.000,"P-26-1",          1066,       100.355,       165.966,            0.,NA,NA,"",   1.08303E+06,   1.14080E+06,   1.14080E+06
C:/temp/Job-26.odb,Step-1,Increment      1: Step Time =    1.000,"P-26-1",          1067,       35.4324,       100.183,            0.,NA,NA,"",   531.162E+03,   598.869E+03,   598.869E+03
C:/temp/Job-26.odb,Step-1,Increment      1: Step Time =    1.000,"P-26-1",          1068,       100.333,       32.6005,            0.,NA,NA,"",   1.07606E+06,   1.12916E+06,   1.12916E+06
C:/temp/Job-26.odb,Step-1,Increment      1: Step Time =    1.000,"P-26-1",          1069,       77.4467,       44.9352,            0.,NA,NA,"",   1.28417E+06,   1.28828E+06,   1.28828E+06
C:/temp/Job-26.odb,Step-1,Increment      1: Step Time =    1.000,"P-26-1",          1070,       166.184,       89.0421,            0.,NA,NA,"",   826.164E+03,   859.172E+03,   859.172E+03
C:/temp/Job-26.odb,Step-1,Increment      1: Step Time =    1.000,"P-26-1",          1071,       111.929,       166.950,            0.,NA,NA,"",   1.09493E+06,   1.13593E+06,   1.13593E+06
C:/temp/Job-26.odb,Step-1,Increment      1: Step Time =    1.000,"P-26-1",          1072,       90.4058,       32.3950,            0.,NA,NA,"",   1.10972E+06,   1.15104E+06,   1.15104E+06
C:/temp/Job-26.odb,Step-1,Increment      1: Step Time =    1.000,"P-26-1",          1073,       121.099,       66.3226,            0.,NA,NA,"",   1.55186E+06,   1.52940E+06,   1.52940E+06
C:/temp/Job-26.odb,Step-1,Increment      1: Step Time =    1.000,"P-26-1",          1074,       60.7909,       67.5038,            0.,NA,NA,"",   1.23386E+06,   1.14212E+06,   1.14212E+06
C:/temp/Job-26.odb,Step-1,Increment      1: Step Time =    1.000,"P-26-1",          1075,       80.1315,       163.338,            0.,NA,NA,"",   1.20270E+06,   1.21769E+06,   1.21769E+06
C:/temp/Job-26.odb,Step-1,Increment      1: Step Time =    1.000,"P-26-1",          1076,       121.448,       162.378,            0.,NA,NA,"",   1.17311E+06,   1.18942E+06,   1.18942E+06
C:/temp/Job-26.odb,Step-1,Increment      1: Step Time =    1.000,"P-26-1",          1077,       167.969,       78.8764,            0.,NA,NA,"",   949.069E+03,   960.854E+03,   960.854E+03
C:/temp/Job-26.odb,Step-1,Increment      1: Step Time =    1.000,"P-26-1",          1078,       32.8156,       79.7525,            0.,NA,NA,"",   716.504E+03,   771.321E+03,   771.321E+03
C:/temp/Job-26.odb,Step-1,Increment      1: Step Time =    1.000,"P-26-1",          1079,       33.1819,       120.003,            0.,NA,NA,"",   715.074E+03,   767.268E+03,   767.268E+03
C:/temp/Job-26.odb,Step-1,Increment      1: Step Time =    1.000,"P-26-1",          1080,       79.6027,       35.1157,            0.,NA,NA,"",   1.18908E+06,   1.20292E+06,   1.20292E+06
C:/temp/Job-26.odb,Step-1,Increment      1: Step Time =    1.000,"P-26-1",          1081,       64.8996,       81.1252,            0.,NA,NA,"",   1.00081E+06,   850.880E+03,   850.880E+03
C:/temp/Job-26.odb,Step-1,Increment      1: Step Time =    1.000,"P-26-1",          1082,       57.7520,       119.447,            0.,NA,NA,"",   907.897E+03,   826.351E+03,   826.351E+03
C:/temp/Job-26.odb,Step-1,Increment      1: Step Time =    1.000,"P-26-1",          1083,       131.516,       147.936,            0.,NA,NA,"",   1.36165E+06,   1.30970E+06,   1.30970E+06
C:/temp/Job-26.odb,Step-1,Increment      1: Step Time =    1.000,"P-26-1",          1084,       130.253,       167.903,            0.,NA,NA,"",   1.15099E+06,   1.14369E+06,   1.14369E+06
C:/temp/Job-26.odb,Step-1,Increment      1: Step Time =    1.000,"P-26-1",          1085,       69.7448,       32.9309,            0.,NA,NA,"",   1.21367E+06,   1.20240E+06,   1.20240E+06
C:/temp/Job-26.odb,Step-1,Increment      1: Step Time =    1.000,"P-26-1",          1086,       167.502,       69.4002,            0.,NA,NA,"",   1.04549E+06,   1.03510E+06,   1.03510E+06
C:/temp/Job-26.odb,Step-1,Increment      1: Step Time =    1.000,"P-26-1",          1087,       88.8280,       36.2247,            0.,NA,NA,"",   1.14182E+06,   1.18553E+06,   1.18553E+06
C:/temp/Job-26.odb,Step-1,Increment      1: Step Time =    1.000,"P-26-1",          1088,       146.488,       88.7009,            0.,NA,NA,"",   771.038E+03,   700.046E+03,   700.046E+03
C:/temp/Job-26.odb,Step-1,Increment      1: Step Time =    1.000,"P-26-1",          1089,       144.252,       92.7673,            0.,NA,NA,"",   596.641E+03,   539.830E+03,   539.830E+03
C:/temp/Job-26.odb,Step-1,Increment      1: Step Time =    1.000,"P-26-1",          1090,       150.674,       90.9019,            0.,NA,NA,"",   699.030E+03,   679.041E+03,   679.041E+03
C:/temp/Job-26.odb,Step-1,Increment      1: Step Time =    1.000,"P-26-1",          1091,       140.274,       73.3733,            0.,NA,NA,"",   1.30333E+06,   1.14458E+06,   1.14458E+06
C:/temp/Job-26.odb,Step-1,Increment      1: Step Time =    1.000,"P-26-1",          1092,       149.753,       23.6420,            0.,NA,NA,"",   1.08664E+06,   1.07074E+06,   1.07074E+06
C:/temp/Job-26.odb,Step-1,Increment      1: Step Time =    1.000,"P-26-1",          1093,       23.9160,       151.634,            0.,NA,NA,"",   1.00188E+06,   1.05158E+06,   1.05158E+06
C:/temp/Job-26.odb,Step-1,Increment      1: Step Time =    1.000,"P-26-1",          1094,       176.816,       48.3338,            0.,NA,NA,"",   1.04862E+06,   1.05250E+06,   1.05250E+06
C:/temp/Job-26.odb,Step-1,Increment      1: Step Time =    1.000,"P-26-1",          1095,       49.2051,       175.898,            0.,NA,NA,"",   1.19678E+06,   1.18389E+06,   1.18389E+06
C:/temp/Job-26.odb,Step-1,Increment      1: Step Time =    1.000,"P-26-1",          1096,       48.8531,       24.5806,            0.,NA,NA,"",   1.19783E+06,   1.18503E+06,   1.18503E+06
C:/temp/Job-26.odb,Step-1,Increment      1: Step Time =    1.000,"P-26-1",          1097,       27.8388,       47.7773,            0.,NA,NA,"",   1.03113E+06,   1.06865E+06,   1.06865E+06
C:/temp/Job-26.odb,Step-1,Increment      1: Step Time =    1.000,"P-26-1",          1098,       151.580,       176.664,            0.,NA,NA,"",   1.08307E+06,   1.06777E+06,   1.06777E+06
C:/temp/Job-26.odb,Step-1,Increment      1: Step Time =    1.000,"P-26-1",          1099,       176.531,       149.561,            0.,NA,NA,"",   1.04687E+06,   1.05223E+06,   1.05223E+06
C:/temp/Job-26.odb,Step-1,Increment      1: Step Time =    1.000,"P-26-1",          1100,       147.815,       108.644,            0.,NA,NA,"",   688.012E+03,   651.346E+03,   651.346E+03
C:/temp/Job-26.odb,Step-1,Increment      1: Step Time =    1.000,"P-26-1",          1101,       144.934,       102.768,            0.,NA,NA,"",   480.705E+03,   464.070E+03,   464.070E+03
C:/temp/Job-26.odb,Step-1,Increment      1: Step Time =    1.000,"P-26-1",          1102,       96.5969,       32.8161,            0.,NA,NA,"",   1.08332E+06,   1.13597E+06,   1.13597E+06
C:/temp/Job-26.odb,Step-1,Increment      1: Step Time =    1.000,"P-26-1",          1103,       73.5927,       46.3115,            0.,NA,NA,"",   1.30570E+06,   1.29310E+06,   1.29310E+06
C:/temp/Job-26.odb,Step-1,Increment      1: Step Time =    1.000,"P-26-1",          1104,       18.9470,       80.1757,            0.,NA,NA,"",   682.862E+03,   760.878E+03,   760.878E+03
C:/temp/Job-26.odb,Step-1,Increment      1: Step Time =    1.000,"P-26-1",          1105,       108.744,       47.0752,            0.,NA,NA,"",   1.19529E+06,   1.27771E+06,   1.27771E+06
C:/temp/Job-26.odb,Step-1,Increment      1: Step Time =    1.000,"P-26-1",          1106,       71.8321,       79.2110,            0.,NA,NA,"",   1.14073E+06,   985.186E+03,   985.186E+03
C:/temp/Job-26.odb,Step-1,Increment      1: Step Time =    1.000,"P-26-1",          1107,       132.934,       135.123,            0.,NA,NA,"",   1.45276E+06,   1.33378E+06,   1.33378E+06
C:/temp/Job-26.odb,Step-1,Increment      1: Step Time =    1.000,"P-26-1",          1108,       131.526,       29.8604,            0.,NA,NA,"",   1.13242E+06,   1.12384E+06,   1.12384E+06
C:/temp/Job-26.odb,Step-1,Increment      1: Step Time =    1.000,"P-26-1",          1109,       66.8144,       171.210,            0.,NA,NA,"",   1.19381E+06,   1.18061E+06,   1.18061E+06
C:/temp/Job-26.odb,Step-1,Increment      1: Step Time =    1.000,"P-26-1",          1110,       29.8507,       64.1756,            0.,NA,NA,"",   893.407E+03,    935.53E+03,    935.53E+03
C:/temp/Job-26.odb,Step-1,Increment      1: Step Time =    1.000,"P-26-1",          1111,       169.821,       131.719,            0.,NA,NA,"",   1.03895E+06,   1.03683E+06,   1.03683E+06
C:/temp/Job-26.odb,Step-1,Increment      1: Step Time =    1.000,"P-26-1",          1112,       57.1499,       136.798,            0.,NA,NA,"",   1.22190E+06,   1.15233E+06,   1.15233E+06
C:/temp/Job-26.odb,Step-1,Increment      1: Step Time =    1.000,"P-26-1",          1113,       45.0647,       89.3570,            0.,NA,NA,"",   582.064E+03,   616.682E+03,   616.682E+03
C:/temp/Job-26.odb,Step-1,Increment      1: Step Time =    1.000,"P-26-1",          1114,       67.6510,       144.150,            0.,NA,NA,"",   1.36172E+06,   1.30586E+06,   1.30586E+06
C:/temp/Job-26.odb,Step-1,Increment      1: Step Time =    1.000,"P-26-1",          1115,       127.007,       57.7105,            0.,NA,NA,"",   1.43463E+06,   1.38582E+06,   1.38582E+06
C:/temp/Job-26.odb,Step-1,Increment      1: Step Time =    1.000,"P-26-1",          1116,       78.5757,       143.729,            0.,NA,NA,"",   1.40244E+06,   1.39791E+06,   1.39791E+06
C:/temp/Job-26.odb,Step-1,Increment      1: Step Time =    1.000,"P-26-1",          1117,       79.5870,       155.613,            0.,NA,NA,"",   1.27023E+06,   1.28437E+06,   1.28437E+06
C:/temp/Job-26.odb,Step-1,Increment      1: Step Time =    1.000,"P-26-1",          1118,       72.0702,       64.6873,            0.,NA,NA,"",   1.43310E+06,   1.35596E+06,   1.35596E+06
C:/temp/Job-26.odb,Step-1,Increment      1: Step Time =    1.000,"P-26-1",          1119,       125.756,       152.407,            0.,NA,NA,"",   1.29877E+06,   1.29121E+06,   1.29121E+06
C:/temp/Job-26.odb,Step-1,Increment      1: Step Time =    1.000,"P-26-1",          1120,       121.593,       57.1248,            0.,NA,NA,"",   1.41109E+06,   1.41399E+06,   1.41399E+06
C:/temp/Job-26.odb,Step-1,Increment      1: Step Time =    1.000,"P-26-1",          1121,       58.4057,       71.4228,            0.,NA,NA,"",   1.13668E+06,   1.04960E+06,   1.04960E+06
C:/temp/Job-26.odb,Step-1,Increment      1: Step Time =    1.000,"P-26-1",          1122,       164.736,       116.566,            0.,NA,NA,"",   902.101E+03,   913.121E+03,   913.121E+03
C:/temp/Job-26.odb,Step-1,Increment      1: Step Time =    1.000,"P-26-1",          1123,       83.3698,       162.288,            0.,NA,NA,"",   1.19133E+06,   1.21825E+06,   1.21825E+06
C:/temp/Job-26.odb,Step-1,Increment      1: Step Time =    1.000,"P-26-1",          1124,       114.998,       36.0217,            0.,NA,NA,"",   1.13024E+06,   1.16821E+06,   1.16821E+06
C:/temp/Job-26.odb,Step-1,Increment      1: Step Time =    1.000,"P-26-1",          1125,       35.8878,       85.9718,            0.,NA,NA,"",   642.048E+03,   698.554E+03,   698.554E+03
C:/temp/Job-26.odb,Step-1,Increment      1: Step Time =    1.000,"P-26-1",          1126,       130.847,       152.949,            0.,NA,NA,"",   1.30446E+06,   1.27153E+06,   1.27153E+06
C:/temp/Job-26.odb,Step-1,Increment      1: Step Time =    1.000,"P-26-1",          1127,       45.3208,       98.6572,            0.,NA,NA,"",   451.117E+03,   504.259E+03,   504.259E+03
C:/temp/Job-26.odb,Step-1,Increment      1: Step Time =    1.000,"P-26-1",          1128,       96.4488,       156.554,            0.,NA,NA,"",   1.15390E+06,   1.23672E+06,   1.23672E+06
C:/temp/Job-26.odb,Step-1,Increment      1: Step Time =    1.000,"P-26-1",          1129,       54.7727,       123.296,            0.,NA,NA,"",   960.347E+03,   898.272E+03,   898.272E+03
C:/temp/Job-26.odb,Step-1,Increment      1: Step Time =    1.000,"P-26-1",          1130,       163.026,       94.7908,            0.,NA,NA,"",   739.492E+03,   777.628E+03,   777.628E+03
C:/temp/Job-26.odb,Step-1,Increment      1: Step Time =    1.000,"P-26-1",          1131,       105.435,       163.647,            0.,NA,NA,"",   1.09755E+06,   1.15853E+06,   1.15853E+06
C:/temp/Job-26.odb,Step-1,Increment      1: Step Time =    1.000,"P-26-1",          1132,       36.1995,       105.428,            0.,NA,NA,"",   544.654E+03,   610.262E+03,   610.262E+03
C:/temp/Job-26.odb,Step-1,Increment      1: Step Time =    1.000,"P-26-1",          1133,       87.4819,       160.724,            0.,NA,NA,"",   1.17579E+06,   1.22067E+06,   1.22067E+06
C:/temp/Job-26.odb,Step-1,Increment      1: Step Time =    1.000,"P-26-1",          1134,       116.733,       161.934,            0.,NA,NA,"",   1.15344E+06,   1.18776E+06,   1.18776E+06
C:/temp/Job-26.odb,Step-1,Increment      1: Step Time =    1.000,"P-26-1",          1135,       164.576,       84.2625,            0.,NA,NA,"",   888.427E+03,   901.960E+03,   901.960E+03
C:/temp/Job-26.odb,Step-1,Increment      1: Step Time =    1.000,"P-26-1",          1136,       84.6470,       36.6248,            0.,NA,NA,"",   1.17119E+06,   1.20268E+06,   1.20268E+06
C:/temp/Job-26.odb,Step-1,Increment      1: Step Time =    1.000,"P-26-1",          1137,       70.0815,       55.3464,            0.,NA,NA,"",   1.37390E+06,   1.32673E+06,   1.32673E+06
C:/temp/Job-26.odb,Step-1,Increment      1: Step Time =    1.000,"P-26-1",          1138,       35.1505,       126.374,            0.,NA,NA,"",   810.340E+03,   847.654E+03,   847.654E+03
C:/temp/Job-26.odb,Step-1,Increment      1: Step Time =    1.000,"P-26-1",          1139,       167.642,       74.2389,            0.,NA,NA,"",   1.00081E+06,   999.959E+03,   999.959E+03
C:/temp/Job-26.odb,Step-1,Increment      1: Step Time =    1.000,"P-26-1",          1140,       126.015,       162.689,            0.,NA,NA,"",   1.18617E+06,   1.18693E+06,   1.18693E+06
C:/temp/Job-26.odb,Step-1,Increment      1: Step Time =    1.000,"P-26-1",          1141,       74.1372,       38.5963,            0.,NA,NA,"",   1.24305E+06,   1.23848E+06,   1.23848E+06
C:/temp/Job-26.odb,Step-1,Increment      1: Step Time =    1.000,"P-26-1",          1142,       162.888,       104.140,            0.,NA,NA,"",   739.990E+03,   778.699E+03,   778.699E+03
C:/temp/Job-26.odb,Step-1,Increment      1: Step Time =    1.000,"P-26-1",          1143,       93.6367,       163.311,            0.,NA,NA,"",   1.11936E+06,   1.17751E+06,   1.17751E+06
C:/temp/Job-26.odb,Step-1,Increment      1: Step Time =    1.000,"P-26-1",          1144,       34.3486,       95.5950,            0.,NA,NA,"",   549.895E+03,   617.731E+03,   617.731E+03
C:/temp/Job-26.odb,Step-1,Increment      1: Step Time =    1.000,"P-26-1",          1145,       105.636,       37.3324,            0.,NA,NA,"",   1.10412E+06,   1.16705E+06,   1.16705E+06
C:/temp/Job-26.odb,Step-1,Increment      1: Step Time =    1.000,"P-26-1",          1146,       36.6501,       136.558,            0.,NA,NA,"",   955.979E+03,   974.171E+03,   974.171E+03
C:/temp/Job-26.odb,Step-1,Increment      1: Step Time =    1.000,"P-26-1",          1147,       162.508,       64.2661,            0.,NA,NA,"",   1.12482E+06,   1.08608E+06,   1.08608E+06
C:/temp/Job-26.odb,Step-1,Increment      1: Step Time =    1.000,"P-26-1",          1148,       135.029,       163.340,            0.,NA,NA,"",   1.19968E+06,   1.17663E+06,   1.17663E+06
C:/temp/Job-26.odb,Step-1,Increment      1: Step Time =    1.000,"P-26-1",          1149,       64.5681,       37.5614,            0.,NA,NA,"",   1.25076E+06,   1.22680E+06,   1.22680E+06
C:/temp/Job-26.odb,Step-1,Increment      1: Step Time =    1.000,"P-26-1",          1150,       36.0332,       78.6161,            0.,NA,NA,"",   743.930E+03,   786.916E+03,   786.916E+03
C:/temp/Job-26.odb,Step-1,Increment      1: Step Time =    1.000,"P-26-1",          1151,       164.513,       123.973,            0.,NA,NA,"",   996.310E+03,   987.065E+03,   987.065E+03
C:/temp/Job-26.odb,Step-1,Increment      1: Step Time =    1.000,"P-26-1",          1152,       75.0503,       164.719,            0.,NA,NA,"",   1.21541E+06,   1.21481E+06,   1.21481E+06
C:/temp/Job-26.odb,Step-1,Increment      1: Step Time =    1.000,"P-26-1",          1153,       56.9548,       65.1044,            0.,NA,NA,"",   1.19787E+06,   1.12618E+06,   1.12618E+06
C:/temp/Job-26.odb,Step-1,Increment      1: Step Time =    1.000,"P-26-1",          1154,       149.563,       81.2453,            0.,NA,NA,"",   1.00130E+06,   914.307E+03,   914.307E+03
C:/temp/Job-26.odb,Step-1,Increment      1: Step Time =    1.000,"P-26-1",          1155,       64.5804,       58.9331,            0.,NA,NA,"",   1.33719E+06,   1.26560E+06,   1.26560E+06
C:/temp/Job-26.odb,Step-1,Increment      1: Step Time =    1.000,"P-26-1",          1156,       70.2034,       50.6837,            0.,NA,NA,"",   1.34276E+06,   1.30891E+06,   1.30891E+06
C:/temp/Job-26.odb,Step-1,Increment      1: Step Time =    1.000,"P-26-1",          1157,       40.1930,       99.1549,            0.,NA,NA,"",   497.634E+03,   559.085E+03,   559.085E+03
C:/temp/Job-26.odb,Step-1,Increment      1: Step Time =    1.000,"P-26-1",          1158,       77.4831,       152.126,            0.,NA,NA,"",   1.31169E+06,   1.31286E+06,   1.31286E+06
C:/temp/Job-26.odb,Step-1,Increment      1: Step Time =    1.000,"P-26-1",          1159,       77.9637,       161.242,            0.,NA,NA,"",   1.22905E+06,   1.23727E+06,   1.23727E+06
C:/temp/Job-26.odb,Step-1,Increment      1: Step Time =    1.000,"P-26-1",          1160,       100.926,       154.137,            0.,NA,NA,"",   1.16184E+06,   1.25727E+06,   1.25727E+06
C:/temp/Job-26.odb,Step-1,Increment      1: Step Time =    1.000,"P-26-1",          1161,       154.066,       86.3755,            0.,NA,NA,"",   839.194E+03,   810.478E+03,   810.478E+03
C:/temp/Job-26.odb,Step-1,Increment      1: Step Time =    1.000,"P-26-1",          1162,       154.372,       18.9376,            0.,NA,NA,"",   1.05488E+06,   1.04458E+06,   1.04458E+06
C:/temp/Job-26.odb,Step-1,Increment      1: Step Time =    1.000,"P-26-1",          1163,       21.0994,       154.379,            0.,NA,NA,"",   1.00236E+06,   1.06019E+06,   1.06019E+06
C:/temp/Job-26.odb,Step-1,Increment      1: Step Time =    1.000,"P-26-1",          1164,       27.4807,       149.178,            0.,NA,NA,"",   1.00497E+06,   1.04469E+06,   1.04469E+06
C:/temp/Job-26.odb,Step-1,Increment      1: Step Time =    1.000,"P-26-1",          1165,       49.8850,       179.736,            0.,NA,NA,"",   1.18368E+06,   1.17310E+06,   1.17310E+06
C:/temp/Job-26.odb,Step-1,Increment      1: Step Time =    1.000,"P-26-1",          1166,       178.958,       45.6734,            0.,NA,NA,"",   1.03779E+06,   1.04471E+06,   1.04471E+06
C:/temp/Job-26.odb,Step-1,Increment      1: Step Time =    1.000,"P-26-1",          1167,       171.839,       50.7188,            0.,NA,NA,"",   1.07849E+06,   1.07083E+06,   1.07083E+06
C:/temp/Job-26.odb,Step-1,Increment      1: Step Time =    1.000,"P-26-1",          1168,       49.9502,       28.1676,            0.,NA,NA,"",   1.20534E+06,   1.18968E+06,   1.18968E+06
C:/temp/Job-26.odb,Step-1,Increment      1: Step Time =    1.000,"P-26-1",          1169,       22.4577,       43.5767,            0.,NA,NA,"",   1.02839E+06,   1.08100E+06,   1.08100E+06
C:/temp/Job-26.odb,Step-1,Increment      1: Step Time =    1.000,"P-26-1",          1170,       46.6132,       21.6107,            0.,NA,NA,"",   1.19400E+06,   1.18410E+06,   1.18410E+06
C:/temp/Job-26.odb,Step-1,Increment      1: Step Time =    1.000,"P-26-1",          1171,       149.098,       171.657,            0.,NA,NA,"",   1.11747E+06,   1.09567E+06,   1.09567E+06
C:/temp/Job-26.odb,Step-1,Increment      1: Step Time =    1.000,"P-26-1",          1172,       181.167,       154.202,            0.,NA,NA,"",   1.02410E+06,   1.03638E+06,   1.03638E+06
C:/temp/Job-26.odb,Step-1,Increment      1: Step Time =    1.000,"P-26-1",          1173,       154.282,       178.819,            0.,NA,NA,"",   1.06776E+06,   1.05521E+06,   1.05521E+06
C:/temp/Job-26.odb,Step-1,Increment      1: Step Time =    1.000,"P-26-1",          1174,       140.629,       100.776,            0.,NA,NA,"",   380.299E+03,   328.204E+03,   328.204E+03
C:/temp/Job-26.odb,Step-1,Increment      1: Step Time =    1.000,"P-26-1",          1175,       128.432,       134.080,            0.,NA,NA,"",   1.49644E+06,   1.39010E+06,   1.39010E+06
C:/temp/Job-26.odb,Step-1,Increment      1: Step Time =    1.000,"P-26-1",          1176,       88.8334,       164.993,            0.,NA,NA,"",   1.13562E+06,   1.17765E+06,   1.17765E+06
C:/temp/Job-26.odb,Step-1,Increment      1: Step Time =    1.000,"P-26-1",          1177,       53.0132,       133.708,            0.,NA,NA,"",   1.12614E+06,   1.07040E+06,   1.07040E+06
C:/temp/Job-26.odb,Step-1,Increment      1: Step Time =    1.000,"P-26-1",          1178,       132.443,       55.9135,            0.,NA,NA,"",   1.39874E+06,   1.32669E+06,   1.32669E+06
C:/temp/Job-26.odb,Step-1,Increment      1: Step Time =    1.000,"P-26-1",          1179,       83.2775,       143.840,            0.,NA,NA,"",   1.38909E+06,   1.42366E+06,   1.42366E+06
C:/temp/Job-26.odb,Step-1,Increment      1: Step Time =    1.000,"P-26-1",          1180,       121.194,       154.439,            0.,NA,NA,"",   1.25063E+06,   1.26975E+06,   1.26975E+06
C:/temp/Job-26.odb,Step-1,Increment      1: Step Time =    1.000,"P-26-1",          1181,       164.263,       120.640,            0.,NA,NA,"",   957.568E+03,   955.380E+03,   955.380E+03
C:/temp/Job-26.odb,Step-1,Increment      1: Step Time =    1.000,"P-26-1",          1182,       110.467,       36.3216,            0.,NA,NA,"",   1.11171E+06,   1.16293E+06,   1.16293E+06
C:/temp/Job-26.odb,Step-1,Increment      1: Step Time =    1.000,"P-26-1",          1183,       32.3071,       86.3902,            0.,NA,NA,"",   639.633E+03,   702.561E+03,   702.561E+03
C:/temp/Job-26.odb,Step-1,Increment      1: Step Time =    1.000,"P-26-1",          1184,       122.762,       39.5512,            0.,NA,NA,"",   1.19685E+06,   1.20755E+06,   1.20755E+06
C:/temp/Job-26.odb,Step-1,Increment      1: Step Time =    1.000,"P-26-1",          1185,       36.4206,       82.7962,            0.,NA,NA,"",   683.836E+03,   733.489E+03,   733.489E+03
C:/temp/Job-26.odb,Step-1,Increment      1: Step Time =    1.000,"P-26-1",          1186,       45.5831,       102.676,            0.,NA,NA,"",   454.380E+03,   506.142E+03,   506.142E+03
C:/temp/Job-26.odb,Step-1,Increment      1: Step Time =    1.000,"P-26-1",          1187,       110.993,       161.358,            0.,NA,NA,"",   1.13237E+06,   1.18689E+06,   1.18689E+06
C:/temp/Job-26.odb,Step-1,Increment      1: Step Time =    1.000,"P-26-1",          1188,       161.492,       89.9648,            0.,NA,NA,"",   787.981E+03,   808.917E+03,   808.917E+03
C:/temp/Job-26.odb,Step-1,Increment      1: Step Time =    1.000,"P-26-1",          1189,       39.9073,       109.630,            0.,NA,NA,"",   568.537E+03,   622.294E+03,   622.294E+03
C:/temp/Job-26.odb,Step-1,Increment      1: Step Time =    1.000,"P-26-1",          1190,       121.844,       157.994,            0.,NA,NA,"",   1.21571E+06,   1.23174E+06,   1.23174E+06
C:/temp/Job-26.odb,Step-1,Increment      1: Step Time =    1.000,"P-26-1",          1191,       163.621,       79.4603,            0.,NA,NA,"",   953.912E+03,   948.986E+03,   948.986E+03
C:/temp/Job-26.odb,Step-1,Increment      1: Step Time =    1.000,"P-26-1",          1192,       37.8784,       122.892,            0.,NA,NA,"",   779.277E+03,   811.223E+03,   811.223E+03
C:/temp/Job-26.odb,Step-1,Increment      1: Step Time =    1.000,"P-26-1",          1193,       98.4613,       161.208,            0.,NA,NA,"",   1.11349E+06,   1.18441E+06,   1.18441E+06
C:/temp/Job-26.odb,Step-1,Increment      1: Step Time =    1.000,"P-26-1",          1194,       159.232,       99.4103,            0.,NA,NA,"",   677.317E+03,   712.847E+03,   712.847E+03
C:/temp/Job-26.odb,Step-1,Increment      1: Step Time =    1.000,"P-26-1",          1195,       34.1516,       141.738,            0.,NA,NA,"",   992.334E+03,   1.01426E+06,   1.01426E+06
C:/temp/Job-26.odb,Step-1,Increment      1: Step Time =    1.000,"P-26-1",          1196,       42.0086,       131.782,            0.,NA,NA,"",   956.314E+03,   956.366E+03,   956.366E+03
C:/temp/Job-26.odb,Step-1,Increment      1: Step Time =    1.000,"P-26-1",          1197,       161.572,       69.2384,            0.,NA,NA,"",   1.09722E+06,   1.05722E+06,   1.05722E+06
C:/temp/Job-26.odb,Step-1,Increment      1: Step Time =    1.000,"P-26-1",          1198,       162.987,       59.7382,            0.,NA,NA,"",   1.13580E+06,   1.09935E+06,   1.09935E+06
C:/temp/Job-26.odb,Step-1,Increment      1: Step Time =    1.000,"P-26-1",          1199,       139.462,       163.416,            0.,NA,NA,"",   1.19861E+06,   1.16781E+06,   1.16781E+06
C:/temp/Job-26.odb,Step-1,Increment      1: Step Time =    1.000,"P-26-1",          1200,       130.509,       163.021,            0.,NA,NA,"",   1.19524E+06,   1.18304E+06,   1.18304E+06
C:/temp/Job-26.odb,Step-1,Increment      1: Step Time =    1.000,"P-26-1",          1201,       59.8797,       37.1085,            0.,NA,NA,"",   1.24692E+06,   1.21914E+06,   1.21914E+06
C:/temp/Job-26.odb,Step-1,Increment      1: Step Time =    1.000,"P-26-1",          1202,       69.3533,       37.8688,            0.,NA,NA,"",   1.24819E+06,   1.23222E+06,   1.23222E+06
C:/temp/Job-26.odb,Step-1,Increment      1: Step Time =    1.000,"P-26-1",          1203,       35.6777,       73.0014,            0.,NA,NA,"",   823.316E+03,   857.151E+03,   857.151E+03
C:/temp/Job-26.odb,Step-1,Increment      1: Step Time =    1.000,"P-26-1",          1204,       128.207,       38.5206,            0.,NA,NA,"",   1.20727E+06,   1.20040E+06,   1.20040E+06
C:/temp/Job-26.odb,Step-1,Increment      1: Step Time =    1.000,"P-26-1",          1205,       165.427,       127.472,            0.,NA,NA,"",   1.02792E+06,   1.01469E+06,   1.01469E+06
C:/temp/Job-26.odb,Step-1,Increment      1: Step Time =    1.000,"P-26-1",          1206,       54.6501,       68.5417,            0.,NA,NA,"",   1.11843E+06,   1.05408E+06,   1.05408E+06
C:/temp/Job-26.odb,Step-1,Increment      1: Step Time =    1.000,"P-26-1",          1207,       58.7913,       61.3158,            0.,NA,NA,"",   1.25438E+06,   1.18354E+06,   1.18354E+06
C:/temp/Job-26.odb,Step-1,Increment      1: Step Time =    1.000,"P-26-1",          1208,       154.936,       74.8646,            0.,NA,NA,"",   1.09237E+06,   1.02361E+06,   1.02361E+06
C:/temp/Job-26.odb,Step-1,Increment      1: Step Time =    1.000,"P-26-1",          1209,       130.647,       158.016,            0.,NA,NA,"",   1.24700E+06,   1.22694E+06,   1.22694E+06
C:/temp/Job-26.odb,Step-1,Increment      1: Step Time =    1.000,"P-26-1",          1210,       142.298,       96.7843,            0.,NA,NA,"",   441.412E+03,   398.259E+03,   398.259E+03
C:/temp/Job-26.odb,Step-1,Increment      1: Step Time =    1.000,"P-26-1",          1211,       152.085,       110.195,            0.,NA,NA,"",   753.966E+03,   733.935E+03,   733.935E+03
C:/temp/Job-26.odb,Step-1,Increment      1: Step Time =    1.000,"P-26-1",          1212,       111.346,       41.0041,            0.,NA,NA,"",   1.15008E+06,   1.20773E+06,   1.20773E+06
C:/temp/Job-26.odb,Step-1,Increment      1: Step Time =    1.000,"P-26-1",          1213,       121.926,       52.5728,            0.,NA,NA,"",   1.34544E+06,   1.35256E+06,   1.35256E+06
C:/temp/Job-26.odb,Step-1,Increment      1: Step Time =    1.000,"P-26-1",          1214,       70.0291,       46.4576,            0.,NA,NA,"",   1.31093E+06,   1.28498E+06,   1.28498E+06
C:/temp/Job-26.odb,Step-1,Increment      1: Step Time =    1.000,"P-26-1",          1215,       109.463,       51.9277,            0.,NA,NA,"",   1.25774E+06,   1.34955E+06,   1.34955E+06
C:/temp/Job-26.odb,Step-1,Increment      1: Step Time =    1.000,"P-26-1",          1216,       153.999,       93.6912,            0.,NA,NA,"",   664.377E+03,   675.275E+03,   675.275E+03
C:/temp/Job-26.odb,Step-1,Increment      1: Step Time =    1.000,"P-26-1",          1217,       51.3348,       121.280,            0.,NA,NA,"",   870.975E+03,   835.130E+03,   835.130E+03
C:/temp/Job-26.odb,Step-1,Increment      1: Step Time =    1.000,"P-26-1",          1218,       65.5922,       149.847,            0.,NA,NA,"",   1.32220E+06,   1.27785E+06,   1.27785E+06
C:/temp/Job-26.odb,Step-1,Increment      1: Step Time =    1.000,"P-26-1",          1219,       115.569,       152.284,            0.,NA,NA,"",   1.24265E+06,   1.29317E+06,   1.29317E+06
C:/temp/Job-26.odb,Step-1,Increment      1: Step Time =    1.000,"P-26-1",          1220,       47.9356,       129.898,            0.,NA,NA,"",   1.00113E+06,   972.955E+03,   972.955E+03
C:/temp/Job-26.odb,Step-1,Increment      1: Step Time =    1.000,"P-26-1",          1221,       153.976,       171.748,            0.,NA,NA,"",   1.10663E+06,   1.08614E+06,   1.08614E+06
C:/temp/Job-26.odb,Step-1,Increment      1: Step Time =    1.000,"P-26-1",          1222,       26.5321,       154.433,            0.,NA,NA,"",   1.04155E+06,   1.08175E+06,   1.08175E+06
C:/temp/Job-26.odb,Step-1,Increment      1: Step Time =    1.000,"P-26-1",          1223,       172.050,       45.8648,            0.,NA,NA,"",   1.07742E+06,   1.06916E+06,   1.06916E+06
C:/temp/Job-26.odb,Step-1,Increment      1: Step Time =    1.000,"P-26-1",          1224,       66.9396,       46.6714,            0.,NA,NA,"",   1.31002E+06,   1.27545E+06,   1.27545E+06
C:/temp/Job-26.odb,Step-1,Increment      1: Step Time =    1.000,"P-26-1",          1225,       148.668,       167.188,            0.,NA,NA,"",   1.14733E+06,   1.11895E+06,   1.11895E+06
C:/temp/Job-26.odb,Step-1,Increment      1: Step Time =    1.000,"P-26-1",          1226,       50.0453,       32.8615,            0.,NA,NA,"",   1.21424E+06,   1.19498E+06,   1.19498E+06
C:/temp/Job-26.odb,Step-1,Increment      1: Step Time =    1.000,"P-26-1",          1227,       30.8621,       153.413,            0.,NA,NA,"",   1.06396E+06,   1.09057E+06,   1.09057E+06
C:/temp/Job-26.odb,Step-1,Increment      1: Step Time =    1.000,"P-26-1",          1228,       167.473,       50.9529,            0.,NA,NA,"",   1.10821E+06,   1.08865E+06,   1.08865E+06
C:/temp/Job-26.odb,Step-1,Increment      1: Step Time =    1.000,"P-26-1",          1229,       134.067,       130.921,            0.,NA,NA,"",   1.44430E+06,   1.29628E+06,   1.29628E+06
C:/temp/Job-26.odb,Step-1,Increment      1: Step Time =    1.000,"P-26-1",          1230,       121.824,       48.8217,            0.,NA,NA,"",   1.29591E+06,   1.30801E+06,   1.30801E+06
C:/temp/Job-26.odb,Step-1,Increment      1: Step Time =    1.000,"P-26-1",          1231,       16.8179,       151.003,            0.,NA,NA,"",   946.891E+03,   1.01871E+06,   1.01871E+06
C:/temp/Job-26.odb,Step-1,Increment      1: Step Time =    1.000,"P-26-1",          1232,       149.704,       18.9331,            0.,NA,NA,"",   1.05818E+06,   1.04729E+06,   1.04729E+06
C:/temp/Job-26.odb,Step-1,Increment      1: Step Time =    1.000,"P-26-1",          1233,       182.848,       48.2543,            0.,NA,NA,"",   1.01547E+06,   1.03282E+06,   1.03282E+06
C:/temp/Job-26.odb,Step-1,Increment      1: Step Time =    1.000,"P-26-1",          1234,       51.5552,       182.932,            0.,NA,NA,"",   1.16892E+06,   1.16021E+06,   1.16021E+06
C:/temp/Job-26.odb,Step-1,Increment      1: Step Time =    1.000,"P-26-1",          1235,       49.9083,       17.6480,            0.,NA,NA,"",   1.17624E+06,   1.16726E+06,   1.16726E+06
C:/temp/Job-26.odb,Step-1,Increment      1: Step Time =    1.000,"P-26-1",          1236,       19.1471,       51.4252,            0.,NA,NA,"",   940.568E+03,   1.00631E+06,   1.00631E+06
C:/temp/Job-26.odb,Step-1,Increment      1: Step Time =    1.000,"P-26-1",          1237,       151.711,       182.770,            0.,NA,NA,"",   1.04833E+06,   1.03915E+06,   1.03915E+06
C:/temp/Job-26.odb,Step-1,Increment      1: Step Time =    1.000,"P-26-1",          1238,       181.198,       149.575,            0.,NA,NA,"",   1.02032E+06,   1.03703E+06,   1.03703E+06
C:/temp/Job-26.odb,Step-1,Increment      1: Step Time =    1.000,"P-26-1",          1239,       160.618,       112.129,            0.,NA,NA,"",   826.314E+03,   835.983E+03,   835.983E+03
C:/temp/Job-26.odb,Step-1,Increment      1: Step Time =    1.000,"P-26-1",          1240,       114.518,       39.6212,            0.,NA,NA,"",   1.15675E+06,   1.20167E+06,   1.20167E+06
C:/temp/Job-26.odb,Step-1,Increment      1: Step Time =    1.000,"P-26-1",          1241,       38.8564,       89.0416,            0.,NA,NA,"",   600.397E+03,   653.567E+03,   653.567E+03
C:/temp/Job-26.odb,Step-1,Increment      1: Step Time =    1.000,"P-26-1",          1242,       38.6494,       139.227,            0.,NA,NA,"",   1.00720E+06,   1.01351E+06,   1.01351E+06
C:/temp/Job-26.odb,Step-1,Increment      1: Step Time =    1.000,"P-26-1",          1243,       158.036,       59.2064,            0.,NA,NA,"",   1.17930E+06,   1.12537E+06,   1.12537E+06
C:/temp/Job-26.odb,Step-1,Increment      1: Step Time =    1.000,"P-26-1",          1244,       139.404,       158.640,            0.,NA,NA,"",   1.24070E+06,   1.19992E+06,   1.19992E+06
C:/temp/Job-26.odb,Step-1,Increment      1: Step Time =    1.000,"P-26-1",          1245,       59.5686,       41.9827,            0.,NA,NA,"",   1.26595E+06,   1.23083E+06,   1.23083E+06
C:/temp/Job-26.odb,Step-1,Increment      1: Step Time =    1.000,"P-26-1",          1246,       53.3234,       62.7895,            0.,NA,NA,"",   1.16636E+06,   1.11183E+06,   1.11183E+06
C:/temp/Job-26.odb,Step-1,Increment      1: Step Time =    1.000,"P-26-1",          1247,       153.572,       79.8415,            0.,NA,NA,"",   1.01031E+06,   945.828E+03,   945.828E+03
C:/temp/Job-26.odb,Step-1,Increment      1: Step Time =    1.000,"P-26-1",          1248,       151.790,       73.6990,            0.,NA,NA,"",   1.13654E+06,   1.04964E+06,   1.04964E+06
C:/temp/Job-26.odb,Step-1,Increment      1: Step Time =    1.000,"P-26-1",          1249,       135.435,       153.469,            0.,NA,NA,"",   1.29507E+06,   1.24830E+06,   1.24830E+06
C:/temp/Job-26.odb,Step-1,Increment      1: Step Time =    1.000,"P-26-1",          1250,       146.456,       98.8111,            0.,NA,NA,"",   479.362E+03,   476.786E+03,   476.786E+03
C:/temp/Job-26.odb,Step-1,Increment      1: Step Time =    1.000,"P-26-1",          1251,       153.274,       106.060,            0.,NA,NA,"",   666.081E+03,     673.2E+03,     673.2E+03
C:/temp/Job-26.odb,Step-1,Increment      1: Step Time =    1.000,"P-26-1",          1252,       60.1874,       57.2020,            0.,NA,NA,"",   1.28705E+06,   1.22274E+06,   1.22274E+06
C:/temp/Job-26.odb,Step-1,Increment      1: Step Time =    1.000,"P-26-1",          1253,       164.785,       108.891,            0.,NA,NA,"",   800.511E+03,   834.158E+03,   834.158E+03
C:/temp/Job-26.odb,Step-1,Increment      1: Step Time =    1.000,"P-26-1",          1254,       32.6178,       90.9635,            0.,NA,NA,"",   590.060E+03,   657.556E+03,   657.556E+03
C:/temp/Job-26.odb,Step-1,Increment      1: Step Time =    1.000,"P-26-1",          1255,       117.109,       57.0193,            0.,NA,NA,"",   1.38632E+06,   1.43113E+06,   1.43113E+06
C:/temp/Job-26.odb,Step-1,Increment      1: Step Time =    1.000,"P-26-1",          1256,       113.490,       51.6943,            0.,NA,NA,"",   1.28144E+06,   1.34996E+06,   1.34996E+06
C:/temp/Job-26.odb,Step-1,Increment      1: Step Time =    1.000,"P-26-1",          1257,       151.914,       97.0419,            0.,NA,NA,"",   586.873E+03,   602.093E+03,   602.093E+03
C:/temp/Job-26.odb,Step-1,Increment      1: Step Time =    1.000,"P-26-1",          1258,       47.3498,       113.823,            0.,NA,NA,"",   646.214E+03,   660.773E+03,   660.773E+03
C:/temp/Job-26.odb,Step-1,Increment      1: Step Time =    1.000,"P-26-1",          1259,       71.3551,       151.269,            0.,NA,NA,"",   1.32507E+06,   1.29925E+06,   1.29925E+06
C:/temp/Job-26.odb,Step-1,Increment      1: Step Time =    1.000,"P-26-1",          1260,       111.489,       153.913,            0.,NA,NA,"",   1.19645E+06,   1.26410E+06,   1.26410E+06
C:/temp/Job-26.odb,Step-1,Increment      1: Step Time =    1.000,"P-26-1",          1261,       105.251,       151.682,            0.,NA,NA,"",   1.19139E+06,   1.28905E+06,   1.28905E+06
C:/temp/Job-26.odb,Step-1,Increment      1: Step Time =    1.000,"P-26-1",          1262,       56.9314,       51.4376,            0.,NA,NA,"",   1.26317E+06,   1.21432E+06,   1.21432E+06
C:/temp/Job-26.odb,Step-1,Increment      1: Step Time =    1.000,"P-26-1",          1263,       52.4414,       54.6208,            0.,NA,NA,"",   1.20697E+06,   1.16436E+06,   1.16436E+06
C:/temp/Job-26.odb,Step-1,Increment      1: Step Time =    1.000,"P-26-1",          1264,       67.5678,       153.442,            0.,NA,NA,"",   1.30730E+06,   1.27458E+06,   1.27458E+06
C:/temp/Job-26.odb,Step-1,Increment      1: Step Time =    1.000,"P-26-1",          1265,       37.9660,       145.219,            0.,NA,NA,"",   1.06180E+06,   1.06787E+06,   1.06787E+06
C:/temp/Job-26.odb,Step-1,Increment      1: Step Time =    1.000,"P-26-1",          1266,       163.024,       55.3836,            0.,NA,NA,"",   1.14212E+06,   1.10728E+06,   1.10728E+06
C:/temp/Job-26.odb,Step-1,Increment      1: Step Time =    1.000,"P-26-1",          1267,       55.4167,       37.1168,            0.,NA,NA,"",   1.23641E+06,   1.20887E+06,   1.20887E+06
C:/temp/Job-26.odb,Step-1,Increment      1: Step Time =    1.000,"P-26-1",          1268,       143.868,       163.080,            0.,NA,NA,"",   1.19277E+06,   1.15720E+06,   1.15720E+06
C:/temp/Job-26.odb,Step-1,Increment      1: Step Time =    1.000,"P-26-1",          1269,       42.8900,       142.433,            0.,NA,NA,"",   1.08624E+06,   1.07462E+06,   1.07462E+06
C:/temp/Job-26.odb,Step-1,Increment      1: Step Time =    1.000,"P-26-1",          1270,       153.573,       58.7819,            0.,NA,NA,"",   1.22516E+06,   1.15470E+06,   1.15470E+06
C:/temp/Job-26.odb,Step-1,Increment      1: Step Time =    1.000,"P-26-1",          1271,       143.084,       154.793,            0.,NA,NA,"",   1.26091E+06,   1.20676E+06,   1.20676E+06
C:/temp/Job-26.odb,Step-1,Increment      1: Step Time =    1.000,"P-26-1",          1272,       157.435,       107.175,            0.,NA,NA,"",   727.704E+03,   744.566E+03,   744.566E+03
C:/temp/Job-26.odb,Step-1,Increment      1: Step Time =    1.000,"P-26-1",          1273,       47.2224,       133.258,            0.,NA,NA,"",   1.03223E+06,   1.00651E+06,   1.00651E+06
C:/temp/Job-26.odb,Step-1,Increment      1: Step Time =    1.000,"P-26-1",          1274,       69.3297,       42.4819,            0.,NA,NA,"",   1.27936E+06,   1.25870E+06,   1.25870E+06
C:/temp/Job-26.odb,Step-1,Increment      1: Step Time =    1.000,"P-26-1",          1275,       148.181,       162.347,            0.,NA,NA,"",   1.18235E+06,   1.14510E+06,   1.14510E+06
C:/temp/Job-26.odb,Step-1,Increment      1: Step Time =    1.000,"P-26-1",          1276,       50.7596,       37.6122,            0.,NA,NA,"",   1.22110E+06,   1.19757E+06,   1.19757E+06
C:/temp/Job-26.odb,Step-1,Increment      1: Step Time =    1.000,"P-26-1",          1277,       37.8551,       151.193,            0.,NA,NA,"",   1.10406E+06,   1.10793E+06,   1.10793E+06
C:/temp/Job-26.odb,Step-1,Increment      1: Step Time =    1.000,"P-26-1",          1278,       162.787,       51.0664,            0.,NA,NA,"",   1.14362E+06,   1.11069E+06,   1.11069E+06
C:/temp/Job-26.odb,Step-1,Increment      1: Step Time =    1.000,"P-26-1",          1279,       125.189,       46.4614,            0.,NA,NA,"",   1.28048E+06,   1.27701E+06,   1.27701E+06
C:/temp/Job-26.odb,Step-1,Increment      1: Step Time =    1.000,"P-26-1",          1280,       18.8052,       157.086,            0.,NA,NA,"",   1.00943E+06,   1.07336E+06,   1.07336E+06
C:/temp/Job-26.odb,Step-1,Increment      1: Step Time =    1.000,"P-26-1",          1281,       181.013,       42.8117,            0.,NA,NA,"",   1.02776E+06,   1.03667E+06,   1.03667E+06
C:/temp/Job-26.odb,Step-1,Increment      1: Step Time =    1.000,"P-26-1",          1282,       43.6728,       19.5957,            0.,NA,NA,"",   1.19355E+06,   1.18684E+06,   1.18684E+06
C:/temp/Job-26.odb,Step-1,Increment      1: Step Time =    1.000,"P-26-1",          1283,       157.171,       180.901,            0.,NA,NA,"",   1.05312E+06,   1.04350E+06,   1.04350E+06
C:/temp/Job-26.odb,Step-1,Increment      1: Step Time =    1.000,"P-26-1",          1284,       142.831,       68.5788,            0.,NA,NA,"",   1.31492E+06,   1.18381E+06,   1.18381E+06
C:/temp/Job-26.odb,Step-1,Increment      1: Step Time =    1.000,"P-26-1",          1285,       150.422,       100.672,            0.,NA,NA,"",   550.468E+03,   564.537E+03,   564.537E+03
C:/temp/Job-26.odb,Step-1,Increment      1: Step Time =    1.000,"P-26-1",          1286,       44.7470,       122.336,            0.,NA,NA,"",   823.765E+03,   825.700E+03,   825.700E+03
C:/temp/Job-26.odb,Step-1,Increment      1: Step Time =    1.000,"P-26-1",          1287,       49.0600,       110.332,            0.,NA,NA,"",   561.143E+03,   580.030E+03,   580.030E+03
C:/temp/Job-26.odb,Step-1,Increment      1: Step Time =    1.000,"P-26-1",          1288,       113.351,       157.360,            0.,NA,NA,"",   1.17542E+06,   1.22986E+06,   1.22986E+06
C:/temp/Job-26.odb,Step-1,Increment      1: Step Time =    1.000,"P-26-1",          1289,       109.468,       149.439,            0.,NA,NA,"",   1.23831E+06,   1.32630E+06,   1.32630E+06
C:/temp/Job-26.odb,Step-1,Increment      1: Step Time =    1.000,"P-26-1",          1290,       158.669,       169.247,            0.,NA,NA,"",   1.10541E+06,   1.08499E+06,   1.08499E+06
C:/temp/Job-26.odb,Step-1,Increment      1: Step Time =    1.000,"P-26-1",          1291,       45.8147,       27.7375,            0.,NA,NA,"",   1.20331E+06,   1.19138E+06,   1.19138E+06
C:/temp/Job-26.odb,Step-1,Increment      1: Step Time =    1.000,"P-26-1",          1292,       169.667,       41.1367,            0.,NA,NA,"",   1.08709E+06,   1.07412E+06,   1.07412E+06
C:/temp/Job-26.odb,Step-1,Increment      1: Step Time =    1.000,"P-26-1",          1293,       161.459,       107.993,            0.,NA,NA,"",   772.493E+03,   799.099E+03,   799.099E+03
C:/temp/Job-26.odb,Step-1,Increment      1: Step Time =    1.000,"P-26-1",          1294,       155.426,       98.7431,            0.,NA,NA,"",   628.854E+03,   656.572E+03,   656.572E+03
C:/temp/Job-26.odb,Step-1,Increment      1: Step Time =    1.000,"P-26-1",          1295,       45.4664,       137.414,            0.,NA,NA,"",   1.06331E+06,   1.04273E+06,   1.04273E+06
C:/temp/Job-26.odb,Step-1,Increment      1: Step Time =    1.000,"P-26-1",          1296,       54.9166,       59.4841,            0.,NA,NA,"",   1.21144E+06,   1.15517E+06,   1.15517E+06
C:/temp/Job-26.odb,Step-1,Increment      1: Step Time =    1.000,"P-26-1",          1297,       49.7788,       60.7030,            0.,NA,NA,"",   1.13550E+06,   1.09700E+06,   1.09700E+06
C:/temp/Job-26.odb,Step-1,Increment      1: Step Time =    1.000,"P-26-1",          1298,       152.624,       62.8762,            0.,NA,NA,"",   1.22563E+06,   1.14623E+06,   1.14623E+06
C:/temp/Job-26.odb,Step-1,Increment      1: Step Time =    1.000,"P-26-1",          1299,       62.1547,       48.1911,            0.,NA,NA,"",   1.29922E+06,   1.25440E+06,   1.25440E+06
C:/temp/Job-26.odb,Step-1,Increment      1: Step Time =    1.000,"P-26-1",          1300,       155.360,       115.798,            0.,NA,NA,"",   892.817E+03,   862.458E+03,   862.458E+03
C:/temp/Job-26.odb,Step-1,Increment      1: Step Time =    1.000,"P-26-1",          1301,       152.333,       161.607,            0.,NA,NA,"",   1.16788E+06,   1.13205E+06,   1.13205E+06
C:/temp/Job-26.odb,Step-1,Increment      1: Step Time =    1.000,"P-26-1",          1302,       45.9069,       38.5490,            0.,NA,NA,"",   1.20076E+06,   1.18405E+06,   1.18405E+06
C:/temp/Job-26.odb,Step-1,Increment      1: Step Time =    1.000,"P-26-1",          1303,       35.5805,       155.194,            0.,NA,NA,"",   1.11418E+06,   1.12318E+06,   1.12318E+06
C:/temp/Job-26.odb,Step-1,Increment      1: Step Time =    1.000,"P-26-1",          1304,       162.461,       46.9155,            0.,NA,NA,"",   1.14015E+06,   1.10946E+06,   1.10946E+06
C:/temp/Job-26.odb,Step-1,Increment      1: Step Time =    1.000,"P-26-1",          1305,       53.1808,       111.673,            0.,NA,NA,"",   611.759E+03,   595.605E+03,   595.605E+03
C:/temp/Job-26.odb,Step-1,Increment      1: Step Time =    1.000,"P-26-1",          1306,       131.142,       51.0657,            0.,NA,NA,"",   1.34977E+06,   1.30325E+06,   1.30325E+06
C:/temp/Job-26.odb,Step-1,Increment      1: Step Time =    1.000,"P-26-1",          1307,       120.753,       43.6561,            0.,NA,NA,"",   1.22829E+06,   1.24914E+06,   1.24914E+06
C:/temp/Job-26.odb,Step-1,Increment      1: Step Time =    1.000,"P-26-1",          1308,       44.9008,       109.622,            0.,NA,NA,"",   554.178E+03,   594.306E+03,   594.306E+03
C:/temp/Job-26.odb,Step-1,Increment      1: Step Time =    1.000,"P-26-1",          1309,       48.2563,       124.853,            0.,NA,NA,"",   911.116E+03,   887.639E+03,   887.639E+03
C:/temp/Job-26.odb,Step-1,Increment      1: Step Time =    1.000,"P-26-1",          1310,       163.907,       171.455,            0.,NA,NA,"",   1.07694E+06,   1.06364E+06,   1.06364E+06
C:/temp/Job-26.odb,Step-1,Increment      1: Step Time =    1.000,"P-26-1",          1311,       40.1149,       29.9919,            0.,NA,NA,"",   1.19361E+06,   1.18922E+06,   1.18922E+06
C:/temp/Job-26.odb,Step-1,Increment      1: Step Time =    1.000,"P-26-1",          1312,       29.0479,       163.588,            0.,NA,NA,"",   1.12440E+06,   1.15009E+06,   1.15009E+06
C:/temp/Job-26.odb,Step-1,Increment      1: Step Time =    1.000,"P-26-1",          1313,       171.712,       36.0168,            0.,NA,NA,"",   1.06550E+06,   1.05791E+06,   1.05791E+06
C:/temp/Job-26.odb,Step-1,Increment      1: Step Time =    1.000,"P-26-1",          1314,       129.773,       41.7529,            0.,NA,NA,"",   1.24427E+06,   1.22844E+06,   1.22844E+06
C:/temp/Job-26.odb,Step-1,Increment      1: Step Time =    1.000,"P-26-1",          1315,       37.4362,       75.8847,            0.,NA,NA,"",   793.827E+03,   826.947E+03,   826.947E+03
C:/temp/Job-26.odb,Step-1,Increment      1: Step Time =    1.000,"P-26-1",          1316,       161.839,       128.713,            0.,NA,NA,"",   1.07013E+06,   1.03641E+06,   1.03641E+06
C:/temp/Job-26.odb,Step-1,Increment      1: Step Time =    1.000,"P-26-1",          1317,       71.2452,       161.555,            0.,NA,NA,"",   1.24925E+06,   1.23586E+06,   1.23586E+06
C:/temp/Job-26.odb,Step-1,Increment      1: Step Time =    1.000,"P-26-1",          1318,       113.090,       56.8415,            0.,NA,NA,"",   1.36387E+06,   1.44235E+06,   1.44235E+06
C:/temp/Job-26.odb,Step-1,Increment      1: Step Time =    1.000,"P-26-1",          1319,       155.255,       70.9372,            0.,NA,NA,"",   1.13432E+06,   1.06568E+06,   1.06568E+06
C:/temp/Job-26.odb,Step-1,Increment      1: Step Time =    1.000,"P-26-1",          1320,       184.777,       45.0345,            0.,NA,NA,"",   1.00824E+06,   1.02607E+06,   1.02607E+06
C:/temp/Job-26.odb,Step-1,Increment      1: Step Time =    1.000,"P-26-1",          1321,       14.9430,       154.777,            0.,NA,NA,"",   965.040E+03,   1.04110E+06,   1.04110E+06
C:/temp/Job-26.odb,Step-1,Increment      1: Step Time =    1.000,"P-26-1",          1322,       45.8373,       15.6380,            0.,NA,NA,"",   1.18006E+06,   1.17398E+06,   1.17398E+06
C:/temp/Job-26.odb,Step-1,Increment      1: Step Time =    1.000,"P-26-1",          1323,       154.948,       184.708,            0.,NA,NA,"",   1.03637E+06,   1.02941E+06,   1.02941E+06
C:/temp/Job-26.odb,Step-1,Increment      1: Step Time =    1.000,"P-26-1",          1324,       41.5870,       22.7985,            0.,NA,NA,"",   1.20023E+06,   1.19360E+06,   1.19360E+06
C:/temp/Job-26.odb,Step-1,Increment      1: Step Time =    1.000,"P-26-1",          1325,       162.622,       177.831,            0.,NA,NA,"",   1.05620E+06,   1.04672E+06,   1.04672E+06
C:/temp/Job-26.odb,Step-1,Increment      1: Step Time =    1.000,"P-26-1",          1326,       20.2729,       162.976,            0.,NA,NA,"",   1.06277E+06,   1.11899E+06,   1.11899E+06
C:/temp/Job-26.odb,Step-1,Increment      1: Step Time =    1.000,"P-26-1",          1327,       177.981,       37.3630,            0.,NA,NA,"",   1.03837E+06,   1.04048E+06,   1.04048E+06
C:/temp/Job-26.odb,Step-1,Increment      1: Step Time =    1.000,"P-26-1",          1328,       138.981,       132.560,            0.,NA,NA,"",   1.38363E+06,   1.24406E+06,   1.24406E+06
C:/temp/Job-26.odb,Step-1,Increment      1: Step Time =    1.000,"P-26-1",          1329,       62.0793,       151.811,            0.,NA,NA,"",   1.29624E+06,   1.25191E+06,   1.25191E+06
C:/temp/Job-26.odb,Step-1,Increment      1: Step Time =    1.000,"P-26-1",          1330,       137.327,       68.6744,            0.,NA,NA,"",   1.39559E+06,   1.24633E+06,   1.24633E+06
C:/temp/Job-26.odb,Step-1,Increment      1: Step Time =    1.000,"P-26-1",          1331,       157.238,       91.2416,            0.,NA,NA,"",   737.936E+03,   749.795E+03,   749.795E+03
C:/temp/Job-26.odb,Step-1,Increment      1: Step Time =    1.000,"P-26-1",          1332,       47.3733,       43.0974,            0.,NA,NA,"",   1.20025E+06,   1.17861E+06,   1.17861E+06
C:/temp/Job-26.odb,Step-1,Increment      1: Step Time =    1.000,"P-26-1",          1333,       152.389,       156.694,            0.,NA,NA,"",   1.19789E+06,   1.15210E+06,   1.15210E+06
C:/temp/Job-26.odb,Step-1,Increment      1: Step Time =    1.000,"P-26-1",          1334,       158.085,       46.4156,            0.,NA,NA,"",   1.17122E+06,   1.13080E+06,   1.13080E+06
C:/temp/Job-26.odb,Step-1,Increment      1: Step Time =    1.000,"P-26-1",          1335,       39.0660,       155.862,            0.,NA,NA,"",   1.14138E+06,   1.14080E+06,   1.14080E+06
C:/temp/Job-26.odb,Step-1,Increment      1: Step Time =    1.000,"P-26-1",          1336,       108.456,       61.2756,            0.,NA,NA,"",   1.44679E+06,   1.57091E+06,   1.57091E+06
C:/temp/Job-26.odb,Step-1,Increment      1: Step Time =    1.000,"P-26-1",          1337,       162.711,       135.672,            0.,NA,NA,"",   1.11578E+06,   1.08020E+06,   1.08020E+06
C:/temp/Job-26.odb,Step-1,Increment      1: Step Time =    1.000,"P-26-1",          1338,       66.7691,       162.422,            0.,NA,NA,"",   1.25064E+06,   1.22873E+06,   1.22873E+06
C:/temp/Job-26.odb,Step-1,Increment      1: Step Time =    1.000,"P-26-1",          1339,       38.3380,       68.6373,            0.,NA,NA,"",   913.735E+03,   929.637E+03,   929.637E+03
C:/temp/Job-26.odb,Step-1,Increment      1: Step Time =    1.000,"P-26-1",          1340,       133.674,       40.4781,            0.,NA,NA,"",   1.23711E+06,   1.21037E+06,   1.21037E+06
C:/temp/Job-26.odb,Step-1,Increment      1: Step Time =    1.000,"P-26-1",          1341,       155.640,       67.0268,            0.,NA,NA,"",   1.17056E+06,   1.10152E+06,   1.10152E+06
C:/temp/Job-26.odb,Step-1,Increment      1: Step Time =    1.000,"P-26-1",          1342,       130.214,       46.1962,            0.,NA,NA,"",   1.29204E+06,   1.26439E+06,   1.26439E+06
C:/temp/Job-26.odb,Step-1,Increment      1: Step Time =    1.000,"P-26-1",          1343,       42.9520,       66.6278,            0.,NA,NA,"",   985.408E+03,   980.329E+03,   980.329E+03
C:/temp/Job-26.odb,Step-1,Increment      1: Step Time =    1.000,"P-26-1",          1344,       158.447,       131.371,            0.,NA,NA,"",   1.12484E+06,   1.07113E+06,   1.07113E+06
C:/temp/Job-26.odb,Step-1,Increment      1: Step Time =    1.000,"P-26-1",          1345,       140.946,       63.3583,            0.,NA,NA,"",   1.36297E+06,   1.24576E+06,   1.24576E+06
C:/temp/Job-26.odb,Step-1,Increment      1: Step Time =    1.000,"P-26-1",          1346,       59.6166,       148.769,            0.,NA,NA,"",   1.28570E+06,   1.23533E+06,   1.23533E+06
C:/temp/Job-26.odb,Step-1,Increment      1: Step Time =    1.000,"P-26-1",          1347,       47.8990,       142.273,            0.,NA,NA,"",   1.14081E+06,   1.11091E+06,   1.11091E+06
C:/temp/Job-26.odb,Step-1,Increment      1: Step Time =    1.000,"P-26-1",          1348,       47.5530,       55.9741,            0.,NA,NA,"",   1.14781E+06,   1.11981E+06,   1.11981E+06
C:/temp/Job-26.odb,Step-1,Increment      1: Step Time =    1.000,"P-26-1",          1349,       48.6021,       67.8265,            0.,NA,NA,"",   1.03997E+06,   1.00845E+06,   1.00845E+06
C:/temp/Job-26.odb,Step-1,Increment      1: Step Time =    1.000,"P-26-1",          1350,       149.756,       59.3398,            0.,NA,NA,"",   1.26557E+06,   1.18080E+06,   1.18080E+06
C:/temp/Job-26.odb,Step-1,Increment      1: Step Time =    1.000,"P-26-1",          1351,       154.528,       120.698,            0.,NA,NA,"",   1.00302E+06,   948.068E+03,   948.068E+03
C:/temp/Job-26.odb,Step-1,Increment      1: Step Time =    1.000,"P-26-1",          1352,       118.479,       47.5111,            0.,NA,NA,"",   1.26166E+06,   1.29405E+06,   1.29405E+06
C:/temp/Job-26.odb,Step-1,Increment      1: Step Time =    1.000,"P-26-1",          1353,       45.5913,       106.296,            0.,NA,NA,"",   496.672E+03,   543.879E+03,   543.879E+03
C:/temp/Job-26.odb,Step-1,Increment      1: Step Time =    1.000,"P-26-1",          1354,       157.447,       164.835,            0.,NA,NA,"",   1.13207E+06,   1.10485E+06,   1.10485E+06
C:/temp/Job-26.odb,Step-1,Increment      1: Step Time =    1.000,"P-26-1",          1355,       38.6702,       36.4794,            0.,NA,NA,"",   1.17184E+06,   1.17081E+06,   1.17081E+06
C:/temp/Job-26.odb,Step-1,Increment      1: Step Time =    1.000,"P-26-1",          1356,       165.546,       42.1954,            0.,NA,NA,"",   1.11261E+06,   1.09136E+06,   1.09136E+06
C:/temp/Job-26.odb,Step-1,Increment      1: Step Time =    1.000,"P-26-1",          1357,       33.6876,       24.5763,            0.,NA,NA,"",   1.19637E+06,   1.20357E+06,   1.20357E+06
C:/temp/Job-26.odb,Step-1,Increment      1: Step Time =    1.000,"P-26-1",          1358,       40.5104,       18.2515,            0.,NA,NA,"",   1.19701E+06,   1.19316E+06,   1.19316E+06
C:/temp/Job-26.odb,Step-1,Increment      1: Step Time =    1.000,"P-26-1",          1359,       163.604,       184.269,            0.,NA,NA,"",   1.03090E+06,   1.02594E+06,   1.02594E+06
C:/temp/Job-26.odb,Step-1,Increment      1: Step Time =    1.000,"P-26-1",          1360,       165.725,       174.833,            0.,NA,NA,"",   1.05937E+06,   1.05004E+06,   1.05004E+06
C:/temp/Job-26.odb,Step-1,Increment      1: Step Time =    1.000,"P-26-1",          1361,       17.1371,       160.207,            0.,NA,NA,"",   1.01928E+06,   1.08776E+06,   1.08776E+06
C:/temp/Job-26.odb,Step-1,Increment      1: Step Time =    1.000,"P-26-1",          1362,       24.7982,       163.264,            0.,NA,NA,"",   1.09792E+06,   1.13718E+06,   1.13718E+06
C:/temp/Job-26.odb,Step-1,Increment      1: Step Time =    1.000,"P-26-1",          1363,       184.347,       36.3988,            0.,NA,NA,"",   1.01152E+06,   1.02188E+06,   1.02188E+06
C:/temp/Job-26.odb,Step-1,Increment      1: Step Time =    1.000,"P-26-1",          1364,       174.999,       34.2500,            0.,NA,NA,"",   1.04820E+06,   1.04534E+06,   1.04534E+06
C:/temp/Job-26.odb,Step-1,Increment      1: Step Time =    1.000,"P-26-1",          1365,       140.380,       127.353,            0.,NA,NA,"",   1.31367E+06,   1.15513E+06,   1.15513E+06
C:/temp/Job-26.odb,Step-1,Increment      1: Step Time =    1.000,"P-26-1",          1366,       48.1984,       47.2511,            0.,NA,NA,"",   1.19378E+06,   1.16788E+06,   1.16788E+06
C:/temp/Job-26.odb,Step-1,Increment      1: Step Time =    1.000,"P-26-1",          1367,       151.612,       151.293,            0.,NA,NA,"",   1.22866E+06,   1.17056E+06,   1.17056E+06
C:/temp/Job-26.odb,Step-1,Increment      1: Step Time =    1.000,"P-26-1",          1368,       153.489,       46.4274,            0.,NA,NA,"",   1.20250E+06,   1.15371E+06,   1.15371E+06
C:/temp/Job-26.odb,Step-1,Increment      1: Step Time =    1.000,"P-26-1",          1369,       41.4714,       152.781,            0.,NA,NA,"",   1.14535E+06,   1.13803E+06,   1.13803E+06
C:/temp/Job-26.odb,Step-1,Increment      1: Step Time =    1.000,"P-26-1",          1370,       44.9424,       127.942,            0.,NA,NA,"",   935.282E+03,   924.163E+03,   924.163E+03
C:/temp/Job-26.odb,Step-1,Increment      1: Step Time =    1.000,"P-26-1",          1371,       57.4425,       46.2830,            0.,NA,NA,"",   1.26588E+06,   1.22504E+06,   1.22504E+06
C:/temp/Job-26.odb,Step-1,Increment      1: Step Time =    1.000,"P-26-1",          1372,       154.195,       126.573,            0.,NA,NA,"",   1.10932E+06,   1.03804E+06,   1.03804E+06
C:/temp/Job-26.odb,Step-1,Increment      1: Step Time =    1.000,"P-26-1",          1373,       46.0144,       69.8341,            0.,NA,NA,"",   979.297E+03,   962.640E+03,   962.640E+03
C:/temp/Job-26.odb,Step-1,Increment      1: Step Time =    1.000,"P-26-1",          1374,       139.004,       58.8268,            0.,NA,NA,"",   1.37439E+06,   1.27529E+06,   1.27529E+06
C:/temp/Job-26.odb,Step-1,Increment      1: Step Time =    1.000,"P-26-1",          1375,       59.3490,       153.707,            0.,NA,NA,"",   1.27758E+06,   1.23595E+06,   1.23595E+06
C:/temp/Job-26.odb,Step-1,Increment      1: Step Time =    1.000,"P-26-1",          1376,       57.1269,       145.386,            0.,NA,NA,"",   1.26003E+06,   1.20614E+06,   1.20614E+06
C:/temp/Job-26.odb,Step-1,Increment      1: Step Time =    1.000,"P-26-1",          1377,       54.7076,       141.346,            0.,NA,NA,"",   1.21673E+06,   1.16152E+06,   1.16152E+06
C:/temp/Job-26.odb,Step-1,Increment      1: Step Time =    1.000,"P-26-1",          1378,       155.905,       161.245,            0.,NA,NA,"",   1.15395E+06,   1.12080E+06,   1.12080E+06
C:/temp/Job-26.odb,Step-1,Increment      1: Step Time =    1.000,"P-26-1",          1379,       34.8710,       160.124,            0.,NA,NA,"",   1.13518E+06,   1.14546E+06,   1.14546E+06
C:/temp/Job-26.odb,Step-1,Increment      1: Step Time =    1.000,"P-26-1",          1380,       162.319,       43.4364,            0.,NA,NA,"",   1.13425E+06,   1.10589E+06,   1.10589E+06
C:/temp/Job-26.odb,Step-1,Increment      1: Step Time =    1.000,"P-26-1",          1381,       52.5762,       46.7218,            0.,NA,NA,"",   1.23093E+06,   1.19607E+06,   1.19607E+06
C:/temp/Job-26.odb,Step-1,Increment      1: Step Time =    1.000,"P-26-1",          1382,       153.472,       54.8313,            0.,NA,NA,"",   1.22558E+06,   1.16111E+06,   1.16111E+06
C:/temp/Job-26.odb,Step-1,Increment      1: Step Time =    1.000,"P-26-1",          1383,       44.6831,       148.226,            0.,NA,NA,"",   1.14426E+06,   1.12760E+06,   1.12760E+06
C:/temp/Job-26.odb,Step-1,Increment      1: Step Time =    1.000,"P-26-1",          1384,       138.017,       39.4797,            0.,NA,NA,"",   1.22575E+06,   1.19128E+06,   1.19128E+06
C:/temp/Job-26.odb,Step-1,Increment      1: Step Time =    1.000,"P-26-1",          1385,       34.4226,       59.2701,            0.,NA,NA,"",   985.097E+03,   1.00768E+06,   1.00768E+06
C:/temp/Job-26.odb,Step-1,Increment      1: Step Time =    1.000,"P-26-1",          1386,       162.939,       141.031,            0.,NA,NA,"",   1.13278E+06,   1.09774E+06,   1.09774E+06
C:/temp/Job-26.odb,Step-1,Increment      1: Step Time =    1.000,"P-26-1",          1387,       145.910,       129.312,            0.,NA,NA,"",   1.25070E+06,   1.12792E+06,   1.12792E+06
C:/temp/Job-26.odb,Step-1,Increment      1: Step Time =    1.000,"P-26-1",          1388,       167.925,       37.0461,            0.,NA,NA,"",   1.08654E+06,   1.07258E+06,   1.07258E+06
C:/temp/Job-26.odb,Step-1,Increment      1: Step Time =    1.000,"P-26-1",          1389,       32.8642,       164.273,            0.,NA,NA,"",   1.14528E+06,   1.15953E+06,   1.15953E+06
C:/temp/Job-26.odb,Step-1,Increment      1: Step Time =    1.000,"P-26-1",          1390,       36.2368,       32.3954,            0.,NA,NA,"",   1.17694E+06,   1.18093E+06,   1.18093E+06
C:/temp/Job-26.odb,Step-1,Increment      1: Step Time =    1.000,"P-26-1",          1391,       162.785,       167.501,            0.,NA,NA,"",   1.09583E+06,   1.07814E+06,   1.07814E+06
C:/temp/Job-26.odb,Step-1,Increment      1: Step Time =    1.000,"P-26-1",          1392,       45.6653,       84.4232,            0.,NA,NA,"",   692.631E+03,   709.107E+03,   709.107E+03
C:/temp/Job-26.odb,Step-1,Increment      1: Step Time =    1.000,"P-26-1",          1393,       113.006,       132.355,            0.,NA,NA,"",   1.65124E+06,   1.74211E+06,   1.74211E+06
C:/temp/Job-26.odb,Step-1,Increment      1: Step Time =    1.000,"P-26-1",          1394,       55.8469,       152.425,            0.,NA,NA,"",   1.25494E+06,   1.21455E+06,   1.21455E+06
C:/temp/Job-26.odb,Step-1,Increment      1: Step Time =    1.000,"P-26-1",          1395,       161.990,       162.420,            0.,NA,NA,"",   1.11815E+06,   1.09450E+06,   1.09450E+06
C:/temp/Job-26.odb,Step-1,Increment      1: Step Time =    1.000,"P-26-1",          1396,       163.160,       37.7371,            0.,NA,NA,"",   1.11195E+06,   1.09036E+06,   1.09036E+06
C:/temp/Job-26.odb,Step-1,Increment      1: Step Time =    1.000,"P-26-1",          1397,       40.2423,       163.992,            0.,NA,NA,"",   1.17898E+06,   1.17484E+06,   1.17484E+06
C:/temp/Job-26.odb,Step-1,Increment      1: Step Time =    1.000,"P-26-1",          1398,       31.5650,       34.0163,            0.,NA,NA,"",   1.15001E+06,   1.16735E+06,   1.16735E+06
C:/temp/Job-26.odb,Step-1,Increment      1: Step Time =    1.000,"P-26-1",          1399,       166.908,       166.809,            0.,NA,NA,"",   1.07990E+06,   1.06701E+06,   1.06701E+06
C:/temp/Job-26.odb,Step-1,Increment      1: Step Time =    1.000,"P-26-1",          1400,       167.171,       33.0107,            0.,NA,NA,"",   1.07837E+06,   1.06568E+06,   1.06568E+06
C:/temp/Job-26.odb,Step-1,Increment      1: Step Time =    1.000,"P-26-1",          1401,       36.1842,       168.845,            0.,NA,NA,"",   1.17927E+06,   1.18308E+06,   1.18308E+06
C:/temp/Job-26.odb,Step-1,Increment      1: Step Time =    1.000,"P-26-1",          1402,       60.0648,       156.800,            0.,NA,NA,"",   1.27192E+06,   1.23494E+06,   1.23494E+06
C:/temp/Job-26.odb,Step-1,Increment      1: Step Time =    1.000,"P-26-1",          1403,       45.8596,       79.7142,            0.,NA,NA,"",   793.334E+03,   795.962E+03,   795.962E+03
C:/temp/Job-26.odb,Step-1,Increment      1: Step Time =    1.000,"P-26-1",          1404,       131.772,       35.3508,            0.,NA,NA,"",   1.18252E+06,   1.16939E+06,   1.16939E+06
C:/temp/Job-26.odb,Step-1,Increment      1: Step Time =    1.000,"P-26-1",          1405,       33.5963,       69.0372,            0.,NA,NA,"",   865.904E+03,   900.865E+03,   900.865E+03
C:/temp/Job-26.odb,Step-1,Increment      1: Step Time =    1.000,"P-26-1",          1406,       44.7713,       75.2540,            0.,NA,NA,"",   871.293E+03,   869.237E+03,   869.237E+03
C:/temp/Job-26.odb,Step-1,Increment      1: Step Time =    1.000,"P-26-1",          1407,       143.560,       57.0692,            0.,NA,NA,"",   1.32546E+06,   1.23460E+06,   1.23460E+06
C:/temp/Job-26.odb,Step-1,Increment      1: Step Time =    1.000,"P-26-1",          1408,       134.352,       60.4456,            0.,NA,NA,"",   1.42426E+06,   1.32304E+06,   1.32304E+06
C:/temp/Job-26.odb,Step-1,Increment      1: Step Time =    1.000,"P-26-1",          1409,       52.7280,       148.699,            0.,NA,NA,"",   1.22288E+06,   1.18297E+06,   1.18297E+06
C:/temp/Job-26.odb,Step-1,Increment      1: Step Time =    1.000,"P-26-1",          1410,       61.5484,       142.821,            0.,NA,NA,"",   1.30699E+06,   1.24009E+06,   1.24009E+06
C:/temp/Job-26.odb,Step-1,Increment      1: Step Time =    1.000,"P-26-1",          1411,       59.5827,       139.562,            0.,NA,NA,"",   1.27458E+06,   1.20265E+06,   1.20265E+06
C:/temp/Job-26.odb,Step-1,Increment      1: Step Time =    1.000,"P-26-1",          1412,       150.440,       146.905,            0.,NA,NA,"",   1.25107E+06,   1.18202E+06,   1.18202E+06
C:/temp/Job-26.odb,Step-1,Increment      1: Step Time =    1.000,"P-26-1",          1413,       143.576,       43.2606,            0.,NA,NA,"",   1.24313E+06,   1.19351E+06,   1.19351E+06
C:/temp/Job-26.odb,Step-1,Increment      1: Step Time =    1.000,"P-26-1",          1414,       158.185,       141.984,            0.,NA,NA,"",   1.17505E+06,   1.12323E+06,   1.12323E+06
C:/temp/Job-26.odb,Step-1,Increment      1: Step Time =    1.000,"P-26-1",          1415,       151.087,       131.545,            0.,NA,NA,"",   1.20528E+06,   1.11325E+06,   1.11325E+06
C:/temp/Job-26.odb,Step-1,Increment      1: Step Time =    1.000,"P-26-1",          1416,       48.6134,       51.0414,            0.,NA,NA,"",   1.18556E+06,   1.15624E+06,   1.15624E+06
C:/temp/Job-26.odb,Step-1,Increment      1: Step Time =    1.000,"P-26-1",          1417,       148.832,       46.7591,            0.,NA,NA,"",   1.23604E+06,   1.17960E+06,   1.17960E+06
C:/temp/Job-26.odb,Step-1,Increment      1: Step Time =    1.000,"P-26-1",          1418,       51.9626,       154.298,            0.,NA,NA,"",   1.22849E+06,   1.19534E+06,   1.19534E+06
C:/temp/Job-26.odb,Step-1,Increment      1: Step Time =    1.000,"P-26-1",          1419,       31.9460,       55.7789,            0.,NA,NA,"",   994.701E+03,   1.02411E+06,   1.02411E+06
C:/temp/Job-26.odb,Step-1,Increment      1: Step Time =    1.000,"P-26-1",          1420,       141.684,       33.9289,            0.,NA,NA,"",   1.17160E+06,   1.14341E+06,   1.14341E+06
C:/temp/Job-26.odb,Step-1,Increment      1: Step Time =    1.000,"P-26-1",          1421,       167.554,       141.349,            0.,NA,NA,"",   1.09917E+06,   1.07955E+06,   1.07955E+06
C:/temp/Job-26.odb,Step-1,Increment      1: Step Time =    1.000,"P-26-1",          1422,       140.832,       149.682,            0.,NA,NA,"",   1.30902E+06,   1.24148E+06,   1.24148E+06
C:/temp/Job-26.odb,Step-1,Increment      1: Step Time =    1.000,"P-26-1",          1423,       153.295,       143.510,            0.,NA,NA,"",   1.22939E+06,   1.16030E+06,   1.16030E+06
C:/temp/Job-26.odb,Step-1,Increment      1: Step Time =    1.000,"P-26-1",          1424,       43.8701,       155.233,            0.,NA,NA,"",   1.17390E+06,   1.15963E+06,   1.15963E+06
C:/temp/Job-26.odb,Step-1,Increment      1: Step Time =    1.000,"P-26-1",          1425,       144.546,       47.4887,            0.,NA,NA,"",   1.26898E+06,   1.20774E+06,   1.20774E+06
C:/temp/Job-26.odb,Step-1,Increment      1: Step Time =    1.000,"P-26-1",          1426,       25.6267,       29.8485,            0.,NA,NA,"",   1.14968E+06,   1.18077E+06,   1.18077E+06
C:/temp/Job-26.odb,Step-1,Increment      1: Step Time =    1.000,"P-26-1",          1427,       171.150,       170.471,            0.,NA,NA,"",   1.05531E+06,   1.04866E+06,   1.04866E+06
C:/temp/Job-26.odb,Step-1,Increment      1: Step Time =    1.000,"P-26-1",          1428,       170.663,       28.8595,            0.,NA,NA,"",   1.05514E+06,   1.04810E+06,   1.04810E+06
C:/temp/Job-26.odb,Step-1,Increment      1: Step Time =    1.000,"P-26-1",          1429,       32.3857,       168.820,            0.,NA,NA,"",   1.16602E+06,   1.17930E+06,   1.17930E+06
C:/temp/Job-26.odb,Step-1,Increment      1: Step Time =    1.000,"P-26-1",          1430,       62.6162,       164.287,            0.,NA,NA,"",   1.24226E+06,   1.21773E+06,   1.21773E+06
C:/temp/Job-26.odb,Step-1,Increment      1: Step Time =    1.000,"P-26-1",          1431,       51.8500,       79.2465,            0.,NA,NA,"",   867.173E+03,   830.232E+03,   830.232E+03
C:/temp/Job-26.odb,Step-1,Increment      1: Step Time =    1.000,"P-26-1",          1432,       40.9047,       79.5728,            0.,NA,NA,"",   756.936E+03,   783.427E+03,   783.427E+03
C:/temp/Job-26.odb,Step-1,Increment      1: Step Time =    1.000,"P-26-1",          1433,       48.7537,       73.9340,            0.,NA,NA,"",   943.238E+03,   917.032E+03,   917.032E+03
C:/temp/Job-26.odb,Step-1,Increment      1: Step Time =    1.000,"P-26-1",          1434,       156.974,       149.645,            0.,NA,NA,"",   1.18764E+06,   1.13908E+06,   1.13908E+06
C:/temp/Job-26.odb,Step-1,Increment      1: Step Time =    1.000,"P-26-1",          1435,       147.250,       38.0032,            0.,NA,NA,"",   1.18905E+06,   1.15101E+06,   1.15101E+06
C:/temp/Job-26.odb,Step-1,Increment      1: Step Time =    1.000,"P-26-1",          1436,       140.232,       48.6513,            0.,NA,NA,"",   1.29967E+06,   1.23714E+06,   1.23714E+06
C:/temp/Job-26.odb,Step-1,Increment      1: Step Time =    1.000,"P-26-1",          1437,       153.569,       138.011,            0.,NA,NA,"",   1.21809E+06,   1.14199E+06,   1.14199E+06
C:/temp/Job-26.odb,Step-1,Increment      1: Step Time =    1.000,"P-26-1",          1438,       163.119,       145.770,            0.,NA,NA,"",   1.14358E+06,   1.10830E+06,   1.10830E+06
C:/temp/Job-26.odb,Step-1,Increment      1: Step Time =    1.000,"P-26-1",          1439,       37.0916,       54.6296,            0.,NA,NA,"",   1.05190E+06,   1.06174E+06,   1.06174E+06
C:/temp/Job-26.odb,Step-1,Increment      1: Step Time =    1.000,"P-26-1",          1440,       139.657,       154.029,            0.,NA,NA,"",   1.27725E+06,   1.22452E+06,   1.22452E+06
C:/temp/Job-26.odb,Step-1,Increment      1: Step Time =    1.000,"P-26-1",          1441,       57.0053,       161.711,            0.,NA,NA,"",   1.24436E+06,   1.21479E+06,   1.21479E+06
C:/temp/Job-26.odb,Step-1,Increment      1: Step Time =    1.000,"P-26-1",          1442,       147.820,       141.275,            0.,NA,NA,"",   1.28806E+06,   1.19812E+06,   1.19812E+06
C:/temp/Job-26.odb,Step-1,Increment      1: Step Time =    1.000,"P-26-1",          1443,       68.6451,       165.509,            0.,NA,NA,"",   1.22829E+06,   1.21288E+06,   1.21288E+06
C:/temp/Job-26.odb,Step-1,Increment      1: Step Time =    1.000,"P-26-1",          1444,       141.683,       52.9518,            0.,NA,NA,"",   1.31933E+06,   1.24239E+06,   1.24239E+06
C:/temp/Job-26.odb,Step-1,Increment      1: Step Time =    1.000,"P-26-1",          1445,       26.4130,       34.5735,            0.,NA,NA,"",   1.12089E+06,   1.15389E+06,   1.15389E+06
C:/temp/Job-26.odb,Step-1,Increment      1: Step Time =    1.000,"P-26-1",          1446,       29.6849,       24.6570,            0.,NA,NA,"",   1.19115E+06,   1.20583E+06,   1.20583E+06
C:/temp/Job-26.odb,Step-1,Increment      1: Step Time =    1.000,"P-26-1",          1447,       168.806,       176.906,            0.,NA,NA,"",   1.04497E+06,   1.03897E+06,   1.03897E+06
C:/temp/Job-26.odb,Step-1,Increment      1: Step Time =    1.000,"P-26-1",          1448,       175.980,       162.811,            0.,NA,NA,"",   1.04816E+06,   1.04690E+06,   1.04690E+06
C:/temp/Job-26.odb,Step-1,Increment      1: Step Time =    1.000,"P-26-1",          1449,       163.077,       24.0497,            0.,NA,NA,"",   1.06293E+06,   1.05202E+06,   1.05202E+06
C:/temp/Job-26.odb,Step-1,Increment      1: Step Time =    1.000,"P-26-1",          1450,       177.024,       31.2044,            0.,NA,NA,"",   1.03584E+06,   1.03556E+06,   1.03556E+06
C:/temp/Job-26.odb,Step-1,Increment      1: Step Time =    1.000,"P-26-1",          1451,       36.1129,       173.571,            0.,NA,NA,"",   1.19244E+06,   1.19521E+06,   1.19521E+06
C:/temp/Job-26.odb,Step-1,Increment      1: Step Time =    1.000,"P-26-1",          1452,       28.5201,       168.527,            0.,NA,NA,"",   1.15069E+06,   1.17453E+06,   1.17453E+06
C:/temp/Job-26.odb,Step-1,Increment      1: Step Time =    1.000,"P-26-1",          1453,       155.252,       134.352,            0.,NA,NA,"",   1.17920E+06,   1.10925E+06,   1.10925E+06
C:/temp/Job-26.odb,Step-1,Increment      1: Step Time =    1.000,"P-26-1",          1454,       41.6176,       56.9514,            0.,NA,NA,"",   1.07604E+06,   1.07020E+06,   1.07020E+06
C:/temp/Job-26.odb,Step-1,Increment      1: Step Time =    1.000,"P-26-1",          1455,       69.4151,       157.169,            0.,NA,NA,"",   1.28394E+06,   1.26122E+06,   1.26122E+06
C:/temp/Job-26.odb,Step-1,Increment      1: Step Time =    1.000,"P-26-1",          1456,       48.6183,       163.600,            0.,NA,NA,"",   1.21324E+06,    1.1929E+06,    1.1929E+06
C:/temp/Job-26.odb,Step-1,Increment      1: Step Time =    1.000,"P-26-1",          1457,       141.728,       144.716,            0.,NA,NA,"",   1.33440E+06,   1.24882E+06,   1.24882E+06
C:/temp/Job-26.odb,Step-1,Increment      1: Step Time =    1.000,"P-26-1",          1458,       135.820,       49.8782,            0.,NA,NA,"",   1.32787E+06,   1.26866E+06,   1.26866E+06
C:/temp/Job-26.odb,Step-1,Increment      1: Step Time =    1.000,"P-26-1",          1459,       58.1312,       166.022,            0.,NA,NA,"",   1.23093E+06,   1.20634E+06,   1.20634E+06
C:/temp/Job-26.odb,Step-1,Increment      1: Step Time =    1.000,"P-26-1",          1460,       27.0826,       39.0773,            0.,NA,NA,"",   1.09332E+06,   1.12796E+06,   1.12796E+06
C:/temp/Job-26.odb,Step-1,Increment      1: Step Time =    1.000,"P-26-1",          1461,       25.1550,       24.9460,            0.,NA,NA,"",   1.18193E+06,   1.20896E+06,   1.20896E+06
C:/temp/Job-26.odb,Step-1,Increment      1: Step Time =    1.000,"P-26-1",          1462,       173.989,       175.211,            0.,NA,NA,"",   1.03693E+06,   1.03376E+06,   1.03376E+06
C:/temp/Job-26.odb,Step-1,Increment      1: Step Time =    1.000,"P-26-1",          1463,       176.092,       158.346,            0.,NA,NA,"",   1.05071E+06,   1.05070E+06,   1.05070E+06
C:/temp/Job-26.odb,Step-1,Increment      1: Step Time =    1.000,"P-26-1",          1464,       158.652,       23.9487,            0.,NA,NA,"",   1.07301E+06,   1.05946E+06,   1.05946E+06
C:/temp/Job-26.odb,Step-1,Increment      1: Step Time =    1.000,"P-26-1",          1465,       175.316,       26.0418,            0.,NA,NA,"",   1.03426E+06,   1.03247E+06,   1.03247E+06
C:/temp/Job-26.odb,Step-1,Increment      1: Step Time =    1.000,"P-26-1",          1466,       40.2643,       173.168,            0.,NA,NA,"",   1.19722E+06,   1.19286E+06,   1.19286E+06
C:/temp/Job-26.odb,Step-1,Increment      1: Step Time =    1.000,"P-26-1",          1467,       28.2271,       173.499,            0.,NA,NA,"",   1.17710E+06,   1.19769E+06,   1.19769E+06
C:/temp/Job-26.odb,Step-1,Increment      1: Step Time =    1.000,"P-26-1",          1468,       44.3604,       164.002,            0.,NA,NA,"",   1.19651E+06,   1.18356E+06,   1.18356E+06
C:/temp/Job-26.odb,Step-1,Increment      1: Step Time =    1.000,"P-26-1",          1469,       136.781,       143.610,            0.,NA,NA,"",   1.37792E+06,   1.29209E+06,   1.29209E+06
C:/temp/Job-26.odb,Step-1,Increment      1: Step Time =    1.000,"P-26-1",          1470,       142.698,       139.530,            0.,NA,NA,"",   1.34363E+06,   1.23891E+06,   1.23891E+06
C:/temp/Job-26.odb,Step-1,Increment      1: Step Time =    1.000,"P-26-1",          1471,       171.947,       153.595,            0.,NA,NA,"",   1.07614E+06,   1.06861E+06,   1.06861E+06
C:/temp/Job-26.odb,Step-1,Increment      1: Step Time =    1.000,"P-26-1",          1472,       31.3786,       43.3759,            0.,NA,NA,"",   1.08930E+06,   1.11256E+06,   1.11256E+06
C:/temp/Job-26.odb,Step-1,Increment      1: Step Time =    1.000,"P-26-1",          1473,       44.5568,       172.538,            0.,NA,NA,"",   1.20147E+06,   1.19110E+06,   1.19110E+06
C:/temp/Job-26.odb,Step-1,Increment      1: Step Time =    1.000,"P-26-1",          1474,       154.051,       28.0890,            0.,NA,NA,"",   1.10403E+06,   1.08409E+06,   1.08409E+06
C:/temp/Job-26.odb,Step-1,Increment      1: Step Time =    1.000,"P-26-1",          1475,       171.962,       177.698,            0.,NA,NA,"",   1.03542E+06,   1.03170E+06,   1.03170E+06
C:/temp/Job-26.odb,Step-1,Increment      1: Step Time =    1.000,"P-26-1",          1476,       24.3673,       173.262,            0.,NA,NA,"",   1.16665E+06,   1.19812E+06,   1.19812E+06
C:/temp/Job-26.odb,Step-1,Increment      1: Step Time =    1.000,"P-26-1",          1477,       177.801,       28.0584,            0.,NA,NA,"",   1.02873E+06,   1.02931E+06,   1.02931E+06
C:/temp/Job-26.odb,Step-1,Increment      1: Step Time =    1.000,"P-26-1",          1478,       179.722,       172.925,            0.,NA,NA,"",   1.02381E+06,   1.02522E+06,   1.02522E+06
C:/temp/Job-26.odb,Step-1,Increment      1: Step Time =    1.000,"P-26-1",          1479,       20.3244,       25.2022,            0.,NA,NA,"",   1.16309E+06,   1.20677E+06,   1.20677E+06
C:/temp/Job-26.odb,Step-1,Increment      1: Step Time =    1.000,"P-26-1",          1480,       27.8664,       178.542,            0.,NA,NA,"",   1.20167E+06,   1.21859E+06,   1.21859E+06
C:/temp/Job-26.odb,Step-1,Increment      1: Step Time =    1.000,"P-26-1",          1481,       173.029,       20.3128,            0.,NA,NA,"",   1.02935E+06,   1.02667E+06,   1.02667E+06
C:/temp/Job-26.odb,Step-1,Increment      1: Step Time =    1.000,"P-26-1",          1482,       167.573,       149.856,            0.,NA,NA,"",   1.10671E+06,   1.08736E+06,   1.08736E+06
C:/temp/Job-26.odb,Step-1,Increment      1: Step Time =    1.000,"P-26-1",          1483,       48.8503,       167.674,            0.,NA,NA,"",   1.21123E+06,   1.19330E+06,   1.19330E+06
C:/temp/Job-26.odb,Step-1,Increment      1: Step Time =    1.000,"P-26-1",          1484,       144.160,       134.435,            0.,NA,NA,"",   1.32006E+06,   1.20051E+06,   1.20051E+06
C:/temp/Job-26.odb,Step-1,Increment      1: Step Time =    1.000,"P-26-1",          1485,       49.0378,       171.799,            0.,NA,NA,"",   1.20572E+06,   1.19033E+06,   1.19033E+06
C:/temp/Job-26.odb,Step-1,Increment      1: Step Time =    1.000,"P-26-1",          1486,       171.955,       149.589,            0.,NA,NA,"",   1.07567E+06,   1.06884E+06,   1.06884E+06
C:/temp/Job-26.odb,Step-1,Increment      1: Step Time =    1.000,"P-26-1",          1487,       33.7694,       47.4920,            0.,NA,NA,"",   1.07812E+06,   1.09616E+06,   1.09616E+06
C:/temp/Job-26.odb,Step-1,Increment      1: Step Time =    1.000,"P-26-1",          1488,       185.144,       168.773,            0.,NA,NA,"",   1.01091E+06,   1.01780E+06,   1.01780E+06
C:/temp/Job-26.odb,Step-1,Increment      1: Step Time =    1.000,"P-26-1",          1489,       15.6057,       30.3491,            0.,NA,NA,"",   1.09025E+06,   1.15788E+06,   1.15788E+06
C:/temp/Job-26.odb,Step-1,Increment      1: Step Time =    1.000,"P-26-1",          1490,       31.5307,       183.985,            0.,NA,NA,"",   1.21762E+06,   1.22271E+06,   1.22271E+06
C:/temp/Job-26.odb,Step-1,Increment      1: Step Time =    1.000,"P-26-1",          1491,       168.864,       14.8866,            0.,NA,NA,"",   1.02401E+06,   1.02095E+06,   1.02095E+06
C:/temp/Job-26.odb,Step-1,Increment      1: Step Time =    1.000,"P-26-1",          1492,       37.2884,       43.5029,            0.,NA,NA,"",   1.13197E+06,   1.13594E+06,   1.13594E+06
C:/temp/Job-26.odb,Step-1,Increment      1: Step Time =    1.000,"P-26-1",          1493,       154.627,       31.7075,            0.,NA,NA,"",   1.12297E+06,   1.09860E+06,   1.09860E+06
C:/temp/Job-26.odb,Step-1,Increment      1: Step Time =    1.000,"P-26-1",          1494,       184.648,       173.793,            0.,NA,NA,"",   1.01111E+06,   1.01527E+06,   1.01527E+06
C:/temp/Job-26.odb,Step-1,Increment      1: Step Time =    1.000,"P-26-1",          1495,       180.755,       163.369,            0.,NA,NA,"",   1.02644E+06,   1.03204E+06,   1.03204E+06
C:/temp/Job-26.odb,Step-1,Increment      1: Step Time =    1.000,"P-26-1",          1496,       21.2731,       34.8421,            0.,NA,NA,"",   1.08907E+06,   1.13941E+06,   1.13941E+06
C:/temp/Job-26.odb,Step-1,Increment      1: Step Time =    1.000,"P-26-1",          1497,       15.3360,       25.3392,            0.,NA,NA,"",   1.13683E+06,   1.20033E+06,   1.20033E+06
C:/temp/Job-26.odb,Step-1,Increment      1: Step Time =    1.000,"P-26-1",          1498,       36.1314,       178.558,            0.,NA,NA,"",   1.20207E+06,   1.20335E+06,   1.20335E+06
C:/temp/Job-26.odb,Step-1,Increment      1: Step Time =    1.000,"P-26-1",          1499,       27.1163,       183.722,            0.,NA,NA,"",   1.22836E+06,   1.24036E+06,   1.24036E+06
C:/temp/Job-26.odb,Step-1,Increment      1: Step Time =    1.000,"P-26-1",          1500,       173.862,       15.3701,            0.,NA,NA,"",   1.01869E+06,   1.01732E+06,   1.01732E+06
C:/temp/Job-26.odb,Step-1,Increment      1: Step Time =    1.000,"P-26-1",          1501,       163.548,       19.2912,            0.,NA,NA,"",   1.04446E+06,   1.03708E+06,   1.03708E+06
C:/temp/Job-26.odb,Step-1,Increment      1: Step Time =    1.000,"P-26-1",          1502,       151.897,       37.2298,            0.,NA,NA,"",   1.16445E+06,   1.13013E+06,   1.13013E+06
C:/temp/Job-26.odb,Step-1,Increment      1: Step Time =    1.000,"P-26-1",          1503,       38.9027,       50.3760,            0.,NA,NA,"",   1.10268E+06,   1.10388E+06,   1.10388E+06
C:/temp/Job-26.odb,Step-1,Increment      1: Step Time =    1.000,"P-26-1",          1504,       184.155,       178.954,            0.,NA,NA,"",   1.00953E+06,   1.01194E+06,   1.01194E+06
C:/temp/Job-26.odb,Step-1,Increment      1: Step Time =    1.000,"P-26-1",          1505,       15.1690,       20.3074,            0.,NA,NA,"",   1.19060E+06,   1.24669E+06,   1.24669E+06
C:/temp/Job-26.odb,Step-1,Increment      1: Step Time =    1.000,"P-26-1",          1506,       23.2771,       182.865,            0.,NA,NA,"",   1.22849E+06,   1.25080E+06,   1.25080E+06
C:/temp/Job-26.odb,Step-1,Increment      1: Step Time =    1.000,"P-26-1",          1507,       178.998,       15.8521,            0.,NA,NA,"",   1.01256E+06,   1.01283E+06,   1.01283E+06
C:/temp/Job-26.odb,Step-1,Increment      1: Step Time =    1.000,"P-26-1",          1508,       36.2503,       183.763,            0.,NA,NA,"",   1.20458E+06,   1.20494E+06,   1.20494E+06
C:/temp/Job-26.odb,Step-1,Increment      1: Step Time =    1.000,"P-26-1",          1509,       185.507,       163.914,            0.,NA,NA,"",   1.00922E+06,   1.01975E+06,   1.01975E+06
C:/temp/Job-26.odb,Step-1,Increment      1: Step Time =    1.000,"P-26-1",          1510,       164.028,       14.5349,            0.,NA,NA,"",   1.02791E+06,   1.02346E+06,   1.02346E+06
C:/temp/Job-26.odb,Step-1,Increment      1: Step Time =    1.000,"P-26-1",          1511,       16.0978,       35.2258,            0.,NA,NA,"",   1.05180E+06,   1.12048E+06,   1.12048E+06
C:/temp/Job-26.odb,Step-1,Increment      1: Step Time =    1.000,"P-26-1",          1512,       40.7720,       46.6398,            0.,NA,NA,"",   1.14135E+06,   1.13561E+06,   1.13561E+06
C:/temp/Job-26.odb,Step-1,Increment      1: Step Time =    1.000,"P-26-1",          1513,       179.015,       184.361,            0.,NA,NA,"",   1.01228E+06,   1.01251E+06,   1.01251E+06
C:/temp/Job-26.odb,Step-1,Increment      1: Step Time =    1.000,"P-26-1",          1514,       13.1238,       179.152,            0.,NA,NA,"",   1.17185E+06,   1.23914E+06,   1.23914E+06
C:/temp/Job-26.odb,Step-1,Increment      1: Step Time =    1.000,"P-26-1",          1515,       19.9811,       15.1563,            0.,NA,NA,"",   1.25241E+06,   1.27683E+06,   1.27683E+06
C:/temp/Job-26.odb,Step-1,Increment      1: Step Time =    1.000,"P-26-1",          1516,       184.390,       20.9995,            0.,NA,NA,"",   1.00865E+06,   1.01130E+06,   1.01130E+06
C:/temp/Job-26.odb,Step-1,Increment      1: Step Time =    1.000,"P-26-1",          1517,       41.0603,       183.011,            0.,NA,NA,"",   1.19431E+06,   1.19045E+06,   1.19045E+06
C:/temp/Job-26.odb,Step-1,Increment      1: Step Time =    1.000,"P-26-1",          1518,       17.0287,       39.7216,            0.,NA,NA,"",   1.02143E+06,   1.08901E+06,   1.08901E+06
C:/temp/Job-26.odb,Step-1,Increment      1: Step Time =    1.000,"P-26-1",          1519,       190.302,       164.375,            0.,NA,NA,"",   996.725E+03,   1.00998E+06,   1.00998E+06
C:/temp/Job-26.odb,Step-1,Increment      1: Step Time =    1.000,"P-26-1",          1520,       36.3094,       189.012,            0.,NA,NA,"",   1.20197E+06,   1.20186E+06,   1.20186E+06
C:/temp/Job-26.odb,Step-1,Increment      1: Step Time =    1.000,"P-26-1",          1521,       10.9776,       35.7463,            0.,NA,NA,"",   1.01164E+06,   1.09874E+06,   1.09874E+06
C:/temp/Job-26.odb,Step-1,Increment      1: Step Time =    1.000,"P-26-1",          1522,       164.440,       9.72389,            0.,NA,NA,"",   1.01406E+06,   1.01185E+06,   1.01185E+06
C:/temp/Job-26.odb,Step-1,Increment      1: Step Time =    1.000,"P-26-1",          1523,       43.4898,       44.3232,            0.,NA,NA,"",   1.17192E+06,   1.15895E+06,   1.15895E+06
C:/temp/Job-26.odb,Step-1,Increment      1: Step Time =    1.000,"P-26-1",          1524,       153.042,       41.8269,            0.,NA,NA,"",   1.18490E+06,   1.14343E+06,   1.14343E+06
C:/temp/Job-26.odb,Step-1,Increment      1: Step Time =    1.000,"P-26-1",          1525,       149.961,       28.2628,            0.,NA,NA,"",   1.11472E+06,   1.09319E+06,   1.09319E+06
C:/temp/Job-26.odb,Step-1,Increment      1: Step Time =    1.000,"P-26-1",          1526,       28.4569,       51.8377,            0.,NA,NA,"",   1.00391E+06,   1.04166E+06,   1.04166E+06
C:/temp/Job-26.odb,Step-1,Increment      1: Step Time =    1.000,"P-26-1",          1527,       173.927,       185.205,            0.,NA,NA,"",   1.01730E+06,   1.01608E+06,   1.01608E+06
C:/temp/Job-26.odb,Step-1,Increment      1: Step Time =    1.000,"P-26-1",          1528,       17.8550,       183.086,            0.,NA,NA,"",   1.23803E+06,   1.27298E+06,   1.27298E+06
C:/temp/Job-26.odb,Step-1,Increment      1: Step Time =    1.000,"P-26-1",          1529,       12.5750,       174.362,            0.,NA,NA,"",   1.11426E+06,   1.19087E+06,   1.19087E+06
C:/temp/Job-26.odb,Step-1,Increment      1: Step Time =    1.000,"P-26-1",          1530,       24.8011,       14.9324,            0.,NA,NA,"",   1.23836E+06,   1.25242E+06,   1.25242E+06
C:/temp/Job-26.odb,Step-1,Increment      1: Step Time =    1.000,"P-26-1",          1531,       185.245,       26.0892,            0.,NA,NA,"",   1.00878E+06,   1.01359E+06,   1.01359E+06
C:/temp/Job-26.odb,Step-1,Increment      1: Step Time =    1.000,"P-26-1",          1532,       159.265,       14.3128,            0.,NA,NA,"",   1.03055E+06,   1.02500E+06,   1.02500E+06
C:/temp/Job-26.odb,Step-1,Increment      1: Step Time =    1.000,"P-26-1",          1533,       16.7499,       45.6868,            0.,NA,NA,"",   974.640E+03,   1.04526E+06,   1.04526E+06
C:/temp/Job-26.odb,Step-1,Increment      1: Step Time =    1.000,"P-26-1",          1534,       47.3262,       185.265,            0.,NA,NA,"",   1.17250E+06,   1.16672E+06,   1.16672E+06
C:/temp/Job-26.odb,Step-1,Increment      1: Step Time =    1.000,"P-26-1",          1535,       185.750,       159.145,            0.,NA,NA,"",   1.00635E+06,   1.02139E+06,   1.02139E+06
C:/temp/Job-26.odb,Step-1,Increment      1: Step Time =    1.000,"P-26-1",          1536,       184.253,       184.273,            0.,NA,NA,"",   1.00678E+06,   1.00811E+06,   1.00811E+06
C:/temp/Job-26.odb,Step-1,Increment      1: Step Time =    1.000,"P-26-1",          1537,       184.293,       15.7502,            0.,NA,NA,"",   1.00658E+06,   1.00802E+06,   1.00802E+06
C:/temp/Job-26.odb,Step-1,Increment      1: Step Time =    1.000,"P-26-1",          1538,       13.8545,       184.119,            0.,NA,NA,"",   1.24743E+06,   1.29728E+06,   1.29728E+06
C:/temp/Job-26.odb,Step-1,Increment      1: Step Time =    1.000,"P-26-1",          1539,       15.0756,       15.2257,            0.,NA,NA,"",   1.26012E+06,   1.30190E+06,   1.30190E+06
C:/temp/Job-26.odb,Step-1,Increment      1: Step Time =    1.000,"P-26-1",          1540,       184.478,       10.4645,            0.,NA,NA,"",   1.00370E+06,   1.00439E+06,   1.00439E+06
C:/temp/Job-26.odb,Step-1,Increment      1: Step Time =    1.000,"P-26-1",          1541,       189.534,       184.466,            0.,NA,NA,"",   1.00245E+06,   1.00404E+06,   1.00404E+06
C:/temp/Job-26.odb,Step-1,Increment      1: Step Time =    1.000,"P-26-1",          1542,       14.8206,       189.119,            0.,NA,NA,"",   1.31284E+06,   1.33967E+06,   1.33967E+06
C:/temp/Job-26.odb,Step-1,Increment      1: Step Time =    1.000,"P-26-1",          1543,       10.1069,       15.2111,            0.,NA,NA,"",   1.23688E+06,   1.30711E+06,   1.30711E+06
C:/temp/Job-26.odb,Step-1,Increment      1: Step Time =    1.000,"P-26-1",          1544,       172.921,       180.780,            0.,NA,NA,"",   1.02702E+06,   1.02455E+06,   1.02455E+06
C:/temp/Job-26.odb,Step-1,Increment      1: Step Time =    1.000,"P-26-1",          1545,       16.4439,       173.605,            0.,NA,NA,"",   1.13307E+06,   1.19379E+06,   1.19379E+06
C:/temp/Job-26.odb,Step-1,Increment      1: Step Time =    1.000,"P-26-1",          1546,       29.6797,       19.6707,            0.,NA,NA,"",   1.21081E+06,   1.22189E+06,   1.22189E+06
C:/temp/Job-26.odb,Step-1,Increment      1: Step Time =    1.000,"P-26-1",          1547,       180.858,       27.0965,            0.,NA,NA,"",   1.01922E+06,   1.02204E+06,   1.02204E+06
C:/temp/Job-26.odb,Step-1,Increment      1: Step Time =    1.000,"P-26-1",          1548,       176.451,       153.989,            0.,NA,NA,"",   1.04990E+06,   1.05232E+06,   1.05232E+06
C:/temp/Job-26.odb,Step-1,Increment      1: Step Time =    1.000,"P-26-1",          1549,       27.2205,       43.4802,            0.,NA,NA,"",   1.06223E+06,   1.09850E+06,   1.09850E+06
C:/temp/Job-26.odb,Step-1,Increment      1: Step Time =    1.000,"P-26-1",          1550,       154.266,       23.6405,            0.,NA,NA,"",   1.08052E+06,   1.06538E+06,   1.06538E+06
C:/temp/Job-26.odb,Step-1,Increment      1: Step Time =    1.000,"P-26-1",          1551,       44.9064,       176.968,            0.,NA,NA,"",   1.19758E+06,   1.18852E+06,   1.18852E+06
C:/temp/Job-26.odb,Step-1,Increment      1: Step Time =    1.000,"P-26-1",          1552,       169.130,       186.086,            0.,NA,NA,"",   1.02017E+06,   1.01777E+06,   1.01777E+06
C:/temp/Job-26.odb,Step-1,Increment      1: Step Time =    1.000,"P-26-1",          1553,       11.8605,       169.915,            0.,NA,NA,"",   1.06367E+06,   1.14616E+06,   1.14616E+06
C:/temp/Job-26.odb,Step-1,Increment      1: Step Time =    1.000,"P-26-1",          1554,       29.4957,       14.6290,            0.,NA,NA,"",   1.22394E+06,   1.23061E+06,   1.23061E+06
C:/temp/Job-26.odb,Step-1,Increment      1: Step Time =    1.000,"P-26-1",          1555,       186.133,       30.8846,            0.,NA,NA,"",   1.00655E+06,   1.01448E+06,   1.01448E+06
C:/temp/Job-26.odb,Step-1,Increment      1: Step Time =    1.000,"P-26-1",          1556,       184.529,       189.595,            0.,NA,NA,"",   1.00357E+06,   1.00423E+06,   1.00423E+06
C:/temp/Job-26.odb,Step-1,Increment      1: Step Time =    1.000,"P-26-1",          1557,       189.602,       15.4729,            0.,NA,NA,"",   1.00218E+06,   1.00386E+06,   1.00386E+06
C:/temp/Job-26.odb,Step-1,Increment      1: Step Time =    1.000,"P-26-1",          1558,       9.34019,       184.657,            0.,NA,NA,"",   1.22726E+06,   1.30293E+06,   1.30293E+06
C:/temp/Job-26.odb,Step-1,Increment      1: Step Time =    1.000,"P-26-1",          1559,       15.0202,       10.1216,            0.,NA,NA,"",   1.31745E+06,   1.34069E+06,   1.34069E+06
C:/temp/Job-26.odb,Step-1,Increment      1: Step Time =    1.000,"P-26-1",          1560,       49.4388,       53.8698,            0.,NA,NA,"",   1.17989E+06,   1.14680E+06,   1.14680E+06
C:/temp/Job-26.odb,Step-1,Increment      1: Step Time =    1.000,"P-26-1",          1561,       96.0766,       145.275,            0.,NA,NA,"",   1.29763E+06,   1.41560E+06,   1.41560E+06
C:/temp/Job-26.odb,Step-1,Increment      1: Step Time =    1.000,"P-26-1",          1562,       116.126,       67.1513,            0.,NA,NA,"",   1.59291E+06,   1.63951E+06,   1.63951E+06
C:/temp/Job-26.odb,Step-1,Increment      1: Step Time =    1.000,"P-26-1",          1563,       124.163,       74.8455,            0.,NA,NA,"",   1.48479E+06,   1.36736E+06,   1.36736E+06
C:/temp/Job-26.odb,Step-1,Increment      1: Step Time =    1.000,"P-26-1",          1564,       158.420,       186.175,            0.,NA,NA,"",   1.02721E+06,   1.02213E+06,   1.02213E+06
C:/temp/Job-26.odb,Step-1,Increment      1: Step Time =    1.000,"P-26-1",          1565,       13.4914,       158.520,            0.,NA,NA,"",   984.537E+03,   1.06428E+06,   1.06428E+06
C:/temp/Job-26.odb,Step-1,Increment      1: Step Time =    1.000,"P-26-1",          1566,       186.235,       41.5714,            0.,NA,NA,"",   1.00258E+06,   1.01963E+06,   1.01963E+06
C:/temp/Job-26.odb,Step-1,Increment      1: Step Time =    1.000,"P-26-1",          1567,       42.0209,       14.3474,            0.,NA,NA,"",   1.18689E+06,   1.18304E+06,   1.18304E+06
C:/temp/Job-26.odb,Step-1,Increment      1: Step Time =    1.000,"P-26-1",          1568,       8.52667,       161.363,            0.,NA,NA,"",   971.028E+03,   1.06625E+06,   1.06625E+06
C:/temp/Job-26.odb,Step-1,Increment      1: Step Time =    1.000,"P-26-1",          1569,       38.6661,       9.46413,            0.,NA,NA,"",   1.18837E+06,   1.18745E+06,   1.18745E+06
C:/temp/Job-26.odb,Step-1,Increment      1: Step Time =    1.000,"P-26-1",          1570,       161.056,       191.221,            0.,NA,NA,"",   1.01082E+06,   1.00878E+06,   1.00878E+06
C:/temp/Job-26.odb,Step-1,Increment      1: Step Time =    1.000,"P-26-1",          1571,       191.253,       38.9426,            0.,NA,NA,"",   990.641E+03,   1.00871E+06,   1.00871E+06
C:/temp/Job-26.odb,Step-1,Increment      1: Step Time =    1.000,"P-26-1",          1572,       75.6031,       143.369,            0.,NA,NA,"",   1.40138E+06,   1.37716E+06,   1.37716E+06
C:/temp/Job-26.odb,Step-1,Increment      1: Step Time =    1.000,"P-26-1",          1573,       145.575,       61.4088,            0.,NA,NA,"",   1.30896E+06,   1.20848E+06,   1.20848E+06
C:/temp/Job-26.odb,Step-1,Increment      1: Step Time =    1.000,"P-26-1",          1574,       44.5546,       160.211,            0.,NA,NA,"",   1.19294E+06,   1.17744E+06,   1.17744E+06
C:/temp/Job-26.odb,Step-1,Increment      1: Step Time =    1.000,"P-26-1",          1575,       29.5088,       9.65620,            0.,NA,NA,"",   1.22724E+06,   1.23059E+06,   1.23059E+06
C:/temp/Job-26.odb,Step-1,Increment      1: Step Time =    1.000,"P-26-1",          1576,       10.3087,       25.3522,            0.,NA,NA,"",   1.10171E+06,   1.18695E+06,   1.18695E+06
C:/temp/Job-26.odb,Step-1,Increment      1: Step Time =    1.000,"P-26-1",          1577,       8.08334,       170.152,            0.,NA,NA,"",   1.04061E+06,   1.13708E+06,   1.13708E+06
C:/temp/Job-26.odb,Step-1,Increment      1: Step Time =    1.000,"P-26-1",          1578,       174.364,       10.2399,            0.,NA,NA,"",   1.00988E+06,   1.00931E+06,   1.00931E+06
C:/temp/Job-26.odb,Step-1,Increment      1: Step Time =    1.000,"P-26-1",          1579,       190.796,       30.1633,            0.,NA,NA,"",   998.359E+03,   1.00697E+06,   1.00697E+06
C:/temp/Job-26.odb,Step-1,Increment      1: Step Time =    1.000,"P-26-1",          1580,       25.9898,       188.867,            0.,NA,NA,"",   1.24567E+06,   1.25249E+06,   1.25249E+06
C:/temp/Job-26.odb,Step-1,Increment      1: Step Time =    1.000,"P-26-1",          1581,       169.846,       190.771,            0.,NA,NA,"",   1.01009E+06,   1.00910E+06,   1.00910E+06
C:/temp/Job-26.odb,Step-1,Increment      1: Step Time =    1.000,"P-26-1",          1582,       189.765,       174.325,            0.,NA,NA,"",   1.00212E+06,   1.00744E+06,   1.00744E+06
C:/temp/Job-26.odb,Step-1,Increment      1: Step Time =    1.000,"P-26-1",          1583,       94.0521,       56.0061,            0.,NA,NA,"",   1.33207E+06,   1.44775E+06,   1.44775E+06
C:/temp/Job-26.odb,Step-1,Increment      1: Step Time =    1.000,"P-26-1",          1584,       78.6291,       39.9013,            0.,NA,NA,"",   1.23288E+06,   1.24429E+06,   1.24429E+06
C:/temp/Job-26.odb,Step-1,Increment      1: Step Time =    1.000,"P-26-1",          1585,       158.946,       80.0195,            0.,NA,NA,"",   967.832E+03,   939.082E+03,   939.082E+03
C:/temp/Job-26.odb,Step-1,Increment      1: Step Time =    1.000,"P-26-1",          1586,       144.780,       117.326,            0.,NA,NA,"",   992.553E+03,   874.416E+03,   874.416E+03
C:/temp/Job-26.odb,Step-1,Increment      1: Step Time =    1.000,"P-26-1",          1587,       11.8525,       166.384,            0.,NA,NA,"",   1.03105E+06,   1.11521E+06,   1.11521E+06
C:/temp/Job-26.odb,Step-1,Increment      1: Step Time =    1.000,"P-26-1",          1588,       33.9067,       14.2122,            0.,NA,NA,"",   1.21000E+06,   1.21189E+06,   1.21189E+06
C:/temp/Job-26.odb,Step-1,Increment      1: Step Time =    1.000,"P-26-1",          1589,       165.132,       187.319,            0.,NA,NA,"",   1.02078E+06,   1.01772E+06,   1.01772E+06
C:/temp/Job-26.odb,Step-1,Increment      1: Step Time =    1.000,"P-26-1",          1590,       187.370,       34.8754,            0.,NA,NA,"",   1.00319E+06,   1.01473E+06,   1.01473E+06
C:/temp/Job-26.odb,Step-1,Increment      1: Step Time =    1.000,"P-26-1",          1591,       186.825,       57.9599,            0.,NA,NA,"",   979.085E+03,   1.01978E+06,   1.01978E+06
C:/temp/Job-26.odb,Step-1,Increment      1: Step Time =    1.000,"P-26-1",          1592,       57.8434,       12.9122,            0.,NA,NA,"",   1.12894E+06,   1.12307E+06,   1.12307E+06
C:/temp/Job-26.odb,Step-1,Increment      1: Step Time =    1.000,"P-26-1",          1593,       141.976,       186.791,            0.,NA,NA,"",   1.02043E+06,   1.01503E+06,   1.01503E+06
C:/temp/Job-26.odb,Step-1,Increment      1: Step Time =    1.000,"P-26-1",          1594,       11.8480,       143.161,            0.,NA,NA,"",   854.458E+03,   938.151E+03,   938.151E+03
C:/temp/Job-26.odb,Step-1,Increment      1: Step Time =    1.000,"P-26-1",          1595,       161.806,       187.358,            0.,NA,NA,"",   1.02221E+06,   1.01840E+06,   1.01840E+06
C:/temp/Job-26.odb,Step-1,Increment      1: Step Time =    1.000,"P-26-1",          1596,       38.0029,       13.7661,            0.,NA,NA,"",   1.19782E+06,   1.19623E+06,   1.19623E+06
C:/temp/Job-26.odb,Step-1,Increment      1: Step Time =    1.000,"P-26-1",          1597,       12.5434,       162.404,            0.,NA,NA,"",   1.00839E+06,   1.09110E+06,   1.09110E+06
C:/temp/Job-26.odb,Step-1,Increment      1: Step Time =    1.000,"P-26-1",          1598,       187.415,       38.1937,            0.,NA,NA,"",   1.00094E+06,   1.01584E+06,   1.01584E+06
C:/temp/Job-26.odb,Step-1,Increment      1: Step Time =    1.000,"P-26-1",          1599,       47.5404,       11.0380,            0.,NA,NA,"",   1.15880E+06,   1.15468E+06,   1.15468E+06
C:/temp/Job-26.odb,Step-1,Increment      1: Step Time =    1.000,"P-26-1",          1600,       189.177,       47.2859,            0.,NA,NA,"",   987.062E+03,   1.01527E+06,   1.01527E+06
C:/temp/Job-26.odb,Step-1,Increment      1: Step Time =    1.000,"P-26-1",          1601,       152.700,       189.140,            0.,NA,NA,"",   1.01533E+06,   1.01118E+06,   1.01118E+06
C:/temp/Job-26.odb,Step-1,Increment      1: Step Time =    1.000,"P-26-1",          1602,       10.4398,       152.883,            0.,NA,NA,"",   919.641E+03,   1.00804E+06,   1.00804E+06
C:/temp/Job-26.odb,Step-1,Increment      1: Step Time =    1.000,"P-26-1",          1603,       5.03567,       5.04084,            0.,NA,NA,"",   1.51588E+06,   1.57512E+06,   1.57512E+06
C:/temp/Job-26.odb,Step-1,Increment      1: Step Time =    1.000,"P-26-1",          1604,       88.4113,       127.283,            0.,NA,NA,"",   1.92907E+06,   1.99383E+06,   1.99383E+06
C:/temp/Job-26.odb,Step-1,Increment      1: Step Time =    1.000,"P-26-1",          1605,       24.7556,       9.86265,            0.,NA,NA,"",   1.25159E+06,   1.25856E+06,   1.25856E+06
C:/temp/Job-26.odb,Step-1,Increment      1: Step Time =    1.000,"P-26-1",          1606,       9.23977,       51.8375,            0.,NA,NA,"",   877.365E+03,   968.131E+03,   968.131E+03
C:/temp/Job-26.odb,Step-1,Increment      1: Step Time =    1.000,"P-26-1",          1607,       50.5766,       191.623,            0.,NA,NA,"",   1.13825E+06,   1.13552E+06,   1.13552E+06
C:/temp/Job-26.odb,Step-1,Increment      1: Step Time =    1.000,"P-26-1",          1608,       149.788,       9.43746,            0.,NA,NA,"",   1.00768E+06,   1.00430E+06,   1.00430E+06
C:/temp/Job-26.odb,Step-1,Increment      1: Step Time =    1.000,"P-26-1",          1609,       190.630,       149.730,            0.,NA,NA,"",   977.009E+03,   1.01190E+06,   1.01190E+06
C:/temp/Job-26.odb,Step-1,Increment      1: Step Time =    1.000,"P-26-1",          1610,       189.778,       20.4911,            0.,NA,NA,"",   1.00207E+06,   1.00525E+06,   1.00525E+06
C:/temp/Job-26.odb,Step-1,Increment      1: Step Time =    1.000,"P-26-1",          1611,       179.516,       189.765,            0.,NA,NA,"",   1.00621E+06,   1.00642E+06,   1.00642E+06
C:/temp/Job-26.odb,Step-1,Increment      1: Step Time =    1.000,"P-26-1",          1612,       74.8905,       127.582,            0.,NA,NA,"",   1.42420E+06,   1.32132E+06,   1.32132E+06
C:/temp/Job-26.odb,Step-1,Increment      1: Step Time =    1.000,"P-26-1",          1613,       71.7021,       123.495,            0.,NA,NA,"",   1.21653E+06,   1.07371E+06,   1.07371E+06
C:/temp/Job-26.odb,Step-1,Increment      1: Step Time =    1.000,"P-26-1",          1614,       140.024,       90.6037,            0.,NA,NA,"",    684.81E+03,   547.812E+03,   547.812E+03
C:/temp/Job-26.odb,Step-1,Increment      1: Step Time =    1.000,"P-26-1",          1615,       93.7800,       134.690,            0.,NA,NA,"",   1.62567E+06,   1.76507E+06,   1.76507E+06
C:/temp/Job-26.odb,Step-1,Increment      1: Step Time =    1.000,"P-26-1",          1616,       133.294,       107.183,            0.,NA,NA,"",   580.948E+03,   8.97903E+03,   8.97903E+03
C:/temp/Job-26.odb,Step-1,Increment      1: Step Time =    1.000,"P-26-1",          1617,       70.4556,       118.082,            0.,NA,NA,"",   1.02116E+06,   828.887E+03,   828.887E+03
C:/temp/Job-26.odb,Step-1,Increment      1: Step Time =    1.000,"P-26-1",          1618,       8.44014,       174.825,            0.,NA,NA,"",   1.08790E+06,   1.18153E+06,   1.18153E+06
C:/temp/Job-26.odb,Step-1,Increment      1: Step Time =    1.000,"P-26-1",          1619,       56.3734,       20.2340,            0.,NA,NA,"",   1.16938E+06,   1.15794E+06,   1.15794E+06
C:/temp/Job-26.odb,Step-1,Increment      1: Step Time =    1.000,"P-26-1",          1620,       67.5449,       14.7317,            0.,NA,NA,"",   1.09940E+06,   1.09513E+06,   1.09513E+06
C:/temp/Job-26.odb,Step-1,Increment      1: Step Time =    1.000,"P-26-1",          1621,       179.376,       56.9969,            0.,NA,NA,"",   1.02150E+06,   1.04047E+06,   1.04047E+06
C:/temp/Job-26.odb,Step-1,Increment      1: Step Time =    1.000,"P-26-1",          1622,       185.452,       67.4566,            0.,NA,NA,"",   958.265E+03,   1.01281E+06,   1.01281E+06
C:/temp/Job-26.odb,Step-1,Increment      1: Step Time =    1.000,"P-26-1",          1623,       142.892,       179.368,            0.,NA,NA,"",   1.06944E+06,   1.05790E+06,   1.05790E+06
C:/temp/Job-26.odb,Step-1,Increment      1: Step Time =    1.000,"P-26-1",          1624,       132.354,       185.337,            0.,NA,NA,"",   1.01435E+06,   1.01201E+06,   1.01201E+06
C:/temp/Job-26.odb,Step-1,Increment      1: Step Time =    1.000,"P-26-1",          1625,       45.7431,       181.381,            0.,NA,NA,"",   1.18712E+06,   1.17979E+06,   1.17979E+06
C:/temp/Job-26.odb,Step-1,Increment      1: Step Time =    1.000,"P-26-1",          1626,       64.0871,       118.599,            0.,NA,NA,"",   967.760E+03,   828.482E+03,   828.482E+03
C:/temp/Job-26.odb,Step-1,Increment      1: Step Time =    1.000,"P-26-1",          1627,       75.5952,       133.094,            0.,NA,NA,"",   1.46967E+06,   1.40734E+06,   1.40734E+06
C:/temp/Job-26.odb,Step-1,Increment      1: Step Time =    1.000,"P-26-1",          1628,       133.297,       79.4118,            0.,NA,NA,"",   1.26498E+06,   1.04673E+06,   1.04673E+06
C:/temp/Job-26.odb,Step-1,Increment      1: Step Time =    1.000,"P-26-1",          1629,       20.5960,       181.441,            0.,NA,NA,"",   1.22283E+06,   1.25315E+06,   1.25315E+06
C:/temp/Job-26.odb,Step-1,Increment      1: Step Time =    1.000,"P-26-1",          1630,       18.5910,       43.0988,            0.,NA,NA,"",   1.00450E+06,   1.06933E+06,   1.06933E+06
C:/temp/Job-26.odb,Step-1,Increment      1: Step Time =    1.000,"P-26-1",          1631,       79.4389,       135.089,            0.,NA,NA,"",   1.50384E+06,   1.48740E+06,   1.48740E+06
C:/temp/Job-26.odb,Step-1,Increment      1: Step Time =    1.000,"P-26-1",          1632,       148.797,       180.249,            0.,NA,NA,"",   1.06291E+06,   1.05136E+06,   1.05136E+06
C:/temp/Job-26.odb,Step-1,Increment      1: Step Time =    1.000,"P-26-1",          1633,       180.329,       51.1331,            0.,NA,NA,"",   1.02489E+06,   1.03993E+06,   1.03993E+06
C:/temp/Job-26.odb,Step-1,Increment      1: Step Time =    1.000,"P-26-1",          1634,       135.900,       117.496,            0.,NA,NA,"",   1.09775E+06,   885.328E+03,   885.328E+03
C:/temp/Job-26.odb,Step-1,Increment      1: Step Time =    1.000,"P-26-1",          1635,       136.065,       121.557,            0.,NA,NA,"",   1.25461E+06,   1.04994E+06,   1.04994E+06
C:/temp/Job-26.odb,Step-1,Increment      1: Step Time =    1.000,"P-26-1",          1636,       16.8957,       178.386,            0.,NA,NA,"",   1.18932E+06,   1.23938E+06,   1.23938E+06
C:/temp/Job-26.odb,Step-1,Increment      1: Step Time =    1.000,"P-26-1",          1637,       20.1106,       20.1657,            0.,NA,NA,"",   1.20954E+06,   1.24497E+06,   1.24497E+06
C:/temp/Job-26.odb,Step-1,Increment      1: Step Time =    1.000,"P-26-1",          1638,       15.9762,       141.657,            0.,NA,NA,"",   863.784E+03,   938.890E+03,   938.890E+03
C:/temp/Job-26.odb,Step-1,Increment      1: Step Time =    1.000,"P-26-1",          1639,       18.1441,       145.120,            0.,NA,NA,"",   904.271E+03,   974.413E+03,   974.413E+03
C:/temp/Job-26.odb,Step-1,Increment      1: Step Time =    1.000,"P-26-1",          1640,       129.563,       126.088,            0.,NA,NA,"",   1.47402E+06,   1.30259E+06,   1.30259E+06
C:/temp/Job-26.odb,Step-1,Increment      1: Step Time =    1.000,"P-26-1",          1641,       182.429,       39.4765,            0.,NA,NA,"",   1.01916E+06,   1.02892E+06,   1.02892E+06
C:/temp/Job-26.odb,Step-1,Increment      1: Step Time =    1.000,"P-26-1",          1642,       22.1726,       48.1582,            0.,NA,NA,"",   988.328E+03,   1.04364E+06,   1.04364E+06
C:/temp/Job-26.odb,Step-1,Increment      1: Step Time =    1.000,"P-26-1",          1643,       17.4585,       54.8350,            0.,NA,NA,"",   902.592E+03,   974.266E+03,   974.266E+03
C:/temp/Job-26.odb,Step-1,Increment      1: Step Time =    1.000,"P-26-1",          1644,       160.511,       182.328,            0.,NA,NA,"",   1.04104E+06,   1.03396E+06,   1.03396E+06
C:/temp/Job-26.odb,Step-1,Increment      1: Step Time =    1.000,"P-26-1",          1645,       50.0732,       106.647,            0.,NA,NA,"",   469.760E+03,   500.276E+03,   500.276E+03
C:/temp/Job-26.odb,Step-1,Increment      1: Step Time =    1.000,"P-26-1",          1646,       69.0312,       72.3507,            0.,NA,NA,"",   1.31019E+06,   1.18443E+06,   1.18443E+06
C:/temp/Job-26.odb,Step-1,Increment      1: Step Time =    1.000,"P-26-1",          1647,       70.6327,       68.0786,            0.,NA,NA,"",   1.39839E+06,   1.29858E+06,   1.29858E+06
C:/temp/Job-26.odb,Step-1,Increment      1: Step Time =    1.000,"P-26-1",          1648,       91.6133,       52.4756,            0.,NA,NA,"",   1.28497E+06,   1.37712E+06,   1.37712E+06
C:/temp/Job-26.odb,Step-1,Increment      1: Step Time =    1.000,"P-26-1",          1649,       116.544,       61.9165,            0.,NA,NA,"",   1.48125E+06,   1.52762E+06,   1.52762E+06
C:/temp/Job-26.odb,Step-1,Increment      1: Step Time =    1.000,"P-26-1",          1650,       120.862,       61.6207,            0.,NA,NA,"",   1.48801E+06,   1.48423E+06,   1.48423E+06
C:/temp/Job-26.odb,Step-1,Increment      1: Step Time =    1.000,"P-26-1",          1651,       50.7558,       115.564,            0.,NA,NA,"",   715.565E+03,   701.012E+03,   701.012E+03
C:/temp/Job-26.odb,Step-1,Increment      1: Step Time =    1.000,"P-26-1",          1652,       136.967,       76.7763,            0.,NA,NA,"",   1.29793E+06,   1.10775E+06,   1.10775E+06
C:/temp/Job-26.odb,Step-1,Increment      1: Step Time =    1.000,"P-26-1",          1653,       101.944,       58.9495,            0.,NA,NA,"",   1.38282E+06,   1.52429E+06,   1.52429E+06
C:/temp/Job-26.odb,Step-1,Increment      1: Step Time =    1.000,"P-26-1",          1654,       113.826,       147.706,            0.,NA,NA,"",   1.29125E+06,   1.35755E+06,   1.35755E+06
C:/temp/Job-26.odb,Step-1,Increment      1: Step Time =    1.000,"P-26-1",          1655,       124.469,       61.4948,            0.,NA,NA,"",   1.49003E+06,   1.44572E+06,   1.44572E+06
C:/temp/Job-26.odb,Step-1,Increment      1: Step Time =    1.000,"P-26-1",          1656,       79.3488,       65.4040,            0.,NA,NA,"",   1.50722E+06,   1.48938E+06,   1.48938E+06
C:/temp/Job-26.odb,Step-1,Increment      1: Step Time =    1.000,"P-26-1",          1657,       149.073,       175.152,            0.,NA,NA,"",   1.09599E+06,   1.07858E+06,   1.07858E+06
C:/temp/Job-26.odb,Step-1,Increment      1: Step Time =    1.000,"P-26-1",          1658,       175.278,       50.8064,            0.,NA,NA,"",   1.05739E+06,   1.05838E+06,   1.05838E+06
C:/temp/Job-26.odb,Step-1,Increment      1: Step Time =    1.000,"P-26-1",          1659,       16.9319,       62.2950,            0.,NA,NA,"",   834.700E+03,   909.628E+03,   909.628E+03
C:/temp/Job-26.odb,Step-1,Increment      1: Step Time =    1.000,"P-26-1",          1660,       17.4264,       66.3959,            0.,NA,NA,"",   800.780E+03,   875.884E+03,   875.884E+03
C:/temp/Job-26.odb,Step-1,Increment      1: Step Time =    1.000,"P-26-1",          1661,       63.1484,       123.668,            0.,NA,NA,"",   1.11318E+06,   991.185E+03,   991.185E+03
C:/temp/Job-26.odb,Step-1,Increment      1: Step Time =    1.000,"P-26-1",          1662,       31.8889,       178.720,            0.,NA,NA,"",   1.20390E+06,   1.21219E+06,   1.21219E+06
C:/temp/Job-26.odb,Step-1,Increment      1: Step Time =    1.000,"P-26-1",          1663,       47.8537,       119.072,            0.,NA,NA,"",   781.887E+03,   774.825E+03,   774.825E+03
C:/temp/Job-26.odb,Step-1,Increment      1: Step Time =    1.000,"P-26-1",          1664,       44.5551,       116.717,            0.,NA,NA,"",   704.026E+03,   722.272E+03,   722.272E+03
C:/temp/Job-26.odb,Step-1,Increment      1: Step Time =    1.000,"P-26-1",          1665,       71.9892,       18.8855,            0.,NA,NA,"",   1.10892E+06,   1.10607E+06,   1.10607E+06
C:/temp/Job-26.odb,Step-1,Increment      1: Step Time =    1.000,"P-26-1",          1666,       24.1438,       178.088,            0.,NA,NA,"",   1.19751E+06,   1.22372E+06,   1.22372E+06
C:/temp/Job-26.odb,Step-1,Increment      1: Step Time =    1.000,"P-26-1",          1667,       181.659,       71.6170,            0.,NA,NA,"",   959.195E+03,   1.00881E+06,   1.00881E+06
C:/temp/Job-26.odb,Step-1,Increment      1: Step Time =    1.000,"P-26-1",          1668,       128.005,       181.399,            0.,NA,NA,"",   1.03469E+06,   1.03482E+06,   1.03482E+06
C:/temp/Job-26.odb,Step-1,Increment      1: Step Time =    1.000,"P-26-1",          1669,       20.3895,       173.201,            0.,NA,NA,"",   1.15154E+06,   1.19668E+06,   1.19668E+06
C:/temp/Job-26.odb,Step-1,Increment      1: Step Time =    1.000,"P-26-1",          1670,       171.664,       24.7466,            0.,NA,NA,"",   1.04218E+06,   1.03748E+06,   1.03748E+06
C:/temp/Job-26.odb,Step-1,Increment      1: Step Time =    1.000,"P-26-1",          1671,       167.472,       24.1997,            0.,NA,NA,"",   1.05194E+06,   1.04415E+06,   1.04415E+06
C:/temp/Job-26.odb,Step-1,Increment      1: Step Time =    1.000,"P-26-1",          1672,       175.285,       171.515,            0.,NA,NA,"",   1.03931E+06,   1.03689E+06,   1.03689E+06
C:/temp/Job-26.odb,Step-1,Increment      1: Step Time =    1.000,"P-26-1",          1673,       175.824,       167.264,            0.,NA,NA,"",   1.04329E+06,   1.04151E+06,   1.04151E+06
C:/temp/Job-26.odb,Step-1,Increment      1: Step Time =    1.000,"P-26-1",          1674,       71.8827,       142.856,            0.,NA,NA,"",   1.38845E+06,   1.34432E+06,   1.34432E+06
C:/temp/Job-26.odb,Step-1,Increment      1: Step Time =    1.000,"P-26-1",          1675,       107.601,       156.443,            0.,NA,NA,"",   1.15404E+06,   1.23101E+06,   1.23101E+06
C:/temp/Job-26.odb,Step-1,Increment      1: Step Time =    1.000,"P-26-1",          1676,       106.057,       56.5796,            0.,NA,NA,"",   1.31565E+06,   1.43882E+06,   1.43882E+06
C:/temp/Job-26.odb,Step-1,Increment      1: Step Time =    1.000,"P-26-1",          1677,       103.522,       56.4601,            0.,NA,NA,"",   1.31235E+06,   1.44384E+06,   1.44384E+06
C:/temp/Job-26.odb,Step-1,Increment      1: Step Time =    1.000,"P-26-1",          1678,       100.650,       50.5678,            0.,NA,NA,"",   1.21409E+06,   1.32603E+06,   1.32603E+06
C:/temp/Job-26.odb,Step-1,Increment      1: Step Time =    1.000,"P-26-1",          1679,       85.9403,       50.9393,            0.,NA,NA,"",   1.30412E+06,   1.35781E+06,   1.35781E+06
C:/temp/Job-26.odb,Step-1,Increment      1: Step Time =    1.000,"P-26-1",          1680,       92.7290,       46.4122,            0.,NA,NA,"",   1.20053E+06,   1.28134E+06,   1.28134E+06
C:/temp/Job-26.odb,Step-1,Increment      1: Step Time =    1.000,"P-26-1",          1681,       66.8605,       65.5963,            0.,NA,NA,"",   1.35083E+06,   1.25421E+06,   1.25421E+06
C:/temp/Job-26.odb,Step-1,Increment      1: Step Time =    1.000,"P-26-1",          1682,       178.106,       41.0679,            0.,NA,NA,"",   1.04039E+06,   1.04378E+06,   1.04378E+06
C:/temp/Job-26.odb,Step-1,Increment      1: Step Time =    1.000,"P-26-1",          1683,       158.914,       177.952,            0.,NA,NA,"",   1.06318E+06,   1.05187E+06,   1.05187E+06
C:/temp/Job-26.odb,Step-1,Increment      1: Step Time =    1.000,"P-26-1",          1684,       24.5775,       52.2657,            0.,NA,NA,"",   971.911E+03,   1.02150E+06,   1.02150E+06
C:/temp/Job-26.odb,Step-1,Increment      1: Step Time =    1.000,"P-26-1",          1685,       20.5233,       56.2251,            0.,NA,NA,"",   910.324E+03,    974.47E+03,    974.47E+03
C:/temp/Job-26.odb,Step-1,Increment      1: Step Time =    1.000,"P-26-1",          1686,       20.1390,       59.1093,            0.,NA,NA,"",   883.930E+03,   949.851E+03,   949.851E+03
C:/temp/Job-26.odb,Step-1,Increment      1: Step Time =    1.000,"P-26-1",          1687,       18.8603,       89.7793,            0.,NA,NA,"",   618.016E+03,   698.309E+03,   698.309E+03
C:/temp/Job-26.odb,Step-1,Increment      1: Step Time =    1.000,"P-26-1",          1688,       19.0848,       94.4650,            0.,NA,NA,"",   598.731E+03,   679.338E+03,   679.338E+03
C:/temp/Job-26.odb,Step-1,Increment      1: Step Time =    1.000,"P-26-1",          1689,       18.6462,       124.463,            0.,NA,NA,"",   718.293E+03,   795.129E+03,   795.129E+03
C:/temp/Job-26.odb,Step-1,Increment      1: Step Time =    1.000,"P-26-1",          1690,       19.1542,       140.695,            0.,NA,NA,"",   873.273E+03,   942.089E+03,   942.089E+03
C:/temp/Job-26.odb,Step-1,Increment      1: Step Time =    1.000,"P-26-1",          1691,       21.5619,       142.916,            0.,NA,NA,"",   904.519E+03,   966.864E+03,   966.864E+03
C:/temp/Job-26.odb,Step-1,Increment      1: Step Time =    1.000,"P-26-1",          1692,       53.1100,       178.602,            0.,NA,NA,"",   1.18180E+06,   1.16951E+06,   1.16951E+06
C:/temp/Job-26.odb,Step-1,Increment      1: Step Time =    1.000,"P-26-1",          1693,       53.8296,       171.152,            0.,NA,NA,"",   1.20845E+06,   1.18987E+06,   1.18987E+06
C:/temp/Job-26.odb,Step-1,Increment      1: Step Time =    1.000,"P-26-1",          1694,       24.3211,       145.934,            0.,NA,NA,"",   951.921E+03,   1.00373E+06,   1.00373E+06
C:/temp/Job-26.odb,Step-1,Increment      1: Step Time =    1.000,"P-26-1",          1695,       37.8151,       17.1298,            0.,NA,NA,"",   1.20166E+06,   1.20067E+06,   1.20067E+06
C:/temp/Job-26.odb,Step-1,Increment      1: Step Time =    1.000,"P-26-1",          1696,       15.5730,       168.284,            0.,NA,NA,"",   1.07533E+06,   1.14467E+06,   1.14467E+06
C:/temp/Job-26.odb,Step-1,Increment      1: Step Time =    1.000,"P-26-1",          1697,       44.6896,       112.333,            0.,NA,NA,"",   605.461E+03,   638.304E+03,   638.304E+03
C:/temp/Job-26.odb,Step-1,Increment      1: Step Time =    1.000,"P-26-1",          1698,       56.2402,       128.007,            0.,NA,NA,"",   1.08177E+06,   1.00674E+06,   1.00674E+06
C:/temp/Job-26.odb,Step-1,Increment      1: Step Time =    1.000,"P-26-1",          1699,       122.501,       149.772,            0.,NA,NA,"",   1.31924E+06,   1.32650E+06,   1.32650E+06
C:/temp/Job-26.odb,Step-1,Increment      1: Step Time =    1.000,"P-26-1",          1700,       21.7981,       66.1292,            0.,NA,NA,"",   824.817E+03,   891.040E+03,   891.040E+03
C:/temp/Job-26.odb,Step-1,Increment      1: Step Time =    1.000,"P-26-1",          1701,       22.9657,       70.3274,            0.,NA,NA,"",   788.340E+03,   854.720E+03,   854.720E+03
C:/temp/Job-26.odb,Step-1,Increment      1: Step Time =    1.000,"P-26-1",          1702,       137.477,       71.8352,            0.,NA,NA,"",   1.37145E+06,   1.20608E+06,   1.20608E+06
C:/temp/Job-26.odb,Step-1,Increment      1: Step Time =    1.000,"P-26-1",          1703,       24.4858,       168.265,            0.,NA,NA,"",   1.13185E+06,   1.16809E+06,   1.16809E+06
C:/temp/Job-26.odb,Step-1,Increment      1: Step Time =    1.000,"P-26-1",          1704,       173.526,       39.4293,            0.,NA,NA,"",   1.06279E+06,   1.05751E+06,   1.05751E+06
C:/temp/Job-26.odb,Step-1,Increment      1: Step Time =    1.000,"P-26-1",          1705,       160.490,       173.271,            0.,NA,NA,"",   1.08093E+06,   1.06620E+06,   1.06620E+06
C:/temp/Job-26.odb,Step-1,Increment      1: Step Time =    1.000,"P-26-1",          1706,       27.4840,       143.325,            0.,NA,NA,"",   949.690E+03,   993.242E+03,   993.242E+03
C:/temp/Job-26.odb,Step-1,Increment      1: Step Time =    1.000,"P-26-1",          1707,       41.2073,       119.616,            0.,NA,NA,"",   744.524E+03,   769.934E+03,   769.934E+03
C:/temp/Job-26.odb,Step-1,Increment      1: Step Time =    1.000,"P-26-1",          1708,       22.9267,       123.570,            0.,NA,NA,"",   722.357E+03,   793.554E+03,   793.554E+03
C:/temp/Job-26.odb,Step-1,Increment      1: Step Time =    1.000,"P-26-1",          1709,       28.8758,       132.811,            0.,NA,NA,"",   852.519E+03,   901.182E+03,   901.182E+03
C:/temp/Job-26.odb,Step-1,Increment      1: Step Time =    1.000,"P-26-1",          1710,       22.3418,       116.568,            0.,NA,NA,"",   659.093E+03,   735.236E+03,   735.236E+03
C:/temp/Job-26.odb,Step-1,Increment      1: Step Time =    1.000,"P-26-1",          1711,       69.1809,       147.953,            0.,NA,NA,"",   1.34651E+06,   1.30659E+06,   1.30659E+06
C:/temp/Job-26.odb,Step-1,Increment      1: Step Time =    1.000,"P-26-1",          1712,       79.7672,       146.493,            0.,NA,NA,"",   1.36477E+06,   1.37333E+06,   1.37333E+06
C:/temp/Job-26.odb,Step-1,Increment      1: Step Time =    1.000,"P-26-1",          1713,       74.6461,       55.3467,            0.,NA,NA,"",   1.38812E+06,   1.36315E+06,   1.36315E+06
C:/temp/Job-26.odb,Step-1,Increment      1: Step Time =    1.000,"P-26-1",          1714,       22.1566,       58.9816,            0.,NA,NA,"",   898.206E+03,   958.229E+03,   958.229E+03
C:/temp/Job-26.odb,Step-1,Increment      1: Step Time =    1.000,"P-26-1",          1715,       23.4750,       60.4792,            0.,NA,NA,"",   891.923E+03,   949.698E+03,   949.698E+03
C:/temp/Job-26.odb,Step-1,Increment      1: Step Time =    1.000,"P-26-1",          1716,       38.4649,       21.5996,            0.,NA,NA,"",   1.20002E+06,   1.19770E+06,   1.19770E+06
C:/temp/Job-26.odb,Step-1,Increment      1: Step Time =    1.000,"P-26-1",          1717,       149.471,       76.0843,            0.,NA,NA,"",   1.12573E+06,   1.02695E+06,   1.02695E+06
C:/temp/Job-26.odb,Step-1,Increment      1: Step Time =    1.000,"P-26-1",          1718,       158.955,       75.3348,            0.,NA,NA,"",   1.05119E+06,   1.00603E+06,   1.00603E+06
C:/temp/Job-26.odb,Step-1,Increment      1: Step Time =    1.000,"P-26-1",          1719,       87.3001,       44.9838,            0.,NA,NA,"",   1.22356E+06,   1.27857E+06,   1.27857E+06
C:/temp/Job-26.odb,Step-1,Increment      1: Step Time =    1.000,"P-26-1",          1720,       91.4915,       39.9747,            0.,NA,NA,"",   1.15562E+06,   1.21486E+06,   1.21486E+06
C:/temp/Job-26.odb,Step-1,Increment      1: Step Time =    1.000,"P-26-1",          1721,       167.024,       28.6483,            0.,NA,NA,"",   1.06594E+06,   1.05557E+06,   1.05557E+06
C:/temp/Job-26.odb,Step-1,Increment      1: Step Time =    1.000,"P-26-1",          1722,       162.906,       28.7515,            0.,NA,NA,"",   1.07989E+06,   1.06566E+06,   1.06566E+06
C:/temp/Job-26.odb,Step-1,Increment      1: Step Time =    1.000,"P-26-1",          1723,       173.941,       29.5421,            0.,NA,NA,"",   1.04612E+06,   1.04213E+06,   1.04213E+06
C:/temp/Job-26.odb,Step-1,Increment      1: Step Time =    1.000,"P-26-1",          1724,       171.333,       166.740,            0.,NA,NA,"",   1.06144E+06,   1.05422E+06,   1.05422E+06
C:/temp/Job-26.odb,Step-1,Increment      1: Step Time =    1.000,"P-26-1",          1725,       171.193,       162.523,            0.,NA,NA,"",   1.07098E+06,   1.06228E+06,   1.06228E+06
C:/temp/Job-26.odb,Step-1,Increment      1: Step Time =    1.000,"P-26-1",          1726,       170.467,       173.793,            0.,NA,NA,"",   1.05061E+06,   1.04424E+06,   1.04424E+06
C:/temp/Job-26.odb,Step-1,Increment      1: Step Time =    1.000,"P-26-1",          1727,       23.8963,       107.797,            0.,NA,NA,"",   594.952E+03,   672.526E+03,   672.526E+03
C:/temp/Job-26.odb,Step-1,Increment      1: Step Time =    1.000,"P-26-1",          1728,       40.2306,       168.567,            0.,NA,NA,"",   1.19034E+06,   1.18604E+06,   1.18604E+06
C:/temp/Job-26.odb,Step-1,Increment      1: Step Time =    1.000,"P-26-1",          1729,       42.0120,       106.293,            0.,NA,NA,"",   516.974E+03,   572.139E+03,   572.139E+03
C:/temp/Job-26.odb,Step-1,Increment      1: Step Time =    1.000,"P-26-1",          1730,       150.839,       114.614,            0.,NA,NA,"",   872.047E+03,   819.095E+03,   819.095E+03
C:/temp/Job-26.odb,Step-1,Increment      1: Step Time =    1.000,"P-26-1",          1731,       154.398,       102.205,            0.,NA,NA,"",   624.137E+03,   647.168E+03,   647.168E+03
C:/temp/Job-26.odb,Step-1,Increment      1: Step Time =    1.000,"P-26-1",          1732,       41.7233,       113.836,            0.,NA,NA,"",   633.726E+03,   672.521E+03,   672.521E+03
C:/temp/Job-26.odb,Step-1,Increment      1: Step Time =    1.000,"P-26-1",          1733,       132.296,       138.701,            0.,NA,NA,"",   1.44175E+06,   1.34499E+06,   1.34499E+06
C:/temp/Job-26.odb,Step-1,Increment      1: Step Time =    1.000,"P-26-1",          1734,       159.042,       95.3538,            0.,NA,NA,"",   692.902E+03,   723.375E+03,   723.375E+03
C:/temp/Job-26.odb,Step-1,Increment      1: Step Time =    1.000,"P-26-1",          1735,       145.193,       23.8521,            0.,NA,NA,"",   1.09186E+06,   1.07622E+06,   1.07622E+06
C:/temp/Job-26.odb,Step-1,Increment      1: Step Time =    1.000,"P-26-1",          1736,       176.359,       145.109,            0.,NA,NA,"",   1.04275E+06,   1.05100E+06,   1.05100E+06
C:/temp/Job-26.odb,Step-1,Increment      1: Step Time =    1.000,"P-26-1",          1737,       16.2083,       163.488,            0.,NA,NA,"",   1.04189E+06,   1.11166E+06,   1.11166E+06
C:/temp/Job-26.odb,Step-1,Increment      1: Step Time =    1.000,"P-26-1",          1738,       35.6164,       112.791,            0.,NA,NA,"",   618.543E+03,   677.252E+03,   677.252E+03
C:/temp/Job-26.odb,Step-1,Increment      1: Step Time =    1.000,"P-26-1",          1739,       151.068,       69.8260,            0.,NA,NA,"",   1.19233E+06,   1.10090E+06,   1.10090E+06
C:/temp/Job-26.odb,Step-1,Increment      1: Step Time =    1.000,"P-26-1",          1740,       65.4740,       54.3094,            0.,NA,NA,"",   1.34137E+06,   1.28486E+06,   1.28486E+06
C:/temp/Job-26.odb,Step-1,Increment      1: Step Time =    1.000,"P-26-1",          1741,       104.491,       48.5021,            0.,NA,NA,"",   1.19260E+06,   1.29272E+06,   1.29272E+06
C:/temp/Job-26.odb,Step-1,Increment      1: Step Time =    1.000,"P-26-1",          1742,       105.720,       52.6044,            0.,NA,NA,"",   1.24848E+06,   1.35846E+06,   1.35846E+06
C:/temp/Job-26.odb,Step-1,Increment      1: Step Time =    1.000,"P-26-1",          1743,       149.434,       119.407,            0.,NA,NA,"",   1.01077E+06,   924.497E+03,   924.497E+03
C:/temp/Job-26.odb,Step-1,Increment      1: Step Time =    1.000,"P-26-1",          1744,       66.0878,       49.9492,            0.,NA,NA,"",   1.32680E+06,   1.28367E+06,   1.28367E+06
C:/temp/Job-26.odb,Step-1,Increment      1: Step Time =    1.000,"P-26-1",          1745,       22.8582,       57.3194,            0.,NA,NA,"",   915.951E+03,   973.918E+03,   973.918E+03
C:/temp/Job-26.odb,Step-1,Increment      1: Step Time =    1.000,"P-26-1",          1746,       25.2568,       58.4010,            0.,NA,NA,"",   921.399E+03,   972.790E+03,   972.790E+03
C:/temp/Job-26.odb,Step-1,Increment      1: Step Time =    1.000,"P-26-1",          1747,       37.3408,       26.0191,            0.,NA,NA,"",   1.19660E+06,   1.19747E+06,   1.19747E+06
C:/temp/Job-26.odb,Step-1,Increment      1: Step Time =    1.000,"P-26-1",          1748,       40.4623,       25.3416,            0.,NA,NA,"",   1.20048E+06,   1.19524E+06,   1.19524E+06
C:/temp/Job-26.odb,Step-1,Increment      1: Step Time =    1.000,"P-26-1",          1749,       42.4347,       27.0770,            0.,NA,NA,"",   1.20135E+06,   1.19319E+06,   1.19319E+06
C:/temp/Job-26.odb,Step-1,Increment      1: Step Time =    1.000,"P-26-1",          1750,       34.2452,       28.2885,            0.,NA,NA,"",   1.18581E+06,   1.19375E+06,   1.19375E+06
C:/temp/Job-26.odb,Step-1,Increment      1: Step Time =    1.000,"P-26-1",          1751,       25.6153,       55.5415,            0.,NA,NA,"",   948.465E+03,   996.791E+03,   996.791E+03
C:/temp/Job-26.odb,Step-1,Increment      1: Step Time =    1.000,"P-26-1",          1752,       61.7869,       177.211,            0.,NA,NA,"",   1.17254E+06,   1.15968E+06,   1.15968E+06
C:/temp/Job-26.odb,Step-1,Increment      1: Step Time =    1.000,"P-26-1",          1753,       65.8598,       178.006,            0.,NA,NA,"",   1.15391E+06,   1.14445E+06,   1.14445E+06
C:/temp/Job-26.odb,Step-1,Increment      1: Step Time =    1.000,"P-26-1",          1754,       29.2495,       107.176,            0.,NA,NA,"",   577.436E+03,   650.147E+03,   650.147E+03
C:/temp/Job-26.odb,Step-1,Increment      1: Step Time =    1.000,"P-26-1",          1755,       36.2170,       164.396,            0.,NA,NA,"",   1.16216E+06,   1.16702E+06,   1.16702E+06
C:/temp/Job-26.odb,Step-1,Increment      1: Step Time =    1.000,"P-26-1",          1756,       52.7441,       162.714,            0.,NA,NA,"",   1.22901E+06,   1.20304E+06,   1.20304E+06
C:/temp/Job-26.odb,Step-1,Increment      1: Step Time =    1.000,"P-26-1",          1757,       29.9124,       141.060,            0.,NA,NA,"",   947.162E+03,   984.747E+03,   984.747E+03
C:/temp/Job-26.odb,Step-1,Increment      1: Step Time =    1.000,"P-26-1",          1758,       32.8777,       109.466,            0.,NA,NA,"",   586.850E+03,   654.216E+03,   654.216E+03
C:/temp/Job-26.odb,Step-1,Increment      1: Step Time =    1.000,"P-26-1",          1759,       86.7029,       40.8772,            0.,NA,NA,"",   1.19323E+06,   1.23744E+06,   1.23744E+06
C:/temp/Job-26.odb,Step-1,Increment      1: Step Time =    1.000,"P-26-1",          1760,       158.611,       71.8058,            0.,NA,NA,"",   1.10088E+06,   1.04740E+06,   1.04740E+06
C:/temp/Job-26.odb,Step-1,Increment      1: Step Time =    1.000,"P-26-1",          1761,       55.8033,       41.7729,            0.,NA,NA,"",   1.24901E+06,   1.21533E+06,   1.21533E+06
C:/temp/Job-26.odb,Step-1,Increment      1: Step Time =    1.000,"P-26-1",          1762,       156.363,       111.339,            0.,NA,NA,"",   798.060E+03,   793.374E+03,   793.374E+03
C:/temp/Job-26.odb,Step-1,Increment      1: Step Time =    1.000,"P-26-1",          1763,       158.208,       55.1005,            0.,NA,NA,"",   1.18248E+06,   1.13256E+06,   1.13256E+06
C:/temp/Job-26.odb,Step-1,Increment      1: Step Time =    1.000,"P-26-1",          1764,       143.612,       158.472,            0.,NA,NA,"",   1.23234E+06,   1.18635E+06,   1.18635E+06
C:/temp/Job-26.odb,Step-1,Increment      1: Step Time =    1.000,"P-26-1",          1765,       21.4104,       159.369,            0.,NA,NA,"",   1.04446E+06,   1.09887E+06,   1.09887E+06
C:/temp/Job-26.odb,Step-1,Increment      1: Step Time =    1.000,"P-26-1",          1766,       84.3480,       170.359,            0.,NA,NA,"",   1.12491E+06,   1.14725E+06,   1.14725E+06
C:/temp/Job-26.odb,Step-1,Increment      1: Step Time =    1.000,"P-26-1",          1767,       81.6666,       158.866,            0.,NA,NA,"",   1.23011E+06,   1.25299E+06,   1.25299E+06
C:/temp/Job-26.odb,Step-1,Increment      1: Step Time =    1.000,"P-26-1",          1768,       27.0982,       68.8682,            0.,NA,NA,"",   826.977E+03,   881.390E+03,   881.390E+03
C:/temp/Job-26.odb,Step-1,Increment      1: Step Time =    1.000,"P-26-1",          1769,       29.4367,       72.0952,            0.,NA,NA,"",   800.241E+03,   852.175E+03,   852.175E+03
C:/temp/Job-26.odb,Step-1,Increment      1: Step Time =    1.000,"P-26-1",          1770,       163.442,       33.2467,            0.,NA,NA,"",   1.09435E+06,   1.07706E+06,   1.07706E+06
C:/temp/Job-26.odb,Step-1,Increment      1: Step Time =    1.000,"P-26-1",          1771,       160.065,       34.1204,            0.,NA,NA,"",   1.11335E+06,   1.09093E+06,   1.09093E+06
C:/temp/Job-26.odb,Step-1,Increment      1: Step Time =    1.000,"P-26-1",          1772,       170.582,       32.5871,            0.,NA,NA,"",   1.06330E+06,   1.05505E+06,   1.05505E+06
C:/temp/Job-26.odb,Step-1,Increment      1: Step Time =    1.000,"P-26-1",          1773,       75.3662,       29.0709,            0.,NA,NA,"",   1.16542E+06,   1.16699E+06,   1.16699E+06
C:/temp/Job-26.odb,Step-1,Increment      1: Step Time =    1.000,"P-26-1",          1774,       166.621,       162.933,            0.,NA,NA,"",   1.09183E+06,   1.07622E+06,   1.07622E+06
C:/temp/Job-26.odb,Step-1,Increment      1: Step Time =    1.000,"P-26-1",          1775,       165.706,       159.388,            0.,NA,NA,"",   1.10793E+06,   1.08781E+06,   1.08781E+06
C:/temp/Job-26.odb,Step-1,Increment      1: Step Time =    1.000,"P-26-1",          1776,       167.376,       170.338,            0.,NA,NA,"",   1.06834E+06,   1.05784E+06,   1.05784E+06
C:/temp/Job-26.odb,Step-1,Increment      1: Step Time =    1.000,"P-26-1",          1777,       125.092,       171.922,            0.,NA,NA,"",   1.10439E+06,   1.10984E+06,   1.10984E+06
C:/temp/Job-26.odb,Step-1,Increment      1: Step Time =    1.000,"P-26-1",          1778,       150.668,       32.6464,            0.,NA,NA,"",   1.14099E+06,   1.11330E+06,   1.11330E+06
C:/temp/Job-26.odb,Step-1,Increment      1: Step Time =    1.000,"P-26-1",          1779,       28.4585,       81.6208,            0.,NA,NA,"",   685.551E+03,   751.195E+03,   751.195E+03
C:/temp/Job-26.odb,Step-1,Increment      1: Step Time =    1.000,"P-26-1",          1780,       28.0536,       85.7698,            0.,NA,NA,"",   641.734E+03,   711.698E+03,   711.698E+03
C:/temp/Job-26.odb,Step-1,Increment      1: Step Time =    1.000,"P-26-1",          1781,       168.213,       153.879,            0.,NA,NA,"",   1.10045E+06,   1.08365E+06,   1.08365E+06
C:/temp/Job-26.odb,Step-1,Increment      1: Step Time =    1.000,"P-26-1",          1782,       28.7533,       60.1586,            0.,NA,NA,"",   927.878E+03,   970.123E+03,   970.123E+03
C:/temp/Job-26.odb,Step-1,Increment      1: Step Time =    1.000,"P-26-1",          1783,       35.3957,       131.995,            0.,NA,NA,"",   892.836E+03,   920.929E+03,   920.929E+03
C:/temp/Job-26.odb,Step-1,Increment      1: Step Time =    1.000,"P-26-1",          1784,       156.343,       36.0447,            0.,NA,NA,"",   1.13790E+06,   1.10931E+06,   1.10931E+06
C:/temp/Job-26.odb,Step-1,Increment      1: Step Time =    1.000,"P-26-1",          1785,       163.587,       155.160,            0.,NA,NA,"",   1.12746E+06,   1.10100E+06,   1.10100E+06
C:/temp/Job-26.odb,Step-1,Increment      1: Step Time =    1.000,"P-26-1",          1786,       67.1695,       174.545,            0.,NA,NA,"",   1.17362E+06,   1.16294E+06,   1.16294E+06
C:/temp/Job-26.odb,Step-1,Increment      1: Step Time =    1.000,"P-26-1",          1787,       172.057,       82.3025,            0.,NA,NA,"",   908.434E+03,   943.981E+03,   943.981E+03
C:/temp/Job-26.odb,Step-1,Increment      1: Step Time =    1.000,"P-26-1",          1788,       75.5505,       158.288,            0.,NA,NA,"",   1.26338E+06,   1.26149E+06,   1.26149E+06
C:/temp/Job-26.odb,Step-1,Increment      1: Step Time =    1.000,"P-26-1",          1789,       61.2261,       160.481,            0.,NA,NA,"",   1.25855E+06,   1.22791E+06,   1.22791E+06
C:/temp/Job-26.odb,Step-1,Increment      1: Step Time =    1.000,"P-26-1",          1790,       31.9427,       104.509,            0.,NA,NA,"",   557.116E+03,   628.543E+03,   628.543E+03
C:/temp/Job-26.odb,Step-1,Increment      1: Step Time =    1.000,"P-26-1",          1791,       121.149,       166.797,            0.,NA,NA,"",   1.13280E+06,   1.14890E+06,   1.14890E+06
C:/temp/Job-26.odb,Step-1,Increment      1: Step Time =    1.000,"P-26-1",          1792,       44.2598,       47.8080,            0.,NA,NA,"",   1.16163E+06,   1.14606E+06,   1.14606E+06
C:/temp/Job-26.odb,Step-1,Increment      1: Step Time =    1.000,"P-26-1",          1793,       113.790,       45.8460,            0.,NA,NA,"",   1.21198E+06,   1.26866E+06,   1.26866E+06
C:/temp/Job-26.odb,Step-1,Increment      1: Step Time =    1.000,"P-26-1",          1794,       146.066,       151.830,            0.,NA,NA,"",   1.26508E+06,   1.20281E+06,   1.20281E+06
C:/temp/Job-26.odb,Step-1,Increment      1: Step Time =    1.000,"P-26-1",          1795,       48.2296,       160.010,            0.,NA,NA,"",   1.21181E+06,   1.18983E+06,   1.18983E+06
C:/temp/Job-26.odb,Step-1,Increment      1: Step Time =    1.000,"P-26-1",          1796,       56.1301,       157.461,            0.,NA,NA,"",   1.25194E+06,   1.21733E+06,   1.21733E+06
C:/temp/Job-26.odb,Step-1,Increment      1: Step Time =    1.000,"P-26-1",          1797,       159.559,       120.740,            0.,NA,NA,"",   978.108E+03,   952.557E+03,   952.557E+03
C:/temp/Job-26.odb,Step-1,Increment      1: Step Time =    1.000,"P-26-1",          1798,       38.5135,       134.018,            0.,NA,NA,"",   946.410E+03,   960.037E+03,   960.037E+03
C:/temp/Job-26.odb,Step-1,Increment      1: Step Time =    1.000,"P-26-1",          1799,       92.3795,       26.6744,            0.,NA,NA,"",   1.06738E+06,   1.10052E+06,   1.10052E+06
C:/temp/Job-26.odb,Step-1,Increment      1: Step Time =    1.000,"P-26-1",          1800,       38.5269,       128.882,            0.,NA,NA,"",   877.197E+03,   896.912E+03,   896.912E+03
C:/temp/Job-26.odb,Step-1,Increment      1: Step Time =    1.000,"P-26-1",          1801,       32.2964,       124.161,            0.,NA,NA,"",   766.607E+03,   815.845E+03,   815.845E+03
C:/temp/Job-26.odb,Step-1,Increment      1: Step Time =    1.000,"P-26-1",          1802,       30.1757,       67.2764,            0.,NA,NA,"",   862.556E+03,   906.659E+03,   906.659E+03
C:/temp/Job-26.odb,Step-1,Increment      1: Step Time =    1.000,"P-26-1",          1803,       56.1559,       55.7164,            0.,NA,NA,"",   1.24424E+06,   1.19034E+06,   1.19034E+06
C:/temp/Job-26.odb,Step-1,Increment      1: Step Time =    1.000,"P-26-1",          1804,       79.4197,       166.332,            0.,NA,NA,"",   1.18322E+06,   1.19490E+06,   1.19490E+06
C:/temp/Job-26.odb,Step-1,Increment      1: Step Time =    1.000,"P-26-1",          1805,       108.863,       172.777,            0.,NA,NA,"",   1.05083E+06,   1.08532E+06,   1.08532E+06
C:/temp/Job-26.odb,Step-1,Increment      1: Step Time =    1.000,"P-26-1",          1806,       153.596,       50.7781,            0.,NA,NA,"",   1.21760E+06,   1.16078E+06,   1.16078E+06
C:/temp/Job-26.odb,Step-1,Increment      1: Step Time =    1.000,"P-26-1",          1807,       142.603,       38.6790,            0.,NA,NA,"",   1.20961E+06,   1.17134E+06,   1.17134E+06
C:/temp/Job-26.odb,Step-1,Increment      1: Step Time =    1.000,"P-26-1",          1808,       162.799,       150.255,            0.,NA,NA,"",   1.14225E+06,   1.10986E+06,   1.10986E+06
C:/temp/Job-26.odb,Step-1,Increment      1: Step Time =    1.000,"P-26-1",          1809,       65.3948,       158.859,            0.,NA,NA,"",   1.27178E+06,   1.24348E+06,   1.24348E+06
C:/temp/Job-26.odb,Step-1,Increment      1: Step Time =    1.000,"P-26-1",          1810,       136.903,       34.5556,            0.,NA,NA,"",   1.18022E+06,   1.15695E+06,   1.15695E+06
C:/temp/Job-26.odb,Step-1,Increment      1: Step Time =    1.000,"P-26-1",          1811,       117.135,       171.017,            0.,NA,NA,"",   1.08512E+06,   1.10823E+06,   1.10823E+06
C:/temp/Job-26.odb,Step-1,Increment      1: Step Time =    1.000,"P-26-1",          1812,       43.0361,       71.4798,            0.,NA,NA,"",   921.655E+03,   921.535E+03,   921.535E+03
C:/temp/Job-26.odb,Step-1,Increment      1: Step Time =    1.000,"P-26-1",          1813,       119.085,       37.2353,            0.,NA,NA,"",   1.15905E+06,   1.18365E+06,   1.18365E+06
C:/temp/Job-26.odb,Step-1,Increment      1: Step Time =    1.000,"P-26-1",          1814,       126.709,       30.1408,            0.,NA,NA,"",   1.12667E+06,   1.12748E+06,   1.12748E+06
C:/temp/Job-26.odb,Step-1,Increment      1: Step Time =    1.000,"P-26-1",          1815,       51.1938,       57.8031,            0.,NA,NA,"",   1.17425E+06,   1.13257E+06,   1.13257E+06
C:/temp/Job-26.odb,Step-1,Increment      1: Step Time =    1.000,"P-26-1",          1816,       48.7234,       63.1941,            0.,NA,NA,"",   1.10010E+06,   1.06554E+06,   1.06554E+06
C:/temp/Job-26.odb,Step-1,Increment      1: Step Time =    1.000,"P-26-1",          1817,       45.1544,       63.6278,            0.,NA,NA,"",   1.05198E+06,   1.03359E+06,   1.03359E+06
C:/temp/Job-26.odb,Step-1,Increment      1: Step Time =    1.000,"P-26-1",          1818,       125.023,       36.0055,            0.,NA,NA,"",   1.17116E+06,   1.17451E+06,   1.17451E+06
C:/temp/Job-26.odb,Step-1,Increment      1: Step Time =    1.000,"P-26-1",          1819,       149.218,       50.7168,            0.,NA,NA,"",   1.25163E+06,   1.18680E+06,   1.18680E+06
C:/temp/Job-26.odb,Step-1,Increment      1: Step Time =    1.000,"P-26-1",          1820,       139.105,       44.1853,            0.,NA,NA,"",   1.26710E+06,   1.21905E+06,   1.21905E+06
C:/temp/Job-26.odb,Step-1,Increment      1: Step Time =    1.000,"P-26-1",          1821,       39.4303,       72.1848,            0.,NA,NA,"",   870.284E+03,   887.736E+03,   887.736E+03
C:/temp/Job-26.odb,Step-1,Increment      1: Step Time =    1.000,"P-26-1",          1822,       45.9284,       59.1902,            0.,NA,NA,"",   1.10421E+06,   1.08198E+06,   1.08198E+06
C:/temp/Job-26.odb,Step-1,Increment      1: Step Time =    1.000,"P-26-1",          1823,       45.5132,       157.318,            0.,NA,NA,"",   1.19212E+06,   1.17366E+06,   1.17366E+06
C:/temp/Job-26.odb,Step-1,Increment      1: Step Time =    1.000,"P-26-1",          1824,       48.3325,       156.909,            0.,NA,NA,"",   1.20665E+06,   1.18314E+06,   1.18314E+06
C:/temp/Job-26.odb,Step-1,Increment      1: Step Time =    1.000,"P-26-1",          1825,       165.076,       131.113,            0.,NA,NA,"",   1.06658E+06,   1.04511E+06,   1.04511E+06
C:/temp/Job-26.odb,Step-1,Increment      1: Step Time =    1.000,"P-26-1",          1826,       165.018,       112.327,            0.,NA,NA,"",   841.525E+03,   866.600E+03,   866.600E+03
C:/temp/Job-26.odb,Step-1,Increment      1: Step Time =    1.000,"P-26-1",          1827,       48.3838,       152.387,            0.,NA,NA,"",   1.19750E+06,   1.17128E+06,   1.17128E+06
C:/temp/Job-26.odb,Step-1,Increment      1: Step Time =    1.000,"P-26-1",          1828,       41.5171,       68.8042,            0.,NA,NA,"",   942.467E+03,   945.985E+03,   945.985E+03
C:/temp/Job-26.odb,Step-1,Increment      1: Step Time =    1.000,"P-26-1",          1829,       38.7664,       64.9494,            0.,NA,NA,"",   963.799E+03,   974.523E+03,   974.523E+03
C:/temp/Job-26.odb,Step-1,Increment      1: Step Time =    1.000,"P-26-1",          1830,       145.712,       51.3696,            0.,NA,NA,"",   1.28389E+06,   1.21229E+06,   1.21229E+06
