ODB Name,Step,Frame,Part Instance Name,    Node Label,X,Y,Z,Section Name,Material Name,Section Point,       S-Mises,S-Max. In-Plane Principal (Abs),S-Max. Principal (Abs)
C:/temp/Job-27.odb,Step-1,Increment      1: Step Time =    1.000,"P-27-1",             1,       85.2750,       137.191,            0.,NA,NA,"",   2.44981E+06,   2.49111E+06,   2.49111E+06
C:/temp/Job-27.odb,Step-1,Increment      1: Step Time =    1.000,"P-27-1",             2,       76.4886,       132.361,            0.,NA,NA,"",   1.37633E+06,   1.38529E+06,   1.38529E+06
C:/temp/Job-27.odb,Step-1,Increment      1: Step Time =    1.000,"P-27-1",             3,       66.2269,       121.433,            0.,NA,NA,"",   398.540E+03,  -33.8308E+03,  -33.8308E+03
C:/temp/Job-27.odb,Step-1,Increment      1: Step Time =    1.000,"P-27-1",             4,       60.7085,       107.495,            0.,NA,NA,"",   741.517E+03,  -758.974E+03,  -758.974E+03
C:/temp/Job-27.odb,Step-1,Increment      1: Step Time =    1.000,"P-27-1",             5,       60.0789,       97.4884,            0.,NA,NA,"",   806.495E+03,  -827.830E+03,  -827.830E+03
C:/temp/Job-27.odb,Step-1,Increment      1: Step Time =    1.000,"P-27-1",             6,       63.8069,       82.9688,            0.,NA,NA,"",   519.003E+03,  -513.707E+03,  -513.707E+03
C:/temp/Job-27.odb,Step-1,Increment      1: Step Time =    1.000,"P-27-1",             7,       69.1795,       74.5030,            0.,NA,NA,"",   441.741E+03,   198.405E+03,   198.405E+03
C:/temp/Job-27.odb,Step-1,Increment      1: Step Time =    1.000,"P-27-1",             8,       80.7299,       64.9477,            0.,NA,NA,"",   1.93573E+06,   1.97303E+06,   1.97303E+06
C:/temp/Job-27.odb,Step-1,Increment      1: Step Time =    1.000,"P-27-1",             9,       94.9867,       60.3154,            0.,NA,NA,"",   3.27653E+06,   3.33330E+06,   3.33330E+06
C:/temp/Job-27.odb,Step-1,Increment      1: Step Time =    1.000,"P-27-1",            10,       105.013,       60.3154,            0.,NA,NA,"",   3.53369E+06,   3.61592E+06,   3.61592E+06
C:/temp/Job-27.odb,Step-1,Increment      1: Step Time =    1.000,"P-27-1",            11,       119.270,       64.9477,            0.,NA,NA,"",   2.65411E+06,   2.69989E+06,   2.69989E+06
C:/temp/Job-27.odb,Step-1,Increment      1: Step Time =    1.000,"P-27-1",            12,       130.821,       74.5030,            0.,NA,NA,"",   1.00696E+06,   979.155E+03,   979.155E+03
C:/temp/Job-27.odb,Step-1,Increment      1: Step Time =    1.000,"P-27-1",            13,       136.193,       82.9688,            0.,NA,NA,"",   605.824E+03,  -520.825E+03,  -520.825E+03
C:/temp/Job-27.odb,Step-1,Increment      1: Step Time =    1.000,"P-27-1",            14,       139.921,       97.4884,            0.,NA,NA,"",   1.46856E+06,  -1.49000E+06,  -1.49000E+06
C:/temp/Job-27.odb,Step-1,Increment      1: Step Time =    1.000,"P-27-1",            15,       139.291,       107.495,            0.,NA,NA,"",   1.25126E+06,  -1.26198E+06,  -1.26198E+06
C:/temp/Job-27.odb,Step-1,Increment      1: Step Time =    1.000,"P-27-1",            16,       133.773,       121.433,            0.,NA,NA,"",   712.417E+03,   546.091E+03,   546.091E+03
C:/temp/Job-27.odb,Step-1,Increment      1: Step Time =    1.000,"P-27-1",            17,       123.511,       132.361,            0.,NA,NA,"",   2.15746E+06,   2.18660E+06,   2.18660E+06
C:/temp/Job-27.odb,Step-1,Increment      1: Step Time =    1.000,"P-27-1",            18,       114.725,       137.191,            0.,NA,NA,"",   3.05544E+06,   3.11771E+06,   3.11771E+06
C:/temp/Job-27.odb,Step-1,Increment      1: Step Time =    1.000,"P-27-1",            19,          100.,          140.,            0.,NA,NA,"",   3.38345E+06,   3.46194E+06,   3.46194E+06
C:/temp/Job-27.odb,Step-1,Increment      1: Step Time =    1.000,"P-27-1",            20,          190.,            0.,            0.,NA,NA,"",   995.775E+03,   995.917E+03,   995.917E+03
C:/temp/Job-27.odb,Step-1,Increment      1: Step Time =    1.000,"P-27-1",            21,          180.,            0.,            0.,NA,NA,"",   993.559E+03,   993.623E+03,   993.623E+03
C:/temp/Job-27.odb,Step-1,Increment      1: Step Time =    1.000,"P-27-1",            22,          170.,            0.,            0.,NA,NA,"",   992.000E+03,   991.537E+03,   991.537E+03
C:/temp/Job-27.odb,Step-1,Increment      1: Step Time =    1.000,"P-27-1",            23,          160.,            0.,            0.,NA,NA,"",   976.109E+03,   975.264E+03,   975.264E+03
C:/temp/Job-27.odb,Step-1,Increment      1: Step Time =    1.000,"P-27-1",            24,          150.,            0.,            0.,NA,NA,"",   930.899E+03,   929.936E+03,   929.936E+03
C:/temp/Job-27.odb,Step-1,Increment      1: Step Time =    1.000,"P-27-1",            25,          140.,            0.,            0.,NA,NA,"",   853.645E+03,   852.836E+03,   852.836E+03
C:/temp/Job-27.odb,Step-1,Increment      1: Step Time =    1.000,"P-27-1",            26,          130.,            0.,            0.,NA,NA,"",   759.468E+03,   759.316E+03,   759.316E+03
C:/temp/Job-27.odb,Step-1,Increment      1: Step Time =    1.000,"P-27-1",            27,          120.,            0.,            0.,NA,NA,"",   677.583E+03,   678.814E+03,   678.814E+03
C:/temp/Job-27.odb,Step-1,Increment      1: Step Time =    1.000,"P-27-1",            28,          110.,            0.,            0.,NA,NA,"",   643.020E+03,   645.649E+03,   645.649E+03
C:/temp/Job-27.odb,Step-1,Increment      1: Step Time =    1.000,"P-27-1",            29,          100.,            0.,            0.,NA,NA,"",   682.210E+03,   684.858E+03,   684.858E+03
C:/temp/Job-27.odb,Step-1,Increment      1: Step Time =    1.000,"P-27-1",            30,           90.,            0.,            0.,NA,NA,"",   799.144E+03,   800.165E+03,   800.165E+03
C:/temp/Job-27.odb,Step-1,Increment      1: Step Time =    1.000,"P-27-1",            31,           80.,            0.,            0.,NA,NA,"",   973.423E+03,   972.660E+03,   972.660E+03
C:/temp/Job-27.odb,Step-1,Increment      1: Step Time =    1.000,"P-27-1",            32,           70.,            0.,            0.,NA,NA,"",   1.17157E+06,   1.16970E+06,   1.16970E+06
C:/temp/Job-27.odb,Step-1,Increment      1: Step Time =    1.000,"P-27-1",            33,           60.,            0.,            0.,NA,NA,"",   1.35782E+06,   1.35577E+06,   1.35577E+06
C:/temp/Job-27.odb,Step-1,Increment      1: Step Time =    1.000,"P-27-1",            34,           50.,            0.,            0.,NA,NA,"",   1.50867E+06,   1.50712E+06,   1.50712E+06
C:/temp/Job-27.odb,Step-1,Increment      1: Step Time =    1.000,"P-27-1",            35,           40.,            0.,            0.,NA,NA,"",   1.61687E+06,   1.61576E+06,   1.61576E+06
C:/temp/Job-27.odb,Step-1,Increment      1: Step Time =    1.000,"P-27-1",            36,           30.,            0.,            0.,NA,NA,"",   1.68949E+06,   1.68878E+06,   1.68878E+06
C:/temp/Job-27.odb,Step-1,Increment      1: Step Time =    1.000,"P-27-1",            37,           20.,            0.,            0.,NA,NA,"",   1.75395E+06,   1.75412E+06,   1.75412E+06
C:/temp/Job-27.odb,Step-1,Increment      1: Step Time =    1.000,"P-27-1",            38,           10.,            0.,            0.,NA,NA,"",   1.89040E+06,   1.89359E+06,   1.89359E+06
C:/temp/Job-27.odb,Step-1,Increment      1: Step Time =    1.000,"P-27-1",            39,          200.,            0.,            0.,NA,NA,"",   999.631E+03,   999.248E+03,   999.248E+03
C:/temp/Job-27.odb,Step-1,Increment      1: Step Time =    1.000,"P-27-1",            40,            0.,            0.,            0.,NA,NA,"",   2.27806E+06,   2.38845E+06,   2.38845E+06
C:/temp/Job-27.odb,Step-1,Increment      1: Step Time =    1.000,"P-27-1",            41,          200.,          190.,            0.,NA,NA,"",   1.00236E+06,   1.00059E+06,   1.00059E+06
C:/temp/Job-27.odb,Step-1,Increment      1: Step Time =    1.000,"P-27-1",            42,          200.,          180.,            0.,NA,NA,"",   1.00126E+06,   1.00215E+06,   1.00215E+06
C:/temp/Job-27.odb,Step-1,Increment      1: Step Time =    1.000,"P-27-1",            43,          200.,          170.,            0.,NA,NA,"",   986.325E+03,   1.00386E+06,   1.00386E+06
C:/temp/Job-27.odb,Step-1,Increment      1: Step Time =    1.000,"P-27-1",            44,          200.,          160.,            0.,NA,NA,"",   951.523E+03,   1.00534E+06,   1.00534E+06
C:/temp/Job-27.odb,Step-1,Increment      1: Step Time =    1.000,"P-27-1",            45,          200.,          150.,            0.,NA,NA,"",   905.469E+03,   1.00639E+06,   1.00639E+06
C:/temp/Job-27.odb,Step-1,Increment      1: Step Time =    1.000,"P-27-1",            46,          200.,          140.,            0.,NA,NA,"",   875.428E+03,   1.00743E+06,   1.00743E+06
C:/temp/Job-27.odb,Step-1,Increment      1: Step Time =    1.000,"P-27-1",            47,          200.,          130.,            0.,NA,NA,"",   896.263E+03,   1.01013E+06,   1.01013E+06
C:/temp/Job-27.odb,Step-1,Increment      1: Step Time =    1.000,"P-27-1",            48,          200.,          120.,            0.,NA,NA,"",   972.875E+03,   1.02783E+06,   1.02783E+06
C:/temp/Job-27.odb,Step-1,Increment      1: Step Time =    1.000,"P-27-1",            49,          200.,          110.,            0.,NA,NA,"",   1.05681E+06,   1.11512E+06,   1.11512E+06
C:/temp/Job-27.odb,Step-1,Increment      1: Step Time =    1.000,"P-27-1",            50,          200.,          100.,            0.,NA,NA,"",   1.08946E+06,   1.16590E+06,   1.16590E+06
C:/temp/Job-27.odb,Step-1,Increment      1: Step Time =    1.000,"P-27-1",            51,          200.,           90.,            0.,NA,NA,"",   1.05180E+06,   1.10814E+06,   1.10814E+06
C:/temp/Job-27.odb,Step-1,Increment      1: Step Time =    1.000,"P-27-1",            52,          200.,           80.,            0.,NA,NA,"",   969.316E+03,   1.02693E+06,   1.02693E+06
C:/temp/Job-27.odb,Step-1,Increment      1: Step Time =    1.000,"P-27-1",            53,          200.,           70.,            0.,NA,NA,"",   895.516E+03,   1.01037E+06,   1.01037E+06
C:/temp/Job-27.odb,Step-1,Increment      1: Step Time =    1.000,"P-27-1",            54,          200.,           60.,            0.,NA,NA,"",   874.925E+03,   1.00676E+06,   1.00676E+06
C:/temp/Job-27.odb,Step-1,Increment      1: Step Time =    1.000,"P-27-1",            55,          200.,           50.,            0.,NA,NA,"",   905.542E+03,   1.00507E+06,   1.00507E+06
C:/temp/Job-27.odb,Step-1,Increment      1: Step Time =    1.000,"P-27-1",            56,          200.,           40.,            0.,NA,NA,"",   952.927E+03,   1.00507E+06,   1.00507E+06
C:/temp/Job-27.odb,Step-1,Increment      1: Step Time =    1.000,"P-27-1",            57,          200.,           30.,            0.,NA,NA,"",   986.927E+03,   1.00390E+06,   1.00390E+06
C:/temp/Job-27.odb,Step-1,Increment      1: Step Time =    1.000,"P-27-1",            58,          200.,           20.,            0.,NA,NA,"",   1.00176E+06,   1.00178E+06,   1.00178E+06
C:/temp/Job-27.odb,Step-1,Increment      1: Step Time =    1.000,"P-27-1",            59,          200.,           10.,            0.,NA,NA,"",   1.00241E+06,   1.00050E+06,   1.00050E+06
C:/temp/Job-27.odb,Step-1,Increment      1: Step Time =    1.000,"P-27-1",            60,          200.,          200.,            0.,NA,NA,"",   999.649E+03,   999.293E+03,   999.293E+03
C:/temp/Job-27.odb,Step-1,Increment      1: Step Time =    1.000,"P-27-1",            61,           10.,          200.,            0.,NA,NA,"",   1.89095E+06,   1.89385E+06,   1.89385E+06
C:/temp/Job-27.odb,Step-1,Increment      1: Step Time =    1.000,"P-27-1",            62,           20.,          200.,            0.,NA,NA,"",   1.75442E+06,   1.75440E+06,   1.75440E+06
C:/temp/Job-27.odb,Step-1,Increment      1: Step Time =    1.000,"P-27-1",            63,           30.,          200.,            0.,NA,NA,"",   1.68955E+06,   1.68861E+06,   1.68861E+06
C:/temp/Job-27.odb,Step-1,Increment      1: Step Time =    1.000,"P-27-1",            64,           40.,          200.,            0.,NA,NA,"",   1.61694E+06,   1.61550E+06,   1.61550E+06
C:/temp/Job-27.odb,Step-1,Increment      1: Step Time =    1.000,"P-27-1",            65,           50.,          200.,            0.,NA,NA,"",   1.51015E+06,   1.50825E+06,   1.50825E+06
C:/temp/Job-27.odb,Step-1,Increment      1: Step Time =    1.000,"P-27-1",            66,           60.,          200.,            0.,NA,NA,"",   1.35994E+06,   1.35773E+06,   1.35773E+06
C:/temp/Job-27.odb,Step-1,Increment      1: Step Time =    1.000,"P-27-1",            67,           70.,          200.,            0.,NA,NA,"",   1.17276E+06,   1.17070E+06,   1.17070E+06
C:/temp/Job-27.odb,Step-1,Increment      1: Step Time =    1.000,"P-27-1",            68,           80.,          200.,            0.,NA,NA,"",   974.155E+03,   973.386E+03,   973.386E+03
C:/temp/Job-27.odb,Step-1,Increment      1: Step Time =    1.000,"P-27-1",            69,           90.,          200.,            0.,NA,NA,"",   794.851E+03,   796.300E+03,   796.300E+03
C:/temp/Job-27.odb,Step-1,Increment      1: Step Time =    1.000,"P-27-1",            70,          100.,          200.,            0.,NA,NA,"",   669.546E+03,   672.018E+03,   672.018E+03
C:/temp/Job-27.odb,Step-1,Increment      1: Step Time =    1.000,"P-27-1",            71,          110.,          200.,            0.,NA,NA,"",    630.96E+03,   633.326E+03,   633.326E+03
C:/temp/Job-27.odb,Step-1,Increment      1: Step Time =    1.000,"P-27-1",            72,          120.,          200.,            0.,NA,NA,"",   671.179E+03,   672.354E+03,   672.354E+03
C:/temp/Job-27.odb,Step-1,Increment      1: Step Time =    1.000,"P-27-1",            73,          130.,          200.,            0.,NA,NA,"",   760.096E+03,   759.673E+03,   759.673E+03
C:/temp/Job-27.odb,Step-1,Increment      1: Step Time =    1.000,"P-27-1",            74,          140.,          200.,            0.,NA,NA,"",   856.601E+03,   855.789E+03,   855.789E+03
C:/temp/Job-27.odb,Step-1,Increment      1: Step Time =    1.000,"P-27-1",            75,          150.,          200.,            0.,NA,NA,"",   932.915E+03,   931.898E+03,   931.898E+03
C:/temp/Job-27.odb,Step-1,Increment      1: Step Time =    1.000,"P-27-1",            76,          160.,          200.,            0.,NA,NA,"",   978.310E+03,   977.436E+03,   977.436E+03
C:/temp/Job-27.odb,Step-1,Increment      1: Step Time =    1.000,"P-27-1",            77,          170.,          200.,            0.,NA,NA,"",   993.952E+03,   993.538E+03,   993.538E+03
C:/temp/Job-27.odb,Step-1,Increment      1: Step Time =    1.000,"P-27-1",            78,          180.,          200.,            0.,NA,NA,"",   994.456E+03,   994.500E+03,   994.500E+03
C:/temp/Job-27.odb,Step-1,Increment      1: Step Time =    1.000,"P-27-1",            79,          190.,          200.,            0.,NA,NA,"",   995.909E+03,   996.072E+03,   996.072E+03
C:/temp/Job-27.odb,Step-1,Increment      1: Step Time =    1.000,"P-27-1",            80,            0.,          200.,            0.,NA,NA,"",   2.27955E+06,   2.39061E+06,   2.39061E+06
C:/temp/Job-27.odb,Step-1,Increment      1: Step Time =    1.000,"P-27-1",            81,            0.,           10.,            0.,NA,NA,"",   1.62968E+06,   1.78434E+06,   1.78434E+06
C:/temp/Job-27.odb,Step-1,Increment      1: Step Time =    1.000,"P-27-1",            82,            0.,           20.,            0.,NA,NA,"",   1.34539E+06,   1.49427E+06,   1.49427E+06
C:/temp/Job-27.odb,Step-1,Increment      1: Step Time =    1.000,"P-27-1",            83,            0.,           30.,            0.,NA,NA,"",   1.15559E+06,   1.29123E+06,   1.29123E+06
C:/temp/Job-27.odb,Step-1,Increment      1: Step Time =    1.000,"P-27-1",            84,            0.,           40.,            0.,NA,NA,"",   992.382E+03,   1.11215E+06,   1.11215E+06
C:/temp/Job-27.odb,Step-1,Increment      1: Step Time =    1.000,"P-27-1",            85,            0.,           50.,            0.,NA,NA,"",   840.596E+03,   942.324E+03,   942.324E+03
C:/temp/Job-27.odb,Step-1,Increment      1: Step Time =    1.000,"P-27-1",            86,            0.,           60.,            0.,NA,NA,"",   692.987E+03,   775.207E+03,   775.207E+03
C:/temp/Job-27.odb,Step-1,Increment      1: Step Time =    1.000,"P-27-1",            87,            0.,           70.,            0.,NA,NA,"",   549.148E+03,   612.691E+03,   612.691E+03
C:/temp/Job-27.odb,Step-1,Increment      1: Step Time =    1.000,"P-27-1",            88,            0.,           80.,            0.,NA,NA,"",   415.486E+03,   464.853E+03,   464.853E+03
C:/temp/Job-27.odb,Step-1,Increment      1: Step Time =    1.000,"P-27-1",            89,            0.,           90.,            0.,NA,NA,"",   307.709E+03,   349.342E+03,   349.342E+03
C:/temp/Job-27.odb,Step-1,Increment      1: Step Time =    1.000,"P-27-1",            90,            0.,          100.,            0.,NA,NA,"",   260.896E+03,   299.639E+03,   299.639E+03
C:/temp/Job-27.odb,Step-1,Increment      1: Step Time =    1.000,"P-27-1",            91,            0.,          110.,            0.,NA,NA,"",   304.115E+03,   345.891E+03,   345.891E+03
C:/temp/Job-27.odb,Step-1,Increment      1: Step Time =    1.000,"P-27-1",            92,            0.,          120.,            0.,NA,NA,"",   411.625E+03,   461.100E+03,   461.100E+03
C:/temp/Job-27.odb,Step-1,Increment      1: Step Time =    1.000,"P-27-1",            93,            0.,          130.,            0.,NA,NA,"",   547.162E+03,   610.572E+03,   610.572E+03
C:/temp/Job-27.odb,Step-1,Increment      1: Step Time =    1.000,"P-27-1",            94,            0.,          140.,            0.,NA,NA,"",   690.768E+03,   772.702E+03,   772.702E+03
C:/temp/Job-27.odb,Step-1,Increment      1: Step Time =    1.000,"P-27-1",            95,            0.,          150.,            0.,NA,NA,"",   841.207E+03,   942.610E+03,   942.610E+03
C:/temp/Job-27.odb,Step-1,Increment      1: Step Time =    1.000,"P-27-1",            96,            0.,          160.,            0.,NA,NA,"",   996.074E+03,   1.11559E+06,   1.11559E+06
C:/temp/Job-27.odb,Step-1,Increment      1: Step Time =    1.000,"P-27-1",            97,            0.,          170.,            0.,NA,NA,"",   1.15634E+06,   1.29154E+06,   1.29154E+06
C:/temp/Job-27.odb,Step-1,Increment      1: Step Time =    1.000,"P-27-1",            98,            0.,          180.,            0.,NA,NA,"",   1.34515E+06,   1.49358E+06,   1.49358E+06
C:/temp/Job-27.odb,Step-1,Increment      1: Step Time =    1.000,"P-27-1",            99,            0.,          190.,            0.,NA,NA,"",   1.63164E+06,   1.78635E+06,   1.78635E+06
C:/temp/Job-27.odb,Step-1,Increment      1: Step Time =    1.000,"P-27-1",           100,       89.7816,       54.9695,            0.,NA,NA,"",   2.52543E+06,   2.62757E+06,   2.62757E+06
C:/temp/Job-27.odb,Step-1,Increment      1: Step Time =    1.000,"P-27-1",           101,       189.384,       148.798,            0.,NA,NA,"",   986.403E+03,   1.06501E+06,   1.06501E+06
C:/temp/Job-27.odb,Step-1,Increment      1: Step Time =    1.000,"P-27-1",           102,       177.173,       147.462,            0.,NA,NA,"",   1.19117E+06,   1.18726E+06,   1.18726E+06
C:/temp/Job-27.odb,Step-1,Increment      1: Step Time =    1.000,"P-27-1",           103,       168.380,       146.678,            0.,NA,NA,"",   1.35362E+06,   1.27515E+06,   1.27515E+06
C:/temp/Job-27.odb,Step-1,Increment      1: Step Time =    1.000,"P-27-1",           104,       156.924,       142.512,            0.,NA,NA,"",   1.57451E+06,   1.38892E+06,   1.38892E+06
C:/temp/Job-27.odb,Step-1,Increment      1: Step Time =    1.000,"P-27-1",           105,       149.163,       150.702,            0.,NA,NA,"",   1.64793E+06,   1.49849E+06,   1.49849E+06
C:/temp/Job-27.odb,Step-1,Increment      1: Step Time =    1.000,"P-27-1",           106,       134.020,       148.982,            0.,NA,NA,"",   1.82271E+06,   1.75727E+06,   1.75727E+06
C:/temp/Job-27.odb,Step-1,Increment      1: Step Time =    1.000,"P-27-1",           107,       125.237,       146.608,            0.,NA,NA,"",   1.96160E+06,   2.00795E+06,   2.00795E+06
C:/temp/Job-27.odb,Step-1,Increment      1: Step Time =    1.000,"P-27-1",           108,       115.523,       147.496,            0.,NA,NA,"",   2.22163E+06,   2.36552E+06,   2.36552E+06
C:/temp/Job-27.odb,Step-1,Increment      1: Step Time =    1.000,"P-27-1",           109,       105.040,       149.853,            0.,NA,NA,"",   2.35215E+06,   2.52438E+06,   2.52438E+06
C:/temp/Job-27.odb,Step-1,Increment      1: Step Time =    1.000,"P-27-1",           110,       95.0187,       149.741,            0.,NA,NA,"",   2.26173E+06,   2.41266E+06,   2.41266E+06
C:/temp/Job-27.odb,Step-1,Increment      1: Step Time =    1.000,"P-27-1",           111,       81.5457,       145.157,            0.,NA,NA,"",   2.02548E+06,   2.07602E+06,   2.07602E+06
C:/temp/Job-27.odb,Step-1,Increment      1: Step Time =    1.000,"P-27-1",           112,       74.3619,       149.037,            0.,NA,NA,"",   1.81163E+06,   1.77437E+06,   1.77437E+06
C:/temp/Job-27.odb,Step-1,Increment      1: Step Time =    1.000,"P-27-1",           113,       61.9858,       149.340,            0.,NA,NA,"",   1.63360E+06,   1.50329E+06,   1.50329E+06
C:/temp/Job-27.odb,Step-1,Increment      1: Step Time =    1.000,"P-27-1",           114,       52.6695,       146.179,            0.,NA,NA,"",   1.42549E+06,   1.28447E+06,   1.28447E+06
C:/temp/Job-27.odb,Step-1,Increment      1: Step Time =    1.000,"P-27-1",           115,       43.5288,       143.080,            0.,NA,NA,"",   1.18932E+06,   1.08409E+06,   1.08409E+06
C:/temp/Job-27.odb,Step-1,Increment      1: Step Time =    1.000,"P-27-1",           116,       32.2673,       143.627,            0.,NA,NA,"",   1.01858E+06,   986.479E+03,   986.479E+03
C:/temp/Job-27.odb,Step-1,Increment      1: Step Time =    1.000,"P-27-1",           117,       19.6110,       145.149,            0.,NA,NA,"",   903.240E+03,    942.11E+03,    942.11E+03
C:/temp/Job-27.odb,Step-1,Increment      1: Step Time =    1.000,"P-27-1",           118,       9.38814,       144.425,            0.,NA,NA,"",   798.096E+03,   873.038E+03,   873.038E+03
C:/temp/Job-27.odb,Step-1,Increment      1: Step Time =    1.000,"P-27-1",           119,       9.77719,       134.604,            0.,NA,NA,"",   628.335E+03,   692.587E+03,   692.587E+03
C:/temp/Job-27.odb,Step-1,Increment      1: Step Time =    1.000,"P-27-1",           120,       19.7034,       134.594,            0.,NA,NA,"",   675.133E+03,   715.413E+03,   715.413E+03
C:/temp/Job-27.odb,Step-1,Increment      1: Step Time =    1.000,"P-27-1",           121,       32.6076,       136.823,            0.,NA,NA,"",   854.733E+03,   827.882E+03,   827.882E+03
C:/temp/Job-27.odb,Step-1,Increment      1: Step Time =    1.000,"P-27-1",           122,       41.6822,       135.489,            0.,NA,NA,"",   954.144E+03,   858.551E+03,   858.551E+03
C:/temp/Job-27.odb,Step-1,Increment      1: Step Time =    1.000,"P-27-1",           123,       51.2288,       134.414,            0.,NA,NA,"",   1.05452E+06,   892.129E+03,   892.129E+03
C:/temp/Job-27.odb,Step-1,Increment      1: Step Time =    1.000,"P-27-1",           124,       61.5667,       136.739,            0.,NA,NA,"",   1.25901E+06,   1.10647E+06,   1.10647E+06
C:/temp/Job-27.odb,Step-1,Increment      1: Step Time =    1.000,"P-27-1",           125,       73.8196,       136.573,            0.,NA,NA,"",   1.45564E+06,   1.44098E+06,   1.44098E+06
C:/temp/Job-27.odb,Step-1,Increment      1: Step Time =    1.000,"P-27-1",           126,       125.416,       135.529,            0.,NA,NA,"",   2.06836E+06,   2.09947E+06,   2.09947E+06
C:/temp/Job-27.odb,Step-1,Increment      1: Step Time =    1.000,"P-27-1",           127,       136.679,       136.967,            0.,NA,NA,"",   1.71535E+06,   1.56560E+06,   1.56560E+06
C:/temp/Job-27.odb,Step-1,Increment      1: Step Time =    1.000,"P-27-1",           128,       144.077,       136.735,            0.,NA,NA,"",   1.71575E+06,   1.47679E+06,   1.47679E+06
C:/temp/Job-27.odb,Step-1,Increment      1: Step Time =    1.000,"P-27-1",           129,       154.166,       139.046,            0.,NA,NA,"",   1.62199E+06,   1.39456E+06,   1.39456E+06
C:/temp/Job-27.odb,Step-1,Increment      1: Step Time =    1.000,"P-27-1",           130,       167.366,       135.660,            0.,NA,NA,"",   1.34467E+06,   1.23666E+06,   1.23666E+06
C:/temp/Job-27.odb,Step-1,Increment      1: Step Time =    1.000,"P-27-1",           131,       180.172,       136.724,            0.,NA,NA,"",   1.11281E+06,   1.15430E+06,   1.15430E+06
C:/temp/Job-27.odb,Step-1,Increment      1: Step Time =    1.000,"P-27-1",           132,       189.950,       138.805,            0.,NA,NA,"",   959.781E+03,   1.07315E+06,   1.07315E+06
C:/temp/Job-27.odb,Step-1,Increment      1: Step Time =    1.000,"P-27-1",           133,       138.936,       126.215,            0.,NA,NA,"",   1.10533E+06,   868.211E+03,   868.211E+03
C:/temp/Job-27.odb,Step-1,Increment      1: Step Time =    1.000,"P-27-1",           134,       150.242,       127.349,            0.,NA,NA,"",   1.41923E+06,   1.09449E+06,   1.09449E+06
C:/temp/Job-27.odb,Step-1,Increment      1: Step Time =    1.000,"P-27-1",           135,       159.048,       131.880,            0.,NA,NA,"",   1.43917E+06,   1.22222E+06,   1.22222E+06
C:/temp/Job-27.odb,Step-1,Increment      1: Step Time =    1.000,"P-27-1",           136,       168.759,       127.540,            0.,NA,NA,"",   1.19434E+06,   1.11880E+06,   1.11880E+06
C:/temp/Job-27.odb,Step-1,Increment      1: Step Time =    1.000,"P-27-1",           137,       176.756,       126.446,            0.,NA,NA,"",   1.06597E+06,   1.09884E+06,   1.09884E+06
C:/temp/Job-27.odb,Step-1,Increment      1: Step Time =    1.000,"P-27-1",           138,       190.632,       128.914,            0.,NA,NA,"",   931.875E+03,   1.06818E+06,   1.06818E+06
C:/temp/Job-27.odb,Step-1,Increment      1: Step Time =    1.000,"P-27-1",           139,       147.711,       115.666,            0.,NA,NA,"",   940.943E+03,  -292.855E+03,  -292.855E+03
C:/temp/Job-27.odb,Step-1,Increment      1: Step Time =    1.000,"P-27-1",           140,       152.960,       117.412,            0.,NA,NA,"",   1.03915E+06,   442.053E+03,   442.053E+03
C:/temp/Job-27.odb,Step-1,Increment      1: Step Time =    1.000,"P-27-1",           141,       182.156,       113.895,            0.,NA,NA,"",   850.675E+03,   973.071E+03,   973.071E+03
C:/temp/Job-27.odb,Step-1,Increment      1: Step Time =    1.000,"P-27-1",           142,       190.954,       114.352,            0.,NA,NA,"",   914.608E+03,   1.02973E+06,   1.02973E+06
C:/temp/Job-27.odb,Step-1,Increment      1: Step Time =    1.000,"P-27-1",           143,       144.409,       103.568,            0.,NA,NA,"",   1.12325E+06,  -1.13846E+06,  -1.13846E+06
C:/temp/Job-27.odb,Step-1,Increment      1: Step Time =    1.000,"P-27-1",           144,       156.067,       104.958,            0.,NA,NA,"",   507.288E+03,   42.3575E+03,   42.3575E+03
C:/temp/Job-27.odb,Step-1,Increment      1: Step Time =    1.000,"P-27-1",           145,       168.740,       109.042,            0.,NA,NA,"",   660.965E+03,   687.040E+03,   687.040E+03
C:/temp/Job-27.odb,Step-1,Increment      1: Step Time =    1.000,"P-27-1",           146,       181.314,       104.865,            0.,NA,NA,"",   729.488E+03,   835.699E+03,   835.699E+03
C:/temp/Job-27.odb,Step-1,Increment      1: Step Time =    1.000,"P-27-1",           147,       190.566,       104.468,            0.,NA,NA,"",   897.984E+03,   960.060E+03,   960.060E+03
C:/temp/Job-27.odb,Step-1,Increment      1: Step Time =    1.000,"P-27-1",           148,       147.301,       93.8112,            0.,NA,NA,"",   825.298E+03,  -805.532E+03,  -805.532E+03
C:/temp/Job-27.odb,Step-1,Increment      1: Step Time =    1.000,"P-27-1",           149,       158.258,       96.2544,            0.,NA,NA,"",   433.191E+03,   168.505E+03,   168.505E+03
C:/temp/Job-27.odb,Step-1,Increment      1: Step Time =    1.000,"P-27-1",           150,       169.601,       95.7043,            0.,NA,NA,"",   546.403E+03,   608.039E+03,   608.039E+03
C:/temp/Job-27.odb,Step-1,Increment      1: Step Time =    1.000,"P-27-1",           151,       180.145,       93.9585,            0.,NA,NA,"",   730.588E+03,   838.742E+03,   838.742E+03
C:/temp/Job-27.odb,Step-1,Increment      1: Step Time =    1.000,"P-27-1",           152,       190.287,       94.5819,            0.,NA,NA,"",   895.502E+03,    966.89E+03,    966.89E+03
C:/temp/Job-27.odb,Step-1,Increment      1: Step Time =    1.000,"P-27-1",           153,       138.364,       75.9028,            0.,NA,NA,"",   891.330E+03,   526.035E+03,   526.035E+03
C:/temp/Job-27.odb,Step-1,Increment      1: Step Time =    1.000,"P-27-1",           154,       148.098,       72.1403,            0.,NA,NA,"",   1.47253E+06,   1.13976E+06,   1.13976E+06
C:/temp/Job-27.odb,Step-1,Increment      1: Step Time =    1.000,"P-27-1",           155,       159.270,       74.1928,            0.,NA,NA,"",   1.31008E+06,   1.08649E+06,   1.08649E+06
C:/temp/Job-27.odb,Step-1,Increment      1: Step Time =    1.000,"P-27-1",           156,       169.906,       76.1157,            0.,NA,NA,"",   1.11158E+06,   1.06201E+06,   1.06201E+06
C:/temp/Job-27.odb,Step-1,Increment      1: Step Time =    1.000,"P-27-1",           157,       180.716,       74.4112,            0.,NA,NA,"",   1.01117E+06,   1.09380E+06,   1.09380E+06
C:/temp/Job-27.odb,Step-1,Increment      1: Step Time =    1.000,"P-27-1",           158,       190.579,       74.7743,            0.,NA,NA,"",   928.578E+03,   1.06597E+06,   1.06597E+06
C:/temp/Job-27.odb,Step-1,Increment      1: Step Time =    1.000,"P-27-1",           159,       190.417,       84.5971,            0.,NA,NA,"",   911.997E+03,   1.03323E+06,   1.03323E+06
C:/temp/Job-27.odb,Step-1,Increment      1: Step Time =    1.000,"P-27-1",           160,       180.899,       84.0431,            0.,NA,NA,"",   877.436E+03,   989.295E+03,   989.295E+03
C:/temp/Job-27.odb,Step-1,Increment      1: Step Time =    1.000,"P-27-1",           161,       168.361,       85.6048,            0.,NA,NA,"",   840.039E+03,   825.287E+03,   825.287E+03
C:/temp/Job-27.odb,Step-1,Increment      1: Step Time =    1.000,"P-27-1",           162,       158.167,       84.7225,            0.,NA,NA,"",   920.701E+03,   698.933E+03,   698.933E+03
C:/temp/Job-27.odb,Step-1,Increment      1: Step Time =    1.000,"P-27-1",           163,       147.367,       83.4653,            0.,NA,NA,"",   960.300E+03,  -291.445E+03,  -291.445E+03
C:/temp/Job-27.odb,Step-1,Increment      1: Step Time =    1.000,"P-27-1",           164,       126.291,       61.9756,            0.,NA,NA,"",   2.04812E+06,   2.06982E+06,   2.06982E+06
C:/temp/Job-27.odb,Step-1,Increment      1: Step Time =    1.000,"P-27-1",           165,       139.386,       62.8582,            0.,NA,NA,"",   1.70754E+06,   1.52643E+06,   1.52643E+06
C:/temp/Job-27.odb,Step-1,Increment      1: Step Time =    1.000,"P-27-1",           166,       150.847,       60.9128,            0.,NA,NA,"",   1.65043E+06,   1.41900E+06,   1.41900E+06
C:/temp/Job-27.odb,Step-1,Increment      1: Step Time =    1.000,"P-27-1",           167,       161.999,       64.0607,            0.,NA,NA,"",   1.44627E+06,   1.27668E+06,   1.27668E+06
C:/temp/Job-27.odb,Step-1,Increment      1: Step Time =    1.000,"P-27-1",           168,       172.615,       64.2171,            0.,NA,NA,"",   1.23922E+06,   1.19974E+06,   1.19974E+06
C:/temp/Job-27.odb,Step-1,Increment      1: Step Time =    1.000,"P-27-1",           169,       181.433,       64.9705,            0.,NA,NA,"",   1.08168E+06,   1.14098E+06,   1.14098E+06
C:/temp/Job-27.odb,Step-1,Increment      1: Step Time =    1.000,"P-27-1",           170,       190.732,       65.0674,            0.,NA,NA,"",   940.891E+03,   1.06810E+06,   1.06810E+06
C:/temp/Job-27.odb,Step-1,Increment      1: Step Time =    1.000,"P-27-1",           171,       111.226,       57.4103,            0.,NA,NA,"",   3.03131E+06,   3.13559E+06,   3.13559E+06
C:/temp/Job-27.odb,Step-1,Increment      1: Step Time =    1.000,"P-27-1",           172,       9.23537,       50.7614,            0.,NA,NA,"",   880.540E+03,   961.933E+03,   961.933E+03
C:/temp/Job-27.odb,Step-1,Increment      1: Step Time =    1.000,"P-27-1",           173,       23.2271,       57.1281,            0.,NA,NA,"",   885.438E+03,   906.425E+03,   906.425E+03
C:/temp/Job-27.odb,Step-1,Increment      1: Step Time =    1.000,"P-27-1",           174,       30.3067,       53.3557,            0.,NA,NA,"",   1.05682E+06,   1.03714E+06,   1.03714E+06
C:/temp/Job-27.odb,Step-1,Increment      1: Step Time =    1.000,"P-27-1",           175,       43.6690,       51.3533,            0.,NA,NA,"",   1.31450E+06,   1.21403E+06,   1.21403E+06
C:/temp/Job-27.odb,Step-1,Increment      1: Step Time =    1.000,"P-27-1",           176,       54.4184,       52.5034,            0.,NA,NA,"",   1.47731E+06,   1.33449E+06,   1.33449E+06
C:/temp/Job-27.odb,Step-1,Increment      1: Step Time =    1.000,"P-27-1",           177,       63.0261,       52.7758,            0.,NA,NA,"",   1.61994E+06,   1.49075E+06,   1.49075E+06
C:/temp/Job-27.odb,Step-1,Increment      1: Step Time =    1.000,"P-27-1",           178,       71.6888,       49.7499,            0.,NA,NA,"",   1.78916E+06,   1.72196E+06,   1.72196E+06
C:/temp/Job-27.odb,Step-1,Increment      1: Step Time =    1.000,"P-27-1",           179,       82.5369,       51.7337,            0.,NA,NA,"",   1.99636E+06,   2.05501E+06,   2.05501E+06
C:/temp/Job-27.odb,Step-1,Increment      1: Step Time =    1.000,"P-27-1",           180,       117.150,       53.5820,            0.,NA,NA,"",   2.25281E+06,   2.37641E+06,   2.37641E+06
C:/temp/Job-27.odb,Step-1,Increment      1: Step Time =    1.000,"P-27-1",           181,       128.106,       49.3086,            0.,NA,NA,"",   1.83684E+06,   1.84881E+06,   1.84881E+06
C:/temp/Job-27.odb,Step-1,Increment      1: Step Time =    1.000,"P-27-1",           182,       138.941,       50.3803,            0.,NA,NA,"",   1.76851E+06,   1.66237E+06,   1.66237E+06
C:/temp/Job-27.odb,Step-1,Increment      1: Step Time =    1.000,"P-27-1",           183,       149.309,       49.8311,            0.,NA,NA,"",   1.65453E+06,   1.50026E+06,   1.50026E+06
C:/temp/Job-27.odb,Step-1,Increment      1: Step Time =    1.000,"P-27-1",           184,       156.950,       52.9035,            0.,NA,NA,"",   1.56126E+06,   1.40576E+06,   1.40576E+06
C:/temp/Job-27.odb,Step-1,Increment      1: Step Time =    1.000,"P-27-1",           185,       168.737,       55.1671,            0.,NA,NA,"",   1.34619E+06,   1.26727E+06,   1.26727E+06
C:/temp/Job-27.odb,Step-1,Increment      1: Step Time =    1.000,"P-27-1",           186,       181.330,       56.0500,            0.,NA,NA,"",   1.11245E+06,   1.14913E+06,   1.14913E+06
C:/temp/Job-27.odb,Step-1,Increment      1: Step Time =    1.000,"P-27-1",           187,       190.658,       55.4478,            0.,NA,NA,"",   960.837E+03,   1.05983E+06,   1.05983E+06
C:/temp/Job-27.odb,Step-1,Increment      1: Step Time =    1.000,"P-27-1",           188,       74.5469,       61.2494,            0.,NA,NA,"",   1.57904E+06,   1.56082E+06,   1.56082E+06
C:/temp/Job-27.odb,Step-1,Increment      1: Step Time =    1.000,"P-27-1",           189,       64.8351,       63.0369,            0.,NA,NA,"",   1.25876E+06,   1.14439E+06,   1.14439E+06
C:/temp/Job-27.odb,Step-1,Increment      1: Step Time =    1.000,"P-27-1",           190,       48.9698,       61.7178,            0.,NA,NA,"",   1.15294E+06,   1.01058E+06,   1.01058E+06
C:/temp/Job-27.odb,Step-1,Increment      1: Step Time =    1.000,"P-27-1",           191,       39.0871,       62.4914,            0.,NA,NA,"",   973.772E+03,   895.900E+03,   895.900E+03
C:/temp/Job-27.odb,Step-1,Increment      1: Step Time =    1.000,"P-27-1",           192,       30.5805,       63.2502,            0.,NA,NA,"",   831.505E+03,   817.420E+03,   817.420E+03
C:/temp/Job-27.odb,Step-1,Increment      1: Step Time =    1.000,"P-27-1",           193,       21.9228,       66.4986,            0.,NA,NA,"",   665.636E+03,   698.692E+03,   698.692E+03
C:/temp/Job-27.odb,Step-1,Increment      1: Step Time =    1.000,"P-27-1",           194,       8.95479,       65.4735,            0.,NA,NA,"",   626.905E+03,   692.216E+03,   692.216E+03
C:/temp/Job-27.odb,Step-1,Increment      1: Step Time =    1.000,"P-27-1",           195,       63.4770,       72.6795,            0.,NA,NA,"",   635.603E+03,   415.941E+03,   415.941E+03
C:/temp/Job-27.odb,Step-1,Increment      1: Step Time =    1.000,"P-27-1",           196,       53.1349,       71.0041,            0.,NA,NA,"",   891.149E+03,   704.470E+03,   704.470E+03
C:/temp/Job-27.odb,Step-1,Increment      1: Step Time =    1.000,"P-27-1",           197,       43.3026,       72.3946,            0.,NA,NA,"",   755.514E+03,   637.510E+03,   637.510E+03
C:/temp/Job-27.odb,Step-1,Increment      1: Step Time =    1.000,"P-27-1",           198,       33.2968,       71.9294,            0.,NA,NA,"",   644.214E+03,   619.047E+03,   619.047E+03
C:/temp/Job-27.odb,Step-1,Increment      1: Step Time =    1.000,"P-27-1",           199,       19.2720,       76.1028,            0.,NA,NA,"",   464.478E+03,   507.845E+03,   507.845E+03
C:/temp/Job-27.odb,Step-1,Increment      1: Step Time =    1.000,"P-27-1",           200,       8.93904,       75.3051,            0.,NA,NA,"",   466.537E+03,   522.685E+03,   522.685E+03
C:/temp/Job-27.odb,Step-1,Increment      1: Step Time =    1.000,"P-27-1",           201,       53.9704,       85.5754,            0.,NA,NA,"",   451.596E+03,  -399.842E+03,  -399.842E+03
C:/temp/Job-27.odb,Step-1,Increment      1: Step Time =    1.000,"P-27-1",           202,       41.0627,       83.6717,            0.,NA,NA,"",   397.412E+03,   311.270E+03,   311.270E+03
C:/temp/Job-27.odb,Step-1,Increment      1: Step Time =    1.000,"P-27-1",           203,       34.2426,       84.5519,            0.,NA,NA,"",   339.185E+03,   324.361E+03,   324.361E+03
C:/temp/Job-27.odb,Step-1,Increment      1: Step Time =    1.000,"P-27-1",           204,       19.2497,       84.7409,            0.,NA,NA,"",   320.377E+03,   363.388E+03,   363.388E+03
C:/temp/Job-27.odb,Step-1,Increment      1: Step Time =    1.000,"P-27-1",           205,       8.91648,       84.8911,            0.,NA,NA,"",   332.724E+03,   380.798E+03,   380.798E+03
C:/temp/Job-27.odb,Step-1,Increment      1: Step Time =    1.000,"P-27-1",           206,       53.0863,       103.961,            0.,NA,NA,"",   525.065E+03,  -546.553E+03,  -546.553E+03
C:/temp/Job-27.odb,Step-1,Increment      1: Step Time =    1.000,"P-27-1",           207,       43.9062,       105.839,            0.,NA,NA,"",   197.616E+03,  -120.582E+03,  -120.582E+03
C:/temp/Job-27.odb,Step-1,Increment      1: Step Time =    1.000,"P-27-1",           208,       32.1904,       103.706,            0.,NA,NA,"",   130.581E+03,   144.295E+03,   144.295E+03
C:/temp/Job-27.odb,Step-1,Increment      1: Step Time =    1.000,"P-27-1",           209,       20.1909,       102.128,            0.,NA,NA,"",   200.010E+03,   219.952E+03,   219.952E+03
C:/temp/Job-27.odb,Step-1,Increment      1: Step Time =    1.000,"P-27-1",           210,       9.58879,       104.089,            0.,NA,NA,"",   239.907E+03,   273.634E+03,   273.634E+03
C:/temp/Job-27.odb,Step-1,Increment      1: Step Time =    1.000,"P-27-1",           211,       9.10564,       94.4392,            0.,NA,NA,"",   249.038E+03,   285.707E+03,   285.707E+03
C:/temp/Job-27.odb,Step-1,Increment      1: Step Time =    1.000,"P-27-1",           212,       19.5172,       93.4595,            0.,NA,NA,"",   226.474E+03,   257.247E+03,   257.247E+03
C:/temp/Job-27.odb,Step-1,Increment      1: Step Time =    1.000,"P-27-1",           213,       31.3877,       96.0352,            0.,NA,NA,"",   142.152E+03,   157.693E+03,   157.693E+03
C:/temp/Job-27.odb,Step-1,Increment      1: Step Time =    1.000,"P-27-1",           214,       41.5799,       90.7442,            0.,NA,NA,"",   223.989E+03,   22.3581E+03,   22.3581E+03
C:/temp/Job-27.odb,Step-1,Increment      1: Step Time =    1.000,"P-27-1",           215,       50.1246,       95.6501,            0.,NA,NA,"",   350.211E+03,  -367.675E+03,  -367.675E+03
C:/temp/Job-27.odb,Step-1,Increment      1: Step Time =    1.000,"P-27-1",           216,       51.0390,       113.400,            0.,NA,NA,"",   427.055E+03,  -352.653E+03,  -352.653E+03
C:/temp/Job-27.odb,Step-1,Increment      1: Step Time =    1.000,"P-27-1",           217,       43.7002,       113.819,            0.,NA,NA,"",   345.328E+03,   48.7115E+03,   48.7115E+03
C:/temp/Job-27.odb,Step-1,Increment      1: Step Time =    1.000,"P-27-1",           218,       32.5703,       111.460,            0.,NA,NA,"",   250.927E+03,   253.754E+03,   253.754E+03
C:/temp/Job-27.odb,Step-1,Increment      1: Step Time =    1.000,"P-27-1",           219,       21.1123,       115.317,            0.,NA,NA,"",   319.732E+03,   359.885E+03,   359.885E+03
C:/temp/Job-27.odb,Step-1,Increment      1: Step Time =    1.000,"P-27-1",           220,       10.1926,       114.095,            0.,NA,NA,"",   317.383E+03,   364.115E+03,   364.115E+03
C:/temp/Job-27.odb,Step-1,Increment      1: Step Time =    1.000,"P-27-1",           221,       61.8375,       123.948,            0.,NA,NA,"",   519.211E+03,   46.2707E+03,   46.2707E+03
C:/temp/Job-27.odb,Step-1,Increment      1: Step Time =    1.000,"P-27-1",           222,       55.9448,       120.677,            0.,NA,NA,"",   542.220E+03,  -161.720E+03,  -161.720E+03
C:/temp/Job-27.odb,Step-1,Increment      1: Step Time =    1.000,"P-27-1",           223,       43.1915,       121.901,            0.,NA,NA,"",   573.652E+03,   458.631E+03,   458.631E+03
C:/temp/Job-27.odb,Step-1,Increment      1: Step Time =    1.000,"P-27-1",           224,       34.0300,       126.058,            0.,NA,NA,"",   612.432E+03,   582.627E+03,   582.627E+03
C:/temp/Job-27.odb,Step-1,Increment      1: Step Time =    1.000,"P-27-1",           225,       20.4392,       123.515,            0.,NA,NA,"",   462.431E+03,   502.377E+03,   502.377E+03
C:/temp/Job-27.odb,Step-1,Increment      1: Step Time =    1.000,"P-27-1",           226,       10.0177,       124.459,            0.,NA,NA,"",   463.478E+03,   518.792E+03,   518.792E+03
C:/temp/Job-27.odb,Step-1,Increment      1: Step Time =    1.000,"P-27-1",           227,       189.777,       10.3299,            0.,NA,NA,"",   1.00388E+06,   1.00547E+06,   1.00547E+06
C:/temp/Job-27.odb,Step-1,Increment      1: Step Time =    1.000,"P-27-1",           228,       179.449,       10.5598,            0.,NA,NA,"",   1.01849E+06,   1.01863E+06,   1.01863E+06
C:/temp/Job-27.odb,Step-1,Increment      1: Step Time =    1.000,"P-27-1",           229,       169.311,       10.0909,            0.,NA,NA,"",   1.03342E+06,   1.02930E+06,   1.02930E+06
C:/temp/Job-27.odb,Step-1,Increment      1: Step Time =    1.000,"P-27-1",           230,       159.399,       9.45905,            0.,NA,NA,"",   1.03407E+06,   1.02681E+06,   1.02681E+06
C:/temp/Job-27.odb,Step-1,Increment      1: Step Time =    1.000,"P-27-1",           231,       144.783,       9.13605,            0.,NA,NA,"",   1.00116E+06,   993.427E+03,   993.427E+03
C:/temp/Job-27.odb,Step-1,Increment      1: Step Time =    1.000,"P-27-1",           232,       135.074,       9.54995,            0.,NA,NA,"",   964.750E+03,    960.34E+03,    960.34E+03
C:/temp/Job-27.odb,Step-1,Increment      1: Step Time =    1.000,"P-27-1",           233,       125.323,       10.1731,            0.,NA,NA,"",   925.681E+03,   930.228E+03,   930.228E+03
C:/temp/Job-27.odb,Step-1,Increment      1: Step Time =    1.000,"P-27-1",           234,       115.353,       10.7455,            0.,NA,NA,"",   897.921E+03,   914.825E+03,   914.825E+03
C:/temp/Job-27.odb,Step-1,Increment      1: Step Time =    1.000,"P-27-1",           235,       105.162,       11.0303,            0.,NA,NA,"",   912.374E+03,   934.925E+03,   934.925E+03
C:/temp/Job-27.odb,Step-1,Increment      1: Step Time =    1.000,"P-27-1",           236,       94.7873,       10.9522,            0.,NA,NA,"",   989.523E+03,   1.00387E+06,   1.00387E+06
C:/temp/Job-27.odb,Step-1,Increment      1: Step Time =    1.000,"P-27-1",           237,       84.6561,       10.5551,            0.,NA,NA,"",   1.10624E+06,   1.10544E+06,   1.10544E+06
C:/temp/Job-27.odb,Step-1,Increment      1: Step Time =    1.000,"P-27-1",           238,       74.6642,       9.98232,            0.,NA,NA,"",   1.23296E+06,   1.22108E+06,   1.22108E+06
C:/temp/Job-27.odb,Step-1,Increment      1: Step Time =    1.000,"P-27-1",           239,       64.7749,       9.53145,            0.,NA,NA,"",   1.35527E+06,   1.33891E+06,   1.33891E+06
C:/temp/Job-27.odb,Step-1,Increment      1: Step Time =    1.000,"P-27-1",           240,       55.1699,       9.07362,            0.,NA,NA,"",   1.45705E+06,   1.44249E+06,   1.44249E+06
C:/temp/Job-27.odb,Step-1,Increment      1: Step Time =    1.000,"P-27-1",           241,       40.9527,       9.05609,            0.,NA,NA,"",   1.57667E+06,   1.56722E+06,   1.56722E+06
C:/temp/Job-27.odb,Step-1,Increment      1: Step Time =    1.000,"P-27-1",           242,       31.1108,       9.67981,            0.,NA,NA,"",   1.63465E+06,   1.63017E+06,   1.63017E+06
C:/temp/Job-27.odb,Step-1,Increment      1: Step Time =    1.000,"P-27-1",           243,       20.9797,       10.5210,            0.,NA,NA,"",   1.68683E+06,   1.69727E+06,   1.69727E+06
C:/temp/Job-27.odb,Step-1,Increment      1: Step Time =    1.000,"P-27-1",           244,       10.5752,       10.5287,            0.,NA,NA,"",   1.74716E+06,   1.80327E+06,   1.80327E+06
C:/temp/Job-27.odb,Step-1,Increment      1: Step Time =    1.000,"P-27-1",           245,       190.047,       20.2506,            0.,NA,NA,"",   1.00733E+06,   1.01491E+06,   1.01491E+06
C:/temp/Job-27.odb,Step-1,Increment      1: Step Time =    1.000,"P-27-1",           246,       178.824,       22.2433,            0.,NA,NA,"",   1.06539E+06,   1.06482E+06,   1.06482E+06
C:/temp/Job-27.odb,Step-1,Increment      1: Step Time =    1.000,"P-27-1",           247,       167.867,       20.1065,            0.,NA,NA,"",   1.11537E+06,    1.0998E+06,    1.0998E+06
C:/temp/Job-27.odb,Step-1,Increment      1: Step Time =    1.000,"P-27-1",           248,       158.273,       18.8372,            0.,NA,NA,"",   1.14384E+06,   1.12072E+06,   1.12072E+06
C:/temp/Job-27.odb,Step-1,Increment      1: Step Time =    1.000,"P-27-1",           249,       144.698,       22.1257,            0.,NA,NA,"",   1.23558E+06,   1.20507E+06,   1.20507E+06
C:/temp/Job-27.odb,Step-1,Increment      1: Step Time =    1.000,"P-27-1",           250,       135.788,       19.1715,            0.,NA,NA,"",   1.17254E+06,   1.16182E+06,   1.16182E+06
C:/temp/Job-27.odb,Step-1,Increment      1: Step Time =    1.000,"P-27-1",           251,       126.295,       20.5148,            0.,NA,NA,"",   1.17518E+06,   1.18820E+06,   1.18820E+06
C:/temp/Job-27.odb,Step-1,Increment      1: Step Time =    1.000,"P-27-1",           252,       116.213,       21.6188,            0.,NA,NA,"",   1.15912E+06,   1.20918E+06,   1.20918E+06
C:/temp/Job-27.odb,Step-1,Increment      1: Step Time =    1.000,"P-27-1",           253,       105.343,       21.9644,            0.,NA,NA,"",   1.17162E+06,   1.23826E+06,   1.23826E+06
C:/temp/Job-27.odb,Step-1,Increment      1: Step Time =    1.000,"P-27-1",           254,       94.3767,       21.8504,            0.,NA,NA,"",   1.25353E+06,   1.30055E+06,   1.30055E+06
C:/temp/Job-27.odb,Step-1,Increment      1: Step Time =    1.000,"P-27-1",           255,       83.6494,       21.5238,            0.,NA,NA,"",   1.36740E+06,   1.37337E+06,   1.37337E+06
C:/temp/Job-27.odb,Step-1,Increment      1: Step Time =    1.000,"P-27-1",           256,       73.8473,       19.7507,            0.,NA,NA,"",   1.43784E+06,   1.40929E+06,   1.40929E+06
C:/temp/Job-27.odb,Step-1,Increment      1: Step Time =    1.000,"P-27-1",           257,       64.3818,       18.9891,            0.,NA,NA,"",   1.49286E+06,   1.44981E+06,   1.44981E+06
C:/temp/Job-27.odb,Step-1,Increment      1: Step Time =    1.000,"P-27-1",           258,       53.9080,       19.3224,            0.,NA,NA,"",   1.53479E+06,   1.49047E+06,   1.49047E+06
C:/temp/Job-27.odb,Step-1,Increment      1: Step Time =    1.000,"P-27-1",           259,       42.4505,       18.8411,            0.,NA,NA,"",   1.55961E+06,   1.52722E+06,   1.52722E+06
C:/temp/Job-27.odb,Step-1,Increment      1: Step Time =    1.000,"P-27-1",           260,       32.9287,       18.5712,            0.,NA,NA,"",   1.57126E+06,   1.55662E+06,   1.55662E+06
C:/temp/Job-27.odb,Step-1,Increment      1: Step Time =    1.000,"P-27-1",           261,       22.7913,       22.2594,            0.,NA,NA,"",   1.51375E+06,   1.53278E+06,   1.53278E+06
C:/temp/Job-27.odb,Step-1,Increment      1: Step Time =    1.000,"P-27-1",           262,       10.7432,       20.8833,            0.,NA,NA,"",   1.44506E+06,   1.53685E+06,   1.53685E+06
C:/temp/Job-27.odb,Step-1,Increment      1: Step Time =    1.000,"P-27-1",           263,       188.241,       35.0868,            0.,NA,NA,"",   1.01735E+06,   1.04568E+06,   1.04568E+06
C:/temp/Job-27.odb,Step-1,Increment      1: Step Time =    1.000,"P-27-1",           264,       178.130,       29.9727,            0.,NA,NA,"",   1.10052E+06,   1.09861E+06,   1.09861E+06
C:/temp/Job-27.odb,Step-1,Increment      1: Step Time =    1.000,"P-27-1",           265,       170.131,       33.8300,            0.,NA,NA,"",   1.21197E+06,   1.18183E+06,   1.18183E+06
C:/temp/Job-27.odb,Step-1,Increment      1: Step Time =    1.000,"P-27-1",           266,       159.898,       34.1671,            0.,NA,NA,"",   1.33595E+06,   1.27404E+06,   1.27404E+06
C:/temp/Job-27.odb,Step-1,Increment      1: Step Time =    1.000,"P-27-1",           267,       144.627,       31.0347,            0.,NA,NA,"",   1.39984E+06,   1.34832E+06,   1.34832E+06
C:/temp/Job-27.odb,Step-1,Increment      1: Step Time =    1.000,"P-27-1",           268,       138.170,       28.6966,            0.,NA,NA,"",   1.37377E+06,   1.34545E+06,   1.34545E+06
C:/temp/Job-27.odb,Step-1,Increment      1: Step Time =    1.000,"P-27-1",           269,       127.325,       32.0598,            0.,NA,NA,"",   1.43444E+06,   1.45596E+06,   1.45596E+06
C:/temp/Job-27.odb,Step-1,Increment      1: Step Time =    1.000,"P-27-1",           270,       114.384,       32.5531,            0.,NA,NA,"",   1.40766E+06,   1.50710E+06,   1.50710E+06
C:/temp/Job-27.odb,Step-1,Increment      1: Step Time =    1.000,"P-27-1",           271,       108.527,       33.3339,            0.,NA,NA,"",   1.43016E+06,   1.54505E+06,   1.54505E+06
C:/temp/Job-27.odb,Step-1,Increment      1: Step Time =    1.000,"P-27-1",           272,       94.7776,       32.3031,            0.,NA,NA,"",   1.48005E+06,   1.57085E+06,   1.57085E+06
C:/temp/Job-27.odb,Step-1,Increment      1: Step Time =    1.000,"P-27-1",           273,       83.8574,       34.1943,            0.,NA,NA,"",   1.62836E+06,   1.65774E+06,   1.65774E+06
C:/temp/Job-27.odb,Step-1,Increment      1: Step Time =    1.000,"P-27-1",           274,       72.8273,       33.6256,            0.,NA,NA,"",   1.67035E+06,   1.62359E+06,   1.62359E+06
C:/temp/Job-27.odb,Step-1,Increment      1: Step Time =    1.000,"P-27-1",           275,       64.3779,       28.5466,            0.,NA,NA,"",   1.61533E+06,   1.54684E+06,   1.54684E+06
C:/temp/Job-27.odb,Step-1,Increment      1: Step Time =    1.000,"P-27-1",           276,       55.5482,       29.7678,            0.,NA,NA,"",   1.60454E+06,   1.52424E+06,   1.52424E+06
C:/temp/Job-27.odb,Step-1,Increment      1: Step Time =    1.000,"P-27-1",           277,       42.9573,       31.4075,            0.,NA,NA,"",   1.53124E+06,   1.46629E+06,   1.46629E+06
C:/temp/Job-27.odb,Step-1,Increment      1: Step Time =    1.000,"P-27-1",           278,       19.6711,       32.8464,            0.,NA,NA,"",   1.31095E+06,   1.35144E+06,   1.35144E+06
C:/temp/Job-27.odb,Step-1,Increment      1: Step Time =    1.000,"P-27-1",           279,       10.1335,       31.0615,            0.,NA,NA,"",   1.23229E+06,   1.32852E+06,   1.32852E+06
C:/temp/Job-27.odb,Step-1,Increment      1: Step Time =    1.000,"P-27-1",           280,       189.945,       45.7655,            0.,NA,NA,"",   988.583E+03,   1.05126E+06,   1.05126E+06
C:/temp/Job-27.odb,Step-1,Increment      1: Step Time =    1.000,"P-27-1",           281,       179.136,       43.7508,            0.,NA,NA,"",   1.13608E+06,   1.14329E+06,   1.14329E+06
C:/temp/Job-27.odb,Step-1,Increment      1: Step Time =    1.000,"P-27-1",           282,       168.855,       47.6579,            0.,NA,NA,"",   1.32260E+06,   1.26026E+06,   1.26026E+06
C:/temp/Job-27.odb,Step-1,Increment      1: Step Time =    1.000,"P-27-1",           283,       158.646,       44.6776,            0.,NA,NA,"",   1.47246E+06,   1.36426E+06,   1.36426E+06
C:/temp/Job-27.odb,Step-1,Increment      1: Step Time =    1.000,"P-27-1",           284,       149.918,       40.7704,            0.,NA,NA,"",   1.54058E+06,   1.43972E+06,   1.43972E+06
C:/temp/Job-27.odb,Step-1,Increment      1: Step Time =    1.000,"P-27-1",           285,       140.569,       39.4728,            0.,NA,NA,"",   1.58731E+06,   1.51924E+06,   1.51924E+06
C:/temp/Job-27.odb,Step-1,Increment      1: Step Time =    1.000,"P-27-1",           286,       128.879,       37.4900,            0.,NA,NA,"",   1.56777E+06,   1.58205E+06,   1.58205E+06
C:/temp/Job-27.odb,Step-1,Increment      1: Step Time =    1.000,"P-27-1",           287,       117.375,       47.3240,            0.,NA,NA,"",   1.89562E+06,   2.01821E+06,   2.01821E+06
C:/temp/Job-27.odb,Step-1,Increment      1: Step Time =    1.000,"P-27-1",           288,       106.887,       37.6796,            0.,NA,NA,"",   1.56246E+06,   1.69855E+06,   1.69855E+06
C:/temp/Job-27.odb,Step-1,Increment      1: Step Time =    1.000,"P-27-1",           289,       90.6089,       42.9217,            0.,NA,NA,"",   1.82590E+06,   1.93646E+06,   1.93646E+06
C:/temp/Job-27.odb,Step-1,Increment      1: Step Time =    1.000,"P-27-1",           290,       81.1163,       46.3802,            0.,NA,NA,"",   1.86437E+06,   1.89418E+06,   1.89418E+06
C:/temp/Job-27.odb,Step-1,Increment      1: Step Time =    1.000,"P-27-1",           291,       70.0598,       44.5197,            0.,NA,NA,"",   1.76520E+06,   1.68991E+06,   1.68991E+06
C:/temp/Job-27.odb,Step-1,Increment      1: Step Time =    1.000,"P-27-1",           292,       63.3854,       42.0311,            0.,NA,NA,"",   1.69409E+06,   1.58849E+06,   1.58849E+06
C:/temp/Job-27.odb,Step-1,Increment      1: Step Time =    1.000,"P-27-1",           293,       50.7670,       41.9718,            0.,NA,NA,"",   1.55320E+06,   1.44266E+06,   1.44266E+06
C:/temp/Job-27.odb,Step-1,Increment      1: Step Time =    1.000,"P-27-1",           294,       41.1734,       40.0509,            0.,NA,NA,"",   1.44635E+06,   1.37324E+06,   1.37324E+06
C:/temp/Job-27.odb,Step-1,Increment      1: Step Time =    1.000,"P-27-1",           295,       28.6485,       43.0451,            0.,NA,NA,"",   1.24025E+06,   1.23173E+06,   1.23173E+06
C:/temp/Job-27.odb,Step-1,Increment      1: Step Time =    1.000,"P-27-1",           296,       19.0475,       42.3925,            0.,NA,NA,"",   1.13394E+06,   1.17665E+06,   1.17665E+06
C:/temp/Job-27.odb,Step-1,Increment      1: Step Time =    1.000,"P-27-1",           297,       9.55977,       41.0557,            0.,NA,NA,"",   1.05028E+06,   1.14110E+06,   1.14110E+06
C:/temp/Job-27.odb,Step-1,Increment      1: Step Time =    1.000,"P-27-1",           298,       189.587,       159.004,            0.,NA,NA,"",   1.00113E+06,   1.04754E+06,   1.04754E+06
C:/temp/Job-27.odb,Step-1,Increment      1: Step Time =    1.000,"P-27-1",           299,       179.758,       158.783,            0.,NA,NA,"",   1.11837E+06,   1.12786E+06,   1.12786E+06
C:/temp/Job-27.odb,Step-1,Increment      1: Step Time =    1.000,"P-27-1",           300,       170.551,       159.464,            0.,NA,NA,"",   1.25097E+06,   1.21338E+06,   1.21338E+06
C:/temp/Job-27.odb,Step-1,Increment      1: Step Time =    1.000,"P-27-1",           301,       160.765,       154.997,            0.,NA,NA,"",   1.44254E+06,   1.34147E+06,   1.34147E+06
C:/temp/Job-27.odb,Step-1,Increment      1: Step Time =    1.000,"P-27-1",           302,       146.177,       156.087,            0.,NA,NA,"",   1.62203E+06,   1.50873E+06,   1.50873E+06
C:/temp/Job-27.odb,Step-1,Increment      1: Step Time =    1.000,"P-27-1",           303,       130.774,       158.906,            0.,NA,NA,"",   1.64942E+06,   1.64422E+06,   1.64422E+06
C:/temp/Job-27.odb,Step-1,Increment      1: Step Time =    1.000,"P-27-1",           304,       123.064,       157.693,            0.,NA,NA,"",   1.68687E+06,   1.75259E+06,   1.75259E+06
C:/temp/Job-27.odb,Step-1,Increment      1: Step Time =    1.000,"P-27-1",           305,       117.349,       157.510,            0.,NA,NA,"",   1.70465E+06,   1.81971E+06,   1.81971E+06
C:/temp/Job-27.odb,Step-1,Increment      1: Step Time =    1.000,"P-27-1",           306,       104.908,       157.238,            0.,NA,NA,"",   1.80394E+06,   1.96883E+06,   1.96883E+06
C:/temp/Job-27.odb,Step-1,Increment      1: Step Time =    1.000,"P-27-1",           307,       93.4272,       159.093,            0.,NA,NA,"",   1.74419E+06,   1.86370E+06,   1.86370E+06
C:/temp/Job-27.odb,Step-1,Increment      1: Step Time =    1.000,"P-27-1",           308,       83.1934,       154.949,            0.,NA,NA,"",   1.85190E+06,   1.90067E+06,   1.90067E+06
C:/temp/Job-27.odb,Step-1,Increment      1: Step Time =    1.000,"P-27-1",           309,       73.9355,       156.097,            0.,NA,NA,"",   1.79468E+06,   1.75005E+06,   1.75005E+06
C:/temp/Job-27.odb,Step-1,Increment      1: Step Time =    1.000,"P-27-1",           310,       62.3951,       160.496,            0.,NA,NA,"",   1.68509E+06,   1.58148E+06,   1.58148E+06
C:/temp/Job-27.odb,Step-1,Increment      1: Step Time =    1.000,"P-27-1",           311,       53.6743,       157.905,            0.,NA,NA,"",   1.59041E+06,   1.47595E+06,   1.47595E+06
C:/temp/Job-27.odb,Step-1,Increment      1: Step Time =    1.000,"P-27-1",           312,       43.7988,       155.664,            0.,NA,NA,"",   1.42840E+06,   1.33727E+06,   1.33727E+06
C:/temp/Job-27.odb,Step-1,Increment      1: Step Time =    1.000,"P-27-1",           313,       31.8888,       156.097,            0.,NA,NA,"",   1.26623E+06,   1.23725E+06,   1.23725E+06
C:/temp/Job-27.odb,Step-1,Increment      1: Step Time =    1.000,"P-27-1",           314,       20.9286,       155.305,            0.,NA,NA,"",   1.10786E+06,   1.13997E+06,   1.13997E+06
C:/temp/Job-27.odb,Step-1,Increment      1: Step Time =    1.000,"P-27-1",           315,       10.1388,       158.732,            0.,NA,NA,"",   1.05419E+06,   1.14270E+06,   1.14270E+06
C:/temp/Job-27.odb,Step-1,Increment      1: Step Time =    1.000,"P-27-1",           316,       189.625,       169.249,            0.,NA,NA,"",   1.00935E+06,   1.03129E+06,   1.03129E+06
C:/temp/Job-27.odb,Step-1,Increment      1: Step Time =    1.000,"P-27-1",           317,       175.389,       171.706,            0.,NA,NA,"",   1.11529E+06,   1.10812E+06,   1.10812E+06
C:/temp/Job-27.odb,Step-1,Increment      1: Step Time =    1.000,"P-27-1",           318,       168.146,       171.841,            0.,NA,NA,"",   1.18666E+06,   1.15917E+06,   1.15917E+06
C:/temp/Job-27.odb,Step-1,Increment      1: Step Time =    1.000,"P-27-1",           319,       160.642,       170.534,            0.,NA,NA,"",   1.26845E+06,   1.22140E+06,   1.22140E+06
C:/temp/Job-27.odb,Step-1,Increment      1: Step Time =    1.000,"P-27-1",           320,       146.648,       168.221,            0.,NA,NA,"",   1.41104E+06,   1.35091E+06,   1.35091E+06
C:/temp/Job-27.odb,Step-1,Increment      1: Step Time =    1.000,"P-27-1",           321,       131.354,       167.352,            0.,NA,NA,"",   1.45862E+06,   1.45570E+06,   1.45570E+06
C:/temp/Job-27.odb,Step-1,Increment      1: Step Time =    1.000,"P-27-1",           322,       122.271,       169.743,            0.,NA,NA,"",   1.37279E+06,   1.42091E+06,   1.42091E+06
C:/temp/Job-27.odb,Step-1,Increment      1: Step Time =    1.000,"P-27-1",           323,       113.421,       167.145,            0.,NA,NA,"",   1.41873E+06,   1.52195E+06,   1.52195E+06
C:/temp/Job-27.odb,Step-1,Increment      1: Step Time =    1.000,"P-27-1",           324,       103.698,       170.881,            0.,NA,NA,"",   1.33960E+06,   1.44121E+06,   1.44121E+06
C:/temp/Job-27.odb,Step-1,Increment      1: Step Time =    1.000,"P-27-1",           325,       94.3286,       167.598,            0.,NA,NA,"",   1.49658E+06,   1.58676E+06,   1.58676E+06
C:/temp/Job-27.odb,Step-1,Increment      1: Step Time =    1.000,"P-27-1",           326,       83.2279,       165.665,            0.,NA,NA,"",   1.63437E+06,   1.65792E+06,   1.65792E+06
C:/temp/Job-27.odb,Step-1,Increment      1: Step Time =    1.000,"P-27-1",           327,       73.3541,       168.468,            0.,NA,NA,"",   1.63496E+06,   1.59220E+06,   1.59220E+06
C:/temp/Job-27.odb,Step-1,Increment      1: Step Time =    1.000,"P-27-1",           328,       62.8421,       166.574,            0.,NA,NA,"",   1.65029E+06,   1.56449E+06,   1.56449E+06
C:/temp/Job-27.odb,Step-1,Increment      1: Step Time =    1.000,"P-27-1",           329,       51.4381,       169.546,            0.,NA,NA,"",   1.58207E+06,   1.50360E+06,   1.50360E+06
C:/temp/Job-27.odb,Step-1,Increment      1: Step Time =    1.000,"P-27-1",           330,       41.7889,       168.642,            0.,NA,NA,"",   1.52227E+06,   1.46221E+06,   1.46221E+06
C:/temp/Job-27.odb,Step-1,Increment      1: Step Time =    1.000,"P-27-1",           331,       32.7923,       163.326,            0.,NA,NA,"",   1.38655E+06,   1.35689E+06,   1.35689E+06
C:/temp/Job-27.odb,Step-1,Increment      1: Step Time =    1.000,"P-27-1",           332,       22.6546,       167.200,            0.,NA,NA,"",   1.34782E+06,   1.37125E+06,   1.37125E+06
C:/temp/Job-27.odb,Step-1,Increment      1: Step Time =    1.000,"P-27-1",           333,       10.9398,       168.736,            0.,NA,NA,"",   1.23867E+06,   1.33053E+06,   1.33053E+06
C:/temp/Job-27.odb,Step-1,Increment      1: Step Time =    1.000,"P-27-1",           334,       189.236,       179.691,            0.,NA,NA,"",   1.01036E+06,   1.01785E+06,   1.01785E+06
C:/temp/Job-27.odb,Step-1,Increment      1: Step Time =    1.000,"P-27-1",           335,       178.125,       177.435,            0.,NA,NA,"",   1.06689E+06,   1.06627E+06,   1.06627E+06
C:/temp/Job-27.odb,Step-1,Increment      1: Step Time =    1.000,"P-27-1",           336,       165.614,       181.847,            0.,NA,NA,"",   1.10704E+06,   1.09186E+06,   1.09186E+06
C:/temp/Job-27.odb,Step-1,Increment      1: Step Time =    1.000,"P-27-1",           337,       156.240,       180.468,            0.,NA,NA,"",   1.16428E+06,   1.13758E+06,   1.13758E+06
C:/temp/Job-27.odb,Step-1,Increment      1: Step Time =    1.000,"P-27-1",           338,       146.489,       180.249,            0.,NA,NA,"",   1.19041E+06,   1.16335E+06,   1.16335E+06
C:/temp/Job-27.odb,Step-1,Increment      1: Step Time =    1.000,"P-27-1",           339,       136.788,       180.861,            0.,NA,NA,"",   1.17648E+06,   1.16261E+06,   1.16261E+06
C:/temp/Job-27.odb,Step-1,Increment      1: Step Time =    1.000,"P-27-1",           340,       124.162,       177.200,            0.,NA,NA,"",   1.22310E+06,   1.24908E+06,   1.24908E+06
C:/temp/Job-27.odb,Step-1,Increment      1: Step Time =    1.000,"P-27-1",           341,       116.409,       176.539,            0.,NA,NA,"",   1.19842E+06,   1.25276E+06,   1.25276E+06
C:/temp/Job-27.odb,Step-1,Increment      1: Step Time =    1.000,"P-27-1",           342,       106.679,       180.628,            0.,NA,NA,"",   1.10864E+06,   1.16446E+06,   1.16446E+06
C:/temp/Job-27.odb,Step-1,Increment      1: Step Time =    1.000,"P-27-1",           343,       95.6445,       176.155,            0.,NA,NA,"",   1.28481E+06,   1.34396E+06,   1.34396E+06
C:/temp/Job-27.odb,Step-1,Increment      1: Step Time =    1.000,"P-27-1",           344,       88.9740,       174.728,            0.,NA,NA,"",   1.38674E+06,   1.42281E+06,   1.42281E+06
C:/temp/Job-27.odb,Step-1,Increment      1: Step Time =    1.000,"P-27-1",           345,       74.7938,       178.578,            0.,NA,NA,"",   1.45842E+06,   1.43078E+06,   1.43078E+06
C:/temp/Job-27.odb,Step-1,Increment      1: Step Time =    1.000,"P-27-1",           346,       64.9914,       179.782,            0.,NA,NA,"",   1.50487E+06,   1.45899E+06,   1.45899E+06
C:/temp/Job-27.odb,Step-1,Increment      1: Step Time =    1.000,"P-27-1",           347,       55.2337,       180.104,            0.,NA,NA,"",   1.53685E+06,   1.48837E+06,   1.48837E+06
C:/temp/Job-27.odb,Step-1,Increment      1: Step Time =    1.000,"P-27-1",           348,       41.0140,       179.604,            0.,NA,NA,"",   1.55597E+06,   1.52241E+06,   1.52241E+06
C:/temp/Job-27.odb,Step-1,Increment      1: Step Time =    1.000,"P-27-1",           349,       31.2365,       179.318,            0.,NA,NA,"",   1.55297E+06,   1.54066E+06,   1.54066E+06
C:/temp/Job-27.odb,Step-1,Increment      1: Step Time =    1.000,"P-27-1",           350,       21.2558,       179.000,            0.,NA,NA,"",   1.53057E+06,   1.55556E+06,   1.55556E+06
C:/temp/Job-27.odb,Step-1,Increment      1: Step Time =    1.000,"P-27-1",           351,       10.8292,       179.238,            0.,NA,NA,"",   1.44884E+06,   1.53943E+06,   1.53943E+06
C:/temp/Job-27.odb,Step-1,Increment      1: Step Time =    1.000,"P-27-1",           352,       189.873,       190.077,            0.,NA,NA,"",   1.00323E+06,   1.00470E+06,   1.00470E+06
C:/temp/Job-27.odb,Step-1,Increment      1: Step Time =    1.000,"P-27-1",           353,       174.848,       189.511,            0.,NA,NA,"",   1.02866E+06,   1.02682E+06,   1.02682E+06
C:/temp/Job-27.odb,Step-1,Increment      1: Step Time =    1.000,"P-27-1",           354,       164.914,       190.826,            0.,NA,NA,"",   1.03333E+06,   1.02786E+06,   1.02786E+06
C:/temp/Job-27.odb,Step-1,Increment      1: Step Time =    1.000,"P-27-1",           355,       155.401,       190.628,            0.,NA,NA,"",   1.03085E+06,   1.02287E+06,   1.02287E+06
C:/temp/Job-27.odb,Step-1,Increment      1: Step Time =    1.000,"P-27-1",           356,       145.771,       190.495,            0.,NA,NA,"",   1.01008E+06,   1.00154E+06,   1.00154E+06
C:/temp/Job-27.odb,Step-1,Increment      1: Step Time =    1.000,"P-27-1",           357,       136.041,       190.543,            0.,NA,NA,"",   967.256E+03,   961.792E+03,   961.792E+03
C:/temp/Job-27.odb,Step-1,Increment      1: Step Time =    1.000,"P-27-1",           358,       126.231,       190.453,            0.,NA,NA,"",   917.097E+03,   919.254E+03,   919.254E+03
C:/temp/Job-27.odb,Step-1,Increment      1: Step Time =    1.000,"P-27-1",           359,       116.190,       189.899,            0.,NA,NA,"",   881.684E+03,   896.314E+03,   896.314E+03
C:/temp/Job-27.odb,Step-1,Increment      1: Step Time =    1.000,"P-27-1",           360,       106.078,       190.200,            0.,NA,NA,"",   874.451E+03,   893.446E+03,   893.446E+03
C:/temp/Job-27.odb,Step-1,Increment      1: Step Time =    1.000,"P-27-1",           361,       96.1747,       189.900,            0.,NA,NA,"",   951.805E+03,   966.547E+03,   966.547E+03
C:/temp/Job-27.odb,Step-1,Increment      1: Step Time =    1.000,"P-27-1",           362,       85.9078,       188.705,            0.,NA,NA,"",   1.10760E+06,   1.10866E+06,   1.10866E+06
C:/temp/Job-27.odb,Step-1,Increment      1: Step Time =    1.000,"P-27-1",           363,       75.3935,       189.115,            0.,NA,NA,"",   1.24382E+06,   1.23108E+06,   1.23108E+06
C:/temp/Job-27.odb,Step-1,Increment      1: Step Time =    1.000,"P-27-1",           364,       65.1822,       189.695,            0.,NA,NA,"",   1.36185E+06,   1.34353E+06,   1.34353E+06
C:/temp/Job-27.odb,Step-1,Increment      1: Step Time =    1.000,"P-27-1",           365,       50.2122,       189.995,            0.,NA,NA,"",   1.50726E+06,   1.49154E+06,   1.49154E+06
C:/temp/Job-27.odb,Step-1,Increment      1: Step Time =    1.000,"P-27-1",           366,       40.3967,       189.911,            0.,NA,NA,"",   1.57785E+06,   1.56668E+06,   1.56668E+06
C:/temp/Job-27.odb,Step-1,Increment      1: Step Time =    1.000,"P-27-1",           367,       30.5159,       189.738,            0.,NA,NA,"",   1.63432E+06,   1.63034E+06,   1.63034E+06
C:/temp/Job-27.odb,Step-1,Increment      1: Step Time =    1.000,"P-27-1",           368,       20.5448,       189.618,            0.,NA,NA,"",   1.68983E+06,   1.70090E+06,   1.70090E+06
C:/temp/Job-27.odb,Step-1,Increment      1: Step Time =    1.000,"P-27-1",           369,       10.4286,       189.655,            0.,NA,NA,"",   1.75368E+06,   1.80981E+06,   1.80981E+06
C:/temp/Job-27.odb,Step-1,Increment      1: Step Time =    1.000,"P-27-1",           370,       94.9867,       139.685,            0.,NA,NA,"",   3.23838E+06,   3.30015E+06,   3.30015E+06
C:/temp/Job-27.odb,Step-1,Increment      1: Step Time =    1.000,"P-27-1",           371,       90.0524,       138.743,            0.,NA,NA,"",   2.91270E+06,   2.96785E+06,   2.96785E+06
C:/temp/Job-27.odb,Step-1,Increment      1: Step Time =    1.000,"P-27-1",           372,       80.7299,       135.052,            0.,NA,NA,"",   1.91564E+06,   1.94487E+06,   1.94487E+06
C:/temp/Job-27.odb,Step-1,Increment      1: Step Time =    1.000,"P-27-1",           373,       72.6181,       129.159,            0.,NA,NA,"",   893.011E+03,   869.441E+03,   869.441E+03
C:/temp/Job-27.odb,Step-1,Increment      1: Step Time =    1.000,"P-27-1",           374,       69.1795,       125.497,            0.,NA,NA,"",   537.474E+03,   463.897E+03,   463.897E+03
C:/temp/Job-27.odb,Step-1,Increment      1: Step Time =    1.000,"P-27-1",           375,       60.0789,       102.512,            0.,NA,NA,"",   783.612E+03,  -810.275E+03,  -810.275E+03
C:/temp/Job-27.odb,Step-1,Increment      1: Step Time =    1.000,"P-27-1",           376,       60.7085,       92.5047,            0.,NA,NA,"",   786.115E+03,  -799.750E+03,  -799.750E+03
C:/temp/Job-27.odb,Step-1,Increment      1: Step Time =    1.000,"P-27-1",           377,       61.9577,       87.6393,            0.,NA,NA,"",   689.877E+03,  -698.370E+03,  -698.370E+03
C:/temp/Job-27.odb,Step-1,Increment      1: Step Time =    1.000,"P-27-1",           378,       66.2269,       78.5669,            0.,NA,NA,"",   348.640E+03,  -285.429E+03,  -285.429E+03
C:/temp/Job-27.odb,Step-1,Increment      1: Step Time =    1.000,"P-27-1",           379,       72.6181,       70.8413,            0.,NA,NA,"",   938.326E+03,   906.419E+03,   906.419E+03
C:/temp/Job-27.odb,Step-1,Increment      1: Step Time =    1.000,"P-27-1",           380,       76.4886,       67.6393,            0.,NA,NA,"",   1.43945E+06,   1.44522E+06,   1.44522E+06
C:/temp/Job-27.odb,Step-1,Increment      1: Step Time =    1.000,"P-27-1",           381,          100.,           60.,            0.,NA,NA,"",   3.51631E+06,   3.58187E+06,   3.58187E+06
C:/temp/Job-27.odb,Step-1,Increment      1: Step Time =    1.000,"P-27-1",           382,       123.511,       67.6393,            0.,NA,NA,"",   2.11949E+06,   2.14198E+06,   2.14198E+06
C:/temp/Job-27.odb,Step-1,Increment      1: Step Time =    1.000,"P-27-1",           383,       127.382,       70.8413,            0.,NA,NA,"",   1.56630E+06,   1.57526E+06,   1.57526E+06
C:/temp/Job-27.odb,Step-1,Increment      1: Step Time =    1.000,"P-27-1",           384,       133.773,       78.5669,            0.,NA,NA,"",   592.106E+03,   162.782E+03,   162.782E+03
C:/temp/Job-27.odb,Step-1,Increment      1: Step Time =    1.000,"P-27-1",           385,       138.042,       87.6393,            0.,NA,NA,"",   907.361E+03,  -899.386E+03,  -899.386E+03
C:/temp/Job-27.odb,Step-1,Increment      1: Step Time =    1.000,"P-27-1",           386,       139.291,       92.5047,            0.,NA,NA,"",   1.20575E+06,  -1.21937E+06,  -1.21937E+06
C:/temp/Job-27.odb,Step-1,Increment      1: Step Time =    1.000,"P-27-1",           387,       139.921,       102.512,            0.,NA,NA,"",   1.43993E+06,  -1.46065E+06,  -1.46065E+06
C:/temp/Job-27.odb,Step-1,Increment      1: Step Time =    1.000,"P-27-1",           388,       130.821,       125.497,            0.,NA,NA,"",   1.05670E+06,   1.00920E+06,   1.00920E+06
C:/temp/Job-27.odb,Step-1,Increment      1: Step Time =    1.000,"P-27-1",           389,       127.382,       129.159,            0.,NA,NA,"",   1.56973E+06,   1.57870E+06,   1.57870E+06
C:/temp/Job-27.odb,Step-1,Increment      1: Step Time =    1.000,"P-27-1",           390,       119.270,       135.052,            0.,NA,NA,"",   2.68113E+06,   2.72880E+06,   2.72880E+06
C:/temp/Job-27.odb,Step-1,Increment      1: Step Time =    1.000,"P-27-1",           391,       109.948,       138.743,            0.,NA,NA,"",   3.28645E+06,   3.36904E+06,   3.36904E+06
C:/temp/Job-27.odb,Step-1,Increment      1: Step Time =    1.000,"P-27-1",           392,       105.013,       139.685,            0.,NA,NA,"",   3.23597E+06,   3.35463E+06,   3.35463E+06
C:/temp/Job-27.odb,Step-1,Increment      1: Step Time =    1.000,"P-27-1",           393,          195.,            0.,            0.,NA,NA,"",    998.33E+03,   998.156E+03,   998.156E+03
C:/temp/Job-27.odb,Step-1,Increment      1: Step Time =    1.000,"P-27-1",           394,          185.,            0.,            0.,NA,NA,"",   994.032E+03,   994.223E+03,   994.223E+03
C:/temp/Job-27.odb,Step-1,Increment      1: Step Time =    1.000,"P-27-1",           395,          175.,            0.,            0.,NA,NA,"",   993.504E+03,   993.303E+03,   993.303E+03
C:/temp/Job-27.odb,Step-1,Increment      1: Step Time =    1.000,"P-27-1",           396,          165.,            0.,            0.,NA,NA,"",   986.886E+03,   986.220E+03,   986.220E+03
C:/temp/Job-27.odb,Step-1,Increment      1: Step Time =    1.000,"P-27-1",           397,          155.,            0.,            0.,NA,NA,"",   957.821E+03,   956.843E+03,   956.843E+03
C:/temp/Job-27.odb,Step-1,Increment      1: Step Time =    1.000,"P-27-1",           398,          145.,            0.,            0.,NA,NA,"",   895.778E+03,   894.791E+03,   894.791E+03
C:/temp/Job-27.odb,Step-1,Increment      1: Step Time =    1.000,"P-27-1",           399,          135.,            0.,            0.,NA,NA,"",   807.183E+03,   806.561E+03,   806.561E+03
C:/temp/Job-27.odb,Step-1,Increment      1: Step Time =    1.000,"P-27-1",           400,          125.,            0.,            0.,NA,NA,"",   714.722E+03,   715.260E+03,   715.260E+03
C:/temp/Job-27.odb,Step-1,Increment      1: Step Time =    1.000,"P-27-1",           401,          115.,            0.,            0.,NA,NA,"",   652.077E+03,   654.316E+03,   654.316E+03
C:/temp/Job-27.odb,Step-1,Increment      1: Step Time =    1.000,"P-27-1",           402,          105.,            0.,            0.,NA,NA,"",   652.391E+03,   655.367E+03,   655.367E+03
C:/temp/Job-27.odb,Step-1,Increment      1: Step Time =    1.000,"P-27-1",           403,           95.,            0.,            0.,NA,NA,"",   731.958E+03,   733.770E+03,   733.770E+03
C:/temp/Job-27.odb,Step-1,Increment      1: Step Time =    1.000,"P-27-1",           404,           85.,            0.,            0.,NA,NA,"",   881.185E+03,   881.141E+03,   881.141E+03
C:/temp/Job-27.odb,Step-1,Increment      1: Step Time =    1.000,"P-27-1",           405,           75.,            0.,            0.,NA,NA,"",   1.07166E+06,   1.07043E+06,   1.07043E+06
C:/temp/Job-27.odb,Step-1,Increment      1: Step Time =    1.000,"P-27-1",           406,           65.,            0.,            0.,NA,NA,"",   1.26758E+06,   1.26596E+06,   1.26596E+06
C:/temp/Job-27.odb,Step-1,Increment      1: Step Time =    1.000,"P-27-1",           407,           55.,            0.,            0.,NA,NA,"",   1.43812E+06,   1.43663E+06,   1.43663E+06
C:/temp/Job-27.odb,Step-1,Increment      1: Step Time =    1.000,"P-27-1",           408,           45.,            0.,            0.,NA,NA,"",   1.56785E+06,   1.56678E+06,   1.56678E+06
C:/temp/Job-27.odb,Step-1,Increment      1: Step Time =    1.000,"P-27-1",           409,           35.,            0.,            0.,NA,NA,"",   1.65622E+06,   1.65569E+06,   1.65569E+06
C:/temp/Job-27.odb,Step-1,Increment      1: Step Time =    1.000,"P-27-1",           410,           25.,            0.,            0.,NA,NA,"",   1.71875E+06,   1.71986E+06,   1.71986E+06
C:/temp/Job-27.odb,Step-1,Increment      1: Step Time =    1.000,"P-27-1",           411,           15.,            0.,            0.,NA,NA,"",   1.79929E+06,   1.80601E+06,   1.80601E+06
C:/temp/Job-27.odb,Step-1,Increment      1: Step Time =    1.000,"P-27-1",           412,            5.,            0.,            0.,NA,NA,"",   2.11912E+06,   2.16794E+06,   2.16794E+06
C:/temp/Job-27.odb,Step-1,Increment      1: Step Time =    1.000,"P-27-1",           413,          200.,          195.,            0.,NA,NA,"",   1.00054E+06,   999.671E+03,   999.671E+03
C:/temp/Job-27.odb,Step-1,Increment      1: Step Time =    1.000,"P-27-1",           414,          200.,          185.,            0.,NA,NA,"",   1.00304E+06,   1.00140E+06,   1.00140E+06
C:/temp/Job-27.odb,Step-1,Increment      1: Step Time =    1.000,"P-27-1",           415,          200.,          175.,            0.,NA,NA,"",   995.939E+03,   1.00288E+06,   1.00288E+06
C:/temp/Job-27.odb,Step-1,Increment      1: Step Time =    1.000,"P-27-1",           416,          200.,          165.,            0.,NA,NA,"",   971.354E+03,   1.00464E+06,   1.00464E+06
C:/temp/Job-27.odb,Step-1,Increment      1: Step Time =    1.000,"P-27-1",           417,          200.,          155.,            0.,NA,NA,"",   928.767E+03,   1.00609E+06,   1.00609E+06
C:/temp/Job-27.odb,Step-1,Increment      1: Step Time =    1.000,"P-27-1",           418,          200.,          145.,            0.,NA,NA,"",   886.537E+03,   1.00728E+06,   1.00728E+06
C:/temp/Job-27.odb,Step-1,Increment      1: Step Time =    1.000,"P-27-1",           419,          200.,          135.,            0.,NA,NA,"",   877.865E+03,   1.00839E+06,   1.00839E+06
C:/temp/Job-27.odb,Step-1,Increment      1: Step Time =    1.000,"P-27-1",           420,          200.,          125.,            0.,NA,NA,"",   929.325E+03,   1.01402E+06,   1.01402E+06
C:/temp/Job-27.odb,Step-1,Increment      1: Step Time =    1.000,"P-27-1",           421,          200.,          115.,            0.,NA,NA,"",   1.01792E+06,   1.06375E+06,   1.06375E+06
C:/temp/Job-27.odb,Step-1,Increment      1: Step Time =    1.000,"P-27-1",           422,          200.,          105.,            0.,NA,NA,"",   1.08196E+06,   1.15398E+06,   1.15398E+06
C:/temp/Job-27.odb,Step-1,Increment      1: Step Time =    1.000,"P-27-1",           423,          200.,           95.,            0.,NA,NA,"",   1.07881E+06,   1.14911E+06,   1.14911E+06
C:/temp/Job-27.odb,Step-1,Increment      1: Step Time =    1.000,"P-27-1",           424,          200.,           85.,            0.,NA,NA,"",   1.01310E+06,   1.05916E+06,   1.05916E+06
C:/temp/Job-27.odb,Step-1,Increment      1: Step Time =    1.000,"P-27-1",           425,          200.,           75.,            0.,NA,NA,"",   927.545E+03,   1.01462E+06,   1.01462E+06
C:/temp/Job-27.odb,Step-1,Increment      1: Step Time =    1.000,"P-27-1",           426,          200.,           65.,            0.,NA,NA,"",   877.520E+03,   1.00822E+06,   1.00822E+06
C:/temp/Job-27.odb,Step-1,Increment      1: Step Time =    1.000,"P-27-1",           427,          200.,           55.,            0.,NA,NA,"",   885.837E+03,   1.00593E+06,   1.00593E+06
C:/temp/Job-27.odb,Step-1,Increment      1: Step Time =    1.000,"P-27-1",           428,          200.,           45.,            0.,NA,NA,"",   929.755E+03,   1.00510E+06,   1.00510E+06
C:/temp/Job-27.odb,Step-1,Increment      1: Step Time =    1.000,"P-27-1",           429,          200.,           35.,            0.,NA,NA,"",   971.778E+03,   1.00433E+06,   1.00433E+06
C:/temp/Job-27.odb,Step-1,Increment      1: Step Time =    1.000,"P-27-1",           430,          200.,           25.,            0.,NA,NA,"",   997.156E+03,   1.00311E+06,   1.00311E+06
C:/temp/Job-27.odb,Step-1,Increment      1: Step Time =    1.000,"P-27-1",           431,          200.,           15.,            0.,NA,NA,"",   1.00321E+06,   1.00114E+06,   1.00114E+06
C:/temp/Job-27.odb,Step-1,Increment      1: Step Time =    1.000,"P-27-1",           432,          200.,            5.,            0.,NA,NA,"",   1.00059E+06,   999.674E+03,   999.674E+03
C:/temp/Job-27.odb,Step-1,Increment      1: Step Time =    1.000,"P-27-1",           433,            5.,          200.,            0.,NA,NA,"",   2.12038E+06,   2.16924E+06,   2.16924E+06
C:/temp/Job-27.odb,Step-1,Increment      1: Step Time =    1.000,"P-27-1",           434,           15.,          200.,            0.,NA,NA,"",   1.79960E+06,   1.80628E+06,   1.80628E+06
C:/temp/Job-27.odb,Step-1,Increment      1: Step Time =    1.000,"P-27-1",           435,           25.,          200.,            0.,NA,NA,"",   1.71888E+06,   1.71997E+06,   1.71997E+06
C:/temp/Job-27.odb,Step-1,Increment      1: Step Time =    1.000,"P-27-1",           436,           35.,          200.,            0.,NA,NA,"",   1.65592E+06,   1.65528E+06,   1.65528E+06
C:/temp/Job-27.odb,Step-1,Increment      1: Step Time =    1.000,"P-27-1",           437,           45.,          200.,            0.,NA,NA,"",   1.56849E+06,   1.56708E+06,   1.56708E+06
C:/temp/Job-27.odb,Step-1,Increment      1: Step Time =    1.000,"P-27-1",           438,           55.,          200.,            0.,NA,NA,"",   1.44030E+06,   1.43837E+06,   1.43837E+06
C:/temp/Job-27.odb,Step-1,Increment      1: Step Time =    1.000,"P-27-1",           439,           65.,          200.,            0.,NA,NA,"",   1.26992E+06,   1.26769E+06,   1.26769E+06
C:/temp/Job-27.odb,Step-1,Increment      1: Step Time =    1.000,"P-27-1",           440,           75.,          200.,            0.,NA,NA,"",   1.07225E+06,   1.07101E+06,   1.07101E+06
C:/temp/Job-27.odb,Step-1,Increment      1: Step Time =    1.000,"P-27-1",           441,           85.,          200.,            0.,NA,NA,"",   880.832E+03,   880.929E+03,   880.929E+03
C:/temp/Job-27.odb,Step-1,Increment      1: Step Time =    1.000,"P-27-1",           442,           95.,          200.,            0.,NA,NA,"",   722.455E+03,   724.726E+03,   724.726E+03
C:/temp/Job-27.odb,Step-1,Increment      1: Step Time =    1.000,"P-27-1",           443,          105.,          200.,            0.,NA,NA,"",   638.640E+03,   641.400E+03,   641.400E+03
C:/temp/Job-27.odb,Step-1,Increment      1: Step Time =    1.000,"P-27-1",           444,          115.,          200.,            0.,NA,NA,"",   643.411E+03,   645.056E+03,   645.056E+03
C:/temp/Job-27.odb,Step-1,Increment      1: Step Time =    1.000,"P-27-1",           445,          125.,          200.,            0.,NA,NA,"",   711.442E+03,   711.998E+03,   711.998E+03
C:/temp/Job-27.odb,Step-1,Increment      1: Step Time =    1.000,"P-27-1",           446,          135.,          200.,            0.,NA,NA,"",   809.876E+03,   809.146E+03,   809.146E+03
C:/temp/Job-27.odb,Step-1,Increment      1: Step Time =    1.000,"P-27-1",           447,          145.,          200.,            0.,NA,NA,"",   898.313E+03,   897.303E+03,   897.303E+03
C:/temp/Job-27.odb,Step-1,Increment      1: Step Time =    1.000,"P-27-1",           448,          155.,          200.,            0.,NA,NA,"",   959.535E+03,   958.634E+03,   958.634E+03
C:/temp/Job-27.odb,Step-1,Increment      1: Step Time =    1.000,"P-27-1",           449,          165.,          200.,            0.,NA,NA,"",   989.301E+03,   988.611E+03,   988.611E+03
C:/temp/Job-27.odb,Step-1,Increment      1: Step Time =    1.000,"P-27-1",           450,          175.,          200.,            0.,NA,NA,"",   994.841E+03,   994.703E+03,   994.703E+03
C:/temp/Job-27.odb,Step-1,Increment      1: Step Time =    1.000,"P-27-1",           451,          185.,          200.,            0.,NA,NA,"",   994.427E+03,   994.638E+03,   994.638E+03
C:/temp/Job-27.odb,Step-1,Increment      1: Step Time =    1.000,"P-27-1",           452,          195.,          200.,            0.,NA,NA,"",   998.408E+03,   998.233E+03,   998.233E+03
C:/temp/Job-27.odb,Step-1,Increment      1: Step Time =    1.000,"P-27-1",           453,            0.,            5.,            0.,NA,NA,"",   1.99654E+06,   2.12902E+06,   2.12902E+06
C:/temp/Job-27.odb,Step-1,Increment      1: Step Time =    1.000,"P-27-1",           454,            0.,           15.,            0.,NA,NA,"",   1.47003E+06,   1.62309E+06,   1.62309E+06
C:/temp/Job-27.odb,Step-1,Increment      1: Step Time =    1.000,"P-27-1",           455,            0.,           25.,            0.,NA,NA,"",   1.24592E+06,   1.38865E+06,   1.38865E+06
C:/temp/Job-27.odb,Step-1,Increment      1: Step Time =    1.000,"P-27-1",           456,            0.,           35.,            0.,NA,NA,"",   1.07217E+06,   1.20027E+06,   1.20027E+06
C:/temp/Job-27.odb,Step-1,Increment      1: Step Time =    1.000,"P-27-1",           457,            0.,           45.,            0.,NA,NA,"",   915.884E+03,   1.02688E+06,   1.02688E+06
C:/temp/Job-27.odb,Step-1,Increment      1: Step Time =    1.000,"P-27-1",           458,            0.,           55.,            0.,NA,NA,"",   766.696E+03,   858.736E+03,   858.736E+03
C:/temp/Job-27.odb,Step-1,Increment      1: Step Time =    1.000,"P-27-1",           459,            0.,           65.,            0.,NA,NA,"",   620.407E+03,   692.981E+03,   692.981E+03
C:/temp/Job-27.odb,Step-1,Increment      1: Step Time =    1.000,"P-27-1",           460,            0.,           75.,            0.,NA,NA,"",   480.545E+03,   536.241E+03,   536.241E+03
C:/temp/Job-27.odb,Step-1,Increment      1: Step Time =    1.000,"P-27-1",           461,            0.,           85.,            0.,NA,NA,"",   356.726E+03,   401.462E+03,   401.462E+03
C:/temp/Job-27.odb,Step-1,Increment      1: Step Time =    1.000,"P-27-1",           462,            0.,           95.,            0.,NA,NA,"",   273.812E+03,   313.367E+03,   313.367E+03
C:/temp/Job-27.odb,Step-1,Increment      1: Step Time =    1.000,"P-27-1",           463,            0.,          105.,            0.,NA,NA,"",   271.595E+03,   311.200E+03,   311.200E+03
C:/temp/Job-27.odb,Step-1,Increment      1: Step Time =    1.000,"P-27-1",           464,            0.,          115.,            0.,NA,NA,"",   352.617E+03,   397.599E+03,   397.599E+03
C:/temp/Job-27.odb,Step-1,Increment      1: Step Time =    1.000,"P-27-1",           465,            0.,          125.,            0.,NA,NA,"",   477.582E+03,   533.289E+03,   533.289E+03
C:/temp/Job-27.odb,Step-1,Increment      1: Step Time =    1.000,"P-27-1",           466,            0.,          135.,            0.,NA,NA,"",   618.556E+03,   690.890E+03,   690.890E+03
C:/temp/Job-27.odb,Step-1,Increment      1: Step Time =    1.000,"P-27-1",           467,            0.,          145.,            0.,NA,NA,"",   765.303E+03,   857.047E+03,   857.047E+03
C:/temp/Job-27.odb,Step-1,Increment      1: Step Time =    1.000,"P-27-1",           468,            0.,          155.,            0.,NA,NA,"",   918.524E+03,   1.02938E+06,   1.02938E+06
C:/temp/Job-27.odb,Step-1,Increment      1: Step Time =    1.000,"P-27-1",           469,            0.,          165.,            0.,NA,NA,"",   1.07510E+06,   1.20268E+06,   1.20268E+06
C:/temp/Job-27.odb,Step-1,Increment      1: Step Time =    1.000,"P-27-1",           470,            0.,          175.,            0.,NA,NA,"",   1.24548E+06,   1.38754E+06,   1.38754E+06
C:/temp/Job-27.odb,Step-1,Increment      1: Step Time =    1.000,"P-27-1",           471,            0.,          185.,            0.,NA,NA,"",   1.47038E+06,   1.62336E+06,   1.62336E+06
C:/temp/Job-27.odb,Step-1,Increment      1: Step Time =    1.000,"P-27-1",           472,            0.,          195.,            0.,NA,NA,"",   1.99889E+06,   2.13183E+06,   2.13183E+06
C:/temp/Job-27.odb,Step-1,Increment      1: Step Time =    1.000,"P-27-1",           473,       63.8069,       117.031,            0.,NA,NA,"",   494.178E+03,  -479.368E+03,  -479.368E+03
C:/temp/Job-27.odb,Step-1,Increment      1: Step Time =    1.000,"P-27-1",           474,       61.9577,       112.361,            0.,NA,NA,"",   652.755E+03,  -658.341E+03,  -658.341E+03
C:/temp/Job-27.odb,Step-1,Increment      1: Step Time =    1.000,"P-27-1",           475,       85.2750,       62.8089,            0.,NA,NA,"",   2.43240E+06,   2.49761E+06,   2.49761E+06
C:/temp/Job-27.odb,Step-1,Increment      1: Step Time =    1.000,"P-27-1",           476,       90.0524,       61.2567,            0.,NA,NA,"",   2.87886E+06,   2.95302E+06,   2.95302E+06
C:/temp/Job-27.odb,Step-1,Increment      1: Step Time =    1.000,"P-27-1",           477,       109.948,       61.2567,            0.,NA,NA,"",   3.40175E+06,   3.46780E+06,   3.46780E+06
C:/temp/Job-27.odb,Step-1,Increment      1: Step Time =    1.000,"P-27-1",           478,       114.725,       62.8089,            0.,NA,NA,"",   3.09967E+06,   3.15691E+06,   3.15691E+06
C:/temp/Job-27.odb,Step-1,Increment      1: Step Time =    1.000,"P-27-1",           479,       138.042,       112.361,            0.,NA,NA,"",   946.318E+03,  -923.132E+03,  -923.132E+03
C:/temp/Job-27.odb,Step-1,Increment      1: Step Time =    1.000,"P-27-1",           480,       136.193,       117.031,            0.,NA,NA,"",   685.893E+03,  -185.485E+03,  -185.485E+03
C:/temp/Job-27.odb,Step-1,Increment      1: Step Time =    1.000,"P-27-1",           481,       195.322,       74.9052,            0.,NA,NA,"",   922.209E+03,   1.03413E+06,   1.03413E+06
C:/temp/Job-27.odb,Step-1,Increment      1: Step Time =    1.000,"P-27-1",           482,       105.069,       5.52395,            0.,NA,NA,"",   745.657E+03,   753.871E+03,   753.871E+03
C:/temp/Job-27.odb,Step-1,Increment      1: Step Time =    1.000,"P-27-1",           483,       115.124,       5.36278,            0.,NA,NA,"",   739.256E+03,   745.348E+03,   745.348E+03
C:/temp/Job-27.odb,Step-1,Increment      1: Step Time =    1.000,"P-27-1",           484,       135.519,       195.302,            0.,NA,NA,"",   862.148E+03,   860.001E+03,   860.001E+03
C:/temp/Job-27.odb,Step-1,Increment      1: Step Time =    1.000,"P-27-1",           485,       195.155,       134.488,            0.,NA,NA,"",   896.245E+03,   1.02977E+06,   1.02977E+06
C:/temp/Job-27.odb,Step-1,Increment      1: Step Time =    1.000,"P-27-1",           486,       194.835,       144.460,            0.,NA,NA,"",   911.114E+03,   1.02612E+06,   1.02612E+06
C:/temp/Job-27.odb,Step-1,Increment      1: Step Time =    1.000,"P-27-1",           487,       194.721,       154.428,            0.,NA,NA,"",   945.725E+03,   1.02012E+06,   1.02012E+06
C:/temp/Job-27.odb,Step-1,Increment      1: Step Time =    1.000,"P-27-1",           488,       145.368,       195.322,            0.,NA,NA,"",   933.633E+03,   930.568E+03,   930.568E+03
C:/temp/Job-27.odb,Step-1,Increment      1: Step Time =    1.000,"P-27-1",           489,       94.9302,       5.47902,            0.,NA,NA,"",   823.191E+03,   828.141E+03,   828.141E+03
C:/temp/Job-27.odb,Step-1,Increment      1: Step Time =    1.000,"P-27-1",           490,       5.03066,       124.705,            0.,NA,NA,"",   470.901E+03,   527.024E+03,   527.024E+03
C:/temp/Job-27.odb,Step-1,Increment      1: Step Time =    1.000,"P-27-1",           491,       85.3980,       194.435,            0.,NA,NA,"",   958.312E+03,   957.741E+03,   957.741E+03
C:/temp/Job-27.odb,Step-1,Increment      1: Step Time =    1.000,"P-27-1",           492,       75.2662,       194.533,            0.,NA,NA,"",   1.12902E+06,   1.12410E+06,   1.12410E+06
C:/temp/Job-27.odb,Step-1,Increment      1: Step Time =    1.000,"P-27-1",           493,       95.5011,       194.856,            0.,NA,NA,"",   805.667E+03,   811.050E+03,   811.050E+03
C:/temp/Job-27.odb,Step-1,Increment      1: Step Time =    1.000,"P-27-1",           494,       105.565,       195.049,            0.,NA,NA,"",   723.789E+03,   730.979E+03,   730.979E+03
C:/temp/Job-27.odb,Step-1,Increment      1: Step Time =    1.000,"P-27-1",           495,       5.30340,       10.2985,            0.,NA,NA,"",   1.69029E+06,   1.80839E+06,   1.80839E+06
C:/temp/Job-27.odb,Step-1,Increment      1: Step Time =    1.000,"P-27-1",           496,       5.36316,       15.3770,            0.,NA,NA,"",   1.50550E+06,   1.63513E+06,   1.63513E+06
C:/temp/Job-27.odb,Step-1,Increment      1: Step Time =    1.000,"P-27-1",           497,       5.24765,       25.4233,            0.,NA,NA,"",   1.27584E+06,   1.40358E+06,   1.40358E+06
C:/temp/Job-27.odb,Step-1,Increment      1: Step Time =    1.000,"P-27-1",           498,       4.93452,       35.4893,            0.,NA,NA,"",   1.09414E+06,   1.21159E+06,   1.21159E+06
C:/temp/Job-27.odb,Step-1,Increment      1: Step Time =    1.000,"P-27-1",           499,       4.67573,       45.4207,            0.,NA,NA,"",   931.571E+03,   1.03495E+06,   1.03495E+06
C:/temp/Job-27.odb,Step-1,Increment      1: Step Time =    1.000,"P-27-1",           500,       5.05115,       114.583,            0.,NA,NA,"",   339.733E+03,   386.022E+03,   386.022E+03
C:/temp/Job-27.odb,Step-1,Increment      1: Step Time =    1.000,"P-27-1",           501,       15.3948,       5.31477,            0.,NA,NA,"",   1.78164E+06,   1.79266E+06,   1.79266E+06
C:/temp/Job-27.odb,Step-1,Increment      1: Step Time =    1.000,"P-27-1",           502,       25.4419,       5.08201,            0.,NA,NA,"",   1.70108E+06,   1.70183E+06,   1.70183E+06
C:/temp/Job-27.odb,Step-1,Increment      1: Step Time =    1.000,"P-27-1",           503,       35.4821,       4.67292,            0.,NA,NA,"",   1.63841E+06,   1.63580E+06,   1.63580E+06
C:/temp/Job-27.odb,Step-1,Increment      1: Step Time =    1.000,"P-27-1",           504,       45.3246,       4.42112,            0.,NA,NA,"",   1.55637E+06,   1.55248E+06,   1.55248E+06
C:/temp/Job-27.odb,Step-1,Increment      1: Step Time =    1.000,"P-27-1",           505,       55.1305,       4.48945,            0.,NA,NA,"",   1.44110E+06,   1.43592E+06,   1.43592E+06
C:/temp/Job-27.odb,Step-1,Increment      1: Step Time =    1.000,"P-27-1",           506,       64.9352,       4.73983,            0.,NA,NA,"",   1.29427E+06,   1.28841E+06,   1.28841E+06
C:/temp/Job-27.odb,Step-1,Increment      1: Step Time =    1.000,"P-27-1",           507,       74.8852,       4.99366,            0.,NA,NA,"",   1.12513E+06,   1.12055E+06,   1.12055E+06
C:/temp/Job-27.odb,Step-1,Increment      1: Step Time =    1.000,"P-27-1",           508,       84.8845,       5.26758,            0.,NA,NA,"",   958.718E+03,   958.001E+03,   958.001E+03
C:/temp/Job-27.odb,Step-1,Increment      1: Step Time =    1.000,"P-27-1",           509,       125.091,       5.07093,            0.,NA,NA,"",   787.161E+03,   788.647E+03,   788.647E+03
C:/temp/Job-27.odb,Step-1,Increment      1: Step Time =    1.000,"P-27-1",           510,       134.981,       4.76157,            0.,NA,NA,"",   859.399E+03,   857.598E+03,   857.598E+03
C:/temp/Job-27.odb,Step-1,Increment      1: Step Time =    1.000,"P-27-1",           511,       144.874,       4.58164,            0.,NA,NA,"",   929.205E+03,   926.340E+03,   926.340E+03
C:/temp/Job-27.odb,Step-1,Increment      1: Step Time =    1.000,"P-27-1",           512,       154.789,       4.62577,            0.,NA,NA,"",   978.870E+03,   975.997E+03,   975.997E+03
C:/temp/Job-27.odb,Step-1,Increment      1: Step Time =    1.000,"P-27-1",           513,       164.727,       4.88028,            0.,NA,NA,"",   1.00146E+06,   999.425E+03,   999.425E+03
C:/temp/Job-27.odb,Step-1,Increment      1: Step Time =    1.000,"P-27-1",           514,       174.731,       5.17105,            0.,NA,NA,"",   1.00380E+06,   1.00318E+06,   1.00318E+06
C:/temp/Job-27.odb,Step-1,Increment      1: Step Time =    1.000,"P-27-1",           515,       184.783,       5.24929,            0.,NA,NA,"",   999.425E+03,   999.995E+03,   999.995E+03
C:/temp/Job-27.odb,Step-1,Increment      1: Step Time =    1.000,"P-27-1",           516,       195.389,       65.0402,            0.,NA,NA,"",   894.397E+03,   1.02782E+06,   1.02782E+06
C:/temp/Job-27.odb,Step-1,Increment      1: Step Time =    1.000,"P-27-1",           517,       194.924,       5.10023,            0.,NA,NA,"",   999.740E+03,   999.395E+03,   999.395E+03
C:/temp/Job-27.odb,Step-1,Increment      1: Step Time =    1.000,"P-27-1",           518,       194.960,       15.1409,            0.,NA,NA,"",   1.00291E+06,   1.00346E+06,   1.00346E+06
C:/temp/Job-27.odb,Step-1,Increment      1: Step Time =    1.000,"P-27-1",           519,       195.074,       24.9986,            0.,NA,NA,"",   998.468E+03,   1.00757E+06,   1.00757E+06
C:/temp/Job-27.odb,Step-1,Increment      1: Step Time =    1.000,"P-27-1",           520,       194.457,       35.1609,            0.,NA,NA,"",   981.173E+03,   1.01475E+06,   1.01475E+06
C:/temp/Job-27.odb,Step-1,Increment      1: Step Time =    1.000,"P-27-1",           521,       194.920,       45.2491,            0.,NA,NA,"",   945.237E+03,   1.01809E+06,   1.01809E+06
C:/temp/Job-27.odb,Step-1,Increment      1: Step Time =    1.000,"P-27-1",           522,       195.319,       55.1802,            0.,NA,NA,"",   907.025E+03,   1.02194E+06,   1.02194E+06
C:/temp/Job-27.odb,Step-1,Increment      1: Step Time =    1.000,"P-27-1",           523,       195.421,       124.564,            0.,NA,NA,"",   923.490E+03,   1.03295E+06,   1.03295E+06
C:/temp/Job-27.odb,Step-1,Increment      1: Step Time =    1.000,"P-27-1",           524,       195.460,       114.650,            0.,NA,NA,"",   978.114E+03,   1.05109E+06,   1.05109E+06
C:/temp/Job-27.odb,Step-1,Increment      1: Step Time =    1.000,"P-27-1",           525,       195.222,       84.8148,            0.,NA,NA,"",   972.671E+03,   1.04951E+06,   1.04951E+06
C:/temp/Job-27.odb,Step-1,Increment      1: Step Time =    1.000,"P-27-1",           526,       194.762,       164.552,            0.,NA,NA,"",   979.028E+03,   1.01400E+06,   1.01400E+06
C:/temp/Job-27.odb,Step-1,Increment      1: Step Time =    1.000,"P-27-1",           527,       155.173,       195.387,            0.,NA,NA,"",   980.952E+03,   978.180E+03,   978.180E+03
C:/temp/Job-27.odb,Step-1,Increment      1: Step Time =    1.000,"P-27-1",           528,       194.664,       174.754,            0.,NA,NA,"",   998.149E+03,   1.00856E+06,   1.00856E+06
C:/temp/Job-27.odb,Step-1,Increment      1: Step Time =    1.000,"P-27-1",           529,       164.994,       195.387,            0.,NA,NA,"",   1.00281E+06,   1.00078E+06,   1.00078E+06
C:/temp/Job-27.odb,Step-1,Increment      1: Step Time =    1.000,"P-27-1",           530,       194.753,       184.902,            0.,NA,NA,"",   1.00317E+06,   1.00403E+06,   1.00403E+06
C:/temp/Job-27.odb,Step-1,Increment      1: Step Time =    1.000,"P-27-1",           531,       174.972,       194.968,            0.,NA,NA,"",   1.00471E+06,   1.00420E+06,   1.00420E+06
C:/temp/Job-27.odb,Step-1,Increment      1: Step Time =    1.000,"P-27-1",           532,       194.960,       195.001,            0.,NA,NA,"",   999.687E+03,   999.345E+03,   999.345E+03
C:/temp/Job-27.odb,Step-1,Increment      1: Step Time =    1.000,"P-27-1",           533,       185.029,       195.116,            0.,NA,NA,"",   998.867E+03,   999.497E+03,   999.497E+03
C:/temp/Job-27.odb,Step-1,Increment      1: Step Time =    1.000,"P-27-1",           534,       115.584,       195.007,            0.,NA,NA,"",   726.349E+03,   731.312E+03,   731.312E+03
C:/temp/Job-27.odb,Step-1,Increment      1: Step Time =    1.000,"P-27-1",           535,       125.582,       195.205,            0.,NA,NA,"",   783.176E+03,   784.108E+03,   784.108E+03
C:/temp/Job-27.odb,Step-1,Increment      1: Step Time =    1.000,"P-27-1",           536,       65.1377,       194.812,            0.,NA,NA,"",   1.29795E+06,   1.29097E+06,   1.29097E+06
C:/temp/Job-27.odb,Step-1,Increment      1: Step Time =    1.000,"P-27-1",           537,       55.0962,       194.974,            0.,NA,NA,"",   1.44466E+06,   1.43839E+06,   1.43839E+06
C:/temp/Job-27.odb,Step-1,Increment      1: Step Time =    1.000,"P-27-1",           538,       45.1410,       195.002,            0.,NA,NA,"",   1.55753E+06,   1.55270E+06,   1.55270E+06
C:/temp/Job-27.odb,Step-1,Increment      1: Step Time =    1.000,"P-27-1",           539,       35.2107,       194.935,            0.,NA,NA,"",   1.63826E+06,   1.63540E+06,   1.63540E+06
C:/temp/Job-27.odb,Step-1,Increment      1: Step Time =    1.000,"P-27-1",           540,       25.2487,       194.851,            0.,NA,NA,"",   1.70203E+06,   1.70274E+06,   1.70274E+06
C:/temp/Job-27.odb,Step-1,Increment      1: Step Time =    1.000,"P-27-1",           541,       15.2512,       194.808,            0.,NA,NA,"",   1.78354E+06,   1.79453E+06,   1.79453E+06
C:/temp/Job-27.odb,Step-1,Increment      1: Step Time =    1.000,"P-27-1",           542,       5.14129,       194.878,            0.,NA,NA,"",   1.96966E+06,   2.04760E+06,   2.04760E+06
C:/temp/Job-27.odb,Step-1,Increment      1: Step Time =    1.000,"P-27-1",           543,       5.36395,       184.689,            0.,NA,NA,"",   1.50747E+06,   1.63689E+06,   1.63689E+06
C:/temp/Job-27.odb,Step-1,Increment      1: Step Time =    1.000,"P-27-1",           544,       5.49229,       174.480,            0.,NA,NA,"",   1.27635E+06,   1.40273E+06,   1.40273E+06
C:/temp/Job-27.odb,Step-1,Increment      1: Step Time =    1.000,"P-27-1",           545,       5.28012,       164.427,            0.,NA,NA,"",   1.09804E+06,   1.21416E+06,   1.21416E+06
C:/temp/Job-27.odb,Step-1,Increment      1: Step Time =    1.000,"P-27-1",           546,       4.82035,       154.574,            0.,NA,NA,"",   934.974E+03,   1.03768E+06,   1.03768E+06
C:/temp/Job-27.odb,Step-1,Increment      1: Step Time =    1.000,"P-27-1",           547,       4.68888,       144.687,            0.,NA,NA,"",   774.839E+03,   861.447E+03,   861.447E+03
C:/temp/Job-27.odb,Step-1,Increment      1: Step Time =    1.000,"P-27-1",           548,       4.87771,       134.765,            0.,NA,NA,"",   620.164E+03,   690.355E+03,   690.355E+03
C:/temp/Job-27.odb,Step-1,Increment      1: Step Time =    1.000,"P-27-1",           549,       4.77279,       104.626,            0.,NA,NA,"",   260.029E+03,   298.615E+03,   298.615E+03
C:/temp/Job-27.odb,Step-1,Increment      1: Step Time =    1.000,"P-27-1",           550,       4.51892,       94.7626,            0.,NA,NA,"",   264.442E+03,   303.686E+03,   303.686E+03
C:/temp/Job-27.odb,Step-1,Increment      1: Step Time =    1.000,"P-27-1",           551,       4.41146,       84.9512,            0.,NA,NA,"",   347.565E+03,   394.028E+03,   394.028E+03
C:/temp/Job-27.odb,Step-1,Increment      1: Step Time =    1.000,"P-27-1",           552,       4.41979,       75.1359,            0.,NA,NA,"",   474.530E+03,   530.879E+03,   530.879E+03
C:/temp/Job-27.odb,Step-1,Increment      1: Step Time =    1.000,"P-27-1",           553,       4.46785,       65.2226,            0.,NA,NA,"",   621.302E+03,   691.892E+03,   691.892E+03
C:/temp/Job-27.odb,Step-1,Increment      1: Step Time =    1.000,"P-27-1",           554,       4.53459,       55.2824,            0.,NA,NA,"",   775.674E+03,   862.894E+03,   862.894E+03
C:/temp/Job-27.odb,Step-1,Increment      1: Step Time =    1.000,"P-27-1",           555,       195.187,       94.7841,            0.,NA,NA,"",   1.01204E+06,   1.07118E+06,   1.07118E+06
C:/temp/Job-27.odb,Step-1,Increment      1: Step Time =    1.000,"P-27-1",           556,       195.304,       104.694,            0.,NA,NA,"",   1.01554E+06,   1.07089E+06,   1.07089E+06
C:/temp/Job-27.odb,Step-1,Increment      1: Step Time =    1.000,"P-27-1",           557,       189.853,       5.19063,            0.,NA,NA,"",   998.722E+03,   999.185E+03,   999.185E+03
C:/temp/Job-27.odb,Step-1,Increment      1: Step Time =    1.000,"P-27-1",           558,       179.743,       5.24560,            0.,NA,NA,"",   1.00162E+06,   1.00171E+06,   1.00171E+06
C:/temp/Job-27.odb,Step-1,Increment      1: Step Time =    1.000,"P-27-1",           559,       169.720,       5.03978,            0.,NA,NA,"",   1.00432E+06,   1.00296E+06,   1.00296E+06
C:/temp/Job-27.odb,Step-1,Increment      1: Step Time =    1.000,"P-27-1",           560,       159.754,       4.73291,            0.,NA,NA,"",   993.397E+03,   990.843E+03,   990.843E+03
C:/temp/Job-27.odb,Step-1,Increment      1: Step Time =    1.000,"P-27-1",           561,       149.833,       4.57041,            0.,NA,NA,"",   957.353E+03,   954.384E+03,   954.384E+03
C:/temp/Job-27.odb,Step-1,Increment      1: Step Time =    1.000,"P-27-1",           562,       139.924,       4.64933,            0.,NA,NA,"",   895.835E+03,   893.355E+03,   893.355E+03
C:/temp/Job-27.odb,Step-1,Increment      1: Step Time =    1.000,"P-27-1",           563,       130.041,       4.90969,            0.,NA,NA,"",   822.182E+03,   821.707E+03,   821.707E+03
C:/temp/Job-27.odb,Step-1,Increment      1: Step Time =    1.000,"P-27-1",           564,       120.120,       5.22924,            0.,NA,NA,"",   758.210E+03,   761.994E+03,   761.994E+03
C:/temp/Job-27.odb,Step-1,Increment      1: Step Time =    1.000,"P-27-1",           565,       110.111,       5.46685,            0.,NA,NA,"",   734.051E+03,   741.726E+03,   741.726E+03
C:/temp/Job-27.odb,Step-1,Increment      1: Step Time =    1.000,"P-27-1",           566,       99.9976,       5.52739,            0.,NA,NA,"",   775.595E+03,   782.843E+03,   782.843E+03
C:/temp/Job-27.odb,Step-1,Increment      1: Step Time =    1.000,"P-27-1",           567,       89.8904,       5.38847,            0.,NA,NA,"",   885.517E+03,   887.613E+03,   887.613E+03
C:/temp/Job-27.odb,Step-1,Increment      1: Step Time =    1.000,"P-27-1",           568,       79.8846,       5.13098,            0.,NA,NA,"",   1.03969E+06,   1.03676E+06,   1.03676E+06
C:/temp/Job-27.odb,Step-1,Increment      1: Step Time =    1.000,"P-27-1",           569,       69.8983,       4.86329,            0.,NA,NA,"",   1.21134E+06,   1.20571E+06,   1.20571E+06
C:/temp/Job-27.odb,Step-1,Increment      1: Step Time =    1.000,"P-27-1",           570,       60.0114,       4.61213,            0.,NA,NA,"",   1.37122E+06,   1.36554E+06,   1.36554E+06
C:/temp/Job-27.odb,Step-1,Increment      1: Step Time =    1.000,"P-27-1",           571,       50.2492,       4.41093,            0.,NA,NA,"",   1.50317E+06,   1.49862E+06,   1.49862E+06
C:/temp/Job-27.odb,Step-1,Increment      1: Step Time =    1.000,"P-27-1",           572,       40.4179,       4.51579,            0.,NA,NA,"",   1.60100E+06,   1.59783E+06,   1.59783E+06
C:/temp/Job-27.odb,Step-1,Increment      1: Step Time =    1.000,"P-27-1",           573,       30.4718,       4.87609,            0.,NA,NA,"",   1.67100E+06,   1.66956E+06,   1.66956E+06
C:/temp/Job-27.odb,Step-1,Increment      1: Step Time =    1.000,"P-27-1",           574,       20.4339,       5.23965,            0.,NA,NA,"",   1.73709E+06,   1.74083E+06,   1.74083E+06
C:/temp/Job-27.odb,Step-1,Increment      1: Step Time =    1.000,"P-27-1",           575,       10.3082,       5.28704,            0.,NA,NA,"",   1.87031E+06,   1.89033E+06,   1.89033E+06
C:/temp/Job-27.odb,Step-1,Increment      1: Step Time =    1.000,"P-27-1",           576,       194.879,       189.978,            0.,NA,NA,"",   1.00205E+06,   1.00170E+06,   1.00170E+06
C:/temp/Job-27.odb,Step-1,Increment      1: Step Time =    1.000,"P-27-1",           577,       194.646,       179.821,            0.,NA,NA,"",   1.00195E+06,   1.00614E+06,   1.00614E+06
C:/temp/Job-27.odb,Step-1,Increment      1: Step Time =    1.000,"P-27-1",           578,       194.725,       169.651,            0.,NA,NA,"",   990.849E+03,   1.01135E+06,   1.01135E+06
C:/temp/Job-27.odb,Step-1,Increment      1: Step Time =    1.000,"P-27-1",           579,       194.750,       159.478,            0.,NA,NA,"",   963.460E+03,   1.01688E+06,   1.01688E+06
C:/temp/Job-27.odb,Step-1,Increment      1: Step Time =    1.000,"P-27-1",           580,       194.743,       149.427,            0.,NA,NA,"",   927.581E+03,   1.02333E+06,   1.02333E+06
C:/temp/Job-27.odb,Step-1,Increment      1: Step Time =    1.000,"P-27-1",           581,       194.980,       139.477,            0.,NA,NA,"",   899.318E+03,   1.02809E+06,   1.02809E+06
C:/temp/Job-27.odb,Step-1,Increment      1: Step Time =    1.000,"P-27-1",           582,       195.308,       129.517,            0.,NA,NA,"",   904.279E+03,   1.03108E+06,   1.03108E+06
C:/temp/Job-27.odb,Step-1,Increment      1: Step Time =    1.000,"P-27-1",           583,       195.474,       119.614,            0.,NA,NA,"",   950.292E+03,   1.03804E+06,   1.03804E+06
C:/temp/Job-27.odb,Step-1,Increment      1: Step Time =    1.000,"P-27-1",           584,       195.395,       109.670,            0.,NA,NA,"",   1.00132E+06,   1.06658E+06,   1.06658E+06
C:/temp/Job-27.odb,Step-1,Increment      1: Step Time =    1.000,"P-27-1",           585,       195.226,       99.7371,            0.,NA,NA,"",   1.01901E+06,   1.07012E+06,   1.07012E+06
C:/temp/Job-27.odb,Step-1,Increment      1: Step Time =    1.000,"P-27-1",           586,       195.188,       89.8037,            0.,NA,NA,"",   995.630E+03,   1.06434E+06,   1.06434E+06
C:/temp/Job-27.odb,Step-1,Increment      1: Step Time =    1.000,"P-27-1",           587,       195.274,       79.8479,            0.,NA,NA,"",   946.834E+03,   1.03865E+06,   1.03865E+06
C:/temp/Job-27.odb,Step-1,Increment      1: Step Time =    1.000,"P-27-1",           588,       195.364,       69.9739,            0.,NA,NA,"",   903.590E+03,   1.03104E+06,   1.03104E+06
C:/temp/Job-27.odb,Step-1,Increment      1: Step Time =    1.000,"P-27-1",           589,       195.382,       60.1059,            0.,NA,NA,"",   895.915E+03,   1.02465E+06,   1.02465E+06
C:/temp/Job-27.odb,Step-1,Increment      1: Step Time =    1.000,"P-27-1",           590,       195.169,       50.2374,            0.,NA,NA,"",   924.457E+03,   1.01951E+06,   1.01951E+06
C:/temp/Job-27.odb,Step-1,Increment      1: Step Time =    1.000,"P-27-1",           591,       194.615,       40.2004,            0.,NA,NA,"",   965.469E+03,   1.01701E+06,   1.01701E+06
C:/temp/Job-27.odb,Step-1,Increment      1: Step Time =    1.000,"P-27-1",           592,       194.864,       30.0803,            0.,NA,NA,"",   991.987E+03,   1.01122E+06,   1.01122E+06
C:/temp/Job-27.odb,Step-1,Increment      1: Step Time =    1.000,"P-27-1",           593,       195.049,       20.0649,            0.,NA,NA,"",   1.00171E+06,   1.00512E+06,   1.00512E+06
C:/temp/Job-27.odb,Step-1,Increment      1: Step Time =    1.000,"P-27-1",           594,       194.912,       10.1483,            0.,NA,NA,"",   1.00206E+06,   1.00165E+06,   1.00165E+06
C:/temp/Job-27.odb,Step-1,Increment      1: Step Time =    1.000,"P-27-1",           595,       10.2182,       194.821,            0.,NA,NA,"",   1.87352E+06,   1.89324E+06,   1.89324E+06
C:/temp/Job-27.odb,Step-1,Increment      1: Step Time =    1.000,"P-27-1",           596,       20.2575,       194.822,            0.,NA,NA,"",   1.73875E+06,   1.74244E+06,   1.74244E+06
C:/temp/Job-27.odb,Step-1,Increment      1: Step Time =    1.000,"P-27-1",           597,       30.2367,       194.887,            0.,NA,NA,"",   1.67110E+06,   1.66963E+06,   1.66963E+06
C:/temp/Job-27.odb,Step-1,Increment      1: Step Time =    1.000,"P-27-1",           598,       40.1783,       194.976,            0.,NA,NA,"",   1.60135E+06,   1.59744E+06,   1.59744E+06
C:/temp/Job-27.odb,Step-1,Increment      1: Step Time =    1.000,"P-27-1",           599,       50.1101,       195.002,            0.,NA,NA,"",   1.50552E+06,   1.49995E+06,   1.49995E+06
C:/temp/Job-27.odb,Step-1,Increment      1: Step Time =    1.000,"P-27-1",           600,       60.1074,       194.909,            0.,NA,NA,"",   1.37503E+06,   1.36829E+06,   1.36829E+06
C:/temp/Job-27.odb,Step-1,Increment      1: Step Time =    1.000,"P-27-1",           601,       70.1894,       194.680,            0.,NA,NA,"",   1.21534E+06,   1.20884E+06,   1.20884E+06
C:/temp/Job-27.odb,Step-1,Increment      1: Step Time =    1.000,"P-27-1",           602,       80.3565,       194.420,            0.,NA,NA,"",   1.04241E+06,   1.03943E+06,   1.03943E+06
C:/temp/Job-27.odb,Step-1,Increment      1: Step Time =    1.000,"P-27-1",           603,       90.4285,       194.623,            0.,NA,NA,"",   877.299E+03,   880.134E+03,   880.134E+03
C:/temp/Job-27.odb,Step-1,Increment      1: Step Time =    1.000,"P-27-1",           604,       100.553,       195.007,            0.,NA,NA,"",   753.318E+03,   759.790E+03,   759.790E+03
C:/temp/Job-27.odb,Step-1,Increment      1: Step Time =    1.000,"P-27-1",           605,       110.577,       195.021,            0.,NA,NA,"",   716.175E+03,   722.821E+03,   722.821E+03
C:/temp/Job-27.odb,Step-1,Increment      1: Step Time =    1.000,"P-27-1",           606,       120.566,       195.098,            0.,NA,NA,"",   749.512E+03,   752.797E+03,   752.797E+03
C:/temp/Job-27.odb,Step-1,Increment      1: Step Time =    1.000,"P-27-1",           607,       130.565,       195.275,            0.,NA,NA,"",   822.355E+03,   821.113E+03,   821.113E+03
C:/temp/Job-27.odb,Step-1,Increment      1: Step Time =    1.000,"P-27-1",           608,       140.452,       195.311,            0.,NA,NA,"",   900.202E+03,   897.497E+03,   897.497E+03
C:/temp/Job-27.odb,Step-1,Increment      1: Step Time =    1.000,"P-27-1",           609,       150.275,       195.346,            0.,NA,NA,"",   960.690E+03,   957.654E+03,   957.654E+03
C:/temp/Job-27.odb,Step-1,Increment      1: Step Time =    1.000,"P-27-1",           610,       160.074,       195.416,            0.,NA,NA,"",   994.707E+03,   992.272E+03,   992.272E+03
C:/temp/Job-27.odb,Step-1,Increment      1: Step Time =    1.000,"P-27-1",           611,       169.980,       195.219,            0.,NA,NA,"",   1.00577E+06,   1.00444E+06,   1.00444E+06
C:/temp/Job-27.odb,Step-1,Increment      1: Step Time =    1.000,"P-27-1",           612,       180.030,       195.083,            0.,NA,NA,"",   1.00153E+06,   1.00172E+06,   1.00172E+06
C:/temp/Job-27.odb,Step-1,Increment      1: Step Time =    1.000,"P-27-1",           613,       189.977,       195.061,            0.,NA,NA,"",   998.453E+03,   998.917E+03,   998.917E+03
C:/temp/Job-27.odb,Step-1,Increment      1: Step Time =    1.000,"P-27-1",           614,       5.34120,       20.4087,            0.,NA,NA,"",   1.38319E+06,   1.51318E+06,   1.51318E+06
C:/temp/Job-27.odb,Step-1,Increment      1: Step Time =    1.000,"P-27-1",           615,       5.10284,       30.4622,            0.,NA,NA,"",   1.18233E+06,   1.30552E+06,   1.30552E+06
C:/temp/Job-27.odb,Step-1,Increment      1: Step Time =    1.000,"P-27-1",           616,       4.78619,       40.4737,            0.,NA,NA,"",   1.01165E+06,   1.12237E+06,   1.12237E+06
C:/temp/Job-27.odb,Step-1,Increment      1: Step Time =    1.000,"P-27-1",           617,       4.58998,       50.3498,            0.,NA,NA,"",   853.353E+03,   948.826E+03,   948.826E+03
C:/temp/Job-27.odb,Step-1,Increment      1: Step Time =    1.000,"P-27-1",           618,       4.49537,       60.2418,            0.,NA,NA,"",   698.389E+03,   777.173E+03,   777.173E+03
C:/temp/Job-27.odb,Step-1,Increment      1: Step Time =    1.000,"P-27-1",           619,       4.44384,       70.2049,            0.,NA,NA,"",   546.192E+03,   609.185E+03,   609.185E+03
C:/temp/Job-27.odb,Step-1,Increment      1: Step Time =    1.000,"P-27-1",           620,       4.40309,       80.0466,            0.,NA,NA,"",   407.580E+03,   458.453E+03,   458.453E+03
C:/temp/Job-27.odb,Step-1,Increment      1: Step Time =    1.000,"P-27-1",           621,       4.44215,       89.8538,            0.,NA,NA,"",   298.311E+03,   340.998E+03,   340.998E+03
C:/temp/Job-27.odb,Step-1,Increment      1: Step Time =    1.000,"P-27-1",           622,       4.62324,       99.6843,            0.,NA,NA,"",   250.694E+03,   288.011E+03,   288.011E+03
C:/temp/Job-27.odb,Step-1,Increment      1: Step Time =    1.000,"P-27-1",           623,       4.92910,       109.601,            0.,NA,NA,"",   291.310E+03,   333.490E+03,   333.490E+03
C:/temp/Job-27.odb,Step-1,Increment      1: Step Time =    1.000,"P-27-1",           624,       5.06383,       119.631,            0.,NA,NA,"",   401.149E+03,   451.887E+03,   451.887E+03
C:/temp/Job-27.odb,Step-1,Increment      1: Step Time =    1.000,"P-27-1",           625,       4.96690,       129.750,            0.,NA,NA,"",   544.477E+03,   607.190E+03,   607.190E+03
C:/temp/Job-27.odb,Step-1,Increment      1: Step Time =    1.000,"P-27-1",           626,       4.77404,       139.744,            0.,NA,NA,"",   697.273E+03,   775.486E+03,   775.486E+03
C:/temp/Job-27.odb,Step-1,Increment      1: Step Time =    1.000,"P-27-1",           627,       4.68991,       149.609,            0.,NA,NA,"",   854.125E+03,   949.066E+03,   949.066E+03
C:/temp/Job-27.odb,Step-1,Increment      1: Step Time =    1.000,"P-27-1",           628,       5.04593,       159.489,            0.,NA,NA,"",   1.01640E+06,   1.12615E+06,   1.12615E+06
C:/temp/Job-27.odb,Step-1,Increment      1: Step Time =    1.000,"P-27-1",           629,       5.43894,       169.422,            0.,NA,NA,"",   1.18438E+06,   1.30594E+06,   1.30594E+06
C:/temp/Job-27.odb,Step-1,Increment      1: Step Time =    1.000,"P-27-1",           630,       5.45172,       179.583,            0.,NA,NA,"",   1.38398E+06,   1.51318E+06,   1.51318E+06
C:/temp/Job-27.odb,Step-1,Increment      1: Step Time =    1.000,"P-27-1",           631,       5.25965,       189.784,            0.,NA,NA,"",   1.69421E+06,   1.81234E+06,   1.81234E+06
C:/temp/Job-27.odb,Step-1,Increment      1: Step Time =    1.000,"P-27-1",           632,       97.6928,       145.223,            0.,NA,NA,"",   2.92239E+06,   3.03875E+06,   3.03875E+06
C:/temp/Job-27.odb,Step-1,Increment      1: Step Time =    1.000,"P-27-1",           633,       93.1769,       143.886,            0.,NA,NA,"",   2.87494E+06,   2.96832E+06,   2.96832E+06
C:/temp/Job-27.odb,Step-1,Increment      1: Step Time =    1.000,"P-27-1",           634,       83.4189,       140.972,            0.,NA,NA,"",   2.27251E+06,   2.32462E+06,   2.32462E+06
C:/temp/Job-27.odb,Step-1,Increment      1: Step Time =    1.000,"P-27-1",           635,       88.3536,       142.545,            0.,NA,NA,"",   2.63213E+06,   2.70861E+06,   2.70861E+06
C:/temp/Job-27.odb,Step-1,Increment      1: Step Time =    1.000,"P-27-1",           636,       142.794,       85.4687,            0.,NA,NA,"",   902.184E+03,  -783.075E+03,  -783.075E+03
C:/temp/Job-27.odb,Step-1,Increment      1: Step Time =    1.000,"P-27-1",           637,       57.9145,       114.390,            0.,NA,NA,"",   559.224E+03,  -540.176E+03,  -540.176E+03
C:/temp/Job-27.odb,Step-1,Increment      1: Step Time =    1.000,"P-27-1",           638,       64.7855,       68.4707,            0.,NA,NA,"",   934.497E+03,   825.903E+03,   825.903E+03
C:/temp/Job-27.odb,Step-1,Increment      1: Step Time =    1.000,"P-27-1",           639,       142.756,       114.125,            0.,NA,NA,"",   914.755E+03,  -800.830E+03,  -800.830E+03
C:/temp/Job-27.odb,Step-1,Increment      1: Step Time =    1.000,"P-27-1",           640,       112.644,       143.411,            0.,NA,NA,"",   2.85324E+06,    2.9686E+06,    2.9686E+06
C:/temp/Job-27.odb,Step-1,Increment      1: Step Time =    1.000,"P-27-1",           641,       117.079,       141.048,            0.,NA,NA,"",   2.73077E+06,   2.81661E+06,   2.81661E+06
C:/temp/Job-27.odb,Step-1,Increment      1: Step Time =    1.000,"P-27-1",           642,       59.8103,       81.8147,            0.,NA,NA,"",   495.637E+03,  -449.574E+03,  -449.574E+03
C:/temp/Job-27.odb,Step-1,Increment      1: Step Time =    1.000,"P-27-1",           643,       61.6875,       77.1601,            0.,NA,NA,"",   465.937E+03,  -107.114E+03,  -107.114E+03
C:/temp/Job-27.odb,Step-1,Increment      1: Step Time =    1.000,"P-27-1",           644,       84.1371,       57.2021,            0.,NA,NA,"",   2.25565E+06,   2.32583E+06,   2.32583E+06
C:/temp/Job-27.odb,Step-1,Increment      1: Step Time =    1.000,"P-27-1",           645,       116.135,       58.5631,            0.,NA,NA,"",   2.78393E+06,   2.87189E+06,   2.87189E+06
C:/temp/Job-27.odb,Step-1,Increment      1: Step Time =    1.000,"P-27-1",           646,       54.7850,       97.2272,            0.,NA,NA,"",   627.463E+03,  -652.616E+03,  -652.616E+03
C:/temp/Job-27.odb,Step-1,Increment      1: Step Time =    1.000,"P-27-1",           647,       144.212,       98.6827,            0.,NA,NA,"",   1.15982E+06,  -1.17798E+06,  -1.17798E+06
C:/temp/Job-27.odb,Step-1,Increment      1: Step Time =    1.000,"P-27-1",           648,       63.8633,       130.074,            0.,NA,NA,"",   820.824E+03,   694.133E+03,   694.133E+03
C:/temp/Job-27.odb,Step-1,Increment      1: Step Time =    1.000,"P-27-1",           649,       58.0247,       86.6727,            0.,NA,NA,"",   582.713E+03,  -579.373E+03,  -579.373E+03
C:/temp/Job-27.odb,Step-1,Increment      1: Step Time =    1.000,"P-27-1",           650,       144.805,       89.6776,            0.,NA,NA,"",   931.518E+03,  -879.731E+03,  -879.731E+03
C:/temp/Job-27.odb,Step-1,Increment      1: Step Time =    1.000,"P-27-1",           651,       59.9260,       118.964,            0.,NA,NA,"",   488.746E+03,  -419.480E+03,  -419.480E+03
C:/temp/Job-27.odb,Step-1,Increment      1: Step Time =    1.000,"P-27-1",           652,       121.076,       60.0549,            0.,NA,NA,"",   2.43272E+06,   2.49698E+06,   2.49698E+06
C:/temp/Job-27.odb,Step-1,Increment      1: Step Time =    1.000,"P-27-1",           653,       108.765,       145.813,            0.,NA,NA,"",   2.71401E+06,   2.86460E+06,   2.86460E+06
C:/temp/Job-27.odb,Step-1,Increment      1: Step Time =    1.000,"P-27-1",           654,       134.104,       130.354,            0.,NA,NA,"",   1.31936E+06,   1.22533E+06,   1.22533E+06
C:/temp/Job-27.odb,Step-1,Increment      1: Step Time =    1.000,"P-27-1",           655,       55.6487,       109.653,            0.,NA,NA,"",   587.699E+03,  -594.130E+03,  -594.130E+03
C:/temp/Job-27.odb,Step-1,Increment      1: Step Time =    1.000,"P-27-1",           656,       79.1834,       59.3013,            0.,NA,NA,"",   1.91257E+06,   1.94113E+06,   1.94113E+06
C:/temp/Job-27.odb,Step-1,Increment      1: Step Time =    1.000,"P-27-1",           657,       143.896,       108.793,            0.,NA,NA,"",   1.03394E+06,  -1.00956E+06,  -1.00956E+06
C:/temp/Job-27.odb,Step-1,Increment      1: Step Time =    1.000,"P-27-1",           658,       69.1039,       133.654,            0.,NA,NA,"",   1.09393E+06,   1.03261E+06,   1.03261E+06
C:/temp/Job-27.odb,Step-1,Increment      1: Step Time =    1.000,"P-27-1",           659,       101.475,       146.805,            0.,NA,NA,"",   2.73159E+06,   2.88080E+06,   2.88080E+06
C:/temp/Job-27.odb,Step-1,Increment      1: Step Time =    1.000,"P-27-1",           660,       129.710,       133.047,            0.,NA,NA,"",   1.66047E+06,   1.64675E+06,   1.64675E+06
C:/temp/Job-27.odb,Step-1,Increment      1: Step Time =    1.000,"P-27-1",           661,       140.676,       80.7761,            0.,NA,NA,"",   804.049E+03,  -249.075E+03,  -249.075E+03
C:/temp/Job-27.odb,Step-1,Increment      1: Step Time =    1.000,"P-27-1",           662,       141.122,       119.614,            0.,NA,NA,"",   863.304E+03,  -51.4885E+03,  -51.4885E+03
C:/temp/Job-27.odb,Step-1,Increment      1: Step Time =    1.000,"P-27-1",           663,       135.747,       70.7487,            0.,NA,NA,"",   1.23782E+06,   1.12087E+06,   1.12087E+06
C:/temp/Job-27.odb,Step-1,Increment      1: Step Time =    1.000,"P-27-1",           664,       98.5107,       151.663,            0.,NA,NA,"",   2.14564E+06,   2.31029E+06,   2.31029E+06
C:/temp/Job-27.odb,Step-1,Increment      1: Step Time =    1.000,"P-27-1",           665,       131.089,       137.986,            0.,NA,NA,"",   1.81896E+06,   1.77806E+06,   1.77806E+06
C:/temp/Job-27.odb,Step-1,Increment      1: Step Time =    1.000,"P-27-1",           666,       66.4986,       138.896,            0.,NA,NA,"",   1.40741E+06,   1.29379E+06,   1.29379E+06
C:/temp/Job-27.odb,Step-1,Increment      1: Step Time =    1.000,"P-27-1",           667,       86.4610,       146.593,            0.,NA,NA,"",   2.21146E+06,   2.30387E+06,   2.30387E+06
C:/temp/Job-27.odb,Step-1,Increment      1: Step Time =    1.000,"P-27-1",           668,       111.843,       150.228,            0.,NA,NA,"",   2.12335E+06,   2.28753E+06,   2.28753E+06
C:/temp/Job-27.odb,Step-1,Increment      1: Step Time =    1.000,"P-27-1",           669,       139.929,       9.29366,            0.,NA,NA,"",   983.550E+03,   977.017E+03,   977.017E+03
C:/temp/Job-27.odb,Step-1,Increment      1: Step Time =    1.000,"P-27-1",           670,       130.215,       9.85436,            0.,NA,NA,"",   945.280E+03,   944.442E+03,   944.442E+03
C:/temp/Job-27.odb,Step-1,Increment      1: Step Time =    1.000,"P-27-1",           671,       120.366,       10.4793,            0.,NA,NA,"",   908.343E+03,   919.343E+03,   919.343E+03
C:/temp/Job-27.odb,Step-1,Increment      1: Step Time =    1.000,"P-27-1",           672,       110.294,       10.9393,            0.,NA,NA,"",   898.469E+03,   919.556E+03,   919.556E+03
C:/temp/Job-27.odb,Step-1,Increment      1: Step Time =    1.000,"P-27-1",           673,       79.6628,       10.2679,            0.,NA,NA,"",   1.16875E+06,   1.16175E+06,   1.16175E+06
C:/temp/Job-27.odb,Step-1,Increment      1: Step Time =    1.000,"P-27-1",           674,       69.7019,       9.73939,            0.,NA,NA,"",   1.29628E+06,   1.28113E+06,   1.28113E+06
C:/temp/Job-27.odb,Step-1,Increment      1: Step Time =    1.000,"P-27-1",           675,       59.9099,       9.33192,            0.,NA,NA,"",   1.40853E+06,   1.39286E+06,   1.39286E+06
C:/temp/Job-27.odb,Step-1,Increment      1: Step Time =    1.000,"P-27-1",           676,       189.597,       143.813,            0.,NA,NA,"",    974.71E+03,   1.07073E+06,   1.07073E+06
C:/temp/Job-27.odb,Step-1,Increment      1: Step Time =    1.000,"P-27-1",           677,       190.350,       99.5209,            0.,NA,NA,"",   894.393E+03,   946.051E+03,   946.051E+03
C:/temp/Job-27.odb,Step-1,Increment      1: Step Time =    1.000,"P-27-1",           678,       190.336,       89.5989,            0.,NA,NA,"",   902.064E+03,   1.00200E+06,   1.00200E+06
C:/temp/Job-27.odb,Step-1,Increment      1: Step Time =    1.000,"P-27-1",           679,       190.502,       79.6532,            0.,NA,NA,"",   921.372E+03,   1.05461E+06,   1.05461E+06
C:/temp/Job-27.odb,Step-1,Increment      1: Step Time =    1.000,"P-27-1",           680,       60.1520,       189.868,            0.,NA,NA,"",   1.41538E+06,   1.39701E+06,   1.39701E+06
C:/temp/Job-27.odb,Step-1,Increment      1: Step Time =    1.000,"P-27-1",           681,       70.2522,       189.437,            0.,NA,NA,"",   1.30444E+06,   1.28772E+06,   1.28772E+06
C:/temp/Job-27.odb,Step-1,Increment      1: Step Time =    1.000,"P-27-1",           682,       80.6497,       188.785,            0.,NA,NA,"",   1.17890E+06,   1.17244E+06,   1.17244E+06
C:/temp/Job-27.odb,Step-1,Increment      1: Step Time =    1.000,"P-27-1",           683,       131.155,       190.549,            0.,NA,NA,"",   941.450E+03,   938.965E+03,   938.965E+03
C:/temp/Job-27.odb,Step-1,Increment      1: Step Time =    1.000,"P-27-1",           684,       9.01371,       60.5161,            0.,NA,NA,"",   711.662E+03,   782.397E+03,   782.397E+03
C:/temp/Job-27.odb,Step-1,Increment      1: Step Time =    1.000,"P-27-1",           685,       8.94714,       70.4494,            0.,NA,NA,"",   543.585E+03,   604.012E+03,   604.012E+03
C:/temp/Job-27.odb,Step-1,Increment      1: Step Time =    1.000,"P-27-1",           686,       8.87769,       80.1103,            0.,NA,NA,"",   395.249E+03,   447.423E+03,   447.423E+03
C:/temp/Job-27.odb,Step-1,Increment      1: Step Time =    1.000,"P-27-1",           687,       8.94903,       89.6636,            0.,NA,NA,"",   283.399E+03,   326.442E+03,   326.442E+03
C:/temp/Job-27.odb,Step-1,Increment      1: Step Time =    1.000,"P-27-1",           688,       9.27709,       99.2465,            0.,NA,NA,"",   233.804E+03,   265.764E+03,   265.764E+03
C:/temp/Job-27.odb,Step-1,Increment      1: Step Time =    1.000,"P-27-1",           689,       9.89564,       109.055,            0.,NA,NA,"",   268.512E+03,   308.981E+03,   308.981E+03
C:/temp/Job-27.odb,Step-1,Increment      1: Step Time =    1.000,"P-27-1",           690,       10.0823,       119.281,            0.,NA,NA,"",   385.120E+03,   436.386E+03,   436.386E+03
C:/temp/Job-27.odb,Step-1,Increment      1: Step Time =    1.000,"P-27-1",           691,       9.58320,       139.573,            0.,NA,NA,"",   714.370E+03,   783.958E+03,   783.958E+03
C:/temp/Job-27.odb,Step-1,Increment      1: Step Time =    1.000,"P-27-1",           692,       99.9693,       11.0299,            0.,NA,NA,"",   942.864E+03,   963.221E+03,   963.221E+03
C:/temp/Job-27.odb,Step-1,Increment      1: Step Time =    1.000,"P-27-1",           693,       89.6772,       10.7916,            0.,NA,NA,"",   1.04579E+06,   1.05234E+06,   1.05234E+06
C:/temp/Job-27.odb,Step-1,Increment      1: Step Time =    1.000,"P-27-1",           694,       190.325,       133.825,            0.,NA,NA,"",   944.176E+03,   1.07202E+06,   1.07202E+06
C:/temp/Job-27.odb,Step-1,Increment      1: Step Time =    1.000,"P-27-1",           695,       190.963,       119.221,            0.,NA,NA,"",   919.404E+03,   1.04951E+06,   1.04951E+06
C:/temp/Job-27.odb,Step-1,Increment      1: Step Time =    1.000,"P-27-1",           696,       190.809,       109.425,            0.,NA,NA,"",   906.307E+03,   997.533E+03,   997.533E+03
C:/temp/Job-27.odb,Step-1,Increment      1: Step Time =    1.000,"P-27-1",           697,       190.666,       69.9241,            0.,NA,NA,"",   934.248E+03,   1.06932E+06,   1.06932E+06
C:/temp/Job-27.odb,Step-1,Increment      1: Step Time =    1.000,"P-27-1",           698,       190.748,       60.2350,            0.,NA,NA,"",   949.820E+03,   1.06461E+06,   1.06461E+06
C:/temp/Job-27.odb,Step-1,Increment      1: Step Time =    1.000,"P-27-1",           699,       91.0614,       189.325,            0.,NA,NA,"",   1.02693E+06,   1.03585E+06,   1.03585E+06
C:/temp/Job-27.odb,Step-1,Increment      1: Step Time =    1.000,"P-27-1",           700,       101.155,       190.176,            0.,NA,NA,"",   900.496E+03,   918.221E+03,   918.221E+03
C:/temp/Job-27.odb,Step-1,Increment      1: Step Time =    1.000,"P-27-1",           701,       111.085,       190.056,            0.,NA,NA,"",   871.357E+03,   889.433E+03,   889.433E+03
C:/temp/Job-27.odb,Step-1,Increment      1: Step Time =    1.000,"P-27-1",           702,       121.219,       190.198,            0.,NA,NA,"",   896.943E+03,   905.696E+03,   905.696E+03
C:/temp/Job-27.odb,Step-1,Increment      1: Step Time =    1.000,"P-27-1",           703,       140.915,       190.507,            0.,NA,NA,"",   991.014E+03,   983.506E+03,   983.506E+03
C:/temp/Job-27.odb,Step-1,Increment      1: Step Time =    1.000,"P-27-1",           704,       9.93108,       129.557,            0.,NA,NA,"",   543.813E+03,   603.336E+03,   603.336E+03
C:/temp/Job-27.odb,Step-1,Increment      1: Step Time =    1.000,"P-27-1",           705,       121.504,       138.478,            0.,NA,NA,"",   2.44496E+06,   2.50600E+06,   2.50600E+06
C:/temp/Job-27.odb,Step-1,Increment      1: Step Time =    1.000,"P-27-1",           706,       58.0552,       71.7104,            0.,NA,NA,"",   859.308E+03,   661.369E+03,   661.369E+03
C:/temp/Job-27.odb,Step-1,Increment      1: Step Time =    1.000,"P-27-1",           707,       143.160,       73.8156,            0.,NA,NA,"",   1.31977E+06,   995.466E+03,   995.466E+03
C:/temp/Job-27.odb,Step-1,Increment      1: Step Time =    1.000,"P-27-1",           708,       132.439,       64.5424,            0.,NA,NA,"",   1.67912E+06,   1.62318E+06,   1.62318E+06
C:/temp/Job-27.odb,Step-1,Increment      1: Step Time =    1.000,"P-27-1",           709,       56.8406,       76.2076,            0.,NA,NA,"",   647.227E+03,   277.467E+03,   277.467E+03
C:/temp/Job-27.odb,Step-1,Increment      1: Step Time =    1.000,"P-27-1",           710,       57.2793,       125.047,            0.,NA,NA,"",   699.620E+03,   334.626E+03,   334.626E+03
C:/temp/Job-27.odb,Step-1,Increment      1: Step Time =    1.000,"P-27-1",           711,       58.9146,       67.3524,            0.,NA,NA,"",   1.06500E+06,   887.901E+03,   887.901E+03
C:/temp/Job-27.odb,Step-1,Increment      1: Step Time =    1.000,"P-27-1",           712,       141.098,       68.5466,            0.,NA,NA,"",   1.54177E+06,   1.29805E+06,   1.29805E+06
C:/temp/Job-27.odb,Step-1,Increment      1: Step Time =    1.000,"P-27-1",           713,       57.4980,       130.060,            0.,NA,NA,"",   929.170E+03,   742.792E+03,   742.792E+03
C:/temp/Job-27.odb,Step-1,Increment      1: Step Time =    1.000,"P-27-1",           714,       141.086,       132.816,            0.,NA,NA,"",   1.58955E+06,   1.34540E+06,   1.34540E+06
C:/temp/Job-27.odb,Step-1,Increment      1: Step Time =    1.000,"P-27-1",           715,       149.002,       98.7665,            0.,NA,NA,"",   695.176E+03,  -682.264E+03,  -682.264E+03
C:/temp/Job-27.odb,Step-1,Increment      1: Step Time =    1.000,"P-27-1",           716,       145.267,       78.7678,            0.,NA,NA,"",   1.12078E+06,   435.008E+03,   435.008E+03
C:/temp/Job-27.odb,Step-1,Increment      1: Step Time =    1.000,"P-27-1",           717,       164.325,       9.75706,            0.,NA,NA,"",   1.03603E+06,   1.03008E+06,   1.03008E+06
C:/temp/Job-27.odb,Step-1,Increment      1: Step Time =    1.000,"P-27-1",           718,       10.6446,       163.644,            0.,NA,NA,"",   1.14434E+06,   1.23473E+06,   1.23473E+06
C:/temp/Job-27.odb,Step-1,Increment      1: Step Time =    1.000,"P-27-1",           719,       36.1275,       9.31184,            0.,NA,NA,"",   1.60731E+06,   1.59965E+06,   1.59965E+06
C:/temp/Job-27.odb,Step-1,Increment      1: Step Time =    1.000,"P-27-1",           720,       9.80757,       36.1093,            0.,NA,NA,"",   1.13867E+06,   1.23298E+06,   1.23298E+06
C:/temp/Job-27.odb,Step-1,Increment      1: Step Time =    1.000,"P-27-1",           721,       189.684,       164.113,            0.,NA,NA,"",   1.00563E+06,   1.03869E+06,   1.03869E+06
C:/temp/Job-27.odb,Step-1,Increment      1: Step Time =    1.000,"P-27-1",           722,       160.175,       190.754,            0.,NA,NA,"",   1.03356E+06,   1.02677E+06,   1.02677E+06
C:/temp/Job-27.odb,Step-1,Increment      1: Step Time =    1.000,"P-27-1",           723,       35.4700,       189.827,            0.,NA,NA,"",   1.60759E+06,   1.59938E+06,   1.59938E+06
C:/temp/Job-27.odb,Step-1,Increment      1: Step Time =    1.000,"P-27-1",           724,       189.257,       40.7294,            0.,NA,NA,"",   1.00309E+06,   1.04827E+06,   1.04827E+06
C:/temp/Job-27.odb,Step-1,Increment      1: Step Time =    1.000,"P-27-1",           725,       26.0357,       10.1361,            0.,NA,NA,"",   1.66132E+06,   1.66211E+06,   1.66211E+06
C:/temp/Job-27.odb,Step-1,Increment      1: Step Time =    1.000,"P-27-1",           726,       10.4902,       25.9539,            0.,NA,NA,"",   1.33444E+06,   1.43018E+06,   1.43018E+06
C:/temp/Job-27.odb,Step-1,Increment      1: Step Time =    1.000,"P-27-1",           727,       10.9680,       173.967,            0.,NA,NA,"",   1.33881E+06,   1.43135E+06,   1.43135E+06
C:/temp/Job-27.odb,Step-1,Increment      1: Step Time =    1.000,"P-27-1",           728,       174.375,       10.3933,            0.,NA,NA,"",   1.02691E+06,   1.02499E+06,   1.02499E+06
C:/temp/Job-27.odb,Step-1,Increment      1: Step Time =    1.000,"P-27-1",           729,       190.364,       24.9411,            0.,NA,NA,"",   1.00633E+06,   1.01923E+06,   1.01923E+06
C:/temp/Job-27.odb,Step-1,Increment      1: Step Time =    1.000,"P-27-1",           730,       25.5371,       189.667,            0.,NA,NA,"",   1.66236E+06,   1.66379E+06,   1.66379E+06
C:/temp/Job-27.odb,Step-1,Increment      1: Step Time =    1.000,"P-27-1",           731,       169.716,       190.594,            0.,NA,NA,"",   1.03176E+06,   1.02784E+06,   1.02784E+06
C:/temp/Job-27.odb,Step-1,Increment      1: Step Time =    1.000,"P-27-1",           732,       189.399,       174.476,            0.,NA,NA,"",   1.01132E+06,   1.02467E+06,   1.02467E+06
C:/temp/Job-27.odb,Step-1,Increment      1: Step Time =    1.000,"P-27-1",           733,       10.6363,       184.467,            0.,NA,NA,"",   1.57859E+06,   1.66082E+06,   1.66082E+06
C:/temp/Job-27.odb,Step-1,Increment      1: Step Time =    1.000,"P-27-1",           734,       184.594,       10.5037,            0.,NA,NA,"",   1.01009E+06,   1.01166E+06,   1.01166E+06
C:/temp/Job-27.odb,Step-1,Increment      1: Step Time =    1.000,"P-27-1",           735,       15.8233,       10.6352,            0.,NA,NA,"",   1.72042E+06,   1.74435E+06,   1.74435E+06
C:/temp/Job-27.odb,Step-1,Increment      1: Step Time =    1.000,"P-27-1",           736,       10.7497,       15.7439,            0.,NA,NA,"",   1.57282E+06,   1.65496E+06,   1.65496E+06
C:/temp/Job-27.odb,Step-1,Increment      1: Step Time =    1.000,"P-27-1",           737,       180.240,       190.363,            0.,NA,NA,"",   1.01451E+06,   1.01517E+06,   1.01517E+06
C:/temp/Job-27.odb,Step-1,Increment      1: Step Time =    1.000,"P-27-1",           738,       189.602,       184.944,            0.,NA,NA,"",   1.00733E+06,   1.01103E+06,   1.01103E+06
C:/temp/Job-27.odb,Step-1,Increment      1: Step Time =    1.000,"P-27-1",           739,       189.822,       15.3862,            0.,NA,NA,"",   1.00678E+06,   1.01069E+06,   1.01069E+06
C:/temp/Job-27.odb,Step-1,Increment      1: Step Time =    1.000,"P-27-1",           740,       15.5196,       189.604,            0.,NA,NA,"",   1.72598E+06,   1.75029E+06,   1.75029E+06
C:/temp/Job-27.odb,Step-1,Increment      1: Step Time =    1.000,"P-27-1",           741,       52.1810,       90.5174,            0.,NA,NA,"",   421.396E+03,  -417.737E+03,  -417.737E+03
C:/temp/Job-27.odb,Step-1,Increment      1: Step Time =    1.000,"P-27-1",           742,       78.5456,       139.025,            0.,NA,NA,"",   1.85999E+06,   1.88347E+06,   1.88347E+06
C:/temp/Job-27.odb,Step-1,Increment      1: Step Time =    1.000,"P-27-1",           743,       184.257,       142.986,            0.,NA,NA,"",   1.06141E+06,   1.12363E+06,   1.12363E+06
C:/temp/Job-27.odb,Step-1,Increment      1: Step Time =    1.000,"P-27-1",           744,       13.5314,       60.8333,            0.,NA,NA,"",   728.883E+03,   789.014E+03,   789.014E+03
C:/temp/Job-27.odb,Step-1,Increment      1: Step Time =    1.000,"P-27-1",           745,       141.335,       185.580,            0.,NA,NA,"",   1.08755E+06,   1.07357E+06,   1.07357E+06
C:/temp/Job-27.odb,Step-1,Increment      1: Step Time =    1.000,"P-27-1",           746,       60.1412,       184.910,            0.,NA,NA,"",   1.46847E+06,   1.43530E+06,   1.43530E+06
C:/temp/Job-27.odb,Step-1,Increment      1: Step Time =    1.000,"P-27-1",           747,       76.4107,       143.583,            0.,NA,NA,"",   1.81189E+06,   1.80954E+06,   1.80954E+06
C:/temp/Job-27.odb,Step-1,Increment      1: Step Time =    1.000,"P-27-1",           748,       119.671,       144.870,            0.,NA,NA,"",   2.22395E+06,   2.33058E+06,   2.33058E+06
C:/temp/Job-27.odb,Step-1,Increment      1: Step Time =    1.000,"P-27-1",           749,       124.841,       142.333,            0.,NA,NA,"",   2.06978E+06,   2.11904E+06,   2.11904E+06
C:/temp/Job-27.odb,Step-1,Increment      1: Step Time =    1.000,"P-27-1",           750,       71.4412,       141.348,            0.,NA,NA,"",   1.60065E+06,   1.54078E+06,   1.54078E+06
C:/temp/Job-27.odb,Step-1,Increment      1: Step Time =    1.000,"P-27-1",           751,       59.6817,       14.2144,            0.,NA,NA,"",   1.46150E+06,   1.43150E+06,   1.43150E+06
C:/temp/Job-27.odb,Step-1,Increment      1: Step Time =    1.000,"P-27-1",           752,       186.108,       60.3402,            0.,NA,NA,"",   1.02072E+06,   1.10747E+06,   1.10747E+06
C:/temp/Job-27.odb,Step-1,Increment      1: Step Time =    1.000,"P-27-1",           753,       14.4454,       139.542,            0.,NA,NA,"",   742.338E+03,   799.135E+03,   799.135E+03
C:/temp/Job-27.odb,Step-1,Increment      1: Step Time =    1.000,"P-27-1",           754,       140.051,       13.8932,            0.,NA,NA,"",   1.07494E+06,   1.06338E+06,   1.06338E+06
C:/temp/Job-27.odb,Step-1,Increment      1: Step Time =    1.000,"P-27-1",           755,       160.419,       185.977,            0.,NA,NA,"",   1.08262E+06,   1.06928E+06,   1.06928E+06
C:/temp/Job-27.odb,Step-1,Increment      1: Step Time =    1.000,"P-27-1",           756,       184.822,       163.746,            0.,NA,NA,"",   1.04851E+06,   1.07151E+06,   1.07151E+06
C:/temp/Job-27.odb,Step-1,Increment      1: Step Time =    1.000,"P-27-1",           757,       14.5828,       36.8528,            0.,NA,NA,"",   1.18134E+06,   1.25003E+06,   1.25003E+06
C:/temp/Job-27.odb,Step-1,Increment      1: Step Time =    1.000,"P-27-1",           758,       36.9061,       13.8560,            0.,NA,NA,"",   1.58488E+06,   1.56968E+06,   1.56968E+06
C:/temp/Job-27.odb,Step-1,Increment      1: Step Time =    1.000,"P-27-1",           759,       182.640,       37.7263,            0.,NA,NA,"",   1.07469E+06,   1.09223E+06,   1.09223E+06
C:/temp/Job-27.odb,Step-1,Increment      1: Step Time =    1.000,"P-27-1",           760,       35.7873,       184.669,            0.,NA,NA,"",   1.58175E+06,   1.56615E+06,   1.56615E+06
C:/temp/Job-27.odb,Step-1,Increment      1: Step Time =    1.000,"P-27-1",           761,       163.751,       14.6120,            0.,NA,NA,"",   1.08033E+06,   1.06822E+06,   1.06822E+06
C:/temp/Job-27.odb,Step-1,Increment      1: Step Time =    1.000,"P-27-1",           762,       16.1339,       162.585,            0.,NA,NA,"",   1.18964E+06,   1.24939E+06,   1.24939E+06
C:/temp/Job-27.odb,Step-1,Increment      1: Step Time =    1.000,"P-27-1",           763,       70.1484,       184.302,            0.,NA,NA,"",   1.39640E+06,   1.36832E+06,   1.36832E+06
C:/temp/Job-27.odb,Step-1,Increment      1: Step Time =    1.000,"P-27-1",           764,       131.699,       185.853,            0.,NA,NA,"",   1.05235E+06,   1.04911E+06,   1.04911E+06
C:/temp/Job-27.odb,Step-1,Increment      1: Step Time =    1.000,"P-27-1",           765,       13.4894,       70.7053,            0.,NA,NA,"",   549.210E+03,   604.030E+03,   604.030E+03
C:/temp/Job-27.odb,Step-1,Increment      1: Step Time =    1.000,"P-27-1",           766,       185.560,       132.981,            0.,NA,NA,"",   1.00581E+06,   1.10789E+06,   1.10789E+06
C:/temp/Job-27.odb,Step-1,Increment      1: Step Time =    1.000,"P-27-1",           767,       185.911,       69.8357,            0.,NA,NA,"",   987.563E+03,   1.10021E+06,   1.10021E+06
C:/temp/Job-27.odb,Step-1,Increment      1: Step Time =    1.000,"P-27-1",           768,       69.4291,       14.6005,            0.,NA,NA,"",   1.38399E+06,   1.35741E+06,   1.35741E+06
C:/temp/Job-27.odb,Step-1,Increment      1: Step Time =    1.000,"P-27-1",           769,       14.9237,       129.415,            0.,NA,NA,"",   552.941E+03,   605.619E+03,   605.619E+03
C:/temp/Job-27.odb,Step-1,Increment      1: Step Time =    1.000,"P-27-1",           770,       130.547,       14.8486,            0.,NA,NA,"",   1.06357E+06,   1.06276E+06,   1.06276E+06
C:/temp/Job-27.odb,Step-1,Increment      1: Step Time =    1.000,"P-27-1",           771,       172.424,       185.247,            0.,NA,NA,"",   1.05575E+06,   1.05053E+06,   1.05053E+06
C:/temp/Job-27.odb,Step-1,Increment      1: Step Time =    1.000,"P-27-1",           772,       184.297,       173.980,            0.,NA,NA,"",   1.03846E+06,   1.04835E+06,   1.04835E+06
C:/temp/Job-27.odb,Step-1,Increment      1: Step Time =    1.000,"P-27-1",           773,       26.8690,       15.1597,            0.,NA,NA,"",   1.60944E+06,   1.61014E+06,   1.61014E+06
C:/temp/Job-27.odb,Step-1,Increment      1: Step Time =    1.000,"P-27-1",           774,       15.7273,       26.6766,            0.,NA,NA,"",   1.38035E+06,   1.44251E+06,   1.44251E+06
C:/temp/Job-27.odb,Step-1,Increment      1: Step Time =    1.000,"P-27-1",           775,       185.852,       25.3362,            0.,NA,NA,"",   1.02780E+06,   1.03927E+06,   1.03927E+06
C:/temp/Job-27.odb,Step-1,Increment      1: Step Time =    1.000,"P-27-1",           776,       25.8660,       184.437,            0.,NA,NA,"",   1.60824E+06,   1.61149E+06,   1.61149E+06
C:/temp/Job-27.odb,Step-1,Increment      1: Step Time =    1.000,"P-27-1",           777,       173.879,       15.6926,            0.,NA,NA,"",   1.05646E+06,   1.05193E+06,   1.05193E+06
C:/temp/Job-27.odb,Step-1,Increment      1: Step Time =    1.000,"P-27-1",           778,       16.4468,       173.540,            0.,NA,NA,"",   1.39282E+06,   1.45076E+06,   1.45076E+06
C:/temp/Job-27.odb,Step-1,Increment      1: Step Time =    1.000,"P-27-1",           779,       141.725,       140.543,            0.,NA,NA,"",   1.76478E+06,   1.57331E+06,   1.57331E+06
C:/temp/Job-27.odb,Step-1,Increment      1: Step Time =    1.000,"P-27-1",           780,       56.3740,       135.456,            0.,NA,NA,"",   1.15237E+06,   980.785E+03,   980.785E+03
C:/temp/Job-27.odb,Step-1,Increment      1: Step Time =    1.000,"P-27-1",           781,       80.6425,       183.115,            0.,NA,NA,"",   1.30782E+06,   1.29971E+06,   1.29971E+06
C:/temp/Job-27.odb,Step-1,Increment      1: Step Time =    1.000,"P-27-1",           782,       122.085,       185.449,            0.,NA,NA,"",   1.02229E+06,   1.03723E+06,   1.03723E+06
C:/temp/Job-27.odb,Step-1,Increment      1: Step Time =    1.000,"P-27-1",           783,       13.3511,       80.2034,            0.,NA,NA,"",   388.360E+03,   438.632E+03,   438.632E+03
C:/temp/Job-27.odb,Step-1,Increment      1: Step Time =    1.000,"P-27-1",           784,       92.5392,       153.757,            0.,NA,NA,"",   1.96889E+06,   2.10206E+06,   2.10206E+06
C:/temp/Job-27.odb,Step-1,Increment      1: Step Time =    1.000,"P-27-1",           785,       108.267,       153.542,            0.,NA,NA,"",   1.98233E+06,   2.15322E+06,   2.15322E+06
C:/temp/Job-27.odb,Step-1,Increment      1: Step Time =    1.000,"P-27-1",           786,       186.486,       118.816,            0.,NA,NA,"",   909.288E+03,   1.04390E+06,   1.04390E+06
C:/temp/Job-27.odb,Step-1,Increment      1: Step Time =    1.000,"P-27-1",           787,       185.680,       79.4187,            0.,NA,NA,"",   926.648E+03,   1.05700E+06,   1.05700E+06
C:/temp/Job-27.odb,Step-1,Increment      1: Step Time =    1.000,"P-27-1",           788,       14.8533,       119.113,            0.,NA,NA,"",   379.121E+03,   427.517E+03,   427.517E+03
C:/temp/Job-27.odb,Step-1,Increment      1: Step Time =    1.000,"P-27-1",           789,       56.3648,       91.7563,            0.,NA,NA,"",   640.323E+03,  -654.580E+03,  -654.580E+03
C:/temp/Job-27.odb,Step-1,Increment      1: Step Time =    1.000,"P-27-1",           790,       79.3027,       15.3951,            0.,NA,NA,"",   1.29067E+06,   1.28066E+06,   1.28066E+06
C:/temp/Job-27.odb,Step-1,Increment      1: Step Time =    1.000,"P-27-1",           791,       120.762,       15.7514,            0.,NA,NA,"",   1.04134E+06,   1.06261E+06,   1.06261E+06
C:/temp/Job-27.odb,Step-1,Increment      1: Step Time =    1.000,"P-27-1",           792,       133.085,       56.6329,            0.,NA,NA,"",   1.84101E+06,   1.77743E+06,   1.77743E+06
C:/temp/Job-27.odb,Step-1,Increment      1: Step Time =    1.000,"P-27-1",           793,       184.796,       185.339,            0.,NA,NA,"",   1.01632E+06,   1.01969E+06,   1.01969E+06
C:/temp/Job-27.odb,Step-1,Increment      1: Step Time =    1.000,"P-27-1",           794,       16.2267,       16.0438,            0.,NA,NA,"",   1.60935E+06,   1.65059E+06,   1.65059E+06
C:/temp/Job-27.odb,Step-1,Increment      1: Step Time =    1.000,"P-27-1",           795,       184.511,       15.7680,            0.,NA,NA,"",   1.02009E+06,   1.02347E+06,   1.02347E+06
C:/temp/Job-27.odb,Step-1,Increment      1: Step Time =    1.000,"P-27-1",           796,       15.8101,       184.354,            0.,NA,NA,"",   1.61789E+06,   1.66037E+06,   1.66037E+06
C:/temp/Job-27.odb,Step-1,Increment      1: Step Time =    1.000,"P-27-1",           797,       48.0945,       88.8813,            0.,NA,NA,"",   331.509E+03,  -273.564E+03,  -273.564E+03
C:/temp/Job-27.odb,Step-1,Increment      1: Step Time =    1.000,"P-27-1",           798,       151.616,       92.6050,            0.,NA,NA,"",   630.824E+03,  -508.796E+03,  -508.796E+03
C:/temp/Job-27.odb,Step-1,Increment      1: Step Time =    1.000,"P-27-1",           799,       92.1543,       184.337,            0.,NA,NA,"",   1.13975E+06,   1.16088E+06,   1.16088E+06
C:/temp/Job-27.odb,Step-1,Increment      1: Step Time =    1.000,"P-27-1",           800,       111.259,       185.255,            0.,NA,NA,"",   994.701E+03,   1.02843E+06,   1.02843E+06
C:/temp/Job-27.odb,Step-1,Increment      1: Step Time =    1.000,"P-27-1",           801,       13.4505,       89.4438,            0.,NA,NA,"",   273.631E+03,   315.083E+03,   315.083E+03
C:/temp/Job-27.odb,Step-1,Increment      1: Step Time =    1.000,"P-27-1",           802,       14.7696,       108.296,            0.,NA,NA,"",   248.287E+03,   284.284E+03,   284.284E+03
C:/temp/Job-27.odb,Step-1,Increment      1: Step Time =    1.000,"P-27-1",           803,       186.323,       109.335,            0.,NA,NA,"",   838.997E+03,   955.213E+03,   955.213E+03
C:/temp/Job-27.odb,Step-1,Increment      1: Step Time =    1.000,"P-27-1",           804,       185.467,       89.3505,            0.,NA,NA,"",   839.942E+03,   961.437E+03,   961.437E+03
C:/temp/Job-27.odb,Step-1,Increment      1: Step Time =    1.000,"P-27-1",           805,       89.3435,       16.2612,            0.,NA,NA,"",   1.18562E+06,   1.20069E+06,   1.20069E+06
C:/temp/Job-27.odb,Step-1,Increment      1: Step Time =    1.000,"P-27-1",           806,       110.552,       16.4487,            0.,NA,NA,"",   1.03456E+06,   1.07444E+06,   1.07444E+06
C:/temp/Job-27.odb,Step-1,Increment      1: Step Time =    1.000,"P-27-1",           807,       143.884,       95.0959,            0.,NA,NA,"",   1.14225E+06,  -1.15357E+06,  -1.15357E+06
C:/temp/Job-27.odb,Step-1,Increment      1: Step Time =    1.000,"P-27-1",           808,       99.9166,       16.4912,            0.,NA,NA,"",   1.08071E+06,   1.12017E+06,   1.12017E+06
C:/temp/Job-27.odb,Step-1,Increment      1: Step Time =    1.000,"P-27-1",           809,       146.517,       67.0422,            0.,NA,NA,"",   1.61629E+06,   1.33296E+06,   1.33296E+06
C:/temp/Job-27.odb,Step-1,Increment      1: Step Time =    1.000,"P-27-1",           810,       54.0524,       62.0793,            0.,NA,NA,"",   1.22062E+06,   1.05803E+06,   1.05803E+06
C:/temp/Job-27.odb,Step-1,Increment      1: Step Time =    1.000,"P-27-1",           811,       185.261,       99.3998,            0.,NA,NA,"",   789.316E+03,   877.703E+03,   877.703E+03
C:/temp/Job-27.odb,Step-1,Increment      1: Step Time =    1.000,"P-27-1",           812,       13.8766,       98.6991,            0.,NA,NA,"",   220.044E+03,   244.806E+03,   244.806E+03
C:/temp/Job-27.odb,Step-1,Increment      1: Step Time =    1.000,"P-27-1",           813,       101.754,       185.530,            0.,NA,NA,"",   1.01758E+06,   1.05207E+06,   1.05207E+06
C:/temp/Job-27.odb,Step-1,Increment      1: Step Time =    1.000,"P-27-1",           814,       153.836,       86.3423,            0.,NA,NA,"",   860.736E+03,   53.6598E+03,   53.6598E+03
C:/temp/Job-27.odb,Step-1,Increment      1: Step Time =    1.000,"P-27-1",           815,       49.9595,       84.4143,            0.,NA,NA,"",   432.396E+03,  -155.495E+03,  -155.495E+03
C:/temp/Job-27.odb,Step-1,Increment      1: Step Time =    1.000,"P-27-1",           816,       64.2307,       144.207,            0.,NA,NA,"",   1.56848E+06,   1.43824E+06,   1.43824E+06
C:/temp/Job-27.odb,Step-1,Increment      1: Step Time =    1.000,"P-27-1",           817,       130.322,       143.235,            0.,NA,NA,"",   1.89974E+06,   1.86761E+06,   1.86761E+06
C:/temp/Job-27.odb,Step-1,Increment      1: Step Time =    1.000,"P-27-1",           818,       114.647,       154.045,            0.,NA,NA,"",   1.86367E+06,   2.00658E+06,   2.00658E+06
C:/temp/Job-27.odb,Step-1,Increment      1: Step Time =    1.000,"P-27-1",           819,       84.7255,       150.718,            0.,NA,NA,"",   1.98424E+06,   2.05978E+06,   2.05978E+06
C:/temp/Job-27.odb,Step-1,Increment      1: Step Time =    1.000,"P-27-1",           820,       50.8223,       79.9580,            0.,NA,NA,"",   556.022E+03,   203.207E+03,   203.207E+03
C:/temp/Job-27.odb,Step-1,Increment      1: Step Time =    1.000,"P-27-1",           821,       95.8320,       155.679,            0.,NA,NA,"",   1.89466E+06,   2.03959E+06,   2.03959E+06
C:/temp/Job-27.odb,Step-1,Increment      1: Step Time =    1.000,"P-27-1",           822,       52.0827,       129.285,            0.,NA,NA,"",   892.655E+03,   708.491E+03,   708.491E+03
C:/temp/Job-27.odb,Step-1,Increment      1: Step Time =    1.000,"P-27-1",           823,       149.682,       104.392,            0.,NA,NA,"",   673.874E+03,  -627.610E+03,  -627.610E+03
C:/temp/Job-27.odb,Step-1,Increment      1: Step Time =    1.000,"P-27-1",           824,       151.840,       81.7249,            0.,NA,NA,"",   1.07203E+06,   442.659E+03,   442.659E+03
C:/temp/Job-27.odb,Step-1,Increment      1: Step Time =    1.000,"P-27-1",           825,       154.364,       111.642,            0.,NA,NA,"",   776.047E+03,   42.9580E+03,   42.9580E+03
C:/temp/Job-27.odb,Step-1,Increment      1: Step Time =    1.000,"P-27-1",           826,       46.5155,       127.188,            0.,NA,NA,"",   775.788E+03,   630.877E+03,   630.877E+03
C:/temp/Job-27.odb,Step-1,Increment      1: Step Time =    1.000,"P-27-1",           827,       65.1324,       184.679,            0.,NA,NA,"",   1.43431E+06,   1.40224E+06,   1.40224E+06
C:/temp/Job-27.odb,Step-1,Increment      1: Step Time =    1.000,"P-27-1",           828,       136.493,       185.731,            0.,NA,NA,"",   1.07205E+06,   1.06256E+06,   1.06256E+06
C:/temp/Job-27.odb,Step-1,Increment      1: Step Time =    1.000,"P-27-1",           829,       13.4054,       65.7254,            0.,NA,NA,"",   639.113E+03,   696.712E+03,   696.712E+03
C:/temp/Job-27.odb,Step-1,Increment      1: Step Time =    1.000,"P-27-1",           830,       184.968,       137.915,            0.,NA,NA,"",   1.03599E+06,   1.11833E+06,   1.11833E+06
C:/temp/Job-27.odb,Step-1,Increment      1: Step Time =    1.000,"P-27-1",           831,       54.6573,       140.859,            0.,NA,NA,"",   1.32767E+06,   1.17017E+06,   1.17017E+06
C:/temp/Job-27.odb,Step-1,Increment      1: Step Time =    1.000,"P-27-1",           832,       169.055,       186.466,            0.,NA,NA,"",   1.05885E+06,   1.05162E+06,   1.05162E+06
C:/temp/Job-27.odb,Step-1,Increment      1: Step Time =    1.000,"P-27-1",           833,       184.769,       168.762,            0.,NA,NA,"",   1.04286E+06,   1.05892E+06,   1.05892E+06
C:/temp/Job-27.odb,Step-1,Increment      1: Step Time =    1.000,"P-27-1",           834,       15.0360,       31.8449,            0.,NA,NA,"",   1.27611E+06,   1.34352E+06,   1.34352E+06
C:/temp/Job-27.odb,Step-1,Increment      1: Step Time =    1.000,"P-27-1",           835,       31.9248,       14.3117,            0.,NA,NA,"",   1.60176E+06,   1.59224E+06,   1.59224E+06
C:/temp/Job-27.odb,Step-1,Increment      1: Step Time =    1.000,"P-27-1",           836,       186.063,       65.0626,            0.,NA,NA,"",   1.00727E+06,   1.10730E+06,   1.10730E+06
C:/temp/Job-27.odb,Step-1,Increment      1: Step Time =    1.000,"P-27-1",           837,       64.5551,       14.3406,            0.,NA,NA,"",   1.42488E+06,   1.39540E+06,   1.39540E+06
C:/temp/Job-27.odb,Step-1,Increment      1: Step Time =    1.000,"P-27-1",           838,       184.248,       31.2455,            0.,NA,NA,"",   1.04611E+06,   1.06099E+06,   1.06099E+06
C:/temp/Job-27.odb,Step-1,Increment      1: Step Time =    1.000,"P-27-1",           839,       30.8460,       184.544,            0.,NA,NA,"",   1.59687E+06,   1.58888E+06,   1.58888E+06
C:/temp/Job-27.odb,Step-1,Increment      1: Step Time =    1.000,"P-27-1",           840,       75.2693,       183.783,            0.,NA,NA,"",   1.35444E+06,   1.33400E+06,   1.33400E+06
C:/temp/Job-27.odb,Step-1,Increment      1: Step Time =    1.000,"P-27-1",           841,       126.930,       185.825,            0.,NA,NA,"",   1.03312E+06,   1.03746E+06,   1.03746E+06
C:/temp/Job-27.odb,Step-1,Increment      1: Step Time =    1.000,"P-27-1",           842,       168.721,       15.1374,            0.,NA,NA,"",   1.07092E+06,   1.06206E+06,   1.06206E+06
C:/temp/Job-27.odb,Step-1,Increment      1: Step Time =    1.000,"P-27-1",           843,       177.175,       185.916,            0.,NA,NA,"",   1.03722E+06,   1.03603E+06,   1.03603E+06
C:/temp/Job-27.odb,Step-1,Increment      1: Step Time =    1.000,"P-27-1",           844,       183.335,       179.675,            0.,NA,NA,"",   1.03240E+06,   1.03723E+06,   1.03723E+06
C:/temp/Job-27.odb,Step-1,Increment      1: Step Time =    1.000,"P-27-1",           845,       16.5917,       167.969,            0.,NA,NA,"",   1.29309E+06,   1.35174E+06,   1.35174E+06
C:/temp/Job-27.odb,Step-1,Increment      1: Step Time =    1.000,"P-27-1",           846,       21.6980,       16.0094,            0.,NA,NA,"",   1.61153E+06,   1.62772E+06,   1.62772E+06
C:/temp/Job-27.odb,Step-1,Increment      1: Step Time =    1.000,"P-27-1",           847,       16.3698,       21.4612,            0.,NA,NA,"",   1.48909E+06,   1.54313E+06,   1.54313E+06
C:/temp/Job-27.odb,Step-1,Increment      1: Step Time =    1.000,"P-27-1",           848,       13.6713,       75.5518,            0.,NA,NA,"",   465.382E+03,   517.946E+03,   517.946E+03
C:/temp/Job-27.odb,Step-1,Increment      1: Step Time =    1.000,"P-27-1",           849,       14.7176,       134.534,            0.,NA,NA,"",   646.076E+03,   700.573E+03,   700.573E+03
C:/temp/Job-27.odb,Step-1,Increment      1: Step Time =    1.000,"P-27-1",           850,       186.293,       123.479,            0.,NA,NA,"",   942.078E+03,   1.07191E+06,   1.07191E+06
C:/temp/Job-27.odb,Step-1,Increment      1: Step Time =    1.000,"P-27-1",           851,       184.803,       20.8365,            0.,NA,NA,"",   1.02686E+06,   1.03332E+06,   1.03332E+06
C:/temp/Job-27.odb,Step-1,Increment      1: Step Time =    1.000,"P-27-1",           852,       20.8720,       184.356,            0.,NA,NA,"",   1.61733E+06,   1.63571E+06,   1.63571E+06
C:/temp/Job-27.odb,Step-1,Increment      1: Step Time =    1.000,"P-27-1",           853,       185.751,       74.6162,            0.,NA,NA,"",   961.124E+03,   1.08457E+06,   1.08457E+06
C:/temp/Job-27.odb,Step-1,Increment      1: Step Time =    1.000,"P-27-1",           854,       179.129,       16.0716,            0.,NA,NA,"",   1.03864E+06,   1.03859E+06,   1.03859E+06
C:/temp/Job-27.odb,Step-1,Increment      1: Step Time =    1.000,"P-27-1",           855,       16.1247,       179.018,            0.,NA,NA,"",   1.49753E+06,   1.55196E+06,   1.55196E+06
C:/temp/Job-27.odb,Step-1,Increment      1: Step Time =    1.000,"P-27-1",           856,       86.6727,       182.231,            0.,NA,NA,"",   1.25386E+06,   1.26446E+06,   1.26446E+06
C:/temp/Job-27.odb,Step-1,Increment      1: Step Time =    1.000,"P-27-1",           857,       74.3227,       14.9282,            0.,NA,NA,"",   1.33999E+06,   1.31984E+06,   1.31984E+06
C:/temp/Job-27.odb,Step-1,Increment      1: Step Time =    1.000,"P-27-1",           858,       116.789,       184.303,            0.,NA,NA,"",   1.03191E+06,   1.06157E+06,   1.06157E+06
C:/temp/Job-27.odb,Step-1,Increment      1: Step Time =    1.000,"P-27-1",           859,       135.316,       14.3490,            0.,NA,NA,"",   1.07017E+06,   1.06275E+06,   1.06275E+06
C:/temp/Job-27.odb,Step-1,Increment      1: Step Time =    1.000,"P-27-1",           860,       13.6070,       84.8221,            0.,NA,NA,"",   323.542E+03,   370.657E+03,   370.657E+03
C:/temp/Job-27.odb,Step-1,Increment      1: Step Time =    1.000,"P-27-1",           861,       15.0006,       124.211,            0.,NA,NA,"",   465.189E+03,   515.933E+03,   515.933E+03
C:/temp/Job-27.odb,Step-1,Increment      1: Step Time =    1.000,"P-27-1",           862,       186.518,       114.117,            0.,NA,NA,"",   875.810E+03,   1.00641E+06,   1.00641E+06
C:/temp/Job-27.odb,Step-1,Increment      1: Step Time =    1.000,"P-27-1",           863,       185.617,       84.3371,            0.,NA,NA,"",   884.228E+03,   1.01502E+06,   1.01502E+06
C:/temp/Job-27.odb,Step-1,Increment      1: Step Time =    1.000,"P-27-1",           864,       106.437,       185.479,            0.,NA,NA,"",   994.593E+03,   1.02990E+06,   1.02990E+06
C:/temp/Job-27.odb,Step-1,Increment      1: Step Time =    1.000,"P-27-1",           865,       15.7546,       113.553,            0.,NA,NA,"",   299.895E+03,   343.959E+03,   343.959E+03
C:/temp/Job-27.odb,Step-1,Increment      1: Step Time =    1.000,"P-27-1",           866,       101.800,       154.163,            0.,NA,NA,"",   1.99226E+06,   2.16158E+06,   2.16158E+06
C:/temp/Job-27.odb,Step-1,Increment      1: Step Time =    1.000,"P-27-1",           867,       84.2815,       15.9194,            0.,NA,NA,"",   1.23936E+06,   1.24110E+06,   1.24110E+06
C:/temp/Job-27.odb,Step-1,Increment      1: Step Time =    1.000,"P-27-1",           868,       125.718,       15.3108,            0.,NA,NA,"",   1.05329E+06,   1.06236E+06,   1.06236E+06
C:/temp/Job-27.odb,Step-1,Increment      1: Step Time =    1.000,"P-27-1",           869,       97.0303,       185.250,            0.,NA,NA,"",   1.06468E+06,   1.09371E+06,   1.09371E+06
C:/temp/Job-27.odb,Step-1,Increment      1: Step Time =    1.000,"P-27-1",           870,       14.5089,       103.330,            0.,NA,NA,"",   221.838E+03,   247.613E+03,   247.613E+03
C:/temp/Job-27.odb,Step-1,Increment      1: Step Time =    1.000,"P-27-1",           871,       185.268,       94.3767,            0.,NA,NA,"",   804.436E+03,   907.457E+03,   907.457E+03
C:/temp/Job-27.odb,Step-1,Increment      1: Step Time =    1.000,"P-27-1",           872,       13.8513,       94.0134,            0.,NA,NA,"",   237.132E+03,   270.209E+03,   270.209E+03
C:/temp/Job-27.odb,Step-1,Increment      1: Step Time =    1.000,"P-27-1",           873,       115.697,       16.1573,            0.,NA,NA,"",   1.03353E+06,   1.06596E+06,   1.06596E+06
C:/temp/Job-27.odb,Step-1,Increment      1: Step Time =    1.000,"P-27-1",           874,       80.1052,       149.534,            0.,NA,NA,"",   1.91657E+06,   1.94387E+06,   1.94387E+06
C:/temp/Job-27.odb,Step-1,Increment      1: Step Time =    1.000,"P-27-1",           875,       118.162,       151.221,            0.,NA,NA,"",   1.93069E+06,   2.05368E+06,   2.05368E+06
C:/temp/Job-27.odb,Step-1,Increment      1: Step Time =    1.000,"P-27-1",           876,       94.5802,       16.4246,            0.,NA,NA,"",   1.12952E+06,   1.15851E+06,   1.15851E+06
C:/temp/Job-27.odb,Step-1,Increment      1: Step Time =    1.000,"P-27-1",           877,       145.356,       61.6818,            0.,NA,NA,"",   1.70021E+06,   1.46966E+06,   1.46966E+06
C:/temp/Job-27.odb,Step-1,Increment      1: Step Time =    1.000,"P-27-1",           878,       53.7638,       66.6155,            0.,NA,NA,"",   1.06152E+06,   888.855E+03,   888.855E+03
C:/temp/Job-27.odb,Step-1,Increment      1: Step Time =    1.000,"P-27-1",           879,       180.602,       186.070,            0.,NA,NA,"",   1.02779E+06,   1.02893E+06,   1.02893E+06
C:/temp/Job-27.odb,Step-1,Increment      1: Step Time =    1.000,"P-27-1",           880,       135.142,       143.756,            0.,NA,NA,"",   1.84140E+06,   1.73920E+06,   1.73920E+06
C:/temp/Job-27.odb,Step-1,Increment      1: Step Time =    1.000,"P-27-1",           881,       59.2486,       57.7576,            0.,NA,NA,"",   1.42778E+06,   1.27725E+06,   1.27725E+06
C:/temp/Job-27.odb,Step-1,Increment      1: Step Time =    1.000,"P-27-1",           882,       145.197,       131.238,            0.,NA,NA,"",   1.54638E+06,   1.24992E+06,   1.24992E+06
C:/temp/Job-27.odb,Step-1,Increment      1: Step Time =    1.000,"P-27-1",           883,       59.4440,       142.364,            0.,NA,NA,"",   1.44648E+06,   1.29443E+06,   1.29443E+06
C:/temp/Job-27.odb,Step-1,Increment      1: Step Time =    1.000,"P-27-1",           884,       154.585,       75.5153,            0.,NA,NA,"",   1.32494E+06,   1.02826E+06,   1.02826E+06
C:/temp/Job-27.odb,Step-1,Increment      1: Step Time =    1.000,"P-27-1",           885,       47.3942,       74.4945,            0.,NA,NA,"",   728.541E+03,   570.015E+03,   570.015E+03
C:/temp/Job-27.odb,Step-1,Increment      1: Step Time =    1.000,"P-27-1",           886,       98.8302,       158.087,            0.,NA,NA,"",   1.77818E+06,   1.92708E+06,   1.92708E+06
C:/temp/Job-27.odb,Step-1,Increment      1: Step Time =    1.000,"P-27-1",           887,       138.870,       56.5703,            0.,NA,NA,"",   1.78618E+06,   1.64782E+06,   1.64782E+06
C:/temp/Job-27.odb,Step-1,Increment      1: Step Time =    1.000,"P-27-1",           888,       148.999,       110.072,            0.,NA,NA,"",   779.408E+03,  -628.157E+03,  -628.157E+03
C:/temp/Job-27.odb,Step-1,Increment      1: Step Time =    1.000,"P-27-1",           889,       86.9313,       156.209,            0.,NA,NA,"",   1.84310E+06,   1.92606E+06,   1.92606E+06
C:/temp/Job-27.odb,Step-1,Increment      1: Step Time =    1.000,"P-27-1",           890,       111.203,       157.164,            0.,NA,NA,"",   1.75600E+06,   1.90656E+06,   1.90656E+06
C:/temp/Job-27.odb,Step-1,Increment      1: Step Time =    1.000,"P-27-1",           891,       151.744,       65.9493,            0.,NA,NA,"",   1.59163E+06,   1.32391E+06,   1.32391E+06
C:/temp/Job-27.odb,Step-1,Increment      1: Step Time =    1.000,"P-27-1",           892,       186.026,       55.7654,            0.,NA,NA,"",   1.03119E+06,   1.10395E+06,   1.10395E+06
C:/temp/Job-27.odb,Step-1,Increment      1: Step Time =    1.000,"P-27-1",           893,       54.9987,       13.8374,            0.,NA,NA,"",   1.49055E+06,   1.46258E+06,   1.46258E+06
C:/temp/Job-27.odb,Step-1,Increment      1: Step Time =    1.000,"P-27-1",           894,       14.1608,       144.344,            0.,NA,NA,"",   834.979E+03,   894.928E+03,   894.928E+03
C:/temp/Job-27.odb,Step-1,Increment      1: Step Time =    1.000,"P-27-1",           895,       144.733,       13.6254,            0.,NA,NA,"",   1.07995E+06,   1.06563E+06,   1.06563E+06
C:/temp/Job-27.odb,Step-1,Increment      1: Step Time =    1.000,"P-27-1",           896,       155.944,       91.1274,            0.,NA,NA,"",   628.154E+03,   35.0214E+03,   35.0214E+03
C:/temp/Job-27.odb,Step-1,Increment      1: Step Time =    1.000,"P-27-1",           897,       41.6406,       13.7036,            0.,NA,NA,"",   1.56350E+06,   1.54481E+06,   1.54481E+06
C:/temp/Job-27.odb,Step-1,Increment      1: Step Time =    1.000,"P-27-1",           898,       184.545,       158.709,            0.,NA,NA,"",   1.05786E+06,   1.08769E+06,   1.08769E+06
C:/temp/Job-27.odb,Step-1,Increment      1: Step Time =    1.000,"P-27-1",           899,       14.3131,       41.7209,            0.,NA,NA,"",   1.09029E+06,   1.15823E+06,   1.15823E+06
C:/temp/Job-27.odb,Step-1,Increment      1: Step Time =    1.000,"P-27-1",           900,       40.6699,       184.794,            0.,NA,NA,"",   1.56534E+06,   1.54385E+06,   1.54385E+06
C:/temp/Job-27.odb,Step-1,Increment      1: Step Time =    1.000,"P-27-1",           901,       184.093,       42.0935,            0.,NA,NA,"",   1.06289E+06,   1.09250E+06,   1.09250E+06
C:/temp/Job-27.odb,Step-1,Increment      1: Step Time =    1.000,"P-27-1",           902,       44.2418,       86.6795,            0.,NA,NA,"",   340.713E+03,   20.3972E+03,   20.3972E+03
C:/temp/Job-27.odb,Step-1,Increment      1: Step Time =    1.000,"P-27-1",           903,       15.3307,       157.524,            0.,NA,NA,"",   1.08617E+06,   1.14866E+06,   1.14866E+06
C:/temp/Job-27.odb,Step-1,Increment      1: Step Time =    1.000,"P-27-1",           904,       158.918,       14.1594,            0.,NA,NA,"",   1.08487E+06,   1.07071E+06,   1.07071E+06
C:/temp/Job-27.odb,Step-1,Increment      1: Step Time =    1.000,"P-27-1",           905,       75.9358,       153.082,            0.,NA,NA,"",   1.82761E+06,   1.80166E+06,   1.80166E+06
C:/temp/Job-27.odb,Step-1,Increment      1: Step Time =    1.000,"P-27-1",           906,       17.3259,       89.2569,            0.,NA,NA,"",   267.027E+03,   307.517E+03,   307.517E+03
C:/temp/Job-27.odb,Step-1,Increment      1: Step Time =    1.000,"P-27-1",           907,       90.6632,       178.237,            0.,NA,NA,"",   1.29613E+06,   1.33199E+06,   1.33199E+06
C:/temp/Job-27.odb,Step-1,Increment      1: Step Time =    1.000,"P-27-1",           908,       102.221,       181.018,            0.,NA,NA,"",   1.12323E+06,   1.17752E+06,   1.17752E+06
C:/temp/Job-27.odb,Step-1,Increment      1: Step Time =    1.000,"P-27-1",           909,       17.8066,       98.2008,            0.,NA,NA,"",   208.212E+03,   228.500E+03,   228.500E+03
C:/temp/Job-27.odb,Step-1,Increment      1: Step Time =    1.000,"P-27-1",           910,       144.344,       50.3749,            0.,NA,NA,"",   1.71722E+06,   1.57415E+06,   1.57415E+06
C:/temp/Job-27.odb,Step-1,Increment      1: Step Time =    1.000,"P-27-1",           911,       128.960,       148.919,            0.,NA,NA,"",   1.86523E+06,   1.86560E+06,   1.86560E+06
C:/temp/Job-27.odb,Step-1,Increment      1: Step Time =    1.000,"P-27-1",           912,       60.1021,       180.070,            0.,NA,NA,"",   1.52313E+06,   1.47428E+06,   1.47428E+06
C:/temp/Job-27.odb,Step-1,Increment      1: Step Time =    1.000,"P-27-1",           913,       141.628,       180.500,            0.,NA,NA,"",   1.18833E+06,   1.16631E+06,   1.16631E+06
C:/temp/Job-27.odb,Step-1,Increment      1: Step Time =    1.000,"P-27-1",           914,       18.0303,       61.2667,            0.,NA,NA,"",   748.492E+03,   794.264E+03,   794.264E+03
C:/temp/Job-27.odb,Step-1,Increment      1: Step Time =    1.000,"P-27-1",           915,       179.005,       141.716,            0.,NA,NA,"",   1.15086E+06,   1.17090E+06,   1.17090E+06
C:/temp/Job-27.odb,Step-1,Increment      1: Step Time =    1.000,"P-27-1",           916,       160.987,       181.160,            0.,NA,NA,"",   1.13729E+06,   1.11560E+06,   1.11560E+06
C:/temp/Job-27.odb,Step-1,Increment      1: Step Time =    1.000,"P-27-1",           917,       180.180,       163.529,            0.,NA,NA,"",   1.09883E+06,   1.10723E+06,   1.10723E+06
C:/temp/Job-27.odb,Step-1,Increment      1: Step Time =    1.000,"P-27-1",           918,       19.2034,       37.6676,            0.,NA,NA,"",   1.22131E+06,   1.26432E+06,   1.26432E+06
C:/temp/Job-27.odb,Step-1,Increment      1: Step Time =    1.000,"P-27-1",           919,       37.5283,       18.0640,            0.,NA,NA,"",   1.57043E+06,   1.54624E+06,   1.54624E+06
C:/temp/Job-27.odb,Step-1,Increment      1: Step Time =    1.000,"P-27-1",           920,       169.617,       183.020,            0.,NA,NA,"",   1.08023E+06,   1.07086E+06,   1.07086E+06
C:/temp/Job-27.odb,Step-1,Increment      1: Step Time =    1.000,"P-27-1",           921,       28.2467,       19.9328,            0.,NA,NA,"",   1.55837E+06,   1.55494E+06,   1.55494E+06
C:/temp/Job-27.odb,Step-1,Increment      1: Step Time =    1.000,"P-27-1",           922,       69.8561,       179.272,            0.,NA,NA,"",   1.48358E+06,   1.44433E+06,   1.44433E+06
C:/temp/Job-27.odb,Step-1,Increment      1: Step Time =    1.000,"P-27-1",           923,       84.7127,       176.320,            0.,NA,NA,"",   1.40202E+06,   1.41492E+06,   1.41492E+06
C:/temp/Job-27.odb,Step-1,Increment      1: Step Time =    1.000,"P-27-1",           924,       132.080,       181.186,            0.,NA,NA,"",   1.15882E+06,   1.15481E+06,   1.15481E+06
C:/temp/Job-27.odb,Step-1,Increment      1: Step Time =    1.000,"P-27-1",           925,       177.680,       39.7649,            0.,NA,NA,"",   1.14624E+06,   1.14373E+06,   1.14373E+06
C:/temp/Job-27.odb,Step-1,Increment      1: Step Time =    1.000,"P-27-1",           926,       36.1717,       179.464,            0.,NA,NA,"",   1.55657E+06,   1.53211E+06,   1.53211E+06
C:/temp/Job-27.odb,Step-1,Increment      1: Step Time =    1.000,"P-27-1",           927,       181.739,       27.1237,            0.,NA,NA,"",   1.05976E+06,   1.06589E+06,   1.06589E+06
C:/temp/Job-27.odb,Step-1,Increment      1: Step Time =    1.000,"P-27-1",           928,       119.561,       179.850,            0.,NA,NA,"",   1.14226E+06,   1.17714E+06,   1.17714E+06
C:/temp/Job-27.odb,Step-1,Increment      1: Step Time =    1.000,"P-27-1",           929,       17.7884,       70.7197,            0.,NA,NA,"",   566.207E+03,   612.655E+03,   612.655E+03
C:/temp/Job-27.odb,Step-1,Increment      1: Step Time =    1.000,"P-27-1",           930,       181.476,       60.3843,            0.,NA,NA,"",   1.10085E+06,   1.14826E+06,   1.14826E+06
C:/temp/Job-27.odb,Step-1,Increment      1: Step Time =    1.000,"P-27-1",           931,       111.021,       180.670,            0.,NA,NA,"",   1.10425E+06,   1.15703E+06,   1.15703E+06
C:/temp/Job-27.odb,Step-1,Increment      1: Step Time =    1.000,"P-27-1",           932,       59.4975,       19.2850,            0.,NA,NA,"",   1.51634E+06,   1.47049E+06,   1.47049E+06
C:/temp/Job-27.odb,Step-1,Increment      1: Step Time =    1.000,"P-27-1",           933,       17.2169,       80.3075,            0.,NA,NA,"",   384.927E+03,   432.113E+03,   432.113E+03
C:/temp/Job-27.odb,Step-1,Increment      1: Step Time =    1.000,"P-27-1",           934,       159.741,       114.109,            0.,NA,NA,"",   856.774E+03,   685.901E+03,   685.901E+03
C:/temp/Job-27.odb,Step-1,Increment      1: Step Time =    1.000,"P-27-1",           935,       162.972,       19.4291,            0.,NA,NA,"",   1.13158E+06,   1.11148E+06,   1.11148E+06
C:/temp/Job-27.odb,Step-1,Increment      1: Step Time =    1.000,"P-27-1",           936,       180.922,       131.965,            0.,NA,NA,"",   1.06969E+06,   1.13183E+06,   1.13183E+06
C:/temp/Job-27.odb,Step-1,Increment      1: Step Time =    1.000,"P-27-1",           937,       21.5148,       161.295,            0.,NA,NA,"",   1.23165E+06,   1.26121E+06,   1.26121E+06
C:/temp/Job-27.odb,Step-1,Increment      1: Step Time =    1.000,"P-27-1",           938,       181.120,       69.6461,            0.,NA,NA,"",   1.05398E+06,   1.12418E+06,   1.12418E+06
C:/temp/Job-27.odb,Step-1,Increment      1: Step Time =    1.000,"P-27-1",           939,       69.0765,       19.4868,            0.,NA,NA,"",   1.46611E+06,   1.42876E+06,   1.42876E+06
C:/temp/Job-27.odb,Step-1,Increment      1: Step Time =    1.000,"P-27-1",           940,       182.015,       118.352,            0.,NA,NA,"",   907.745E+03,   1.02253E+06,   1.02253E+06
C:/temp/Job-27.odb,Step-1,Increment      1: Step Time =    1.000,"P-27-1",           941,       180.806,       79.2043,            0.,NA,NA,"",   950.142E+03,   1.04865E+06,   1.04865E+06
C:/temp/Job-27.odb,Step-1,Increment      1: Step Time =    1.000,"P-27-1",           942,       19.0451,       107.673,            0.,NA,NA,"",   230.230E+03,   263.518E+03,   263.518E+03
C:/temp/Job-27.odb,Step-1,Increment      1: Step Time =    1.000,"P-27-1",           943,       19.1943,       139.602,            0.,NA,NA,"",   777.718E+03,   817.887E+03,   817.887E+03
C:/temp/Job-27.odb,Step-1,Increment      1: Step Time =    1.000,"P-27-1",           944,       18.6773,       119.336,            0.,NA,NA,"",   380.422E+03,   424.712E+03,   424.712E+03
C:/temp/Job-27.odb,Step-1,Increment      1: Step Time =    1.000,"P-27-1",           945,       19.8673,       129.407,            0.,NA,NA,"",   574.441E+03,   615.186E+03,   615.186E+03
C:/temp/Job-27.odb,Step-1,Increment      1: Step Time =    1.000,"P-27-1",           946,       78.7024,       20.4426,            0.,NA,NA,"",   1.40591E+06,   1.39264E+06,   1.39264E+06
C:/temp/Job-27.odb,Step-1,Increment      1: Step Time =    1.000,"P-27-1",           947,       140.380,       18.3764,            0.,NA,NA,"",   1.16657E+06,   1.14886E+06,   1.14886E+06
C:/temp/Job-27.odb,Step-1,Increment      1: Step Time =    1.000,"P-27-1",           948,       162.656,       94.0301,            0.,NA,NA,"",   511.226E+03,   478.123E+03,   478.123E+03
C:/temp/Job-27.odb,Step-1,Increment      1: Step Time =    1.000,"P-27-1",           949,       107.805,       160.554,            0.,NA,NA,"",   1.63457E+06,   1.78272E+06,   1.78272E+06
C:/temp/Job-27.odb,Step-1,Increment      1: Step Time =    1.000,"P-27-1",           950,       131.078,       19.9308,            0.,NA,NA,"",   1.17718E+06,   1.17616E+06,   1.17616E+06
C:/temp/Job-27.odb,Step-1,Increment      1: Step Time =    1.000,"P-27-1",           951,       88.7247,       161.346,            0.,NA,NA,"",   1.69438E+06,   1.77485E+06,   1.77485E+06
C:/temp/Job-27.odb,Step-1,Increment      1: Step Time =    1.000,"P-27-1",           952,       95.9020,       161.513,            0.,NA,NA,"",   1.65491E+06,   1.77891E+06,   1.77891E+06
C:/temp/Job-27.odb,Step-1,Increment      1: Step Time =    1.000,"P-27-1",           953,       49.0470,       66.1981,            0.,NA,NA,"",   1.02335E+06,   871.371E+03,   871.371E+03
C:/temp/Job-27.odb,Step-1,Increment      1: Step Time =    1.000,"P-27-1",           954,       110.900,       22.1007,            0.,NA,NA,"",   1.16159E+06,   1.22368E+06,   1.22368E+06
C:/temp/Job-27.odb,Step-1,Increment      1: Step Time =    1.000,"P-27-1",           955,       160.259,       89.3654,            0.,NA,NA,"",   695.852E+03,   563.021E+03,   563.021E+03
C:/temp/Job-27.odb,Step-1,Increment      1: Step Time =    1.000,"P-27-1",           956,       37.8278,       87.7469,            0.,NA,NA,"",   277.369E+03,   237.950E+03,   237.950E+03
C:/temp/Job-27.odb,Step-1,Increment      1: Step Time =    1.000,"P-27-1",           957,       156.302,       80.1498,            0.,NA,NA,"",   1.13395E+06,   858.497E+03,   858.497E+03
C:/temp/Job-27.odb,Step-1,Increment      1: Step Time =    1.000,"P-27-1",           958,       45.2648,       79.5186,            0.,NA,NA,"",   548.190E+03,   401.652E+03,   401.652E+03
C:/temp/Job-27.odb,Step-1,Increment      1: Step Time =    1.000,"P-27-1",           959,       150.722,       55.2067,            0.,NA,NA,"",   1.65734E+06,   1.46964E+06,   1.46964E+06
C:/temp/Job-27.odb,Step-1,Increment      1: Step Time =    1.000,"P-27-1",           960,       173.052,       20.9486,            0.,NA,NA,"",   1.09417E+06,   1.08487E+06,   1.08487E+06
C:/temp/Job-27.odb,Step-1,Increment      1: Step Time =    1.000,"P-27-1",           961,       26.2501,       179.151,            0.,NA,NA,"",   1.54511E+06,   1.54877E+06,   1.54877E+06
C:/temp/Job-27.odb,Step-1,Increment      1: Step Time =    1.000,"P-27-1",           962,       146.557,       143.383,            0.,NA,NA,"",   1.72030E+06,   1.52565E+06,   1.52565E+06
C:/temp/Job-27.odb,Step-1,Increment      1: Step Time =    1.000,"P-27-1",           963,       155.727,       185.664,            0.,NA,NA,"",   1.09295E+06,   1.07702E+06,   1.07702E+06
C:/temp/Job-27.odb,Step-1,Increment      1: Step Time =    1.000,"P-27-1",           964,       185.760,       51.2225,            0.,NA,NA,"",   1.04187E+06,   1.09971E+06,   1.09971E+06
C:/temp/Job-27.odb,Step-1,Increment      1: Step Time =    1.000,"P-27-1",           965,       184.073,       153.468,            0.,NA,NA,"",   1.06919E+06,   1.10608E+06,   1.10608E+06
C:/temp/Job-27.odb,Step-1,Increment      1: Step Time =    1.000,"P-27-1",           966,       20.7448,       27.8503,            0.,NA,NA,"",   1.40437E+06,   1.43787E+06,   1.43787E+06
C:/temp/Job-27.odb,Step-1,Increment      1: Step Time =    1.000,"P-27-1",           967,       179.562,       172.896,            0.,NA,NA,"",   1.07529E+06,   1.07754E+06,   1.07754E+06
C:/temp/Job-27.odb,Step-1,Increment      1: Step Time =    1.000,"P-27-1",           968,       14.1314,       46.5114,            0.,NA,NA,"",   1.00157E+06,   1.06762E+06,   1.06762E+06
C:/temp/Job-27.odb,Step-1,Increment      1: Step Time =    1.000,"P-27-1",           969,       46.1201,       13.2754,            0.,NA,NA,"",   1.54037E+06,   1.51904E+06,   1.51904E+06
C:/temp/Job-27.odb,Step-1,Increment      1: Step Time =    1.000,"P-27-1",           970,       50.6229,       13.1230,            0.,NA,NA,"",   1.51655E+06,   1.49177E+06,   1.49177E+06
C:/temp/Job-27.odb,Step-1,Increment      1: Step Time =    1.000,"P-27-1",           971,       45.4976,       184.907,            0.,NA,NA,"",   1.54623E+06,   1.52020E+06,   1.52020E+06
C:/temp/Job-27.odb,Step-1,Increment      1: Step Time =    1.000,"P-27-1",           972,       185.102,       46.6302,            0.,NA,NA,"",   1.05246E+06,   1.09559E+06,   1.09559E+06
C:/temp/Job-27.odb,Step-1,Increment      1: Step Time =    1.000,"P-27-1",           973,       64.0944,       57.5993,            0.,NA,NA,"",   1.51758E+06,   1.38946E+06,   1.38946E+06
C:/temp/Job-27.odb,Step-1,Increment      1: Step Time =    1.000,"P-27-1",           974,       14.2442,       153.208,            0.,NA,NA,"",   995.125E+03,   1.06061E+06,   1.06061E+06
C:/temp/Job-27.odb,Step-1,Increment      1: Step Time =    1.000,"P-27-1",           975,       154.157,       13.8125,            0.,NA,NA,"",   1.08595E+06,   1.07057E+06,   1.07057E+06
C:/temp/Job-27.odb,Step-1,Increment      1: Step Time =    1.000,"P-27-1",           976,       153.766,       98.0618,            0.,NA,NA,"",   474.504E+03,  -278.135E+03,  -278.135E+03
C:/temp/Job-27.odb,Step-1,Increment      1: Step Time =    1.000,"P-27-1",           977,       49.9489,       139.510,            0.,NA,NA,"",   1.20820E+06,   1.06400E+06,   1.06400E+06
C:/temp/Job-27.odb,Step-1,Increment      1: Step Time =    1.000,"P-27-1",           978,       155.985,       60.6691,            0.,NA,NA,"",   1.57507E+06,   1.36870E+06,   1.36870E+06
C:/temp/Job-27.odb,Step-1,Increment      1: Step Time =    1.000,"P-27-1",           979,       99.8458,       21.8174,            0.,NA,NA,"",   1.20156E+06,   1.26274E+06,   1.26274E+06
C:/temp/Job-27.odb,Step-1,Increment      1: Step Time =    1.000,"P-27-1",           980,       179.570,       99.5382,            0.,NA,NA,"",   680.804E+03,   779.588E+03,   779.588E+03
C:/temp/Job-27.odb,Step-1,Increment      1: Step Time =    1.000,"P-27-1",           981,       66.5565,       151.321,            0.,NA,NA,"",   1.71948E+06,   1.61417E+06,   1.61417E+06
C:/temp/Job-27.odb,Step-1,Increment      1: Step Time =    1.000,"P-27-1",           982,       88.9160,       21.8634,            0.,NA,NA,"",   1.31426E+06,   1.34147E+06,   1.34147E+06
C:/temp/Job-27.odb,Step-1,Increment      1: Step Time =    1.000,"P-27-1",           983,       180.689,       88.9983,            0.,NA,NA,"",   800.611E+03,   915.963E+03,   915.963E+03
C:/temp/Job-27.odb,Step-1,Increment      1: Step Time =    1.000,"P-27-1",           984,       182.078,       109.448,            0.,NA,NA,"",   792.300E+03,   911.304E+03,   911.304E+03
C:/temp/Job-27.odb,Step-1,Increment      1: Step Time =    1.000,"P-27-1",           985,       121.328,       21.0084,            0.,NA,NA,"",   1.16554E+06,   1.19738E+06,   1.19738E+06
C:/temp/Job-27.odb,Step-1,Increment      1: Step Time =    1.000,"P-27-1",           986,       149.386,       131.594,            0.,NA,NA,"",   1.55519E+06,   1.25248E+06,   1.25248E+06
C:/temp/Job-27.odb,Step-1,Increment      1: Step Time =    1.000,"P-27-1",           987,       57.3315,       147.657,            0.,NA,NA,"",   1.53225E+06,   1.38960E+06,   1.38960E+06
C:/temp/Job-27.odb,Step-1,Increment      1: Step Time =    1.000,"P-27-1",           988,       138.352,       149.915,            0.,NA,NA,"",   1.77977E+06,   1.67464E+06,   1.67464E+06
C:/temp/Job-27.odb,Step-1,Increment      1: Step Time =    1.000,"P-27-1",           989,       157.956,       69.5989,            0.,NA,NA,"",   1.43945E+06,   1.20665E+06,   1.20665E+06
C:/temp/Job-27.odb,Step-1,Increment      1: Step Time =    1.000,"P-27-1",           990,       120.681,       154.597,            0.,NA,NA,"",   1.78045E+06,   1.87227E+06,   1.87227E+06
C:/temp/Job-27.odb,Step-1,Increment      1: Step Time =    1.000,"P-27-1",           991,       22.4426,       109.007,            0.,NA,NA,"",   230.848E+03,   265.139E+03,   265.139E+03
C:/temp/Job-27.odb,Step-1,Increment      1: Step Time =    1.000,"P-27-1",           992,       34.6511,       91.8340,            0.,NA,NA,"",   189.157E+03,   187.658E+03,   187.658E+03
C:/temp/Job-27.odb,Step-1,Increment      1: Step Time =    1.000,"P-27-1",           993,       111.698,       176.165,            0.,NA,NA,"",   1.20477E+06,   1.27547E+06,   1.27547E+06
C:/temp/Job-27.odb,Step-1,Increment      1: Step Time =    1.000,"P-27-1",           994,       166.883,       91.7677,            0.,NA,NA,"",   622.986E+03,   636.330E+03,   636.330E+03
C:/temp/Job-27.odb,Step-1,Increment      1: Step Time =    1.000,"P-27-1",           995,       77.5312,       24.9611,            0.,NA,NA,"",   1.49976E+06,   1.48041E+06,   1.48041E+06
C:/temp/Job-27.odb,Step-1,Increment      1: Step Time =    1.000,"P-27-1",           996,       24.6971,       119.295,            0.,NA,NA,"",   393.374E+03,   422.748E+03,   422.748E+03
C:/temp/Job-27.odb,Step-1,Increment      1: Step Time =    1.000,"P-27-1",           997,       175.929,       79.2781,            0.,NA,NA,"",   978.284E+03,   1.02803E+06,   1.02803E+06
C:/temp/Job-27.odb,Step-1,Increment      1: Step Time =    1.000,"P-27-1",           998,       121.302,       177.207,            0.,NA,NA,"",   1.20999E+06,   1.24759E+06,   1.24759E+06
C:/temp/Job-27.odb,Step-1,Increment      1: Step Time =    1.000,"P-27-1",           999,       79.0120,       172.504,            0.,NA,NA,"",   1.53737E+06,   1.52642E+06,   1.52642E+06
C:/temp/Job-27.odb,Step-1,Increment      1: Step Time =    1.000,"P-27-1",          1000,       23.9297,       97.0823,            0.,NA,NA,"",   183.654E+03,   204.033E+03,   204.033E+03
C:/temp/Job-27.odb,Step-1,Increment      1: Step Time =    1.000,"P-27-1",          1001,       24.6343,       129.467,            0.,NA,NA,"",   598.403E+03,   621.807E+03,   621.807E+03
C:/temp/Job-27.odb,Step-1,Increment      1: Step Time =    1.000,"P-27-1",          1002,       174.257,       139.425,            0.,NA,NA,"",   1.23013E+06,   1.20525E+06,   1.20525E+06
C:/temp/Job-27.odb,Step-1,Increment      1: Step Time =    1.000,"P-27-1",          1003,       26.6753,       62.8590,            0.,NA,NA,"",   791.578E+03,   799.790E+03,   799.790E+03
C:/temp/Job-27.odb,Step-1,Increment      1: Step Time =    1.000,"P-27-1",          1004,       68.3885,       24.9947,            0.,NA,NA,"",   1.55341E+06,   1.50384E+06,   1.50384E+06
C:/temp/Job-27.odb,Step-1,Increment      1: Step Time =    1.000,"P-27-1",          1005,       141.668,       175.260,            0.,NA,NA,"",   1.29402E+06,   1.26206E+06,   1.26206E+06
C:/temp/Job-27.odb,Step-1,Increment      1: Step Time =    1.000,"P-27-1",          1006,       60.0534,       175.461,            0.,NA,NA,"",   1.57214E+06,   1.50801E+06,   1.50801E+06
C:/temp/Job-27.odb,Step-1,Increment      1: Step Time =    1.000,"P-27-1",          1007,       176.490,       69.1061,            0.,NA,NA,"",   1.12768E+06,   1.14596E+06,   1.14596E+06
C:/temp/Job-27.odb,Step-1,Increment      1: Step Time =    1.000,"P-27-1",          1008,       45.6251,       138.154,            0.,NA,NA,"",   1.09860E+06,   976.906E+03,   976.906E+03
C:/temp/Job-27.odb,Step-1,Increment      1: Step Time =    1.000,"P-27-1",          1009,       161.050,       101.329,            0.,NA,NA,"",   399.421E+03,   357.910E+03,   357.910E+03
C:/temp/Job-27.odb,Step-1,Increment      1: Step Time =    1.000,"P-27-1",          1010,       127.905,       176.920,            0.,NA,NA,"",   1.24151E+06,   1.25218E+06,   1.25218E+06
C:/temp/Job-27.odb,Step-1,Increment      1: Step Time =    1.000,"P-27-1",          1011,       161.967,       24.2510,            0.,NA,NA,"",   1.18966E+06,   1.15957E+06,   1.15957E+06
C:/temp/Job-27.odb,Step-1,Increment      1: Step Time =    1.000,"P-27-1",          1012,       36.6005,       174.241,            0.,NA,NA,"",   1.52718E+06,   1.49321E+06,   1.49321E+06
C:/temp/Job-27.odb,Step-1,Increment      1: Step Time =    1.000,"P-27-1",          1013,       23.6741,       38.4024,            0.,NA,NA,"",   1.26074E+06,   1.27911E+06,   1.27911E+06
C:/temp/Job-27.odb,Step-1,Increment      1: Step Time =    1.000,"P-27-1",          1014,       172.811,       167.516,            0.,NA,NA,"",   1.16507E+06,   1.14772E+06,   1.14772E+06
C:/temp/Job-27.odb,Step-1,Increment      1: Step Time =    1.000,"P-27-1",          1015,       23.1005,       139.438,            0.,NA,NA,"",   806.602E+03,   831.565E+03,   831.565E+03
C:/temp/Job-27.odb,Step-1,Increment      1: Step Time =    1.000,"P-27-1",          1016,       171.535,       26.1453,            0.,NA,NA,"",   1.14055E+06,   1.12390E+06,   1.12390E+06
C:/temp/Job-27.odb,Step-1,Increment      1: Step Time =    1.000,"P-27-1",          1017,       26.7403,       173.838,            0.,NA,NA,"",   1.47640E+06,   1.47890E+06,   1.47890E+06
C:/temp/Job-27.odb,Step-1,Increment      1: Step Time =    1.000,"P-27-1",          1018,       27.3787,       26.5103,            0.,NA,NA,"",   1.47602E+06,   1.47567E+06,   1.47567E+06
C:/temp/Job-27.odb,Step-1,Increment      1: Step Time =    1.000,"P-27-1",          1019,       173.845,       175.660,            0.,NA,NA,"",   1.10725E+06,   1.09813E+06,   1.09813E+06
C:/temp/Job-27.odb,Step-1,Increment      1: Step Time =    1.000,"P-27-1",          1020,       79.2833,       153.908,            0.,NA,NA,"",   1.84485E+06,   1.85165E+06,   1.85165E+06
C:/temp/Job-27.odb,Step-1,Increment      1: Step Time =    1.000,"P-27-1",          1021,       60.3896,       24.8322,            0.,NA,NA,"",   1.57408E+06,   1.51113E+06,   1.51113E+06
C:/temp/Job-27.odb,Step-1,Increment      1: Step Time =    1.000,"P-27-1",          1022,       177.053,       60.4874,            0.,NA,NA,"",   1.18078E+06,   1.18433E+06,   1.18433E+06
C:/temp/Job-27.odb,Step-1,Increment      1: Step Time =    1.000,"P-27-1",          1023,       142.256,       152.389,            0.,NA,NA,"",   1.71531E+06,   1.59508E+06,   1.59508E+06
C:/temp/Job-27.odb,Step-1,Increment      1: Step Time =    1.000,"P-27-1",          1024,       55.1925,       185.003,            0.,NA,NA,"",   1.49855E+06,   1.46638E+06,   1.46638E+06
C:/temp/Job-27.odb,Step-1,Increment      1: Step Time =    1.000,"P-27-1",          1025,       146.159,       185.481,            0.,NA,NA,"",   1.09663E+06,   1.08001E+06,   1.08001E+06
C:/temp/Job-27.odb,Step-1,Increment      1: Step Time =    1.000,"P-27-1",          1026,       13.7465,       55.9980,            0.,NA,NA,"",   821.056E+03,   883.043E+03,   883.043E+03
C:/temp/Job-27.odb,Step-1,Increment      1: Step Time =    1.000,"P-27-1",          1027,       68.3432,       158.165,            0.,NA,NA,"",   1.74454E+06,   1.65974E+06,   1.65974E+06
C:/temp/Job-27.odb,Step-1,Increment      1: Step Time =    1.000,"P-27-1",          1028,       55.3176,       152.787,            0.,NA,NA,"",   1.57179E+06,   1.44256E+06,   1.44256E+06
C:/temp/Job-27.odb,Step-1,Increment      1: Step Time =    1.000,"P-27-1",          1029,       101.639,       160.946,            0.,NA,NA,"",   1.64909E+06,   1.79506E+06,   1.79506E+06
C:/temp/Job-27.odb,Step-1,Increment      1: Step Time =    1.000,"P-27-1",          1030,       114.014,       160.604,            0.,NA,NA,"",   1.61067E+06,   1.73648E+06,   1.73648E+06
C:/temp/Job-27.odb,Step-1,Increment      1: Step Time =    1.000,"P-27-1",          1031,       67.2418,       51.3155,            0.,NA,NA,"",   1.70544E+06,   1.60090E+06,   1.60090E+06
C:/temp/Job-27.odb,Step-1,Increment      1: Step Time =    1.000,"P-27-1",          1032,       148.252,       138.913,            0.,NA,NA,"",   1.70073E+06,   1.46415E+06,   1.46415E+06
C:/temp/Job-27.odb,Step-1,Increment      1: Step Time =    1.000,"P-27-1",          1033,       149.186,       18.0185,            0.,NA,NA,"",   1.15529E+06,   1.13122E+06,   1.13122E+06
C:/temp/Job-27.odb,Step-1,Increment      1: Step Time =    1.000,"P-27-1",          1034,       124.311,       152.012,            0.,NA,NA,"",   1.83010E+06,   1.88537E+06,   1.88537E+06
C:/temp/Job-27.odb,Step-1,Increment      1: Step Time =    1.000,"P-27-1",          1035,       150.600,       190.526,            0.,NA,NA,"",   1.02342E+06,   1.01473E+06,   1.01473E+06
C:/temp/Job-27.odb,Step-1,Increment      1: Step Time =    1.000,"P-27-1",          1036,       189.425,       153.873,            0.,NA,NA,"",   994.966E+03,   1.05682E+06,   1.05682E+06
C:/temp/Job-27.odb,Step-1,Increment      1: Step Time =    1.000,"P-27-1",          1037,       9.37615,       45.9298,            0.,NA,NA,"",   964.994E+03,   1.05133E+06,   1.05133E+06
C:/temp/Job-27.odb,Step-1,Increment      1: Step Time =    1.000,"P-27-1",          1038,       50.4788,       8.83562,            0.,NA,NA,"",   1.50207E+06,   1.48898E+06,   1.48898E+06
C:/temp/Job-27.odb,Step-1,Increment      1: Step Time =    1.000,"P-27-1",          1039,       190.412,       50.6492,            0.,NA,NA,"",   973.954E+03,   1.05506E+06,   1.05506E+06
C:/temp/Job-27.odb,Step-1,Increment      1: Step Time =    1.000,"P-27-1",          1040,       45.3013,       189.973,            0.,NA,NA,"",   1.54497E+06,   1.53133E+06,   1.53133E+06
C:/temp/Job-27.odb,Step-1,Increment      1: Step Time =    1.000,"P-27-1",          1041,       17.2011,       148.613,            0.,NA,NA,"",   945.234E+03,   997.515E+03,   997.515E+03
C:/temp/Job-27.odb,Step-1,Increment      1: Step Time =    1.000,"P-27-1",          1042,       144.585,       45.0683,            0.,NA,NA,"",   1.65404E+06,   1.54216E+06,   1.54216E+06
C:/temp/Job-27.odb,Step-1,Increment      1: Step Time =    1.000,"P-27-1",          1043,       153.830,       52.2608,            0.,NA,NA,"",   1.60254E+06,   1.44032E+06,   1.44032E+06
C:/temp/Job-27.odb,Step-1,Increment      1: Step Time =    1.000,"P-27-1",          1044,       9.31300,       149.164,            0.,NA,NA,"",   882.364E+03,   962.543E+03,   962.543E+03
C:/temp/Job-27.odb,Step-1,Increment      1: Step Time =    1.000,"P-27-1",          1045,       154.513,       9.23932,            0.,NA,NA,"",   1.02743E+06,   1.01940E+06,   1.01940E+06
C:/temp/Job-27.odb,Step-1,Increment      1: Step Time =    1.000,"P-27-1",          1046,       88.6622,       27.5587,            0.,NA,NA,"",   1.43488E+06,   1.47808E+06,   1.47808E+06
C:/temp/Job-27.odb,Step-1,Increment      1: Step Time =    1.000,"P-27-1",          1047,       174.496,       93.0229,            0.,NA,NA,"",   665.367E+03,   752.812E+03,   752.812E+03
C:/temp/Job-27.odb,Step-1,Increment      1: Step Time =    1.000,"P-27-1",          1048,       178.134,       109.636,            0.,NA,NA,"",   756.581E+03,   862.730E+03,   862.730E+03
C:/temp/Job-27.odb,Step-1,Increment      1: Step Time =    1.000,"P-27-1",          1049,       175.161,       102.815,            0.,NA,NA,"",   611.892E+03,   704.219E+03,   704.219E+03
C:/temp/Job-27.odb,Step-1,Increment      1: Step Time =    1.000,"P-27-1",          1050,       37.6431,       80.6808,            0.,NA,NA,"",   456.637E+03,   404.814E+03,   404.814E+03
C:/temp/Job-27.odb,Step-1,Increment      1: Step Time =    1.000,"P-27-1",          1051,       38.6671,       95.0173,            0.,NA,NA,"",   129.096E+03,   57.2767E+03,   57.2767E+03
C:/temp/Job-27.odb,Step-1,Increment      1: Step Time =    1.000,"P-27-1",          1052,       122.046,       26.0890,            0.,NA,NA,"",   1.28672E+06,   1.32643E+06,   1.32643E+06
C:/temp/Job-27.odb,Step-1,Increment      1: Step Time =    1.000,"P-27-1",          1053,       162.462,       83.0963,            0.,NA,NA,"",   963.064E+03,   823.744E+03,   823.744E+03
C:/temp/Job-27.odb,Step-1,Increment      1: Step Time =    1.000,"P-27-1",          1054,       99.7833,       26.8564,            0.,NA,NA,"",   1.31228E+06,   1.39574E+06,   1.39574E+06
C:/temp/Job-27.odb,Step-1,Increment      1: Step Time =    1.000,"P-27-1",          1055,       59.8646,       154.228,            0.,NA,NA,"",   1.65000E+06,   1.52635E+06,   1.52635E+06
C:/temp/Job-27.odb,Step-1,Increment      1: Step Time =    1.000,"P-27-1",          1056,       111.305,       28.2530,            0.,NA,NA,"",   1.30777E+06,   1.39634E+06,   1.39634E+06
C:/temp/Job-27.odb,Step-1,Increment      1: Step Time =    1.000,"P-27-1",          1057,       64.2895,       156.168,            0.,NA,NA,"",   1.70822E+06,   1.60109E+06,   1.60109E+06
C:/temp/Job-27.odb,Step-1,Increment      1: Step Time =    1.000,"P-27-1",          1058,       114.613,       180.573,            0.,NA,NA,"",   1.10898E+06,   1.15554E+06,   1.15554E+06
C:/temp/Job-27.odb,Step-1,Increment      1: Step Time =    1.000,"P-27-1",          1059,       120.069,       160.728,            0.,NA,NA,"",   1.60643E+06,   1.69157E+06,   1.69157E+06
C:/temp/Job-27.odb,Step-1,Increment      1: Step Time =    1.000,"P-27-1",          1060,       40.8363,       76.4802,            0.,NA,NA,"",   606.074E+03,   516.248E+03,   516.248E+03
C:/temp/Job-27.odb,Step-1,Increment      1: Step Time =    1.000,"P-27-1",          1061,       68.7505,       56.6532,            0.,NA,NA,"",   1.63378E+06,   1.53794E+06,   1.53794E+06
C:/temp/Job-27.odb,Step-1,Increment      1: Step Time =    1.000,"P-27-1",          1062,       133.991,       153.714,            0.,NA,NA,"",   1.75208E+06,   1.70433E+06,   1.70433E+06
C:/temp/Job-27.odb,Step-1,Increment      1: Step Time =    1.000,"P-27-1",          1063,       43.8699,       61.8487,            0.,NA,NA,"",   1.06431E+06,   952.605E+03,   952.605E+03
C:/temp/Job-27.odb,Step-1,Increment      1: Step Time =    1.000,"P-27-1",          1064,       158.500,       119.674,            0.,NA,NA,"",   1.09681E+06,   863.786E+03,   863.786E+03
C:/temp/Job-27.odb,Step-1,Increment      1: Step Time =    1.000,"P-27-1",          1065,       153.093,       133.162,            0.,NA,NA,"",   1.55961E+06,   1.28814E+06,   1.28814E+06
C:/temp/Job-27.odb,Step-1,Increment      1: Step Time =    1.000,"P-27-1",          1066,       160.779,       78.6984,            0.,NA,NA,"",   1.14726E+06,   954.013E+03,   954.013E+03
C:/temp/Job-27.odb,Step-1,Increment      1: Step Time =    1.000,"P-27-1",          1067,       154.867,       129.204,            0.,NA,NA,"",   1.43922E+06,   1.16624E+06,   1.16624E+06
C:/temp/Job-27.odb,Step-1,Increment      1: Step Time =    1.000,"P-27-1",          1068,       48.0326,       144.713,            0.,NA,NA,"",   1.31260E+06,   1.18502E+06,   1.18502E+06
C:/temp/Job-27.odb,Step-1,Increment      1: Step Time =    1.000,"P-27-1",          1069,       44.4381,       66.5177,            0.,NA,NA,"",   945.218E+03,   823.583E+03,   823.583E+03
C:/temp/Job-27.odb,Step-1,Increment      1: Step Time =    1.000,"P-27-1",          1070,       162.889,       68.5227,            0.,NA,NA,"",   1.37359E+06,   1.20714E+06,   1.20714E+06
C:/temp/Job-27.odb,Step-1,Increment      1: Step Time =    1.000,"P-27-1",          1071,       141.103,       22.6035,            0.,NA,NA,"",   1.25184E+06,   1.22580E+06,   1.22580E+06
C:/temp/Job-27.odb,Step-1,Increment      1: Step Time =    1.000,"P-27-1",          1072,       23.4372,       88.8488,            0.,NA,NA,"",   260.059E+03,   295.072E+03,   295.072E+03
C:/temp/Job-27.odb,Step-1,Increment      1: Step Time =    1.000,"P-27-1",          1073,       45.7184,       93.4120,            0.,NA,NA,"",   227.057E+03,  -202.614E+03,  -202.614E+03
C:/temp/Job-27.odb,Step-1,Increment      1: Step Time =    1.000,"P-27-1",          1074,       181.343,       51.8938,            0.,NA,NA,"",   1.11780E+06,   1.14570E+06,   1.14570E+06
C:/temp/Job-27.odb,Step-1,Increment      1: Step Time =    1.000,"P-27-1",          1075,       165.290,       77.3783,            0.,NA,NA,"",   1.13617E+06,   1.01753E+06,   1.01753E+06
C:/temp/Job-27.odb,Step-1,Increment      1: Step Time =    1.000,"P-27-1",          1076,       98.2446,       164.453,            0.,NA,NA,"",   1.54886E+06,   1.67019E+06,   1.67019E+06
C:/temp/Job-27.odb,Step-1,Increment      1: Step Time =    1.000,"P-27-1",          1077,       34.2873,       77.8477,            0.,NA,NA,"",   510.016E+03,   483.345E+03,   483.345E+03
C:/temp/Job-27.odb,Step-1,Increment      1: Step Time =    1.000,"P-27-1",          1078,       110.620,       163.882,            0.,NA,NA,"",   1.51161E+06,   1.63823E+06,   1.63823E+06
C:/temp/Job-27.odb,Step-1,Increment      1: Step Time =    1.000,"P-27-1",          1079,       135.243,       158.401,            0.,NA,NA,"",   1.65633E+06,   1.61340E+06,   1.61340E+06
C:/temp/Job-27.odb,Step-1,Increment      1: Step Time =    1.000,"P-27-1",          1080,       81.7732,       159.165,            0.,NA,NA,"",   1.77342E+06,   1.79599E+06,   1.79599E+06
C:/temp/Job-27.odb,Step-1,Increment      1: Step Time =    1.000,"P-27-1",          1081,       45.9388,       150.046,            0.,NA,NA,"",   1.38039E+06,   1.27040E+06,   1.27040E+06
C:/temp/Job-27.odb,Step-1,Increment      1: Step Time =    1.000,"P-27-1",          1082,       55.1568,       189.967,            0.,NA,NA,"",   1.46409E+06,   1.44675E+06,   1.44675E+06
C:/temp/Job-27.odb,Step-1,Increment      1: Step Time =    1.000,"P-27-1",          1083,       106.784,       174.986,            0.,NA,NA,"",   1.23249E+06,   1.31399E+06,   1.31399E+06
C:/temp/Job-27.odb,Step-1,Increment      1: Step Time =    1.000,"P-27-1",          1084,       84.0214,       171.192,            0.,NA,NA,"",   1.51552E+06,   1.53344E+06,   1.53344E+06
C:/temp/Job-27.odb,Step-1,Increment      1: Step Time =    1.000,"P-27-1",          1085,       64.7412,       175.040,            0.,NA,NA,"",   1.57022E+06,   1.51074E+06,   1.51074E+06
C:/temp/Job-27.odb,Step-1,Increment      1: Step Time =    1.000,"P-27-1",          1086,       136.372,       171.157,            0.,NA,NA,"",   1.38128E+06,   1.35843E+06,   1.35843E+06
C:/temp/Job-27.odb,Step-1,Increment      1: Step Time =    1.000,"P-27-1",          1087,       26.3533,       68.0904,            0.,NA,NA,"",   672.767E+03,   686.299E+03,   686.299E+03
C:/temp/Job-27.odb,Step-1,Increment      1: Step Time =    1.000,"P-27-1",          1088,       170.311,       137.020,            0.,NA,NA,"",   1.29810E+06,   1.22691E+06,   1.22691E+06
C:/temp/Job-27.odb,Step-1,Increment      1: Step Time =    1.000,"P-27-1",          1089,       150.964,       185.496,            0.,NA,NA,"",   1.09815E+06,   1.08094E+06,   1.08094E+06
C:/temp/Job-27.odb,Step-1,Increment      1: Step Time =    1.000,"P-27-1",          1090,       43.5865,       56.6161,            0.,NA,NA,"",   1.19473E+06,   1.09069E+06,   1.09069E+06
C:/temp/Job-27.odb,Step-1,Increment      1: Step Time =    1.000,"P-27-1",          1091,       13.9518,       51.2468,            0.,NA,NA,"",   912.405E+03,   976.287E+03,   976.287E+03
C:/temp/Job-27.odb,Step-1,Increment      1: Step Time =    1.000,"P-27-1",          1092,       39.3288,       141.175,            0.,NA,NA,"",   1.06689E+06,   989.419E+03,   989.419E+03
C:/temp/Job-27.odb,Step-1,Increment      1: Step Time =    1.000,"P-27-1",          1093,       50.3207,       184.987,            0.,NA,NA,"",   1.52438E+06,   1.49469E+06,   1.49469E+06
C:/temp/Job-27.odb,Step-1,Increment      1: Step Time =    1.000,"P-27-1",          1094,       155.915,       56.5392,            0.,NA,NA,"",   1.58550E+06,   1.40309E+06,   1.40309E+06
C:/temp/Job-27.odb,Step-1,Increment      1: Step Time =    1.000,"P-27-1",          1095,       39.6209,       68.5430,            0.,NA,NA,"",   817.115E+03,   735.921E+03,   735.921E+03
C:/temp/Job-27.odb,Step-1,Increment      1: Step Time =    1.000,"P-27-1",          1096,       149.442,       13.6139,            0.,NA,NA,"",   1.08426E+06,   1.06864E+06,   1.06864E+06
C:/temp/Job-27.odb,Step-1,Increment      1: Step Time =    1.000,"P-27-1",          1097,       126.036,       155.696,            0.,NA,NA,"",   1.73547E+06,   1.77175E+06,   1.77175E+06
C:/temp/Job-27.odb,Step-1,Increment      1: Step Time =    1.000,"P-27-1",          1098,       164.862,       122.282,            0.,NA,NA,"",   1.11509E+06,   994.425E+03,   994.425E+03
C:/temp/Job-27.odb,Step-1,Increment      1: Step Time =    1.000,"P-27-1",          1099,       153.404,       153.478,            0.,NA,NA,"",   1.56441E+06,   1.43340E+06,   1.43340E+06
C:/temp/Job-27.odb,Step-1,Increment      1: Step Time =    1.000,"P-27-1",          1100,       22.0213,       150.066,            0.,NA,NA,"",   1.02130E+06,   1.04871E+06,   1.04871E+06
C:/temp/Job-27.odb,Step-1,Increment      1: Step Time =    1.000,"P-27-1",          1101,       173.833,       117.097,            0.,NA,NA,"",   909.707E+03,   956.206E+03,   956.206E+03
C:/temp/Job-27.odb,Step-1,Increment      1: Step Time =    1.000,"P-27-1",          1102,       175.297,       97.3206,            0.,NA,NA,"",   615.241E+03,   708.790E+03,   708.790E+03
C:/temp/Job-27.odb,Step-1,Increment      1: Step Time =    1.000,"P-27-1",          1103,       183.741,       148.126,            0.,NA,NA,"",   1.07326E+06,   1.11992E+06,   1.11992E+06
C:/temp/Job-27.odb,Step-1,Increment      1: Step Time =    1.000,"P-27-1",          1104,       185.826,       104.429,            0.,NA,NA,"",   803.743E+03,   899.215E+03,   899.215E+03
C:/temp/Job-27.odb,Step-1,Increment      1: Step Time =    1.000,"P-27-1",          1105,       50.6543,       151.489,            0.,NA,NA,"",   1.48089E+06,   1.35685E+06,   1.35685E+06
C:/temp/Job-27.odb,Step-1,Increment      1: Step Time =    1.000,"P-27-1",          1106,       171.635,       179.430,            0.,NA,NA,"",   1.09577E+06,   1.08580E+06,   1.08580E+06
C:/temp/Job-27.odb,Step-1,Increment      1: Step Time =    1.000,"P-27-1",          1107,       30.8161,       88.4337,            0.,NA,NA,"",   255.676E+03,   269.191E+03,   269.191E+03
C:/temp/Job-27.odb,Step-1,Increment      1: Step Time =    1.000,"P-27-1",          1108,       153.592,       48.9874,            0.,NA,NA,"",   1.58299E+06,   1.43822E+06,   1.43822E+06
C:/temp/Job-27.odb,Step-1,Increment      1: Step Time =    1.000,"P-27-1",          1109,       175.597,       26.9889,            0.,NA,NA,"",   1.11395E+06,   1.10515E+06,   1.10515E+06
C:/temp/Job-27.odb,Step-1,Increment      1: Step Time =    1.000,"P-27-1",          1110,       21.7710,       173.429,            0.,NA,NA,"",   1.43695E+06,   1.46454E+06,   1.46454E+06
C:/temp/Job-27.odb,Step-1,Increment      1: Step Time =    1.000,"P-27-1",          1111,       171.795,       170.399,            0.,NA,NA,"",   1.15962E+06,   1.14123E+06,   1.14123E+06
C:/temp/Job-27.odb,Step-1,Increment      1: Step Time =    1.000,"P-27-1",          1112,       28.6734,       32.0687,            0.,NA,NA,"",   1.40924E+06,   1.40101E+06,   1.40101E+06
C:/temp/Job-27.odb,Step-1,Increment      1: Step Time =    1.000,"P-27-1",          1113,       123.701,       173.400,            0.,NA,NA,"",   1.30247E+06,   1.33674E+06,   1.33674E+06
C:/temp/Job-27.odb,Step-1,Increment      1: Step Time =    1.000,"P-27-1",          1114,       13.6865,       148.722,            0.,NA,NA,"",   915.359E+03,    979.64E+03,    979.64E+03
C:/temp/Job-27.odb,Step-1,Increment      1: Step Time =    1.000,"P-27-1",          1115,       31.7023,       174.091,            0.,NA,NA,"",   1.50509E+06,   1.48793E+06,   1.48793E+06
C:/temp/Job-27.odb,Step-1,Increment      1: Step Time =    1.000,"P-27-1",          1116,       94.3562,       27.1477,            0.,NA,NA,"",   1.36515E+06,   1.43256E+06,   1.43256E+06
C:/temp/Job-27.odb,Step-1,Increment      1: Step Time =    1.000,"P-27-1",          1117,       126.993,       25.8882,            0.,NA,NA,"",   1.29308E+06,   1.30878E+06,   1.30878E+06
C:/temp/Job-27.odb,Step-1,Increment      1: Step Time =    1.000,"P-27-1",          1118,       177.013,       64.7709,            0.,NA,NA,"",   1.15495E+06,   1.16854E+06,   1.16854E+06
C:/temp/Job-27.odb,Step-1,Increment      1: Step Time =    1.000,"P-27-1",          1119,       92.0672,       173.014,            0.,NA,NA,"",   1.38310E+06,   1.44148E+06,   1.44148E+06
C:/temp/Job-27.odb,Step-1,Increment      1: Step Time =    1.000,"P-27-1",          1120,       64.3602,       22.8644,            0.,NA,NA,"",   1.54171E+06,   1.48857E+06,   1.48857E+06
C:/temp/Job-27.odb,Step-1,Increment      1: Step Time =    1.000,"P-27-1",          1121,       175.060,       74.1503,            0.,NA,NA,"",   1.08547E+06,   1.09944E+06,   1.09944E+06
C:/temp/Job-27.odb,Step-1,Increment      1: Step Time =    1.000,"P-27-1",          1122,       117.121,       27.0461,            0.,NA,NA,"",   1.28297E+06,   1.34844E+06,   1.34844E+06
C:/temp/Job-27.odb,Step-1,Increment      1: Step Time =    1.000,"P-27-1",          1123,       173.011,       87.3960,            0.,NA,NA,"",   789.539E+03,   848.967E+03,   848.967E+03
C:/temp/Job-27.odb,Step-1,Increment      1: Step Time =    1.000,"P-27-1",          1124,       24.9379,       104.801,            0.,NA,NA,"",   185.733E+03,   209.134E+03,   209.134E+03
C:/temp/Job-27.odb,Step-1,Increment      1: Step Time =    1.000,"P-27-1",          1125,       139.442,       44.5828,            0.,NA,NA,"",   1.68106E+06,   1.59917E+06,   1.59917E+06
C:/temp/Job-27.odb,Step-1,Increment      1: Step Time =    1.000,"P-27-1",          1126,       151.242,       136.409,            0.,NA,NA,"",   1.64755E+06,   1.38837E+06,   1.38837E+06
C:/temp/Job-27.odb,Step-1,Increment      1: Step Time =    1.000,"P-27-1",          1127,       74.7026,       27.7421,            0.,NA,NA,"",   1.56748E+06,   1.53544E+06,   1.53544E+06
C:/temp/Job-27.odb,Step-1,Increment      1: Step Time =    1.000,"P-27-1",          1128,       27.3656,       92.5873,            0.,NA,NA,"",   201.750E+03,   227.868E+03,   227.868E+03
C:/temp/Job-27.odb,Step-1,Increment      1: Step Time =    1.000,"P-27-1",          1129,       28.8064,       115.730,            0.,NA,NA,"",   328.905E+03,   345.859E+03,   345.859E+03
C:/temp/Job-27.odb,Step-1,Increment      1: Step Time =    1.000,"P-27-1",          1130,       65.4228,       46.5648,            0.,NA,NA,"",   1.71813E+06,   1.61032E+06,   1.61032E+06
C:/temp/Job-27.odb,Step-1,Increment      1: Step Time =    1.000,"P-27-1",          1131,       25.4332,       135.160,            0.,NA,NA,"",   736.208E+03,   752.398E+03,   752.398E+03
C:/temp/Job-27.odb,Step-1,Increment      1: Step Time =    1.000,"P-27-1",          1132,       163.935,       73.0753,            0.,NA,NA,"",   1.26756E+06,   1.11718E+06,   1.11718E+06
C:/temp/Job-27.odb,Step-1,Increment      1: Step Time =    1.000,"P-27-1",          1133,       24.2094,       125.316,            0.,NA,NA,"",   513.289E+03,   541.104E+03,   541.104E+03
C:/temp/Job-27.odb,Step-1,Increment      1: Step Time =    1.000,"P-27-1",          1134,       156.656,       135.755,            0.,NA,NA,"",   1.54318E+06,   1.31447E+06,   1.31447E+06
C:/temp/Job-27.odb,Step-1,Increment      1: Step Time =    1.000,"P-27-1",          1135,       82.3247,       28.0004,            0.,NA,NA,"",   1.51297E+06,   1.52074E+06,   1.52074E+06
C:/temp/Job-27.odb,Step-1,Increment      1: Step Time =    1.000,"P-27-1",          1136,       35.5085,       99.3466,            0.,NA,NA,"",   92.9649E+03,   95.9987E+03,   95.9987E+03
C:/temp/Job-27.odb,Step-1,Increment      1: Step Time =    1.000,"P-27-1",          1137,       136.680,       24.0330,            0.,NA,NA,"",   1.27482E+06,   1.25818E+06,   1.25818E+06
C:/temp/Job-27.odb,Step-1,Increment      1: Step Time =    1.000,"P-27-1",          1138,       37.0763,       73.7090,            0.,NA,NA,"",   640.037E+03,   585.713E+03,   585.713E+03
C:/temp/Job-27.odb,Step-1,Increment      1: Step Time =    1.000,"P-27-1",          1139,       156.754,       124.674,            0.,NA,NA,"",   1.28840E+06,   1.02626E+06,   1.02626E+06
C:/temp/Job-27.odb,Step-1,Increment      1: Step Time =    1.000,"P-27-1",          1140,       175.935,       55.8956,            0.,NA,NA,"",   1.20877E+06,   1.19842E+06,   1.19842E+06
C:/temp/Job-27.odb,Step-1,Increment      1: Step Time =    1.000,"P-27-1",          1141,       175.201,       159.239,            0.,NA,NA,"",   1.18055E+06,   1.16780E+06,   1.16780E+06
C:/temp/Job-27.odb,Step-1,Increment      1: Step Time =    1.000,"P-27-1",          1142,       23.8000,       42.9256,            0.,NA,NA,"",   1.18362E+06,   1.20056E+06,   1.20056E+06
C:/temp/Job-27.odb,Step-1,Increment      1: Step Time =    1.000,"P-27-1",          1143,       54.9585,       24.9106,            0.,NA,NA,"",   1.57320E+06,   1.50932E+06,   1.50932E+06
C:/temp/Job-27.odb,Step-1,Increment      1: Step Time =    1.000,"P-27-1",          1144,       41.4285,       174.266,            0.,NA,NA,"",   1.54455E+06,   1.49766E+06,   1.49766E+06
C:/temp/Job-27.odb,Step-1,Increment      1: Step Time =    1.000,"P-27-1",          1145,       167.645,       67.7742,            0.,NA,NA,"",   1.29803E+06,   1.19458E+06,   1.19458E+06
C:/temp/Job-27.odb,Step-1,Increment      1: Step Time =    1.000,"P-27-1",          1146,       151.512,       122.590,            0.,NA,NA,"",   1.25358E+06,   909.592E+03,   909.592E+03
C:/temp/Job-27.odb,Step-1,Increment      1: Step Time =    1.000,"P-27-1",          1147,       157.399,       23.5303,            0.,NA,NA,"",   1.20774E+06,   1.17395E+06,   1.17395E+06
C:/temp/Job-27.odb,Step-1,Increment      1: Step Time =    1.000,"P-27-1",          1148,       9.11303,       55.6155,            0.,NA,NA,"",   796.067E+03,   872.241E+03,   872.241E+03
C:/temp/Job-27.odb,Step-1,Increment      1: Step Time =    1.000,"P-27-1",          1149,       24.9971,       143.271,            0.,NA,NA,"",   908.995E+03,   921.593E+03,   921.593E+03
C:/temp/Job-27.odb,Step-1,Increment      1: Step Time =    1.000,"P-27-1",          1150,       148.333,       26.3636,            0.,NA,NA,"",   1.30420E+06,   1.26017E+06,   1.26017E+06
C:/temp/Job-27.odb,Step-1,Increment      1: Step Time =    1.000,"P-27-1",          1151,       152.139,       145.665,            0.,NA,NA,"",   1.64161E+06,   1.45936E+06,   1.45936E+06
C:/temp/Job-27.odb,Step-1,Increment      1: Step Time =    1.000,"P-27-1",          1152,       161.662,       109.136,            0.,NA,NA,"",   635.991E+03,   552.537E+03,   552.537E+03
C:/temp/Job-27.odb,Step-1,Increment      1: Step Time =    1.000,"P-27-1",          1153,       27.6272,       58.1860,            0.,NA,NA,"",   909.263E+03,   908.278E+03,   908.278E+03
C:/temp/Job-27.odb,Step-1,Increment      1: Step Time =    1.000,"P-27-1",          1154,       171.936,       143.461,            0.,NA,NA,"",   1.28847E+06,   1.23722E+06,   1.23722E+06
C:/temp/Job-27.odb,Step-1,Increment      1: Step Time =    1.000,"P-27-1",          1155,       121.850,       148.666,            0.,NA,NA,"",   1.95891E+06,   2.04522E+06,   2.04522E+06
C:/temp/Job-27.odb,Step-1,Increment      1: Step Time =    1.000,"P-27-1",          1156,       58.1120,       158.600,            0.,NA,NA,"",   1.64699E+06,   1.53274E+06,   1.53274E+06
C:/temp/Job-27.odb,Step-1,Increment      1: Step Time =    1.000,"P-27-1",          1157,       50.4752,       179.954,            0.,NA,NA,"",   1.54578E+06,   1.50062E+06,   1.50062E+06
C:/temp/Job-27.odb,Step-1,Increment      1: Step Time =    1.000,"P-27-1",          1158,       18.8134,       51.7989,            0.,NA,NA,"",   949.674E+03,   992.574E+03,   992.574E+03
C:/temp/Job-27.odb,Step-1,Increment      1: Step Time =    1.000,"P-27-1",          1159,       130.037,       154.356,            0.,NA,NA,"",   1.75388E+06,   1.74916E+06,   1.74916E+06
C:/temp/Job-27.odb,Step-1,Increment      1: Step Time =    1.000,"P-27-1",          1160,       126.207,       160.020,            0.,NA,NA,"",   1.62419E+06,   1.65760E+06,   1.65760E+06
C:/temp/Job-27.odb,Step-1,Increment      1: Step Time =    1.000,"P-27-1",          1161,       176.449,       130.838,            0.,NA,NA,"",   1.13209E+06,   1.14568E+06,   1.14568E+06
C:/temp/Job-27.odb,Step-1,Increment      1: Step Time =    1.000,"P-27-1",          1162,       27.0653,       84.6517,            0.,NA,NA,"",   323.143E+03,   347.851E+03,   347.851E+03
C:/temp/Job-27.odb,Step-1,Increment      1: Step Time =    1.000,"P-27-1",          1163,       23.6203,       72.7473,            0.,NA,NA,"",   554.691E+03,   583.637E+03,   583.637E+03
C:/temp/Job-27.odb,Step-1,Increment      1: Step Time =    1.000,"P-27-1",          1164,       27.4908,       168.758,            0.,NA,NA,"",   1.41468E+06,   1.41413E+06,   1.41413E+06
C:/temp/Job-27.odb,Step-1,Increment      1: Step Time =    1.000,"P-27-1",          1165,       172.984,       29.2011,            0.,NA,NA,"",   1.14967E+06,   1.13351E+06,   1.13351E+06
C:/temp/Job-27.odb,Step-1,Increment      1: Step Time =    1.000,"P-27-1",          1166,       30.8600,       29.7726,            0.,NA,NA,"",   1.45318E+06,   1.43640E+06,   1.43640E+06
C:/temp/Job-27.odb,Step-1,Increment      1: Step Time =    1.000,"P-27-1",          1167,       170.311,       173.767,            0.,NA,NA,"",   1.15139E+06,   1.13217E+06,   1.13217E+06
C:/temp/Job-27.odb,Step-1,Increment      1: Step Time =    1.000,"P-27-1",          1168,       69.3771,       174.301,            0.,NA,NA,"",   1.56338E+06,   1.51311E+06,   1.51311E+06
C:/temp/Job-27.odb,Step-1,Increment      1: Step Time =    1.000,"P-27-1",          1169,       161.753,       127.531,            0.,NA,NA,"",   1.30538E+06,   1.11810E+06,   1.11810E+06
C:/temp/Job-27.odb,Step-1,Increment      1: Step Time =    1.000,"P-27-1",          1170,       104.366,       164.085,            0.,NA,NA,"",   1.52528E+06,   1.66064E+06,   1.66064E+06
C:/temp/Job-27.odb,Step-1,Increment      1: Step Time =    1.000,"P-27-1",          1171,       116.808,       163.881,            0.,NA,NA,"",   1.50996E+06,   1.60818E+06,   1.60818E+06
C:/temp/Job-27.odb,Step-1,Increment      1: Step Time =    1.000,"P-27-1",          1172,       156.735,       149.949,            0.,NA,NA,"",   1.54690E+06,   1.40489E+06,   1.40489E+06
C:/temp/Job-27.odb,Step-1,Increment      1: Step Time =    1.000,"P-27-1",          1173,       85.2030,       160.583,            0.,NA,NA,"",   1.73317E+06,   1.78636E+06,   1.78636E+06
C:/temp/Job-27.odb,Step-1,Increment      1: Step Time =    1.000,"P-27-1",          1174,       77.2011,       31.4845,            0.,NA,NA,"",   1.62068E+06,   1.59978E+06,   1.59978E+06
C:/temp/Job-27.odb,Step-1,Increment      1: Step Time =    1.000,"P-27-1",          1175,       78.0637,       167.874,            0.,NA,NA,"",   1.62959E+06,   1.61528E+06,   1.61528E+06
C:/temp/Job-27.odb,Step-1,Increment      1: Step Time =    1.000,"P-27-1",          1176,       109.968,       170.361,            0.,NA,NA,"",   1.32940E+06,   1.42796E+06,   1.42796E+06
C:/temp/Job-27.odb,Step-1,Increment      1: Step Time =    1.000,"P-27-1",          1177,       160.061,       138.886,            0.,NA,NA,"",   1.50450E+06,   1.32275E+06,   1.32275E+06
C:/temp/Job-27.odb,Step-1,Increment      1: Step Time =    1.000,"P-27-1",          1178,       116.211,       170.882,            0.,NA,NA,"",   1.32770E+06,   1.40207E+06,   1.40207E+06
C:/temp/Job-27.odb,Step-1,Increment      1: Step Time =    1.000,"P-27-1",          1179,       151.360,       180.223,            0.,NA,NA,"",   1.18206E+06,   1.15352E+06,   1.15352E+06
C:/temp/Job-27.odb,Step-1,Increment      1: Step Time =    1.000,"P-27-1",          1180,       60.0195,       171.330,            0.,NA,NA,"",   1.60796E+06,   1.53129E+06,   1.53129E+06
C:/temp/Job-27.odb,Step-1,Increment      1: Step Time =    1.000,"P-27-1",          1181,       141.151,       170.055,            0.,NA,NA,"",   1.39800E+06,   1.35604E+06,   1.35604E+06
C:/temp/Job-27.odb,Step-1,Increment      1: Step Time =    1.000,"P-27-1",          1182,       172.247,       84.1787,            0.,NA,NA,"",   876.635E+03,   908.202E+03,   908.202E+03
C:/temp/Job-27.odb,Step-1,Increment      1: Step Time =    1.000,"P-27-1",          1183,       119.062,       33.0995,            0.,NA,NA,"",   1.43783E+06,   1.51192E+06,   1.51192E+06
C:/temp/Job-27.odb,Step-1,Increment      1: Step Time =    1.000,"P-27-1",          1184,       133.017,       30.7718,            0.,NA,NA,"",   1.41320E+06,   1.40461E+06,   1.40461E+06
C:/temp/Job-27.odb,Step-1,Increment      1: Step Time =    1.000,"P-27-1",          1185,       34.6009,       67.7130,            0.,NA,NA,"",   773.609E+03,   735.517E+03,   735.517E+03
C:/temp/Job-27.odb,Step-1,Increment      1: Step Time =    1.000,"P-27-1",          1186,       30.5984,       59.7370,            0.,NA,NA,"",   915.219E+03,    898.52E+03,    898.52E+03
C:/temp/Job-27.odb,Step-1,Increment      1: Step Time =    1.000,"P-27-1",          1187,       28.8536,       107.996,            0.,NA,NA,"",   198.544E+03,   221.732E+03,   221.732E+03
C:/temp/Job-27.odb,Step-1,Increment      1: Step Time =    1.000,"P-27-1",          1188,       168.247,       140.134,            0.,NA,NA,"",   1.35131E+06,    1.2618E+06,    1.2618E+06
C:/temp/Job-27.odb,Step-1,Increment      1: Step Time =    1.000,"P-27-1",          1189,       89.2242,       33.0696,            0.,NA,NA,"",   1.55478E+06,   1.61897E+06,   1.61897E+06
C:/temp/Job-27.odb,Step-1,Increment      1: Step Time =    1.000,"P-27-1",          1190,       162.558,       135.141,            0.,NA,NA,"",   1.42287E+06,   1.25586E+06,   1.25586E+06
C:/temp/Job-27.odb,Step-1,Increment      1: Step Time =    1.000,"P-27-1",          1191,       134.079,       43.6964,            0.,NA,NA,"",   1.69606E+06,   1.65709E+06,   1.65709E+06
C:/temp/Job-27.odb,Step-1,Increment      1: Step Time =    1.000,"P-27-1",          1192,       178.868,       153.591,            0.,NA,NA,"",   1.14917E+06,   1.15548E+06,   1.15548E+06
C:/temp/Job-27.odb,Step-1,Increment      1: Step Time =    1.000,"P-27-1",          1193,       28.0727,       100.376,            0.,NA,NA,"",   146.870E+03,   162.930E+03,   162.930E+03
C:/temp/Job-27.odb,Step-1,Increment      1: Step Time =    1.000,"P-27-1",          1194,       57.1566,       162.037,            0.,NA,NA,"",   1.64051E+06,   1.53437E+06,   1.53437E+06
C:/temp/Job-27.odb,Step-1,Increment      1: Step Time =    1.000,"P-27-1",          1195,       96.6327,       171.387,            0.,NA,NA,"",   1.37655E+06,   1.45922E+06,   1.45922E+06
C:/temp/Job-27.odb,Step-1,Increment      1: Step Time =    1.000,"P-27-1",          1196,       92.9145,       175.728,            0.,NA,NA,"",   1.32272E+06,   1.37755E+06,   1.37755E+06
C:/temp/Job-27.odb,Step-1,Increment      1: Step Time =    1.000,"P-27-1",          1197,       127.516,       172.365,            0.,NA,NA,"",   1.33795E+06,   1.35470E+06,   1.35470E+06
C:/temp/Job-27.odb,Step-1,Increment      1: Step Time =    1.000,"P-27-1",          1198,       39.7037,       102.581,            0.,NA,NA,"",   106.075E+03,   26.4381E+03,   26.4381E+03
C:/temp/Job-27.odb,Step-1,Increment      1: Step Time =    1.000,"P-27-1",          1199,       172.650,       112.761,            0.,NA,NA,"",   801.491E+03,   853.571E+03,   853.571E+03
C:/temp/Job-27.odb,Step-1,Increment      1: Step Time =    1.000,"P-27-1",          1200,       138.051,       161.521,            0.,NA,NA,"",   1.58724E+06,   1.53420E+06,   1.53420E+06
C:/temp/Job-27.odb,Step-1,Increment      1: Step Time =    1.000,"P-27-1",          1201,       38.2562,       56.8196,            0.,NA,NA,"",   1.09762E+06,   1.02727E+06,   1.02727E+06
C:/temp/Job-27.odb,Step-1,Increment      1: Step Time =    1.000,"P-27-1",          1202,       170.334,       164.346,            0.,NA,NA,"",   1.21622E+06,   1.18591E+06,   1.18591E+06
C:/temp/Job-27.odb,Step-1,Increment      1: Step Time =    1.000,"P-27-1",          1203,       174.424,       154.744,            0.,NA,NA,"",   1.22144E+06,   1.19859E+06,   1.19859E+06
C:/temp/Job-27.odb,Step-1,Increment      1: Step Time =    1.000,"P-27-1",          1204,       24.0046,       47.6770,            0.,NA,NA,"",   1.09559E+06,   1.11053E+06,   1.11053E+06
C:/temp/Job-27.odb,Step-1,Increment      1: Step Time =    1.000,"P-27-1",          1205,       30.6618,       34.6142,            0.,NA,NA,"",   1.39256E+06,   1.37438E+06,   1.37438E+06
C:/temp/Job-27.odb,Step-1,Increment      1: Step Time =    1.000,"P-27-1",          1206,       172.201,       68.0620,            0.,NA,NA,"",   1.21305E+06,   1.17141E+06,   1.17141E+06
C:/temp/Job-27.odb,Step-1,Increment      1: Step Time =    1.000,"P-27-1",          1207,       177.717,       52.3379,            0.,NA,NA,"",   1.17789E+06,   1.18019E+06,   1.18019E+06
C:/temp/Job-27.odb,Step-1,Increment      1: Step Time =    1.000,"P-27-1",          1208,       171.433,       58.5527,            0.,NA,NA,"",   1.28933E+06,   1.23432E+06,   1.23432E+06
C:/temp/Job-27.odb,Step-1,Increment      1: Step Time =    1.000,"P-27-1",          1209,       36.9669,       169.120,            0.,NA,NA,"",   1.48743E+06,   1.44445E+06,   1.44445E+06
C:/temp/Job-27.odb,Step-1,Increment      1: Step Time =    1.000,"P-27-1",          1210,       46.1334,       174.456,            0.,NA,NA,"",   1.55645E+06,   1.50113E+06,   1.50113E+06
C:/temp/Job-27.odb,Step-1,Increment      1: Step Time =    1.000,"P-27-1",          1211,       41.2315,       148.275,            0.,NA,NA,"",   1.26777E+06,   1.18093E+06,   1.18093E+06
C:/temp/Job-27.odb,Step-1,Increment      1: Step Time =    1.000,"P-27-1",          1212,       44.8616,       22.8527,            0.,NA,NA,"",   1.55800E+06,   1.51232E+06,   1.51232E+06
C:/temp/Job-27.odb,Step-1,Increment      1: Step Time =    1.000,"P-27-1",          1213,       59.0013,       28.8587,            0.,NA,NA,"",   1.61438E+06,   1.53627E+06,   1.53627E+06
C:/temp/Job-27.odb,Step-1,Increment      1: Step Time =    1.000,"P-27-1",          1214,       168.324,       72.1872,            0.,NA,NA,"",   1.21735E+06,   1.13256E+06,   1.13256E+06
C:/temp/Job-27.odb,Step-1,Increment      1: Step Time =    1.000,"P-27-1",          1215,       67.0598,       32.0729,            0.,NA,NA,"",   1.65663E+06,   1.58775E+06,   1.58775E+06
C:/temp/Job-27.odb,Step-1,Increment      1: Step Time =    1.000,"P-27-1",          1216,       149.357,       45.1468,            0.,NA,NA,"",   1.60997E+06,   1.48474E+06,   1.48474E+06
C:/temp/Job-27.odb,Step-1,Increment      1: Step Time =    1.000,"P-27-1",          1217,       153.012,       22.7618,            0.,NA,NA,"",   1.22224E+06,   1.18732E+06,   1.18732E+06
C:/temp/Job-27.odb,Step-1,Increment      1: Step Time =    1.000,"P-27-1",          1218,       165.564,       29.5925,            0.,NA,NA,"",   1.22238E+06,   1.18696E+06,   1.18696E+06
C:/temp/Job-27.odb,Step-1,Increment      1: Step Time =    1.000,"P-27-1",          1219,       27.6974,       123.046,            0.,NA,NA,"",   487.453E+03,   502.348E+03,   502.348E+03
C:/temp/Job-27.odb,Step-1,Increment      1: Step Time =    1.000,"P-27-1",          1220,       160.821,       59.9984,            0.,NA,NA,"",   1.49261E+06,   1.32680E+06,   1.32680E+06
C:/temp/Job-27.odb,Step-1,Increment      1: Step Time =    1.000,"P-27-1",          1221,       28.9063,       139.836,            0.,NA,NA,"",   884.152E+03,   876.139E+03,   876.139E+03
C:/temp/Job-27.odb,Step-1,Increment      1: Step Time =    1.000,"P-27-1",          1222,       48.8306,       157.023,            0.,NA,NA,"",   1.51735E+06,   1.41104E+06,   1.41104E+06
C:/temp/Job-27.odb,Step-1,Increment      1: Step Time =    1.000,"P-27-1",          1223,       30.7061,       132.698,            0.,NA,NA,"",   737.918E+03,   725.746E+03,   725.746E+03
C:/temp/Job-27.odb,Step-1,Increment      1: Step Time =    1.000,"P-27-1",          1224,       48.9865,       56.8778,            0.,NA,NA,"",   1.28376E+06,   1.14922E+06,   1.14922E+06
C:/temp/Job-27.odb,Step-1,Increment      1: Step Time =    1.000,"P-27-1",          1225,       131.858,       25.2182,            0.,NA,NA,"",   1.29083E+06,   1.28855E+06,   1.28855E+06
C:/temp/Job-27.odb,Step-1,Increment      1: Step Time =    1.000,"P-27-1",          1226,       143.431,       26.4227,            0.,NA,NA,"",   1.31758E+06,   1.27993E+06,   1.27993E+06
C:/temp/Job-27.odb,Step-1,Increment      1: Step Time =    1.000,"P-27-1",          1227,       26.7503,       155.065,            0.,NA,NA,"",   1.18312E+06,   1.18254E+06,   1.18254E+06
C:/temp/Job-27.odb,Step-1,Increment      1: Step Time =    1.000,"P-27-1",          1228,       133.540,       49.9656,            0.,NA,NA,"",   1.80636E+06,   1.75368E+06,   1.75368E+06
C:/temp/Job-27.odb,Step-1,Increment      1: Step Time =    1.000,"P-27-1",          1229,       34.6669,       62.9541,            0.,NA,NA,"",   896.641E+03,   851.944E+03,   851.944E+03
C:/temp/Job-27.odb,Step-1,Increment      1: Step Time =    1.000,"P-27-1",          1230,       164.812,       105.471,            0.,NA,NA,"",   512.520E+03,   512.269E+03,   512.269E+03
C:/temp/Job-27.odb,Step-1,Increment      1: Step Time =    1.000,"P-27-1",          1231,       151.120,       157.896,            0.,NA,NA,"",   1.54837E+06,   1.43635E+06,   1.43635E+06
C:/temp/Job-27.odb,Step-1,Increment      1: Step Time =    1.000,"P-27-1",          1232,       60.4514,       48.6752,            0.,NA,NA,"",   1.63419E+06,   1.50583E+06,   1.50583E+06
C:/temp/Job-27.odb,Step-1,Increment      1: Step Time =    1.000,"P-27-1",          1233,       146.206,       121.071,            0.,NA,NA,"",   1.13511E+06,   463.957E+03,   463.957E+03
C:/temp/Job-27.odb,Step-1,Increment      1: Step Time =    1.000,"P-27-1",          1234,       77.5675,       158.728,            0.,NA,NA,"",   1.78037E+06,   1.76816E+06,   1.76816E+06
C:/temp/Job-27.odb,Step-1,Increment      1: Step Time =    1.000,"P-27-1",          1235,       123.373,       181.082,            0.,NA,NA,"",   1.12824E+06,   1.14851E+06,   1.14851E+06
C:/temp/Job-27.odb,Step-1,Increment      1: Step Time =    1.000,"P-27-1",          1236,       30.7679,       80.9991,            0.,NA,NA,"",   407.037E+03,   409.326E+03,   409.326E+03
C:/temp/Job-27.odb,Step-1,Increment      1: Step Time =    1.000,"P-27-1",          1237,       27.9607,       148.719,            0.,NA,NA,"",   1.06781E+06,   1.06155E+06,   1.06155E+06
C:/temp/Job-27.odb,Step-1,Increment      1: Step Time =    1.000,"P-27-1",          1238,       174.746,       108.627,            0.,NA,NA,"",   699.547E+03,   787.819E+03,   787.819E+03
C:/temp/Job-27.odb,Step-1,Increment      1: Step Time =    1.000,"P-27-1",          1239,       172.965,       41.5914,            0.,NA,NA,"",   1.22895E+06,   1.19963E+06,   1.19963E+06
C:/temp/Job-27.odb,Step-1,Increment      1: Step Time =    1.000,"P-27-1",          1240,       37.5118,       21.2198,            0.,NA,NA,"",   1.55690E+06,   1.52702E+06,   1.52702E+06
C:/temp/Job-27.odb,Step-1,Increment      1: Step Time =    1.000,"P-27-1",          1241,       161.855,       176.664,            0.,NA,NA,"",   1.18489E+06,   1.15514E+06,   1.15514E+06
C:/temp/Job-27.odb,Step-1,Increment      1: Step Time =    1.000,"P-27-1",          1242,       79.8466,       177.644,            0.,NA,NA,"",   1.42810E+06,   1.41905E+06,   1.41905E+06
C:/temp/Job-27.odb,Step-1,Increment      1: Step Time =    1.000,"P-27-1",          1243,       47.0055,       17.6541,            0.,NA,NA,"",   1.54572E+06,   1.51146E+06,   1.51146E+06
C:/temp/Job-27.odb,Step-1,Increment      1: Step Time =    1.000,"P-27-1",          1244,       119.620,       166.893,            0.,NA,NA,"",   1.43870E+06,   1.50936E+06,   1.50936E+06
C:/temp/Job-27.odb,Step-1,Increment      1: Step Time =    1.000,"P-27-1",          1245,       23.4026,       80.4674,            0.,NA,NA,"",   392.474E+03,   426.604E+03,   426.604E+03
C:/temp/Job-27.odb,Step-1,Increment      1: Step Time =    1.000,"P-27-1",          1246,       166.046,       112.101,            0.,NA,NA,"",   762.374E+03,   728.654E+03,   728.654E+03
C:/temp/Job-27.odb,Step-1,Increment      1: Step Time =    1.000,"P-27-1",          1247,       49.2819,       51.9441,            0.,NA,NA,"",   1.40043E+06,   1.27220E+06,   1.27220E+06
C:/temp/Job-27.odb,Step-1,Increment      1: Step Time =    1.000,"P-27-1",          1248,       151.701,       174.738,            0.,NA,NA,"",   1.27161E+06,   1.22867E+06,   1.22867E+06
C:/temp/Job-27.odb,Step-1,Increment      1: Step Time =    1.000,"P-27-1",          1249,       124.110,       36.5980,            0.,NA,NA,"",   1.53781E+06,   1.58480E+06,   1.58480E+06
C:/temp/Job-27.odb,Step-1,Increment      1: Step Time =    1.000,"P-27-1",          1250,       168.408,       102.311,            0.,NA,NA,"",   496.197E+03,   552.005E+03,   552.005E+03
C:/temp/Job-27.odb,Step-1,Increment      1: Step Time =    1.000,"P-27-1",          1251,       151.991,       26.9358,            0.,NA,NA,"",   1.29358E+06,   1.24645E+06,   1.24645E+06
C:/temp/Job-27.odb,Step-1,Increment      1: Step Time =    1.000,"P-27-1",          1252,       84.8642,       39.5601,            0.,NA,NA,"",   1.73668E+06,   1.78724E+06,   1.78724E+06
C:/temp/Job-27.odb,Step-1,Increment      1: Step Time =    1.000,"P-27-1",          1253,       32.6464,       120.038,            0.,NA,NA,"",   445.301E+03,   431.830E+03,   431.830E+03
C:/temp/Job-27.odb,Step-1,Increment      1: Step Time =    1.000,"P-27-1",          1254,       74.1075,       173.499,            0.,NA,NA,"",   1.55211E+06,   1.51721E+06,   1.51721E+06
C:/temp/Job-27.odb,Step-1,Increment      1: Step Time =    1.000,"P-27-1",          1255,       135.104,       36.9020,            0.,NA,NA,"",   1.55322E+06,   1.52411E+06,   1.52411E+06
C:/temp/Job-27.odb,Step-1,Increment      1: Step Time =    1.000,"P-27-1",          1256,       172.294,       125.985,            0.,NA,NA,"",   1.11873E+06,   1.09477E+06,   1.09477E+06
C:/temp/Job-27.odb,Step-1,Increment      1: Step Time =    1.000,"P-27-1",          1257,       27.6408,       76.1875,            0.,NA,NA,"",   505.899E+03,   517.937E+03,   517.937E+03
C:/temp/Job-27.odb,Step-1,Increment      1: Step Time =    1.000,"P-27-1",          1258,       35.5093,       130.904,            0.,NA,NA,"",   754.341E+03,   709.465E+03,   709.465E+03
C:/temp/Job-27.odb,Step-1,Increment      1: Step Time =    1.000,"P-27-1",          1259,       122.944,       163.726,            0.,NA,NA,"",   1.52890E+06,   1.58515E+06,   1.58515E+06
C:/temp/Job-27.odb,Step-1,Increment      1: Step Time =    1.000,"P-27-1",          1260,       167.626,       62.6041,            0.,NA,NA,"",   1.34689E+06,   1.24554E+06,   1.24554E+06
C:/temp/Job-27.odb,Step-1,Increment      1: Step Time =    1.000,"P-27-1",          1261,       170.617,       89.5108,            0.,NA,NA,"",   722.375E+03,   764.824E+03,   764.824E+03
C:/temp/Job-27.odb,Step-1,Increment      1: Step Time =    1.000,"P-27-1",          1262,       55.3630,       175.300,            0.,NA,NA,"",   1.57014E+06,   1.50583E+06,   1.50583E+06
C:/temp/Job-27.odb,Step-1,Increment      1: Step Time =    1.000,"P-27-1",          1263,       33.5877,       58.0882,            0.,NA,NA,"",   997.445E+03,   958.199E+03,   958.199E+03
C:/temp/Job-27.odb,Step-1,Increment      1: Step Time =    1.000,"P-27-1",          1264,       30.4865,       67.3422,            0.,NA,NA,"",   735.135E+03,   725.948E+03,   725.948E+03
C:/temp/Job-27.odb,Step-1,Increment      1: Step Time =    1.000,"P-27-1",          1265,       146.665,       174.666,            0.,NA,NA,"",   1.29136E+06,   1.25091E+06,   1.25091E+06
C:/temp/Job-27.odb,Step-1,Increment      1: Step Time =    1.000,"P-27-1",          1266,       140.028,       32.9706,            0.,NA,NA,"",   1.45721E+06,   1.41251E+06,   1.41251E+06
C:/temp/Job-27.odb,Step-1,Increment      1: Step Time =    1.000,"P-27-1",          1267,       171.093,       155.956,            0.,NA,NA,"",   1.27010E+06,   1.22796E+06,   1.22796E+06
C:/temp/Job-27.odb,Step-1,Increment      1: Step Time =    1.000,"P-27-1",          1268,       36.1841,       107.038,            0.,NA,NA,"",   162.423E+03,   148.357E+03,   148.357E+03
C:/temp/Job-27.odb,Step-1,Increment      1: Step Time =    1.000,"P-27-1",          1269,       29.1540,       47.8309,            0.,NA,NA,"",   1.16461E+06,   1.15037E+06,   1.15037E+06
C:/temp/Job-27.odb,Step-1,Increment      1: Step Time =    1.000,"P-27-1",          1270,       46.6824,       168.812,            0.,NA,NA,"",   1.55422E+06,   1.48240E+06,   1.48240E+06
C:/temp/Job-27.odb,Step-1,Increment      1: Step Time =    1.000,"P-27-1",          1271,       172.264,       52.0067,            0.,NA,NA,"",   1.27380E+06,   1.23187E+06,   1.23187E+06
C:/temp/Job-27.odb,Step-1,Increment      1: Step Time =    1.000,"P-27-1",          1272,       69.3500,       34.8459,            0.,NA,NA,"",   1.68609E+06,   1.62114E+06,   1.62114E+06
C:/temp/Job-27.odb,Step-1,Increment      1: Step Time =    1.000,"P-27-1",          1273,       55.7793,       41.9115,            0.,NA,NA,"",   1.61939E+06,   1.50372E+06,   1.50372E+06
C:/temp/Job-27.odb,Step-1,Increment      1: Step Time =    1.000,"P-27-1",          1274,       50.3869,       26.0353,            0.,NA,NA,"",   1.57025E+06,   1.50755E+06,   1.50755E+06
C:/temp/Job-27.odb,Step-1,Increment      1: Step Time =    1.000,"P-27-1",          1275,       59.9051,       163.951,            0.,NA,NA,"",   1.65406E+06,   1.55604E+06,   1.55604E+06
C:/temp/Job-27.odb,Step-1,Increment      1: Step Time =    1.000,"P-27-1",          1276,       155.232,       159.730,            0.,NA,NA,"",   1.47485E+06,   1.37539E+06,   1.37539E+06
C:/temp/Job-27.odb,Step-1,Increment      1: Step Time =    1.000,"P-27-1",          1277,       149.623,       162.710,            0.,NA,NA,"",   1.49181E+06,   1.40461E+06,   1.40461E+06
C:/temp/Job-27.odb,Step-1,Increment      1: Step Time =    1.000,"P-27-1",          1278,       53.1327,       163.755,            0.,NA,NA,"",   1.60180E+06,   1.50407E+06,   1.50407E+06
C:/temp/Job-27.odb,Step-1,Increment      1: Step Time =    1.000,"P-27-1",          1279,       89.4569,       170.310,            0.,NA,NA,"",   1.47586E+06,   1.52753E+06,   1.52753E+06
C:/temp/Job-27.odb,Step-1,Increment      1: Step Time =    1.000,"P-27-1",          1280,       172.135,       150.516,            0.,NA,NA,"",   1.27958E+06,   1.23590E+06,   1.23590E+06
C:/temp/Job-27.odb,Step-1,Increment      1: Step Time =    1.000,"P-27-1",          1281,       24.0176,       52.4405,            0.,NA,NA,"",   995.308E+03,   1.01151E+06,   1.01151E+06
C:/temp/Job-27.odb,Step-1,Increment      1: Step Time =    1.000,"P-27-1",          1282,       78.8005,       36.1251,            0.,NA,NA,"",   1.68984E+06,   1.68255E+06,   1.68255E+06
C:/temp/Job-27.odb,Step-1,Increment      1: Step Time =    1.000,"P-27-1",          1283,       165.132,       34.5399,            0.,NA,NA,"",   1.27715E+06,   1.22900E+06,   1.22900E+06
C:/temp/Job-27.odb,Step-1,Increment      1: Step Time =    1.000,"P-27-1",          1284,       88.3887,       165.613,            0.,NA,NA,"",   1.59681E+06,   1.65931E+06,   1.65931E+06
C:/temp/Job-27.odb,Step-1,Increment      1: Step Time =    1.000,"P-27-1",          1285,       145.451,       40.1696,            0.,NA,NA,"",   1.57518E+06,   1.48499E+06,   1.48499E+06
C:/temp/Job-27.odb,Step-1,Increment      1: Step Time =    1.000,"P-27-1",          1286,       126.372,       167.311,            0.,NA,NA,"",   1.45263E+06,   1.47947E+06,   1.47947E+06
C:/temp/Job-27.odb,Step-1,Increment      1: Step Time =    1.000,"P-27-1",          1287,       57.3148,       34.3750,            0.,NA,NA,"",   1.63241E+06,   1.53886E+06,   1.53886E+06
C:/temp/Job-27.odb,Step-1,Increment      1: Step Time =    1.000,"P-27-1",          1288,       33.8164,       151.181,            0.,NA,NA,"",   1.20685E+06,   1.16542E+06,   1.16542E+06
C:/temp/Job-27.odb,Step-1,Increment      1: Step Time =    1.000,"P-27-1",          1289,       36.9338,       164.863,            0.,NA,NA,"",   1.44947E+06,   1.40142E+06,   1.40142E+06
C:/temp/Job-27.odb,Step-1,Increment      1: Step Time =    1.000,"P-27-1",          1290,       27.3662,       164.673,            0.,NA,NA,"",   1.35630E+06,   1.35480E+06,   1.35480E+06
C:/temp/Job-27.odb,Step-1,Increment      1: Step Time =    1.000,"P-27-1",          1291,       34.2459,       36.6695,            0.,NA,NA,"",   1.40224E+06,   1.36259E+06,   1.36259E+06
C:/temp/Job-27.odb,Step-1,Increment      1: Step Time =    1.000,"P-27-1",          1292,       164.263,       163.486,            0.,NA,NA,"",   1.30797E+06,   1.25072E+06,   1.25072E+06
C:/temp/Job-27.odb,Step-1,Increment      1: Step Time =    1.000,"P-27-1",          1293,       174.401,       32.3451,            0.,NA,NA,"",   1.15086E+06,   1.13728E+06,   1.13728E+06
C:/temp/Job-27.odb,Step-1,Increment      1: Step Time =    1.000,"P-27-1",          1294,       37.0851,       50.6839,            0.,NA,NA,"",   1.21714E+06,   1.15626E+06,   1.15626E+06
C:/temp/Job-27.odb,Step-1,Increment      1: Step Time =    1.000,"P-27-1",          1295,       33.4908,       27.5359,            0.,NA,NA,"",   1.49609E+06,   1.46896E+06,   1.46896E+06
C:/temp/Job-27.odb,Step-1,Increment      1: Step Time =    1.000,"P-27-1",          1296,       167.048,       177.084,            0.,NA,NA,"",   1.14445E+06,   1.12411E+06,   1.12411E+06
C:/temp/Job-27.odb,Step-1,Increment      1: Step Time =    1.000,"P-27-1",          1297,       134.893,       162.633,            0.,NA,NA,"",   1.56544E+06,   1.53563E+06,   1.53563E+06
C:/temp/Job-27.odb,Step-1,Increment      1: Step Time =    1.000,"P-27-1",          1298,       122.162,       54.5095,            0.,NA,NA,"",   2.08051E+06,   2.16066E+06,   2.16066E+06
C:/temp/Job-27.odb,Step-1,Increment      1: Step Time =    1.000,"P-27-1",          1299,       59.9860,       168.287,            0.,NA,NA,"",   1.62704E+06,   1.54249E+06,   1.54249E+06
C:/temp/Job-27.odb,Step-1,Increment      1: Step Time =    1.000,"P-27-1",          1300,       157.127,       174.765,            0.,NA,NA,"",   1.24184E+06,   1.20109E+06,   1.20109E+06
C:/temp/Job-27.odb,Step-1,Increment      1: Step Time =    1.000,"P-27-1",          1301,       40.7117,       23.4823,            0.,NA,NA,"",   1.55185E+06,   1.51179E+06,   1.51179E+06
C:/temp/Job-27.odb,Step-1,Increment      1: Step Time =    1.000,"P-27-1",          1302,       169.070,       43.1522,            0.,NA,NA,"",   1.29362E+06,   1.24223E+06,   1.24223E+06
C:/temp/Job-27.odb,Step-1,Increment      1: Step Time =    1.000,"P-27-1",          1303,       59.1693,       53.1364,            0.,NA,NA,"",   1.54587E+06,   1.40394E+06,   1.40394E+06
C:/temp/Job-27.odb,Step-1,Increment      1: Step Time =    1.000,"P-27-1",          1304,       131.284,       163.083,            0.,NA,NA,"",   1.55443E+06,   1.55038E+06,   1.55038E+06
C:/temp/Job-27.odb,Step-1,Increment      1: Step Time =    1.000,"P-27-1",          1305,       38.8878,       153.517,            0.,NA,NA,"",   1.32542E+06,   1.25573E+06,   1.25573E+06
C:/temp/Job-27.odb,Step-1,Increment      1: Step Time =    1.000,"P-27-1",          1306,       164.362,       142.107,            0.,NA,NA,"",   1.42740E+06,   1.30225E+06,   1.30225E+06
C:/temp/Job-27.odb,Step-1,Increment      1: Step Time =    1.000,"P-27-1",          1307,       171.249,       133.333,            0.,NA,NA,"",   1.24056E+06,   1.18878E+06,   1.18878E+06
C:/temp/Job-27.odb,Step-1,Increment      1: Step Time =    1.000,"P-27-1",          1308,       42.9506,       98.0264,            0.,NA,NA,"",   133.366E+03,  -99.8211E+03,  -99.8211E+03
C:/temp/Job-27.odb,Step-1,Increment      1: Step Time =    1.000,"P-27-1",          1309,       160.376,       53.4937,            0.,NA,NA,"",   1.50800E+06,   1.36523E+06,   1.36523E+06
C:/temp/Job-27.odb,Step-1,Increment      1: Step Time =    1.000,"P-27-1",          1310,       30.3782,       159.898,            0.,NA,NA,"",   1.31062E+06,   1.28943E+06,   1.28943E+06
C:/temp/Job-27.odb,Step-1,Increment      1: Step Time =    1.000,"P-27-1",          1311,       164.533,       150.404,            0.,NA,NA,"",   1.41054E+06,   1.31335E+06,   1.31335E+06
C:/temp/Job-27.odb,Step-1,Increment      1: Step Time =    1.000,"P-27-1",          1312,       50.7662,       174.846,            0.,NA,NA,"",   1.56530E+06,   1.50394E+06,   1.50394E+06
C:/temp/Job-27.odb,Step-1,Increment      1: Step Time =    1.000,"P-27-1",          1313,       33.3968,       46.9681,            0.,NA,NA,"",   1.22959E+06,   1.19200E+06,   1.19200E+06
C:/temp/Job-27.odb,Step-1,Increment      1: Step Time =    1.000,"P-27-1",          1314,       47.4803,       162.882,            0.,NA,NA,"",   1.54200E+06,   1.45318E+06,   1.45318E+06
C:/temp/Job-27.odb,Step-1,Increment      1: Step Time =    1.000,"P-27-1",          1315,       165.699,       51.9206,            0.,NA,NA,"",   1.40659E+06,   1.30613E+06,   1.30613E+06
C:/temp/Job-27.odb,Step-1,Increment      1: Step Time =    1.000,"P-27-1",          1316,       46.9853,       31.4656,            0.,NA,NA,"",   1.56166E+06,   1.48755E+06,   1.48755E+06
C:/temp/Job-27.odb,Step-1,Increment      1: Step Time =    1.000,"P-27-1",          1317,       128.373,       43.2671,            0.,NA,NA,"",   1.70280E+06,   1.71646E+06,   1.71646E+06
C:/temp/Job-27.odb,Step-1,Increment      1: Step Time =    1.000,"P-27-1",          1318,       49.9718,       46.9910,            0.,NA,NA,"",   1.48855E+06,   1.36889E+06,   1.36889E+06
C:/temp/Job-27.odb,Step-1,Increment      1: Step Time =    1.000,"P-27-1",          1319,       36.3949,       158.555,            0.,NA,NA,"",   1.36286E+06,   1.31075E+06,   1.31075E+06
C:/temp/Job-27.odb,Step-1,Increment      1: Step Time =    1.000,"P-27-1",          1320,       47.5823,       100.923,            0.,NA,NA,"",   247.666E+03,  -262.265E+03,  -262.265E+03
C:/temp/Job-27.odb,Step-1,Increment      1: Step Time =    1.000,"P-27-1",          1321,       68.6179,       169.219,            0.,NA,NA,"",   1.63515E+06,   1.57229E+06,   1.57229E+06
C:/temp/Job-27.odb,Step-1,Increment      1: Step Time =    1.000,"P-27-1",          1322,       91.5183,       161.663,            0.,NA,NA,"",   1.67398E+06,   1.77230E+06,   1.77230E+06
C:/temp/Job-27.odb,Step-1,Increment      1: Step Time =    1.000,"P-27-1",          1323,       67.0966,       163.551,            0.,NA,NA,"",   1.69343E+06,   1.61290E+06,   1.61290E+06
C:/temp/Job-27.odb,Step-1,Increment      1: Step Time =    1.000,"P-27-1",          1324,       73.2567,       162.980,            0.,NA,NA,"",   1.71516E+06,   1.67070E+06,   1.67070E+06
C:/temp/Job-27.odb,Step-1,Increment      1: Step Time =    1.000,"P-27-1",          1325,       159.486,       160.865,            0.,NA,NA,"",   1.40050E+06,   1.31829E+06,   1.31829E+06
C:/temp/Job-27.odb,Step-1,Increment      1: Step Time =    1.000,"P-27-1",          1326,       34.0111,       33.1466,            0.,NA,NA,"",   1.44202E+06,   1.40799E+06,   1.40799E+06
C:/temp/Job-27.odb,Step-1,Increment      1: Step Time =    1.000,"P-27-1",          1327,       166.324,       131.622,            0.,NA,NA,"",   1.30792E+06,   1.18794E+06,   1.18794E+06
C:/temp/Job-27.odb,Step-1,Increment      1: Step Time =    1.000,"P-27-1",          1328,       165.420,       40.1027,            0.,NA,NA,"",   1.32447E+06,   1.26284E+06,   1.26284E+06
C:/temp/Job-27.odb,Step-1,Increment      1: Step Time =    1.000,"P-27-1",          1329,       41.3781,       162.036,            0.,NA,NA,"",   1.46529E+06,   1.39625E+06,   1.39625E+06
C:/temp/Job-27.odb,Step-1,Increment      1: Step Time =    1.000,"P-27-1",          1330,       172.261,       129.732,            0.,NA,NA,"",   1.18632E+06,   1.15174E+06,   1.15174E+06
C:/temp/Job-27.odb,Step-1,Increment      1: Step Time =    1.000,"P-27-1",          1331,       39.4132,       44.8750,            0.,NA,NA,"",   1.35774E+06,   1.28596E+06,   1.28596E+06
C:/temp/Job-27.odb,Step-1,Increment      1: Step Time =    1.000,"P-27-1",          1332,       36.2692,       114.752,            0.,NA,NA,"",   329.317E+03,   296.833E+03,   296.833E+03
C:/temp/Job-27.odb,Step-1,Increment      1: Step Time =    1.000,"P-27-1",          1333,       38.7241,       124.647,            0.,NA,NA,"",   612.142E+03,   542.212E+03,   542.212E+03
C:/temp/Job-27.odb,Step-1,Increment      1: Step Time =    1.000,"P-27-1",          1334,       160.573,       146.307,            0.,NA,NA,"",   1.50044E+06,   1.35957E+06,   1.35957E+06
C:/temp/Job-27.odb,Step-1,Increment      1: Step Time =    1.000,"P-27-1",          1335,       55.0093,       47.6205,            0.,NA,NA,"",   1.56425E+06,   1.43323E+06,   1.43323E+06
C:/temp/Job-27.odb,Step-1,Increment      1: Step Time =    1.000,"P-27-1",          1336,       164.934,       168.742,            0.,NA,NA,"",   1.24570E+06,   1.20451E+06,   1.20451E+06
C:/temp/Job-27.odb,Step-1,Increment      1: Step Time =    1.000,"P-27-1",          1337,       165.876,       157.954,            0.,NA,NA,"",   1.33448E+06,   1.26876E+06,   1.26876E+06
C:/temp/Job-27.odb,Step-1,Increment      1: Step Time =    1.000,"P-27-1",          1338,       161.958,       49.9036,            0.,NA,NA,"",   1.46434E+06,   1.34725E+06,   1.34725E+06
C:/temp/Job-27.odb,Step-1,Increment      1: Step Time =    1.000,"P-27-1",          1339,       34.1496,       42.4517,            0.,NA,NA,"",   1.31677E+06,   1.27628E+06,   1.27628E+06
C:/temp/Job-27.odb,Step-1,Increment      1: Step Time =    1.000,"P-27-1",          1340,       165.363,       98.3864,            0.,NA,NA,"",   444.115E+03,   474.445E+03,   474.445E+03
C:/temp/Job-27.odb,Step-1,Increment      1: Step Time =    1.000,"P-27-1",          1341,       63.9847,       35.2784,            0.,NA,NA,"",   1.67407E+06,   1.58802E+06,   1.58802E+06
C:/temp/Job-27.odb,Step-1,Increment      1: Step Time =    1.000,"P-27-1",          1342,       52.4108,       36.9031,            0.,NA,NA,"",   1.59678E+06,   1.49796E+06,   1.49796E+06
C:/temp/Job-27.odb,Step-1,Increment      1: Step Time =    1.000,"P-27-1",          1343,       153.551,       164.207,            0.,NA,NA,"",   1.42659E+06,   1.34685E+06,   1.34685E+06
C:/temp/Job-27.odb,Step-1,Increment      1: Step Time =    1.000,"P-27-1",          1344,       154.652,       37.5661,            0.,NA,NA,"",   1.44131E+06,   1.35586E+06,   1.35586E+06
C:/temp/Job-27.odb,Step-1,Increment      1: Step Time =    1.000,"P-27-1",          1345,       73.8291,       37.9982,            0.,NA,NA,"",   1.72396E+06,   1.68082E+06,   1.68082E+06
C:/temp/Job-27.odb,Step-1,Increment      1: Step Time =    1.000,"P-27-1",          1346,       149.420,       30.6065,            0.,NA,NA,"",   1.37007E+06,   1.31311E+06,   1.31311E+06
C:/temp/Job-27.odb,Step-1,Increment      1: Step Time =    1.000,"P-27-1",          1347,       152.043,       169.354,            0.,NA,NA,"",   1.35697E+06,   1.29688E+06,   1.29688E+06
C:/temp/Job-27.odb,Step-1,Increment      1: Step Time =    1.000,"P-27-1",          1348,       176.906,       121.938,            0.,NA,NA,"",   989.718E+03,   1.04591E+06,   1.04591E+06
C:/temp/Job-27.odb,Step-1,Increment      1: Step Time =    1.000,"P-27-1",          1349,       40.0001,       117.758,            0.,NA,NA,"",   432.202E+03,   356.303E+03,   356.303E+03
C:/temp/Job-27.odb,Step-1,Increment      1: Step Time =    1.000,"P-27-1",          1350,       47.8225,       109.306,            0.,NA,NA,"",   315.731E+03,  -271.072E+03,  -271.072E+03
C:/temp/Job-27.odb,Step-1,Increment      1: Step Time =    1.000,"P-27-1",          1351,       40.0335,       110.352,            0.,NA,NA,"",   240.287E+03,   100.902E+03,   100.902E+03
C:/temp/Job-27.odb,Step-1,Increment      1: Step Time =    1.000,"P-27-1",          1352,       46.9329,       36.3366,            0.,NA,NA,"",   1.54483E+06,   1.45805E+06,   1.45805E+06
C:/temp/Job-27.odb,Step-1,Increment      1: Step Time =    1.000,"P-27-1",          1353,       122.734,       48.7059,            0.,NA,NA,"",   1.87357E+06,   1.94749E+06,   1.94749E+06
C:/temp/Job-27.odb,Step-1,Increment      1: Step Time =    1.000,"P-27-1",          1354,       38.3119,       34.3312,            0.,NA,NA,"",   1.47279E+06,   1.41857E+06,   1.41857E+06
C:/temp/Job-27.odb,Step-1,Increment      1: Step Time =    1.000,"P-27-1",          1355,       158.805,       39.4170,            0.,NA,NA,"",   1.41957E+06,   1.33335E+06,   1.33335E+06
C:/temp/Job-27.odb,Step-1,Increment      1: Step Time =    1.000,"P-27-1",          1356,       157.876,       49.0131,            0.,NA,NA,"",   1.51849E+06,   1.38836E+06,   1.38836E+06
C:/temp/Job-27.odb,Step-1,Increment      1: Step Time =    1.000,"P-27-1",          1357,       156.566,       169.845,            0.,NA,NA,"",   1.31404E+06,   1.25813E+06,   1.25813E+06
C:/temp/Job-27.odb,Step-1,Increment      1: Step Time =    1.000,"P-27-1",          1358,       146.652,       35.0666,            0.,NA,NA,"",   1.47286E+06,   1.40317E+06,   1.40317E+06
C:/temp/Job-27.odb,Step-1,Increment      1: Step Time =    1.000,"P-27-1",          1359,       68.1044,       39.0650,            0.,NA,NA,"",   1.71605E+06,   1.63861E+06,   1.63861E+06
C:/temp/Job-27.odb,Step-1,Increment      1: Step Time =    1.000,"P-27-1",          1360,       154.157,       40.9486,            0.,NA,NA,"",   1.49362E+06,   1.39217E+06,   1.39217E+06
C:/temp/Job-27.odb,Step-1,Increment      1: Step Time =    1.000,"P-27-1",          1361,       42.3471,       35.5453,            0.,NA,NA,"",   1.50256E+06,   1.43203E+06,   1.43203E+06
C:/temp/Job-27.odb,Step-1,Increment      1: Step Time =    1.000,"P-27-1",          1362,       44.6741,       46.1937,            0.,NA,NA,"",   1.41533E+06,   1.31718E+06,   1.31718E+06
C:/temp/Job-27.odb,Step-1,Increment      1: Step Time =    1.000,"P-27-1",          1363,       42.4302,       27.8367,            0.,NA,NA,"",   1.54525E+06,   1.49021E+06,   1.49021E+06
C:/temp/Job-27.odb,Step-1,Increment      1: Step Time =    1.000,"P-27-1",          1364,       36.4710,       135.398,            0.,NA,NA,"",   871.892E+03,   818.351E+03,   818.351E+03
C:/temp/Job-27.odb,Step-1,Increment      1: Step Time =    1.000,"P-27-1",          1365,       174.278,       45.6193,            0.,NA,NA,"",   1.22017E+06,   1.19760E+06,   1.19760E+06
C:/temp/Job-27.odb,Step-1,Increment      1: Step Time =    1.000,"P-27-1",          1366,       47.2253,       117.757,            0.,NA,NA,"",   479.738E+03,   62.9926E+03,   62.9926E+03
C:/temp/Job-27.odb,Step-1,Increment      1: Step Time =    1.000,"P-27-1",          1367,       45.9080,       41.1517,            0.,NA,NA,"",   1.49603E+06,   1.40165E+06,   1.40165E+06
C:/temp/Job-27.odb,Step-1,Increment      1: Step Time =    1.000,"P-27-1",          1368,       40.6277,       129.463,            0.,NA,NA,"",   772.176E+03,   686.056E+03,   686.056E+03
C:/temp/Job-27.odb,Step-1,Increment      1: Step Time =    1.000,"P-27-1",          1369,       153.959,       44.9108,            0.,NA,NA,"",   1.54556E+06,   1.42308E+06,   1.42308E+06
C:/temp/Job-27.odb,Step-1,Increment      1: Step Time =    1.000,"P-27-1",          1370,       54.1800,       57.3349,            0.,NA,NA,"",   1.35967E+06,   1.20653E+06,   1.20653E+06
C:/temp/Job-27.odb,Step-1,Increment      1: Step Time =    1.000,"P-27-1",          1371,       35.3308,       139.461,            0.,NA,NA,"",   959.536E+03,   910.153E+03,   910.153E+03
C:/temp/Job-27.odb,Step-1,Increment      1: Step Time =    1.000,"P-27-1",          1372,       122.016,       42.6495,            0.,NA,NA,"",   1.69632E+06,   1.77089E+06,   1.77089E+06
C:/temp/Job-27.odb,Step-1,Increment      1: Step Time =    1.000,"P-27-1",          1373,       70.2480,       62.7306,            0.,NA,NA,"",   1.34556E+06,   1.28463E+06,   1.28463E+06
C:/temp/Job-27.odb,Step-1,Increment      1: Step Time =    1.000,"P-27-1",          1374,       73.1381,       55.2819,            0.,NA,NA,"",   1.75549E+06,   1.70377E+06,   1.70377E+06
C:/temp/Job-27.odb,Step-1,Increment      1: Step Time =    1.000,"P-27-1",          1375,       74.9922,       42.8818,            0.,NA,NA,"",   1.78162E+06,   1.74693E+06,   1.74693E+06
C:/temp/Job-27.odb,Step-1,Increment      1: Step Time =    1.000,"P-27-1",          1376,       51.0560,       121.654,            0.,NA,NA,"",   617.158E+03,   161.491E+03,   161.491E+03
C:/temp/Job-27.odb,Step-1,Increment      1: Step Time =    1.000,"P-27-1",          1377,       85.8426,       44.5904,            0.,NA,NA,"",   1.85625E+06,   1.92999E+06,   1.92999E+06
C:/temp/Job-27.odb,Step-1,Increment      1: Step Time =    1.000,"P-27-1",          1378,       112.731,       42.3809,            0.,NA,NA,"",   1.72305E+06,   1.86126E+06,   1.86126E+06
C:/temp/Job-27.odb,Step-1,Increment      1: Step Time =    1.000,"P-27-1",          1379,       101.451,       41.9679,            0.,NA,NA,"",   1.77750E+06,   1.93336E+06,   1.93336E+06
C:/temp/Job-27.odb,Step-1,Increment      1: Step Time =    1.000,"P-27-1",          1380,       76.3493,       48.1227,            0.,NA,NA,"",   1.84571E+06,   1.82533E+06,   1.82533E+06
C:/temp/Job-27.odb,Step-1,Increment      1: Step Time =    1.000,"P-27-1",          1381,       36.5769,       146.175,            0.,NA,NA,"",   1.14491E+06,   1.08650E+06,   1.08650E+06
C:/temp/Job-27.odb,Step-1,Increment      1: Step Time =    1.000,"P-27-1",          1382,       77.7531,       53.6305,            0.,NA,NA,"",   1.88569E+06,   1.88929E+06,   1.88929E+06
C:/temp/Job-27.odb,Step-1,Increment      1: Step Time =    1.000,"P-27-1",          1383,       112.665,       35.7256,            0.,NA,NA,"",   1.49390E+06,   1.60943E+06,   1.60943E+06
C:/temp/Job-27.odb,Step-1,Increment      1: Step Time =    1.000,"P-27-1",          1384,       101.531,       36.3429,            0.,NA,NA,"",   1.54444E+06,   1.67544E+06,   1.67544E+06
C:/temp/Job-27.odb,Step-1,Increment      1: Step Time =    1.000,"P-27-1",          1385,       95.6470,       37.2541,            0.,NA,NA,"",   1.61751E+06,   1.73373E+06,   1.73373E+06
C:/temp/Job-27.odb,Step-1,Increment      1: Step Time =    1.000,"P-27-1",          1386,       116.721,       38.5878,            0.,NA,NA,"",   1.58670E+06,   1.69256E+06,   1.69256E+06
C:/temp/Job-27.odb,Step-1,Increment      1: Step Time =    1.000,"P-27-1",          1387,       87.1878,       49.5662,            0.,NA,NA,"",   2.04568E+06,   2.14573E+06,   2.14573E+06
C:/temp/Job-27.odb,Step-1,Increment      1: Step Time =    1.000,"P-27-1",          1388,       112.457,       53.3380,            0.,NA,NA,"",   2.41779E+06,   2.56969E+06,   2.56969E+06
C:/temp/Job-27.odb,Step-1,Increment      1: Step Time =    1.000,"P-27-1",          1389,       5.18434,       5.18164,            0.,NA,NA,"",   1.96631E+06,   2.04427E+06,   2.04427E+06
C:/temp/Job-27.odb,Step-1,Increment      1: Step Time =    1.000,"P-27-1",          1390,       106.062,       55.8275,            0.,NA,NA,"",   3.02196E+06,   3.15187E+06,   3.15187E+06
C:/temp/Job-27.odb,Step-1,Increment      1: Step Time =    1.000,"P-27-1",          1391,       100.591,       56.1441,            0.,NA,NA,"",   3.15986E+06,   3.26613E+06,   3.26613E+06
C:/temp/Job-27.odb,Step-1,Increment      1: Step Time =    1.000,"P-27-1",          1392,       95.4834,       56.0629,            0.,NA,NA,"",   2.97894E+06,   3.07589E+06,   3.07589E+06
C:/temp/Job-27.odb,Step-1,Increment      1: Step Time =    1.000,"P-27-1",          1393,       45.6871,       8.86191,            0.,NA,NA,"",   1.54259E+06,   1.53136E+06,   1.53136E+06
C:/temp/Job-27.odb,Step-1,Increment      1: Step Time =    1.000,"P-27-1",          1394,       149.648,       9.12373,            0.,NA,NA,"",   1.01622E+06,   1.00798E+06,   1.00798E+06
C:/temp/Job-27.odb,Step-1,Increment      1: Step Time =    1.000,"P-27-1",          1395,       190.850,       124.060,            0.,NA,NA,"",   924.134E+03,   1.06135E+06,   1.06135E+06
C:/temp/Job-27.odb,Step-1,Increment      1: Step Time =    1.000,"P-27-1",          1396,       190.162,       29.7475,            0.,NA,NA,"",   1.00669E+06,   1.02701E+06,   1.02701E+06
C:/temp/Job-27.odb,Step-1,Increment      1: Step Time =    1.000,"P-27-1",          1397,       185.041,       190.284,            0.,NA,NA,"",   1.00719E+06,   1.00891E+06,   1.00891E+06
C:/temp/Job-27.odb,Step-1,Increment      1: Step Time =    1.000,"P-27-1",          1398,       55.4570,       80.8149,            0.,NA,NA,"",   506.324E+03,  -181.073E+03,  -181.073E+03
C:/temp/Job-27.odb,Step-1,Increment      1: Step Time =    1.000,"P-27-1",          1399,       59.3029,       62.6366,            0.,NA,NA,"",   1.25217E+06,   1.09255E+06,   1.09255E+06
C:/temp/Job-27.odb,Step-1,Increment      1: Step Time =    1.000,"P-27-1",          1400,       53.9876,       117.135,            0.,NA,NA,"",   491.683E+03,  -378.092E+03,  -378.092E+03
C:/temp/Job-27.odb,Step-1,Increment      1: Step Time =    1.000,"P-27-1",          1401,       96.7712,       52.2569,            0.,NA,NA,"",   2.48307E+06,   2.63386E+06,   2.63386E+06
C:/temp/Job-27.odb,Step-1,Increment      1: Step Time =    1.000,"P-27-1",          1402,       100.751,       52.2939,            0.,NA,NA,"",   2.54129E+06,   2.70286E+06,   2.70286E+06
C:/temp/Job-27.odb,Step-1,Increment      1: Step Time =    1.000,"P-27-1",          1403,       104.477,       51.2577,            0.,NA,NA,"",   2.43031E+06,   2.60266E+06,   2.60266E+06
C:/temp/Job-27.odb,Step-1,Increment      1: Step Time =    1.000,"P-27-1",          1404,       149.451,       87.9470,            0.,NA,NA,"",   800.756E+03,  -590.078E+03,  -590.078E+03
C:/temp/Job-27.odb,Step-1,Increment      1: Step Time =    1.000,"P-27-1",          1405,       90.9864,       148.072,            0.,NA,NA,"",   2.30260E+06,   2.42725E+06,   2.42725E+06
C:/temp/Job-27.odb,Step-1,Increment      1: Step Time =    1.000,"P-27-1",          1406,       127.126,       138.476,            0.,NA,NA,"",   1.95936E+06,   1.98313E+06,   1.98313E+06
C:/temp/Job-27.odb,Step-1,Increment      1: Step Time =    1.000,"P-27-1",          1407,       9.60302,       154.005,            0.,NA,NA,"",   968.306E+03,   1.05338E+06,   1.05338E+06
C:/temp/Job-27.odb,Step-1,Increment      1: Step Time =    1.000,"P-27-1",          1408,       93.2753,       50.5480,            0.,NA,NA,"",   2.27135E+06,   2.41196E+06,   2.41196E+06
C:/temp/Job-27.odb,Step-1,Increment      1: Step Time =    1.000,"P-27-1",          1409,       145.031,       126.390,            0.,NA,NA,"",   1.34919E+06,   1.01229E+06,   1.01229E+06
C:/temp/Job-27.odb,Step-1,Increment      1: Step Time =    1.000,"P-27-1",          1410,       186.767,       28.8428,            0.,NA,NA,"",   1.02465E+06,   1.04158E+06,   1.04158E+06
C:/temp/Job-27.odb,Step-1,Increment      1: Step Time =    1.000,"P-27-1",          1411,       127.557,       55.6639,            0.,NA,NA,"",   1.93579E+06,   1.95164E+06,   1.95164E+06
C:/temp/Job-27.odb,Step-1,Increment      1: Step Time =    1.000,"P-27-1",          1412,       108.878,       52.9351,            0.,NA,NA,"",   2.51034E+06,   2.67814E+06,   2.67814E+06
C:/temp/Job-27.odb,Step-1,Increment      1: Step Time =    1.000,"P-27-1",          1413,       175.837,       181.988,            0.,NA,NA,"",   1.05626E+06,   1.05357E+06,   1.05357E+06
C:/temp/Job-27.odb,Step-1,Increment      1: Step Time =    1.000,"P-27-1",          1414,       164.940,       186.304,            0.,NA,NA,"",   1.06981E+06,   1.05960E+06,   1.05960E+06
C:/temp/Job-27.odb,Step-1,Increment      1: Step Time =    1.000,"P-27-1",          1415,       180.419,       33.7414,            0.,NA,NA,"",   1.08831E+06,   1.09500E+06,   1.09500E+06
C:/temp/Job-27.odb,Step-1,Increment      1: Step Time =    1.000,"P-27-1",          1416,       185.987,       128.181,            0.,NA,NA,"",   974.545E+03,   1.09293E+06,   1.09293E+06
C:/temp/Job-27.odb,Step-1,Increment      1: Step Time =    1.000,"P-27-1",          1417,       100.295,       49.1556,            0.,NA,NA,"",   2.19148E+06,   2.36151E+06,   2.36151E+06
C:/temp/Job-27.odb,Step-1,Increment      1: Step Time =    1.000,"P-27-1",          1418,       97.7030,       49.5433,            0.,NA,NA,"",   2.21393E+06,   2.37680E+06,   2.37680E+06
C:/temp/Job-27.odb,Step-1,Increment      1: Step Time =    1.000,"P-27-1",          1419,       95.6983,       48.2212,            0.,NA,NA,"",   2.12815E+06,   2.28062E+06,   2.28062E+06
C:/temp/Job-27.odb,Step-1,Increment      1: Step Time =    1.000,"P-27-1",          1420,       102.994,       46.7583,            0.,NA,NA,"",   2.04062E+06,   2.21114E+06,   2.21114E+06
C:/temp/Job-27.odb,Step-1,Increment      1: Step Time =    1.000,"P-27-1",          1421,       91.3768,       47.0646,            0.,NA,NA,"",   2.02712E+06,   2.15618E+06,   2.15618E+06
C:/temp/Job-27.odb,Step-1,Increment      1: Step Time =    1.000,"P-27-1",          1422,       108.044,       49.8682,            0.,NA,NA,"",   2.25197E+06,   2.42862E+06,   2.42862E+06
C:/temp/Job-27.odb,Step-1,Increment      1: Step Time =    1.000,"P-27-1",          1423,       107.074,       45.9604,            0.,NA,NA,"",   1.95599E+06,   2.12679E+06,   2.12679E+06
C:/temp/Job-27.odb,Step-1,Increment      1: Step Time =    1.000,"P-27-1",          1424,       149.916,       77.0243,            0.,NA,NA,"",   1.28013E+06,   918.271E+03,   918.271E+03
C:/temp/Job-27.odb,Step-1,Increment      1: Step Time =    1.000,"P-27-1",          1425,       94.9750,       45.6760,            0.,NA,NA,"",   1.97888E+06,   2.12330E+06,   2.12330E+06
C:/temp/Job-27.odb,Step-1,Increment      1: Step Time =    1.000,"P-27-1",          1426,       96.2450,       42.0040,            0.,NA,NA,"",   1.80281E+06,   1.94182E+06,   1.94182E+06
C:/temp/Job-27.odb,Step-1,Increment      1: Step Time =    1.000,"P-27-1",          1427,       52.0140,       75.4470,            0.,NA,NA,"",   716.711E+03,   513.607E+03,   513.607E+03
C:/temp/Job-27.odb,Step-1,Increment      1: Step Time =    1.000,"P-27-1",          1428,       88.8599,       152.132,            0.,NA,NA,"",   1.99780E+06,   2.10875E+06,   2.10875E+06
C:/temp/Job-27.odb,Step-1,Increment      1: Step Time =    1.000,"P-27-1",          1429,       53.4721,       125.398,            0.,NA,NA,"",   763.739E+03,   556.516E+03,   556.516E+03
C:/temp/Job-27.odb,Step-1,Increment      1: Step Time =    1.000,"P-27-1",          1430,       69.1506,       146.398,            0.,NA,NA,"",   1.69324E+06,   1.60141E+06,   1.60141E+06
C:/temp/Job-27.odb,Step-1,Increment      1: Step Time =    1.000,"P-27-1",          1431,       112.296,       49.0480,            0.,NA,NA,"",   2.07149E+06,   2.23272E+06,   2.23272E+06
C:/temp/Job-27.odb,Step-1,Increment      1: Step Time =    1.000,"P-27-1",          1432,       110.803,       45.7754,            0.,NA,NA,"",   1.90721E+06,   2.06791E+06,   2.06791E+06
C:/temp/Job-27.odb,Step-1,Increment      1: Step Time =    1.000,"P-27-1",          1433,       45.7604,       179.762,            0.,NA,NA,"",   1.55227E+06,   1.51193E+06,   1.51193E+06
C:/temp/Job-27.odb,Step-1,Increment      1: Step Time =    1.000,"P-27-1",          1434,       179.985,       182.597,            0.,NA,NA,"",   1.03889E+06,   1.04019E+06,   1.04019E+06
C:/temp/Job-27.odb,Step-1,Increment      1: Step Time =    1.000,"P-27-1",          1435,       105.273,       16.5268,            0.,NA,NA,"",   1.04861E+06,   1.09159E+06,   1.09159E+06
C:/temp/Job-27.odb,Step-1,Increment      1: Step Time =    1.000,"P-27-1",          1436,       97.2563,       47.2488,            0.,NA,NA,"",   2.02891E+06,   2.18698E+06,   2.18698E+06
C:/temp/Job-27.odb,Step-1,Increment      1: Step Time =    1.000,"P-27-1",          1437,       96.9687,       45.6988,            0.,NA,NA,"",   1.95546E+06,   2.10979E+06,   2.10979E+06
C:/temp/Job-27.odb,Step-1,Increment      1: Step Time =    1.000,"P-27-1",          1438,       98.0676,       48.1839,            0.,NA,NA,"",   2.09970E+06,   2.26136E+06,   2.26136E+06
C:/temp/Job-27.odb,Step-1,Increment      1: Step Time =    1.000,"P-27-1",          1439,       99.3659,       47.6318,            0.,NA,NA,"",   2.04511E+06,   2.20833E+06,   2.20833E+06
C:/temp/Job-27.odb,Step-1,Increment      1: Step Time =    1.000,"P-27-1",          1440,       100.392,       46.1221,            0.,NA,NA,"",   1.97093E+06,   2.13391E+06,   2.13391E+06
C:/temp/Job-27.odb,Step-1,Increment      1: Step Time =    1.000,"P-27-1",          1441,       106.803,       41.9223,            0.,NA,NA,"",   1.72420E+06,   1.87943E+06,   1.87943E+06
C:/temp/Job-27.odb,Step-1,Increment      1: Step Time =    1.000,"P-27-1",          1442,       175.998,       35.9370,            0.,NA,NA,"",   1.15039E+06,   1.14118E+06,   1.14118E+06
C:/temp/Job-27.odb,Step-1,Increment      1: Step Time =    1.000,"P-27-1",          1443,       180.205,       168.147,            0.,NA,NA,"",   1.08546E+06,   1.09100E+06,   1.09100E+06
C:/temp/Job-27.odb,Step-1,Increment      1: Step Time =    1.000,"P-27-1",          1444,       94.0130,       180.083,            0.,NA,NA,"",   1.21737E+06,   1.25616E+06,   1.25616E+06
C:/temp/Job-27.odb,Step-1,Increment      1: Step Time =    1.000,"P-27-1",          1445,       97.9797,       180.942,            0.,NA,NA,"",   1.16018E+06,   1.20648E+06,   1.20648E+06
C:/temp/Job-27.odb,Step-1,Increment      1: Step Time =    1.000,"P-27-1",          1446,       127.587,       181.339,            0.,NA,NA,"",   1.14063E+06,   1.14767E+06,   1.14767E+06
C:/temp/Job-27.odb,Step-1,Increment      1: Step Time =    1.000,"P-27-1",          1447,       90.3539,       157.504,            0.,NA,NA,"",   1.80936E+06,   1.91502E+06,   1.91502E+06
C:/temp/Job-27.odb,Step-1,Increment      1: Step Time =    1.000,"P-27-1",          1448,       46.5502,       133.702,            0.,NA,NA,"",   975.958E+03,   842.684E+03,   842.684E+03
C:/temp/Job-27.odb,Step-1,Increment      1: Step Time =    1.000,"P-27-1",          1449,       153.044,       70.7798,            0.,NA,NA,"",   1.48172E+06,   1.19014E+06,   1.19014E+06
C:/temp/Job-27.odb,Step-1,Increment      1: Step Time =    1.000,"P-27-1",          1450,       79.9413,       41.1892,            0.,NA,NA,"",   1.77258E+06,   1.78126E+06,   1.78126E+06
C:/temp/Job-27.odb,Step-1,Increment      1: Step Time =    1.000,"P-27-1",          1451,       89.9791,       38.2427,            0.,NA,NA,"",   1.68144E+06,   1.76956E+06,   1.76956E+06
C:/temp/Job-27.odb,Step-1,Increment      1: Step Time =    1.000,"P-27-1",          1452,       144.754,       56.0254,            0.,NA,NA,"",   1.73451E+06,   1.55113E+06,   1.55113E+06
C:/temp/Job-27.odb,Step-1,Increment      1: Step Time =    1.000,"P-27-1",          1453,       100.756,       167.617,            0.,NA,NA,"",   1.44217E+06,   1.55655E+06,   1.55655E+06
C:/temp/Job-27.odb,Step-1,Increment      1: Step Time =    1.000,"P-27-1",          1454,       99.6878,       44.2787,            0.,NA,NA,"",   1.92773E+06,   2.09014E+06,   2.09014E+06
C:/temp/Job-27.odb,Step-1,Increment      1: Step Time =    1.000,"P-27-1",          1455,       97.8775,       44.1681,            0.,NA,NA,"",   1.92165E+06,   2.07949E+06,   2.07949E+06
C:/temp/Job-27.odb,Step-1,Increment      1: Step Time =    1.000,"P-27-1",          1456,       176.041,       167.582,            0.,NA,NA,"",   1.13050E+06,   1.12345E+06,   1.12345E+06
C:/temp/Job-27.odb,Step-1,Increment      1: Step Time =    1.000,"P-27-1",          1457,       175.588,       163.536,            0.,NA,NA,"",   1.15363E+06,   1.14447E+06,   1.14447E+06
C:/temp/Job-27.odb,Step-1,Increment      1: Step Time =    1.000,"P-27-1",          1458,       48.8014,       70.3600,            0.,NA,NA,"",   881.990E+03,   724.032E+03,   724.032E+03
C:/temp/Job-27.odb,Step-1,Increment      1: Step Time =    1.000,"P-27-1",          1459,       70.5827,       153.546,            0.,NA,NA,"",   1.77539E+06,   1.69984E+06,   1.69984E+06
C:/temp/Job-27.odb,Step-1,Increment      1: Step Time =    1.000,"P-27-1",          1460,       107.155,       167.347,            0.,NA,NA,"",   1.41510E+06,   1.53288E+06,   1.53288E+06
C:/temp/Job-27.odb,Step-1,Increment      1: Step Time =    1.000,"P-27-1",          1461,       180.440,       47.7710,            0.,NA,NA,"",   1.12463E+06,   1.14286E+06,   1.14286E+06
C:/temp/Job-27.odb,Step-1,Increment      1: Step Time =    1.000,"P-27-1",          1462,       98.4802,       46.6958,            0.,NA,NA,"",   1.97408E+06,   2.13831E+06,   2.13831E+06
C:/temp/Job-27.odb,Step-1,Increment      1: Step Time =    1.000,"P-27-1",          1463,       98.0327,       45.8371,            0.,NA,NA,"",   1.95698E+06,   2.12239E+06,   2.12239E+06
C:/temp/Job-27.odb,Step-1,Increment      1: Step Time =    1.000,"P-27-1",          1464,       98.7137,       45.1006,            0.,NA,NA,"",   1.96758E+06,   2.13424E+06,   2.13424E+06
C:/temp/Job-27.odb,Step-1,Increment      1: Step Time =    1.000,"P-27-1",          1465,       99.2168,       45.9683,            0.,NA,NA,"",   1.96074E+06,   2.12620E+06,   2.12620E+06
C:/temp/Job-27.odb,Step-1,Increment      1: Step Time =    1.000,"P-27-1",          1466,       18.9737,       47.1316,            0.,NA,NA,"",   1.04244E+06,   1.08506E+06,   1.08506E+06
C:/temp/Job-27.odb,Step-1,Increment      1: Step Time =    1.000,"P-27-1",          1467,       153.685,       18.3270,            0.,NA,NA,"",   1.15080E+06,   1.12658E+06,   1.12658E+06
C:/temp/Job-27.odb,Step-1,Increment      1: Step Time =    1.000,"P-27-1",          1468,       144.728,       17.9733,            0.,NA,NA,"",   1.16085E+06,   1.13857E+06,   1.13857E+06
C:/temp/Job-27.odb,Step-1,Increment      1: Step Time =    1.000,"P-27-1",          1469,       181.364,       127.328,            0.,NA,NA,"",   1.01968E+06,   1.10254E+06,   1.10254E+06
C:/temp/Job-27.odb,Step-1,Increment      1: Step Time =    1.000,"P-27-1",          1470,       181.691,       122.788,            0.,NA,NA,"",   966.318E+03,   1.06697E+06,   1.06697E+06
C:/temp/Job-27.odb,Step-1,Increment      1: Step Time =    1.000,"P-27-1",          1471,       171.177,       37.7829,            0.,NA,NA,"",   1.22662E+06,   1.19500E+06,   1.19500E+06
C:/temp/Job-27.odb,Step-1,Increment      1: Step Time =    1.000,"P-27-1",          1472,       139.872,       145.433,            0.,NA,NA,"",   1.79234E+06,   1.64693E+06,   1.64693E+06
C:/temp/Job-27.odb,Step-1,Increment      1: Step Time =    1.000,"P-27-1",          1473,       98.7652,       176.993,            0.,NA,NA,"",   1.23954E+06,   1.30398E+06,   1.30398E+06
C:/temp/Job-27.odb,Step-1,Increment      1: Step Time =    1.000,"P-27-1",          1474,       102.121,       176.820,            0.,NA,NA,"",   1.21605E+06,   1.28821E+06,   1.28821E+06
C:/temp/Job-27.odb,Step-1,Increment      1: Step Time =    1.000,"P-27-1",          1475,       132.147,       176.498,            0.,NA,NA,"",   1.26228E+06,   1.25819E+06,   1.25819E+06
C:/temp/Job-27.odb,Step-1,Increment      1: Step Time =    1.000,"P-27-1",          1476,       136.771,       175.942,            0.,NA,NA,"",   1.28226E+06,   1.26351E+06,   1.26351E+06
C:/temp/Job-27.odb,Step-1,Increment      1: Step Time =    1.000,"P-27-1",          1477,       175.610,       135.151,            0.,NA,NA,"",   1.18067E+06,   1.17763E+06,   1.17763E+06
C:/temp/Job-27.odb,Step-1,Increment      1: Step Time =    1.000,"P-27-1",          1478,       110.855,       38.4927,            0.,NA,NA,"",   1.57764E+06,   1.70881E+06,   1.70881E+06
C:/temp/Job-27.odb,Step-1,Increment      1: Step Time =    1.000,"P-27-1",          1479,       156.840,       65.0773,            0.,NA,NA,"",   1.52827E+06,   1.30304E+06,   1.30304E+06
C:/temp/Job-27.odb,Step-1,Increment      1: Step Time =    1.000,"P-27-1",          1480,       164.439,       87.4699,            0.,NA,NA,"",   776.314E+03,   712.771E+03,   712.771E+03
C:/temp/Job-27.odb,Step-1,Increment      1: Step Time =    1.000,"P-27-1",          1481,       172.120,       99.5329,            0.,NA,NA,"",   554.670E+03,   636.161E+03,   636.161E+03
C:/temp/Job-27.odb,Step-1,Increment      1: Step Time =    1.000,"P-27-1",          1482,       164.723,       116.020,            0.,NA,NA,"",   908.468E+03,   823.909E+03,   823.909E+03
C:/temp/Job-27.odb,Step-1,Increment      1: Step Time =    1.000,"P-27-1",          1483,       100.302,       173.784,            0.,NA,NA,"",   1.29207E+06,   1.37466E+06,   1.37466E+06
C:/temp/Job-27.odb,Step-1,Increment      1: Step Time =    1.000,"P-27-1",          1484,       37.1304,       120.827,            0.,NA,NA,"",   494.602E+03,   442.448E+03,   442.448E+03
C:/temp/Job-27.odb,Step-1,Increment      1: Step Time =    1.000,"P-27-1",          1485,       25.4080,       112.032,            0.,NA,NA,"",   263.526E+03,   295.296E+03,   295.296E+03
C:/temp/Job-27.odb,Step-1,Increment      1: Step Time =    1.000,"P-27-1",          1486,       99.8712,       31.5841,            0.,NA,NA,"",   1.41961E+06,   1.52645E+06,   1.52645E+06
C:/temp/Job-27.odb,Step-1,Increment      1: Step Time =    1.000,"P-27-1",          1487,       18.4563,       56.4826,            0.,NA,NA,"",   851.514E+03,   895.329E+03,   895.329E+03
C:/temp/Job-27.odb,Step-1,Increment      1: Step Time =    1.000,"P-27-1",          1488,       119.464,       171.857,            0.,NA,NA,"",   1.31326E+06,   1.36921E+06,   1.36921E+06
C:/temp/Job-27.odb,Step-1,Increment      1: Step Time =    1.000,"P-27-1",          1489,       71.7607,       159.079,            0.,NA,NA,"",   1.75758E+06,   1.69668E+06,   1.69668E+06
C:/temp/Job-27.odb,Step-1,Increment      1: Step Time =    1.000,"P-27-1",          1490,       145.960,       134.464,            0.,NA,NA,"",   1.66334E+06,   1.38906E+06,   1.38906E+06
C:/temp/Job-27.odb,Step-1,Increment      1: Step Time =    1.000,"P-27-1",          1491,       148.636,       135.147,            0.,NA,NA,"",   1.66054E+06,   1.38601E+06,   1.38601E+06
C:/temp/Job-27.odb,Step-1,Increment      1: Step Time =    1.000,"P-27-1",          1492,       92.5949,       164.238,            0.,NA,NA,"",   1.59689E+06,   1.69142E+06,   1.69142E+06
C:/temp/Job-27.odb,Step-1,Increment      1: Step Time =    1.000,"P-27-1",          1493,       45.4707,       69.7499,            0.,NA,NA,"",   862.402E+03,   729.928E+03,   729.928E+03
C:/temp/Job-27.odb,Step-1,Increment      1: Step Time =    1.000,"P-27-1",          1494,       46.5653,       83.5490,            0.,NA,NA,"",   436.427E+03,   119.592E+03,   119.592E+03
C:/temp/Job-27.odb,Step-1,Increment      1: Step Time =    1.000,"P-27-1",          1495,       169.857,       29.9012,            0.,NA,NA,"",   1.18284E+06,   1.15812E+06,   1.15812E+06
C:/temp/Job-27.odb,Step-1,Increment      1: Step Time =    1.000,"P-27-1",          1496,       171.665,       105.781,            0.,NA,NA,"",   601.823E+03,   673.825E+03,   673.825E+03
C:/temp/Job-27.odb,Step-1,Increment      1: Step Time =    1.000,"P-27-1",          1497,       59.9401,       44.2027,            0.,NA,NA,"",   1.66187E+06,   1.54177E+06,   1.54177E+06
C:/temp/Job-27.odb,Step-1,Increment      1: Step Time =    1.000,"P-27-1",          1498,       166.681,       24.9768,            0.,NA,NA,"",   1.16596E+06,   1.14173E+06,   1.14173E+06
C:/temp/Job-27.odb,Step-1,Increment      1: Step Time =    1.000,"P-27-1",          1499,       60.1137,       38.3024,            0.,NA,NA,"",   1.66255E+06,   1.56100E+06,   1.56100E+06
C:/temp/Job-27.odb,Step-1,Increment      1: Step Time =    1.000,"P-27-1",          1500,       32.2426,       168.879,            0.,NA,NA,"",   1.45047E+06,   1.42899E+06,   1.42899E+06
C:/temp/Job-27.odb,Step-1,Increment      1: Step Time =    1.000,"P-27-1",          1501,       112.528,       172.422,            0.,NA,NA,"",   1.27878E+06,   1.36151E+06,   1.36151E+06
C:/temp/Job-27.odb,Step-1,Increment      1: Step Time =    1.000,"P-27-1",          1502,       55.7999,       170.731,            0.,NA,NA,"",   1.59779E+06,   1.51904E+06,   1.51904E+06
C:/temp/Job-27.odb,Step-1,Increment      1: Step Time =    1.000,"P-27-1",          1503,       64.2193,       170.540,            0.,NA,NA,"",   1.62256E+06,   1.54941E+06,   1.54941E+06
C:/temp/Job-27.odb,Step-1,Increment      1: Step Time =    1.000,"P-27-1",          1504,       177.591,       117.771,            0.,NA,NA,"",   909.454E+03,   988.389E+03,   988.389E+03
C:/temp/Job-27.odb,Step-1,Increment      1: Step Time =    1.000,"P-27-1",          1505,       177.713,       113.521,            0.,NA,NA,"",   829.166E+03,   926.569E+03,   926.569E+03
C:/temp/Job-27.odb,Step-1,Increment      1: Step Time =    1.000,"P-27-1",          1506,       50.4417,       16.6235,            0.,NA,NA,"",   1.53064E+06,   1.49700E+06,   1.49700E+06
C:/temp/Job-27.odb,Step-1,Increment      1: Step Time =    1.000,"P-27-1",          1507,       148.807,       22.3338,            0.,NA,NA,"",   1.23010E+06,   1.19658E+06,   1.19658E+06
C:/temp/Job-27.odb,Step-1,Increment      1: Step Time =    1.000,"P-27-1",          1508,       144.596,       147.962,            0.,NA,NA,"",   1.72685E+06,   1.56862E+06,   1.56862E+06
C:/temp/Job-27.odb,Step-1,Increment      1: Step Time =    1.000,"P-27-1",          1509,       25.1399,       29.9360,            0.,NA,NA,"",   1.41180E+06,   1.42264E+06,   1.42264E+06
C:/temp/Job-27.odb,Step-1,Increment      1: Step Time =    1.000,"P-27-1",          1510,       23.9612,       34.0164,            0.,NA,NA,"",   1.33712E+06,   1.35403E+06,   1.35403E+06
C:/temp/Job-27.odb,Step-1,Increment      1: Step Time =    1.000,"P-27-1",          1511,       19.5999,       111.369,            0.,NA,NA,"",   264.096E+03,   303.860E+03,   303.860E+03
C:/temp/Job-27.odb,Step-1,Increment      1: Step Time =    1.000,"P-27-1",          1512,       120.176,       174.747,            0.,NA,NA,"",   1.25906E+06,   1.30621E+06,   1.30621E+06
C:/temp/Job-27.odb,Step-1,Increment      1: Step Time =    1.000,"P-27-1",          1513,       131.798,       171.814,            0.,NA,NA,"",   1.36328E+06,   1.36028E+06,   1.36028E+06
C:/temp/Job-27.odb,Step-1,Increment      1: Step Time =    1.000,"P-27-1",          1514,       166.757,       81.5417,            0.,NA,NA,"",   988.290E+03,   917.141E+03,   917.141E+03
C:/temp/Job-27.odb,Step-1,Increment      1: Step Time =    1.000,"P-27-1",          1515,       79.9145,       162.181,            0.,NA,NA,"",   1.72133E+06,   1.72260E+06,   1.72260E+06
C:/temp/Job-27.odb,Step-1,Increment      1: Step Time =    1.000,"P-27-1",          1516,       168.743,       115.388,            0.,NA,NA,"",   878.236E+03,   860.157E+03,   860.157E+03
C:/temp/Job-27.odb,Step-1,Increment      1: Step Time =    1.000,"P-27-1",          1517,       171.150,       120.521,            0.,NA,NA,"",   1.00240E+06,   996.110E+03,   996.110E+03
C:/temp/Job-27.odb,Step-1,Increment      1: Step Time =    1.000,"P-27-1",          1518,       168.664,       168.769,            0.,NA,NA,"",   1.20769E+06,   1.17657E+06,   1.17657E+06
C:/temp/Job-27.odb,Step-1,Increment      1: Step Time =    1.000,"P-27-1",          1519,       22.5047,       61.9669,            0.,NA,NA,"",   769.324E+03,   796.522E+03,   796.522E+03
C:/temp/Job-27.odb,Step-1,Increment      1: Step Time =    1.000,"P-27-1",          1520,       105.097,       27.1270,            0.,NA,NA,"",   1.28919E+06,   1.37948E+06,   1.37948E+06
C:/temp/Job-27.odb,Step-1,Increment      1: Step Time =    1.000,"P-27-1",          1521,       104.049,       31.8597,            0.,NA,NA,"",   1.40254E+06,   1.51594E+06,   1.51594E+06
C:/temp/Job-27.odb,Step-1,Increment      1: Step Time =    1.000,"P-27-1",          1522,       77.1259,       164.389,            0.,NA,NA,"",   1.69244E+06,   1.67520E+06,   1.67520E+06
C:/temp/Job-27.odb,Step-1,Increment      1: Step Time =    1.000,"P-27-1",          1523,       162.760,       173.316,            0.,NA,NA,"",   1.21512E+06,   1.17989E+06,   1.17989E+06
C:/temp/Job-27.odb,Step-1,Increment      1: Step Time =    1.000,"P-27-1",          1524,       29.3547,       127.863,            0.,NA,NA,"",   608.306E+03,   608.851E+03,   608.851E+03
C:/temp/Job-27.odb,Step-1,Increment      1: Step Time =    1.000,"P-27-1",          1525,       137.142,       153.185,            0.,NA,NA,"",   1.74364E+06,   1.66519E+06,   1.66519E+06
C:/temp/Job-27.odb,Step-1,Increment      1: Step Time =    1.000,"P-27-1",          1526,       177.435,       106.226,            0.,NA,NA,"",   683.737E+03,   786.268E+03,   786.268E+03
C:/temp/Job-27.odb,Step-1,Increment      1: Step Time =    1.000,"P-27-1",          1527,       139.199,       155.807,            0.,NA,NA,"",   1.69139E+06,   1.60934E+06,   1.60934E+06
C:/temp/Job-27.odb,Step-1,Increment      1: Step Time =    1.000,"P-27-1",          1528,       160.861,       29.1260,            0.,NA,NA,"",   1.25829E+06,   1.21474E+06,   1.21474E+06
C:/temp/Job-27.odb,Step-1,Increment      1: Step Time =    1.000,"P-27-1",          1529,       156.171,       28.3170,            0.,NA,NA,"",   1.28176E+06,   1.23444E+06,   1.23444E+06
C:/temp/Job-27.odb,Step-1,Increment      1: Step Time =    1.000,"P-27-1",          1530,       176.257,       88.3632,            0.,NA,NA,"",   784.930E+03,   875.261E+03,   875.261E+03
C:/temp/Job-27.odb,Step-1,Increment      1: Step Time =    1.000,"P-27-1",          1531,       176.425,       83.8572,            0.,NA,NA,"",   882.072E+03,   958.781E+03,   958.781E+03
C:/temp/Job-27.odb,Step-1,Increment      1: Step Time =    1.000,"P-27-1",          1532,       122.738,       30.4260,            0.,NA,NA,"",   1.38258E+06,   1.42606E+06,   1.42606E+06
C:/temp/Job-27.odb,Step-1,Increment      1: Step Time =    1.000,"P-27-1",          1533,       171.224,       80.1935,            0.,NA,NA,"",   994.346E+03,   985.673E+03,   985.673E+03
C:/temp/Job-27.odb,Step-1,Increment      1: Step Time =    1.000,"P-27-1",          1534,       17.6900,       65.9621,            0.,NA,NA,"",   654.481E+03,   701.778E+03,   701.778E+03
C:/temp/Job-27.odb,Step-1,Increment      1: Step Time =    1.000,"P-27-1",          1535,       159.951,       56.5160,            0.,NA,NA,"",   1.51768E+06,   1.35879E+06,   1.35879E+06
C:/temp/Job-27.odb,Step-1,Increment      1: Step Time =    1.000,"P-27-1",          1536,       165.108,       58.2590,            0.,NA,NA,"",   1.41945E+06,   1.29753E+06,   1.29753E+06
C:/temp/Job-27.odb,Step-1,Increment      1: Step Time =    1.000,"P-27-1",          1537,       176.013,       49.4002,            0.,NA,NA,"",   1.20056E+06,   1.18990E+06,   1.18990E+06
C:/temp/Job-27.odb,Step-1,Increment      1: Step Time =    1.000,"P-27-1",          1538,       30.7668,       24.1204,            0.,NA,NA,"",   1.52174E+06,   1.50816E+06,   1.50816E+06
C:/temp/Job-27.odb,Step-1,Increment      1: Step Time =    1.000,"P-27-1",          1539,       168.314,       153.664,            0.,NA,NA,"",   1.32739E+06,   1.26423E+06,   1.26423E+06
C:/temp/Job-27.odb,Step-1,Increment      1: Step Time =    1.000,"P-27-1",          1540,       163.613,       45.5376,            0.,NA,NA,"",   1.40454E+06,   1.31436E+06,   1.31436E+06
C:/temp/Job-27.odb,Step-1,Increment      1: Step Time =    1.000,"P-27-1",          1541,       57.1419,       166.757,            0.,NA,NA,"",   1.62331E+06,   1.53319E+06,   1.53319E+06
C:/temp/Job-27.odb,Step-1,Increment      1: Step Time =    1.000,"P-27-1",          1542,       18.4765,       151.770,            0.,NA,NA,"",   1.00561E+06,   1.05325E+06,   1.05325E+06
C:/temp/Job-27.odb,Step-1,Increment      1: Step Time =    1.000,"P-27-1",          1543,       135.628,       166.738,            0.,NA,NA,"",   1.47540E+06,   1.44946E+06,   1.44946E+06
C:/temp/Job-27.odb,Step-1,Increment      1: Step Time =    1.000,"P-27-1",          1544,       139.686,       165.484,            0.,NA,NA,"",   1.49775E+06,   1.44818E+06,   1.44818E+06
C:/temp/Job-27.odb,Step-1,Increment      1: Step Time =    1.000,"P-27-1",          1545,       143.515,       163.401,            0.,NA,NA,"",   1.52163E+06,   1.44910E+06,   1.44910E+06
C:/temp/Job-27.odb,Step-1,Increment      1: Step Time =    1.000,"P-27-1",          1546,       165.665,       172.719,            0.,NA,NA,"",   1.19893E+06,   1.16784E+06,   1.16784E+06
C:/temp/Job-27.odb,Step-1,Increment      1: Step Time =    1.000,"P-27-1",          1547,       142.232,       35.8013,            0.,NA,NA,"",   1.51244E+06,   1.45166E+06,   1.45166E+06
C:/temp/Job-27.odb,Step-1,Increment      1: Step Time =    1.000,"P-27-1",          1548,       151.110,       36.7804,            0.,NA,NA,"",   1.46400E+06,   1.38218E+06,   1.38218E+06
C:/temp/Job-27.odb,Step-1,Increment      1: Step Time =    1.000,"P-27-1",          1549,       165.483,       137.947,            0.,NA,NA,"",   1.39293E+06,   1.26799E+06,   1.26799E+06
C:/temp/Job-27.odb,Step-1,Increment      1: Step Time =    1.000,"P-27-1",          1550,       157.550,       165.252,            0.,NA,NA,"",   1.36270E+06,   1.29377E+06,   1.29377E+06
C:/temp/Job-27.odb,Step-1,Increment      1: Step Time =    1.000,"P-27-1",          1551,       146.518,       160.961,            0.,NA,NA,"",   1.54367E+06,   1.45345E+06,   1.45345E+06
C:/temp/Job-27.odb,Step-1,Increment      1: Step Time =    1.000,"P-27-1",          1552,       27.6962,       34.9382,            0.,NA,NA,"",   1.36201E+06,   1.35849E+06,   1.35849E+06
C:/temp/Job-27.odb,Step-1,Increment      1: Step Time =    1.000,"P-27-1",          1553,       27.9511,       38.7459,            0.,NA,NA,"",   1.30521E+06,   1.30058E+06,   1.30058E+06
C:/temp/Job-27.odb,Step-1,Increment      1: Step Time =    1.000,"P-27-1",          1554,       160.641,       166.369,            0.,NA,NA,"",   1.31696E+06,   1.25801E+06,   1.25801E+06
C:/temp/Job-27.odb,Step-1,Increment      1: Step Time =    1.000,"P-27-1",          1555,       61.2383,       31.7571,            0.,NA,NA,"",   1.63874E+06,   1.55569E+06,   1.55569E+06
C:/temp/Job-27.odb,Step-1,Increment      1: Step Time =    1.000,"P-27-1",          1556,       128.046,       163.403,            0.,NA,NA,"",   1.54609E+06,   1.56389E+06,   1.56389E+06
C:/temp/Job-27.odb,Step-1,Increment      1: Step Time =    1.000,"P-27-1",          1557,       70.7513,       29.5748,            0.,NA,NA,"",   1.61867E+06,   1.56871E+06,   1.56871E+06
C:/temp/Job-27.odb,Step-1,Increment      1: Step Time =    1.000,"P-27-1",          1558,       26.4114,       160.290,            0.,NA,NA,"",   1.27526E+06,   1.27613E+06,   1.27613E+06
C:/temp/Job-27.odb,Step-1,Increment      1: Step Time =    1.000,"P-27-1",          1559,       34.4894,       22.4639,            0.,NA,NA,"",   1.54705E+06,   1.52354E+06,   1.52354E+06
C:/temp/Job-27.odb,Step-1,Increment      1: Step Time =    1.000,"P-27-1",          1560,       162.991,       55.0972,            0.,NA,NA,"",   1.46334E+06,   1.33207E+06,   1.33207E+06
C:/temp/Job-27.odb,Step-1,Increment      1: Step Time =    1.000,"P-27-1",          1561,       31.8135,       75.4162,            0.,NA,NA,"",   548.524E+03,   535.406E+03,   535.406E+03
C:/temp/Job-27.odb,Step-1,Increment      1: Step Time =    1.000,"P-27-1",          1562,       36.9320,       25.8198,            0.,NA,NA,"",   1.53151E+06,   1.49539E+06,   1.49539E+06
C:/temp/Job-27.odb,Step-1,Increment      1: Step Time =    1.000,"P-27-1",          1563,       141.621,       159.110,            0.,NA,NA,"",   1.61573E+06,   1.53448E+06,   1.53448E+06
C:/temp/Job-27.odb,Step-1,Increment      1: Step Time =    1.000,"P-27-1",          1564,       154.404,       33.3610,            0.,NA,NA,"",   1.38229E+06,   1.31463E+06,   1.31463E+06
C:/temp/Job-27.odb,Step-1,Increment      1: Step Time =    1.000,"P-27-1",          1565,       151.595,       141.161,            0.,NA,NA,"",   1.66700E+06,   1.44770E+06,   1.44770E+06
C:/temp/Job-27.odb,Step-1,Increment      1: Step Time =    1.000,"P-27-1",          1566,       48.9625,       21.5552,            0.,NA,NA,"",   1.55699E+06,   1.50866E+06,   1.50866E+06
C:/temp/Job-27.odb,Step-1,Increment      1: Step Time =    1.000,"P-27-1",          1567,       73.4728,       24.1760,            0.,NA,NA,"",   1.51303E+06,   1.47835E+06,   1.47835E+06
C:/temp/Job-27.odb,Step-1,Increment      1: Step Time =    1.000,"P-27-1",          1568,       37.0857,       38.3953,            0.,NA,NA,"",   1.41499E+06,   1.36109E+06,   1.36109E+06
C:/temp/Job-27.odb,Step-1,Increment      1: Step Time =    1.000,"P-27-1",          1569,       31.7087,       38.1340,            0.,NA,NA,"",   1.35798E+06,   1.33249E+06,   1.33249E+06
C:/temp/Job-27.odb,Step-1,Increment      1: Step Time =    1.000,"P-27-1",          1570,       21.0525,       70.0485,            0.,NA,NA,"",   591.201E+03,   628.551E+03,   628.551E+03
C:/temp/Job-27.odb,Step-1,Increment      1: Step Time =    1.000,"P-27-1",          1571,       51.3394,       30.9943,            0.,NA,NA,"",   1.58539E+06,   1.50641E+06,   1.50641E+06
C:/temp/Job-27.odb,Step-1,Increment      1: Step Time =    1.000,"P-27-1",          1572,       29.5726,       70.9559,            0.,NA,NA,"",   637.729E+03,   637.083E+03,   637.083E+03
C:/temp/Job-27.odb,Step-1,Increment      1: Step Time =    1.000,"P-27-1",          1573,       173.631,       61.0716,            0.,NA,NA,"",   1.24260E+06,   1.20971E+06,   1.20971E+06
C:/temp/Job-27.odb,Step-1,Increment      1: Step Time =    1.000,"P-27-1",          1574,       46.1950,       27.0235,            0.,NA,NA,"",   1.56091E+06,   1.50144E+06,   1.50144E+06
C:/temp/Job-27.odb,Step-1,Increment      1: Step Time =    1.000,"P-27-1",          1575,       35.5389,       30.2940,            0.,NA,NA,"",   1.48523E+06,   1.44742E+06,   1.44742E+06
C:/temp/Job-27.odb,Step-1,Increment      1: Step Time =    1.000,"P-27-1",          1576,       39.1697,       29.9689,            0.,NA,NA,"",   1.51256E+06,   1.46289E+06,   1.46289E+06
C:/temp/Job-27.odb,Step-1,Increment      1: Step Time =    1.000,"P-27-1",          1577,       156.452,       156.055,            0.,NA,NA,"",   1.49988E+06,   1.38663E+06,   1.38663E+06
C:/temp/Job-27.odb,Step-1,Increment      1: Step Time =    1.000,"P-27-1",          1578,       171.807,       71.3655,            0.,NA,NA,"",   1.17750E+06,   1.13787E+06,   1.13787E+06
