ODB Name,Step,Frame,Part Instance Name,    Node Label,X,Y,Z,Section Name,Material Name,Section Point,       S-Mises,S-Max. In-Plane Principal (Abs),S-Max. Principal (Abs)
C:/temp/Job-29.odb,Step-1,Increment      1: Step Time =    1.000,"P-29-1",             1,       85.3646,       136.150,            0.,NA,NA,"",   2.37402E+06,   2.42516E+06,   2.42516E+06
C:/temp/Job-29.odb,Step-1,Increment      1: Step Time =    1.000,"P-29-1",             2,       76.6737,       131.255,            0.,NA,NA,"",   1.34265E+06,   1.34579E+06,   1.34579E+06
C:/temp/Job-29.odb,Step-1,Increment      1: Step Time =    1.000,"P-29-1",             3,       66.6494,       120.217,            0.,NA,NA,"",   388.657E+03,  -83.9491E+03,  -83.9491E+03
C:/temp/Job-29.odb,Step-1,Increment      1: Step Time =    1.000,"P-29-1",             4,       62.6120,       111.097,            0.,NA,NA,"",   677.036E+03,  -685.773E+03,  -685.773E+03
C:/temp/Job-29.odb,Step-1,Increment      1: Step Time =    1.000,"P-29-1",             5,       61.1802,       96.2551,            0.,NA,NA,"",   845.676E+03,  -859.756E+03,  -859.756E+03
C:/temp/Job-29.odb,Step-1,Increment      1: Step Time =    1.000,"P-29-1",             6,       63.3997,       86.5308,            0.,NA,NA,"",   614.747E+03,  -612.970E+03,  -612.970E+03
C:/temp/Job-29.odb,Step-1,Increment      1: Step Time =    1.000,"P-29-1",             7,       71.1292,       73.7803,            0.,NA,NA,"",   569.348E+03,   556.254E+03,   556.254E+03
C:/temp/Job-29.odb,Step-1,Increment      1: Step Time =    1.000,"P-29-1",             8,       83.0785,       64.8622,            0.,NA,NA,"",   2.12082E+06,   2.16410E+06,   2.16410E+06
C:/temp/Job-29.odb,Step-1,Increment      1: Step Time =    1.000,"P-29-1",             9,       92.5448,       61.7192,            0.,NA,NA,"",   2.98207E+06,   3.05025E+06,   3.05025E+06
C:/temp/Job-29.odb,Step-1,Increment      1: Step Time =    1.000,"P-29-1",            10,       107.455,       61.7192,            0.,NA,NA,"",   3.35513E+06,   3.42364E+06,   3.42364E+06
C:/temp/Job-29.odb,Step-1,Increment      1: Step Time =    1.000,"P-29-1",            11,       116.921,       64.8622,            0.,NA,NA,"",   2.74342E+06,   2.79611E+06,   2.79611E+06
C:/temp/Job-29.odb,Step-1,Increment      1: Step Time =    1.000,"P-29-1",            12,       128.871,       73.7803,            0.,NA,NA,"",   1.13332E+06,   1.12899E+06,   1.12899E+06
C:/temp/Job-29.odb,Step-1,Increment      1: Step Time =    1.000,"P-29-1",            13,       136.600,       86.5308,            0.,NA,NA,"",   890.113E+03,  -857.111E+03,  -857.111E+03
C:/temp/Job-29.odb,Step-1,Increment      1: Step Time =    1.000,"P-29-1",            14,       138.820,       96.2551,            0.,NA,NA,"",   1.40535E+06,  -1.42443E+06,  -1.42443E+06
C:/temp/Job-29.odb,Step-1,Increment      1: Step Time =    1.000,"P-29-1",            15,       137.388,       111.097,            0.,NA,NA,"",   945.788E+03,  -935.794E+03,  -935.794E+03
C:/temp/Job-29.odb,Step-1,Increment      1: Step Time =    1.000,"P-29-1",            16,       133.351,       120.217,            0.,NA,NA,"",   533.755E+03,   108.067E+03,   108.067E+03
C:/temp/Job-29.odb,Step-1,Increment      1: Step Time =    1.000,"P-29-1",            17,       123.326,       131.255,            0.,NA,NA,"",   1.97066E+06,   1.99871E+06,   1.99871E+06
C:/temp/Job-29.odb,Step-1,Increment      1: Step Time =    1.000,"P-29-1",            18,       114.635,       136.150,            0.,NA,NA,"",   2.83093E+06,   2.92020E+06,   2.92020E+06
C:/temp/Job-29.odb,Step-1,Increment      1: Step Time =    1.000,"P-29-1",            19,          100.,          139.,            0.,NA,NA,"",   3.47664E+06,   3.54130E+06,   3.54130E+06
C:/temp/Job-29.odb,Step-1,Increment      1: Step Time =    1.000,"P-29-1",            20,          190.,            0.,            0.,NA,NA,"",   995.912E+03,   996.081E+03,   996.081E+03
C:/temp/Job-29.odb,Step-1,Increment      1: Step Time =    1.000,"P-29-1",            21,          180.,            0.,            0.,NA,NA,"",   994.106E+03,   994.146E+03,   994.146E+03
C:/temp/Job-29.odb,Step-1,Increment      1: Step Time =    1.000,"P-29-1",            22,          170.,            0.,            0.,NA,NA,"",   993.837E+03,   993.257E+03,   993.257E+03
C:/temp/Job-29.odb,Step-1,Increment      1: Step Time =    1.000,"P-29-1",            23,          160.,            0.,            0.,NA,NA,"",   979.052E+03,   978.334E+03,   978.334E+03
C:/temp/Job-29.odb,Step-1,Increment      1: Step Time =    1.000,"P-29-1",            24,          150.,            0.,            0.,NA,NA,"",   937.775E+03,   936.965E+03,   936.965E+03
C:/temp/Job-29.odb,Step-1,Increment      1: Step Time =    1.000,"P-29-1",            25,          140.,            0.,            0.,NA,NA,"",   864.379E+03,   863.598E+03,   863.598E+03
C:/temp/Job-29.odb,Step-1,Increment      1: Step Time =    1.000,"P-29-1",            26,          130.,            0.,            0.,NA,NA,"",   774.584E+03,   774.354E+03,   774.354E+03
C:/temp/Job-29.odb,Step-1,Increment      1: Step Time =    1.000,"P-29-1",            27,          120.,            0.,            0.,NA,NA,"",   693.155E+03,   694.243E+03,   694.243E+03
C:/temp/Job-29.odb,Step-1,Increment      1: Step Time =    1.000,"P-29-1",            28,          110.,            0.,            0.,NA,NA,"",   654.113E+03,   656.306E+03,   656.306E+03
C:/temp/Job-29.odb,Step-1,Increment      1: Step Time =    1.000,"P-29-1",            29,          100.,            0.,            0.,NA,NA,"",   685.911E+03,   688.031E+03,   688.031E+03
C:/temp/Job-29.odb,Step-1,Increment      1: Step Time =    1.000,"P-29-1",            30,           90.,            0.,            0.,NA,NA,"",   794.621E+03,   795.403E+03,   795.403E+03
C:/temp/Job-29.odb,Step-1,Increment      1: Step Time =    1.000,"P-29-1",            31,           80.,            0.,            0.,NA,NA,"",   958.237E+03,   957.816E+03,   957.816E+03
C:/temp/Job-29.odb,Step-1,Increment      1: Step Time =    1.000,"P-29-1",            32,           70.,            0.,            0.,NA,NA,"",   1.14647E+06,   1.14572E+06,   1.14572E+06
C:/temp/Job-29.odb,Step-1,Increment      1: Step Time =    1.000,"P-29-1",            33,           60.,            0.,            0.,NA,NA,"",   1.32986E+06,   1.32947E+06,   1.32947E+06
C:/temp/Job-29.odb,Step-1,Increment      1: Step Time =    1.000,"P-29-1",            34,           50.,            0.,            0.,NA,NA,"",   1.47689E+06,   1.47221E+06,   1.47221E+06
C:/temp/Job-29.odb,Step-1,Increment      1: Step Time =    1.000,"P-29-1",            35,           40.,            0.,            0.,NA,NA,"",   1.58062E+06,   1.57896E+06,   1.57896E+06
C:/temp/Job-29.odb,Step-1,Increment      1: Step Time =    1.000,"P-29-1",            36,           30.,            0.,            0.,NA,NA,"",   1.64783E+06,   1.64660E+06,   1.64660E+06
C:/temp/Job-29.odb,Step-1,Increment      1: Step Time =    1.000,"P-29-1",            37,           20.,            0.,            0.,NA,NA,"",   1.70711E+06,   1.70790E+06,   1.70790E+06
C:/temp/Job-29.odb,Step-1,Increment      1: Step Time =    1.000,"P-29-1",            38,           10.,            0.,            0.,NA,NA,"",   1.84462E+06,   1.84907E+06,   1.84907E+06
C:/temp/Job-29.odb,Step-1,Increment      1: Step Time =    1.000,"P-29-1",            39,          200.,            0.,            0.,NA,NA,"",   999.622E+03,   999.244E+03,   999.244E+03
C:/temp/Job-29.odb,Step-1,Increment      1: Step Time =    1.000,"P-29-1",            40,            0.,            0.,            0.,NA,NA,"",   2.22581E+06,   2.32993E+06,   2.32993E+06
C:/temp/Job-29.odb,Step-1,Increment      1: Step Time =    1.000,"P-29-1",            41,          200.,          190.,            0.,NA,NA,"",   1.00223E+06,   1.00049E+06,   1.00049E+06
C:/temp/Job-29.odb,Step-1,Increment      1: Step Time =    1.000,"P-29-1",            42,          200.,          180.,            0.,NA,NA,"",   1.00171E+06,   1.00174E+06,   1.00174E+06
C:/temp/Job-29.odb,Step-1,Increment      1: Step Time =    1.000,"P-29-1",            43,          200.,          170.,            0.,NA,NA,"",   987.216E+03,   1.00266E+06,   1.00266E+06
C:/temp/Job-29.odb,Step-1,Increment      1: Step Time =    1.000,"P-29-1",            44,          200.,          160.,            0.,NA,NA,"",   954.104E+03,   1.00383E+06,   1.00383E+06
C:/temp/Job-29.odb,Step-1,Increment      1: Step Time =    1.000,"P-29-1",            45,          200.,          150.,            0.,NA,NA,"",   909.017E+03,   1.00525E+06,   1.00525E+06
C:/temp/Job-29.odb,Step-1,Increment      1: Step Time =    1.000,"P-29-1",            46,          200.,          140.,            0.,NA,NA,"",   876.501E+03,   1.00698E+06,   1.00698E+06
C:/temp/Job-29.odb,Step-1,Increment      1: Step Time =    1.000,"P-29-1",            47,          200.,          130.,            0.,NA,NA,"",   887.602E+03,   1.00898E+06,   1.00898E+06
C:/temp/Job-29.odb,Step-1,Increment      1: Step Time =    1.000,"P-29-1",            48,          200.,          120.,            0.,NA,NA,"",   946.359E+03,   1.01448E+06,   1.01448E+06
C:/temp/Job-29.odb,Step-1,Increment      1: Step Time =    1.000,"P-29-1",            49,          200.,          110.,            0.,NA,NA,"",   1.01547E+06,   1.05122E+06,   1.05122E+06
C:/temp/Job-29.odb,Step-1,Increment      1: Step Time =    1.000,"P-29-1",            50,          200.,          100.,            0.,NA,NA,"",   1.04704E+06,   1.09397E+06,   1.09397E+06
C:/temp/Job-29.odb,Step-1,Increment      1: Step Time =    1.000,"P-29-1",            51,          200.,           90.,            0.,NA,NA,"",   1.01932E+06,   1.05463E+06,   1.05463E+06
C:/temp/Job-29.odb,Step-1,Increment      1: Step Time =    1.000,"P-29-1",            52,          200.,           80.,            0.,NA,NA,"",   949.796E+03,   1.01366E+06,   1.01366E+06
C:/temp/Job-29.odb,Step-1,Increment      1: Step Time =    1.000,"P-29-1",            53,          200.,           70.,            0.,NA,NA,"",   887.486E+03,   1.00748E+06,   1.00748E+06
C:/temp/Job-29.odb,Step-1,Increment      1: Step Time =    1.000,"P-29-1",            54,          200.,           60.,            0.,NA,NA,"",   876.287E+03,   1.00545E+06,   1.00545E+06
C:/temp/Job-29.odb,Step-1,Increment      1: Step Time =    1.000,"P-29-1",            55,          200.,           50.,            0.,NA,NA,"",   919.820E+03,   1.01417E+06,   1.01417E+06
C:/temp/Job-29.odb,Step-1,Increment      1: Step Time =    1.000,"P-29-1",            56,          200.,           40.,            0.,NA,NA,"",   956.787E+03,   1.00374E+06,   1.00374E+06
C:/temp/Job-29.odb,Step-1,Increment      1: Step Time =    1.000,"P-29-1",            57,          200.,           30.,            0.,NA,NA,"",   988.442E+03,   1.00222E+06,   1.00222E+06
C:/temp/Job-29.odb,Step-1,Increment      1: Step Time =    1.000,"P-29-1",            58,          200.,           20.,            0.,NA,NA,"",   1.00216E+06,   1.00124E+06,   1.00124E+06
C:/temp/Job-29.odb,Step-1,Increment      1: Step Time =    1.000,"P-29-1",            59,          200.,           10.,            0.,NA,NA,"",   1.00239E+06,   1.00046E+06,   1.00046E+06
C:/temp/Job-29.odb,Step-1,Increment      1: Step Time =    1.000,"P-29-1",            60,          200.,          200.,            0.,NA,NA,"",   999.624E+03,   999.247E+03,   999.247E+03
C:/temp/Job-29.odb,Step-1,Increment      1: Step Time =    1.000,"P-29-1",            61,           10.,          200.,            0.,NA,NA,"",   1.84664E+06,   1.85044E+06,   1.85044E+06
C:/temp/Job-29.odb,Step-1,Increment      1: Step Time =    1.000,"P-29-1",            62,           20.,          200.,            0.,NA,NA,"",   1.70773E+06,   1.70852E+06,   1.70852E+06
C:/temp/Job-29.odb,Step-1,Increment      1: Step Time =    1.000,"P-29-1",            63,           30.,          200.,            0.,NA,NA,"",   1.64618E+06,   1.64522E+06,   1.64522E+06
C:/temp/Job-29.odb,Step-1,Increment      1: Step Time =    1.000,"P-29-1",            64,           40.,          200.,            0.,NA,NA,"",   1.57717E+06,   1.57586E+06,   1.57586E+06
C:/temp/Job-29.odb,Step-1,Increment      1: Step Time =    1.000,"P-29-1",            65,           50.,          200.,            0.,NA,NA,"",   1.47503E+06,   1.47347E+06,   1.47347E+06
C:/temp/Job-29.odb,Step-1,Increment      1: Step Time =    1.000,"P-29-1",            66,           60.,          200.,            0.,NA,NA,"",   1.33110E+06,   1.32941E+06,   1.32941E+06
C:/temp/Job-29.odb,Step-1,Increment      1: Step Time =    1.000,"P-29-1",            67,           70.,          200.,            0.,NA,NA,"",   1.15266E+06,   1.15122E+06,   1.15122E+06
C:/temp/Job-29.odb,Step-1,Increment      1: Step Time =    1.000,"P-29-1",            68,           80.,          200.,            0.,NA,NA,"",    963.97E+03,   963.398E+03,   963.398E+03
C:/temp/Job-29.odb,Step-1,Increment      1: Step Time =    1.000,"P-29-1",            69,           90.,          200.,            0.,NA,NA,"",   797.722E+03,   798.754E+03,   798.754E+03
C:/temp/Job-29.odb,Step-1,Increment      1: Step Time =    1.000,"P-29-1",            70,          100.,          200.,            0.,NA,NA,"",   688.360E+03,   690.465E+03,   690.465E+03
C:/temp/Job-29.odb,Step-1,Increment      1: Step Time =    1.000,"P-29-1",            71,          110.,          200.,            0.,NA,NA,"",   653.029E+03,   655.184E+03,   655.184E+03
C:/temp/Job-29.odb,Step-1,Increment      1: Step Time =    1.000,"P-29-1",            72,          120.,          200.,            0.,NA,NA,"",   687.700E+03,   688.994E+03,   688.994E+03
C:/temp/Job-29.odb,Step-1,Increment      1: Step Time =    1.000,"P-29-1",            73,          130.,          200.,            0.,NA,NA,"",   772.096E+03,   772.444E+03,   772.444E+03
C:/temp/Job-29.odb,Step-1,Increment      1: Step Time =    1.000,"P-29-1",            74,          140.,          200.,            0.,NA,NA,"",   873.541E+03,   873.004E+03,   873.004E+03
C:/temp/Job-29.odb,Step-1,Increment      1: Step Time =    1.000,"P-29-1",            75,          150.,          200.,            0.,NA,NA,"",   946.578E+03,   943.852E+03,   943.852E+03
C:/temp/Job-29.odb,Step-1,Increment      1: Step Time =    1.000,"P-29-1",            76,          160.,          200.,            0.,NA,NA,"",   981.648E+03,   981.049E+03,   981.049E+03
C:/temp/Job-29.odb,Step-1,Increment      1: Step Time =    1.000,"P-29-1",            77,          170.,          200.,            0.,NA,NA,"",   993.791E+03,   993.516E+03,   993.516E+03
C:/temp/Job-29.odb,Step-1,Increment      1: Step Time =    1.000,"P-29-1",            78,          180.,          200.,            0.,NA,NA,"",   993.954E+03,   993.983E+03,   993.983E+03
C:/temp/Job-29.odb,Step-1,Increment      1: Step Time =    1.000,"P-29-1",            79,          190.,          200.,            0.,NA,NA,"",   995.917E+03,   996.049E+03,   996.049E+03
C:/temp/Job-29.odb,Step-1,Increment      1: Step Time =    1.000,"P-29-1",            80,            0.,          200.,            0.,NA,NA,"",   2.22432E+06,   2.33173E+06,   2.33173E+06
C:/temp/Job-29.odb,Step-1,Increment      1: Step Time =    1.000,"P-29-1",            81,            0.,           10.,            0.,NA,NA,"",   1.59585E+06,   1.74596E+06,   1.74596E+06
C:/temp/Job-29.odb,Step-1,Increment      1: Step Time =    1.000,"P-29-1",            82,            0.,           20.,            0.,NA,NA,"",   1.31631E+06,   1.46298E+06,   1.46298E+06
C:/temp/Job-29.odb,Step-1,Increment      1: Step Time =    1.000,"P-29-1",            83,            0.,           30.,            0.,NA,NA,"",   1.13716E+06,   1.27214E+06,   1.27214E+06
C:/temp/Job-29.odb,Step-1,Increment      1: Step Time =    1.000,"P-29-1",            84,            0.,           40.,            0.,NA,NA,"",   986.879E+03,   1.10645E+06,   1.10645E+06
C:/temp/Job-29.odb,Step-1,Increment      1: Step Time =    1.000,"P-29-1",            85,            0.,           50.,            0.,NA,NA,"",   841.006E+03,   943.011E+03,   943.011E+03
C:/temp/Job-29.odb,Step-1,Increment      1: Step Time =    1.000,"P-29-1",            86,            0.,           60.,            0.,NA,NA,"",   697.969E+03,   781.507E+03,   781.507E+03
C:/temp/Job-29.odb,Step-1,Increment      1: Step Time =    1.000,"P-29-1",            87,            0.,           70.,            0.,NA,NA,"",   559.719E+03,   625.833E+03,   625.833E+03
C:/temp/Job-29.odb,Step-1,Increment      1: Step Time =    1.000,"P-29-1",            88,            0.,           80.,            0.,NA,NA,"",   432.512E+03,   485.700E+03,   485.700E+03
C:/temp/Job-29.odb,Step-1,Increment      1: Step Time =    1.000,"P-29-1",            89,            0.,           90.,            0.,NA,NA,"",   332.709E+03,   378.572E+03,   378.572E+03
C:/temp/Job-29.odb,Step-1,Increment      1: Step Time =    1.000,"P-29-1",            90,            0.,          100.,            0.,NA,NA,"",   291.964E+03,   335.031E+03,   335.031E+03
C:/temp/Job-29.odb,Step-1,Increment      1: Step Time =    1.000,"P-29-1",            91,            0.,          110.,            0.,NA,NA,"",   333.440E+03,   379.241E+03,   379.241E+03
C:/temp/Job-29.odb,Step-1,Increment      1: Step Time =    1.000,"P-29-1",            92,            0.,          120.,            0.,NA,NA,"",   432.068E+03,   485.067E+03,   485.067E+03
C:/temp/Job-29.odb,Step-1,Increment      1: Step Time =    1.000,"P-29-1",            93,            0.,          130.,            0.,NA,NA,"",   558.512E+03,   624.099E+03,   624.099E+03
C:/temp/Job-29.odb,Step-1,Increment      1: Step Time =    1.000,"P-29-1",            94,            0.,          140.,            0.,NA,NA,"",   704.994E+03,   786.247E+03,   786.247E+03
C:/temp/Job-29.odb,Step-1,Increment      1: Step Time =    1.000,"P-29-1",            95,            0.,          150.,            0.,NA,NA,"",   849.516E+03,   952.305E+03,   952.305E+03
C:/temp/Job-29.odb,Step-1,Increment      1: Step Time =    1.000,"P-29-1",            96,            0.,          160.,            0.,NA,NA,"",   988.138E+03,   1.10933E+06,   1.10933E+06
C:/temp/Job-29.odb,Step-1,Increment      1: Step Time =    1.000,"P-29-1",            97,            0.,          170.,            0.,NA,NA,"",   1.13545E+06,   1.27205E+06,   1.27205E+06
C:/temp/Job-29.odb,Step-1,Increment      1: Step Time =    1.000,"P-29-1",            98,            0.,          180.,            0.,NA,NA,"",   1.31329E+06,   1.46161E+06,   1.46161E+06
C:/temp/Job-29.odb,Step-1,Increment      1: Step Time =    1.000,"P-29-1",            99,            0.,          190.,            0.,NA,NA,"",   1.59309E+06,   1.74475E+06,   1.74475E+06
C:/temp/Job-29.odb,Step-1,Increment      1: Step Time =    1.000,"P-29-1",           100,       94.7477,       50.7766,            0.,NA,NA,"",   2.17363E+06,   2.32563E+06,   2.32563E+06
C:/temp/Job-29.odb,Step-1,Increment      1: Step Time =    1.000,"P-29-1",           101,       135.582,       73.9132,            0.,NA,NA,"",   1.03236E+06,   862.988E+03,   862.988E+03
C:/temp/Job-29.odb,Step-1,Increment      1: Step Time =    1.000,"P-29-1",           102,       60.7627,       72.3700,            0.,NA,NA,"",   851.820E+03,   665.868E+03,   665.868E+03
C:/temp/Job-29.odb,Step-1,Increment      1: Step Time =    1.000,"P-29-1",           103,       186.054,       149.526,            0.,NA,NA,"",   1.03291E+06,   1.08911E+06,   1.08911E+06
C:/temp/Job-29.odb,Step-1,Increment      1: Step Time =    1.000,"P-29-1",           104,       181.066,       144.622,            0.,NA,NA,"",   1.10722E+06,   1.14101E+06,   1.14101E+06
C:/temp/Job-29.odb,Step-1,Increment      1: Step Time =    1.000,"P-29-1",           105,       166.120,       146.812,            0.,NA,NA,"",   1.37521E+06,   1.28472E+06,   1.28472E+06
C:/temp/Job-29.odb,Step-1,Increment      1: Step Time =    1.000,"P-29-1",           106,       157.571,       148.394,            0.,NA,NA,"",   1.51877E+06,   1.38014E+06,   1.38014E+06
C:/temp/Job-29.odb,Step-1,Increment      1: Step Time =    1.000,"P-29-1",           107,       149.346,       146.475,            0.,NA,NA,"",   1.65774E+06,   1.48393E+06,   1.48393E+06
C:/temp/Job-29.odb,Step-1,Increment      1: Step Time =    1.000,"P-29-1",           108,       137.655,       146.378,            0.,NA,NA,"",   1.77074E+06,   1.65309E+06,   1.65309E+06
C:/temp/Job-29.odb,Step-1,Increment      1: Step Time =    1.000,"P-29-1",           109,       130.335,       150.573,            0.,NA,NA,"",   1.77606E+06,     1.755E+06,     1.755E+06
C:/temp/Job-29.odb,Step-1,Increment      1: Step Time =    1.000,"P-29-1",           110,       112.581,       148.023,            0.,NA,NA,"",   2.17148E+06,   2.32086E+06,   2.32086E+06
C:/temp/Job-29.odb,Step-1,Increment      1: Step Time =    1.000,"P-29-1",           111,       104.143,       147.349,            0.,NA,NA,"",   2.41052E+06,   2.57700E+06,   2.57700E+06
C:/temp/Job-29.odb,Step-1,Increment      1: Step Time =    1.000,"P-29-1",           112,       94.9154,       146.795,            0.,NA,NA,"",   2.36555E+06,   2.51221E+06,   2.51221E+06
C:/temp/Job-29.odb,Step-1,Increment      1: Step Time =    1.000,"P-29-1",           113,       86.2647,       149.776,            0.,NA,NA,"",   1.98391E+06,   2.07590E+06,   2.07590E+06
C:/temp/Job-29.odb,Step-1,Increment      1: Step Time =    1.000,"P-29-1",           114,       73.3639,       147.481,            0.,NA,NA,"",   1.75956E+06,   1.70838E+06,   1.70838E+06
C:/temp/Job-29.odb,Step-1,Increment      1: Step Time =    1.000,"P-29-1",           115,       63.6759,       147.843,            0.,NA,NA,"",   1.63339E+06,   1.50956E+06,   1.50956E+06
C:/temp/Job-29.odb,Step-1,Increment      1: Step Time =    1.000,"P-29-1",           116,       54.5024,       145.872,            0.,NA,NA,"",   1.44523E+06,   1.30344E+06,   1.30344E+06
C:/temp/Job-29.odb,Step-1,Increment      1: Step Time =    1.000,"P-29-1",           117,       43.2674,       147.886,            0.,NA,NA,"",   1.28541E+06,   1.19396E+06,   1.19396E+06
C:/temp/Job-29.odb,Step-1,Increment      1: Step Time =    1.000,"P-29-1",           118,       32.5974,       146.283,            0.,NA,NA,"",   1.08738E+06,   1.05781E+06,   1.05781E+06
C:/temp/Job-29.odb,Step-1,Increment      1: Step Time =    1.000,"P-29-1",           119,       22.2407,       147.601,            0.,NA,NA,"",   978.250E+03,   1.00705E+06,   1.00705E+06
C:/temp/Job-29.odb,Step-1,Increment      1: Step Time =    1.000,"P-29-1",           120,       11.9059,       148.172,            0.,NA,NA,"",   892.680E+03,   963.860E+03,   963.860E+03
C:/temp/Job-29.odb,Step-1,Increment      1: Step Time =    1.000,"P-29-1",           121,       10.1822,       133.558,            0.,NA,NA,"",   624.236E+03,   688.926E+03,   688.926E+03
C:/temp/Job-29.odb,Step-1,Increment      1: Step Time =    1.000,"P-29-1",           122,       21.4515,       134.375,            0.,NA,NA,"",   703.598E+03,   739.500E+03,   739.500E+03
C:/temp/Job-29.odb,Step-1,Increment      1: Step Time =    1.000,"P-29-1",           123,       32.6707,       136.914,            0.,NA,NA,"",   877.439E+03,   851.452E+03,   851.452E+03
C:/temp/Job-29.odb,Step-1,Increment      1: Step Time =    1.000,"P-29-1",           124,       44.6052,       138.317,            0.,NA,NA,"",   1.09867E+06,   990.531E+03,   990.531E+03
C:/temp/Job-29.odb,Step-1,Increment      1: Step Time =    1.000,"P-29-1",           125,       52.0154,       134.288,            0.,NA,NA,"",   1.10363E+06,   946.356E+03,   946.356E+03
C:/temp/Job-29.odb,Step-1,Increment      1: Step Time =    1.000,"P-29-1",           126,       61.2914,       137.623,            0.,NA,NA,"",   1.31399E+06,   1.15766E+06,   1.15766E+06
C:/temp/Job-29.odb,Step-1,Increment      1: Step Time =    1.000,"P-29-1",           127,       71.6994,       140.636,            0.,NA,NA,"",   1.59385E+06,   1.53381E+06,   1.53381E+06
C:/temp/Job-29.odb,Step-1,Increment      1: Step Time =    1.000,"P-29-1",           128,       126.913,       140.937,            0.,NA,NA,"",   1.93317E+06,   1.94918E+06,   1.94918E+06
C:/temp/Job-29.odb,Step-1,Increment      1: Step Time =    1.000,"P-29-1",           129,       137.461,       138.220,            0.,NA,NA,"",   1.74962E+06,   1.58647E+06,   1.58647E+06
C:/temp/Job-29.odb,Step-1,Increment      1: Step Time =    1.000,"P-29-1",           130,       148.436,       136.313,            0.,NA,NA,"",   1.64477E+06,   1.39287E+06,   1.39287E+06
C:/temp/Job-29.odb,Step-1,Increment      1: Step Time =    1.000,"P-29-1",           131,       158.602,       134.738,            0.,NA,NA,"",   1.46118E+06,   1.26778E+06,   1.26778E+06
C:/temp/Job-29.odb,Step-1,Increment      1: Step Time =    1.000,"P-29-1",           132,       166.326,       135.950,            0.,NA,NA,"",   1.34181E+06,   1.23373E+06,   1.23373E+06
C:/temp/Job-29.odb,Step-1,Increment      1: Step Time =    1.000,"P-29-1",           133,       180.265,       134.780,            0.,NA,NA,"",   1.08873E+06,   1.13541E+06,   1.13541E+06
C:/temp/Job-29.odb,Step-1,Increment      1: Step Time =    1.000,"P-29-1",           134,       190.279,       134.830,            0.,NA,NA,"",   941.620E+03,   1.06434E+06,   1.06434E+06
C:/temp/Job-29.odb,Step-1,Increment      1: Step Time =    1.000,"P-29-1",           135,       137.117,       123.141,            0.,NA,NA,"",   842.598E+03,   486.244E+03,   486.244E+03
C:/temp/Job-29.odb,Step-1,Increment      1: Step Time =    1.000,"P-29-1",           136,       148.061,       125.816,            0.,NA,NA,"",   1.38489E+06,   1.04809E+06,   1.04809E+06
C:/temp/Job-29.odb,Step-1,Increment      1: Step Time =    1.000,"P-29-1",           137,       155.969,       127.470,            0.,NA,NA,"",   1.38484E+06,   1.13350E+06,   1.13350E+06
C:/temp/Job-29.odb,Step-1,Increment      1: Step Time =    1.000,"P-29-1",           138,       167.691,       125.093,            0.,NA,NA,"",   1.14720E+06,   1.06733E+06,   1.06733E+06
C:/temp/Job-29.odb,Step-1,Increment      1: Step Time =    1.000,"P-29-1",           139,       179.583,       124.397,            0.,NA,NA,"",   994.953E+03,   1.06964E+06,   1.06964E+06
C:/temp/Job-29.odb,Step-1,Increment      1: Step Time =    1.000,"P-29-1",           140,       190.048,       124.880,            0.,NA,NA,"",   919.062E+03,   1.05444E+06,   1.05444E+06
C:/temp/Job-29.odb,Step-1,Increment      1: Step Time =    1.000,"P-29-1",           141,       147.511,       118.525,            0.,NA,NA,"",   1.06104E+06,   105.048E+03,   105.048E+03
C:/temp/Job-29.odb,Step-1,Increment      1: Step Time =    1.000,"P-29-1",           142,       158.504,       117.218,            0.,NA,NA,"",   984.155E+03,   782.316E+03,   782.316E+03
C:/temp/Job-29.odb,Step-1,Increment      1: Step Time =    1.000,"P-29-1",           143,       166.620,       113.184,            0.,NA,NA,"",   782.145E+03,   764.266E+03,   764.266E+03
C:/temp/Job-29.odb,Step-1,Increment      1: Step Time =    1.000,"P-29-1",           144,       179.957,       114.414,            0.,NA,NA,"",   837.538E+03,   946.399E+03,   946.399E+03
C:/temp/Job-29.odb,Step-1,Increment      1: Step Time =    1.000,"P-29-1",           145,       190.029,       114.876,            0.,NA,NA,"",   892.367E+03,   1.01420E+06,   1.01420E+06
C:/temp/Job-29.odb,Step-1,Increment      1: Step Time =    1.000,"P-29-1",           146,       147.493,       106.898,            0.,NA,NA,"",   712.448E+03,  -648.169E+03,  -648.169E+03
C:/temp/Job-29.odb,Step-1,Increment      1: Step Time =    1.000,"P-29-1",           147,       156.987,       102.909,            0.,NA,NA,"",   400.673E+03,   101.499E+03,   101.499E+03
C:/temp/Job-29.odb,Step-1,Increment      1: Step Time =    1.000,"P-29-1",           148,       167.003,       106.632,            0.,NA,NA,"",   581.312E+03,   612.778E+03,   612.778E+03
C:/temp/Job-29.odb,Step-1,Increment      1: Step Time =    1.000,"P-29-1",           149,       180.596,       104.301,            0.,NA,NA,"",   725.449E+03,   834.064E+03,   834.064E+03
C:/temp/Job-29.odb,Step-1,Increment      1: Step Time =    1.000,"P-29-1",           150,       190.187,       104.886,            0.,NA,NA,"",   878.377E+03,   958.549E+03,   958.549E+03
C:/temp/Job-29.odb,Step-1,Increment      1: Step Time =    1.000,"P-29-1",           151,       147.362,       92.5172,            0.,NA,NA,"",   713.352E+03,  -642.041E+03,  -642.041E+03
C:/temp/Job-29.odb,Step-1,Increment      1: Step Time =    1.000,"P-29-1",           152,       159.755,       95.5035,            0.,NA,NA,"",   438.040E+03,   384.353E+03,   384.353E+03
C:/temp/Job-29.odb,Step-1,Increment      1: Step Time =    1.000,"P-29-1",           153,       168.326,       96.6191,            0.,NA,NA,"",   533.985E+03,   592.621E+03,   592.621E+03
C:/temp/Job-29.odb,Step-1,Increment      1: Step Time =    1.000,"P-29-1",           154,       181.168,       94.4764,            0.,NA,NA,"",   741.653E+03,   852.587E+03,   852.587E+03
C:/temp/Job-29.odb,Step-1,Increment      1: Step Time =    1.000,"P-29-1",           155,       190.483,       95.0537,            0.,NA,NA,"",   883.533E+03,   961.223E+03,   961.223E+03
C:/temp/Job-29.odb,Step-1,Increment      1: Step Time =    1.000,"P-29-1",           156,       148.596,       83.8584,            0.,NA,NA,"",   976.217E+03,   50.4093E+03,   50.4093E+03
C:/temp/Job-29.odb,Step-1,Increment      1: Step Time =    1.000,"P-29-1",           157,       160.089,       82.5451,            0.,NA,NA,"",   990.280E+03,   821.683E+03,   821.683E+03
C:/temp/Job-29.odb,Step-1,Increment      1: Step Time =    1.000,"P-29-1",           158,       169.032,       86.6878,            0.,NA,NA,"",   801.300E+03,   813.727E+03,   813.727E+03
C:/temp/Job-29.odb,Step-1,Increment      1: Step Time =    1.000,"P-29-1",           159,       181.616,       85.5647,            0.,NA,NA,"",   852.394E+03,   971.146E+03,   971.146E+03
C:/temp/Job-29.odb,Step-1,Increment      1: Step Time =    1.000,"P-29-1",           160,       190.756,       85.4327,            0.,NA,NA,"",   897.132E+03,   1.01490E+06,   1.01490E+06
C:/temp/Job-29.odb,Step-1,Increment      1: Step Time =    1.000,"P-29-1",           161,       124.891,       62.1154,            0.,NA,NA,"",   2.06120E+06,   2.09822E+06,   2.09822E+06
C:/temp/Job-29.odb,Step-1,Increment      1: Step Time =    1.000,"P-29-1",           162,       136.968,       60.3182,            0.,NA,NA,"",   1.77640E+06,   1.62646E+06,   1.62646E+06
C:/temp/Job-29.odb,Step-1,Increment      1: Step Time =    1.000,"P-29-1",           163,       146.436,       64.1515,            0.,NA,NA,"",   1.65800E+06,   1.40747E+06,   1.40747E+06
C:/temp/Job-29.odb,Step-1,Increment      1: Step Time =    1.000,"P-29-1",           164,       159.027,       60.2122,            0.,NA,NA,"",   1.49879E+06,   1.32963E+06,   1.32963E+06
C:/temp/Job-29.odb,Step-1,Increment      1: Step Time =    1.000,"P-29-1",           165,       168.033,       63.1618,            0.,NA,NA,"",   1.31712E+06,   1.22791E+06,   1.22791E+06
C:/temp/Job-29.odb,Step-1,Increment      1: Step Time =    1.000,"P-29-1",           166,       178.229,       66.4989,            0.,NA,NA,"",   1.10685E+06,   1.13996E+06,   1.13996E+06
C:/temp/Job-29.odb,Step-1,Increment      1: Step Time =    1.000,"P-29-1",           167,       189.701,       66.9486,            0.,NA,NA,"",   942.211E+03,   1.06566E+06,   1.06566E+06
C:/temp/Job-29.odb,Step-1,Increment      1: Step Time =    1.000,"P-29-1",           168,       190.499,       76.1452,            0.,NA,NA,"",   913.794E+03,   1.05001E+06,   1.05001E+06
C:/temp/Job-29.odb,Step-1,Increment      1: Step Time =    1.000,"P-29-1",           169,       179.460,       78.7294,            0.,NA,NA,"",   945.374E+03,   1.03203E+06,   1.03203E+06
C:/temp/Job-29.odb,Step-1,Increment      1: Step Time =    1.000,"P-29-1",           170,       168.995,       75.1845,            0.,NA,NA,"",   1.11857E+06,   1.05983E+06,   1.05983E+06
C:/temp/Job-29.odb,Step-1,Increment      1: Step Time =    1.000,"P-29-1",           171,       159.118,       71.5450,            0.,NA,NA,"",   1.34666E+06,   1.14005E+06,   1.14005E+06
C:/temp/Job-29.odb,Step-1,Increment      1: Step Time =    1.000,"P-29-1",           172,       146.136,       72.2283,            0.,NA,NA,"",   1.43037E+06,   1.12263E+06,   1.12263E+06
C:/temp/Job-29.odb,Step-1,Increment      1: Step Time =    1.000,"P-29-1",           173,       104.937,       52.2244,            0.,NA,NA,"",   2.41349E+06,   2.57772E+06,   2.57772E+06
C:/temp/Job-29.odb,Step-1,Increment      1: Step Time =    1.000,"P-29-1",           174,       13.1418,       51.2360,            0.,NA,NA,"",   912.518E+03,   979.849E+03,   979.849E+03
C:/temp/Job-29.odb,Step-1,Increment      1: Step Time =    1.000,"P-29-1",           175,       18.1001,       55.3631,            0.,NA,NA,"",   879.313E+03,   925.540E+03,   925.540E+03
C:/temp/Job-29.odb,Step-1,Increment      1: Step Time =    1.000,"P-29-1",           176,       31.6626,       51.8399,            0.,NA,NA,"",   1.11627E+06,   1.09217E+06,   1.09217E+06
C:/temp/Job-29.odb,Step-1,Increment      1: Step Time =    1.000,"P-29-1",           177,       40.0554,       51.5789,            0.,NA,NA,"",   1.25108E+06,   1.17491E+06,   1.17491E+06
C:/temp/Job-29.odb,Step-1,Increment      1: Step Time =    1.000,"P-29-1",           178,       51.2835,       51.2704,            0.,NA,NA,"",   1.43835E+06,   1.31130E+06,   1.31130E+06
C:/temp/Job-29.odb,Step-1,Increment      1: Step Time =    1.000,"P-29-1",           179,       63.8275,       49.5674,            0.,NA,NA,"",   1.65052E+06,   1.53432E+06,   1.53432E+06
C:/temp/Job-29.odb,Step-1,Increment      1: Step Time =    1.000,"P-29-1",           180,       74.6186,       53.6364,            0.,NA,NA,"",   1.77977E+06,   1.74782E+06,   1.74782E+06
C:/temp/Job-29.odb,Step-1,Increment      1: Step Time =    1.000,"P-29-1",           181,       83.1813,       52.8211,            0.,NA,NA,"",   1.98631E+06,   2.04762E+06,   2.04762E+06
C:/temp/Job-29.odb,Step-1,Increment      1: Step Time =    1.000,"P-29-1",           182,       112.448,       53.7372,            0.,NA,NA,"",   2.30041E+06,   2.45081E+06,   2.45081E+06
C:/temp/Job-29.odb,Step-1,Increment      1: Step Time =    1.000,"P-29-1",           183,       129.409,       55.5321,            0.,NA,NA,"",   1.86004E+06,   1.84289E+06,   1.84289E+06
C:/temp/Job-29.odb,Step-1,Increment      1: Step Time =    1.000,"P-29-1",           184,       138.148,       53.2022,            0.,NA,NA,"",   1.76550E+06,   1.64615E+06,   1.64615E+06
C:/temp/Job-29.odb,Step-1,Increment      1: Step Time =    1.000,"P-29-1",           185,       148.732,       54.8534,            0.,NA,NA,"",   1.67021E+06,   1.48842E+06,   1.48842E+06
C:/temp/Job-29.odb,Step-1,Increment      1: Step Time =    1.000,"P-29-1",           186,       156.764,       54.3947,            0.,NA,NA,"",   1.53821E+06,   1.38341E+06,   1.38341E+06
C:/temp/Job-29.odb,Step-1,Increment      1: Step Time =    1.000,"P-29-1",           187,       170.603,       51.5375,            0.,NA,NA,"",   1.28353E+06,   1.23443E+06,   1.23443E+06
C:/temp/Job-29.odb,Step-1,Increment      1: Step Time =    1.000,"P-29-1",           188,       181.545,       51.9502,            0.,NA,NA,"",   1.10361E+06,   1.13318E+06,   1.13318E+06
C:/temp/Job-29.odb,Step-1,Increment      1: Step Time =    1.000,"P-29-1",           189,       188.000,       51.9933,            0.,NA,NA,"",   1.00627E+06,   1.07599E+06,   1.07599E+06
C:/temp/Job-29.odb,Step-1,Increment      1: Step Time =    1.000,"P-29-1",           190,       76.5298,       64.0115,            0.,NA,NA,"",   1.57609E+06,   1.58722E+06,   1.58722E+06
C:/temp/Job-29.odb,Step-1,Increment      1: Step Time =    1.000,"P-29-1",           191,       63.5955,       63.9354,            0.,NA,NA,"",   1.30246E+06,   1.15630E+06,   1.15630E+06
C:/temp/Job-29.odb,Step-1,Increment      1: Step Time =    1.000,"P-29-1",           192,       54.0886,       61.0984,            0.,NA,NA,"",   1.28512E+06,   1.12895E+06,   1.12895E+06
C:/temp/Job-29.odb,Step-1,Increment      1: Step Time =    1.000,"P-29-1",           193,       43.2911,       62.2799,            0.,NA,NA,"",   1.06628E+06,   963.522E+03,   963.522E+03
C:/temp/Job-29.odb,Step-1,Increment      1: Step Time =    1.000,"P-29-1",           194,       32.1469,       60.0818,            0.,NA,NA,"",   941.514E+03,   917.901E+03,   917.901E+03
C:/temp/Job-29.odb,Step-1,Increment      1: Step Time =    1.000,"P-29-1",           195,       19.6533,       64.8939,            0.,NA,NA,"",   701.068E+03,   742.556E+03,   742.556E+03
C:/temp/Job-29.odb,Step-1,Increment      1: Step Time =    1.000,"P-29-1",           196,       9.67202,       65.2524,            0.,NA,NA,"",   641.300E+03,   707.782E+03,   707.782E+03
C:/temp/Job-29.odb,Step-1,Increment      1: Step Time =    1.000,"P-29-1",           197,       51.6994,       71.3470,            0.,NA,NA,"",   886.740E+03,   709.873E+03,   709.873E+03
C:/temp/Job-29.odb,Step-1,Increment      1: Step Time =    1.000,"P-29-1",           198,       42.0178,       73.4379,            0.,NA,NA,"",   715.562E+03,   624.741E+03,   624.741E+03
C:/temp/Job-29.odb,Step-1,Increment      1: Step Time =    1.000,"P-29-1",           199,       31.5767,       75.1786,            0.,NA,NA,"",   570.362E+03,   565.083E+03,   565.083E+03
C:/temp/Job-29.odb,Step-1,Increment      1: Step Time =    1.000,"P-29-1",           200,       20.7634,       75.0518,            0.,NA,NA,"",   507.252E+03,   549.502E+03,   549.502E+03
C:/temp/Job-29.odb,Step-1,Increment      1: Step Time =    1.000,"P-29-1",           201,       10.1038,       75.1274,            0.,NA,NA,"",   484.044E+03,   542.579E+03,   542.579E+03
C:/temp/Job-29.odb,Step-1,Increment      1: Step Time =    1.000,"P-29-1",           202,       10.2353,       85.0649,            0.,NA,NA,"",   351.651E+03,   402.900E+03,   402.900E+03
C:/temp/Job-29.odb,Step-1,Increment      1: Step Time =    1.000,"P-29-1",           203,       21.0284,       85.2592,            0.,NA,NA,"",   333.082E+03,   376.825E+03,   376.825E+03
C:/temp/Job-29.odb,Step-1,Increment      1: Step Time =    1.000,"P-29-1",           204,       31.8812,       84.8977,            0.,NA,NA,"",   348.629E+03,   355.541E+03,   355.541E+03
C:/temp/Job-29.odb,Step-1,Increment      1: Step Time =    1.000,"P-29-1",           205,       42.2945,       84.7186,            0.,NA,NA,"",   398.002E+03,   307.769E+03,   307.769E+03
C:/temp/Job-29.odb,Step-1,Increment      1: Step Time =    1.000,"P-29-1",           206,       50.7749,       85.9809,            0.,NA,NA,"",   418.504E+03,  -92.8112E+03,  -92.8112E+03
C:/temp/Job-29.odb,Step-1,Increment      1: Step Time =    1.000,"P-29-1",           207,       52.6075,       96.0347,            0.,NA,NA,"",   403.629E+03,  -423.992E+03,  -423.992E+03
C:/temp/Job-29.odb,Step-1,Increment      1: Step Time =    1.000,"P-29-1",           208,       42.3624,       94.6842,            0.,NA,NA,"",   157.914E+03,  -13.6291E+03,  -13.6291E+03
C:/temp/Job-29.odb,Step-1,Increment      1: Step Time =    1.000,"P-29-1",           209,       32.3504,       95.5985,            0.,NA,NA,"",   163.093E+03,   183.997E+03,   183.997E+03
C:/temp/Job-29.odb,Step-1,Increment      1: Step Time =    1.000,"P-29-1",           210,       20.6244,       95.3511,            0.,NA,NA,"",   231.264E+03,   262.125E+03,   262.125E+03
C:/temp/Job-29.odb,Step-1,Increment      1: Step Time =    1.000,"P-29-1",           211,       10.1038,       94.9347,            0.,NA,NA,"",   272.416E+03,   312.963E+03,   312.963E+03
C:/temp/Job-29.odb,Step-1,Increment      1: Step Time =    1.000,"P-29-1",           212,       51.4759,       103.429,            0.,NA,NA,"",   348.092E+03,  -367.562E+03,  -367.562E+03
C:/temp/Job-29.odb,Step-1,Increment      1: Step Time =    1.000,"P-29-1",           213,       42.2497,       104.001,            0.,NA,NA,"",   133.397E+03,  -1.90964E+03,  -1.90964E+03
C:/temp/Job-29.odb,Step-1,Increment      1: Step Time =    1.000,"P-29-1",           214,       32.2589,       106.259,            0.,NA,NA,"",   187.380E+03,   207.570E+03,   207.570E+03
C:/temp/Job-29.odb,Step-1,Increment      1: Step Time =    1.000,"P-29-1",           215,       19.8143,       104.912,            0.,NA,NA,"",   237.395E+03,   269.828E+03,   269.828E+03
C:/temp/Job-29.odb,Step-1,Increment      1: Step Time =    1.000,"P-29-1",           216,       9.89496,       104.887,            0.,NA,NA,"",   272.943E+03,   313.564E+03,   313.564E+03
C:/temp/Job-29.odb,Step-1,Increment      1: Step Time =    1.000,"P-29-1",           217,       52.7914,       113.291,            0.,NA,NA,"",   423.538E+03,  -349.764E+03,  -349.764E+03
C:/temp/Job-29.odb,Step-1,Increment      1: Step Time =    1.000,"P-29-1",           218,       40.6451,       116.536,            0.,NA,NA,"",   417.775E+03,   351.521E+03,   351.521E+03
C:/temp/Job-29.odb,Step-1,Increment      1: Step Time =    1.000,"P-29-1",           219,       32.4442,       116.426,            0.,NA,NA,"",   379.044E+03,   380.798E+03,   380.798E+03
C:/temp/Job-29.odb,Step-1,Increment      1: Step Time =    1.000,"P-29-1",           220,       20.1645,       114.742,            0.,NA,NA,"",   335.795E+03,   381.427E+03,   381.427E+03
C:/temp/Job-29.odb,Step-1,Increment      1: Step Time =    1.000,"P-29-1",           221,       9.71855,       114.742,            0.,NA,NA,"",   352.241E+03,   403.586E+03,   403.586E+03
C:/temp/Job-29.odb,Step-1,Increment      1: Step Time =    1.000,"P-29-1",           222,       60.5403,       122.865,            0.,NA,NA,"",   570.748E+03,   123.087E+03,   123.087E+03
C:/temp/Job-29.odb,Step-1,Increment      1: Step Time =    1.000,"P-29-1",           223,       52.8803,       125.680,            0.,NA,NA,"",   789.182E+03,   598.707E+03,   598.707E+03
C:/temp/Job-29.odb,Step-1,Increment      1: Step Time =    1.000,"P-29-1",           224,       43.9728,       126.543,            0.,NA,NA,"",   743.190E+03,   630.366E+03,   630.366E+03
C:/temp/Job-29.odb,Step-1,Increment      1: Step Time =    1.000,"P-29-1",           225,       29.2197,       126.350,            0.,NA,NA,"",   587.892E+03,   593.935E+03,   593.935E+03
C:/temp/Job-29.odb,Step-1,Increment      1: Step Time =    1.000,"P-29-1",           226,       19.4487,       124.240,            0.,NA,NA,"",   491.093E+03,   537.597E+03,   537.597E+03
C:/temp/Job-29.odb,Step-1,Increment      1: Step Time =    1.000,"P-29-1",           227,       9.54606,       124.292,            0.,NA,NA,"",   475.302E+03,   533.901E+03,   533.901E+03
C:/temp/Job-29.odb,Step-1,Increment      1: Step Time =    1.000,"P-29-1",           228,       188.333,       12.1910,            0.,NA,NA,"",   1.00633E+06,   1.00870E+06,   1.00870E+06
C:/temp/Job-29.odb,Step-1,Increment      1: Step Time =    1.000,"P-29-1",           229,       178.195,       9.57761,            0.,NA,NA,"",   1.01685E+06,   1.01660E+06,   1.01660E+06
C:/temp/Job-29.odb,Step-1,Increment      1: Step Time =    1.000,"P-29-1",           230,       168.803,       9.44771,            0.,NA,NA,"",   1.02885E+06,   1.02519E+06,   1.02519E+06
C:/temp/Job-29.odb,Step-1,Increment      1: Step Time =    1.000,"P-29-1",           231,       158.473,       10.8456,            0.,NA,NA,"",   1.04587E+06,   1.03726E+06,   1.03726E+06
C:/temp/Job-29.odb,Step-1,Increment      1: Step Time =    1.000,"P-29-1",           232,       148.830,       12.1767,            0.,NA,NA,"",   1.05480E+06,   1.04261E+06,   1.04261E+06
C:/temp/Job-29.odb,Step-1,Increment      1: Step Time =    1.000,"P-29-1",           233,       135.029,       9.77663,            0.,NA,NA,"",   972.595E+03,   968.018E+03,   968.018E+03
C:/temp/Job-29.odb,Step-1,Increment      1: Step Time =    1.000,"P-29-1",           234,       125.050,       10.0277,            0.,NA,NA,"",   924.419E+03,   928.793E+03,   928.793E+03
C:/temp/Job-29.odb,Step-1,Increment      1: Step Time =    1.000,"P-29-1",           235,       114.991,       10.0817,            0.,NA,NA,"",   884.883E+03,   899.293E+03,   899.293E+03
C:/temp/Job-29.odb,Step-1,Increment      1: Step Time =    1.000,"P-29-1",           236,       105.023,       9.91597,            0.,NA,NA,"",    885.87E+03,   903.945E+03,   903.945E+03
C:/temp/Job-29.odb,Step-1,Increment      1: Step Time =    1.000,"P-29-1",           237,       95.0621,       9.76491,            0.,NA,NA,"",   950.911E+03,   962.654E+03,   962.654E+03
C:/temp/Job-29.odb,Step-1,Increment      1: Step Time =    1.000,"P-29-1",           238,       85.2544,       9.64513,            0.,NA,NA,"",   1.06224E+06,   1.06258E+06,   1.06258E+06
C:/temp/Job-29.odb,Step-1,Increment      1: Step Time =    1.000,"P-29-1",           239,       75.7234,       9.49642,            0.,NA,NA,"",   1.18726E+06,   1.17893E+06,   1.17893E+06
C:/temp/Job-29.odb,Step-1,Increment      1: Step Time =    1.000,"P-29-1",           240,       66.5162,       10.1850,            0.,NA,NA,"",   1.31839E+06,   1.30345E+06,   1.30345E+06
C:/temp/Job-29.odb,Step-1,Increment      1: Step Time =    1.000,"P-29-1",           241,       51.9222,       11.9756,            0.,NA,NA,"",   1.47312E+06,   1.45168E+06,   1.45168E+06
C:/temp/Job-29.odb,Step-1,Increment      1: Step Time =    1.000,"P-29-1",           242,       39.1979,       9.36174,            0.,NA,NA,"",   1.55163E+06,   1.54279E+06,   1.54279E+06
C:/temp/Job-29.odb,Step-1,Increment      1: Step Time =    1.000,"P-29-1",           243,       30.1086,       8.55885,            0.,NA,NA,"",   1.61416E+06,   1.61104E+06,   1.61104E+06
C:/temp/Job-29.odb,Step-1,Increment      1: Step Time =    1.000,"P-29-1",           244,       21.6169,       8.44080,            0.,NA,NA,"",   1.66747E+06,   1.67342E+06,   1.67342E+06
C:/temp/Job-29.odb,Step-1,Increment      1: Step Time =    1.000,"P-29-1",           245,       12.0804,       11.7362,            0.,NA,NA,"",   1.67277E+06,   1.72384E+06,   1.72384E+06
C:/temp/Job-29.odb,Step-1,Increment      1: Step Time =    1.000,"P-29-1",           246,       191.745,       21.7868,            0.,NA,NA,"",   1.00249E+06,   1.01053E+06,   1.01053E+06
C:/temp/Job-29.odb,Step-1,Increment      1: Step Time =    1.000,"P-29-1",           247,       178.929,       22.7083,            0.,NA,NA,"",   1.05692E+06,   1.05774E+06,   1.05774E+06
C:/temp/Job-29.odb,Step-1,Increment      1: Step Time =    1.000,"P-29-1",           248,       168.874,       23.2771,            0.,NA,NA,"",   1.12926E+06,   1.11239E+06,   1.11239E+06
C:/temp/Job-29.odb,Step-1,Increment      1: Step Time =    1.000,"P-29-1",           249,       161.748,       24.0273,            0.,NA,NA,"",   1.17798E+06,   1.14981E+06,   1.14981E+06
C:/temp/Job-29.odb,Step-1,Increment      1: Step Time =    1.000,"P-29-1",           250,       144.263,       19.9797,            0.,NA,NA,"",   1.18493E+06,   1.15969E+06,   1.15969E+06
C:/temp/Job-29.odb,Step-1,Increment      1: Step Time =    1.000,"P-29-1",           251,       135.163,       19.9475,            0.,NA,NA,"",   1.17938E+06,   1.16824E+06,   1.16824E+06
C:/temp/Job-29.odb,Step-1,Increment      1: Step Time =    1.000,"P-29-1",           252,       125.102,       20.1039,            0.,NA,NA,"",   1.15238E+06,   1.16791E+06,   1.16791E+06
C:/temp/Job-29.odb,Step-1,Increment      1: Step Time =    1.000,"P-29-1",           253,       114.729,       20.3840,            0.,NA,NA,"",   1.11556E+06,   1.16163E+06,   1.16163E+06
C:/temp/Job-29.odb,Step-1,Increment      1: Step Time =    1.000,"P-29-1",           254,       104.510,       19.7173,            0.,NA,NA,"",   1.10798E+06,   1.16214E+06,   1.16214E+06
C:/temp/Job-29.odb,Step-1,Increment      1: Step Time =    1.000,"P-29-1",           255,       95.0139,       19.2179,            0.,NA,NA,"",   1.16799E+06,   1.20576E+06,   1.20576E+06
C:/temp/Job-29.odb,Step-1,Increment      1: Step Time =    1.000,"P-29-1",           256,       85.2239,       19.9447,            0.,NA,NA,"",   1.28733E+06,   1.29836E+06,   1.29836E+06
C:/temp/Job-29.odb,Step-1,Increment      1: Step Time =    1.000,"P-29-1",           257,       75.8459,       19.0903,            0.,NA,NA,"",   1.37451E+06,   1.35572E+06,   1.35572E+06
C:/temp/Job-29.odb,Step-1,Increment      1: Step Time =    1.000,"P-29-1",           258,       66.0914,       21.4589,            0.,NA,NA,"",   1.48138E+06,   1.43846E+06,   1.43846E+06
C:/temp/Job-29.odb,Step-1,Increment      1: Step Time =    1.000,"P-29-1",           259,       52.7953,       22.4355,            0.,NA,NA,"",   1.52702E+06,   1.47571E+06,   1.47571E+06
C:/temp/Job-29.odb,Step-1,Increment      1: Step Time =    1.000,"P-29-1",           260,       42.6851,       20.3120,            0.,NA,NA,"",   1.52802E+06,   1.49331E+06,   1.49331E+06
C:/temp/Job-29.odb,Step-1,Increment      1: Step Time =    1.000,"P-29-1",           261,       29.1438,       18.6572,            0.,NA,NA,"",   1.54044E+06,   1.53744E+06,   1.53744E+06
C:/temp/Job-29.odb,Step-1,Increment      1: Step Time =    1.000,"P-29-1",           262,       22.2053,       21.7530,            0.,NA,NA,"",   1.49299E+06,   1.51476E+06,   1.51476E+06
C:/temp/Job-29.odb,Step-1,Increment      1: Step Time =    1.000,"P-29-1",           263,       9.62778,       21.7929,            0.,NA,NA,"",   1.38633E+06,   1.48607E+06,   1.48607E+06
C:/temp/Job-29.odb,Step-1,Increment      1: Step Time =    1.000,"P-29-1",           264,       191.900,       30.2899,            0.,NA,NA,"",   997.255E+03,   1.01777E+06,   1.01777E+06
C:/temp/Job-29.odb,Step-1,Increment      1: Step Time =    1.000,"P-29-1",           265,       176.580,       29.4974,            0.,NA,NA,"",   1.10326E+06,   1.09936E+06,   1.09936E+06
C:/temp/Job-29.odb,Step-1,Increment      1: Step Time =    1.000,"P-29-1",           266,       168.495,       34.6633,            0.,NA,NA,"",   1.22557E+06,   1.19063E+06,   1.19063E+06
C:/temp/Job-29.odb,Step-1,Increment      1: Step Time =    1.000,"P-29-1",           267,       156.728,       33.7285,            0.,NA,NA,"",   1.33948E+06,   1.27700E+06,   1.27700E+06
C:/temp/Job-29.odb,Step-1,Increment      1: Step Time =    1.000,"P-29-1",           268,       146.303,       30.7349,            0.,NA,NA,"",   1.37225E+06,   1.31883E+06,   1.31883E+06
C:/temp/Job-29.odb,Step-1,Increment      1: Step Time =    1.000,"P-29-1",           269,       124.752,       30.3820,            0.,NA,NA,"",   1.36206E+06,   1.39306E+06,   1.39306E+06
C:/temp/Job-29.odb,Step-1,Increment      1: Step Time =    1.000,"P-29-1",           270,       112.544,       32.1089,            0.,NA,NA,"",   1.36064E+06,   1.45834E+06,   1.45834E+06
C:/temp/Job-29.odb,Step-1,Increment      1: Step Time =    1.000,"P-29-1",           271,       104.404,       29.5914,            0.,NA,NA,"",   1.31288E+06,   1.41056E+06,   1.41056E+06
C:/temp/Job-29.odb,Step-1,Increment      1: Step Time =    1.000,"P-29-1",           272,       96.3493,       31.6495,            0.,NA,NA,"",   1.41041E+06,   1.50287E+06,   1.50287E+06
C:/temp/Job-29.odb,Step-1,Increment      1: Step Time =    1.000,"P-29-1",           273,       85.1900,       32.2699,            0.,NA,NA,"",   1.53237E+06,   1.56780E+06,   1.56780E+06
C:/temp/Job-29.odb,Step-1,Increment      1: Step Time =    1.000,"P-29-1",           274,       73.3755,       34.2559,            0.,NA,NA,"",   1.64158E+06,   1.60238E+06,   1.60238E+06
C:/temp/Job-29.odb,Step-1,Increment      1: Step Time =    1.000,"P-29-1",           275,       64.2845,       32.5581,            0.,NA,NA,"",   1.61680E+06,   1.54172E+06,   1.54172E+06
C:/temp/Job-29.odb,Step-1,Increment      1: Step Time =    1.000,"P-29-1",           276,       54.9647,       32.5973,            0.,NA,NA,"",   1.57552E+06,   1.49216E+06,   1.49216E+06
C:/temp/Job-29.odb,Step-1,Increment      1: Step Time =    1.000,"P-29-1",           277,       41.2523,       30.7715,            0.,NA,NA,"",   1.49496E+06,   1.44178E+06,   1.44178E+06
C:/temp/Job-29.odb,Step-1,Increment      1: Step Time =    1.000,"P-29-1",           278,       32.6748,       31.1274,            0.,NA,NA,"",   1.43221E+06,   1.40986E+06,   1.40986E+06
C:/temp/Job-29.odb,Step-1,Increment      1: Step Time =    1.000,"P-29-1",           279,       23.0217,       32.0237,            0.,NA,NA,"",   1.34194E+06,   1.36442E+06,   1.36442E+06
C:/temp/Job-29.odb,Step-1,Increment      1: Step Time =    1.000,"P-29-1",           280,       9.26145,       31.1229,            0.,NA,NA,"",   1.20606E+06,   1.30734E+06,   1.30734E+06
C:/temp/Job-29.odb,Step-1,Increment      1: Step Time =    1.000,"P-29-1",           281,       191.024,       39.2330,            0.,NA,NA,"",   987.363E+03,   1.03084E+06,   1.03084E+06
C:/temp/Job-29.odb,Step-1,Increment      1: Step Time =    1.000,"P-29-1",           282,       181.293,       41.1826,            0.,NA,NA,"",   1.09664E+06,   1.11108E+06,   1.11108E+06
C:/temp/Job-29.odb,Step-1,Increment      1: Step Time =    1.000,"P-29-1",           283,       168.975,       40.9446,            0.,NA,NA,"",   1.26363E+06,   1.21924E+06,   1.21924E+06
C:/temp/Job-29.odb,Step-1,Increment      1: Step Time =    1.000,"P-29-1",           284,       159.776,       41.7516,            0.,NA,NA,"",   1.39825E+06,   1.31408E+06,   1.31408E+06
C:/temp/Job-29.odb,Step-1,Increment      1: Step Time =    1.000,"P-29-1",           285,       146.801,       46.3573,            0.,NA,NA,"",   1.61719E+06,   1.49082E+06,   1.49082E+06
C:/temp/Job-29.odb,Step-1,Increment      1: Step Time =    1.000,"P-29-1",           286,       136.660,       43.7107,            0.,NA,NA,"",   1.65472E+06,   1.59361E+06,   1.59361E+06
C:/temp/Job-29.odb,Step-1,Increment      1: Step Time =    1.000,"P-29-1",           287,       124.240,       41.9776,            0.,NA,NA,"",   1.63259E+06,   1.68050E+06,   1.68050E+06
C:/temp/Job-29.odb,Step-1,Increment      1: Step Time =    1.000,"P-29-1",           288,       113.994,       43.8111,            0.,NA,NA,"",   1.72059E+06,   1.85039E+06,   1.85039E+06
C:/temp/Job-29.odb,Step-1,Increment      1: Step Time =    1.000,"P-29-1",           289,       102.768,       43.6474,            0.,NA,NA,"",   1.76214E+06,   1.92308E+06,   1.92308E+06
C:/temp/Job-29.odb,Step-1,Increment      1: Step Time =    1.000,"P-29-1",           290,       93.3402,       41.2725,            0.,NA,NA,"",   1.69091E+06,   1.80908E+06,   1.80908E+06
C:/temp/Job-29.odb,Step-1,Increment      1: Step Time =    1.000,"P-29-1",           291,       84.8192,       41.5887,            0.,NA,NA,"",   1.72853E+06,   1.78458E+06,   1.78458E+06
C:/temp/Job-29.odb,Step-1,Increment      1: Step Time =    1.000,"P-29-1",           292,       73.1023,       42.2285,            0.,NA,NA,"",   1.73182E+06,   1.68263E+06,   1.68263E+06
C:/temp/Job-29.odb,Step-1,Increment      1: Step Time =    1.000,"P-29-1",           293,       62.7371,       41.7536,            0.,NA,NA,"",   1.66204E+06,   1.56242E+06,   1.56242E+06
C:/temp/Job-29.odb,Step-1,Increment      1: Step Time =    1.000,"P-29-1",           294,       51.1381,       43.0700,            0.,NA,NA,"",   1.52317E+06,   1.41614E+06,   1.41614E+06
C:/temp/Job-29.odb,Step-1,Increment      1: Step Time =    1.000,"P-29-1",           295,       41.3882,       43.8214,            0.,NA,NA,"",   1.38171E+06,   1.30937E+06,   1.30937E+06
C:/temp/Job-29.odb,Step-1,Increment      1: Step Time =    1.000,"P-29-1",           296,       33.4367,       42.9042,            0.,NA,NA,"",   1.29261E+06,   1.25968E+06,   1.25968E+06
C:/temp/Job-29.odb,Step-1,Increment      1: Step Time =    1.000,"P-29-1",           297,       23.1635,       40.2273,            0.,NA,NA,"",   1.21318E+06,   1.23607E+06,   1.23607E+06
C:/temp/Job-29.odb,Step-1,Increment      1: Step Time =    1.000,"P-29-1",           298,       9.99089,       41.2649,            0.,NA,NA,"",   1.04916E+06,   1.13760E+06,   1.13760E+06
C:/temp/Job-29.odb,Step-1,Increment      1: Step Time =    1.000,"P-29-1",           299,       190.861,       159.479,            0.,NA,NA,"",   988.215E+03,   1.03449E+06,   1.03449E+06
C:/temp/Job-29.odb,Step-1,Increment      1: Step Time =    1.000,"P-29-1",           300,       176.691,       158.705,            0.,NA,NA,"",   1.15489E+06,   1.14938E+06,   1.14938E+06
C:/temp/Job-29.odb,Step-1,Increment      1: Step Time =    1.000,"P-29-1",           301,       168.732,       155.879,            0.,NA,NA,"",   1.28410E+06,   1.23437E+06,   1.23437E+06
C:/temp/Job-29.odb,Step-1,Increment      1: Step Time =    1.000,"P-29-1",           302,       156.992,       157.796,            0.,NA,NA,"",   1.43691E+06,   1.34248E+06,   1.34248E+06
C:/temp/Job-29.odb,Step-1,Increment      1: Step Time =    1.000,"P-29-1",           303,       146.685,       156.221,            0.,NA,NA,"",   1.58363E+06,   1.47255E+06,   1.47255E+06
C:/temp/Job-29.odb,Step-1,Increment      1: Step Time =    1.000,"P-29-1",           304,       135.032,       159.813,            0.,NA,NA,"",   1.58754E+06,   1.54577E+06,   1.54577E+06
C:/temp/Job-29.odb,Step-1,Increment      1: Step Time =    1.000,"P-29-1",           305,       127.911,       159.731,            0.,NA,NA,"",   1.59067E+06,   1.60495E+06,   1.60495E+06
C:/temp/Job-29.odb,Step-1,Increment      1: Step Time =    1.000,"P-29-1",           306,       115.716,       157.433,            0.,NA,NA,"",   1.66294E+06,   1.78306E+06,   1.78306E+06
C:/temp/Job-29.odb,Step-1,Increment      1: Step Time =    1.000,"P-29-1",           307,       107.663,       156.934,            0.,NA,NA,"",   1.70948E+06,   1.86302E+06,   1.86302E+06
C:/temp/Job-29.odb,Step-1,Increment      1: Step Time =    1.000,"P-29-1",           308,       97.7616,       159.913,            0.,NA,NA,"",   1.63417E+06,   1.76727E+06,   1.76727E+06
C:/temp/Job-29.odb,Step-1,Increment      1: Step Time =    1.000,"P-29-1",           309,       83.4002,       161.804,            0.,NA,NA,"",   1.65984E+06,   1.69502E+06,   1.69502E+06
C:/temp/Job-29.odb,Step-1,Increment      1: Step Time =    1.000,"P-29-1",           310,       71.3552,       154.099,            0.,NA,NA,"",   1.73773E+06,   1.67162E+06,   1.67162E+06
C:/temp/Job-29.odb,Step-1,Increment      1: Step Time =    1.000,"P-29-1",           311,       62.2110,       156.098,            0.,NA,NA,"",   1.65455E+06,   1.54582E+06,   1.54582E+06
C:/temp/Job-29.odb,Step-1,Increment      1: Step Time =    1.000,"P-29-1",           312,       52.5600,       158.970,            0.,NA,NA,"",   1.55302E+06,   1.44967E+06,   1.44967E+06
C:/temp/Job-29.odb,Step-1,Increment      1: Step Time =    1.000,"P-29-1",           313,       41.4730,       157.325,            0.,NA,NA,"",   1.39746E+06,   1.32596E+06,   1.32596E+06
C:/temp/Job-29.odb,Step-1,Increment      1: Step Time =    1.000,"P-29-1",           314,       29.1227,       158.729,            0.,NA,NA,"",   1.26279E+06,   1.25356E+06,   1.25356E+06
C:/temp/Job-29.odb,Step-1,Increment      1: Step Time =    1.000,"P-29-1",           315,       20.0058,       157.751,            0.,NA,NA,"",   1.14013E+06,   1.17897E+06,   1.17897E+06
C:/temp/Job-29.odb,Step-1,Increment      1: Step Time =    1.000,"P-29-1",           316,       8.93949,       160.604,            0.,NA,NA,"",   1.06370E+06,   1.15938E+06,   1.15938E+06
C:/temp/Job-29.odb,Step-1,Increment      1: Step Time =    1.000,"P-29-1",           317,       190.850,       168.985,            0.,NA,NA,"",   1.00158E+06,   1.02361E+06,   1.02361E+06
C:/temp/Job-29.odb,Step-1,Increment      1: Step Time =    1.000,"P-29-1",           318,       181.728,       168.128,            0.,NA,NA,"",   1.06687E+06,   1.07596E+06,   1.07596E+06
C:/temp/Job-29.odb,Step-1,Increment      1: Step Time =    1.000,"P-29-1",           319,       169.028,       171.412,            0.,NA,NA,"",   1.17133E+06,   1.14763E+06,   1.14763E+06
C:/temp/Job-29.odb,Step-1,Increment      1: Step Time =    1.000,"P-29-1",           320,       157.653,       166.718,            0.,NA,NA,"",   1.33018E+06,   1.26935E+06,   1.26935E+06
C:/temp/Job-29.odb,Step-1,Increment      1: Step Time =    1.000,"P-29-1",           321,       147.611,       169.697,            0.,NA,NA,"",   1.35391E+06,   1.29951E+06,   1.29951E+06
C:/temp/Job-29.odb,Step-1,Increment      1: Step Time =    1.000,"P-29-1",           322,       136.993,       169.418,            0.,NA,NA,"",   1.39779E+06,   1.36917E+06,   1.36917E+06
C:/temp/Job-29.odb,Step-1,Increment      1: Step Time =    1.000,"P-29-1",           323,       127.248,       168.116,            0.,NA,NA,"",   1.40586E+06,   1.42577E+06,   1.42577E+06
C:/temp/Job-29.odb,Step-1,Increment      1: Step Time =    1.000,"P-29-1",           324,       116.084,       167.386,            0.,NA,NA,"",   1.38400E+06,   1.46971E+06,   1.46971E+06
C:/temp/Job-29.odb,Step-1,Increment      1: Step Time =    1.000,"P-29-1",           325,       106.586,       166.624,            0.,NA,NA,"",   1.39768E+06,   1.51123E+06,   1.51123E+06
C:/temp/Job-29.odb,Step-1,Increment      1: Step Time =    1.000,"P-29-1",           326,       95.1216,       167.525,            0.,NA,NA,"",   1.44200E+06,   1.53423E+06,   1.53423E+06
C:/temp/Job-29.odb,Step-1,Increment      1: Step Time =    1.000,"P-29-1",           327,       86.9098,       168.729,            0.,NA,NA,"",   1.50152E+06,   1.54685E+06,   1.54685E+06
C:/temp/Job-29.odb,Step-1,Increment      1: Step Time =    1.000,"P-29-1",           328,       71.4590,       169.406,            0.,NA,NA,"",   1.59052E+06,   1.54399E+06,   1.54399E+06
C:/temp/Job-29.odb,Step-1,Increment      1: Step Time =    1.000,"P-29-1",           329,       62.6872,       168.583,            0.,NA,NA,"",   1.59982E+06,   1.52424E+06,   1.52424E+06
C:/temp/Job-29.odb,Step-1,Increment      1: Step Time =    1.000,"P-29-1",           330,       52.1431,       167.216,            0.,NA,NA,"",   1.56363E+06,   1.48327E+06,   1.48327E+06
C:/temp/Job-29.odb,Step-1,Increment      1: Step Time =    1.000,"P-29-1",           331,       45.5129,       169.163,            0.,NA,NA,"",   1.52375E+06,   1.45803E+06,   1.45803E+06
C:/temp/Job-29.odb,Step-1,Increment      1: Step Time =    1.000,"P-29-1",           332,       32.7606,       167.327,            0.,NA,NA,"",   1.41842E+06,   1.39494E+06,   1.39494E+06
C:/temp/Job-29.odb,Step-1,Increment      1: Step Time =    1.000,"P-29-1",           333,       23.7355,       172.727,            0.,NA,NA,"",   1.41522E+06,   1.43398E+06,   1.43398E+06
C:/temp/Job-29.odb,Step-1,Increment      1: Step Time =    1.000,"P-29-1",           334,       8.20631,       169.519,            0.,NA,NA,"",    1.2054E+06,   1.31248E+06,   1.31248E+06
C:/temp/Job-29.odb,Step-1,Increment      1: Step Time =    1.000,"P-29-1",           335,       190.263,       178.397,            0.,NA,NA,"",   1.00737E+06,   1.01554E+06,   1.01554E+06
C:/temp/Job-29.odb,Step-1,Increment      1: Step Time =    1.000,"P-29-1",           336,       177.011,       177.889,            0.,NA,NA,"",   1.06636E+06,   1.06449E+06,   1.06449E+06
C:/temp/Job-29.odb,Step-1,Increment      1: Step Time =    1.000,"P-29-1",           337,       170.329,       181.912,            0.,NA,NA,"",   1.07761E+06,   1.06945E+06,   1.06945E+06
C:/temp/Job-29.odb,Step-1,Increment      1: Step Time =    1.000,"P-29-1",           338,       158.627,       180.602,            0.,NA,NA,"",   1.14820E+06,   1.12407E+06,   1.12407E+06
C:/temp/Job-29.odb,Step-1,Increment      1: Step Time =    1.000,"P-29-1",           339,       148.023,       181.357,            0.,NA,NA,"",   1.16183E+06,   1.13713E+06,   1.13713E+06
C:/temp/Job-29.odb,Step-1,Increment      1: Step Time =    1.000,"P-29-1",           340,       134.373,       179.331,            0.,NA,NA,"",   1.18468E+06,   1.17577E+06,   1.17577E+06
C:/temp/Job-29.odb,Step-1,Increment      1: Step Time =    1.000,"P-29-1",           341,       124.432,       180.875,            0.,NA,NA,"",   1.12352E+06,   1.13890E+06,   1.13890E+06
C:/temp/Job-29.odb,Step-1,Increment      1: Step Time =    1.000,"P-29-1",           342,       115.288,       179.492,            0.,NA,NA,"",   1.11942E+06,   1.16551E+06,   1.16551E+06
C:/temp/Job-29.odb,Step-1,Increment      1: Step Time =    1.000,"P-29-1",           343,       104.901,       178.524,            0.,NA,NA,"",   1.14392E+06,   1.20463E+06,   1.20463E+06
C:/temp/Job-29.odb,Step-1,Increment      1: Step Time =    1.000,"P-29-1",           344,       94.6403,       179.215,            0.,NA,NA,"",   1.20313E+06,   1.24574E+06,   1.24574E+06
C:/temp/Job-29.odb,Step-1,Increment      1: Step Time =    1.000,"P-29-1",           345,       84.5491,       180.050,            0.,NA,NA,"",   1.29912E+06,   1.30846E+06,   1.30846E+06
C:/temp/Job-29.odb,Step-1,Increment      1: Step Time =    1.000,"P-29-1",           346,       74.1946,       180.278,            0.,NA,NA,"",   1.40003E+06,   1.37649E+06,   1.37649E+06
C:/temp/Job-29.odb,Step-1,Increment      1: Step Time =    1.000,"P-29-1",           347,       64.5644,       181.760,            0.,NA,NA,"",   1.45180E+06,   1.41342E+06,   1.41342E+06
C:/temp/Job-29.odb,Step-1,Increment      1: Step Time =    1.000,"P-29-1",           348,       55.2446,       181.399,            0.,NA,NA,"",   1.49349E+06,   1.45282E+06,   1.45282E+06
C:/temp/Job-29.odb,Step-1,Increment      1: Step Time =    1.000,"P-29-1",           349,       41.0136,       177.206,            0.,NA,NA,"",   1.51969E+06,   1.48381E+06,   1.48381E+06
C:/temp/Job-29.odb,Step-1,Increment      1: Step Time =    1.000,"P-29-1",           350,       31.9584,       181.686,            0.,NA,NA,"",   1.54263E+06,   1.53207E+06,   1.53207E+06
C:/temp/Job-29.odb,Step-1,Increment      1: Step Time =    1.000,"P-29-1",           351,       21.0993,       177.421,            0.,NA,NA,"",   1.46743E+06,   1.49609E+06,   1.49609E+06
C:/temp/Job-29.odb,Step-1,Increment      1: Step Time =    1.000,"P-29-1",           352,       8.47733,       178.526,            0.,NA,NA,"",   1.38088E+06,   1.48845E+06,   1.48845E+06
C:/temp/Job-29.odb,Step-1,Increment      1: Step Time =    1.000,"P-29-1",           353,       187.951,       188.478,            0.,NA,NA,"",   1.00676E+06,   1.00879E+06,   1.00879E+06
C:/temp/Job-29.odb,Step-1,Increment      1: Step Time =    1.000,"P-29-1",           354,       178.548,       191.701,            0.,NA,NA,"",   1.01154E+06,   1.01157E+06,   1.01157E+06
C:/temp/Job-29.odb,Step-1,Increment      1: Step Time =    1.000,"P-29-1",           355,       169.976,       191.534,            0.,NA,NA,"",   1.02188E+06,   1.01946E+06,   1.01946E+06
C:/temp/Job-29.odb,Step-1,Increment      1: Step Time =    1.000,"P-29-1",           356,       160.760,       190.660,            0.,NA,NA,"",   1.03082E+06,   1.02501E+06,   1.02501E+06
C:/temp/Job-29.odb,Step-1,Increment      1: Step Time =    1.000,"P-29-1",           357,       148.098,       187.884,            0.,NA,NA,"",   1.05993E+06,   1.04690E+06,   1.04690E+06
C:/temp/Job-29.odb,Step-1,Increment      1: Step Time =    1.000,"P-29-1",           358,       133.532,       190.067,            0.,NA,NA,"",   966.873E+03,   964.030E+03,   964.030E+03
C:/temp/Job-29.odb,Step-1,Increment      1: Step Time =    1.000,"P-29-1",           359,       124.347,       190.549,            0.,NA,NA,"",   907.169E+03,   912.032E+03,   912.032E+03
C:/temp/Job-29.odb,Step-1,Increment      1: Step Time =    1.000,"P-29-1",           360,       114.723,       190.117,            0.,NA,NA,"",   878.009E+03,   892.918E+03,   892.918E+03
C:/temp/Job-29.odb,Step-1,Increment      1: Step Time =    1.000,"P-29-1",           361,       104.887,       189.732,            0.,NA,NA,"",   895.104E+03,   913.636E+03,   913.636E+03
C:/temp/Job-29.odb,Step-1,Increment      1: Step Time =    1.000,"P-29-1",           362,       94.9504,       189.751,            0.,NA,NA,"",   963.187E+03,   976.525E+03,   976.525E+03
C:/temp/Job-29.odb,Step-1,Increment      1: Step Time =    1.000,"P-29-1",           363,       84.8661,       189.896,            0.,NA,NA,"",   1.07861E+06,   1.07898E+06,   1.07898E+06
C:/temp/Job-29.odb,Step-1,Increment      1: Step Time =    1.000,"P-29-1",           364,       74.8456,       190.201,            0.,NA,NA,"",   1.20574E+06,   1.19546E+06,   1.19546E+06
C:/temp/Job-29.odb,Step-1,Increment      1: Step Time =    1.000,"P-29-1",           365,       64.9140,       190.652,            0.,NA,NA,"",   1.32533E+06,   1.31085E+06,   1.31085E+06
C:/temp/Job-29.odb,Step-1,Increment      1: Step Time =    1.000,"P-29-1",           366,       50.3078,       186.221,            0.,NA,NA,"",   1.48712E+06,   1.46278E+06,   1.46278E+06
C:/temp/Job-29.odb,Step-1,Increment      1: Step Time =    1.000,"P-29-1",           367,       40.5035,       190.950,            0.,NA,NA,"",   1.54469E+06,   1.53587E+06,   1.53587E+06
C:/temp/Job-29.odb,Step-1,Increment      1: Step Time =    1.000,"P-29-1",           368,       30.9815,       190.882,            0.,NA,NA,"",   1.60296E+06,   1.59944E+06,   1.59944E+06
C:/temp/Job-29.odb,Step-1,Increment      1: Step Time =    1.000,"P-29-1",           369,       21.6049,       190.395,            0.,NA,NA,"",   1.65600E+06,   1.66352E+06,   1.66352E+06
C:/temp/Job-29.odb,Step-1,Increment      1: Step Time =    1.000,"P-29-1",           370,       11.4230,       188.186,            0.,NA,NA,"",   1.66660E+06,   1.72369E+06,   1.72369E+06
C:/temp/Job-29.odb,Step-1,Increment      1: Step Time =    1.000,"P-29-1",           371,       95.0128,       138.680,            0.,NA,NA,"",   3.23732E+06,   3.29982E+06,   3.29982E+06
C:/temp/Job-29.odb,Step-1,Increment      1: Step Time =    1.000,"P-29-1",           372,       90.1075,       137.725,            0.,NA,NA,"",   2.84875E+06,   2.91934E+06,   2.91934E+06
C:/temp/Job-29.odb,Step-1,Increment      1: Step Time =    1.000,"P-29-1",           373,       80.8620,       133.981,            0.,NA,NA,"",   1.85695E+06,   1.87992E+06,   1.87992E+06
C:/temp/Job-29.odb,Step-1,Increment      1: Step Time =    1.000,"P-29-1",           374,       72.8684,       128.016,            0.,NA,NA,"",   864.138E+03,   845.989E+03,   845.989E+03
C:/temp/Job-29.odb,Step-1,Increment      1: Step Time =    1.000,"P-29-1",           375,       69.5086,       124.316,            0.,NA,NA,"",   501.758E+03,   417.395E+03,   417.395E+03
C:/temp/Job-29.odb,Step-1,Increment      1: Step Time =    1.000,"P-29-1",           376,       64.3379,       115.787,            0.,NA,NA,"",   517.438E+03,  -495.982E+03,  -495.982E+03
C:/temp/Job-29.odb,Step-1,Increment      1: Step Time =    1.000,"P-29-1",           377,       61.4999,       106.224,            0.,NA,NA,"",   785.220E+03,  -804.120E+03,  -804.120E+03
C:/temp/Job-29.odb,Step-1,Increment      1: Step Time =    1.000,"P-29-1",           378,       61.0200,       101.250,            0.,NA,NA,"",   849.422E+03,  -864.475E+03,  -864.475E+03
C:/temp/Job-29.odb,Step-1,Increment      1: Step Time =    1.000,"P-29-1",           379,       61.9778,       91.3217,            0.,NA,NA,"",   761.810E+03,  -771.473E+03,  -771.473E+03
C:/temp/Job-29.odb,Step-1,Increment      1: Step Time =    1.000,"P-29-1",           380,       65.4226,       81.9610,            0.,NA,NA,"",   429.793E+03,  -369.548E+03,  -369.548E+03
C:/temp/Job-29.odb,Step-1,Increment      1: Step Time =    1.000,"P-29-1",           381,       68.0133,       77.6874,            0.,NA,NA,"",   342.947E+03,   41.9386E+03,   41.9386E+03
C:/temp/Job-29.odb,Step-1,Increment      1: Step Time =    1.000,"P-29-1",           382,       74.7191,       70.3036,            0.,NA,NA,"",   1.03560E+06,   1.04312E+06,   1.04312E+06
C:/temp/Job-29.odb,Step-1,Increment      1: Step Time =    1.000,"P-29-1",           383,       78.7241,       67.3146,            0.,NA,NA,"",   1.57593E+06,   1.60121E+06,   1.60121E+06
C:/temp/Job-29.odb,Step-1,Increment      1: Step Time =    1.000,"P-29-1",           384,       87.7108,       62.9868,            0.,NA,NA,"",   2.60404E+06,   2.66350E+06,   2.66350E+06
C:/temp/Job-29.odb,Step-1,Increment      1: Step Time =    1.000,"P-29-1",           385,       97.5013,       61.0801,            0.,NA,NA,"",   3.22325E+06,   3.30741E+06,   3.30741E+06
C:/temp/Job-29.odb,Step-1,Increment      1: Step Time =    1.000,"P-29-1",           386,       102.499,       61.0801,            0.,NA,NA,"",   3.22345E+06,   3.33060E+06,   3.33060E+06
C:/temp/Job-29.odb,Step-1,Increment      1: Step Time =    1.000,"P-29-1",           387,       112.289,       62.9868,            0.,NA,NA,"",   3.14636E+06,   3.20128E+06,   3.20128E+06
C:/temp/Job-29.odb,Step-1,Increment      1: Step Time =    1.000,"P-29-1",           388,       121.276,       67.3146,            0.,NA,NA,"",   2.24268E+06,   2.29519E+06,   2.29519E+06
C:/temp/Job-29.odb,Step-1,Increment      1: Step Time =    1.000,"P-29-1",           389,       125.281,       70.3036,            0.,NA,NA,"",   1.69542E+06,   1.72791E+06,   1.72791E+06
C:/temp/Job-29.odb,Step-1,Increment      1: Step Time =    1.000,"P-29-1",           390,       131.987,       77.6874,            0.,NA,NA,"",   710.576E+03,   608.166E+03,   608.166E+03
C:/temp/Job-29.odb,Step-1,Increment      1: Step Time =    1.000,"P-29-1",           391,       134.577,       81.9610,            0.,NA,NA,"",   680.091E+03,  -251.067E+03,  -251.067E+03
C:/temp/Job-29.odb,Step-1,Increment      1: Step Time =    1.000,"P-29-1",           392,       138.022,       91.3217,            0.,NA,NA,"",   1.20206E+06,  -1.21025E+06,  -1.21025E+06
C:/temp/Job-29.odb,Step-1,Increment      1: Step Time =    1.000,"P-29-1",           393,       138.980,       101.250,            0.,NA,NA,"",   1.42316E+06,  -1.44022E+06,  -1.44022E+06
C:/temp/Job-29.odb,Step-1,Increment      1: Step Time =    1.000,"P-29-1",           394,       138.500,       106.224,            0.,NA,NA,"",   1.24439E+06,  -1.24986E+06,  -1.24986E+06
C:/temp/Job-29.odb,Step-1,Increment      1: Step Time =    1.000,"P-29-1",           395,       135.662,       115.787,            0.,NA,NA,"",   621.296E+03,  -552.008E+03,  -552.008E+03
C:/temp/Job-29.odb,Step-1,Increment      1: Step Time =    1.000,"P-29-1",           396,       130.491,       124.316,            0.,NA,NA,"",   867.169E+03,   836.799E+03,   836.799E+03
C:/temp/Job-29.odb,Step-1,Increment      1: Step Time =    1.000,"P-29-1",           397,       127.132,       128.016,            0.,NA,NA,"",   1.41432E+06,   1.42373E+06,   1.42373E+06
C:/temp/Job-29.odb,Step-1,Increment      1: Step Time =    1.000,"P-29-1",           398,       119.138,       133.981,            0.,NA,NA,"",   2.46364E+06,   2.51823E+06,   2.51823E+06
C:/temp/Job-29.odb,Step-1,Increment      1: Step Time =    1.000,"P-29-1",           399,       109.893,       137.725,            0.,NA,NA,"",   3.31991E+06,   3.38781E+06,   3.38781E+06
C:/temp/Job-29.odb,Step-1,Increment      1: Step Time =    1.000,"P-29-1",           400,       104.987,       138.680,            0.,NA,NA,"",   3.50078E+06,   3.56799E+06,   3.56799E+06
C:/temp/Job-29.odb,Step-1,Increment      1: Step Time =    1.000,"P-29-1",           401,          195.,            0.,            0.,NA,NA,"",   998.441E+03,   998.241E+03,   998.241E+03
C:/temp/Job-29.odb,Step-1,Increment      1: Step Time =    1.000,"P-29-1",           402,          185.,            0.,            0.,NA,NA,"",   994.107E+03,   994.410E+03,   994.410E+03
C:/temp/Job-29.odb,Step-1,Increment      1: Step Time =    1.000,"P-29-1",           403,          175.,            0.,            0.,NA,NA,"",   994.682E+03,   994.499E+03,   994.499E+03
C:/temp/Job-29.odb,Step-1,Increment      1: Step Time =    1.000,"P-29-1",           404,          165.,            0.,            0.,NA,NA,"",   988.829E+03,   988.209E+03,   988.209E+03
C:/temp/Job-29.odb,Step-1,Increment      1: Step Time =    1.000,"P-29-1",           405,          155.,            0.,            0.,NA,NA,"",   963.074E+03,   962.043E+03,   962.043E+03
C:/temp/Job-29.odb,Step-1,Increment      1: Step Time =    1.000,"P-29-1",           406,          145.,            0.,            0.,NA,NA,"",   904.522E+03,   903.472E+03,   903.472E+03
C:/temp/Job-29.odb,Step-1,Increment      1: Step Time =    1.000,"P-29-1",           407,          135.,            0.,            0.,NA,NA,"",   820.259E+03,   819.660E+03,   819.660E+03
C:/temp/Job-29.odb,Step-1,Increment      1: Step Time =    1.000,"P-29-1",           408,          125.,            0.,            0.,NA,NA,"",   730.539E+03,   731.093E+03,   731.093E+03
C:/temp/Job-29.odb,Step-1,Increment      1: Step Time =    1.000,"P-29-1",           409,          115.,            0.,            0.,NA,NA,"",   666.203E+03,   668.000E+03,   668.000E+03
C:/temp/Job-29.odb,Step-1,Increment      1: Step Time =    1.000,"P-29-1",           410,          105.,            0.,            0.,NA,NA,"",   660.052E+03,   662.394E+03,   662.394E+03
C:/temp/Job-29.odb,Step-1,Increment      1: Step Time =    1.000,"P-29-1",           411,           95.,            0.,            0.,NA,NA,"",   731.524E+03,   733.108E+03,   733.108E+03
C:/temp/Job-29.odb,Step-1,Increment      1: Step Time =    1.000,"P-29-1",           412,           85.,            0.,            0.,NA,NA,"",   871.322E+03,   871.598E+03,   871.598E+03
C:/temp/Job-29.odb,Step-1,Increment      1: Step Time =    1.000,"P-29-1",           413,           75.,            0.,            0.,NA,NA,"",   1.05085E+06,   1.05045E+06,   1.05045E+06
C:/temp/Job-29.odb,Step-1,Increment      1: Step Time =    1.000,"P-29-1",           414,           65.,            0.,            0.,NA,NA,"",   1.24025E+06,   1.24002E+06,   1.24002E+06
C:/temp/Job-29.odb,Step-1,Increment      1: Step Time =    1.000,"P-29-1",           415,           55.,            0.,            0.,NA,NA,"",   1.40847E+06,   1.40531E+06,   1.40531E+06
C:/temp/Job-29.odb,Step-1,Increment      1: Step Time =    1.000,"P-29-1",           416,           45.,            0.,            0.,NA,NA,"",   1.53473E+06,   1.53254E+06,   1.53254E+06
C:/temp/Job-29.odb,Step-1,Increment      1: Step Time =    1.000,"P-29-1",           417,           35.,            0.,            0.,NA,NA,"",   1.61605E+06,   1.61591E+06,   1.61591E+06
C:/temp/Job-29.odb,Step-1,Increment      1: Step Time =    1.000,"P-29-1",           418,           25.,            0.,            0.,NA,NA,"",   1.67445E+06,   1.67514E+06,   1.67514E+06
C:/temp/Job-29.odb,Step-1,Increment      1: Step Time =    1.000,"P-29-1",           419,           15.,            0.,            0.,NA,NA,"",   1.75586E+06,   1.76186E+06,   1.76186E+06
C:/temp/Job-29.odb,Step-1,Increment      1: Step Time =    1.000,"P-29-1",           420,            5.,            0.,            0.,NA,NA,"",   2.06757E+06,   2.11509E+06,   2.11509E+06
C:/temp/Job-29.odb,Step-1,Increment      1: Step Time =    1.000,"P-29-1",           421,          200.,          195.,            0.,NA,NA,"",   1.00057E+06,   999.726E+03,   999.726E+03
C:/temp/Job-29.odb,Step-1,Increment      1: Step Time =    1.000,"P-29-1",           422,          200.,          185.,            0.,NA,NA,"",   1.00334E+06,   1.00140E+06,   1.00140E+06
C:/temp/Job-29.odb,Step-1,Increment      1: Step Time =    1.000,"P-29-1",           423,          200.,          175.,            0.,NA,NA,"",   996.414E+03,   1.00195E+06,   1.00195E+06
C:/temp/Job-29.odb,Step-1,Increment      1: Step Time =    1.000,"P-29-1",           424,          200.,          165.,            0.,NA,NA,"",   972.740E+03,   1.00300E+06,   1.00300E+06
C:/temp/Job-29.odb,Step-1,Increment      1: Step Time =    1.000,"P-29-1",           425,          200.,          155.,            0.,NA,NA,"",   931.869E+03,   1.00441E+06,   1.00441E+06
C:/temp/Job-29.odb,Step-1,Increment      1: Step Time =    1.000,"P-29-1",           426,          200.,          145.,            0.,NA,NA,"",   888.989E+03,   1.00599E+06,   1.00599E+06
C:/temp/Job-29.odb,Step-1,Increment      1: Step Time =    1.000,"P-29-1",           427,          200.,          135.,            0.,NA,NA,"",   875.339E+03,   1.00786E+06,   1.00786E+06
C:/temp/Job-29.odb,Step-1,Increment      1: Step Time =    1.000,"P-29-1",           428,          200.,          125.,            0.,NA,NA,"",   912.822E+03,   1.01103E+06,   1.01103E+06
C:/temp/Job-29.odb,Step-1,Increment      1: Step Time =    1.000,"P-29-1",           429,          200.,          115.,            0.,NA,NA,"",   982.877E+03,   1.02569E+06,   1.02569E+06
C:/temp/Job-29.odb,Step-1,Increment      1: Step Time =    1.000,"P-29-1",           430,          200.,          105.,            0.,NA,NA,"",   1.03806E+06,   1.08081E+06,   1.08081E+06
C:/temp/Job-29.odb,Step-1,Increment      1: Step Time =    1.000,"P-29-1",           431,          200.,           95.,            0.,NA,NA,"",   1.04053E+06,   1.08352E+06,   1.08352E+06
C:/temp/Job-29.odb,Step-1,Increment      1: Step Time =    1.000,"P-29-1",           432,          200.,           85.,            0.,NA,NA,"",   987.247E+03,   1.02672E+06,   1.02672E+06
C:/temp/Job-29.odb,Step-1,Increment      1: Step Time =    1.000,"P-29-1",           433,          200.,           75.,            0.,NA,NA,"",   914.071E+03,   1.00916E+06,   1.00916E+06
C:/temp/Job-29.odb,Step-1,Increment      1: Step Time =    1.000,"P-29-1",           434,          200.,           65.,            0.,NA,NA,"",   873.566E+03,   1.00559E+06,   1.00559E+06
C:/temp/Job-29.odb,Step-1,Increment      1: Step Time =    1.000,"P-29-1",           435,          200.,           55.,            0.,NA,NA,"",   897.666E+03,   1.01334E+06,   1.01334E+06
C:/temp/Job-29.odb,Step-1,Increment      1: Step Time =    1.000,"P-29-1",           436,          200.,           45.,            0.,NA,NA,"",   937.741E+03,   1.00711E+06,   1.00711E+06
C:/temp/Job-29.odb,Step-1,Increment      1: Step Time =    1.000,"P-29-1",           437,          200.,           35.,            0.,NA,NA,"",   974.284E+03,   1.00253E+06,   1.00253E+06
C:/temp/Job-29.odb,Step-1,Increment      1: Step Time =    1.000,"P-29-1",           438,          200.,           25.,            0.,NA,NA,"",   997.252E+03,   1.00139E+06,   1.00139E+06
C:/temp/Job-29.odb,Step-1,Increment      1: Step Time =    1.000,"P-29-1",           439,          200.,           15.,            0.,NA,NA,"",   1.00347E+06,   1.00103E+06,   1.00103E+06
C:/temp/Job-29.odb,Step-1,Increment      1: Step Time =    1.000,"P-29-1",           440,          200.,            5.,            0.,NA,NA,"",   1.00052E+06,    999.64E+03,    999.64E+03
C:/temp/Job-29.odb,Step-1,Increment      1: Step Time =    1.000,"P-29-1",           441,            5.,          200.,            0.,NA,NA,"",   2.06833E+06,   2.11691E+06,   2.11691E+06
C:/temp/Job-29.odb,Step-1,Increment      1: Step Time =    1.000,"P-29-1",           442,           15.,          200.,            0.,NA,NA,"",   1.75626E+06,   1.76290E+06,   1.76290E+06
C:/temp/Job-29.odb,Step-1,Increment      1: Step Time =    1.000,"P-29-1",           443,           25.,          200.,            0.,NA,NA,"",   1.67366E+06,   1.67464E+06,   1.67464E+06
C:/temp/Job-29.odb,Step-1,Increment      1: Step Time =    1.000,"P-29-1",           444,           35.,          200.,            0.,NA,NA,"",   1.61413E+06,   1.61381E+06,   1.61381E+06
C:/temp/Job-29.odb,Step-1,Increment      1: Step Time =    1.000,"P-29-1",           445,           45.,          200.,            0.,NA,NA,"",   1.53066E+06,   1.52966E+06,   1.52966E+06
C:/temp/Job-29.odb,Step-1,Increment      1: Step Time =    1.000,"P-29-1",           446,           55.,          200.,            0.,NA,NA,"",   1.40816E+06,   1.40667E+06,   1.40667E+06
C:/temp/Job-29.odb,Step-1,Increment      1: Step Time =    1.000,"P-29-1",           447,           65.,          200.,            0.,NA,NA,"",   1.24501E+06,   1.24340E+06,   1.24340E+06
C:/temp/Job-29.odb,Step-1,Increment      1: Step Time =    1.000,"P-29-1",           448,           75.,          200.,            0.,NA,NA,"",   1.05764E+06,   1.05657E+06,   1.05657E+06
C:/temp/Job-29.odb,Step-1,Increment      1: Step Time =    1.000,"P-29-1",           449,           85.,          200.,            0.,NA,NA,"",   875.708E+03,   875.971E+03,   875.971E+03
C:/temp/Job-29.odb,Step-1,Increment      1: Step Time =    1.000,"P-29-1",           450,           95.,          200.,            0.,NA,NA,"",   734.072E+03,   735.909E+03,   735.909E+03
C:/temp/Job-29.odb,Step-1,Increment      1: Step Time =    1.000,"P-29-1",           451,          105.,          200.,            0.,NA,NA,"",   661.231E+03,   663.565E+03,   663.565E+03
C:/temp/Job-29.odb,Step-1,Increment      1: Step Time =    1.000,"P-29-1",           452,          115.,          200.,            0.,NA,NA,"",   662.583E+03,   664.304E+03,   664.304E+03
C:/temp/Job-29.odb,Step-1,Increment      1: Step Time =    1.000,"P-29-1",           453,          125.,          200.,            0.,NA,NA,"",   725.725E+03,   726.389E+03,   726.389E+03
C:/temp/Job-29.odb,Step-1,Increment      1: Step Time =    1.000,"P-29-1",           454,          135.,          200.,            0.,NA,NA,"",   822.848E+03,   823.183E+03,   823.183E+03
C:/temp/Job-29.odb,Step-1,Increment      1: Step Time =    1.000,"P-29-1",           455,          145.,          200.,            0.,NA,NA,"",   915.898E+03,   913.173E+03,   913.173E+03
C:/temp/Job-29.odb,Step-1,Increment      1: Step Time =    1.000,"P-29-1",           456,          155.,          200.,            0.,NA,NA,"",   967.960E+03,   966.848E+03,   966.848E+03
C:/temp/Job-29.odb,Step-1,Increment      1: Step Time =    1.000,"P-29-1",           457,          165.,          200.,            0.,NA,NA,"",   989.958E+03,   989.481E+03,   989.481E+03
C:/temp/Job-29.odb,Step-1,Increment      1: Step Time =    1.000,"P-29-1",           458,          175.,          200.,            0.,NA,NA,"",   994.541E+03,   994.420E+03,   994.420E+03
C:/temp/Job-29.odb,Step-1,Increment      1: Step Time =    1.000,"P-29-1",           459,          185.,          200.,            0.,NA,NA,"",   993.977E+03,   994.267E+03,   994.267E+03
C:/temp/Job-29.odb,Step-1,Increment      1: Step Time =    1.000,"P-29-1",           460,          195.,          200.,            0.,NA,NA,"",   998.428E+03,   998.248E+03,   998.248E+03
C:/temp/Job-29.odb,Step-1,Increment      1: Step Time =    1.000,"P-29-1",           461,            0.,            5.,            0.,NA,NA,"",   1.94919E+06,   2.07608E+06,   2.07608E+06
C:/temp/Job-29.odb,Step-1,Increment      1: Step Time =    1.000,"P-29-1",           462,            0.,           15.,            0.,NA,NA,"",   1.44190E+06,   1.59151E+06,   1.59151E+06
C:/temp/Job-29.odb,Step-1,Increment      1: Step Time =    1.000,"P-29-1",           463,            0.,           25.,            0.,NA,NA,"",   1.22148E+06,   1.36314E+06,   1.36314E+06
C:/temp/Job-29.odb,Step-1,Increment      1: Step Time =    1.000,"P-29-1",           464,            0.,           35.,            0.,NA,NA,"",   1.06030E+06,   1.18759E+06,   1.18759E+06
C:/temp/Job-29.odb,Step-1,Increment      1: Step Time =    1.000,"P-29-1",           465,            0.,           45.,            0.,NA,NA,"",   914.886E+03,   1.02597E+06,   1.02597E+06
C:/temp/Job-29.odb,Step-1,Increment      1: Step Time =    1.000,"P-29-1",           466,            0.,           55.,            0.,NA,NA,"",   769.007E+03,   861.894E+03,   861.894E+03
C:/temp/Job-29.odb,Step-1,Increment      1: Step Time =    1.000,"P-29-1",           467,            0.,           65.,            0.,NA,NA,"",   627.956E+03,   702.505E+03,   702.505E+03
C:/temp/Job-29.odb,Step-1,Increment      1: Step Time =    1.000,"P-29-1",           468,            0.,           75.,            0.,NA,NA,"",   494.020E+03,   553.040E+03,   553.040E+03
C:/temp/Job-29.odb,Step-1,Increment      1: Step Time =    1.000,"P-29-1",           469,            0.,           85.,            0.,NA,NA,"",   377.654E+03,   426.552E+03,   426.552E+03
C:/temp/Job-29.odb,Step-1,Increment      1: Step Time =    1.000,"P-29-1",           470,            0.,           95.,            0.,NA,NA,"",   302.610E+03,   346.394E+03,   346.394E+03
C:/temp/Job-29.odb,Step-1,Increment      1: Step Time =    1.000,"P-29-1",           471,            0.,          105.,            0.,NA,NA,"",   303.034E+03,   346.814E+03,   346.814E+03
C:/temp/Job-29.odb,Step-1,Increment      1: Step Time =    1.000,"P-29-1",           472,            0.,          115.,            0.,NA,NA,"",   378.101E+03,   426.833E+03,   426.833E+03
C:/temp/Job-29.odb,Step-1,Increment      1: Step Time =    1.000,"P-29-1",           473,            0.,          125.,            0.,NA,NA,"",   492.873E+03,   551.531E+03,   551.531E+03
C:/temp/Job-29.odb,Step-1,Increment      1: Step Time =    1.000,"P-29-1",           474,            0.,          135.,            0.,NA,NA,"",   628.817E+03,   702.067E+03,   702.067E+03
C:/temp/Job-29.odb,Step-1,Increment      1: Step Time =    1.000,"P-29-1",           475,            0.,          145.,            0.,NA,NA,"",   778.544E+03,   869.663E+03,   869.663E+03
C:/temp/Job-29.odb,Step-1,Increment      1: Step Time =    1.000,"P-29-1",           476,            0.,          155.,            0.,NA,NA,"",   919.861E+03,   1.03278E+06,   1.03278E+06
C:/temp/Job-29.odb,Step-1,Increment      1: Step Time =    1.000,"P-29-1",           477,            0.,          165.,            0.,NA,NA,"",   1.05998E+06,   1.18907E+06,   1.18907E+06
C:/temp/Job-29.odb,Step-1,Increment      1: Step Time =    1.000,"P-29-1",           478,            0.,          175.,            0.,NA,NA,"",   1.21980E+06,   1.36311E+06,   1.36311E+06
C:/temp/Job-29.odb,Step-1,Increment      1: Step Time =    1.000,"P-29-1",           479,            0.,          185.,            0.,NA,NA,"",   1.43889E+06,   1.59053E+06,   1.59053E+06
C:/temp/Job-29.odb,Step-1,Increment      1: Step Time =    1.000,"P-29-1",           480,            0.,          195.,            0.,NA,NA,"",   1.94673E+06,   2.07564E+06,   2.07564E+06
C:/temp/Job-29.odb,Step-1,Increment      1: Step Time =    1.000,"P-29-1",           481,       99.7584,       142.848,            0.,NA,NA,"",   3.09873E+06,   3.20458E+06,   3.20458E+06
C:/temp/Job-29.odb,Step-1,Increment      1: Step Time =    1.000,"P-29-1",           482,       88.5870,       142.773,            0.,NA,NA,"",   2.48924E+06,   2.58389E+06,   2.58389E+06
C:/temp/Job-29.odb,Step-1,Increment      1: Step Time =    1.000,"P-29-1",           483,       57.9999,       81.5998,            0.,NA,NA,"",   513.416E+03,  -209.704E+03,  -209.704E+03
C:/temp/Job-29.odb,Step-1,Increment      1: Step Time =    1.000,"P-29-1",           484,       56.9920,       95.9985,            0.,NA,NA,"",   681.015E+03,  -700.841E+03,  -700.841E+03
C:/temp/Job-29.odb,Step-1,Increment      1: Step Time =    1.000,"P-29-1",           485,       57.1142,       91.0002,            0.,NA,NA,"",   605.796E+03,  -611.945E+03,  -611.945E+03
C:/temp/Job-29.odb,Step-1,Increment      1: Step Time =    1.000,"P-29-1",           486,       55.7740,       106.508,            0.,NA,NA,"",   567.217E+03,  -582.945E+03,  -582.945E+03
C:/temp/Job-29.odb,Step-1,Increment      1: Step Time =    1.000,"P-29-1",           487,       57.6386,       112.020,            0.,NA,NA,"",   561.244E+03,  -553.093E+03,  -553.093E+03
C:/temp/Job-29.odb,Step-1,Increment      1: Step Time =    1.000,"P-29-1",           488,       68.4447,       132.812,            0.,NA,NA,"",   1.08162E+06,   1.00554E+06,   1.00554E+06
C:/temp/Job-29.odb,Step-1,Increment      1: Step Time =    1.000,"P-29-1",           489,       62.0903,       76.1520,            0.,NA,NA,"",   588.641E+03,   155.540E+03,   155.540E+03
C:/temp/Job-29.odb,Step-1,Increment      1: Step Time =    1.000,"P-29-1",           490,       57.3814,       86.1294,            0.,NA,NA,"",   528.316E+03,  -493.963E+03,  -493.963E+03
C:/temp/Job-29.odb,Step-1,Increment      1: Step Time =    1.000,"P-29-1",           491,       130.318,       131.009,            0.,NA,NA,"",   1.48903E+06,   1.45815E+06,   1.45815E+06
C:/temp/Job-29.odb,Step-1,Increment      1: Step Time =    1.000,"P-29-1",           492,       119.951,       140.541,            0.,NA,NA,"",   2.34543E+06,   2.43659E+06,   2.43659E+06
C:/temp/Job-29.odb,Step-1,Increment      1: Step Time =    1.000,"P-29-1",           493,       72.4922,       67.2952,            0.,NA,NA,"",   1.14225E+06,   1.12509E+06,   1.12509E+06
C:/temp/Job-29.odb,Step-1,Increment      1: Step Time =    1.000,"P-29-1",           494,       142.760,       82.7782,            0.,NA,NA,"",   870.485E+03,  -280.498E+03,  -280.498E+03
C:/temp/Job-29.odb,Step-1,Increment      1: Step Time =    1.000,"P-29-1",           495,       142.628,       91.6729,            0.,NA,NA,"",   999.821E+03,  -989.848E+03,  -989.848E+03
C:/temp/Job-29.odb,Step-1,Increment      1: Step Time =    1.000,"P-29-1",           496,       83.5070,       139.904,            0.,NA,NA,"",   2.22295E+06,   2.27941E+06,   2.27941E+06
C:/temp/Job-29.odb,Step-1,Increment      1: Step Time =    1.000,"P-29-1",           497,       85.7598,       58.3503,            0.,NA,NA,"",   2.36046E+06,   2.43072E+06,   2.43072E+06
C:/temp/Job-29.odb,Step-1,Increment      1: Step Time =    1.000,"P-29-1",           498,       143.098,       107.105,            0.,NA,NA,"",   1.02666E+06,  -1.01856E+06,  -1.01856E+06
C:/temp/Job-29.odb,Step-1,Increment      1: Step Time =    1.000,"P-29-1",           499,       56.7646,       101.042,            0.,NA,NA,"",   682.578E+03,  -704.985E+03,  -704.985E+03
C:/temp/Job-29.odb,Step-1,Increment      1: Step Time =    1.000,"P-29-1",           500,       94.6027,       142.729,            0.,NA,NA,"",   2.90785E+06,   3.00780E+06,   3.00780E+06
C:/temp/Job-29.odb,Step-1,Increment      1: Step Time =    1.000,"P-29-1",           501,       64.8779,       127.533,            0.,NA,NA,"",   710.747E+03,   584.986E+03,   584.986E+03
C:/temp/Job-29.odb,Step-1,Increment      1: Step Time =    1.000,"P-29-1",           502,       106.841,       55.8685,            0.,NA,NA,"",   2.78910E+06,   2.92555E+06,   2.92555E+06
C:/temp/Job-29.odb,Step-1,Increment      1: Step Time =    1.000,"P-29-1",           503,       96.0752,       55.7481,            0.,NA,NA,"",   2.79185E+06,   2.91110E+06,   2.91110E+06
C:/temp/Job-29.odb,Step-1,Increment      1: Step Time =    1.000,"P-29-1",           504,       110.077,       57.6307,            0.,NA,NA,"",   2.92477E+06,   3.03324E+06,   3.03324E+06
C:/temp/Job-29.odb,Step-1,Increment      1: Step Time =    1.000,"P-29-1",           505,       119.210,       60.4639,            0.,NA,NA,"",   2.48260E+06,   2.55714E+06,   2.55714E+06
C:/temp/Job-29.odb,Step-1,Increment      1: Step Time =    1.000,"P-29-1",           506,       142.497,       86.9604,            0.,NA,NA,"",   864.882E+03,  -765.782E+03,  -765.782E+03
C:/temp/Job-29.odb,Step-1,Increment      1: Step Time =    1.000,"P-29-1",           507,       143.032,       101.750,            0.,NA,NA,"",   1.14443E+06,  -1.16419E+06,  -1.16419E+06
C:/temp/Job-29.odb,Step-1,Increment      1: Step Time =    1.000,"P-29-1",           508,       143.314,       113.524,            0.,NA,NA,"",   909.993E+03,  -757.950E+03,  -757.950E+03
C:/temp/Job-29.odb,Step-1,Increment      1: Step Time =    1.000,"P-29-1",           509,       128.760,       66.5671,            0.,NA,NA,"",   1.70720E+06,   1.70077E+06,   1.70077E+06
C:/temp/Job-29.odb,Step-1,Increment      1: Step Time =    1.000,"P-29-1",           510,       114.387,       59.0275,            0.,NA,NA,"",   2.79659E+06,   2.88560E+06,   2.88560E+06
C:/temp/Job-29.odb,Step-1,Increment      1: Step Time =    1.000,"P-29-1",           511,       90.9842,       56.8360,            0.,NA,NA,"",   2.64445E+06,   2.73863E+06,   2.73863E+06
C:/temp/Job-29.odb,Step-1,Increment      1: Step Time =    1.000,"P-29-1",           512,       139.030,       76.7516,            0.,NA,NA,"",   987.436E+03,   482.577E+03,   482.577E+03
C:/temp/Job-29.odb,Step-1,Increment      1: Step Time =    1.000,"P-29-1",           513,       100.500,       54.5708,            0.,NA,NA,"",   2.70738E+06,   2.85418E+06,   2.85418E+06
C:/temp/Job-29.odb,Step-1,Increment      1: Step Time =    1.000,"P-29-1",           514,       109.429,       142.719,            0.,NA,NA,"",   2.91209E+06,   3.02610E+06,   3.02610E+06
C:/temp/Job-29.odb,Step-1,Increment      1: Step Time =    1.000,"P-29-1",           515,       133.885,       127.238,            0.,NA,NA,"",   1.09593E+06,   999.784E+03,   999.784E+03
C:/temp/Job-29.odb,Step-1,Increment      1: Step Time =    1.000,"P-29-1",           516,       104.721,       142.828,            0.,NA,NA,"",   3.08687E+06,   3.19875E+06,   3.19875E+06
C:/temp/Job-29.odb,Step-1,Increment      1: Step Time =    1.000,"P-29-1",           517,       142.879,       96.6453,            0.,NA,NA,"",    1.1287E+06,  -1.14821E+06,  -1.14821E+06
C:/temp/Job-29.odb,Step-1,Increment      1: Step Time =    1.000,"P-29-1",           518,       113.536,       142.943,            0.,NA,NA,"",   2.61408E+06,   2.73465E+06,   2.73465E+06
C:/temp/Job-29.odb,Step-1,Increment      1: Step Time =    1.000,"P-29-1",           519,       194.737,       65.7688,            0.,NA,NA,"",   893.213E+03,   1.02600E+06,   1.02600E+06
C:/temp/Job-29.odb,Step-1,Increment      1: Step Time =    1.000,"P-29-1",           520,       184.233,       5.34170,            0.,NA,NA,"",   999.761E+03,   1.00040E+06,   1.00040E+06
C:/temp/Job-29.odb,Step-1,Increment      1: Step Time =    1.000,"P-29-1",           521,       194.543,       5.51707,            0.,NA,NA,"",   999.867E+03,   999.625E+03,   999.625E+03
C:/temp/Job-29.odb,Step-1,Increment      1: Step Time =    1.000,"P-29-1",           522,       195.125,       15.8458,            0.,NA,NA,"",   1.00289E+06,   1.00329E+06,   1.00329E+06
C:/temp/Job-29.odb,Step-1,Increment      1: Step Time =    1.000,"P-29-1",           523,       196.079,       25.5231,            0.,NA,NA,"",   996.504E+03,   1.00453E+06,   1.00453E+06
C:/temp/Job-29.odb,Step-1,Increment      1: Step Time =    1.000,"P-29-1",           524,       195.300,       75.4980,            0.,NA,NA,"",   910.229E+03,   1.02551E+06,   1.02551E+06
C:/temp/Job-29.odb,Step-1,Increment      1: Step Time =    1.000,"P-29-1",           525,       105.038,       4.96179,            0.,NA,NA,"",   740.730E+03,   747.288E+03,   747.288E+03
C:/temp/Job-29.odb,Step-1,Increment      1: Step Time =    1.000,"P-29-1",           526,       115.012,       5.02406,            0.,NA,NA,"",   743.389E+03,   748.459E+03,   748.459E+03
C:/temp/Job-29.odb,Step-1,Increment      1: Step Time =    1.000,"P-29-1",           527,       95.0551,       4.88434,            0.,NA,NA,"",   809.232E+03,   813.312E+03,   813.312E+03
C:/temp/Job-29.odb,Step-1,Increment      1: Step Time =    1.000,"P-29-1",           528,       4.75002,       124.651,            0.,NA,NA,"",   485.608E+03,   544.723E+03,   544.723E+03
C:/temp/Job-29.odb,Step-1,Increment      1: Step Time =    1.000,"P-29-1",           529,       74.9635,       195.107,            0.,NA,NA,"",   1.10676E+06,   1.10280E+06,   1.10280E+06
C:/temp/Job-29.odb,Step-1,Increment      1: Step Time =    1.000,"P-29-1",           530,       64.9899,       195.314,            0.,NA,NA,"",   1.26939E+06,   1.26411E+06,   1.26411E+06
C:/temp/Job-29.odb,Step-1,Increment      1: Step Time =    1.000,"P-29-1",           531,       94.9768,       194.899,            0.,NA,NA,"",   815.064E+03,   819.726E+03,   819.726E+03
C:/temp/Job-29.odb,Step-1,Increment      1: Step Time =    1.000,"P-29-1",           532,       84.9517,       194.946,            0.,NA,NA,"",   945.968E+03,   945.813E+03,   945.813E+03
C:/temp/Job-29.odb,Step-1,Increment      1: Step Time =    1.000,"P-29-1",           533,       5.51715,       5.47301,            0.,NA,NA,"",   1.91207E+06,   1.98693E+06,   1.98693E+06
C:/temp/Job-29.odb,Step-1,Increment      1: Step Time =    1.000,"P-29-1",           534,       5.33970,       15.7930,            0.,NA,NA,"",   1.46604E+06,   1.59331E+06,   1.59331E+06
C:/temp/Job-29.odb,Step-1,Increment      1: Step Time =    1.000,"P-29-1",           535,       4.70310,       25.6978,            0.,NA,NA,"",   1.24397E+06,   1.37327E+06,   1.37327E+06
C:/temp/Job-29.odb,Step-1,Increment      1: Step Time =    1.000,"P-29-1",           536,       4.75968,       35.5624,            0.,NA,NA,"",   1.08194E+06,   1.19944E+06,   1.19944E+06
C:/temp/Job-29.odb,Step-1,Increment      1: Step Time =    1.000,"P-29-1",           537,       4.56352,       45.5432,            0.,NA,NA,"",   929.181E+03,   1.03256E+06,   1.03256E+06
C:/temp/Job-29.odb,Step-1,Increment      1: Step Time =    1.000,"P-29-1",           538,       4.81035,       114.842,            0.,NA,NA,"",   368.249E+03,   418.440E+03,   418.440E+03
C:/temp/Job-29.odb,Step-1,Increment      1: Step Time =    1.000,"P-29-1",           539,       15.7791,       4.95157,            0.,NA,NA,"",   1.73551E+06,   1.74554E+06,   1.74554E+06
C:/temp/Job-29.odb,Step-1,Increment      1: Step Time =    1.000,"P-29-1",           540,       25.4834,       4.09529,            0.,NA,NA,"",   1.66322E+06,   1.66365E+06,   1.66365E+06
C:/temp/Job-29.odb,Step-1,Increment      1: Step Time =    1.000,"P-29-1",           541,       34.8979,       4.40611,            0.,NA,NA,"",   1.60428E+06,   1.60219E+06,   1.60219E+06
C:/temp/Job-29.odb,Step-1,Increment      1: Step Time =    1.000,"P-29-1",           542,       44.5079,       4.93835,            0.,NA,NA,"",   1.52708E+06,   1.52216E+06,   1.52216E+06
C:/temp/Job-29.odb,Step-1,Increment      1: Step Time =    1.000,"P-29-1",           543,       55.0985,       7.24139,            0.,NA,NA,"",   1.42311E+06,   1.41241E+06,   1.41241E+06
C:/temp/Job-29.odb,Step-1,Increment      1: Step Time =    1.000,"P-29-1",           544,       65.5606,       5.22143,            0.,NA,NA,"",   1.26408E+06,   1.25937E+06,   1.25937E+06
C:/temp/Job-29.odb,Step-1,Increment      1: Step Time =    1.000,"P-29-1",           545,       75.3566,       4.73833,            0.,NA,NA,"",   1.09590E+06,   1.09283E+06,   1.09283E+06
C:/temp/Job-29.odb,Step-1,Increment      1: Step Time =    1.000,"P-29-1",           546,       85.1548,       4.78086,            0.,NA,NA,"",   936.680E+03,   936.523E+03,   936.523E+03
C:/temp/Job-29.odb,Step-1,Increment      1: Step Time =    1.000,"P-29-1",           547,       125.013,       4.99472,            0.,NA,NA,"",   797.407E+03,   798.723E+03,   798.723E+03
C:/temp/Job-29.odb,Step-1,Increment      1: Step Time =    1.000,"P-29-1",           548,       134.978,       4.83738,            0.,NA,NA,"",   870.334E+03,   868.554E+03,   868.554E+03
C:/temp/Job-29.odb,Step-1,Increment      1: Step Time =    1.000,"P-29-1",           549,       144.740,       4.54821,            0.,NA,NA,"",   934.218E+03,   931.544E+03,   931.544E+03
C:/temp/Job-29.odb,Step-1,Increment      1: Step Time =    1.000,"P-29-1",           550,       154.479,       4.71258,            0.,NA,NA,"",   982.933E+03,   979.925E+03,   979.925E+03
C:/temp/Job-29.odb,Step-1,Increment      1: Step Time =    1.000,"P-29-1",           551,       164.323,       4.96303,            0.,NA,NA,"",   1.00327E+06,   1.00126E+06,   1.00126E+06
C:/temp/Job-29.odb,Step-1,Increment      1: Step Time =    1.000,"P-29-1",           552,       174.243,       4.73154,            0.,NA,NA,"",   1.00340E+06,   1.00276E+06,   1.00276E+06
C:/temp/Job-29.odb,Step-1,Increment      1: Step Time =    1.000,"P-29-1",           553,       195.821,       34.9357,            0.,NA,NA,"",   977.605E+03,   1.00799E+06,   1.00799E+06
C:/temp/Job-29.odb,Step-1,Increment      1: Step Time =    1.000,"P-29-1",           554,       195.180,       44.5391,            0.,NA,NA,"",   948.912E+03,   1.01599E+06,   1.01599E+06
C:/temp/Job-29.odb,Step-1,Increment      1: Step Time =    1.000,"P-29-1",           555,       192.823,       55.2180,            0.,NA,NA,"",   938.396E+03,   1.04077E+06,   1.04077E+06
C:/temp/Job-29.odb,Step-1,Increment      1: Step Time =    1.000,"P-29-1",           556,       195.382,       85.2304,            0.,NA,NA,"",   952.250E+03,   1.02428E+06,   1.02428E+06
C:/temp/Job-29.odb,Step-1,Increment      1: Step Time =    1.000,"P-29-1",           557,       195.242,       95.0704,            0.,NA,NA,"",   983.280E+03,   1.03319E+06,   1.03319E+06
C:/temp/Job-29.odb,Step-1,Increment      1: Step Time =    1.000,"P-29-1",           558,       195.093,       104.979,            0.,NA,NA,"",   979.697E+03,   1.03120E+06,   1.03120E+06
C:/temp/Job-29.odb,Step-1,Increment      1: Step Time =    1.000,"P-29-1",           559,       195.020,       114.956,            0.,NA,NA,"",   947.470E+03,   1.02443E+06,   1.02443E+06
C:/temp/Job-29.odb,Step-1,Increment      1: Step Time =    1.000,"P-29-1",           560,       195.053,       124.941,            0.,NA,NA,"",   909.811E+03,   1.02772E+06,   1.02772E+06
C:/temp/Job-29.odb,Step-1,Increment      1: Step Time =    1.000,"P-29-1",           561,       195.175,       134.897,            0.,NA,NA,"",   893.285E+03,   1.02624E+06,   1.02624E+06
C:/temp/Job-29.odb,Step-1,Increment      1: Step Time =    1.000,"P-29-1",           562,       134.442,       194.898,            0.,NA,NA,"",   870.435E+03,   869.590E+03,   869.590E+03
C:/temp/Job-29.odb,Step-1,Increment      1: Step Time =    1.000,"P-29-1",           563,       124.654,       195.282,            0.,NA,NA,"",   787.809E+03,   789.464E+03,   789.464E+03
C:/temp/Job-29.odb,Step-1,Increment      1: Step Time =    1.000,"P-29-1",           564,       195.340,       144.855,            0.,NA,NA,"",   909.006E+03,   1.02054E+06,   1.02054E+06
C:/temp/Job-29.odb,Step-1,Increment      1: Step Time =    1.000,"P-29-1",           565,       195.440,       154.792,            0.,NA,NA,"",   944.046E+03,   1.01455E+06,   1.01455E+06
C:/temp/Job-29.odb,Step-1,Increment      1: Step Time =    1.000,"P-29-1",           566,       144.907,       192.863,            0.,NA,NA,"",   974.248E+03,   967.816E+03,   967.816E+03
C:/temp/Job-29.odb,Step-1,Increment      1: Step Time =    1.000,"P-29-1",           567,       195.476,       164.637,            0.,NA,NA,"",   977.157E+03,   1.00976E+06,   1.00976E+06
C:/temp/Job-29.odb,Step-1,Increment      1: Step Time =    1.000,"P-29-1",           568,       155.472,       195.061,            0.,NA,NA,"",   986.005E+03,   983.249E+03,   983.249E+03
C:/temp/Job-29.odb,Step-1,Increment      1: Step Time =    1.000,"P-29-1",           569,       195.310,       174.417,            0.,NA,NA,"",   997.041E+03,   1.00645E+06,   1.00645E+06
C:/temp/Job-29.odb,Step-1,Increment      1: Step Time =    1.000,"P-29-1",           570,       165.104,       195.611,            0.,NA,NA,"",   1.00094E+06,    999.56E+03,    999.56E+03
C:/temp/Job-29.odb,Step-1,Increment      1: Step Time =    1.000,"P-29-1",           571,       194.647,       184.306,            0.,NA,NA,"",   1.00331E+06,   1.00416E+06,   1.00416E+06
C:/temp/Job-29.odb,Step-1,Increment      1: Step Time =    1.000,"P-29-1",           572,       174.578,       195.974,            0.,NA,NA,"",   1.00142E+06,   1.00105E+06,   1.00105E+06
C:/temp/Job-29.odb,Step-1,Increment      1: Step Time =    1.000,"P-29-1",           573,       194.515,       194.588,            0.,NA,NA,"",   999.884E+03,   999.637E+03,   999.637E+03
C:/temp/Job-29.odb,Step-1,Increment      1: Step Time =    1.000,"P-29-1",           574,       184.292,       195.182,            0.,NA,NA,"",   999.000E+03,   999.570E+03,   999.570E+03
C:/temp/Job-29.odb,Step-1,Increment      1: Step Time =    1.000,"P-29-1",           575,       114.810,       195.115,            0.,NA,NA,"",   737.909E+03,   743.085E+03,   743.085E+03
C:/temp/Job-29.odb,Step-1,Increment      1: Step Time =    1.000,"P-29-1",           576,       104.919,       194.933,            0.,NA,NA,"",   744.229E+03,   750.745E+03,   750.745E+03
C:/temp/Job-29.odb,Step-1,Increment      1: Step Time =    1.000,"P-29-1",           577,       55.0425,       195.451,            0.,NA,NA,"",   1.41207E+06,   1.40708E+06,   1.40708E+06
C:/temp/Job-29.odb,Step-1,Increment      1: Step Time =    1.000,"P-29-1",           578,       45.1753,       195.496,            0.,NA,NA,"",   1.52137E+06,   1.51759E+06,   1.51759E+06
C:/temp/Job-29.odb,Step-1,Increment      1: Step Time =    1.000,"P-29-1",           579,       35.3482,       195.501,            0.,NA,NA,"",   1.59984E+06,   1.59765E+06,   1.59765E+06
C:/temp/Job-29.odb,Step-1,Increment      1: Step Time =    1.000,"P-29-1",           580,       25.5864,       195.343,            0.,NA,NA,"",   1.66059E+06,   1.66106E+06,   1.66106E+06
C:/temp/Job-29.odb,Step-1,Increment      1: Step Time =    1.000,"P-29-1",           581,       15.6887,       194.726,            0.,NA,NA,"",   1.73390E+06,   1.74500E+06,   1.74500E+06
C:/temp/Job-29.odb,Step-1,Increment      1: Step Time =    1.000,"P-29-1",           582,       5.37790,       194.561,            0.,NA,NA,"",   1.91145E+06,   1.98851E+06,   1.98851E+06
C:/temp/Job-29.odb,Step-1,Increment      1: Step Time =    1.000,"P-29-1",           583,       4.82918,       184.320,            0.,NA,NA,"",   1.46051E+06,   1.59186E+06,   1.59186E+06
C:/temp/Job-29.odb,Step-1,Increment      1: Step Time =    1.000,"P-29-1",           584,       4.09781,       174.530,            0.,NA,NA,"",   1.24090E+06,   1.37359E+06,   1.37359E+06
C:/temp/Job-29.odb,Step-1,Increment      1: Step Time =    1.000,"P-29-1",           585,       4.18511,       164.947,            0.,NA,NA,"",   1.08236E+06,   1.20320E+06,   1.20320E+06
C:/temp/Job-29.odb,Step-1,Increment      1: Step Time =    1.000,"P-29-1",           586,       4.78319,       155.440,            0.,NA,NA,"",   944.347E+03,   1.05003E+06,   1.05003E+06
C:/temp/Job-29.odb,Step-1,Increment      1: Step Time =    1.000,"P-29-1",           587,       7.20409,       144.946,            0.,NA,NA,"",   802.741E+03,   884.713E+03,   884.713E+03
C:/temp/Job-29.odb,Step-1,Increment      1: Step Time =    1.000,"P-29-1",           588,       5.21676,       134.468,            0.,NA,NA,"",   626.695E+03,   697.529E+03,   697.529E+03
C:/temp/Job-29.odb,Step-1,Increment      1: Step Time =    1.000,"P-29-1",           589,       4.93908,       104.917,            0.,NA,NA,"",   292.046E+03,   335.515E+03,   335.515E+03
C:/temp/Job-29.odb,Step-1,Increment      1: Step Time =    1.000,"P-29-1",           590,       5.02378,       94.9472,            0.,NA,NA,"",   291.637E+03,   335.081E+03,   335.081E+03
C:/temp/Job-29.odb,Step-1,Increment      1: Step Time =    1.000,"P-29-1",           591,       5.06657,       85.0238,            0.,NA,NA,"",   367.779E+03,   418.104E+03,   418.104E+03
C:/temp/Job-29.odb,Step-1,Increment      1: Step Time =    1.000,"P-29-1",           592,       4.99801,       75.0870,            0.,NA,NA,"",   489.009E+03,   548.466E+03,   548.466E+03
C:/temp/Job-29.odb,Step-1,Increment      1: Step Time =    1.000,"P-29-1",           593,       4.78716,       65.1764,            0.,NA,NA,"",   630.646E+03,   703.006E+03,   703.006E+03
C:/temp/Job-29.odb,Step-1,Increment      1: Step Time =    1.000,"P-29-1",           594,       4.51044,       55.3516,            0.,NA,NA,"",   778.289E+03,   866.397E+03,   866.397E+03
C:/temp/Job-29.odb,Step-1,Increment      1: Step Time =    1.000,"P-29-1",           595,       189.245,       5.76264,            0.,NA,NA,"",   999.152E+03,   999.787E+03,   999.787E+03
C:/temp/Job-29.odb,Step-1,Increment      1: Step Time =    1.000,"P-29-1",           596,       179.209,       4.91490,            0.,NA,NA,"",   1.00148E+06,   1.00152E+06,   1.00152E+06
C:/temp/Job-29.odb,Step-1,Increment      1: Step Time =    1.000,"P-29-1",           597,       169.301,       4.77316,            0.,NA,NA,"",   1.00462E+06,   1.00322E+06,   1.00322E+06
C:/temp/Job-29.odb,Step-1,Increment      1: Step Time =    1.000,"P-29-1",           598,       159.325,       5.07582,            0.,NA,NA,"",   996.989E+03,   994.365E+03,   994.365E+03
C:/temp/Job-29.odb,Step-1,Increment      1: Step Time =    1.000,"P-29-1",           599,       149.539,       4.46404,            0.,NA,NA,"",   960.725E+03,   958.019E+03,   958.019E+03
C:/temp/Job-29.odb,Step-1,Increment      1: Step Time =    1.000,"P-29-1",           600,       139.904,       4.70679,            0.,NA,NA,"",   904.426E+03,   901.924E+03,   901.924E+03
C:/temp/Job-29.odb,Step-1,Increment      1: Step Time =    1.000,"P-29-1",           601,       130.010,       4.93170,            0.,NA,NA,"",   833.558E+03,   833.027E+03,   833.027E+03
C:/temp/Job-29.odb,Step-1,Increment      1: Step Time =    1.000,"P-29-1",           602,       120.008,       5.02502,            0.,NA,NA,"",   765.801E+03,   769.124E+03,   769.124E+03
C:/temp/Job-29.odb,Step-1,Increment      1: Step Time =    1.000,"P-29-1",           603,       110.026,       4.99853,            0.,NA,NA,"",   734.068E+03,   740.268E+03,   740.268E+03
C:/temp/Job-29.odb,Step-1,Increment      1: Step Time =    1.000,"P-29-1",           604,       100.050,       4.91918,            0.,NA,NA,"",   765.869E+03,   771.731E+03,   771.731E+03
C:/temp/Job-29.odb,Step-1,Increment      1: Step Time =    1.000,"P-29-1",           605,       90.0835,       4.83246,            0.,NA,NA,"",   867.538E+03,   869.418E+03,   869.418E+03
C:/temp/Job-29.odb,Step-1,Increment      1: Step Time =    1.000,"P-29-1",           606,       80.2501,       4.73477,            0.,NA,NA,"",   1.01373E+06,   1.01186E+06,   1.01186E+06
C:/temp/Job-29.odb,Step-1,Increment      1: Step Time =    1.000,"P-29-1",           607,       70.4669,       4.87073,            0.,NA,NA,"",   1.18067E+06,   1.17662E+06,   1.17662E+06
C:/temp/Job-29.odb,Step-1,Increment      1: Step Time =    1.000,"P-29-1",           608,       60.5976,       5.93529,            0.,NA,NA,"",   1.34350E+06,   1.33732E+06,   1.33732E+06
C:/temp/Job-29.odb,Step-1,Increment      1: Step Time =    1.000,"P-29-1",           609,       49.4535,       5.61010,            0.,NA,NA,"",   1.47889E+06,   1.47158E+06,   1.47158E+06
C:/temp/Job-29.odb,Step-1,Increment      1: Step Time =    1.000,"P-29-1",           610,       39.6888,       4.62386,            0.,NA,NA,"",   1.56900E+06,   1.56565E+06,   1.56565E+06
C:/temp/Job-29.odb,Step-1,Increment      1: Step Time =    1.000,"P-29-1",           611,       30.1659,       4.17901,            0.,NA,NA,"",   1.63477E+06,   1.63349E+06,   1.63349E+06
C:/temp/Job-29.odb,Step-1,Increment      1: Step Time =    1.000,"P-29-1",           612,       20.6532,       4.33410,            0.,NA,NA,"",   1.69696E+06,   1.69938E+06,   1.69938E+06
C:/temp/Job-29.odb,Step-1,Increment      1: Step Time =    1.000,"P-29-1",           613,       10.8482,       5.55609,            0.,NA,NA,"",   1.81432E+06,   1.83440E+06,   1.83440E+06
C:/temp/Job-29.odb,Step-1,Increment      1: Step Time =    1.000,"P-29-1",           614,       194.275,       189.308,            0.,NA,NA,"",   1.00244E+06,   1.00228E+06,   1.00228E+06
C:/temp/Job-29.odb,Step-1,Increment      1: Step Time =    1.000,"P-29-1",           615,       195.059,       179.336,            0.,NA,NA,"",   1.00152E+06,   1.00519E+06,   1.00519E+06
C:/temp/Job-29.odb,Step-1,Increment      1: Step Time =    1.000,"P-29-1",           616,       195.441,       169.521,            0.,NA,NA,"",   989.056E+03,   1.00801E+06,   1.00801E+06
C:/temp/Job-29.odb,Step-1,Increment      1: Step Time =    1.000,"P-29-1",           617,       195.469,       159.730,            0.,NA,NA,"",   961.848E+03,   1.01196E+06,   1.01196E+06
C:/temp/Job-29.odb,Step-1,Increment      1: Step Time =    1.000,"P-29-1",           618,       195.392,       149.821,            0.,NA,NA,"",   925.622E+03,   1.01752E+06,   1.01752E+06
C:/temp/Job-29.odb,Step-1,Increment      1: Step Time =    1.000,"P-29-1",           619,       195.255,       139.879,            0.,NA,NA,"",   897.384E+03,   1.02358E+06,   1.02358E+06
C:/temp/Job-29.odb,Step-1,Increment      1: Step Time =    1.000,"P-29-1",           620,       195.100,       129.919,            0.,NA,NA,"",   897.669E+03,   1.02785E+06,   1.02785E+06
C:/temp/Job-29.odb,Step-1,Increment      1: Step Time =    1.000,"P-29-1",           621,       195.027,       119.956,            0.,NA,NA,"",   927.402E+03,   1.02568E+06,   1.02568E+06
C:/temp/Job-29.odb,Step-1,Increment      1: Step Time =    1.000,"P-29-1",           622,       195.049,       109.964,            0.,NA,NA,"",   966.062E+03,   1.02724E+06,   1.02724E+06
C:/temp/Job-29.odb,Step-1,Increment      1: Step Time =    1.000,"P-29-1",           623,       195.169,       100.018,            0.,NA,NA,"",   986.003E+03,   1.03249E+06,   1.03249E+06
C:/temp/Job-29.odb,Step-1,Increment      1: Step Time =    1.000,"P-29-1",           624,       195.333,       90.1420,            0.,NA,NA,"",   971.219E+03,   1.02959E+06,   1.02959E+06
C:/temp/Job-29.odb,Step-1,Increment      1: Step Time =    1.000,"P-29-1",           625,       195.392,       80.3298,            0.,NA,NA,"",   930.449E+03,   1.02421E+06,   1.02421E+06
C:/temp/Job-29.odb,Step-1,Increment      1: Step Time =    1.000,"P-29-1",           626,       195.090,       70.6624,            0.,NA,NA,"",   896.753E+03,   1.02617E+06,   1.02617E+06
C:/temp/Job-29.odb,Step-1,Increment      1: Step Time =    1.000,"P-29-1",           627,       194.077,       60.7806,            0.,NA,NA,"",   904.401E+03,   1.02877E+06,   1.02877E+06
C:/temp/Job-29.odb,Step-1,Increment      1: Step Time =    1.000,"P-29-1",           628,       194.496,       49.4969,            0.,NA,NA,"",   939.752E+03,   1.02653E+06,   1.02653E+06
C:/temp/Job-29.odb,Step-1,Increment      1: Step Time =    1.000,"P-29-1",           629,       195.555,       39.7297,            0.,NA,NA,"",   963.152E+03,   1.01065E+06,   1.01065E+06
C:/temp/Job-29.odb,Step-1,Increment      1: Step Time =    1.000,"P-29-1",           630,       196.038,       30.2223,            0.,NA,NA,"",   988.810E+03,   1.00602E+06,   1.00602E+06
C:/temp/Job-29.odb,Step-1,Increment      1: Step Time =    1.000,"P-29-1",           631,       195.779,       20.7115,            0.,NA,NA,"",   1.00102E+06,   1.00367E+06,   1.00367E+06
C:/temp/Job-29.odb,Step-1,Increment      1: Step Time =    1.000,"P-29-1",           632,       194.467,       10.8956,            0.,NA,NA,"",   1.00220E+06,   1.00199E+06,   1.00199E+06
C:/temp/Job-29.odb,Step-1,Increment      1: Step Time =    1.000,"P-29-1",           633,       10.6443,       194.354,            0.,NA,NA,"",   1.81491E+06,   1.83644E+06,   1.83644E+06
C:/temp/Job-29.odb,Step-1,Increment      1: Step Time =    1.000,"P-29-1",           634,       20.6814,       195.123,            0.,NA,NA,"",   1.69394E+06,   1.69718E+06,   1.69718E+06
C:/temp/Job-29.odb,Step-1,Increment      1: Step Time =    1.000,"P-29-1",           635,       30.4641,       195.466,            0.,NA,NA,"",   1.63160E+06,   1.63020E+06,   1.63020E+06
C:/temp/Job-29.odb,Step-1,Increment      1: Step Time =    1.000,"P-29-1",           636,       40.2535,       195.513,            0.,NA,NA,"",   1.56412E+06,   1.56099E+06,   1.56099E+06
C:/temp/Job-29.odb,Step-1,Increment      1: Step Time =    1.000,"P-29-1",           637,       50.1064,       195.477,            0.,NA,NA,"",   1.47100E+06,   1.46656E+06,   1.46656E+06
C:/temp/Job-29.odb,Step-1,Increment      1: Step Time =    1.000,"P-29-1",           638,       60.0017,       195.395,            0.,NA,NA,"",   1.34457E+06,   1.33928E+06,   1.33928E+06
C:/temp/Job-29.odb,Step-1,Increment      1: Step Time =    1.000,"P-29-1",           639,       69.9804,       195.214,            0.,NA,NA,"",   1.18922E+06,   1.18436E+06,   1.18436E+06
C:/temp/Job-29.odb,Step-1,Increment      1: Step Time =    1.000,"P-29-1",           640,       79.9505,       195.015,            0.,NA,NA,"",   1.02468E+06,   1.02229E+06,   1.02229E+06
C:/temp/Job-29.odb,Step-1,Increment      1: Step Time =    1.000,"P-29-1",           641,       89.9749,       194.915,            0.,NA,NA,"",   874.523E+03,   876.909E+03,   876.909E+03
C:/temp/Job-29.odb,Step-1,Increment      1: Step Time =    1.000,"P-29-1",           642,       99.9563,       194.899,            0.,NA,NA,"",   771.337E+03,    777.34E+03,    777.34E+03
C:/temp/Job-29.odb,Step-1,Increment      1: Step Time =    1.000,"P-29-1",           643,       109.868,       195.006,            0.,NA,NA,"",   733.200E+03,   739.458E+03,   739.458E+03
C:/temp/Job-29.odb,Step-1,Increment      1: Step Time =    1.000,"P-29-1",           644,       119.742,       195.221,            0.,NA,NA,"",   757.118E+03,   760.602E+03,   760.602E+03
C:/temp/Job-29.odb,Step-1,Increment      1: Step Time =    1.000,"P-29-1",           645,       129.541,       195.205,            0.,NA,NA,"",   826.834E+03,   827.066E+03,   827.066E+03
C:/temp/Job-29.odb,Step-1,Increment      1: Step Time =    1.000,"P-29-1",           646,       139.396,       194.215,            0.,NA,NA,"",   917.673E+03,   914.877E+03,   914.877E+03
C:/temp/Job-29.odb,Step-1,Increment      1: Step Time =    1.000,"P-29-1",           647,       150.530,       194.432,            0.,NA,NA,"",   976.053E+03,   971.325E+03,   971.325E+03
C:/temp/Job-29.odb,Step-1,Increment      1: Step Time =    1.000,"P-29-1",           648,       160.290,       195.380,            0.,NA,NA,"",   995.620E+03,   993.778E+03,   993.778E+03
C:/temp/Job-29.odb,Step-1,Increment      1: Step Time =    1.000,"P-29-1",           649,       169.869,       195.857,            0.,NA,NA,"",   1.00231E+06,   1.00147E+06,   1.00147E+06
C:/temp/Job-29.odb,Step-1,Increment      1: Step Time =    1.000,"P-29-1",           650,       179.419,       195.755,            0.,NA,NA,"",   1.00006E+06,   1.00010E+06,   1.00010E+06
C:/temp/Job-29.odb,Step-1,Increment      1: Step Time =    1.000,"P-29-1",           651,       189.196,       194.552,            0.,NA,NA,"",   998.891E+03,   999.484E+03,   999.484E+03
C:/temp/Job-29.odb,Step-1,Increment      1: Step Time =    1.000,"P-29-1",           652,       5.74646,       10.7841,            0.,NA,NA,"",   1.64408E+06,   1.75721E+06,   1.75721E+06
C:/temp/Job-29.odb,Step-1,Increment      1: Step Time =    1.000,"P-29-1",           653,       4.91443,       20.7739,            0.,NA,NA,"",   1.34345E+06,   1.47439E+06,   1.47439E+06
C:/temp/Job-29.odb,Step-1,Increment      1: Step Time =    1.000,"P-29-1",           654,       4.66031,       30.6030,            0.,NA,NA,"",   1.16051E+06,   1.28473E+06,   1.28473E+06
C:/temp/Job-29.odb,Step-1,Increment      1: Step Time =    1.000,"P-29-1",           655,       4.81378,       40.5732,            0.,NA,NA,"",   1.00642E+06,   1.11675E+06,   1.11675E+06
C:/temp/Job-29.odb,Step-1,Increment      1: Step Time =    1.000,"P-29-1",           656,       4.45228,       50.4733,            0.,NA,NA,"",   852.640E+03,   948.627E+03,   948.627E+03
C:/temp/Job-29.odb,Step-1,Increment      1: Step Time =    1.000,"P-29-1",           657,       4.64148,       60.2481,            0.,NA,NA,"",   704.302E+03,   784.358E+03,   784.358E+03
C:/temp/Job-29.odb,Step-1,Increment      1: Step Time =    1.000,"P-29-1",           658,       4.91046,       70.1297,            0.,NA,NA,"",   558.398E+03,   623.826E+03,   623.826E+03
C:/temp/Job-29.odb,Step-1,Increment      1: Step Time =    1.000,"P-29-1",           659,       5.05200,       80.0580,            0.,NA,NA,"",   424.539E+03,   479.014E+03,   479.014E+03
C:/temp/Job-29.odb,Step-1,Increment      1: Step Time =    1.000,"P-29-1",           660,       5.05553,       89.9845,            0.,NA,NA,"",   322.082E+03,   368.696E+03,   368.696E+03
C:/temp/Job-29.odb,Step-1,Increment      1: Step Time =    1.000,"P-29-1",           661,       4.98569,       99.9212,            0.,NA,NA,"",   280.906E+03,   322.996E+03,   322.996E+03
C:/temp/Job-29.odb,Step-1,Increment      1: Step Time =    1.000,"P-29-1",           662,       4.87874,       109.897,            0.,NA,NA,"",   322.809E+03,   369.410E+03,   369.410E+03
C:/temp/Job-29.odb,Step-1,Increment      1: Step Time =    1.000,"P-29-1",           663,       4.75811,       119.754,            0.,NA,NA,"",   423.379E+03,   477.630E+03,   477.630E+03
C:/temp/Job-29.odb,Step-1,Increment      1: Step Time =    1.000,"P-29-1",           664,       4.87803,       129.546,            0.,NA,NA,"",   553.804E+03,   618.591E+03,   618.591E+03
C:/temp/Job-29.odb,Step-1,Increment      1: Step Time =    1.000,"P-29-1",           665,       5.91998,       139.443,            0.,NA,NA,"",   705.857E+03,   782.633E+03,   782.633E+03
C:/temp/Job-29.odb,Step-1,Increment      1: Step Time =    1.000,"P-29-1",           666,       5.52211,       150.542,            0.,NA,NA,"",   877.349E+03,   973.106E+03,   973.106E+03
C:/temp/Job-29.odb,Step-1,Increment      1: Step Time =    1.000,"P-29-1",           667,       4.40766,       160.194,            0.,NA,NA,"",   1.01155E+06,   1.12516E+06,   1.12516E+06
C:/temp/Job-29.odb,Step-1,Increment      1: Step Time =    1.000,"P-29-1",           668,       4.06178,       169.731,            0.,NA,NA,"",   1.15853E+06,   1.28587E+06,   1.28587E+06
C:/temp/Job-29.odb,Step-1,Increment      1: Step Time =    1.000,"P-29-1",           669,       4.32214,       179.389,            0.,NA,NA,"",   1.33900E+06,   1.47390E+06,   1.47390E+06
C:/temp/Job-29.odb,Step-1,Increment      1: Step Time =    1.000,"P-29-1",           670,       5.41873,       189.284,            0.,NA,NA,"",   1.64048E+06,   1.75722E+06,   1.75722E+06
C:/temp/Job-29.odb,Step-1,Increment      1: Step Time =    1.000,"P-29-1",           671,       57.4179,       76.5061,            0.,NA,NA,"",   656.818E+03,   302.107E+03,   302.107E+03
C:/temp/Job-29.odb,Step-1,Increment      1: Step Time =    1.000,"P-29-1",           672,       141.254,       73.0360,            0.,NA,NA,"",   1.36708E+06,   1.06988E+06,   1.06988E+06
C:/temp/Job-29.odb,Step-1,Increment      1: Step Time =    1.000,"P-29-1",           673,       66.7152,       138.739,            0.,NA,NA,"",   1.43305E+06,   1.32085E+06,   1.32085E+06
C:/temp/Job-29.odb,Step-1,Increment      1: Step Time =    1.000,"P-29-1",           674,       130.241,       137.809,            0.,NA,NA,"",   1.82534E+06,   1.78448E+06,   1.78448E+06
C:/temp/Job-29.odb,Step-1,Increment      1: Step Time =    1.000,"P-29-1",           675,       52.7598,       100.200,            0.,NA,NA,"",   408.982E+03,  -435.386E+03,  -435.386E+03
C:/temp/Job-29.odb,Step-1,Increment      1: Step Time =    1.000,"P-29-1",           676,       147.241,       97.2604,            0.,NA,NA,"",   694.102E+03,  -689.116E+03,  -689.116E+03
C:/temp/Job-29.odb,Step-1,Increment      1: Step Time =    1.000,"P-29-1",           677,       89.5520,       51.8293,            0.,NA,NA,"",   2.13859E+06,   2.25641E+06,   2.25641E+06
C:/temp/Job-29.odb,Step-1,Increment      1: Step Time =    1.000,"P-29-1",           678,       99.4744,       147.141,            0.,NA,NA,"",   2.44771E+06,   2.60682E+06,   2.60682E+06
C:/temp/Job-29.odb,Step-1,Increment      1: Step Time =    1.000,"P-29-1",           679,       51.9321,       91.3473,            0.,NA,NA,"",   376.113E+03,  -362.521E+03,  -362.521E+03
C:/temp/Job-29.odb,Step-1,Increment      1: Step Time =    1.000,"P-29-1",           680,       147.831,       88.0487,            0.,NA,NA,"",   811.177E+03,  -597.069E+03,  -597.069E+03
C:/temp/Job-29.odb,Step-1,Increment      1: Step Time =    1.000,"P-29-1",           681,       59.2217,       117.141,            0.,NA,NA,"",   509.470E+03,  -438.310E+03,  -438.310E+03
C:/temp/Job-29.odb,Step-1,Increment      1: Step Time =    1.000,"P-29-1",           682,       80.9509,       60.9434,            0.,NA,NA,"",   2.00042E+06,   2.04145E+06,   2.04145E+06
C:/temp/Job-29.odb,Step-1,Increment      1: Step Time =    1.000,"P-29-1",           683,       68.8097,       70.6779,            0.,NA,NA,"",   771.859E+03,   716.469E+03,   716.469E+03
C:/temp/Job-29.odb,Step-1,Increment      1: Step Time =    1.000,"P-29-1",           684,       140.103,       118.650,            0.,NA,NA,"",   831.243E+03,  -248.298E+03,  -248.298E+03
C:/temp/Job-29.odb,Step-1,Increment      1: Step Time =    1.000,"P-29-1",           685,       132.264,       70.3723,            0.,NA,NA,"",   1.31325E+06,   1.24548E+06,   1.24548E+06
C:/temp/Job-29.odb,Step-1,Increment      1: Step Time =    1.000,"P-29-1",           686,       122.976,       137.576,            0.,NA,NA,"",   2.23753E+06,   2.28495E+06,   2.28495E+06
C:/temp/Job-29.odb,Step-1,Increment      1: Step Time =    1.000,"P-29-1",           687,       139.930,       9.58649,            0.,NA,NA,"",   990.912E+03,   984.083E+03,   984.083E+03
C:/temp/Job-29.odb,Step-1,Increment      1: Step Time =    1.000,"P-29-1",           688,       130.064,       9.92226,            0.,NA,NA,"",   949.617E+03,   948.805E+03,   948.805E+03
C:/temp/Job-29.odb,Step-1,Increment      1: Step Time =    1.000,"P-29-1",           689,       120.002,       10.0820,            0.,NA,NA,"",   901.553E+03,   911.441E+03,   911.441E+03
C:/temp/Job-29.odb,Step-1,Increment      1: Step Time =    1.000,"P-29-1",           690,       109.993,       10.0136,            0.,NA,NA,"",   878.330E+03,   895.609E+03,   895.609E+03
C:/temp/Job-29.odb,Step-1,Increment      1: Step Time =    1.000,"P-29-1",           691,       80.4592,       9.54724,            0.,NA,NA,"",   1.12346E+06,   1.11909E+06,   1.11909E+06
C:/temp/Job-29.odb,Step-1,Increment      1: Step Time =    1.000,"P-29-1",           692,       71.0741,       9.65429,            0.,NA,NA,"",   1.25329E+06,   1.24154E+06,   1.24154E+06
C:/temp/Job-29.odb,Step-1,Increment      1: Step Time =    1.000,"P-29-1",           693,       62.1894,       11.3105,            0.,NA,NA,"",   1.37925E+06,   1.36020E+06,   1.36020E+06
C:/temp/Job-29.odb,Step-1,Increment      1: Step Time =    1.000,"P-29-1",           694,       190.450,       139.795,            0.,NA,NA,"",   951.167E+03,   1.06126E+06,   1.06126E+06
C:/temp/Job-29.odb,Step-1,Increment      1: Step Time =    1.000,"P-29-1",           695,       190.123,       129.835,            0.,NA,NA,"",   931.512E+03,   1.06306E+06,   1.06306E+06
C:/temp/Job-29.odb,Step-1,Increment      1: Step Time =    1.000,"P-29-1",           696,       190.027,       119.884,            0.,NA,NA,"",   905.160E+03,   1.03787E+06,   1.03787E+06
C:/temp/Job-29.odb,Step-1,Increment      1: Step Time =    1.000,"P-29-1",           697,       190.099,       109.865,            0.,NA,NA,"",   882.946E+03,   985.636E+03,   985.636E+03
C:/temp/Job-29.odb,Step-1,Increment      1: Step Time =    1.000,"P-29-1",           698,       190.341,       99.9405,            0.,NA,NA,"",    878.71E+03,   947.027E+03,   947.027E+03
C:/temp/Job-29.odb,Step-1,Increment      1: Step Time =    1.000,"P-29-1",           699,       190.677,       90.2081,            0.,NA,NA,"",   890.827E+03,   989.583E+03,   989.583E+03
C:/temp/Job-29.odb,Step-1,Increment      1: Step Time =    1.000,"P-29-1",           700,       190.746,       80.7021,            0.,NA,NA,"",   904.140E+03,   1.03480E+06,   1.03480E+06
C:/temp/Job-29.odb,Step-1,Increment      1: Step Time =    1.000,"P-29-1",           701,       190.181,       71.5753,            0.,NA,NA,"",   925.201E+03,   1.05883E+06,   1.05883E+06
C:/temp/Job-29.odb,Step-1,Increment      1: Step Time =    1.000,"P-29-1",           702,       59.9576,       190.791,            0.,NA,NA,"",   1.37996E+06,   1.36519E+06,   1.36519E+06
C:/temp/Job-29.odb,Step-1,Increment      1: Step Time =    1.000,"P-29-1",           703,       69.8854,       190.441,            0.,NA,NA,"",   1.26645E+06,   1.25345E+06,   1.25345E+06
C:/temp/Job-29.odb,Step-1,Increment      1: Step Time =    1.000,"P-29-1",           704,       89.9419,       189.819,            0.,NA,NA,"",   1.01661E+06,   1.02393E+06,   1.02393E+06
C:/temp/Job-29.odb,Step-1,Increment      1: Step Time =    1.000,"P-29-1",           705,       109.823,       189.868,            0.,NA,NA,"",   880.679E+03,   898.403E+03,   898.403E+03
C:/temp/Job-29.odb,Step-1,Increment      1: Step Time =    1.000,"P-29-1",           706,       119.576,       190.370,            0.,NA,NA,"",   887.165E+03,   897.401E+03,   897.401E+03
C:/temp/Job-29.odb,Step-1,Increment      1: Step Time =    1.000,"P-29-1",           707,       128.988,       190.498,            0.,NA,NA,"",   933.927E+03,   934.523E+03,   934.523E+03
C:/temp/Job-29.odb,Step-1,Increment      1: Step Time =    1.000,"P-29-1",           708,       9.36054,       60.3858,            0.,NA,NA,"",   721.888E+03,   793.377E+03,   793.377E+03
C:/temp/Job-29.odb,Step-1,Increment      1: Step Time =    1.000,"P-29-1",           709,       9.93005,       70.1906,            0.,NA,NA,"",   561.069E+03,   623.252E+03,   623.252E+03
C:/temp/Job-29.odb,Step-1,Increment      1: Step Time =    1.000,"P-29-1",           710,       10.2120,       80.1058,            0.,NA,NA,"",   413.024E+03,   468.134E+03,   468.134E+03
C:/temp/Job-29.odb,Step-1,Increment      1: Step Time =    1.000,"P-29-1",           711,       10.2021,       90.0130,            0.,NA,NA,"",   303.681E+03,   349.953E+03,   349.953E+03
C:/temp/Job-29.odb,Step-1,Increment      1: Step Time =    1.000,"P-29-1",           712,       9.98905,       99.8952,            0.,NA,NA,"",   261.400E+03,   299.018E+03,   299.018E+03
C:/temp/Job-29.odb,Step-1,Increment      1: Step Time =    1.000,"P-29-1",           713,       9.81326,       109.847,            0.,NA,NA,"",   305.093E+03,   351.553E+03,   351.553E+03
C:/temp/Job-29.odb,Step-1,Increment      1: Step Time =    1.000,"P-29-1",           714,       9.62018,       119.549,            0.,NA,NA,"",   410.141E+03,   465.330E+03,   465.330E+03
C:/temp/Job-29.odb,Step-1,Increment      1: Step Time =    1.000,"P-29-1",           715,       11.2941,       137.927,            0.,NA,NA,"",   705.350E+03,   771.153E+03,   771.153E+03
C:/temp/Job-29.odb,Step-1,Increment      1: Step Time =    1.000,"P-29-1",           716,       100.048,       9.81211,            0.,NA,NA,"",   910.108E+03,   926.293E+03,   926.293E+03
C:/temp/Job-29.odb,Step-1,Increment      1: Step Time =    1.000,"P-29-1",           717,       90.1048,       9.70821,            0.,NA,NA,"",   1.00356E+06,   1.00956E+06,   1.00956E+06
C:/temp/Job-29.odb,Step-1,Increment      1: Step Time =    1.000,"P-29-1",           718,       188.722,       62.5484,            0.,NA,NA,"",   968.400E+03,   1.07518E+06,   1.07518E+06
C:/temp/Job-29.odb,Step-1,Increment      1: Step Time =    1.000,"P-29-1",           719,       79.8309,       190.020,            0.,NA,NA,"",   1.14296E+06,   1.13717E+06,   1.13717E+06
C:/temp/Job-29.odb,Step-1,Increment      1: Step Time =    1.000,"P-29-1",           720,       99.9277,       189.700,            0.,NA,NA,"",   922.425E+03,   939.577E+03,   939.577E+03
C:/temp/Job-29.odb,Step-1,Increment      1: Step Time =    1.000,"P-29-1",           721,       137.827,       189.047,            0.,NA,NA,"",   1.00749E+06,   1.00076E+06,   1.00076E+06
C:/temp/Job-29.odb,Step-1,Increment      1: Step Time =    1.000,"P-29-1",           722,       9.68605,       128.964,            0.,NA,NA,"",   546.931E+03,   608.706E+03,   608.706E+03
C:/temp/Job-29.odb,Step-1,Increment      1: Step Time =    1.000,"P-29-1",           723,       125.063,       56.0425,            0.,NA,NA,"",   1.95058E+06,   1.99351E+06,   1.99351E+06
C:/temp/Job-29.odb,Step-1,Increment      1: Step Time =    1.000,"P-29-1",           724,       137.562,       130.693,            0.,NA,NA,"",   1.46731E+06,   1.27022E+06,   1.27022E+06
C:/temp/Job-29.odb,Step-1,Increment      1: Step Time =    1.000,"P-29-1",           725,       57.8381,       133.878,            0.,NA,NA,"",   1.15314E+06,   978.712E+03,   978.712E+03
C:/temp/Job-29.odb,Step-1,Increment      1: Step Time =    1.000,"P-29-1",           726,       90.3465,       147.709,            0.,NA,NA,"",   2.18067E+06,   2.30760E+06,   2.30760E+06
C:/temp/Job-29.odb,Step-1,Increment      1: Step Time =    1.000,"P-29-1",           727,       108.617,       147.600,            0.,NA,NA,"",   2.30149E+06,   2.46590E+06,   2.46590E+06
C:/temp/Job-29.odb,Step-1,Increment      1: Step Time =    1.000,"P-29-1",           728,       84.0086,       146.095,            0.,NA,NA,"",   2.02852E+06,   2.10365E+06,   2.10365E+06
C:/temp/Job-29.odb,Step-1,Increment      1: Step Time =    1.000,"P-29-1",           729,       109.635,       53.0637,            0.,NA,NA,"",   2.32029E+06,   2.48183E+06,   2.48183E+06
C:/temp/Job-29.odb,Step-1,Increment      1: Step Time =    1.000,"P-29-1",           730,       117.712,       144.553,            0.,NA,NA,"",   2.24419E+06,   2.36455E+06,   2.36455E+06
C:/temp/Job-29.odb,Step-1,Increment      1: Step Time =    1.000,"P-29-1",           731,       60.2922,       17.8730,            0.,NA,NA,"",   1.46922E+06,   1.43003E+06,   1.43003E+06
C:/temp/Job-29.odb,Step-1,Increment      1: Step Time =    1.000,"P-29-1",           732,       14.1200,       60.3338,            0.,NA,NA,"",   751.716E+03,   811.209E+03,   811.209E+03
C:/temp/Job-29.odb,Step-1,Increment      1: Step Time =    1.000,"P-29-1",           733,       59.9020,       186.237,            0.,NA,NA,"",   1.42674E+06,   1.39936E+06,   1.39936E+06
C:/temp/Job-29.odb,Step-1,Increment      1: Step Time =    1.000,"P-29-1",           734,       182.398,       60.7644,            0.,NA,NA,"",   1.07609E+06,   1.13034E+06,   1.13034E+06
C:/temp/Job-29.odb,Step-1,Increment      1: Step Time =    1.000,"P-29-1",           735,       140.024,       14.5906,            0.,NA,NA,"",   1.08561E+06,   1.07295E+06,   1.07295E+06
C:/temp/Job-29.odb,Step-1,Increment      1: Step Time =    1.000,"P-29-1",           736,       17.8331,       139.995,            0.,NA,NA,"",   786.191E+03,   832.256E+03,   832.256E+03
C:/temp/Job-29.odb,Step-1,Increment      1: Step Time =    1.000,"P-29-1",           737,       185.583,       139.754,            0.,NA,NA,"",   1.02371E+06,   1.10357E+06,   1.10357E+06
C:/temp/Job-29.odb,Step-1,Increment      1: Step Time =    1.000,"P-29-1",           738,       139.615,       182.862,            0.,NA,NA,"",   1.13338E+06,   1.11840E+06,   1.11840E+06
C:/temp/Job-29.odb,Step-1,Increment      1: Step Time =    1.000,"P-29-1",           739,       79.7919,       148.326,            0.,NA,NA,"",   1.86710E+06,   1.89232E+06,   1.89232E+06
C:/temp/Job-29.odb,Step-1,Increment      1: Step Time =    1.000,"P-29-1",           740,       121.454,       147.141,            0.,NA,NA,"",   1.96079E+06,   2.05473E+06,   2.05473E+06
C:/temp/Job-29.odb,Step-1,Increment      1: Step Time =    1.000,"P-29-1",           741,       112.041,       152.686,            0.,NA,NA,"",   1.89453E+06,   2.04529E+06,   2.04529E+06
C:/temp/Job-29.odb,Step-1,Increment      1: Step Time =    1.000,"P-29-1",           742,       88.5285,       153.739,            0.,NA,NA,"",   1.87347E+06,   1.97616E+06,   1.97616E+06
C:/temp/Job-29.odb,Step-1,Increment      1: Step Time =    1.000,"P-29-1",           743,       124.014,       144.020,            0.,NA,NA,"",   1.96522E+06,   2.02619E+06,   2.02619E+06
C:/temp/Job-29.odb,Step-1,Increment      1: Step Time =    1.000,"P-29-1",           744,       135.944,       66.9969,            0.,NA,NA,"",   1.60446E+06,   1.43621E+06,   1.43621E+06
C:/temp/Job-29.odb,Step-1,Increment      1: Step Time =    1.000,"P-29-1",           745,       63.1607,       70.1605,            0.,NA,NA,"",   949.812E+03,   784.964E+03,   784.964E+03
C:/temp/Job-29.odb,Step-1,Increment      1: Step Time =    1.000,"P-29-1",           746,       49.4191,       100.543,            0.,NA,NA,"",   256.822E+03,  -272.154E+03,  -272.154E+03
C:/temp/Job-29.odb,Step-1,Increment      1: Step Time =    1.000,"P-29-1",           747,       151.895,       102.439,            0.,NA,NA,"",   464.239E+03,  -380.422E+03,  -380.422E+03
C:/temp/Job-29.odb,Step-1,Increment      1: Step Time =    1.000,"P-29-1",           748,       89.1126,       46.6967,            0.,NA,NA,"",   1.87642E+06,   1.98309E+06,   1.98309E+06
C:/temp/Job-29.odb,Step-1,Increment      1: Step Time =    1.000,"P-29-1",           749,       109.077,       50.0238,            0.,NA,NA,"",   2.12055E+06,   2.28396E+06,   2.28396E+06
C:/temp/Job-29.odb,Step-1,Increment      1: Step Time =    1.000,"P-29-1",           750,       15.0916,       70.1553,            0.,NA,NA,"",   574.827E+03,   629.615E+03,   629.615E+03
C:/temp/Job-29.odb,Step-1,Increment      1: Step Time =    1.000,"P-29-1",           751,       71.6391,       14.2742,            0.,NA,NA,"",   1.32824E+06,   1.30840E+06,   1.30840E+06
C:/temp/Job-29.odb,Step-1,Increment      1: Step Time =    1.000,"P-29-1",           752,       130.150,       14.9630,            0.,NA,NA,"",   1.06056E+06,   1.06019E+06,   1.06019E+06
C:/temp/Job-29.odb,Step-1,Increment      1: Step Time =    1.000,"P-29-1",           753,       14.3596,       128.456,            0.,NA,NA,"",   548.316E+03,   604.452E+03,   604.452E+03
C:/temp/Job-29.odb,Step-1,Increment      1: Step Time =    1.000,"P-29-1",           754,       69.6875,       185.714,            0.,NA,NA,"",   1.34844E+06,   1.32575E+06,   1.32575E+06
C:/temp/Job-29.odb,Step-1,Increment      1: Step Time =    1.000,"P-29-1",           755,       185.019,       129.717,            0.,NA,NA,"",   985.571E+03,   1.09075E+06,   1.09075E+06
C:/temp/Job-29.odb,Step-1,Increment      1: Step Time =    1.000,"P-29-1",           756,       185.228,       72.5890,            0.,NA,NA,"",   966.124E+03,   1.07864E+06,   1.07864E+06
C:/temp/Job-29.odb,Step-1,Increment      1: Step Time =    1.000,"P-29-1",           757,       128.529,       185.938,            0.,NA,NA,"",   1.03303E+06,   1.03531E+06,   1.03531E+06
C:/temp/Job-29.odb,Step-1,Increment      1: Step Time =    1.000,"P-29-1",           758,       56.8657,       70.9718,            0.,NA,NA,"",   935.247E+03,   749.494E+03,   749.494E+03
C:/temp/Job-29.odb,Step-1,Increment      1: Step Time =    1.000,"P-29-1",           759,       138.982,       70.3111,            0.,NA,NA,"",   1.46223E+06,   1.21342E+06,   1.21342E+06
C:/temp/Job-29.odb,Step-1,Increment      1: Step Time =    1.000,"P-29-1",           760,       69.4690,       145.031,            0.,NA,NA,"",   1.68126E+06,   1.59252E+06,   1.59252E+06
C:/temp/Job-29.odb,Step-1,Increment      1: Step Time =    1.000,"P-29-1",           761,       130.509,       144.437,            0.,NA,NA,"",   1.84011E+06,   1.80809E+06,   1.80809E+06
C:/temp/Job-29.odb,Step-1,Increment      1: Step Time =    1.000,"P-29-1",           762,       47.0175,       92.7839,            0.,NA,NA,"",   246.028E+03,  -203.044E+03,  -203.044E+03
C:/temp/Job-29.odb,Step-1,Increment      1: Step Time =    1.000,"P-29-1",           763,       152.655,       89.2476,            0.,NA,NA,"",   734.294E+03,  -35.7613E+03,  -35.7613E+03
C:/temp/Job-29.odb,Step-1,Increment      1: Step Time =    1.000,"P-29-1",           764,       15.5089,       80.1435,            0.,NA,NA,"",   409.658E+03,   461.576E+03,   461.576E+03
C:/temp/Job-29.odb,Step-1,Increment      1: Step Time =    1.000,"P-29-1",           765,       119.965,       15.1607,            0.,NA,NA,"",   1.02147E+06,   1.04152E+06,   1.04152E+06
C:/temp/Job-29.odb,Step-1,Increment      1: Step Time =    1.000,"P-29-1",           766,       80.5549,       14.4645,            0.,NA,NA,"",   1.23015E+06,   1.22500E+06,   1.22500E+06
C:/temp/Job-29.odb,Step-1,Increment      1: Step Time =    1.000,"P-29-1",           767,       14.6523,       119.454,            0.,NA,NA,"",   404.232E+03,   457.333E+03,   457.333E+03
C:/temp/Job-29.odb,Step-1,Increment      1: Step Time =    1.000,"P-29-1",           768,       185.014,       119.741,            0.,NA,NA,"",   906.056E+03,   1.03171E+06,   1.03171E+06
C:/temp/Job-29.odb,Step-1,Increment      1: Step Time =    1.000,"P-29-1",           769,       79.6220,       184.999,            0.,NA,NA,"",   1.25317E+06,   1.24497E+06,   1.24497E+06
C:/temp/Job-29.odb,Step-1,Increment      1: Step Time =    1.000,"P-29-1",           770,       186.186,       81.1470,            0.,NA,NA,"",   896.099E+03,   1.02715E+06,   1.02715E+06
C:/temp/Job-29.odb,Step-1,Increment      1: Step Time =    1.000,"P-29-1",           771,       119.598,       185.439,            0.,NA,NA,"",   1.00543E+06,   1.02603E+06,   1.02603E+06
C:/temp/Job-29.odb,Step-1,Increment      1: Step Time =    1.000,"P-29-1",           772,       120.572,       55.5562,            0.,NA,NA,"",   2.08978E+06,   2.18096E+06,   2.18096E+06
C:/temp/Job-29.odb,Step-1,Increment      1: Step Time =    1.000,"P-29-1",           773,       130.461,       59.7297,            0.,NA,NA,"",   1.83666E+06,   1.79796E+06,   1.79796E+06
C:/temp/Job-29.odb,Step-1,Increment      1: Step Time =    1.000,"P-29-1",           774,       103.672,       151.996,            0.,NA,NA,"",   1.99981E+06,   2.17203E+06,   2.17203E+06
C:/temp/Job-29.odb,Step-1,Increment      1: Step Time =    1.000,"P-29-1",           775,       141.080,       126.783,            0.,NA,NA,"",   1.32084E+06,   1.02022E+06,   1.02022E+06
C:/temp/Job-29.odb,Step-1,Increment      1: Step Time =    1.000,"P-29-1",           776,       57.3856,       127.570,            0.,NA,NA,"",   876.886E+03,   684.047E+03,   684.047E+03
C:/temp/Job-29.odb,Step-1,Increment      1: Step Time =    1.000,"P-29-1",           777,       63.5292,       133.604,            0.,NA,NA,"",   1.15903E+06,   1.00831E+06,   1.00831E+06
C:/temp/Job-29.odb,Step-1,Increment      1: Step Time =    1.000,"P-29-1",           778,       76.9616,       143.470,            0.,NA,NA,"",   1.81628E+06,   1.81608E+06,   1.81608E+06
C:/temp/Job-29.odb,Step-1,Increment      1: Step Time =    1.000,"P-29-1",           779,       109.849,       15.0439,            0.,NA,NA,"",   998.025E+03,   1.03167E+06,   1.03167E+06
C:/temp/Job-29.odb,Step-1,Increment      1: Step Time =    1.000,"P-29-1",           780,       15.4953,       90.1283,            0.,NA,NA,"",   288.137E+03,   331.909E+03,   331.909E+03
C:/temp/Job-29.odb,Step-1,Increment      1: Step Time =    1.000,"P-29-1",           781,       14.8253,       109.829,            0.,NA,NA,"",   291.501E+03,   335.811E+03,   335.811E+03
C:/temp/Job-29.odb,Step-1,Increment      1: Step Time =    1.000,"P-29-1",           782,       90.0762,       14.6268,            0.,NA,NA,"",   1.12192E+06,   1.13589E+06,   1.13589E+06
C:/temp/Job-29.odb,Step-1,Increment      1: Step Time =    1.000,"P-29-1",           783,       89.8761,       184.745,            0.,NA,NA,"",   1.13914E+06,   1.15522E+06,   1.15522E+06
C:/temp/Job-29.odb,Step-1,Increment      1: Step Time =    1.000,"P-29-1",           784,       185.174,       109.669,            0.,NA,NA,"",   822.322E+03,   942.352E+03,   942.352E+03
C:/temp/Job-29.odb,Step-1,Increment      1: Step Time =    1.000,"P-29-1",           785,       186.108,       90.1488,            0.,NA,NA,"",   833.227E+03,   952.857E+03,   952.857E+03
C:/temp/Job-29.odb,Step-1,Increment      1: Step Time =    1.000,"P-29-1",           786,       109.910,       184.496,            0.,NA,NA,"",   1.00819E+06,   1.04297E+06,   1.04297E+06
C:/temp/Job-29.odb,Step-1,Increment      1: Step Time =    1.000,"P-29-1",           787,       53.9360,       117.666,            0.,NA,NA,"",   514.795E+03,  -169.507E+03,  -169.507E+03
C:/temp/Job-29.odb,Step-1,Increment      1: Step Time =    1.000,"P-29-1",           788,       98.6247,       152.215,            0.,NA,NA,"",   1.98637E+06,   2.14836E+06,   2.14836E+06
C:/temp/Job-29.odb,Step-1,Increment      1: Step Time =    1.000,"P-29-1",           789,       14.9843,       99.9333,            0.,NA,NA,"",   243.123E+03,   274.024E+03,   274.024E+03
C:/temp/Job-29.odb,Step-1,Increment      1: Step Time =    1.000,"P-29-1",           790,       99.9796,       14.6182,            0.,NA,NA,"",   1.02826E+06,   1.05917E+06,   1.05917E+06
C:/temp/Job-29.odb,Step-1,Increment      1: Step Time =    1.000,"P-29-1",           791,       185.560,       99.7284,            0.,NA,NA,"",   794.199E+03,   892.723E+03,   892.723E+03
C:/temp/Job-29.odb,Step-1,Increment      1: Step Time =    1.000,"P-29-1",           792,       99.8631,       184.357,            0.,NA,NA,"",   1.04974E+06,   1.08413E+06,   1.08413E+06
C:/temp/Job-29.odb,Step-1,Increment      1: Step Time =    1.000,"P-29-1",           793,       144.345,       78.0490,            0.,NA,NA,"",   1.10918E+06,   524.543E+03,   524.543E+03
C:/temp/Job-29.odb,Step-1,Increment      1: Step Time =    1.000,"P-29-1",           794,       14.6405,       65.2011,            0.,NA,NA,"",   663.615E+03,   720.230E+03,   720.230E+03
C:/temp/Job-29.odb,Step-1,Increment      1: Step Time =    1.000,"P-29-1",           795,       63.9151,       16.2519,            0.,NA,NA,"",   1.42560E+06,   1.39387E+06,   1.39387E+06
C:/temp/Job-29.odb,Step-1,Increment      1: Step Time =    1.000,"P-29-1",           796,       64.7879,       186.100,            0.,NA,NA,"",   1.38953E+06,   1.36325E+06,   1.36325E+06
C:/temp/Job-29.odb,Step-1,Increment      1: Step Time =    1.000,"P-29-1",           797,       183.682,       64.4298,            0.,NA,NA,"",   1.03717E+06,   1.11378E+06,   1.11378E+06
C:/temp/Job-29.odb,Step-1,Increment      1: Step Time =    1.000,"P-29-1",           798,       135.071,       14.7850,            0.,NA,NA,"",   1.07449E+06,   1.06702E+06,   1.06702E+06
C:/temp/Job-29.odb,Step-1,Increment      1: Step Time =    1.000,"P-29-1",           799,       16.2400,       136.331,            0.,NA,NA,"",   702.575E+03,   755.034E+03,   755.034E+03
C:/temp/Job-29.odb,Step-1,Increment      1: Step Time =    1.000,"P-29-1",           800,       185.273,       134.740,            0.,NA,NA,"",   1.00907E+06,   1.10139E+06,   1.10139E+06
C:/temp/Job-29.odb,Step-1,Increment      1: Step Time =    1.000,"P-29-1",           801,       136.189,       184.309,            0.,NA,NA,"",   1.09432E+06,   1.08537E+06,   1.08537E+06
C:/temp/Job-29.odb,Step-1,Increment      1: Step Time =    1.000,"P-29-1",           802,       116.005,       153.115,            0.,NA,NA,"",   1.83039E+06,   1.95959E+06,   1.95959E+06
C:/temp/Job-29.odb,Step-1,Increment      1: Step Time =    1.000,"P-29-1",           803,       127.357,       147.448,            0.,NA,NA,"",   1.84842E+06,   1.86305E+06,   1.86305E+06
C:/temp/Job-29.odb,Step-1,Increment      1: Step Time =    1.000,"P-29-1",           804,       84.7720,       155.905,            0.,NA,NA,"",   1.79068E+06,   1.85277E+06,   1.85277E+06
C:/temp/Job-29.odb,Step-1,Increment      1: Step Time =    1.000,"P-29-1",           805,       92.1385,       151.848,            0.,NA,NA,"",   1.98482E+06,   2.11901E+06,   2.11901E+06
C:/temp/Job-29.odb,Step-1,Increment      1: Step Time =    1.000,"P-29-1",           806,       48.3112,       105.634,            0.,NA,NA,"",   258.632E+03,  -250.964E+03,  -250.964E+03
C:/temp/Job-29.odb,Step-1,Increment      1: Step Time =    1.000,"P-29-1",           807,       151.868,       106.744,            0.,NA,NA,"",   586.682E+03,  -226.029E+03,  -226.029E+03
C:/temp/Job-29.odb,Step-1,Increment      1: Step Time =    1.000,"P-29-1",           808,       151.937,       93.4451,            0.,NA,NA,"",   571.354E+03,  -243.624E+03,  -243.624E+03
C:/temp/Job-29.odb,Step-1,Increment      1: Step Time =    1.000,"P-29-1",           809,       103.758,       47.8793,            0.,NA,NA,"",   2.02090E+06,   2.19424E+06,   2.19424E+06
C:/temp/Job-29.odb,Step-1,Increment      1: Step Time =    1.000,"P-29-1",           810,       84.2436,       46.6672,            0.,NA,NA,"",   1.84979E+06,   1.91210E+06,   1.91210E+06
C:/temp/Job-29.odb,Step-1,Increment      1: Step Time =    1.000,"P-29-1",           811,       93.8819,       45.9762,            0.,NA,NA,"",   1.87763E+06,   2.01680E+06,   2.01680E+06
C:/temp/Job-29.odb,Step-1,Increment      1: Step Time =    1.000,"P-29-1",           812,       15.3643,       75.1252,            0.,NA,NA,"",   489.723E+03,   543.106E+03,   543.106E+03
C:/temp/Job-29.odb,Step-1,Increment      1: Step Time =    1.000,"P-29-1",           813,       75.9538,       14.2842,            0.,NA,NA,"",   1.28181E+06,   1.26824E+06,   1.26824E+06
C:/temp/Job-29.odb,Step-1,Increment      1: Step Time =    1.000,"P-29-1",           814,       125.070,       15.0811,            0.,NA,NA,"",   1.04204E+06,   1.05171E+06,   1.05171E+06
C:/temp/Job-29.odb,Step-1,Increment      1: Step Time =    1.000,"P-29-1",           815,       14.4593,       124.079,            0.,NA,NA,"",   475.232E+03,   530.189E+03,   530.189E+03
C:/temp/Job-29.odb,Step-1,Increment      1: Step Time =    1.000,"P-29-1",           816,       184.932,       124.701,            0.,NA,NA,"",   951.541E+03,   1.06842E+06,   1.06842E+06
C:/temp/Job-29.odb,Step-1,Increment      1: Step Time =    1.000,"P-29-1",           817,       185.468,       77.0282,            0.,NA,NA,"",   930.997E+03,   1.05473E+06,   1.05473E+06
C:/temp/Job-29.odb,Step-1,Increment      1: Step Time =    1.000,"P-29-1",           818,       74.6207,       185.299,            0.,NA,NA,"",   1.30352E+06,   1.28668E+06,   1.28668E+06
C:/temp/Job-29.odb,Step-1,Increment      1: Step Time =    1.000,"P-29-1",           819,       124.211,       185.757,            0.,NA,NA,"",   1.01738E+06,   1.02732E+06,   1.02732E+06
C:/temp/Job-29.odb,Step-1,Increment      1: Step Time =    1.000,"P-29-1",           820,       49.1329,       121.403,            0.,NA,NA,"",   626.111E+03,   449.064E+03,   449.064E+03
C:/temp/Job-29.odb,Step-1,Increment      1: Step Time =    1.000,"P-29-1",           821,       151.007,       122.205,            0.,NA,NA,"",   1.24010E+06,   909.032E+03,   909.032E+03
C:/temp/Job-29.odb,Step-1,Increment      1: Step Time =    1.000,"P-29-1",           822,       133.930,       141.625,            0.,NA,NA,"",   1.80765E+06,   1.71537E+06,   1.71537E+06
C:/temp/Job-29.odb,Step-1,Increment      1: Step Time =    1.000,"P-29-1",           823,       48.2915,       96.8342,            0.,NA,NA,"",   228.354E+03,  -231.986E+03,  -231.986E+03
C:/temp/Job-29.odb,Step-1,Increment      1: Step Time =    1.000,"P-29-1",           824,       153.738,       85.1456,            0.,NA,NA,"",   914.661E+03,   370.204E+03,   370.204E+03
C:/temp/Job-29.odb,Step-1,Increment      1: Step Time =    1.000,"P-29-1",           825,       85.2677,       14.6374,            0.,NA,NA,"",   1.17645E+06,   1.18047E+06,   1.18047E+06
C:/temp/Job-29.odb,Step-1,Increment      1: Step Time =    1.000,"P-29-1",           826,       14.8166,       114.717,            0.,NA,NA,"",   342.242E+03,   392.157E+03,   392.157E+03
C:/temp/Job-29.odb,Step-1,Increment      1: Step Time =    1.000,"P-29-1",           827,       15.5667,       85.1595,            0.,NA,NA,"",   340.408E+03,   389.550E+03,   389.550E+03
C:/temp/Job-29.odb,Step-1,Increment      1: Step Time =    1.000,"P-29-1",           828,       114.880,       15.1752,            0.,NA,NA,"",   1.00533E+06,   1.03376E+06,   1.03376E+06
C:/temp/Job-29.odb,Step-1,Increment      1: Step Time =    1.000,"P-29-1",           829,       186.258,       85.5955,            0.,NA,NA,"",   866.582E+03,   997.037E+03,   997.037E+03
C:/temp/Job-29.odb,Step-1,Increment      1: Step Time =    1.000,"P-29-1",           830,       114.820,       184.912,            0.,NA,NA,"",   1.00171E+06,   1.03114E+06,   1.03114E+06
C:/temp/Job-29.odb,Step-1,Increment      1: Step Time =    1.000,"P-29-1",           831,       185.046,       114.674,            0.,NA,NA,"",   860.208E+03,   988.106E+03,   988.106E+03
C:/temp/Job-29.odb,Step-1,Increment      1: Step Time =    1.000,"P-29-1",           832,       84.7087,       184.896,            0.,NA,NA,"",   1.19606E+06,   1.19977E+06,   1.19977E+06
C:/temp/Job-29.odb,Step-1,Increment      1: Step Time =    1.000,"P-29-1",           833,       108.033,       152.303,            0.,NA,NA,"",   1.95738E+06,   2.12260E+06,   2.12260E+06
C:/temp/Job-29.odb,Step-1,Increment      1: Step Time =    1.000,"P-29-1",           834,       144.181,       122.429,            0.,NA,NA,"",   1.18682E+06,   514.222E+03,   514.222E+03
C:/temp/Job-29.odb,Step-1,Increment      1: Step Time =    1.000,"P-29-1",           835,       141.295,       134.633,            0.,NA,NA,"",   1.66106E+06,   1.42556E+06,   1.42556E+06
C:/temp/Job-29.odb,Step-1,Increment      1: Step Time =    1.000,"P-29-1",           836,       14.8673,       104.906,            0.,NA,NA,"",   256.266E+03,   292.171E+03,   292.171E+03
C:/temp/Job-29.odb,Step-1,Increment      1: Step Time =    1.000,"P-29-1",           837,       95.0070,       14.5588,            0.,NA,NA,"",   1.06957E+06,   1.09323E+06,   1.09323E+06
C:/temp/Job-29.odb,Step-1,Increment      1: Step Time =    1.000,"P-29-1",           838,       185.847,       94.8663,            0.,NA,NA,"",   806.031E+03,   911.530E+03,   911.530E+03
C:/temp/Job-29.odb,Step-1,Increment      1: Step Time =    1.000,"P-29-1",           839,       104.905,       184.280,            0.,NA,NA,"",   1.02313E+06,   1.06017E+06,   1.06017E+06
C:/temp/Job-29.odb,Step-1,Increment      1: Step Time =    1.000,"P-29-1",           840,       54.1049,       121.842,            0.,NA,NA,"",   638.413E+03,   259.929E+03,   259.929E+03
C:/temp/Job-29.odb,Step-1,Increment      1: Step Time =    1.000,"P-29-1",           841,       15.2777,       95.0324,            0.,NA,NA,"",   254.866E+03,   290.393E+03,   290.393E+03
C:/temp/Job-29.odb,Step-1,Increment      1: Step Time =    1.000,"P-29-1",           842,       104.862,       14.8112,            0.,NA,NA,"",   1.00423E+06,   1.03872E+06,   1.03872E+06
C:/temp/Job-29.odb,Step-1,Increment      1: Step Time =    1.000,"P-29-1",           843,       185.375,       104.648,            0.,NA,NA,"",   797.797E+03,   903.451E+03,   903.451E+03
C:/temp/Job-29.odb,Step-1,Increment      1: Step Time =    1.000,"P-29-1",           844,       94.8762,       184.530,            0.,NA,NA,"",   1.08952E+06,   1.11622E+06,   1.11622E+06
C:/temp/Job-29.odb,Step-1,Increment      1: Step Time =    1.000,"P-29-1",           845,       139.761,       63.8667,            0.,NA,NA,"",   1.72133E+06,   1.51176E+06,   1.51176E+06
C:/temp/Job-29.odb,Step-1,Increment      1: Step Time =    1.000,"P-29-1",           846,       57.4626,       63.9518,            0.,NA,NA,"",   1.22984E+06,   1.06068E+06,   1.06068E+06
C:/temp/Job-29.odb,Step-1,Increment      1: Step Time =    1.000,"P-29-1",           847,       103.586,       156.510,            0.,NA,NA,"",   1.74239E+06,   1.89984E+06,   1.89984E+06
C:/temp/Job-29.odb,Step-1,Increment      1: Step Time =    1.000,"P-29-1",           848,       148.534,       111.721,            0.,NA,NA,"",   789.606E+03,  -571.361E+03,  -571.361E+03
C:/temp/Job-29.odb,Step-1,Increment      1: Step Time =    1.000,"P-29-1",           849,       78.2165,       57.0352,            0.,NA,NA,"",   1.84246E+06,   1.85792E+06,   1.85792E+06
C:/temp/Job-29.odb,Step-1,Increment      1: Step Time =    1.000,"P-29-1",           850,       45.2354,       88.6701,            0.,NA,NA,"",   311.004E+03,   24.4855E+03,   24.4855E+03
C:/temp/Job-29.odb,Step-1,Increment      1: Step Time =    1.000,"P-29-1",           851,       65.0960,       143.497,            0.,NA,NA,"",   1.58083E+06,   1.45588E+06,   1.45588E+06
C:/temp/Job-29.odb,Step-1,Increment      1: Step Time =    1.000,"P-29-1",           852,       75.9164,       151.131,            0.,NA,NA,"",   1.79749E+06,   1.77502E+06,   1.77502E+06
C:/temp/Job-29.odb,Step-1,Increment      1: Step Time =    1.000,"P-29-1",           853,       121.698,       50.5511,            0.,NA,NA,"",   1.87690E+06,   1.95533E+06,   1.95533E+06
C:/temp/Job-29.odb,Step-1,Increment      1: Step Time =    1.000,"P-29-1",           854,       143.289,       60.8139,            0.,NA,NA,"",   1.72390E+06,   1.51093E+06,   1.51093E+06
C:/temp/Job-29.odb,Step-1,Increment      1: Step Time =    1.000,"P-29-1",           855,       60.5859,       60.6042,            0.,NA,NA,"",   1.39203E+06,   1.23735E+06,   1.23735E+06
C:/temp/Job-29.odb,Step-1,Increment      1: Step Time =    1.000,"P-29-1",           856,       90.9590,       157.712,            0.,NA,NA,"",   1.73272E+06,   1.84033E+06,   1.84033E+06
C:/temp/Job-29.odb,Step-1,Increment      1: Step Time =    1.000,"P-29-1",           857,       89.0083,       41.7006,            0.,NA,NA,"",   1.72054E+06,   1.80985E+06,   1.80985E+06
C:/temp/Job-29.odb,Step-1,Increment      1: Step Time =    1.000,"P-29-1",           858,       122.872,       45.9944,            0.,NA,NA,"",   1.73623E+06,   1.79933E+06,   1.79933E+06
C:/temp/Job-29.odb,Step-1,Increment      1: Step Time =    1.000,"P-29-1",           859,       79.7978,       45.3599,            0.,NA,NA,"",   1.80121E+06,   1.81655E+06,   1.81655E+06
C:/temp/Job-29.odb,Step-1,Increment      1: Step Time =    1.000,"P-29-1",           860,       151.902,       110.300,            0.,NA,NA,"",   715.280E+03,  -199.006E+03,  -199.006E+03
C:/temp/Job-29.odb,Step-1,Increment      1: Step Time =    1.000,"P-29-1",           861,       21.0263,       90.3804,            0.,NA,NA,"",   270.128E+03,   310.292E+03,   310.292E+03
C:/temp/Job-29.odb,Step-1,Increment      1: Step Time =    1.000,"P-29-1",           862,       109.511,       20.0573,            0.,NA,NA,"",   1.10585E+06,   1.15931E+06,   1.15931E+06
C:/temp/Job-29.odb,Step-1,Increment      1: Step Time =    1.000,"P-29-1",           863,       180.323,       109.317,            0.,NA,NA,"",   769.540E+03,   882.624E+03,   882.624E+03
C:/temp/Job-29.odb,Step-1,Increment      1: Step Time =    1.000,"P-29-1",           864,       89.7093,       179.836,            0.,NA,NA,"",   1.24409E+06,   1.27118E+06,   1.27118E+06
C:/temp/Job-29.odb,Step-1,Increment      1: Step Time =    1.000,"P-29-1",           865,       19.8135,       100.098,            0.,NA,NA,"",   221.026E+03,   246.747E+03,   246.747E+03
C:/temp/Job-29.odb,Step-1,Increment      1: Step Time =    1.000,"P-29-1",           866,       99.8123,       19.2311,            0.,NA,NA,"",   1.12858E+06,   1.17598E+06,   1.17598E+06
C:/temp/Job-29.odb,Step-1,Increment      1: Step Time =    1.000,"P-29-1",           867,       180.869,       99.3516,            0.,NA,NA,"",   719.458E+03,   825.171E+03,   825.171E+03
C:/temp/Job-29.odb,Step-1,Increment      1: Step Time =    1.000,"P-29-1",           868,       99.6312,       178.882,            0.,NA,NA,"",   1.16929E+06,   1.22467E+06,   1.22467E+06
C:/temp/Job-29.odb,Step-1,Increment      1: Step Time =    1.000,"P-29-1",           869,       158.458,       86.6757,            0.,NA,NA,"",   825.702E+03,   650.612E+03,   650.612E+03
C:/temp/Job-29.odb,Step-1,Increment      1: Step Time =    1.000,"P-29-1",           870,       40.7020,       90.8703,            0.,NA,NA,"",   229.369E+03,   117.498E+03,   117.498E+03
C:/temp/Job-29.odb,Step-1,Increment      1: Step Time =    1.000,"P-29-1",           871,       155.152,       80.8279,            0.,NA,NA,"",   1.09179E+06,   822.798E+03,   822.798E+03
C:/temp/Job-29.odb,Step-1,Increment      1: Step Time =    1.000,"P-29-1",           872,       46.3442,       82.2471,            0.,NA,NA,"",   494.107E+03,   348.374E+03,   348.374E+03
C:/temp/Job-29.odb,Step-1,Increment      1: Step Time =    1.000,"P-29-1",           873,       111.716,       157.295,            0.,NA,NA,"",   1.68181E+06,   1.82260E+06,   1.82260E+06
C:/temp/Job-29.odb,Step-1,Increment      1: Step Time =    1.000,"P-29-1",           874,       155.795,       98.3421,            0.,NA,NA,"",   371.283E+03,   7.48324E+03,   7.48324E+03
C:/temp/Job-29.odb,Step-1,Increment      1: Step Time =    1.000,"P-29-1",           875,       141.036,       142.113,            0.,NA,NA,"",   1.75549E+06,   1.57596E+06,   1.57596E+06
C:/temp/Job-29.odb,Step-1,Increment      1: Step Time =    1.000,"P-29-1",           876,       18.8603,       59.9884,            0.,NA,NA,"",   796.875E+03,   840.121E+03,   840.121E+03
C:/temp/Job-29.odb,Step-1,Increment      1: Step Time =    1.000,"P-29-1",           877,       62.1150,       21.6949,            0.,NA,NA,"",   1.50273E+06,   1.45389E+06,   1.45389E+06
C:/temp/Job-29.odb,Step-1,Increment      1: Step Time =    1.000,"P-29-1",           878,       59.9477,       181.831,            0.,NA,NA,"",   1.47431E+06,   1.43345E+06,   1.43345E+06
C:/temp/Job-29.odb,Step-1,Increment      1: Step Time =    1.000,"P-29-1",           879,       178.531,       62.2789,            0.,NA,NA,"",   1.13068E+06,   1.15611E+06,   1.15611E+06
C:/temp/Job-29.odb,Step-1,Increment      1: Step Time =    1.000,"P-29-1",           880,       139.738,       19.4522,            0.,NA,NA,"",   1.18045E+06,   1.16085E+06,   1.16085E+06
C:/temp/Job-29.odb,Step-1,Increment      1: Step Time =    1.000,"P-29-1",           881,       21.6331,       138.340,            0.,NA,NA,"",   785.572E+03,   819.178E+03,   819.178E+03
C:/temp/Job-29.odb,Step-1,Increment      1: Step Time =    1.000,"P-29-1",           882,       180.674,       139.784,            0.,NA,NA,"",   1.10456E+06,   1.14441E+06,   1.14441E+06
C:/temp/Job-29.odb,Step-1,Increment      1: Step Time =    1.000,"P-29-1",           883,       138.162,       179.346,            0.,NA,NA,"",   1.19408E+06,   1.17717E+06,   1.17717E+06
C:/temp/Job-29.odb,Step-1,Increment      1: Step Time =    1.000,"P-29-1",           884,       67.6378,       148.979,            0.,NA,NA,"",   1.69940E+06,   1.60088E+06,   1.60088E+06
C:/temp/Job-29.odb,Step-1,Increment      1: Step Time =    1.000,"P-29-1",           885,       50.9324,       109.189,            0.,NA,NA,"",   347.093E+03,  -320.545E+03,  -320.545E+03
C:/temp/Job-29.odb,Step-1,Increment      1: Step Time =    1.000,"P-29-1",           886,       99.2690,       49.5280,            0.,NA,NA,"",   2.12296E+06,   2.29146E+06,   2.29146E+06
C:/temp/Job-29.odb,Step-1,Increment      1: Step Time =    1.000,"P-29-1",           887,       20.4519,       69.9565,            0.,NA,NA,"",   603.122E+03,   644.382E+03,   644.382E+03
C:/temp/Job-29.odb,Step-1,Increment      1: Step Time =    1.000,"P-29-1",           888,       68.5746,       18.3868,            0.,NA,NA,"",   1.42089E+06,   1.38899E+06,   1.38899E+06
C:/temp/Job-29.odb,Step-1,Increment      1: Step Time =    1.000,"P-29-1",           889,       179.725,       129.574,            0.,NA,NA,"",   1.05189E+06,   1.11008E+06,   1.11008E+06
C:/temp/Job-29.odb,Step-1,Increment      1: Step Time =    1.000,"P-29-1",           890,       131.774,       182.100,            0.,NA,NA,"",   1.12337E+06,   1.12075E+06,   1.12075E+06
C:/temp/Job-29.odb,Step-1,Increment      1: Step Time =    1.000,"P-29-1",           891,       18.4120,       131.708,            0.,NA,NA,"",   628.045E+03,   675.365E+03,   675.365E+03
C:/temp/Job-29.odb,Step-1,Increment      1: Step Time =    1.000,"P-29-1",           892,       130.255,       20.0662,            0.,NA,NA,"",   1.16986E+06,   1.17050E+06,   1.17050E+06
C:/temp/Job-29.odb,Step-1,Increment      1: Step Time =    1.000,"P-29-1",           893,       69.2818,       181.075,            0.,NA,NA,"",   1.42869E+06,   1.39562E+06,   1.39562E+06
C:/temp/Job-29.odb,Step-1,Increment      1: Step Time =    1.000,"P-29-1",           894,       181.038,       69.2609,            0.,NA,NA,"",   1.04285E+06,   1.11225E+06,   1.11225E+06
C:/temp/Job-29.odb,Step-1,Increment      1: Step Time =    1.000,"P-29-1",           895,       44.5664,       118.541,            0.,NA,NA,"",   507.878E+03,   387.661E+03,   387.661E+03
C:/temp/Job-29.odb,Step-1,Increment      1: Step Time =    1.000,"P-29-1",           896,       154.555,       119.469,            0.,NA,NA,"",   1.10851E+06,   824.372E+03,   824.372E+03
C:/temp/Job-29.odb,Step-1,Increment      1: Step Time =    1.000,"P-29-1",           897,       133.483,       148.107,            0.,NA,NA,"",   1.79259E+06,   1.72804E+06,   1.72804E+06
C:/temp/Job-29.odb,Step-1,Increment      1: Step Time =    1.000,"P-29-1",           898,       119.915,       20.2004,            0.,NA,NA,"",   1.13248E+06,   1.16470E+06,   1.16470E+06
C:/temp/Job-29.odb,Step-1,Increment      1: Step Time =    1.000,"P-29-1",           899,       180.100,       119.471,            0.,NA,NA,"",   917.306E+03,   1.01126E+06,   1.01126E+06
C:/temp/Job-29.odb,Step-1,Increment      1: Step Time =    1.000,"P-29-1",           900,       79.3396,       179.871,            0.,NA,NA,"",   1.35701E+06,   1.34808E+06,   1.34808E+06
C:/temp/Job-29.odb,Step-1,Increment      1: Step Time =    1.000,"P-29-1",           901,       145.699,       131.043,            0.,NA,NA,"",   1.54880E+06,   1.25246E+06,   1.25246E+06
C:/temp/Job-29.odb,Step-1,Increment      1: Step Time =    1.000,"P-29-1",           902,       142.872,       67.5373,            0.,NA,NA,"",   1.61106E+06,   1.34858E+06,   1.34858E+06
C:/temp/Job-29.odb,Step-1,Increment      1: Step Time =    1.000,"P-29-1",           903,       54.9939,       66.7297,            0.,NA,NA,"",   1.10813E+06,    933.55E+03,    933.55E+03
C:/temp/Job-29.odb,Step-1,Increment      1: Step Time =    1.000,"P-29-1",           904,       60.4850,       142.583,            0.,NA,NA,"",   1.48315E+06,   1.33437E+06,   1.33437E+06
C:/temp/Job-29.odb,Step-1,Increment      1: Step Time =    1.000,"P-29-1",           905,       73.9148,       60.5857,            0.,NA,NA,"",   1.60806E+06,   1.58054E+06,   1.58054E+06
C:/temp/Job-29.odb,Step-1,Increment      1: Step Time =    1.000,"P-29-1",           906,       70.7591,       150.139,            0.,NA,NA,"",   1.73677E+06,   1.66188E+06,   1.66188E+06
C:/temp/Job-29.odb,Step-1,Increment      1: Step Time =    1.000,"P-29-1",           907,       144.473,       138.784,            0.,NA,NA,"",   1.71136E+06,   1.48424E+06,   1.48424E+06
C:/temp/Job-29.odb,Step-1,Increment      1: Step Time =    1.000,"P-29-1",           908,       133.853,       134.423,            0.,NA,NA,"",   1.64755E+06,   1.53819E+06,   1.53819E+06
C:/temp/Job-29.odb,Step-1,Increment      1: Step Time =    1.000,"P-29-1",           909,       102.886,       160.862,            0.,NA,NA,"",   1.56942E+06,   1.70671E+06,   1.70671E+06
C:/temp/Job-29.odb,Step-1,Increment      1: Step Time =    1.000,"P-29-1",           910,       144.889,       145.122,            0.,NA,NA,"",   1.72194E+06,   1.54337E+06,   1.54337E+06
C:/temp/Job-29.odb,Step-1,Increment      1: Step Time =    1.000,"P-29-1",           911,       24.4439,       109.397,            0.,NA,NA,"",   260.794E+03,   298.632E+03,   298.632E+03
C:/temp/Job-29.odb,Step-1,Increment      1: Step Time =    1.000,"P-29-1",           912,       90.6003,       24.2034,            0.,NA,NA,"",   1.31187E+06,   1.35290E+06,   1.35290E+06
C:/temp/Job-29.odb,Step-1,Increment      1: Step Time =    1.000,"P-29-1",           913,       178.226,       89.6017,            0.,NA,NA,"",   767.220E+03,   872.890E+03,   872.890E+03
C:/temp/Job-29.odb,Step-1,Increment      1: Step Time =    1.000,"P-29-1",           914,       110.753,       172.960,            0.,NA,NA,"",   1.24709E+06,   1.32631E+06,   1.32631E+06
C:/temp/Job-29.odb,Step-1,Increment      1: Step Time =    1.000,"P-29-1",           915,       20.9238,       80.1548,            0.,NA,NA,"",   414.536E+03,   458.101E+03,   458.101E+03
C:/temp/Job-29.odb,Step-1,Increment      1: Step Time =    1.000,"P-29-1",           916,       120.028,       24.9842,            0.,NA,NA,"",   1.23522E+06,   1.27844E+06,   1.27844E+06
C:/temp/Job-29.odb,Step-1,Increment      1: Step Time =    1.000,"P-29-1",           917,       79.7357,       24.1038,            0.,NA,NA,"",   1.43240E+06,   1.42721E+06,   1.42721E+06
C:/temp/Job-29.odb,Step-1,Increment      1: Step Time =    1.000,"P-29-1",           918,       25.3422,       120.116,            0.,NA,NA,"",   431.985E+03,   463.765E+03,   463.765E+03
C:/temp/Job-29.odb,Step-1,Increment      1: Step Time =    1.000,"P-29-1",           919,       175.943,       119.085,            0.,NA,NA,"",   927.066E+03,   987.624E+03,   987.624E+03
C:/temp/Job-29.odb,Step-1,Increment      1: Step Time =    1.000,"P-29-1",           920,       79.2622,       174.205,            0.,NA,NA,"",   1.46580E+06,   1.45893E+06,   1.45893E+06
C:/temp/Job-29.odb,Step-1,Increment      1: Step Time =    1.000,"P-29-1",           921,       120.602,       176.498,            0.,NA,NA,"",   1.19951E+06,   1.23791E+06,   1.23791E+06
C:/temp/Job-29.odb,Step-1,Increment      1: Step Time =    1.000,"P-29-1",           922,       176.363,       98.9485,            0.,NA,NA,"",   648.088E+03,   747.151E+03,   747.151E+03
C:/temp/Job-29.odb,Step-1,Increment      1: Step Time =    1.000,"P-29-1",           923,       99.0635,       173.670,            0.,NA,NA,"",   1.27832E+06,   1.35374E+06,   1.35374E+06
C:/temp/Job-29.odb,Step-1,Increment      1: Step Time =    1.000,"P-29-1",           924,       23.7904,       100.497,            0.,NA,NA,"",   200.206E+03,   221.924E+03,   221.924E+03
C:/temp/Job-29.odb,Step-1,Increment      1: Step Time =    1.000,"P-29-1",           925,       99.4259,       23.4306,            0.,NA,NA,"",   1.21341E+06,   1.27649E+06,   1.27649E+06
C:/temp/Job-29.odb,Step-1,Increment      1: Step Time =    1.000,"P-29-1",           926,       139.718,       23.3823,            0.,NA,NA,"",   1.24940E+06,   1.22395E+06,   1.22395E+06
C:/temp/Job-29.odb,Step-1,Increment      1: Step Time =    1.000,"P-29-1",           927,       25.7982,       141.158,            0.,NA,NA,"",   884.410E+03,   897.169E+03,   897.169E+03
C:/temp/Job-29.odb,Step-1,Increment      1: Step Time =    1.000,"P-29-1",           928,       23.4012,       59.4059,            0.,NA,NA,"",   851.397E+03,   875.194E+03,   875.194E+03
C:/temp/Job-29.odb,Step-1,Increment      1: Step Time =    1.000,"P-29-1",           929,       59.5388,       25.7886,            0.,NA,NA,"",   1.54755E+06,   1.48519E+06,   1.48519E+06
C:/temp/Job-29.odb,Step-1,Increment      1: Step Time =    1.000,"P-29-1",           930,       175.680,       139.913,            0.,NA,NA,"",   1.18893E+06,   1.18309E+06,   1.18309E+06
C:/temp/Job-29.odb,Step-1,Increment      1: Step Time =    1.000,"P-29-1",           931,       140.948,       175.773,            0.,NA,NA,"",   1.26330E+06,   1.23503E+06,   1.23503E+06
C:/temp/Job-29.odb,Step-1,Increment      1: Step Time =    1.000,"P-29-1",           932,       60.4235,       177.860,            0.,NA,NA,"",   1.51071E+06,   1.45880E+06,   1.45880E+06
C:/temp/Job-29.odb,Step-1,Increment      1: Step Time =    1.000,"P-29-1",           933,       175.127,       59.2737,            0.,NA,NA,"",   1.19909E+06,   1.18857E+06,   1.18857E+06
C:/temp/Job-29.odb,Step-1,Increment      1: Step Time =    1.000,"P-29-1",           934,       155.651,       112.574,            0.,NA,NA,"",   780.238E+03,   352.994E+03,   352.994E+03
C:/temp/Job-29.odb,Step-1,Increment      1: Step Time =    1.000,"P-29-1",           935,       23.3227,       129.705,            0.,NA,NA,"",   620.130E+03,   650.985E+03,   650.985E+03
C:/temp/Job-29.odb,Step-1,Increment      1: Step Time =    1.000,"P-29-1",           936,       175.740,       71.7713,            0.,NA,NA,"",   1.09055E+06,   1.10970E+06,   1.10970E+06
C:/temp/Job-29.odb,Step-1,Increment      1: Step Time =    1.000,"P-29-1",           937,       70.8307,       23.1664,            0.,NA,NA,"",   1.48349E+06,   1.44672E+06,   1.44672E+06
C:/temp/Job-29.odb,Step-1,Increment      1: Step Time =    1.000,"P-29-1",           938,       129.866,       177.331,            0.,NA,NA,"",   1.21762E+06,   1.22108E+06,   1.22108E+06
C:/temp/Job-29.odb,Step-1,Increment      1: Step Time =    1.000,"P-29-1",           939,       140.576,       57.2190,            0.,NA,NA,"",   1.75774E+06,   1.58903E+06,   1.58903E+06
C:/temp/Job-29.odb,Step-1,Increment      1: Step Time =    1.000,"P-29-1",           940,       63.9621,       57.0905,            0.,NA,NA,"",   1.54700E+06,   1.41387E+06,   1.41387E+06
C:/temp/Job-29.odb,Step-1,Increment      1: Step Time =    1.000,"P-29-1",           941,       126.935,       46.5946,            0.,NA,NA,"",   1.73657E+06,   1.76065E+06,   1.76065E+06
C:/temp/Job-29.odb,Step-1,Increment      1: Step Time =    1.000,"P-29-1",           942,       117.534,       49.8436,            0.,NA,NA,"",   1.90884E+06,   2.02749E+06,   2.02749E+06
C:/temp/Job-29.odb,Step-1,Increment      1: Step Time =    1.000,"P-29-1",           943,       77.8982,       49.7921,            0.,NA,NA,"",   1.82604E+06,   1.82566E+06,   1.82566E+06
C:/temp/Job-29.odb,Step-1,Increment      1: Step Time =    1.000,"P-29-1",           944,       149.887,       79.3047,            0.,NA,NA,"",   1.16479E+06,   808.674E+03,   808.674E+03
C:/temp/Job-29.odb,Step-1,Increment      1: Step Time =    1.000,"P-29-1",           945,       48.9328,       80.0031,            0.,NA,NA,"",   569.365E+03,   391.035E+03,   391.035E+03
C:/temp/Job-29.odb,Step-1,Increment      1: Step Time =    1.000,"P-29-1",           946,       13.5709,       55.6705,            0.,NA,NA,"",   833.192E+03,   896.497E+03,   896.497E+03
C:/temp/Job-29.odb,Step-1,Increment      1: Step Time =    1.000,"P-29-1",           947,       54.6524,       15.8090,            0.,NA,NA,"",   1.47744E+06,   1.44542E+06,   1.44542E+06
C:/temp/Job-29.odb,Step-1,Increment      1: Step Time =    1.000,"P-29-1",           948,       185.844,       144.639,            0.,NA,NA,"",   1.03014E+06,   1.09824E+06,   1.09824E+06
C:/temp/Job-29.odb,Step-1,Increment      1: Step Time =    1.000,"P-29-1",           949,       145.089,       184.587,            0.,NA,NA,"",   1.10464E+06,   1.08734E+06,   1.08734E+06
C:/temp/Job-29.odb,Step-1,Increment      1: Step Time =    1.000,"P-29-1",           950,       55.1045,       186.202,            0.,NA,NA,"",   1.45884E+06,   1.43237E+06,   1.43237E+06
C:/temp/Job-29.odb,Step-1,Increment      1: Step Time =    1.000,"P-29-1",           951,       184.554,       55.0751,            0.,NA,NA,"",   1.04866E+06,   1.10766E+06,   1.10766E+06
C:/temp/Job-29.odb,Step-1,Increment      1: Step Time =    1.000,"P-29-1",           952,       145.339,       14.5851,            0.,NA,NA,"",   1.09215E+06,   1.07618E+06,   1.07618E+06
C:/temp/Job-29.odb,Step-1,Increment      1: Step Time =    1.000,"P-29-1",           953,       15.7458,       145.562,            0.,NA,NA,"",   875.856E+03,   932.655E+03,   932.655E+03
C:/temp/Job-29.odb,Step-1,Increment      1: Step Time =    1.000,"P-29-1",           954,       46.5359,       110.931,            0.,NA,NA,"",   308.385E+03,  -22.3527E+03,  -22.3527E+03
C:/temp/Job-29.odb,Step-1,Increment      1: Step Time =    1.000,"P-29-1",           955,       48.5935,       124.639,            0.,NA,NA,"",   727.412E+03,   565.044E+03,   565.044E+03
C:/temp/Job-29.odb,Step-1,Increment      1: Step Time =    1.000,"P-29-1",           956,       153.921,       125.189,            0.,NA,NA,"",   1.34182E+06,   1.05961E+06,   1.05961E+06
C:/temp/Job-29.odb,Step-1,Increment      1: Step Time =    1.000,"P-29-1",           957,       149.999,       67.2359,            0.,NA,NA,"",   1.56891E+06,   1.30098E+06,   1.30098E+06
C:/temp/Job-29.odb,Step-1,Increment      1: Step Time =    1.000,"P-29-1",           958,       69.9680,       63.9885,            0.,NA,NA,"",   1.34132E+06,   1.27138E+06,   1.27138E+06
C:/temp/Job-29.odb,Step-1,Increment      1: Step Time =    1.000,"P-29-1",           959,       107.246,       161.664,            0.,NA,NA,"",   1.53407E+06,   1.66871E+06,   1.66871E+06
C:/temp/Job-29.odb,Step-1,Increment      1: Step Time =    1.000,"P-29-1",           960,       56.9339,       138.842,            0.,NA,NA,"",   1.30793E+06,   1.14667E+06,   1.14667E+06
C:/temp/Job-29.odb,Step-1,Increment      1: Step Time =    1.000,"P-29-1",           961,       162.816,       88.5085,            0.,NA,NA,"",   733.273E+03,   665.803E+03,   665.803E+03
C:/temp/Job-29.odb,Step-1,Increment      1: Step Time =    1.000,"P-29-1",           962,       111.497,       162.162,            0.,NA,NA,"",   1.51538E+06,   1.63916E+06,   1.63916E+06
C:/temp/Job-29.odb,Step-1,Increment      1: Step Time =    1.000,"P-29-1",           963,       88.8954,       37.0186,            0.,NA,NA,"",   1.60215E+06,   1.67531E+06,   1.67531E+06
C:/temp/Job-29.odb,Step-1,Increment      1: Step Time =    1.000,"P-29-1",           964,       98.3510,       44.9304,            0.,NA,NA,"",   1.84076E+06,   1.99634E+06,   1.99634E+06
C:/temp/Job-29.odb,Step-1,Increment      1: Step Time =    1.000,"P-29-1",           965,       150.183,       131.080,            0.,NA,NA,"",   1.53129E+06,   1.24559E+06,   1.24559E+06
C:/temp/Job-29.odb,Step-1,Increment      1: Step Time =    1.000,"P-29-1",           966,       89.3197,       163.604,            0.,NA,NA,"",   1.58094E+06,   1.65500E+06,   1.65500E+06
C:/temp/Job-29.odb,Step-1,Increment      1: Step Time =    1.000,"P-29-1",           967,       118.721,       45.0580,            0.,NA,NA,"",   1.73044E+06,   1.82840E+06,   1.82840E+06
C:/temp/Job-29.odb,Step-1,Increment      1: Step Time =    1.000,"P-29-1",           968,       55.7406,       141.971,            0.,NA,NA,"",   1.37741E+06,   1.22408E+06,   1.22408E+06
C:/temp/Job-29.odb,Step-1,Increment      1: Step Time =    1.000,"P-29-1",           969,       113.476,       49.2971,            0.,NA,NA,"",   1.97255E+06,   2.11926E+06,   2.11926E+06
C:/temp/Job-29.odb,Step-1,Increment      1: Step Time =    1.000,"P-29-1",           970,       147.286,       142.436,            0.,NA,NA,"",   1.70128E+06,   1.49698E+06,   1.49698E+06
C:/temp/Job-29.odb,Step-1,Increment      1: Step Time =    1.000,"P-29-1",           971,       9.04627,       55.6205,            0.,NA,NA,"",   801.276E+03,   878.451E+03,   878.451E+03
C:/temp/Job-29.odb,Step-1,Increment      1: Step Time =    1.000,"P-29-1",           972,       55.0695,       190.853,            0.,NA,NA,"",   1.42896E+06,   1.41491E+06,   1.41491E+06
C:/temp/Job-29.odb,Step-1,Increment      1: Step Time =    1.000,"P-29-1",           973,       144.618,       9.23755,            0.,NA,NA,"",   1.00331E+06,   995.787E+03,   995.787E+03
C:/temp/Job-29.odb,Step-1,Increment      1: Step Time =    1.000,"P-29-1",           974,       190.606,       144.721,            0.,NA,NA,"",   960.915E+03,   1.05583E+06,   1.05583E+06
C:/temp/Job-29.odb,Step-1,Increment      1: Step Time =    1.000,"P-29-1",           975,       25.1291,       104.719,            0.,NA,NA,"",   211.485E+03,   240.466E+03,   240.466E+03
C:/temp/Job-29.odb,Step-1,Increment      1: Step Time =    1.000,"P-29-1",           976,       95.1618,       23.5229,            0.,NA,NA,"",   1.24865E+06,   1.30237E+06,   1.30237E+06
C:/temp/Job-29.odb,Step-1,Increment      1: Step Time =    1.000,"P-29-1",           977,       176.300,       93.4138,            0.,NA,NA,"",   694.941E+03,   793.196E+03,   793.196E+03
C:/temp/Job-29.odb,Step-1,Increment      1: Step Time =    1.000,"P-29-1",           978,       104.704,       172.104,            0.,NA,NA,"",   1.27680E+06,   1.36480E+06,   1.36480E+06
C:/temp/Job-29.odb,Step-1,Increment      1: Step Time =    1.000,"P-29-1",           979,       26.5421,       85.2621,            0.,NA,NA,"",   333.702E+03,   365.279E+03,   365.279E+03
C:/temp/Job-29.odb,Step-1,Increment      1: Step Time =    1.000,"P-29-1",           980,       114.529,       25.9948,            0.,NA,NA,"",   1.23327E+06,   1.30060E+06,   1.30060E+06
C:/temp/Job-29.odb,Step-1,Increment      1: Step Time =    1.000,"P-29-1",           981,       85.1057,       26.2737,            0.,NA,NA,"",   1.41595E+06,   1.43891E+06,   1.43891E+06
C:/temp/Job-29.odb,Step-1,Increment      1: Step Time =    1.000,"P-29-1",           982,       26.2408,       114.632,            0.,NA,NA,"",   330.804E+03,   364.093E+03,   364.093E+03
C:/temp/Job-29.odb,Step-1,Increment      1: Step Time =    1.000,"P-29-1",           983,       174.183,       114.212,            0.,NA,NA,"",   826.692E+03,   891.505E+03,   891.505E+03
C:/temp/Job-29.odb,Step-1,Increment      1: Step Time =    1.000,"P-29-1",           984,       84.5930,       175.809,            0.,NA,NA,"",   1.38108E+06,   1.39744E+06,   1.39744E+06
C:/temp/Job-29.odb,Step-1,Increment      1: Step Time =    1.000,"P-29-1",           985,       176.437,       85.0999,            0.,NA,NA,"",   841.484E+03,   924.438E+03,   924.438E+03
C:/temp/Job-29.odb,Step-1,Increment      1: Step Time =    1.000,"P-29-1",           986,       116.912,       173.348,            0.,NA,NA,"",   1.24904E+06,   1.30943E+06,   1.30943E+06
C:/temp/Job-29.odb,Step-1,Increment      1: Step Time =    1.000,"P-29-1",           987,       151.736,       74.4158,            0.,NA,NA,"",   1.34284E+06,   1.04103E+06,   1.04103E+06
C:/temp/Job-29.odb,Step-1,Increment      1: Step Time =    1.000,"P-29-1",           988,       135.901,       26.0218,            0.,NA,NA,"",   1.29788E+06,   1.27902E+06,   1.27902E+06
C:/temp/Job-29.odb,Step-1,Increment      1: Step Time =    1.000,"P-29-1",           989,       27.0611,       135.898,            0.,NA,NA,"",   785.117E+03,   793.513E+03,   793.513E+03
C:/temp/Job-29.odb,Step-1,Increment      1: Step Time =    1.000,"P-29-1",           990,       28.4410,       62.7744,            0.,NA,NA,"",   830.365E+03,   829.870E+03,   829.870E+03
C:/temp/Job-29.odb,Step-1,Increment      1: Step Time =    1.000,"P-29-1",           991,       64.9980,       27.0857,            0.,NA,NA,"",   1.56072E+06,   1.50096E+06,   1.50096E+06
C:/temp/Job-29.odb,Step-1,Increment      1: Step Time =    1.000,"P-29-1",           992,       171.589,       135.388,            0.,NA,NA,"",   1.23705E+06,   1.19244E+06,   1.19244E+06
C:/temp/Job-29.odb,Step-1,Increment      1: Step Time =    1.000,"P-29-1",           993,       135.958,       174.309,            0.,NA,NA,"",   1.29925E+06,   1.28162E+06,   1.28162E+06
C:/temp/Job-29.odb,Step-1,Increment      1: Step Time =    1.000,"P-29-1",           994,       62.6322,       174.905,            0.,NA,NA,"",   1.53803E+06,   1.47919E+06,   1.47919E+06
C:/temp/Job-29.odb,Step-1,Increment      1: Step Time =    1.000,"P-29-1",           995,       172.940,       64.7662,            0.,NA,NA,"",   1.21487E+06,   1.18297E+06,   1.18297E+06
C:/temp/Job-29.odb,Step-1,Increment      1: Step Time =    1.000,"P-29-1",           996,       143.875,       54.8773,            0.,NA,NA,"",   1.72568E+06,   1.55262E+06,   1.55262E+06
C:/temp/Job-29.odb,Step-1,Increment      1: Step Time =    1.000,"P-29-1",           997,       60.6143,       53.6830,            0.,NA,NA,"",   1.55791E+06,   1.41963E+06,   1.41963E+06
C:/temp/Job-29.odb,Step-1,Increment      1: Step Time =    1.000,"P-29-1",           998,       75.9678,       43.6466,            0.,NA,NA,"",   1.75700E+06,   1.73162E+06,   1.73162E+06
C:/temp/Job-29.odb,Step-1,Increment      1: Step Time =    1.000,"P-29-1",           999,       52.5851,       81.0486,            0.,NA,NA,"",   549.929E+03,   184.581E+03,   184.581E+03
C:/temp/Job-29.odb,Step-1,Increment      1: Step Time =    1.000,"P-29-1",          1000,       48.0191,       76.5524,            0.,NA,NA,"",   674.904E+03,   516.105E+03,   516.105E+03
C:/temp/Job-29.odb,Step-1,Increment      1: Step Time =    1.000,"P-29-1",          1001,       157.143,       123.146,            0.,NA,NA,"",   1.23884E+06,   997.448E+03,   997.448E+03
C:/temp/Job-29.odb,Step-1,Increment      1: Step Time =    1.000,"P-29-1",          1002,       102.515,       165.193,            0.,NA,NA,"",   1.45296E+06,   1.57178E+06,   1.57178E+06
C:/temp/Job-29.odb,Step-1,Increment      1: Step Time =    1.000,"P-29-1",          1003,       85.1052,       36.9150,            0.,NA,NA,"",   1.63069E+06,   1.67730E+06,   1.67730E+06
C:/temp/Job-29.odb,Step-1,Increment      1: Step Time =    1.000,"P-29-1",          1004,       151.678,       128.108,            0.,NA,NA,"",   1.44847E+06,   1.15699E+06,   1.15699E+06
C:/temp/Job-29.odb,Step-1,Increment      1: Step Time =    1.000,"P-29-1",          1005,       93.2919,       162.065,            0.,NA,NA,"",   1.59567E+06,   1.70051E+06,   1.70051E+06
C:/temp/Job-29.odb,Step-1,Increment      1: Step Time =    1.000,"P-29-1",          1006,       111.233,       167.413,            0.,NA,NA,"",   1.37276E+06,   1.47488E+06,   1.47488E+06
C:/temp/Job-29.odb,Step-1,Increment      1: Step Time =    1.000,"P-29-1",          1007,       67.1248,       60.5653,            0.,NA,NA,"",   1.48319E+06,   1.37052E+06,   1.37052E+06
C:/temp/Job-29.odb,Step-1,Increment      1: Step Time =    1.000,"P-29-1",          1008,       152.923,       62.8191,            0.,NA,NA,"",   1.58730E+06,   1.36306E+06,   1.36306E+06
C:/temp/Job-29.odb,Step-1,Increment      1: Step Time =    1.000,"P-29-1",          1009,       75.2206,       23.7639,            0.,NA,NA,"",   1.46189E+06,   1.43809E+06,   1.43809E+06
C:/temp/Job-29.odb,Step-1,Increment      1: Step Time =    1.000,"P-29-1",          1010,       124.951,       175.415,            0.,NA,NA,"",   1.24144E+06,   1.26471E+06,   1.26471E+06
C:/temp/Job-29.odb,Step-1,Increment      1: Step Time =    1.000,"P-29-1",          1011,       24.3995,       125.073,            0.,NA,NA,"",   528.404E+03,   558.866E+03,   558.866E+03
C:/temp/Job-29.odb,Step-1,Increment      1: Step Time =    1.000,"P-29-1",          1012,       174.008,       77.0542,            0.,NA,NA,"",   1.02275E+06,   1.03939E+06,   1.03939E+06
C:/temp/Job-29.odb,Step-1,Increment      1: Step Time =    1.000,"P-29-1",          1013,       66.7683,       152.665,            0.,NA,NA,"",   1.69463E+06,   1.59628E+06,   1.59628E+06
C:/temp/Job-29.odb,Step-1,Increment      1: Step Time =    1.000,"P-29-1",          1014,       182.346,       81.8272,            0.,NA,NA,"",   892.739E+03,   1.01056E+06,   1.01056E+06
C:/temp/Job-29.odb,Step-1,Increment      1: Step Time =    1.000,"P-29-1",          1015,       119.929,       180.538,            0.,NA,NA,"",   1.11754E+06,   1.14872E+06,   1.14872E+06
C:/temp/Job-29.odb,Step-1,Increment      1: Step Time =    1.000,"P-29-1",          1016,       19.9429,       119.583,            0.,NA,NA,"",   408.606E+03,   455.008E+03,   455.008E+03
C:/temp/Job-29.odb,Step-1,Increment      1: Step Time =    1.000,"P-29-1",          1017,       80.3995,       19.4717,            0.,NA,NA,"",   1.33580E+06,   1.33110E+06,   1.33110E+06
C:/temp/Job-29.odb,Step-1,Increment      1: Step Time =    1.000,"P-29-1",          1018,       103.615,       24.8329,            0.,NA,NA,"",   1.21713E+06,   1.29205E+06,   1.29205E+06
C:/temp/Job-29.odb,Step-1,Increment      1: Step Time =    1.000,"P-29-1",          1019,       26.6486,       96.6391,            0.,NA,NA,"",   193.929E+03,   218.832E+03,   218.832E+03
C:/temp/Job-29.odb,Step-1,Increment      1: Step Time =    1.000,"P-29-1",          1020,       175.977,       103.780,            0.,NA,NA,"",   654.282E+03,   753.030E+03,   753.030E+03
C:/temp/Job-29.odb,Step-1,Increment      1: Step Time =    1.000,"P-29-1",          1021,       93.9331,       173.434,            0.,NA,NA,"",   1.32620E+06,   1.38797E+06,   1.38797E+06
C:/temp/Job-29.odb,Step-1,Increment      1: Step Time =    1.000,"P-29-1",          1022,       132.857,       152.779,            0.,NA,NA,"",   1.73208E+06,   1.68852E+06,   1.68852E+06
C:/temp/Job-29.odb,Step-1,Increment      1: Step Time =    1.000,"P-29-1",          1023,       164.765,       84.4329,            0.,NA,NA,"",   887.883E+03,   818.442E+03,   818.442E+03
C:/temp/Job-29.odb,Step-1,Increment      1: Step Time =    1.000,"P-29-1",          1024,       132.909,       63.4141,            0.,NA,NA,"",   1.74824E+06,   1.65838E+06,   1.65838E+06
C:/temp/Job-29.odb,Step-1,Increment      1: Step Time =    1.000,"P-29-1",          1025,       115.749,       162.195,            0.,NA,NA,"",   1.51683E+06,   1.62218E+06,   1.62218E+06
C:/temp/Job-29.odb,Step-1,Increment      1: Step Time =    1.000,"P-29-1",          1026,       160.614,       100.517,            0.,NA,NA,"",   379.720E+03,   361.896E+03,   361.896E+03
C:/temp/Job-29.odb,Step-1,Increment      1: Step Time =    1.000,"P-29-1",          1027,       85.3556,       165.369,            0.,NA,NA,"",   1.57325E+06,   1.61682E+06,   1.61682E+06
C:/temp/Job-29.odb,Step-1,Increment      1: Step Time =    1.000,"P-29-1",          1028,       108.380,       45.9327,            0.,NA,NA,"",   1.87005E+06,   2.03252E+06,   2.03252E+06
C:/temp/Job-29.odb,Step-1,Increment      1: Step Time =    1.000,"P-29-1",          1029,       154.329,       69.5687,            0.,NA,NA,"",   1.46386E+06,   1.20944E+06,   1.20944E+06
C:/temp/Job-29.odb,Step-1,Increment      1: Step Time =    1.000,"P-29-1",          1030,       164.820,       94.3222,            0.,NA,NA,"",   530.720E+03,   546.499E+03,   546.499E+03
C:/temp/Job-29.odb,Step-1,Increment      1: Step Time =    1.000,"P-29-1",          1031,       92.9052,       36.6730,            0.,NA,NA,"",   1.55839E+06,   1.65605E+06,   1.65605E+06
C:/temp/Job-29.odb,Step-1,Increment      1: Step Time =    1.000,"P-29-1",          1032,       44.8119,       121.406,            0.,NA,NA,"",   595.658E+03,   470.917E+03,   470.917E+03
C:/temp/Job-29.odb,Step-1,Increment      1: Step Time =    1.000,"P-29-1",          1033,       67.4543,       53.5653,            0.,NA,NA,"",   1.66756E+06,   1.56411E+06,   1.56411E+06
C:/temp/Job-29.odb,Step-1,Increment      1: Step Time =    1.000,"P-29-1",          1034,       98.5470,       169.825,            0.,NA,NA,"",   1.35282E+06,   1.44387E+06,   1.44387E+06
C:/temp/Job-29.odb,Step-1,Increment      1: Step Time =    1.000,"P-29-1",          1035,       150.587,       140.495,            0.,NA,NA,"",   1.65051E+06,   1.43668E+06,   1.43668E+06
C:/temp/Job-29.odb,Step-1,Increment      1: Step Time =    1.000,"P-29-1",          1036,       111.405,       39.9859,            0.,NA,NA,"",   1.58465E+06,   1.71502E+06,   1.71502E+06
C:/temp/Job-29.odb,Step-1,Increment      1: Step Time =    1.000,"P-29-1",          1037,       40.5200,       119.014,            0.,NA,NA,"",   487.895E+03,   418.012E+03,   418.012E+03
C:/temp/Job-29.odb,Step-1,Increment      1: Step Time =    1.000,"P-29-1",          1038,       161.038,       121.517,            0.,NA,NA,"",   1.13515E+06,   962.185E+03,   962.185E+03
C:/temp/Job-29.odb,Step-1,Increment      1: Step Time =    1.000,"P-29-1",          1039,       130.238,       25.0591,            0.,NA,NA,"",   1.27361E+06,   1.27616E+06,   1.27616E+06
C:/temp/Job-29.odb,Step-1,Increment      1: Step Time =    1.000,"P-29-1",          1040,       68.3720,       176.540,            0.,NA,NA,"",   1.50325E+06,   1.45835E+06,   1.45835E+06
C:/temp/Job-29.odb,Step-1,Increment      1: Step Time =    1.000,"P-29-1",          1041,       174.317,       129.722,            0.,NA,NA,"",   1.13155E+06,   1.12947E+06,   1.12947E+06
C:/temp/Job-29.odb,Step-1,Increment      1: Step Time =    1.000,"P-29-1",          1042,       62.6821,       151.875,            0.,NA,NA,"",   1.64760E+06,   1.52952E+06,   1.52952E+06
C:/temp/Job-29.odb,Step-1,Increment      1: Step Time =    1.000,"P-29-1",          1043,       65.6280,       155.711,            0.,NA,NA,"",   1.68631E+06,   1.58907E+06,   1.58907E+06
C:/temp/Job-29.odb,Step-1,Increment      1: Step Time =    1.000,"P-29-1",          1044,       59.2956,       146.878,            0.,NA,NA,"",   1.55112E+06,   1.41134E+06,   1.41134E+06
C:/temp/Job-29.odb,Step-1,Increment      1: Step Time =    1.000,"P-29-1",          1045,       156.085,       94.3212,            0.,NA,NA,"",   482.809E+03,   190.389E+03,   190.389E+03
C:/temp/Job-29.odb,Step-1,Increment      1: Step Time =    1.000,"P-29-1",          1046,       28.9485,       111.360,            0.,NA,NA,"",   273.597E+03,   301.240E+03,   301.240E+03
C:/temp/Job-29.odb,Step-1,Increment      1: Step Time =    1.000,"P-29-1",          1047,       91.7998,       28.0880,            0.,NA,NA,"",   1.38314E+06,   1.44266E+06,   1.44266E+06
C:/temp/Job-29.odb,Step-1,Increment      1: Step Time =    1.000,"P-29-1",          1048,       172.801,       89.3545,            0.,NA,NA,"",   737.646E+03,    805.66E+03,    805.66E+03
C:/temp/Job-29.odb,Step-1,Increment      1: Step Time =    1.000,"P-29-1",          1049,       26.3588,       80.1163,            0.,NA,NA,"",   429.505E+03,   457.666E+03,   457.666E+03
C:/temp/Job-29.odb,Step-1,Increment      1: Step Time =    1.000,"P-29-1",          1050,       120.550,       28.8767,            0.,NA,NA,"",   1.31289E+06,   1.36329E+06,   1.36329E+06
C:/temp/Job-29.odb,Step-1,Increment      1: Step Time =    1.000,"P-29-1",          1051,       78.7151,       27.4181,            0.,NA,NA,"",   1.49675E+06,   1.49029E+06,   1.49029E+06
C:/temp/Job-29.odb,Step-1,Increment      1: Step Time =    1.000,"P-29-1",          1052,       30.6794,       121.479,            0.,NA,NA,"",   483.284E+03,   487.939E+03,   487.939E+03
C:/temp/Job-29.odb,Step-1,Increment      1: Step Time =    1.000,"P-29-1",          1053,       169.733,       117.635,            0.,NA,NA,"",   922.437E+03,   913.285E+03,   913.285E+03
C:/temp/Job-29.odb,Step-1,Increment      1: Step Time =    1.000,"P-29-1",          1054,       171.692,       82.2309,            0.,NA,NA,"",   921.593E+03,   936.600E+03,   936.600E+03
C:/temp/Job-29.odb,Step-1,Increment      1: Step Time =    1.000,"P-29-1",          1055,       122.368,       170.682,            0.,NA,NA,"",   1.33217E+06,   1.37678E+06,   1.37678E+06
C:/temp/Job-29.odb,Step-1,Increment      1: Step Time =    1.000,"P-29-1",          1056,       32.3694,       141.601,            0.,NA,NA,"",   983.625E+03,   956.333E+03,   956.333E+03
C:/temp/Job-29.odb,Step-1,Increment      1: Step Time =    1.000,"P-29-1",          1057,       141.180,       29.0390,            0.,NA,NA,"",   1.35678E+06,   1.31831E+06,   1.31831E+06
C:/temp/Job-29.odb,Step-1,Increment      1: Step Time =    1.000,"P-29-1",          1058,       27.6065,       59.1207,            0.,NA,NA,"",   903.883E+03,   905.903E+03,   905.903E+03
C:/temp/Job-29.odb,Step-1,Increment      1: Step Time =    1.000,"P-29-1",          1059,       59.5479,       32.0970,            0.,NA,NA,"",   1.59664E+06,   1.51502E+06,   1.51502E+06
C:/temp/Job-29.odb,Step-1,Increment      1: Step Time =    1.000,"P-29-1",          1060,       169.979,       139.779,            0.,NA,NA,"",   1.29073E+06,   1.22616E+06,   1.22616E+06
C:/temp/Job-29.odb,Step-1,Increment      1: Step Time =    1.000,"P-29-1",          1061,       141.929,       170.112,            0.,NA,NA,"",   1.38069E+06,   1.33650E+06,   1.33650E+06
C:/temp/Job-29.odb,Step-1,Increment      1: Step Time =    1.000,"P-29-1",          1062,       169.617,       57.6937,            0.,NA,NA,"",   1.30961E+06,   1.24264E+06,   1.24264E+06
C:/temp/Job-29.odb,Step-1,Increment      1: Step Time =    1.000,"P-29-1",          1063,       59.7379,       172.341,            0.,NA,NA,"",   1.56288E+06,   1.49536E+06,   1.49536E+06
C:/temp/Job-29.odb,Step-1,Increment      1: Step Time =    1.000,"P-29-1",          1064,       57.3919,       57.4129,            0.,NA,NA,"",   1.43493E+06,   1.28293E+06,   1.28293E+06
C:/temp/Job-29.odb,Step-1,Increment      1: Step Time =    1.000,"P-29-1",          1065,       134.934,       47.8049,            0.,NA,NA,"",   1.73289E+06,   1.66819E+06,   1.66819E+06
C:/temp/Job-29.odb,Step-1,Increment      1: Step Time =    1.000,"P-29-1",          1066,       52.5182,       76.3121,            0.,NA,NA,"",   703.391E+03,   497.931E+03,   497.931E+03
C:/temp/Job-29.odb,Step-1,Increment      1: Step Time =    1.000,"P-29-1",          1067,       43.5395,       78.0047,            0.,NA,NA,"",   597.808E+03,   491.082E+03,   491.082E+03
C:/temp/Job-29.odb,Step-1,Increment      1: Step Time =    1.000,"P-29-1",          1068,       153.564,       9.25875,            0.,NA,NA,"",   1.02311E+06,   1.01556E+06,   1.01556E+06
C:/temp/Job-29.odb,Step-1,Increment      1: Step Time =    1.000,"P-29-1",          1069,       190.812,       154.597,            0.,NA,NA,"",   979.623E+03,   1.04135E+06,   1.04135E+06
C:/temp/Job-29.odb,Step-1,Increment      1: Step Time =    1.000,"P-29-1",          1070,       45.3414,       190.925,            0.,NA,NA,"",   1.51078E+06,   1.49983E+06,   1.49983E+06
C:/temp/Job-29.odb,Step-1,Increment      1: Step Time =    1.000,"P-29-1",          1071,       8.92236,       46.2786,            0.,NA,NA,"",   955.870E+03,   1.04386E+06,   1.04386E+06
C:/temp/Job-29.odb,Step-1,Increment      1: Step Time =    1.000,"P-29-1",          1072,       98.8639,       165.127,            0.,NA,NA,"",   1.47647E+06,   1.59198E+06,   1.59198E+06
C:/temp/Job-29.odb,Step-1,Increment      1: Step Time =    1.000,"P-29-1",          1073,       80.7869,       40.8220,            0.,NA,NA,"",   1.72558E+06,   1.74572E+06,   1.74572E+06
C:/temp/Job-29.odb,Step-1,Increment      1: Step Time =    1.000,"P-29-1",          1074,       149.419,       60.4794,            0.,NA,NA,"",   1.65549E+06,   1.43412E+06,   1.43412E+06
C:/temp/Job-29.odb,Step-1,Increment      1: Step Time =    1.000,"P-29-1",          1075,       69.9050,       28.1308,            0.,NA,NA,"",   1.56220E+06,   1.51408E+06,   1.51408E+06
C:/temp/Job-29.odb,Step-1,Increment      1: Step Time =    1.000,"P-29-1",          1076,       131.573,       173.155,            0.,NA,NA,"",   1.31450E+06,   1.31330E+06,   1.31330E+06
C:/temp/Job-29.odb,Step-1,Increment      1: Step Time =    1.000,"P-29-1",          1077,       28.1126,       131.148,            0.,NA,NA,"",   688.870E+03,   696.048E+03,   696.048E+03
C:/temp/Job-29.odb,Step-1,Increment      1: Step Time =    1.000,"P-29-1",          1078,       170.963,       70.0525,            0.,NA,NA,"",   1.18635E+06,   1.13940E+06,   1.13940E+06
C:/temp/Job-29.odb,Step-1,Increment      1: Step Time =    1.000,"P-29-1",          1079,       108.921,       24.7986,            0.,NA,NA,"",   1.20093E+06,   1.27467E+06,   1.27467E+06
C:/temp/Job-29.odb,Step-1,Increment      1: Step Time =    1.000,"P-29-1",          1080,       26.8003,       90.6399,            0.,NA,NA,"",   250.941E+03,   283.833E+03,   283.833E+03
C:/temp/Job-29.odb,Step-1,Increment      1: Step Time =    1.000,"P-29-1",          1081,       99.6324,       26.8368,            0.,NA,NA,"",   1.28136E+06,   1.36068E+06,   1.36068E+06
C:/temp/Job-29.odb,Step-1,Increment      1: Step Time =    1.000,"P-29-1",          1082,       29.5123,       101.785,            0.,NA,NA,"",   164.961E+03,   186.836E+03,   186.836E+03
C:/temp/Job-29.odb,Step-1,Increment      1: Step Time =    1.000,"P-29-1",          1083,       170.773,       103.357,            0.,NA,NA,"",   574.304E+03,   647.746E+03,   647.746E+03
C:/temp/Job-29.odb,Step-1,Increment      1: Step Time =    1.000,"P-29-1",          1084,       175.776,       108.679,            0.,NA,NA,"",   715.075E+03,   808.913E+03,   808.913E+03
C:/temp/Job-29.odb,Step-1,Increment      1: Step Time =    1.000,"P-29-1",          1085,       89.1861,       175.475,            0.,NA,NA,"",   1.33210E+06,   1.36913E+06,   1.36913E+06
C:/temp/Job-29.odb,Step-1,Increment      1: Step Time =    1.000,"P-29-1",          1086,       136.487,       151.857,            0.,NA,NA,"",   1.71968E+06,   1.64084E+06,   1.64084E+06
C:/temp/Job-29.odb,Step-1,Increment      1: Step Time =    1.000,"P-29-1",          1087,       161.992,       78.0759,            0.,NA,NA,"",   1.12634E+06,   971.853E+03,   971.853E+03
C:/temp/Job-29.odb,Step-1,Increment      1: Step Time =    1.000,"P-29-1",          1088,       119.958,       161.687,            0.,NA,NA,"",   1.53773E+06,   1.61999E+06,   1.61999E+06
C:/temp/Job-29.odb,Step-1,Increment      1: Step Time =    1.000,"P-29-1",          1089,       161.056,       105.905,            0.,NA,NA,"",   503.315E+03,   457.013E+03,   457.013E+03
C:/temp/Job-29.odb,Step-1,Increment      1: Step Time =    1.000,"P-29-1",          1090,       79.8100,       164.042,            0.,NA,NA,"",   1.63795E+06,   1.63981E+06,   1.63981E+06
C:/temp/Job-29.odb,Step-1,Increment      1: Step Time =    1.000,"P-29-1",          1091,       90.7813,       167.673,            0.,NA,NA,"",   1.48152E+06,   1.54985E+06,   1.54985E+06
C:/temp/Job-29.odb,Step-1,Increment      1: Step Time =    1.000,"P-29-1",          1092,       156.886,       64.8651,            0.,NA,NA,"",   1.50449E+06,   1.29607E+06,   1.29607E+06
C:/temp/Job-29.odb,Step-1,Increment      1: Step Time =    1.000,"P-29-1",          1093,       166.726,       90.6120,            0.,NA,NA,"",   666.041E+03,   678.683E+03,   678.683E+03
C:/temp/Job-29.odb,Step-1,Increment      1: Step Time =    1.000,"P-29-1",          1094,       96.9640,       35.9614,            0.,NA,NA,"",   1.50830E+06,   1.62232E+06,   1.62232E+06
C:/temp/Job-29.odb,Step-1,Increment      1: Step Time =    1.000,"P-29-1",          1095,       88.6768,       32.6046,            0.,NA,NA,"",   1.49961E+06,   1.55789E+06,   1.55789E+06
C:/temp/Job-29.odb,Step-1,Increment      1: Step Time =    1.000,"P-29-1",          1096,       120.792,       166.248,            0.,NA,NA,"",   1.42461E+06,   1.48884E+06,   1.48884E+06
C:/temp/Job-29.odb,Step-1,Increment      1: Step Time =    1.000,"P-29-1",          1097,       155.025,       130.282,            0.,NA,NA,"",   1.44636E+06,   1.19755E+06,   1.19755E+06
C:/temp/Job-29.odb,Step-1,Increment      1: Step Time =    1.000,"P-29-1",          1098,       120.817,       40.6054,            0.,NA,NA,"",   1.60021E+06,   1.67497E+06,   1.67497E+06
C:/temp/Job-29.odb,Step-1,Increment      1: Step Time =    1.000,"P-29-1",          1099,       151.747,       13.3467,            0.,NA,NA,"",   1.07227E+06,   1.05851E+06,   1.05851E+06
C:/temp/Job-29.odb,Step-1,Increment      1: Step Time =    1.000,"P-29-1",          1100,       12.8995,       47.0600,            0.,NA,NA,"",   985.710E+03,   1.05652E+06,   1.05652E+06
C:/temp/Job-29.odb,Step-1,Increment      1: Step Time =    1.000,"P-29-1",          1101,       186.142,       154.414,            0.,NA,NA,"",   1.03418E+06,   1.07865E+06,   1.07865E+06
C:/temp/Job-29.odb,Step-1,Increment      1: Step Time =    1.000,"P-29-1",          1102,       45.4893,       186.299,            0.,NA,NA,"",   1.51258E+06,   1.49140E+06,   1.49140E+06
C:/temp/Job-29.odb,Step-1,Increment      1: Step Time =    1.000,"P-29-1",          1103,       124.959,       164.610,            0.,NA,NA,"",   1.47432E+06,   1.51250E+06,   1.51250E+06
C:/temp/Job-29.odb,Step-1,Increment      1: Step Time =    1.000,"P-29-1",          1104,       38.2336,       80.2159,            0.,NA,NA,"",   489.246E+03,   440.401E+03,   440.401E+03
C:/temp/Job-29.odb,Step-1,Increment      1: Step Time =    1.000,"P-29-1",          1105,       153.262,       134.510,            0.,NA,NA,"",   1.54336E+06,   1.29941E+06,   1.29941E+06
C:/temp/Job-29.odb,Step-1,Increment      1: Step Time =    1.000,"P-29-1",          1106,       50.9912,       57.6107,            0.,NA,NA,"",   1.32046E+06,   1.18039E+06,   1.18039E+06
C:/temp/Job-29.odb,Step-1,Increment      1: Step Time =    1.000,"P-29-1",          1107,       105.006,       33.8948,            0.,NA,NA,"",   1.41230E+06,   1.53071E+06,   1.53071E+06
C:/temp/Job-29.odb,Step-1,Increment      1: Step Time =    1.000,"P-29-1",          1108,       37.7520,       114.647,            0.,NA,NA,"",   361.539E+03,   326.232E+03,   326.232E+03
C:/temp/Job-29.odb,Step-1,Increment      1: Step Time =    1.000,"P-29-1",          1109,       41.9121,       124.660,            0.,NA,NA,"",   661.341E+03,   571.246E+03,   571.246E+03
C:/temp/Job-29.odb,Step-1,Increment      1: Step Time =    1.000,"P-29-1",          1110,       162.717,       115.386,            0.,NA,NA,"",   874.669E+03,   770.225E+03,   770.225E+03
C:/temp/Job-29.odb,Step-1,Increment      1: Step Time =    1.000,"P-29-1",          1111,       26.2121,       74.9979,            0.,NA,NA,"",   533.511E+03,   557.217E+03,   557.217E+03
C:/temp/Job-29.odb,Step-1,Increment      1: Step Time =    1.000,"P-29-1",          1112,       173.292,       123.242,            0.,NA,NA,"",   1.03166E+06,   1.04226E+06,   1.04226E+06
C:/temp/Job-29.odb,Step-1,Increment      1: Step Time =    1.000,"P-29-1",          1113,       125.035,       25.0008,            0.,NA,NA,"",   1.25017E+06,   1.27190E+06,   1.27190E+06
C:/temp/Job-29.odb,Step-1,Increment      1: Step Time =    1.000,"P-29-1",          1114,       73.3093,       175.126,            0.,NA,NA,"",   1.49450E+06,   1.46195E+06,   1.46195E+06
C:/temp/Job-29.odb,Step-1,Increment      1: Step Time =    1.000,"P-29-1",          1115,       158.999,       130.776,            0.,NA,NA,"",   1.40223E+06,   1.19777E+06,   1.19777E+06
C:/temp/Job-29.odb,Step-1,Increment      1: Step Time =    1.000,"P-29-1",          1116,       143.185,       24.7334,            0.,NA,NA,"",   1.26890E+06,   1.23628E+06,   1.23628E+06
C:/temp/Job-29.odb,Step-1,Increment      1: Step Time =    1.000,"P-29-1",          1117,       27.1922,       146.414,            0.,NA,NA,"",   1.01811E+06,   1.02013E+06,   1.02013E+06
C:/temp/Job-29.odb,Step-1,Increment      1: Step Time =    1.000,"P-29-1",          1118,       54.3116,       27.3597,            0.,NA,NA,"",   1.55282E+06,   1.48543E+06,   1.48543E+06
C:/temp/Job-29.odb,Step-1,Increment      1: Step Time =    1.000,"P-29-1",          1119,       22.9316,       54.1400,            0.,NA,NA,"",   953.507E+03,   978.306E+03,   978.306E+03
C:/temp/Job-29.odb,Step-1,Increment      1: Step Time =    1.000,"P-29-1",          1120,       146.160,       175.460,            0.,NA,NA,"",   1.25822E+06,   1.22193E+06,   1.22193E+06
C:/temp/Job-29.odb,Step-1,Increment      1: Step Time =    1.000,"P-29-1",          1121,       176.209,       144.685,            0.,NA,NA,"",   1.19060E+06,   1.18426E+06,   1.18426E+06
C:/temp/Job-29.odb,Step-1,Increment      1: Step Time =    1.000,"P-29-1",          1122,       175.563,       53.5923,            0.,NA,NA,"",   1.19755E+06,   1.18749E+06,   1.18749E+06
C:/temp/Job-29.odb,Step-1,Increment      1: Step Time =    1.000,"P-29-1",          1123,       55.8174,       175.966,            0.,NA,NA,"",   1.53248E+06,   1.47532E+06,   1.47532E+06
C:/temp/Job-29.odb,Step-1,Increment      1: Step Time =    1.000,"P-29-1",          1124,       76.8432,       39.6944,            0.,NA,NA,"",   1.71453E+06,   1.69824E+06,   1.69824E+06
C:/temp/Job-29.odb,Step-1,Increment      1: Step Time =    1.000,"P-29-1",          1125,       146.338,       57.9125,            0.,NA,NA,"",   1.70505E+06,   1.50237E+06,   1.50237E+06
C:/temp/Job-29.odb,Step-1,Increment      1: Step Time =    1.000,"P-29-1",          1126,       131.973,       155.867,            0.,NA,NA,"",   1.67255E+06,   1.64393E+06,   1.64393E+06
C:/temp/Job-29.odb,Step-1,Increment      1: Step Time =    1.000,"P-29-1",          1127,       142.999,       149.225,            0.,NA,NA,"",   1.70869E+06,   1.56698E+06,   1.56698E+06
C:/temp/Job-29.odb,Step-1,Increment      1: Step Time =    1.000,"P-29-1",          1128,       156.968,       76.2446,            0.,NA,NA,"",   1.24069E+06,   1.00056E+06,   1.00056E+06
C:/temp/Job-29.odb,Step-1,Increment      1: Step Time =    1.000,"P-29-1",          1129,       119.591,       157.449,            0.,NA,NA,"",   1.65335E+06,   1.74825E+06,   1.74825E+06
C:/temp/Job-29.odb,Step-1,Increment      1: Step Time =    1.000,"P-29-1",          1130,       163.760,       103.337,            0.,NA,NA,"",   459.000E+03,   472.699E+03,   472.699E+03
C:/temp/Job-29.odb,Step-1,Increment      1: Step Time =    1.000,"P-29-1",          1131,       78.4087,       154.758,            0.,NA,NA,"",   1.78795E+06,   1.78786E+06,   1.78786E+06
C:/temp/Job-29.odb,Step-1,Increment      1: Step Time =    1.000,"P-29-1",          1132,       117.639,       38.7346,            0.,NA,NA,"",   1.54650E+06,   1.63938E+06,   1.63938E+06
C:/temp/Job-29.odb,Step-1,Increment      1: Step Time =    1.000,"P-29-1",          1133,       160.378,       111.399,            0.,NA,NA,"",   710.015E+03,   599.408E+03,   599.408E+03
C:/temp/Job-29.odb,Step-1,Increment      1: Step Time =    1.000,"P-29-1",          1134,       108.451,       28.9452,            0.,NA,NA,"",   1.29189E+06,   1.38632E+06,   1.38632E+06
C:/temp/Job-29.odb,Step-1,Increment      1: Step Time =    1.000,"P-29-1",          1135,       169.875,       110.456,            0.,NA,NA,"",   709.971E+03,   753.125E+03,   753.125E+03
C:/temp/Job-29.odb,Step-1,Increment      1: Step Time =    1.000,"P-29-1",          1136,       85.2469,       172.857,            0.,NA,NA,"",   1.43621E+06,   1.46066E+06,   1.46066E+06
C:/temp/Job-29.odb,Step-1,Increment      1: Step Time =    1.000,"P-29-1",          1137,       166.900,       79.9848,            0.,NA,NA,"",   1.01806E+06,   951.698E+03,   951.698E+03
C:/temp/Job-29.odb,Step-1,Increment      1: Step Time =    1.000,"P-29-1",          1138,       100.392,       30.7274,            0.,NA,NA,"",   1.35718E+06,   1.45552E+06,   1.45552E+06
C:/temp/Job-29.odb,Step-1,Increment      1: Step Time =    1.000,"P-29-1",          1139,       33.6662,       99.4565,            0.,NA,NA,"",   127.310E+03,   145.974E+03,   145.974E+03
C:/temp/Job-29.odb,Step-1,Increment      1: Step Time =    1.000,"P-29-1",          1140,       155.170,       58.5490,            0.,NA,NA,"",   1.57095E+06,   1.38436E+06,   1.38436E+06
C:/temp/Job-29.odb,Step-1,Increment      1: Step Time =    1.000,"P-29-1",          1141,       67.9781,       46.7723,            0.,NA,NA,"",   1.70771E+06,   1.61850E+06,   1.61850E+06
C:/temp/Job-29.odb,Step-1,Increment      1: Step Time =    1.000,"P-29-1",          1142,       35.8640,       107.777,            0.,NA,NA,"",   196.758E+03,   200.113E+03,   200.113E+03
C:/temp/Job-29.odb,Step-1,Increment      1: Step Time =    1.000,"P-29-1",          1143,       81.3782,       36.5091,            0.,NA,NA,"",   1.64221E+06,   1.66074E+06,   1.66074E+06
C:/temp/Job-29.odb,Step-1,Increment      1: Step Time =    1.000,"P-29-1",          1144,       165.374,       119.859,            0.,NA,NA,"",   1.02738E+06,   936.288E+03,   936.288E+03
C:/temp/Job-29.odb,Step-1,Increment      1: Step Time =    1.000,"P-29-1",          1145,       31.8618,       79.9973,            0.,NA,NA,"",   458.487E+03,   458.679E+03,   458.679E+03
C:/temp/Job-29.odb,Step-1,Increment      1: Step Time =    1.000,"P-29-1",          1146,       123.576,       36.8987,            0.,NA,NA,"",   1.51135E+06,   1.55945E+06,   1.55945E+06
C:/temp/Job-29.odb,Step-1,Increment      1: Step Time =    1.000,"P-29-1",          1147,       35.9195,       123.225,            0.,NA,NA,"",   561.948E+03,   526.562E+03,   526.562E+03
C:/temp/Job-29.odb,Step-1,Increment      1: Step Time =    1.000,"P-29-1",          1148,       132.707,       54.8897,            0.,NA,NA,"",   1.81628E+06,   1.75282E+06,   1.75282E+06
C:/temp/Job-29.odb,Step-1,Increment      1: Step Time =    1.000,"P-29-1",          1149,       166.092,       68.3710,            0.,NA,NA,"",   1.29300E+06,   1.17957E+06,   1.17957E+06
C:/temp/Job-29.odb,Step-1,Increment      1: Step Time =    1.000,"P-29-1",          1150,       33.1431,       132.319,            0.,NA,NA,"",   770.713E+03,   745.539E+03,   745.539E+03
C:/temp/Job-29.odb,Step-1,Increment      1: Step Time =    1.000,"P-29-1",          1151,       132.410,       168.538,            0.,NA,NA,"",   1.41041E+06,   1.40232E+06,   1.40232E+06
C:/temp/Job-29.odb,Step-1,Increment      1: Step Time =    1.000,"P-29-1",          1152,       68.9659,       33.4866,            0.,NA,NA,"",   1.63284E+06,   1.57161E+06,   1.57161E+06
C:/temp/Job-29.odb,Step-1,Increment      1: Step Time =    1.000,"P-29-1",          1153,       57.7301,       155.549,            0.,NA,NA,"",   1.60366E+06,   1.48694E+06,   1.48694E+06
C:/temp/Job-29.odb,Step-1,Increment      1: Step Time =    1.000,"P-29-1",          1154,       125.406,       38.9544,            0.,NA,NA,"",   1.56287E+06,   1.59980E+06,   1.59980E+06
C:/temp/Job-29.odb,Step-1,Increment      1: Step Time =    1.000,"P-29-1",          1155,       161.346,       66.6773,            0.,NA,NA,"",   1.40321E+06,   1.23279E+06,   1.23279E+06
C:/temp/Job-29.odb,Step-1,Increment      1: Step Time =    1.000,"P-29-1",          1156,       50.5498,       139.873,            0.,NA,NA,"",   1.23424E+06,   1.09432E+06,   1.09432E+06
C:/temp/Job-29.odb,Step-1,Increment      1: Step Time =    1.000,"P-29-1",          1157,       142.499,       51.1251,            0.,NA,NA,"",   1.71396E+06,   1.57252E+06,   1.57252E+06
C:/temp/Job-29.odb,Step-1,Increment      1: Step Time =    1.000,"P-29-1",          1158,       39.1631,       126.613,            0.,NA,NA,"",   690.762E+03,   623.796E+03,   623.796E+03
C:/temp/Job-29.odb,Step-1,Increment      1: Step Time =    1.000,"P-29-1",          1159,       48.5480,       23.9734,            0.,NA,NA,"",   1.53303E+06,   1.48069E+06,   1.48069E+06
C:/temp/Job-29.odb,Step-1,Increment      1: Step Time =    1.000,"P-29-1",          1160,       24.9367,       49.5382,            0.,NA,NA,"",   1.06604E+06,   1.07819E+06,   1.07819E+06
C:/temp/Job-29.odb,Step-1,Increment      1: Step Time =    1.000,"P-29-1",          1161,       148.589,       21.2397,            0.,NA,NA,"",   1.19600E+06,   1.16674E+06,   1.16674E+06
C:/temp/Job-29.odb,Step-1,Increment      1: Step Time =    1.000,"P-29-1",          1162,       23.4969,       151.767,            0.,NA,NA,"",   1.07695E+06,   1.09756E+06,   1.09756E+06
C:/temp/Job-29.odb,Step-1,Increment      1: Step Time =    1.000,"P-29-1",          1163,       177.915,       48.9781,            0.,NA,NA,"",   1.15996E+06,   1.16149E+06,   1.16149E+06
C:/temp/Job-29.odb,Step-1,Increment      1: Step Time =    1.000,"P-29-1",          1164,       50.3611,       176.817,            0.,NA,NA,"",   1.52860E+06,   1.47695E+06,   1.47695E+06
C:/temp/Job-29.odb,Step-1,Increment      1: Step Time =    1.000,"P-29-1",          1165,       150.756,       177.404,            0.,NA,NA,"",   1.21875E+06,   1.18419E+06,   1.18419E+06
C:/temp/Job-29.odb,Step-1,Increment      1: Step Time =    1.000,"P-29-1",          1166,       176.823,       149.330,            0.,NA,NA,"",   1.18120E+06,   1.17623E+06,   1.17623E+06
C:/temp/Job-29.odb,Step-1,Increment      1: Step Time =    1.000,"P-29-1",          1167,       77.5038,       35.5513,            0.,NA,NA,"",   1.64501E+06,   1.63373E+06,   1.63373E+06
C:/temp/Job-29.odb,Step-1,Increment      1: Step Time =    1.000,"P-29-1",          1168,       151.737,       56.7284,            0.,NA,NA,"",   1.62834E+06,   1.43867E+06,   1.43867E+06
C:/temp/Job-29.odb,Step-1,Increment      1: Step Time =    1.000,"P-29-1",          1169,       160.498,       55.5890,            0.,NA,NA,"",   1.47802E+06,   1.33920E+06,   1.33920E+06
C:/temp/Job-29.odb,Step-1,Increment      1: Step Time =    1.000,"P-29-1",          1170,       131.806,       159.515,            0.,NA,NA,"",   1.59867E+06,   1.58159E+06,   1.58159E+06
C:/temp/Job-29.odb,Step-1,Increment      1: Step Time =    1.000,"P-29-1",          1171,       164.038,       73.3351,            0.,NA,NA,"",   1.22862E+06,   1.09305E+06,   1.09305E+06
C:/temp/Job-29.odb,Step-1,Increment      1: Step Time =    1.000,"P-29-1",          1172,       134.633,       57.1650,            0.,NA,NA,"",   1.79989E+06,   1.70315E+06,   1.70315E+06
C:/temp/Job-29.odb,Step-1,Increment      1: Step Time =    1.000,"P-29-1",          1173,       36.1853,       84.2594,            0.,NA,NA,"",   371.540E+03,   349.355E+03,   349.355E+03
C:/temp/Job-29.odb,Step-1,Increment      1: Step Time =    1.000,"P-29-1",          1174,       47.3863,       60.4544,            0.,NA,NA,"",   1.18948E+06,   1.06257E+06,   1.06257E+06
C:/temp/Job-29.odb,Step-1,Increment      1: Step Time =    1.000,"P-29-1",          1175,       109.584,       36.6048,            0.,NA,NA,"",   1.47341E+06,   1.59649E+06,   1.59649E+06
C:/temp/Job-29.odb,Step-1,Increment      1: Step Time =    1.000,"P-29-1",          1176,       40.6283,       109.337,            0.,NA,NA,"",   237.657E+03,   184.117E+03,   184.117E+03
C:/temp/Job-29.odb,Step-1,Increment      1: Step Time =    1.000,"P-29-1",          1177,       26.2761,       69.4203,            0.,NA,NA,"",   656.998E+03,   674.373E+03,   674.373E+03
C:/temp/Job-29.odb,Step-1,Increment      1: Step Time =    1.000,"P-29-1",          1178,       168.760,       131.255,            0.,NA,NA,"",   1.24334E+06,   1.16745E+06,   1.16745E+06
C:/temp/Job-29.odb,Step-1,Increment      1: Step Time =    1.000,"P-29-1",          1179,       129.524,       29.0960,            0.,NA,NA,"",   1.34834E+06,   1.35421E+06,   1.35421E+06
C:/temp/Job-29.odb,Step-1,Increment      1: Step Time =    1.000,"P-29-1",          1180,       162.869,       126.074,            0.,NA,NA,"",   1.24619E+06,   1.09007E+06,   1.09007E+06
C:/temp/Job-29.odb,Step-1,Increment      1: Step Time =    1.000,"P-29-1",          1181,       163.871,       109.289,            0.,NA,NA,"",   638.716E+03,   613.534E+03,   613.534E+03
C:/temp/Job-29.odb,Step-1,Increment      1: Step Time =    1.000,"P-29-1",          1182,       127.404,       154.646,            0.,NA,NA,"",   1.70854E+06,   1.72742E+06,   1.72742E+06
C:/temp/Job-29.odb,Step-1,Increment      1: Step Time =    1.000,"P-29-1",          1183,       141.412,       154.139,            0.,NA,NA,"",   1.65759E+06,   1.55452E+06,   1.55452E+06
C:/temp/Job-29.odb,Step-1,Increment      1: Step Time =    1.000,"P-29-1",          1184,       162.975,       97.6276,            0.,NA,NA,"",   429.559E+03,   442.148E+03,   442.148E+03
C:/temp/Job-29.odb,Step-1,Increment      1: Step Time =    1.000,"P-29-1",          1185,       77.2812,       160.981,            0.,NA,NA,"",   1.69815E+06,   1.68376E+06,   1.68376E+06
C:/temp/Job-29.odb,Step-1,Increment      1: Step Time =    1.000,"P-29-1",          1186,       58.3251,       151.126,            0.,NA,NA,"",   1.58432E+06,   1.45562E+06,   1.45562E+06
C:/temp/Job-29.odb,Step-1,Increment      1: Step Time =    1.000,"P-29-1",          1187,       57.3756,       159.905,            0.,NA,NA,"",   1.60792E+06,   1.50287E+06,   1.50287E+06
C:/temp/Job-29.odb,Step-1,Increment      1: Step Time =    1.000,"P-29-1",          1188,       128.603,       38.3483,            0.,NA,NA,"",   1.55423E+06,   1.56709E+06,   1.56709E+06
C:/temp/Job-29.odb,Step-1,Increment      1: Step Time =    1.000,"P-29-1",          1189,       138.063,       48.9567,            0.,NA,NA,"",   1.73265E+06,   1.63393E+06,   1.63393E+06
C:/temp/Job-29.odb,Step-1,Increment      1: Step Time =    1.000,"P-29-1",          1190,       49.3205,       144.420,            0.,NA,NA,"",   1.32048E+06,   1.19387E+06,   1.19387E+06
C:/temp/Job-29.odb,Step-1,Increment      1: Step Time =    1.000,"P-29-1",          1191,       87.1676,       159.720,            0.,NA,NA,"",   1.68991E+06,   1.76241E+06,   1.76241E+06
C:/temp/Job-29.odb,Step-1,Increment      1: Step Time =    1.000,"P-29-1",          1192,       36.1343,       102.868,            0.,NA,NA,"",   120.412E+03,   131.641E+03,   131.641E+03
C:/temp/Job-29.odb,Step-1,Increment      1: Step Time =    1.000,"P-29-1",          1193,       49.8179,       136.565,            0.,NA,NA,"",   1.13647E+06,   992.134E+03,   992.134E+03
C:/temp/Job-29.odb,Step-1,Increment      1: Step Time =    1.000,"P-29-1",          1194,       154.663,       139.477,            0.,NA,NA,"",   1.58019E+06,   1.37515E+06,   1.37515E+06
C:/temp/Job-29.odb,Step-1,Increment      1: Step Time =    1.000,"P-29-1",          1195,       163.327,       61.7040,            0.,NA,NA,"",   1.41350E+06,   1.27724E+06,   1.27724E+06
C:/temp/Job-29.odb,Step-1,Increment      1: Step Time =    1.000,"P-29-1",          1196,       128.473,       163.840,            0.,NA,NA,"",   1.50251E+06,   1.51433E+06,   1.51433E+06
C:/temp/Job-29.odb,Step-1,Increment      1: Step Time =    1.000,"P-29-1",          1197,       72.8427,       38.8381,            0.,NA,NA,"",   1.70045E+06,   1.65311E+06,   1.65311E+06
C:/temp/Job-29.odb,Step-1,Increment      1: Step Time =    1.000,"P-29-1",          1198,       37.2610,       96.5615,            0.,NA,NA,"",   129.129E+03,   130.816E+03,   130.816E+03
C:/temp/Job-29.odb,Step-1,Increment      1: Step Time =    1.000,"P-29-1",          1199,       146.412,       50.4632,            0.,NA,NA,"",   1.66914E+06,   1.51719E+06,   1.51719E+06
C:/temp/Job-29.odb,Step-1,Increment      1: Step Time =    1.000,"P-29-1",          1200,       63.6950,       37.7202,            0.,NA,NA,"",   1.65167E+06,   1.56251E+06,   1.56251E+06
C:/temp/Job-29.odb,Step-1,Increment      1: Step Time =    1.000,"P-29-1",          1201,       38.4769,       137.624,            0.,NA,NA,"",   983.991E+03,    916.94E+03,    916.94E+03
C:/temp/Job-29.odb,Step-1,Increment      1: Step Time =    1.000,"P-29-1",          1202,       63.5696,       45.7408,            0.,NA,NA,"",   1.66405E+06,   1.55527E+06,   1.55527E+06
C:/temp/Job-29.odb,Step-1,Increment      1: Step Time =    1.000,"P-29-1",          1203,       73.9421,       47.0720,            0.,NA,NA,"",   1.76626E+06,   1.72359E+06,   1.72359E+06
C:/temp/Job-29.odb,Step-1,Increment      1: Step Time =    1.000,"P-29-1",          1204,       36.9996,       74.7177,            0.,NA,NA,"",   629.266E+03,   584.708E+03,   584.708E+03
C:/temp/Job-29.odb,Step-1,Increment      1: Step Time =    1.000,"P-29-1",          1205,       151.859,       143.802,            0.,NA,NA,"",   1.63090E+06,   1.44405E+06,   1.44405E+06
C:/temp/Job-29.odb,Step-1,Increment      1: Step Time =    1.000,"P-29-1",          1206,       155.714,       144.426,            0.,NA,NA,"",   1.57192E+06,   1.40219E+06,   1.40219E+06
C:/temp/Job-29.odb,Step-1,Increment      1: Step Time =    1.000,"P-29-1",          1207,       76.9203,       165.994,            0.,NA,NA,"",   1.62378E+06,   1.60445E+06,   1.60445E+06
C:/temp/Job-29.odb,Step-1,Increment      1: Step Time =    1.000,"P-29-1",          1208,       70.6504,       161.475,            0.,NA,NA,"",   1.68676E+06,   1.62532E+06,   1.62532E+06
C:/temp/Job-29.odb,Step-1,Increment      1: Step Time =    1.000,"P-29-1",          1209,       43.8630,       134.184,            0.,NA,NA,"",   981.074E+03,   875.397E+03,   875.397E+03
C:/temp/Job-29.odb,Step-1,Increment      1: Step Time =    1.000,"P-29-1",          1210,       49.7238,       28.6577,            0.,NA,NA,"",   1.54316E+06,   1.47641E+06,   1.47641E+06
C:/temp/Job-29.odb,Step-1,Increment      1: Step Time =    1.000,"P-29-1",          1211,       17.1543,       46.7054,            0.,NA,NA,"",   1.03124E+06,   1.08378E+06,   1.08378E+06
C:/temp/Job-29.odb,Step-1,Increment      1: Step Time =    1.000,"P-29-1",          1212,       47.2622,       19.3928,            0.,NA,NA,"",   1.52240E+06,   1.48392E+06,   1.48392E+06
C:/temp/Job-29.odb,Step-1,Increment      1: Step Time =    1.000,"P-29-1",          1213,       28.1140,       150.911,            0.,NA,NA,"",   1.11937E+06,   1.11421E+06,   1.11421E+06
C:/temp/Job-29.odb,Step-1,Increment      1: Step Time =    1.000,"P-29-1",          1214,       149.729,       16.9135,            0.,NA,NA,"",   1.12846E+06,   1.10779E+06,   1.10779E+06
C:/temp/Job-29.odb,Step-1,Increment      1: Step Time =    1.000,"P-29-1",          1215,       19.0907,       152.987,            0.,NA,NA,"",   1.04212E+06,   1.08613E+06,   1.08613E+06
C:/temp/Job-29.odb,Step-1,Increment      1: Step Time =    1.000,"P-29-1",          1216,       173.987,       47.3205,            0.,NA,NA,"",   1.21176E+06,   1.19064E+06,   1.19064E+06
C:/temp/Job-29.odb,Step-1,Increment      1: Step Time =    1.000,"P-29-1",          1217,       45.5846,       181.676,            0.,NA,NA,"",   1.51959E+06,   1.48660E+06,   1.48660E+06
C:/temp/Job-29.odb,Step-1,Increment      1: Step Time =    1.000,"P-29-1",          1218,       181.828,       46.4966,            0.,NA,NA,"",   1.10012E+06,   1.12179E+06,   1.12179E+06
C:/temp/Job-29.odb,Step-1,Increment      1: Step Time =    1.000,"P-29-1",          1219,       152.149,       173.029,            0.,NA,NA,"",   1.27097E+06,   1.22653E+06,   1.22653E+06
C:/temp/Job-29.odb,Step-1,Increment      1: Step Time =    1.000,"P-29-1",          1220,       181.507,       154.216,            0.,NA,NA,"",   1.09955E+06,   1.12091E+06,   1.12091E+06
C:/temp/Job-29.odb,Step-1,Increment      1: Step Time =    1.000,"P-29-1",          1221,       153.368,       181.364,            0.,NA,NA,"",   1.15528E+06,   1.13004E+06,   1.13004E+06
C:/temp/Job-29.odb,Step-1,Increment      1: Step Time =    1.000,"P-29-1",          1222,       37.0426,       92.6851,            0.,NA,NA,"",   187.264E+03,   183.093E+03,   183.093E+03
C:/temp/Job-29.odb,Step-1,Increment      1: Step Time =    1.000,"P-29-1",          1223,       45.0202,       56.1688,            0.,NA,NA,"",   1.25001E+06,   1.14226E+06,   1.14226E+06
C:/temp/Job-29.odb,Step-1,Increment      1: Step Time =    1.000,"P-29-1",          1224,       50.6121,       65.5163,            0.,NA,NA,"",   1.09319E+06,   938.850E+03,   938.850E+03
C:/temp/Job-29.odb,Step-1,Increment      1: Step Time =    1.000,"P-29-1",          1225,       33.0918,       90.3110,            0.,NA,NA,"",   238.406E+03,   249.730E+03,   249.730E+03
C:/temp/Job-29.odb,Step-1,Increment      1: Step Time =    1.000,"P-29-1",          1226,       44.5290,       107.512,            0.,NA,NA,"",   218.627E+03,  -22.4231E+03,  -22.4231E+03
C:/temp/Job-29.odb,Step-1,Increment      1: Step Time =    1.000,"P-29-1",          1227,       147.971,       151.143,            0.,NA,NA,"",   1.63225E+06,   1.48991E+06,   1.48991E+06
C:/temp/Job-29.odb,Step-1,Increment      1: Step Time =    1.000,"P-29-1",          1228,       52.8226,       154.703,            0.,NA,NA,"",   1.53132E+06,   1.41637E+06,   1.41637E+06
C:/temp/Job-29.odb,Step-1,Increment      1: Step Time =    1.000,"P-29-1",          1229,       62.9835,       160.891,            0.,NA,NA,"",   1.64975E+06,   1.55599E+06,   1.55599E+06
C:/temp/Job-29.odb,Step-1,Increment      1: Step Time =    1.000,"P-29-1",          1230,       132.236,       42.8010,            0.,NA,NA,"",   1.64723E+06,   1.62562E+06,   1.62562E+06
C:/temp/Job-29.odb,Step-1,Increment      1: Step Time =    1.000,"P-29-1",          1231,       127.506,       34.4123,            0.,NA,NA,"",   1.46629E+06,   1.48581E+06,   1.48581E+06
C:/temp/Job-29.odb,Step-1,Increment      1: Step Time =    1.000,"P-29-1",          1232,       48.4192,       149.063,            0.,NA,NA,"",   1.39308E+06,   1.27784E+06,   1.27784E+06
C:/temp/Job-29.odb,Step-1,Increment      1: Step Time =    1.000,"P-29-1",          1233,       48.8021,       132.393,            0.,NA,NA,"",   1.00808E+06,   861.787E+03,   861.787E+03
C:/temp/Job-29.odb,Step-1,Increment      1: Step Time =    1.000,"P-29-1",          1234,       39.9035,       100.432,            0.,NA,NA,"",   94.8083E+03,   50.8286E+03,   50.8286E+03
C:/temp/Job-29.odb,Step-1,Increment      1: Step Time =    1.000,"P-29-1",          1235,       150.033,       51.3937,            0.,NA,NA,"",   1.62833E+06,   1.46975E+06,   1.46975E+06
C:/temp/Job-29.odb,Step-1,Increment      1: Step Time =    1.000,"P-29-1",          1236,       141.488,       46.0481,            0.,NA,NA,"",   1.66558E+06,   1.56124E+06,   1.56124E+06
C:/temp/Job-29.odb,Step-1,Increment      1: Step Time =    1.000,"P-29-1",          1237,       137.854,       164.501,            0.,NA,NA,"",   1.48807E+06,   1.44379E+06,   1.44379E+06
C:/temp/Job-29.odb,Step-1,Increment      1: Step Time =    1.000,"P-29-1",          1238,       59.4141,       37.3498,            0.,NA,NA,"",   1.62148E+06,   1.52490E+06,   1.52490E+06
C:/temp/Job-29.odb,Step-1,Increment      1: Step Time =    1.000,"P-29-1",          1239,       68.3286,       39.4049,            0.,NA,NA,"",   1.68612E+06,   1.61105E+06,   1.61105E+06
C:/temp/Job-29.odb,Step-1,Increment      1: Step Time =    1.000,"P-29-1",          1240,       38.2407,       142.257,            0.,NA,NA,"",   1.08859E+06,   1.02365E+06,   1.02365E+06
C:/temp/Job-29.odb,Step-1,Increment      1: Step Time =    1.000,"P-29-1",          1241,       59.3203,       47.1039,            0.,NA,NA,"",   1.61225E+06,   1.48937E+06,   1.48937E+06
C:/temp/Job-29.odb,Step-1,Increment      1: Step Time =    1.000,"P-29-1",          1242,       65.7179,       43.5044,            0.,NA,NA,"",   1.68287E+06,   1.58658E+06,   1.58658E+06
C:/temp/Job-29.odb,Step-1,Increment      1: Step Time =    1.000,"P-29-1",          1243,       35.9264,       69.7900,            0.,NA,NA,"",   744.437E+03,   703.620E+03,   703.620E+03
C:/temp/Job-29.odb,Step-1,Increment      1: Step Time =    1.000,"P-29-1",          1244,       78.6296,       31.7905,            0.,NA,NA,"",   1.57998E+06,   1.57401E+06,   1.57401E+06
C:/temp/Job-29.odb,Step-1,Increment      1: Step Time =    1.000,"P-29-1",          1245,       163.427,       130.679,            0.,NA,NA,"",   1.33169E+06,   1.18205E+06,   1.18205E+06
C:/temp/Job-29.odb,Step-1,Increment      1: Step Time =    1.000,"P-29-1",          1246,       40.7867,       121.970,            0.,NA,NA,"",   575.430E+03,   497.435E+03,   497.435E+03
C:/temp/Job-29.odb,Step-1,Increment      1: Step Time =    1.000,"P-29-1",          1247,       145.461,       162.563,            0.,NA,NA,"",   1.49185E+06,   1.41503E+06,   1.41503E+06
C:/temp/Job-29.odb,Step-1,Increment      1: Step Time =    1.000,"P-29-1",          1248,       28.7582,       154.922,            0.,NA,NA,"",   1.19706E+06,   1.18803E+06,   1.18803E+06
C:/temp/Job-29.odb,Step-1,Increment      1: Step Time =    1.000,"P-29-1",          1249,       155.312,       175.932,            0.,NA,NA,"",   1.21499E+06,   1.17914E+06,   1.17914E+06
C:/temp/Job-29.odb,Step-1,Increment      1: Step Time =    1.000,"P-29-1",          1250,       176.786,       44.4092,            0.,NA,NA,"",   1.16053E+06,   1.15628E+06,   1.15628E+06
C:/temp/Job-29.odb,Step-1,Increment      1: Step Time =    1.000,"P-29-1",          1251,       45.4516,       29.7839,            0.,NA,NA,"",   1.52334E+06,   1.46113E+06,   1.46113E+06
C:/temp/Job-29.odb,Step-1,Increment      1: Step Time =    1.000,"P-29-1",          1252,       41.2245,       57.3202,            0.,NA,NA,"",   1.15598E+06,   1.06968E+06,   1.06968E+06
C:/temp/Job-29.odb,Step-1,Increment      1: Step Time =    1.000,"P-29-1",          1253,       133.114,       38.0452,            0.,NA,NA,"",   1.55334E+06,   1.53346E+06,   1.53346E+06
C:/temp/Job-29.odb,Step-1,Increment      1: Step Time =    1.000,"P-29-1",          1254,       152.648,       167.008,            0.,NA,NA,"",   1.36792E+06,   1.30305E+06,   1.30305E+06
C:/temp/Job-29.odb,Step-1,Increment      1: Step Time =    1.000,"P-29-1",          1255,       32.8648,       150.820,            0.,NA,NA,"",   1.17895E+06,   1.14770E+06,   1.14770E+06
C:/temp/Job-29.odb,Step-1,Increment      1: Step Time =    1.000,"P-29-1",          1256,       168.377,       46.4515,            0.,NA,NA,"",   1.30119E+06,   1.24523E+06,   1.24523E+06
C:/temp/Job-29.odb,Step-1,Increment      1: Step Time =    1.000,"P-29-1",          1257,       50.4706,       33.4824,            0.,NA,NA,"",   1.54835E+06,   1.46750E+06,   1.46750E+06
C:/temp/Job-29.odb,Step-1,Increment      1: Step Time =    1.000,"P-29-1",          1258,       163.272,       138.045,            0.,NA,NA,"",   1.41030E+06,   1.27486E+06,   1.27486E+06
C:/temp/Job-29.odb,Step-1,Increment      1: Step Time =    1.000,"P-29-1",          1259,       45.4097,       67.1842,            0.,NA,NA,"",   952.968E+03,   831.423E+03,   831.423E+03
C:/temp/Job-29.odb,Step-1,Increment      1: Step Time =    1.000,"P-29-1",          1260,       45.4050,       130.970,            0.,NA,NA,"",   907.540E+03,   785.335E+03,   785.335E+03
C:/temp/Job-29.odb,Step-1,Increment      1: Step Time =    1.000,"P-29-1",          1261,       49.9334,       14.9515,            0.,NA,NA,"",   1.49849E+06,   1.46985E+06,   1.46985E+06
C:/temp/Job-29.odb,Step-1,Increment      1: Step Time =    1.000,"P-29-1",          1262,       14.8181,       150.215,            0.,NA,NA,"",   950.761E+03,   1.01280E+06,   1.01280E+06
C:/temp/Job-29.odb,Step-1,Increment      1: Step Time =    1.000,"P-29-1",          1263,       184.392,       49.3250,            0.,NA,NA,"",   1.06204E+06,   1.10368E+06,   1.10368E+06
C:/temp/Job-29.odb,Step-1,Increment      1: Step Time =    1.000,"P-29-1",          1264,       50.4310,       181.487,            0.,NA,NA,"",   1.50836E+06,   1.47037E+06,   1.47037E+06
C:/temp/Job-29.odb,Step-1,Increment      1: Step Time =    1.000,"P-29-1",          1265,       150.653,       184.113,            0.,NA,NA,"",   1.11803E+06,   1.09836E+06,   1.09836E+06
C:/temp/Job-29.odb,Step-1,Increment      1: Step Time =    1.000,"P-29-1",          1266,       181.372,       149.376,            0.,NA,NA,"",   1.10494E+06,   1.13242E+06,   1.13242E+06
C:/temp/Job-29.odb,Step-1,Increment      1: Step Time =    1.000,"P-29-1",          1267,       43.6776,       52.6691,            0.,NA,NA,"",   1.28810E+06,   1.19057E+06,   1.19057E+06
C:/temp/Job-29.odb,Step-1,Increment      1: Step Time =    1.000,"P-29-1",          1268,       67.7113,       158.214,            0.,NA,NA,"",   1.69557E+06,   1.61270E+06,   1.61270E+06
C:/temp/Job-29.odb,Step-1,Increment      1: Step Time =    1.000,"P-29-1",          1269,       60.7033,       164.681,            0.,NA,NA,"",   1.62035E+06,   1.53204E+06,   1.53204E+06
C:/temp/Job-29.odb,Step-1,Increment      1: Step Time =    1.000,"P-29-1",          1270,       46.9496,       135.326,            0.,NA,NA,"",   1.07132E+06,   941.474E+03,   941.474E+03
C:/temp/Job-29.odb,Step-1,Increment      1: Step Time =    1.000,"P-29-1",          1271,       151.150,       47.5660,            0.,NA,NA,"",   1.57742E+06,   1.44231E+06,   1.44231E+06
C:/temp/Job-29.odb,Step-1,Increment      1: Step Time =    1.000,"P-29-1",          1272,       59.6204,       41.7228,            0.,NA,NA,"",   1.63564E+06,   1.52821E+06,   1.52821E+06
C:/temp/Job-29.odb,Step-1,Increment      1: Step Time =    1.000,"P-29-1",          1273,       61.2842,       44.3487,            0.,NA,NA,"",   1.65011E+06,   1.53915E+06,   1.53915E+06
C:/temp/Job-29.odb,Step-1,Increment      1: Step Time =    1.000,"P-29-1",          1274,       47.6220,       153.930,            0.,NA,NA,"",   1.44599E+06,   1.34287E+06,   1.34287E+06
C:/temp/Job-29.odb,Step-1,Increment      1: Step Time =    1.000,"P-29-1",          1275,       154.689,       49.3055,            0.,NA,NA,"",   1.54080E+06,   1.40460E+06,   1.40460E+06
C:/temp/Job-29.odb,Step-1,Increment      1: Step Time =    1.000,"P-29-1",          1276,       152.800,       43.5525,            0.,NA,NA,"",   1.51107E+06,   1.40035E+06,   1.40035E+06
C:/temp/Job-29.odb,Step-1,Increment      1: Step Time =    1.000,"P-29-1",          1277,       55.2576,       37.8930,            0.,NA,NA,"",   1.58710E+06,   1.48811E+06,   1.48811E+06
C:/temp/Job-29.odb,Step-1,Increment      1: Step Time =    1.000,"P-29-1",          1278,       38.0348,       146.892,            0.,NA,NA,"",   1.18036E+06,   1.11838E+06,   1.11838E+06
C:/temp/Job-29.odb,Step-1,Increment      1: Step Time =    1.000,"P-29-1",          1279,       46.7593,       159.412,            0.,NA,NA,"",   1.48827E+06,   1.39937E+06,   1.39937E+06
C:/temp/Job-29.odb,Step-1,Increment      1: Step Time =    1.000,"P-29-1",          1280,       53.8902,       48.0042,            0.,NA,NA,"",   1.51744E+06,   1.39357E+06,   1.39357E+06
C:/temp/Job-29.odb,Step-1,Increment      1: Step Time =    1.000,"P-29-1",          1281,       38.8716,       63.6951,            0.,NA,NA,"",   952.328E+03,   882.703E+03,   882.703E+03
C:/temp/Job-29.odb,Step-1,Increment      1: Step Time =    1.000,"P-29-1",          1282,       133.189,       32.2769,            0.,NA,NA,"",   1.42610E+06,   1.41349E+06,   1.41349E+06
C:/temp/Job-29.odb,Step-1,Increment      1: Step Time =    1.000,"P-29-1",          1283,       66.9855,       165.125,            0.,NA,NA,"",   1.64144E+06,   1.56877E+06,   1.56877E+06
C:/temp/Job-29.odb,Step-1,Increment      1: Step Time =    1.000,"P-29-1",          1284,       151.604,       162.255,            0.,NA,NA,"",   1.43941E+06,   1.35633E+06,   1.35633E+06
C:/temp/Job-29.odb,Step-1,Increment      1: Step Time =    1.000,"P-29-1",          1285,       37.7792,       151.452,            0.,NA,NA,"",   1.25945E+06,   1.20160E+06,   1.20160E+06
C:/temp/Job-29.odb,Step-1,Increment      1: Step Time =    1.000,"P-29-1",          1286,       164.761,       46.8156,            0.,NA,NA,"",   1.36377E+06,   1.28539E+06,   1.28539E+06
C:/temp/Job-29.odb,Step-1,Increment      1: Step Time =    1.000,"P-29-1",          1287,       50.8967,       38.4417,            0.,NA,NA,"",   1.54217E+06,   1.44713E+06,   1.44713E+06
C:/temp/Job-29.odb,Step-1,Increment      1: Step Time =    1.000,"P-29-1",          1288,       161.494,       147.038,            0.,NA,NA,"",   1.45987E+06,   1.33723E+06,   1.33723E+06
C:/temp/Job-29.odb,Step-1,Increment      1: Step Time =    1.000,"P-29-1",          1289,       46.8639,       72.1017,            0.,NA,NA,"",   814.827E+03,   675.000E+03,   675.000E+03
C:/temp/Job-29.odb,Step-1,Increment      1: Step Time =    1.000,"P-29-1",          1290,       47.2890,       127.836,            0.,NA,NA,"",   825.902E+03,    682.44E+03,    682.44E+03
C:/temp/Job-29.odb,Step-1,Increment      1: Step Time =    1.000,"P-29-1",          1291,       43.0038,       14.6717,            0.,NA,NA,"",   1.52467E+06,   1.50267E+06,   1.50267E+06
C:/temp/Job-29.odb,Step-1,Increment      1: Step Time =    1.000,"P-29-1",          1292,       14.3457,       157.117,            0.,NA,NA,"",   1.06295E+06,   1.13034E+06,   1.13034E+06
C:/temp/Job-29.odb,Step-1,Increment      1: Step Time =    1.000,"P-29-1",          1293,       185.451,       43.2767,            0.,NA,NA,"",   1.04408E+06,   1.08078E+06,   1.08078E+06
C:/temp/Job-29.odb,Step-1,Increment      1: Step Time =    1.000,"P-29-1",          1294,       156.641,       185.027,            0.,NA,NA,"",   1.09642E+06,   1.08004E+06,   1.08004E+06
C:/temp/Job-29.odb,Step-1,Increment      1: Step Time =    1.000,"P-29-1",          1295,       56.2192,       164.664,            0.,NA,NA,"",   1.59304E+06,   1.50237E+06,   1.50237E+06
C:/temp/Job-29.odb,Step-1,Increment      1: Step Time =    1.000,"P-29-1",          1296,       45.9864,       50.5248,            0.,NA,NA,"",   1.35623E+06,   1.25247E+06,   1.25247E+06
C:/temp/Job-29.odb,Step-1,Increment      1: Step Time =    1.000,"P-29-1",          1297,       24.3288,       160.915,            0.,NA,NA,"",   1.24488E+06,   1.26034E+06,   1.26034E+06
C:/temp/Job-29.odb,Step-1,Increment      1: Step Time =    1.000,"P-29-1",          1298,       159.961,       176.349,            0.,NA,NA,"",   1.18604E+06,   1.15528E+06,   1.15528E+06
C:/temp/Job-29.odb,Step-1,Increment      1: Step Time =    1.000,"P-29-1",          1299,       177.252,       39.8856,            0.,NA,NA,"",   1.14125E+06,   1.13806E+06,   1.13806E+06
C:/temp/Job-29.odb,Step-1,Increment      1: Step Time =    1.000,"P-29-1",          1300,       39.9889,       23.4122,            0.,NA,NA,"",   1.52082E+06,   1.48477E+06,   1.48477E+06
C:/temp/Job-29.odb,Step-1,Increment      1: Step Time =    1.000,"P-29-1",          1301,       37.2408,       155.623,            0.,NA,NA,"",   1.31703E+06,   1.26514E+06,   1.26514E+06
C:/temp/Job-29.odb,Step-1,Increment      1: Step Time =    1.000,"P-29-1",          1302,       156.469,       162.173,            0.,NA,NA,"",   1.39214E+06,   1.31377E+06,   1.31377E+06
C:/temp/Job-29.odb,Step-1,Increment      1: Step Time =    1.000,"P-29-1",          1303,       46.4091,       39.1210,            0.,NA,NA,"",   1.48903E+06,   1.40489E+06,   1.40489E+06
C:/temp/Job-29.odb,Step-1,Increment      1: Step Time =    1.000,"P-29-1",          1304,       167.152,       43.1569,            0.,NA,NA,"",   1.30040E+06,   1.24429E+06,   1.24429E+06
C:/temp/Job-29.odb,Step-1,Increment      1: Step Time =    1.000,"P-29-1",          1305,       153.024,       152.481,            0.,NA,NA,"",   1.55433E+06,   1.42372E+06,   1.42372E+06
C:/temp/Job-29.odb,Step-1,Increment      1: Step Time =    1.000,"P-29-1",          1306,       44.0458,       98.4128,            0.,NA,NA,"",   130.660E+03,  -77.9691E+03,  -77.9691E+03
C:/temp/Job-29.odb,Step-1,Increment      1: Step Time =    1.000,"P-29-1",          1307,       158.587,       153.076,            0.,NA,NA,"",   1.46137E+06,   1.35196E+06,   1.35196E+06
C:/temp/Job-29.odb,Step-1,Increment      1: Step Time =    1.000,"P-29-1",          1308,       152.022,       157.153,            0.,NA,NA,"",   1.50849E+06,   1.40190E+06,   1.40190E+06
C:/temp/Job-29.odb,Step-1,Increment      1: Step Time =    1.000,"P-29-1",          1309,       139.246,       159.450,            0.,NA,NA,"",   1.58262E+06,   1.51559E+06,   1.51559E+06
C:/temp/Job-29.odb,Step-1,Increment      1: Step Time =    1.000,"P-29-1",          1310,       148.058,       41.8464,            0.,NA,NA,"",   1.54214E+06,   1.43994E+06,   1.43994E+06
C:/temp/Job-29.odb,Step-1,Increment      1: Step Time =    1.000,"P-29-1",          1311,       55.8303,       43.5081,            0.,NA,NA,"",   1.58314E+06,   1.46837E+06,   1.46837E+06
C:/temp/Job-29.odb,Step-1,Increment      1: Step Time =    1.000,"P-29-1",          1312,       43.9075,       143.143,            0.,NA,NA,"",   1.19968E+06,   1.10089E+06,   1.10089E+06
C:/temp/Job-29.odb,Step-1,Increment      1: Step Time =    1.000,"P-29-1",          1313,       49.5979,       163.834,            0.,NA,NA,"",   1.54353E+06,   1.45713E+06,   1.45713E+06
C:/temp/Job-29.odb,Step-1,Increment      1: Step Time =    1.000,"P-29-1",          1314,       40.5796,       68.5741,            0.,NA,NA,"",   837.910E+03,   758.238E+03,   758.238E+03
C:/temp/Job-29.odb,Step-1,Increment      1: Step Time =    1.000,"P-29-1",          1315,       36.9883,       58.5602,            0.,NA,NA,"",   1.05507E+06,   996.624E+03,   996.624E+03
C:/temp/Job-29.odb,Step-1,Increment      1: Step Time =    1.000,"P-29-1",          1316,       165.373,       51.5540,            0.,NA,NA,"",   1.38136E+06,   1.29134E+06,   1.29134E+06
C:/temp/Job-29.odb,Step-1,Increment      1: Step Time =    1.000,"P-29-1",          1317,       28.5851,       162.557,            0.,NA,NA,"",   1.31706E+06,   1.31134E+06,   1.31134E+06
C:/temp/Job-29.odb,Step-1,Increment      1: Step Time =    1.000,"P-29-1",          1318,       161.344,       170.347,            0.,NA,NA,"",   1.25017E+06,   1.20688E+06,   1.20688E+06
C:/temp/Job-29.odb,Step-1,Increment      1: Step Time =    1.000,"P-29-1",          1319,       171.567,       38.2922,            0.,NA,NA,"",   1.21248E+06,   1.18394E+06,   1.18394E+06
C:/temp/Job-29.odb,Step-1,Increment      1: Step Time =    1.000,"P-29-1",          1320,       36.2624,       27.5015,            0.,NA,NA,"",   1.48733E+06,   1.45566E+06,   1.45566E+06
C:/temp/Job-29.odb,Step-1,Increment      1: Step Time =    1.000,"P-29-1",          1321,       138.067,       38.9578,            0.,NA,NA,"",   1.56040E+06,   1.50619E+06,   1.50619E+06
C:/temp/Job-29.odb,Step-1,Increment      1: Step Time =    1.000,"P-29-1",          1322,       161.042,       46.5971,            0.,NA,NA,"",   1.42395E+06,   1.32633E+06,   1.32633E+06
C:/temp/Job-29.odb,Step-1,Increment      1: Step Time =    1.000,"P-29-1",          1323,       32.8501,       158.963,            0.,NA,NA,"",   1.31217E+06,   1.28246E+06,   1.28246E+06
C:/temp/Job-29.odb,Step-1,Increment      1: Step Time =    1.000,"P-29-1",          1324,       159.862,       161.953,            0.,NA,NA,"",   1.35840E+06,   1.28681E+06,   1.28681E+06
C:/temp/Job-29.odb,Step-1,Increment      1: Step Time =    1.000,"P-29-1",          1325,       41.7553,       35.0695,            0.,NA,NA,"",   1.47193E+06,   1.40886E+06,   1.40886E+06
C:/temp/Job-29.odb,Step-1,Increment      1: Step Time =    1.000,"P-29-1",          1326,       165.700,       38.2701,            0.,NA,NA,"",   1.28633E+06,   1.23441E+06,   1.23441E+06
C:/temp/Job-29.odb,Step-1,Increment      1: Step Time =    1.000,"P-29-1",          1327,       48.6927,       48.1359,            0.,NA,NA,"",   1.43846E+06,    1.3282E+06,    1.3282E+06
C:/temp/Job-29.odb,Step-1,Increment      1: Step Time =    1.000,"P-29-1",          1328,       42.5998,       152.635,            0.,NA,NA,"",   1.35305E+06,   1.27008E+06,   1.27008E+06
C:/temp/Job-29.odb,Step-1,Increment      1: Step Time =    1.000,"P-29-1",          1329,       50.9464,       129.244,            0.,NA,NA,"",   922.228E+03,   756.121E+03,   756.121E+03
C:/temp/Job-29.odb,Step-1,Increment      1: Step Time =    1.000,"P-29-1",          1330,       43.4144,       47.7212,            0.,NA,NA,"",   1.35997E+06,   1.27235E+06,   1.27235E+06
C:/temp/Job-29.odb,Step-1,Increment      1: Step Time =    1.000,"P-29-1",          1331,       141.729,       165.700,            0.,NA,NA,"",   1.45818E+06,   1.40233E+06,   1.40233E+06
C:/temp/Job-29.odb,Step-1,Increment      1: Step Time =    1.000,"P-29-1",          1332,       186.590,       46.9384,            0.,NA,NA,"",   1.03012E+06,   1.07965E+06,   1.07965E+06
C:/temp/Job-29.odb,Step-1,Increment      1: Step Time =    1.000,"P-29-1",          1333,       153.047,       186.253,            0.,NA,NA,"",   1.08496E+06,   1.06957E+06,   1.06957E+06
C:/temp/Job-29.odb,Step-1,Increment      1: Step Time =    1.000,"P-29-1",          1334,       37.0343,       22.9270,            0.,NA,NA,"",   1.51614E+06,   1.48749E+06,   1.48749E+06
C:/temp/Job-29.odb,Step-1,Increment      1: Step Time =    1.000,"P-29-1",          1335,       22.7588,       164.211,            0.,NA,NA,"",   1.27811E+06,   1.30229E+06,   1.30229E+06
C:/temp/Job-29.odb,Step-1,Increment      1: Step Time =    1.000,"P-29-1",          1336,       178.295,       33.7324,            0.,NA,NA,"",   1.10781E+06,   1.10799E+06,   1.10799E+06
C:/temp/Job-29.odb,Step-1,Increment      1: Step Time =    1.000,"P-29-1",          1337,       166.075,       177.611,            0.,NA,NA,"",   1.13816E+06,   1.11815E+06,   1.11815E+06
C:/temp/Job-29.odb,Step-1,Increment      1: Step Time =    1.000,"P-29-1",          1338,       54.6198,       131.238,            0.,NA,NA,"",   1.03204E+06,   857.153E+03,   857.153E+03
C:/temp/Job-29.odb,Step-1,Increment      1: Step Time =    1.000,"P-29-1",          1339,       149.772,       37.1518,            0.,NA,NA,"",   1.45432E+06,   1.37373E+06,   1.37373E+06
C:/temp/Job-29.odb,Step-1,Increment      1: Step Time =    1.000,"P-29-1",          1340,       143.076,       40.5143,            0.,NA,NA,"",   1.56074E+06,   1.47694E+06,   1.47694E+06
C:/temp/Job-29.odb,Step-1,Increment      1: Step Time =    1.000,"P-29-1",          1341,       57.8099,       169.247,            0.,NA,NA,"",   1.58083E+06,   1.50380E+06,   1.50380E+06
C:/temp/Job-29.odb,Step-1,Increment      1: Step Time =    1.000,"P-29-1",          1342,       139.281,       33.8803,            0.,NA,NA,"",   1.45270E+06,   1.40761E+06,   1.40761E+06
C:/temp/Job-29.odb,Step-1,Increment      1: Step Time =    1.000,"P-29-1",          1343,       46.3919,       44.2158,            0.,NA,NA,"",   1.44487E+06,   1.35142E+06,   1.35142E+06
C:/temp/Job-29.odb,Step-1,Increment      1: Step Time =    1.000,"P-29-1",          1344,       37.5904,       46.6830,            0.,NA,NA,"",   1.29040E+06,   1.23471E+06,   1.23471E+06
C:/temp/Job-29.odb,Step-1,Increment      1: Step Time =    1.000,"P-29-1",          1345,       30.8174,       27.0588,            0.,NA,NA,"",   1.46419E+06,   1.45039E+06,   1.45039E+06
C:/temp/Job-29.odb,Step-1,Increment      1: Step Time =    1.000,"P-29-1",          1346,       33.6999,       18.3826,            0.,NA,NA,"",   1.54034E+06,   1.52545E+06,   1.52545E+06
C:/temp/Job-29.odb,Step-1,Increment      1: Step Time =    1.000,"P-29-1",          1347,       27.4088,       167.053,            0.,NA,NA,"",   1.36738E+06,   1.36862E+06,   1.36862E+06
C:/temp/Job-29.odb,Step-1,Increment      1: Step Time =    1.000,"P-29-1",          1348,       17.1059,       166.132,            0.,NA,NA,"",   1.25235E+06,    1.3083E+06,    1.3083E+06
C:/temp/Job-29.odb,Step-1,Increment      1: Step Time =    1.000,"P-29-1",          1349,       172.257,       32.0424,            0.,NA,NA,"",   1.16495E+06,   1.14593E+06,   1.14593E+06
C:/temp/Job-29.odb,Step-1,Increment      1: Step Time =    1.000,"P-29-1",          1350,       182.638,       37.4430,            0.,NA,NA,"",   1.07315E+06,   1.08912E+06,   1.08912E+06
C:/temp/Job-29.odb,Step-1,Increment      1: Step Time =    1.000,"P-29-1",          1351,       164.259,       173.870,            0.,NA,NA,"",   1.18589E+06,   1.15664E+06,   1.15664E+06
C:/temp/Job-29.odb,Step-1,Increment      1: Step Time =    1.000,"P-29-1",          1352,       162.146,       181.782,            0.,NA,NA,"",   1.11982E+06,   1.10118E+06,   1.10118E+06
C:/temp/Job-29.odb,Step-1,Increment      1: Step Time =    1.000,"P-29-1",          1353,       162.928,       150.251,            0.,NA,NA,"",   1.41389E+06,   1.31435E+06,   1.31435E+06
C:/temp/Job-29.odb,Step-1,Increment      1: Step Time =    1.000,"P-29-1",          1354,       164.778,       56.6309,            0.,NA,NA,"",   1.40056E+06,   1.29159E+06,   1.29159E+06
C:/temp/Job-29.odb,Step-1,Increment      1: Step Time =    1.000,"P-29-1",          1355,       164.636,       161.739,            0.,NA,NA,"",   1.29750E+06,   1.24205E+06,   1.24205E+06
C:/temp/Job-29.odb,Step-1,Increment      1: Step Time =    1.000,"P-29-1",          1356,       33.0855,       162.933,            0.,NA,NA,"",   1.36984E+06,   1.34227E+06,   1.34227E+06
C:/temp/Job-29.odb,Step-1,Increment      1: Step Time =    1.000,"P-29-1",          1357,       37.0569,       31.4614,            0.,NA,NA,"",   1.45868E+06,   1.41943E+06,   1.41943E+06
C:/temp/Job-29.odb,Step-1,Increment      1: Step Time =    1.000,"P-29-1",          1358,       164.704,       30.1857,            0.,NA,NA,"",   1.22218E+06,   1.18601E+06,   1.18601E+06
C:/temp/Job-29.odb,Step-1,Increment      1: Step Time =    1.000,"P-29-1",          1359,       170.802,       161.226,            0.,NA,NA,"",   1.22068E+06,   1.19004E+06,   1.19004E+06
C:/temp/Job-29.odb,Step-1,Increment      1: Step Time =    1.000,"P-29-1",          1360,       32.8828,       36.5541,            0.,NA,NA,"",   1.37195E+06,   1.34587E+06,   1.34587E+06
C:/temp/Job-29.odb,Step-1,Increment      1: Step Time =    1.000,"P-29-1",          1361,       36.9629,       172.337,            0.,NA,NA,"",   1.48714E+06,   1.45379E+06,   1.45379E+06
C:/temp/Job-29.odb,Step-1,Increment      1: Step Time =    1.000,"P-29-1",          1362,       153.769,       148.301,            0.,NA,NA,"",   1.57750E+06,   1.42491E+06,   1.42491E+06
C:/temp/Job-29.odb,Step-1,Increment      1: Step Time =    1.000,"P-29-1",          1363,       35.2983,       53.0609,            0.,NA,NA,"",   1.13847E+06,   1.09298E+06,   1.09298E+06
C:/temp/Job-29.odb,Step-1,Increment      1: Step Time =    1.000,"P-29-1",          1364,       163.016,       156.111,            0.,NA,NA,"",   1.36891E+06,   1.29038E+06,   1.29038E+06
C:/temp/Job-29.odb,Step-1,Increment      1: Step Time =    1.000,"P-29-1",          1365,       161.141,       159.271,            0.,NA,NA,"",   1.36751E+06,   1.29139E+06,   1.29139E+06
C:/temp/Job-29.odb,Step-1,Increment      1: Step Time =    1.000,"P-29-1",          1366,       38.5393,       162.153,            0.,NA,NA,"",   1.41667E+06,   1.36390E+06,   1.36390E+06
C:/temp/Job-29.odb,Step-1,Increment      1: Step Time =    1.000,"P-29-1",          1367,       161.597,       35.8959,            0.,NA,NA,"",   1.31333E+06,   1.25464E+06,   1.25464E+06
C:/temp/Job-29.odb,Step-1,Increment      1: Step Time =    1.000,"P-29-1",          1368,       38.3975,       40.3301,            0.,NA,NA,"",   1.38537E+06,   1.33025E+06,   1.33025E+06
C:/temp/Job-29.odb,Step-1,Increment      1: Step Time =    1.000,"P-29-1",          1369,       161.182,       50.9733,            0.,NA,NA,"",   1.44977E+06,   1.33458E+06,   1.33458E+06
C:/temp/Job-29.odb,Step-1,Increment      1: Step Time =    1.000,"P-29-1",          1370,       154.770,       39.0854,            0.,NA,NA,"",   1.43062E+06,   1.34449E+06,   1.34449E+06
C:/temp/Job-29.odb,Step-1,Increment      1: Step Time =    1.000,"P-29-1",          1371,       34.6789,       48.0571,            0.,NA,NA,"",   1.22412E+06,   1.18249E+06,   1.18249E+06
C:/temp/Job-29.odb,Step-1,Increment      1: Step Time =    1.000,"P-29-1",          1372,       169.901,       27.9723,            0.,NA,NA,"",   1.15569E+06,   1.13566E+06,   1.13566E+06
C:/temp/Job-29.odb,Step-1,Increment      1: Step Time =    1.000,"P-29-1",          1373,       171.593,       167.357,            0.,NA,NA,"",   1.17507E+06,   1.15367E+06,   1.15367E+06
C:/temp/Job-29.odb,Step-1,Increment      1: Step Time =    1.000,"P-29-1",          1374,       27.0055,       27.8766,            0.,NA,NA,"",   1.43249E+06,   1.43493E+06,   1.43493E+06
C:/temp/Job-29.odb,Step-1,Increment      1: Step Time =    1.000,"P-29-1",          1375,       32.5112,       172.130,            0.,NA,NA,"",   1.46412E+06,   1.44533E+06,   1.44533E+06
C:/temp/Job-29.odb,Step-1,Increment      1: Step Time =    1.000,"P-29-1",          1376,       165.631,       153.203,            0.,NA,NA,"",   1.35401E+06,   1.27863E+06,   1.27863E+06
C:/temp/Job-29.odb,Step-1,Increment      1: Step Time =    1.000,"P-29-1",          1377,       173.622,       25.9748,            0.,NA,NA,"",   1.10964E+06,   1.10058E+06,   1.10058E+06
C:/temp/Job-29.odb,Step-1,Increment      1: Step Time =    1.000,"P-29-1",          1378,       165.043,       24.2674,            0.,NA,NA,"",   1.15956E+06,   1.13571E+06,   1.13571E+06
C:/temp/Job-29.odb,Step-1,Increment      1: Step Time =    1.000,"P-29-1",          1379,       175.604,       163.894,            0.,NA,NA,"",   1.14632E+06,   1.13706E+06,   1.13706E+06
C:/temp/Job-29.odb,Step-1,Increment      1: Step Time =    1.000,"P-29-1",          1380,       171.176,       176.839,            0.,NA,NA,"",   1.10974E+06,   1.09790E+06,   1.09790E+06
C:/temp/Job-29.odb,Step-1,Increment      1: Step Time =    1.000,"P-29-1",          1381,       26.3557,       24.1607,            0.,NA,NA,"",   1.47619E+06,   1.48182E+06,   1.48182E+06
C:/temp/Job-29.odb,Step-1,Increment      1: Step Time =    1.000,"P-29-1",          1382,       28.0825,       36.4640,            0.,NA,NA,"",   1.32556E+06,   1.32224E+06,   1.32224E+06
C:/temp/Job-29.odb,Step-1,Increment      1: Step Time =    1.000,"P-29-1",          1383,       28.0659,       172.256,            0.,NA,NA,"",   1.44033E+06,   1.43848E+06,   1.43848E+06
C:/temp/Job-29.odb,Step-1,Increment      1: Step Time =    1.000,"P-29-1",          1384,       36.6241,       177.079,            0.,NA,NA,"",   1.51355E+06,   1.48758E+06,   1.48758E+06
C:/temp/Job-29.odb,Step-1,Increment      1: Step Time =    1.000,"P-29-1",          1385,       29.9835,       46.9141,            0.,NA,NA,"",   1.18019E+06,   1.16469E+06,   1.16469E+06
C:/temp/Job-29.odb,Step-1,Increment      1: Step Time =    1.000,"P-29-1",          1386,       175.483,       21.2913,            0.,NA,NA,"",   1.07105E+06,   1.06758E+06,   1.06758E+06
C:/temp/Job-29.odb,Step-1,Increment      1: Step Time =    1.000,"P-29-1",          1387,       158.581,       27.5434,            0.,NA,NA,"",   1.24055E+06,   1.19993E+06,   1.19993E+06
C:/temp/Job-29.odb,Step-1,Increment      1: Step Time =    1.000,"P-29-1",          1388,       172.432,       157.576,            0.,NA,NA,"",   1.21833E+06,   1.19133E+06,   1.19133E+06
C:/temp/Job-29.odb,Step-1,Increment      1: Step Time =    1.000,"P-29-1",          1389,       176.142,       174.477,            0.,NA,NA,"",   1.08700E+06,   1.08349E+06,   1.08349E+06
C:/temp/Job-29.odb,Step-1,Increment      1: Step Time =    1.000,"P-29-1",          1390,       22.3519,       24.6181,            0.,NA,NA,"",   1.45221E+06,   1.47467E+06,   1.47467E+06
C:/temp/Job-29.odb,Step-1,Increment      1: Step Time =    1.000,"P-29-1",          1391,       27.8204,       41.1483,            0.,NA,NA,"",   1.25217E+06,   1.24979E+06,   1.24979E+06
C:/temp/Job-29.odb,Step-1,Increment      1: Step Time =    1.000,"P-29-1",          1392,       41.2195,       172.724,            0.,NA,NA,"",   1.50730E+06,   1.46219E+06,   1.46219E+06
C:/temp/Job-29.odb,Step-1,Increment      1: Step Time =    1.000,"P-29-1",          1393,       24.3088,       177.285,            0.,NA,NA,"",   1.48265E+06,   1.49629E+06,   1.49629E+06
C:/temp/Job-29.odb,Step-1,Increment      1: Step Time =    1.000,"P-29-1",          1394,       164.788,       19.3206,            0.,NA,NA,"",   1.11365E+06,   1.09736E+06,   1.09736E+06
C:/temp/Job-29.odb,Step-1,Increment      1: Step Time =    1.000,"P-29-1",          1395,       18.6443,       35.8323,            0.,NA,NA,"",   1.23350E+06,   1.28105E+06,   1.28105E+06
C:/temp/Job-29.odb,Step-1,Increment      1: Step Time =    1.000,"P-29-1",          1396,       181.304,       163.726,            0.,NA,NA,"",   1.08026E+06,   1.09189E+06,   1.09189E+06
C:/temp/Job-29.odb,Step-1,Increment      1: Step Time =    1.000,"P-29-1",          1397,       36.3592,       181.749,            0.,NA,NA,"",   1.53615E+06,   1.51703E+06,   1.51703E+06
C:/temp/Job-29.odb,Step-1,Increment      1: Step Time =    1.000,"P-29-1",          1398,       21.1789,       174.601,            0.,NA,NA,"",   1.43082E+06,   1.46042E+06,   1.46042E+06
C:/temp/Job-29.odb,Step-1,Increment      1: Step Time =    1.000,"P-29-1",          1399,       24.0695,       18.7702,            0.,NA,NA,"",   1.53702E+06,    1.5492E+06,    1.5492E+06
C:/temp/Job-29.odb,Step-1,Increment      1: Step Time =    1.000,"P-29-1",          1400,       177.686,       26.2669,            0.,NA,NA,"",   1.07857E+06,   1.07764E+06,   1.07764E+06
C:/temp/Job-29.odb,Step-1,Increment      1: Step Time =    1.000,"P-29-1",          1401,       48.7325,       168.886,            0.,NA,NA,"",   1.54478E+06,   1.47193E+06,   1.47193E+06
C:/temp/Job-29.odb,Step-1,Increment      1: Step Time =    1.000,"P-29-1",          1402,       170.180,       153.488,            0.,NA,NA,"",   1.27577E+06,   1.22990E+06,   1.22990E+06
C:/temp/Job-29.odb,Step-1,Increment      1: Step Time =    1.000,"P-29-1",          1403,       152.709,       27.0371,            0.,NA,NA,"",   1.27492E+06,   1.23014E+06,   1.23014E+06
C:/temp/Job-29.odb,Step-1,Increment      1: Step Time =    1.000,"P-29-1",          1404,       27.7273,       181.660,            0.,NA,NA,"",   1.54672E+06,   1.54628E+06,   1.54628E+06
C:/temp/Job-29.odb,Step-1,Increment      1: Step Time =    1.000,"P-29-1",          1405,       181.883,       172.232,            0.,NA,NA,"",   1.05615E+06,   1.06281E+06,   1.06281E+06
C:/temp/Job-29.odb,Step-1,Increment      1: Step Time =    1.000,"P-29-1",          1406,       18.2870,       24.1226,            0.,NA,NA,"",   1.43406E+06,   1.47770E+06,   1.47770E+06
C:/temp/Job-29.odb,Step-1,Increment      1: Step Time =    1.000,"P-29-1",          1407,       175.890,       17.8216,            0.,NA,NA,"",   1.05441E+06,   1.05183E+06,   1.05183E+06
C:/temp/Job-29.odb,Step-1,Increment      1: Step Time =    1.000,"P-29-1",          1408,       168.615,       13.9931,            0.,NA,NA,"",   1.05774E+06,   1.05072E+06,   1.05072E+06
C:/temp/Job-29.odb,Step-1,Increment      1: Step Time =    1.000,"P-29-1",          1409,       13.8052,       31.4855,            0.,NA,NA,"",   1.25250E+06,   1.32798E+06,   1.32798E+06
C:/temp/Job-29.odb,Step-1,Increment      1: Step Time =    1.000,"P-29-1",          1410,       186.283,       168.463,            0.,NA,NA,"",   1.02937E+06,   1.04751E+06,   1.04751E+06
C:/temp/Job-29.odb,Step-1,Increment      1: Step Time =    1.000,"P-29-1",          1411,       31.5005,       186.314,            0.,NA,NA,"",   1.57477E+06,   1.56775E+06,   1.56775E+06
C:/temp/Job-29.odb,Step-1,Increment      1: Step Time =    1.000,"P-29-1",          1412,       40.8978,       181.769,            0.,NA,NA,"",   1.52836E+06,   1.50194E+06,   1.50194E+06
C:/temp/Job-29.odb,Step-1,Increment      1: Step Time =    1.000,"P-29-1",          1413,       181.386,       159.068,            0.,NA,NA,"",   1.09146E+06,   1.10717E+06,   1.10717E+06
C:/temp/Job-29.odb,Step-1,Increment      1: Step Time =    1.000,"P-29-1",          1414,       18.8014,       39.6828,            0.,NA,NA,"",   1.17065E+06,   1.21690E+06,   1.21690E+06
C:/temp/Job-29.odb,Step-1,Increment      1: Step Time =    1.000,"P-29-1",          1415,       160.934,       20.2374,            0.,NA,NA,"",   1.14350E+06,   1.12115E+06,   1.12115E+06
C:/temp/Job-29.odb,Step-1,Increment      1: Step Time =    1.000,"P-29-1",          1416,       21.4199,       47.8716,            0.,NA,NA,"",   1.04949E+06,   1.08137E+06,   1.08137E+06
C:/temp/Job-29.odb,Step-1,Increment      1: Step Time =    1.000,"P-29-1",          1417,       46.8142,       166.196,            0.,NA,NA,"",   1.52814E+06,   1.45208E+06,   1.45208E+06
C:/temp/Job-29.odb,Step-1,Increment      1: Step Time =    1.000,"P-29-1",          1418,       168.622,       150.704,            0.,NA,NA,"",   1.31455E+06,   1.25306E+06,   1.25306E+06
C:/temp/Job-29.odb,Step-1,Increment      1: Step Time =    1.000,"P-29-1",          1419,       151.466,       32.1796,            0.,NA,NA,"",   1.36201E+06,   1.30066E+06,   1.30066E+06
C:/temp/Job-29.odb,Step-1,Increment      1: Step Time =    1.000,"P-29-1",          1420,       164.348,       14.6502,            0.,NA,NA,"",   1.07525E+06,   1.06430E+06,   1.06430E+06
C:/temp/Job-29.odb,Step-1,Increment      1: Step Time =    1.000,"P-29-1",          1421,       14.0680,       35.7670,            0.,NA,NA,"",   1.18199E+06,   1.25473E+06,   1.25473E+06
C:/temp/Job-29.odb,Step-1,Increment      1: Step Time =    1.000,"P-29-1",          1422,       186.214,       163.921,            0.,NA,NA,"",   1.03105E+06,   1.05658E+06,   1.05658E+06
C:/temp/Job-29.odb,Step-1,Increment      1: Step Time =    1.000,"P-29-1",          1423,       36.0597,       186.373,            0.,NA,NA,"",   1.55543E+06,   1.54309E+06,   1.54309E+06
C:/temp/Job-29.odb,Step-1,Increment      1: Step Time =    1.000,"P-29-1",          1424,       12.9644,       43.9468,            0.,NA,NA,"",   1.03670E+06,   1.11000E+06,   1.11000E+06
C:/temp/Job-29.odb,Step-1,Increment      1: Step Time =    1.000,"P-29-1",          1425,       25.2102,       14.9121,            0.,NA,NA,"",   1.58830E+06,   1.59447E+06,   1.59447E+06
C:/temp/Job-29.odb,Step-1,Increment      1: Step Time =    1.000,"P-29-1",          1426,       18.2602,       176.939,            0.,NA,NA,"",   1.45524E+06,   1.49814E+06,   1.49814E+06
C:/temp/Job-29.odb,Step-1,Increment      1: Step Time =    1.000,"P-29-1",          1427,       180.339,       25.1701,            0.,NA,NA,"",   1.05918E+06,   1.06193E+06,   1.06193E+06
C:/temp/Job-29.odb,Step-1,Increment      1: Step Time =    1.000,"P-29-1",          1428,       175.125,       179.820,            0.,NA,NA,"",   1.06615E+06,   1.06280E+06,   1.06280E+06
C:/temp/Job-29.odb,Step-1,Increment      1: Step Time =    1.000,"P-29-1",          1429,       147.658,       26.0197,            0.,NA,NA,"",   1.28247E+06,   1.24162E+06,   1.24162E+06
C:/temp/Job-29.odb,Step-1,Increment      1: Step Time =    1.000,"P-29-1",          1430,       172.511,       149.572,            0.,NA,NA,"",   1.25389E+06,   1.21748E+06,   1.21748E+06
C:/temp/Job-29.odb,Step-1,Increment      1: Step Time =    1.000,"P-29-1",          1431,       53.8737,       171.266,            0.,NA,NA,"",   1.55905E+06,   1.48806E+06,   1.48806E+06
C:/temp/Job-29.odb,Step-1,Increment      1: Step Time =    1.000,"P-29-1",          1432,       186.179,       172.921,            0.,NA,NA,"",   1.02703E+06,   1.03920E+06,   1.03920E+06
C:/temp/Job-29.odb,Step-1,Increment      1: Step Time =    1.000,"P-29-1",          1433,       27.0496,       186.198,            0.,NA,NA,"",   1.59195E+06,   1.59206E+06,   1.59206E+06
C:/temp/Job-29.odb,Step-1,Increment      1: Step Time =    1.000,"P-29-1",          1434,       13.7725,       27.2030,            0.,NA,NA,"",   1.33016E+06,   1.40516E+06,   1.40516E+06
C:/temp/Job-29.odb,Step-1,Increment      1: Step Time =    1.000,"P-29-1",          1435,       172.829,       13.7016,            0.,NA,NA,"",   1.04519E+06,   1.04131E+06,   1.04131E+06
C:/temp/Job-29.odb,Step-1,Increment      1: Step Time =    1.000,"P-29-1",          1436,       178.896,       182.793,            0.,NA,NA,"",   1.03810E+06,   1.03880E+06,   1.03880E+06
C:/temp/Job-29.odb,Step-1,Increment      1: Step Time =    1.000,"P-29-1",          1437,       183.244,       22.9021,            0.,NA,NA,"",   1.03529E+06,   1.04160E+06,   1.04160E+06
C:/temp/Job-29.odb,Step-1,Increment      1: Step Time =    1.000,"P-29-1",          1438,       16.8058,       180.052,            0.,NA,NA,"",   1.49867E+06,   1.54514E+06,   1.54514E+06
C:/temp/Job-29.odb,Step-1,Increment      1: Step Time =    1.000,"P-29-1",          1439,       23.1310,       12.0902,            0.,NA,NA,"",   1.62630E+06,   1.63375E+06,   1.63375E+06
C:/temp/Job-29.odb,Step-1,Increment      1: Step Time =    1.000,"P-29-1",          1440,       187.320,       29.7803,            0.,NA,NA,"",   1.01826E+06,   1.03574E+06,   1.03574E+06
C:/temp/Job-29.odb,Step-1,Increment      1: Step Time =    1.000,"P-29-1",          1441,       170.959,       186.783,            0.,NA,NA,"",   1.04539E+06,   1.04101E+06,   1.04101E+06
C:/temp/Job-29.odb,Step-1,Increment      1: Step Time =    1.000,"P-29-1",          1442,       29.1185,       13.3429,            0.,NA,NA,"",   1.58810E+06,   1.58498E+06,   1.58498E+06
C:/temp/Job-29.odb,Step-1,Increment      1: Step Time =    1.000,"P-29-1",          1443,       12.2909,       169.520,            0.,NA,NA,"",   1.25489E+06,   1.33917E+06,   1.33917E+06
C:/temp/Job-29.odb,Step-1,Increment      1: Step Time =    1.000,"P-29-1",          1444,       26.2951,       190.751,            0.,NA,NA,"",   1.63099E+06,   1.63101E+06,   1.63101E+06
C:/temp/Job-29.odb,Step-1,Increment      1: Step Time =    1.000,"P-29-1",          1445,       190.694,       173.697,            0.,NA,NA,"",   1.00540E+06,   1.01923E+06,   1.01923E+06
C:/temp/Job-29.odb,Step-1,Increment      1: Step Time =    1.000,"P-29-1",          1446,       173.497,       9.30531,            0.,NA,NA,"",   1.02251E+06,   1.02061E+06,   1.02061E+06
C:/temp/Job-29.odb,Step-1,Increment      1: Step Time =    1.000,"P-29-1",          1447,       9.28218,       26.4471,            0.,NA,NA,"",   1.28926E+06,   1.39224E+06,   1.39224E+06
C:/temp/Job-29.odb,Step-1,Increment      1: Step Time =    1.000,"P-29-1",          1448,       185.671,       177.166,            0.,NA,NA,"",   1.02416E+06,   1.03206E+06,   1.03206E+06
C:/temp/Job-29.odb,Step-1,Increment      1: Step Time =    1.000,"P-29-1",          1449,       22.7217,       185.893,            0.,NA,NA,"",   1.60489E+06,   1.61496E+06,   1.61496E+06
C:/temp/Job-29.odb,Step-1,Increment      1: Step Time =    1.000,"P-29-1",          1450,       176.967,       13.9194,            0.,NA,NA,"",   1.03467E+06,   1.03350E+06,   1.03350E+06
C:/temp/Job-29.odb,Step-1,Increment      1: Step Time =    1.000,"P-29-1",          1451,       14.0655,       23.0100,            0.,NA,NA,"",   1.41433E+06,   1.48439E+06,   1.48439E+06
C:/temp/Job-29.odb,Step-1,Increment      1: Step Time =    1.000,"P-29-1",          1452,       174.160,       189.031,            0.,NA,NA,"",   1.02735E+06,   1.02580E+06,   1.02580E+06
C:/temp/Job-29.odb,Step-1,Increment      1: Step Time =    1.000,"P-29-1",          1453,       180.473,       179.370,            0.,NA,NA,"",   1.04473E+06,   1.04670E+06,   1.04670E+06
C:/temp/Job-29.odb,Step-1,Increment      1: Step Time =    1.000,"P-29-1",          1454,       181.360,       20.2762,            0.,NA,NA,"",   1.03810E+06,   1.04129E+06,   1.04129E+06
C:/temp/Job-29.odb,Step-1,Increment      1: Step Time =    1.000,"P-29-1",          1455,       189.287,       26.3536,            0.,NA,NA,"",   1.00752E+06,   1.02169E+06,   1.02169E+06
C:/temp/Job-29.odb,Step-1,Increment      1: Step Time =    1.000,"P-29-1",          1456,       20.1218,       181.069,            0.,NA,NA,"",   1.52184E+06,   1.55153E+06,   1.55153E+06
C:/temp/Job-29.odb,Step-1,Increment      1: Step Time =    1.000,"P-29-1",          1457,       12.0534,       173.567,            0.,NA,NA,"",   1.32822E+06,   1.41373E+06,   1.41373E+06
C:/temp/Job-29.odb,Step-1,Increment      1: Step Time =    1.000,"P-29-1",          1458,       18.7767,       20.8808,            0.,NA,NA,"",   1.49446E+06,   1.53083E+06,   1.53083E+06
C:/temp/Job-29.odb,Step-1,Increment      1: Step Time =    1.000,"P-29-1",          1459,       25.9801,       11.0186,            0.,NA,NA,"",   1.62109E+06,   1.62196E+06,   1.62196E+06
C:/temp/Job-29.odb,Step-1,Increment      1: Step Time =    1.000,"P-29-1",          1460,       187.329,       34.1009,            0.,NA,NA,"",   1.01998E+06,   1.04468E+06,   1.04468E+06
C:/temp/Job-29.odb,Step-1,Increment      1: Step Time =    1.000,"P-29-1",          1461,       165.982,       186.487,            0.,NA,NA,"",   1.05936E+06,   1.05140E+06,   1.05140E+06
C:/temp/Job-29.odb,Step-1,Increment      1: Step Time =    1.000,"P-29-1",          1462,       34.0080,       13.7402,            0.,NA,NA,"",   1.56320E+06,   1.55292E+06,   1.55292E+06
C:/temp/Job-29.odb,Step-1,Increment      1: Step Time =    1.000,"P-29-1",          1463,       12.8469,       165.399,            0.,NA,NA,"",   1.19027E+06,   1.26977E+06,   1.26977E+06
C:/temp/Job-29.odb,Step-1,Increment      1: Step Time =    1.000,"P-29-1",          1464,       184.183,       16.9136,            0.,NA,NA,"",   1.02026E+06,   1.02422E+06,   1.02422E+06
C:/temp/Job-29.odb,Step-1,Increment      1: Step Time =    1.000,"P-29-1",          1465,       183.194,       184.523,            0.,NA,NA,"",   1.02102E+06,   1.02371E+06,   1.02371E+06
C:/temp/Job-29.odb,Step-1,Increment      1: Step Time =    1.000,"P-29-1",          1466,       16.6766,       15.7962,            0.,NA,NA,"",   1.58736E+06,   1.62460E+06,   1.62460E+06
C:/temp/Job-29.odb,Step-1,Increment      1: Step Time =    1.000,"P-29-1",          1467,       15.1887,       183.788,            0.,NA,NA,"",   1.57489E+06,   1.62194E+06,   1.62194E+06
C:/temp/Job-29.odb,Step-1,Increment      1: Step Time =    1.000,"P-29-1",          1468,       25.9237,       7.95811,            0.,NA,NA,"",   1.64410E+06,   1.64390E+06,   1.64390E+06
C:/temp/Job-29.odb,Step-1,Increment      1: Step Time =    1.000,"P-29-1",          1469,       192.336,       26.0776,            0.,NA,NA,"",   999.930E+03,   1.01295E+06,   1.01295E+06
C:/temp/Job-29.odb,Step-1,Increment      1: Step Time =    1.000,"P-29-1",          1470,       8.13374,       174.020,            0.,NA,NA,"",   1.28477E+06,   1.39468E+06,   1.39468E+06
C:/temp/Job-29.odb,Step-1,Increment      1: Step Time =    1.000,"P-29-1",          1471,       174.205,       192.134,            0.,NA,NA,"",   1.01562E+06,   1.01467E+06,   1.01467E+06
C:/temp/Job-29.odb,Step-1,Increment      1: Step Time =    1.000,"P-29-1",          1472,       184.727,       181.157,            0.,NA,NA,"",   1.02209E+06,   1.02687E+06,   1.02687E+06
C:/temp/Job-29.odb,Step-1,Increment      1: Step Time =    1.000,"P-29-1",          1473,       180.912,       14.9127,            0.,NA,NA,"",   1.02614E+06,   1.02756E+06,   1.02756E+06
C:/temp/Job-29.odb,Step-1,Increment      1: Step Time =    1.000,"P-29-1",          1474,       18.6145,       185.187,            0.,NA,NA,"",   1.60383E+06,   1.63035E+06,   1.63035E+06
C:/temp/Job-29.odb,Step-1,Increment      1: Step Time =    1.000,"P-29-1",          1475,       14.9185,       19.0600,            0.,NA,NA,"",   1.50636E+06,   1.56347E+06,   1.56347E+06
C:/temp/Job-29.odb,Step-1,Increment      1: Step Time =    1.000,"P-29-1",          1476,       191.555,       34.6271,            0.,NA,NA,"",   992.830E+03,   1.02357E+06,   1.02357E+06
C:/temp/Job-29.odb,Step-1,Increment      1: Step Time =    1.000,"P-29-1",          1477,       165.457,       191.078,            0.,NA,NA,"",   1.02747E+06,   1.02342E+06,   1.02342E+06
C:/temp/Job-29.odb,Step-1,Increment      1: Step Time =    1.000,"P-29-1",          1478,       34.5557,       9.00237,            0.,NA,NA,"",   1.58351E+06,   1.57744E+06,   1.57744E+06
C:/temp/Job-29.odb,Step-1,Increment      1: Step Time =    1.000,"P-29-1",          1479,       8.48479,       165.059,            0.,NA,NA,"",   1.13247E+06,   1.23437E+06,   1.23437E+06
C:/temp/Job-29.odb,Step-1,Increment      1: Step Time =    1.000,"P-29-1",          1480,       183.018,       10.4358,            0.,NA,NA,"",   1.01152E+06,   1.01278E+06,   1.01278E+06
C:/temp/Job-29.odb,Step-1,Increment      1: Step Time =    1.000,"P-29-1",          1481,       189.484,       183.174,            0.,NA,NA,"",   1.00780E+06,   1.01233E+06,   1.01233E+06
C:/temp/Job-29.odb,Step-1,Increment      1: Step Time =    1.000,"P-29-1",          1482,       16.7854,       189.729,            0.,NA,NA,"",   1.68139E+06,   1.70049E+06,   1.70049E+06
C:/temp/Job-29.odb,Step-1,Increment      1: Step Time =    1.000,"P-29-1",          1483,       10.4085,       17.0093,            0.,NA,NA,"",   1.50107E+06,   1.58883E+06,   1.58883E+06
C:/temp/Job-29.odb,Step-1,Increment      1: Step Time =    1.000,"P-29-1",          1484,       19.8575,       109.746,            0.,NA,NA,"",   277.222E+03,   318.694E+03,   318.694E+03
C:/temp/Job-29.odb,Step-1,Increment      1: Step Time =    1.000,"P-29-1",          1485,       90.1021,       19.5555,            0.,NA,NA,"",   1.22612E+06,   1.25213E+06,   1.25213E+06
C:/temp/Job-29.odb,Step-1,Increment      1: Step Time =    1.000,"P-29-1",          1486,       181.765,       89.9044,            0.,NA,NA,"",   790.335E+03,   907.717E+03,   907.717E+03
C:/temp/Job-29.odb,Step-1,Increment      1: Step Time =    1.000,"P-29-1",          1487,       110.214,       178.781,            0.,NA,NA,"",   1.12880E+06,   1.18515E+06,   1.18515E+06
C:/temp/Job-29.odb,Step-1,Increment      1: Step Time =    1.000,"P-29-1",          1488,       153.000,       22.0962,            0.,NA,NA,"",   1.19659E+06,   1.16541E+06,   1.16541E+06
C:/temp/Job-29.odb,Step-1,Increment      1: Step Time =    1.000,"P-29-1",          1489,       45.4362,       172.980,            0.,NA,NA,"",    1.5245E+06,   1.46941E+06,   1.46941E+06
C:/temp/Job-29.odb,Step-1,Increment      1: Step Time =    1.000,"P-29-1",          1490,       173.145,       153.648,            0.,NA,NA,"",   1.22963E+06,   1.20138E+06,   1.20138E+06
C:/temp/Job-29.odb,Step-1,Increment      1: Step Time =    1.000,"P-29-1",          1491,       161.353,       186.034,            0.,NA,NA,"",   1.07520E+06,   1.06334E+06,   1.06334E+06
C:/temp/Job-29.odb,Step-1,Increment      1: Step Time =    1.000,"P-29-1",          1492,       13.6211,       161.231,            0.,NA,NA,"",   1.12705E+06,   1.20017E+06,   1.20017E+06
C:/temp/Job-29.odb,Step-1,Increment      1: Step Time =    1.000,"P-29-1",          1493,       186.612,       38.5079,            0.,NA,NA,"",   1.02804E+06,   1.05937E+06,   1.05937E+06
C:/temp/Job-29.odb,Step-1,Increment      1: Step Time =    1.000,"P-29-1",          1494,       38.6358,       14.1756,            0.,NA,NA,"",   1.54290E+06,   1.52626E+06,   1.52626E+06
C:/temp/Job-29.odb,Step-1,Increment      1: Step Time =    1.000,"P-29-1",          1495,       163.960,       9.93408,            0.,NA,NA,"",   1.03551E+06,   1.02986E+06,   1.02986E+06
C:/temp/Job-29.odb,Step-1,Increment      1: Step Time =    1.000,"P-29-1",          1496,       9.44752,       35.9180,            0.,NA,NA,"",   1.12884E+06,   1.22545E+06,   1.22545E+06
C:/temp/Job-29.odb,Step-1,Increment      1: Step Time =    1.000,"P-29-1",          1497,       190.890,       164.257,            0.,NA,NA,"",   995.775E+03,   1.02868E+06,   1.02868E+06
C:/temp/Job-29.odb,Step-1,Increment      1: Step Time =    1.000,"P-29-1",          1498,       35.7160,       190.960,            0.,NA,NA,"",   1.57532E+06,   1.56876E+06,   1.56876E+06
C:/temp/Job-29.odb,Step-1,Increment      1: Step Time =    1.000,"P-29-1",          1499,       78.6799,       138.147,            0.,NA,NA,"",   1.83657E+06,   1.85402E+06,   1.85402E+06
C:/temp/Job-29.odb,Step-1,Increment      1: Step Time =    1.000,"P-29-1",          1500,       9.37516,       183.152,            0.,NA,NA,"",   1.49218E+06,   1.58835E+06,   1.58835E+06
C:/temp/Job-29.odb,Step-1,Increment      1: Step Time =    1.000,"P-29-1",          1501,       17.1639,       9.60448,            0.,NA,NA,"",   1.68667E+06,   1.70271E+06,   1.70271E+06
C:/temp/Job-29.odb,Step-1,Increment      1: Step Time =    1.000,"P-29-1",          1502,       182.992,       190.583,            0.,NA,NA,"",   1.00958E+06,   1.01057E+06,   1.01057E+06
C:/temp/Job-29.odb,Step-1,Increment      1: Step Time =    1.000,"P-29-1",          1503,       190.477,       17.3580,            0.,NA,NA,"",   1.00522E+06,   1.01009E+06,   1.01009E+06
C:/temp/Job-29.odb,Step-1,Increment      1: Step Time =    1.000,"P-29-1",          1504,       101.043,       34.9775,            0.,NA,NA,"",   1.45606E+06,   1.57607E+06,   1.57607E+06
C:/temp/Job-29.odb,Step-1,Increment      1: Step Time =    1.000,"P-29-1",          1505,       164.982,       141.991,            0.,NA,NA,"",   1.39956E+06,   1.28542E+06,   1.28542E+06
C:/temp/Job-29.odb,Step-1,Increment      1: Step Time =    1.000,"P-29-1",          1506,       43.3748,       163.924,            0.,NA,NA,"",   1.48477E+06,   1.41494E+06,   1.41494E+06
C:/temp/Job-29.odb,Step-1,Increment      1: Step Time =    1.000,"P-29-1",          1507,       154.822,       14.7764,            0.,NA,NA,"",   1.09168E+06,   1.07597E+06,   1.07597E+06
C:/temp/Job-29.odb,Step-1,Increment      1: Step Time =    1.000,"P-29-1",          1508,       28.3696,       50.8897,            0.,NA,NA,"",   1.08641E+06,   1.08087E+06,   1.08087E+06
C:/temp/Job-29.odb,Step-1,Increment      1: Step Time =    1.000,"P-29-1",          1509,       97.6027,       40.4175,            0.,NA,NA,"",   1.64208E+06,   1.77852E+06,   1.77852E+06
C:/temp/Job-29.odb,Step-1,Increment      1: Step Time =    1.000,"P-29-1",          1510,       162.841,       134.685,            0.,NA,NA,"",   1.38876E+06,   1.24253E+06,   1.24253E+06
C:/temp/Job-29.odb,Step-1,Increment      1: Step Time =    1.000,"P-29-1",          1511,       153.357,       52.9576,            0.,NA,NA,"",   1.58725E+06,   1.42678E+06,   1.42678E+06
C:/temp/Job-29.odb,Step-1,Increment      1: Step Time =    1.000,"P-29-1",          1512,       187.138,       58.5170,            0.,NA,NA,"",   1.00385E+06,   1.08887E+06,   1.08887E+06
C:/temp/Job-29.odb,Step-1,Increment      1: Step Time =    1.000,"P-29-1",          1513,       58.1941,       13.0863,            0.,NA,NA,"",   1.43285E+06,   1.40789E+06,   1.40789E+06
C:/temp/Job-29.odb,Step-1,Increment      1: Step Time =    1.000,"P-29-1",          1514,       141.749,       187.369,            0.,NA,NA,"",   1.05384E+06,   1.04233E+06,   1.04233E+06
C:/temp/Job-29.odb,Step-1,Increment      1: Step Time =    1.000,"P-29-1",          1515,       13.0503,       141.966,            0.,NA,NA,"",   789.494E+03,   852.616E+03,   852.616E+03
C:/temp/Job-29.odb,Step-1,Increment      1: Step Time =    1.000,"P-29-1",          1516,       34.4396,       65.1079,            0.,NA,NA,"",   849.899E+03,   815.508E+03,   815.508E+03
C:/temp/Job-29.odb,Step-1,Increment      1: Step Time =    1.000,"P-29-1",          1517,       183.217,       32.6233,            0.,NA,NA,"",   1.05391E+06,   1.06773E+06,   1.06773E+06
C:/temp/Job-29.odb,Step-1,Increment      1: Step Time =    1.000,"P-29-1",          1518,       166.246,       182.002,            0.,NA,NA,"",   1.09584E+06,   1.08283E+06,   1.08283E+06
C:/temp/Job-29.odb,Step-1,Increment      1: Step Time =    1.000,"P-29-1",          1519,       19.8728,       170.808,            0.,NA,NA,"",   1.35839E+06,   1.39791E+06,   1.39791E+06
C:/temp/Job-29.odb,Step-1,Increment      1: Step Time =    1.000,"P-29-1",          1520,       48.0038,       10.3772,            0.,NA,NA,"",   1.49061E+06,   1.47540E+06,   1.47540E+06
C:/temp/Job-29.odb,Step-1,Increment      1: Step Time =    1.000,"P-29-1",          1521,       189.974,       48.0383,            0.,NA,NA,"",   987.527E+03,   1.05506E+06,   1.05506E+06
C:/temp/Job-29.odb,Step-1,Increment      1: Step Time =    1.000,"P-29-1",          1522,       10.2260,       152.039,            0.,NA,NA,"",   938.001E+03,   1.01908E+06,   1.01908E+06
C:/temp/Job-29.odb,Step-1,Increment      1: Step Time =    1.000,"P-29-1",          1523,       151.984,       189.767,            0.,NA,NA,"",   1.03788E+06,   1.02778E+06,   1.02778E+06
C:/temp/Job-29.odb,Step-1,Increment      1: Step Time =    1.000,"P-29-1",          1524,       73.8127,       135.750,            0.,NA,NA,"",   1.43447E+06,   1.41569E+06,   1.41569E+06
C:/temp/Job-29.odb,Step-1,Increment      1: Step Time =    1.000,"P-29-1",          1525,       126.600,       134.442,            0.,NA,NA,"",   1.90525E+06,   1.91456E+06,   1.91456E+06
C:/temp/Job-29.odb,Step-1,Increment      1: Step Time =    1.000,"P-29-1",          1526,       65.4176,       73.8530,            0.,NA,NA,"",   591.319E+03,   359.292E+03,   359.292E+03
C:/temp/Job-29.odb,Step-1,Increment      1: Step Time =    1.000,"P-29-1",          1527,       43.6957,       9.74793,            0.,NA,NA,"",   1.52000E+06,   1.50835E+06,   1.50835E+06
C:/temp/Job-29.odb,Step-1,Increment      1: Step Time =    1.000,"P-29-1",          1528,       190.548,       43.7285,            0.,NA,NA,"",   984.170E+03,   1.04097E+06,   1.04097E+06
C:/temp/Job-29.odb,Step-1,Increment      1: Step Time =    1.000,"P-29-1",          1529,       156.266,       190.277,            0.,NA,NA,"",   1.03189E+06,   1.02408E+06,   1.02408E+06
C:/temp/Job-29.odb,Step-1,Increment      1: Step Time =    1.000,"P-29-1",          1530,       9.47414,       156.274,            0.,NA,NA,"",   998.729E+03,   1.08765E+06,   1.08765E+06
C:/temp/Job-29.odb,Step-1,Increment      1: Step Time =    1.000,"P-29-1",          1531,       8.83757,       50.9448,            0.,NA,NA,"",   877.994E+03,   961.211E+03,   961.211E+03
C:/temp/Job-29.odb,Step-1,Increment      1: Step Time =    1.000,"P-29-1",          1532,       149.010,       8.72119,            0.,NA,NA,"",   1.01137E+06,   1.00392E+06,   1.00392E+06
C:/temp/Job-29.odb,Step-1,Increment      1: Step Time =    1.000,"P-29-1",          1533,       190.724,       149.655,            0.,NA,NA,"",   970.440E+03,   1.04882E+06,   1.04882E+06
C:/temp/Job-29.odb,Step-1,Increment      1: Step Time =    1.000,"P-29-1",          1534,       50.2085,       190.890,            0.,NA,NA,"",   1.47225E+06,   1.45959E+06,   1.45959E+06
C:/temp/Job-29.odb,Step-1,Increment      1: Step Time =    1.000,"P-29-1",          1535,       66.3543,       67.2333,            0.,NA,NA,"",   1.11067E+06,   991.988E+03,   991.988E+03
C:/temp/Job-29.odb,Step-1,Increment      1: Step Time =    1.000,"P-29-1",          1536,       81.6646,       143.112,            0.,NA,NA,"",   2.01344E+06,   2.06824E+06,   2.06824E+06
C:/temp/Job-29.odb,Step-1,Increment      1: Step Time =    1.000,"P-29-1",          1537,       60.3203,       67.1687,            0.,NA,NA,"",   1.12670E+06,   955.976E+03,   955.976E+03
C:/temp/Job-29.odb,Step-1,Increment      1: Step Time =    1.000,"P-29-1",          1538,       147.298,       102.069,            0.,NA,NA,"",   698.163E+03,  -696.627E+03,  -696.627E+03
C:/temp/Job-29.odb,Step-1,Increment      1: Step Time =    1.000,"P-29-1",          1539,       70.8518,       57.1293,            0.,NA,NA,"",   1.65633E+06,   1.58353E+06,   1.58353E+06
C:/temp/Job-29.odb,Step-1,Increment      1: Step Time =    1.000,"P-29-1",          1540,       116.211,       54.6761,            0.,NA,NA,"",   2.23037E+06,   2.35665E+06,   2.35665E+06
C:/temp/Job-29.odb,Step-1,Increment      1: Step Time =    1.000,"P-29-1",          1541,       151.466,       115.691,            0.,NA,NA,"",   940.729E+03,   93.8341E+03,   93.8341E+03
C:/temp/Job-29.odb,Step-1,Increment      1: Step Time =    1.000,"P-29-1",          1542,       116.316,       148.828,            0.,NA,NA,"",   2.03852E+06,   2.16915E+06,   2.16915E+06
C:/temp/Job-29.odb,Step-1,Increment      1: Step Time =    1.000,"P-29-1",          1543,       61.0004,       130.560,            0.,NA,NA,"",   1.01911E+06,   845.131E+03,   845.131E+03
C:/temp/Job-29.odb,Step-1,Increment      1: Step Time =    1.000,"P-29-1",          1544,       13.2515,       181.199,            0.,NA,NA,"",   1.50104E+06,   1.56798E+06,   1.56798E+06
C:/temp/Job-29.odb,Step-1,Increment      1: Step Time =    1.000,"P-29-1",          1545,       40.7296,       186.370,            0.,NA,NA,"",   1.53521E+06,   1.51804E+06,   1.51804E+06
C:/temp/Job-29.odb,Step-1,Increment      1: Step Time =    1.000,"P-29-1",          1546,       14.6733,       39.7904,            0.,NA,NA,"",   1.12019E+06,   1.18878E+06,   1.18878E+06
C:/temp/Job-29.odb,Step-1,Increment      1: Step Time =    1.000,"P-29-1",          1547,       186.411,       20.0797,            0.,NA,NA,"",   1.01609E+06,   1.02308E+06,   1.02308E+06
C:/temp/Job-29.odb,Step-1,Increment      1: Step Time =    1.000,"P-29-1",          1548,       160.165,       15.7735,            0.,NA,NA,"",   1.09861E+06,   1.08319E+06,   1.08319E+06
C:/temp/Job-29.odb,Step-1,Increment      1: Step Time =    1.000,"P-29-1",          1549,       180.636,       186.577,            0.,NA,NA,"",   1.02255E+06,   1.02364E+06,   1.02364E+06
C:/temp/Job-29.odb,Step-1,Increment      1: Step Time =    1.000,"P-29-1",          1550,       186.168,       159.253,            0.,NA,NA,"",   1.03313E+06,   1.06728E+06,   1.06728E+06
C:/temp/Job-29.odb,Step-1,Increment      1: Step Time =    1.000,"P-29-1",          1551,       142.798,       180.642,            0.,NA,NA,"",   1.17219E+06,   1.14969E+06,   1.14969E+06
C:/temp/Job-29.odb,Step-1,Increment      1: Step Time =    1.000,"P-29-1",          1552,       132.598,       185.595,            0.,NA,NA,"",   1.05951E+06,   1.05596E+06,   1.05596E+06
C:/temp/Job-29.odb,Step-1,Increment      1: Step Time =    1.000,"P-29-1",          1553,       20.3887,       143.681,            0.,NA,NA,"",   880.203E+03,   917.824E+03,   917.824E+03
C:/temp/Job-29.odb,Step-1,Increment      1: Step Time =    1.000,"P-29-1",          1554,       14.8179,       132.615,            0.,NA,NA,"",   625.338E+03,   680.934E+03,   680.934E+03
C:/temp/Job-29.odb,Step-1,Increment      1: Step Time =    1.000,"P-29-1",          1555,       56.7158,       20.4409,            0.,NA,NA,"",   1.50573E+06,   1.45903E+06,   1.45903E+06
C:/temp/Job-29.odb,Step-1,Increment      1: Step Time =    1.000,"P-29-1",          1556,       67.5520,       14.7954,            0.,NA,NA,"",   1.37699E+06,   1.35166E+06,   1.35166E+06
C:/temp/Job-29.odb,Step-1,Increment      1: Step Time =    1.000,"P-29-1",          1557,       180.391,       57.4238,            0.,NA,NA,"",   1.11418E+06,   1.14679E+06,   1.14679E+06
C:/temp/Job-29.odb,Step-1,Increment      1: Step Time =    1.000,"P-29-1",          1558,       184.885,       68.2347,            0.,NA,NA,"",   1.00098E+06,   1.09728E+06,   1.09728E+06
C:/temp/Job-29.odb,Step-1,Increment      1: Step Time =    1.000,"P-29-1",          1559,       82.3061,       152.160,            0.,NA,NA,"",   1.85581E+06,   1.90104E+06,   1.90104E+06
C:/temp/Job-29.odb,Step-1,Increment      1: Step Time =    1.000,"P-29-1",          1560,       124.303,       150.630,            0.,NA,NA,"",   1.82142E+06,   1.87602E+06,   1.87602E+06
C:/temp/Job-29.odb,Step-1,Increment      1: Step Time =    1.000,"P-29-1",          1561,       17.9675,       149.027,            0.,NA,NA,"",   959.484E+03,   1.00897E+06,   1.00897E+06
C:/temp/Job-29.odb,Step-1,Increment      1: Step Time =    1.000,"P-29-1",          1562,       51.2187,       18.1480,            0.,NA,NA,"",   1.50807E+06,   1.47048E+06,   1.47048E+06
C:/temp/Job-29.odb,Step-1,Increment      1: Step Time =    1.000,"P-29-1",          1563,       15.6432,       43.2227,            0.,NA,NA,"",   1.07063E+06,   1.13326E+06,   1.13326E+06
C:/temp/Job-29.odb,Step-1,Increment      1: Step Time =    1.000,"P-29-1",          1564,       156.472,       17.5517,            0.,NA,NA,"",   1.12293E+06,   1.10290E+06,   1.10290E+06
C:/temp/Job-29.odb,Step-1,Increment      1: Step Time =    1.000,"P-29-1",          1565,       19.6471,       13.5277,            0.,NA,NA,"",   1.62633E+06,   1.64480E+06,   1.64480E+06
C:/temp/Job-29.odb,Step-1,Increment      1: Step Time =    1.000,"P-29-1",          1566,       119.388,       149.664,            0.,NA,NA,"",   1.92857E+06,   2.04094E+06,   2.04094E+06
C:/temp/Job-29.odb,Step-1,Increment      1: Step Time =    1.000,"P-29-1",          1567,       188.010,       23.5838,            0.,NA,NA,"",   1.01169E+06,   1.02252E+06,   1.02252E+06
C:/temp/Job-29.odb,Step-1,Increment      1: Step Time =    1.000,"P-29-1",          1568,       177.141,       187.939,            0.,NA,NA,"",   1.02574E+06,   1.02519E+06,   1.02519E+06
C:/temp/Job-29.odb,Step-1,Increment      1: Step Time =    1.000,"P-29-1",          1569,       12.3098,       177.568,            0.,NA,NA,"",   1.40874E+06,   1.48986E+06,   1.48986E+06
C:/temp/Job-29.odb,Step-1,Increment      1: Step Time =    1.000,"P-29-1",          1570,       151.713,       97.9467,            0.,NA,NA,"",   462.023E+03,  -385.525E+03,  -385.525E+03
C:/temp/Job-29.odb,Step-1,Increment      1: Step Time =    1.000,"P-29-1",          1571,       179.186,       54.3814,            0.,NA,NA,"",   1.13799E+06,   1.15616E+06,   1.15616E+06
C:/temp/Job-29.odb,Step-1,Increment      1: Step Time =    1.000,"P-29-1",          1572,       145.624,       179.241,            0.,NA,NA,"",   1.19740E+06,   1.16958E+06,   1.16958E+06
C:/temp/Job-29.odb,Step-1,Increment      1: Step Time =    1.000,"P-29-1",          1573,       46.9317,       14.8042,            0.,NA,NA,"",   1.50912E+06,   1.48277E+06,   1.48277E+06
C:/temp/Job-29.odb,Step-1,Increment      1: Step Time =    1.000,"P-29-1",          1574,       14.5900,       153.210,            0.,NA,NA,"",   998.237E+03,   1.06214E+06,   1.06214E+06
C:/temp/Job-29.odb,Step-1,Increment      1: Step Time =    1.000,"P-29-1",          1575,       125.847,       51.0489,            0.,NA,NA,"",   1.84555E+06,   1.87915E+06,   1.87915E+06
C:/temp/Job-29.odb,Step-1,Increment      1: Step Time =    1.000,"P-29-1",          1576,       129.931,       51.2809,            0.,NA,NA,"",   1.81734E+06,   1.80280E+06,   1.80280E+06
C:/temp/Job-29.odb,Step-1,Increment      1: Step Time =    1.000,"P-29-1",          1577,       71.0176,       50.2877,            0.,NA,NA,"",   1.73892E+06,   1.66912E+06,   1.66912E+06
C:/temp/Job-29.odb,Step-1,Increment      1: Step Time =    1.000,"P-29-1",          1578,       23.7367,       181.560,            0.,NA,NA,"",   1.54461E+06,   1.55678E+06,   1.55678E+06
C:/temp/Job-29.odb,Step-1,Increment      1: Step Time =    1.000,"P-29-1",          1579,       48.9895,       118.035,            0.,NA,NA,"",   520.712E+03,   204.119E+03,   204.119E+03
C:/temp/Job-29.odb,Step-1,Increment      1: Step Time =    1.000,"P-29-1",          1580,       48.1079,       114.438,            0.,NA,NA,"",   408.062E+03,      -167.512,      -167.512
C:/temp/Job-29.odb,Step-1,Increment      1: Step Time =    1.000,"P-29-1",          1581,       38.2115,       87.4146,            0.,NA,NA,"",   309.117E+03,   276.238E+03,   276.238E+03
C:/temp/Job-29.odb,Step-1,Increment      1: Step Time =    1.000,"P-29-1",          1582,       181.229,       175.871,            0.,NA,NA,"",   1.05066E+06,   1.05460E+06,   1.05460E+06
C:/temp/Job-29.odb,Step-1,Increment      1: Step Time =    1.000,"P-29-1",          1583,       184.960,       26.1712,            0.,NA,NA,"",   1.02954E+06,   1.04066E+06,   1.04066E+06
C:/temp/Job-29.odb,Step-1,Increment      1: Step Time =    1.000,"P-29-1",          1584,       178.986,       18.4737,            0.,NA,NA,"",   1.04350E+06,   1.04405E+06,   1.04405E+06
C:/temp/Job-29.odb,Step-1,Increment      1: Step Time =    1.000,"P-29-1",          1585,       172.379,       17.9471,            0.,NA,NA,"",   1.07128E+06,   1.06461E+06,   1.06461E+06
C:/temp/Job-29.odb,Step-1,Increment      1: Step Time =    1.000,"P-29-1",          1586,       168.596,       18.5595,            0.,NA,NA,"",   1.09198E+06,   1.08044E+06,   1.08044E+06
C:/temp/Job-29.odb,Step-1,Increment      1: Step Time =    1.000,"P-29-1",          1587,       157.131,       21.7901,            0.,NA,NA,"",   1.17693E+06,   1.14823E+06,   1.14823E+06
C:/temp/Job-29.odb,Step-1,Increment      1: Step Time =    1.000,"P-29-1",          1588,       19.9109,       18.2878,            0.,NA,NA,"",   1.53942E+06,   1.56726E+06,   1.56726E+06
C:/temp/Job-29.odb,Step-1,Increment      1: Step Time =    1.000,"P-29-1",          1589,       18.2026,       27.8389,            0.,NA,NA,"",   1.36630E+06,   1.41402E+06,   1.41402E+06
C:/temp/Job-29.odb,Step-1,Increment      1: Step Time =    1.000,"P-29-1",          1590,       18.3744,       31.8046,            0.,NA,NA,"",   1.29825E+06,   1.34679E+06,   1.34679E+06
C:/temp/Job-29.odb,Step-1,Increment      1: Step Time =    1.000,"P-29-1",          1591,       18.6329,       43.2133,            0.,NA,NA,"",   1.10519E+06,   1.15229E+06,   1.15229E+06
C:/temp/Job-29.odb,Step-1,Increment      1: Step Time =    1.000,"P-29-1",          1592,       175.186,       184.878,            0.,NA,NA,"",   1.04402E+06,   1.04192E+06,   1.04192E+06
C:/temp/Job-29.odb,Step-1,Increment      1: Step Time =    1.000,"P-29-1",          1593,       15.6393,       176.863,            0.,NA,NA,"",   1.43478E+06,   1.49407E+06,   1.49407E+06
C:/temp/Job-29.odb,Step-1,Increment      1: Step Time =    1.000,"P-29-1",          1594,       157.099,       90.5522,            0.,NA,NA,"",   647.452E+03,   473.415E+03,   473.415E+03
C:/temp/Job-29.odb,Step-1,Increment      1: Step Time =    1.000,"P-29-1",          1595,       80.9785,       158.293,            0.,NA,NA,"",   1.73807E+06,   1.75778E+06,   1.75778E+06
C:/temp/Job-29.odb,Step-1,Increment      1: Step Time =    1.000,"P-29-1",          1596,       120.487,       153.385,            0.,NA,NA,"",   1.77945E+06,   1.87314E+06,   1.87314E+06
C:/temp/Job-29.odb,Step-1,Increment      1: Step Time =    1.000,"P-29-1",          1597,       101.815,       39.3211,            0.,NA,NA,"",   1.58466E+06,   1.72674E+06,   1.72674E+06
C:/temp/Job-29.odb,Step-1,Increment      1: Step Time =    1.000,"P-29-1",          1598,       45.9699,       102.121,            0.,NA,NA,"",   171.021E+03,  -165.523E+03,  -165.523E+03
C:/temp/Job-29.odb,Step-1,Increment      1: Step Time =    1.000,"P-29-1",          1599,       123.027,       156.661,            0.,NA,NA,"",   1.67284E+06,   1.73683E+06,   1.73683E+06
C:/temp/Job-29.odb,Step-1,Increment      1: Step Time =    1.000,"P-29-1",          1600,       15.6459,       173.427,            0.,NA,NA,"",   1.36634E+06,   1.42897E+06,   1.42897E+06
C:/temp/Job-29.odb,Step-1,Increment      1: Step Time =    1.000,"P-29-1",          1601,       107.144,       42.0507,            0.,NA,NA,"",   1.67028E+06,   1.82233E+06,   1.82233E+06
C:/temp/Job-29.odb,Step-1,Increment      1: Step Time =    1.000,"P-29-1",          1602,       95.1684,       150.252,            0.,NA,NA,"",   2.08750E+06,   2.24068E+06,   2.24068E+06
C:/temp/Job-29.odb,Step-1,Increment      1: Step Time =    1.000,"P-29-1",          1603,       22.1022,       16.3424,            0.,NA,NA,"",   1.57459E+06,   1.59132E+06,   1.59132E+06
C:/temp/Job-29.odb,Step-1,Increment      1: Step Time =    1.000,"P-29-1",          1604,       133.872,       51.7614,            0.,NA,NA,"",   1.79467E+06,   1.72849E+06,   1.72849E+06
C:/temp/Job-29.odb,Step-1,Increment      1: Step Time =    1.000,"P-29-1",          1605,       74.4220,       157.775,            0.,NA,NA,"",   1.73595E+06,   1.69874E+06,   1.69874E+06
C:/temp/Job-29.odb,Step-1,Increment      1: Step Time =    1.000,"P-29-1",          1606,       54.4708,       136.639,            0.,NA,NA,"",   1.21044E+06,   1.05132E+06,   1.05132E+06
C:/temp/Job-29.odb,Step-1,Increment      1: Step Time =    1.000,"P-29-1",          1607,       155.886,       107.532,            0.,NA,NA,"",   561.565E+03,   245.192E+03,   245.192E+03
C:/temp/Job-29.odb,Step-1,Increment      1: Step Time =    1.000,"P-29-1",          1608,       94.6903,       155.546,            0.,NA,NA,"",   1.81184E+06,   1.94863E+06,   1.94863E+06
C:/temp/Job-29.odb,Step-1,Increment      1: Step Time =    1.000,"P-29-1",          1609,       180.217,       73.1030,            0.,NA,NA,"",   1.01730E+06,   1.09097E+06,   1.09097E+06
C:/temp/Job-29.odb,Step-1,Increment      1: Step Time =    1.000,"P-29-1",          1610,       18.9670,       128.480,            0.,NA,NA,"",   570.579E+03,   617.481E+03,   617.481E+03
C:/temp/Job-29.odb,Step-1,Increment      1: Step Time =    1.000,"P-29-1",          1611,       71.7671,       18.7990,            0.,NA,NA,"",   1.40367E+06,   1.37611E+06,   1.37611E+06
C:/temp/Job-29.odb,Step-1,Increment      1: Step Time =    1.000,"P-29-1",          1612,       128.591,       181.453,            0.,NA,NA,"",   1.12606E+06,   1.13030E+06,   1.13030E+06
C:/temp/Job-29.odb,Step-1,Increment      1: Step Time =    1.000,"P-29-1",          1613,       153.316,       17.9553,            0.,NA,NA,"",   1.13634E+06,   1.11420E+06,   1.11420E+06
C:/temp/Job-29.odb,Step-1,Increment      1: Step Time =    1.000,"P-29-1",          1614,       131.007,       47.0904,            0.,NA,NA,"",   1.73306E+06,   1.71411E+06,   1.71411E+06
C:/temp/Job-29.odb,Step-1,Increment      1: Step Time =    1.000,"P-29-1",          1615,       53.5181,       150.175,            0.,NA,NA,"",   1.49552E+06,   1.36722E+06,   1.36722E+06
C:/temp/Job-29.odb,Step-1,Increment      1: Step Time =    1.000,"P-29-1",          1616,       18.3164,       162.253,            0.,NA,NA,"",   1.19841E+06,   1.24708E+06,   1.24708E+06
C:/temp/Job-29.odb,Step-1,Increment      1: Step Time =    1.000,"P-29-1",          1617,       37.9879,       18.8130,            0.,NA,NA,"",   1.53334E+06,   1.50963E+06,   1.50963E+06
C:/temp/Job-29.odb,Step-1,Increment      1: Step Time =    1.000,"P-29-1",          1618,       48.3613,       53.9664,            0.,NA,NA,"",   1.34641E+06,   1.22410E+06,   1.22410E+06
C:/temp/Job-29.odb,Step-1,Increment      1: Step Time =    1.000,"P-29-1",          1619,       54.2278,       54.2934,            0.,NA,NA,"",   1.44281E+06,   1.30170E+06,   1.30170E+06
C:/temp/Job-29.odb,Step-1,Increment      1: Step Time =    1.000,"P-29-1",          1620,       177.777,       20.9243,            0.,NA,NA,"",   1.05649E+06,   1.05606E+06,   1.05606E+06
C:/temp/Job-29.odb,Step-1,Increment      1: Step Time =    1.000,"P-29-1",          1621,       172.495,       22.0655,            0.,NA,NA,"",   1.09608E+06,   1.08687E+06,   1.08687E+06
C:/temp/Job-29.odb,Step-1,Increment      1: Step Time =    1.000,"P-29-1",          1622,       181.481,       28.4192,            0.,NA,NA,"",   1.05920E+06,   1.06602E+06,   1.06602E+06
C:/temp/Job-29.odb,Step-1,Increment      1: Step Time =    1.000,"P-29-1",          1623,       22.1428,       19.6904,            0.,NA,NA,"",   1.52163E+06,   1.54249E+06,   1.54249E+06
C:/temp/Job-29.odb,Step-1,Increment      1: Step Time =    1.000,"P-29-1",          1624,       22.6354,       28.1247,            0.,NA,NA,"",   1.40015E+06,   1.42320E+06,   1.42320E+06
C:/temp/Job-29.odb,Step-1,Increment      1: Step Time =    1.000,"P-29-1",          1625,       23.2723,       36.1324,            0.,NA,NA,"",   1.27913E+06,   1.30120E+06,   1.30120E+06
C:/temp/Job-29.odb,Step-1,Increment      1: Step Time =    1.000,"P-29-1",          1626,       22.4848,       44.1428,            0.,NA,NA,"",   1.13601E+06,   1.16215E+06,   1.16215E+06
C:/temp/Job-29.odb,Step-1,Increment      1: Step Time =    1.000,"P-29-1",          1627,       28.1113,       177.061,            0.,NA,NA,"",   1.49665E+06,   1.49534E+06,   1.49534E+06
C:/temp/Job-29.odb,Step-1,Increment      1: Step Time =    1.000,"P-29-1",          1628,       32.2912,       177.002,            0.,NA,NA,"",   1.50574E+06,   1.49129E+06,   1.49129E+06
C:/temp/Job-29.odb,Step-1,Increment      1: Step Time =    1.000,"P-29-1",          1629,       45.5719,       177.205,            0.,NA,NA,"",   1.52457E+06,   1.48019E+06,   1.48019E+06
C:/temp/Job-29.odb,Step-1,Increment      1: Step Time =    1.000,"P-29-1",          1630,       178.394,       171.742,            0.,NA,NA,"",   1.07870E+06,   1.08026E+06,   1.08026E+06
C:/temp/Job-29.odb,Step-1,Increment      1: Step Time =    1.000,"P-29-1",          1631,       177.311,       168.520,            0.,NA,NA,"",   1.10239E+06,   1.10062E+06,   1.10062E+06
C:/temp/Job-29.odb,Step-1,Increment      1: Step Time =    1.000,"P-29-1",          1632,       177.089,       153.949,            0.,NA,NA,"",   1.16690E+06,   1.16289E+06,   1.16289E+06
C:/temp/Job-29.odb,Step-1,Increment      1: Step Time =    1.000,"P-29-1",          1633,       43.8744,       115.460,            0.,NA,NA,"",   414.388E+03,   307.852E+03,   307.852E+03
C:/temp/Job-29.odb,Step-1,Increment      1: Step Time =    1.000,"P-29-1",          1634,       42.2838,       112.459,            0.,NA,NA,"",   322.981E+03,   238.391E+03,   238.391E+03
C:/temp/Job-29.odb,Step-1,Increment      1: Step Time =    1.000,"P-29-1",          1635,       44.8963,       124.094,            0.,NA,NA,"",   674.483E+03,   551.831E+03,   551.831E+03
C:/temp/Job-29.odb,Step-1,Increment      1: Step Time =    1.000,"P-29-1",          1636,       38.6965,       105.932,            0.,NA,NA,"",   159.920E+03,   145.083E+03,   145.083E+03
C:/temp/Job-29.odb,Step-1,Increment      1: Step Time =    1.000,"P-29-1",          1637,       41.8644,       129.256,            0.,NA,NA,"",   804.030E+03,   708.427E+03,   708.427E+03
C:/temp/Job-29.odb,Step-1,Increment      1: Step Time =    1.000,"P-29-1",          1638,       161.164,       92.1973,            0.,NA,NA,"",   575.339E+03,   514.084E+03,   514.084E+03
C:/temp/Job-29.odb,Step-1,Increment      1: Step Time =    1.000,"P-29-1",          1639,       158.675,       98.0971,            0.,NA,NA,"",   363.121E+03,   309.436E+03,   309.436E+03
C:/temp/Job-29.odb,Step-1,Increment      1: Step Time =    1.000,"P-29-1",          1640,       70.8136,       43.9282,            0.,NA,NA,"",   1.72861E+06,   1.66302E+06,   1.66302E+06
C:/temp/Job-29.odb,Step-1,Increment      1: Step Time =    1.000,"P-29-1",          1641,       123.989,       160.662,            0.,NA,NA,"",   1.56635E+06,   1.61658E+06,   1.61658E+06
C:/temp/Job-29.odb,Step-1,Increment      1: Step Time =    1.000,"P-29-1",          1642,       18.7606,       173.809,            0.,NA,NA,"",   1.40182E+06,   1.44476E+06,   1.44476E+06
C:/temp/Job-29.odb,Step-1,Increment      1: Step Time =    1.000,"P-29-1",          1643,       24.5572,       155.576,            0.,NA,NA,"",   1.16014E+06,   1.17403E+06,   1.17403E+06
C:/temp/Job-29.odb,Step-1,Increment      1: Step Time =    1.000,"P-29-1",          1644,       44.5151,       25.3001,            0.,NA,NA,"",   1.52694E+06,   1.47702E+06,   1.47702E+06
C:/temp/Job-29.odb,Step-1,Increment      1: Step Time =    1.000,"P-29-1",          1645,       105.870,       38.0373,            0.,NA,NA,"",   1.52443E+06,   1.66099E+06,   1.66099E+06
C:/temp/Job-29.odb,Step-1,Increment      1: Step Time =    1.000,"P-29-1",          1646,       173.571,       182.128,            0.,NA,NA,"",   1.06275E+06,   1.05838E+06,   1.05838E+06
C:/temp/Job-29.odb,Step-1,Increment      1: Step Time =    1.000,"P-29-1",          1647,       16.1688,       169.903,            0.,NA,NA,"",   1.30730E+06,   1.36824E+06,   1.36824E+06
C:/temp/Job-29.odb,Step-1,Increment      1: Step Time =    1.000,"P-29-1",          1648,       179.996,       44.0589,            0.,NA,NA,"",   1.12082E+06,   1.13090E+06,   1.13090E+06
C:/temp/Job-29.odb,Step-1,Increment      1: Step Time =    1.000,"P-29-1",          1649,       155.768,       179.364,            0.,NA,NA,"",   1.17534E+06,   1.14669E+06,   1.14669E+06
C:/temp/Job-29.odb,Step-1,Increment      1: Step Time =    1.000,"P-29-1",          1650,       159.099,       108.207,            0.,NA,NA,"",   578.215E+03,   470.274E+03,   470.274E+03
C:/temp/Job-29.odb,Step-1,Increment      1: Step Time =    1.000,"P-29-1",          1651,       31.2694,       70.5054,            0.,NA,NA,"",   676.518E+03,   668.513E+03,   668.513E+03
C:/temp/Job-29.odb,Step-1,Increment      1: Step Time =    1.000,"P-29-1",          1652,       30.2898,       66.7104,            0.,NA,NA,"",   759.242E+03,   753.760E+03,   753.760E+03
C:/temp/Job-29.odb,Step-1,Increment      1: Step Time =    1.000,"P-29-1",          1653,       108.755,       32.9048,            0.,NA,NA,"",   1.38071E+06,   1.49235E+06,   1.49235E+06
C:/temp/Job-29.odb,Step-1,Increment      1: Step Time =    1.000,"P-29-1",          1654,       57.0831,       50.6794,            0.,NA,NA,"",   1.54119E+06,   1.40827E+06,   1.40827E+06
C:/temp/Job-29.odb,Step-1,Increment      1: Step Time =    1.000,"P-29-1",          1655,       100.085,       156.207,            0.,NA,NA,"",   1.76394E+06,   1.91878E+06,   1.91878E+06
C:/temp/Job-29.odb,Step-1,Increment      1: Step Time =    1.000,"P-29-1",          1656,       32.8904,       154.950,            0.,NA,NA,"",   1.24939E+06,   1.21850E+06,   1.21850E+06
C:/temp/Job-29.odb,Step-1,Increment      1: Step Time =    1.000,"P-29-1",          1657,       46.0716,       34.3430,            0.,NA,NA,"",   1.51411E+06,   1.44038E+06,   1.44038E+06
C:/temp/Job-29.odb,Step-1,Increment      1: Step Time =    1.000,"P-29-1",          1658,       176.311,       24.2203,            0.,NA,NA,"",   1.07879E+06,   1.07608E+06,   1.07608E+06
C:/temp/Job-29.odb,Step-1,Increment      1: Step Time =    1.000,"P-29-1",          1659,       25.4761,       21.0433,            0.,NA,NA,"",   1.50768E+06,   1.51616E+06,   1.51616E+06
C:/temp/Job-29.odb,Step-1,Increment      1: Step Time =    1.000,"P-29-1",          1660,       38.7457,       132.734,            0.,NA,NA,"",   855.265E+03,   785.181E+03,   785.181E+03
C:/temp/Job-29.odb,Step-1,Increment      1: Step Time =    1.000,"P-29-1",          1661,       135.670,       156.568,            0.,NA,NA,"",   1.64232E+06,   1.58417E+06,   1.58417E+06
C:/temp/Job-29.odb,Step-1,Increment      1: Step Time =    1.000,"P-29-1",          1662,       146.337,       53.4260,            0.,NA,NA,"",   1.69537E+06,   1.52382E+06,   1.52382E+06
C:/temp/Job-29.odb,Step-1,Increment      1: Step Time =    1.000,"P-29-1",          1663,       27.7363,       31.9219,            0.,NA,NA,"",   1.38418E+06,   1.38325E+06,   1.38325E+06
C:/temp/Job-29.odb,Step-1,Increment      1: Step Time =    1.000,"P-29-1",          1664,       26.4376,       45.3282,            0.,NA,NA,"",   1.16501E+06,   1.16811E+06,   1.16811E+06
C:/temp/Job-29.odb,Step-1,Increment      1: Step Time =    1.000,"P-29-1",          1665,       159.134,       138.837,            0.,NA,NA,"",   1.49369E+06,   1.31999E+06,   1.31999E+06
C:/temp/Job-29.odb,Step-1,Increment      1: Step Time =    1.000,"P-29-1",          1666,       36.5557,       110.956,            0.,NA,NA,"",   264.251E+03,   251.225E+03,   251.225E+03
C:/temp/Job-29.odb,Step-1,Increment      1: Step Time =    1.000,"P-29-1",          1667,       49.6679,       172.587,            0.,NA,NA,"",   1.54092E+06,   1.47734E+06,   1.47734E+06
C:/temp/Job-29.odb,Step-1,Increment      1: Step Time =    1.000,"P-29-1",          1668,       162.729,       178.593,            0.,NA,NA,"",   1.14964E+06,   1.12610E+06,   1.12610E+06
C:/temp/Job-29.odb,Step-1,Increment      1: Step Time =    1.000,"P-29-1",          1669,       173.665,       170.476,            0.,NA,NA,"",   1.13128E+06,   1.11953E+06,   1.11953E+06
C:/temp/Job-29.odb,Step-1,Increment      1: Step Time =    1.000,"P-29-1",          1670,       168.116,       164.555,            0.,NA,NA,"",   1.23058E+06,   1.19450E+06,   1.19450E+06
C:/temp/Job-29.odb,Step-1,Increment      1: Step Time =    1.000,"P-29-1",          1671,       128.053,       42.4877,            0.,NA,NA,"",   1.64320E+06,   1.65833E+06,   1.65833E+06
C:/temp/Job-29.odb,Step-1,Increment      1: Step Time =    1.000,"P-29-1",          1672,       81.4654,       167.446,            0.,NA,NA,"",   1.56643E+06,   1.57894E+06,   1.57894E+06
C:/temp/Job-29.odb,Step-1,Increment      1: Step Time =    1.000,"P-29-1",          1673,       92.4568,       32.2822,            0.,NA,NA,"",   1.46051E+06,   1.53939E+06,   1.53939E+06
C:/temp/Job-29.odb,Step-1,Increment      1: Step Time =    1.000,"P-29-1",          1674,       171.408,       44.2191,            0.,NA,NA,"",   1.24220E+06,   1.20714E+06,   1.20714E+06
C:/temp/Job-29.odb,Step-1,Increment      1: Step Time =    1.000,"P-29-1",          1675,       174.087,       41.7016,            0.,NA,NA,"",   1.18926E+06,   1.17164E+06,   1.17164E+06
C:/temp/Job-29.odb,Step-1,Increment      1: Step Time =    1.000,"P-29-1",          1676,       33.6229,       22.5128,            0.,NA,NA,"",   1.51116E+06,   1.49235E+06,   1.49235E+06
C:/temp/Job-29.odb,Step-1,Increment      1: Step Time =    1.000,"P-29-1",          1677,       30.0206,       23.0301,            0.,NA,NA,"",   1.49824E+06,   1.49057E+06,   1.49057E+06
C:/temp/Job-29.odb,Step-1,Increment      1: Step Time =    1.000,"P-29-1",          1678,       155.014,       170.126,            0.,NA,NA,"",   1.30226E+06,   1.25044E+06,   1.25044E+06
C:/temp/Job-29.odb,Step-1,Increment      1: Step Time =    1.000,"P-29-1",          1679,       157.975,       172.960,            0.,NA,NA,"",   1.23962E+06,   1.19871E+06,   1.19871E+06
C:/temp/Job-29.odb,Step-1,Increment      1: Step Time =    1.000,"P-29-1",          1680,       160.343,       143.093,            0.,NA,NA,"",   1.49175E+06,   1.34361E+06,   1.34361E+06
C:/temp/Job-29.odb,Step-1,Increment      1: Step Time =    1.000,"P-29-1",          1681,       21.0254,       167.464,            0.,NA,NA,"",   1.31783E+06,   1.35082E+06,   1.35082E+06
C:/temp/Job-29.odb,Step-1,Increment      1: Step Time =    1.000,"P-29-1",          1682,       25.9086,       158.455,            0.,NA,NA,"",   1.22135E+06,   1.22892E+06,   1.22892E+06
C:/temp/Job-29.odb,Step-1,Increment      1: Step Time =    1.000,"P-29-1",          1683,       37.1988,       128.932,            0.,NA,NA,"",   726.325E+03,   673.556E+03,   673.556E+03
C:/temp/Job-29.odb,Step-1,Increment      1: Step Time =    1.000,"P-29-1",          1684,       73.9442,       164.411,            0.,NA,NA,"",   1.65539E+06,   1.61851E+06,   1.61851E+06
C:/temp/Job-29.odb,Step-1,Increment      1: Step Time =    1.000,"P-29-1",          1685,       179.452,       36.9658,            0.,NA,NA,"",   1.10747E+06,   1.11168E+06,   1.11168E+06
C:/temp/Job-29.odb,Step-1,Increment      1: Step Time =    1.000,"P-29-1",          1686,       133.237,       163.500,            0.,NA,NA,"",   1.51949E+06,   1.50016E+06,   1.50016E+06
C:/temp/Job-29.odb,Step-1,Increment      1: Step Time =    1.000,"P-29-1",          1687,       26.0950,       17.3677,            0.,NA,NA,"",   1.55936E+06,   1.56483E+06,   1.56483E+06
C:/temp/Job-29.odb,Step-1,Increment      1: Step Time =    1.000,"P-29-1",          1688,       114.757,       36.5528,            0.,NA,NA,"",   1.48592E+06,   1.58923E+06,   1.58923E+06
C:/temp/Job-29.odb,Step-1,Increment      1: Step Time =    1.000,"P-29-1",          1689,       158.824,       126.873,            0.,NA,NA,"",   1.32953E+06,   1.11254E+06,   1.11254E+06
C:/temp/Job-29.odb,Step-1,Increment      1: Step Time =    1.000,"P-29-1",          1690,       36.2032,       158.856,            0.,NA,NA,"",   1.35000E+06,   1.30427E+06,   1.30427E+06
C:/temp/Job-29.odb,Step-1,Increment      1: Step Time =    1.000,"P-29-1",          1691,       74.9582,       28.9879,            0.,NA,NA,"",   1.55135E+06,   1.52600E+06,   1.52600E+06
C:/temp/Job-29.odb,Step-1,Increment      1: Step Time =    1.000,"P-29-1",          1692,       42.1978,       39.3802,            0.,NA,NA,"",   1.44176E+06,   1.37100E+06,   1.37100E+06
C:/temp/Job-29.odb,Step-1,Increment      1: Step Time =    1.000,"P-29-1",          1693,       166.425,       100.251,            0.,NA,NA,"",   470.942E+03,   518.808E+03,   518.808E+03
C:/temp/Job-29.odb,Step-1,Increment      1: Step Time =    1.000,"P-29-1",          1694,       171.258,       145.142,            0.,NA,NA,"",   1.27911E+06,   1.23008E+06,   1.23008E+06
C:/temp/Job-29.odb,Step-1,Increment      1: Step Time =    1.000,"P-29-1",          1695,       127.985,       172.190,            0.,NA,NA,"",   1.32268E+06,   1.33702E+06,   1.33702E+06
C:/temp/Job-29.odb,Step-1,Increment      1: Step Time =    1.000,"P-29-1",          1696,       81.7998,       32.5164,            0.,NA,NA,"",   1.56787E+06,   1.58155E+06,   1.58155E+06
C:/temp/Job-29.odb,Step-1,Increment      1: Step Time =    1.000,"P-29-1",          1697,       24.0820,       169.074,            0.,NA,NA,"",   1.36837E+06,   1.38532E+06,   1.38532E+06
C:/temp/Job-29.odb,Step-1,Increment      1: Step Time =    1.000,"P-29-1",          1698,       33.7536,       127.824,            0.,NA,NA,"",   662.443E+03,   636.779E+03,   636.779E+03
C:/temp/Job-29.odb,Step-1,Increment      1: Step Time =    1.000,"P-29-1",          1699,       36.5892,       118.640,            0.,NA,NA,"",   451.250E+03,   420.126E+03,   420.126E+03
C:/temp/Job-29.odb,Step-1,Increment      1: Step Time =    1.000,"P-29-1",          1700,       17.1895,       51.1913,            0.,NA,NA,"",   954.020E+03,   1.00381E+06,   1.00381E+06
C:/temp/Job-29.odb,Step-1,Increment      1: Step Time =    1.000,"P-29-1",          1701,       24.3704,       64.1319,            0.,NA,NA,"",   756.143E+03,   777.453E+03,   777.453E+03
C:/temp/Job-29.odb,Step-1,Increment      1: Step Time =    1.000,"P-29-1",          1702,       170.162,       92.8294,            0.,NA,NA,"",   631.033E+03,   693.618E+03,   693.618E+03
C:/temp/Job-29.odb,Step-1,Increment      1: Step Time =    1.000,"P-29-1",          1703,       64.1728,       177.894,            0.,NA,NA,"",   1.50235E+06,   1.45312E+06,   1.45312E+06
C:/temp/Job-29.odb,Step-1,Increment      1: Step Time =    1.000,"P-29-1",          1704,       175.460,       134.958,            0.,NA,NA,"",   1.17286E+06,   1.16794E+06,   1.16794E+06
C:/temp/Job-29.odb,Step-1,Increment      1: Step Time =    1.000,"P-29-1",          1705,       51.2524,       46.4261,            0.,NA,NA,"",   1.49855E+06,   1.38352E+06,   1.38352E+06
C:/temp/Job-29.odb,Step-1,Increment      1: Step Time =    1.000,"P-29-1",          1706,       83.1544,       170.687,            0.,NA,NA,"",   1.49730E+06,   1.51652E+06,   1.51652E+06
C:/temp/Job-29.odb,Step-1,Increment      1: Step Time =    1.000,"P-29-1",          1707,       32.4987,       111.472,            0.,NA,NA,"",   273.260E+03,   287.275E+03,   287.275E+03
C:/temp/Job-29.odb,Step-1,Increment      1: Step Time =    1.000,"P-29-1",          1708,       165.041,       167.703,            0.,NA,NA,"",   1.24260E+06,   1.20162E+06,   1.20162E+06
C:/temp/Job-29.odb,Step-1,Increment      1: Step Time =    1.000,"P-29-1",          1709,       174.691,       35.9182,            0.,NA,NA,"",   1.15968E+06,   1.14601E+06,   1.14601E+06
C:/temp/Job-29.odb,Step-1,Increment      1: Step Time =    1.000,"P-29-1",          1710,       33.5562,       25.7916,            0.,NA,NA,"",   1.48751E+06,   1.46525E+06,   1.46525E+06
C:/temp/Job-29.odb,Step-1,Increment      1: Step Time =    1.000,"P-29-1",          1711,       41.8083,       168.283,            0.,NA,NA,"",   1.49238E+06,   1.43689E+06,   1.43689E+06
C:/temp/Job-29.odb,Step-1,Increment      1: Step Time =    1.000,"P-29-1",          1712,       161.813,       164.551,            0.,NA,NA,"",   1.30939E+06,   1.25129E+06,   1.25129E+06
C:/temp/Job-29.odb,Step-1,Increment      1: Step Time =    1.000,"P-29-1",          1713,       166.804,       158.771,            0.,NA,NA,"",   1.29122E+06,   1.23820E+06,   1.23820E+06
C:/temp/Job-29.odb,Step-1,Increment      1: Step Time =    1.000,"P-29-1",          1714,       144.633,       35.5502,            0.,NA,NA,"",   1.46229E+06,   1.39518E+06,   1.39518E+06
C:/temp/Job-29.odb,Step-1,Increment      1: Step Time =    1.000,"P-29-1",          1715,       27.8235,       107.995,            0.,NA,NA,"",   231.200E+03,   262.550E+03,   262.550E+03
C:/temp/Job-29.odb,Step-1,Increment      1: Step Time =    1.000,"P-29-1",          1716,       27.5753,       54.8652,            0.,NA,NA,"",   994.929E+03,   993.580E+03,   993.580E+03
C:/temp/Job-29.odb,Step-1,Increment      1: Step Time =    1.000,"P-29-1",          1717,       20.4283,       50.9951,            0.,NA,NA,"",   985.905E+03,   1.02237E+06,   1.02237E+06
C:/temp/Job-29.odb,Step-1,Increment      1: Step Time =    1.000,"P-29-1",          1718,       112.429,       35.1119,            0.,NA,NA,"",   1.43619E+06,   1.54444E+06,   1.54444E+06
C:/temp/Job-29.odb,Step-1,Increment      1: Step Time =    1.000,"P-29-1",          1719,       88.1307,       172.051,            0.,NA,NA,"",   1.42126E+06,   1.46432E+06,   1.46432E+06
C:/temp/Job-29.odb,Step-1,Increment      1: Step Time =    1.000,"P-29-1",          1720,       157.667,       50.3635,            0.,NA,NA,"",   1.49972E+06,   1.36992E+06,   1.36992E+06
C:/temp/Job-29.odb,Step-1,Increment      1: Step Time =    1.000,"P-29-1",          1721,       66.3753,       172.310,            0.,NA,NA,"",   1.56399E+06,   1.50476E+06,   1.50476E+06
C:/temp/Job-29.odb,Step-1,Increment      1: Step Time =    1.000,"P-29-1",          1722,       90.9206,       171.036,            0.,NA,NA,"",   1.41271E+06,   1.47312E+06,   1.47312E+06
C:/temp/Job-29.odb,Step-1,Increment      1: Step Time =    1.000,"P-29-1",          1723,       157.060,       46.0617,            0.,NA,NA,"",   1.47734E+06,   1.36531E+06,   1.36531E+06
C:/temp/Job-29.odb,Step-1,Increment      1: Step Time =    1.000,"P-29-1",          1724,       172.897,       94.8542,            0.,NA,NA,"",   623.825E+03,   708.621E+03,   708.621E+03
C:/temp/Job-29.odb,Step-1,Increment      1: Step Time =    1.000,"P-29-1",          1725,       172.195,       98.5062,            0.,NA,NA,"",   580.697E+03,   664.051E+03,   664.051E+03
C:/temp/Job-29.odb,Step-1,Increment      1: Step Time =    1.000,"P-29-1",          1726,       164.251,       42.4730,            0.,NA,NA,"",   1.33655E+06,   1.26909E+06,   1.26909E+06
C:/temp/Job-29.odb,Step-1,Increment      1: Step Time =    1.000,"P-29-1",          1727,       40.6530,       26.7597,            0.,NA,NA,"",   1.51200E+06,   1.46813E+06,   1.46813E+06
C:/temp/Job-29.odb,Step-1,Increment      1: Step Time =    1.000,"P-29-1",          1728,       77.2385,       169.376,            0.,NA,NA,"",   1.56972E+06,   1.55272E+06,   1.55272E+06
C:/temp/Job-29.odb,Step-1,Increment      1: Step Time =    1.000,"P-29-1",          1729,       37.5654,       167.504,            0.,NA,NA,"",   1.45811E+06,   1.41601E+06,   1.41601E+06
C:/temp/Job-29.odb,Step-1,Increment      1: Step Time =    1.000,"P-29-1",          1730,       120.798,       34.4020,            0.,NA,NA,"",   1.44672E+06,   1.50863E+06,   1.50863E+06
C:/temp/Job-29.odb,Step-1,Increment      1: Step Time =    1.000,"P-29-1",          1731,       111.839,       29.0869,            0.,NA,NA,"",   1.29388E+06,   1.38268E+06,   1.38268E+06
C:/temp/Job-29.odb,Step-1,Increment      1: Step Time =    1.000,"P-29-1",          1732,       95.6742,       27.4641,            0.,NA,NA,"",   1.32795E+06,   1.40002E+06,   1.40002E+06
C:/temp/Job-29.odb,Step-1,Increment      1: Step Time =    1.000,"P-29-1",          1733,       116.901,       31.6108,            0.,NA,NA,"",   1.36287E+06,   1.43816E+06,   1.43816E+06
C:/temp/Job-29.odb,Step-1,Increment      1: Step Time =    1.000,"P-29-1",          1734,       88.6439,       28.9688,            0.,NA,NA,"",   1.43048E+06,   1.47888E+06,   1.47888E+06
C:/temp/Job-29.odb,Step-1,Increment      1: Step Time =    1.000,"P-29-1",          1735,       52.6648,       162.358,            0.,NA,NA,"",   1.56549E+06,   1.47020E+06,   1.47020E+06
C:/temp/Job-29.odb,Step-1,Increment      1: Step Time =    1.000,"P-29-1",          1736,       37.3991,       35.8859,            0.,NA,NA,"",   1.42101E+06,   1.37429E+06,   1.37429E+06
C:/temp/Job-29.odb,Step-1,Increment      1: Step Time =    1.000,"P-29-1",          1737,       101.093,       168.208,            0.,NA,NA,"",   1.37989E+06,   1.48252E+06,   1.48252E+06
C:/temp/Job-29.odb,Step-1,Increment      1: Step Time =    1.000,"P-29-1",          1738,       32.2017,       48.8334,            0.,NA,NA,"",   1.17462E+06,   1.14677E+06,   1.14677E+06
C:/temp/Job-29.odb,Step-1,Increment      1: Step Time =    1.000,"P-29-1",          1739,       31.5105,       55.0783,            0.,NA,NA,"",   1.04751E+06,   1.02321E+06,   1.02321E+06
C:/temp/Job-29.odb,Step-1,Increment      1: Step Time =    1.000,"P-29-1",          1740,       172.194,       107.673,            0.,NA,NA,"",   665.055E+03,   740.444E+03,   740.444E+03
C:/temp/Job-29.odb,Step-1,Increment      1: Step Time =    1.000,"P-29-1",          1741,       80.9899,       29.3344,            0.,NA,NA,"",   1.51571E+06,   1.52065E+06,   1.52065E+06
