ODB Name,Step,Frame,Part Instance Name,    Node Label,X,Y,Z,Section Name,Material Name,Section Point,       S-Mises,S-Max. In-Plane Principal (Abs),S-Max. Principal (Abs)
C:/temp/Job-3.odb,Step-1,Increment      1: Step Time =    1.000,"P-3-1",             1,       98.5858,       101.414,            0.,NA,NA,"",   1.07783E+06,   1.03051E+06,   1.03051E+06
C:/temp/Job-3.odb,Step-1,Increment      1: Step Time =    1.000,"P-3-1",             2,           98.,          100.,            0.,NA,NA,"",   717.443E+03,   626.807E+03,   626.807E+03
C:/temp/Job-3.odb,Step-1,Increment      1: Step Time =    1.000,"P-3-1",             3,       98.5858,       98.5858,            0.,NA,NA,"",   1.13393E+06,   1.09524E+06,   1.09524E+06
C:/temp/Job-3.odb,Step-1,Increment      1: Step Time =    1.000,"P-3-1",             4,          100.,           98.,            0.,NA,NA,"",   1.35958E+06,   1.45178E+06,   1.45178E+06
C:/temp/Job-3.odb,Step-1,Increment      1: Step Time =    1.000,"P-3-1",             5,       101.414,       98.5858,            0.,NA,NA,"",   1.13157E+06,   1.09112E+06,   1.09112E+06
C:/temp/Job-3.odb,Step-1,Increment      1: Step Time =    1.000,"P-3-1",             6,          102.,          100.,            0.,NA,NA,"",   703.332E+03,   614.284E+03,   614.284E+03
C:/temp/Job-3.odb,Step-1,Increment      1: Step Time =    1.000,"P-3-1",             7,       101.414,       101.414,            0.,NA,NA,"",   1.08674E+06,   1.07014E+06,   1.07014E+06
C:/temp/Job-3.odb,Step-1,Increment      1: Step Time =    1.000,"P-3-1",             8,          100.,          102.,            0.,NA,NA,"",   1.33910E+06,   1.39952E+06,   1.39952E+06
C:/temp/Job-3.odb,Step-1,Increment      1: Step Time =    1.000,"P-3-1",             9,          190.,            0.,            0.,NA,NA,"",   999.906E+03,   999.863E+03,   999.863E+03
C:/temp/Job-3.odb,Step-1,Increment      1: Step Time =    1.000,"P-3-1",            10,          180.,            0.,            0.,NA,NA,"",   998.721E+03,   998.677E+03,   998.677E+03
C:/temp/Job-3.odb,Step-1,Increment      1: Step Time =    1.000,"P-3-1",            11,          170.,            0.,            0.,NA,NA,"",   996.157E+03,   996.119E+03,   996.119E+03
C:/temp/Job-3.odb,Step-1,Increment      1: Step Time =    1.000,"P-3-1",            12,          160.,            0.,            0.,NA,NA,"",   992.389E+03,   992.361E+03,   992.361E+03
C:/temp/Job-3.odb,Step-1,Increment      1: Step Time =    1.000,"P-3-1",            13,          150.,            0.,            0.,NA,NA,"",   987.554E+03,   987.533E+03,   987.533E+03
C:/temp/Job-3.odb,Step-1,Increment      1: Step Time =    1.000,"P-3-1",            14,          140.,            0.,            0.,NA,NA,"",   981.868E+03,   981.842E+03,   981.842E+03
C:/temp/Job-3.odb,Step-1,Increment      1: Step Time =    1.000,"P-3-1",            15,          130.,            0.,            0.,NA,NA,"",   975.436E+03,   975.406E+03,   975.406E+03
C:/temp/Job-3.odb,Step-1,Increment      1: Step Time =    1.000,"P-3-1",            16,          120.,            0.,            0.,NA,NA,"",   968.468E+03,   968.447E+03,   968.447E+03
C:/temp/Job-3.odb,Step-1,Increment      1: Step Time =    1.000,"P-3-1",            17,          110.,            0.,            0.,NA,NA,"",   961.159E+03,   961.135E+03,   961.135E+03
C:/temp/Job-3.odb,Step-1,Increment      1: Step Time =    1.000,"P-3-1",            18,          100.,            0.,            0.,NA,NA,"",   953.556E+03,   953.547E+03,   953.547E+03
C:/temp/Job-3.odb,Step-1,Increment      1: Step Time =    1.000,"P-3-1",            19,           90.,            0.,            0.,NA,NA,"",   946.147E+03,   946.174E+03,   946.174E+03
C:/temp/Job-3.odb,Step-1,Increment      1: Step Time =    1.000,"P-3-1",            20,           80.,            0.,            0.,NA,NA,"",   939.363E+03,   939.371E+03,   939.371E+03
C:/temp/Job-3.odb,Step-1,Increment      1: Step Time =    1.000,"P-3-1",            21,           70.,            0.,            0.,NA,NA,"",   933.752E+03,   933.815E+03,   933.815E+03
C:/temp/Job-3.odb,Step-1,Increment      1: Step Time =    1.000,"P-3-1",            22,           60.,            0.,            0.,NA,NA,"",   930.660E+03,   930.695E+03,   930.695E+03
C:/temp/Job-3.odb,Step-1,Increment      1: Step Time =    1.000,"P-3-1",            23,           50.,            0.,            0.,NA,NA,"",   931.593E+03,   931.599E+03,   931.599E+03
C:/temp/Job-3.odb,Step-1,Increment      1: Step Time =    1.000,"P-3-1",            24,           40.,            0.,            0.,NA,NA,"",   940.294E+03,   940.399E+03,   940.399E+03
C:/temp/Job-3.odb,Step-1,Increment      1: Step Time =    1.000,"P-3-1",            25,           30.,            0.,            0.,NA,NA,"",   964.036E+03,   964.588E+03,   964.588E+03
C:/temp/Job-3.odb,Step-1,Increment      1: Step Time =    1.000,"P-3-1",            26,           20.,            0.,            0.,NA,NA,"",   1.02120E+06,   1.02238E+06,   1.02238E+06
C:/temp/Job-3.odb,Step-1,Increment      1: Step Time =    1.000,"P-3-1",            27,           10.,            0.,            0.,NA,NA,"",   1.16682E+06,   1.16974E+06,   1.16974E+06
C:/temp/Job-3.odb,Step-1,Increment      1: Step Time =    1.000,"P-3-1",            28,          200.,            0.,            0.,NA,NA,"",   1.00001E+06,   1.00001E+06,   1.00001E+06
C:/temp/Job-3.odb,Step-1,Increment      1: Step Time =    1.000,"P-3-1",            29,            0.,            0.,            0.,NA,NA,"",   1.50793E+06,   1.57857E+06,   1.57857E+06
C:/temp/Job-3.odb,Step-1,Increment      1: Step Time =    1.000,"P-3-1",            30,          200.,          190.,            0.,NA,NA,"",   999.990E+03,   999.910E+03,   999.910E+03
C:/temp/Job-3.odb,Step-1,Increment      1: Step Time =    1.000,"P-3-1",            31,          200.,          180.,            0.,NA,NA,"",   1.00058E+06,   999.917E+03,   999.917E+03
C:/temp/Job-3.odb,Step-1,Increment      1: Step Time =    1.000,"P-3-1",            32,          200.,          170.,            0.,NA,NA,"",   1.00181E+06,   999.960E+03,   999.960E+03
C:/temp/Job-3.odb,Step-1,Increment      1: Step Time =    1.000,"P-3-1",            33,          200.,          160.,            0.,NA,NA,"",   1.00345E+06,   999.995E+03,   999.995E+03
C:/temp/Job-3.odb,Step-1,Increment      1: Step Time =    1.000,"P-3-1",            34,          200.,          150.,            0.,NA,NA,"",    1.0052E+06,   1.00001E+06,   1.00001E+06
C:/temp/Job-3.odb,Step-1,Increment      1: Step Time =    1.000,"P-3-1",            35,          200.,          140.,            0.,NA,NA,"",   1.00685E+06,   1.00003E+06,   1.00003E+06
C:/temp/Job-3.odb,Step-1,Increment      1: Step Time =    1.000,"P-3-1",            36,          200.,          130.,            0.,NA,NA,"",   1.00824E+06,   1.00004E+06,   1.00004E+06
C:/temp/Job-3.odb,Step-1,Increment      1: Step Time =    1.000,"P-3-1",            37,          200.,          120.,            0.,NA,NA,"",   1.00926E+06,   1.00005E+06,   1.00005E+06
C:/temp/Job-3.odb,Step-1,Increment      1: Step Time =    1.000,"P-3-1",            38,          200.,          110.,            0.,NA,NA,"",   1.00987E+06,   1.00005E+06,   1.00005E+06
C:/temp/Job-3.odb,Step-1,Increment      1: Step Time =    1.000,"P-3-1",            39,          200.,          100.,            0.,NA,NA,"",   1.01008E+06,   1.00005E+06,   1.00005E+06
C:/temp/Job-3.odb,Step-1,Increment      1: Step Time =    1.000,"P-3-1",            40,          200.,           90.,            0.,NA,NA,"",   1.00988E+06,   1.00006E+06,   1.00006E+06
C:/temp/Job-3.odb,Step-1,Increment      1: Step Time =    1.000,"P-3-1",            41,          200.,           80.,            0.,NA,NA,"",   1.00924E+06,   1.00005E+06,   1.00005E+06
C:/temp/Job-3.odb,Step-1,Increment      1: Step Time =    1.000,"P-3-1",            42,          200.,           70.,            0.,NA,NA,"",   1.00819E+06,   1.00005E+06,   1.00005E+06
C:/temp/Job-3.odb,Step-1,Increment      1: Step Time =    1.000,"P-3-1",            43,          200.,           60.,            0.,NA,NA,"",   1.00681E+06,   1.00003E+06,   1.00003E+06
C:/temp/Job-3.odb,Step-1,Increment      1: Step Time =    1.000,"P-3-1",            44,          200.,           50.,            0.,NA,NA,"",   1.00516E+06,   999.997E+03,   999.997E+03
C:/temp/Job-3.odb,Step-1,Increment      1: Step Time =    1.000,"P-3-1",            45,          200.,           40.,            0.,NA,NA,"",   1.00342E+06,   999.987E+03,   999.987E+03
C:/temp/Job-3.odb,Step-1,Increment      1: Step Time =    1.000,"P-3-1",            46,          200.,           30.,            0.,NA,NA,"",   1.00180E+06,   999.961E+03,   999.961E+03
C:/temp/Job-3.odb,Step-1,Increment      1: Step Time =    1.000,"P-3-1",            47,          200.,           20.,            0.,NA,NA,"",   1.00057E+06,   999.924E+03,   999.924E+03
C:/temp/Job-3.odb,Step-1,Increment      1: Step Time =    1.000,"P-3-1",            48,          200.,           10.,            0.,NA,NA,"",   999.984E+03,   999.917E+03,   999.917E+03
C:/temp/Job-3.odb,Step-1,Increment      1: Step Time =    1.000,"P-3-1",            49,          200.,          200.,            0.,NA,NA,"",   1.00001E+06,   1.00001E+06,   1.00001E+06
C:/temp/Job-3.odb,Step-1,Increment      1: Step Time =    1.000,"P-3-1",            50,           10.,          200.,            0.,NA,NA,"",   1.16795E+06,   1.17054E+06,   1.17054E+06
C:/temp/Job-3.odb,Step-1,Increment      1: Step Time =    1.000,"P-3-1",            51,           20.,          200.,            0.,NA,NA,"",   1.02256E+06,   1.02373E+06,   1.02373E+06
C:/temp/Job-3.odb,Step-1,Increment      1: Step Time =    1.000,"P-3-1",            52,           30.,          200.,            0.,NA,NA,"",   966.667E+03,   967.293E+03,   967.293E+03
C:/temp/Job-3.odb,Step-1,Increment      1: Step Time =    1.000,"P-3-1",            53,           40.,          200.,            0.,NA,NA,"",   941.524E+03,   941.878E+03,   941.878E+03
C:/temp/Job-3.odb,Step-1,Increment      1: Step Time =    1.000,"P-3-1",            54,           50.,          200.,            0.,NA,NA,"",   931.722E+03,   931.852E+03,   931.852E+03
C:/temp/Job-3.odb,Step-1,Increment      1: Step Time =    1.000,"P-3-1",            55,           60.,          200.,            0.,NA,NA,"",   930.489E+03,   930.562E+03,   930.562E+03
C:/temp/Job-3.odb,Step-1,Increment      1: Step Time =    1.000,"P-3-1",            56,           70.,          200.,            0.,NA,NA,"",   933.846E+03,   933.893E+03,   933.893E+03
C:/temp/Job-3.odb,Step-1,Increment      1: Step Time =    1.000,"P-3-1",            57,           80.,          200.,            0.,NA,NA,"",   939.583E+03,   939.586E+03,   939.586E+03
C:/temp/Job-3.odb,Step-1,Increment      1: Step Time =    1.000,"P-3-1",            58,           90.,          200.,            0.,NA,NA,"",   946.283E+03,   946.281E+03,   946.281E+03
C:/temp/Job-3.odb,Step-1,Increment      1: Step Time =    1.000,"P-3-1",            59,          100.,          200.,            0.,NA,NA,"",   953.591E+03,   953.567E+03,   953.567E+03
C:/temp/Job-3.odb,Step-1,Increment      1: Step Time =    1.000,"P-3-1",            60,          110.,          200.,            0.,NA,NA,"",   961.073E+03,   961.059E+03,   961.059E+03
C:/temp/Job-3.odb,Step-1,Increment      1: Step Time =    1.000,"P-3-1",            61,          120.,          200.,            0.,NA,NA,"",   968.431E+03,   968.413E+03,   968.413E+03
C:/temp/Job-3.odb,Step-1,Increment      1: Step Time =    1.000,"P-3-1",            62,          130.,          200.,            0.,NA,NA,"",   975.413E+03,   975.390E+03,   975.390E+03
C:/temp/Job-3.odb,Step-1,Increment      1: Step Time =    1.000,"P-3-1",            63,          140.,          200.,            0.,NA,NA,"",   981.822E+03,   981.794E+03,   981.794E+03
C:/temp/Job-3.odb,Step-1,Increment      1: Step Time =    1.000,"P-3-1",            64,          150.,          200.,            0.,NA,NA,"",   987.510E+03,   987.481E+03,   987.481E+03
C:/temp/Job-3.odb,Step-1,Increment      1: Step Time =    1.000,"P-3-1",            65,          160.,          200.,            0.,NA,NA,"",   992.352E+03,   992.326E+03,   992.326E+03
C:/temp/Job-3.odb,Step-1,Increment      1: Step Time =    1.000,"P-3-1",            66,          170.,          200.,            0.,NA,NA,"",   996.175E+03,   996.147E+03,   996.147E+03
C:/temp/Job-3.odb,Step-1,Increment      1: Step Time =    1.000,"P-3-1",            67,          180.,          200.,            0.,NA,NA,"",   998.723E+03,   998.682E+03,   998.682E+03
C:/temp/Job-3.odb,Step-1,Increment      1: Step Time =    1.000,"P-3-1",            68,          190.,          200.,            0.,NA,NA,"",    999.89E+03,   999.846E+03,   999.846E+03
C:/temp/Job-3.odb,Step-1,Increment      1: Step Time =    1.000,"P-3-1",            69,            0.,          200.,            0.,NA,NA,"",   1.50887E+06,   1.58073E+06,   1.58073E+06
C:/temp/Job-3.odb,Step-1,Increment      1: Step Time =    1.000,"P-3-1",            70,            0.,           10.,            0.,NA,NA,"",   1.09543E+06,   1.19029E+06,   1.19029E+06
C:/temp/Job-3.odb,Step-1,Increment      1: Step Time =    1.000,"P-3-1",            71,            0.,           20.,            0.,NA,NA,"",   964.561E+03,   1.06322E+06,   1.06322E+06
C:/temp/Job-3.odb,Step-1,Increment      1: Step Time =    1.000,"P-3-1",            72,            0.,           30.,            0.,NA,NA,"",   908.103E+03,   1.00886E+06,   1.00886E+06
C:/temp/Job-3.odb,Step-1,Increment      1: Step Time =    1.000,"P-3-1",            73,            0.,           40.,            0.,NA,NA,"",   876.965E+03,   979.299E+03,   979.299E+03
C:/temp/Job-3.odb,Step-1,Increment      1: Step Time =    1.000,"P-3-1",            74,            0.,           50.,            0.,NA,NA,"",   857.905E+03,   961.412E+03,   961.412E+03
C:/temp/Job-3.odb,Step-1,Increment      1: Step Time =    1.000,"P-3-1",            75,            0.,           60.,            0.,NA,NA,"",   845.419E+03,   949.739E+03,   949.739E+03
C:/temp/Job-3.odb,Step-1,Increment      1: Step Time =    1.000,"P-3-1",            76,            0.,           70.,            0.,NA,NA,"",   837.172E+03,   942.015E+03,   942.015E+03
C:/temp/Job-3.odb,Step-1,Increment      1: Step Time =    1.000,"P-3-1",            77,            0.,           80.,            0.,NA,NA,"",   832.000E+03,   937.153E+03,   937.153E+03
C:/temp/Job-3.odb,Step-1,Increment      1: Step Time =    1.000,"P-3-1",            78,            0.,           90.,            0.,NA,NA,"",   829.131E+03,   934.455E+03,   934.455E+03
C:/temp/Job-3.odb,Step-1,Increment      1: Step Time =    1.000,"P-3-1",            79,            0.,          100.,            0.,NA,NA,"",   828.180E+03,   933.559E+03,   933.559E+03
C:/temp/Job-3.odb,Step-1,Increment      1: Step Time =    1.000,"P-3-1",            80,            0.,          110.,            0.,NA,NA,"",   829.235E+03,   934.522E+03,   934.522E+03
C:/temp/Job-3.odb,Step-1,Increment      1: Step Time =    1.000,"P-3-1",            81,            0.,          120.,            0.,NA,NA,"",   832.421E+03,   937.410E+03,   937.410E+03
C:/temp/Job-3.odb,Step-1,Increment      1: Step Time =    1.000,"P-3-1",            82,            0.,          130.,            0.,NA,NA,"",   837.733E+03,   942.364E+03,   942.364E+03
C:/temp/Job-3.odb,Step-1,Increment      1: Step Time =    1.000,"P-3-1",            83,            0.,          140.,            0.,NA,NA,"",   845.577E+03,   949.795E+03,   949.795E+03
C:/temp/Job-3.odb,Step-1,Increment      1: Step Time =    1.000,"P-3-1",            84,            0.,          150.,            0.,NA,NA,"",   857.487E+03,   961.159E+03,   961.159E+03
C:/temp/Job-3.odb,Step-1,Increment      1: Step Time =    1.000,"P-3-1",            85,            0.,          160.,            0.,NA,NA,"",   876.303E+03,   978.899E+03,   978.899E+03
C:/temp/Job-3.odb,Step-1,Increment      1: Step Time =    1.000,"P-3-1",            86,            0.,          170.,            0.,NA,NA,"",   907.417E+03,   1.00834E+06,   1.00834E+06
C:/temp/Job-3.odb,Step-1,Increment      1: Step Time =    1.000,"P-3-1",            87,            0.,          180.,            0.,NA,NA,"",   963.581E+03,   1.06244E+06,   1.06244E+06
C:/temp/Job-3.odb,Step-1,Increment      1: Step Time =    1.000,"P-3-1",            88,            0.,          190.,            0.,NA,NA,"",   1.09540E+06,   1.19055E+06,   1.19055E+06
C:/temp/Job-3.odb,Step-1,Increment      1: Step Time =    1.000,"P-3-1",            89,       106.100,       93.9974,            0.,NA,NA,"",   1.06903E+06,   1.05568E+06,   1.05568E+06
C:/temp/Job-3.odb,Step-1,Increment      1: Step Time =    1.000,"P-3-1",            90,       189.376,       95.2251,            0.,NA,NA,"",   1.00867E+06,   1.00048E+06,   1.00048E+06
C:/temp/Job-3.odb,Step-1,Increment      1: Step Time =    1.000,"P-3-1",            91,       189.963,       105.433,            0.,NA,NA,"",   1.00871E+06,   1.00042E+06,   1.00042E+06
C:/temp/Job-3.odb,Step-1,Increment      1: Step Time =    1.000,"P-3-1",            92,       180.920,       106.249,            0.,NA,NA,"",   1.00796E+06,   1.00127E+06,   1.00127E+06
C:/temp/Job-3.odb,Step-1,Increment      1: Step Time =    1.000,"P-3-1",            93,       167.692,       104.801,            0.,NA,NA,"",   1.00816E+06,   1.00316E+06,   1.00316E+06
C:/temp/Job-3.odb,Step-1,Increment      1: Step Time =    1.000,"P-3-1",            94,       158.052,       104.977,            0.,NA,NA,"",   1.00869E+06,   1.00473E+06,   1.00473E+06
C:/temp/Job-3.odb,Step-1,Increment      1: Step Time =    1.000,"P-3-1",            95,       147.936,       105.355,            0.,NA,NA,"",   1.00893E+06,   1.00611E+06,   1.00611E+06
C:/temp/Job-3.odb,Step-1,Increment      1: Step Time =    1.000,"P-3-1",            96,       138.281,       105.432,            0.,NA,NA,"",   1.00833E+06,   1.00679E+06,   1.00679E+06
C:/temp/Job-3.odb,Step-1,Increment      1: Step Time =    1.000,"P-3-1",            97,       127.068,       104.390,            0.,NA,NA,"",   1.00345E+06,   1.00409E+06,   1.00409E+06
C:/temp/Job-3.odb,Step-1,Increment      1: Step Time =    1.000,"P-3-1",            98,       116.726,       105.810,            0.,NA,NA,"",   1.00268E+06,   1.00333E+06,   1.00333E+06
C:/temp/Job-3.odb,Step-1,Increment      1: Step Time =    1.000,"P-3-1",            99,       105.130,       106.657,            0.,NA,NA,"",   1.13883E+06,   1.11851E+06,   1.11851E+06
C:/temp/Job-3.odb,Step-1,Increment      1: Step Time =    1.000,"P-3-1",           100,       92.7210,       105.182,            0.,NA,NA,"",   1.04736E+06,   1.03770E+06,   1.03770E+06
C:/temp/Job-3.odb,Step-1,Increment      1: Step Time =    1.000,"P-3-1",           101,       82.2485,       106.667,            0.,NA,NA,"",   991.592E+03,   1.00836E+06,   1.00836E+06
C:/temp/Job-3.odb,Step-1,Increment      1: Step Time =    1.000,"P-3-1",           102,       72.4594,       104.666,            0.,NA,NA,"",   981.628E+03,   1.00795E+06,   1.00795E+06
C:/temp/Job-3.odb,Step-1,Increment      1: Step Time =    1.000,"P-3-1",           103,       62.9886,       105.967,            0.,NA,NA,"",   973.444E+03,   1.00846E+06,   1.00846E+06
C:/temp/Job-3.odb,Step-1,Increment      1: Step Time =    1.000,"P-3-1",           104,       50.9377,       104.603,            0.,NA,NA,"",   953.165E+03,   1.00176E+06,   1.00176E+06
C:/temp/Job-3.odb,Step-1,Increment      1: Step Time =    1.000,"P-3-1",           105,       42.4950,       102.718,            0.,NA,NA,"",   934.767E+03,   993.951E+03,   993.951E+03
C:/temp/Job-3.odb,Step-1,Increment      1: Step Time =    1.000,"P-3-1",           106,       32.0033,       103.554,            0.,NA,NA,"",   908.688E+03,   981.448E+03,   981.448E+03
C:/temp/Job-3.odb,Step-1,Increment      1: Step Time =    1.000,"P-3-1",           107,       19.5182,       104.484,            0.,NA,NA,"",   874.865E+03,   962.919E+03,   962.919E+03
C:/temp/Job-3.odb,Step-1,Increment      1: Step Time =    1.000,"P-3-1",           108,       9.84977,       104.924,            0.,NA,NA,"",   848.081E+03,   946.682E+03,   946.682E+03
C:/temp/Job-3.odb,Step-1,Increment      1: Step Time =    1.000,"P-3-1",           109,       9.72647,       95.1215,            0.,NA,NA,"",   847.734E+03,   946.482E+03,   946.482E+03
C:/temp/Job-3.odb,Step-1,Increment      1: Step Time =    1.000,"P-3-1",           110,       19.1903,       95.3227,            0.,NA,NA,"",   874.065E+03,   962.486E+03,   962.486E+03
C:/temp/Job-3.odb,Step-1,Increment      1: Step Time =    1.000,"P-3-1",           111,       29.2282,       95.5050,            0.,NA,NA,"",   901.330E+03,   977.532E+03,   977.532E+03
C:/temp/Job-3.odb,Step-1,Increment      1: Step Time =    1.000,"P-3-1",           112,       39.0252,       94.1296,            0.,NA,NA,"",   927.332E+03,   990.659E+03,   990.659E+03
C:/temp/Job-3.odb,Step-1,Increment      1: Step Time =    1.000,"P-3-1",           113,       52.9875,       97.0201,            0.,NA,NA,"",   956.821E+03,   1.00307E+06,   1.00307E+06
C:/temp/Job-3.odb,Step-1,Increment      1: Step Time =    1.000,"P-3-1",           114,       60.7534,       94.6808,            0.,NA,NA,"",   969.741E+03,   1.00726E+06,   1.00726E+06
C:/temp/Job-3.odb,Step-1,Increment      1: Step Time =    1.000,"P-3-1",           115,       72.5729,       94.8708,            0.,NA,NA,"",   981.243E+03,   1.00759E+06,   1.00759E+06
C:/temp/Job-3.odb,Step-1,Increment      1: Step Time =    1.000,"P-3-1",           116,       81.4523,       94.0673,            0.,NA,NA,"",   986.779E+03,   1.00493E+06,   1.00493E+06
C:/temp/Job-3.odb,Step-1,Increment      1: Step Time =    1.000,"P-3-1",           117,       118.362,       92.3027,            0.,NA,NA,"",   1.00895E+06,   1.00855E+06,   1.00855E+06
C:/temp/Job-3.odb,Step-1,Increment      1: Step Time =    1.000,"P-3-1",           118,       130.466,       94.6643,            0.,NA,NA,"",   1.00609E+06,   1.00590E+06,   1.00590E+06
C:/temp/Job-3.odb,Step-1,Increment      1: Step Time =    1.000,"P-3-1",           119,       141.784,       93.6563,            0.,NA,NA,"",   1.00880E+06,   1.00675E+06,   1.00675E+06
C:/temp/Job-3.odb,Step-1,Increment      1: Step Time =    1.000,"P-3-1",           120,       145.063,       92.0629,            0.,NA,NA,"",   1.00918E+06,   1.00665E+06,   1.00665E+06
C:/temp/Job-3.odb,Step-1,Increment      1: Step Time =    1.000,"P-3-1",           121,       158.598,       94.6134,            0.,NA,NA,"",   1.00859E+06,   1.00460E+06,   1.00460E+06
C:/temp/Job-3.odb,Step-1,Increment      1: Step Time =    1.000,"P-3-1",           122,       165.507,       93.7024,            0.,NA,NA,"",   1.00827E+06,   1.00352E+06,   1.00352E+06
C:/temp/Job-3.odb,Step-1,Increment      1: Step Time =    1.000,"P-3-1",           123,       178.400,       92.1196,            0.,NA,NA,"",   1.00792E+06,   1.00161E+06,   1.00161E+06
C:/temp/Job-3.odb,Step-1,Increment      1: Step Time =    1.000,"P-3-1",           124,       189.825,       10.1924,            0.,NA,NA,"",   999.678E+03,   999.346E+03,   999.346E+03
C:/temp/Job-3.odb,Step-1,Increment      1: Step Time =    1.000,"P-3-1",           125,       179.746,       10.2308,            0.,NA,NA,"",   998.280E+03,   997.918E+03,   997.918E+03
C:/temp/Job-3.odb,Step-1,Increment      1: Step Time =    1.000,"P-3-1",           126,       169.734,       10.3159,            0.,NA,NA,"",   996.054E+03,   995.719E+03,   995.719E+03
C:/temp/Job-3.odb,Step-1,Increment      1: Step Time =    1.000,"P-3-1",           127,       159.621,       9.82014,            0.,NA,NA,"",   992.902E+03,   992.646E+03,   992.646E+03
C:/temp/Job-3.odb,Step-1,Increment      1: Step Time =    1.000,"P-3-1",           128,       149.796,       9.51576,            0.,NA,NA,"",   989.155E+03,   988.941E+03,   988.941E+03
C:/temp/Job-3.odb,Step-1,Increment      1: Step Time =    1.000,"P-3-1",           129,       135.141,       9.63806,            0.,NA,NA,"",   982.612E+03,   982.431E+03,   982.431E+03
C:/temp/Job-3.odb,Step-1,Increment      1: Step Time =    1.000,"P-3-1",           130,       125.348,       9.86636,            0.,NA,NA,"",   977.902E+03,   977.767E+03,   977.767E+03
C:/temp/Job-3.odb,Step-1,Increment      1: Step Time =    1.000,"P-3-1",           131,       115.426,       10.4126,            0.,NA,NA,"",   973.108E+03,   973.021E+03,   973.021E+03
C:/temp/Job-3.odb,Step-1,Increment      1: Step Time =    1.000,"P-3-1",           132,       105.215,       10.0760,            0.,NA,NA,"",   967.739E+03,   967.732E+03,   967.732E+03
C:/temp/Job-3.odb,Step-1,Increment      1: Step Time =    1.000,"P-3-1",           133,       94.9870,       10.6046,            0.,NA,NA,"",   963.571E+03,   963.719E+03,   963.719E+03
C:/temp/Job-3.odb,Step-1,Increment      1: Step Time =    1.000,"P-3-1",           134,       84.8960,       9.87360,            0.,NA,NA,"",   958.582E+03,   958.875E+03,   958.875E+03
C:/temp/Job-3.odb,Step-1,Increment      1: Step Time =    1.000,"P-3-1",           135,       74.9834,       9.71948,            0.,NA,NA,"",   955.714E+03,   956.195E+03,   956.195E+03
C:/temp/Job-3.odb,Step-1,Increment      1: Step Time =    1.000,"P-3-1",           136,       64.8789,       10.3315,            0.,NA,NA,"",   957.188E+03,   958.232E+03,   958.232E+03
C:/temp/Job-3.odb,Step-1,Increment      1: Step Time =    1.000,"P-3-1",           137,       54.7732,       9.72248,            0.,NA,NA,"",   959.632E+03,   961.193E+03,   961.193E+03
C:/temp/Job-3.odb,Step-1,Increment      1: Step Time =    1.000,"P-3-1",           138,       40.2014,       9.02170,            0.,NA,NA,"",   975.123E+03,   978.087E+03,   978.087E+03
C:/temp/Job-3.odb,Step-1,Increment      1: Step Time =    1.000,"P-3-1",           139,       30.4858,       9.17618,            0.,NA,NA,"",   1.00334E+06,   1.00927E+06,   1.00927E+06
C:/temp/Job-3.odb,Step-1,Increment      1: Step Time =    1.000,"P-3-1",           140,       20.6097,       10.0330,            0.,NA,NA,"",   1.05690E+06,   1.07093E+06,   1.07093E+06
C:/temp/Job-3.odb,Step-1,Increment      1: Step Time =    1.000,"P-3-1",           141,       10.4313,       10.2997,            0.,NA,NA,"",   1.13781E+06,   1.17667E+06,   1.17667E+06
C:/temp/Job-3.odb,Step-1,Increment      1: Step Time =    1.000,"P-3-1",           142,       189.931,       20.1980,            0.,NA,NA,"",   1.00042E+06,   999.381E+03,   999.381E+03
C:/temp/Job-3.odb,Step-1,Increment      1: Step Time =    1.000,"P-3-1",           143,       179.061,       20.9565,            0.,NA,NA,"",   999.203E+03,   998.035E+03,   998.035E+03
C:/temp/Job-3.odb,Step-1,Increment      1: Step Time =    1.000,"P-3-1",           144,       171.776,       23.0244,            0.,NA,NA,"",   998.454E+03,   997.193E+03,   997.193E+03
C:/temp/Job-3.odb,Step-1,Increment      1: Step Time =    1.000,"P-3-1",           145,       162.542,       24.8629,            0.,NA,NA,"",   997.299E+03,   996.032E+03,   996.032E+03
C:/temp/Job-3.odb,Step-1,Increment      1: Step Time =    1.000,"P-3-1",           146,       144.951,       19.0191,            0.,NA,NA,"",   991.113E+03,   990.472E+03,   990.472E+03
C:/temp/Job-3.odb,Step-1,Increment      1: Step Time =    1.000,"P-3-1",           147,       137.306,       23.6133,            0.,NA,NA,"",   991.656E+03,   990.885E+03,   990.885E+03
C:/temp/Job-3.odb,Step-1,Increment      1: Step Time =    1.000,"P-3-1",           148,       126.737,       23.1323,            0.,NA,NA,"",   988.999E+03,   988.480E+03,   988.480E+03
C:/temp/Job-3.odb,Step-1,Increment      1: Step Time =    1.000,"P-3-1",           149,       112.748,       20.1224,            0.,NA,NA,"",   982.400E+03,   982.317E+03,   982.317E+03
C:/temp/Job-3.odb,Step-1,Increment      1: Step Time =    1.000,"P-3-1",           150,       105.503,       18.7616,            0.,NA,NA,"",   978.830E+03,   978.931E+03,   978.931E+03
C:/temp/Job-3.odb,Step-1,Increment      1: Step Time =    1.000,"P-3-1",           151,       91.9623,       21.9485,            0.,NA,NA,"",   980.596E+03,   981.604E+03,   981.604E+03
C:/temp/Job-3.odb,Step-1,Increment      1: Step Time =    1.000,"P-3-1",           152,       84.0034,       18.8730,            0.,NA,NA,"",   975.166E+03,   976.238E+03,   976.238E+03
C:/temp/Job-3.odb,Step-1,Increment      1: Step Time =    1.000,"P-3-1",           153,       75.0997,       19.8312,            0.,NA,NA,"",   977.335E+03,   979.470E+03,   979.470E+03
C:/temp/Job-3.odb,Step-1,Increment      1: Step Time =    1.000,"P-3-1",           154,       62.0934,       21.3778,            0.,NA,NA,"",   983.651E+03,   988.645E+03,   988.645E+03
C:/temp/Job-3.odb,Step-1,Increment      1: Step Time =    1.000,"P-3-1",           155,       49.0362,       18.6769,            0.,NA,NA,"",   988.398E+03,   995.659E+03,   995.659E+03
C:/temp/Job-3.odb,Step-1,Increment      1: Step Time =    1.000,"P-3-1",           156,       39.9305,       17.8833,            0.,NA,NA,"",   1.00021E+06,   1.01071E+06,   1.01071E+06
C:/temp/Job-3.odb,Step-1,Increment      1: Step Time =    1.000,"P-3-1",           157,       31.4812,       17.0928,            0.,NA,NA,"",   1.01683E+06,   1.03226E+06,   1.03226E+06
C:/temp/Job-3.odb,Step-1,Increment      1: Step Time =    1.000,"P-3-1",           158,       22.5542,       21.1972,            0.,NA,NA,"",   1.02266E+06,   1.05883E+06,   1.05883E+06
C:/temp/Job-3.odb,Step-1,Increment      1: Step Time =    1.000,"P-3-1",           159,       10.6817,       20.5444,            0.,NA,NA,"",   1.00583E+06,   1.07648E+06,   1.07648E+06
C:/temp/Job-3.odb,Step-1,Increment      1: Step Time =    1.000,"P-3-1",           160,       190.368,       30.1210,            0.,NA,NA,"",   1.00173E+06,   999.658E+03,   999.658E+03
C:/temp/Job-3.odb,Step-1,Increment      1: Step Time =    1.000,"P-3-1",           161,       181.487,       30.4680,            0.,NA,NA,"",   1.00116E+06,   999.064E+03,   999.064E+03
C:/temp/Job-3.odb,Step-1,Increment      1: Step Time =    1.000,"P-3-1",           162,       168.003,       31.8975,            0.,NA,NA,"",   1.00000E+06,   998.038E+03,   998.038E+03
C:/temp/Job-3.odb,Step-1,Increment      1: Step Time =    1.000,"P-3-1",           163,       157.522,       34.7749,            0.,NA,NA,"",   999.934E+03,   997.984E+03,   997.984E+03
C:/temp/Job-3.odb,Step-1,Increment      1: Step Time =    1.000,"P-3-1",           164,       149.004,       28.8551,            0.,NA,NA,"",   996.647E+03,   995.313E+03,   995.313E+03
C:/temp/Job-3.odb,Step-1,Increment      1: Step Time =    1.000,"P-3-1",           165,       135.500,       27.2261,            0.,NA,NA,"",   993.399E+03,   992.507E+03,   992.507E+03
C:/temp/Job-3.odb,Step-1,Increment      1: Step Time =    1.000,"P-3-1",           166,       125.246,       29.2258,            0.,NA,NA,"",   993.213E+03,   992.621E+03,   992.621E+03
C:/temp/Job-3.odb,Step-1,Increment      1: Step Time =    1.000,"P-3-1",           167,       115.955,       30.8181,            0.,NA,NA,"",   993.165E+03,   993.111E+03,   993.111E+03
C:/temp/Job-3.odb,Step-1,Increment      1: Step Time =    1.000,"P-3-1",           168,       106.396,       29.7850,            0.,NA,NA,"",   990.928E+03,   991.661E+03,   991.661E+03
C:/temp/Job-3.odb,Step-1,Increment      1: Step Time =    1.000,"P-3-1",           169,       93.5299,       35.5259,            0.,NA,NA,"",   995.601E+03,   998.422E+03,   998.422E+03
C:/temp/Job-3.odb,Step-1,Increment      1: Step Time =    1.000,"P-3-1",           170,       84.8060,       33.3589,            0.,NA,NA,"",   993.991E+03,   997.928E+03,   997.928E+03
C:/temp/Job-3.odb,Step-1,Increment      1: Step Time =    1.000,"P-3-1",           171,       76.8341,       30.2826,            0.,NA,NA,"",   991.581E+03,   996.301E+03,   996.301E+03
C:/temp/Job-3.odb,Step-1,Increment      1: Step Time =    1.000,"P-3-1",           172,       60.6115,       31.2078,            0.,NA,NA,"",   994.911E+03,   1.00554E+06,   1.00554E+06
C:/temp/Job-3.odb,Step-1,Increment      1: Step Time =    1.000,"P-3-1",           173,       55.3622,       33.4328,            0.,NA,NA,"",   996.083E+03,   1.01117E+06,   1.01117E+06
C:/temp/Job-3.odb,Step-1,Increment      1: Step Time =    1.000,"P-3-1",           174,       43.3027,       31.6224,            0.,NA,NA,"",   995.539E+03,   1.01957E+06,   1.01957E+06
C:/temp/Job-3.odb,Step-1,Increment      1: Step Time =    1.000,"P-3-1",           175,       34.5877,       34.3562,            0.,NA,NA,"",   988.576E+03,   1.02479E+06,   1.02479E+06
C:/temp/Job-3.odb,Step-1,Increment      1: Step Time =    1.000,"P-3-1",           176,       20.4663,       31.7842,            0.,NA,NA,"",   972.858E+03,   1.03285E+06,   1.03285E+06
C:/temp/Job-3.odb,Step-1,Increment      1: Step Time =    1.000,"P-3-1",           177,       10.3409,       30.6219,            0.,NA,NA,"",   941.748E+03,   1.02491E+06,   1.02491E+06
C:/temp/Job-3.odb,Step-1,Increment      1: Step Time =    1.000,"P-3-1",           178,       190.443,       39.8890,            0.,NA,NA,"",   1.00322E+06,   999.907E+03,   999.907E+03
C:/temp/Job-3.odb,Step-1,Increment      1: Step Time =    1.000,"P-3-1",           179,       180.990,       39.4817,            0.,NA,NA,"",   1.00268E+06,   999.672E+03,   999.672E+03
C:/temp/Job-3.odb,Step-1,Increment      1: Step Time =    1.000,"P-3-1",           180,       156.235,       44.9176,            0.,NA,NA,"",   1.00338E+06,   1.00072E+06,   1.00072E+06
C:/temp/Job-3.odb,Step-1,Increment      1: Step Time =    1.000,"P-3-1",           181,       146.614,       44.2990,            0.,NA,NA,"",   1.00339E+06,   1.00114E+06,   1.00114E+06
C:/temp/Job-3.odb,Step-1,Increment      1: Step Time =    1.000,"P-3-1",           182,       134.693,       40.8701,            0.,NA,NA,"",   1.00170E+06,   1.00025E+06,   1.00025E+06
C:/temp/Job-3.odb,Step-1,Increment      1: Step Time =    1.000,"P-3-1",           183,       124.038,       41.8451,            0.,NA,NA,"",   1.00170E+06,   1.00109E+06,   1.00109E+06
C:/temp/Job-3.odb,Step-1,Increment      1: Step Time =    1.000,"P-3-1",           184,       117.689,       38.7438,            0.,NA,NA,"",   999.336E+03,   999.378E+03,   999.378E+03
C:/temp/Job-3.odb,Step-1,Increment      1: Step Time =    1.000,"P-3-1",           185,       106.873,       43.0890,            0.,NA,NA,"",   1.00150E+06,   1.00334E+06,   1.00334E+06
C:/temp/Job-3.odb,Step-1,Increment      1: Step Time =    1.000,"P-3-1",           186,       93.9711,       42.8350,            0.,NA,NA,"",   1.00096E+06,   1.00515E+06,   1.00515E+06
C:/temp/Job-3.odb,Step-1,Increment      1: Step Time =    1.000,"P-3-1",           187,       81.5338,       42.1446,            0.,NA,NA,"",   1.00038E+06,   1.00757E+06,   1.00757E+06
C:/temp/Job-3.odb,Step-1,Increment      1: Step Time =    1.000,"P-3-1",           188,       76.1030,       41.7539,            0.,NA,NA,"",   999.838E+03,   1.00880E+06,   1.00880E+06
C:/temp/Job-3.odb,Step-1,Increment      1: Step Time =    1.000,"P-3-1",           189,       59.8405,       40.6207,            0.,NA,NA,"",   996.960E+03,   1.01392E+06,   1.01392E+06
C:/temp/Job-3.odb,Step-1,Increment      1: Step Time =    1.000,"P-3-1",           190,       48.5771,       41.8563,            0.,NA,NA,"",   990.458E+03,   1.01827E+06,   1.01827E+06
C:/temp/Job-3.odb,Step-1,Increment      1: Step Time =    1.000,"P-3-1",           191,       41.1313,       41.4762,            0.,NA,NA,"",   983.316E+03,   1.01920E+06,   1.01920E+06
C:/temp/Job-3.odb,Step-1,Increment      1: Step Time =    1.000,"P-3-1",           192,       30.0396,       41.8985,            0.,NA,NA,"",   964.686E+03,   1.01747E+06,   1.01747E+06
C:/temp/Job-3.odb,Step-1,Increment      1: Step Time =    1.000,"P-3-1",           193,       20.0199,       41.3544,            0.,NA,NA,"",   938.914E+03,   1.00990E+06,   1.00990E+06
C:/temp/Job-3.odb,Step-1,Increment      1: Step Time =    1.000,"P-3-1",           194,       10.0578,       40.6636,            0.,NA,NA,"",   905.110E+03,   994.838E+03,   994.838E+03
C:/temp/Job-3.odb,Step-1,Increment      1: Step Time =    1.000,"P-3-1",           195,       190.168,       49.6069,            0.,NA,NA,"",   1.00467E+06,   1.00009E+06,   1.00009E+06
C:/temp/Job-3.odb,Step-1,Increment      1: Step Time =    1.000,"P-3-1",           196,       180.382,       53.3785,            0.,NA,NA,"",   1.00497E+06,   1.00058E+06,   1.00058E+06
C:/temp/Job-3.odb,Step-1,Increment      1: Step Time =    1.000,"P-3-1",           197,       171.578,       52.6642,            0.,NA,NA,"",   1.00489E+06,   1.00109E+06,   1.00109E+06
C:/temp/Job-3.odb,Step-1,Increment      1: Step Time =    1.000,"P-3-1",           198,       159.585,       50.5934,            0.,NA,NA,"",   1.00494E+06,   1.00178E+06,   1.00178E+06
C:/temp/Job-3.odb,Step-1,Increment      1: Step Time =    1.000,"P-3-1",           199,       147.074,       57.2761,            0.,NA,NA,"",   1.00812E+06,   1.00517E+06,   1.00517E+06
C:/temp/Job-3.odb,Step-1,Increment      1: Step Time =    1.000,"P-3-1",           200,       135.956,       51.7870,            0.,NA,NA,"",   1.00736E+06,   1.00535E+06,   1.00535E+06
C:/temp/Job-3.odb,Step-1,Increment      1: Step Time =    1.000,"P-3-1",           201,       123.904,       50.6806,            0.,NA,NA,"",   1.00709E+06,   1.00652E+06,   1.00652E+06
C:/temp/Job-3.odb,Step-1,Increment      1: Step Time =    1.000,"P-3-1",           202,       116.165,       51.3102,            0.,NA,NA,"",   1.00699E+06,   1.00777E+06,   1.00777E+06
C:/temp/Job-3.odb,Step-1,Increment      1: Step Time =    1.000,"P-3-1",           203,       106.965,       51.7789,            0.,NA,NA,"",   1.00637E+06,   1.00929E+06,   1.00929E+06
C:/temp/Job-3.odb,Step-1,Increment      1: Step Time =    1.000,"P-3-1",           204,       95.2651,       52.7312,            0.,NA,NA,"",   1.00576E+06,   1.01178E+06,   1.01178E+06
C:/temp/Job-3.odb,Step-1,Increment      1: Step Time =    1.000,"P-3-1",           205,       81.3674,       51.4168,            0.,NA,NA,"",   1.00390E+06,   1.01420E+06,   1.01420E+06
C:/temp/Job-3.odb,Step-1,Increment      1: Step Time =    1.000,"P-3-1",           206,       72.6671,       50.2476,            0.,NA,NA,"",   1.00151E+06,   1.01535E+06,   1.01535E+06
C:/temp/Job-3.odb,Step-1,Increment      1: Step Time =    1.000,"P-3-1",           207,       59.4464,       45.9061,            0.,NA,NA,"",   995.671E+03,   1.01611E+06,   1.01611E+06
C:/temp/Job-3.odb,Step-1,Increment      1: Step Time =    1.000,"P-3-1",           208,       52.2271,       51.2078,            0.,NA,NA,"",   985.665E+03,   1.01635E+06,   1.01635E+06
C:/temp/Job-3.odb,Step-1,Increment      1: Step Time =    1.000,"P-3-1",           209,       40.8666,       52.7092,            0.,NA,NA,"",   966.310E+03,   1.01226E+06,   1.01226E+06
C:/temp/Job-3.odb,Step-1,Increment      1: Step Time =    1.000,"P-3-1",           210,       34.2666,       55.1382,            0.,NA,NA,"",   948.931E+03,   1.00565E+06,   1.00565E+06
C:/temp/Job-3.odb,Step-1,Increment      1: Step Time =    1.000,"P-3-1",           211,       20.7721,       51.5749,            0.,NA,NA,"",   918.072E+03,   994.285E+03,   994.285E+03
C:/temp/Job-3.odb,Step-1,Increment      1: Step Time =    1.000,"P-3-1",           212,       9.90665,       50.6119,            0.,NA,NA,"",   882.715E+03,   976.161E+03,   976.161E+03
C:/temp/Job-3.odb,Step-1,Increment      1: Step Time =    1.000,"P-3-1",           213,       189.014,       64.9524,            0.,NA,NA,"",   1.00670E+06,   1.00039E+06,   1.00039E+06
C:/temp/Job-3.odb,Step-1,Increment      1: Step Time =    1.000,"P-3-1",           214,       178.550,       61.6744,            0.,NA,NA,"",   1.00608E+06,   1.00115E+06,   1.00115E+06
C:/temp/Job-3.odb,Step-1,Increment      1: Step Time =    1.000,"P-3-1",           215,       171.062,       60.9419,            0.,NA,NA,"",   1.00622E+06,   1.00186E+06,   1.00186E+06
C:/temp/Job-3.odb,Step-1,Increment      1: Step Time =    1.000,"P-3-1",           216,       157.235,       62.9435,            0.,NA,NA,"",   1.00788E+06,   1.00421E+06,   1.00421E+06
C:/temp/Job-3.odb,Step-1,Increment      1: Step Time =    1.000,"P-3-1",           217,       149.183,       62.2057,            0.,NA,NA,"",   1.00896E+06,   1.00572E+06,   1.00572E+06
C:/temp/Job-3.odb,Step-1,Increment      1: Step Time =    1.000,"P-3-1",           218,       139.845,       64.8412,            0.,NA,NA,"",   1.01135E+06,   1.00859E+06,   1.00859E+06
C:/temp/Job-3.odb,Step-1,Increment      1: Step Time =    1.000,"P-3-1",           219,       125.154,       63.7643,            0.,NA,NA,"",   1.01371E+06,   1.01272E+06,   1.01272E+06
C:/temp/Job-3.odb,Step-1,Increment      1: Step Time =    1.000,"P-3-1",           220,       115.896,       61.0603,            0.,NA,NA,"",   1.01202E+06,   1.01331E+06,   1.01331E+06
C:/temp/Job-3.odb,Step-1,Increment      1: Step Time =    1.000,"P-3-1",           221,       104.413,       61.3480,            0.,NA,NA,"",   1.00960E+06,   1.01483E+06,   1.01483E+06
C:/temp/Job-3.odb,Step-1,Increment      1: Step Time =    1.000,"P-3-1",           222,       94.7225,       64.7385,            0.,NA,NA,"",   1.00899E+06,   1.01812E+06,   1.01812E+06
C:/temp/Job-3.odb,Step-1,Increment      1: Step Time =    1.000,"P-3-1",           223,       81.2461,       59.5576,            0.,NA,NA,"",   1.00569E+06,   1.01826E+06,   1.01826E+06
C:/temp/Job-3.odb,Step-1,Increment      1: Step Time =    1.000,"P-3-1",           224,       73.7749,       62.2051,            0.,NA,NA,"",   1.00219E+06,   1.01953E+06,   1.01953E+06
C:/temp/Job-3.odb,Step-1,Increment      1: Step Time =    1.000,"P-3-1",           225,       63.6012,       62.2834,            0.,NA,NA,"",   992.136E+03,   1.01772E+06,   1.01772E+06
C:/temp/Job-3.odb,Step-1,Increment      1: Step Time =    1.000,"P-3-1",           226,       53.8777,       64.1980,            0.,NA,NA,"",   977.373E+03,   1.01376E+06,   1.01376E+06
C:/temp/Job-3.odb,Step-1,Increment      1: Step Time =    1.000,"P-3-1",           227,       43.7067,       64.5426,            0.,NA,NA,"",   958.128E+03,   1.00700E+06,   1.00700E+06
C:/temp/Job-3.odb,Step-1,Increment      1: Step Time =    1.000,"P-3-1",           228,       33.6653,       63.6773,            0.,NA,NA,"",   935.149E+03,   997.810E+03,   997.810E+03
C:/temp/Job-3.odb,Step-1,Increment      1: Step Time =    1.000,"P-3-1",           229,       23.8495,       62.0245,            0.,NA,NA,"",   910.101E+03,   986.458E+03,   986.458E+03
C:/temp/Job-3.odb,Step-1,Increment      1: Step Time =    1.000,"P-3-1",           230,       9.41373,       65.3225,            0.,NA,NA,"",   861.933E+03,   958.821E+03,   958.821E+03
C:/temp/Job-3.odb,Step-1,Increment      1: Step Time =    1.000,"P-3-1",           231,       189.589,       75.1797,            0.,NA,NA,"",   1.00773E+06,   1.00043E+06,   1.00043E+06
C:/temp/Job-3.odb,Step-1,Increment      1: Step Time =    1.000,"P-3-1",           232,       179.278,       76.2832,            0.,NA,NA,"",   1.00738E+06,   1.00144E+06,   1.00144E+06
C:/temp/Job-3.odb,Step-1,Increment      1: Step Time =    1.000,"P-3-1",           233,       168.811,       72.6301,            0.,NA,NA,"",   1.00762E+06,   1.00283E+06,   1.00283E+06
C:/temp/Job-3.odb,Step-1,Increment      1: Step Time =    1.000,"P-3-1",           234,       154.578,       77.5697,            0.,NA,NA,"",   1.00959E+06,   1.00581E+06,   1.00581E+06
C:/temp/Job-3.odb,Step-1,Increment      1: Step Time =    1.000,"P-3-1",           235,       147.863,       76.7034,            0.,NA,NA,"",   1.01076E+06,   1.00743E+06,   1.00743E+06
C:/temp/Job-3.odb,Step-1,Increment      1: Step Time =    1.000,"P-3-1",           236,       138.608,       74.3531,            0.,NA,NA,"",   1.01300E+06,   1.01020E+06,   1.01020E+06
C:/temp/Job-3.odb,Step-1,Increment      1: Step Time =    1.000,"P-3-1",           237,       126.307,       73.0708,            0.,NA,NA,"",   1.01690E+06,   1.01521E+06,   1.01521E+06
C:/temp/Job-3.odb,Step-1,Increment      1: Step Time =    1.000,"P-3-1",           238,       114.096,       73.2325,            0.,NA,NA,"",   1.01856E+06,   1.02037E+06,   1.02037E+06
C:/temp/Job-3.odb,Step-1,Increment      1: Step Time =    1.000,"P-3-1",           239,       106.749,       72.1003,            0.,NA,NA,"",   1.01362E+06,   1.01994E+06,   1.01994E+06
C:/temp/Job-3.odb,Step-1,Increment      1: Step Time =    1.000,"P-3-1",           240,       95.6134,       72.6640,            0.,NA,NA,"",   1.01025E+06,   1.02128E+06,   1.02128E+06
C:/temp/Job-3.odb,Step-1,Increment      1: Step Time =    1.000,"P-3-1",           241,       84.7818,       71.7512,            0.,NA,NA,"",   1.01022E+06,   1.02342E+06,   1.02342E+06
C:/temp/Job-3.odb,Step-1,Increment      1: Step Time =    1.000,"P-3-1",           242,       68.9388,       73.5438,            0.,NA,NA,"",   994.540E+03,   1.01891E+06,   1.01891E+06
C:/temp/Job-3.odb,Step-1,Increment      1: Step Time =    1.000,"P-3-1",           243,       64.5374,       74.1801,            0.,NA,NA,"",   988.443E+03,   1.01688E+06,   1.01688E+06
C:/temp/Job-3.odb,Step-1,Increment      1: Step Time =    1.000,"P-3-1",           244,       52.3796,       75.3519,            0.,NA,NA,"",   966.745E+03,   1.00913E+06,   1.00913E+06
C:/temp/Job-3.odb,Step-1,Increment      1: Step Time =    1.000,"P-3-1",           245,       40.2891,       72.9344,            0.,NA,NA,"",   941.725E+03,   999.136E+03,   999.136E+03
C:/temp/Job-3.odb,Step-1,Increment      1: Step Time =    1.000,"P-3-1",           246,       31.5198,       72.4964,            0.,NA,NA,"",   920.354E+03,   989.292E+03,   989.292E+03
C:/temp/Job-3.odb,Step-1,Increment      1: Step Time =    1.000,"P-3-1",           247,       18.8525,       74.8144,            0.,NA,NA,"",   881.978E+03,   968.714E+03,   968.714E+03
C:/temp/Job-3.odb,Step-1,Increment      1: Step Time =    1.000,"P-3-1",           248,       9.56223,       75.1557,            0.,NA,NA,"",   854.620E+03,   952.443E+03,   952.443E+03
C:/temp/Job-3.odb,Step-1,Increment      1: Step Time =    1.000,"P-3-1",           249,       189.899,       85.0827,            0.,NA,NA,"",   1.00841E+06,   1.00045E+06,   1.00045E+06
C:/temp/Job-3.odb,Step-1,Increment      1: Step Time =    1.000,"P-3-1",           250,       180.754,       84.9955,            0.,NA,NA,"",   1.00781E+06,   1.00134E+06,   1.00134E+06
C:/temp/Job-3.odb,Step-1,Increment      1: Step Time =    1.000,"P-3-1",           251,       167.371,       84.7570,            0.,NA,NA,"",   1.00816E+06,   1.00326E+06,   1.00326E+06
C:/temp/Job-3.odb,Step-1,Increment      1: Step Time =    1.000,"P-3-1",           252,       158.777,       85.0743,            0.,NA,NA,"",   1.00886E+06,   1.00477E+06,   1.00477E+06
C:/temp/Job-3.odb,Step-1,Increment      1: Step Time =    1.000,"P-3-1",           253,       147.405,       83.2595,            0.,NA,NA,"",   1.01021E+06,   1.00712E+06,   1.00712E+06
C:/temp/Job-3.odb,Step-1,Increment      1: Step Time =    1.000,"P-3-1",           254,       138.585,       83.2977,            0.,NA,NA,"",   1.01161E+06,   1.00918E+06,   1.00918E+06
C:/temp/Job-3.odb,Step-1,Increment      1: Step Time =    1.000,"P-3-1",           255,       126.401,       85.1681,            0.,NA,NA,"",   1.01528E+06,   1.01366E+06,   1.01366E+06
C:/temp/Job-3.odb,Step-1,Increment      1: Step Time =    1.000,"P-3-1",           256,       117.266,       85.0940,            0.,NA,NA,"",   1.02339E+06,   1.02168E+06,   1.02168E+06
C:/temp/Job-3.odb,Step-1,Increment      1: Step Time =    1.000,"P-3-1",           257,       106.588,       83.3826,            0.,NA,NA,"",   1.02403E+06,   1.03107E+06,   1.03107E+06
C:/temp/Job-3.odb,Step-1,Increment      1: Step Time =    1.000,"P-3-1",           258,       95.4152,       82.9215,            0.,NA,NA,"",   1.01440E+06,   1.02940E+06,   1.02940E+06
C:/temp/Job-3.odb,Step-1,Increment      1: Step Time =    1.000,"P-3-1",           259,       82.7758,       83.4019,            0.,NA,NA,"",   1.01302E+06,   1.02666E+06,   1.02666E+06
C:/temp/Job-3.odb,Step-1,Increment      1: Step Time =    1.000,"P-3-1",           260,       71.3268,       82.4924,            0.,NA,NA,"",   993.461E+03,   1.01769E+06,   1.01769E+06
C:/temp/Job-3.odb,Step-1,Increment      1: Step Time =    1.000,"P-3-1",           261,       63.2487,       84.0740,            0.,NA,NA,"",   980.152E+03,   1.01265E+06,   1.01265E+06
C:/temp/Job-3.odb,Step-1,Increment      1: Step Time =    1.000,"P-3-1",           262,       52.3171,       85.6899,            0.,NA,NA,"",   959.708E+03,   1.00516E+06,   1.00516E+06
C:/temp/Job-3.odb,Step-1,Increment      1: Step Time =    1.000,"P-3-1",           263,       43.3847,       82.6698,            0.,NA,NA,"",   942.027E+03,   998.096E+03,   998.096E+03
C:/temp/Job-3.odb,Step-1,Increment      1: Step Time =    1.000,"P-3-1",           264,       29.4754,       86.6212,            0.,NA,NA,"",   904.466E+03,   979.654E+03,   979.654E+03
C:/temp/Job-3.odb,Step-1,Increment      1: Step Time =    1.000,"P-3-1",           265,       18.9423,       87.7715,            0.,NA,NA,"",   875.317E+03,   963.566E+03,   963.566E+03
C:/temp/Job-3.odb,Step-1,Increment      1: Step Time =    1.000,"P-3-1",           266,       10.0436,       85.1399,            0.,NA,NA,"",    850.84E+03,   948.956E+03,   948.956E+03
C:/temp/Job-3.odb,Step-1,Increment      1: Step Time =    1.000,"P-3-1",           267,       189.749,       115.639,            0.,NA,NA,"",   1.00837E+06,   1.00044E+06,   1.00044E+06
C:/temp/Job-3.odb,Step-1,Increment      1: Step Time =    1.000,"P-3-1",           268,       180.963,       113.489,            0.,NA,NA,"",   1.00788E+06,   1.00134E+06,   1.00134E+06
C:/temp/Job-3.odb,Step-1,Increment      1: Step Time =    1.000,"P-3-1",           269,       164.860,       115.705,            0.,NA,NA,"",   1.00837E+06,   1.00373E+06,   1.00373E+06
C:/temp/Job-3.odb,Step-1,Increment      1: Step Time =    1.000,"P-3-1",           270,       158.750,       117.258,            0.,NA,NA,"",   1.00894E+06,   1.00484E+06,   1.00484E+06
C:/temp/Job-3.odb,Step-1,Increment      1: Step Time =    1.000,"P-3-1",           271,       149.071,       114.824,            0.,NA,NA,"",   1.00996E+06,   1.00671E+06,   1.00671E+06
C:/temp/Job-3.odb,Step-1,Increment      1: Step Time =    1.000,"P-3-1",           272,       138.934,       116.497,            0.,NA,NA,"",   1.01171E+06,   1.00928E+06,   1.00928E+06
C:/temp/Job-3.odb,Step-1,Increment      1: Step Time =    1.000,"P-3-1",           273,       126.629,       116.503,            0.,NA,NA,"",   1.01577E+06,   1.01407E+06,   1.01407E+06
C:/temp/Job-3.odb,Step-1,Increment      1: Step Time =    1.000,"P-3-1",           274,       119.696,       117.478,            0.,NA,NA,"",   1.02194E+06,   1.02033E+06,   1.02033E+06
C:/temp/Job-3.odb,Step-1,Increment      1: Step Time =    1.000,"P-3-1",           275,       106.794,       118.924,            0.,NA,NA,"",   1.02166E+06,   1.02840E+06,   1.02840E+06
C:/temp/Job-3.odb,Step-1,Increment      1: Step Time =    1.000,"P-3-1",           276,       93.9223,       116.875,            0.,NA,NA,"",   1.01788E+06,   1.03098E+06,   1.03098E+06
C:/temp/Job-3.odb,Step-1,Increment      1: Step Time =    1.000,"P-3-1",           277,       83.4757,       115.109,            0.,NA,NA,"",   1.01355E+06,   1.02639E+06,   1.02639E+06
C:/temp/Job-3.odb,Step-1,Increment      1: Step Time =    1.000,"P-3-1",           278,       73.0642,       115.800,            0.,NA,NA,"",   994.854E+03,   1.01768E+06,   1.01768E+06
C:/temp/Job-3.odb,Step-1,Increment      1: Step Time =    1.000,"P-3-1",           279,       62.7304,       116.355,            0.,NA,NA,"",   979.471E+03,   1.01257E+06,   1.01257E+06
C:/temp/Job-3.odb,Step-1,Increment      1: Step Time =    1.000,"P-3-1",           280,       50.8150,       115.218,            0.,NA,NA,"",   957.377E+03,   1.00433E+06,   1.00433E+06
C:/temp/Job-3.odb,Step-1,Increment      1: Step Time =    1.000,"P-3-1",           281,       42.1440,       113.410,            0.,NA,NA,"",   937.515E+03,   995.696E+03,   995.696E+03
C:/temp/Job-3.odb,Step-1,Increment      1: Step Time =    1.000,"P-3-1",           282,       27.3693,       115.406,            0.,NA,NA,"",   899.470E+03,   977.262E+03,   977.262E+03
C:/temp/Job-3.odb,Step-1,Increment      1: Step Time =    1.000,"P-3-1",           283,       20.9129,       114.318,            0.,NA,NA,"",   881.862E+03,   967.457E+03,   967.457E+03
C:/temp/Job-3.odb,Step-1,Increment      1: Step Time =    1.000,"P-3-1",           284,       10.1437,       114.771,            0.,NA,NA,"",   851.102E+03,   949.106E+03,   949.106E+03
C:/temp/Job-3.odb,Step-1,Increment      1: Step Time =    1.000,"P-3-1",           285,       190.165,       125.529,            0.,NA,NA,"",   1.00774E+06,   1.00040E+06,   1.00040E+06
C:/temp/Job-3.odb,Step-1,Increment      1: Step Time =    1.000,"P-3-1",           286,       180.069,       126.572,            0.,NA,NA,"",   1.00723E+06,   1.00133E+06,   1.00133E+06
C:/temp/Job-3.odb,Step-1,Increment      1: Step Time =    1.000,"P-3-1",           287,       169.746,       129.204,            0.,NA,NA,"",   1.00749E+06,   1.00274E+06,   1.00274E+06
C:/temp/Job-3.odb,Step-1,Increment      1: Step Time =    1.000,"P-3-1",           288,       160.388,       126.878,            0.,NA,NA,"",   1.00852E+06,   1.00435E+06,   1.00435E+06
C:/temp/Job-3.odb,Step-1,Increment      1: Step Time =    1.000,"P-3-1",           289,       150.249,       127.983,            0.,NA,NA,"",   1.01016E+06,   1.00667E+06,   1.00667E+06
C:/temp/Job-3.odb,Step-1,Increment      1: Step Time =    1.000,"P-3-1",           290,       136.296,       126.533,            0.,NA,NA,"",   1.01364E+06,   1.01101E+06,   1.01101E+06
C:/temp/Job-3.odb,Step-1,Increment      1: Step Time =    1.000,"P-3-1",           291,       115.052,       128.353,            0.,NA,NA,"",   1.01762E+06,   1.01927E+06,   1.01927E+06
C:/temp/Job-3.odb,Step-1,Increment      1: Step Time =    1.000,"P-3-1",           292,       107.166,       128.540,            0.,NA,NA,"",   1.01360E+06,   1.01944E+06,   1.01944E+06
C:/temp/Job-3.odb,Step-1,Increment      1: Step Time =    1.000,"P-3-1",           293,       93.7062,       128.038,            0.,NA,NA,"",   1.01047E+06,   1.02171E+06,   1.02171E+06
C:/temp/Job-3.odb,Step-1,Increment      1: Step Time =    1.000,"P-3-1",           294,       83.4772,       125.882,            0.,NA,NA,"",   1.01032E+06,   1.02428E+06,   1.02428E+06
C:/temp/Job-3.odb,Step-1,Increment      1: Step Time =    1.000,"P-3-1",           295,       75.3053,       127.932,            0.,NA,NA,"",   1.00306E+06,   1.02172E+06,   1.02172E+06
C:/temp/Job-3.odb,Step-1,Increment      1: Step Time =    1.000,"P-3-1",           296,       62.8802,       125.660,            0.,NA,NA,"",   985.551E+03,   1.01588E+06,   1.01588E+06
C:/temp/Job-3.odb,Step-1,Increment      1: Step Time =    1.000,"P-3-1",           297,       51.5543,       127.314,            0.,NA,NA,"",   966.538E+03,   1.00924E+06,   1.00924E+06
C:/temp/Job-3.odb,Step-1,Increment      1: Step Time =    1.000,"P-3-1",           298,       40.8132,       124.203,            0.,NA,NA,"",   940.524E+03,   998.190E+03,   998.190E+03
C:/temp/Job-3.odb,Step-1,Increment      1: Step Time =    1.000,"P-3-1",           299,       31.1614,       126.139,            0.,NA,NA,"",   918.203E+03,   987.994E+03,   987.994E+03
C:/temp/Job-3.odb,Step-1,Increment      1: Step Time =    1.000,"P-3-1",           300,       20.2056,       124.115,            0.,NA,NA,"",   884.757E+03,   970.146E+03,   970.146E+03
C:/temp/Job-3.odb,Step-1,Increment      1: Step Time =    1.000,"P-3-1",           301,       10.3707,       124.828,            0.,NA,NA,"",   856.931E+03,   953.824E+03,   953.824E+03
C:/temp/Job-3.odb,Step-1,Increment      1: Step Time =    1.000,"P-3-1",           302,       190.470,       135.291,            0.,NA,NA,"",   1.00676E+06,   1.00030E+06,   1.00030E+06
C:/temp/Job-3.odb,Step-1,Increment      1: Step Time =    1.000,"P-3-1",           303,       176.002,       136.349,            0.,NA,NA,"",   1.00640E+06,   1.00150E+06,   1.00150E+06
C:/temp/Job-3.odb,Step-1,Increment      1: Step Time =    1.000,"P-3-1",           304,       167.077,       137.128,            0.,NA,NA,"",   1.00688E+06,   1.00266E+06,   1.00266E+06
C:/temp/Job-3.odb,Step-1,Increment      1: Step Time =    1.000,"P-3-1",           305,       154.945,       135.276,            0.,NA,NA,"",   1.00846E+06,   1.00484E+06,   1.00484E+06
C:/temp/Job-3.odb,Step-1,Increment      1: Step Time =    1.000,"P-3-1",           306,       136.434,       135.435,            0.,NA,NA,"",   1.01202E+06,   1.00952E+06,   1.00952E+06
C:/temp/Job-3.odb,Step-1,Increment      1: Step Time =    1.000,"P-3-1",           307,       127.545,       136.266,            0.,NA,NA,"",   1.01322E+06,   1.01185E+06,   1.01185E+06
C:/temp/Job-3.odb,Step-1,Increment      1: Step Time =    1.000,"P-3-1",           308,       115.670,       136.261,            0.,NA,NA,"",   1.01307E+06,   1.01454E+06,   1.01454E+06
C:/temp/Job-3.odb,Step-1,Increment      1: Step Time =    1.000,"P-3-1",           309,       104.821,       137.255,            0.,NA,NA,"",   1.01001E+06,   1.01530E+06,   1.01530E+06
C:/temp/Job-3.odb,Step-1,Increment      1: Step Time =    1.000,"P-3-1",           310,       93.0951,       136.732,            0.,NA,NA,"",   1.00853E+06,   1.01781E+06,   1.01781E+06
C:/temp/Job-3.odb,Step-1,Increment      1: Step Time =    1.000,"P-3-1",           311,       81.9465,       138.547,            0.,NA,NA,"",   1.00636E+06,   1.01907E+06,   1.01907E+06
C:/temp/Job-3.odb,Step-1,Increment      1: Step Time =    1.000,"P-3-1",           312,       72.8318,       135.590,            0.,NA,NA,"",   1.00114E+06,   1.01987E+06,   1.01987E+06
C:/temp/Job-3.odb,Step-1,Increment      1: Step Time =    1.000,"P-3-1",           313,       62.9094,       135.409,            0.,NA,NA,"",   990.619E+03,   1.01753E+06,   1.01753E+06
C:/temp/Job-3.odb,Step-1,Increment      1: Step Time =    1.000,"P-3-1",           314,       50.1497,       139.634,            0.,NA,NA,"",   974.255E+03,   1.01315E+06,   1.01315E+06
C:/temp/Job-3.odb,Step-1,Increment      1: Step Time =    1.000,"P-3-1",           315,       32.5624,       137.543,            0.,NA,NA,"",   933.808E+03,   997.409E+03,   997.409E+03
C:/temp/Job-3.odb,Step-1,Increment      1: Step Time =    1.000,"P-3-1",           316,       21.0889,       138.884,            0.,NA,NA,"",   903.047E+03,   982.998E+03,   982.998E+03
C:/temp/Job-3.odb,Step-1,Increment      1: Step Time =    1.000,"P-3-1",           317,       10.6483,       135.025,            0.,NA,NA,"",   865.665E+03,   961.110E+03,   961.110E+03
C:/temp/Job-3.odb,Step-1,Increment      1: Step Time =    1.000,"P-3-1",           318,       190.583,       149.862,            0.,NA,NA,"",   1.00480E+06,   1.00011E+06,   1.00011E+06
C:/temp/Job-3.odb,Step-1,Increment      1: Step Time =    1.000,"P-3-1",           319,       181.015,       149.820,            0.,NA,NA,"",   1.00448E+06,   1.00037E+06,   1.00037E+06
C:/temp/Job-3.odb,Step-1,Increment      1: Step Time =    1.000,"P-3-1",           320,       166.045,       145.356,            0.,NA,NA,"",   1.00555E+06,   1.00185E+06,   1.00185E+06
C:/temp/Job-3.odb,Step-1,Increment      1: Step Time =    1.000,"P-3-1",           321,       155.617,       147.778,            0.,NA,NA,"",   1.00556E+06,   1.00249E+06,   1.00249E+06
C:/temp/Job-3.odb,Step-1,Increment      1: Step Time =    1.000,"P-3-1",           322,       148.807,       148.893,            0.,NA,NA,"",   1.00586E+06,   1.00314E+06,   1.00314E+06
C:/temp/Job-3.odb,Step-1,Increment      1: Step Time =    1.000,"P-3-1",           323,       135.785,       149.008,            0.,NA,NA,"",   1.00679E+06,   1.00486E+06,   1.00486E+06
C:/temp/Job-3.odb,Step-1,Increment      1: Step Time =    1.000,"P-3-1",           324,       127.180,       147.706,            0.,NA,NA,"",   1.00793E+06,   1.00689E+06,   1.00689E+06
C:/temp/Job-3.odb,Step-1,Increment      1: Step Time =    1.000,"P-3-1",           325,       112.858,       146.383,            0.,NA,NA,"",   1.00788E+06,   1.00953E+06,   1.00953E+06
C:/temp/Job-3.odb,Step-1,Increment      1: Step Time =    1.000,"P-3-1",           326,       104.398,       146.191,            0.,NA,NA,"",   1.00688E+06,   1.01086E+06,   1.01086E+06
C:/temp/Job-3.odb,Step-1,Increment      1: Step Time =    1.000,"P-3-1",           327,       92.8542,       148.560,            0.,NA,NA,"",   1.00509E+06,   1.01148E+06,   1.01148E+06
C:/temp/Job-3.odb,Step-1,Increment      1: Step Time =    1.000,"P-3-1",           328,       83.3879,       147.797,            0.,NA,NA,"",   1.00469E+06,   1.01438E+06,   1.01438E+06
C:/temp/Job-3.odb,Step-1,Increment      1: Step Time =    1.000,"P-3-1",           329,       73.7876,       147.046,            0.,NA,NA,"",   1.00184E+06,   1.01622E+06,   1.01622E+06
C:/temp/Job-3.odb,Step-1,Increment      1: Step Time =    1.000,"P-3-1",           330,       64.2385,       150.168,            0.,NA,NA,"",   997.104E+03,   1.01619E+06,   1.01619E+06
C:/temp/Job-3.odb,Step-1,Increment      1: Step Time =    1.000,"P-3-1",           331,       52.5672,       147.110,            0.,NA,NA,"",   984.942E+03,   1.01629E+06,   1.01629E+06
C:/temp/Job-3.odb,Step-1,Increment      1: Step Time =    1.000,"P-3-1",           332,       44.6262,       147.789,            0.,NA,NA,"",   974.038E+03,   1.01432E+06,   1.01432E+06
C:/temp/Job-3.odb,Step-1,Increment      1: Step Time =    1.000,"P-3-1",           333,       32.1987,       147.366,            0.,NA,NA,"",   947.871E+03,   1.00612E+06,   1.00612E+06
C:/temp/Job-3.odb,Step-1,Increment      1: Step Time =    1.000,"P-3-1",           334,       18.0600,       146.178,            0.,NA,NA,"",   904.328E+03,   986.447E+03,   986.447E+03
C:/temp/Job-3.odb,Step-1,Increment      1: Step Time =    1.000,"P-3-1",           335,       9.45188,       145.056,            0.,NA,NA,"",   874.433E+03,   969.503E+03,   969.503E+03
C:/temp/Job-3.odb,Step-1,Increment      1: Step Time =    1.000,"P-3-1",           336,       190.413,       159.523,            0.,NA,NA,"",   1.00331E+06,   999.926E+03,   999.926E+03
C:/temp/Job-3.odb,Step-1,Increment      1: Step Time =    1.000,"P-3-1",           337,       180.954,       158.912,            0.,NA,NA,"",   1.00297E+06,   999.797E+03,   999.797E+03
C:/temp/Job-3.odb,Step-1,Increment      1: Step Time =    1.000,"P-3-1",           338,       171.295,       158.707,            0.,NA,NA,"",   1.00253E+06,   999.673E+03,   999.673E+03
C:/temp/Job-3.odb,Step-1,Increment      1: Step Time =    1.000,"P-3-1",           339,       159.919,       160.168,            0.,NA,NA,"",   1.00175E+06,   999.344E+03,   999.344E+03
C:/temp/Job-3.odb,Step-1,Increment      1: Step Time =    1.000,"P-3-1",           340,       146.903,       160.004,            0.,NA,NA,"",   1.00147E+06,   999.484E+03,   999.484E+03
C:/temp/Job-3.odb,Step-1,Increment      1: Step Time =    1.000,"P-3-1",           341,       139.854,       157.048,            0.,NA,NA,"",   1.00288E+06,   1.00105E+06,   1.00105E+06
C:/temp/Job-3.odb,Step-1,Increment      1: Step Time =    1.000,"P-3-1",           342,       125.779,       157.776,            0.,NA,NA,"",   1.00221E+06,   1.00143E+06,   1.00143E+06
C:/temp/Job-3.odb,Step-1,Increment      1: Step Time =    1.000,"P-3-1",           343,       112.249,       154.586,            0.,NA,NA,"",   1.00340E+06,   1.00459E+06,   1.00459E+06
C:/temp/Job-3.odb,Step-1,Increment      1: Step Time =    1.000,"P-3-1",           344,       104.594,       159.329,            0.,NA,NA,"",   999.787E+03,   1.00178E+06,   1.00178E+06
C:/temp/Job-3.odb,Step-1,Increment      1: Step Time =    1.000,"P-3-1",           345,       97.1803,       159.087,            0.,NA,NA,"",   999.798E+03,   1.00295E+06,   1.00295E+06
C:/temp/Job-3.odb,Step-1,Increment      1: Step Time =    1.000,"P-3-1",           346,       88.3429,       159.330,            0.,NA,NA,"",   999.675E+03,   1.00462E+06,   1.00462E+06
C:/temp/Job-3.odb,Step-1,Increment      1: Step Time =    1.000,"P-3-1",           347,       73.2032,       157.625,            0.,NA,NA,"",   999.806E+03,   1.01026E+06,   1.01026E+06
C:/temp/Job-3.odb,Step-1,Increment      1: Step Time =    1.000,"P-3-1",           348,       61.8120,       158.553,            0.,NA,NA,"",    996.97E+03,   1.01330E+06,   1.01330E+06
C:/temp/Job-3.odb,Step-1,Increment      1: Step Time =    1.000,"P-3-1",           349,       54.3387,       162.914,            0.,NA,NA,"",   995.396E+03,   1.01375E+06,   1.01375E+06
C:/temp/Job-3.odb,Step-1,Increment      1: Step Time =    1.000,"P-3-1",           350,       40.5625,       156.340,            0.,NA,NA,"",   979.333E+03,   1.01785E+06,   1.01785E+06
C:/temp/Job-3.odb,Step-1,Increment      1: Step Time =    1.000,"P-3-1",           351,       27.5082,       157.904,            0.,NA,NA,"",   957.559E+03,   1.01528E+06,   1.01528E+06
C:/temp/Job-3.odb,Step-1,Increment      1: Step Time =    1.000,"P-3-1",           352,       18.6119,       158.473,            0.,NA,NA,"",   934.609E+03,   1.00837E+06,   1.00837E+06
C:/temp/Job-3.odb,Step-1,Increment      1: Step Time =    1.000,"P-3-1",           353,       9.19056,       159.386,            0.,NA,NA,"",   901.530E+03,   993.032E+03,   993.032E+03
C:/temp/Job-3.odb,Step-1,Increment      1: Step Time =    1.000,"P-3-1",           354,       189.953,       169.382,            0.,NA,NA,"",   1.00176E+06,   999.636E+03,   999.636E+03
C:/temp/Job-3.odb,Step-1,Increment      1: Step Time =    1.000,"P-3-1",           355,       180.399,       168.084,            0.,NA,NA,"",   1.00131E+06,   999.080E+03,   999.080E+03
C:/temp/Job-3.odb,Step-1,Increment      1: Step Time =    1.000,"P-3-1",           356,       168.131,       167.493,            0.,NA,NA,"",   1.00008E+06,   998.084E+03,   998.084E+03
C:/temp/Job-3.odb,Step-1,Increment      1: Step Time =    1.000,"P-3-1",           357,       160.481,       169.487,            0.,NA,NA,"",   998.861E+03,   997.154E+03,   997.154E+03
C:/temp/Job-3.odb,Step-1,Increment      1: Step Time =    1.000,"P-3-1",           358,       147.905,       170.484,            0.,NA,NA,"",   996.670E+03,   995.326E+03,   995.326E+03
C:/temp/Job-3.odb,Step-1,Increment      1: Step Time =    1.000,"P-3-1",           359,       137.787,       166.107,            0.,NA,NA,"",   997.873E+03,   996.558E+03,   996.558E+03
C:/temp/Job-3.odb,Step-1,Increment      1: Step Time =    1.000,"P-3-1",           360,       127.012,       169.278,            0.,NA,NA,"",   994.436E+03,   993.737E+03,   993.737E+03
C:/temp/Job-3.odb,Step-1,Increment      1: Step Time =    1.000,"P-3-1",           361,       116.270,       169.666,            0.,NA,NA,"",   992.639E+03,   992.582E+03,   992.582E+03
C:/temp/Job-3.odb,Step-1,Increment      1: Step Time =    1.000,"P-3-1",           362,       101.495,       167.833,            0.,NA,NA,"",   992.803E+03,   994.083E+03,   994.083E+03
C:/temp/Job-3.odb,Step-1,Increment      1: Step Time =    1.000,"P-3-1",           363,       96.2319,       171.213,            0.,NA,NA,"",   988.999E+03,   990.516E+03,   990.516E+03
C:/temp/Job-3.odb,Step-1,Increment      1: Step Time =    1.000,"P-3-1",           364,       86.1942,       168.593,            0.,NA,NA,"",   992.093E+03,    995.22E+03,    995.22E+03
C:/temp/Job-3.odb,Step-1,Increment      1: Step Time =    1.000,"P-3-1",           365,       73.3341,       167.379,            0.,NA,NA,"",   993.995E+03,   1.00046E+06,   1.00046E+06
C:/temp/Job-3.odb,Step-1,Increment      1: Step Time =    1.000,"P-3-1",           366,       64.3900,       168.609,            0.,NA,NA,"",   994.411E+03,   1.00348E+06,   1.00348E+06
C:/temp/Job-3.odb,Step-1,Increment      1: Step Time =    1.000,"P-3-1",           367,       51.2853,       170.048,            0.,NA,NA,"",   996.284E+03,   1.01177E+06,   1.01177E+06
C:/temp/Job-3.odb,Step-1,Increment      1: Step Time =    1.000,"P-3-1",           368,       42.5220,       169.693,            0.,NA,NA,"",   997.191E+03,   1.02003E+06,   1.02003E+06
C:/temp/Job-3.odb,Step-1,Increment      1: Step Time =    1.000,"P-3-1",           369,       28.8021,       168.474,            0.,NA,NA,"",   989.951E+03,   1.03221E+06,   1.03221E+06
C:/temp/Job-3.odb,Step-1,Increment      1: Step Time =    1.000,"P-3-1",           370,       22.6781,       167.218,            0.,NA,NA,"",   975.246E+03,   1.03200E+06,   1.03200E+06
C:/temp/Job-3.odb,Step-1,Increment      1: Step Time =    1.000,"P-3-1",           371,       10.1136,       169.177,            0.,NA,NA,"",   939.567E+03,   1.02357E+06,   1.02357E+06
C:/temp/Job-3.odb,Step-1,Increment      1: Step Time =    1.000,"P-3-1",           372,       189.402,       179.395,            0.,NA,NA,"",   1.00043E+06,   999.339E+03,   999.339E+03
C:/temp/Job-3.odb,Step-1,Increment      1: Step Time =    1.000,"P-3-1",           373,       177.457,       178.376,            0.,NA,NA,"",   999.035E+03,   997.839E+03,   997.839E+03
C:/temp/Job-3.odb,Step-1,Increment      1: Step Time =    1.000,"P-3-1",           374,       167.915,       182.177,            0.,NA,NA,"",   996.575E+03,   995.790E+03,   995.790E+03
C:/temp/Job-3.odb,Step-1,Increment      1: Step Time =    1.000,"P-3-1",           375,       159.891,       182.074,            0.,NA,NA,"",   994.729E+03,   994.022E+03,   994.022E+03
C:/temp/Job-3.odb,Step-1,Increment      1: Step Time =    1.000,"P-3-1",           376,       145.833,       180.907,            0.,NA,NA,"",   991.471E+03,   990.802E+03,   990.802E+03
C:/temp/Job-3.odb,Step-1,Increment      1: Step Time =    1.000,"P-3-1",           377,       136.581,       175.283,            0.,NA,NA,"",   992.255E+03,   991.437E+03,   991.437E+03
C:/temp/Job-3.odb,Step-1,Increment      1: Step Time =    1.000,"P-3-1",           378,       126.063,       180.021,            0.,NA,NA,"",   986.156E+03,   985.755E+03,   985.755E+03
C:/temp/Job-3.odb,Step-1,Increment      1: Step Time =    1.000,"P-3-1",           379,       116.063,       180.115,            0.,NA,NA,"",   983.058E+03,   982.895E+03,   982.895E+03
C:/temp/Job-3.odb,Step-1,Increment      1: Step Time =    1.000,"P-3-1",           380,       106.181,       180.516,            0.,NA,NA,"",   979.904E+03,   980.043E+03,   980.043E+03
C:/temp/Job-3.odb,Step-1,Increment      1: Step Time =    1.000,"P-3-1",           381,       96.7016,       180.790,            0.,NA,NA,"",   977.405E+03,   977.913E+03,   977.913E+03
C:/temp/Job-3.odb,Step-1,Increment      1: Step Time =    1.000,"P-3-1",           382,       86.9064,       176.516,            0.,NA,NA,"",   982.080E+03,   983.487E+03,   983.487E+03
C:/temp/Job-3.odb,Step-1,Increment      1: Step Time =    1.000,"P-3-1",           383,       78.2536,       174.270,            0.,NA,NA,"",   986.107E+03,   989.177E+03,   989.177E+03
C:/temp/Job-3.odb,Step-1,Increment      1: Step Time =    1.000,"P-3-1",           384,       61.6999,       181.442,            0.,NA,NA,"",   979.129E+03,   982.928E+03,   982.928E+03
C:/temp/Job-3.odb,Step-1,Increment      1: Step Time =    1.000,"P-3-1",           385,       51.0227,       178.195,            0.,NA,NA,"",   992.805E+03,   1.00111E+06,   1.00111E+06
C:/temp/Job-3.odb,Step-1,Increment      1: Step Time =    1.000,"P-3-1",           386,       42.4484,       180.545,            0.,NA,NA,"",   998.101E+03,   1.00882E+06,   1.00882E+06
C:/temp/Job-3.odb,Step-1,Increment      1: Step Time =    1.000,"P-3-1",           387,       32.1323,       176.318,            0.,NA,NA,"",   1.01064E+06,   1.03521E+06,   1.03521E+06
C:/temp/Job-3.odb,Step-1,Increment      1: Step Time =    1.000,"P-3-1",           388,       20.2180,       178.820,            0.,NA,NA,"",   1.02293E+06,   1.06524E+06,   1.06524E+06
C:/temp/Job-3.odb,Step-1,Increment      1: Step Time =    1.000,"P-3-1",           389,       10.1822,       179.500,            0.,NA,NA,"",   1.00434E+06,   1.07654E+06,   1.07654E+06
C:/temp/Job-3.odb,Step-1,Increment      1: Step Time =    1.000,"P-3-1",           390,       189.537,       189.610,            0.,NA,NA,"",   999.650E+03,   999.304E+03,   999.304E+03
C:/temp/Job-3.odb,Step-1,Increment      1: Step Time =    1.000,"P-3-1",           391,       179.237,       189.752,            0.,NA,NA,"",   998.166E+03,   997.811E+03,   997.811E+03
C:/temp/Job-3.odb,Step-1,Increment      1: Step Time =    1.000,"P-3-1",           392,       169.390,       190.643,            0.,NA,NA,"",   995.880E+03,   995.602E+03,   995.602E+03
C:/temp/Job-3.odb,Step-1,Increment      1: Step Time =    1.000,"P-3-1",           393,       159.740,       190.899,            0.,NA,NA,"",   992.816E+03,   992.594E+03,   992.594E+03
C:/temp/Job-3.odb,Step-1,Increment      1: Step Time =    1.000,"P-3-1",           394,       150.049,       190.691,            0.,NA,NA,"",   989.186E+03,   988.974E+03,   988.974E+03
C:/temp/Job-3.odb,Step-1,Increment      1: Step Time =    1.000,"P-3-1",           395,       135.368,       190.286,            0.,NA,NA,"",   982.735E+03,   982.555E+03,   982.555E+03
C:/temp/Job-3.odb,Step-1,Increment      1: Step Time =    1.000,"P-3-1",           396,       125.459,       190.167,            0.,NA,NA,"",   977.860E+03,   977.722E+03,   977.722E+03
C:/temp/Job-3.odb,Step-1,Increment      1: Step Time =    1.000,"P-3-1",           397,       115.533,       190.166,            0.,NA,NA,"",   972.674E+03,   972.600E+03,   972.600E+03
C:/temp/Job-3.odb,Step-1,Increment      1: Step Time =    1.000,"P-3-1",           398,       105.608,       190.207,            0.,NA,NA,"",   967.452E+03,   967.454E+03,   967.454E+03
C:/temp/Job-3.odb,Step-1,Increment      1: Step Time =    1.000,"P-3-1",           399,       95.6036,       190.020,            0.,NA,NA,"",   962.990E+03,   963.099E+03,   963.099E+03
C:/temp/Job-3.odb,Step-1,Increment      1: Step Time =    1.000,"P-3-1",           400,       85.1999,       189.260,            0.,NA,NA,"",   960.262E+03,   960.550E+03,   960.550E+03
C:/temp/Job-3.odb,Step-1,Increment      1: Step Time =    1.000,"P-3-1",           401,       74.8224,       189.639,            0.,NA,NA,"",   957.357E+03,   957.951E+03,   957.951E+03
C:/temp/Job-3.odb,Step-1,Increment      1: Step Time =    1.000,"P-3-1",           402,       64.8354,       189.940,            0.,NA,NA,"",   956.351E+03,   957.353E+03,   957.353E+03
C:/temp/Job-3.odb,Step-1,Increment      1: Step Time =    1.000,"P-3-1",           403,       50.2538,       190.851,            0.,NA,NA,"",   961.008E+03,   962.866E+03,   962.866E+03
C:/temp/Job-3.odb,Step-1,Increment      1: Step Time =    1.000,"P-3-1",           404,       40.6848,       190.221,            0.,NA,NA,"",   976.980E+03,   980.479E+03,   980.479E+03
C:/temp/Job-3.odb,Step-1,Increment      1: Step Time =    1.000,"P-3-1",           405,       30.7193,       189.192,            0.,NA,NA,"",   1.00806E+06,   1.01555E+06,   1.01555E+06
C:/temp/Job-3.odb,Step-1,Increment      1: Step Time =    1.000,"P-3-1",           406,       20.2848,       189.443,            0.,NA,NA,"",   1.05852E+06,   1.07449E+06,   1.07449E+06
C:/temp/Job-3.odb,Step-1,Increment      1: Step Time =    1.000,"P-3-1",           407,       10.1845,       189.719,            0.,NA,NA,"",   1.13959E+06,   1.17953E+06,   1.17953E+06
C:/temp/Job-3.odb,Step-1,Increment      1: Step Time =    1.000,"P-3-1",           408,          195.,            0.,            0.,NA,NA,"",   1.00001E+06,   999.999E+03,   999.999E+03
C:/temp/Job-3.odb,Step-1,Increment      1: Step Time =    1.000,"P-3-1",           409,          185.,            0.,            0.,NA,NA,"",   999.495E+03,   999.446E+03,   999.446E+03
C:/temp/Job-3.odb,Step-1,Increment      1: Step Time =    1.000,"P-3-1",           410,          175.,            0.,            0.,NA,NA,"",   997.605E+03,   997.561E+03,   997.561E+03
C:/temp/Job-3.odb,Step-1,Increment      1: Step Time =    1.000,"P-3-1",           411,          165.,            0.,            0.,NA,NA,"",   994.408E+03,   994.379E+03,   994.379E+03
C:/temp/Job-3.odb,Step-1,Increment      1: Step Time =    1.000,"P-3-1",           412,          155.,            0.,            0.,NA,NA,"",   990.093E+03,   990.069E+03,   990.069E+03
C:/temp/Job-3.odb,Step-1,Increment      1: Step Time =    1.000,"P-3-1",           413,          145.,            0.,            0.,NA,NA,"",   984.809E+03,   984.786E+03,   984.786E+03
C:/temp/Job-3.odb,Step-1,Increment      1: Step Time =    1.000,"P-3-1",           414,          135.,            0.,            0.,NA,NA,"",   978.734E+03,   978.712E+03,   978.712E+03
C:/temp/Job-3.odb,Step-1,Increment      1: Step Time =    1.000,"P-3-1",           415,          125.,            0.,            0.,NA,NA,"",   971.974E+03,   971.962E+03,   971.962E+03
C:/temp/Job-3.odb,Step-1,Increment      1: Step Time =    1.000,"P-3-1",           416,          115.,            0.,            0.,NA,NA,"",   964.885E+03,   964.860E+03,   964.860E+03
C:/temp/Job-3.odb,Step-1,Increment      1: Step Time =    1.000,"P-3-1",           417,          105.,            0.,            0.,NA,NA,"",   957.303E+03,   957.320E+03,   957.320E+03
C:/temp/Job-3.odb,Step-1,Increment      1: Step Time =    1.000,"P-3-1",           418,           95.,            0.,            0.,NA,NA,"",   949.826E+03,   949.833E+03,   949.833E+03
C:/temp/Job-3.odb,Step-1,Increment      1: Step Time =    1.000,"P-3-1",           419,           85.,            0.,            0.,NA,NA,"",   942.616E+03,   942.666E+03,   942.666E+03
C:/temp/Job-3.odb,Step-1,Increment      1: Step Time =    1.000,"P-3-1",           420,           75.,            0.,            0.,NA,NA,"",   936.278E+03,   936.351E+03,   936.351E+03
C:/temp/Job-3.odb,Step-1,Increment      1: Step Time =    1.000,"P-3-1",           421,           65.,            0.,            0.,NA,NA,"",   931.831E+03,   931.939E+03,   931.939E+03
C:/temp/Job-3.odb,Step-1,Increment      1: Step Time =    1.000,"P-3-1",           422,           55.,            0.,            0.,NA,NA,"",   930.118E+03,   930.430E+03,   930.430E+03
C:/temp/Job-3.odb,Step-1,Increment      1: Step Time =    1.000,"P-3-1",           423,           45.,            0.,            0.,NA,NA,"",   934.215E+03,   934.686E+03,   934.686E+03
C:/temp/Job-3.odb,Step-1,Increment      1: Step Time =    1.000,"P-3-1",           424,           35.,            0.,            0.,NA,NA,"",   949.059E+03,   949.800E+03,   949.800E+03
C:/temp/Job-3.odb,Step-1,Increment      1: Step Time =    1.000,"P-3-1",           425,           25.,            0.,            0.,NA,NA,"",   986.021E+03,   987.754E+03,   987.754E+03
C:/temp/Job-3.odb,Step-1,Increment      1: Step Time =    1.000,"P-3-1",           426,           15.,            0.,            0.,NA,NA,"",   1.07337E+06,   1.07867E+06,   1.07867E+06
C:/temp/Job-3.odb,Step-1,Increment      1: Step Time =    1.000,"P-3-1",           427,            5.,            0.,            0.,NA,NA,"",   1.37039E+06,   1.40177E+06,   1.40177E+06
C:/temp/Job-3.odb,Step-1,Increment      1: Step Time =    1.000,"P-3-1",           428,          200.,          195.,            0.,NA,NA,"",   999.972E+03,   999.967E+03,   999.967E+03
C:/temp/Job-3.odb,Step-1,Increment      1: Step Time =    1.000,"P-3-1",           429,          200.,          185.,            0.,NA,NA,"",   1.00020E+06,   999.907E+03,   999.907E+03
C:/temp/Job-3.odb,Step-1,Increment      1: Step Time =    1.000,"P-3-1",           430,          200.,          175.,            0.,NA,NA,"",   1.00113E+06,   999.937E+03,   999.937E+03
C:/temp/Job-3.odb,Step-1,Increment      1: Step Time =    1.000,"P-3-1",           431,          200.,          165.,            0.,NA,NA,"",   1.00259E+06,   999.978E+03,   999.978E+03
C:/temp/Job-3.odb,Step-1,Increment      1: Step Time =    1.000,"P-3-1",           432,          200.,          155.,            0.,NA,NA,"",   1.00432E+06,   1.00001E+06,   1.00001E+06
C:/temp/Job-3.odb,Step-1,Increment      1: Step Time =    1.000,"P-3-1",           433,          200.,          145.,            0.,NA,NA,"",   1.00605E+06,   1.00002E+06,   1.00002E+06
C:/temp/Job-3.odb,Step-1,Increment      1: Step Time =    1.000,"P-3-1",           434,          200.,          135.,            0.,NA,NA,"",   1.00759E+06,   1.00003E+06,   1.00003E+06
C:/temp/Job-3.odb,Step-1,Increment      1: Step Time =    1.000,"P-3-1",           435,          200.,          125.,            0.,NA,NA,"",   1.00881E+06,   1.00005E+06,   1.00005E+06
C:/temp/Job-3.odb,Step-1,Increment      1: Step Time =    1.000,"P-3-1",           436,          200.,          115.,            0.,NA,NA,"",   1.00960E+06,   1.00004E+06,   1.00004E+06
C:/temp/Job-3.odb,Step-1,Increment      1: Step Time =    1.000,"P-3-1",           437,          200.,          105.,            0.,NA,NA,"",   1.01003E+06,   1.00006E+06,   1.00006E+06
C:/temp/Job-3.odb,Step-1,Increment      1: Step Time =    1.000,"P-3-1",           438,          200.,           95.,            0.,NA,NA,"",   1.01002E+06,   1.00005E+06,   1.00005E+06
C:/temp/Job-3.odb,Step-1,Increment      1: Step Time =    1.000,"P-3-1",           439,          200.,           85.,            0.,NA,NA,"",   1.00962E+06,   1.00006E+06,   1.00006E+06
C:/temp/Job-3.odb,Step-1,Increment      1: Step Time =    1.000,"P-3-1",           440,          200.,           75.,            0.,NA,NA,"",   1.00876E+06,   1.00005E+06,   1.00005E+06
C:/temp/Job-3.odb,Step-1,Increment      1: Step Time =    1.000,"P-3-1",           441,          200.,           65.,            0.,NA,NA,"",   1.00753E+06,   1.00004E+06,   1.00004E+06
C:/temp/Job-3.odb,Step-1,Increment      1: Step Time =    1.000,"P-3-1",           442,          200.,           55.,            0.,NA,NA,"",   1.00602E+06,   1.00002E+06,   1.00002E+06
C:/temp/Job-3.odb,Step-1,Increment      1: Step Time =    1.000,"P-3-1",           443,          200.,           45.,            0.,NA,NA,"",   1.00429E+06,   999.994E+03,   999.994E+03
C:/temp/Job-3.odb,Step-1,Increment      1: Step Time =    1.000,"P-3-1",           444,          200.,           35.,            0.,NA,NA,"",   1.00258E+06,   999.974E+03,   999.974E+03
C:/temp/Job-3.odb,Step-1,Increment      1: Step Time =    1.000,"P-3-1",           445,          200.,           25.,            0.,NA,NA,"",   1.00111E+06,   999.939E+03,   999.939E+03
C:/temp/Job-3.odb,Step-1,Increment      1: Step Time =    1.000,"P-3-1",           446,          200.,           15.,            0.,NA,NA,"",   1.00018E+06,   999.912E+03,   999.912E+03
C:/temp/Job-3.odb,Step-1,Increment      1: Step Time =    1.000,"P-3-1",           447,          200.,            5.,            0.,NA,NA,"",   999.972E+03,   999.972E+03,   999.972E+03
C:/temp/Job-3.odb,Step-1,Increment      1: Step Time =    1.000,"P-3-1",           448,            5.,          200.,            0.,NA,NA,"",   1.37173E+06,   1.40337E+06,   1.40337E+06
C:/temp/Job-3.odb,Step-1,Increment      1: Step Time =    1.000,"P-3-1",           449,           15.,          200.,            0.,NA,NA,"",   1.07388E+06,   1.07942E+06,   1.07942E+06
C:/temp/Job-3.odb,Step-1,Increment      1: Step Time =    1.000,"P-3-1",           450,           25.,          200.,            0.,NA,NA,"",   988.020E+03,   989.920E+03,   989.920E+03
C:/temp/Job-3.odb,Step-1,Increment      1: Step Time =    1.000,"P-3-1",           451,           35.,          200.,            0.,NA,NA,"",   951.299E+03,   952.149E+03,   952.149E+03
C:/temp/Job-3.odb,Step-1,Increment      1: Step Time =    1.000,"P-3-1",           452,           45.,          200.,            0.,NA,NA,"",   935.070E+03,   935.469E+03,   935.469E+03
C:/temp/Job-3.odb,Step-1,Increment      1: Step Time =    1.000,"P-3-1",           453,           55.,          200.,            0.,NA,NA,"",   930.133E+03,   930.384E+03,   930.384E+03
C:/temp/Job-3.odb,Step-1,Increment      1: Step Time =    1.000,"P-3-1",           454,           65.,          200.,            0.,NA,NA,"",   931.758E+03,   931.878E+03,   931.878E+03
C:/temp/Job-3.odb,Step-1,Increment      1: Step Time =    1.000,"P-3-1",           455,           75.,          200.,            0.,NA,NA,"",   936.395E+03,   936.508E+03,   936.508E+03
C:/temp/Job-3.odb,Step-1,Increment      1: Step Time =    1.000,"P-3-1",           456,           85.,          200.,            0.,NA,NA,"",   942.862E+03,   942.880E+03,   942.880E+03
C:/temp/Job-3.odb,Step-1,Increment      1: Step Time =    1.000,"P-3-1",           457,           95.,          200.,            0.,NA,NA,"",   949.826E+03,   949.849E+03,   949.849E+03
C:/temp/Job-3.odb,Step-1,Increment      1: Step Time =    1.000,"P-3-1",           458,          105.,          200.,            0.,NA,NA,"",   957.314E+03,    957.32E+03,    957.32E+03
C:/temp/Job-3.odb,Step-1,Increment      1: Step Time =    1.000,"P-3-1",           459,          115.,          200.,            0.,NA,NA,"",   964.772E+03,   964.769E+03,   964.769E+03
C:/temp/Job-3.odb,Step-1,Increment      1: Step Time =    1.000,"P-3-1",           460,          125.,          200.,            0.,NA,NA,"",   971.978E+03,   971.963E+03,   971.963E+03
C:/temp/Job-3.odb,Step-1,Increment      1: Step Time =    1.000,"P-3-1",           461,          135.,          200.,            0.,NA,NA,"",   978.695E+03,   978.673E+03,   978.673E+03
C:/temp/Job-3.odb,Step-1,Increment      1: Step Time =    1.000,"P-3-1",           462,          145.,          200.,            0.,NA,NA,"",   984.759E+03,   984.734E+03,   984.734E+03
C:/temp/Job-3.odb,Step-1,Increment      1: Step Time =    1.000,"P-3-1",           463,          155.,          200.,            0.,NA,NA,"",   990.041E+03,   990.016E+03,   990.016E+03
C:/temp/Job-3.odb,Step-1,Increment      1: Step Time =    1.000,"P-3-1",           464,          165.,          200.,            0.,NA,NA,"",   994.412E+03,   994.383E+03,   994.383E+03
C:/temp/Job-3.odb,Step-1,Increment      1: Step Time =    1.000,"P-3-1",           465,          175.,          200.,            0.,NA,NA,"",   997.622E+03,   997.586E+03,   997.586E+03
C:/temp/Job-3.odb,Step-1,Increment      1: Step Time =    1.000,"P-3-1",           466,          185.,          200.,            0.,NA,NA,"",   999.477E+03,   999.432E+03,   999.432E+03
C:/temp/Job-3.odb,Step-1,Increment      1: Step Time =    1.000,"P-3-1",           467,          195.,          200.,            0.,NA,NA,"",   1.00001E+06,   999.990E+03,   999.990E+03
C:/temp/Job-3.odb,Step-1,Increment      1: Step Time =    1.000,"P-3-1",           468,            0.,            5.,            0.,NA,NA,"",   1.32602E+06,   1.40779E+06,   1.40779E+06
C:/temp/Job-3.odb,Step-1,Increment      1: Step Time =    1.000,"P-3-1",           469,            0.,           15.,            0.,NA,NA,"",   1.01509E+06,   1.11227E+06,   1.11227E+06
C:/temp/Job-3.odb,Step-1,Increment      1: Step Time =    1.000,"P-3-1",           470,            0.,           25.,            0.,NA,NA,"",   931.824E+03,   1.03166E+06,   1.03166E+06
C:/temp/Job-3.odb,Step-1,Increment      1: Step Time =    1.000,"P-3-1",           471,            0.,           35.,            0.,NA,NA,"",   890.446E+03,   992.120E+03,   992.120E+03
C:/temp/Job-3.odb,Step-1,Increment      1: Step Time =    1.000,"P-3-1",           472,            0.,           45.,            0.,NA,NA,"",   866.394E+03,   969.417E+03,   969.417E+03
C:/temp/Job-3.odb,Step-1,Increment      1: Step Time =    1.000,"P-3-1",           473,            0.,           55.,            0.,NA,NA,"",   851.060E+03,   955.054E+03,   955.054E+03
C:/temp/Job-3.odb,Step-1,Increment      1: Step Time =    1.000,"P-3-1",           474,            0.,           65.,            0.,NA,NA,"",   840.875E+03,   945.518E+03,   945.518E+03
C:/temp/Job-3.odb,Step-1,Increment      1: Step Time =    1.000,"P-3-1",           475,            0.,           75.,            0.,NA,NA,"",   834.256E+03,   939.280E+03,   939.280E+03
C:/temp/Job-3.odb,Step-1,Increment      1: Step Time =    1.000,"P-3-1",           476,            0.,           85.,            0.,NA,NA,"",   830.362E+03,   935.598E+03,   935.598E+03
C:/temp/Job-3.odb,Step-1,Increment      1: Step Time =    1.000,"P-3-1",           477,            0.,           95.,            0.,NA,NA,"",   828.408E+03,   933.773E+03,   933.773E+03
C:/temp/Job-3.odb,Step-1,Increment      1: Step Time =    1.000,"P-3-1",           478,            0.,          105.,            0.,NA,NA,"",   828.452E+03,   933.817E+03,   933.817E+03
C:/temp/Job-3.odb,Step-1,Increment      1: Step Time =    1.000,"P-3-1",           479,            0.,          115.,            0.,NA,NA,"",   830.566E+03,   935.739E+03,   935.739E+03
C:/temp/Job-3.odb,Step-1,Increment      1: Step Time =    1.000,"P-3-1",           480,            0.,          125.,            0.,NA,NA,"",   834.792E+03,   939.618E+03,   939.618E+03
C:/temp/Job-3.odb,Step-1,Increment      1: Step Time =    1.000,"P-3-1",           481,            0.,          135.,            0.,NA,NA,"",   841.348E+03,   945.775E+03,   945.775E+03
C:/temp/Job-3.odb,Step-1,Increment      1: Step Time =    1.000,"P-3-1",           482,            0.,          145.,            0.,NA,NA,"",   850.837E+03,   954.854E+03,   954.854E+03
C:/temp/Job-3.odb,Step-1,Increment      1: Step Time =    1.000,"P-3-1",           483,            0.,          155.,            0.,NA,NA,"",   865.914E+03,   969.204E+03,   969.204E+03
C:/temp/Job-3.odb,Step-1,Increment      1: Step Time =    1.000,"P-3-1",           484,            0.,          165.,            0.,NA,NA,"",   889.824E+03,   991.848E+03,   991.848E+03
C:/temp/Job-3.odb,Step-1,Increment      1: Step Time =    1.000,"P-3-1",           485,            0.,          175.,            0.,NA,NA,"",   931.014E+03,   1.03108E+06,   1.03108E+06
C:/temp/Job-3.odb,Step-1,Increment      1: Step Time =    1.000,"P-3-1",           486,            0.,          185.,            0.,NA,NA,"",   1.01466E+06,   1.11206E+06,   1.11206E+06
C:/temp/Job-3.odb,Step-1,Increment      1: Step Time =    1.000,"P-3-1",           487,            0.,          195.,            0.,NA,NA,"",   1.32628E+06,   1.40865E+06,   1.40865E+06
C:/temp/Job-3.odb,Step-1,Increment      1: Step Time =    1.000,"P-3-1",           488,       100.706,       105.288,            0.,NA,NA,"",   1.13805E+06,   1.20291E+06,   1.20291E+06
C:/temp/Job-3.odb,Step-1,Increment      1: Step Time =    1.000,"P-3-1",           489,       104.530,       102.477,            0.,NA,NA,"",   974.744E+03,   927.769E+03,   927.769E+03
C:/temp/Job-3.odb,Step-1,Increment      1: Step Time =    1.000,"P-3-1",           490,       104.141,       97.9383,            0.,NA,NA,"",   958.116E+03,   886.824E+03,   886.824E+03
C:/temp/Job-3.odb,Step-1,Increment      1: Step Time =    1.000,"P-3-1",           491,       101.467,       95.4027,            0.,NA,NA,"",   1.20863E+06,   1.25628E+06,   1.25628E+06
C:/temp/Job-3.odb,Step-1,Increment      1: Step Time =    1.000,"P-3-1",           492,       98.5875,       95.7742,            0.,NA,NA,"",   1.23400E+06,   1.27425E+06,   1.27425E+06
C:/temp/Job-3.odb,Step-1,Increment      1: Step Time =    1.000,"P-3-1",           493,       95.8720,       97.9696,            0.,NA,NA,"",   938.695E+03,   874.939E+03,   874.939E+03
C:/temp/Job-3.odb,Step-1,Increment      1: Step Time =    1.000,"P-3-1",           494,       95.0381,       101.037,            0.,NA,NA,"",   774.461E+03,   755.394E+03,   755.394E+03
C:/temp/Job-3.odb,Step-1,Increment      1: Step Time =    1.000,"P-3-1",           495,       97.5366,       104.363,            0.,NA,NA,"",   1.19058E+06,   1.20664E+06,   1.20664E+06
C:/temp/Job-3.odb,Step-1,Increment      1: Step Time =    1.000,"P-3-1",           496,       102.850,       96.7170,            0.,NA,NA,"",   1.20315E+06,   1.15123E+06,   1.15123E+06
C:/temp/Job-3.odb,Step-1,Increment      1: Step Time =    1.000,"P-3-1",           497,       102.393,       104.763,            0.,NA,NA,"",   1.19462E+06,   1.20849E+06,   1.20849E+06
C:/temp/Job-3.odb,Step-1,Increment      1: Step Time =    1.000,"P-3-1",           498,       97.2666,       96.9449,            0.,NA,NA,"",   1.21132E+06,   1.15511E+06,   1.15511E+06
C:/temp/Job-3.odb,Step-1,Increment      1: Step Time =    1.000,"P-3-1",           499,       95.7949,       103.190,            0.,NA,NA,"",   1.08070E+06,   1.04335E+06,   1.04335E+06
C:/temp/Job-3.odb,Step-1,Increment      1: Step Time =    1.000,"P-3-1",           500,       98.4643,       106.613,            0.,NA,NA,"",   1.06530E+06,   1.11078E+06,   1.11078E+06
C:/temp/Job-3.odb,Step-1,Increment      1: Step Time =    1.000,"P-3-1",           501,       105.103,       100.818,            0.,NA,NA,"",   748.200E+03,   731.105E+03,   731.105E+03
C:/temp/Job-3.odb,Step-1,Increment      1: Step Time =    1.000,"P-3-1",           502,       99.9001,       93.7013,            0.,NA,NA,"",   1.06611E+06,   1.13419E+06,   1.13419E+06
C:/temp/Job-3.odb,Step-1,Increment      1: Step Time =    1.000,"P-3-1",           503,       93.7585,       98.8936,            0.,NA,NA,"",   798.838E+03,   802.977E+03,   802.977E+03
C:/temp/Job-3.odb,Step-1,Increment      1: Step Time =    1.000,"P-3-1",           504,       101.595,       107.888,            0.,NA,NA,"",   1.01884E+06,   1.05096E+06,   1.05096E+06
C:/temp/Job-3.odb,Step-1,Increment      1: Step Time =    1.000,"P-3-1",           505,       96.4114,       106.181,            0.,NA,NA,"",   1.08053E+06,   1.07085E+06,   1.07085E+06
C:/temp/Job-3.odb,Step-1,Increment      1: Step Time =    1.000,"P-3-1",           506,       106.884,       103.447,            0.,NA,NA,"",   991.859E+03,   976.400E+03,   976.400E+03
C:/temp/Job-3.odb,Step-1,Increment      1: Step Time =    1.000,"P-3-1",           507,       92.5605,       101.657,            0.,NA,NA,"",   925.190E+03,   935.883E+03,   935.883E+03
C:/temp/Job-3.odb,Step-1,Increment      1: Step Time =    1.000,"P-3-1",           508,       105.247,       96.3571,            0.,NA,NA,"",   1.16390E+06,   1.11877E+06,   1.11877E+06
C:/temp/Job-3.odb,Step-1,Increment      1: Step Time =    1.000,"P-3-1",           509,       94.6851,       96.0346,            0.,NA,NA,"",   1.11972E+06,   1.08913E+06,   1.08913E+06
C:/temp/Job-3.odb,Step-1,Increment      1: Step Time =    1.000,"P-3-1",           510,       103.069,       93.3869,            0.,NA,NA,"",   1.08831E+06,   1.08907E+06,   1.08907E+06
C:/temp/Job-3.odb,Step-1,Increment      1: Step Time =    1.000,"P-3-1",           511,       97.2665,       94.4322,            0.,NA,NA,"",   1.12704E+06,   1.12606E+06,   1.12606E+06
C:/temp/Job-3.odb,Step-1,Increment      1: Step Time =    1.000,"P-3-1",           512,       92.9842,       103.362,            0.,NA,NA,"",   1.02117E+06,   1.01340E+06,   1.01340E+06
C:/temp/Job-3.odb,Step-1,Increment      1: Step Time =    1.000,"P-3-1",           513,       104.372,       104.657,            0.,NA,NA,"",   1.16053E+06,   1.11905E+06,   1.11905E+06
C:/temp/Job-3.odb,Step-1,Increment      1: Step Time =    1.000,"P-3-1",           514,       94.7020,       105.605,            0.,NA,NA,"",   1.09000E+06,   1.06258E+06,   1.06258E+06
C:/temp/Job-3.odb,Step-1,Increment      1: Step Time =    1.000,"P-3-1",           515,       103.402,       107.320,            0.,NA,NA,"",   1.08470E+06,   1.09656E+06,   1.09656E+06
C:/temp/Job-3.odb,Step-1,Increment      1: Step Time =    1.000,"P-3-1",           516,       99.7734,       109.075,            0.,NA,NA,"",   1.00232E+06,   1.04335E+06,   1.04335E+06
C:/temp/Job-3.odb,Step-1,Increment      1: Step Time =    1.000,"P-3-1",           517,       91.4813,       99.7829,            0.,NA,NA,"",   866.251E+03,   890.034E+03,   890.034E+03
C:/temp/Job-3.odb,Step-1,Increment      1: Step Time =    1.000,"P-3-1",           518,       107.572,       101.609,            0.,NA,NA,"",   908.383E+03,   917.292E+03,   917.292E+03
C:/temp/Job-3.odb,Step-1,Increment      1: Step Time =    1.000,"P-3-1",           519,       92.3562,       96.5544,            0.,NA,NA,"",   995.540E+03,   989.307E+03,   989.307E+03
C:/temp/Job-3.odb,Step-1,Increment      1: Step Time =    1.000,"P-3-1",           520,       108.464,       99.5870,            0.,NA,NA,"",   880.948E+03,   895.613E+03,   895.613E+03
C:/temp/Job-3.odb,Step-1,Increment      1: Step Time =    1.000,"P-3-1",           521,       98.0918,       92.5230,            0.,NA,NA,"",   1.04538E+06,   1.07351E+06,   1.07351E+06
C:/temp/Job-3.odb,Step-1,Increment      1: Step Time =    1.000,"P-3-1",           522,       109.096,       104.475,            0.,NA,NA,"",   997.158E+03,   992.274E+03,   992.274E+03
C:/temp/Job-3.odb,Step-1,Increment      1: Step Time =    1.000,"P-3-1",           523,       90.9843,       103.668,            0.,NA,NA,"",   976.529E+03,   985.530E+03,   985.530E+03
C:/temp/Job-3.odb,Step-1,Increment      1: Step Time =    1.000,"P-3-1",           524,       95.6389,       108.256,            0.,NA,NA,"",   1.07580E+06,   1.07915E+06,   1.07915E+06
C:/temp/Job-3.odb,Step-1,Increment      1: Step Time =    1.000,"P-3-1",           525,       110.633,       100.531,            0.,NA,NA,"",   937.785E+03,   945.930E+03,   945.930E+03
C:/temp/Job-3.odb,Step-1,Increment      1: Step Time =    1.000,"P-3-1",           526,       89.2796,       100.837,            0.,NA,NA,"",   938.125E+03,   955.695E+03,   955.695E+03
C:/temp/Job-3.odb,Step-1,Increment      1: Step Time =    1.000,"P-3-1",           527,       101.174,       111.748,            0.,NA,NA,"",   1.01356E+06,   1.03594E+06,   1.03594E+06
C:/temp/Job-3.odb,Step-1,Increment      1: Step Time =    1.000,"P-3-1",           528,       94.3031,       94.0133,            0.,NA,NA,"",   1.06533E+06,   1.05628E+06,   1.05628E+06
C:/temp/Job-3.odb,Step-1,Increment      1: Step Time =    1.000,"P-3-1",           529,       107.409,       96.1572,            0.,NA,NA,"",   1.02038E+06,   1.00289E+06,   1.00289E+06
C:/temp/Job-3.odb,Step-1,Increment      1: Step Time =    1.000,"P-3-1",           530,       96.1534,       91.9256,            0.,NA,NA,"",   1.07226E+06,   1.07682E+06,   1.07682E+06
C:/temp/Job-3.odb,Step-1,Increment      1: Step Time =    1.000,"P-3-1",           531,       101.499,       90.9199,            0.,NA,NA,"",   1.02161E+06,   1.05354E+06,   1.05354E+06
C:/temp/Job-3.odb,Step-1,Increment      1: Step Time =    1.000,"P-3-1",           532,       91.4520,       107.015,            0.,NA,NA,"",   1.03792E+06,   1.03537E+06,   1.03537E+06
C:/temp/Job-3.odb,Step-1,Increment      1: Step Time =    1.000,"P-3-1",           533,       108.343,       106.708,            0.,NA,NA,"",   1.05551E+06,   1.04327E+06,   1.04327E+06
C:/temp/Job-3.odb,Step-1,Increment      1: Step Time =    1.000,"P-3-1",           534,       90.5302,       102.362,            0.,NA,NA,"",   956.453E+03,   969.010E+03,   969.010E+03
C:/temp/Job-3.odb,Step-1,Increment      1: Step Time =    1.000,"P-3-1",           535,       97.2235,       108.426,            0.,NA,NA,"",   1.06184E+06,   1.08246E+06,   1.08246E+06
C:/temp/Job-3.odb,Step-1,Increment      1: Step Time =    1.000,"P-3-1",           536,       109.859,       102.453,            0.,NA,NA,"",   954.999E+03,   957.492E+03,   957.492E+03
C:/temp/Job-3.odb,Step-1,Increment      1: Step Time =    1.000,"P-3-1",           537,       96.3450,       89.4249,            0.,NA,NA,"",   1.03691E+06,   1.05230E+06,   1.05230E+06
C:/temp/Job-3.odb,Step-1,Increment      1: Step Time =    1.000,"P-3-1",           538,       104.897,       92.1845,            0.,NA,NA,"",   1.06889E+06,   1.06875E+06,   1.06875E+06
C:/temp/Job-3.odb,Step-1,Increment      1: Step Time =    1.000,"P-3-1",           539,       90.5699,       95.3857,            0.,NA,NA,"",   1.01048E+06,   1.00967E+06,   1.00967E+06
C:/temp/Job-3.odb,Step-1,Increment      1: Step Time =    1.000,"P-3-1",           540,       109.747,       97.4696,            0.,NA,NA,"",   933.183E+03,   939.099E+03,   939.099E+03
C:/temp/Job-3.odb,Step-1,Increment      1: Step Time =    1.000,"P-3-1",           541,       89.2388,       103.518,            0.,NA,NA,"",   971.768E+03,   986.736E+03,   986.736E+03
C:/temp/Job-3.odb,Step-1,Increment      1: Step Time =    1.000,"P-3-1",           542,       104.375,       109.940,            0.,NA,NA,"",   1.03632E+06,   1.05000E+06,   1.05000E+06
C:/temp/Job-3.odb,Step-1,Increment      1: Step Time =    1.000,"P-3-1",           543,       106.468,       91.4043,            0.,NA,NA,"",   1.05984E+06,   1.05392E+06,   1.05392E+06
C:/temp/Job-3.odb,Step-1,Increment      1: Step Time =    1.000,"P-3-1",           544,       90.9417,       105.224,            0.,NA,NA,"",   1.01290E+06,   1.01345E+06,   1.01345E+06
C:/temp/Job-3.odb,Step-1,Increment      1: Step Time =    1.000,"P-3-1",           545,       111.329,       105.289,            0.,NA,NA,"",   1.00961E+06,   1.00585E+06,   1.00585E+06
C:/temp/Job-3.odb,Step-1,Increment      1: Step Time =    1.000,"P-3-1",           546,       98.5094,       112.573,            0.,NA,NA,"",   1.00472E+06,   1.02978E+06,   1.02978E+06
C:/temp/Job-3.odb,Step-1,Increment      1: Step Time =    1.000,"P-3-1",           547,       111.977,       103.173,            0.,NA,NA,"",   976.535E+03,   980.121E+03,   980.121E+03
C:/temp/Job-3.odb,Step-1,Increment      1: Step Time =    1.000,"P-3-1",           548,       104.211,       89.9132,            0.,NA,NA,"",   1.04945E+06,   1.05669E+06,   1.05669E+06
C:/temp/Job-3.odb,Step-1,Increment      1: Step Time =    1.000,"P-3-1",           549,       87.7081,       98.9861,            0.,NA,NA,"",   937.034E+03,   957.658E+03,   957.658E+03
C:/temp/Job-3.odb,Step-1,Increment      1: Step Time =    1.000,"P-3-1",           550,       92.4880,       94.0521,            0.,NA,NA,"",   1.05305E+06,   1.04528E+06,   1.04528E+06
C:/temp/Job-3.odb,Step-1,Increment      1: Step Time =    1.000,"P-3-1",           551,       111.764,       98.8737,            0.,NA,NA,"",   942.122E+03,   951.646E+03,   951.646E+03
C:/temp/Job-3.odb,Step-1,Increment      1: Step Time =    1.000,"P-3-1",           552,       109.513,       93.8400,            0.,NA,NA,"",   1.03784E+06,   1.02893E+06,   1.02893E+06
C:/temp/Job-3.odb,Step-1,Increment      1: Step Time =    1.000,"P-3-1",           553,       101.510,       87.5436,            0.,NA,NA,"",   1.01256E+06,   1.03472E+06,   1.03472E+06
C:/temp/Job-3.odb,Step-1,Increment      1: Step Time =    1.000,"P-3-1",           554,       107.146,       109.331,            0.,NA,NA,"",   1.05617E+06,   1.05188E+06,   1.05188E+06
C:/temp/Job-3.odb,Step-1,Increment      1: Step Time =    1.000,"P-3-1",           555,       92.9547,       110.084,            0.,NA,NA,"",   1.04699E+06,   1.05112E+06,   1.05112E+06
C:/temp/Job-3.odb,Step-1,Increment      1: Step Time =    1.000,"P-3-1",           556,       113.193,       100.951,            0.,NA,NA,"",   962.812E+03,   968.895E+03,   968.895E+03
C:/temp/Job-3.odb,Step-1,Increment      1: Step Time =    1.000,"P-3-1",           557,       104.360,       95.0758,            0.,NA,NA,"",   1.16617E+06,   1.12919E+06,   1.12919E+06
C:/temp/Job-3.odb,Step-1,Increment      1: Step Time =    1.000,"P-3-1",           558,       88.6695,       105.266,            0.,NA,NA,"",   997.221E+03,   1.00325E+06,   1.00325E+06
C:/temp/Job-3.odb,Step-1,Increment      1: Step Time =    1.000,"P-3-1",           559,       88.6726,       109.136,            0.,NA,NA,"",   1.02545E+06,   1.03099E+06,   1.03099E+06
C:/temp/Job-3.odb,Step-1,Increment      1: Step Time =    1.000,"P-3-1",           560,       106.712,       89.4623,            0.,NA,NA,"",   1.04831E+06,   1.04890E+06,   1.04890E+06
C:/temp/Job-3.odb,Step-1,Increment      1: Step Time =    1.000,"P-3-1",           561,       100.813,       114.117,            0.,NA,NA,"",   1.01717E+06,   1.03458E+06,   1.03458E+06
C:/temp/Job-3.odb,Step-1,Increment      1: Step Time =    1.000,"P-3-1",           562,       95.2224,       111.052,            0.,NA,NA,"",   1.03774E+06,   1.04991E+06,   1.04991E+06
C:/temp/Job-3.odb,Step-1,Increment      1: Step Time =    1.000,"P-3-1",           563,       104.025,       87.1351,            0.,NA,NA,"",   1.02830E+06,   1.04056E+06,   1.04056E+06
C:/temp/Job-3.odb,Step-1,Increment      1: Step Time =    1.000,"P-3-1",           564,       111.626,       95.2779,            0.,NA,NA,"",   992.394E+03,   991.373E+03,   991.373E+03
C:/temp/Job-3.odb,Step-1,Increment      1: Step Time =    1.000,"P-3-1",           565,       99.1288,       87.3767,            0.,NA,NA,"",   1.00628E+06,   1.03295E+06,   1.03295E+06
C:/temp/Job-3.odb,Step-1,Increment      1: Step Time =    1.000,"P-3-1",           566,       110.480,       110.136,            0.,NA,NA,"",   1.03459E+06,   1.03094E+06,   1.03094E+06
C:/temp/Job-3.odb,Step-1,Increment      1: Step Time =    1.000,"P-3-1",           567,       96.2232,       95.4202,            0.,NA,NA,"",   1.19015E+06,   1.15924E+06,   1.15924E+06
C:/temp/Job-3.odb,Step-1,Increment      1: Step Time =    1.000,"P-3-1",           568,       94.2418,       91.8480,            0.,NA,NA,"",   1.06241E+06,   1.06396E+06,   1.06396E+06
C:/temp/Job-3.odb,Step-1,Increment      1: Step Time =    1.000,"P-3-1",           569,       107.818,       92.3894,            0.,NA,NA,"",   1.06488E+06,   1.05373E+06,   1.05373E+06
C:/temp/Job-3.odb,Step-1,Increment      1: Step Time =    1.000,"P-3-1",           570,       104.259,       113.293,            0.,NA,NA,"",   1.02276E+06,   1.03544E+06,   1.03544E+06
C:/temp/Job-3.odb,Step-1,Increment      1: Step Time =    1.000,"P-3-1",           571,       113.682,       103.991,            0.,NA,NA,"",   992.287E+03,   993.554E+03,   993.554E+03
C:/temp/Job-3.odb,Step-1,Increment      1: Step Time =    1.000,"P-3-1",           572,       98.9809,       114.970,            0.,NA,NA,"",   1.00882E+06,   1.02738E+06,   1.02738E+06
C:/temp/Job-3.odb,Step-1,Increment      1: Step Time =    1.000,"P-3-1",           573,       107.012,       86.6133,            0.,NA,NA,"",   1.03481E+06,   1.03871E+06,   1.03871E+06
C:/temp/Job-3.odb,Step-1,Increment      1: Step Time =    1.000,"P-3-1",           574,       88.7336,       107.136,            0.,NA,NA,"",   1.01250E+06,   1.01848E+06,   1.01848E+06
C:/temp/Job-3.odb,Step-1,Increment      1: Step Time =    1.000,"P-3-1",           575,       96.3107,       113.555,            0.,NA,NA,"",   1.01705E+06,   1.03472E+06,   1.03472E+06
C:/temp/Job-3.odb,Step-1,Increment      1: Step Time =    1.000,"P-3-1",           576,       113.806,       97.0021,            0.,NA,NA,"",   969.768E+03,   975.249E+03,   975.249E+03
C:/temp/Job-3.odb,Step-1,Increment      1: Step Time =    1.000,"P-3-1",           577,       94.0064,       89.4738,            0.,NA,NA,"",   1.04508E+06,   1.05207E+06,   1.05207E+06
C:/temp/Job-3.odb,Step-1,Increment      1: Step Time =    1.000,"P-3-1",           578,       101.386,       84.7592,            0.,NA,NA,"",   1.00978E+06,   1.02651E+06,   1.02651E+06
C:/temp/Job-3.odb,Step-1,Increment      1: Step Time =    1.000,"P-3-1",           579,       90.6487,       93.7638,            0.,NA,NA,"",   1.02930E+06,   1.02739E+06,   1.02739E+06
C:/temp/Job-3.odb,Step-1,Increment      1: Step Time =    1.000,"P-3-1",           580,       111.134,       91.4760,            0.,NA,NA,"",   1.03120E+06,   1.02630E+06,   1.02630E+06
C:/temp/Job-3.odb,Step-1,Increment      1: Step Time =    1.000,"P-3-1",           581,       115.319,       102.973,            0.,NA,NA,"",   984.397E+03,   988.024E+03,   988.024E+03
C:/temp/Job-3.odb,Step-1,Increment      1: Step Time =    1.000,"P-3-1",           582,       107.423,       112.825,            0.,NA,NA,"",   1.04131E+06,   1.04338E+06,   1.04338E+06
C:/temp/Job-3.odb,Step-1,Increment      1: Step Time =    1.000,"P-3-1",           583,       93.3894,       113.281,            0.,NA,NA,"",   1.03270E+06,   1.04245E+06,   1.04245E+06
C:/temp/Job-3.odb,Step-1,Increment      1: Step Time =    1.000,"P-3-1",           584,       96.4684,       86.2829,            0.,NA,NA,"",   1.01799E+06,   1.03718E+06,   1.03718E+06
C:/temp/Job-3.odb,Step-1,Increment      1: Step Time =    1.000,"P-3-1",           585,       113.474,       108.034,            0.,NA,NA,"",   1.01779E+06,   1.01548E+06,   1.01548E+06
C:/temp/Job-3.odb,Step-1,Increment      1: Step Time =    1.000,"P-3-1",           586,       89.9426,       111.679,            0.,NA,NA,"",   1.03323E+06,   1.03943E+06,   1.03943E+06
C:/temp/Job-3.odb,Step-1,Increment      1: Step Time =    1.000,"P-3-1",           587,       87.3068,       102.391,            0.,NA,NA,"",   962.848E+03,   978.250E+03,   978.250E+03
C:/temp/Job-3.odb,Step-1,Increment      1: Step Time =    1.000,"P-3-1",           588,       109.071,       90.0341,            0.,NA,NA,"",   1.04363E+06,   1.03936E+06,   1.03936E+06
C:/temp/Job-3.odb,Step-1,Increment      1: Step Time =    1.000,"P-3-1",           589,       102.170,       115.604,            0.,NA,NA,"",   1.01713E+06,   1.03283E+06,   1.03283E+06
C:/temp/Job-3.odb,Step-1,Increment      1: Step Time =    1.000,"P-3-1",           590,       83.4933,       102.663,            0.,NA,NA,"",   974.042E+03,   992.970E+03,   992.970E+03
C:/temp/Job-3.odb,Step-1,Increment      1: Step Time =    1.000,"P-3-1",           591,       96.7232,       116.073,            0.,NA,NA,"",   1.01100E+06,   1.02829E+06,   1.02829E+06
C:/temp/Job-3.odb,Step-1,Increment      1: Step Time =    1.000,"P-3-1",           592,       85.3730,       100.588,            0.,NA,NA,"",   961.821E+03,   980.891E+03,   980.891E+03
C:/temp/Job-3.odb,Step-1,Increment      1: Step Time =    1.000,"P-3-1",           593,       91.8049,       115.545,            0.,NA,NA,"",   1.02170E+06,   1.03230E+06,   1.03230E+06
C:/temp/Job-3.odb,Step-1,Increment      1: Step Time =    1.000,"P-3-1",           594,       103.616,       84.3361,            0.,NA,NA,"",   1.01559E+06,   1.02860E+06,   1.02860E+06
C:/temp/Job-3.odb,Step-1,Increment      1: Step Time =    1.000,"P-3-1",           595,       113.588,       92.8088,            0.,NA,NA,"",   1.01580E+06,   1.01302E+06,   1.01302E+06
C:/temp/Job-3.odb,Step-1,Increment      1: Step Time =    1.000,"P-3-1",           596,       85.3396,       91.6969,            0.,NA,NA,"",   1.00634E+06,   1.01756E+06,   1.01756E+06
C:/temp/Job-3.odb,Step-1,Increment      1: Step Time =    1.000,"P-3-1",           597,       86.9315,       108.998,            0.,NA,NA,"",   1.01646E+06,   1.02435E+06,   1.02435E+06
C:/temp/Job-3.odb,Step-1,Increment      1: Step Time =    1.000,"P-3-1",           598,       113.755,       105.819,            0.,NA,NA,"",   1.00368E+06,   1.00329E+06,   1.00329E+06
C:/temp/Job-3.odb,Step-1,Increment      1: Step Time =    1.000,"P-3-1",           599,       99.0046,       84.9760,            0.,NA,NA,"",   1.01046E+06,   1.03020E+06,   1.03020E+06
C:/temp/Job-3.odb,Step-1,Increment      1: Step Time =    1.000,"P-3-1",           600,       115.724,       99.1051,            0.,NA,NA,"",   973.825E+03,   980.132E+03,   980.132E+03
C:/temp/Job-3.odb,Step-1,Increment      1: Step Time =    1.000,"P-3-1",           601,       92.2557,       90.0345,            0.,NA,NA,"",   1.04767E+06,   1.05079E+06,   1.05079E+06
C:/temp/Job-3.odb,Step-1,Increment      1: Step Time =    1.000,"P-3-1",           602,       105.580,       116.456,            0.,NA,NA,"",   1.01989E+06,   1.02902E+06,   1.02902E+06
C:/temp/Job-3.odb,Step-1,Increment      1: Step Time =    1.000,"P-3-1",           603,       99.9360,       117.325,            0.,NA,NA,"",   1.01084E+06,   1.02648E+06,   1.02648E+06
C:/temp/Job-3.odb,Step-1,Increment      1: Step Time =    1.000,"P-3-1",           604,       112.368,       89.3217,            0.,NA,NA,"",   1.03163E+06,   1.02837E+06,   1.02837E+06
C:/temp/Job-3.odb,Step-1,Increment      1: Step Time =    1.000,"P-3-1",           605,       113.619,       110.632,            0.,NA,NA,"",   1.02803E+06,   1.02484E+06,   1.02484E+06
C:/temp/Job-3.odb,Step-1,Increment      1: Step Time =    1.000,"P-3-1",           606,       93.1464,       86.9263,            0.,NA,NA,"",   1.03170E+06,   1.04202E+06,   1.04202E+06
C:/temp/Job-3.odb,Step-1,Increment      1: Step Time =    1.000,"P-3-1",           607,       94.5264,       114.431,            0.,NA,NA,"",   1.02625E+06,   1.03890E+06,   1.03890E+06
C:/temp/Job-3.odb,Step-1,Increment      1: Step Time =    1.000,"P-3-1",           608,       116.129,       94.7397,            0.,NA,NA,"",   996.412E+03,   997.964E+03,   997.964E+03
C:/temp/Job-3.odb,Step-1,Increment      1: Step Time =    1.000,"P-3-1",           609,       118.482,       97.1179,            0.,NA,NA,"",   988.122E+03,   991.972E+03,   991.972E+03
C:/temp/Job-3.odb,Step-1,Increment      1: Step Time =    1.000,"P-3-1",           610,       115.776,       108.096,            0.,NA,NA,"",   1.01351E+06,   1.01225E+06,   1.01225E+06
C:/temp/Job-3.odb,Step-1,Increment      1: Step Time =    1.000,"P-3-1",           611,       117.509,       101.444,            0.,NA,NA,"",   985.056E+03,   989.394E+03,   989.394E+03
C:/temp/Job-3.odb,Step-1,Increment      1: Step Time =    1.000,"P-3-1",           612,       90.4855,       91.9091,            0.,NA,NA,"",   1.03538E+06,   1.03581E+06,   1.03581E+06
C:/temp/Job-3.odb,Step-1,Increment      1: Step Time =    1.000,"P-3-1",           613,       85.4095,       94.0124,            0.,NA,NA,"",   992.608E+03,   1.00545E+06,   1.00545E+06
C:/temp/Job-3.odb,Step-1,Increment      1: Step Time =    1.000,"P-3-1",           614,       103.455,       118.051,            0.,NA,NA,"",   1.01450E+06,   1.02682E+06,   1.02682E+06
C:/temp/Job-3.odb,Step-1,Increment      1: Step Time =    1.000,"P-3-1",           615,       110.646,       86.7446,            0.,NA,NA,"",   1.03462E+06,   1.03323E+06,   1.03323E+06
C:/temp/Job-3.odb,Step-1,Increment      1: Step Time =    1.000,"P-3-1",           616,       86.1684,       107.486,            0.,NA,NA,"",   1.00478E+06,   1.01503E+06,   1.01503E+06
C:/temp/Job-3.odb,Step-1,Increment      1: Step Time =    1.000,"P-3-1",           617,       87.9010,       111.318,            0.,NA,NA,"",   1.02614E+06,   1.03335E+06,   1.03335E+06
C:/temp/Job-3.odb,Step-1,Increment      1: Step Time =    1.000,"P-3-1",           618,       81.9254,       100.926,            0.,NA,NA,"",   973.160E+03,   993.839E+03,   993.839E+03
C:/temp/Job-3.odb,Step-1,Increment      1: Step Time =    1.000,"P-3-1",           619,       110.592,       115.998,            0.,NA,NA,"",   1.03007E+06,   1.03150E+06,   1.03150E+06
C:/temp/Job-3.odb,Step-1,Increment      1: Step Time =    1.000,"P-3-1",           620,       115.368,       89.5572,            0.,NA,NA,"",   1.02150E+06,   1.01915E+06,   1.01915E+06
C:/temp/Job-3.odb,Step-1,Increment      1: Step Time =    1.000,"P-3-1",           621,       91.9340,       83.6820,            0.,NA,NA,"",   1.02223E+06,   1.03403E+06,   1.03403E+06
C:/temp/Job-3.odb,Step-1,Increment      1: Step Time =    1.000,"P-3-1",           622,       97.4607,       118.729,            0.,NA,NA,"",   1.01180E+06,   1.02644E+06,   1.02644E+06
C:/temp/Job-3.odb,Step-1,Increment      1: Step Time =    1.000,"P-3-1",           623,       107.928,       115.741,            0.,NA,NA,"",   1.02632E+06,   1.03129E+06,   1.03129E+06
C:/temp/Job-3.odb,Step-1,Increment      1: Step Time =    1.000,"P-3-1",           624,       113.983,       82.6516,            0.,NA,NA,"",   1.02641E+06,   1.02599E+06,   1.02599E+06
C:/temp/Job-3.odb,Step-1,Increment      1: Step Time =    1.000,"P-3-1",           625,       104.921,       120.698,            0.,NA,NA,"",   1.01539E+06,   1.02436E+06,   1.02436E+06
C:/temp/Job-3.odb,Step-1,Increment      1: Step Time =    1.000,"P-3-1",           626,       90.1570,       88.6971,            0.,NA,NA,"",   1.03337E+06,   1.03869E+06,   1.03869E+06
C:/temp/Job-3.odb,Step-1,Increment      1: Step Time =    1.000,"P-3-1",           627,       83.2623,       90.5684,            0.,NA,NA,"",   1.00443E+06,   1.01776E+06,   1.01776E+06
C:/temp/Job-3.odb,Step-1,Increment      1: Step Time =    1.000,"P-3-1",           628,       85.9506,       110.524,            0.,NA,NA,"",   1.01639E+06,   1.02614E+06,   1.02614E+06
C:/temp/Job-3.odb,Step-1,Increment      1: Step Time =    1.000,"P-3-1",           629,       119.208,       108.126,            0.,NA,NA,"",   1.00900E+06,   1.00883E+06,   1.00883E+06
C:/temp/Job-3.odb,Step-1,Increment      1: Step Time =    1.000,"P-3-1",           630,       86.1475,       96.6993,            0.,NA,NA,"",   965.672E+03,   982.487E+03,   982.487E+03
C:/temp/Job-3.odb,Step-1,Increment      1: Step Time =    1.000,"P-3-1",           631,       98.5352,       82.1020,            0.,NA,NA,"",   1.01127E+06,   1.02735E+06,   1.02735E+06
C:/temp/Job-3.odb,Step-1,Increment      1: Step Time =    1.000,"P-3-1",           632,       82.6662,       98.1552,            0.,NA,NA,"",   970.904E+03,   991.150E+03,   991.150E+03
C:/temp/Job-3.odb,Step-1,Increment      1: Step Time =    1.000,"P-3-1",           633,       119.181,       103.975,            0.,NA,NA,"",   996.946E+03,   999.119E+03,   999.119E+03
C:/temp/Job-3.odb,Step-1,Increment      1: Step Time =    1.000,"P-3-1",           634,       120.142,       99.7992,            0.,NA,NA,"",   990.664E+03,   994.286E+03,   994.286E+03
C:/temp/Job-3.odb,Step-1,Increment      1: Step Time =    1.000,"P-3-1",           635,       121.973,       94.8134,            0.,NA,NA,"",   1.00083E+06,   1.00225E+06,   1.00225E+06
C:/temp/Job-3.odb,Step-1,Increment      1: Step Time =    1.000,"P-3-1",           636,       116.730,       113.917,            0.,NA,NA,"",   1.02384E+06,   1.02194E+06,   1.02194E+06
C:/temp/Job-3.odb,Step-1,Increment      1: Step Time =    1.000,"P-3-1",           637,       110.288,       82.3162,            0.,NA,NA,"",   1.02679E+06,   1.02922E+06,   1.02922E+06
C:/temp/Job-3.odb,Step-1,Increment      1: Step Time =    1.000,"P-3-1",           638,       91.4705,       80.0222,            0.,NA,NA,"",   1.01618E+06,   1.02850E+06,   1.02850E+06
C:/temp/Job-3.odb,Step-1,Increment      1: Step Time =    1.000,"P-3-1",           639,       101.146,       119.862,            0.,NA,NA,"",   1.01104E+06,   1.02430E+06,   1.02430E+06
C:/temp/Job-3.odb,Step-1,Increment      1: Step Time =    1.000,"P-3-1",           640,       114.281,       85.9144,            0.,NA,NA,"",   1.02792E+06,   1.02593E+06,   1.02593E+06
C:/temp/Job-3.odb,Step-1,Increment      1: Step Time =    1.000,"P-3-1",           641,       120.262,       89.9777,            0.,NA,NA,"",   1.01294E+06,   1.01213E+06,   1.01213E+06
C:/temp/Job-3.odb,Step-1,Increment      1: Step Time =    1.000,"P-3-1",           642,       94.6267,       119.980,            0.,NA,NA,"",   1.01361E+06,   1.02717E+06,   1.02717E+06
C:/temp/Job-3.odb,Step-1,Increment      1: Step Time =    1.000,"P-3-1",           643,       121.097,       106.250,            0.,NA,NA,"",   1.00435E+06,   1.00510E+06,   1.00510E+06
C:/temp/Job-3.odb,Step-1,Increment      1: Step Time =    1.000,"P-3-1",           644,       89.6110,       115.634,            0.,NA,NA,"",   1.02215E+06,   1.03354E+06,   1.03354E+06
C:/temp/Job-3.odb,Step-1,Increment      1: Step Time =    1.000,"P-3-1",           645,       85.4426,       87.9729,            0.,NA,NA,"",   1.01647E+06,   1.02701E+06,   1.02701E+06
C:/temp/Job-3.odb,Step-1,Increment      1: Step Time =    1.000,"P-3-1",           646,       113.545,       116.773,            0.,NA,NA,"",   1.02763E+06,   1.02725E+06,   1.02725E+06
C:/temp/Job-3.odb,Step-1,Increment      1: Step Time =    1.000,"P-3-1",           647,       108.680,       120.877,            0.,NA,NA,"",   1.02055E+06,   1.02560E+06,   1.02560E+06
C:/temp/Job-3.odb,Step-1,Increment      1: Step Time =    1.000,"P-3-1",           648,       117.215,       110.590,            0.,NA,NA,"",   1.01749E+06,   1.01598E+06,   1.01598E+06
C:/temp/Job-3.odb,Step-1,Increment      1: Step Time =    1.000,"P-3-1",           649,       102.668,       122.693,            0.,NA,NA,"",   1.01230E+06,   1.02278E+06,   1.02278E+06
C:/temp/Job-3.odb,Step-1,Increment      1: Step Time =    1.000,"P-3-1",           650,       121.567,       102.461,            0.,NA,NA,"",   995.768E+03,   998.320E+03,   998.320E+03
C:/temp/Job-3.odb,Step-1,Increment      1: Step Time =    1.000,"P-3-1",           651,       86.6683,       114.144,            0.,NA,NA,"",   1.02119E+06,   1.03109E+06,   1.03109E+06
C:/temp/Job-3.odb,Step-1,Increment      1: Step Time =    1.000,"P-3-1",           652,       77.5578,       95.9667,            0.,NA,NA,"",   981.100E+03,   1.00377E+06,   1.00377E+06
C:/temp/Job-3.odb,Step-1,Increment      1: Step Time =    1.000,"P-3-1",           653,       83.6022,       109.294,            0.,NA,NA,"",   1.00401E+06,   1.01751E+06,   1.01751E+06
C:/temp/Job-3.odb,Step-1,Increment      1: Step Time =    1.000,"P-3-1",           654,       105.415,       80.1633,            0.,NA,NA,"",   1.01748E+06,   1.02640E+06,   1.02640E+06
C:/temp/Job-3.odb,Step-1,Increment      1: Step Time =    1.000,"P-3-1",           655,       91.1873,       118.053,            0.,NA,NA,"",   1.01770E+06,   1.02884E+06,   1.02884E+06
C:/temp/Job-3.odb,Step-1,Increment      1: Step Time =    1.000,"P-3-1",           656,       98.5503,       121.570,            0.,NA,NA,"",   1.01092E+06,   1.02388E+06,   1.02388E+06
C:/temp/Job-3.odb,Step-1,Increment      1: Step Time =    1.000,"P-3-1",           657,       87.8645,       80.1792,            0.,NA,NA,"",   1.01631E+06,   1.02850E+06,   1.02850E+06
C:/temp/Job-3.odb,Step-1,Increment      1: Step Time =    1.000,"P-3-1",           658,       120.795,       86.2875,            0.,NA,NA,"",   1.01818E+06,   1.01661E+06,   1.01661E+06
C:/temp/Job-3.odb,Step-1,Increment      1: Step Time =    1.000,"P-3-1",           659,       78.5524,       90.9262,            0.,NA,NA,"",   993.744E+03,   1.01302E+06,   1.01302E+06
C:/temp/Job-3.odb,Step-1,Increment      1: Step Time =    1.000,"P-3-1",           660,       78.6672,       98.9735,            0.,NA,NA,"",   977.502E+03,   999.979E+03,   999.979E+03
C:/temp/Job-3.odb,Step-1,Increment      1: Step Time =    1.000,"P-3-1",           661,       123.242,       98.4628,            0.,NA,NA,"",   996.823E+03,   999.142E+03,   999.142E+03
C:/temp/Job-3.odb,Step-1,Increment      1: Step Time =    1.000,"P-3-1",           662,       94.8432,       79.5733,            0.,NA,NA,"",   1.01369E+06,   1.02698E+06,   1.02698E+06
C:/temp/Job-3.odb,Step-1,Increment      1: Step Time =    1.000,"P-3-1",           663,       87.7800,       117.675,            0.,NA,NA,"",   1.02009E+06,   1.03142E+06,   1.03142E+06
C:/temp/Job-3.odb,Step-1,Increment      1: Step Time =    1.000,"P-3-1",           664,       83.1285,       112.394,            0.,NA,NA,"",   1.01065E+06,   1.02348E+06,   1.02348E+06
C:/temp/Job-3.odb,Step-1,Increment      1: Step Time =    1.000,"P-3-1",           665,       87.7137,       84.6987,            0.,NA,NA,"",   1.02231E+06,    1.0325E+06,    1.0325E+06
C:/temp/Job-3.odb,Step-1,Increment      1: Step Time =    1.000,"P-3-1",           666,       91.4521,       121.115,            0.,NA,NA,"",   1.01504E+06,   1.02747E+06,   1.02747E+06
C:/temp/Job-3.odb,Step-1,Increment      1: Step Time =    1.000,"P-3-1",           667,       100.005,       124.685,            0.,NA,NA,"",   1.01062E+06,   1.02162E+06,   1.02162E+06
C:/temp/Job-3.odb,Step-1,Increment      1: Step Time =    1.000,"P-3-1",           668,       101.992,       81.6802,            0.,NA,NA,"",   1.01048E+06,   1.02389E+06,   1.02389E+06
C:/temp/Job-3.odb,Step-1,Increment      1: Step Time =    1.000,"P-3-1",           669,       108.506,       78.7743,            0.,NA,NA,"",   1.01971E+06,   1.02493E+06,   1.02493E+06
C:/temp/Job-3.odb,Step-1,Increment      1: Step Time =    1.000,"P-3-1",           670,       80.9669,       88.4969,            0.,NA,NA,"",   1.00400E+06,   1.01940E+06,   1.01940E+06
C:/temp/Job-3.odb,Step-1,Increment      1: Step Time =    1.000,"P-3-1",           671,       107.028,       123.302,            0.,NA,NA,"",   1.01672E+06,   1.02340E+06,   1.02340E+06
C:/temp/Job-3.odb,Step-1,Increment      1: Step Time =    1.000,"P-3-1",           672,       79.3888,       101.811,            0.,NA,NA,"",   977.292E+03,   999.029E+03,   999.029E+03
C:/temp/Job-3.odb,Step-1,Increment      1: Step Time =    1.000,"P-3-1",           673,       97.9719,       78.8826,            0.,NA,NA,"",   1.01046E+06,   1.02401E+06,   1.02401E+06
C:/temp/Job-3.odb,Step-1,Increment      1: Step Time =    1.000,"P-3-1",           674,       94.6075,       76.1774,            0.,NA,NA,"",   1.01117E+06,   1.02344E+06,   1.02344E+06
C:/temp/Job-3.odb,Step-1,Increment      1: Step Time =    1.000,"P-3-1",           675,       121.599,       88.1973,            0.,NA,NA,"",   1.01527E+06,   1.01409E+06,   1.01409E+06
C:/temp/Job-3.odb,Step-1,Increment      1: Step Time =    1.000,"P-3-1",           676,       126.555,       94.7522,            0.,NA,NA,"",   1.00400E+06,   1.00457E+06,   1.00457E+06
C:/temp/Job-3.odb,Step-1,Increment      1: Step Time =    1.000,"P-3-1",           677,       91.4909,       76.1669,            0.,NA,NA,"",   1.01281E+06,   1.02508E+06,   1.02508E+06
C:/temp/Job-3.odb,Step-1,Increment      1: Step Time =    1.000,"P-3-1",           678,       95.6136,       123.128,            0.,NA,NA,"",   1.01128E+06,   1.02382E+06,   1.02382E+06
C:/temp/Job-3.odb,Step-1,Increment      1: Step Time =    1.000,"P-3-1",           679,       85.4717,       104.895,            0.,NA,NA,"",   985.196E+03,   999.885E+03,   999.885E+03
C:/temp/Job-3.odb,Step-1,Increment      1: Step Time =    1.000,"P-3-1",           680,       74.0552,       97.6050,            0.,NA,NA,"",   979.988E+03,   1.00568E+06,   1.00568E+06
C:/temp/Job-3.odb,Step-1,Increment      1: Step Time =    1.000,"P-3-1",           681,       101.168,       77.9695,            0.,NA,NA,"",   1.01047E+06,   1.02229E+06,   1.02229E+06
C:/temp/Job-3.odb,Step-1,Increment      1: Step Time =    1.000,"P-3-1",           682,       91.8917,       72.5198,            0.,NA,NA,"",   1.01078E+06,   1.02246E+06,   1.02246E+06
C:/temp/Job-3.odb,Step-1,Increment      1: Step Time =    1.000,"P-3-1",           683,       104.384,       76.7473,            0.,NA,NA,"",   1.01349E+06,   1.02254E+06,   1.02254E+06
C:/temp/Job-3.odb,Step-1,Increment      1: Step Time =    1.000,"P-3-1",           684,       104.732,       125.681,            0.,NA,NA,"",   1.01336E+06,   1.02123E+06,   1.02123E+06
C:/temp/Job-3.odb,Step-1,Increment      1: Step Time =    1.000,"P-3-1",           685,       97.2615,       75.6601,            0.,NA,NA,"",   1.01025E+06,   1.02207E+06,   1.02207E+06
C:/temp/Job-3.odb,Step-1,Increment      1: Step Time =    1.000,"P-3-1",           686,       123.537,       85.4633,            0.,NA,NA,"",   1.01661E+06,   1.01511E+06,   1.01511E+06
C:/temp/Job-3.odb,Step-1,Increment      1: Step Time =    1.000,"P-3-1",           687,       80.9028,       109.987,            0.,NA,NA,"",   1.00006E+06,   1.01651E+06,   1.01651E+06
C:/temp/Job-3.odb,Step-1,Increment      1: Step Time =    1.000,"P-3-1",           688,       76.1822,       87.9944,            0.,NA,NA,"",   995.509E+03,   1.01624E+06,   1.01624E+06
C:/temp/Job-3.odb,Step-1,Increment      1: Step Time =    1.000,"P-3-1",           689,       126.867,       98.0359,            0.,NA,NA,"",   1.00151E+06,   1.00264E+06,   1.00264E+06
C:/temp/Job-3.odb,Step-1,Increment      1: Step Time =    1.000,"P-3-1",           690,       75.6175,       92.9932,            0.,NA,NA,"",   985.771E+03,   1.00888E+06,   1.00888E+06
C:/temp/Job-3.odb,Step-1,Increment      1: Step Time =    1.000,"P-3-1",           691,       75.1569,       100.342,            0.,NA,NA,"",   979.442E+03,   1.00439E+06,   1.00439E+06
C:/temp/Job-3.odb,Step-1,Increment      1: Step Time =    1.000,"P-3-1",           692,       84.5803,       75.7395,            0.,NA,NA,"",   1.01210E+06,   1.02547E+06,   1.02547E+06
C:/temp/Job-3.odb,Step-1,Increment      1: Step Time =    1.000,"P-3-1",           693,       80.1722,       112.333,            0.,NA,NA,"",   1.00316E+06,   1.01947E+06,   1.01947E+06
C:/temp/Job-3.odb,Step-1,Increment      1: Step Time =    1.000,"P-3-1",           694,       103.509,       73.3002,            0.,NA,NA,"",   1.01195E+06,   1.02048E+06,   1.02048E+06
C:/temp/Job-3.odb,Step-1,Increment      1: Step Time =    1.000,"P-3-1",           695,       130.610,       98.0413,            0.,NA,NA,"",   1.00459E+06,   1.00474E+06,   1.00474E+06
C:/temp/Job-3.odb,Step-1,Increment      1: Step Time =    1.000,"P-3-1",           696,       80.2901,       118.382,            0.,NA,NA,"",   1.00840E+06,   1.02423E+06,   1.02423E+06
C:/temp/Job-3.odb,Step-1,Increment      1: Step Time =    1.000,"P-3-1",           697,       101.915,       128.076,            0.,NA,NA,"",   1.01105E+06,   1.01987E+06,   1.01987E+06
C:/temp/Job-3.odb,Step-1,Increment      1: Step Time =    1.000,"P-3-1",           698,       107.548,       75.4421,            0.,NA,NA,"",   1.01610E+06,   1.02235E+06,   1.02235E+06
C:/temp/Job-3.odb,Step-1,Increment      1: Step Time =    1.000,"P-3-1",           699,       76.1642,       103.189,            0.,NA,NA,"",   981.114E+03,   1.00474E+06,   1.00474E+06
C:/temp/Job-3.odb,Step-1,Increment      1: Step Time =    1.000,"P-3-1",           700,       70.6869,       99.1188,            0.,NA,NA,"",   978.798E+03,   1.00731E+06,   1.00731E+06
C:/temp/Job-3.odb,Step-1,Increment      1: Step Time =    1.000,"P-3-1",           701,       88.3386,       72.2433,            0.,NA,NA,"",   1.01093E+06,   1.02317E+06,   1.02317E+06
C:/temp/Job-3.odb,Step-1,Increment      1: Step Time =    1.000,"P-3-1",           702,       100.297,       74.4834,            0.,NA,NA,"",   1.01076E+06,   1.02131E+06,   1.02131E+06
C:/temp/Job-3.odb,Step-1,Increment      1: Step Time =    1.000,"P-3-1",           703,       119.143,       82.1669,            0.,NA,NA,"",   1.02190E+06,   1.02045E+06,   1.02045E+06
C:/temp/Job-3.odb,Step-1,Increment      1: Step Time =    1.000,"P-3-1",           704,       83.9134,       118.264,            0.,NA,NA,"",   1.01408E+06,   1.02734E+06,   1.02734E+06
C:/temp/Job-3.odb,Step-1,Increment      1: Step Time =    1.000,"P-3-1",           705,       77.5545,       105.976,            0.,NA,NA,"",    986.33E+03,   1.00778E+06,   1.00778E+06
C:/temp/Job-3.odb,Step-1,Increment      1: Step Time =    1.000,"P-3-1",           706,       71.5889,       101.601,            0.,NA,NA,"",   979.537E+03,   1.00715E+06,   1.00715E+06
C:/temp/Job-3.odb,Step-1,Increment      1: Step Time =    1.000,"P-3-1",           707,       111.307,       77.3308,            0.,NA,NA,"",   1.02083E+06,   1.02368E+06,   1.02368E+06
C:/temp/Job-3.odb,Step-1,Increment      1: Step Time =    1.000,"P-3-1",           708,       123.805,       88.3352,            0.,NA,NA,"",   1.01358E+06,   1.01243E+06,   1.01243E+06
C:/temp/Job-3.odb,Step-1,Increment      1: Step Time =    1.000,"P-3-1",           709,       123.056,       81.9792,            0.,NA,NA,"",   1.01856E+06,   1.01687E+06,   1.01687E+06
C:/temp/Job-3.odb,Step-1,Increment      1: Step Time =    1.000,"P-3-1",           710,       117.464,       79.4109,            0.,NA,NA,"",   1.02283E+06,   1.02213E+06,   1.02213E+06
C:/temp/Job-3.odb,Step-1,Increment      1: Step Time =    1.000,"P-3-1",           711,       134.300,       94.5385,            0.,NA,NA,"",   1.00737E+06,   1.00648E+06,   1.00648E+06
C:/temp/Job-3.odb,Step-1,Increment      1: Step Time =    1.000,"P-3-1",           712,       127.217,       101.228,            0.,NA,NA,"",   1.00157E+06,   1.00267E+06,   1.00267E+06
C:/temp/Job-3.odb,Step-1,Increment      1: Step Time =    1.000,"P-3-1",           713,       110.078,       70.8759,            0.,NA,NA,"",   1.01518E+06,   1.01934E+06,   1.01934E+06
C:/temp/Job-3.odb,Step-1,Increment      1: Step Time =    1.000,"P-3-1",           714,       112.086,       79.6706,            0.,NA,NA,"",   1.02430E+06,   1.02623E+06,   1.02623E+06
C:/temp/Job-3.odb,Step-1,Increment      1: Step Time =    1.000,"P-3-1",           715,       80.2036,       121.603,            0.,NA,NA,"",   1.00843E+06,   1.02434E+06,   1.02434E+06
C:/temp/Job-3.odb,Step-1,Increment      1: Step Time =    1.000,"P-3-1",           716,       110.703,       74.2141,            0.,NA,NA,"",   1.01787E+06,   1.02159E+06,   1.02159E+06
C:/temp/Job-3.odb,Step-1,Increment      1: Step Time =    1.000,"P-3-1",           717,       126.812,       88.1743,            0.,NA,NA,"",   1.01230E+06,   1.01116E+06,   1.01116E+06
C:/temp/Job-3.odb,Step-1,Increment      1: Step Time =    1.000,"P-3-1",           718,       105.995,       68.6315,            0.,NA,NA,"",   1.01207E+06,   1.01815E+06,   1.01815E+06
C:/temp/Job-3.odb,Step-1,Increment      1: Step Time =    1.000,"P-3-1",           719,       130.685,       101.432,            0.,NA,NA,"",   1.00424E+06,   1.00446E+06,   1.00446E+06
C:/temp/Job-3.odb,Step-1,Increment      1: Step Time =    1.000,"P-3-1",           720,       134.494,       98.0860,            0.,NA,NA,"",   1.00639E+06,   1.00573E+06,   1.00573E+06
C:/temp/Job-3.odb,Step-1,Increment      1: Step Time =    1.000,"P-3-1",           721,       130.449,       91.1812,            0.,NA,NA,"",   1.00857E+06,   1.00780E+06,   1.00780E+06
C:/temp/Job-3.odb,Step-1,Increment      1: Step Time =    1.000,"P-3-1",           722,       122.314,       75.7910,            0.,NA,NA,"",   1.01913E+06,   1.01792E+06,   1.01792E+06
C:/temp/Job-3.odb,Step-1,Increment      1: Step Time =    1.000,"P-3-1",           723,       76.8666,       118.405,            0.,NA,NA,"",   1.00283E+06,   1.02161E+06,   1.02161E+06
C:/temp/Job-3.odb,Step-1,Increment      1: Step Time =    1.000,"P-3-1",           724,       83.9394,       121.872,            0.,NA,NA,"",   1.01257E+06,   1.02621E+06,   1.02621E+06
C:/temp/Job-3.odb,Step-1,Increment      1: Step Time =    1.000,"P-3-1",           725,       114.483,       76.4410,            0.,NA,NA,"",   1.02082E+06,   1.02213E+06,   1.02213E+06
C:/temp/Job-3.odb,Step-1,Increment      1: Step Time =    1.000,"P-3-1",           726,       113.579,       69.7259,            0.,NA,NA,"",   1.01606E+06,   1.01833E+06,   1.01833E+06
C:/temp/Job-3.odb,Step-1,Increment      1: Step Time =    1.000,"P-3-1",           727,       67.9882,       106.003,            0.,NA,NA,"",   979.237E+03,   1.00933E+06,   1.00933E+06
C:/temp/Job-3.odb,Step-1,Increment      1: Step Time =    1.000,"P-3-1",           728,       130.330,       87.5868,            0.,NA,NA,"",   1.01159E+06,   1.01018E+06,   1.01018E+06
C:/temp/Job-3.odb,Step-1,Increment      1: Step Time =    1.000,"P-3-1",           729,       69.3389,       96.4585,            0.,NA,NA,"",   978.587E+03,   1.00789E+06,   1.00789E+06
C:/temp/Job-3.odb,Step-1,Increment      1: Step Time =    1.000,"P-3-1",           730,       109.395,       67.3800,            0.,NA,NA,"",   1.01312E+06,   1.01734E+06,   1.01734E+06
C:/temp/Job-3.odb,Step-1,Increment      1: Step Time =    1.000,"P-3-1",           731,       102.670,       69.8489,            0.,NA,NA,"",   1.01097E+06,   1.01888E+06,   1.01888E+06
C:/temp/Job-3.odb,Step-1,Increment      1: Step Time =    1.000,"P-3-1",           732,       117.966,       75.9395,            0.,NA,NA,"",   1.02073E+06,   1.02058E+06,   1.02058E+06
C:/temp/Job-3.odb,Step-1,Increment      1: Step Time =    1.000,"P-3-1",           733,       101.870,       66.2753,            0.,NA,NA,"",   1.01016E+06,   1.01744E+06,   1.01744E+06
C:/temp/Job-3.odb,Step-1,Increment      1: Step Time =    1.000,"P-3-1",           734,       99.3048,       71.1249,            0.,NA,NA,"",   1.01029E+06,   1.01992E+06,   1.01992E+06
C:/temp/Job-3.odb,Step-1,Increment      1: Step Time =    1.000,"P-3-1",           735,       79.5966,       124.676,            0.,NA,NA,"",   1.00758E+06,   1.02381E+06,   1.02381E+06
C:/temp/Job-3.odb,Step-1,Increment      1: Step Time =    1.000,"P-3-1",           736,       87.7466,       121.729,            0.,NA,NA,"",   1.01477E+06,   1.02700E+06,   1.02700E+06
C:/temp/Job-3.odb,Step-1,Increment      1: Step Time =    1.000,"P-3-1",           737,       76.8370,       121.415,            0.,NA,NA,"",   1.00385E+06,   1.02242E+06,   1.02242E+06
C:/temp/Job-3.odb,Step-1,Increment      1: Step Time =    1.000,"P-3-1",           738,       125.450,       78.5350,            0.,NA,NA,"",   1.01783E+06,   1.01604E+06,   1.01604E+06
C:/temp/Job-3.odb,Step-1,Increment      1: Step Time =    1.000,"P-3-1",           739,       112.956,       66.1191,            0.,NA,NA,"",   1.01383E+06,   1.01636E+06,   1.01636E+06
C:/temp/Job-3.odb,Step-1,Increment      1: Step Time =    1.000,"P-3-1",           740,       70.6285,       109.497,            0.,NA,NA,"",   985.201E+03,   1.01201E+06,   1.01201E+06
C:/temp/Job-3.odb,Step-1,Increment      1: Step Time =    1.000,"P-3-1",           741,       67.5920,       101.471,            0.,NA,NA,"",   976.876E+03,   1.00797E+06,   1.00797E+06
C:/temp/Job-3.odb,Step-1,Increment      1: Step Time =    1.000,"P-3-1",           742,       105.217,       65.0536,            0.,NA,NA,"",   1.01079E+06,   1.01650E+06,   1.01650E+06
C:/temp/Job-3.odb,Step-1,Increment      1: Step Time =    1.000,"P-3-1",           743,       108.620,       63.8272,            0.,NA,NA,"",   1.01141E+06,   1.01557E+06,   1.01557E+06
C:/temp/Job-3.odb,Step-1,Increment      1: Step Time =    1.000,"P-3-1",           744,       76.2375,       124.397,            0.,NA,NA,"",   1.00375E+06,   1.02239E+06,   1.02239E+06
C:/temp/Job-3.odb,Step-1,Increment      1: Step Time =    1.000,"P-3-1",           745,       73.6080,       118.723,            0.,NA,NA,"",   998.162E+03,   1.01972E+06,   1.01972E+06
C:/temp/Job-3.odb,Step-1,Increment      1: Step Time =    1.000,"P-3-1",           746,       117.671,       72.4076,            0.,NA,NA,"",   1.01838E+06,   1.01877E+06,   1.01877E+06
C:/temp/Job-3.odb,Step-1,Increment      1: Step Time =    1.000,"P-3-1",           747,       66.2627,       108.947,            0.,NA,NA,"",   979.164E+03,   1.01042E+06,   1.01042E+06
C:/temp/Job-3.odb,Step-1,Increment      1: Step Time =    1.000,"P-3-1",           748,       74.1443,       107.855,            0.,NA,NA,"",   986.928E+03,   1.01093E+06,   1.01093E+06
C:/temp/Job-3.odb,Step-1,Increment      1: Step Time =    1.000,"P-3-1",           749,       88.0067,       126.093,            0.,NA,NA,"",   1.01187E+06,   1.02438E+06,   1.02438E+06
C:/temp/Job-3.odb,Step-1,Increment      1: Step Time =    1.000,"P-3-1",           750,       73.9216,       121.308,            0.,NA,NA,"",   999.924E+03,   1.02074E+06,   1.02074E+06
C:/temp/Job-3.odb,Step-1,Increment      1: Step Time =    1.000,"P-3-1",           751,       80.4061,       128.890,            0.,NA,NA,"",   1.00732E+06,   1.02265E+06,   1.02265E+06
C:/temp/Job-3.odb,Step-1,Increment      1: Step Time =    1.000,"P-3-1",           752,       72.2144,       112.668,            0.,NA,NA,"",   990.412E+03,   1.01490E+06,   1.01490E+06
C:/temp/Job-3.odb,Step-1,Increment      1: Step Time =    1.000,"P-3-1",           753,       67.5195,       111.231,            0.,NA,NA,"",   982.311E+03,   1.01208E+06,   1.01208E+06
C:/temp/Job-3.odb,Step-1,Increment      1: Step Time =    1.000,"P-3-1",           754,       71.4303,       122.034,            0.,NA,NA,"",   996.538E+03,   1.01950E+06,   1.01950E+06
C:/temp/Job-3.odb,Step-1,Increment      1: Step Time =    1.000,"P-3-1",           755,       62.7814,       102.278,            0.,NA,NA,"",   971.866E+03,   1.00755E+06,   1.00755E+06
C:/temp/Job-3.odb,Step-1,Increment      1: Step Time =    1.000,"P-3-1",           756,       77.3945,       130.815,            0.,NA,NA,"",   1.00483E+06,   1.02162E+06,   1.02162E+06
C:/temp/Job-3.odb,Step-1,Increment      1: Step Time =    1.000,"P-3-1",           757,       70.5112,       119.602,            0.,NA,NA,"",   993.519E+03,   1.01807E+06,   1.01807E+06
C:/temp/Job-3.odb,Step-1,Increment      1: Step Time =    1.000,"P-3-1",           758,       76.3442,       111.308,            0.,NA,NA,"",   994.916E+03,   1.01557E+06,   1.01557E+06
C:/temp/Job-3.odb,Step-1,Increment      1: Step Time =    1.000,"P-3-1",           759,       68.7182,       114.034,            0.,NA,NA,"",   986.520E+03,   1.01431E+06,   1.01431E+06
C:/temp/Job-3.odb,Step-1,Increment      1: Step Time =    1.000,"P-3-1",           760,       76.5877,       115.181,            0.,NA,NA,"",   1.00026E+06,   1.01970E+06,   1.01970E+06
C:/temp/Job-3.odb,Step-1,Increment      1: Step Time =    1.000,"P-3-1",           761,       67.4643,       120.873,            0.,NA,NA,"",   989.527E+03,   1.01681E+06,   1.01681E+06
C:/temp/Job-3.odb,Step-1,Increment      1: Step Time =    1.000,"P-3-1",           762,       69.6415,       116.870,            0.,NA,NA,"",   990.237E+03,   1.01627E+06,   1.01627E+06
C:/temp/Job-3.odb,Step-1,Increment      1: Step Time =    1.000,"P-3-1",           763,       71.7013,       126.256,            0.,NA,NA,"",   998.407E+03,   1.02030E+06,   1.02030E+06
C:/temp/Job-3.odb,Step-1,Increment      1: Step Time =    1.000,"P-3-1",           764,       65.4353,       115.331,            0.,NA,NA,"",   982.463E+03,   1.01337E+06,   1.01337E+06
C:/temp/Job-3.odb,Step-1,Increment      1: Step Time =    1.000,"P-3-1",           765,       68.4124,       124.017,            0.,NA,NA,"",   992.912E+03,   1.01837E+06,   1.01837E+06
C:/temp/Job-3.odb,Step-1,Increment      1: Step Time =    1.000,"P-3-1",           766,       72.6638,       130.871,            0.,NA,NA,"",   1.00059E+06,   1.02059E+06,   1.02059E+06
C:/temp/Job-3.odb,Step-1,Increment      1: Step Time =    1.000,"P-3-1",           767,       66.2163,       118.175,            0.,NA,NA,"",   985.982E+03,   1.01510E+06,   1.01510E+06
C:/temp/Job-3.odb,Step-1,Increment      1: Step Time =    1.000,"P-3-1",           768,       68.0359,       132.198,            0.,NA,NA,"",   995.812E+03,   1.01915E+06,   1.01915E+06
C:/temp/Job-3.odb,Step-1,Increment      1: Step Time =    1.000,"P-3-1",           769,       74.7442,       132.866,            0.,NA,NA,"",   1.00264E+06,   1.02075E+06,   1.02075E+06
C:/temp/Job-3.odb,Step-1,Increment      1: Step Time =    1.000,"P-3-1",           770,       64.9175,       122.576,            0.,NA,NA,"",   986.983E+03,   1.01616E+06,   1.01616E+06
C:/temp/Job-3.odb,Step-1,Increment      1: Step Time =    1.000,"P-3-1",           771,       66.3930,       127.425,            0.,NA,NA,"",   991.689E+03,   1.01798E+06,   1.01798E+06
C:/temp/Job-3.odb,Step-1,Increment      1: Step Time =    1.000,"P-3-1",           772,       58.7050,       123.445,            0.,NA,NA,"",   977.034E+03,   1.01274E+06,   1.01274E+06
C:/temp/Job-3.odb,Step-1,Increment      1: Step Time =    1.000,"P-3-1",           773,       67.3100,       135.191,            0.,NA,NA,"",   995.899E+03,   1.01892E+06,   1.01892E+06
C:/temp/Job-3.odb,Step-1,Increment      1: Step Time =    1.000,"P-3-1",           774,       79.0512,       133.263,            0.,NA,NA,"",   1.00592E+06,   1.02120E+06,   1.02120E+06
C:/temp/Job-3.odb,Step-1,Increment      1: Step Time =    1.000,"P-3-1",           775,       62.0578,       119.592,            0.,NA,NA,"",   980.548E+03,   1.01344E+06,   1.01344E+06
C:/temp/Job-3.odb,Step-1,Increment      1: Step Time =    1.000,"P-3-1",           776,       58.0099,       127.732,            0.,NA,NA,"",   978.770E+03,   1.01376E+06,   1.01376E+06
C:/temp/Job-3.odb,Step-1,Increment      1: Step Time =    1.000,"P-3-1",           777,       64.1076,       112.505,            0.,NA,NA,"",   978.735E+03,   1.01153E+06,   1.01153E+06
C:/temp/Job-3.odb,Step-1,Increment      1: Step Time =    1.000,"P-3-1",           778,       92.1078,       68.9334,            0.,NA,NA,"",   1.00972E+06,   1.02057E+06,   1.02057E+06
C:/temp/Job-3.odb,Step-1,Increment      1: Step Time =    1.000,"P-3-1",           779,       70.7751,       133.440,            0.,NA,NA,"",   999.258E+03,   1.01979E+06,   1.01979E+06
C:/temp/Job-3.odb,Step-1,Increment      1: Step Time =    1.000,"P-3-1",           780,       88.8611,       68.6973,            0.,NA,NA,"",   1.00959E+06,   1.02121E+06,   1.02121E+06
C:/temp/Job-3.odb,Step-1,Increment      1: Step Time =    1.000,"P-3-1",           781,       107.058,       56.3381,            0.,NA,NA,"",   1.00838E+06,   1.01195E+06,   1.01195E+06
C:/temp/Job-3.odb,Step-1,Increment      1: Step Time =    1.000,"P-3-1",           782,       68.4143,       93.9753,            0.,NA,NA,"",   979.028E+03,   1.00883E+06,   1.00883E+06
C:/temp/Job-3.odb,Step-1,Increment      1: Step Time =    1.000,"P-3-1",           783,       58.4996,       102.861,            0.,NA,NA,"",   966.011E+03,   1.00617E+06,   1.00617E+06
C:/temp/Job-3.odb,Step-1,Increment      1: Step Time =    1.000,"P-3-1",           784,       61.1578,       129.356,            0.,NA,NA,"",   984.805E+03,   1.01576E+06,   1.01576E+06
C:/temp/Job-3.odb,Step-1,Increment      1: Step Time =    1.000,"P-3-1",           785,       69.9245,       135.735,            0.,NA,NA,"",   998.819E+03,   1.01937E+06,   1.01937E+06
C:/temp/Job-3.odb,Step-1,Increment      1: Step Time =    1.000,"P-3-1",           786,       80.9368,       75.5265,            0.,NA,NA,"",   1.00930E+06,   1.02441E+06,   1.02441E+06
C:/temp/Job-3.odb,Step-1,Increment      1: Step Time =    1.000,"P-3-1",           787,       124.173,       101.392,            0.,NA,NA,"",   998.581E+03,   1.00051E+06,   1.00051E+06
C:/temp/Job-3.odb,Step-1,Increment      1: Step Time =    1.000,"P-3-1",           788,       82.1141,       131.203,            0.,NA,NA,"",   1.00799E+06,   1.02202E+06,   1.02202E+06
C:/temp/Job-3.odb,Step-1,Increment      1: Step Time =    1.000,"P-3-1",           789,       76.0515,       135.008,            0.,NA,NA,"",   1.00377E+06,   1.02045E+06,   1.02045E+06
C:/temp/Job-3.odb,Step-1,Increment      1: Step Time =    1.000,"P-3-1",           790,       97.0048,       126.482,            0.,NA,NA,"",   1.01039E+06,   1.02153E+06,   1.02153E+06
C:/temp/Job-3.odb,Step-1,Increment      1: Step Time =    1.000,"P-3-1",           791,       55.5660,       119.983,            0.,NA,NA,"",   968.993E+03,   1.00936E+06,   1.00936E+06
C:/temp/Job-3.odb,Step-1,Increment      1: Step Time =    1.000,"P-3-1",           792,       54.4770,       124.962,            0.,NA,NA,"",   970.268E+03,   1.01043E+06,   1.01043E+06
C:/temp/Job-3.odb,Step-1,Increment      1: Step Time =    1.000,"P-3-1",           793,       104.245,       131.434,            0.,NA,NA,"",   1.01156E+06,   1.01836E+06,   1.01836E+06
C:/temp/Job-3.odb,Step-1,Increment      1: Step Time =    1.000,"P-3-1",           794,       134.179,       90.8616,            0.,NA,NA,"",   1.00904E+06,   1.00776E+06,   1.00776E+06
C:/temp/Job-3.odb,Step-1,Increment      1: Step Time =    1.000,"P-3-1",           795,       117.130,       68.6773,            0.,NA,NA,"",   1.01618E+06,   1.01703E+06,   1.01703E+06
C:/temp/Job-3.odb,Step-1,Increment      1: Step Time =    1.000,"P-3-1",           796,       110.183,       118.763,            0.,NA,NA,"",   1.02335E+06,   1.02687E+06,   1.02687E+06
C:/temp/Job-3.odb,Step-1,Increment      1: Step Time =    1.000,"P-3-1",           797,       134.536,       101.607,            0.,NA,NA,"",   1.00638E+06,   1.00574E+06,   1.00574E+06
C:/temp/Job-3.odb,Step-1,Increment      1: Step Time =    1.000,"P-3-1",           798,       110.672,       122.340,            0.,NA,NA,"",   1.02013E+06,   1.02373E+06,   1.02373E+06
C:/temp/Job-3.odb,Step-1,Increment      1: Step Time =    1.000,"P-3-1",           799,       92.2161,       124.596,            0.,NA,NA,"",   1.01199E+06,   1.02412E+06,   1.02412E+06
C:/temp/Job-3.odb,Step-1,Increment      1: Step Time =    1.000,"P-3-1",           800,       101.064,       62.5114,            0.,NA,NA,"",   1.00928E+06,   1.01588E+06,   1.01588E+06
C:/temp/Job-3.odb,Step-1,Increment      1: Step Time =    1.000,"P-3-1",           801,       81.4606,       78.5923,            0.,NA,NA,"",   1.01061E+06,   1.02546E+06,   1.02546E+06
C:/temp/Job-3.odb,Step-1,Increment      1: Step Time =    1.000,"P-3-1",           802,       114.511,       79.5980,            0.,NA,NA,"",   1.02390E+06,   1.02452E+06,   1.02452E+06
C:/temp/Job-3.odb,Step-1,Increment      1: Step Time =    1.000,"P-3-1",           803,       79.0315,       85.6721,            0.,NA,NA,"",   1.00375E+06,   1.02093E+06,   1.02093E+06
C:/temp/Job-3.odb,Step-1,Increment      1: Step Time =    1.000,"P-3-1",           804,       123.228,       91.2573,            0.,NA,NA,"",   1.00925E+06,   1.00895E+06,   1.00895E+06
C:/temp/Job-3.odb,Step-1,Increment      1: Step Time =    1.000,"P-3-1",           805,       119.777,       114.614,            0.,NA,NA,"",   1.01998E+06,   1.01841E+06,   1.01841E+06
C:/temp/Job-3.odb,Step-1,Increment      1: Step Time =    1.000,"P-3-1",           806,       95.0144,       5.20717,            0.,NA,NA,"",   954.389E+03,   954.412E+03,   954.412E+03
C:/temp/Job-3.odb,Step-1,Increment      1: Step Time =    1.000,"P-3-1",           807,       105.106,       5.12649,            0.,NA,NA,"",   960.933E+03,   960.934E+03,   960.934E+03
C:/temp/Job-3.odb,Step-1,Increment      1: Step Time =    1.000,"P-3-1",           808,       125.216,       195.111,            0.,NA,NA,"",   973.903E+03,   973.854E+03,   973.854E+03
C:/temp/Job-3.odb,Step-1,Increment      1: Step Time =    1.000,"P-3-1",           809,       115.262,       195.099,            0.,NA,NA,"",   967.402E+03,   967.375E+03,   967.375E+03
C:/temp/Job-3.odb,Step-1,Increment      1: Step Time =    1.000,"P-3-1",           810,       15.1537,       194.776,            0.,NA,NA,"",   1.08973E+06,   1.09947E+06,   1.09947E+06
C:/temp/Job-3.odb,Step-1,Increment      1: Step Time =    1.000,"P-3-1",           811,       5.07825,       194.910,            0.,NA,NA,"",   1.28432E+06,   1.33311E+06,   1.33311E+06
C:/temp/Job-3.odb,Step-1,Increment      1: Step Time =    1.000,"P-3-1",           812,       5.22973,       10.1910,            0.,NA,NA,"",   1.12435E+06,   1.19850E+06,   1.19850E+06
C:/temp/Job-3.odb,Step-1,Increment      1: Step Time =    1.000,"P-3-1",           813,       5.29218,       15.2461,            0.,NA,NA,"",   1.02929E+06,   1.11424E+06,   1.11424E+06
C:/temp/Job-3.odb,Step-1,Increment      1: Step Time =    1.000,"P-3-1",           814,       5.25509,       25.2589,            0.,NA,NA,"",   944.594E+03,   1.03741E+06,   1.03741E+06
C:/temp/Job-3.odb,Step-1,Increment      1: Step Time =    1.000,"P-3-1",           815,       5.09677,       35.2918,            0.,NA,NA,"",   900.768E+03,   997.696E+03,   997.696E+03
C:/temp/Job-3.odb,Step-1,Increment      1: Step Time =    1.000,"P-3-1",           816,       4.97645,       45.3035,            0.,NA,NA,"",   875.100E+03,   974.537E+03,   974.537E+03
C:/temp/Job-3.odb,Step-1,Increment      1: Step Time =    1.000,"P-3-1",           817,       5.13114,       184.802,            0.,NA,NA,"",   1.02857E+06,   1.11421E+06,   1.11421E+06
C:/temp/Job-3.odb,Step-1,Increment      1: Step Time =    1.000,"P-3-1",           818,       15.2513,       5.11313,            0.,NA,NA,"",   1.08839E+06,   1.09769E+06,   1.09769E+06
C:/temp/Job-3.odb,Step-1,Increment      1: Step Time =    1.000,"P-3-1",           819,       25.1921,       4.81186,            0.,NA,NA,"",   1.00329E+06,   1.00671E+06,   1.00671E+06
C:/temp/Job-3.odb,Step-1,Increment      1: Step Time =    1.000,"P-3-1",           820,       35.1782,       4.54199,            0.,NA,NA,"",   963.455E+03,   964.870E+03,   964.870E+03
C:/temp/Job-3.odb,Step-1,Increment      1: Step Time =    1.000,"P-3-1",           821,       45.0451,       4.59292,            0.,NA,NA,"",   946.353E+03,   947.136E+03,   947.136E+03
C:/temp/Job-3.odb,Step-1,Increment      1: Step Time =    1.000,"P-3-1",           822,       54.9629,       4.86041,            0.,NA,NA,"",   940.677E+03,   941.202E+03,   941.202E+03
C:/temp/Job-3.odb,Step-1,Increment      1: Step Time =    1.000,"P-3-1",           823,       64.9357,       5.06614,            0.,NA,NA,"",   940.550E+03,   940.819E+03,   940.819E+03
C:/temp/Job-3.odb,Step-1,Increment      1: Step Time =    1.000,"P-3-1",           824,       74.9602,       4.89918,            0.,NA,NA,"",   943.142E+03,   943.292E+03,   943.292E+03
C:/temp/Job-3.odb,Step-1,Increment      1: Step Time =    1.000,"P-3-1",           825,       85.0078,       4.98137,            0.,NA,NA,"",   948.111E+03,   948.213E+03,   948.213E+03
C:/temp/Job-3.odb,Step-1,Increment      1: Step Time =    1.000,"P-3-1",           826,       115.202,       5.13105,            0.,NA,NA,"",   967.584E+03,   967.535E+03,   967.535E+03
C:/temp/Job-3.odb,Step-1,Increment      1: Step Time =    1.000,"P-3-1",           827,       135.156,       195.176,            0.,NA,NA,"",   979.986E+03,   979.921E+03,   979.921E+03
C:/temp/Job-3.odb,Step-1,Increment      1: Step Time =    1.000,"P-3-1",           828,       125.127,       4.93486,            0.,NA,NA,"",   973.924E+03,   973.880E+03,   973.880E+03
C:/temp/Job-3.odb,Step-1,Increment      1: Step Time =    1.000,"P-3-1",           829,       145.056,       195.298,            0.,NA,NA,"",   985.493E+03,   985.420E+03,   985.420E+03
C:/temp/Job-3.odb,Step-1,Increment      1: Step Time =    1.000,"P-3-1",           830,       135.050,       4.78492,            0.,NA,NA,"",   979.981E+03,   979.914E+03,   979.914E+03
C:/temp/Job-3.odb,Step-1,Increment      1: Step Time =    1.000,"P-3-1",           831,       154.927,       195.416,            0.,NA,NA,"",   990.311E+03,   990.235E+03,   990.235E+03
C:/temp/Job-3.odb,Step-1,Increment      1: Step Time =    1.000,"P-3-1",           832,       144.947,       4.73312,            0.,NA,NA,"",   985.493E+03,   985.424E+03,   985.424E+03
C:/temp/Job-3.odb,Step-1,Increment      1: Step Time =    1.000,"P-3-1",           833,       154.874,       4.80509,            0.,NA,NA,"",   990.352E+03,   990.274E+03,   990.274E+03
C:/temp/Job-3.odb,Step-1,Increment      1: Step Time =    1.000,"P-3-1",           834,       164.807,       195.406,            0.,NA,NA,"",   994.339E+03,   994.253E+03,   994.253E+03
C:/temp/Job-3.odb,Step-1,Increment      1: Step Time =    1.000,"P-3-1",           835,       164.863,       5.02504,            0.,NA,NA,"",   994.381E+03,   994.281E+03,   994.281E+03
C:/temp/Job-3.odb,Step-1,Increment      1: Step Time =    1.000,"P-3-1",           836,       174.729,       195.095,            0.,NA,NA,"",   997.364E+03,   997.254E+03,   997.254E+03
C:/temp/Job-3.odb,Step-1,Increment      1: Step Time =    1.000,"P-3-1",           837,       174.846,       5.10162,            0.,NA,NA,"",   997.376E+03,   997.253E+03,   997.253E+03
C:/temp/Job-3.odb,Step-1,Increment      1: Step Time =    1.000,"P-3-1",           838,       184.694,       194.802,            0.,NA,NA,"",   999.229E+03,   999.095E+03,   999.095E+03
C:/temp/Job-3.odb,Step-1,Increment      1: Step Time =    1.000,"P-3-1",           839,       184.870,       5.12503,            0.,NA,NA,"",   999.267E+03,   999.132E+03,   999.132E+03
C:/temp/Job-3.odb,Step-1,Increment      1: Step Time =    1.000,"P-3-1",           840,       194.905,       105.199,            0.,NA,NA,"",   1.00953E+06,   1.00016E+06,   1.00016E+06
C:/temp/Job-3.odb,Step-1,Increment      1: Step Time =    1.000,"P-3-1",           841,       194.935,       115.303,            0.,NA,NA,"",   1.00913E+06,   1.00014E+06,   1.00014E+06
C:/temp/Job-3.odb,Step-1,Increment      1: Step Time =    1.000,"P-3-1",           842,       195.111,       125.216,            0.,NA,NA,"",   1.00840E+06,   1.00014E+06,   1.00014E+06
C:/temp/Job-3.odb,Step-1,Increment      1: Step Time =    1.000,"P-3-1",           843,       195.262,       135.119,            0.,NA,NA,"",   1.00727E+06,   1.00010E+06,   1.00010E+06
C:/temp/Job-3.odb,Step-1,Increment      1: Step Time =    1.000,"P-3-1",           844,       195.321,       145.004,            0.,NA,NA,"",   1.00585E+06,   1.00006E+06,   1.00006E+06
C:/temp/Job-3.odb,Step-1,Increment      1: Step Time =    1.000,"P-3-1",           845,       194.858,       194.859,            0.,NA,NA,"",   999.942E+03,   999.885E+03,   999.885E+03
C:/temp/Job-3.odb,Step-1,Increment      1: Step Time =    1.000,"P-3-1",           846,       194.937,       5.06632,            0.,NA,NA,"",   999.948E+03,   999.897E+03,   999.897E+03
C:/temp/Job-3.odb,Step-1,Increment      1: Step Time =    1.000,"P-3-1",           847,       194.926,       15.1077,            0.,NA,NA,"",   1.00018E+06,   999.749E+03,   999.749E+03
C:/temp/Job-3.odb,Step-1,Increment      1: Step Time =    1.000,"P-3-1",           848,       195.068,       25.0430,            0.,NA,NA,"",   1.00114E+06,   999.824E+03,   999.824E+03
C:/temp/Job-3.odb,Step-1,Increment      1: Step Time =    1.000,"P-3-1",           849,       195.208,       35.0111,            0.,NA,NA,"",   1.00257E+06,   999.926E+03,   999.926E+03
C:/temp/Job-3.odb,Step-1,Increment      1: Step Time =    1.000,"P-3-1",           850,       195.163,       44.9049,            0.,NA,NA,"",   1.00418E+06,   999.996E+03,   999.996E+03
C:/temp/Job-3.odb,Step-1,Increment      1: Step Time =    1.000,"P-3-1",           851,       194.889,       54.8905,            0.,NA,NA,"",   1.00578E+06,   1.00007E+06,   1.00007E+06
C:/temp/Job-3.odb,Step-1,Increment      1: Step Time =    1.000,"P-3-1",           852,       194.598,       64.9905,            0.,NA,NA,"",   1.00721E+06,   1.00012E+06,   1.00012E+06
C:/temp/Job-3.odb,Step-1,Increment      1: Step Time =    1.000,"P-3-1",           853,       194.776,       75.0259,            0.,NA,NA,"",   1.00836E+06,   1.00015E+06,   1.00015E+06
C:/temp/Job-3.odb,Step-1,Increment      1: Step Time =    1.000,"P-3-1",           854,       194.890,       85.0662,            0.,NA,NA,"",   1.00916E+06,   1.00017E+06,   1.00017E+06
C:/temp/Job-3.odb,Step-1,Increment      1: Step Time =    1.000,"P-3-1",           855,       194.767,       95.1183,            0.,NA,NA,"",   1.00951E+06,   1.00015E+06,   1.00015E+06
C:/temp/Job-3.odb,Step-1,Increment      1: Step Time =    1.000,"P-3-1",           856,       105.292,       195.086,            0.,NA,NA,"",   960.737E+03,   960.732E+03,   960.732E+03
C:/temp/Job-3.odb,Step-1,Increment      1: Step Time =    1.000,"P-3-1",           857,       95.2375,       194.939,            0.,NA,NA,"",   954.395E+03,   954.426E+03,   954.426E+03
C:/temp/Job-3.odb,Step-1,Increment      1: Step Time =    1.000,"P-3-1",           858,       85.0730,       194.679,            0.,NA,NA,"",   948.766E+03,   948.821E+03,   948.821E+03
C:/temp/Job-3.odb,Step-1,Increment      1: Step Time =    1.000,"P-3-1",           859,       74.9554,       194.810,            0.,NA,NA,"",   943.734E+03,   943.939E+03,   943.939E+03
C:/temp/Job-3.odb,Step-1,Increment      1: Step Time =    1.000,"P-3-1",           860,       64.9870,       195.050,            0.,NA,NA,"",   940.230E+03,   940.515E+03,   940.515E+03
C:/temp/Job-3.odb,Step-1,Increment      1: Step Time =    1.000,"P-3-1",           861,       55.0701,       195.377,            0.,NA,NA,"",   939.975E+03,   940.467E+03,   940.467E+03
C:/temp/Job-3.odb,Step-1,Increment      1: Step Time =    1.000,"P-3-1",           862,       45.1793,       195.301,            0.,NA,NA,"",   946.960E+03,   947.810E+03,   947.810E+03
C:/temp/Job-3.odb,Step-1,Increment      1: Step Time =    1.000,"P-3-1",           863,       35.2782,       194.861,            0.,NA,NA,"",   966.751E+03,   968.580E+03,   968.580E+03
C:/temp/Job-3.odb,Step-1,Increment      1: Step Time =    1.000,"P-3-1",           864,       25.2608,       194.639,            0.,NA,NA,"",   1.00620E+06,   1.01012E+06,   1.01012E+06
C:/temp/Job-3.odb,Step-1,Increment      1: Step Time =    1.000,"P-3-1",           865,       5.09965,       174.679,            0.,NA,NA,"",   942.975E+03,   1.03634E+06,   1.03634E+06
C:/temp/Job-3.odb,Step-1,Increment      1: Step Time =    1.000,"P-3-1",           866,       4.79442,       164.703,            0.,NA,NA,"",    899.52E+03,   997.012E+03,   997.012E+03
C:/temp/Job-3.odb,Step-1,Increment      1: Step Time =    1.000,"P-3-1",           867,       4.54385,       154.828,            0.,NA,NA,"",   873.806E+03,   973.889E+03,   973.889E+03
C:/temp/Job-3.odb,Step-1,Increment      1: Step Time =    1.000,"P-3-1",           868,       4.76696,       144.924,            0.,NA,NA,"",   858.676E+03,   959.784E+03,   959.784E+03
C:/temp/Job-3.odb,Step-1,Increment      1: Step Time =    1.000,"P-3-1",           869,       5.21152,       134.960,            0.,NA,NA,"",   849.092E+03,   950.763E+03,   950.763E+03
C:/temp/Job-3.odb,Step-1,Increment      1: Step Time =    1.000,"P-3-1",           870,       5.20262,       124.951,            0.,NA,NA,"",   842.145E+03,   944.420E+03,   944.420E+03
C:/temp/Job-3.odb,Step-1,Increment      1: Step Time =    1.000,"P-3-1",           871,       5.06715,       114.921,            0.,NA,NA,"",   837.362E+03,   940.238E+03,   940.238E+03
C:/temp/Job-3.odb,Step-1,Increment      1: Step Time =    1.000,"P-3-1",           872,       4.92749,       104.987,            0.,NA,NA,"",   834.896E+03,   938.108E+03,   938.108E+03
C:/temp/Job-3.odb,Step-1,Increment      1: Step Time =    1.000,"P-3-1",           873,       4.88389,       95.0434,            0.,NA,NA,"",   834.869E+03,   938.089E+03,   938.089E+03
C:/temp/Job-3.odb,Step-1,Increment      1: Step Time =    1.000,"P-3-1",           874,       4.94996,       85.0733,            0.,NA,NA,"",   836.957E+03,   939.978E+03,   939.978E+03
C:/temp/Job-3.odb,Step-1,Increment      1: Step Time =    1.000,"P-3-1",           875,       4.78619,       75.1181,            0.,NA,NA,"",   840.977E+03,   943.692E+03,   943.692E+03
C:/temp/Job-3.odb,Step-1,Increment      1: Step Time =    1.000,"P-3-1",           876,       4.70970,       65.1525,            0.,NA,NA,"",   847.820E+03,   949.973E+03,   949.973E+03
C:/temp/Job-3.odb,Step-1,Increment      1: Step Time =    1.000,"P-3-1",           877,       4.82924,       55.2178,            0.,NA,NA,"",   858.749E+03,   959.819E+03,   959.819E+03
C:/temp/Job-3.odb,Step-1,Increment      1: Step Time =    1.000,"P-3-1",           878,       195.276,       154.857,            0.,NA,NA,"",   1.00424E+06,   1.00001E+06,   1.00001E+06
C:/temp/Job-3.odb,Step-1,Increment      1: Step Time =    1.000,"P-3-1",           879,       195.098,       164.758,            0.,NA,NA,"",   1.00260E+06,   999.926E+03,   999.926E+03
C:/temp/Job-3.odb,Step-1,Increment      1: Step Time =    1.000,"P-3-1",           880,       194.835,       174.748,            0.,NA,NA,"",   1.00116E+06,   999.814E+03,   999.814E+03
C:/temp/Job-3.odb,Step-1,Increment      1: Step Time =    1.000,"P-3-1",           881,       194.722,       184.720,            0.,NA,NA,"",   1.00018E+06,   999.732E+03,   999.732E+03
C:/temp/Job-3.odb,Step-1,Increment      1: Step Time =    1.000,"P-3-1",           882,       189.900,       5.10617,            0.,NA,NA,"",   999.755E+03,   999.636E+03,   999.636E+03
C:/temp/Job-3.odb,Step-1,Increment      1: Step Time =    1.000,"P-3-1",           883,       179.872,       5.11671,            0.,NA,NA,"",   998.475E+03,   998.344E+03,   998.344E+03
C:/temp/Job-3.odb,Step-1,Increment      1: Step Time =    1.000,"P-3-1",           884,       169.866,       5.10187,            0.,NA,NA,"",   996.006E+03,   995.895E+03,   995.895E+03
C:/temp/Job-3.odb,Step-1,Increment      1: Step Time =    1.000,"P-3-1",           885,       159.862,       4.91124,            0.,NA,NA,"",   992.483E+03,   992.394E+03,   992.394E+03
C:/temp/Job-3.odb,Step-1,Increment      1: Step Time =    1.000,"P-3-1",           886,       149.910,       4.75122,            0.,NA,NA,"",   988.019E+03,   987.947E+03,   987.947E+03
C:/temp/Job-3.odb,Step-1,Increment      1: Step Time =    1.000,"P-3-1",           887,       139.992,       4.75098,            0.,NA,NA,"",   982.809E+03,   982.741E+03,   982.741E+03
C:/temp/Job-3.odb,Step-1,Increment      1: Step Time =    1.000,"P-3-1",           888,       130.106,       4.84147,            0.,NA,NA,"",   977.016E+03,   976.952E+03,   976.952E+03
C:/temp/Job-3.odb,Step-1,Increment      1: Step Time =    1.000,"P-3-1",           889,       120.150,       5.04753,            0.,NA,NA,"",   970.765E+03,   970.726E+03,   970.726E+03
C:/temp/Job-3.odb,Step-1,Increment      1: Step Time =    1.000,"P-3-1",           890,       110.199,       5.12859,            0.,NA,NA,"",   964.322E+03,   964.283E+03,   964.283E+03
C:/temp/Job-3.odb,Step-1,Increment      1: Step Time =    1.000,"P-3-1",           891,       100.016,       5.17837,            0.,NA,NA,"",   957.579E+03,   957.598E+03,   957.598E+03
C:/temp/Job-3.odb,Step-1,Increment      1: Step Time =    1.000,"P-3-1",           892,       90.0398,       5.11545,            0.,NA,NA,"",   951.216E+03,   951.295E+03,   951.295E+03
C:/temp/Job-3.odb,Step-1,Increment      1: Step Time =    1.000,"P-3-1",           893,       79.9666,       4.89409,            0.,NA,NA,"",   945.365E+03,   945.460E+03,   945.460E+03
C:/temp/Job-3.odb,Step-1,Increment      1: Step Time =    1.000,"P-3-1",           894,       69.9387,       4.98828,            0.,NA,NA,"",   941.516E+03,   941.772E+03,   941.772E+03
C:/temp/Job-3.odb,Step-1,Increment      1: Step Time =    1.000,"P-3-1",           895,       59.9629,       5.00181,            0.,NA,NA,"",   940.176E+03,   940.582E+03,   940.582E+03
C:/temp/Job-3.odb,Step-1,Increment      1: Step Time =    1.000,"P-3-1",           896,       49.9880,       4.70857,            0.,NA,NA,"",   942.580E+03,   943.174E+03,   943.174E+03
C:/temp/Job-3.odb,Step-1,Increment      1: Step Time =    1.000,"P-3-1",           897,       40.1161,       4.51994,            0.,NA,NA,"",   952.963E+03,   953.953E+03,   953.953E+03
C:/temp/Job-3.odb,Step-1,Increment      1: Step Time =    1.000,"P-3-1",           898,       30.1875,       4.63535,            0.,NA,NA,"",   979.741E+03,   981.923E+03,   981.923E+03
C:/temp/Job-3.odb,Step-1,Increment      1: Step Time =    1.000,"P-3-1",           899,       20.2304,       4.98269,            0.,NA,NA,"",   1.03929E+06,   1.04433E+06,   1.04433E+06
C:/temp/Job-3.odb,Step-1,Increment      1: Step Time =    1.000,"P-3-1",           900,       10.2142,       5.15555,            0.,NA,NA,"",   1.17749E+06,   1.19132E+06,   1.19132E+06
C:/temp/Job-3.odb,Step-1,Increment      1: Step Time =    1.000,"P-3-1",           901,       194.761,       189.774,            0.,NA,NA,"",   999.946E+03,   999.751E+03,   999.751E+03
C:/temp/Job-3.odb,Step-1,Increment      1: Step Time =    1.000,"P-3-1",           902,       194.748,       179.723,            0.,NA,NA,"",   1.00060E+06,   999.763E+03,   999.763E+03
C:/temp/Job-3.odb,Step-1,Increment      1: Step Time =    1.000,"P-3-1",           903,       194.968,       169.751,            0.,NA,NA,"",   1.00183E+06,   999.870E+03,   999.870E+03
C:/temp/Job-3.odb,Step-1,Increment      1: Step Time =    1.000,"P-3-1",           904,       195.211,       159.798,            0.,NA,NA,"",   1.00341E+06,   999.976E+03,   999.976E+03
C:/temp/Job-3.odb,Step-1,Increment      1: Step Time =    1.000,"P-3-1",           905,       195.318,       149.936,            0.,NA,NA,"",   1.00505E+06,   1.00004E+06,   1.00004E+06
C:/temp/Job-3.odb,Step-1,Increment      1: Step Time =    1.000,"P-3-1",           906,       195.302,       140.066,            0.,NA,NA,"",   1.00659E+06,   1.00009E+06,   1.00009E+06
C:/temp/Job-3.odb,Step-1,Increment      1: Step Time =    1.000,"P-3-1",           907,       195.197,       130.167,            0.,NA,NA,"",   1.00787E+06,   1.00012E+06,   1.00012E+06
C:/temp/Job-3.odb,Step-1,Increment      1: Step Time =    1.000,"P-3-1",           908,       195.008,       120.255,            0.,NA,NA,"",   1.00882E+06,   1.00015E+06,   1.00015E+06
C:/temp/Job-3.odb,Step-1,Increment      1: Step Time =    1.000,"P-3-1",           909,       194.930,       110.284,            0.,NA,NA,"",   1.00937E+06,   1.00015E+06,   1.00015E+06
C:/temp/Job-3.odb,Step-1,Increment      1: Step Time =    1.000,"P-3-1",           910,       194.823,       100.125,            0.,NA,NA,"",   1.00957E+06,   1.00016E+06,   1.00016E+06
C:/temp/Job-3.odb,Step-1,Increment      1: Step Time =    1.000,"P-3-1",           911,       194.823,       90.1132,            0.,NA,NA,"",   1.00939E+06,   1.00017E+06,   1.00017E+06
C:/temp/Job-3.odb,Step-1,Increment      1: Step Time =    1.000,"P-3-1",           912,       194.873,       80.0373,            0.,NA,NA,"",   1.00880E+06,   1.00015E+06,   1.00015E+06
C:/temp/Job-3.odb,Step-1,Increment      1: Step Time =    1.000,"P-3-1",           913,       194.648,       70.0025,            0.,NA,NA,"",   1.00782E+06,   1.00015E+06,   1.00015E+06
C:/temp/Job-3.odb,Step-1,Increment      1: Step Time =    1.000,"P-3-1",           914,       194.707,       59.9545,            0.,NA,NA,"",   1.00654E+06,   1.00010E+06,   1.00010E+06
C:/temp/Job-3.odb,Step-1,Increment      1: Step Time =    1.000,"P-3-1",           915,       195.056,       49.8675,            0.,NA,NA,"",   1.00498E+06,   1.00002E+06,   1.00002E+06
C:/temp/Job-3.odb,Step-1,Increment      1: Step Time =    1.000,"P-3-1",           916,       195.219,       39.9558,            0.,NA,NA,"",   1.00337E+06,   999.968E+03,   999.968E+03
C:/temp/Job-3.odb,Step-1,Increment      1: Step Time =    1.000,"P-3-1",           917,       195.162,       30.0295,            0.,NA,NA,"",   1.00181E+06,   999.877E+03,   999.877E+03
C:/temp/Job-3.odb,Step-1,Increment      1: Step Time =    1.000,"P-3-1",           918,       194.990,       20.0688,            0.,NA,NA,"",   1.00058E+06,   999.778E+03,   999.778E+03
C:/temp/Job-3.odb,Step-1,Increment      1: Step Time =    1.000,"P-3-1",           919,       194.915,       10.0988,            0.,NA,NA,"",   999.947E+03,   999.767E+03,   999.767E+03
C:/temp/Job-3.odb,Step-1,Increment      1: Step Time =    1.000,"P-3-1",           920,       10.1229,       194.841,            0.,NA,NA,"",   1.17956E+06,   1.19352E+06,   1.19352E+06
C:/temp/Job-3.odb,Step-1,Increment      1: Step Time =    1.000,"P-3-1",           921,       20.1878,       194.699,            0.,NA,NA,"",   1.04095E+06,   1.04667E+06,   1.04667E+06
C:/temp/Job-3.odb,Step-1,Increment      1: Step Time =    1.000,"P-3-1",           922,       30.3027,       194.674,            0.,NA,NA,"",   983.421E+03,   986.039E+03,   986.039E+03
C:/temp/Job-3.odb,Step-1,Increment      1: Step Time =    1.000,"P-3-1",           923,       40.2386,       195.106,            0.,NA,NA,"",   954.906E+03,   956.203E+03,   956.203E+03
C:/temp/Job-3.odb,Step-1,Increment      1: Step Time =    1.000,"P-3-1",           924,       50.1184,       195.399,            0.,NA,NA,"",   942.247E+03,   942.871E+03,   942.871E+03
C:/temp/Job-3.odb,Step-1,Increment      1: Step Time =    1.000,"P-3-1",           925,       60.0399,       195.232,            0.,NA,NA,"",   939.526E+03,   939.908E+03,   939.908E+03
C:/temp/Job-3.odb,Step-1,Increment      1: Step Time =    1.000,"P-3-1",           926,       69.9341,       194.919,            0.,NA,NA,"",   941.707E+03,   941.956E+03,   941.956E+03
C:/temp/Job-3.odb,Step-1,Increment      1: Step Time =    1.000,"P-3-1",           927,       80.0148,       194.707,            0.,NA,NA,"",   946.163E+03,   946.276E+03,   946.276E+03
C:/temp/Job-3.odb,Step-1,Increment      1: Step Time =    1.000,"P-3-1",           928,       90.1451,       194.790,            0.,NA,NA,"",   951.475E+03,   951.533E+03,   951.533E+03
C:/temp/Job-3.odb,Step-1,Increment      1: Step Time =    1.000,"P-3-1",           929,       100.283,       195.041,            0.,NA,NA,"",   957.499E+03,   957.497E+03,   957.497E+03
C:/temp/Job-3.odb,Step-1,Increment      1: Step Time =    1.000,"P-3-1",           930,       110.280,       195.099,            0.,NA,NA,"",   964.068E+03,   964.053E+03,   964.053E+03
C:/temp/Job-3.odb,Step-1,Increment      1: Step Time =    1.000,"P-3-1",           931,       120.241,       195.100,            0.,NA,NA,"",   970.694E+03,   970.654E+03,   970.654E+03
C:/temp/Job-3.odb,Step-1,Increment      1: Step Time =    1.000,"P-3-1",           932,       130.188,       195.135,            0.,NA,NA,"",   977.009E+03,   976.951E+03,   976.951E+03
C:/temp/Job-3.odb,Step-1,Increment      1: Step Time =    1.000,"P-3-1",           933,       140.111,       195.234,            0.,NA,NA,"",   982.819E+03,   982.749E+03,   982.749E+03
C:/temp/Job-3.odb,Step-1,Increment      1: Step Time =    1.000,"P-3-1",           934,       149.996,       195.370,            0.,NA,NA,"",   987.993E+03,   987.919E+03,   987.919E+03
C:/temp/Job-3.odb,Step-1,Increment      1: Step Time =    1.000,"P-3-1",           935,       159.865,       195.447,            0.,NA,NA,"",   992.430E+03,   992.353E+03,   992.353E+03
C:/temp/Job-3.odb,Step-1,Increment      1: Step Time =    1.000,"P-3-1",           936,       169.764,       195.294,            0.,NA,NA,"",   995.998E+03,   995.901E+03,   995.901E+03
C:/temp/Job-3.odb,Step-1,Increment      1: Step Time =    1.000,"P-3-1",           937,       179.691,       194.915,            0.,NA,NA,"",   998.437E+03,   998.313E+03,   998.313E+03
C:/temp/Job-3.odb,Step-1,Increment      1: Step Time =    1.000,"P-3-1",           938,       189.755,       194.789,            0.,NA,NA,"",   999.732E+03,   999.610E+03,   999.610E+03
C:/temp/Job-3.odb,Step-1,Increment      1: Step Time =    1.000,"P-3-1",           939,       5.30592,       20.2607,            0.,NA,NA,"",   981.197E+03,   1.07053E+06,   1.07053E+06
C:/temp/Job-3.odb,Step-1,Increment      1: Step Time =    1.000,"P-3-1",           940,       5.18063,       30.2734,            0.,NA,NA,"",   920.123E+03,   1.01521E+06,   1.01521E+06
C:/temp/Job-3.odb,Step-1,Increment      1: Step Time =    1.000,"P-3-1",           941,       5.03632,       40.3088,            0.,NA,NA,"",   886.575E+03,   984.885E+03,   984.885E+03
C:/temp/Job-3.odb,Step-1,Increment      1: Step Time =    1.000,"P-3-1",           942,       4.91328,       50.2700,            0.,NA,NA,"",   866.205E+03,   966.527E+03,   966.527E+03
C:/temp/Job-3.odb,Step-1,Increment      1: Step Time =    1.000,"P-3-1",           943,       4.75505,       60.1820,            0.,NA,NA,"",   852.758E+03,   954.434E+03,   954.434E+03
C:/temp/Job-3.odb,Step-1,Increment      1: Step Time =    1.000,"P-3-1",           944,       4.72167,       70.1306,            0.,NA,NA,"",   843.994E+03,   946.483E+03,   946.483E+03
C:/temp/Job-3.odb,Step-1,Increment      1: Step Time =    1.000,"P-3-1",           945,       4.88439,       80.1052,            0.,NA,NA,"",   838.710E+03,   941.588E+03,   941.588E+03
C:/temp/Job-3.odb,Step-1,Increment      1: Step Time =    1.000,"P-3-1",           946,       4.92037,       90.0497,            0.,NA,NA,"",   835.700E+03,   938.831E+03,   938.831E+03
C:/temp/Job-3.odb,Step-1,Increment      1: Step Time =    1.000,"P-3-1",           947,       4.88280,       100.018,            0.,NA,NA,"",   834.585E+03,   937.843E+03,   937.843E+03
C:/temp/Job-3.odb,Step-1,Increment      1: Step Time =    1.000,"P-3-1",           948,       4.99057,       109.956,            0.,NA,NA,"",   835.841E+03,   938.920E+03,   938.920E+03
C:/temp/Job-3.odb,Step-1,Increment      1: Step Time =    1.000,"P-3-1",           949,       5.13294,       119.917,            0.,NA,NA,"",   839.436E+03,   942.043E+03,   942.043E+03
C:/temp/Job-3.odb,Step-1,Increment      1: Step Time =    1.000,"P-3-1",           950,       5.25020,       129.984,            0.,NA,NA,"",   845.448E+03,   947.395E+03,   947.395E+03
C:/temp/Job-3.odb,Step-1,Increment      1: Step Time =    1.000,"P-3-1",           951,       5.01187,       139.932,            0.,NA,NA,"",   853.412E+03,   954.808E+03,   954.808E+03
C:/temp/Job-3.odb,Step-1,Increment      1: Step Time =    1.000,"P-3-1",           952,       4.59344,       149.890,            0.,NA,NA,"",   865.391E+03,   966.121E+03,   966.121E+03
C:/temp/Job-3.odb,Step-1,Increment      1: Step Time =    1.000,"P-3-1",           953,       4.61398,       159.753,            0.,NA,NA,"",   885.196E+03,   984.158E+03,   984.158E+03
C:/temp/Job-3.odb,Step-1,Increment      1: Step Time =    1.000,"P-3-1",           954,       4.99910,       169.664,            0.,NA,NA,"",   918.720E+03,   1.01436E+06,   1.01436E+06
C:/temp/Job-3.odb,Step-1,Increment      1: Step Time =    1.000,"P-3-1",           955,       5.12484,       179.747,            0.,NA,NA,"",   980.072E+03,   1.06999E+06,   1.06999E+06
C:/temp/Job-3.odb,Step-1,Increment      1: Step Time =    1.000,"P-3-1",           956,       5.11459,       189.853,            0.,NA,NA,"",   1.12469E+06,   1.19946E+06,   1.19946E+06
C:/temp/Job-3.odb,Step-1,Increment      1: Step Time =    1.000,"P-3-1",           957,       130.496,       104.974,            0.,NA,NA,"",   1.00589E+06,   1.00577E+06,   1.00577E+06
C:/temp/Job-3.odb,Step-1,Increment      1: Step Time =    1.000,"P-3-1",           958,       120.670,       112.113,            0.,NA,NA,"",   1.01648E+06,   1.01520E+06,   1.01520E+06
C:/temp/Job-3.odb,Step-1,Increment      1: Step Time =    1.000,"P-3-1",           959,       129.719,       84.0929,            0.,NA,NA,"",   1.01398E+06,   1.01216E+06,   1.01216E+06
C:/temp/Job-3.odb,Step-1,Increment      1: Step Time =    1.000,"P-3-1",           960,       123.213,       104.917,            0.,NA,NA,"",   1.00173E+06,   1.00301E+06,   1.00301E+06
C:/temp/Job-3.odb,Step-1,Increment      1: Step Time =    1.000,"P-3-1",           961,       73.3536,       90.1273,            0.,NA,NA,"",   988.448E+03,   1.01266E+06,   1.01266E+06
C:/temp/Job-3.odb,Step-1,Increment      1: Step Time =    1.000,"P-3-1",           962,       121.264,       71.5636,            0.,NA,NA,"",   1.01778E+06,   1.01720E+06,   1.01720E+06
C:/temp/Job-3.odb,Step-1,Increment      1: Step Time =    1.000,"P-3-1",           963,       61.9145,       98.4860,            0.,NA,NA,"",   970.474E+03,   1.00701E+06,   1.00701E+06
C:/temp/Job-3.odb,Step-1,Increment      1: Step Time =    1.000,"P-3-1",           964,       128.424,       75.9710,            0.,NA,NA,"",   1.01668E+06,   1.01464E+06,   1.01464E+06
C:/temp/Job-3.odb,Step-1,Increment      1: Step Time =    1.000,"P-3-1",           965,       90.1987,       129.767,            0.,NA,NA,"",   1.01007E+06,   1.02162E+06,   1.02162E+06
C:/temp/Job-3.odb,Step-1,Increment      1: Step Time =    1.000,"P-3-1",           966,       122.857,       108.033,            0.,NA,NA,"",   1.00812E+06,   1.00806E+06,   1.00806E+06
C:/temp/Job-3.odb,Step-1,Increment      1: Step Time =    1.000,"P-3-1",           967,       89.6930,       66.1493,            0.,NA,NA,"",   1.00894E+06,   1.01985E+06,   1.01985E+06
C:/temp/Job-3.odb,Step-1,Increment      1: Step Time =    1.000,"P-3-1",           968,       116.944,       82.3114,            0.,NA,NA,"",   1.02405E+06,   1.02277E+06,   1.02277E+06
C:/temp/Job-3.odb,Step-1,Increment      1: Step Time =    1.000,"P-3-1",           969,       95.3628,       131.743,            0.,NA,NA,"",   1.00948E+06,   1.01936E+06,   1.01936E+06
C:/temp/Job-3.odb,Step-1,Increment      1: Step Time =    1.000,"P-3-1",           970,       122.226,       115.211,            0.,NA,NA,"",   1.01788E+06,   1.01638E+06,   1.01638E+06
C:/temp/Job-3.odb,Step-1,Increment      1: Step Time =    1.000,"P-3-1",           971,       120.544,       67.7663,            0.,NA,NA,"",   1.01583E+06,   1.01565E+06,   1.01565E+06
C:/temp/Job-3.odb,Step-1,Increment      1: Step Time =    1.000,"P-3-1",           972,       85.1947,       128.949,            0.,NA,NA,"",   1.01011E+06,   1.02320E+06,   1.02320E+06
C:/temp/Job-3.odb,Step-1,Increment      1: Step Time =    1.000,"P-3-1",           973,       77.0421,       71.3528,            0.,NA,NA,"",   1.00484E+06,   1.02214E+06,   1.02214E+06
C:/temp/Job-3.odb,Step-1,Increment      1: Step Time =    1.000,"P-3-1",           974,       124.773,       69.8490,            0.,NA,NA,"",   1.01645E+06,   1.01524E+06,   1.01524E+06
C:/temp/Job-3.odb,Step-1,Increment      1: Step Time =    1.000,"P-3-1",           975,       113.975,       124.803,            0.,NA,NA,"",   1.01935E+06,   1.02123E+06,   1.02123E+06
C:/temp/Job-3.odb,Step-1,Increment      1: Step Time =    1.000,"P-3-1",           976,       116.681,       120.710,            0.,NA,NA,"",   1.02313E+06,   1.02277E+06,   1.02277E+06
C:/temp/Job-3.odb,Step-1,Increment      1: Step Time =    1.000,"P-3-1",           977,       73.7962,       85.1682,            0.,NA,NA,"",   995.078E+03,   1.01748E+06,   1.01748E+06
C:/temp/Job-3.odb,Step-1,Increment      1: Step Time =    1.000,"P-3-1",           978,       98.7871,       130.241,            0.,NA,NA,"",   1.00997E+06,   1.01934E+06,   1.01934E+06
C:/temp/Job-3.odb,Step-1,Increment      1: Step Time =    1.000,"P-3-1",           979,       134.161,       86.9781,            0.,NA,NA,"",   1.01114E+06,   1.00939E+06,   1.00939E+06
C:/temp/Job-3.odb,Step-1,Increment      1: Step Time =    1.000,"P-3-1",           980,       109.450,       131.522,            0.,NA,NA,"",   1.01381E+06,   1.01802E+06,   1.01802E+06
C:/temp/Job-3.odb,Step-1,Increment      1: Step Time =    1.000,"P-3-1",           981,       95.2531,       68.5008,            0.,NA,NA,"",   1.00961E+06,   1.01954E+06,   1.01954E+06
C:/temp/Job-3.odb,Step-1,Increment      1: Step Time =    1.000,"P-3-1",           982,       80.4892,       135.880,            0.,NA,NA,"",   1.00633E+06,   1.02026E+06,   1.02026E+06
C:/temp/Job-3.odb,Step-1,Increment      1: Step Time =    1.000,"P-3-1",           983,       138.623,       98.0024,            0.,NA,NA,"",   1.00764E+06,   1.00623E+06,   1.00623E+06
C:/temp/Job-3.odb,Step-1,Increment      1: Step Time =    1.000,"P-3-1",           984,       57.8395,       99.3791,            0.,NA,NA,"",   964.888E+03,   1.00570E+06,   1.00570E+06
C:/temp/Job-3.odb,Step-1,Increment      1: Step Time =    1.000,"P-3-1",           985,       58.2918,       110.779,            0.,NA,NA,"",   968.922E+03,   1.00800E+06,   1.00800E+06
C:/temp/Job-3.odb,Step-1,Increment      1: Step Time =    1.000,"P-3-1",           986,       111.224,       58.9990,            0.,NA,NA,"",   1.01007E+06,   1.01276E+06,   1.01276E+06
C:/temp/Job-3.odb,Step-1,Increment      1: Step Time =    1.000,"P-3-1",           987,       103.620,       57.3664,            0.,NA,NA,"",   1.00812E+06,   1.01283E+06,   1.01283E+06
C:/temp/Job-3.odb,Step-1,Increment      1: Step Time =    1.000,"P-3-1",           988,       76.6510,       76.2977,            0.,NA,NA,"",   1.00410E+06,   1.02239E+06,   1.02239E+06
C:/temp/Job-3.odb,Step-1,Increment      1: Step Time =    1.000,"P-3-1",           989,       125.785,       107.586,            0.,NA,NA,"",   1.00739E+06,   1.00734E+06,   1.00734E+06
C:/temp/Job-3.odb,Step-1,Increment      1: Step Time =    1.000,"P-3-1",           990,       53.9389,       129.297,            0.,NA,NA,"",   972.537E+03,   1.01169E+06,   1.01169E+06
C:/temp/Job-3.odb,Step-1,Increment      1: Step Time =    1.000,"P-3-1",           991,       98.5370,       67.4651,            0.,NA,NA,"",   1.00974E+06,    1.0185E+06,    1.0185E+06
C:/temp/Job-3.odb,Step-1,Increment      1: Step Time =    1.000,"P-3-1",           992,       68.5746,       138.482,            0.,NA,NA,"",   997.659E+03,   1.01883E+06,   1.01883E+06
C:/temp/Job-3.odb,Step-1,Increment      1: Step Time =    1.000,"P-3-1",           993,       128.005,       81.0062,            0.,NA,NA,"",   1.01590E+06,   1.01396E+06,   1.01396E+06
C:/temp/Job-3.odb,Step-1,Increment      1: Step Time =    1.000,"P-3-1",           994,       70.5693,       92.1422,            0.,NA,NA,"",   982.487E+03,   1.01001E+06,   1.01001E+06
C:/temp/Job-3.odb,Step-1,Increment      1: Step Time =    1.000,"P-3-1",           995,       64.8616,       138.488,            0.,NA,NA,"",   994.385E+03,   1.01826E+06,   1.01826E+06
C:/temp/Job-3.odb,Step-1,Increment      1: Step Time =    1.000,"P-3-1",           996,       131.378,       73.6234,            0.,NA,NA,"",   1.01528E+06,   1.01303E+06,   1.01303E+06
C:/temp/Job-3.odb,Step-1,Increment      1: Step Time =    1.000,"P-3-1",           997,       58.3506,       117.067,            0.,NA,NA,"",   972.549E+03,   1.01026E+06,   1.01026E+06
C:/temp/Job-3.odb,Step-1,Increment      1: Step Time =    1.000,"P-3-1",           998,       85.3614,       67.0907,            0.,NA,NA,"",   1.00865E+06,   1.02111E+06,   1.02111E+06
C:/temp/Job-3.odb,Step-1,Increment      1: Step Time =    1.000,"P-3-1",           999,       110.252,       125.774,            0.,NA,NA,"",   1.01695E+06,   1.02119E+06,   1.02119E+06
C:/temp/Job-3.odb,Step-1,Increment      1: Step Time =    1.000,"P-3-1",          1000,       52.2027,       122.268,            0.,NA,NA,"",   964.340E+03,   1.00787E+06,   1.00787E+06
C:/temp/Job-3.odb,Step-1,Increment      1: Step Time =    1.000,"P-3-1",          1001,       65.0352,       93.0900,            0.,NA,NA,"",   976.316E+03,   1.00910E+06,   1.00910E+06
C:/temp/Job-3.odb,Step-1,Increment      1: Step Time =    1.000,"P-3-1",          1002,       56.1186,       130.811,            0.,NA,NA,"",   978.041E+03,   1.01377E+06,   1.01377E+06
C:/temp/Job-3.odb,Step-1,Increment      1: Step Time =    1.000,"P-3-1",          1003,       140.010,       9.55723,            0.,NA,NA,"",   984.885E+03,   984.693E+03,   984.693E+03
C:/temp/Job-3.odb,Step-1,Increment      1: Step Time =    1.000,"P-3-1",          1004,       130.281,       9.70594,            0.,NA,NA,"",   980.286E+03,   980.123E+03,   980.123E+03
C:/temp/Job-3.odb,Step-1,Increment      1: Step Time =    1.000,"P-3-1",          1005,       120.373,       10.1601,            0.,NA,NA,"",   975.524E+03,   975.421E+03,   975.421E+03
C:/temp/Job-3.odb,Step-1,Increment      1: Step Time =    1.000,"P-3-1",          1006,       110.339,       10.1754,            0.,NA,NA,"",   970.400E+03,   970.336E+03,   970.336E+03
C:/temp/Job-3.odb,Step-1,Increment      1: Step Time =    1.000,"P-3-1",          1007,       100.058,       10.3191,            0.,NA,NA,"",   965.587E+03,   965.661E+03,   965.661E+03
C:/temp/Job-3.odb,Step-1,Increment      1: Step Time =    1.000,"P-3-1",          1008,       79.8787,       9.68276,            0.,NA,NA,"",   956.615E+03,   956.965E+03,   956.965E+03
C:/temp/Job-3.odb,Step-1,Increment      1: Step Time =    1.000,"P-3-1",          1009,       69.9805,       9.96638,            0.,NA,NA,"",   956.104E+03,   956.844E+03,   956.844E+03
C:/temp/Job-3.odb,Step-1,Increment      1: Step Time =    1.000,"P-3-1",          1010,       190.551,       140.175,            0.,NA,NA,"",   1.00617E+06,   1.00025E+06,   1.00025E+06
C:/temp/Job-3.odb,Step-1,Increment      1: Step Time =    1.000,"P-3-1",          1011,       190.339,       130.412,            0.,NA,NA,"",   1.00728E+06,   1.00035E+06,   1.00035E+06
C:/temp/Job-3.odb,Step-1,Increment      1: Step Time =    1.000,"P-3-1",          1012,       189.928,       120.593,            0.,NA,NA,"",   1.00810E+06,   1.00044E+06,   1.00044E+06
C:/temp/Job-3.odb,Step-1,Increment      1: Step Time =    1.000,"P-3-1",          1013,       189.949,       110.546,            0.,NA,NA,"",   1.00857E+06,   1.00042E+06,   1.00042E+06
C:/temp/Job-3.odb,Step-1,Increment      1: Step Time =    1.000,"P-3-1",          1014,       189.667,       90.1386,            0.,NA,NA,"",   1.00859E+06,   1.00048E+06,   1.00048E+06
C:/temp/Job-3.odb,Step-1,Increment      1: Step Time =    1.000,"P-3-1",          1015,       189.834,       80.1238,            0.,NA,NA,"",   1.00810E+06,   1.00042E+06,   1.00042E+06
C:/temp/Job-3.odb,Step-1,Increment      1: Step Time =    1.000,"P-3-1",          1016,       189.237,       70.1048,            0.,NA,NA,"",   1.00726E+06,   1.00044E+06,   1.00044E+06
C:/temp/Job-3.odb,Step-1,Increment      1: Step Time =    1.000,"P-3-1",          1017,       189.422,       59.7282,            0.,NA,NA,"",   1.00607E+06,   1.00030E+06,   1.00030E+06
C:/temp/Job-3.odb,Step-1,Increment      1: Step Time =    1.000,"P-3-1",          1018,       59.9150,       190.466,            0.,NA,NA,"",   956.363E+03,   957.512E+03,   957.512E+03
C:/temp/Job-3.odb,Step-1,Increment      1: Step Time =    1.000,"P-3-1",          1019,       69.7735,       189.778,            0.,NA,NA,"",   956.605E+03,   957.422E+03,   957.422E+03
C:/temp/Job-3.odb,Step-1,Increment      1: Step Time =    1.000,"P-3-1",          1020,       79.9752,       189.400,            0.,NA,NA,"",   958.776E+03,   959.190E+03,   959.190E+03
C:/temp/Job-3.odb,Step-1,Increment      1: Step Time =    1.000,"P-3-1",          1021,       90.4466,       189.668,            0.,NA,NA,"",   961.505E+03,   961.698E+03,   961.698E+03
C:/temp/Job-3.odb,Step-1,Increment      1: Step Time =    1.000,"P-3-1",          1022,       100.638,       190.173,            0.,NA,NA,"",   965.035E+03,   965.081E+03,   965.081E+03
C:/temp/Job-3.odb,Step-1,Increment      1: Step Time =    1.000,"P-3-1",          1023,       110.576,       190.191,            0.,NA,NA,"",   970.031E+03,   969.997E+03,   969.997E+03
C:/temp/Job-3.odb,Step-1,Increment      1: Step Time =    1.000,"P-3-1",          1024,       120.502,       190.151,            0.,NA,NA,"",   975.295E+03,   975.186E+03,   975.186E+03
C:/temp/Job-3.odb,Step-1,Increment      1: Step Time =    1.000,"P-3-1",          1025,       9.53514,       60.4241,            0.,NA,NA,"",   867.481E+03,   963.467E+03,   963.467E+03
C:/temp/Job-3.odb,Step-1,Increment      1: Step Time =    1.000,"P-3-1",          1026,       9.42302,       70.2238,            0.,NA,NA,"",   857.656E+03,   955.159E+03,   955.159E+03
C:/temp/Job-3.odb,Step-1,Increment      1: Step Time =    1.000,"P-3-1",          1027,       9.82301,       80.1340,            0.,NA,NA,"",   852.547E+03,   950.497E+03,   950.497E+03
C:/temp/Job-3.odb,Step-1,Increment      1: Step Time =    1.000,"P-3-1",          1028,       9.84115,       90.1616,            0.,NA,NA,"",   849.029E+03,   947.485E+03,   947.485E+03
C:/temp/Job-3.odb,Step-1,Increment      1: Step Time =    1.000,"P-3-1",          1029,       9.73685,       100.019,            0.,NA,NA,"",   847.471E+03,   946.247E+03,   946.247E+03
C:/temp/Job-3.odb,Step-1,Increment      1: Step Time =    1.000,"P-3-1",          1030,       9.99486,       109.851,            0.,NA,NA,"",   849.322E+03,   947.660E+03,   947.660E+03
C:/temp/Job-3.odb,Step-1,Increment      1: Step Time =    1.000,"P-3-1",          1031,       10.2325,       119.758,            0.,NA,NA,"",   853.572E+03,   951.112E+03,   951.112E+03
C:/temp/Job-3.odb,Step-1,Increment      1: Step Time =    1.000,"P-3-1",          1032,       10.5792,       129.939,            0.,NA,NA,"",   861.220E+03,   957.313E+03,   957.313E+03
C:/temp/Job-3.odb,Step-1,Increment      1: Step Time =    1.000,"P-3-1",          1033,       89.9558,       10.2735,            0.,NA,NA,"",   961.147E+03,   961.366E+03,   961.366E+03
C:/temp/Job-3.odb,Step-1,Increment      1: Step Time =    1.000,"P-3-1",          1034,       189.672,       100.315,            0.,NA,NA,"",   1.00873E+06,   1.00045E+06,   1.00045E+06
C:/temp/Job-3.odb,Step-1,Increment      1: Step Time =    1.000,"P-3-1",          1035,       130.420,       190.208,            0.,NA,NA,"",   980.341E+03,   980.182E+03,   980.182E+03
C:/temp/Job-3.odb,Step-1,Increment      1: Step Time =    1.000,"P-3-1",          1036,       140.293,       190.403,            0.,NA,NA,"",   985.011E+03,   984.816E+03,   984.816E+03
C:/temp/Job-3.odb,Step-1,Increment      1: Step Time =    1.000,"P-3-1",          1037,       77.0524,       137.813,            0.,NA,NA,"",   1.00436E+06,   1.01970E+06,   1.01970E+06
C:/temp/Job-3.odb,Step-1,Increment      1: Step Time =    1.000,"P-3-1",          1038,       60.7576,       114.221,            0.,NA,NA,"",   975.385E+03,   1.01077E+06,   1.01077E+06
C:/temp/Job-3.odb,Step-1,Increment      1: Step Time =    1.000,"P-3-1",          1039,       76.6064,       82.7196,            0.,NA,NA,"",   1.00192E+06,   1.02099E+06,   1.02099E+06
C:/temp/Job-3.odb,Step-1,Increment      1: Step Time =    1.000,"P-3-1",          1040,       9.55036,       164.227,            0.,NA,NA,"",   918.302E+03,   1.00653E+06,   1.00653E+06
C:/temp/Job-3.odb,Step-1,Increment      1: Step Time =    1.000,"P-3-1",          1041,       164.662,       10.1116,            0.,NA,NA,"",   994.574E+03,   994.281E+03,   994.281E+03
C:/temp/Job-3.odb,Step-1,Increment      1: Step Time =    1.000,"P-3-1",          1042,       35.3965,       8.98248,            0.,NA,NA,"",   986.845E+03,   990.730E+03,   990.730E+03
C:/temp/Job-3.odb,Step-1,Increment      1: Step Time =    1.000,"P-3-1",          1043,       10.1691,       35.6517,            0.,NA,NA,"",   921.252E+03,   1.00820E+06,   1.00820E+06
C:/temp/Job-3.odb,Step-1,Increment      1: Step Time =    1.000,"P-3-1",          1044,       164.570,       190.893,            0.,NA,NA,"",   994.424E+03,   994.183E+03,   994.183E+03
C:/temp/Job-3.odb,Step-1,Increment      1: Step Time =    1.000,"P-3-1",          1045,       190.232,       164.417,            0.,NA,NA,"",   1.00254E+06,   999.799E+03,   999.799E+03
C:/temp/Job-3.odb,Step-1,Increment      1: Step Time =    1.000,"P-3-1",          1046,       35.7680,       189.687,            0.,NA,NA,"",   990.729E+03,   995.852E+03,   995.852E+03
C:/temp/Job-3.odb,Step-1,Increment      1: Step Time =    1.000,"P-3-1",          1047,       190.469,       35.0317,            0.,NA,NA,"",   1.00248E+06,   999.800E+03,   999.800E+03
C:/temp/Job-3.odb,Step-1,Increment      1: Step Time =    1.000,"P-3-1",          1048,       25.5236,       9.57747,            0.,NA,NA,"",   1.02767E+06,   1.03647E+06,   1.03647E+06
C:/temp/Job-3.odb,Step-1,Increment      1: Step Time =    1.000,"P-3-1",          1049,       10.5531,       25.5777,            0.,NA,NA,"",   969.641E+03,   1.04748E+06,   1.04748E+06
C:/temp/Job-3.odb,Step-1,Increment      1: Step Time =    1.000,"P-3-1",          1050,       10.1659,       174.336,            0.,NA,NA,"",   967.816E+03,   1.04681E+06,   1.04681E+06
C:/temp/Job-3.odb,Step-1,Increment      1: Step Time =    1.000,"P-3-1",          1051,       174.724,       10.1801,            0.,NA,NA,"",   997.287E+03,   996.933E+03,   996.933E+03
C:/temp/Job-3.odb,Step-1,Increment      1: Step Time =    1.000,"P-3-1",          1052,       190.175,       25.1351,            0.,NA,NA,"",   1.00102E+06,   999.506E+03,   999.506E+03
C:/temp/Job-3.odb,Step-1,Increment      1: Step Time =    1.000,"P-3-1",          1053,       25.4565,       189.277,            0.,NA,NA,"",   1.03050E+06,   1.04131E+06,   1.04131E+06
C:/temp/Job-3.odb,Step-1,Increment      1: Step Time =    1.000,"P-3-1",          1054,       174.290,       190.195,            0.,NA,NA,"",   997.139E+03,   996.819E+03,   996.819E+03
C:/temp/Job-3.odb,Step-1,Increment      1: Step Time =    1.000,"P-3-1",          1055,       189.640,       174.404,            0.,NA,NA,"",   1.00104E+06,   999.471E+03,   999.471E+03
C:/temp/Job-3.odb,Step-1,Increment      1: Step Time =    1.000,"P-3-1",          1056,       10.1974,       184.618,            0.,NA,NA,"",   1.05584E+06,   1.11726E+06,   1.11726E+06
C:/temp/Job-3.odb,Step-1,Increment      1: Step Time =    1.000,"P-3-1",          1057,       184.764,       10.2420,            0.,NA,NA,"",   999.080E+03,   998.711E+03,   998.711E+03
C:/temp/Job-3.odb,Step-1,Increment      1: Step Time =    1.000,"P-3-1",          1058,       15.5858,       10.2686,            0.,NA,NA,"",   1.09665E+06,   1.11776E+06,   1.11776E+06
C:/temp/Job-3.odb,Step-1,Increment      1: Step Time =    1.000,"P-3-1",          1059,       10.6207,       15.4481,            0.,NA,NA,"",   1.05621E+06,   1.11603E+06,   1.11603E+06
C:/temp/Job-3.odb,Step-1,Increment      1: Step Time =    1.000,"P-3-1",          1060,       184.335,       189.575,            0.,NA,NA,"",   999.011E+03,   998.635E+03,   998.635E+03
C:/temp/Job-3.odb,Step-1,Increment      1: Step Time =    1.000,"P-3-1",          1061,       189.389,       184.459,            0.,NA,NA,"",   999.938E+03,   999.259E+03,   999.259E+03
C:/temp/Job-3.odb,Step-1,Increment      1: Step Time =    1.000,"P-3-1",          1062,       189.834,       15.2357,            0.,NA,NA,"",   999.953E+03,   999.306E+03,   999.306E+03
C:/temp/Job-3.odb,Step-1,Increment      1: Step Time =    1.000,"P-3-1",          1063,       15.2250,       189.590,            0.,NA,NA,"",   1.09897E+06,   1.12142E+06,   1.12142E+06
C:/temp/Job-3.odb,Step-1,Increment      1: Step Time =    1.000,"P-3-1",          1064,       72.3717,       74.5750,            0.,NA,NA,"",   998.740E+03,   1.02037E+06,   1.02037E+06
C:/temp/Job-3.odb,Step-1,Increment      1: Step Time =    1.000,"P-3-1",          1065,       96.7125,       135.620,            0.,NA,NA,"",   1.00907E+06,   1.01755E+06,   1.01755E+06
C:/temp/Job-3.odb,Step-1,Increment      1: Step Time =    1.000,"P-3-1",          1066,       120.095,       120.648,            0.,NA,NA,"",   1.02116E+06,   1.01991E+06,   1.01991E+06
C:/temp/Job-3.odb,Step-1,Increment      1: Step Time =    1.000,"P-3-1",          1067,       62.4995,       89.3735,            0.,NA,NA,"",   975.248E+03,   1.00994E+06,   1.00994E+06
C:/temp/Job-3.odb,Step-1,Increment      1: Step Time =    1.000,"P-3-1",          1068,       84.4417,       62.7063,            0.,NA,NA,"",   1.00727E+06,   1.01917E+06,   1.01917E+06
C:/temp/Job-3.odb,Step-1,Increment      1: Step Time =    1.000,"P-3-1",          1069,       63.4012,       141.374,            0.,NA,NA,"",   993.924E+03,   1.01776E+06,   1.01776E+06
C:/temp/Job-3.odb,Step-1,Increment      1: Step Time =    1.000,"P-3-1",          1070,       130.937,       78.9160,            0.,NA,NA,"",   1.01540E+06,   1.01319E+06,   1.01319E+06
C:/temp/Job-3.odb,Step-1,Increment      1: Step Time =    1.000,"P-3-1",          1071,       14.3270,       60.7735,            0.,NA,NA,"",   882.222E+03,   971.945E+03,   971.945E+03
C:/temp/Job-3.odb,Step-1,Increment      1: Step Time =    1.000,"P-3-1",          1072,       185.757,       140.342,            0.,NA,NA,"",   1.00591E+06,   1.00051E+06,   1.00051E+06
C:/temp/Job-3.odb,Step-1,Increment      1: Step Time =    1.000,"P-3-1",          1073,       59.3299,       15.1450,            0.,NA,NA,"",    972.59E+03,   975.460E+03,   975.460E+03
C:/temp/Job-3.odb,Step-1,Increment      1: Step Time =    1.000,"P-3-1",          1074,       140.582,       185.505,            0.,NA,NA,"",   987.532E+03,   987.146E+03,   987.146E+03
C:/temp/Job-3.odb,Step-1,Increment      1: Step Time =    1.000,"P-3-1",          1075,       140.080,       14.4077,            0.,NA,NA,"",   987.342E+03,   986.955E+03,   986.955E+03
C:/temp/Job-3.odb,Step-1,Increment      1: Step Time =    1.000,"P-3-1",          1076,       184.361,       59.0913,            0.,NA,NA,"",   1.00577E+06,   1.00056E+06,   1.00056E+06
C:/temp/Job-3.odb,Step-1,Increment      1: Step Time =    1.000,"P-3-1",          1077,       59.4034,       185.948,            0.,NA,NA,"",   969.678E+03,   972.081E+03,   972.081E+03
C:/temp/Job-3.odb,Step-1,Increment      1: Step Time =    1.000,"P-3-1",          1078,       14.8682,       140.741,            0.,NA,NA,"",   885.983E+03,   974.555E+03,   974.555E+03
C:/temp/Job-3.odb,Step-1,Increment      1: Step Time =    1.000,"P-3-1",          1079,       106.928,       134.204,            0.,NA,NA,"",   1.01178E+06,   1.01680E+06,   1.01680E+06
C:/temp/Job-3.odb,Step-1,Increment      1: Step Time =    1.000,"P-3-1",          1080,       123.425,       67.2592,            0.,NA,NA,"",   1.01551E+06,   1.01471E+06,   1.01471E+06
C:/temp/Job-3.odb,Step-1,Increment      1: Step Time =    1.000,"P-3-1",          1081,       133.994,       109.035,            0.,NA,NA,"",   1.00918E+06,   1.00789E+06,   1.00789E+06
C:/temp/Job-3.odb,Step-1,Increment      1: Step Time =    1.000,"P-3-1",          1082,       120.485,       63.9485,            0.,NA,NA,"",   1.01393E+06,   1.01396E+06,   1.01396E+06
C:/temp/Job-3.odb,Step-1,Increment      1: Step Time =    1.000,"P-3-1",          1083,       142.997,       97.4118,            0.,NA,NA,"",   1.00839E+06,   1.00631E+06,   1.00631E+06
C:/temp/Job-3.odb,Step-1,Increment      1: Step Time =    1.000,"P-3-1",          1084,       138.106,       94.3282,            0.,NA,NA,"",   1.00819E+06,   1.00670E+06,   1.00670E+06
C:/temp/Job-3.odb,Step-1,Increment      1: Step Time =    1.000,"P-3-1",          1085,       137.782,       90.6980,            0.,NA,NA,"",   1.00932E+06,   1.00759E+06,   1.00759E+06
C:/temp/Job-3.odb,Step-1,Increment      1: Step Time =    1.000,"P-3-1",          1086,       123.760,       113.623,            0.,NA,NA,"",   1.01542E+06,   1.01396E+06,   1.01396E+06
C:/temp/Job-3.odb,Step-1,Increment      1: Step Time =    1.000,"P-3-1",          1087,       125.254,       111.168,            0.,NA,NA,"",   1.01240E+06,   1.01141E+06,   1.01141E+06
C:/temp/Job-3.odb,Step-1,Increment      1: Step Time =    1.000,"P-3-1",          1088,       138.886,       101.720,            0.,NA,NA,"",   1.00774E+06,   1.00630E+06,   1.00630E+06
C:/temp/Job-3.odb,Step-1,Increment      1: Step Time =    1.000,"P-3-1",          1089,       85.2192,       136.645,            0.,NA,NA,"",   1.00762E+06,   1.01945E+06,   1.01945E+06
C:/temp/Job-3.odb,Step-1,Increment      1: Step Time =    1.000,"P-3-1",          1090,       133.556,       76.3186,            0.,NA,NA,"",   1.01448E+06,   1.01208E+06,   1.01208E+06
C:/temp/Job-3.odb,Step-1,Increment      1: Step Time =    1.000,"P-3-1",          1091,       49.3417,       129.987,            0.,NA,NA,"",   964.140E+03,   1.00855E+06,   1.00855E+06
C:/temp/Job-3.odb,Step-1,Increment      1: Step Time =    1.000,"P-3-1",          1092,       54.5430,       106.150,            0.,NA,NA,"",   960.409E+03,   1.00454E+06,   1.00454E+06
C:/temp/Job-3.odb,Step-1,Increment      1: Step Time =    1.000,"P-3-1",          1093,       72.8954,       139.626,            0.,NA,NA,"",   1.00159E+06,   1.01906E+06,   1.01906E+06
C:/temp/Job-3.odb,Step-1,Increment      1: Step Time =    1.000,"P-3-1",          1094,       53.9284,       100.192,            0.,NA,NA,"",   958.373E+03,   1.00363E+06,   1.00363E+06
C:/temp/Job-3.odb,Step-1,Increment      1: Step Time =    1.000,"P-3-1",          1095,       111.986,       52.9325,            0.,NA,NA,"",   1.00756E+06,   1.00940E+06,   1.00940E+06
C:/temp/Job-3.odb,Step-1,Increment      1: Step Time =    1.000,"P-3-1",          1096,       81.2622,       67.2455,            0.,NA,NA,"",   1.00715E+06,   1.02141E+06,   1.02141E+06
C:/temp/Job-3.odb,Step-1,Increment      1: Step Time =    1.000,"P-3-1",          1097,       52.8378,       132.420,            0.,NA,NA,"",   973.191E+03,   1.01212E+06,   1.01212E+06
C:/temp/Job-3.odb,Step-1,Increment      1: Step Time =    1.000,"P-3-1",          1098,       58.9075,       133.234,            0.,NA,NA,"",   983.542E+03,   1.01550E+06,   1.01550E+06
C:/temp/Job-3.odb,Step-1,Increment      1: Step Time =    1.000,"P-3-1",          1099,       70.9495,       87.4634,            0.,NA,NA,"",   988.502E+03,   1.01428E+06,   1.01428E+06
C:/temp/Job-3.odb,Step-1,Increment      1: Step Time =    1.000,"P-3-1",          1100,       78.5906,       140.588,            0.,NA,NA,"",   1.00476E+06,   1.01854E+06,   1.01854E+06
C:/temp/Job-3.odb,Step-1,Increment      1: Step Time =    1.000,"P-3-1",          1101,       91.8396,       133.261,            0.,NA,NA,"",   1.00926E+06,   1.01969E+06,   1.01969E+06
C:/temp/Job-3.odb,Step-1,Increment      1: Step Time =    1.000,"P-3-1",          1102,       96.8496,       59.8270,            0.,NA,NA,"",   1.00817E+06,   1.01539E+06,   1.01539E+06
C:/temp/Job-3.odb,Step-1,Increment      1: Step Time =    1.000,"P-3-1",          1103,       48.9419,       124.808,            0.,NA,NA,"",   959.687E+03,   1.00636E+06,   1.00636E+06
C:/temp/Job-3.odb,Step-1,Increment      1: Step Time =    1.000,"P-3-1",          1104,       36.6575,       184.636,            0.,NA,NA,"",   1.00159E+06,   1.01136E+06,   1.01136E+06
C:/temp/Job-3.odb,Step-1,Increment      1: Step Time =    1.000,"P-3-1",          1105,       14.0094,       163.430,            0.,NA,NA,"",   933.726E+03,   1.01314E+06,   1.01314E+06
C:/temp/Job-3.odb,Step-1,Increment      1: Step Time =    1.000,"P-3-1",          1106,       164.275,       15.1703,            0.,NA,NA,"",   995.199E+03,   994.629E+03,   994.629E+03
C:/temp/Job-3.odb,Step-1,Increment      1: Step Time =    1.000,"P-3-1",          1107,       185.828,       35.0371,            0.,NA,NA,"",   1.00226E+06,   999.612E+03,   999.612E+03
C:/temp/Job-3.odb,Step-1,Increment      1: Step Time =    1.000,"P-3-1",          1108,       164.340,       186.556,            0.,NA,NA,"",   994.903E+03,   994.438E+03,   994.438E+03
C:/temp/Job-3.odb,Step-1,Increment      1: Step Time =    1.000,"P-3-1",          1109,       185.452,       163.974,            0.,NA,NA,"",   1.00238E+06,   999.637E+03,   999.637E+03
C:/temp/Job-3.odb,Step-1,Increment      1: Step Time =    1.000,"P-3-1",          1110,       35.6152,       13.2381,            0.,NA,NA,"",   1.00031E+06,   1.00809E+06,   1.00809E+06
C:/temp/Job-3.odb,Step-1,Increment      1: Step Time =    1.000,"P-3-1",          1111,       15.1839,       36.0836,            0.,NA,NA,"",   939.068E+03,   1.01561E+06,   1.01561E+06
C:/temp/Job-3.odb,Step-1,Increment      1: Step Time =    1.000,"P-3-1",          1112,       67.2879,       142.618,            0.,NA,NA,"",   997.891E+03,   1.01798E+06,   1.01798E+06
C:/temp/Job-3.odb,Step-1,Increment      1: Step Time =    1.000,"P-3-1",          1113,       69.6625,       184.636,            0.,NA,NA,"",   969.280E+03,   971.045E+03,   971.045E+03
C:/temp/Job-3.odb,Step-1,Increment      1: Step Time =    1.000,"P-3-1",          1114,       15.8806,       129.630,            0.,NA,NA,"",   876.583E+03,   966.363E+03,   966.363E+03
C:/temp/Job-3.odb,Step-1,Increment      1: Step Time =    1.000,"P-3-1",          1115,       130.478,       14.5028,            0.,NA,NA,"",   983.661E+03,   983.356E+03,   983.356E+03
C:/temp/Job-3.odb,Step-1,Increment      1: Step Time =    1.000,"P-3-1",          1116,       183.843,       70.5446,            0.,NA,NA,"",   1.00705E+06,   1.00089E+06,   1.00089E+06
C:/temp/Job-3.odb,Step-1,Increment      1: Step Time =    1.000,"P-3-1",          1117,       130.704,       185.206,            0.,NA,NA,"",   983.912E+03,   983.601E+03,   983.601E+03
C:/temp/Job-3.odb,Step-1,Increment      1: Step Time =    1.000,"P-3-1",          1118,       14.0681,       70.2787,            0.,NA,NA,"",   871.435E+03,   963.449E+03,   963.449E+03
C:/temp/Job-3.odb,Step-1,Increment      1: Step Time =    1.000,"P-3-1",          1119,       185.426,       130.742,            0.,NA,NA,"",   1.00696E+06,   1.00071E+06,   1.00071E+06
C:/temp/Job-3.odb,Step-1,Increment      1: Step Time =    1.000,"P-3-1",          1120,       70.3724,       14.6731,            0.,NA,NA,"",   967.971E+03,   969.355E+03,   969.355E+03
C:/temp/Job-3.odb,Step-1,Increment      1: Step Time =    1.000,"P-3-1",          1121,       73.8903,       79.8223,            0.,NA,NA,"",   999.160E+03,   1.02036E+06,   1.02036E+06
C:/temp/Job-3.odb,Step-1,Increment      1: Step Time =    1.000,"P-3-1",          1122,       25.3951,       184.119,            0.,NA,NA,"",   1.03100E+06,   1.05204E+06,   1.05204E+06
C:/temp/Job-3.odb,Step-1,Increment      1: Step Time =    1.000,"P-3-1",          1123,       15.0342,       174.161,            0.,NA,NA,"",   985.844E+03,   1.05081E+06,   1.05081E+06
C:/temp/Job-3.odb,Step-1,Increment      1: Step Time =    1.000,"P-3-1",          1124,       174.758,       15.0054,            0.,NA,NA,"",   997.585E+03,   996.942E+03,   996.942E+03
C:/temp/Job-3.odb,Step-1,Increment      1: Step Time =    1.000,"P-3-1",          1125,       185.403,       25.3484,            0.,NA,NA,"",   1.00068E+06,   999.076E+03,   999.076E+03
C:/temp/Job-3.odb,Step-1,Increment      1: Step Time =    1.000,"P-3-1",          1126,       173.546,       185.331,            0.,NA,NA,"",   997.329E+03,   996.711E+03,   996.711E+03
C:/temp/Job-3.odb,Step-1,Increment      1: Step Time =    1.000,"P-3-1",          1127,       184.425,       173.887,            0.,NA,NA,"",   1.00067E+06,   999.004E+03,   999.004E+03
C:/temp/Job-3.odb,Step-1,Increment      1: Step Time =    1.000,"P-3-1",          1128,       26.1171,       14.2328,            0.,NA,NA,"",   1.03104E+06,   1.04745E+06,   1.04745E+06
C:/temp/Job-3.odb,Step-1,Increment      1: Step Time =    1.000,"P-3-1",          1129,       15.9076,       26.0216,            0.,NA,NA,"",   987.104E+03,   1.04990E+06,   1.04990E+06
C:/temp/Job-3.odb,Step-1,Increment      1: Step Time =    1.000,"P-3-1",          1130,       112.173,       129.569,            0.,NA,NA,"",   1.01605E+06,   1.01905E+06,   1.01905E+06
C:/temp/Job-3.odb,Step-1,Increment      1: Step Time =    1.000,"P-3-1",          1131,       79.7157,       184.162,            0.,NA,NA,"",   969.656E+03,   970.636E+03,   970.636E+03
C:/temp/Job-3.odb,Step-1,Increment      1: Step Time =    1.000,"P-3-1",          1132,       15.2482,       119.553,            0.,NA,NA,"",   867.875E+03,   959.824E+03,   959.824E+03
C:/temp/Job-3.odb,Step-1,Increment      1: Step Time =    1.000,"P-3-1",          1133,       120.855,       15.1952,            0.,NA,NA,"",   980.280E+03,   980.083E+03,   980.083E+03
C:/temp/Job-3.odb,Step-1,Increment      1: Step Time =    1.000,"P-3-1",          1134,       184.889,       80.3187,            0.,NA,NA,"",   1.00773E+06,   1.00083E+06,   1.00083E+06
C:/temp/Job-3.odb,Step-1,Increment      1: Step Time =    1.000,"P-3-1",          1135,       120.782,       185.131,            0.,NA,NA,"",   979.979E+03,   979.778E+03,   979.778E+03
C:/temp/Job-3.odb,Step-1,Increment      1: Step Time =    1.000,"P-3-1",          1136,       14.7213,       79.9258,            0.,NA,NA,"",   866.643E+03,   959.163E+03,   959.163E+03
C:/temp/Job-3.odb,Step-1,Increment      1: Step Time =    1.000,"P-3-1",          1137,       184.820,       121.122,            0.,NA,NA,"",   1.00768E+06,   1.00089E+06,   1.00089E+06
C:/temp/Job-3.odb,Step-1,Increment      1: Step Time =    1.000,"P-3-1",          1138,       79.7247,       14.3174,            0.,NA,NA,"",   966.686E+03,   967.503E+03,   967.503E+03
C:/temp/Job-3.odb,Step-1,Increment      1: Step Time =    1.000,"P-3-1",          1139,       100.985,       134.796,            0.,NA,NA,"",   1.00975E+06,   1.01704E+06,   1.01704E+06
C:/temp/Job-3.odb,Step-1,Increment      1: Step Time =    1.000,"P-3-1",          1140,       15.2241,       184.433,            0.,NA,NA,"",   1.06476E+06,   1.10525E+06,   1.10525E+06
C:/temp/Job-3.odb,Step-1,Increment      1: Step Time =    1.000,"P-3-1",          1141,       184.700,       15.3795,            0.,NA,NA,"",    999.36E+03,   998.645E+03,   998.645E+03
C:/temp/Job-3.odb,Step-1,Increment      1: Step Time =    1.000,"P-3-1",          1142,       183.968,       184.267,            0.,NA,NA,"",   999.291E+03,   998.549E+03,   998.549E+03
C:/temp/Job-3.odb,Step-1,Increment      1: Step Time =    1.000,"P-3-1",          1143,       15.9947,       15.5355,            0.,NA,NA,"",   1.06368E+06,   1.10152E+06,   1.10152E+06
C:/temp/Job-3.odb,Step-1,Increment      1: Step Time =    1.000,"P-3-1",          1144,       56.7769,       95.8966,            0.,NA,NA,"",   963.456E+03,   1.00532E+06,   1.00532E+06
C:/temp/Job-3.odb,Step-1,Increment      1: Step Time =    1.000,"P-3-1",          1145,       55.4657,       114.483,            0.,NA,NA,"",   965.761E+03,   1.00746E+06,   1.00746E+06
C:/temp/Job-3.odb,Step-1,Increment      1: Step Time =    1.000,"P-3-1",          1146,       91.1273,       184.832,            0.,NA,NA,"",   970.161E+03,   970.572E+03,   970.572E+03
C:/temp/Job-3.odb,Step-1,Increment      1: Step Time =    1.000,"P-3-1",          1147,       15.0198,       109.654,            0.,NA,NA,"",   863.360E+03,   956.312E+03,   956.312E+03
C:/temp/Job-3.odb,Step-1,Increment      1: Step Time =    1.000,"P-3-1",          1148,       110.864,       185.266,            0.,NA,NA,"",    975.87E+03,   975.826E+03,   975.826E+03
C:/temp/Job-3.odb,Step-1,Increment      1: Step Time =    1.000,"P-3-1",          1149,       185.287,       110.523,            0.,NA,NA,"",   1.00812E+06,   1.00081E+06,   1.00081E+06
C:/temp/Job-3.odb,Step-1,Increment      1: Step Time =    1.000,"P-3-1",          1150,       14.5736,       90.5155,            0.,NA,NA,"",   861.895E+03,   955.447E+03,   955.447E+03
C:/temp/Job-3.odb,Step-1,Increment      1: Step Time =    1.000,"P-3-1",          1151,       110.139,       14.8922,            0.,NA,NA,"",   975.680E+03,   975.625E+03,   975.625E+03
C:/temp/Job-3.odb,Step-1,Increment      1: Step Time =    1.000,"P-3-1",          1152,       89.4886,       15.3724,            0.,NA,NA,"",   969.922E+03,   970.429E+03,   970.429E+03
C:/temp/Job-3.odb,Step-1,Increment      1: Step Time =    1.000,"P-3-1",          1153,       184.704,       89.7979,            0.,NA,NA,"",   1.00812E+06,   1.00091E+06,   1.00091E+06
C:/temp/Job-3.odb,Step-1,Increment      1: Step Time =    1.000,"P-3-1",          1154,       184.691,       100.831,            0.,NA,NA,"",   1.00824E+06,   1.00089E+06,   1.00089E+06
C:/temp/Job-3.odb,Step-1,Increment      1: Step Time =    1.000,"P-3-1",          1155,       100.422,       15.2359,            0.,NA,NA,"",   972.787E+03,    972.94E+03,    972.94E+03
C:/temp/Job-3.odb,Step-1,Increment      1: Step Time =    1.000,"P-3-1",          1156,       14.5340,       99.9734,            0.,NA,NA,"",   860.628E+03,   954.426E+03,   954.426E+03
C:/temp/Job-3.odb,Step-1,Increment      1: Step Time =    1.000,"P-3-1",          1157,       101.025,       185.412,            0.,NA,NA,"",   972.021E+03,   972.163E+03,   972.163E+03
C:/temp/Job-3.odb,Step-1,Increment      1: Step Time =    1.000,"P-3-1",          1158,       68.0367,       89.8278,            0.,NA,NA,"",   982.313E+03,   1.01154E+06,   1.01154E+06
C:/temp/Job-3.odb,Step-1,Increment      1: Step Time =    1.000,"P-3-1",          1159,       91.9614,       65.5450,            0.,NA,NA,"",   1.00893E+06,   1.01905E+06,   1.01905E+06
C:/temp/Job-3.odb,Step-1,Increment      1: Step Time =    1.000,"P-3-1",          1160,       129.583,       70.6907,            0.,NA,NA,"",   1.01533E+06,   1.01332E+06,   1.01332E+06
C:/temp/Job-3.odb,Step-1,Increment      1: Step Time =    1.000,"P-3-1",          1161,       142.213,       106.224,            0.,NA,NA,"",   1.00900E+06,   1.00688E+06,   1.00688E+06
C:/temp/Job-3.odb,Step-1,Increment      1: Step Time =    1.000,"P-3-1",          1162,       53.5859,       109.387,            0.,NA,NA,"",   959.698E+03,   1.00460E+06,   1.00460E+06
C:/temp/Job-3.odb,Step-1,Increment      1: Step Time =    1.000,"P-3-1",          1163,       70.7204,       143.682,            0.,NA,NA,"",   1.00042E+06,   1.01774E+06,   1.01774E+06
C:/temp/Job-3.odb,Step-1,Increment      1: Step Time =    1.000,"P-3-1",          1164,       59.7003,       139.361,            0.,NA,NA,"",   988.586E+03,   1.01690E+06,   1.01690E+06
C:/temp/Job-3.odb,Step-1,Increment      1: Step Time =    1.000,"P-3-1",          1165,       102.747,       53.3862,            0.,NA,NA,"",   1.00655E+06,   1.01080E+06,   1.01080E+06
C:/temp/Job-3.odb,Step-1,Increment      1: Step Time =    1.000,"P-3-1",          1166,       75.4420,       142.616,            0.,NA,NA,"",   1.00314E+06,   1.01791E+06,   1.01791E+06
C:/temp/Job-3.odb,Step-1,Increment      1: Step Time =    1.000,"P-3-1",          1167,       123.367,       120.294,            0.,NA,NA,"",   1.01897E+06,   1.01720E+06,   1.01720E+06
C:/temp/Job-3.odb,Step-1,Increment      1: Step Time =    1.000,"P-3-1",          1168,       140.775,       90.8204,            0.,NA,NA,"",   1.00938E+06,   1.00729E+06,   1.00729E+06
C:/temp/Job-3.odb,Step-1,Increment      1: Step Time =    1.000,"P-3-1",          1169,       68.5059,       84.8016,            0.,NA,NA,"",   987.459E+03,   1.01488E+06,   1.01488E+06
C:/temp/Job-3.odb,Step-1,Increment      1: Step Time =    1.000,"P-3-1",          1170,       136.306,       78.3001,            0.,NA,NA,"",   1.01340E+06,   1.01086E+06,   1.01086E+06
C:/temp/Job-3.odb,Step-1,Increment      1: Step Time =    1.000,"P-3-1",          1171,       129.453,       113.155,            0.,NA,NA,"",   1.01247E+06,   1.01106E+06,   1.01106E+06
C:/temp/Job-3.odb,Step-1,Increment      1: Step Time =    1.000,"P-3-1",          1172,       111.590,       134.302,            0.,NA,NA,"",   1.01309E+06,   1.01613E+06,   1.01613E+06
C:/temp/Job-3.odb,Step-1,Increment      1: Step Time =    1.000,"P-3-1",          1173,       86.9872,       131.781,            0.,NA,NA,"",   1.00930E+06,   1.02146E+06,   1.02146E+06
C:/temp/Job-3.odb,Step-1,Increment      1: Step Time =    1.000,"P-3-1",          1174,       116.617,       64.9136,            0.,NA,NA,"",   1.01407E+06,   1.01520E+06,   1.01520E+06
C:/temp/Job-3.odb,Step-1,Increment      1: Step Time =    1.000,"P-3-1",          1175,       81.1952,       63.1492,            0.,NA,NA,"",   1.00626E+06,   1.01970E+06,   1.01970E+06
C:/temp/Job-3.odb,Step-1,Increment      1: Step Time =    1.000,"P-3-1",          1176,       83.3852,       141.248,            0.,NA,NA,"",   1.00616E+06,   1.01765E+06,   1.01765E+06
C:/temp/Job-3.odb,Step-1,Increment      1: Step Time =    1.000,"P-3-1",          1177,       138.220,       87.1031,            0.,NA,NA,"",   1.01063E+06,   1.00854E+06,   1.00854E+06
C:/temp/Job-3.odb,Step-1,Increment      1: Step Time =    1.000,"P-3-1",          1178,       109.597,       136.674,            0.,NA,NA,"",   1.01153E+06,   1.01513E+06,   1.01513E+06
C:/temp/Job-3.odb,Step-1,Increment      1: Step Time =    1.000,"P-3-1",          1179,       86.5469,       139.568,            0.,NA,NA,"",   1.00727E+06,   1.01793E+06,   1.01793E+06
C:/temp/Job-3.odb,Step-1,Increment      1: Step Time =    1.000,"P-3-1",          1180,       114.665,       57.0778,            0.,NA,NA,"",   1.00985E+06,   1.01131E+06,   1.01131E+06
C:/temp/Job-3.odb,Step-1,Increment      1: Step Time =    1.000,"P-3-1",          1181,       73.0847,       70.5771,            0.,NA,NA,"",   1.00064E+06,   1.02079E+06,   1.02079E+06
C:/temp/Job-3.odb,Step-1,Increment      1: Step Time =    1.000,"P-3-1",          1182,       68.8943,       79.9669,            0.,NA,NA,"",   991.582E+03,   1.01751E+06,   1.01751E+06
C:/temp/Job-3.odb,Step-1,Increment      1: Step Time =    1.000,"P-3-1",          1183,       97.1539,       139.493,            0.,NA,NA,"",   1.00817E+06,   1.01555E+06,   1.01555E+06
C:/temp/Job-3.odb,Step-1,Increment      1: Step Time =    1.000,"P-3-1",          1184,       46.3814,       127.700,            0.,NA,NA,"",   955.956E+03,   1.00516E+06,   1.00516E+06
C:/temp/Job-3.odb,Step-1,Increment      1: Step Time =    1.000,"P-3-1",          1185,       49.5490,       119.436,            0.,NA,NA,"",   957.438E+03,   1.00479E+06,   1.00479E+06
C:/temp/Job-3.odb,Step-1,Increment      1: Step Time =    1.000,"P-3-1",          1186,       49.7752,       134.898,            0.,NA,NA,"",   969.557E+03,   1.01118E+06,   1.01118E+06
C:/temp/Job-3.odb,Step-1,Increment      1: Step Time =    1.000,"P-3-1",          1187,       64.4383,       184.280,            0.,NA,NA,"",   971.548E+03,   973.989E+03,   973.989E+03
C:/temp/Job-3.odb,Step-1,Increment      1: Step Time =    1.000,"P-3-1",          1188,       16.8334,       135.310,            0.,NA,NA,"",   885.526E+03,   972.691E+03,   972.691E+03
C:/temp/Job-3.odb,Step-1,Increment      1: Step Time =    1.000,"P-3-1",          1189,       134.412,       71.5478,            0.,NA,NA,"",   1.01410E+06,   1.01161E+06,   1.01161E+06
C:/temp/Job-3.odb,Step-1,Increment      1: Step Time =    1.000,"P-3-1",          1190,       127.785,       67.4222,            0.,NA,NA,"",   1.01480E+06,   1.01317E+06,   1.01317E+06
C:/temp/Job-3.odb,Step-1,Increment      1: Step Time =    1.000,"P-3-1",          1191,       135.247,       14.6005,            0.,NA,NA,"",   985.592E+03,   985.235E+03,   985.235E+03
C:/temp/Job-3.odb,Step-1,Increment      1: Step Time =    1.000,"P-3-1",          1192,       182.803,       64.8214,            0.,NA,NA,"",   1.00644E+06,   1.00087E+06,   1.00087E+06
C:/temp/Job-3.odb,Step-1,Increment      1: Step Time =    1.000,"P-3-1",          1193,       136.073,       180.302,            0.,NA,NA,"",   988.990E+03,   988.420E+03,   988.420E+03
C:/temp/Job-3.odb,Step-1,Increment      1: Step Time =    1.000,"P-3-1",          1194,       185.622,       135.548,            0.,NA,NA,"",   1.00648E+06,   1.00063E+06,   1.00063E+06
C:/temp/Job-3.odb,Step-1,Increment      1: Step Time =    1.000,"P-3-1",          1195,       14.1073,       65.5355,            0.,NA,NA,"",   876.109E+03,   967.215E+03,   967.215E+03
C:/temp/Job-3.odb,Step-1,Increment      1: Step Time =    1.000,"P-3-1",          1196,       64.9018,       16.3163,            0.,NA,NA,"",   972.682E+03,   975.172E+03,   975.172E+03
C:/temp/Job-3.odb,Step-1,Increment      1: Step Time =    1.000,"P-3-1",          1197,       113.960,       132.851,            0.,NA,NA,"",   1.01444E+06,   1.01667E+06,   1.01667E+06
C:/temp/Job-3.odb,Step-1,Increment      1: Step Time =    1.000,"P-3-1",          1198,       134.322,       105.225,            0.,NA,NA,"",   1.00737E+06,   1.00650E+06,   1.00650E+06
C:/temp/Job-3.odb,Step-1,Increment      1: Step Time =    1.000,"P-3-1",          1199,       31.2236,       183.224,            0.,NA,NA,"",   1.01583E+06,   1.03138E+06,   1.03138E+06
C:/temp/Job-3.odb,Step-1,Increment      1: Step Time =    1.000,"P-3-1",          1200,       15.7078,       168.449,            0.,NA,NA,"",   959.423E+03,   1.03021E+06,   1.03021E+06
C:/temp/Job-3.odb,Step-1,Increment      1: Step Time =    1.000,"P-3-1",          1201,       169.821,       16.0128,            0.,NA,NA,"",   996.717E+03,   996.037E+03,   996.037E+03
C:/temp/Job-3.odb,Step-1,Increment      1: Step Time =    1.000,"P-3-1",          1202,       185.796,       30.2658,            0.,NA,NA,"",   1.00150E+06,   999.380E+03,   999.380E+03
C:/temp/Job-3.odb,Step-1,Increment      1: Step Time =    1.000,"P-3-1",          1203,       74.6275,       184.540,            0.,NA,NA,"",   968.804E+03,   970.093E+03,   970.093E+03
C:/temp/Job-3.odb,Step-1,Increment      1: Step Time =    1.000,"P-3-1",          1204,       15.3878,       124.561,            0.,NA,NA,"",   871.193E+03,   962.415E+03,   962.415E+03
C:/temp/Job-3.odb,Step-1,Increment      1: Step Time =    1.000,"P-3-1",          1205,       168.823,       186.234,            0.,NA,NA,"",   996.146E+03,   995.622E+03,   995.622E+03
C:/temp/Job-3.odb,Step-1,Increment      1: Step Time =    1.000,"P-3-1",          1206,       185.059,       168.849,            0.,NA,NA,"",   1.00156E+06,   999.352E+03,   999.352E+03
C:/temp/Job-3.odb,Step-1,Increment      1: Step Time =    1.000,"P-3-1",          1207,       125.683,       14.6302,            0.,NA,NA,"",   981.782E+03,   981.535E+03,   981.535E+03
C:/temp/Job-3.odb,Step-1,Increment      1: Step Time =    1.000,"P-3-1",          1208,       15.4766,       31.1044,            0.,NA,NA,"",   959.688E+03,   1.03069E+06,   1.03069E+06
C:/temp/Job-3.odb,Step-1,Increment      1: Step Time =    1.000,"P-3-1",          1209,       30.9122,       13.3969,            0.,NA,NA,"",   1.01491E+06,   1.02531E+06,   1.02531E+06
C:/temp/Job-3.odb,Step-1,Increment      1: Step Time =    1.000,"P-3-1",          1210,       184.448,       75.5663,            0.,NA,NA,"",   1.00744E+06,   1.00086E+06,   1.00086E+06
C:/temp/Job-3.odb,Step-1,Increment      1: Step Time =    1.000,"P-3-1",          1211,       125.751,       185.138,            0.,NA,NA,"",   981.968E+03,   981.709E+03,   981.709E+03
C:/temp/Job-3.odb,Step-1,Increment      1: Step Time =    1.000,"P-3-1",          1212,       14.2574,       75.0615,            0.,NA,NA,"",   868.276E+03,   960.777E+03,   960.777E+03
C:/temp/Job-3.odb,Step-1,Increment      1: Step Time =    1.000,"P-3-1",          1213,       185.170,       125.985,            0.,NA,NA,"",   1.00735E+06,   1.00079E+06,   1.00079E+06
C:/temp/Job-3.odb,Step-1,Increment      1: Step Time =    1.000,"P-3-1",          1214,       75.1040,       14.4917,            0.,NA,NA,"",   966.512E+03,   967.572E+03,   967.572E+03
C:/temp/Job-3.odb,Step-1,Increment      1: Step Time =    1.000,"P-3-1",          1215,       20.2326,       184.260,            0.,NA,NA,"",   1.04951E+06,   1.07782E+06,   1.07782E+06
C:/temp/Job-3.odb,Step-1,Increment      1: Step Time =    1.000,"P-3-1",          1216,       15.1295,       179.278,            0.,NA,NA,"",   1.01837E+06,   1.07381E+06,   1.07381E+06
C:/temp/Job-3.odb,Step-1,Increment      1: Step Time =    1.000,"P-3-1",          1217,       179.622,       15.4086,            0.,NA,NA,"",   998.540E+03,   997.843E+03,   997.843E+03
C:/temp/Job-3.odb,Step-1,Increment      1: Step Time =    1.000,"P-3-1",          1218,       85.5085,       183.301,            0.,NA,NA,"",   971.820E+03,   972.630E+03,   972.630E+03
C:/temp/Job-3.odb,Step-1,Increment      1: Step Time =    1.000,"P-3-1",          1219,       184.800,       20.4070,            0.,NA,NA,"",   999.923E+03,   998.795E+03,   998.795E+03
C:/temp/Job-3.odb,Step-1,Increment      1: Step Time =    1.000,"P-3-1",          1220,       15.3009,       114.548,            0.,NA,NA,"",   865.549E+03,   957.959E+03,   957.959E+03
C:/temp/Job-3.odb,Step-1,Increment      1: Step Time =    1.000,"P-3-1",          1221,       183.830,       178.994,            0.,NA,NA,"",   999.882E+03,   998.703E+03,   998.703E+03
C:/temp/Job-3.odb,Step-1,Increment      1: Step Time =    1.000,"P-3-1",          1222,       178.567,       184.414,            0.,NA,NA,"",   998.396E+03,   997.689E+03,   997.689E+03
C:/temp/Job-3.odb,Step-1,Increment      1: Step Time =    1.000,"P-3-1",          1223,       16.2815,       20.8480,            0.,NA,NA,"",   1.02009E+06,   1.07241E+06,   1.07241E+06
C:/temp/Job-3.odb,Step-1,Increment      1: Step Time =    1.000,"P-3-1",          1224,       21.2526,       15.2419,            0.,NA,NA,"",   1.04814E+06,   1.07305E+06,   1.07305E+06
C:/temp/Job-3.odb,Step-1,Increment      1: Step Time =    1.000,"P-3-1",          1225,       115.552,       16.2113,            0.,NA,NA,"",   979.184E+03,   979.060E+03,   979.060E+03
C:/temp/Job-3.odb,Step-1,Increment      1: Step Time =    1.000,"P-3-1",          1226,       185.134,       85.0028,            0.,NA,NA,"",   1.00798E+06,   1.00085E+06,   1.00085E+06
C:/temp/Job-3.odb,Step-1,Increment      1: Step Time =    1.000,"P-3-1",          1227,       115.824,       185.176,            0.,NA,NA,"",   977.935E+03,   977.807E+03,   977.807E+03
C:/temp/Job-3.odb,Step-1,Increment      1: Step Time =    1.000,"P-3-1",          1228,       15.5854,       85.2548,            0.,NA,NA,"",   866.893E+03,   958.793E+03,   958.793E+03
C:/temp/Job-3.odb,Step-1,Increment      1: Step Time =    1.000,"P-3-1",          1229,       184.054,       115.891,            0.,NA,NA,"",   1.00790E+06,   1.00097E+06,   1.00097E+06
C:/temp/Job-3.odb,Step-1,Increment      1: Step Time =    1.000,"P-3-1",          1230,       84.5701,       14.5676,            0.,NA,NA,"",   967.649E+03,   968.276E+03,   968.276E+03
C:/temp/Job-3.odb,Step-1,Increment      1: Step Time =    1.000,"P-3-1",          1231,       14.7157,       104.773,            0.,NA,NA,"",   861.556E+03,   955.040E+03,   955.040E+03
C:/temp/Job-3.odb,Step-1,Increment      1: Step Time =    1.000,"P-3-1",          1232,       105.941,       185.358,            0.,NA,NA,"",   973.855E+03,   973.902E+03,   973.902E+03
C:/temp/Job-3.odb,Step-1,Increment      1: Step Time =    1.000,"P-3-1",          1233,       94.9304,       16.8236,            0.,NA,NA,"",   973.544E+03,   973.986E+03,   973.986E+03
C:/temp/Job-3.odb,Step-1,Increment      1: Step Time =    1.000,"P-3-1",          1234,       183.241,       95.2788,            0.,NA,NA,"",   1.00814E+06,   1.00106E+06,   1.00106E+06
C:/temp/Job-3.odb,Step-1,Increment      1: Step Time =    1.000,"P-3-1",          1235,       96.1475,       185.319,            0.,NA,NA,"",   970.525E+03,   970.803E+03,   970.803E+03
C:/temp/Job-3.odb,Step-1,Increment      1: Step Time =    1.000,"P-3-1",          1236,       185.303,       105.729,            0.,NA,NA,"",   1.00822E+06,   1.00079E+06,   1.00079E+06
C:/temp/Job-3.odb,Step-1,Increment      1: Step Time =    1.000,"P-3-1",          1237,       14.4489,       95.2540,            0.,NA,NA,"",   860.540E+03,   954.453E+03,   954.453E+03
C:/temp/Job-3.odb,Step-1,Increment      1: Step Time =    1.000,"P-3-1",          1238,       105.307,       14.6445,            0.,NA,NA,"",   973.578E+03,   973.608E+03,   973.608E+03
C:/temp/Job-3.odb,Step-1,Increment      1: Step Time =    1.000,"P-3-1",          1239,       117.293,       124.265,            0.,NA,NA,"",   1.02058E+06,   1.02075E+06,   1.02075E+06
C:/temp/Job-3.odb,Step-1,Increment      1: Step Time =    1.000,"P-3-1",          1240,       144.399,       102.015,            0.,NA,NA,"",   1.00850E+06,   1.00622E+06,   1.00622E+06
C:/temp/Job-3.odb,Step-1,Increment      1: Step Time =    1.000,"P-3-1",          1241,       57.0750,       87.3328,            0.,NA,NA,"",   967.918E+03,   1.00799E+06,   1.00799E+06
C:/temp/Job-3.odb,Step-1,Increment      1: Step Time =    1.000,"P-3-1",          1242,       49.3403,       98.2092,            0.,NA,NA,"",   949.656E+03,   1.00039E+06,   1.00039E+06
C:/temp/Job-3.odb,Step-1,Increment      1: Step Time =    1.000,"P-3-1",          1243,       55.4801,       136.971,            0.,NA,NA,"",   980.864E+03,   1.01485E+06,   1.01485E+06
C:/temp/Job-3.odb,Step-1,Increment      1: Step Time =    1.000,"P-3-1",          1244,       111.942,       48.3884,            0.,NA,NA,"",   1.00485E+06,   1.00628E+06,   1.00628E+06
C:/temp/Job-3.odb,Step-1,Increment      1: Step Time =    1.000,"P-3-1",          1245,       90.8723,       62.2167,            0.,NA,NA,"",   1.00811E+06,   1.01776E+06,   1.01776E+06
C:/temp/Job-3.odb,Step-1,Increment      1: Step Time =    1.000,"P-3-1",          1246,       41.3902,       185.427,            0.,NA,NA,"",   991.066E+03,   997.623E+03,   997.623E+03
C:/temp/Job-3.odb,Step-1,Increment      1: Step Time =    1.000,"P-3-1",          1247,       13.6791,       158.889,            0.,NA,NA,"",   917.040E+03,   1.00059E+06,   1.00059E+06
C:/temp/Job-3.odb,Step-1,Increment      1: Step Time =    1.000,"P-3-1",          1248,       159.272,       14.7107,            0.,NA,NA,"",   993.750E+03,   993.247E+03,   993.247E+03
C:/temp/Job-3.odb,Step-1,Increment      1: Step Time =    1.000,"P-3-1",          1249,       185.730,       39.7404,            0.,NA,NA,"",   1.00298E+06,   999.808E+03,   999.808E+03
C:/temp/Job-3.odb,Step-1,Increment      1: Step Time =    1.000,"P-3-1",          1250,       185.675,       159.220,            0.,NA,NA,"",   1.00316E+06,   999.861E+03,   999.861E+03
C:/temp/Job-3.odb,Step-1,Increment      1: Step Time =    1.000,"P-3-1",          1251,       15.0704,       41.0407,            0.,NA,NA,"",   922.925E+03,   1.00333E+06,   1.00333E+06
C:/temp/Job-3.odb,Step-1,Increment      1: Step Time =    1.000,"P-3-1",          1252,       159.710,       186.461,            0.,NA,NA,"",   993.603E+03,   993.167E+03,   993.167E+03
C:/temp/Job-3.odb,Step-1,Increment      1: Step Time =    1.000,"P-3-1",          1253,       40.1816,       13.4320,            0.,NA,NA,"",   990.393E+03,   996.470E+03,   996.470E+03
C:/temp/Job-3.odb,Step-1,Increment      1: Step Time =    1.000,"P-3-1",          1254,       47.2390,       137.681,            0.,NA,NA,"",   967.159E+03,   1.01074E+06,   1.01074E+06
C:/temp/Job-3.odb,Step-1,Increment      1: Step Time =    1.000,"P-3-1",          1255,       57.7593,       143.645,            0.,NA,NA,"",   988.706E+03,   1.01677E+06,   1.01677E+06
C:/temp/Job-3.odb,Step-1,Increment      1: Step Time =    1.000,"P-3-1",          1256,       131.229,       65.3655,            0.,NA,NA,"",   1.01332E+06,   1.01133E+06,   1.01133E+06
C:/temp/Job-3.odb,Step-1,Increment      1: Step Time =    1.000,"P-3-1",          1257,       70.8579,       77.7512,            0.,NA,NA,"",   995.829E+03,   1.01931E+06,   1.01931E+06
C:/temp/Job-3.odb,Step-1,Increment      1: Step Time =    1.000,"P-3-1",          1258,       120.827,       123.983,            0.,NA,NA,"",   1.02006E+06,   1.01914E+06,   1.01914E+06
C:/temp/Job-3.odb,Step-1,Increment      1: Step Time =    1.000,"P-3-1",          1259,       121.281,       127.404,            0.,NA,NA,"",   1.01797E+06,   1.01736E+06,   1.01736E+06
C:/temp/Job-3.odb,Step-1,Increment      1: Step Time =    1.000,"P-3-1",          1260,       142.879,       83.7377,            0.,NA,NA,"",   1.01080E+06,   1.00807E+06,   1.00807E+06
C:/temp/Job-3.odb,Step-1,Increment      1: Step Time =    1.000,"P-3-1",          1261,       88.4915,       134.896,            0.,NA,NA,"",   1.00861E+06,   1.01967E+06,   1.01967E+06
C:/temp/Job-3.odb,Step-1,Increment      1: Step Time =    1.000,"P-3-1",          1262,       113.236,       136.467,            0.,NA,NA,"",   1.01234E+06,   1.01463E+06,   1.01463E+06
C:/temp/Job-3.odb,Step-1,Increment      1: Step Time =    1.000,"P-3-1",          1263,       140.868,       109.070,            0.,NA,NA,"",   1.00944E+06,   1.00732E+06,   1.00732E+06
C:/temp/Job-3.odb,Step-1,Increment      1: Step Time =    1.000,"P-3-1",          1264,       77.6252,       63.0145,            0.,NA,NA,"",   1.00461E+06,   1.01983E+06,   1.01983E+06
C:/temp/Job-3.odb,Step-1,Increment      1: Step Time =    1.000,"P-3-1",          1265,       78.1711,       59.3920,            0.,NA,NA,"",   1.00449E+06,   1.01862E+06,   1.01862E+06
C:/temp/Job-3.odb,Step-1,Increment      1: Step Time =    1.000,"P-3-1",          1266,       107.937,       139.582,            0.,NA,NA,"",   1.01006E+06,   1.01385E+06,   1.01385E+06
C:/temp/Job-3.odb,Step-1,Increment      1: Step Time =    1.000,"P-3-1",          1267,       48.3922,       111.707,            0.,NA,NA,"",   950.054E+03,   1.00100E+06,   1.00100E+06
C:/temp/Job-3.odb,Step-1,Increment      1: Step Time =    1.000,"P-3-1",          1268,       46.8386,       132.766,            0.,NA,NA,"",   961.472E+03,   1.00783E+06,   1.00783E+06
C:/temp/Job-3.odb,Step-1,Increment      1: Step Time =    1.000,"P-3-1",          1269,       43.4952,       125.623,            0.,NA,NA,"",   947.682E+03,   1.00149E+06,   1.00149E+06
C:/temp/Job-3.odb,Step-1,Increment      1: Step Time =    1.000,"P-3-1",          1270,       138.337,       112.688,            0.,NA,NA,"",   1.01041E+06,   1.00834E+06,   1.00834E+06
C:/temp/Job-3.odb,Step-1,Increment      1: Step Time =    1.000,"P-3-1",          1271,       118.846,       130.839,            0.,NA,NA,"",   1.01691E+06,   1.01735E+06,   1.01735E+06
C:/temp/Job-3.odb,Step-1,Increment      1: Step Time =    1.000,"P-3-1",          1272,       47.0798,       115.727,            0.,NA,NA,"",   950.106E+03,   1.00140E+06,   1.00140E+06
C:/temp/Job-3.odb,Step-1,Increment      1: Step Time =    1.000,"P-3-1",          1273,       97.1368,       142.570,            0.,NA,NA,"",   1.00730E+06,   1.01395E+06,   1.01395E+06
C:/temp/Job-3.odb,Step-1,Increment      1: Step Time =    1.000,"P-3-1",          1274,       100.268,       139.751,            0.,NA,NA,"",   1.00850E+06,   1.01484E+06,   1.01484E+06
C:/temp/Job-3.odb,Step-1,Increment      1: Step Time =    1.000,"P-3-1",          1275,       66.0585,       81.9697,            0.,NA,NA,"",   985.956E+03,   1.01505E+06,   1.01505E+06
C:/temp/Job-3.odb,Step-1,Increment      1: Step Time =    1.000,"P-3-1",          1276,       181.152,       110.203,            0.,NA,NA,"",   1.00795E+06,   1.00130E+06,   1.00130E+06
C:/temp/Job-3.odb,Step-1,Increment      1: Step Time =    1.000,"P-3-1",          1277,       92.4129,       180.489,            0.,NA,NA,"",   977.309E+03,   978.110E+03,   978.110E+03
C:/temp/Job-3.odb,Step-1,Increment      1: Step Time =    1.000,"P-3-1",          1278,       109.334,       18.9915,            0.,NA,NA,"",   980.196E+03,   980.237E+03,   980.237E+03
C:/temp/Job-3.odb,Step-1,Increment      1: Step Time =    1.000,"P-3-1",          1279,       18.9976,       91.0740,            0.,NA,NA,"",   874.671E+03,   962.975E+03,   962.975E+03
C:/temp/Job-3.odb,Step-1,Increment      1: Step Time =    1.000,"P-3-1",          1280,       180.202,       102.141,            0.,NA,NA,"",   1.00800E+06,   1.00140E+06,   1.00140E+06
C:/temp/Job-3.odb,Step-1,Increment      1: Step Time =    1.000,"P-3-1",          1281,       101.585,       19.4509,            0.,NA,NA,"",   978.868E+03,   979.139E+03,   979.139E+03
C:/temp/Job-3.odb,Step-1,Increment      1: Step Time =    1.000,"P-3-1",          1282,       132.895,       68.6336,            0.,NA,NA,"",   1.01387E+06,   1.01159E+06,   1.01159E+06
C:/temp/Job-3.odb,Step-1,Increment      1: Step Time =    1.000,"P-3-1",          1283,       69.9537,       148.456,            0.,NA,NA,"",   1.00010E+06,   1.01609E+06,   1.01609E+06
C:/temp/Job-3.odb,Step-1,Increment      1: Step Time =    1.000,"P-3-1",          1284,       45.6391,       121.938,            0.,NA,NA,"",   950.178E+03,   1.00207E+06,   1.00207E+06
C:/temp/Job-3.odb,Step-1,Increment      1: Step Time =    1.000,"P-3-1",          1285,       73.3170,       66.3516,            0.,NA,NA,"",   1.00157E+06,   1.02041E+06,   1.02041E+06
C:/temp/Job-3.odb,Step-1,Increment      1: Step Time =    1.000,"P-3-1",          1286,       137.913,       70.1900,            0.,NA,NA,"",   1.01287E+06,   1.01014E+06,   1.01014E+06
C:/temp/Job-3.odb,Step-1,Increment      1: Step Time =    1.000,"P-3-1",          1287,       146.882,       95.7736,            0.,NA,NA,"",   1.00879E+06,   1.00615E+06,   1.00615E+06
C:/temp/Job-3.odb,Step-1,Increment      1: Step Time =    1.000,"P-3-1",          1288,       47.1309,       103.978,            0.,NA,NA,"",   945.505E+03,   998.686E+03,   998.686E+03
C:/temp/Job-3.odb,Step-1,Increment      1: Step Time =    1.000,"P-3-1",          1289,       131.012,       117.599,            0.,NA,NA,"",   1.01393E+06,   1.01196E+06,   1.01196E+06
C:/temp/Job-3.odb,Step-1,Increment      1: Step Time =    1.000,"P-3-1",          1290,       142.844,       88.0317,            0.,NA,NA,"",   1.00993E+06,   1.00745E+06,   1.00745E+06
C:/temp/Job-3.odb,Step-1,Increment      1: Step Time =    1.000,"P-3-1",          1291,       58.5541,       181.970,            0.,NA,NA,"",   979.629E+03,   983.898E+03,   983.898E+03
C:/temp/Job-3.odb,Step-1,Increment      1: Step Time =    1.000,"P-3-1",          1292,       18.9366,       142.266,            0.,NA,NA,"",   901.642E+03,   983.395E+03,   983.395E+03
C:/temp/Job-3.odb,Step-1,Increment      1: Step Time =    1.000,"P-3-1",          1293,       108.497,       47.0670,            0.,NA,NA,"",   1.00397E+06,   1.00595E+06,   1.00595E+06
C:/temp/Job-3.odb,Step-1,Increment      1: Step Time =    1.000,"P-3-1",          1294,       140.323,       19.1542,            0.,NA,NA,"",   989.838E+03,   989.239E+03,   989.239E+03
C:/temp/Job-3.odb,Step-1,Increment      1: Step Time =    1.000,"P-3-1",          1295,       179.797,       57.8184,            0.,NA,NA,"",   1.00561E+06,   1.00087E+06,   1.00087E+06
C:/temp/Job-3.odb,Step-1,Increment      1: Step Time =    1.000,"P-3-1",          1296,       141.037,       180.551,            0.,NA,NA,"",   990.295E+03,   989.663E+03,   989.663E+03
C:/temp/Job-3.odb,Step-1,Increment      1: Step Time =    1.000,"P-3-1",          1297,       69.9593,       179.653,            0.,NA,NA,"",   979.335E+03,   982.462E+03,   982.462E+03
C:/temp/Job-3.odb,Step-1,Increment      1: Step Time =    1.000,"P-3-1",          1298,       180.949,       140.588,            0.,NA,NA,"",   1.00580E+06,   1.00083E+06,   1.00083E+06
C:/temp/Job-3.odb,Step-1,Increment      1: Step Time =    1.000,"P-3-1",          1299,       19.6630,       56.6355,            0.,NA,NA,"",   904.785E+03,   985.337E+03,   985.337E+03
C:/temp/Job-3.odb,Step-1,Increment      1: Step Time =    1.000,"P-3-1",          1300,       58.0641,       19.9122,            0.,NA,NA,"",   983.423E+03,   988.714E+03,   988.714E+03
C:/temp/Job-3.odb,Step-1,Increment      1: Step Time =    1.000,"P-3-1",          1301,       20.9214,       128.519,            0.,NA,NA,"",   890.716E+03,   974.125E+03,   974.125E+03
C:/temp/Job-3.odb,Step-1,Increment      1: Step Time =    1.000,"P-3-1",          1302,       34.3889,       178.824,            0.,NA,NA,"",   1.00914E+06,   1.02803E+06,   1.02803E+06
C:/temp/Job-3.odb,Step-1,Increment      1: Step Time =    1.000,"P-3-1",          1303,       19.7385,       164.771,            0.,NA,NA,"",   955.612E+03,   1.02145E+06,   1.02145E+06
C:/temp/Job-3.odb,Step-1,Increment      1: Step Time =    1.000,"P-3-1",          1304,       83.2506,       178.141,            0.,NA,NA,"",   979.985E+03,   981.672E+03,   981.672E+03
C:/temp/Job-3.odb,Step-1,Increment      1: Step Time =    1.000,"P-3-1",          1305,       130.450,       19.0532,            0.,NA,NA,"",   986.826E+03,   986.365E+03,   986.365E+03
C:/temp/Job-3.odb,Step-1,Increment      1: Step Time =    1.000,"P-3-1",          1306,       178.668,       71.6691,            0.,NA,NA,"",   1.00710E+06,   1.00148E+06,   1.00148E+06
C:/temp/Job-3.odb,Step-1,Increment      1: Step Time =    1.000,"P-3-1",          1307,       167.752,       21.1600,            0.,NA,NA,"",   997.337E+03,   996.281E+03,   996.281E+03
C:/temp/Job-3.odb,Step-1,Increment      1: Step Time =    1.000,"P-3-1",          1308,       181.310,       34.9151,            0.,NA,NA,"",   1.00190E+06,   999.361E+03,   999.361E+03
C:/temp/Job-3.odb,Step-1,Increment      1: Step Time =    1.000,"P-3-1",          1309,       118.077,       21.1612,            0.,NA,NA,"",   984.854E+03,   984.658E+03,   984.658E+03
C:/temp/Job-3.odb,Step-1,Increment      1: Step Time =    1.000,"P-3-1",          1310,       131.058,       180.126,            0.,NA,NA,"",   987.597E+03,   987.104E+03,   987.104E+03
C:/temp/Job-3.odb,Step-1,Increment      1: Step Time =    1.000,"P-3-1",          1311,       180.419,       131.166,            0.,NA,NA,"",   1.00685E+06,   1.00120E+06,   1.00120E+06
C:/temp/Job-3.odb,Step-1,Increment      1: Step Time =    1.000,"P-3-1",          1312,       18.6500,       70.3199,            0.,NA,NA,"",   885.273E+03,   971.389E+03,   971.389E+03
C:/temp/Job-3.odb,Step-1,Increment      1: Step Time =    1.000,"P-3-1",          1313,       68.3559,       20.6156,            0.,NA,NA,"",   979.957E+03,   983.286E+03,   983.286E+03
C:/temp/Job-3.odb,Step-1,Increment      1: Step Time =    1.000,"P-3-1",          1314,       178.733,       118.132,            0.,NA,NA,"",   1.00768E+06,   1.00156E+06,   1.00156E+06
C:/temp/Job-3.odb,Step-1,Increment      1: Step Time =    1.000,"P-3-1",          1315,       20.5113,       83.1597,            0.,NA,NA,"",   881.069E+03,   967.220E+03,   967.220E+03
C:/temp/Job-3.odb,Step-1,Increment      1: Step Time =    1.000,"P-3-1",          1316,       181.109,       25.9125,            0.,NA,NA,"",   1.00032E+06,   998.668E+03,   998.668E+03
C:/temp/Job-3.odb,Step-1,Increment      1: Step Time =    1.000,"P-3-1",          1317,       164.270,       182.537,            0.,NA,NA,"",   995.637E+03,   994.924E+03,   994.924E+03
C:/temp/Job-3.odb,Step-1,Increment      1: Step Time =    1.000,"P-3-1",          1318,       180.812,       163.462,            0.,NA,NA,"",   1.00217E+06,   999.464E+03,   999.464E+03
C:/temp/Job-3.odb,Step-1,Increment      1: Step Time =    1.000,"P-3-1",          1319,       20.1248,       36.5839,            0.,NA,NA,"",   953.645E+03,   1.02011E+06,   1.02011E+06
C:/temp/Job-3.odb,Step-1,Increment      1: Step Time =    1.000,"P-3-1",          1320,       35.6595,       17.1794,            0.,NA,NA,"",   1.00817E+06,   1.02030E+06,   1.02030E+06
C:/temp/Job-3.odb,Step-1,Increment      1: Step Time =    1.000,"P-3-1",          1321,       172.140,       180.747,            0.,NA,NA,"",   997.678E+03,   996.742E+03,   996.742E+03
C:/temp/Job-3.odb,Step-1,Increment      1: Step Time =    1.000,"P-3-1",          1322,       27.3420,       18.4353,            0.,NA,NA,"",   1.02324E+06,   1.04541E+06,   1.04541E+06
C:/temp/Job-3.odb,Step-1,Increment      1: Step Time =    1.000,"P-3-1",          1323,       124.421,       59.0383,            0.,NA,NA,"",   1.01143E+06,   1.01071E+06,   1.01071E+06
C:/temp/Job-3.odb,Step-1,Increment      1: Step Time =    1.000,"P-3-1",          1324,       79.5373,       147.917,            0.,NA,NA,"",   1.00382E+06,   1.01503E+06,   1.01503E+06
C:/temp/Job-3.odb,Step-1,Increment      1: Step Time =    1.000,"P-3-1",          1325,       133.946,       82.3880,            0.,NA,NA,"",   1.01315E+06,   1.01099E+06,   1.01099E+06
C:/temp/Job-3.odb,Step-1,Increment      1: Step Time =    1.000,"P-3-1",          1326,       84.5626,       58.8928,            0.,NA,NA,"",   1.00636E+06,   1.01741E+06,   1.01741E+06
C:/temp/Job-3.odb,Step-1,Increment      1: Step Time =    1.000,"P-3-1",          1327,       93.7271,       60.8732,            0.,NA,NA,"",   1.00809E+06,   1.01659E+06,   1.01659E+06
C:/temp/Job-3.odb,Step-1,Increment      1: Step Time =    1.000,"P-3-1",          1328,       119.997,       59.7761,            0.,NA,NA,"",   1.01178E+06,   1.01198E+06,   1.01198E+06
C:/temp/Job-3.odb,Step-1,Increment      1: Step Time =    1.000,"P-3-1",          1329,       87.7355,       142.606,            0.,NA,NA,"",   1.00668E+06,   1.01618E+06,   1.01618E+06
C:/temp/Job-3.odb,Step-1,Increment      1: Step Time =    1.000,"P-3-1",          1330,       45.9266,       186.054,            0.,NA,NA,"",   981.741E+03,   986.832E+03,   986.832E+03
C:/temp/Job-3.odb,Step-1,Increment      1: Step Time =    1.000,"P-3-1",          1331,       13.3900,       154.457,            0.,NA,NA,"",   905.360E+03,   991.412E+03,   991.412E+03
C:/temp/Job-3.odb,Step-1,Increment      1: Step Time =    1.000,"P-3-1",          1332,       154.453,       14.4458,            0.,NA,NA,"",   992.238E+03,   991.781E+03,   991.781E+03
C:/temp/Job-3.odb,Step-1,Increment      1: Step Time =    1.000,"P-3-1",          1333,       185.571,       44.4514,            0.,NA,NA,"",   1.00371E+06,   999.997E+03,   999.997E+03
C:/temp/Job-3.odb,Step-1,Increment      1: Step Time =    1.000,"P-3-1",          1334,       154.981,       186.254,            0.,NA,NA,"",   992.236E+03,   991.806E+03,   991.806E+03
C:/temp/Job-3.odb,Step-1,Increment      1: Step Time =    1.000,"P-3-1",          1335,       185.782,       154.514,            0.,NA,NA,"",   1.00390E+06,   1.00005E+06,   1.00005E+06
C:/temp/Job-3.odb,Step-1,Increment      1: Step Time =    1.000,"P-3-1",          1336,       15.0863,       46.0360,            0.,NA,NA,"",   910.184E+03,   993.415E+03,   993.415E+03
C:/temp/Job-3.odb,Step-1,Increment      1: Step Time =    1.000,"P-3-1",          1337,       44.8005,       13.7192,            0.,NA,NA,"",   983.008E+03,   988.064E+03,   988.064E+03
C:/temp/Job-3.odb,Step-1,Increment      1: Step Time =    1.000,"P-3-1",          1338,       21.1728,       26.8171,            0.,NA,NA,"",   994.327E+03,   1.04530E+06,   1.04530E+06
C:/temp/Job-3.odb,Step-1,Increment      1: Step Time =    1.000,"P-3-1",          1339,       179.439,       172.937,            0.,NA,NA,"",   1.00030E+06,   998.563E+03,   998.563E+03
C:/temp/Job-3.odb,Step-1,Increment      1: Step Time =    1.000,"P-3-1",          1340,       173.965,       18.9391,            0.,NA,NA,"",   997.990E+03,   997.052E+03,   997.052E+03
C:/temp/Job-3.odb,Step-1,Increment      1: Step Time =    1.000,"P-3-1",          1341,       24.8858,       179.571,            0.,NA,NA,"",   1.02309E+06,   1.05326E+06,   1.05326E+06
C:/temp/Job-3.odb,Step-1,Increment      1: Step Time =    1.000,"P-3-1",          1342,       140.474,       76.7751,            0.,NA,NA,"",   1.01256E+06,   1.00967E+06,   1.00967E+06
C:/temp/Job-3.odb,Step-1,Increment      1: Step Time =    1.000,"P-3-1",          1343,       80.2291,       143.298,            0.,NA,NA,"",   1.00477E+06,   1.01704E+06,   1.01704E+06
C:/temp/Job-3.odb,Step-1,Increment      1: Step Time =    1.000,"P-3-1",          1344,       95.8483,       56.0477,            0.,NA,NA,"",   1.00691E+06,   1.01344E+06,   1.01344E+06
C:/temp/Job-3.odb,Step-1,Increment      1: Step Time =    1.000,"P-3-1",          1345,       52.8034,       117.347,            0.,NA,NA,"",   962.163E+03,   1.00642E+06,   1.00642E+06
C:/temp/Job-3.odb,Step-1,Increment      1: Step Time =    1.000,"P-3-1",          1346,       137.866,       109.106,            0.,NA,NA,"",   1.00932E+06,   1.00756E+06,   1.00756E+06
C:/temp/Job-3.odb,Step-1,Increment      1: Step Time =    1.000,"P-3-1",          1347,       66.5260,       72.6231,            0.,NA,NA,"",   991.680E+03,   1.01797E+06,   1.01797E+06
C:/temp/Job-3.odb,Step-1,Increment      1: Step Time =    1.000,"P-3-1",          1348,       133.842,       60.3313,            0.,NA,NA,"",   1.01107E+06,   1.00897E+06,   1.00897E+06
C:/temp/Job-3.odb,Step-1,Increment      1: Step Time =    1.000,"P-3-1",          1349,       124.844,       123.572,            0.,NA,NA,"",   1.01775E+06,   1.01607E+06,   1.01607E+06
C:/temp/Job-3.odb,Step-1,Increment      1: Step Time =    1.000,"P-3-1",          1350,       122.946,       117.459,            0.,NA,NA,"",   1.01885E+06,   1.01720E+06,   1.01720E+06
C:/temp/Job-3.odb,Step-1,Increment      1: Step Time =    1.000,"P-3-1",          1351,       174.605,       89.3649,            0.,NA,NA,"",   1.00790E+06,   1.00215E+06,   1.00215E+06
C:/temp/Job-3.odb,Step-1,Increment      1: Step Time =    1.000,"P-3-1",          1352,       89.6916,       26.2075,            0.,NA,NA,"",   986.096E+03,   987.864E+03,   987.864E+03
C:/temp/Job-3.odb,Step-1,Increment      1: Step Time =    1.000,"P-3-1",          1353,       111.224,       175.270,            0.,NA,NA,"",   986.659E+03,   986.729E+03,   986.729E+03
C:/temp/Job-3.odb,Step-1,Increment      1: Step Time =    1.000,"P-3-1",          1354,       24.7469,       108.272,            0.,NA,NA,"",   890.279E+03,   971.756E+03,   971.756E+03
C:/temp/Job-3.odb,Step-1,Increment      1: Step Time =    1.000,"P-3-1",          1355,       129.716,       61.8334,            0.,NA,NA,"",   1.01225E+06,   1.01057E+06,   1.01057E+06
C:/temp/Job-3.odb,Step-1,Increment      1: Step Time =    1.000,"P-3-1",          1356,       56.6270,       148.228,            0.,NA,NA,"",   990.197E+03,   1.01677E+06,   1.01677E+06
C:/temp/Job-3.odb,Step-1,Increment      1: Step Time =    1.000,"P-3-1",          1357,       40.7470,       121.466,            0.,NA,NA,"",   938.585E+03,   996.986E+03,   996.986E+03
C:/temp/Job-3.odb,Step-1,Increment      1: Step Time =    1.000,"P-3-1",          1358,       139.471,       79.6216,            0.,NA,NA,"",   1.01232E+06,   1.00961E+06,   1.00961E+06
C:/temp/Job-3.odb,Step-1,Increment      1: Step Time =    1.000,"P-3-1",          1359,       84.7639,       143.907,            0.,NA,NA,"",   1.00580E+06,   1.01602E+06,   1.01602E+06
C:/temp/Job-3.odb,Step-1,Increment      1: Step Time =    1.000,"P-3-1",          1360,       90.8045,       141.416,            0.,NA,NA,"",   1.00729E+06,   1.01614E+06,   1.01614E+06
C:/temp/Job-3.odb,Step-1,Increment      1: Step Time =    1.000,"P-3-1",          1361,       145.165,       108.351,            0.,NA,NA,"",   1.00934E+06,   1.00679E+06,   1.00679E+06
C:/temp/Job-3.odb,Step-1,Increment      1: Step Time =    1.000,"P-3-1",          1362,       53.1735,       142.389,            0.,NA,NA,"",   981.679E+03,   1.01534E+06,   1.01534E+06
C:/temp/Job-3.odb,Step-1,Increment      1: Step Time =    1.000,"P-3-1",          1363,       112.253,       138.679,            0.,NA,NA,"",   1.01146E+06,   1.01395E+06,   1.01395E+06
C:/temp/Job-3.odb,Step-1,Increment      1: Step Time =    1.000,"P-3-1",          1364,       150.272,       93.7553,            0.,NA,NA,"",   1.00897E+06,   1.00587E+06,   1.00587E+06
C:/temp/Job-3.odb,Step-1,Increment      1: Step Time =    1.000,"P-3-1",          1365,       80.2318,       21.8338,            0.,NA,NA,"",   980.175E+03,   982.107E+03,   982.107E+03
C:/temp/Job-3.odb,Step-1,Increment      1: Step Time =    1.000,"P-3-1",          1366,       24.1482,       78.4348,            0.,NA,NA,"",   894.697E+03,   975.235E+03,   975.235E+03
C:/temp/Job-3.odb,Step-1,Increment      1: Step Time =    1.000,"P-3-1",          1367,       173.327,       119.555,            0.,NA,NA,"",   1.00772E+06,   1.00228E+06,   1.00228E+06
C:/temp/Job-3.odb,Step-1,Increment      1: Step Time =    1.000,"P-3-1",          1368,       67.2276,       76.8248,            0.,NA,NA,"",   990.968E+03,   1.01761E+06,   1.01761E+06
C:/temp/Job-3.odb,Step-1,Increment      1: Step Time =    1.000,"P-3-1",          1369,       65.5878,       87.0949,            0.,NA,NA,"",   981.401E+03,   1.01229E+06,   1.01229E+06
C:/temp/Job-3.odb,Step-1,Increment      1: Step Time =    1.000,"P-3-1",          1370,       121.366,       174.751,            0.,NA,NA,"",   989.215E+03,   988.856E+03,   988.856E+03
C:/temp/Job-3.odb,Step-1,Increment      1: Step Time =    1.000,"P-3-1",          1371,       174.254,       82.1842,            0.,NA,NA,"",   1.00777E+06,   1.00220E+06,   1.00220E+06
C:/temp/Job-3.odb,Step-1,Increment      1: Step Time =    1.000,"P-3-1",          1372,       119.411,       25.6555,            0.,NA,NA,"",   989.332E+03,   989.045E+03,   989.045E+03
C:/temp/Job-3.odb,Step-1,Increment      1: Step Time =    1.000,"P-3-1",          1373,       24.1941,       119.667,            0.,NA,NA,"",   893.865E+03,   974.593E+03,   974.593E+03
C:/temp/Job-3.odb,Step-1,Increment      1: Step Time =    1.000,"P-3-1",          1374,       82.3752,       173.592,            0.,NA,NA,"",   986.319E+03,   988.985E+03,   988.985E+03
C:/temp/Job-3.odb,Step-1,Increment      1: Step Time =    1.000,"P-3-1",          1375,       72.6280,       151.866,            0.,NA,NA,"",   1.00097E+06,   1.01399E+06,   1.01399E+06
C:/temp/Job-3.odb,Step-1,Increment      1: Step Time =    1.000,"P-3-1",          1376,       52.0623,       112.619,            0.,NA,NA,"",   958.410E+03,   1.00447E+06,   1.00447E+06
C:/temp/Job-3.odb,Step-1,Increment      1: Step Time =    1.000,"P-3-1",          1377,       100.465,       24.4546,            0.,NA,NA,"",   984.839E+03,   985.502E+03,   985.502E+03
C:/temp/Job-3.odb,Step-1,Increment      1: Step Time =    1.000,"P-3-1",          1378,       174.979,       100.694,            0.,NA,NA,"",   1.00797E+06,   1.00209E+06,   1.00209E+06
C:/temp/Job-3.odb,Step-1,Increment      1: Step Time =    1.000,"P-3-1",          1379,       24.0466,       99.6578,            0.,NA,NA,"",   887.254E+03,   969.886E+03,   969.886E+03
C:/temp/Job-3.odb,Step-1,Increment      1: Step Time =    1.000,"P-3-1",          1380,       101.447,       176.025,            0.,NA,NA,"",   984.369E+03,   984.935E+03,   984.935E+03
C:/temp/Job-3.odb,Step-1,Increment      1: Step Time =    1.000,"P-3-1",          1381,       97.9468,       51.0807,            0.,NA,NA,"",   1.00537E+06,   1.01047E+06,   1.01047E+06
C:/temp/Job-3.odb,Step-1,Increment      1: Step Time =    1.000,"P-3-1",          1382,       69.3959,       69.9308,            0.,NA,NA,"",   996.424E+03,   1.01944E+06,   1.01944E+06
C:/temp/Job-3.odb,Step-1,Increment      1: Step Time =    1.000,"P-3-1",          1383,       56.7998,       24.3168,            0.,NA,NA,"",   990.536E+03,   998.414E+03,   998.414E+03
C:/temp/Job-3.odb,Step-1,Increment      1: Step Time =    1.000,"P-3-1",          1384,       24.3670,       57.7465,            0.,NA,NA,"",   918.098E+03,   991.625E+03,   991.625E+03
C:/temp/Job-3.odb,Step-1,Increment      1: Step Time =    1.000,"P-3-1",          1385,       176.168,       140.885,            0.,NA,NA,"",   1.00583E+06,   1.00124E+06,   1.00124E+06
C:/temp/Job-3.odb,Step-1,Increment      1: Step Time =    1.000,"P-3-1",          1386,       141.681,       175.517,            0.,NA,NA,"",   993.183E+03,   992.260E+03,   992.260E+03
C:/temp/Job-3.odb,Step-1,Increment      1: Step Time =    1.000,"P-3-1",          1387,       44.1822,       135.850,            0.,NA,NA,"",   959.257E+03,   1.00754E+06,   1.00754E+06
C:/temp/Job-3.odb,Step-1,Increment      1: Step Time =    1.000,"P-3-1",          1388,       175.491,       57.0348,            0.,NA,NA,"",   1.00555E+06,   1.00119E+06,   1.00119E+06
C:/temp/Job-3.odb,Step-1,Increment      1: Step Time =    1.000,"P-3-1",          1389,       140.723,       23.6158,            0.,NA,NA,"",   992.406E+03,   991.575E+03,   991.575E+03
C:/temp/Job-3.odb,Step-1,Increment      1: Step Time =    1.000,"P-3-1",          1390,       24.3888,       141.835,            0.,NA,NA,"",   917.857E+03,   991.433E+03,   991.433E+03
C:/temp/Job-3.odb,Step-1,Increment      1: Step Time =    1.000,"P-3-1",          1391,       78.0914,       151.461,            0.,NA,NA,"",   1.00254E+06,   1.01328E+06,   1.01328E+06
C:/temp/Job-3.odb,Step-1,Increment      1: Step Time =    1.000,"P-3-1",          1392,       54.6659,       177.823,            0.,NA,NA,"",   989.620E+03,    997.03E+03,    997.03E+03
C:/temp/Job-3.odb,Step-1,Increment      1: Step Time =    1.000,"P-3-1",          1393,       46.1901,       100.490,            0.,NA,NA,"",   943.259E+03,   997.678E+03,   997.678E+03
C:/temp/Job-3.odb,Step-1,Increment      1: Step Time =    1.000,"P-3-1",          1394,       65.5342,       23.9801,            0.,NA,NA,"",   985.846E+03,   990.881E+03,   990.881E+03
C:/temp/Job-3.odb,Step-1,Increment      1: Step Time =    1.000,"P-3-1",          1395,       23.4382,       66.2884,            0.,NA,NA,"",   903.445E+03,   982.036E+03,   982.036E+03
C:/temp/Job-3.odb,Step-1,Increment      1: Step Time =    1.000,"P-3-1",          1396,       175.457,       131.764,            0.,NA,NA,"",   1.00689E+06,   1.00176E+06,   1.00176E+06
C:/temp/Job-3.odb,Step-1,Increment      1: Step Time =    1.000,"P-3-1",          1397,       131.493,       175.009,            0.,NA,NA,"",   991.289E+03,   990.597E+03,   990.597E+03
C:/temp/Job-3.odb,Step-1,Increment      1: Step Time =    1.000,"P-3-1",          1398,       113.345,       45.3940,            0.,NA,NA,"",   1.00317E+06,   1.00414E+06,   1.00414E+06
C:/temp/Job-3.odb,Step-1,Increment      1: Step Time =    1.000,"P-3-1",          1399,       173.016,       68.5797,            0.,NA,NA,"",   1.00710E+06,   1.00215E+06,   1.00215E+06
C:/temp/Job-3.odb,Step-1,Increment      1: Step Time =    1.000,"P-3-1",          1400,       93.1660,       176.575,            0.,NA,NA,"",   983.009E+03,   984.242E+03,   984.242E+03
C:/temp/Job-3.odb,Step-1,Increment      1: Step Time =    1.000,"P-3-1",          1401,       129.819,       22.9967,            0.,NA,NA,"",   989.540E+03,   988.927E+03,   988.927E+03
C:/temp/Job-3.odb,Step-1,Increment      1: Step Time =    1.000,"P-3-1",          1402,       26.6840,       131.102,            0.,NA,NA,"",   910.809E+03,   985.141E+03,   985.141E+03
C:/temp/Job-3.odb,Step-1,Increment      1: Step Time =    1.000,"P-3-1",          1403,       88.6261,       58.5155,            0.,NA,NA,"",   1.00693E+06,   1.01650E+06,   1.01650E+06
C:/temp/Job-3.odb,Step-1,Increment      1: Step Time =    1.000,"P-3-1",          1404,       73.5478,       173.964,            0.,NA,NA,"",   987.247E+03,   991.313E+03,   991.313E+03
C:/temp/Job-3.odb,Step-1,Increment      1: Step Time =    1.000,"P-3-1",          1405,       81.0355,       56.6591,            0.,NA,NA,"",   1.00516E+06,   1.01709E+06,   1.01709E+06
C:/temp/Job-3.odb,Step-1,Increment      1: Step Time =    1.000,"P-3-1",          1406,       142.719,       72.9940,            0.,NA,NA,"",   1.01187E+06,   1.00882E+06,   1.00882E+06
C:/temp/Job-3.odb,Step-1,Increment      1: Step Time =    1.000,"P-3-1",          1407,       25.0111,       37.1320,            0.,NA,NA,"",   965.795E+03,   1.02268E+06,   1.02268E+06
C:/temp/Job-3.odb,Step-1,Increment      1: Step Time =    1.000,"P-3-1",          1408,       176.248,       162.992,            0.,NA,NA,"",   1.00190E+06,   999.284E+03,   999.284E+03
C:/temp/Job-3.odb,Step-1,Increment      1: Step Time =    1.000,"P-3-1",          1409,       26.1228,       28.4074,            0.,NA,NA,"",   996.657E+03,   1.03916E+06,   1.03916E+06
C:/temp/Job-3.odb,Step-1,Increment      1: Step Time =    1.000,"P-3-1",          1410,       175.205,       171.164,            0.,NA,NA,"",   1.00006E+06,   998.252E+03,   998.252E+03
C:/temp/Job-3.odb,Step-1,Increment      1: Step Time =    1.000,"P-3-1",          1411,       178.029,       26.9861,            0.,NA,NA,"",   1.00009E+06,   998.401E+03,   998.401E+03
C:/temp/Job-3.odb,Step-1,Increment      1: Step Time =    1.000,"P-3-1",          1412,       175.526,       24.9712,            0.,NA,NA,"",   999.425E+03,   997.931E+03,   997.931E+03
C:/temp/Job-3.odb,Step-1,Increment      1: Step Time =    1.000,"P-3-1",          1413,       166.081,       25.7677,            0.,NA,NA,"",   998.133E+03,   996.733E+03,   996.733E+03
C:/temp/Job-3.odb,Step-1,Increment      1: Step Time =    1.000,"P-3-1",          1414,       22.3082,       175.069,            0.,NA,NA,"",   1.00757E+06,   1.05267E+06,   1.05267E+06
C:/temp/Job-3.odb,Step-1,Increment      1: Step Time =    1.000,"P-3-1",          1415,       27.2651,       174.591,            0.,NA,NA,"",   1.00726E+06,   1.04321E+06,   1.04321E+06
C:/temp/Job-3.odb,Step-1,Increment      1: Step Time =    1.000,"P-3-1",          1416,       22.4688,       161.313,            0.,NA,NA,"",   953.131E+03,   1.01713E+06,   1.01713E+06
C:/temp/Job-3.odb,Step-1,Increment      1: Step Time =    1.000,"P-3-1",          1417,       35.1371,       175.238,            0.,NA,NA,"",   1.00487E+06,   1.02825E+06,   1.02825E+06
C:/temp/Job-3.odb,Step-1,Increment      1: Step Time =    1.000,"P-3-1",          1418,       133.764,       122.554,            0.,NA,NA,"",   1.01433E+06,   1.01192E+06,   1.01192E+06
C:/temp/Job-3.odb,Step-1,Increment      1: Step Time =    1.000,"P-3-1",          1419,       54.8933,       186.418,            0.,NA,NA,"",   971.257E+03,   974.084E+03,   974.084E+03
C:/temp/Job-3.odb,Step-1,Increment      1: Step Time =    1.000,"P-3-1",          1420,       13.8778,       145.479,            0.,NA,NA,"",   889.547E+03,   978.311E+03,   978.311E+03
C:/temp/Job-3.odb,Step-1,Increment      1: Step Time =    1.000,"P-3-1",          1421,       78.8769,       179.070,            0.,NA,NA,"",   978.750E+03,   980.697E+03,   980.697E+03
C:/temp/Job-3.odb,Step-1,Increment      1: Step Time =    1.000,"P-3-1",          1422,       144.907,       14.2793,            0.,NA,NA,"",   989.014E+03,   988.610E+03,   988.610E+03
C:/temp/Job-3.odb,Step-1,Increment      1: Step Time =    1.000,"P-3-1",          1423,       185.038,       54.0585,            0.,NA,NA,"",   1.00512E+06,   1.00036E+06,   1.00036E+06
C:/temp/Job-3.odb,Step-1,Increment      1: Step Time =    1.000,"P-3-1",          1424,       121.977,       19.9278,            0.,NA,NA,"",   984.843E+03,   984.545E+03,   984.545E+03
C:/temp/Job-3.odb,Step-1,Increment      1: Step Time =    1.000,"P-3-1",          1425,       145.428,       185.756,            0.,NA,NA,"",   989.195E+03,   988.785E+03,   988.785E+03
C:/temp/Job-3.odb,Step-1,Increment      1: Step Time =    1.000,"P-3-1",          1426,       185.817,       145.102,            0.,NA,NA,"",   1.00528E+06,   1.00037E+06,   1.00037E+06
C:/temp/Job-3.odb,Step-1,Increment      1: Step Time =    1.000,"P-3-1",          1427,       14.7048,       55.9311,            0.,NA,NA,"",   890.180E+03,   977.978E+03,   977.978E+03
C:/temp/Job-3.odb,Step-1,Increment      1: Step Time =    1.000,"P-3-1",          1428,       54.3255,       14.4834,            0.,NA,NA,"",   974.365E+03,   977.751E+03,   977.751E+03
C:/temp/Job-3.odb,Step-1,Increment      1: Step Time =    1.000,"P-3-1",          1429,       45.4748,       190.637,            0.,NA,NA,"",   967.527E+03,   969.980E+03,   969.980E+03
C:/temp/Job-3.odb,Step-1,Increment      1: Step Time =    1.000,"P-3-1",          1430,       9.10085,       149.881,            0.,NA,NA,"",   880.895E+03,   975.411E+03,   975.411E+03
C:/temp/Job-3.odb,Step-1,Increment      1: Step Time =    1.000,"P-3-1",          1431,       158.779,       19.6049,            0.,NA,NA,"",   994.943E+03,   994.131E+03,   994.131E+03
C:/temp/Job-3.odb,Step-1,Increment      1: Step Time =    1.000,"P-3-1",          1432,       154.698,       9.63023,            0.,NA,NA,"",   991.094E+03,   990.865E+03,   990.865E+03
C:/temp/Job-3.odb,Step-1,Increment      1: Step Time =    1.000,"P-3-1",          1433,       190.356,       44.7176,            0.,NA,NA,"",   1.00395E+06,        1.E+06,        1.E+06
C:/temp/Job-3.odb,Step-1,Increment      1: Step Time =    1.000,"P-3-1",          1434,       154.907,       190.832,            0.,NA,NA,"",   991.069E+03,   990.855E+03,   990.855E+03
C:/temp/Job-3.odb,Step-1,Increment      1: Step Time =    1.000,"P-3-1",          1435,       190.538,       154.691,            0.,NA,NA,"",   1.00406E+06,   1.00003E+06,   1.00003E+06
C:/temp/Job-3.odb,Step-1,Increment      1: Step Time =    1.000,"P-3-1",          1436,       10.0028,       45.6666,            0.,NA,NA,"",   892.791E+03,   984.576E+03,   984.576E+03
C:/temp/Job-3.odb,Step-1,Increment      1: Step Time =    1.000,"P-3-1",          1437,       49.8375,       9.40532,            0.,NA,NA,"",   962.466E+03,   964.389E+03,   964.389E+03
C:/temp/Job-3.odb,Step-1,Increment      1: Step Time =    1.000,"P-3-1",          1438,       116.398,       131.678,            0.,NA,NA,"",   1.01561E+06,   1.01691E+06,   1.01691E+06
C:/temp/Job-3.odb,Step-1,Increment      1: Step Time =    1.000,"P-3-1",          1439,       124.834,       127.644,            0.,NA,NA,"",   1.01727E+06,   1.01587E+06,   1.01587E+06
C:/temp/Job-3.odb,Step-1,Increment      1: Step Time =    1.000,"P-3-1",          1440,       180.768,       44.0707,            0.,NA,NA,"",   1.00346E+06,   999.981E+03,   999.981E+03
C:/temp/Job-3.odb,Step-1,Increment      1: Step Time =    1.000,"P-3-1",          1441,       89.7437,       138.101,            0.,NA,NA,"",   1.00801E+06,   1.01798E+06,   1.01798E+06
C:/temp/Job-3.odb,Step-1,Increment      1: Step Time =    1.000,"P-3-1",          1442,       44.4414,       106.832,            0.,NA,NA,"",   940.110E+03,   996.467E+03,   996.467E+03
C:/temp/Job-3.odb,Step-1,Increment      1: Step Time =    1.000,"P-3-1",          1443,       104.824,       48.0762,            0.,NA,NA,"",   1.00431E+06,   1.00721E+06,   1.00721E+06
C:/temp/Job-3.odb,Step-1,Increment      1: Step Time =    1.000,"P-3-1",          1444,       79.6780,       18.6470,            0.,NA,NA,"",   974.993E+03,   976.419E+03,   976.419E+03
C:/temp/Job-3.odb,Step-1,Increment      1: Step Time =    1.000,"P-3-1",          1445,       121.080,       180.003,            0.,NA,NA,"",   984.630E+03,   984.343E+03,   984.343E+03
C:/temp/Job-3.odb,Step-1,Increment      1: Step Time =    1.000,"P-3-1",          1446,       28.8821,       178.498,            0.,NA,NA,"",   1.01755E+06,   1.04343E+06,   1.04343E+06
C:/temp/Job-3.odb,Step-1,Increment      1: Step Time =    1.000,"P-3-1",          1447,       119.047,       54.9810,            0.,NA,NA,"",   1.00910E+06,   1.00944E+06,   1.00944E+06
C:/temp/Job-3.odb,Step-1,Increment      1: Step Time =    1.000,"P-3-1",          1448,       178.498,       98.3527,            0.,NA,NA,"",   1.00800E+06,   1.00164E+06,   1.00164E+06
C:/temp/Job-3.odb,Step-1,Increment      1: Step Time =    1.000,"P-3-1",          1449,       98.0236,       21.3535,            0.,NA,NA,"",   980.656E+03,   981.271E+03,   981.271E+03
C:/temp/Job-3.odb,Step-1,Increment      1: Step Time =    1.000,"P-3-1",          1450,       101.352,       180.710,            0.,NA,NA,"",   978.463E+03,   978.775E+03,   978.775E+03
C:/temp/Job-3.odb,Step-1,Increment      1: Step Time =    1.000,"P-3-1",          1451,       19.2889,       99.8401,            0.,NA,NA,"",   873.987E+03,   962.361E+03,   962.361E+03
C:/temp/Job-3.odb,Step-1,Increment      1: Step Time =    1.000,"P-3-1",          1452,       177.552,       67.3785,            0.,NA,NA,"",   1.00676E+06,   1.00151E+06,   1.00151E+06
C:/temp/Job-3.odb,Step-1,Increment      1: Step Time =    1.000,"P-3-1",          1453,       22.2258,       132.711,            0.,NA,NA,"",   899.094E+03,   979.446E+03,   979.446E+03
C:/temp/Job-3.odb,Step-1,Increment      1: Step Time =    1.000,"P-3-1",          1454,       99.4893,       144.281,            0.,NA,NA,"",   1.00716E+06,   1.01272E+06,   1.01272E+06
C:/temp/Job-3.odb,Step-1,Increment      1: Step Time =    1.000,"P-3-1",          1455,       81.5890,       151.276,            0.,NA,NA,"",   1.00333E+06,   1.01263E+06,   1.01263E+06
C:/temp/Job-3.odb,Step-1,Increment      1: Step Time =    1.000,"P-3-1",          1456,       69.1824,       65.7870,            0.,NA,NA,"",   997.287E+03,   1.01930E+06,   1.01930E+06
C:/temp/Job-3.odb,Step-1,Increment      1: Step Time =    1.000,"P-3-1",          1457,       88.1134,       20.0381,            0.,NA,NA,"",   977.345E+03,   978.376E+03,   978.376E+03
C:/temp/Job-3.odb,Step-1,Increment      1: Step Time =    1.000,"P-3-1",          1458,       180.372,       88.5896,            0.,NA,NA,"",   1.00789E+06,   1.00137E+06,   1.00137E+06
C:/temp/Job-3.odb,Step-1,Increment      1: Step Time =    1.000,"P-3-1",          1459,       111.109,       180.297,            0.,NA,NA,"",   981.470E+03,   981.452E+03,   981.452E+03
C:/temp/Job-3.odb,Step-1,Increment      1: Step Time =    1.000,"P-3-1",          1460,       19.9807,       109.220,            0.,NA,NA,"",   877.189E+03,   964.436E+03,   964.436E+03
C:/temp/Job-3.odb,Step-1,Increment      1: Step Time =    1.000,"P-3-1",          1461,       75.3205,       58.4449,            0.,NA,NA,"",   1.00301E+06,   1.01844E+06,   1.01844E+06
C:/temp/Job-3.odb,Step-1,Increment      1: Step Time =    1.000,"P-3-1",          1462,       45.1308,       110.685,            0.,NA,NA,"",   943.704E+03,   998.267E+03,   998.267E+03
C:/temp/Job-3.odb,Step-1,Increment      1: Step Time =    1.000,"P-3-1",          1463,       148.507,       90.4345,            0.,NA,NA,"",   1.00933E+06,   1.00635E+06,   1.00635E+06
C:/temp/Job-3.odb,Step-1,Increment      1: Step Time =    1.000,"P-3-1",          1464,       142.204,       68.4270,            0.,NA,NA,"",   1.01146E+06,   1.00846E+06,   1.00846E+06
C:/temp/Job-3.odb,Step-1,Increment      1: Step Time =    1.000,"P-3-1",          1465,       179.828,       80.8207,            0.,NA,NA,"",   1.00762E+06,   1.00139E+06,   1.00139E+06
C:/temp/Job-3.odb,Step-1,Increment      1: Step Time =    1.000,"P-3-1",          1466,       43.8161,       130.633,            0.,NA,NA,"",   952.982E+03,   1.00427E+06,   1.00427E+06
C:/temp/Job-3.odb,Step-1,Increment      1: Step Time =    1.000,"P-3-1",          1467,       19.9902,       119.520,            0.,NA,NA,"",   881.402E+03,   967.688E+03,   967.688E+03
C:/temp/Job-3.odb,Step-1,Increment      1: Step Time =    1.000,"P-3-1",          1468,       142.973,       80.0100,            0.,NA,NA,"",   1.01142E+06,   1.00850E+06,   1.00850E+06
C:/temp/Job-3.odb,Step-1,Increment      1: Step Time =    1.000,"P-3-1",          1469,       88.8073,       179.293,            0.,NA,NA,"",   978.726E+03,   979.768E+03,   979.768E+03
C:/temp/Job-3.odb,Step-1,Increment      1: Step Time =    1.000,"P-3-1",          1470,       18.7707,       65.8348,            0.,NA,NA,"",   890.006E+03,   974.965E+03,   974.965E+03
C:/temp/Job-3.odb,Step-1,Increment      1: Step Time =    1.000,"P-3-1",          1471,       180.758,       135.895,            0.,NA,NA,"",   1.00637E+06,   1.00104E+06,   1.00104E+06
C:/temp/Job-3.odb,Step-1,Increment      1: Step Time =    1.000,"P-3-1",          1472,       135.246,       20.0119,            0.,NA,NA,"",   988.987E+03,   988.395E+03,   988.395E+03
C:/temp/Job-3.odb,Step-1,Increment      1: Step Time =    1.000,"P-3-1",          1473,       65.9497,       178.844,            0.,NA,NA,"",   981.580E+03,   985.586E+03,   985.586E+03
C:/temp/Job-3.odb,Step-1,Increment      1: Step Time =    1.000,"P-3-1",          1474,       20.2551,       170.352,            0.,NA,NA,"",   983.009E+03,   1.04025E+06,   1.04025E+06
C:/temp/Job-3.odb,Step-1,Increment      1: Step Time =    1.000,"P-3-1",          1475,       105.736,       22.5366,            0.,NA,NA,"",   983.584E+03,   983.851E+03,   983.851E+03
C:/temp/Job-3.odb,Step-1,Increment      1: Step Time =    1.000,"P-3-1",          1476,       176.484,       106.949,            0.,NA,NA,"",   1.00792E+06,   1.00188E+06,   1.00188E+06
C:/temp/Job-3.odb,Step-1,Increment      1: Step Time =    1.000,"P-3-1",          1477,       35.0217,       20.6335,            0.,NA,NA,"",   1.01090E+06,   1.02842E+06,   1.02842E+06
C:/temp/Job-3.odb,Step-1,Increment      1: Step Time =    1.000,"P-3-1",          1478,       165.460,       178.529,            0.,NA,NA,"",   996.859E+03,   995.835E+03,   995.835E+03
C:/temp/Job-3.odb,Step-1,Increment      1: Step Time =    1.000,"P-3-1",          1479,       176.818,       34.4598,            0.,NA,NA,"",   1.00141E+06,   999.033E+03,   999.033E+03
C:/temp/Job-3.odb,Step-1,Increment      1: Step Time =    1.000,"P-3-1",          1480,       19.4799,       79.1504,            0.,NA,NA,"",   880.661E+03,   967.379E+03,   967.379E+03
C:/temp/Job-3.odb,Step-1,Increment      1: Step Time =    1.000,"P-3-1",          1481,       179.853,       122.128,            0.,NA,NA,"",   1.00753E+06,   1.00146E+06,   1.00146E+06
C:/temp/Job-3.odb,Step-1,Increment      1: Step Time =    1.000,"P-3-1",          1482,       27.5670,       24.5606,            0.,NA,NA,"",   1.01061E+06,   1.04391E+06,   1.04391E+06
C:/temp/Job-3.odb,Step-1,Increment      1: Step Time =    1.000,"P-3-1",          1483,       172.941,       174.470,            0.,NA,NA,"",   999.058E+03,   997.581E+03,   997.581E+03
C:/temp/Job-3.odb,Step-1,Increment      1: Step Time =    1.000,"P-3-1",          1484,       155.232,       181.746,            0.,NA,NA,"",   993.720E+03,   993.010E+03,   993.010E+03
C:/temp/Job-3.odb,Step-1,Increment      1: Step Time =    1.000,"P-3-1",          1485,       181.012,       154.388,            0.,NA,NA,"",   1.00374E+06,   1.00010E+06,   1.00010E+06
C:/temp/Job-3.odb,Step-1,Increment      1: Step Time =    1.000,"P-3-1",          1486,       20.1779,       46.2348,            0.,NA,NA,"",   926.650E+03,   1.00093E+06,   1.00093E+06
C:/temp/Job-3.odb,Step-1,Increment      1: Step Time =    1.000,"P-3-1",          1487,       44.4268,       18.2936,            0.,NA,NA,"",   993.683E+03,   1.00248E+06,   1.00248E+06
C:/temp/Job-3.odb,Step-1,Increment      1: Step Time =    1.000,"P-3-1",          1488,       66.0861,       69.9857,            0.,NA,NA,"",   992.264E+03,   1.01818E+06,   1.01818E+06
C:/temp/Job-3.odb,Step-1,Increment      1: Step Time =    1.000,"P-3-1",          1489,       120.461,       133.705,            0.,NA,NA,"",   1.01607E+06,   1.01614E+06,   1.01614E+06
C:/temp/Job-3.odb,Step-1,Increment      1: Step Time =    1.000,"P-3-1",          1490,       95.9660,       47.5723,            0.,NA,NA,"",   1.00365E+06,   1.00838E+06,   1.00838E+06
C:/temp/Job-3.odb,Step-1,Increment      1: Step Time =    1.000,"P-3-1",          1491,       86.4409,       148.978,            0.,NA,NA,"",   1.00461E+06,   1.01286E+06,   1.01286E+06
C:/temp/Job-3.odb,Step-1,Increment      1: Step Time =    1.000,"P-3-1",          1492,       173.664,       29.1350,            0.,NA,NA,"",   999.953E+03,   998.135E+03,   998.135E+03
C:/temp/Job-3.odb,Step-1,Increment      1: Step Time =    1.000,"P-3-1",          1493,       138.405,       59.1807,            0.,NA,NA,"",   1.00996E+06,   1.00749E+06,   1.00749E+06
C:/temp/Job-3.odb,Step-1,Increment      1: Step Time =    1.000,"P-3-1",          1494,       142.684,       111.874,            0.,NA,NA,"",   1.00995E+06,   1.00746E+06,   1.00746E+06
C:/temp/Job-3.odb,Step-1,Increment      1: Step Time =    1.000,"P-3-1",          1495,       149.549,       19.1066,            0.,NA,NA,"",   992.450E+03,   991.758E+03,   991.758E+03
C:/temp/Job-3.odb,Step-1,Increment      1: Step Time =    1.000,"P-3-1",          1496,       180.632,       48.7307,            0.,NA,NA,"",   1.00423E+06,   1.00029E+06,   1.00029E+06
C:/temp/Job-3.odb,Step-1,Increment      1: Step Time =    1.000,"P-3-1",          1497,       88.6992,       145.944,            0.,NA,NA,"",   1.00576E+06,   1.01407E+06,   1.01407E+06
C:/temp/Job-3.odb,Step-1,Increment      1: Step Time =    1.000,"P-3-1",          1498,       30.7937,       29.8531,            0.,NA,NA,"",   996.257E+03,   1.03262E+06,   1.03262E+06
C:/temp/Job-3.odb,Step-1,Increment      1: Step Time =    1.000,"P-3-1",          1499,       172.244,       169.728,            0.,NA,NA,"",   1.00001E+06,   998.121E+03,   998.121E+03
C:/temp/Job-3.odb,Step-1,Increment      1: Step Time =    1.000,"P-3-1",          1500,       153.828,       24.2688,            0.,NA,NA,"",   995.518E+03,   994.426E+03,   994.426E+03
C:/temp/Job-3.odb,Step-1,Increment      1: Step Time =    1.000,"P-3-1",          1501,       175.848,       43.6203,            0.,NA,NA,"",   1.00320E+06,   999.957E+03,   999.957E+03
C:/temp/Job-3.odb,Step-1,Increment      1: Step Time =    1.000,"P-3-1",          1502,       38.1187,       131.280,            0.,NA,NA,"",   940.818E+03,   999.250E+03,   999.250E+03
C:/temp/Job-3.odb,Step-1,Increment      1: Step Time =    1.000,"P-3-1",          1503,       41.5039,       139.598,            0.,NA,NA,"",   957.892E+03,   1.00774E+06,   1.00774E+06
C:/temp/Job-3.odb,Step-1,Increment      1: Step Time =    1.000,"P-3-1",          1504,       106.376,       142.943,            0.,NA,NA,"",   1.00841E+06,   1.01225E+06,   1.01225E+06
C:/temp/Job-3.odb,Step-1,Increment      1: Step Time =    1.000,"P-3-1",          1505,       110.980,       141.604,            0.,NA,NA,"",   1.00987E+06,   1.01248E+06,   1.01248E+06
C:/temp/Job-3.odb,Step-1,Increment      1: Step Time =    1.000,"P-3-1",          1506,       94.7655,       143.692,            0.,NA,NA,"",   1.00697E+06,   1.01401E+06,   1.01401E+06
C:/temp/Job-3.odb,Step-1,Increment      1: Step Time =    1.000,"P-3-1",          1507,       153.476,       91.7694,            0.,NA,NA,"",   1.00892E+06,   1.00543E+06,   1.00543E+06
C:/temp/Job-3.odb,Step-1,Increment      1: Step Time =    1.000,"P-3-1",          1508,       147.912,       110.319,            0.,NA,NA,"",   1.00946E+06,   1.00650E+06,   1.00650E+06
C:/temp/Job-3.odb,Step-1,Increment      1: Step Time =    1.000,"P-3-1",          1509,       63.7216,       78.9310,            0.,NA,NA,"",   984.233E+03,   1.01507E+06,   1.01507E+06
C:/temp/Job-3.odb,Step-1,Increment      1: Step Time =    1.000,"P-3-1",          1510,       103.420,       44.1617,            0.,NA,NA,"",   1.00188E+06,   1.00451E+06,   1.00451E+06
C:/temp/Job-3.odb,Step-1,Increment      1: Step Time =    1.000,"P-3-1",          1511,       115.166,       139.795,            0.,NA,NA,"",   1.01135E+06,   1.01284E+06,   1.01284E+06
C:/temp/Job-3.odb,Step-1,Increment      1: Step Time =    1.000,"P-3-1",          1512,       48.6352,       143.953,            0.,NA,NA,"",   976.156E+03,   1.01413E+06,   1.01413E+06
C:/temp/Job-3.odb,Step-1,Increment      1: Step Time =    1.000,"P-3-1",          1513,       67.2750,       152.449,            0.,NA,NA,"",   998.955E+03,   1.01481E+06,   1.01481E+06
C:/temp/Job-3.odb,Step-1,Increment      1: Step Time =    1.000,"P-3-1",          1514,       129.139,       124.832,            0.,NA,NA,"",   1.01640E+06,   1.01438E+06,   1.01438E+06
C:/temp/Job-3.odb,Step-1,Increment      1: Step Time =    1.000,"P-3-1",          1515,       134.618,       119.473,            0.,NA,NA,"",   1.01346E+06,   1.01120E+06,   1.01120E+06
C:/temp/Job-3.odb,Step-1,Increment      1: Step Time =    1.000,"P-3-1",          1516,       65.9247,       146.620,            0.,NA,NA,"",   997.647E+03,   1.01708E+06,   1.01708E+06
C:/temp/Job-3.odb,Step-1,Increment      1: Step Time =    1.000,"P-3-1",          1517,       35.7676,       122.400,            0.,NA,NA,"",   927.046E+03,   991.746E+03,   991.746E+03
C:/temp/Job-3.odb,Step-1,Increment      1: Step Time =    1.000,"P-3-1",          1518,       154.841,       94.3771,            0.,NA,NA,"",   1.00878E+06,   1.00516E+06,   1.00516E+06
C:/temp/Job-3.odb,Step-1,Increment      1: Step Time =    1.000,"P-3-1",          1519,       110.669,       42.6773,            0.,NA,NA,"",   1.00148E+06,   1.00257E+06,   1.00257E+06
C:/temp/Job-3.odb,Step-1,Increment      1: Step Time =    1.000,"P-3-1",          1520,       41.3735,       109.641,            0.,NA,NA,"",   933.716E+03,   993.794E+03,   993.794E+03
C:/temp/Job-3.odb,Step-1,Increment      1: Step Time =    1.000,"P-3-1",          1521,       145.547,       69.5335,            0.,NA,NA,"",   1.01084E+06,   1.00761E+06,   1.00761E+06
C:/temp/Job-3.odb,Step-1,Increment      1: Step Time =    1.000,"P-3-1",          1522,       143.472,       76.5097,            0.,NA,NA,"",   1.01176E+06,   1.00872E+06,   1.00872E+06
C:/temp/Job-3.odb,Step-1,Increment      1: Step Time =    1.000,"P-3-1",          1523,       55.0406,       190.810,            0.,NA,NA,"",   957.661E+03,   959.021E+03,   959.021E+03
C:/temp/Job-3.odb,Step-1,Increment      1: Step Time =    1.000,"P-3-1",          1524,       24.1656,       104.055,            0.,NA,NA,"",   887.973E+03,   970.337E+03,   970.337E+03
C:/temp/Job-3.odb,Step-1,Increment      1: Step Time =    1.000,"P-3-1",          1525,       128.744,       57.9521,            0.,NA,NA,"",   1.01073E+06,   1.00931E+06,   1.00931E+06
C:/temp/Job-3.odb,Step-1,Increment      1: Step Time =    1.000,"P-3-1",          1526,       106.322,       175.681,            0.,NA,NA,"",   985.404E+03,   985.724E+03,   985.724E+03
C:/temp/Job-3.odb,Step-1,Increment      1: Step Time =    1.000,"P-3-1",          1527,       144.911,       9.50492,            0.,NA,NA,"",   987.086E+03,   986.884E+03,   986.884E+03
C:/temp/Job-3.odb,Step-1,Increment      1: Step Time =    1.000,"P-3-1",          1528,       92.9637,       28.7740,            0.,NA,NA,"",   989.011E+03,   990.767E+03,   990.767E+03
C:/temp/Job-3.odb,Step-1,Increment      1: Step Time =    1.000,"P-3-1",          1529,       171.825,       92.6980,            0.,NA,NA,"",   1.00801E+06,   1.00255E+06,   1.00255E+06
C:/temp/Job-3.odb,Step-1,Increment      1: Step Time =    1.000,"P-3-1",          1530,       190.593,       145.037,            0.,NA,NA,"",   1.00550E+06,   1.00018E+06,   1.00018E+06
C:/temp/Job-3.odb,Step-1,Increment      1: Step Time =    1.000,"P-3-1",          1531,       9.73118,       55.5145,            0.,NA,NA,"",   874.506E+03,   969.324E+03,   969.324E+03
C:/temp/Job-3.odb,Step-1,Increment      1: Step Time =    1.000,"P-3-1",          1532,       86.4013,       172.656,            0.,NA,NA,"",   987.128E+03,   989.323E+03,   989.323E+03
C:/temp/Job-3.odb,Step-1,Increment      1: Step Time =    1.000,"P-3-1",          1533,       24.1470,       116.552,            0.,NA,NA,"",   891.837E+03,   973.229E+03,   973.229E+03
C:/temp/Job-3.odb,Step-1,Increment      1: Step Time =    1.000,"P-3-1",          1534,       115.472,       26.6824,            0.,NA,NA,"",   989.321E+03,   989.226E+03,   989.226E+03
C:/temp/Job-3.odb,Step-1,Increment      1: Step Time =    1.000,"P-3-1",          1535,       96.9859,       176.276,            0.,NA,NA,"",   983.547E+03,   984.431E+03,   984.431E+03
C:/temp/Job-3.odb,Step-1,Increment      1: Step Time =    1.000,"P-3-1",          1536,       171.165,       86.6532,            0.,NA,NA,"",   1.00800E+06,   1.00270E+06,   1.00270E+06
C:/temp/Job-3.odb,Step-1,Increment      1: Step Time =    1.000,"P-3-1",          1537,       116.247,       174.937,            0.,NA,NA,"",   987.961E+03,   987.820E+03,   987.820E+03
C:/temp/Job-3.odb,Step-1,Increment      1: Step Time =    1.000,"P-3-1",          1538,       173.497,       115.239,            0.,NA,NA,"",   1.00781E+06,   1.00223E+06,   1.00223E+06
C:/temp/Job-3.odb,Step-1,Increment      1: Step Time =    1.000,"P-3-1",          1539,       25.1787,       86.2954,            0.,NA,NA,"",   892.995E+03,   973.557E+03,   973.557E+03
C:/temp/Job-3.odb,Step-1,Increment      1: Step Time =    1.000,"P-3-1",          1540,       172.928,       103.276,            0.,NA,NA,"",   1.00799E+06,   1.00237E+06,   1.00237E+06
C:/temp/Job-3.odb,Step-1,Increment      1: Step Time =    1.000,"P-3-1",          1541,       58.5309,       173.668,            0.,NA,NA,"",   992.045E+03,   1.00064E+06,   1.00064E+06
C:/temp/Job-3.odb,Step-1,Increment      1: Step Time =    1.000,"P-3-1",          1542,       24.0750,       95.1990,            0.,NA,NA,"",   887.586E+03,   970.148E+03,   970.148E+03
C:/temp/Job-3.odb,Step-1,Increment      1: Step Time =    1.000,"P-3-1",          1543,       84.3936,       27.7315,            0.,NA,NA,"",   988.203E+03,   990.853E+03,   990.853E+03
C:/temp/Job-3.odb,Step-1,Increment      1: Step Time =    1.000,"P-3-1",          1544,       102.922,       25.8591,            0.,NA,NA,"",   986.716E+03,   987.302E+03,   987.302E+03
C:/temp/Job-3.odb,Step-1,Increment      1: Step Time =    1.000,"P-3-1",          1545,       78.2113,       55.4883,            0.,NA,NA,"",   1.00409E+06,   1.01703E+06,   1.01703E+06
C:/temp/Job-3.odb,Step-1,Increment      1: Step Time =    1.000,"P-3-1",          1546,       26.9470,       138.998,            0.,NA,NA,"",   920.903E+03,   992.109E+03,   992.109E+03
C:/temp/Job-3.odb,Step-1,Increment      1: Step Time =    1.000,"P-3-1",          1547,       75.0664,       170.520,            0.,NA,NA,"",   991.203E+03,   996.186E+03,   996.186E+03
C:/temp/Job-3.odb,Step-1,Increment      1: Step Time =    1.000,"P-3-1",          1548,       25.7395,       127.272,            0.,NA,NA,"",   903.971E+03,   980.975E+03,   980.975E+03
C:/temp/Job-3.odb,Step-1,Increment      1: Step Time =    1.000,"P-3-1",          1549,       175.069,       60.7378,            0.,NA,NA,"",   1.00602E+06,   1.00143E+06,   1.00143E+06
C:/temp/Job-3.odb,Step-1,Increment      1: Step Time =    1.000,"P-3-1",          1550,       173.738,       72.5197,            0.,NA,NA,"",   1.00731E+06,   1.00212E+06,   1.00212E+06
C:/temp/Job-3.odb,Step-1,Increment      1: Step Time =    1.000,"P-3-1",          1551,       85.7325,       152.689,            0.,NA,NA,"",   1.00311E+06,   1.01053E+06,   1.01053E+06
C:/temp/Job-3.odb,Step-1,Increment      1: Step Time =    1.000,"P-3-1",          1552,       137.206,       170.461,            0.,NA,NA,"",   995.298E+03,   994.219E+03,   994.219E+03
C:/temp/Job-3.odb,Step-1,Increment      1: Step Time =    1.000,"P-3-1",          1553,       171.437,       136.864,            0.,NA,NA,"",   1.00657E+06,   1.00204E+06,   1.00204E+06
C:/temp/Job-3.odb,Step-1,Increment      1: Step Time =    1.000,"P-3-1",          1554,       28.7350,       62.8412,            0.,NA,NA,"",   923.023E+03,   992.518E+03,   992.518E+03
C:/temp/Job-3.odb,Step-1,Increment      1: Step Time =    1.000,"P-3-1",          1555,       59.9147,       25.5099,            0.,NA,NA,"",   990.609E+03,   997.884E+03,   997.884E+03
C:/temp/Job-3.odb,Step-1,Increment      1: Step Time =    1.000,"P-3-1",          1556,       126.473,       174.764,            0.,NA,NA,"",   990.307E+03,   989.759E+03,   989.759E+03
C:/temp/Job-3.odb,Step-1,Increment      1: Step Time =    1.000,"P-3-1",          1557,       174.252,       126.795,            0.,NA,NA,"",   1.00738E+06,   1.00210E+06,   1.00210E+06
C:/temp/Job-3.odb,Step-1,Increment      1: Step Time =    1.000,"P-3-1",          1558,       27.4967,       70.9955,            0.,NA,NA,"",   909.963E+03,   984.376E+03,   984.376E+03
C:/temp/Job-3.odb,Step-1,Increment      1: Step Time =    1.000,"P-3-1",          1559,       77.8893,       24.3748,            0.,NA,NA,"",   984.385E+03,   987.228E+03,   987.228E+03
C:/temp/Job-3.odb,Step-1,Increment      1: Step Time =    1.000,"P-3-1",          1560,       30.5935,       172.644,            0.,NA,NA,"",   1.00346E+06,   1.03628E+06,   1.03628E+06
C:/temp/Job-3.odb,Step-1,Increment      1: Step Time =    1.000,"P-3-1",          1561,       24.4075,       171.021,            0.,NA,NA,"",   993.154E+03,   1.04017E+06,   1.04017E+06
C:/temp/Job-3.odb,Step-1,Increment      1: Step Time =    1.000,"P-3-1",          1562,       142.825,       61.4240,            0.,NA,NA,"",   1.00982E+06,   1.00695E+06,   1.00695E+06
C:/temp/Job-3.odb,Step-1,Increment      1: Step Time =    1.000,"P-3-1",          1563,       68.8065,       60.5122,            0.,NA,NA,"",   998.229E+03,   1.01866E+06,   1.01866E+06
C:/temp/Job-3.odb,Step-1,Increment      1: Step Time =    1.000,"P-3-1",          1564,       50.4245,       186.421,            0.,NA,NA,"",   975.428E+03,   979.118E+03,   979.118E+03
C:/temp/Job-3.odb,Step-1,Increment      1: Step Time =    1.000,"P-3-1",          1565,       13.4286,       149.970,            0.,NA,NA,"",   895.826E+03,   983.732E+03,   983.732E+03
C:/temp/Job-3.odb,Step-1,Increment      1: Step Time =    1.000,"P-3-1",          1566,       146.040,       80.0642,            0.,NA,NA,"",   1.01084E+06,   1.00773E+06,   1.00773E+06
C:/temp/Job-3.odb,Step-1,Increment      1: Step Time =    1.000,"P-3-1",          1567,       149.686,       14.3071,            0.,NA,NA,"",   990.654E+03,   990.229E+03,   990.229E+03
C:/temp/Job-3.odb,Step-1,Increment      1: Step Time =    1.000,"P-3-1",          1568,       185.378,       49.1969,            0.,NA,NA,"",   1.00443E+06,   1.00018E+06,   1.00018E+06
C:/temp/Job-3.odb,Step-1,Increment      1: Step Time =    1.000,"P-3-1",          1569,       72.2206,       56.2893,            0.,NA,NA,"",   1.00137E+06,   1.01776E+06,   1.01776E+06
C:/temp/Job-3.odb,Step-1,Increment      1: Step Time =    1.000,"P-3-1",          1570,       150.215,       186.026,            0.,NA,NA,"",   990.763E+03,   990.338E+03,   990.338E+03
C:/temp/Job-3.odb,Step-1,Increment      1: Step Time =    1.000,"P-3-1",          1571,       185.830,       149.825,            0.,NA,NA,"",   1.00461E+06,   1.00022E+06,   1.00022E+06
C:/temp/Job-3.odb,Step-1,Increment      1: Step Time =    1.000,"P-3-1",          1572,       15.0913,       51.0428,            0.,NA,NA,"",   899.762E+03,   985.336E+03,   985.336E+03
C:/temp/Job-3.odb,Step-1,Increment      1: Step Time =    1.000,"P-3-1",          1573,       49.5088,       14.0421,            0.,NA,NA,"",   977.958E+03,    982.02E+03,    982.02E+03
C:/temp/Job-3.odb,Step-1,Increment      1: Step Time =    1.000,"P-3-1",          1574,       124.576,       131.380,            0.,NA,NA,"",   1.01606E+06,   1.01495E+06,   1.01495E+06
C:/temp/Job-3.odb,Step-1,Increment      1: Step Time =    1.000,"P-3-1",          1575,       132.809,       56.7244,            0.,NA,NA,"",   1.00979E+06,   1.00790E+06,   1.00790E+06
C:/temp/Job-3.odb,Step-1,Increment      1: Step Time =    1.000,"P-3-1",          1576,       169.817,       27.5113,            0.,NA,NA,"",   999.073E+03,   997.471E+03,   997.471E+03
C:/temp/Job-3.odb,Step-1,Increment      1: Step Time =    1.000,"P-3-1",          1577,       169.756,       171.360,            0.,NA,NA,"",   999.365E+03,   997.648E+03,   997.648E+03
C:/temp/Job-3.odb,Step-1,Increment      1: Step Time =    1.000,"P-3-1",          1578,       172.002,       166.727,            0.,NA,NA,"",   1.00065E+06,   998.512E+03,   998.512E+03
C:/temp/Job-3.odb,Step-1,Increment      1: Step Time =    1.000,"P-3-1",          1579,       30.0963,       33.6162,            0.,NA,NA,"",   985.983E+03,   1.02865E+06,   1.02865E+06
C:/temp/Job-3.odb,Step-1,Increment      1: Step Time =    1.000,"P-3-1",          1580,       31.7949,       26.4489,            0.,NA,NA,"",   1.00343E+06,   1.03387E+06,   1.03387E+06
C:/temp/Job-3.odb,Step-1,Increment      1: Step Time =    1.000,"P-3-1",          1581,       60.3114,       86.0219,            0.,NA,NA,"",   974.215E+03,   1.01038E+06,   1.01038E+06
C:/temp/Job-3.odb,Step-1,Increment      1: Step Time =    1.000,"P-3-1",          1582,       155.672,       177.389,            0.,NA,NA,"",   995.264E+03,   994.258E+03,   994.258E+03
C:/temp/Job-3.odb,Step-1,Increment      1: Step Time =    1.000,"P-3-1",          1583,       176.148,       154.335,            0.,NA,NA,"",   1.00361E+06,   1.00017E+06,   1.00017E+06
C:/temp/Job-3.odb,Step-1,Increment      1: Step Time =    1.000,"P-3-1",          1584,       25.0694,       46.0775,            0.,NA,NA,"",   942.151E+03,   1.00737E+06,   1.00737E+06
C:/temp/Job-3.odb,Step-1,Increment      1: Step Time =    1.000,"P-3-1",          1585,       43.9584,       22.8691,            0.,NA,NA,"",   998.310E+03,   1.01187E+06,   1.01187E+06
C:/temp/Job-3.odb,Step-1,Increment      1: Step Time =    1.000,"P-3-1",          1586,       158.118,       29.6047,            0.,NA,NA,"",   998.171E+03,   996.606E+03,   996.606E+03
C:/temp/Job-3.odb,Step-1,Increment      1: Step Time =    1.000,"P-3-1",          1587,       176.228,       38.9664,            0.,NA,NA,"",   1.00229E+06,   999.484E+03,   999.484E+03
C:/temp/Job-3.odb,Step-1,Increment      1: Step Time =    1.000,"P-3-1",          1588,       77.0088,       155.811,            0.,NA,NA,"",   1.00113E+06,   1.01073E+06,   1.01073E+06
C:/temp/Job-3.odb,Step-1,Increment      1: Step Time =    1.000,"P-3-1",          1589,       160.740,       173.622,            0.,NA,NA,"",   997.486E+03,   996.122E+03,   996.122E+03
C:/temp/Job-3.odb,Step-1,Increment      1: Step Time =    1.000,"P-3-1",          1590,       176.219,       158.708,            0.,NA,NA,"",   1.00276E+06,   999.737E+03,   999.737E+03
C:/temp/Job-3.odb,Step-1,Increment      1: Step Time =    1.000,"P-3-1",          1591,       24.9723,       41.6265,            0.,NA,NA,"",   952.735E+03,   1.01449E+06,   1.01449E+06
C:/temp/Job-3.odb,Step-1,Increment      1: Step Time =    1.000,"P-3-1",          1592,       39.0648,       22.6178,            0.,NA,NA,"",   1.00402E+06,   1.02117E+06,   1.02117E+06
C:/temp/Job-3.odb,Step-1,Increment      1: Step Time =    1.000,"P-3-1",          1593,       36.4231,       117.537,            0.,NA,NA,"",   925.781E+03,   990.662E+03,   990.662E+03
C:/temp/Job-3.odb,Step-1,Increment      1: Step Time =    1.000,"P-3-1",          1594,       57.9825,       152.143,            0.,NA,NA,"",   993.569E+03,   1.01641E+06,   1.01641E+06
C:/temp/Job-3.odb,Step-1,Increment      1: Step Time =    1.000,"P-3-1",          1595,       41.1514,       133.645,            0.,NA,NA,"",   950.200E+03,   1.00361E+06,   1.00361E+06
C:/temp/Job-3.odb,Step-1,Increment      1: Step Time =    1.000,"P-3-1",          1596,       152.821,       103.378,            0.,NA,NA,"",   1.00875E+06,   1.00540E+06,   1.00540E+06
C:/temp/Job-3.odb,Step-1,Increment      1: Step Time =    1.000,"P-3-1",          1597,       92.4559,       56.7585,            0.,NA,NA,"",   1.00701E+06,   1.01478E+06,   1.01478E+06
C:/temp/Job-3.odb,Step-1,Increment      1: Step Time =    1.000,"P-3-1",          1598,       151.822,       88.6792,            0.,NA,NA,"",   1.00925E+06,   1.00585E+06,   1.00585E+06
C:/temp/Job-3.odb,Step-1,Increment      1: Step Time =    1.000,"P-3-1",          1599,       10.0466,       140.080,            0.,NA,NA,"",   869.712E+03,   964.919E+03,   964.919E+03
C:/temp/Job-3.odb,Step-1,Increment      1: Step Time =    1.000,"P-3-1",          1600,       189.870,       54.5843,            0.,NA,NA,"",   1.00538E+06,   1.00019E+06,   1.00019E+06
C:/temp/Job-3.odb,Step-1,Increment      1: Step Time =    1.000,"P-3-1",          1601,       145.190,       190.554,            0.,NA,NA,"",   987.162E+03,   986.956E+03,   986.956E+03
C:/temp/Job-3.odb,Step-1,Increment      1: Step Time =    1.000,"P-3-1",          1602,       59.8065,       10.0896,            0.,NA,NA,"",   958.161E+03,   959.439E+03,   959.439E+03
C:/temp/Job-3.odb,Step-1,Increment      1: Step Time =    1.000,"P-3-1",          1603,       128.669,       128.479,            0.,NA,NA,"",   1.01589E+06,   1.01402E+06,   1.01402E+06
C:/temp/Job-3.odb,Step-1,Increment      1: Step Time =    1.000,"P-3-1",          1604,       38.4252,       136.651,            0.,NA,NA,"",   947.255E+03,   1.00295E+06,   1.00295E+06
C:/temp/Job-3.odb,Step-1,Increment      1: Step Time =    1.000,"P-3-1",          1605,       138.872,       120.352,            0.,NA,NA,"",   1.01269E+06,   1.01004E+06,   1.01004E+06
C:/temp/Job-3.odb,Step-1,Increment      1: Step Time =    1.000,"P-3-1",          1606,       58.7127,       83.1178,            0.,NA,NA,"",   973.527E+03,   1.01059E+06,   1.01059E+06
C:/temp/Job-3.odb,Step-1,Increment      1: Step Time =    1.000,"P-3-1",          1607,       87.5285,       53.3557,            0.,NA,NA,"",   1.00540E+06,   1.01404E+06,   1.01404E+06
C:/temp/Job-3.odb,Step-1,Increment      1: Step Time =    1.000,"P-3-1",          1608,       156.859,       90.3381,            0.,NA,NA,"",   1.00875E+06,   1.00488E+06,   1.00488E+06
C:/temp/Job-3.odb,Step-1,Increment      1: Step Time =    1.000,"P-3-1",          1609,       145.486,       64.8911,            0.,NA,NA,"",   1.01017E+06,   1.00706E+06,   1.00706E+06
C:/temp/Job-3.odb,Step-1,Increment      1: Step Time =    1.000,"P-3-1",          1610,       38.1249,       141.040,            0.,NA,NA,"",   952.266E+03,   1.00599E+06,   1.00599E+06
C:/temp/Job-3.odb,Step-1,Increment      1: Step Time =    1.000,"P-3-1",          1611,       40.1525,       105.216,            0.,NA,NA,"",   929.703E+03,   991.708E+03,   991.708E+03
C:/temp/Job-3.odb,Step-1,Increment      1: Step Time =    1.000,"P-3-1",          1612,       61.7373,       67.9519,            0.,NA,NA,"",   987.038E+03,   1.01654E+06,   1.01654E+06
C:/temp/Job-3.odb,Step-1,Increment      1: Step Time =    1.000,"P-3-1",          1613,       39.4310,       99.5251,            0.,NA,NA,"",   927.834E+03,   990.734E+03,   990.734E+03
C:/temp/Job-3.odb,Step-1,Increment      1: Step Time =    1.000,"P-3-1",          1614,       109.497,       145.105,            0.,NA,NA,"",   1.00807E+06,   1.01071E+06,   1.01071E+06
C:/temp/Job-3.odb,Step-1,Increment      1: Step Time =    1.000,"P-3-1",          1615,       109.548,       38.0724,            0.,NA,NA,"",      998.E+03,   998.918E+03,   998.918E+03
C:/temp/Job-3.odb,Step-1,Increment      1: Step Time =    1.000,"P-3-1",          1616,       133.015,       125.937,            0.,NA,NA,"",   1.01472E+06,   1.01229E+06,   1.01229E+06
C:/temp/Job-3.odb,Step-1,Increment      1: Step Time =    1.000,"P-3-1",          1617,       137.737,       123.879,            0.,NA,NA,"",   1.01324E+06,   1.01055E+06,   1.01055E+06
C:/temp/Job-3.odb,Step-1,Increment      1: Step Time =    1.000,"P-3-1",          1618,       92.0223,       51.2611,            0.,NA,NA,"",   1.00499E+06,   1.01160E+06,   1.01160E+06
C:/temp/Job-3.odb,Step-1,Increment      1: Step Time =    1.000,"P-3-1",          1619,       149.509,       107.926,            0.,NA,NA,"",   1.00919E+06,   1.00609E+06,   1.00609E+06
C:/temp/Job-3.odb,Step-1,Increment      1: Step Time =    1.000,"P-3-1",          1620,       118.005,       137.672,            0.,NA,NA,"",   1.01214E+06,   1.01288E+06,   1.01288E+06
C:/temp/Job-3.odb,Step-1,Increment      1: Step Time =    1.000,"P-3-1",          1621,       70.1584,       155.290,            0.,NA,NA,"",   999.720E+03,   1.01260E+06,   1.01260E+06
C:/temp/Job-3.odb,Step-1,Increment      1: Step Time =    1.000,"P-3-1",          1622,       41.1672,       144.041,            0.,NA,NA,"",   963.039E+03,   1.01043E+06,   1.01043E+06
C:/temp/Job-3.odb,Step-1,Increment      1: Step Time =    1.000,"P-3-1",          1623,       65.8555,       56.0234,            0.,NA,NA,"",    996.71E+03,   1.01768E+06,   1.01768E+06
C:/temp/Job-3.odb,Step-1,Increment      1: Step Time =    1.000,"P-3-1",          1624,       99.7344,       45.6742,            0.,NA,NA,"",   1.00269E+06,   1.00617E+06,   1.00617E+06
C:/temp/Job-3.odb,Step-1,Increment      1: Step Time =    1.000,"P-3-1",          1625,       102.087,       39.7505,            0.,NA,NA,"",   999.160E+03,   1.00141E+06,   1.00141E+06
C:/temp/Job-3.odb,Step-1,Increment      1: Step Time =    1.000,"P-3-1",          1626,       153.321,       83.3806,            0.,NA,NA,"",   1.00949E+06,   1.00587E+06,   1.00587E+06
C:/temp/Job-3.odb,Step-1,Increment      1: Step Time =    1.000,"P-3-1",          1627,       81.9191,       169.459,            0.,NA,NA,"",   991.564E+03,   995.298E+03,   995.298E+03
C:/temp/Job-3.odb,Step-1,Increment      1: Step Time =    1.000,"P-3-1",          1628,       54.2163,       173.089,            0.,NA,NA,"",   994.328E+03,   1.00556E+06,   1.00556E+06
C:/temp/Job-3.odb,Step-1,Increment      1: Step Time =    1.000,"P-3-1",          1629,       70.1726,       169.940,            0.,NA,NA,"",   992.330E+03,   998.737E+03,   998.737E+03
C:/temp/Job-3.odb,Step-1,Increment      1: Step Time =    1.000,"P-3-1",          1630,       28.2548,       118.849,            0.,NA,NA,"",   904.288E+03,   980.105E+03,   980.105E+03
C:/temp/Job-3.odb,Step-1,Increment      1: Step Time =    1.000,"P-3-1",          1631,       25.8161,       112.082,            0.,NA,NA,"",   894.263E+03,   974.152E+03,   974.152E+03
C:/temp/Job-3.odb,Step-1,Increment      1: Step Time =    1.000,"P-3-1",          1632,       30.0554,       110.955,            0.,NA,NA,"",   905.723E+03,   980.141E+03,   980.141E+03
C:/temp/Job-3.odb,Step-1,Increment      1: Step Time =    1.000,"P-3-1",          1633,       30.2158,       141.394,            0.,NA,NA,"",   932.870E+03,   998.095E+03,   998.095E+03
C:/temp/Job-3.odb,Step-1,Increment      1: Step Time =    1.000,"P-3-1",          1634,       24.3807,       136.347,            0.,NA,NA,"",   909.351E+03,   985.668E+03,   985.668E+03
C:/temp/Job-3.odb,Step-1,Increment      1: Step Time =    1.000,"P-3-1",          1635,       30.1711,       129.780,            0.,NA,NA,"",   918.678E+03,   988.888E+03,   988.888E+03
C:/temp/Job-3.odb,Step-1,Increment      1: Step Time =    1.000,"P-3-1",          1636,       24.8224,       123.486,            0.,NA,NA,"",   898.311E+03,   977.443E+03,   977.443E+03
C:/temp/Job-3.odb,Step-1,Increment      1: Step Time =    1.000,"P-3-1",          1637,       101.389,       171.588,            0.,NA,NA,"",   989.166E+03,   990.085E+03,   990.085E+03
C:/temp/Job-3.odb,Step-1,Increment      1: Step Time =    1.000,"P-3-1",          1638,       111.138,       170.115,            0.,NA,NA,"",   991.488E+03,   991.757E+03,   991.757E+03
C:/temp/Job-3.odb,Step-1,Increment      1: Step Time =    1.000,"P-3-1",          1639,       120.316,       29.9217,            0.,NA,NA,"",   993.001E+03,   992.652E+03,   992.652E+03
C:/temp/Job-3.odb,Step-1,Increment      1: Step Time =    1.000,"P-3-1",          1640,       169.721,       101.494,            0.,NA,NA,"",   1.00810E+06,   1.00285E+06,   1.00285E+06
C:/temp/Job-3.odb,Step-1,Increment      1: Step Time =    1.000,"P-3-1",          1641,       28.7317,       99.7048,            0.,NA,NA,"",   900.117E+03,   976.854E+03,   976.854E+03
C:/temp/Job-3.odb,Step-1,Increment      1: Step Time =    1.000,"P-3-1",          1642,       168.869,       80.8620,            0.,NA,NA,"",   1.00804E+06,   1.00307E+06,   1.00307E+06
C:/temp/Job-3.odb,Step-1,Increment      1: Step Time =    1.000,"P-3-1",          1643,       168.426,       90.3233,            0.,NA,NA,"",   1.00815E+06,   1.00310E+06,   1.00310E+06
C:/temp/Job-3.odb,Step-1,Increment      1: Step Time =    1.000,"P-3-1",          1644,       87.3568,       30.0094,            0.,NA,NA,"",   990.498E+03,   993.235E+03,   993.235E+03
C:/temp/Job-3.odb,Step-1,Increment      1: Step Time =    1.000,"P-3-1",          1645,       128.408,       25.9549,            0.,NA,NA,"",   991.524E+03,   990.857E+03,   990.857E+03
C:/temp/Job-3.odb,Step-1,Increment      1: Step Time =    1.000,"P-3-1",          1646,       140.183,       28.0670,            0.,NA,NA,"",   994.960E+03,   993.882E+03,   993.882E+03
C:/temp/Job-3.odb,Step-1,Increment      1: Step Time =    1.000,"P-3-1",          1647,       102.046,       29.4808,            0.,NA,NA,"",   990.124E+03,   991.134E+03,   991.134E+03
C:/temp/Job-3.odb,Step-1,Increment      1: Step Time =    1.000,"P-3-1",          1648,       175.689,       63.8345,            0.,NA,NA,"",   1.00638E+06,   1.00150E+06,   1.00150E+06
C:/temp/Job-3.odb,Step-1,Increment      1: Step Time =    1.000,"P-3-1",          1649,       171.261,       56.8045,            0.,NA,NA,"",   1.00563E+06,   1.00154E+06,   1.00154E+06
C:/temp/Job-3.odb,Step-1,Increment      1: Step Time =    1.000,"P-3-1",          1650,       169.321,       69.3221,            0.,NA,NA,"",   1.00737E+06,   1.00267E+06,   1.00267E+06
C:/temp/Job-3.odb,Step-1,Increment      1: Step Time =    1.000,"P-3-1",          1651,       174.118,       76.9056,            0.,NA,NA,"",   1.00754E+06,   1.00215E+06,   1.00215E+06
C:/temp/Job-3.odb,Step-1,Increment      1: Step Time =    1.000,"P-3-1",          1652,       121.652,       169.339,            0.,NA,NA,"",   993.663E+03,   993.260E+03,   993.260E+03
C:/temp/Job-3.odb,Step-1,Increment      1: Step Time =    1.000,"P-3-1",          1653,       168.733,       117.739,            0.,NA,NA,"",   1.00803E+06,   1.00305E+06,   1.00305E+06
C:/temp/Job-3.odb,Step-1,Increment      1: Step Time =    1.000,"P-3-1",          1654,       29.2759,       77.1971,            0.,NA,NA,"",   909.901E+03,   983.413E+03,   983.413E+03
C:/temp/Job-3.odb,Step-1,Increment      1: Step Time =    1.000,"P-3-1",          1655,       34.3332,       171.303,            0.,NA,NA,"",   1.00020E+06,   1.02955E+06,   1.02955E+06
C:/temp/Job-3.odb,Step-1,Increment      1: Step Time =    1.000,"P-3-1",          1656,       26.8534,       163.582,            0.,NA,NA,"",   971.596E+03,   1.02449E+06,   1.02449E+06
C:/temp/Job-3.odb,Step-1,Increment      1: Step Time =    1.000,"P-3-1",          1657,       79.5335,       28.0286,            0.,NA,NA,"",   989.013E+03,   992.589E+03,   992.589E+03
C:/temp/Job-3.odb,Step-1,Increment      1: Step Time =    1.000,"P-3-1",          1658,       89.0016,       150.083,            0.,NA,NA,"",   1.00432E+06,   1.01148E+06,   1.01148E+06
C:/temp/Job-3.odb,Step-1,Increment      1: Step Time =    1.000,"P-3-1",          1659,       132.108,       169.922,            0.,NA,NA,"",   994.867E+03,   993.959E+03,   993.959E+03
C:/temp/Job-3.odb,Step-1,Increment      1: Step Time =    1.000,"P-3-1",          1660,       170.978,       132.854,            0.,NA,NA,"",   1.00703E+06,   1.00232E+06,   1.00232E+06
C:/temp/Job-3.odb,Step-1,Increment      1: Step Time =    1.000,"P-3-1",          1661,       28.2005,       67.0200,            0.,NA,NA,"",   916.283E+03,   988.318E+03,   988.318E+03
C:/temp/Job-3.odb,Step-1,Increment      1: Step Time =    1.000,"P-3-1",          1662,       142.371,       170.535,            0.,NA,NA,"",   995.930E+03,   994.709E+03,   994.709E+03
C:/temp/Job-3.odb,Step-1,Increment      1: Step Time =    1.000,"P-3-1",          1663,       68.7065,       32.6452,            0.,NA,NA,"",   994.523E+03,   1.00258E+06,   1.00258E+06
C:/temp/Job-3.odb,Step-1,Increment      1: Step Time =    1.000,"P-3-1",          1664,       171.418,       141.129,            0.,NA,NA,"",   1.00598E+06,   1.00172E+06,   1.00172E+06
C:/temp/Job-3.odb,Step-1,Increment      1: Step Time =    1.000,"P-3-1",          1665,       29.2168,       58.6454,            0.,NA,NA,"",   930.155E+03,   996.811E+03,   996.811E+03
C:/temp/Job-3.odb,Step-1,Increment      1: Step Time =    1.000,"P-3-1",          1666,       56.8700,       28.7801,            0.,NA,NA,"",   994.178E+03,   1.00494E+06,   1.00494E+06
C:/temp/Job-3.odb,Step-1,Increment      1: Step Time =    1.000,"P-3-1",          1667,       54.5022,       150.898,            0.,NA,NA,"",   989.873E+03,   1.01683E+06,   1.01683E+06
C:/temp/Job-3.odb,Step-1,Increment      1: Step Time =    1.000,"P-3-1",          1668,       62.2982,       153.142,            0.,NA,NA,"",   996.394E+03,   1.01550E+06,   1.01550E+06
C:/temp/Job-3.odb,Step-1,Increment      1: Step Time =    1.000,"P-3-1",          1669,       50.6974,       182.152,            0.,NA,NA,"",   985.232E+03,   991.270E+03,   991.270E+03
C:/temp/Job-3.odb,Step-1,Increment      1: Step Time =    1.000,"P-3-1",          1670,       17.5985,       150.118,            0.,NA,NA,"",   909.827E+03,   991.057E+03,   991.057E+03
C:/temp/Job-3.odb,Step-1,Increment      1: Step Time =    1.000,"P-3-1",          1671,       152.651,       96.8277,            0.,NA,NA,"",   1.00876E+06,   1.00541E+06,   1.00541E+06
C:/temp/Job-3.odb,Step-1,Increment      1: Step Time =    1.000,"P-3-1",          1672,       152.817,       108.253,            0.,NA,NA,"",   1.00903E+06,   1.00562E+06,   1.00562E+06
C:/temp/Job-3.odb,Step-1,Increment      1: Step Time =    1.000,"P-3-1",          1673,       171.445,       38.1086,            0.,NA,NA,"",   1.00180E+06,   999.216E+03,   999.216E+03
C:/temp/Job-3.odb,Step-1,Increment      1: Step Time =    1.000,"P-3-1",          1674,       164.445,       168.794,            0.,NA,NA,"",   999.442E+03,   997.602E+03,   997.602E+03
C:/temp/Job-3.odb,Step-1,Increment      1: Step Time =    1.000,"P-3-1",          1675,       35.2398,       30.8318,            0.,NA,NA,"",   996.030E+03,   1.02764E+06,   1.02764E+06
C:/temp/Job-3.odb,Step-1,Increment      1: Step Time =    1.000,"P-3-1",          1676,       141.932,       53.5908,            0.,NA,NA,"",   1.00724E+06,   1.00474E+06,   1.00474E+06
C:/temp/Job-3.odb,Step-1,Increment      1: Step Time =    1.000,"P-3-1",          1677,       163.271,       29.7876,            0.,NA,NA,"",   998.845E+03,   997.170E+03,   997.170E+03
C:/temp/Job-3.odb,Step-1,Increment      1: Step Time =    1.000,"P-3-1",          1678,       93.1497,       173.351,            0.,NA,NA,"",   986.639E+03,   988.221E+03,   988.221E+03
C:/temp/Job-3.odb,Step-1,Increment      1: Step Time =    1.000,"P-3-1",          1679,       171.648,       162.842,            0.,NA,NA,"",   1.00157E+06,   999.075E+03,   999.075E+03
C:/temp/Job-3.odb,Step-1,Increment      1: Step Time =    1.000,"P-3-1",          1680,       29.8724,       37.6083,            0.,NA,NA,"",   975.138E+03,   1.02345E+06,   1.02345E+06
C:/temp/Job-3.odb,Step-1,Increment      1: Step Time =    1.000,"P-3-1",          1681,       111.711,       27.0774,            0.,NA,NA,"",   988.923E+03,   989.042E+03,   989.042E+03
C:/temp/Job-3.odb,Step-1,Increment      1: Step Time =    1.000,"P-3-1",          1682,       23.9396,       90.3712,            0.,NA,NA,"",   888.184E+03,   970.644E+03,   970.644E+03
C:/temp/Job-3.odb,Step-1,Increment      1: Step Time =    1.000,"P-3-1",          1683,       172.409,       111.453,            0.,NA,NA,"",   1.00796E+06,   1.00245E+06,   1.00245E+06
C:/temp/Job-3.odb,Step-1,Increment      1: Step Time =    1.000,"P-3-1",          1684,       32.5027,       120.816,            0.,NA,NA,"",   917.087E+03,   986.766E+03,   986.766E+03
C:/temp/Job-3.odb,Step-1,Increment      1: Step Time =    1.000,"P-3-1",          1685,       65.2093,       66.4074,            0.,NA,NA,"",   992.472E+03,   1.01804E+06,   1.01804E+06
C:/temp/Job-3.odb,Step-1,Increment      1: Step Time =    1.000,"P-3-1",          1686,       120.759,       51.3988,            0.,NA,NA,"",   1.00732E+06,   1.00723E+06,   1.00723E+06
C:/temp/Job-3.odb,Step-1,Increment      1: Step Time =    1.000,"P-3-1",          1687,       34.9927,       128.772,            0.,NA,NA,"",   930.945E+03,   994.412E+03,   994.412E+03
C:/temp/Job-3.odb,Step-1,Increment      1: Step Time =    1.000,"P-3-1",          1688,       150.949,       80.2073,            0.,NA,NA,"",   1.01005E+06,   1.00655E+06,   1.00655E+06
C:/temp/Job-3.odb,Step-1,Increment      1: Step Time =    1.000,"P-3-1",          1689,       118.417,       140.456,            0.,NA,NA,"",   1.01147E+06,   1.01209E+06,   1.01209E+06
C:/temp/Job-3.odb,Step-1,Increment      1: Step Time =    1.000,"P-3-1",          1690,       143.607,       116.270,            0.,NA,NA,"",   1.01079E+06,   1.00796E+06,   1.00796E+06
C:/temp/Job-3.odb,Step-1,Increment      1: Step Time =    1.000,"P-3-1",          1691,       61.3948,       75.8622,            0.,NA,NA,"",   982.684E+03,   1.01490E+06,   1.01490E+06
C:/temp/Job-3.odb,Step-1,Increment      1: Step Time =    1.000,"P-3-1",          1692,       175.948,       48.3312,            0.,NA,NA,"",   1.00409E+06,   1.00042E+06,   1.00042E+06
C:/temp/Job-3.odb,Step-1,Increment      1: Step Time =    1.000,"P-3-1",          1693,       132.016,       52.9054,            0.,NA,NA,"",   1.00816E+06,   1.00649E+06,   1.00649E+06
C:/temp/Job-3.odb,Step-1,Increment      1: Step Time =    1.000,"P-3-1",          1694,       146.480,       72.5679,            0.,NA,NA,"",   1.01096E+06,   1.00767E+06,   1.00767E+06
C:/temp/Job-3.odb,Step-1,Increment      1: Step Time =    1.000,"P-3-1",          1695,       66.7245,       173.318,            0.,NA,NA,"",   989.259E+03,   995.159E+03,   995.159E+03
C:/temp/Job-3.odb,Step-1,Increment      1: Step Time =    1.000,"P-3-1",          1696,       132.824,       24.1963,            0.,NA,NA,"",   990.873E+03,   990.158E+03,   990.158E+03
C:/temp/Job-3.odb,Step-1,Increment      1: Step Time =    1.000,"P-3-1",          1697,       78.1134,       170.169,            0.,NA,NA,"",   991.296E+03,   995.673E+03,   995.673E+03
C:/temp/Job-3.odb,Step-1,Increment      1: Step Time =    1.000,"P-3-1",          1698,       36.3387,       112.863,            0.,NA,NA,"",   922.372E+03,   988.624E+03,   988.624E+03
C:/temp/Job-3.odb,Step-1,Increment      1: Step Time =    1.000,"P-3-1",          1699,       123.250,       24.5042,            0.,NA,NA,"",   989.152E+03,   988.722E+03,   988.722E+03
C:/temp/Job-3.odb,Step-1,Increment      1: Step Time =    1.000,"P-3-1",          1700,       89.8929,       176.122,            0.,NA,NA,"",   983.076E+03,   984.389E+03,   984.389E+03
C:/temp/Job-3.odb,Step-1,Increment      1: Step Time =    1.000,"P-3-1",          1701,       48.6170,       147.424,            0.,NA,NA,"",   979.625E+03,   1.01535E+06,   1.01535E+06
C:/temp/Job-3.odb,Step-1,Increment      1: Step Time =    1.000,"P-3-1",          1702,       170.547,       43.2544,            0.,NA,NA,"",   1.00295E+06,   999.945E+03,   999.945E+03
C:/temp/Job-3.odb,Step-1,Increment      1: Step Time =    1.000,"P-3-1",          1703,       153.479,       29.2483,            0.,NA,NA,"",   997.419E+03,   995.971E+03,   995.971E+03
C:/temp/Job-3.odb,Step-1,Increment      1: Step Time =    1.000,"P-3-1",          1704,       90.2242,       172.397,            0.,NA,NA,"",   987.315E+03,   989.115E+03,   989.115E+03
C:/temp/Job-3.odb,Step-1,Increment      1: Step Time =    1.000,"P-3-1",          1705,       102.334,       143.796,            0.,NA,NA,"",   1.00761E+06,   1.01253E+06,   1.01253E+06
C:/temp/Job-3.odb,Step-1,Increment      1: Step Time =    1.000,"P-3-1",          1706,       150.787,       65.8224,            0.,NA,NA,"",   1.00943E+06,   1.00599E+06,   1.00599E+06
C:/temp/Job-3.odb,Step-1,Increment      1: Step Time =    1.000,"P-3-1",          1707,       141.270,       125.994,            0.,NA,NA,"",   1.01226E+06,   1.00931E+06,   1.00931E+06
C:/temp/Job-3.odb,Step-1,Increment      1: Step Time =    1.000,"P-3-1",          1708,       97.9331,       150.204,            0.,NA,NA,"",   1.00468E+06,   1.00938E+06,   1.00938E+06
C:/temp/Job-3.odb,Step-1,Increment      1: Step Time =    1.000,"P-3-1",          1709,       59.6702,       155.363,            0.,NA,NA,"",   995.678E+03,   1.01530E+06,   1.01530E+06
C:/temp/Job-3.odb,Step-1,Increment      1: Step Time =    1.000,"P-3-1",          1710,       127.629,       49.8249,            0.,NA,NA,"",   1.00668E+06,   1.00561E+06,   1.00561E+06
C:/temp/Job-3.odb,Step-1,Increment      1: Step Time =    1.000,"P-3-1",          1711,       155.199,       86.7950,            0.,NA,NA,"",   1.00905E+06,   1.00530E+06,   1.00530E+06
C:/temp/Job-3.odb,Step-1,Increment      1: Step Time =    1.000,"P-3-1",          1712,       64.7682,       155.802,            0.,NA,NA,"",   997.923E+03,   1.01386E+06,   1.01386E+06
C:/temp/Job-3.odb,Step-1,Increment      1: Step Time =    1.000,"P-3-1",          1713,       107.585,       149.618,            0.,NA,NA,"",   1.00563E+06,   1.00821E+06,   1.00821E+06
C:/temp/Job-3.odb,Step-1,Increment      1: Step Time =    1.000,"P-3-1",          1714,       58.7853,       69.8656,            0.,NA,NA,"",   981.924E+03,   1.01489E+06,   1.01489E+06
C:/temp/Job-3.odb,Step-1,Increment      1: Step Time =    1.000,"P-3-1",          1715,       143.943,       121.570,            0.,NA,NA,"",   1.01141E+06,   1.00838E+06,   1.00838E+06
C:/temp/Job-3.odb,Step-1,Increment      1: Step Time =    1.000,"P-3-1",          1716,       96.4212,       38.3078,            0.,NA,NA,"",   997.998E+03,   1.00087E+06,   1.00087E+06
C:/temp/Job-3.odb,Step-1,Increment      1: Step Time =    1.000,"P-3-1",          1717,       21.9884,       143.621,            0.,NA,NA,"",   913.879E+03,   990.061E+03,   990.061E+03
C:/temp/Job-3.odb,Step-1,Increment      1: Step Time =    1.000,"P-3-1",          1718,       132.853,       129.525,            0.,NA,NA,"",   1.01445E+06,   1.01214E+06,   1.01214E+06
C:/temp/Job-3.odb,Step-1,Increment      1: Step Time =    1.000,"P-3-1",          1719,       144.929,       23.7507,            0.,NA,NA,"",   993.437E+03,   992.519E+03,   992.519E+03
C:/temp/Job-3.odb,Step-1,Increment      1: Step Time =    1.000,"P-3-1",          1720,       175.856,       52.8646,            0.,NA,NA,"",   1.00489E+06,   1.00083E+06,   1.00083E+06
C:/temp/Job-3.odb,Step-1,Increment      1: Step Time =    1.000,"P-3-1",          1721,       38.9845,       175.148,            0.,NA,NA,"",   1.00236E+06,   1.02236E+06,   1.02236E+06
C:/temp/Job-3.odb,Step-1,Increment      1: Step Time =    1.000,"P-3-1",          1722,       24.2122,       158.210,            0.,NA,NA,"",   949.891E+03,   1.01341E+06,   1.01341E+06
C:/temp/Job-3.odb,Step-1,Increment      1: Step Time =    1.000,"P-3-1",          1723,       123.066,       46.3071,            0.,NA,NA,"",   1.00452E+06,   1.00405E+06,   1.00405E+06
C:/temp/Job-3.odb,Step-1,Increment      1: Step Time =    1.000,"P-3-1",          1724,       146.568,       175.958,            0.,NA,NA,"",   993.956E+03,   992.978E+03,   992.978E+03
C:/temp/Job-3.odb,Step-1,Increment      1: Step Time =    1.000,"P-3-1",          1725,       176.165,       145.381,            0.,NA,NA,"",   1.00516E+06,   1.00093E+06,   1.00093E+06
C:/temp/Job-3.odb,Step-1,Increment      1: Step Time =    1.000,"P-3-1",          1726,       25.1304,       53.7887,            0.,NA,NA,"",   927.149E+03,   997.582E+03,   997.582E+03
C:/temp/Job-3.odb,Step-1,Increment      1: Step Time =    1.000,"P-3-1",          1727,       52.2178,       28.2480,            0.,NA,NA,"",    995.86E+03,   1.00898E+06,   1.00898E+06
C:/temp/Job-3.odb,Step-1,Increment      1: Step Time =    1.000,"P-3-1",          1728,       152.082,       74.2657,            0.,NA,NA,"",   1.00990E+06,   1.00628E+06,   1.00628E+06
C:/temp/Job-3.odb,Step-1,Increment      1: Step Time =    1.000,"P-3-1",          1729,       118.285,       144.909,            0.,NA,NA,"",   1.00914E+06,   1.00970E+06,   1.00970E+06
C:/temp/Job-3.odb,Step-1,Increment      1: Step Time =    1.000,"P-3-1",          1730,       21.8428,       150.536,            0.,NA,NA,"",   925.025E+03,   998.418E+03,   998.418E+03
C:/temp/Job-3.odb,Step-1,Increment      1: Step Time =    1.000,"P-3-1",          1731,       47.7357,       177.521,            0.,NA,NA,"",    996.27E+03,   1.00674E+06,   1.00674E+06
C:/temp/Job-3.odb,Step-1,Increment      1: Step Time =    1.000,"P-3-1",          1732,       90.6265,       153.874,            0.,NA,NA,"",   1.00277E+06,   1.00845E+06,   1.00845E+06
C:/temp/Job-3.odb,Step-1,Increment      1: Step Time =    1.000,"P-3-1",          1733,       35.3348,       134.318,            0.,NA,NA,"",   936.798E+03,   998.010E+03,   998.010E+03
C:/temp/Job-3.odb,Step-1,Increment      1: Step Time =    1.000,"P-3-1",          1734,       60.6765,       80.9202,            0.,NA,NA,"",   977.744E+03,   1.01237E+06,   1.01237E+06
C:/temp/Job-3.odb,Step-1,Increment      1: Step Time =    1.000,"P-3-1",          1735,       51.8961,       150.820,            0.,NA,NA,"",   987.431E+03,   1.01678E+06,   1.01678E+06
C:/temp/Job-3.odb,Step-1,Increment      1: Step Time =    1.000,"P-3-1",          1736,       144.567,       53.7329,            0.,NA,NA,"",   1.00709E+06,   1.00444E+06,   1.00444E+06
C:/temp/Job-3.odb,Step-1,Increment      1: Step Time =    1.000,"P-3-1",          1737,       43.7132,       27.3508,            0.,NA,NA,"",   998.594E+03,   1.01727E+06,   1.01727E+06
C:/temp/Job-3.odb,Step-1,Increment      1: Step Time =    1.000,"P-3-1",          1738,       156.183,       173.226,            0.,NA,NA,"",   996.763E+03,   995.468E+03,   995.468E+03
C:/temp/Job-3.odb,Step-1,Increment      1: Step Time =    1.000,"P-3-1",          1739,       111.190,       31.7077,            0.,NA,NA,"",   993.356E+03,   993.735E+03,   993.735E+03
C:/temp/Job-3.odb,Step-1,Increment      1: Step Time =    1.000,"P-3-1",          1740,       122.235,       139.229,            0.,NA,NA,"",   1.01223E+06,   1.01197E+06,   1.01197E+06
C:/temp/Job-3.odb,Step-1,Increment      1: Step Time =    1.000,"P-3-1",          1741,       167.722,       45.6339,            0.,NA,NA,"",   1.00346E+06,   1.00037E+06,   1.00037E+06
C:/temp/Job-3.odb,Step-1,Increment      1: Step Time =    1.000,"P-3-1",          1742,       152.949,       34.2733,            0.,NA,NA,"",   999.377E+03,   997.577E+03,   997.577E+03
C:/temp/Job-3.odb,Step-1,Increment      1: Step Time =    1.000,"P-3-1",          1743,       44.5412,       151.674,            0.,NA,NA,"",   978.683E+03,   1.01601E+06,   1.01601E+06
C:/temp/Job-3.odb,Step-1,Increment      1: Step Time =    1.000,"P-3-1",          1744,       91.4543,       167.886,            0.,NA,NA,"",   992.468E+03,   994.954E+03,   994.954E+03
C:/temp/Job-3.odb,Step-1,Increment      1: Step Time =    1.000,"P-3-1",          1745,       35.7208,       139.476,            0.,NA,NA,"",   944.770E+03,   1.00259E+06,   1.00259E+06
C:/temp/Job-3.odb,Step-1,Increment      1: Step Time =    1.000,"P-3-1",          1746,       30.1476,       46.2509,            0.,NA,NA,"",   955.305E+03,   1.01191E+06,   1.01191E+06
C:/temp/Job-3.odb,Step-1,Increment      1: Step Time =    1.000,"P-3-1",          1747,       171.123,       154.419,            0.,NA,NA,"",   1.00350E+06,   1.00027E+06,   1.00027E+06
C:/temp/Job-3.odb,Step-1,Increment      1: Step Time =    1.000,"P-3-1",          1748,       36.8283,       102.839,            0.,NA,NA,"",   921.509E+03,   987.808E+03,   987.808E+03
C:/temp/Job-3.odb,Step-1,Increment      1: Step Time =    1.000,"P-3-1",          1749,       100.493,       34.6142,            0.,NA,NA,"",   994.944E+03,   996.686E+03,   996.686E+03
C:/temp/Job-3.odb,Step-1,Increment      1: Step Time =    1.000,"P-3-1",          1750,       33.2603,       100.535,            0.,NA,NA,"",   911.806E+03,   982.949E+03,   982.949E+03
C:/temp/Job-3.odb,Step-1,Increment      1: Step Time =    1.000,"P-3-1",          1751,       163.891,       102.777,            0.,NA,NA,"",   1.00836E+06,   1.00378E+06,   1.00378E+06
C:/temp/Job-3.odb,Step-1,Increment      1: Step Time =    1.000,"P-3-1",          1752,       128.132,       132.161,            0.,NA,NA,"",   1.01499E+06,   1.01333E+06,   1.01333E+06
C:/temp/Job-3.odb,Step-1,Increment      1: Step Time =    1.000,"P-3-1",          1753,       98.1373,       167.204,            0.,NA,NA,"",   993.204E+03,   995.004E+03,   995.004E+03
C:/temp/Job-3.odb,Step-1,Increment      1: Step Time =    1.000,"P-3-1",          1754,       85.7275,       49.1243,            0.,NA,NA,"",   1.00372E+06,   1.01175E+06,   1.01175E+06
C:/temp/Job-3.odb,Step-1,Increment      1: Step Time =    1.000,"P-3-1",          1755,       160.087,       88.5334,            0.,NA,NA,"",   1.00866E+06,   1.00446E+06,   1.00446E+06
C:/temp/Job-3.odb,Step-1,Increment      1: Step Time =    1.000,"P-3-1",          1756,       165.205,       88.2214,            0.,NA,NA,"",   1.00828E+06,   1.00358E+06,   1.00358E+06
C:/temp/Job-3.odb,Step-1,Increment      1: Step Time =    1.000,"P-3-1",          1757,       90.4138,       32.6387,            0.,NA,NA,"",   993.007E+03,   995.808E+03,   995.808E+03
C:/temp/Job-3.odb,Step-1,Increment      1: Step Time =    1.000,"P-3-1",          1758,       110.503,       164.453,            0.,NA,NA,"",   996.335E+03,   997.000E+03,   997.000E+03
C:/temp/Job-3.odb,Step-1,Increment      1: Step Time =    1.000,"P-3-1",          1759,       79.3961,       33.3887,            0.,NA,NA,"",   994.266E+03,   999.421E+03,   999.421E+03
C:/temp/Job-3.odb,Step-1,Increment      1: Step Time =    1.000,"P-3-1",          1760,       34.5398,       37.7031,            0.,NA,NA,"",   980.815E+03,   1.02123E+06,   1.02123E+06
C:/temp/Job-3.odb,Step-1,Increment      1: Step Time =    1.000,"P-3-1",          1761,       167.053,       163.332,            0.,NA,NA,"",   1.00111E+06,   998.787E+03,   998.787E+03
C:/temp/Job-3.odb,Step-1,Increment      1: Step Time =    1.000,"P-3-1",          1762,       34.0579,       106.500,            0.,NA,NA,"",   914.420E+03,   984.414E+03,   984.414E+03
C:/temp/Job-3.odb,Step-1,Increment      1: Step Time =    1.000,"P-3-1",          1763,       121.713,       163.978,            0.,NA,NA,"",   997.636E+03,   997.239E+03,   997.239E+03
C:/temp/Job-3.odb,Step-1,Increment      1: Step Time =    1.000,"P-3-1",          1764,       164.753,       80.1584,            0.,NA,NA,"",   1.00837E+06,   1.00378E+06,   1.00378E+06
C:/temp/Job-3.odb,Step-1,Increment      1: Step Time =    1.000,"P-3-1",          1765,       162.131,       35.4308,            0.,NA,NA,"",   1.00050E+06,   998.385E+03,   998.385E+03
C:/temp/Job-3.odb,Step-1,Increment      1: Step Time =    1.000,"P-3-1",          1766,       120.670,       34.0366,            0.,NA,NA,"",   996.251E+03,   995.891E+03,   995.891E+03
C:/temp/Job-3.odb,Step-1,Increment      1: Step Time =    1.000,"P-3-1",          1767,       71.2046,       35.6439,            0.,NA,NA,"",   996.344E+03,   1.00472E+06,   1.00472E+06
C:/temp/Job-3.odb,Step-1,Increment      1: Step Time =    1.000,"P-3-1",          1768,       133.225,       165.125,            0.,NA,NA,"",   997.977E+03,   996.830E+03,   996.830E+03
C:/temp/Job-3.odb,Step-1,Increment      1: Step Time =    1.000,"P-3-1",          1769,       112.126,       150.289,            0.,NA,NA,"",   1.00580E+06,   1.00731E+06,   1.00731E+06
C:/temp/Job-3.odb,Step-1,Increment      1: Step Time =    1.000,"P-3-1",          1770,       81.2430,       165.491,            0.,NA,NA,"",   995.431E+03,   1.00043E+06,   1.00043E+06
C:/temp/Job-3.odb,Step-1,Increment      1: Step Time =    1.000,"P-3-1",          1771,       59.7290,       64.5228,            0.,NA,NA,"",   986.238E+03,   1.01634E+06,   1.01634E+06
C:/temp/Job-3.odb,Step-1,Increment      1: Step Time =    1.000,"P-3-1",          1772,       166.298,       66.2689,            0.,NA,NA,"",   1.00725E+06,   1.00290E+06,   1.00290E+06
C:/temp/Job-3.odb,Step-1,Increment      1: Step Time =    1.000,"P-3-1",          1773,       119.294,       48.9249,            0.,NA,NA,"",   1.00595E+06,   1.00606E+06,   1.00606E+06
C:/temp/Job-3.odb,Step-1,Increment      1: Step Time =    1.000,"P-3-1",          1774,       32.2424,       117.804,            0.,NA,NA,"",   914.451E+03,   985.188E+03,   985.188E+03
C:/temp/Job-3.odb,Step-1,Increment      1: Step Time =    1.000,"P-3-1",          1775,       58.8990,       34.9773,            0.,NA,NA,"",   996.260E+03,   1.01013E+06,   1.01013E+06
C:/temp/Job-3.odb,Step-1,Increment      1: Step Time =    1.000,"P-3-1",          1776,       33.9979,       59.3486,            0.,NA,NA,"",   941.375E+03,   1.00146E+06,   1.00146E+06
C:/temp/Job-3.odb,Step-1,Increment      1: Step Time =    1.000,"P-3-1",          1777,       166.666,       141.083,            0.,NA,NA,"",   1.00628E+06,   1.00230E+06,   1.00230E+06
C:/temp/Job-3.odb,Step-1,Increment      1: Step Time =    1.000,"P-3-1",          1778,       142.496,       165.796,            0.,NA,NA,"",   998.370E+03,   996.878E+03,   996.878E+03
C:/temp/Job-3.odb,Step-1,Increment      1: Step Time =    1.000,"P-3-1",          1779,       32.3835,       131.955,            0.,NA,NA,"",   926.495E+03,   992.908E+03,   992.908E+03
C:/temp/Job-3.odb,Step-1,Increment      1: Step Time =    1.000,"P-3-1",          1780,       32.1151,       162.417,            0.,NA,NA,"",   978.611E+03,   1.02320E+06,   1.02320E+06
C:/temp/Job-3.odb,Step-1,Increment      1: Step Time =    1.000,"P-3-1",          1781,       33.1530,       166.983,            0.,NA,NA,"",   990.359E+03,   1.02775E+06,   1.02775E+06
C:/temp/Job-3.odb,Step-1,Increment      1: Step Time =    1.000,"P-3-1",          1782,       39.2510,       31.4306,            0.,NA,NA,"",   996.070E+03,   1.02375E+06,   1.02375E+06
C:/temp/Job-3.odb,Step-1,Increment      1: Step Time =    1.000,"P-3-1",          1783,       162.918,       164.515,            0.,NA,NA,"",   1.00055E+06,   998.407E+03,   998.407E+03
C:/temp/Job-3.odb,Step-1,Increment      1: Step Time =    1.000,"P-3-1",          1784,       67.5501,       165.823,            0.,NA,NA,"",   995.756E+03,   1.00501E+06,   1.00501E+06
C:/temp/Job-3.odb,Step-1,Increment      1: Step Time =    1.000,"P-3-1",          1785,       89.7388,       46.4639,            0.,NA,NA,"",   1.00280E+06,   1.00891E+06,   1.00891E+06
C:/temp/Job-3.odb,Step-1,Increment      1: Step Time =    1.000,"P-3-1",          1786,       166.723,       36.6596,            0.,NA,NA,"",   1.00116E+06,   998.826E+03,   998.826E+03
C:/temp/Job-3.odb,Step-1,Increment      1: Step Time =    1.000,"P-3-1",          1787,       167.524,       52.4347,            0.,NA,NA,"",   1.00496E+06,   1.00136E+06,   1.00136E+06
C:/temp/Job-3.odb,Step-1,Increment      1: Step Time =    1.000,"P-3-1",          1788,       139.639,       32.5659,            0.,NA,NA,"",   997.350E+03,   996.041E+03,   996.041E+03
C:/temp/Job-3.odb,Step-1,Increment      1: Step Time =    1.000,"P-3-1",          1789,       131.288,       48.9955,            0.,NA,NA,"",   1.00619E+06,   1.00471E+06,   1.00471E+06
C:/temp/Job-3.odb,Step-1,Increment      1: Step Time =    1.000,"P-3-1",          1790,       155.989,       99.0964,            0.,NA,NA,"",   1.00858E+06,   1.00487E+06,   1.00487E+06
C:/temp/Job-3.odb,Step-1,Increment      1: Step Time =    1.000,"P-3-1",          1791,       33.7295,       143.092,            0.,NA,NA,"",   944.488E+03,   1.00344E+06,   1.00344E+06
C:/temp/Job-3.odb,Step-1,Increment      1: Step Time =    1.000,"P-3-1",          1792,       151.241,       111.899,            0.,NA,NA,"",   1.00942E+06,   1.00605E+06,   1.00605E+06
C:/temp/Job-3.odb,Step-1,Increment      1: Step Time =    1.000,"P-3-1",          1793,       55.9932,       168.817,            0.,NA,NA,"",   995.346E+03,   1.00874E+06,   1.00874E+06
C:/temp/Job-3.odb,Step-1,Increment      1: Step Time =    1.000,"P-3-1",          1794,       157.299,       81.0599,            0.,NA,NA,"",   1.00911E+06,   1.00515E+06,   1.00515E+06
C:/temp/Job-3.odb,Step-1,Increment      1: Step Time =    1.000,"P-3-1",          1795,       37.4624,       144.069,            0.,NA,NA,"",   954.842E+03,   1.00765E+06,   1.00765E+06
C:/temp/Job-3.odb,Step-1,Increment      1: Step Time =    1.000,"P-3-1",          1796,       32.9566,       68.1121,            0.,NA,NA,"",   928.379E+03,   993.847E+03,   993.847E+03
C:/temp/Job-3.odb,Step-1,Increment      1: Step Time =    1.000,"P-3-1",          1797,       166.694,       133.661,            0.,NA,NA,"",    1.0073E+06,   1.00294E+06,   1.00294E+06
C:/temp/Job-3.odb,Step-1,Increment      1: Step Time =    1.000,"P-3-1",          1798,       146.458,       60.3174,            0.,NA,NA,"",   1.00896E+06,   1.00591E+06,   1.00591E+06
C:/temp/Job-3.odb,Step-1,Increment      1: Step Time =    1.000,"P-3-1",          1799,       130.188,       32.0223,            0.,NA,NA,"",   995.865E+03,   994.974E+03,   994.974E+03
C:/temp/Job-3.odb,Step-1,Increment      1: Step Time =    1.000,"P-3-1",          1800,       34.1976,       78.2958,            0.,NA,NA,"",   922.719E+03,   989.663E+03,   989.663E+03
C:/temp/Job-3.odb,Step-1,Increment      1: Step Time =    1.000,"P-3-1",          1801,       166.543,       120.868,            0.,NA,NA,"",   1.00816E+06,   1.00342E+06,   1.00342E+06
C:/temp/Job-3.odb,Step-1,Increment      1: Step Time =    1.000,"P-3-1",          1802,       157.472,       109.959,            0.,NA,NA,"",   1.00883E+06,   1.00491E+06,   1.00491E+06
C:/temp/Job-3.odb,Step-1,Increment      1: Step Time =    1.000,"P-3-1",          1803,       29.2766,       91.0299,            0.,NA,NA,"",   902.626E+03,   978.399E+03,   978.399E+03
C:/temp/Job-3.odb,Step-1,Increment      1: Step Time =    1.000,"P-3-1",          1804,       163.621,       110.846,            0.,NA,NA,"",   1.00846E+06,   1.00392E+06,   1.00392E+06
C:/temp/Job-3.odb,Step-1,Increment      1: Step Time =    1.000,"P-3-1",          1805,       103.412,       151.900,            0.,NA,NA,"",   1.00404E+06,   1.00724E+06,   1.00724E+06
C:/temp/Job-3.odb,Step-1,Increment      1: Step Time =    1.000,"P-3-1",          1806,       67.6418,       158.960,            0.,NA,NA,"",   998.428E+03,   1.01109E+06,   1.01109E+06
C:/temp/Job-3.odb,Step-1,Increment      1: Step Time =    1.000,"P-3-1",          1807,       57.1953,       77.7032,            0.,NA,NA,"",   974.068E+03,   1.01159E+06,   1.01159E+06
C:/temp/Job-3.odb,Step-1,Increment      1: Step Time =    1.000,"P-3-1",          1808,       144.820,       128.297,            0.,NA,NA,"",   1.01134E+06,   1.00816E+06,   1.00816E+06
C:/temp/Job-3.odb,Step-1,Increment      1: Step Time =    1.000,"P-3-1",          1809,       54.9534,       82.6812,            0.,NA,NA,"",   966.738E+03,   1.00818E+06,   1.00818E+06
C:/temp/Job-3.odb,Step-1,Increment      1: Step Time =    1.000,"P-3-1",          1810,       127.279,       45.7340,            0.,NA,NA,"",   1.00433E+06,   1.00335E+06,   1.00335E+06
C:/temp/Job-3.odb,Step-1,Increment      1: Step Time =    1.000,"P-3-1",          1811,       60.6440,       57.7073,            0.,NA,NA,"",   991.155E+03,   1.01723E+06,   1.01723E+06
C:/temp/Job-3.odb,Step-1,Increment      1: Step Time =    1.000,"P-3-1",          1812,       138.072,       130.138,            0.,NA,NA,"",   1.01285E+06,   1.01012E+06,   1.01012E+06
C:/temp/Job-3.odb,Step-1,Increment      1: Step Time =    1.000,"P-3-1",          1813,       80.4396,       47.6098,            0.,NA,NA,"",   1.00262E+06,   1.01198E+06,   1.01198E+06
C:/temp/Job-3.odb,Step-1,Increment      1: Step Time =    1.000,"P-3-1",          1814,       151.061,       176.795,            0.,NA,NA,"",   994.579E+03,   993.586E+03,   993.586E+03
C:/temp/Job-3.odb,Step-1,Increment      1: Step Time =    1.000,"P-3-1",          1815,       176.137,       149.873,            0.,NA,NA,"",   1.00441E+06,   1.00057E+06,   1.00057E+06
C:/temp/Job-3.odb,Step-1,Increment      1: Step Time =    1.000,"P-3-1",          1816,       25.3895,       50.2720,            0.,NA,NA,"",   934.414E+03,   1.00222E+06,   1.00222E+06
C:/temp/Job-3.odb,Step-1,Increment      1: Step Time =    1.000,"P-3-1",          1817,       48.4620,       23.2465,            0.,NA,NA,"",   994.782E+03,   1.00589E+06,   1.00589E+06
C:/temp/Job-3.odb,Step-1,Increment      1: Step Time =    1.000,"P-3-1",          1818,       20.7219,       153.498,            0.,NA,NA,"",   928.921E+03,   1.00192E+06,   1.00192E+06
C:/temp/Job-3.odb,Step-1,Increment      1: Step Time =    1.000,"P-3-1",          1819,       47.2275,       32.3388,            0.,NA,NA,"",   995.709E+03,   1.01614E+06,   1.01614E+06
C:/temp/Job-3.odb,Step-1,Increment      1: Step Time =    1.000,"P-3-1",          1820,       165.906,       154.673,            0.,NA,NA,"",   1.00338E+06,   1.00037E+06,   1.00037E+06
C:/temp/Job-3.odb,Step-1,Increment      1: Step Time =    1.000,"P-3-1",          1821,       35.3329,       46.6305,            0.,NA,NA,"",   966.123E+03,   1.01468E+06,   1.01468E+06
C:/temp/Job-3.odb,Step-1,Increment      1: Step Time =    1.000,"P-3-1",          1822,       156.489,       169.184,            0.,NA,NA,"",   998.379E+03,    996.77E+03,    996.77E+03
C:/temp/Job-3.odb,Step-1,Increment      1: Step Time =    1.000,"P-3-1",          1823,       153.437,       61.9484,            0.,NA,NA,"",   1.00826E+06,   1.00480E+06,   1.00480E+06
C:/temp/Job-3.odb,Step-1,Increment      1: Step Time =    1.000,"P-3-1",          1824,       52.1727,       154.588,            0.,NA,NA,"",   990.322E+03,   1.01696E+06,   1.01696E+06
C:/temp/Job-3.odb,Step-1,Increment      1: Step Time =    1.000,"P-3-1",          1825,       38.6786,       36.1297,            0.,NA,NA,"",   988.706E+03,   1.02147E+06,   1.02147E+06
C:/temp/Job-3.odb,Step-1,Increment      1: Step Time =    1.000,"P-3-1",          1826,       132.066,       133.083,            0.,NA,NA,"",   1.01370E+06,   1.01159E+06,   1.01159E+06
C:/temp/Job-3.odb,Step-1,Increment      1: Step Time =    1.000,"P-3-1",          1827,       95.7310,       155.636,            0.,NA,NA,"",   1.00196E+06,   1.00603E+06,   1.00603E+06
C:/temp/Job-3.odb,Step-1,Increment      1: Step Time =    1.000,"P-3-1",          1828,       120.146,       44.2185,            0.,NA,NA,"",   1.00312E+06,   1.00304E+06,   1.00304E+06
C:/temp/Job-3.odb,Step-1,Increment      1: Step Time =    1.000,"P-3-1",          1829,       58.4356,       160.817,            0.,NA,NA,"",   996.084E+03,   1.01324E+06,   1.01324E+06
C:/temp/Job-3.odb,Step-1,Increment      1: Step Time =    1.000,"P-3-1",          1830,       138.597,       48.7860,            0.,NA,NA,"",   1.00578E+06,   1.00372E+06,   1.00372E+06
C:/temp/Job-3.odb,Step-1,Increment      1: Step Time =    1.000,"P-3-1",          1831,       161.290,       40.4892,            0.,NA,NA,"",   1.00202E+06,   999.519E+03,   999.519E+03
C:/temp/Job-3.odb,Step-1,Increment      1: Step Time =    1.000,"P-3-1",          1832,       53.7483,       88.8241,            0.,NA,NA,"",   960.731E+03,   1.00519E+06,   1.00519E+06
C:/temp/Job-3.odb,Step-1,Increment      1: Step Time =    1.000,"P-3-1",          1833,       87.2782,       42.7093,            0.,NA,NA,"",   1.00078E+06,   1.00655E+06,   1.00655E+06
C:/temp/Job-3.odb,Step-1,Increment      1: Step Time =    1.000,"P-3-1",          1834,       27.2912,       146.046,            0.,NA,NA,"",   932.787E+03,   999.680E+03,   999.680E+03
C:/temp/Job-3.odb,Step-1,Increment      1: Step Time =    1.000,"P-3-1",          1835,       40.7036,       147.990,            0.,NA,NA,"",   967.642E+03,   1.01280E+06,   1.01280E+06
C:/temp/Job-3.odb,Step-1,Increment      1: Step Time =    1.000,"P-3-1",          1836,       17.4564,       162.347,            0.,NA,NA,"",   942.601E+03,   1.01551E+06,   1.01551E+06
C:/temp/Job-3.odb,Step-1,Increment      1: Step Time =    1.000,"P-3-1",          1837,       95.4193,       164.638,            0.,NA,NA,"",   995.381E+03,   997.855E+03,   997.855E+03
C:/temp/Job-3.odb,Step-1,Increment      1: Step Time =    1.000,"P-3-1",          1838,       151.924,       117.243,            0.,NA,NA,"",   1.00980E+06,   1.00624E+06,   1.00624E+06
C:/temp/Job-3.odb,Step-1,Increment      1: Step Time =    1.000,"P-3-1",          1839,       115.681,       147.249,            0.,NA,NA,"",   1.00765E+06,   1.00863E+06,   1.00863E+06
C:/temp/Job-3.odb,Step-1,Increment      1: Step Time =    1.000,"P-3-1",          1840,       162.443,       91.3169,            0.,NA,NA,"",   1.00846E+06,   1.00403E+06,   1.00403E+06
C:/temp/Job-3.odb,Step-1,Increment      1: Step Time =    1.000,"P-3-1",          1841,       143.830,       57.1158,            0.,NA,NA,"",   1.00844E+06,   1.00568E+06,   1.00568E+06
C:/temp/Job-3.odb,Step-1,Increment      1: Step Time =    1.000,"P-3-1",          1842,       156.837,       39.9158,            0.,NA,NA,"",   1.00173E+06,   999.400E+03,   999.400E+03
C:/temp/Job-3.odb,Step-1,Increment      1: Step Time =    1.000,"P-3-1",          1843,       165.632,       41.1651,            0.,NA,NA,"",   1.00233E+06,   999.643E+03,   999.643E+03
C:/temp/Job-3.odb,Step-1,Increment      1: Step Time =    1.000,"P-3-1",          1844,       153.133,       68.7602,            0.,NA,NA,"",   1.00933E+06,   1.00570E+06,   1.00570E+06
C:/temp/Job-3.odb,Step-1,Increment      1: Step Time =    1.000,"P-3-1",          1845,       108.532,       154.487,            0.,NA,NA,"",   1.00310E+06,   1.00491E+06,   1.00491E+06
C:/temp/Job-3.odb,Step-1,Increment      1: Step Time =    1.000,"P-3-1",          1846,       85.4568,       164.566,            0.,NA,NA,"",   995.912E+03,   1.00014E+06,   1.00014E+06
C:/temp/Job-3.odb,Step-1,Increment      1: Step Time =    1.000,"P-3-1",          1847,       116.766,       34.9226,            0.,NA,NA,"",   996.465E+03,   996.452E+03,   996.452E+03
C:/temp/Job-3.odb,Step-1,Increment      1: Step Time =    1.000,"P-3-1",          1848,       36.6853,       161.487,            0.,NA,NA,"",   982.779E+03,   1.02159E+06,   1.02159E+06
C:/temp/Job-3.odb,Step-1,Increment      1: Step Time =    1.000,"P-3-1",          1849,       71.4692,       162.481,            0.,NA,NA,"",   997.521E+03,   1.00668E+06,   1.00668E+06
C:/temp/Job-3.odb,Step-1,Increment      1: Step Time =    1.000,"P-3-1",          1850,       162.511,       97.1647,            0.,NA,NA,"",   1.00835E+06,   1.00394E+06,   1.00394E+06
C:/temp/Job-3.odb,Step-1,Increment      1: Step Time =    1.000,"P-3-1",          1851,       161.098,       108.885,            0.,NA,NA,"",   1.00853E+06,   1.00423E+06,   1.00423E+06
C:/temp/Job-3.odb,Step-1,Increment      1: Step Time =    1.000,"P-3-1",          1852,       60.7649,       165.078,            0.,NA,NA,"",   996.281E+03,   1.00920E+06,   1.00920E+06
C:/temp/Job-3.odb,Step-1,Increment      1: Step Time =    1.000,"P-3-1",          1853,       134.950,       36.7096,            0.,NA,NA,"",   999.308E+03,   998.009E+03,   998.009E+03
C:/temp/Job-3.odb,Step-1,Increment      1: Step Time =    1.000,"P-3-1",          1854,       167.064,       56.5373,            0.,NA,NA,"",   1.00576E+06,   1.00190E+06,   1.00190E+06
C:/temp/Job-3.odb,Step-1,Increment      1: Step Time =    1.000,"P-3-1",          1855,       161.833,       80.0892,            0.,NA,NA,"",   1.00860E+06,   1.00424E+06,   1.00424E+06
C:/temp/Job-3.odb,Step-1,Increment      1: Step Time =    1.000,"P-3-1",          1856,       163.547,       137.041,            0.,NA,NA,"",   1.00716E+06,   1.00313E+06,   1.00313E+06
C:/temp/Job-3.odb,Step-1,Increment      1: Step Time =    1.000,"P-3-1",          1857,       38.7492,       64.3070,            0.,NA,NA,"",   947.249E+03,   1.00277E+06,   1.00277E+06
C:/temp/Job-3.odb,Step-1,Increment      1: Step Time =    1.000,"P-3-1",          1858,       62.6341,       37.0775,            0.,NA,NA,"",   997.081E+03,   1.01003E+06,   1.01003E+06
C:/temp/Job-3.odb,Step-1,Increment      1: Step Time =    1.000,"P-3-1",          1859,       92.0547,       157.542,            0.,NA,NA,"",   1.00081E+06,   1.00528E+06,   1.00528E+06
C:/temp/Job-3.odb,Step-1,Increment      1: Step Time =    1.000,"P-3-1",          1860,       94.2743,       152.093,            0.,NA,NA,"",   1.00372E+06,   1.00891E+06,   1.00891E+06
C:/temp/Job-3.odb,Step-1,Increment      1: Step Time =    1.000,"P-3-1",          1861,       106.888,       161.303,            0.,NA,NA,"",   998.707E+03,   1.00010E+06,   1.00010E+06
C:/temp/Job-3.odb,Step-1,Increment      1: Step Time =    1.000,"P-3-1",          1862,       162.087,       106.042,            0.,NA,NA,"",   1.00842E+06,   1.00403E+06,   1.00403E+06
C:/temp/Job-3.odb,Step-1,Increment      1: Step Time =    1.000,"P-3-1",          1863,       35.0622,       96.2227,            0.,NA,NA,"",   917.203E+03,   985.644E+03,   985.644E+03
C:/temp/Job-3.odb,Step-1,Increment      1: Step Time =    1.000,"P-3-1",          1864,       150.401,       57.8720,            0.,NA,NA,"",   1.00774E+06,   1.00460E+06,   1.00460E+06
C:/temp/Job-3.odb,Step-1,Increment      1: Step Time =    1.000,"P-3-1",          1865,       90.6257,       39.3708,            0.,NA,NA,"",   998.648E+03,   1.00285E+06,   1.00285E+06
C:/temp/Job-3.odb,Step-1,Increment      1: Step Time =    1.000,"P-3-1",          1866,       163.754,       83.4458,            0.,NA,NA,"",   1.00839E+06,   1.00385E+06,   1.00385E+06
C:/temp/Job-3.odb,Step-1,Increment      1: Step Time =    1.000,"P-3-1",          1867,       127.288,       34.4517,            0.,NA,NA,"",   997.082E+03,   996.293E+03,   996.293E+03
C:/temp/Job-3.odb,Step-1,Increment      1: Step Time =    1.000,"P-3-1",          1868,       116.205,       164.445,            0.,NA,NA,"",   996.795E+03,   996.879E+03,   996.879E+03
C:/temp/Job-3.odb,Step-1,Increment      1: Step Time =    1.000,"P-3-1",          1869,       162.984,       118.572,            0.,NA,NA,"",   1.00851E+06,   1.00405E+06,   1.00405E+06
C:/temp/Job-3.odb,Step-1,Increment      1: Step Time =    1.000,"P-3-1",          1870,       163.394,       71.7013,            0.,NA,NA,"",   1.00811E+06,   1.00377E+06,   1.00377E+06
C:/temp/Job-3.odb,Step-1,Increment      1: Step Time =    1.000,"P-3-1",          1871,       38.2315,       79.1890,            0.,NA,NA,"",   933.049E+03,   994.498E+03,   994.498E+03
C:/temp/Job-3.odb,Step-1,Increment      1: Step Time =    1.000,"P-3-1",          1872,       82.0090,       36.3330,            0.,NA,NA,"",   996.583E+03,   1.00192E+06,   1.00192E+06
C:/temp/Job-3.odb,Step-1,Increment      1: Step Time =    1.000,"P-3-1",          1873,       127.954,       163.069,            0.,NA,NA,"",   998.845E+03,   997.957E+03,   997.957E+03
C:/temp/Job-3.odb,Step-1,Increment      1: Step Time =    1.000,"P-3-1",          1874,       166.667,       130.867,            0.,NA,NA,"",   1.00758E+06,   1.00312E+06,   1.00312E+06
C:/temp/Job-3.odb,Step-1,Increment      1: Step Time =    1.000,"P-3-1",          1875,       35.5542,       74.0611,            0.,NA,NA,"",   929.531E+03,   993.479E+03,   993.479E+03
C:/temp/Job-3.odb,Step-1,Increment      1: Step Time =    1.000,"P-3-1",          1876,       76.5771,       36.0372,            0.,NA,NA,"",   996.501E+03,   1.00322E+06,   1.00322E+06
C:/temp/Job-3.odb,Step-1,Increment      1: Step Time =    1.000,"P-3-1",          1877,       144.100,       33.1475,            0.,NA,NA,"",   998.121E+03,   996.634E+03,   996.634E+03
C:/temp/Job-3.odb,Step-1,Increment      1: Step Time =    1.000,"P-3-1",          1878,       163.463,       51.7103,            0.,NA,NA,"",   1.00499E+06,   1.00160E+06,   1.00160E+06
C:/temp/Job-3.odb,Step-1,Increment      1: Step Time =    1.000,"P-3-1",          1879,       64.4642,       162.115,            0.,NA,NA,"",   997.295E+03,   1.01003E+06,   1.01003E+06
C:/temp/Job-3.odb,Step-1,Increment      1: Step Time =    1.000,"P-3-1",          1880,       147.469,       164.989,            0.,NA,NA,"",   999.173E+03,   997.478E+03,   997.478E+03
C:/temp/Job-3.odb,Step-1,Increment      1: Step Time =    1.000,"P-3-1",          1881,       160.103,       144.860,            0.,NA,NA,"",   1.00607E+06,   1.00262E+06,   1.00262E+06
C:/temp/Job-3.odb,Step-1,Increment      1: Step Time =    1.000,"P-3-1",          1882,       38.1392,       55.8413,            0.,NA,NA,"",   956.235E+03,   1.00806E+06,   1.00806E+06
C:/temp/Job-3.odb,Step-1,Increment      1: Step Time =    1.000,"P-3-1",          1883,       54.3061,       37.2528,            0.,NA,NA,"",   996.162E+03,   1.01467E+06,   1.01467E+06
C:/temp/Job-3.odb,Step-1,Increment      1: Step Time =    1.000,"P-3-1",          1884,       76.3956,       162.312,            0.,NA,NA,"",   997.658E+03,   1.00508E+06,   1.00508E+06
C:/temp/Job-3.odb,Step-1,Increment      1: Step Time =    1.000,"P-3-1",          1885,       124.232,       37.8291,            0.,NA,NA,"",   999.169E+03,   998.557E+03,   998.557E+03
C:/temp/Job-3.odb,Step-1,Increment      1: Step Time =    1.000,"P-3-1",          1886,       89.6983,       163.260,            0.,NA,NA,"",   996.780E+03,   1.00052E+06,   1.00052E+06
C:/temp/Job-3.odb,Step-1,Increment      1: Step Time =    1.000,"P-3-1",          1887,       162.241,       86.3087,            0.,NA,NA,"",   1.00857E+06,   1.00415E+06,   1.00415E+06
C:/temp/Job-3.odb,Step-1,Increment      1: Step Time =    1.000,"P-3-1",          1888,       123.827,       135.135,            0.,NA,NA,"",   1.01406E+06,   1.01334E+06,   1.01334E+06
C:/temp/Job-3.odb,Step-1,Increment      1: Step Time =    1.000,"P-3-1",          1889,       83.8067,       45.4480,            0.,NA,NA,"",   1.00208E+06,   1.00962E+06,   1.00962E+06
C:/temp/Job-3.odb,Step-1,Increment      1: Step Time =    1.000,"P-3-1",          1890,       49.1618,       159.286,            0.,NA,NA,"",   991.543E+03,   1.01737E+06,   1.01737E+06
C:/temp/Job-3.odb,Step-1,Increment      1: Step Time =    1.000,"P-3-1",          1891,       50.2126,       175.019,            0.,NA,NA,"",   996.598E+03,   1.00801E+06,   1.00801E+06
C:/temp/Job-3.odb,Step-1,Increment      1: Step Time =    1.000,"P-3-1",          1892,       43.8368,       175.001,            0.,NA,NA,"",   998.920E+03,   1.01465E+06,   1.01465E+06
C:/temp/Job-3.odb,Step-1,Increment      1: Step Time =    1.000,"P-3-1",          1893,       38.1572,       179.869,            0.,NA,NA,"",   1.00435E+06,   1.01890E+06,   1.01890E+06
C:/temp/Job-3.odb,Step-1,Increment      1: Step Time =    1.000,"P-3-1",          1894,       56.6651,       67.0260,            0.,NA,NA,"",   980.301E+03,   1.01452E+06,   1.01452E+06
C:/temp/Job-3.odb,Step-1,Increment      1: Step Time =    1.000,"P-3-1",          1895,       130.859,       135.803,            0.,NA,NA,"",   1.01303E+06,   1.01110E+06,   1.01110E+06
C:/temp/Job-3.odb,Step-1,Increment      1: Step Time =    1.000,"P-3-1",          1896,       108.584,       34.7008,            0.,NA,NA,"",   995.403E+03,   996.226E+03,   996.226E+03
C:/temp/Job-3.odb,Step-1,Increment      1: Step Time =    1.000,"P-3-1",          1897,       83.5231,       157.254,            0.,NA,NA,"",   1.00084E+06,   1.00763E+06,   1.00763E+06
C:/temp/Job-3.odb,Step-1,Increment      1: Step Time =    1.000,"P-3-1",          1898,       99.5189,       153.758,            0.,NA,NA,"",   1.00295E+06,   1.00664E+06,   1.00664E+06
C:/temp/Job-3.odb,Step-1,Increment      1: Step Time =    1.000,"P-3-1",          1899,       130.992,       45.0794,            0.,NA,NA,"",   1.00402E+06,   1.00268E+06,   1.00268E+06
C:/temp/Job-3.odb,Step-1,Increment      1: Step Time =    1.000,"P-3-1",          1900,       50.1715,       89.9450,            0.,NA,NA,"",   953.074E+03,   1.00205E+06,   1.00205E+06
C:/temp/Job-3.odb,Step-1,Increment      1: Step Time =    1.000,"P-3-1",          1901,       26.4130,       152.342,            0.,NA,NA,"",   942.608E+03,   1.00662E+06,   1.00662E+06
C:/temp/Job-3.odb,Step-1,Increment      1: Step Time =    1.000,"P-3-1",          1902,       147.549,       125.101,            0.,NA,NA,"",   1.01084E+06,   1.00750E+06,   1.00750E+06
C:/temp/Job-3.odb,Step-1,Increment      1: Step Time =    1.000,"P-3-1",          1903,       119.644,       149.604,            0.,NA,NA,"",   1.00678E+06,   1.00688E+06,   1.00688E+06
C:/temp/Job-3.odb,Step-1,Increment      1: Step Time =    1.000,"P-3-1",          1904,       77.9833,       49.7811,            0.,NA,NA,"",   1.00292E+06,   1.01407E+06,   1.01407E+06
C:/temp/Job-3.odb,Step-1,Increment      1: Step Time =    1.000,"P-3-1",          1905,       143.019,       47.4791,            0.,NA,NA,"",   1.00494E+06,   1.00266E+06,   1.00266E+06
C:/temp/Job-3.odb,Step-1,Increment      1: Step Time =    1.000,"P-3-1",          1906,       152.000,       172.566,            0.,NA,NA,"",   996.342E+03,   995.071E+03,   995.071E+03
C:/temp/Job-3.odb,Step-1,Increment      1: Step Time =    1.000,"P-3-1",          1907,       47.9174,       27.7488,            0.,NA,NA,"",   997.383E+03,   1.01279E+06,   1.01279E+06
C:/temp/Job-3.odb,Step-1,Increment      1: Step Time =    1.000,"P-3-1",          1908,       160.219,       166.182,            0.,NA,NA,"",   999.955E+03,   997.982E+03,   997.982E+03
C:/temp/Job-3.odb,Step-1,Increment      1: Step Time =    1.000,"P-3-1",          1909,       80.5704,       161.745,            0.,NA,NA,"",   998.018E+03,   1.00430E+06,   1.00430E+06
C:/temp/Job-3.odb,Step-1,Increment      1: Step Time =    1.000,"P-3-1",          1910,       166.094,       159.118,            0.,NA,NA,"",   1.00222E+06,   999.556E+03,   999.556E+03
C:/temp/Job-3.odb,Step-1,Increment      1: Step Time =    1.000,"P-3-1",          1911,       35.2971,       41.9761,            0.,NA,NA,"",   974.729E+03,   1.01911E+06,   1.01911E+06
C:/temp/Job-3.odb,Step-1,Increment      1: Step Time =    1.000,"P-3-1",          1912,       42.6877,       35.1553,            0.,NA,NA,"",   991.923E+03,   1.01978E+06,   1.01978E+06
C:/temp/Job-3.odb,Step-1,Increment      1: Step Time =    1.000,"P-3-1",          1913,       57.0759,       165.586,            0.,NA,NA,"",   995.968E+03,   1.01079E+06,   1.01079E+06
C:/temp/Job-3.odb,Step-1,Increment      1: Step Time =    1.000,"P-3-1",          1914,       120.987,       37.9663,            0.,NA,NA,"",   999.116E+03,   998.794E+03,   998.794E+03
C:/temp/Job-3.odb,Step-1,Increment      1: Step Time =    1.000,"P-3-1",          1915,       147.762,       38.7695,            0.,NA,NA,"",   1.00097E+06,   999.017E+03,   999.017E+03
C:/temp/Job-3.odb,Step-1,Increment      1: Step Time =    1.000,"P-3-1",          1916,       164.811,       44.9045,            0.,NA,NA,"",   1.00332E+06,   1.00036E+06,   1.00036E+06
C:/temp/Job-3.odb,Step-1,Increment      1: Step Time =    1.000,"P-3-1",          1917,       31.7455,       157.397,            0.,NA,NA,"",   966.235E+03,   1.01709E+06,   1.01709E+06
C:/temp/Job-3.odb,Step-1,Increment      1: Step Time =    1.000,"P-3-1",          1918,       139.122,       37.0104,            0.,NA,NA,"",   999.751E+03,   998.229E+03,   998.229E+03
C:/temp/Job-3.odb,Step-1,Increment      1: Step Time =    1.000,"P-3-1",          1919,       161.298,       64.5371,            0.,NA,NA,"",   1.00760E+06,   1.00364E+06,   1.00364E+06
C:/temp/Job-3.odb,Step-1,Increment      1: Step Time =    1.000,"P-3-1",          1920,       112.012,       159.088,            0.,NA,NA,"",   1.00037E+06,   1.00122E+06,   1.00122E+06
C:/temp/Job-3.odb,Step-1,Increment      1: Step Time =    1.000,"P-3-1",          1921,       103.858,       163.518,            0.,NA,NA,"",   996.769E+03,   998.306E+03,   998.306E+03
C:/temp/Job-3.odb,Step-1,Increment      1: Step Time =    1.000,"P-3-1",          1922,       50.0399,       167.084,            0.,NA,NA,"",   995.974E+03,   1.01464E+06,   1.01464E+06
C:/temp/Job-3.odb,Step-1,Increment      1: Step Time =    1.000,"P-3-1",          1923,       131.050,       41.1831,            0.,NA,NA,"",   1.00175E+06,   1.00053E+06,   1.00053E+06
C:/temp/Job-3.odb,Step-1,Increment      1: Step Time =    1.000,"P-3-1",          1924,       160.496,       77.9275,            0.,NA,NA,"",   1.00879E+06,   1.00456E+06,   1.00456E+06
C:/temp/Job-3.odb,Step-1,Increment      1: Step Time =    1.000,"P-3-1",          1925,       121.111,       158.967,            0.,NA,NA,"",   1.00117E+06,   1.00086E+06,   1.00086E+06
C:/temp/Job-3.odb,Step-1,Increment      1: Step Time =    1.000,"P-3-1",          1926,       160.763,       121.018,            0.,NA,NA,"",   1.00872E+06,   1.00447E+06,   1.00447E+06
C:/temp/Job-3.odb,Step-1,Increment      1: Step Time =    1.000,"P-3-1",          1927,       39.0643,       75.6951,            0.,NA,NA,"",   937.364E+03,   996.882E+03,   996.882E+03
C:/temp/Job-3.odb,Step-1,Increment      1: Step Time =    1.000,"P-3-1",          1928,       79.0828,       39.0695,            0.,NA,NA,"",   998.488E+03,   1.00548E+06,   1.00548E+06
C:/temp/Job-3.odb,Step-1,Increment      1: Step Time =    1.000,"P-3-1",          1929,       87.6488,       36.2130,            0.,NA,NA,"",   996.303E+03,   1.00037E+06,   1.00037E+06
C:/temp/Job-3.odb,Step-1,Increment      1: Step Time =    1.000,"P-3-1",          1930,       135.823,       160.872,            0.,NA,NA,"",   1.00060E+06,   999.151E+03,   999.151E+03
C:/temp/Job-3.odb,Step-1,Increment      1: Step Time =    1.000,"P-3-1",          1931,       158.463,       137.670,            0.,NA,NA,"",   1.00764E+06,   1.00392E+06,   1.00392E+06
C:/temp/Job-3.odb,Step-1,Increment      1: Step Time =    1.000,"P-3-1",          1932,       38.9668,       59.5934,            0.,NA,NA,"",   953.061E+03,   1.00613E+06,   1.00613E+06
C:/temp/Job-3.odb,Step-1,Increment      1: Step Time =    1.000,"P-3-1",          1933,       162.883,       55.8816,            0.,NA,NA,"",   1.00592E+06,   1.00230E+06,   1.00230E+06
C:/temp/Job-3.odb,Step-1,Increment      1: Step Time =    1.000,"P-3-1",          1934,       66.0412,       35.2762,            0.,NA,NA,"",   996.446E+03,   1.00682E+06,   1.00682E+06
C:/temp/Job-3.odb,Step-1,Increment      1: Step Time =    1.000,"P-3-1",          1935,       161.651,       133.658,            0.,NA,NA,"",   1.00776E+06,   1.00371E+06,   1.00371E+06
C:/temp/Job-3.odb,Step-1,Increment      1: Step Time =    1.000,"P-3-1",          1936,       38.1874,       69.5664,            0.,NA,NA,"",   940.097E+03,   998.857E+03,   998.857E+03
C:/temp/Job-3.odb,Step-1,Increment      1: Step Time =    1.000,"P-3-1",          1937,       130.175,       142.961,            0.,NA,NA,"",   1.01015E+06,   1.00858E+06,   1.00858E+06
C:/temp/Job-3.odb,Step-1,Increment      1: Step Time =    1.000,"P-3-1",          1938,       46.5945,       181.576,            0.,NA,NA,"",   990.800E+03,   998.885E+03,   998.885E+03
C:/temp/Job-3.odb,Step-1,Increment      1: Step Time =    1.000,"P-3-1",          1939,       141.937,       161.330,            0.,NA,NA,"",   1.00061E+06,   998.897E+03,   998.897E+03
C:/temp/Job-3.odb,Step-1,Increment      1: Step Time =    1.000,"P-3-1",          1940,       152.426,       168.908,            0.,NA,NA,"",   997.903E+03,   996.371E+03,   996.371E+03
C:/temp/Job-3.odb,Step-1,Increment      1: Step Time =    1.000,"P-3-1",          1941,       57.0613,       38.4380,            0.,NA,NA,"",   996.857E+03,   1.01417E+06,   1.01417E+06
C:/temp/Job-3.odb,Step-1,Increment      1: Step Time =    1.000,"P-3-1",          1942,       47.6437,       70.0508,            0.,NA,NA,"",   961.386E+03,   1.00766E+06,   1.00766E+06
C:/temp/Job-3.odb,Step-1,Increment      1: Step Time =    1.000,"P-3-1",          1943,       17.4815,       154.135,            0.,NA,NA,"",   919.106E+03,   997.786E+03,   997.786E+03
C:/temp/Job-3.odb,Step-1,Increment      1: Step Time =    1.000,"P-3-1",          1944,       134.094,       141.749,            0.,NA,NA,"",   1.01024E+06,   1.00819E+06,   1.00819E+06
C:/temp/Job-3.odb,Step-1,Increment      1: Step Time =    1.000,"P-3-1",          1945,       49.7573,       163.293,            0.,NA,NA,"",   994.588E+03,   1.01646E+06,   1.01646E+06
C:/temp/Job-3.odb,Step-1,Increment      1: Step Time =    1.000,"P-3-1",          1946,       160.005,       100.978,            0.,NA,NA,"",   1.00851E+06,   1.00437E+06,   1.00437E+06
C:/temp/Job-3.odb,Step-1,Increment      1: Step Time =    1.000,"P-3-1",          1947,       37.4809,       165.972,            0.,NA,NA,"",   991.434E+03,   1.02402E+06,   1.02402E+06
C:/temp/Job-3.odb,Step-1,Increment      1: Step Time =    1.000,"P-3-1",          1948,       161.153,       113.579,            0.,NA,NA,"",   1.00869E+06,   1.00439E+06,   1.00439E+06
C:/temp/Job-3.odb,Step-1,Increment      1: Step Time =    1.000,"P-3-1",          1949,       33.9027,       86.7510,            0.,NA,NA,"",   916.265E+03,   985.631E+03,   985.631E+03
C:/temp/Job-3.odb,Step-1,Increment      1: Step Time =    1.000,"P-3-1",          1950,       159.184,       68.4861,            0.,NA,NA,"",   1.00837E+06,   1.00441E+06,   1.00441E+06
C:/temp/Job-3.odb,Step-1,Increment      1: Step Time =    1.000,"P-3-1",          1951,       154.116,       58.3565,            0.,NA,NA,"",   1.00740E+06,   1.00406E+06,   1.00406E+06
C:/temp/Job-3.odb,Step-1,Increment      1: Step Time =    1.000,"P-3-1",          1952,       98.7786,       162.266,            0.,NA,NA,"",   997.443E+03,   999.875E+03,   999.875E+03
C:/temp/Job-3.odb,Step-1,Increment      1: Step Time =    1.000,"P-3-1",          1953,       113.019,       36.3142,            0.,NA,NA,"",   997.191E+03,   997.581E+03,   997.581E+03
C:/temp/Job-3.odb,Step-1,Increment      1: Step Time =    1.000,"P-3-1",          1954,       36.6209,       147.953,            0.,NA,NA,"",   959.155E+03,   1.01021E+06,   1.01021E+06
C:/temp/Job-3.odb,Step-1,Increment      1: Step Time =    1.000,"P-3-1",          1955,       134.397,       44.5889,            0.,NA,NA,"",   1.00378E+06,   1.00220E+06,   1.00220E+06
C:/temp/Job-3.odb,Step-1,Increment      1: Step Time =    1.000,"P-3-1",          1956,       143.360,       132.807,            0.,NA,NA,"",   1.01104E+06,   1.00802E+06,   1.00802E+06
C:/temp/Job-3.odb,Step-1,Increment      1: Step Time =    1.000,"P-3-1",          1957,       105.008,       156.062,            0.,NA,NA,"",   1.00181E+06,   1.00410E+06,   1.00410E+06
C:/temp/Job-3.odb,Step-1,Increment      1: Step Time =    1.000,"P-3-1",          1958,       121.144,       41.4496,            0.,NA,NA,"",   1.00141E+06,   1.00117E+06,   1.00117E+06
C:/temp/Job-3.odb,Step-1,Increment      1: Step Time =    1.000,"P-3-1",          1959,       56.6337,       157.135,            0.,NA,NA,"",   994.633E+03,   1.01553E+06,   1.01553E+06
C:/temp/Job-3.odb,Step-1,Increment      1: Step Time =    1.000,"P-3-1",          1960,       78.4024,       44.6786,            0.,NA,NA,"",   1.00129E+06,   1.01041E+06,   1.01041E+06
C:/temp/Job-3.odb,Step-1,Increment      1: Step Time =    1.000,"P-3-1",          1961,       56.7961,       61.0795,            0.,NA,NA,"",   984.048E+03,    1.0158E+06,    1.0158E+06
C:/temp/Job-3.odb,Step-1,Increment      1: Step Time =    1.000,"P-3-1",          1962,       50.3626,       80.4358,            0.,NA,NA,"",   958.947E+03,   1.00544E+06,   1.00544E+06
C:/temp/Job-3.odb,Step-1,Increment      1: Step Time =    1.000,"P-3-1",          1963,       154.851,       54.2281,            0.,NA,NA,"",   1.00629E+06,   1.00312E+06,   1.00312E+06
C:/temp/Job-3.odb,Step-1,Increment      1: Step Time =    1.000,"P-3-1",          1964,       47.9656,       172.083,            0.,NA,NA,"",   996.677E+03,   1.01235E+06,   1.01235E+06
C:/temp/Job-3.odb,Step-1,Increment      1: Step Time =    1.000,"P-3-1",          1965,       155.840,       71.6424,            0.,NA,NA,"",   1.00910E+06,   1.00527E+06,   1.00527E+06
C:/temp/Job-3.odb,Step-1,Increment      1: Step Time =    1.000,"P-3-1",          1966,       34.1799,       91.1355,            0.,NA,NA,"",   915.550E+03,   985.059E+03,   985.059E+03
C:/temp/Job-3.odb,Step-1,Increment      1: Step Time =    1.000,"P-3-1",          1967,       36.1726,       152.268,            0.,NA,NA,"",   965.402E+03,   1.01371E+06,   1.01371E+06
C:/temp/Job-3.odb,Step-1,Increment      1: Step Time =    1.000,"P-3-1",          1968,       30.0911,       50.5014,            0.,NA,NA,"",   946.394E+03,    1.0066E+06,    1.0066E+06
C:/temp/Job-3.odb,Step-1,Increment      1: Step Time =    1.000,"P-3-1",          1969,       171.114,       149.931,            0.,NA,NA,"",   1.00444E+06,   1.00084E+06,   1.00084E+06
C:/temp/Job-3.odb,Step-1,Increment      1: Step Time =    1.000,"P-3-1",          1970,       151.025,       122.804,            0.,NA,NA,"",   1.01017E+06,   1.00664E+06,   1.00664E+06
C:/temp/Job-3.odb,Step-1,Increment      1: Step Time =    1.000,"P-3-1",          1971,       76.5721,       158.571,            0.,NA,NA,"",   999.867E+03,   1.00855E+06,   1.00855E+06
C:/temp/Job-3.odb,Step-1,Increment      1: Step Time =    1.000,"P-3-1",          1972,       147.631,       129.616,            0.,NA,NA,"",   1.01063E+06,   1.00728E+06,   1.00728E+06
C:/temp/Job-3.odb,Step-1,Increment      1: Step Time =    1.000,"P-3-1",          1973,       46.4522,       168.302,            0.,NA,NA,"",   996.404E+03,   1.01680E+06,   1.01680E+06
C:/temp/Job-3.odb,Step-1,Increment      1: Step Time =    1.000,"P-3-1",          1974,       47.8042,       94.9074,            0.,NA,NA,"",   947.517E+03,   999.492E+03,   999.492E+03
C:/temp/Job-3.odb,Step-1,Increment      1: Step Time =    1.000,"P-3-1",          1975,       55.8018,       54.5311,            0.,NA,NA,"",   987.498E+03,   1.01657E+06,   1.01657E+06
C:/temp/Job-3.odb,Step-1,Increment      1: Step Time =    1.000,"P-3-1",          1976,       52.7625,       57.9435,            0.,NA,NA,"",   980.668E+03,   1.01508E+06,   1.01508E+06
C:/temp/Job-3.odb,Step-1,Increment      1: Step Time =    1.000,"P-3-1",          1977,       100.844,       157.269,            0.,NA,NA,"",   1.00097E+06,   1.00389E+06,   1.00389E+06
C:/temp/Job-3.odb,Step-1,Increment      1: Step Time =    1.000,"P-3-1",          1978,       48.0150,       85.5023,            0.,NA,NA,"",   951.326E+03,   1.00177E+06,   1.00177E+06
C:/temp/Job-3.odb,Step-1,Increment      1: Step Time =    1.000,"P-3-1",          1979,       123.362,       148.673,            0.,NA,NA,"",   1.00740E+06,   1.00693E+06,   1.00693E+06
C:/temp/Job-3.odb,Step-1,Increment      1: Step Time =    1.000,"P-3-1",          1980,       140.554,       45.6755,            0.,NA,NA,"",   1.00418E+06,   1.00213E+06,   1.00213E+06
C:/temp/Job-3.odb,Step-1,Increment      1: Step Time =    1.000,"P-3-1",          1981,       75.3050,       52.9611,            0.,NA,NA,"",   1.00277E+06,   1.01613E+06,   1.01613E+06
C:/temp/Job-3.odb,Step-1,Increment      1: Step Time =    1.000,"P-3-1",          1982,       108.381,       158.015,            0.,NA,NA,"",   1.00090E+06,   1.00235E+06,   1.00235E+06
C:/temp/Job-3.odb,Step-1,Increment      1: Step Time =    1.000,"P-3-1",          1983,       151.632,       44.4093,            0.,NA,NA,"",   1.00330E+06,   1.00084E+06,   1.00084E+06
C:/temp/Job-3.odb,Step-1,Increment      1: Step Time =    1.000,"P-3-1",          1984,       139.228,       144.619,            0.,NA,NA,"",   1.00842E+06,   1.00606E+06,   1.00606E+06
C:/temp/Job-3.odb,Step-1,Increment      1: Step Time =    1.000,"P-3-1",          1985,       116.286,       154.654,            0.,NA,NA,"",   1.00372E+06,   1.00421E+06,   1.00421E+06
C:/temp/Job-3.odb,Step-1,Increment      1: Step Time =    1.000,"P-3-1",          1986,       160.717,       154.859,            0.,NA,NA,"",   1.00344E+06,   1.00060E+06,   1.00060E+06
C:/temp/Job-3.odb,Step-1,Increment      1: Step Time =    1.000,"P-3-1",          1987,       41.8599,       86.4492,            0.,NA,NA,"",   937.339E+03,   995.668E+03,   995.668E+03
C:/temp/Job-3.odb,Step-1,Increment      1: Step Time =    1.000,"P-3-1",          1988,       40.1995,       47.0973,            0.,NA,NA,"",   973.842E+03,   1.01582E+06,   1.01582E+06
C:/temp/Job-3.odb,Step-1,Increment      1: Step Time =    1.000,"P-3-1",          1989,       45.9794,       37.6108,            0.,NA,NA,"",   992.185E+03,   1.01863E+06,   1.01863E+06
C:/temp/Job-3.odb,Step-1,Increment      1: Step Time =    1.000,"P-3-1",          1990,       167.919,       48.6173,            0.,NA,NA,"",   1.00414E+06,   1.00082E+06,   1.00082E+06
C:/temp/Job-3.odb,Step-1,Increment      1: Step Time =    1.000,"P-3-1",          1991,       118.606,       41.9102,            0.,NA,NA,"",   1.00150E+06,   1.00158E+06,   1.00158E+06
C:/temp/Job-3.odb,Step-1,Increment      1: Step Time =    1.000,"P-3-1",          1992,       161.179,       150.031,            0.,NA,NA,"",   1.00473E+06,   1.00156E+06,   1.00156E+06
C:/temp/Job-3.odb,Step-1,Increment      1: Step Time =    1.000,"P-3-1",          1993,       35.0735,       51.1352,            0.,NA,NA,"",   957.228E+03,   1.00997E+06,   1.00997E+06
C:/temp/Job-3.odb,Step-1,Increment      1: Step Time =    1.000,"P-3-1",          1994,       151.109,       53.7586,            0.,NA,NA,"",   1.00654E+06,   1.00356E+06,   1.00356E+06
C:/temp/Job-3.odb,Step-1,Increment      1: Step Time =    1.000,"P-3-1",          1995,       75.5553,       47.2757,            0.,NA,NA,"",   1.00175E+06,   1.01307E+06,   1.01307E+06
C:/temp/Job-3.odb,Step-1,Increment      1: Step Time =    1.000,"P-3-1",          1996,       131.103,       146.567,            0.,NA,NA,"",   1.00837E+06,   1.00679E+06,   1.00679E+06
C:/temp/Job-3.odb,Step-1,Increment      1: Step Time =    1.000,"P-3-1",          1997,       38.2438,       82.7872,            0.,NA,NA,"",   930.180E+03,   992.737E+03,   992.737E+03
C:/temp/Job-3.odb,Step-1,Increment      1: Step Time =    1.000,"P-3-1",          1998,       47.4476,       74.3128,            0.,NA,NA,"",   956.830E+03,   1.00537E+06,   1.00537E+06
C:/temp/Job-3.odb,Step-1,Increment      1: Step Time =    1.000,"P-3-1",          1999,       83.6956,       54.9823,            0.,NA,NA,"",   1.00531E+06,   1.01583E+06,   1.01583E+06
C:/temp/Job-3.odb,Step-1,Increment      1: Step Time =    1.000,"P-3-1",          2000,       157.202,       164.802,            0.,NA,NA,"",   1.00008E+06,   998.106E+03,   998.106E+03
C:/temp/Job-3.odb,Step-1,Increment      1: Step Time =    1.000,"P-3-1",          2001,       31.5340,       152.278,            0.,NA,NA,"",   955.015E+03,   1.01068E+06,   1.01068E+06
C:/temp/Job-3.odb,Step-1,Increment      1: Step Time =    1.000,"P-3-1",          2002,       42.7140,       76.8474,            0.,NA,NA,"",   943.958E+03,   999.583E+03,   999.583E+03
C:/temp/Job-3.odb,Step-1,Increment      1: Step Time =    1.000,"P-3-1",          2003,       48.2189,       65.7489,            0.,NA,NA,"",   966.613E+03,   1.01006E+06,   1.01006E+06
C:/temp/Job-3.odb,Step-1,Increment      1: Step Time =    1.000,"P-3-1",          2004,       43.3936,       69.2614,            0.,NA,NA,"",   952.342E+03,   1.00409E+06,   1.00409E+06
C:/temp/Job-3.odb,Step-1,Increment      1: Step Time =    1.000,"P-3-1",          2005,       156.664,       130.556,            0.,NA,NA,"",   1.00877E+06,   1.00494E+06,   1.00494E+06
C:/temp/Job-3.odb,Step-1,Increment      1: Step Time =    1.000,"P-3-1",          2006,       80.0753,       158.227,            0.,NA,NA,"",   1.00020E+06,   1.00769E+06,   1.00769E+06
C:/temp/Job-3.odb,Step-1,Increment      1: Step Time =    1.000,"P-3-1",          2007,       46.1837,       78.5455,            0.,NA,NA,"",   951.053E+03,   1.00240E+06,   1.00240E+06
C:/temp/Job-3.odb,Step-1,Increment      1: Step Time =    1.000,"P-3-1",          2008,       148.494,       33.7505,            0.,NA,NA,"",   998.787E+03,   997.137E+03,   997.137E+03
C:/temp/Job-3.odb,Step-1,Increment      1: Step Time =    1.000,"P-3-1",          2009,       50.7254,       36.8633,            0.,NA,NA,"",   994.897E+03,   1.01593E+06,   1.01593E+06
C:/temp/Job-3.odb,Step-1,Increment      1: Step Time =    1.000,"P-3-1",          2010,       54.2788,       41.1333,            0.,NA,NA,"",   994.820E+03,   1.01633E+06,   1.01633E+06
C:/temp/Job-3.odb,Step-1,Increment      1: Step Time =    1.000,"P-3-1",          2011,       147.689,       53.6128,            0.,NA,NA,"",   1.00685E+06,   1.00404E+06,   1.00404E+06
C:/temp/Job-3.odb,Step-1,Increment      1: Step Time =    1.000,"P-3-1",          2012,       65.2990,       40.7207,            0.,NA,NA,"",   998.173E+03,   1.01173E+06,   1.01173E+06
C:/temp/Job-3.odb,Step-1,Increment      1: Step Time =    1.000,"P-3-1",          2013,       132.433,       158.694,            0.,NA,NA,"",   1.00185E+06,   1.00051E+06,   1.00051E+06
C:/temp/Job-3.odb,Step-1,Increment      1: Step Time =    1.000,"P-3-1",          2014,       44.5542,       58.6523,            0.,NA,NA,"",   966.279E+03,   1.01089E+06,   1.01089E+06
C:/temp/Job-3.odb,Step-1,Increment      1: Step Time =    1.000,"P-3-1",          2015,       158.833,       54.9989,            0.,NA,NA,"",   1.00610E+06,   1.00271E+06,   1.00271E+06
C:/temp/Job-3.odb,Step-1,Increment      1: Step Time =    1.000,"P-3-1",          2016,       155.692,       141.517,            0.,NA,NA,"",   1.00730E+06,   1.00388E+06,   1.00388E+06
C:/temp/Job-3.odb,Step-1,Increment      1: Step Time =    1.000,"P-3-1",          2017,       128.326,       151.664,            0.,NA,NA,"",   1.00576E+06,   1.00464E+06,   1.00464E+06
C:/temp/Job-3.odb,Step-1,Increment      1: Step Time =    1.000,"P-3-1",          2018,       117.601,       46.2359,            0.,NA,NA,"",   1.00430E+06,   1.00464E+06,   1.00464E+06
C:/temp/Job-3.odb,Step-1,Increment      1: Step Time =    1.000,"P-3-1",          2019,       43.1566,       95.9476,            0.,NA,NA,"",   936.331E+03,   994.691E+03,   994.691E+03
C:/temp/Job-3.odb,Step-1,Increment      1: Step Time =    1.000,"P-3-1",          2020,       157.389,       123.593,            0.,NA,NA,"",   1.00910E+06,   1.00511E+06,   1.00511E+06
C:/temp/Job-3.odb,Step-1,Increment      1: Step Time =    1.000,"P-3-1",          2021,       154.749,       120.233,            0.,NA,NA,"",   1.00952E+06,   1.00574E+06,   1.00574E+06
C:/temp/Job-3.odb,Step-1,Increment      1: Step Time =    1.000,"P-3-1",          2022,       151.473,       49.2436,            0.,NA,NA,"",   1.00503E+06,   1.00229E+06,   1.00229E+06
C:/temp/Job-3.odb,Step-1,Increment      1: Step Time =    1.000,"P-3-1",          2023,       147.958,       132.353,            0.,NA,NA,"",   1.01014E+06,   1.00681E+06,   1.00681E+06
C:/temp/Job-3.odb,Step-1,Increment      1: Step Time =    1.000,"P-3-1",          2024,       151.755,       131.180,            0.,NA,NA,"",   1.00948E+06,   1.00594E+06,   1.00594E+06
C:/temp/Job-3.odb,Step-1,Increment      1: Step Time =    1.000,"P-3-1",          2025,       122.543,       144.178,            0.,NA,NA,"",   1.00969E+06,   1.00937E+06,   1.00937E+06
C:/temp/Job-3.odb,Step-1,Increment      1: Step Time =    1.000,"P-3-1",          2026,       49.8940,       61.5567,            0.,NA,NA,"",   973.037E+03,   1.01260E+06,   1.01260E+06
C:/temp/Job-3.odb,Step-1,Increment      1: Step Time =    1.000,"P-3-1",          2027,       142.383,       139.528,            0.,NA,NA,"",   1.00985E+06,   1.00707E+06,   1.00707E+06
C:/temp/Job-3.odb,Step-1,Increment      1: Step Time =    1.000,"P-3-1",          2028,       47.2606,       91.5938,            0.,NA,NA,"",   947.001E+03,   999.427E+03,   999.427E+03
C:/temp/Job-3.odb,Step-1,Increment      1: Step Time =    1.000,"P-3-1",          2029,       152.091,       133.969,            0.,NA,NA,"",   1.00905E+06,   1.00554E+06,   1.00554E+06
C:/temp/Job-3.odb,Step-1,Increment      1: Step Time =    1.000,"P-3-1",          2030,       140.058,       152.349,            0.,NA,NA,"",   1.00514E+06,   1.00306E+06,   1.00306E+06
C:/temp/Job-3.odb,Step-1,Increment      1: Step Time =    1.000,"P-3-1",          2031,       57.2393,       43.5887,            0.,NA,NA,"",   995.221E+03,   1.01606E+06,   1.01606E+06
C:/temp/Job-3.odb,Step-1,Increment      1: Step Time =    1.000,"P-3-1",          2032,       135.561,       155.434,            0.,NA,NA,"",   1.00373E+06,   1.00208E+06,   1.00208E+06
C:/temp/Job-3.odb,Step-1,Increment      1: Step Time =    1.000,"P-3-1",          2033,       62.3522,       43.3733,            0.,NA,NA,"",   997.486E+03,   1.01440E+06,   1.01440E+06
C:/temp/Job-3.odb,Step-1,Increment      1: Step Time =    1.000,"P-3-1",          2034,       145.480,       155.539,            0.,NA,NA,"",   1.00355E+06,   1.00134E+06,   1.00134E+06
C:/temp/Job-3.odb,Step-1,Increment      1: Step Time =    1.000,"P-3-1",          2035,       152.261,       144.915,            0.,NA,NA,"",   1.00676E+06,   1.00367E+06,   1.00367E+06
C:/temp/Job-3.odb,Step-1,Increment      1: Step Time =    1.000,"P-3-1",          2036,       48.6714,       54.6850,            0.,NA,NA,"",   978.010E+03,   1.01481E+06,   1.01481E+06
C:/temp/Job-3.odb,Step-1,Increment      1: Step Time =    1.000,"P-3-1",          2037,       51.8364,       44.7986,            0.,NA,NA,"",   990.199E+03,   1.01707E+06,   1.01707E+06
C:/temp/Job-3.odb,Step-1,Increment      1: Step Time =    1.000,"P-3-1",          2038,       53.0432,       167.250,            0.,NA,NA,"",   995.998E+03,   1.01235E+06,   1.01235E+06
C:/temp/Job-3.odb,Step-1,Increment      1: Step Time =    1.000,"P-3-1",          2039,       55.6203,       47.5382,            0.,NA,NA,"",   991.904E+03,   1.01669E+06,   1.01669E+06
C:/temp/Job-3.odb,Step-1,Increment      1: Step Time =    1.000,"P-3-1",          2040,       40.9630,       160.711,            0.,NA,NA,"",   986.228E+03,   1.02014E+06,   1.02014E+06
C:/temp/Job-3.odb,Step-1,Increment      1: Step Time =    1.000,"P-3-1",          2041,       154.888,       114.051,            0.,NA,NA,"",   1.00926E+06,   1.00554E+06,   1.00554E+06
C:/temp/Job-3.odb,Step-1,Increment      1: Step Time =    1.000,"P-3-1",          2042,       73.1489,       44.4413,            0.,NA,NA,"",   1.00051E+06,   1.01179E+06,   1.01179E+06
C:/temp/Job-3.odb,Step-1,Increment      1: Step Time =    1.000,"P-3-1",          2043,       69.4973,       53.2231,            0.,NA,NA,"",   999.885E+03,   1.01692E+06,   1.01692E+06
C:/temp/Job-3.odb,Step-1,Increment      1: Step Time =    1.000,"P-3-1",          2044,       120.386,       154.147,            0.,NA,NA,"",   1.00424E+06,   1.00411E+06,   1.00411E+06
C:/temp/Job-3.odb,Step-1,Increment      1: Step Time =    1.000,"P-3-1",          2045,       153.110,       158.408,            0.,NA,NA,"",   1.00228E+06,   999.964E+03,   999.964E+03
C:/temp/Job-3.odb,Step-1,Increment      1: Step Time =    1.000,"P-3-1",          2046,       43.7589,       47.4306,            0.,NA,NA,"",   978.274E+03,   1.01615E+06,   1.01615E+06
C:/temp/Job-3.odb,Step-1,Increment      1: Step Time =    1.000,"P-3-1",          2047,       156.110,       153.813,            0.,NA,NA,"",   1.00391E+06,   1.00115E+06,   1.00115E+06
C:/temp/Job-3.odb,Step-1,Increment      1: Step Time =    1.000,"P-3-1",          2048,       45.6729,       44.6070,            0.,NA,NA,"",   983.837E+03,   1.01723E+06,   1.01723E+06
C:/temp/Job-3.odb,Step-1,Increment      1: Step Time =    1.000,"P-3-1",          2049,       43.4863,       73.2538,            0.,NA,NA,"",   948.220E+03,   1.00186E+06,   1.00186E+06
C:/temp/Job-3.odb,Step-1,Increment      1: Step Time =    1.000,"P-3-1",          2050,       155.546,       49.7033,            0.,NA,NA,"",   1.00492E+06,   1.00197E+06,   1.00197E+06
C:/temp/Job-3.odb,Step-1,Increment      1: Step Time =    1.000,"P-3-1",          2051,       115.932,       43.4284,            0.,NA,NA,"",   1.00227E+06,   1.00273E+06,   1.00273E+06
C:/temp/Job-3.odb,Step-1,Increment      1: Step Time =    1.000,"P-3-1",          2052,       116.036,       150.450,            0.,NA,NA,"",   1.00616E+06,   1.00689E+06,   1.00689E+06
C:/temp/Job-3.odb,Step-1,Increment      1: Step Time =    1.000,"P-3-1",          2053,       144.575,       144.455,            0.,NA,NA,"",   1.00784E+06,   1.00514E+06,   1.00514E+06
C:/temp/Job-3.odb,Step-1,Increment      1: Step Time =    1.000,"P-3-1",          2054,       153.852,       126.131,            0.,NA,NA,"",   1.00962E+06,   1.00589E+06,   1.00589E+06
C:/temp/Job-3.odb,Step-1,Increment      1: Step Time =    1.000,"P-3-1",          2055,       114.871,       47.9146,            0.,NA,NA,"",   1.00496E+06,   1.00589E+06,   1.00589E+06
C:/temp/Job-3.odb,Step-1,Increment      1: Step Time =    1.000,"P-3-1",          2056,       124.409,       153.134,            0.,NA,NA,"",   1.00495E+06,   1.00430E+06,   1.00430E+06
C:/temp/Job-3.odb,Step-1,Increment      1: Step Time =    1.000,"P-3-1",          2057,       148.433,       119.743,            0.,NA,NA,"",   1.01041E+06,   1.00711E+06,   1.00711E+06
C:/temp/Job-3.odb,Step-1,Increment      1: Step Time =    1.000,"P-3-1",          2058,       152.793,       151.144,            0.,NA,NA,"",   1.00481E+06,   1.00204E+06,   1.00204E+06
C:/temp/Job-3.odb,Step-1,Increment      1: Step Time =    1.000,"P-3-1",          2059,       152.156,       138.652,            0.,NA,NA,"",   1.00830E+06,   1.00493E+06,   1.00493E+06
C:/temp/Job-3.odb,Step-1,Increment      1: Step Time =    1.000,"P-3-1",          2060,       129.960,       155.498,            0.,NA,NA,"",   1.00360E+06,   1.00238E+06,   1.00238E+06
C:/temp/Job-3.odb,Step-1,Increment      1: Step Time =    1.000,"P-3-1",          2061,       67.7447,       44.0197,            0.,NA,NA,"",   999.107E+03,   1.01305E+06,   1.01305E+06
C:/temp/Job-3.odb,Step-1,Increment      1: Step Time =    1.000,"P-3-1",          2062,       45.5316,       50.8141,            0.,NA,NA,"",   977.470E+03,   1.01535E+06,   1.01535E+06
C:/temp/Job-3.odb,Step-1,Increment      1: Step Time =    1.000,"P-3-1",          2063,       67.1253,       49.9020,            0.,NA,NA,"",   998.692E+03,   1.01598E+06,   1.01598E+06
C:/temp/Job-3.odb,Step-1,Increment      1: Step Time =    1.000,"P-3-1",          2064,       48.9515,       47.9266,            0.,NA,NA,"",   984.643E+03,   1.01646E+06,   1.01646E+06
C:/temp/Job-3.odb,Step-1,Increment      1: Step Time =    1.000,"P-3-1",          2065,       58.4250,       51.3218,            0.,NA,NA,"",   992.475E+03,   1.01691E+06,   1.01691E+06
C:/temp/Job-3.odb,Step-1,Increment      1: Step Time =    1.000,"P-3-1",          2066,       126.429,       143.717,            0.,NA,NA,"",   1.01004E+06,   1.00902E+06,   1.00902E+06
C:/temp/Job-3.odb,Step-1,Increment      1: Step Time =    1.000,"P-3-1",          2067,       132.120,       150.101,            0.,NA,NA,"",   1.00643E+06,   1.00486E+06,   1.00486E+06
C:/temp/Job-3.odb,Step-1,Increment      1: Step Time =    1.000,"P-3-1",          2068,       64.7197,       46.5597,            0.,NA,NA,"",   997.990E+03,   1.01503E+06,   1.01503E+06
C:/temp/Job-3.odb,Step-1,Increment      1: Step Time =    1.000,"P-3-1",          2069,       149.988,       153.779,            0.,NA,NA,"",   1.00413E+06,   1.00162E+06,   1.00162E+06
C:/temp/Job-3.odb,Step-1,Increment      1: Step Time =    1.000,"P-3-1",          2070,       149.448,       135.692,            0.,NA,NA,"",   1.00927E+06,   1.00594E+06,   1.00594E+06
C:/temp/Job-3.odb,Step-1,Increment      1: Step Time =    1.000,"P-3-1",          2071,       142.858,       148.073,            0.,NA,NA,"",   1.00672E+06,   1.00426E+06,   1.00426E+06
C:/temp/Job-3.odb,Step-1,Increment      1: Step Time =    1.000,"P-3-1",          2072,       63.9740,       52.2725,            0.,NA,NA,"",   996.233E+03,   1.01703E+06,   1.01703E+06
C:/temp/Job-3.odb,Step-1,Increment      1: Step Time =    1.000,"P-3-1",          2073,       139.502,       148.416,            0.,NA,NA,"",   1.00683E+06,   1.00459E+06,   1.00459E+06
C:/temp/Job-3.odb,Step-1,Increment      1: Step Time =    1.000,"P-3-1",          2074,       135.059,       145.460,            0.,NA,NA,"",   1.00855E+06,   1.00654E+06,   1.00654E+06
C:/temp/Job-3.odb,Step-1,Increment      1: Step Time =    1.000,"P-3-1",          2075,       148.760,       141.534,            0.,NA,NA,"",   1.00812E+06,   1.00504E+06,   1.00504E+06
C:/temp/Job-3.odb,Step-1,Increment      1: Step Time =    1.000,"P-3-1",          2076,       5.13139,       5.11527,            0.,NA,NA,"",   1.28297E+06,   1.33135E+06,   1.33135E+06
C:/temp/Job-3.odb,Step-1,Increment      1: Step Time =    1.000,"P-3-1",          2077,       106.240,       98.7435,            0.,NA,NA,"",   823.887E+03,   819.292E+03,   819.292E+03
C:/temp/Job-3.odb,Step-1,Increment      1: Step Time =    1.000,"P-3-1",          2078,       44.9861,       9.15847,            0.,NA,NA,"",   967.495E+03,   969.809E+03,   969.809E+03
C:/temp/Job-3.odb,Step-1,Increment      1: Step Time =    1.000,"P-3-1",          2079,       106.240,       105.368,            0.,NA,NA,"",   1.09132E+06,   1.05543E+06,   1.05543E+06
C:/temp/Job-3.odb,Step-1,Increment      1: Step Time =    1.000,"P-3-1",          2080,       90.0905,       97.8412,            0.,NA,NA,"",   917.233E+03,   934.017E+03,   934.017E+03
C:/temp/Job-3.odb,Step-1,Increment      1: Step Time =    1.000,"P-3-1",          2081,       98.7922,       90.0277,            0.,NA,NA,"",   1.01594E+06,   1.04966E+06,   1.04966E+06
C:/temp/Job-3.odb,Step-1,Increment      1: Step Time =    1.000,"P-3-1",          2082,       93.7206,       107.783,            0.,NA,NA,"",   1.05938E+06,   1.05679E+06,   1.05679E+06
C:/temp/Job-3.odb,Step-1,Increment      1: Step Time =    1.000,"P-3-1",          2083,       9.01784,       154.654,            0.,NA,NA,"",   889.788E+03,   983.172E+03,   983.172E+03
C:/temp/Job-3.odb,Step-1,Increment      1: Step Time =    1.000,"P-3-1",          2084,       135.677,       185.324,            0.,NA,NA,"",   985.770E+03,   985.417E+03,   985.417E+03
C:/temp/Job-3.odb,Step-1,Increment      1: Step Time =    1.000,"P-3-1",          2085,       102.462,       109.940,            0.,NA,NA,"",   1.04242E+06,   1.06300E+06,   1.06300E+06
C:/temp/Job-3.odb,Step-1,Increment      1: Step Time =    1.000,"P-3-1",          2086,       97.7815,       110.297,            0.,NA,NA,"",   1.02169E+06,   1.05073E+06,   1.05073E+06
C:/temp/Job-3.odb,Step-1,Increment      1: Step Time =    1.000,"P-3-1",          2087,       95.8941,       93.9026,            0.,NA,NA,"",   1.09310E+06,   1.09750E+06,   1.09750E+06
C:/temp/Job-3.odb,Step-1,Increment      1: Step Time =    1.000,"P-3-1",          2088,       88.8442,       95.8780,            0.,NA,NA,"",   979.351E+03,   988.729E+03,   988.729E+03
C:/temp/Job-3.odb,Step-1,Increment      1: Step Time =    1.000,"P-3-1",          2089,       90.7782,       109.466,            0.,NA,NA,"",   1.04060E+06,   1.04273E+06,   1.04273E+06
C:/temp/Job-3.odb,Step-1,Increment      1: Step Time =    1.000,"P-3-1",          2090,       88.4879,       93.1656,            0.,NA,NA,"",   1.01262E+06,   1.01768E+06,   1.01768E+06
C:/temp/Job-3.odb,Step-1,Increment      1: Step Time =    1.000,"P-3-1",          2091,       92.3426,       91.9326,            0.,NA,NA,"",   1.04939E+06,   1.04901E+06,   1.04901E+06
C:/temp/Job-3.odb,Step-1,Increment      1: Step Time =    1.000,"P-3-1",          2092,       91.8786,       112.254,            0.,NA,NA,"",   1.03606E+06,   1.04335E+06,   1.04335E+06
C:/temp/Job-3.odb,Step-1,Increment      1: Step Time =    1.000,"P-3-1",          2093,       110.869,       107.598,            0.,NA,NA,"",   1.03081E+06,   1.02447E+06,   1.02447E+06
C:/temp/Job-3.odb,Step-1,Increment      1: Step Time =    1.000,"P-3-1",          2094,       110.520,       113.066,            0.,NA,NA,"",   1.03694E+06,   1.03552E+06,   1.03552E+06
C:/temp/Job-3.odb,Step-1,Increment      1: Step Time =    1.000,"P-3-1",          2095,       163.395,       20.0965,            0.,NA,NA,"",   996.159E+03,   995.248E+03,   995.248E+03
C:/temp/Job-3.odb,Step-1,Increment      1: Step Time =    1.000,"P-3-1",          2096,       54.7223,       182.184,            0.,NA,NA,"",   981.837E+03,   986.615E+03,   986.615E+03
C:/temp/Job-3.odb,Step-1,Increment      1: Step Time =    1.000,"P-3-1",          2097,       74.3206,       179.449,            0.,NA,NA,"",   978.485E+03,   980.824E+03,   980.824E+03
C:/temp/Job-3.odb,Step-1,Increment      1: Step Time =    1.000,"P-3-1",          2098,       150.537,       181.376,            0.,NA,NA,"",   992.599E+03,   991.909E+03,   991.909E+03
C:/temp/Job-3.odb,Step-1,Increment      1: Step Time =    1.000,"P-3-1",          2099,       62.3053,       178.011,            0.,NA,NA,"",   984.532E+03,   989.692E+03,   989.692E+03
C:/temp/Job-3.odb,Step-1,Increment      1: Step Time =    1.000,"P-3-1",          2100,       154.169,       19.3183,            0.,NA,NA,"",   993.736E+03,   992.986E+03,   992.986E+03
C:/temp/Job-3.odb,Step-1,Increment      1: Step Time =    1.000,"P-3-1",          2101,       181.016,       145.232,            0.,NA,NA,"",   1.00517E+06,   1.00062E+06,   1.00062E+06
C:/temp/Job-3.odb,Step-1,Increment      1: Step Time =    1.000,"P-3-1",          2102,       19.3048,       174.382,            0.,NA,NA,"",   995.997E+03,   1.05006E+06,   1.05006E+06
C:/temp/Job-3.odb,Step-1,Increment      1: Step Time =    1.000,"P-3-1",          2103,       90.9736,       113.912,            0.,NA,NA,"",   1.02599E+06,   1.03492E+06,   1.03492E+06
C:/temp/Job-3.odb,Step-1,Increment      1: Step Time =    1.000,"P-3-1",          2104,       89.2505,       113.904,            0.,NA,NA,"",   1.02494E+06,   1.03448E+06,   1.03448E+06
C:/temp/Job-3.odb,Step-1,Increment      1: Step Time =    1.000,"P-3-1",          2105,       24.7706,       176.361,            0.,NA,NA,"",   1.01495E+06,   1.05216E+06,   1.05216E+06
C:/temp/Job-3.odb,Step-1,Increment      1: Step Time =    1.000,"P-3-1",          2106,       58.4206,       177.795,            0.,NA,NA,"",   987.275E+03,   993.714E+03,   993.714E+03
C:/temp/Job-3.odb,Step-1,Increment      1: Step Time =    1.000,"P-3-1",          2107,       70.1472,       175.559,            0.,NA,NA,"",   985.641E+03,   989.863E+03,   989.863E+03
C:/temp/Job-3.odb,Step-1,Increment      1: Step Time =    1.000,"P-3-1",          2108,       62.4845,       173.930,            0.,NA,NA,"",   990.347E+03,   997.237E+03,   997.237E+03
C:/temp/Job-3.odb,Step-1,Increment      1: Step Time =    1.000,"P-3-1",          2109,       87.3831,       90.2859,            0.,NA,NA,"",   1.01926E+06,   1.02725E+06,   1.02725E+06
C:/temp/Job-3.odb,Step-1,Increment      1: Step Time =    1.000,"P-3-1",          2110,       158.324,       24.6199,            0.,NA,NA,"",   996.467E+03,   995.290E+03,   995.290E+03
C:/temp/Job-3.odb,Step-1,Increment      1: Step Time =    1.000,"P-3-1",          2111,       175.354,       95.3177,            0.,NA,NA,"",   1.00795E+06,   1.00201E+06,   1.00201E+06
C:/temp/Job-3.odb,Step-1,Increment      1: Step Time =    1.000,"P-3-1",          2112,       176.082,       167.184,            0.,NA,NA,"",   1.00102E+06,   998.817E+03,   998.817E+03
C:/temp/Job-3.odb,Step-1,Increment      1: Step Time =    1.000,"P-3-1",          2113,       113.638,       113.537,            0.,NA,NA,"",   1.02967E+06,   1.02748E+06,   1.02748E+06
C:/temp/Job-3.odb,Step-1,Increment      1: Step Time =    1.000,"P-3-1",          2114,       160.431,       177.862,            0.,NA,NA,"",   996.084E+03,   995.059E+03,   995.059E+03
C:/temp/Job-3.odb,Step-1,Increment      1: Step Time =    1.000,"P-3-1",          2115,       177.534,       114.520,            0.,NA,NA,"",   1.00781E+06,   1.00173E+06,   1.00173E+06
C:/temp/Job-3.odb,Step-1,Increment      1: Step Time =    1.000,"P-3-1",          2116,       169.571,       176.893,            0.,NA,NA,"",   998.018E+03,   996.795E+03,   996.795E+03
C:/temp/Job-3.odb,Step-1,Increment      1: Step Time =    1.000,"P-3-1",          2117,       108.262,       117.849,            0.,NA,NA,"",   1.02455E+06,   1.02956E+06,   1.02956E+06
C:/temp/Job-3.odb,Step-1,Increment      1: Step Time =    1.000,"P-3-1",          2118,       149.348,       23.9798,            0.,NA,NA,"",   994.491E+03,   993.487E+03,   993.487E+03
C:/temp/Job-3.odb,Step-1,Increment      1: Step Time =    1.000,"P-3-1",          2119,       85.2132,       112.340,            0.,NA,NA,"",   1.01687E+06,   1.02751E+06,   1.02751E+06
C:/temp/Job-3.odb,Step-1,Increment      1: Step Time =    1.000,"P-3-1",          2120,       38.4066,       170.504,            0.,NA,NA,"",   997.669E+03,   1.02383E+06,   1.02383E+06
C:/temp/Job-3.odb,Step-1,Increment      1: Step Time =    1.000,"P-3-1",          2121,       53.5853,       19.1433,            0.,NA,NA,"",   985.198E+03,   991.089E+03,   991.089E+03
C:/temp/Job-3.odb,Step-1,Increment      1: Step Time =    1.000,"P-3-1",          2122,       126.136,       19.1026,            0.,NA,NA,"",   985.494E+03,   985.126E+03,   985.126E+03
C:/temp/Job-3.odb,Step-1,Increment      1: Step Time =    1.000,"P-3-1",          2123,       84.2472,       79.5506,            0.,NA,NA,"",   1.01402E+06,   1.02728E+06,   1.02728E+06
C:/temp/Job-3.odb,Step-1,Increment      1: Step Time =    1.000,"P-3-1",          2124,       171.563,       64.8389,            0.,NA,NA,"",   1.00671E+06,   1.00206E+06,   1.00206E+06
C:/temp/Job-3.odb,Step-1,Increment      1: Step Time =    1.000,"P-3-1",          2125,       71.1816,       18.3412,            0.,NA,NA,"",   975.528E+03,   977.646E+03,   977.646E+03
C:/temp/Job-3.odb,Step-1,Increment      1: Step Time =    1.000,"P-3-1",          2126,       95.3057,       24.8413,            0.,NA,NA,"",   984.475E+03,   985.523E+03,   985.523E+03
C:/temp/Job-3.odb,Step-1,Increment      1: Step Time =    1.000,"P-3-1",          2127,       25.3465,       32.7004,            0.,NA,NA,"",   980.867E+03,   1.03145E+06,   1.03145E+06
C:/temp/Job-3.odb,Step-1,Increment      1: Step Time =    1.000,"P-3-1",          2128,       172.257,       98.3393,            0.,NA,NA,"",   1.00800E+06,   1.00244E+06,   1.00244E+06
C:/temp/Job-3.odb,Step-1,Increment      1: Step Time =    1.000,"P-3-1",          2129,       176.256,       103.401,            0.,NA,NA,"",   1.00794E+06,   1.00192E+06,   1.00192E+06
C:/temp/Job-3.odb,Step-1,Increment      1: Step Time =    1.000,"P-3-1",          2130,       175.754,       122.825,            0.,NA,NA,"",   1.00753E+06,   1.00193E+06,   1.00193E+06
C:/temp/Job-3.odb,Step-1,Increment      1: Step Time =    1.000,"P-3-1",          2131,       126.777,       91.4318,            0.,NA,NA,"",   1.00828E+06,   1.00793E+06,   1.00793E+06
C:/temp/Job-3.odb,Step-1,Increment      1: Step Time =    1.000,"P-3-1",          2132,       168.930,       96.0016,            0.,NA,NA,"",   1.00809E+06,   1.00295E+06,   1.00295E+06
C:/temp/Job-3.odb,Step-1,Increment      1: Step Time =    1.000,"P-3-1",          2133,       116.613,       117.246,            0.,NA,NA,"",   1.02458E+06,   1.02346E+06,   1.02346E+06
C:/temp/Job-3.odb,Step-1,Increment      1: Step Time =    1.000,"P-3-1",          2134,       171.224,       145.480,            0.,NA,NA,"",   1.00526E+06,   1.00131E+06,   1.00131E+06
C:/temp/Job-3.odb,Step-1,Increment      1: Step Time =    1.000,"P-3-1",          2135,       88.0614,       76.0474,            0.,NA,NA,"",   1.01316E+06,   1.02569E+06,   1.02569E+06
C:/temp/Job-3.odb,Step-1,Increment      1: Step Time =    1.000,"P-3-1",          2136,       165.964,       173.663,            0.,NA,NA,"",   998.272E+03,   996.817E+03,   996.817E+03
C:/temp/Job-3.odb,Step-1,Increment      1: Step Time =    1.000,"P-3-1",          2137,       114.700,       22.8302,            0.,NA,NA,"",   985.397E+03,   985.254E+03,   985.254E+03
C:/temp/Job-3.odb,Step-1,Increment      1: Step Time =    1.000,"P-3-1",          2138,       29.9295,       21.6250,            0.,NA,NA,"",   1.01526E+06,   1.03981E+06,   1.03981E+06
C:/temp/Job-3.odb,Step-1,Increment      1: Step Time =    1.000,"P-3-1",          2139,       83.1206,       86.6307,            0.,NA,NA,"",   1.01272E+06,   1.02540E+06,   1.02540E+06
C:/temp/Job-3.odb,Step-1,Increment      1: Step Time =    1.000,"P-3-1",          2140,       176.847,       110.689,            0.,NA,NA,"",   1.00793E+06,   1.00188E+06,   1.00188E+06
C:/temp/Job-3.odb,Step-1,Increment      1: Step Time =    1.000,"P-3-1",          2141,       177.246,       86.3228,            0.,NA,NA,"",   1.00781E+06,   1.00177E+06,   1.00177E+06
C:/temp/Job-3.odb,Step-1,Increment      1: Step Time =    1.000,"P-3-1",          2142,       41.6124,       165.092,            0.,NA,NA,"",   992.210E+03,   1.02100E+06,   1.02100E+06
C:/temp/Job-3.odb,Step-1,Increment      1: Step Time =    1.000,"P-3-1",          2143,       45.6516,       164.158,            0.,NA,NA,"",   993.584E+03,   1.01887E+06,   1.01887E+06
C:/temp/Job-3.odb,Step-1,Increment      1: Step Time =    1.000,"P-3-1",          2144,       19.1066,       61.3027,            0.,NA,NA,"",   896.438E+03,   979.630E+03,   979.630E+03
C:/temp/Job-3.odb,Step-1,Increment      1: Step Time =    1.000,"P-3-1",          2145,       177.483,       30.3169,            0.,NA,NA,"",   1.00064E+06,   998.656E+03,   998.656E+03
C:/temp/Job-3.odb,Step-1,Increment      1: Step Time =    1.000,"P-3-1",          2146,       118.314,       87.7122,            0.,NA,NA,"",   1.01900E+06,   1.01746E+06,   1.01746E+06
C:/temp/Job-3.odb,Step-1,Increment      1: Step Time =    1.000,"P-3-1",          2147,       113.126,       120.746,            0.,NA,NA,"",   1.02328E+06,   1.02491E+06,   1.02491E+06
C:/temp/Job-3.odb,Step-1,Increment      1: Step Time =    1.000,"P-3-1",          2148,       144.593,       28.4796,            0.,NA,NA,"",   995.844E+03,   994.630E+03,   994.630E+03
C:/temp/Job-3.odb,Step-1,Increment      1: Step Time =    1.000,"P-3-1",          2149,       172.439,       33.4437,            0.,NA,NA,"",   1.00080E+06,   998.612E+03,   998.612E+03
C:/temp/Job-3.odb,Step-1,Increment      1: Step Time =    1.000,"P-3-1",          2150,       71.6577,       23.6318,            0.,NA,NA,"",   984.266E+03,   988.048E+03,   988.048E+03
C:/temp/Job-3.odb,Step-1,Increment      1: Step Time =    1.000,"P-3-1",          2151,       68.6781,       26.8151,            0.,NA,NA,"",   988.899E+03,   994.475E+03,   994.475E+03
C:/temp/Job-3.odb,Step-1,Increment      1: Step Time =    1.000,"P-3-1",          2152,       77.2076,       166.241,            0.,NA,NA,"",   994.895E+03,   1.00085E+06,   1.00085E+06
C:/temp/Job-3.odb,Step-1,Increment      1: Step Time =    1.000,"P-3-1",          2153,       80.6928,       104.326,            0.,NA,NA,"",   982.547E+03,   1.00220E+06,   1.00220E+06
C:/temp/Job-3.odb,Step-1,Increment      1: Step Time =    1.000,"P-3-1",          2154,       170.209,       123.384,            0.,NA,NA,"",   1.00781E+06,   1.00280E+06,   1.00280E+06
C:/temp/Job-3.odb,Step-1,Increment      1: Step Time =    1.000,"P-3-1",          2155,       124.770,       103.614,            0.,NA,NA,"",   1.00091E+06,   1.00230E+06,   1.00230E+06
C:/temp/Job-3.odb,Step-1,Increment      1: Step Time =    1.000,"P-3-1",          2156,       62.0570,       170.607,            0.,NA,NA,"",   993.793E+03,   1.00247E+06,   1.00247E+06
C:/temp/Job-3.odb,Step-1,Increment      1: Step Time =    1.000,"P-3-1",          2157,       170.175,       114.525,            0.,NA,NA,"",   1.00797E+06,   1.00277E+06,   1.00277E+06
C:/temp/Job-3.odb,Step-1,Increment      1: Step Time =    1.000,"P-3-1",          2158,       93.5586,       161.206,            0.,NA,NA,"",   998.269E+03,   1.00164E+06,   1.00164E+06
C:/temp/Job-3.odb,Step-1,Increment      1: Step Time =    1.000,"P-3-1",          2159,       98.5258,       27.6345,            0.,NA,NA,"",   988.003E+03,   989.107E+03,   989.107E+03
C:/temp/Job-3.odb,Step-1,Increment      1: Step Time =    1.000,"P-3-1",          2160,       102.791,       22.9236,            0.,NA,NA,"",   983.528E+03,   983.905E+03,   983.905E+03
C:/temp/Job-3.odb,Step-1,Increment      1: Step Time =    1.000,"P-3-1",          2161,       169.063,       76.6991,            0.,NA,NA,"",   1.00787E+06,   1.00296E+06,   1.00296E+06
C:/temp/Job-3.odb,Step-1,Increment      1: Step Time =    1.000,"P-3-1",          2162,       96.3884,       31.6168,            0.,NA,NA,"",   991.991E+03,   993.728E+03,   993.728E+03
C:/temp/Job-3.odb,Step-1,Increment      1: Step Time =    1.000,"P-3-1",          2163,       166.206,       99.3633,            0.,NA,NA,"",   1.00822E+06,   1.00338E+06,   1.00338E+06
C:/temp/Job-3.odb,Step-1,Increment      1: Step Time =    1.000,"P-3-1",          2164,       171.688,       107.149,            0.,NA,NA,"",   1.00802E+06,   1.00256E+06,   1.00256E+06
C:/temp/Job-3.odb,Step-1,Increment      1: Step Time =    1.000,"P-3-1",          2165,       165.981,       149.958,            0.,NA,NA,"",   1.00458E+06,   1.00121E+06,   1.00121E+06
C:/temp/Job-3.odb,Step-1,Increment      1: Step Time =    1.000,"P-3-1",          2166,       29.7147,       54.5143,            0.,NA,NA,"",   937.656E+03,   1.00126E+06,   1.00126E+06
C:/temp/Job-3.odb,Step-1,Increment      1: Step Time =    1.000,"P-3-1",          2167,       80.9930,       71.4864,            0.,NA,NA,"",   1.00813E+06,   1.02304E+06,   1.02304E+06
C:/temp/Job-3.odb,Step-1,Increment      1: Step Time =    1.000,"P-3-1",          2168,       166.631,       61.0036,            0.,NA,NA,"",   1.00650E+06,   1.00240E+06,   1.00240E+06
C:/temp/Job-3.odb,Step-1,Increment      1: Step Time =    1.000,"P-3-1",          2169,       80.0862,       115.245,            0.,NA,NA,"",   1.00664E+06,   1.02269E+06,   1.02269E+06
C:/temp/Job-3.odb,Step-1,Increment      1: Step Time =    1.000,"P-3-1",          2170,       21.9008,       86.7051,            0.,NA,NA,"",   882.904E+03,   967.952E+03,   967.952E+03
C:/temp/Job-3.odb,Step-1,Increment      1: Step Time =    1.000,"P-3-1",          2171,       32.0615,       19.7029,            0.,NA,NA,"",   1.01487E+06,   1.03377E+06,   1.03377E+06
C:/temp/Job-3.odb,Step-1,Increment      1: Step Time =    1.000,"P-3-1",          2172,       120.064,       83.9147,            0.,NA,NA,"",   1.02030E+06,   1.01865E+06,   1.01865E+06
C:/temp/Job-3.odb,Step-1,Increment      1: Step Time =    1.000,"P-3-1",          2173,       121.985,       109.931,            0.,NA,NA,"",   1.01187E+06,   1.01114E+06,   1.01114E+06
C:/temp/Job-3.odb,Step-1,Increment      1: Step Time =    1.000,"P-3-1",          2174,       33.1911,       23.3830,            0.,NA,NA,"",   1.00813E+06,   1.03227E+06,   1.03227E+06
C:/temp/Job-3.odb,Step-1,Increment      1: Step Time =    1.000,"P-3-1",          2175,       108.806,       22.7430,            0.,NA,NA,"",   984.370E+03,   984.558E+03,   984.558E+03
C:/temp/Job-3.odb,Step-1,Increment      1: Step Time =    1.000,"P-3-1",          2176,       111.850,       23.2717,            0.,NA,NA,"",   985.338E+03,   985.329E+03,   985.329E+03
C:/temp/Job-3.odb,Step-1,Increment      1: Step Time =    1.000,"P-3-1",          2177,       86.4042,       24.1693,            0.,NA,NA,"",   983.578E+03,   985.330E+03,   985.330E+03
C:/temp/Job-3.odb,Step-1,Increment      1: Step Time =    1.000,"P-3-1",          2178,       83.0839,       22.6683,            0.,NA,NA,"",   981.509E+03,   983.304E+03,   983.304E+03
C:/temp/Job-3.odb,Step-1,Increment      1: Step Time =    1.000,"P-3-1",          2179,       23.1196,       70.4440,            0.,NA,NA,"",   898.264E+03,   978.458E+03,   978.458E+03
C:/temp/Job-3.odb,Step-1,Increment      1: Step Time =    1.000,"P-3-1",          2180,       23.1891,       74.5554,            0.,NA,NA,"",   895.494E+03,   976.234E+03,   976.234E+03
C:/temp/Job-3.odb,Step-1,Increment      1: Step Time =    1.000,"P-3-1",          2181,       79.3277,       80.3396,            0.,NA,NA,"",   1.00740E+06,   1.02381E+06,   1.02381E+06
C:/temp/Job-3.odb,Step-1,Increment      1: Step Time =    1.000,"P-3-1",          2182,       79.2272,       108.369,            0.,NA,NA,"",   993.390E+03,   1.01223E+06,   1.01223E+06
C:/temp/Job-3.odb,Step-1,Increment      1: Step Time =    1.000,"P-3-1",          2183,       45.0911,       160.001,            0.,NA,NA,"",   988.951E+03,   1.01861E+06,   1.01861E+06
C:/temp/Job-3.odb,Step-1,Increment      1: Step Time =    1.000,"P-3-1",          2184,       84.5187,       160.753,            0.,NA,NA,"",   998.736E+03,   1.00425E+06,   1.00425E+06
C:/temp/Job-3.odb,Step-1,Increment      1: Step Time =    1.000,"P-3-1",          2185,       74.4357,       26.9451,            0.,NA,NA,"",   988.067E+03,   992.266E+03,   992.266E+03
C:/temp/Job-3.odb,Step-1,Increment      1: Step Time =    1.000,"P-3-1",          2186,       71.4593,       29.7959,            0.,NA,NA,"",   991.718E+03,   997.693E+03,   997.693E+03
C:/temp/Job-3.odb,Step-1,Increment      1: Step Time =    1.000,"P-3-1",          2187,       166.968,       126.350,            0.,NA,NA,"",   1.00792E+06,   1.00327E+06,   1.00327E+06
C:/temp/Job-3.odb,Step-1,Increment      1: Step Time =    1.000,"P-3-1",          2188,       163.736,       123.778,            0.,NA,NA,"",   1.00833E+06,   1.00387E+06,   1.00387E+06
C:/temp/Job-3.odb,Step-1,Increment      1: Step Time =    1.000,"P-3-1",          2189,       24.8517,       82.3974,            0.,NA,NA,"",   894.283E+03,   974.599E+03,   974.599E+03
C:/temp/Job-3.odb,Step-1,Increment      1: Step Time =    1.000,"P-3-1",          2190,       106.234,       171.004,            0.,NA,NA,"",   990.155E+03,   990.734E+03,   990.734E+03
C:/temp/Job-3.odb,Step-1,Increment      1: Step Time =    1.000,"P-3-1",          2191,       162.283,       60.2118,            0.,NA,NA,"",   1.00678E+06,   1.00295E+06,   1.00295E+06
C:/temp/Job-3.odb,Step-1,Increment      1: Step Time =    1.000,"P-3-1",          2192,       135.074,       32.1410,            0.,NA,NA,"",   996.599E+03,   995.477E+03,   995.477E+03
C:/temp/Job-3.odb,Step-1,Increment      1: Step Time =    1.000,"P-3-1",          2193,       28.7358,       135.105,            0.,NA,NA,"",   920.515E+03,   990.838E+03,   990.838E+03
C:/temp/Job-3.odb,Step-1,Increment      1: Step Time =    1.000,"P-3-1",          2194,       65.8797,       97.4899,            0.,NA,NA,"",   975.111E+03,   1.00775E+06,   1.00775E+06
C:/temp/Job-3.odb,Step-1,Increment      1: Step Time =    1.000,"P-3-1",          2195,       166.877,       112.788,            0.,NA,NA,"",   1.00825E+06,   1.00339E+06,   1.00339E+06
C:/temp/Job-3.odb,Step-1,Increment      1: Step Time =    1.000,"P-3-1",          2196,       164.506,       76.5417,            0.,NA,NA,"",   1.00832E+06,   1.00380E+06,   1.00380E+06
C:/temp/Job-3.odb,Step-1,Increment      1: Step Time =    1.000,"P-3-1",          2197,       52.7802,       23.7515,            0.,NA,NA,"",   992.072E+03,   1.00138E+06,   1.00138E+06
C:/temp/Job-3.odb,Step-1,Increment      1: Step Time =    1.000,"P-3-1",          2198,       62.9710,       27.6488,            0.,NA,NA,"",   991.892E+03,   999.272E+03,   999.272E+03
C:/temp/Job-3.odb,Step-1,Increment      1: Step Time =    1.000,"P-3-1",          2199,       36.2325,       156.868,            0.,NA,NA,"",   973.654E+03,   1.01782E+06,   1.01782E+06
C:/temp/Job-3.odb,Step-1,Increment      1: Step Time =    1.000,"P-3-1",          2200,       168.909,       109.857,            0.,NA,NA,"",   1.00810E+06,   1.00299E+06,   1.00299E+06
C:/temp/Job-3.odb,Step-1,Increment      1: Step Time =    1.000,"P-3-1",          2201,       100.613,       165.057,            0.,NA,NA,"",   995.359E+03,   997.133E+03,   997.133E+03
C:/temp/Job-3.odb,Step-1,Increment      1: Step Time =    1.000,"P-3-1",          2202,       105.696,       26.0404,            0.,NA,NA,"",   987.287E+03,   987.838E+03,   987.838E+03
C:/temp/Job-3.odb,Step-1,Increment      1: Step Time =    1.000,"P-3-1",          2203,       152.262,       39.3700,            0.,NA,NA,"",   1.00139E+06,    999.25E+03,    999.25E+03
C:/temp/Job-3.odb,Step-1,Increment      1: Step Time =    1.000,"P-3-1",          2204,       143.424,       37.7928,            0.,NA,NA,"",   1.00038E+06,   998.636E+03,   998.636E+03
C:/temp/Job-3.odb,Step-1,Increment      1: Step Time =    1.000,"P-3-1",          2205,       162.057,       140.159,            0.,NA,NA,"",   1.00683E+06,   1.00302E+06,   1.00302E+06
C:/temp/Job-3.odb,Step-1,Increment      1: Step Time =    1.000,"P-3-1",          2206,       59.2594,       169.616,            0.,NA,NA,"",   994.784E+03,   1.00541E+06,   1.00541E+06
C:/temp/Job-3.odb,Step-1,Increment      1: Step Time =    1.000,"P-3-1",          2207,       77.3201,       66.9753,            0.,NA,NA,"",   1.00485E+06,   1.02113E+06,   1.02113E+06
C:/temp/Job-3.odb,Step-1,Increment      1: Step Time =    1.000,"P-3-1",          2208,       138.387,       162.751,            0.,NA,NA,"",   999.741E+03,   998.245E+03,   998.245E+03
C:/temp/Job-3.odb,Step-1,Increment      1: Step Time =    1.000,"P-3-1",          2209,       83.7262,       133.857,            0.,NA,NA,"",   1.00796E+06,   1.02089E+06,   1.02089E+06
C:/temp/Job-3.odb,Step-1,Increment      1: Step Time =    1.000,"P-3-1",          2210,       120.534,       79.8342,            0.,NA,NA,"",   1.02118E+06,   1.01973E+06,   1.01973E+06
C:/temp/Job-3.odb,Step-1,Increment      1: Step Time =    1.000,"P-3-1",          2211,       66.0218,       30.0132,            0.,NA,NA,"",   993.033E+03,   1.00076E+06,   1.00076E+06
C:/temp/Job-3.odb,Step-1,Increment      1: Step Time =    1.000,"P-3-1",          2212,       152.547,       164.166,            0.,NA,NA,"",   999.844E+03,   997.966E+03,   997.966E+03
C:/temp/Job-3.odb,Step-1,Increment      1: Step Time =    1.000,"P-3-1",          2213,       130.001,       108.725,            0.,NA,NA,"",   1.00868E+06,   1.00797E+06,   1.00797E+06
C:/temp/Job-3.odb,Step-1,Increment      1: Step Time =    1.000,"P-3-1",          2214,       78.6089,       127.163,            0.,NA,NA,"",   1.00640E+06,   1.02295E+06,   1.02295E+06
C:/temp/Job-3.odb,Step-1,Increment      1: Step Time =    1.000,"P-3-1",          2215,       105.574,       166.808,            0.,NA,NA,"",   993.961E+03,   994.919E+03,   994.919E+03
C:/temp/Job-3.odb,Step-1,Increment      1: Step Time =    1.000,"P-3-1",          2216,       81.4935,       25.7537,            0.,NA,NA,"",   986.195E+03,   988.847E+03,   988.847E+03
C:/temp/Job-3.odb,Step-1,Increment      1: Step Time =    1.000,"P-3-1",          2217,       44.6931,       155.803,            0.,NA,NA,"",   983.935E+03,   1.01764E+06,   1.01764E+06
C:/temp/Job-3.odb,Step-1,Increment      1: Step Time =    1.000,"P-3-1",          2218,       48.6127,       155.233,            0.,NA,NA,"",   987.609E+03,   1.01731E+06,   1.01731E+06
C:/temp/Job-3.odb,Step-1,Increment      1: Step Time =    1.000,"P-3-1",          2219,       118.068,       127.660,            0.,NA,NA,"",   1.01799E+06,   1.01844E+06,   1.01844E+06
C:/temp/Job-3.odb,Step-1,Increment      1: Step Time =    1.000,"P-3-1",          2220,       108.344,       26.3982,            0.,NA,NA,"",   988.013E+03,   988.418E+03,   988.418E+03
C:/temp/Job-3.odb,Step-1,Increment      1: Step Time =    1.000,"P-3-1",          2221,       53.0873,       158.521,            0.,NA,NA,"",   993.323E+03,   1.01624E+06,   1.01624E+06
C:/temp/Job-3.odb,Step-1,Increment      1: Step Time =    1.000,"P-3-1",          2222,       171.636,       48.3045,            0.,NA,NA,"",   1.00405E+06,   1.00059E+06,   1.00059E+06
C:/temp/Job-3.odb,Step-1,Increment      1: Step Time =    1.000,"P-3-1",          2223,       125.844,       82.7291,            0.,NA,NA,"",   1.01667E+06,   1.01482E+06,   1.01482E+06
C:/temp/Job-3.odb,Step-1,Increment      1: Step Time =    1.000,"P-3-1",          2224,       112.202,       62.4805,            0.,NA,NA,"",   1.01192E+06,   1.01453E+06,   1.01453E+06
C:/temp/Job-3.odb,Step-1,Increment      1: Step Time =    1.000,"P-3-1",          2225,       116.369,       159.398,            0.,NA,NA,"",   1.00051E+06,   1.00078E+06,   1.00078E+06
C:/temp/Job-3.odb,Step-1,Increment      1: Step Time =    1.000,"P-3-1",          2226,       126.370,       120.271,            0.,NA,NA,"",   1.01717E+06,   1.01516E+06,   1.01516E+06
C:/temp/Job-3.odb,Step-1,Increment      1: Step Time =    1.000,"P-3-1",          2227,       131.487,       27.4600,            0.,NA,NA,"",   992.925E+03,   992.130E+03,   992.130E+03
C:/temp/Job-3.odb,Step-1,Increment      1: Step Time =    1.000,"P-3-1",          2228,       26.6494,       74.1725,            0.,NA,NA,"",   905.206E+03,   981.449E+03,   981.449E+03
C:/temp/Job-3.odb,Step-1,Increment      1: Step Time =    1.000,"P-3-1",          2229,       29.3985,       82.1484,            0.,NA,NA,"",   906.780E+03,   981.230E+03,   981.230E+03
C:/temp/Job-3.odb,Step-1,Increment      1: Step Time =    1.000,"P-3-1",          2230,       35.8033,       27.3693,            0.,NA,NA,"",   1.00192E+06,   1.02838E+06,   1.02838E+06
C:/temp/Job-3.odb,Step-1,Increment      1: Step Time =    1.000,"P-3-1",          2231,       158.524,       74.7345,            0.,NA,NA,"",   1.00893E+06,   1.00489E+06,   1.00489E+06
C:/temp/Job-3.odb,Step-1,Increment      1: Step Time =    1.000,"P-3-1",          2232,       160.598,       82.3835,            0.,NA,NA,"",   1.00863E+06,   1.00440E+06,   1.00440E+06
C:/temp/Job-3.odb,Step-1,Increment      1: Step Time =    1.000,"P-3-1",          2233,       87.1023,       155.755,            0.,NA,NA,"",   1.00178E+06,   1.00797E+06,   1.00797E+06
C:/temp/Job-3.odb,Step-1,Increment      1: Step Time =    1.000,"P-3-1",          2234,       97.7871,       63.6742,            0.,NA,NA,"",   1.00905E+06,   1.01699E+06,   1.01699E+06
C:/temp/Job-3.odb,Step-1,Increment      1: Step Time =    1.000,"P-3-1",          2235,       107.774,       60.2257,            0.,NA,NA,"",   1.00990E+06,   1.01388E+06,   1.01388E+06
C:/temp/Job-3.odb,Step-1,Increment      1: Step Time =    1.000,"P-3-1",          2236,       93.9251,       140.271,            0.,NA,NA,"",   1.00779E+06,   1.01598E+06,   1.01598E+06
C:/temp/Job-3.odb,Step-1,Increment      1: Step Time =    1.000,"P-3-1",          2237,       158.144,       59.1709,            0.,NA,NA,"",   1.00706E+06,   1.00350E+06,   1.00350E+06
C:/temp/Job-3.odb,Step-1,Increment      1: Step Time =    1.000,"P-3-1",          2238,       82.0655,       30.6987,            0.,NA,NA,"",   991.586E+03,   995.379E+03,   995.379E+03
C:/temp/Job-3.odb,Step-1,Increment      1: Step Time =    1.000,"P-3-1",          2239,       161.023,       45.7023,            0.,NA,NA,"",   1.00357E+06,   1.00068E+06,   1.00068E+06
C:/temp/Job-3.odb,Step-1,Increment      1: Step Time =    1.000,"P-3-1",          2240,       142.333,       42.1332,            0.,NA,NA,"",   1.00245E+06,   1.00050E+06,   1.00050E+06
C:/temp/Job-3.odb,Step-1,Increment      1: Step Time =    1.000,"P-3-1",          2241,       138.429,       41.0976,            0.,NA,NA,"",   1.00191E+06,   1.00023E+06,   1.00023E+06
C:/temp/Job-3.odb,Step-1,Increment      1: Step Time =    1.000,"P-3-1",          2242,       73.3520,       123.635,            0.,NA,NA,"",   999.813E+03,   1.02082E+06,   1.02082E+06
C:/temp/Job-3.odb,Step-1,Increment      1: Step Time =    1.000,"P-3-1",          2243,       131.062,       36.9954,            0.,NA,NA,"",   999.141E+03,   998.044E+03,   998.044E+03
C:/temp/Job-3.odb,Step-1,Increment      1: Step Time =    1.000,"P-3-1",          2244,       74.0247,       32.9157,            0.,NA,NA,"",   994.272E+03,   1.00060E+06,   1.00060E+06
C:/temp/Job-3.odb,Step-1,Increment      1: Step Time =    1.000,"P-3-1",          2245,       63.7425,       33.1571,            0.,NA,NA,"",   995.649E+03,   1.00585E+06,   1.00585E+06
C:/temp/Job-3.odb,Step-1,Increment      1: Step Time =    1.000,"P-3-1",          2246,       68.2858,       38.2908,            0.,NA,NA,"",   997.724E+03,   1.00845E+06,   1.00845E+06
C:/temp/Job-3.odb,Step-1,Increment      1: Step Time =    1.000,"P-3-1",          2247,       22.3181,       146.715,            0.,NA,NA,"",   919.390E+03,   994.024E+03,   994.024E+03
C:/temp/Job-3.odb,Step-1,Increment      1: Step Time =    1.000,"P-3-1",          2248,       165.682,       107.815,            0.,NA,NA,"",   1.00823E+06,   1.00347E+06,   1.00347E+06
C:/temp/Job-3.odb,Step-1,Increment      1: Step Time =    1.000,"P-3-1",          2249,       157.663,       150.467,            0.,NA,NA,"",   1.00478E+06,   1.00175E+06,   1.00175E+06
C:/temp/Job-3.odb,Step-1,Increment      1: Step Time =    1.000,"P-3-1",          2250,       133.353,       153.269,            0.,NA,NA,"",   1.00479E+06,   1.00323E+06,   1.00323E+06
C:/temp/Job-3.odb,Step-1,Increment      1: Step Time =    1.000,"P-3-1",          2251,       29.2462,       122.433,            0.,NA,NA,"",   909.840E+03,   983.287E+03,   983.287E+03
C:/temp/Job-3.odb,Step-1,Increment      1: Step Time =    1.000,"P-3-1",          2252,       40.4765,       152.073,            0.,NA,NA,"",   973.002E+03,   1.01530E+06,   1.01530E+06
C:/temp/Job-3.odb,Step-1,Increment      1: Step Time =    1.000,"P-3-1",          2253,       102.002,       160.527,            0.,NA,NA,"",   998.899E+03,   1.00114E+06,   1.00114E+06
C:/temp/Job-3.odb,Step-1,Increment      1: Step Time =    1.000,"P-3-1",          2254,       105.304,       34.3828,            0.,NA,NA,"",   995.050E+03,   996.213E+03,   996.213E+03
C:/temp/Job-3.odb,Step-1,Increment      1: Step Time =    1.000,"P-3-1",          2255,       105.867,       38.8344,            0.,NA,NA,"",   998.555E+03,   1.00011E+06,   1.00011E+06
C:/temp/Job-3.odb,Step-1,Increment      1: Step Time =    1.000,"P-3-1",          2256,       98.2779,       41.5851,            0.,NA,NA,"",   1.00023E+06,   1.00332E+06,   1.00332E+06
C:/temp/Job-3.odb,Step-1,Increment      1: Step Time =    1.000,"P-3-1",          2257,       134.106,       112.851,            0.,NA,NA,"",   1.01136E+06,   1.00956E+06,   1.00956E+06
C:/temp/Job-3.odb,Step-1,Increment      1: Step Time =    1.000,"P-3-1",          2258,       59.0006,       91.0142,            0.,NA,NA,"",   968.973E+03,   1.00769E+06,   1.00769E+06
C:/temp/Job-3.odb,Step-1,Increment      1: Step Time =    1.000,"P-3-1",          2259,       155.764,       66.2080,            0.,NA,NA,"",   1.00864E+06,   1.00494E+06,   1.00494E+06
C:/temp/Job-3.odb,Step-1,Increment      1: Step Time =    1.000,"P-3-1",          2260,       103.375,       140.860,            0.,NA,NA,"",   1.00869E+06,   1.01382E+06,   1.01382E+06
C:/temp/Job-3.odb,Step-1,Increment      1: Step Time =    1.000,"P-3-1",          2261,       35.9862,       24.5660,            0.,NA,NA,"",   1.00565E+06,   1.02847E+06,   1.02847E+06
C:/temp/Job-3.odb,Step-1,Increment      1: Step Time =    1.000,"P-3-1",          2262,       149.241,       99.5144,            0.,NA,NA,"",   1.00870E+06,   1.00578E+06,   1.00578E+06
C:/temp/Job-3.odb,Step-1,Increment      1: Step Time =    1.000,"P-3-1",          2263,       86.9856,       62.0720,            0.,NA,NA,"",   1.00765E+06,   1.01852E+06,   1.01852E+06
C:/temp/Job-3.odb,Step-1,Increment      1: Step Time =    1.000,"P-3-1",          2264,       88.2697,       64.3222,            0.,NA,NA,"",   1.00844E+06,   1.01935E+06,   1.01935E+06
C:/temp/Job-3.odb,Step-1,Increment      1: Step Time =    1.000,"P-3-1",          2265,       48.4261,       151.213,            0.,NA,NA,"",   983.470E+03,   1.01646E+06,   1.01646E+06
C:/temp/Job-3.odb,Step-1,Increment      1: Step Time =    1.000,"P-3-1",          2266,       22.4973,       155.660,            0.,NA,NA,"",   939.693E+03,   1.00807E+06,   1.00807E+06
C:/temp/Job-3.odb,Step-1,Increment      1: Step Time =    1.000,"P-3-1",          2267,       163.815,       129.367,            0.,NA,NA,"",   1.00797E+06,   1.00364E+06,   1.00364E+06
C:/temp/Job-3.odb,Step-1,Increment      1: Step Time =    1.000,"P-3-1",          2268,       124.357,       33.7672,            0.,NA,NA,"",   996.517E+03,   995.912E+03,   995.912E+03
C:/temp/Job-3.odb,Step-1,Increment      1: Step Time =    1.000,"P-3-1",          2269,       62.9326,       109.435,            0.,NA,NA,"",   975.519E+03,   1.00974E+06,   1.00974E+06
C:/temp/Job-3.odb,Step-1,Increment      1: Step Time =    1.000,"P-3-1",          2270,       121.385,       130.709,            0.,NA,NA,"",   1.01703E+06,   1.01671E+06,   1.01671E+06
C:/temp/Job-3.odb,Step-1,Increment      1: Step Time =    1.000,"P-3-1",          2271,       39.5974,       27.2678,            0.,NA,NA,"",   1.00039E+06,   1.02260E+06,   1.02260E+06
C:/temp/Job-3.odb,Step-1,Increment      1: Step Time =    1.000,"P-3-1",          2272,       100.186,       58.6110,            0.,NA,NA,"",   1.00807E+06,   1.01403E+06,   1.01403E+06
C:/temp/Job-3.odb,Step-1,Increment      1: Step Time =    1.000,"P-3-1",          2273,       110.005,       56.1221,            0.,NA,NA,"",   1.00875E+06,   1.01150E+06,   1.01150E+06
C:/temp/Job-3.odb,Step-1,Increment      1: Step Time =    1.000,"P-3-1",          2274,       73.6689,       38.7154,            0.,NA,NA,"",   998.176E+03,   1.00687E+06,   1.00687E+06
C:/temp/Job-3.odb,Step-1,Increment      1: Step Time =    1.000,"P-3-1",          2275,       70.7079,       41.3913,            0.,NA,NA,"",   999.147E+03,   1.01028E+06,   1.01028E+06
C:/temp/Job-3.odb,Step-1,Increment      1: Step Time =    1.000,"P-3-1",          2276,       69.7186,       129.124,            0.,NA,NA,"",   996.855E+03,   1.01968E+06,   1.01968E+06
C:/temp/Job-3.odb,Step-1,Increment      1: Step Time =    1.000,"P-3-1",          2277,       127.558,       37.7072,            0.,NA,NA,"",   999.188E+03,   998.308E+03,   998.308E+03
C:/temp/Job-3.odb,Step-1,Increment      1: Step Time =    1.000,"P-3-1",          2278,       127.440,       41.6703,            0.,NA,NA,"",   1.00182E+06,   1.00088E+06,   1.00088E+06
C:/temp/Job-3.odb,Step-1,Increment      1: Step Time =    1.000,"P-3-1",          2279,       33.8460,       82.4615,            0.,NA,NA,"",   918.565E+03,   987.150E+03,   987.150E+03
C:/temp/Job-3.odb,Step-1,Increment      1: Step Time =    1.000,"P-3-1",          2280,       136.328,       152.385,            0.,NA,NA,"",   1.00514E+06,   1.00332E+06,   1.00332E+06
C:/temp/Job-3.odb,Step-1,Increment      1: Step Time =    1.000,"P-3-1",          2281,       144.413,       151.262,            0.,NA,NA,"",   1.00545E+06,   1.00306E+06,   1.00306E+06
C:/temp/Job-3.odb,Step-1,Increment      1: Step Time =    1.000,"P-3-1",          2282,       130.023,       121.320,            0.,NA,NA,"",   1.01583E+06,   1.01367E+06,   1.01367E+06
C:/temp/Job-3.odb,Step-1,Increment      1: Step Time =    1.000,"P-3-1",          2283,       134.760,       116.479,            0.,NA,NA,"",   1.01274E+06,   1.01061E+06,   1.01061E+06
C:/temp/Job-3.odb,Step-1,Increment      1: Step Time =    1.000,"P-3-1",          2284,       117.848,       134.500,            0.,NA,NA,"",   1.01485E+06,   1.01566E+06,   1.01566E+06
C:/temp/Job-3.odb,Step-1,Increment      1: Step Time =    1.000,"P-3-1",          2285,       91.7636,       144.962,            0.,NA,NA,"",   1.00632E+06,   1.01394E+06,   1.01394E+06
C:/temp/Job-3.odb,Step-1,Increment      1: Step Time =    1.000,"P-3-1",          2286,       85.9121,       146.600,            0.,NA,NA,"",   1.00529E+06,   1.01433E+06,   1.01433E+06
C:/temp/Job-3.odb,Step-1,Increment      1: Step Time =    1.000,"P-3-1",          2287,       81.9339,       145.595,            0.,NA,NA,"",   1.00479E+06,   1.01573E+06,   1.01573E+06
C:/temp/Job-3.odb,Step-1,Increment      1: Step Time =    1.000,"P-3-1",          2288,       149.989,       70.9295,            0.,NA,NA,"",   1.01004E+06,   1.00657E+06,   1.00657E+06
C:/temp/Job-3.odb,Step-1,Increment      1: Step Time =    1.000,"P-3-1",          2289,       29.2335,       107.410,            0.,NA,NA,"",   902.140E+03,   978.112E+03,   978.112E+03
C:/temp/Job-3.odb,Step-1,Increment      1: Step Time =    1.000,"P-3-1",          2290,       31.4499,       114.340,            0.,NA,NA,"",   910.314E+03,   982.787E+03,   982.787E+03
C:/temp/Job-3.odb,Step-1,Increment      1: Step Time =    1.000,"P-3-1",          2291,       114.312,       40.2673,            0.,NA,NA,"",   1.00004E+06,   1.00049E+06,   1.00049E+06
C:/temp/Job-3.odb,Step-1,Increment      1: Step Time =    1.000,"P-3-1",          2292,       79.4532,       154.922,            0.,NA,NA,"",   1.00165E+06,   1.01060E+06,   1.01060E+06
C:/temp/Job-3.odb,Step-1,Increment      1: Step Time =    1.000,"P-3-1",          2293,       82.5003,       154.084,            0.,NA,NA,"",   1.00235E+06,   1.01045E+06,   1.01045E+06
C:/temp/Job-3.odb,Step-1,Increment      1: Step Time =    1.000,"P-3-1",          2294,       51.3278,       32.7104,            0.,NA,NA,"",   996.132E+03,   1.01350E+06,   1.01350E+06
C:/temp/Job-3.odb,Step-1,Increment      1: Step Time =    1.000,"P-3-1",          2295,       153.292,       64.6002,            0.,NA,NA,"",   1.00884E+06,   1.00530E+06,   1.00530E+06
C:/temp/Job-3.odb,Step-1,Increment      1: Step Time =    1.000,"P-3-1",          2296,       147.914,       67.6927,            0.,NA,NA,"",   1.01015E+06,   1.00685E+06,   1.00685E+06
C:/temp/Job-3.odb,Step-1,Increment      1: Step Time =    1.000,"P-3-1",          2297,       147.717,       49.3790,            0.,NA,NA,"",   1.00534E+06,   1.00275E+06,   1.00275E+06
C:/temp/Job-3.odb,Step-1,Increment      1: Step Time =    1.000,"P-3-1",          2298,       137.580,       44.6105,            0.,NA,NA,"",   1.00380E+06,   1.00198E+06,   1.00198E+06
C:/temp/Job-3.odb,Step-1,Increment      1: Step Time =    1.000,"P-3-1",          2299,       55.3442,       92.3804,            0.,NA,NA,"",   962.011E+03,   1.00513E+06,   1.00513E+06
C:/temp/Job-3.odb,Step-1,Increment      1: Step Time =    1.000,"P-3-1",          2300,       84.6441,       39.3683,            0.,NA,NA,"",   998.704E+03,   1.00425E+06,   1.00425E+06
C:/temp/Job-3.odb,Step-1,Increment      1: Step Time =    1.000,"P-3-1",          2301,       55.3604,       153.671,            0.,NA,NA,"",   992.122E+03,   1.01658E+06,   1.01658E+06
C:/temp/Job-3.odb,Step-1,Increment      1: Step Time =    1.000,"P-3-1",          2302,       58.5929,       106.436,            0.,NA,NA,"",   967.146E+03,   1.00683E+06,   1.00683E+06
C:/temp/Job-3.odb,Step-1,Increment      1: Step Time =    1.000,"P-3-1",          2303,       144.488,       50.3658,            0.,NA,NA,"",   1.00593E+06,   1.00344E+06,   1.00344E+06
C:/temp/Job-3.odb,Step-1,Increment      1: Step Time =    1.000,"P-3-1",          2304,       164.347,       47.9714,            0.,NA,NA,"",   1.00415E+06,   1.00097E+06,   1.00097E+06
C:/temp/Job-3.odb,Step-1,Increment      1: Step Time =    1.000,"P-3-1",          2305,       28.5179,       103.725,            0.,NA,NA,"",   900.178E+03,   976.964E+03,   976.964E+03
C:/temp/Job-3.odb,Step-1,Increment      1: Step Time =    1.000,"P-3-1",          2306,       101.382,       148.268,            0.,NA,NA,"",   1.00567E+06,   1.00995E+06,   1.00995E+06
C:/temp/Job-3.odb,Step-1,Increment      1: Step Time =    1.000,"P-3-1",          2307,       96.2686,       146.795,            0.,NA,NA,"",   1.00606E+06,   1.01189E+06,   1.01189E+06
C:/temp/Job-3.odb,Step-1,Increment      1: Step Time =    1.000,"P-3-1",          2308,       123.980,       54.7646,            0.,NA,NA,"",   1.00926E+06,   1.00867E+06,   1.00867E+06
C:/temp/Job-3.odb,Step-1,Increment      1: Step Time =    1.000,"P-3-1",          2309,       114.262,       143.127,            0.,NA,NA,"",   1.00970E+06,   1.01129E+06,   1.01129E+06
C:/temp/Job-3.odb,Step-1,Increment      1: Step Time =    1.000,"P-3-1",          2310,       60.2936,       151.268,            0.,NA,NA,"",   994.717E+03,   1.01637E+06,   1.01637E+06
C:/temp/Job-3.odb,Step-1,Increment      1: Step Time =    1.000,"P-3-1",          2311,       61.9226,       145.023,            0.,NA,NA,"",   993.836E+03,   1.01725E+06,   1.01725E+06
C:/temp/Job-3.odb,Step-1,Increment      1: Step Time =    1.000,"P-3-1",          2312,       99.2184,       54.8030,            0.,NA,NA,"",   1.00666E+06,   1.01213E+06,   1.01213E+06
C:/temp/Job-3.odb,Step-1,Increment      1: Step Time =    1.000,"P-3-1",          2313,       44.7970,       144.174,            0.,NA,NA,"",   969.939E+03,   1.01251E+06,   1.01251E+06
C:/temp/Job-3.odb,Step-1,Increment      1: Step Time =    1.000,"P-3-1",          2314,       70.1765,       47.1965,            0.,NA,NA,"",   1.00018E+06,   1.01422E+06,   1.01422E+06
C:/temp/Job-3.odb,Step-1,Increment      1: Step Time =    1.000,"P-3-1",          2315,       38.2041,       86.6455,            0.,NA,NA,"",   928.266E+03,   991.429E+03,   991.429E+03
C:/temp/Job-3.odb,Step-1,Increment      1: Step Time =    1.000,"P-3-1",          2316,       38.7625,       90.5377,            0.,NA,NA,"",   927.419E+03,   990.800E+03,   990.800E+03
C:/temp/Job-3.odb,Step-1,Increment      1: Step Time =    1.000,"P-3-1",          2317,       84.3721,       150.282,            0.,NA,NA,"",   1.00400E+06,   1.01256E+06,   1.01256E+06
C:/temp/Job-3.odb,Step-1,Increment      1: Step Time =    1.000,"P-3-1",          2318,       75.1295,       154.161,            0.,NA,NA,"",   1.00122E+06,   1.01216E+06,   1.01216E+06
C:/temp/Job-3.odb,Step-1,Increment      1: Step Time =    1.000,"P-3-1",          2319,       101.335,       49.5678,            0.,NA,NA,"",   1.00491E+06,   1.00880E+06,   1.00880E+06
C:/temp/Job-3.odb,Step-1,Increment      1: Step Time =    1.000,"P-3-1",          2320,       136.926,       47.2896,            0.,NA,NA,"",   1.00518E+06,   1.00328E+06,   1.00328E+06
C:/temp/Job-3.odb,Step-1,Increment      1: Step Time =    1.000,"P-3-1",          2321,       138.125,       140.463,            0.,NA,NA,"",   1.01018E+06,   1.00773E+06,   1.00773E+06
C:/temp/Job-3.odb,Step-1,Increment      1: Step Time =    1.000,"P-3-1",          2322,       146.003,       137.564,            0.,NA,NA,"",   1.00952E+06,   1.00645E+06,   1.00645E+06
C:/temp/Job-3.odb,Step-1,Increment      1: Step Time =    1.000,"P-3-1",          2323,       135.545,       74.0085,            0.,NA,NA,"",   1.01389E+06,   1.01132E+06,   1.01132E+06
C:/temp/Job-3.odb,Step-1,Increment      1: Step Time =    1.000,"P-3-1",          2324,       54.5744,       103.271,            0.,NA,NA,"",   959.834E+03,   1.00417E+06,   1.00417E+06
C:/temp/Job-3.odb,Step-1,Increment      1: Step Time =    1.000,"P-3-1",          2325,       51.6637,       93.6054,            0.,NA,NA,"",   955.227E+03,   1.00253E+06,   1.00253E+06
C:/temp/Job-3.odb,Step-1,Increment      1: Step Time =    1.000,"P-3-1",          2326,       64.5293,       131.026,            0.,NA,NA,"",   990.630E+03,   1.01762E+06,   1.01762E+06
C:/temp/Job-3.odb,Step-1,Increment      1: Step Time =    1.000,"P-3-1",          2327,       33.4787,       110.036,            0.,NA,NA,"",   913.974E+03,   984.356E+03,   984.356E+03
C:/temp/Job-3.odb,Step-1,Increment      1: Step Time =    1.000,"P-3-1",          2328,       77.0406,       145.952,            0.,NA,NA,"",   1.00331E+06,   1.01620E+06,   1.01620E+06
C:/temp/Job-3.odb,Step-1,Increment      1: Step Time =    1.000,"P-3-1",          2329,       38.0014,       125.943,            0.,NA,NA,"",   935.744E+03,   996.235E+03,   996.235E+03
C:/temp/Job-3.odb,Step-1,Increment      1: Step Time =    1.000,"P-3-1",          2330,       40.8452,       128.445,            0.,NA,NA,"",   944.524E+03,   1.00046E+06,   1.00046E+06
C:/temp/Job-3.odb,Step-1,Increment      1: Step Time =    1.000,"P-3-1",          2331,       147.149,       87.0630,            0.,NA,NA,"",   1.00972E+06,   1.00681E+06,   1.00681E+06
C:/temp/Job-3.odb,Step-1,Increment      1: Step Time =    1.000,"P-3-1",          2332,       128.098,       53.9219,            0.,NA,NA,"",   1.00883E+06,   1.00762E+06,   1.00762E+06
C:/temp/Job-3.odb,Step-1,Increment      1: Step Time =    1.000,"P-3-1",          2333,       51.1113,       39.9538,            0.,NA,NA,"",   994.171E+03,   1.01748E+06,   1.01748E+06
C:/temp/Job-3.odb,Step-1,Increment      1: Step Time =    1.000,"P-3-1",          2334,       147.116,       117.037,            0.,NA,NA,"",   1.01048E+06,   1.00737E+06,   1.00737E+06
C:/temp/Job-3.odb,Step-1,Increment      1: Step Time =    1.000,"P-3-1",          2335,       146.069,       113.177,            0.,NA,NA,"",   1.00992E+06,   1.00699E+06,   1.00699E+06
C:/temp/Job-3.odb,Step-1,Increment      1: Step Time =    1.000,"P-3-1",          2336,       150.109,       85.6686,            0.,NA,NA,"",   1.00960E+06,   1.00634E+06,   1.00634E+06
C:/temp/Job-3.odb,Step-1,Increment      1: Step Time =    1.000,"P-3-1",          2337,       45.3501,       140.716,            0.,NA,NA,"",   967.301E+03,   1.01109E+06,   1.01109E+06
C:/temp/Job-3.odb,Step-1,Increment      1: Step Time =    1.000,"P-3-1",          2338,       48.0932,       141.520,            0.,NA,NA,"",   973.031E+03,   1.01288E+06,   1.01288E+06
C:/temp/Job-3.odb,Step-1,Increment      1: Step Time =    1.000,"P-3-1",          2339,       60.8053,       148.560,            0.,NA,NA,"",   994.212E+03,   1.01682E+06,   1.01682E+06
C:/temp/Job-3.odb,Step-1,Increment      1: Step Time =    1.000,"P-3-1",          2340,       140.646,       50.1784,            0.,NA,NA,"",   1.00636E+06,   1.00409E+06,   1.00409E+06
C:/temp/Job-3.odb,Step-1,Increment      1: Step Time =    1.000,"P-3-1",          2341,       134.527,       48.1612,            0.,NA,NA,"",   1.00566E+06,   1.00391E+06,   1.00391E+06
C:/temp/Job-3.odb,Step-1,Increment      1: Step Time =    1.000,"P-3-1",          2342,       63.0794,       71.1033,            0.,NA,NA,"",   987.448E+03,   1.01662E+06,   1.01662E+06
C:/temp/Job-3.odb,Step-1,Increment      1: Step Time =    1.000,"P-3-1",          2343,       38.0692,       108.526,            0.,NA,NA,"",   926.166E+03,   990.223E+03,   990.223E+03
C:/temp/Job-3.odb,Step-1,Increment      1: Step Time =    1.000,"P-3-1",          2344,       136.380,       66.9236,            0.,NA,NA,"",   1.01260E+06,   1.01006E+06,   1.01006E+06
C:/temp/Job-3.odb,Step-1,Increment      1: Step Time =    1.000,"P-3-1",          2345,       75.3443,       149.299,            0.,NA,NA,"",   1.00218E+06,   1.01501E+06,   1.01501E+06
C:/temp/Job-3.odb,Step-1,Increment      1: Step Time =    1.000,"P-3-1",          2346,       126.213,       139.867,            0.,NA,NA,"",   1.01173E+06,   1.01068E+06,   1.01068E+06
C:/temp/Job-3.odb,Step-1,Increment      1: Step Time =    1.000,"P-3-1",          2347,       129.313,       139.554,            0.,NA,NA,"",   1.01163E+06,   1.01010E+06,   1.01010E+06
C:/temp/Job-3.odb,Step-1,Increment      1: Step Time =    1.000,"P-3-1",          2348,       132.702,       138.209,            0.,NA,NA,"",   1.01184E+06,   1.00983E+06,   1.00983E+06
C:/temp/Job-3.odb,Step-1,Increment      1: Step Time =    1.000,"P-3-1",          2349,       51.8690,       67.2464,            0.,NA,NA,"",   971.938E+03,   1.01183E+06,   1.01183E+06
C:/temp/Job-3.odb,Step-1,Increment      1: Step Time =    1.000,"P-3-1",          2350,       51.3980,       70.5920,            0.,NA,NA,"",   968.602E+03,   1.01037E+06,   1.01037E+06
C:/temp/Job-3.odb,Step-1,Increment      1: Step Time =    1.000,"P-3-1",          2351,       41.4806,       79.5079,            0.,NA,NA,"",   940.052E+03,   997.637E+03,   997.637E+03
C:/temp/Job-3.odb,Step-1,Increment      1: Step Time =    1.000,"P-3-1",          2352,       43.8216,       89.9236,            0.,NA,NA,"",   939.983E+03,   996.591E+03,   996.591E+03
C:/temp/Job-3.odb,Step-1,Increment      1: Step Time =    1.000,"P-3-1",          2353,       50.2799,       101.007,            0.,NA,NA,"",   951.618E+03,   1.00112E+06,   1.00112E+06
C:/temp/Job-3.odb,Step-1,Increment      1: Step Time =    1.000,"P-3-1",          2354,       73.2301,       144.455,            0.,NA,NA,"",   1.00188E+06,   1.01732E+06,   1.01732E+06
C:/temp/Job-3.odb,Step-1,Increment      1: Step Time =    1.000,"P-3-1",          2355,       134.772,       63.7500,            0.,NA,NA,"",   1.01203E+06,   1.00970E+06,   1.00970E+06
C:/temp/Job-3.odb,Step-1,Increment      1: Step Time =    1.000,"P-3-1",          2356,       40.9397,       117.698,            0.,NA,NA,"",   937.139E+03,   995.924E+03,   995.924E+03
C:/temp/Job-3.odb,Step-1,Increment      1: Step Time =    1.000,"P-3-1",          2357,       49.4387,       108.157,            0.,NA,NA,"",   951.156E+03,   1.00120E+06,   1.00120E+06
C:/temp/Job-3.odb,Step-1,Increment      1: Step Time =    1.000,"P-3-1",          2358,       119.631,       136.420,            0.,NA,NA,"",   1.01443E+06,   1.01470E+06,   1.01470E+06
C:/temp/Job-3.odb,Step-1,Increment      1: Step Time =    1.000,"P-3-1",          2359,       142.291,       51.3118,            0.,NA,NA,"",   1.00663E+06,   1.00420E+06,   1.00420E+06
C:/temp/Job-3.odb,Step-1,Increment      1: Step Time =    1.000,"P-3-1",          2360,       61.5983,       48.9584,            0.,NA,NA,"",   996.023E+03,   1.01644E+06,   1.01644E+06
C:/temp/Job-3.odb,Step-1,Increment      1: Step Time =    1.000,"P-3-1",          2361,       137.736,       62.6208,            0.,NA,NA,"",   1.01112E+06,   1.00858E+06,   1.00858E+06
C:/temp/Job-3.odb,Step-1,Increment      1: Step Time =    1.000,"P-3-1",          2362,       140.766,       135.828,            0.,NA,NA,"",   1.01108E+06,   1.00828E+06,   1.00828E+06
C:/temp/Job-3.odb,Step-1,Increment      1: Step Time =    1.000,"P-3-1",          2363,       54.2002,       69.4706,            0.,NA,NA,"",   974.518E+03,   1.01251E+06,   1.01251E+06
C:/temp/Job-3.odb,Step-1,Increment      1: Step Time =    1.000,"P-3-1",          2364,       56.4543,       72.8859,            0.,NA,NA,"",   976.499E+03,   1.01292E+06,   1.01292E+06
C:/temp/Job-3.odb,Step-1,Increment      1: Step Time =    1.000,"P-3-1",          2365,       81.4376,       149.001,            0.,NA,NA,"",   1.00409E+06,   1.01415E+06,   1.01415E+06
C:/temp/Job-3.odb,Step-1,Increment      1: Step Time =    1.000,"P-3-1",          2366,       60.0925,       72.5133,            0.,NA,NA,"",   982.141E+03,   1.01486E+06,   1.01486E+06
C:/temp/Job-3.odb,Step-1,Increment      1: Step Time =    1.000,"P-3-1",          2367,       139.142,       53.3997,            0.,NA,NA,"",   1.00771E+06,   1.00539E+06,   1.00539E+06
C:/temp/Job-3.odb,Step-1,Increment      1: Step Time =    1.000,"P-3-1",          2368,       61.0653,       53.7663,            0.,NA,NA,"",   993.653E+03,   1.01728E+06,   1.01728E+06
C:/temp/Job-3.odb,Step-1,Increment      1: Step Time =    1.000,"P-3-1",          2369,       44.6058,       118.446,            0.,NA,NA,"",   945.903E+03,   999.864E+03,   999.864E+03
C:/temp/Job-3.odb,Step-1,Increment      1: Step Time =    1.000,"P-3-1",          2370,       141.016,       56.0347,            0.,NA,NA,"",   1.00831E+06,   1.00578E+06,   1.00578E+06
C:/temp/Job-3.odb,Step-1,Increment      1: Step Time =    1.000,"P-3-1",          2371,       51.7603,       137.184,            0.,NA,NA,"",   975.086E+03,   1.01329E+06,   1.01329E+06
C:/temp/Job-3.odb,Step-1,Increment      1: Step Time =    1.000,"P-3-1",          2372,       136.456,       55.5027,            0.,NA,NA,"",   1.00889E+06,   1.00670E+06,   1.00670E+06
C:/temp/Job-3.odb,Step-1,Increment      1: Step Time =    1.000,"P-3-1",          2373,       55.5139,       127.258,            0.,NA,NA,"",   973.790E+03,   1.01194E+06,   1.01194E+06
