ODB Name,Step,Frame,Part Instance Name,    Node Label,X,Y,Z,Section Name,Material Name,Section Point,       S-Mises,S-Max. In-Plane Principal (Abs),S-Max. Principal (Abs)
C:/temp/Job-30.odb,Step-1,Increment      1: Step Time =    1.000,"P-30-1",             1,       85.0595,       162.232,            0.,NA,NA,"",   4.09770E+06,   4.13938E+06,   4.13938E+06
C:/temp/Job-30.odb,Step-1,Increment      1: Step Time =    1.000,"P-30-1",             2,       70.9446,       157.024,            0.,NA,NA,"",   1.25870E+06,   1.21547E+06,   1.21547E+06
C:/temp/Job-30.odb,Step-1,Increment      1: Step Time =    1.000,"P-30-1",             3,       58.4353,       148.666,            0.,NA,NA,"",   985.961E+03,  -944.376E+03,  -944.376E+03
C:/temp/Job-30.odb,Step-1,Increment      1: Step Time =    1.000,"P-30-1",             4,       48.2229,       137.618,            0.,NA,NA,"",   1.62952E+06,  -1.64579E+06,  -1.64579E+06
C:/temp/Job-30.odb,Step-1,Increment      1: Step Time =    1.000,"P-30-1",             5,       40.8717,       124.492,            0.,NA,NA,"",   1.33625E+06,  -1.35422E+06,  -1.35422E+06
C:/temp/Job-30.odb,Step-1,Increment      1: Step Time =    1.000,"P-30-1",             6,       36.7879,       110.012,            0.,NA,NA,"",   858.211E+03,  -875.925E+03,  -875.925E+03
C:/temp/Job-30.odb,Step-1,Increment      1: Step Time =    1.000,"P-30-1",             7,       36.1973,       94.9786,            0.,NA,NA,"",   768.587E+03,  -783.899E+03,  -783.899E+03
C:/temp/Job-30.odb,Step-1,Increment      1: Step Time =    1.000,"P-30-1",             8,       39.1324,       80.2229,            0.,NA,NA,"",   1.12562E+06,  -1.14354E+06,  -1.14354E+06
C:/temp/Job-30.odb,Step-1,Increment      1: Step Time =    1.000,"P-30-1",             9,       45.4310,       66.5601,            0.,NA,NA,"",   1.54756E+06,  -1.56463E+06,  -1.56463E+06
C:/temp/Job-30.odb,Step-1,Increment      1: Step Time =    1.000,"P-30-1",            10,       54.7452,       54.7452,            0.,NA,NA,"",   1.31697E+06,  -1.31758E+06,  -1.31758E+06
C:/temp/Job-30.odb,Step-1,Increment      1: Step Time =    1.000,"P-30-1",            11,       66.5601,       45.4310,            0.,NA,NA,"",   651.572E+03,   216.416E+03,   216.416E+03
C:/temp/Job-30.odb,Step-1,Increment      1: Step Time =    1.000,"P-30-1",            12,       80.2229,       39.1324,            0.,NA,NA,"",   3.00960E+06,   3.02789E+06,   3.02789E+06
C:/temp/Job-30.odb,Step-1,Increment      1: Step Time =    1.000,"P-30-1",            13,       94.9786,       36.1973,            0.,NA,NA,"",   5.70461E+06,   5.76379E+06,   5.76379E+06
C:/temp/Job-30.odb,Step-1,Increment      1: Step Time =    1.000,"P-30-1",            14,       105.021,       36.1973,            0.,NA,NA,"",   6.57181E+06,   6.64995E+06,   6.64995E+06
C:/temp/Job-30.odb,Step-1,Increment      1: Step Time =    1.000,"P-30-1",            15,       119.777,       39.1324,            0.,NA,NA,"",    6.1872E+06,   6.29538E+06,   6.29538E+06
C:/temp/Job-30.odb,Step-1,Increment      1: Step Time =    1.000,"P-30-1",            16,       133.440,       45.4310,            0.,NA,NA,"",   4.70440E+06,   4.75849E+06,   4.75849E+06
C:/temp/Job-30.odb,Step-1,Increment      1: Step Time =    1.000,"P-30-1",            17,       145.255,       54.7452,            0.,NA,NA,"",   2.59028E+06,   2.63322E+06,   2.63322E+06
C:/temp/Job-30.odb,Step-1,Increment      1: Step Time =    1.000,"P-30-1",            18,       154.569,       66.5601,            0.,NA,NA,"",   709.113E+03,   249.639E+03,   249.639E+03
C:/temp/Job-30.odb,Step-1,Increment      1: Step Time =    1.000,"P-30-1",            19,       160.868,       80.2229,            0.,NA,NA,"",   2.04622E+06,  -2.02926E+06,  -2.02926E+06
C:/temp/Job-30.odb,Step-1,Increment      1: Step Time =    1.000,"P-30-1",            20,       163.803,       94.9786,            0.,NA,NA,"",   3.93901E+06,  -3.96655E+06,  -3.96655E+06
C:/temp/Job-30.odb,Step-1,Increment      1: Step Time =    1.000,"P-30-1",            21,       163.212,       110.012,            0.,NA,NA,"",   3.32856E+06,  -3.34314E+06,  -3.34314E+06
C:/temp/Job-30.odb,Step-1,Increment      1: Step Time =    1.000,"P-30-1",            22,       159.128,       124.492,            0.,NA,NA,"",   1.34170E+06,  -1.31947E+06,  -1.31947E+06
C:/temp/Job-30.odb,Step-1,Increment      1: Step Time =    1.000,"P-30-1",            23,       151.777,       137.618,            0.,NA,NA,"",   1.24905E+06,   1.22576E+06,   1.22576E+06
C:/temp/Job-30.odb,Step-1,Increment      1: Step Time =    1.000,"P-30-1",            24,       141.565,       148.666,            0.,NA,NA,"",   3.39391E+06,   3.43491E+06,   3.43491E+06
C:/temp/Job-30.odb,Step-1,Increment      1: Step Time =    1.000,"P-30-1",            25,       129.055,       157.024,            0.,NA,NA,"",   5.32159E+06,   5.39168E+06,   5.39168E+06
C:/temp/Job-30.odb,Step-1,Increment      1: Step Time =    1.000,"P-30-1",            26,       114.941,       162.232,            0.,NA,NA,"",   6.63688E+06,   6.72635E+06,   6.72635E+06
C:/temp/Job-30.odb,Step-1,Increment      1: Step Time =    1.000,"P-30-1",            27,          100.,          164.,            0.,NA,NA,"",   6.32443E+06,   6.39440E+06,   6.39440E+06
C:/temp/Job-30.odb,Step-1,Increment      1: Step Time =    1.000,"P-30-1",            28,          190.,            0.,            0.,NA,NA,"",   963.578E+03,   960.946E+03,   960.946E+03
C:/temp/Job-30.odb,Step-1,Increment      1: Step Time =    1.000,"P-30-1",            29,          180.,            0.,            0.,NA,NA,"",   870.816E+03,   868.671E+03,   868.671E+03
C:/temp/Job-30.odb,Step-1,Increment      1: Step Time =    1.000,"P-30-1",            30,          170.,            0.,            0.,NA,NA,"",   739.946E+03,   736.114E+03,   736.114E+03
C:/temp/Job-30.odb,Step-1,Increment      1: Step Time =    1.000,"P-30-1",            31,          160.,            0.,            0.,NA,NA,"",   532.560E+03,   526.322E+03,   526.322E+03
C:/temp/Job-30.odb,Step-1,Increment      1: Step Time =    1.000,"P-30-1",            32,          150.,            0.,            0.,NA,NA,"",   259.714E+03,   241.126E+03,   241.126E+03
C:/temp/Job-30.odb,Step-1,Increment      1: Step Time =    1.000,"P-30-1",            33,          140.,            0.,            0.,NA,NA,"",   228.286E+03,  -199.869E+03,  -199.869E+03
C:/temp/Job-30.odb,Step-1,Increment      1: Step Time =    1.000,"P-30-1",            34,          130.,            0.,            0.,NA,NA,"",   504.760E+03,  -495.408E+03,  -495.408E+03
C:/temp/Job-30.odb,Step-1,Increment      1: Step Time =    1.000,"P-30-1",            35,          120.,            0.,            0.,NA,NA,"",   660.418E+03,  -651.191E+03,  -651.191E+03
C:/temp/Job-30.odb,Step-1,Increment      1: Step Time =    1.000,"P-30-1",            36,          110.,            0.,            0.,NA,NA,"",   546.313E+03,  -525.742E+03,  -525.742E+03
C:/temp/Job-30.odb,Step-1,Increment      1: Step Time =    1.000,"P-30-1",            37,          100.,            0.,            0.,NA,NA,"",   346.562E+03,   21.7043E+03,   21.7043E+03
C:/temp/Job-30.odb,Step-1,Increment      1: Step Time =    1.000,"P-30-1",            38,           90.,            0.,            0.,NA,NA,"",   844.218E+03,   815.140E+03,   815.140E+03
C:/temp/Job-30.odb,Step-1,Increment      1: Step Time =    1.000,"P-30-1",            39,           80.,            0.,            0.,NA,NA,"",   1.68441E+06,   1.66349E+06,   1.66349E+06
C:/temp/Job-30.odb,Step-1,Increment      1: Step Time =    1.000,"P-30-1",            40,           70.,            0.,            0.,NA,NA,"",   2.49348E+06,   2.47845E+06,   2.47845E+06
C:/temp/Job-30.odb,Step-1,Increment      1: Step Time =    1.000,"P-30-1",            41,           60.,            0.,            0.,NA,NA,"",   3.12321E+06,   3.11296E+06,   3.11296E+06
C:/temp/Job-30.odb,Step-1,Increment      1: Step Time =    1.000,"P-30-1",            42,           50.,            0.,            0.,NA,NA,"",   3.50515E+06,   3.49864E+06,   3.49864E+06
C:/temp/Job-30.odb,Step-1,Increment      1: Step Time =    1.000,"P-30-1",            43,           40.,            0.,            0.,NA,NA,"",   3.67765E+06,   3.67186E+06,   3.67186E+06
C:/temp/Job-30.odb,Step-1,Increment      1: Step Time =    1.000,"P-30-1",            44,           30.,            0.,            0.,NA,NA,"",   3.71586E+06,   3.71394E+06,   3.71394E+06
C:/temp/Job-30.odb,Step-1,Increment      1: Step Time =    1.000,"P-30-1",            45,           20.,            0.,            0.,NA,NA,"",   3.73250E+06,   3.72963E+06,   3.72963E+06
C:/temp/Job-30.odb,Step-1,Increment      1: Step Time =    1.000,"P-30-1",            46,           10.,            0.,            0.,NA,NA,"",   3.79536E+06,   3.79494E+06,   3.79494E+06
C:/temp/Job-30.odb,Step-1,Increment      1: Step Time =    1.000,"P-30-1",            47,          200.,            0.,            0.,NA,NA,"",   998.094E+03,   996.172E+03,   996.172E+03
C:/temp/Job-30.odb,Step-1,Increment      1: Step Time =    1.000,"P-30-1",            48,            0.,            0.,            0.,NA,NA,"",   4.23056E+06,   4.44782E+06,   4.44782E+06
C:/temp/Job-30.odb,Step-1,Increment      1: Step Time =    1.000,"P-30-1",            49,          200.,          190.,            0.,NA,NA,"",   1.01852E+06,   998.328E+03,   998.328E+03
C:/temp/Job-30.odb,Step-1,Increment      1: Step Time =    1.000,"P-30-1",            50,          200.,          180.,            0.,NA,NA,"",   1.05560E+06,   1.00660E+06,   1.00660E+06
C:/temp/Job-30.odb,Step-1,Increment      1: Step Time =    1.000,"P-30-1",            51,          200.,          170.,            0.,NA,NA,"",   1.03900E+06,   1.01460E+06,   1.01460E+06
C:/temp/Job-30.odb,Step-1,Increment      1: Step Time =    1.000,"P-30-1",            52,          200.,          160.,            0.,NA,NA,"",   948.585E+03,   1.02805E+06,   1.02805E+06
C:/temp/Job-30.odb,Step-1,Increment      1: Step Time =    1.000,"P-30-1",            53,          200.,          150.,            0.,NA,NA,"",   961.722E+03,   1.09880E+06,   1.09880E+06
C:/temp/Job-30.odb,Step-1,Increment      1: Step Time =    1.000,"P-30-1",            54,          200.,          140.,            0.,NA,NA,"",   1.40000E+06,   1.60662E+06,   1.60662E+06
C:/temp/Job-30.odb,Step-1,Increment      1: Step Time =    1.000,"P-30-1",            55,          200.,          130.,            0.,NA,NA,"",   2.20889E+06,   2.52457E+06,   2.52457E+06
C:/temp/Job-30.odb,Step-1,Increment      1: Step Time =    1.000,"P-30-1",            56,          200.,          120.,            0.,NA,NA,"",   3.07438E+06,   3.44201E+06,   3.44201E+06
C:/temp/Job-30.odb,Step-1,Increment      1: Step Time =    1.000,"P-30-1",            57,          200.,          110.,            0.,NA,NA,"",   3.71589E+06,   4.10309E+06,   4.10309E+06
C:/temp/Job-30.odb,Step-1,Increment      1: Step Time =    1.000,"P-30-1",            58,          200.,          100.,            0.,NA,NA,"",   3.92535E+06,   4.31777E+06,   4.31777E+06
C:/temp/Job-30.odb,Step-1,Increment      1: Step Time =    1.000,"P-30-1",            59,          200.,           90.,            0.,NA,NA,"",   3.70047E+06,   4.08767E+06,   4.08767E+06
C:/temp/Job-30.odb,Step-1,Increment      1: Step Time =    1.000,"P-30-1",            60,          200.,           80.,            0.,NA,NA,"",   3.07800E+06,   3.44721E+06,   3.44721E+06
C:/temp/Job-30.odb,Step-1,Increment      1: Step Time =    1.000,"P-30-1",            61,          200.,           70.,            0.,NA,NA,"",   2.21188E+06,   2.52831E+06,   2.52831E+06
C:/temp/Job-30.odb,Step-1,Increment      1: Step Time =    1.000,"P-30-1",            62,          200.,           60.,            0.,NA,NA,"",   1.40157E+06,   1.60928E+06,   1.60928E+06
C:/temp/Job-30.odb,Step-1,Increment      1: Step Time =    1.000,"P-30-1",            63,          200.,           50.,            0.,NA,NA,"",   969.836E+03,   1.11013E+06,   1.11013E+06
C:/temp/Job-30.odb,Step-1,Increment      1: Step Time =    1.000,"P-30-1",            64,          200.,           40.,            0.,NA,NA,"",   979.073E+03,   1.05755E+06,   1.05755E+06
C:/temp/Job-30.odb,Step-1,Increment      1: Step Time =    1.000,"P-30-1",            65,          200.,           30.,            0.,NA,NA,"",   1.04693E+06,   1.01854E+06,   1.01854E+06
C:/temp/Job-30.odb,Step-1,Increment      1: Step Time =    1.000,"P-30-1",            66,          200.,           20.,            0.,NA,NA,"",   1.05826E+06,   1.00533E+06,   1.00533E+06
C:/temp/Job-30.odb,Step-1,Increment      1: Step Time =    1.000,"P-30-1",            67,          200.,           10.,            0.,NA,NA,"",   1.01776E+06,   997.925E+03,   997.925E+03
C:/temp/Job-30.odb,Step-1,Increment      1: Step Time =    1.000,"P-30-1",            68,          200.,          200.,            0.,NA,NA,"",   997.711E+03,   995.328E+03,   995.328E+03
C:/temp/Job-30.odb,Step-1,Increment      1: Step Time =    1.000,"P-30-1",            69,           10.,          200.,            0.,NA,NA,"",   3.77727E+06,   3.77769E+06,   3.77769E+06
C:/temp/Job-30.odb,Step-1,Increment      1: Step Time =    1.000,"P-30-1",            70,           20.,          200.,            0.,NA,NA,"",   3.70946E+06,   3.70904E+06,   3.70904E+06
C:/temp/Job-30.odb,Step-1,Increment      1: Step Time =    1.000,"P-30-1",            71,           30.,          200.,            0.,NA,NA,"",   3.72611E+06,   3.72257E+06,   3.72257E+06
C:/temp/Job-30.odb,Step-1,Increment      1: Step Time =    1.000,"P-30-1",            72,           40.,          200.,            0.,NA,NA,"",   3.68521E+06,   3.68151E+06,   3.68151E+06
C:/temp/Job-30.odb,Step-1,Increment      1: Step Time =    1.000,"P-30-1",            73,           50.,          200.,            0.,NA,NA,"",   3.50873E+06,   3.50200E+06,   3.50200E+06
C:/temp/Job-30.odb,Step-1,Increment      1: Step Time =    1.000,"P-30-1",            74,           60.,          200.,            0.,NA,NA,"",   3.11812E+06,   3.10718E+06,   3.10718E+06
C:/temp/Job-30.odb,Step-1,Increment      1: Step Time =    1.000,"P-30-1",            75,           70.,          200.,            0.,NA,NA,"",   2.48650E+06,   2.47078E+06,   2.47078E+06
C:/temp/Job-30.odb,Step-1,Increment      1: Step Time =    1.000,"P-30-1",            76,           80.,          200.,            0.,NA,NA,"",   1.67263E+06,   1.65433E+06,   1.65433E+06
C:/temp/Job-30.odb,Step-1,Increment      1: Step Time =    1.000,"P-30-1",            77,           90.,          200.,            0.,NA,NA,"",   829.852E+03,   801.513E+03,   801.513E+03
C:/temp/Job-30.odb,Step-1,Increment      1: Step Time =    1.000,"P-30-1",            78,          100.,          200.,            0.,NA,NA,"",   323.154E+03,   2.40453E+03,   2.40453E+03
C:/temp/Job-30.odb,Step-1,Increment      1: Step Time =    1.000,"P-30-1",            79,          110.,          200.,            0.,NA,NA,"",   534.341E+03,  -515.997E+03,  -515.997E+03
C:/temp/Job-30.odb,Step-1,Increment      1: Step Time =    1.000,"P-30-1",            80,          120.,          200.,            0.,NA,NA,"",   674.667E+03,  -663.627E+03,  -663.627E+03
C:/temp/Job-30.odb,Step-1,Increment      1: Step Time =    1.000,"P-30-1",            81,          130.,          200.,            0.,NA,NA,"",   528.568E+03,  -520.160E+03,  -520.160E+03
C:/temp/Job-30.odb,Step-1,Increment      1: Step Time =    1.000,"P-30-1",            82,          140.,          200.,            0.,NA,NA,"",   240.039E+03,  -207.927E+03,  -207.927E+03
C:/temp/Job-30.odb,Step-1,Increment      1: Step Time =    1.000,"P-30-1",            83,          150.,          200.,            0.,NA,NA,"",   304.270E+03,   281.727E+03,   281.727E+03
C:/temp/Job-30.odb,Step-1,Increment      1: Step Time =    1.000,"P-30-1",            84,          160.,          200.,            0.,NA,NA,"",   592.217E+03,   574.161E+03,   574.161E+03
C:/temp/Job-30.odb,Step-1,Increment      1: Step Time =    1.000,"P-30-1",            85,          170.,          200.,            0.,NA,NA,"",   756.581E+03,   752.842E+03,   752.842E+03
C:/temp/Job-30.odb,Step-1,Increment      1: Step Time =    1.000,"P-30-1",            86,          180.,          200.,            0.,NA,NA,"",   872.872E+03,   871.633E+03,   871.633E+03
C:/temp/Job-30.odb,Step-1,Increment      1: Step Time =    1.000,"P-30-1",            87,          190.,          200.,            0.,NA,NA,"",    961.26E+03,   959.315E+03,   959.315E+03
C:/temp/Job-30.odb,Step-1,Increment      1: Step Time =    1.000,"P-30-1",            88,            0.,          200.,            0.,NA,NA,"",   4.21524E+06,   4.43182E+06,   4.43182E+06
C:/temp/Job-30.odb,Step-1,Increment      1: Step Time =    1.000,"P-30-1",            89,            0.,           10.,            0.,NA,NA,"",   2.94578E+06,   3.24302E+06,   3.24302E+06
C:/temp/Job-30.odb,Step-1,Increment      1: Step Time =    1.000,"P-30-1",            90,            0.,           20.,            0.,NA,NA,"",   2.15411E+06,   2.40123E+06,   2.40123E+06
C:/temp/Job-30.odb,Step-1,Increment      1: Step Time =    1.000,"P-30-1",            91,            0.,           30.,            0.,NA,NA,"",   1.52192E+06,   1.70288E+06,   1.70288E+06
C:/temp/Job-30.odb,Step-1,Increment      1: Step Time =    1.000,"P-30-1",            92,            0.,           40.,            0.,NA,NA,"",   960.482E+03,   1.07390E+06,   1.07390E+06
C:/temp/Job-30.odb,Step-1,Increment      1: Step Time =    1.000,"P-30-1",            93,            0.,           50.,            0.,NA,NA,"",   486.801E+03,   541.270E+03,   541.270E+03
C:/temp/Job-30.odb,Step-1,Increment      1: Step Time =    1.000,"P-30-1",            94,            0.,           60.,            0.,NA,NA,"",   148.608E+03,   142.204E+03,   142.204E+03
C:/temp/Job-30.odb,Step-1,Increment      1: Step Time =    1.000,"P-30-1",            95,            0.,           70.,            0.,NA,NA,"",   181.028E+03,  -195.255E+03,  -195.255E+03
C:/temp/Job-30.odb,Step-1,Increment      1: Step Time =    1.000,"P-30-1",            96,            0.,           80.,            0.,NA,NA,"",   302.480E+03,  -339.113E+03,  -339.113E+03
C:/temp/Job-30.odb,Step-1,Increment      1: Step Time =    1.000,"P-30-1",            97,            0.,           90.,            0.,NA,NA,"",   345.441E+03,  -392.282E+03,  -392.282E+03
C:/temp/Job-30.odb,Step-1,Increment      1: Step Time =    1.000,"P-30-1",            98,            0.,          100.,            0.,NA,NA,"",   349.905E+03,  -399.889E+03,  -399.889E+03
C:/temp/Job-30.odb,Step-1,Increment      1: Step Time =    1.000,"P-30-1",            99,            0.,          110.,            0.,NA,NA,"",   345.079E+03,  -392.153E+03,  -392.153E+03
C:/temp/Job-30.odb,Step-1,Increment      1: Step Time =    1.000,"P-30-1",           100,            0.,          120.,            0.,NA,NA,"",   304.575E+03,  -341.058E+03,  -341.058E+03
C:/temp/Job-30.odb,Step-1,Increment      1: Step Time =    1.000,"P-30-1",           101,            0.,          130.,            0.,NA,NA,"",   180.283E+03,  -193.713E+03,  -193.713E+03
C:/temp/Job-30.odb,Step-1,Increment      1: Step Time =    1.000,"P-30-1",           102,            0.,          140.,            0.,NA,NA,"",   151.652E+03,   146.862E+03,   146.862E+03
C:/temp/Job-30.odb,Step-1,Increment      1: Step Time =    1.000,"P-30-1",           103,            0.,          150.,            0.,NA,NA,"",   489.201E+03,   544.073E+03,   544.073E+03
C:/temp/Job-30.odb,Step-1,Increment      1: Step Time =    1.000,"P-30-1",           104,            0.,          160.,            0.,NA,NA,"",   964.299E+03,   1.07749E+06,   1.07749E+06
C:/temp/Job-30.odb,Step-1,Increment      1: Step Time =    1.000,"P-30-1",           105,            0.,          170.,            0.,NA,NA,"",   1.53334E+06,   1.71702E+06,   1.71702E+06
C:/temp/Job-30.odb,Step-1,Increment      1: Step Time =    1.000,"P-30-1",           106,            0.,          180.,            0.,NA,NA,"",   2.16639E+06,   2.42339E+06,   2.42339E+06
C:/temp/Job-30.odb,Step-1,Increment      1: Step Time =    1.000,"P-30-1",           107,            0.,          190.,            0.,NA,NA,"",   2.93318E+06,   3.23333E+06,   3.23333E+06
C:/temp/Job-30.odb,Step-1,Increment      1: Step Time =    1.000,"P-30-1",           108,       95.2544,       32.1482,            0.,NA,NA,"",   5.17676E+06,   5.26539E+06,   5.26539E+06
C:/temp/Job-30.odb,Step-1,Increment      1: Step Time =    1.000,"P-30-1",           109,       188.355,       31.3689,            0.,NA,NA,"",   1.15736E+06,   1.16794E+06,   1.16794E+06
C:/temp/Job-30.odb,Step-1,Increment      1: Step Time =    1.000,"P-30-1",           110,       173.751,       83.6973,            0.,NA,NA,"",   1.52438E+06,  -724.841E+03,  -724.841E+03
C:/temp/Job-30.odb,Step-1,Increment      1: Step Time =    1.000,"P-30-1",           111,       33.4838,       84.4281,            0.,NA,NA,"",    889.99E+03,  -915.885E+03,  -915.885E+03
C:/temp/Job-30.odb,Step-1,Increment      1: Step Time =    1.000,"P-30-1",           112,       190.140,       169.698,            0.,NA,NA,"",   1.11517E+06,   1.12244E+06,   1.12244E+06
C:/temp/Job-30.odb,Step-1,Increment      1: Step Time =    1.000,"P-30-1",           113,       180.578,       169.435,            0.,NA,NA,"",   1.39114E+06,   1.35588E+06,   1.35588E+06
C:/temp/Job-30.odb,Step-1,Increment      1: Step Time =    1.000,"P-30-1",           114,       167.333,       167.080,            0.,NA,NA,"",   1.92742E+06,   1.79974E+06,   1.79974E+06
C:/temp/Job-30.odb,Step-1,Increment      1: Step Time =    1.000,"P-30-1",           115,       158.127,       169.423,            0.,NA,NA,"",   2.13538E+06,   2.03475E+06,   2.03475E+06
C:/temp/Job-30.odb,Step-1,Increment      1: Step Time =    1.000,"P-30-1",           116,       144.668,       168.983,            0.,NA,NA,"",   2.60345E+06,   2.63643E+06,   2.63643E+06
C:/temp/Job-30.odb,Step-1,Increment      1: Step Time =    1.000,"P-30-1",           117,       134.814,       170.203,            0.,NA,NA,"",   3.03687E+06,   3.17597E+06,   3.17597E+06
C:/temp/Job-30.odb,Step-1,Increment      1: Step Time =    1.000,"P-30-1",           118,       128.627,       169.269,            0.,NA,NA,"",   3.63424E+06,   3.82167E+06,   3.82167E+06
C:/temp/Job-30.odb,Step-1,Increment      1: Step Time =    1.000,"P-30-1",           119,       117.543,       172.877,            0.,NA,NA,"",   3.86172E+06,   4.06651E+06,   4.06651E+06
C:/temp/Job-30.odb,Step-1,Increment      1: Step Time =    1.000,"P-30-1",           120,       104.870,       167.698,            0.,NA,NA,"",   5.94689E+06,   6.07212E+06,   6.07212E+06
C:/temp/Job-30.odb,Step-1,Increment      1: Step Time =    1.000,"P-30-1",           121,       94.8290,       167.692,            0.,NA,NA,"",   5.18017E+06,   5.26988E+06,   5.26988E+06
C:/temp/Job-30.odb,Step-1,Increment      1: Step Time =    1.000,"P-30-1",           122,       85.0293,       166.738,            0.,NA,NA,"",   3.88942E+06,   3.92126E+06,   3.92126E+06
C:/temp/Job-30.odb,Step-1,Increment      1: Step Time =    1.000,"P-30-1",           123,       72.7797,       168.294,            0.,NA,NA,"",   2.71420E+06,   2.55332E+06,   2.55332E+06
C:/temp/Job-30.odb,Step-1,Increment      1: Step Time =    1.000,"P-30-1",           124,       60.9520,       168.439,            0.,NA,NA,"",   2.42212E+06,   2.08197E+06,   2.08197E+06
C:/temp/Job-30.odb,Step-1,Increment      1: Step Time =    1.000,"P-30-1",           125,       55.3208,       171.121,            0.,NA,NA,"",   2.45243E+06,   2.14140E+06,   2.14140E+06
C:/temp/Job-30.odb,Step-1,Increment      1: Step Time =    1.000,"P-30-1",           126,       44.0596,       170.324,            0.,NA,NA,"",   2.15697E+06,   1.93175E+06,   1.93175E+06
C:/temp/Job-30.odb,Step-1,Increment      1: Step Time =    1.000,"P-30-1",           127,       31.0753,       167.635,            0.,NA,NA,"",   1.72704E+06,   1.65103E+06,   1.65103E+06
C:/temp/Job-30.odb,Step-1,Increment      1: Step Time =    1.000,"P-30-1",           128,       20.1452,       167.453,            0.,NA,NA,"",   1.57063E+06,   1.61176E+06,   1.61176E+06
C:/temp/Job-30.odb,Step-1,Increment      1: Step Time =    1.000,"P-30-1",           129,       11.4405,       169.381,            0.,NA,NA,"",   1.60483E+06,   1.72628E+06,   1.72628E+06
C:/temp/Job-30.odb,Step-1,Increment      1: Step Time =    1.000,"P-30-1",           130,       9.86380,       159.808,            0.,NA,NA,"",   965.184E+03,   1.06293E+06,   1.06293E+06
C:/temp/Job-30.odb,Step-1,Increment      1: Step Time =    1.000,"P-30-1",           131,       18.2474,       159.462,            0.,NA,NA,"",   1.01449E+06,   1.06233E+06,   1.06233E+06
C:/temp/Job-30.odb,Step-1,Increment      1: Step Time =    1.000,"P-30-1",           132,       30.6154,       158.735,            0.,NA,NA,"",   1.10159E+06,   1.00109E+06,   1.00109E+06
C:/temp/Job-30.odb,Step-1,Increment      1: Step Time =    1.000,"P-30-1",           133,       40.9496,       159.017,            0.,NA,NA,"",   1.28488E+06,   1.01222E+06,   1.01222E+06
C:/temp/Job-30.odb,Step-1,Increment      1: Step Time =    1.000,"P-30-1",           134,       51.7403,       157.421,            0.,NA,NA,"",   1.27852E+06,   546.516E+03,   546.516E+03
C:/temp/Job-30.odb,Step-1,Increment      1: Step Time =    1.000,"P-30-1",           135,       62.9067,       158.650,            0.,NA,NA,"",   1.17102E+06,   747.689E+03,   747.689E+03
C:/temp/Job-30.odb,Step-1,Increment      1: Step Time =    1.000,"P-30-1",           136,       136.327,       157.899,            0.,NA,NA,"",   4.27647E+06,   4.36337E+06,   4.36337E+06
C:/temp/Job-30.odb,Step-1,Increment      1: Step Time =    1.000,"P-30-1",           137,       143.723,       158.531,            0.,NA,NA,"",   3.19757E+06,   3.25455E+06,   3.25455E+06
C:/temp/Job-30.odb,Step-1,Increment      1: Step Time =    1.000,"P-30-1",           138,       159.042,       161.030,            0.,NA,NA,"",   2.38341E+06,   2.23201E+06,   2.23201E+06
C:/temp/Job-30.odb,Step-1,Increment      1: Step Time =    1.000,"P-30-1",           139,       169.332,       162.700,            0.,NA,NA,"",   2.00805E+06,   1.84861E+06,   1.84861E+06
C:/temp/Job-30.odb,Step-1,Increment      1: Step Time =    1.000,"P-30-1",           140,       176.896,       159.257,            0.,NA,NA,"",   1.80089E+06,   1.68082E+06,   1.68082E+06
C:/temp/Job-30.odb,Step-1,Increment      1: Step Time =    1.000,"P-30-1",           141,       190.252,       159.544,            0.,NA,NA,"",   1.19554E+06,   1.24493E+06,   1.24493E+06
C:/temp/Job-30.odb,Step-1,Increment      1: Step Time =    1.000,"P-30-1",           142,       155.051,       146.659,            0.,NA,NA,"",   2.21488E+06,   2.07769E+06,   2.07769E+06
C:/temp/Job-30.odb,Step-1,Increment      1: Step Time =    1.000,"P-30-1",           143,       169.110,       143.574,            0.,NA,NA,"",   2.33630E+06,   1.89257E+06,   1.89257E+06
C:/temp/Job-30.odb,Step-1,Increment      1: Step Time =    1.000,"P-30-1",           144,       180.081,       149.163,            0.,NA,NA,"",   1.94561E+06,   1.79158E+06,   1.79158E+06
C:/temp/Job-30.odb,Step-1,Increment      1: Step Time =    1.000,"P-30-1",           145,       190.361,       149.641,            0.,NA,NA,"",   1.36545E+06,   1.45831E+06,   1.45831E+06
C:/temp/Job-30.odb,Step-1,Increment      1: Step Time =    1.000,"P-30-1",           146,       154.804,       139.994,            0.,NA,NA,"",   1.48978E+06,   1.39067E+06,   1.39067E+06
C:/temp/Job-30.odb,Step-1,Increment      1: Step Time =    1.000,"P-30-1",           147,       166.431,       136.964,            0.,NA,NA,"",   2.10558E+06,   1.51925E+06,   1.51925E+06
C:/temp/Job-30.odb,Step-1,Increment      1: Step Time =    1.000,"P-30-1",           148,       179.351,       135.011,            0.,NA,NA,"",   2.16227E+06,   1.86373E+06,   1.86373E+06
C:/temp/Job-30.odb,Step-1,Increment      1: Step Time =    1.000,"P-30-1",           149,       190.629,       134.870,            0.,NA,NA,"",   1.80127E+06,   1.95469E+06,   1.95469E+06
C:/temp/Job-30.odb,Step-1,Increment      1: Step Time =    1.000,"P-30-1",           150,       190.405,       125.047,            0.,NA,NA,"",   2.07455E+06,   2.26933E+06,   2.26933E+06
C:/temp/Job-30.odb,Step-1,Increment      1: Step Time =    1.000,"P-30-1",           151,       180.174,       124.800,            0.,NA,NA,"",   1.87209E+06,   1.59047E+06,   1.59047E+06
C:/temp/Job-30.odb,Step-1,Increment      1: Step Time =    1.000,"P-30-1",           152,       169.173,       126.202,            0.,NA,NA,"",   1.85021E+06,  -110.118E+03,  -110.118E+03
C:/temp/Job-30.odb,Step-1,Increment      1: Step Time =    1.000,"P-30-1",           153,       168.491,       117.198,            0.,NA,NA,"",   2.10654E+06,  -1.97691E+06,  -1.97691E+06
C:/temp/Job-30.odb,Step-1,Increment      1: Step Time =    1.000,"P-30-1",           154,       179.265,       113.149,            0.,NA,NA,"",   1.23833E+06,   699.604E+03,   699.604E+03
C:/temp/Job-30.odb,Step-1,Increment      1: Step Time =    1.000,"P-30-1",           155,       189.944,       115.241,            0.,NA,NA,"",   2.16661E+06,   2.40213E+06,   2.40213E+06
C:/temp/Job-30.odb,Step-1,Increment      1: Step Time =    1.000,"P-30-1",           156,       167.749,       105.266,            0.,NA,NA,"",   3.13374E+06,  -3.17077E+06,  -3.17077E+06
C:/temp/Job-30.odb,Step-1,Increment      1: Step Time =    1.000,"P-30-1",           157,       180.764,       106.138,            0.,NA,NA,"",   811.291E+03,   615.019E+03,   615.019E+03
C:/temp/Job-30.odb,Step-1,Increment      1: Step Time =    1.000,"P-30-1",           158,       189.738,       105.010,            0.,NA,NA,"",   2.13075E+06,   2.39193E+06,   2.39193E+06
C:/temp/Job-30.odb,Step-1,Increment      1: Step Time =    1.000,"P-30-1",           159,       167.523,       95.4389,            0.,NA,NA,"",   3.21927E+06,  -3.25917E+06,  -3.25917E+06
C:/temp/Job-30.odb,Step-1,Increment      1: Step Time =    1.000,"P-30-1",           160,       177.497,       94.7279,            0.,NA,NA,"",   869.685E+03,  -334.175E+03,  -334.175E+03
C:/temp/Job-30.odb,Step-1,Increment      1: Step Time =    1.000,"P-30-1",           161,       189.252,       94.2024,            0.,NA,NA,"",   2.07996E+06,   2.33762E+06,   2.33762E+06
C:/temp/Job-30.odb,Step-1,Increment      1: Step Time =    1.000,"P-30-1",           162,       169.373,       71.5497,            0.,NA,NA,"",   1.85518E+06,   66.5506E+03,   66.5506E+03
C:/temp/Job-30.odb,Step-1,Increment      1: Step Time =    1.000,"P-30-1",           163,       181.863,       73.1401,            0.,NA,NA,"",   1.94082E+06,   1.76281E+06,   1.76281E+06
C:/temp/Job-30.odb,Step-1,Increment      1: Step Time =    1.000,"P-30-1",           164,       190.968,       74.4634,            0.,NA,NA,"",   2.09086E+06,   2.29744E+06,   2.29744E+06
C:/temp/Job-30.odb,Step-1,Increment      1: Step Time =    1.000,"P-30-1",           165,       190.344,       83.9119,            0.,NA,NA,"",   2.21274E+06,   2.45314E+06,   2.45314E+06
C:/temp/Job-30.odb,Step-1,Increment      1: Step Time =    1.000,"P-30-1",           166,       181.411,       86.6157,            0.,NA,NA,"",   1.28260E+06,   1.16959E+06,   1.16959E+06
C:/temp/Job-30.odb,Step-1,Increment      1: Step Time =    1.000,"P-30-1",           167,       157.676,       63.9581,            0.,NA,NA,"",   1.12011E+06,   724.551E+03,   724.551E+03
C:/temp/Job-30.odb,Step-1,Increment      1: Step Time =    1.000,"P-30-1",           168,       170.025,       64.8924,            0.,NA,NA,"",   2.14372E+06,   1.55368E+06,   1.55368E+06
C:/temp/Job-30.odb,Step-1,Increment      1: Step Time =    1.000,"P-30-1",           169,       182.229,       66.6084,            0.,NA,NA,"",   2.05375E+06,   1.89122E+06,   1.89122E+06
C:/temp/Job-30.odb,Step-1,Increment      1: Step Time =    1.000,"P-30-1",           170,       190.842,       65.1203,            0.,NA,NA,"",   1.78910E+06,   1.95249E+06,   1.95249E+06
C:/temp/Job-30.odb,Step-1,Increment      1: Step Time =    1.000,"P-30-1",           171,       157.974,       57.3874,            0.,NA,NA,"",   1.96989E+06,   1.72414E+06,   1.72414E+06
C:/temp/Job-30.odb,Step-1,Increment      1: Step Time =    1.000,"P-30-1",           172,       168.262,       54.2355,            0.,NA,NA,"",   2.35597E+06,   1.96022E+06,   1.96022E+06
C:/temp/Job-30.odb,Step-1,Increment      1: Step Time =    1.000,"P-30-1",           173,       180.222,       53.6191,            0.,NA,NA,"",   2.01490E+06,   1.83444E+06,   1.83444E+06
C:/temp/Job-30.odb,Step-1,Increment      1: Step Time =    1.000,"P-30-1",           174,       189.477,       51.3146,            0.,NA,NA,"",   1.44127E+06,   1.51599E+06,   1.51599E+06
C:/temp/Job-30.odb,Step-1,Increment      1: Step Time =    1.000,"P-30-1",           175,       141.117,       43.9364,            0.,NA,NA,"",   3.64770E+06,   3.71433E+06,   3.71433E+06
C:/temp/Job-30.odb,Step-1,Increment      1: Step Time =    1.000,"P-30-1",           176,       148.475,       40.8141,            0.,NA,NA,"",   2.80555E+06,   2.80485E+06,   2.80485E+06
C:/temp/Job-30.odb,Step-1,Increment      1: Step Time =    1.000,"P-30-1",           177,       159.877,       41.5661,            0.,NA,NA,"",   2.40770E+06,   2.23277E+06,   2.23277E+06
C:/temp/Job-30.odb,Step-1,Increment      1: Step Time =    1.000,"P-30-1",           178,       168.428,       45.2067,            0.,NA,NA,"",   2.26728E+06,   2.00966E+06,   2.00966E+06
C:/temp/Job-30.odb,Step-1,Increment      1: Step Time =    1.000,"P-30-1",           179,       178.174,       46.4362,            0.,NA,NA,"",   1.91818E+06,   1.76312E+06,   1.76312E+06
C:/temp/Job-30.odb,Step-1,Increment      1: Step Time =    1.000,"P-30-1",           180,       186.705,       42.2838,            0.,NA,NA,"",   1.39926E+06,   1.40705E+06,   1.40705E+06
C:/temp/Job-30.odb,Step-1,Increment      1: Step Time =    1.000,"P-30-1",           181,       105.316,       32.0436,            0.,NA,NA,"",   5.85678E+06,   5.97976E+06,   5.97976E+06
C:/temp/Job-30.odb,Step-1,Increment      1: Step Time =    1.000,"P-30-1",           182,       11.4568,       30.2962,            0.,NA,NA,"",   1.61646E+06,   1.73604E+06,   1.73604E+06
C:/temp/Job-30.odb,Step-1,Increment      1: Step Time =    1.000,"P-30-1",           183,       26.5263,       32.1297,            0.,NA,NA,"",   1.67171E+06,   1.64047E+06,   1.64047E+06
C:/temp/Job-30.odb,Step-1,Increment      1: Step Time =    1.000,"P-30-1",           184,       32.9467,       31.0785,            0.,NA,NA,"",   1.85140E+06,   1.75239E+06,   1.75239E+06
C:/temp/Job-30.odb,Step-1,Increment      1: Step Time =    1.000,"P-30-1",           185,       42.4261,       30.5244,            0.,NA,NA,"",   2.05316E+06,   1.84042E+06,   1.84042E+06
C:/temp/Job-30.odb,Step-1,Increment      1: Step Time =    1.000,"P-30-1",           186,       56.9085,       31.6439,            0.,NA,NA,"",   2.32190E+06,   1.97721E+06,   1.97721E+06
C:/temp/Job-30.odb,Step-1,Increment      1: Step Time =    1.000,"P-30-1",           187,       65.4318,       30.4769,            0.,NA,NA,"",   2.59498E+06,   2.28992E+06,   2.28992E+06
C:/temp/Job-30.odb,Step-1,Increment      1: Step Time =    1.000,"P-30-1",           188,       71.3909,       31.0501,            0.,NA,NA,"",   2.72281E+06,   2.51060E+06,   2.51060E+06
C:/temp/Job-30.odb,Step-1,Increment      1: Step Time =    1.000,"P-30-1",           189,       82.5080,       26.0057,            0.,NA,NA,"",   3.40582E+06,   3.31067E+06,   3.31067E+06
C:/temp/Job-30.odb,Step-1,Increment      1: Step Time =    1.000,"P-30-1",           190,       117.098,       31.4476,            0.,NA,NA,"",   5.13998E+06,   5.33349E+06,   5.33349E+06
C:/temp/Job-30.odb,Step-1,Increment      1: Step Time =    1.000,"P-30-1",           191,       125.718,       30.5088,            0.,NA,NA,"",   3.97127E+06,   4.16248E+06,   4.16248E+06
C:/temp/Job-30.odb,Step-1,Increment      1: Step Time =    1.000,"P-30-1",           192,       136.922,       31.1184,            0.,NA,NA,"",   3.07902E+06,   3.19292E+06,   3.19292E+06
C:/temp/Job-30.odb,Step-1,Increment      1: Step Time =    1.000,"P-30-1",           193,       147.340,       31.1253,            0.,NA,NA,"",   2.50294E+06,   2.50051E+06,   2.50051E+06
C:/temp/Job-30.odb,Step-1,Increment      1: Step Time =    1.000,"P-30-1",           194,       155.778,       32.1415,            0.,NA,NA,"",   2.27275E+06,   2.18668E+06,   2.18668E+06
C:/temp/Job-30.odb,Step-1,Increment      1: Step Time =    1.000,"P-30-1",           195,       169.550,       33.4012,            0.,NA,NA,"",   1.87501E+06,   1.74859E+06,   1.74859E+06
C:/temp/Job-30.odb,Step-1,Increment      1: Step Time =    1.000,"P-30-1",           196,       178.588,       31.8476,            0.,NA,NA,"",   1.49180E+06,   1.43427E+06,   1.43427E+06
C:/temp/Job-30.odb,Step-1,Increment      1: Step Time =    1.000,"P-30-1",           197,       63.3390,       42.0935,            0.,NA,NA,"",   1.04032E+06,   668.599E+03,   668.599E+03
C:/temp/Job-30.odb,Step-1,Increment      1: Step Time =    1.000,"P-30-1",           198,       54.7957,       41.0182,            0.,NA,NA,"",   1.41601E+06,   767.545E+03,   767.545E+03
C:/temp/Job-30.odb,Step-1,Increment      1: Step Time =    1.000,"P-30-1",           199,       42.2554,       41.0733,            0.,NA,NA,"",   1.30438E+06,   1.01212E+06,   1.01212E+06
C:/temp/Job-30.odb,Step-1,Increment      1: Step Time =    1.000,"P-30-1",           200,       29.3290,       40.2351,            0.,NA,NA,"",   1.16543E+06,   1.09775E+06,   1.09775E+06
C:/temp/Job-30.odb,Step-1,Increment      1: Step Time =    1.000,"P-30-1",           201,       23.1682,       41.3360,            0.,NA,NA,"",   1.01462E+06,   1.01129E+06,   1.01129E+06
C:/temp/Job-30.odb,Step-1,Increment      1: Step Time =    1.000,"P-30-1",           202,       9.33747,       40.5802,            0.,NA,NA,"",   947.084E+03,   1.04558E+06,   1.04558E+06
C:/temp/Job-30.odb,Step-1,Increment      1: Step Time =    1.000,"P-30-1",           203,       45.2097,       53.5109,            0.,NA,NA,"",   930.827E+03,  -890.638E+03,  -890.638E+03
C:/temp/Job-30.odb,Step-1,Increment      1: Step Time =    1.000,"P-30-1",           204,       32.2168,       51.7978,            0.,NA,NA,"",   521.645E+03,   177.655E+03,   177.655E+03
C:/temp/Job-30.odb,Step-1,Increment      1: Step Time =    1.000,"P-30-1",           205,       19.5360,       54.3010,            0.,NA,NA,"",   263.688E+03,   252.010E+03,   252.010E+03
C:/temp/Job-30.odb,Step-1,Increment      1: Step Time =    1.000,"P-30-1",           206,       9.33478,       50.1893,            0.,NA,NA,"",   433.186E+03,   489.077E+03,   489.077E+03
C:/temp/Job-30.odb,Step-1,Increment      1: Step Time =    1.000,"P-30-1",           207,       45.1980,       59.8801,            0.,NA,NA,"",   1.36376E+06,  -1.38046E+06,  -1.38046E+06
C:/temp/Job-30.odb,Step-1,Increment      1: Step Time =    1.000,"P-30-1",           208,       19.8838,       64.2761,            0.,NA,NA,"",   270.170E+03,  -255.756E+03,  -255.756E+03
C:/temp/Job-30.odb,Step-1,Increment      1: Step Time =    1.000,"P-30-1",           209,       9.91042,       64.8084,            0.,NA,NA,"",   145.068E+03,  -97.9295E+03,  -97.9295E+03
C:/temp/Job-30.odb,Step-1,Increment      1: Step Time =    1.000,"P-30-1",           210,       30.3474,       73.7889,            0.,NA,NA,"",   777.993E+03,  -812.750E+03,  -812.750E+03
C:/temp/Job-30.odb,Step-1,Increment      1: Step Time =    1.000,"P-30-1",           211,       20.3026,       74.0098,            0.,NA,NA,"",   438.099E+03,  -465.418E+03,  -465.418E+03
C:/temp/Job-30.odb,Step-1,Increment      1: Step Time =    1.000,"P-30-1",           212,       10.1842,       74.6807,            0.,NA,NA,"",   301.282E+03,  -323.475E+03,  -323.475E+03
C:/temp/Job-30.odb,Step-1,Increment      1: Step Time =    1.000,"P-30-1",           213,       22.2502,       84.3645,            0.,NA,NA,"",   508.454E+03,  -562.428E+03,  -562.428E+03
C:/temp/Job-30.odb,Step-1,Increment      1: Step Time =    1.000,"P-30-1",           214,       10.3132,       84.6477,            0.,NA,NA,"",   345.318E+03,  -392.305E+03,  -392.305E+03
C:/temp/Job-30.odb,Step-1,Increment      1: Step Time =    1.000,"P-30-1",           215,       30.7900,       105.440,            0.,NA,NA,"",   677.139E+03,  -716.336E+03,  -716.336E+03
C:/temp/Job-30.odb,Step-1,Increment      1: Step Time =    1.000,"P-30-1",           216,       20.1728,       102.660,            0.,NA,NA,"",   387.519E+03,  -439.304E+03,  -439.304E+03
C:/temp/Job-30.odb,Step-1,Increment      1: Step Time =    1.000,"P-30-1",           217,       9.97840,       104.748,            0.,NA,NA,"",   326.099E+03,  -372.306E+03,  -372.306E+03
C:/temp/Job-30.odb,Step-1,Increment      1: Step Time =    1.000,"P-30-1",           218,       9.78437,       94.7526,            0.,NA,NA,"",   329.342E+03,  -376.774E+03,  -376.774E+03
C:/temp/Job-30.odb,Step-1,Increment      1: Step Time =    1.000,"P-30-1",           219,       23.5841,       92.4615,            0.,NA,NA,"",   491.718E+03,  -553.853E+03,  -553.853E+03
C:/temp/Job-30.odb,Step-1,Increment      1: Step Time =    1.000,"P-30-1",           220,       32.0324,       94.4584,            0.,NA,NA,"",   712.903E+03,  -741.977E+03,  -741.977E+03
C:/temp/Job-30.odb,Step-1,Increment      1: Step Time =    1.000,"P-30-1",           221,       33.2336,       116.194,            0.,NA,NA,"",   893.928E+03,  -921.713E+03,  -921.713E+03
C:/temp/Job-30.odb,Step-1,Increment      1: Step Time =    1.000,"P-30-1",           222,       23.2112,       114.919,            0.,NA,NA,"",   506.805E+03,  -563.262E+03,  -563.262E+03
C:/temp/Job-30.odb,Step-1,Increment      1: Step Time =    1.000,"P-30-1",           223,       10.6468,       115.202,            0.,NA,NA,"",   346.299E+03,  -394.113E+03,  -394.113E+03
C:/temp/Job-30.odb,Step-1,Increment      1: Step Time =    1.000,"P-30-1",           224,       32.8147,       127.959,            0.,NA,NA,"",   876.449E+03,  -909.904E+03,  -909.904E+03
C:/temp/Job-30.odb,Step-1,Increment      1: Step Time =    1.000,"P-30-1",           225,       21.0951,       127.562,            0.,NA,NA,"",   437.980E+03,  -460.934E+03,  -460.934E+03
C:/temp/Job-30.odb,Step-1,Increment      1: Step Time =    1.000,"P-30-1",           226,       10.2040,       125.737,            0.,NA,NA,"",   302.399E+03,  -323.179E+03,  -323.179E+03
C:/temp/Job-30.odb,Step-1,Increment      1: Step Time =    1.000,"P-30-1",           227,       43.9313,       146.010,            0.,NA,NA,"",   882.931E+03,  -844.116E+03,  -844.116E+03
C:/temp/Job-30.odb,Step-1,Increment      1: Step Time =    1.000,"P-30-1",           228,       33.2341,       145.824,            0.,NA,NA,"",   498.535E+03,  -216.514E+03,  -216.514E+03
C:/temp/Job-30.odb,Step-1,Increment      1: Step Time =    1.000,"P-30-1",           229,       18.7398,       151.121,            0.,NA,NA,"",   511.216E+03,   539.628E+03,   539.628E+03
C:/temp/Job-30.odb,Step-1,Increment      1: Step Time =    1.000,"P-30-1",           230,       9.61857,       150.211,            0.,NA,NA,"",   452.195E+03,   509.612E+03,   509.612E+03
C:/temp/Job-30.odb,Step-1,Increment      1: Step Time =    1.000,"P-30-1",           231,       9.95340,       135.725,            0.,NA,NA,"",   131.560E+03,  -53.6452E+03,  -53.6452E+03
C:/temp/Job-30.odb,Step-1,Increment      1: Step Time =    1.000,"P-30-1",           232,       20.7034,       136.247,            0.,NA,NA,"",   280.321E+03,  -264.337E+03,  -264.337E+03
C:/temp/Job-30.odb,Step-1,Increment      1: Step Time =    1.000,"P-30-1",           233,       31.5527,       134.714,            0.,NA,NA,"",   656.026E+03,  -675.419E+03,  -675.419E+03
C:/temp/Job-30.odb,Step-1,Increment      1: Step Time =    1.000,"P-30-1",           234,       44.7061,       139.654,            0.,NA,NA,"",   1.36016E+06,  -1.38067E+06,  -1.38067E+06
C:/temp/Job-30.odb,Step-1,Increment      1: Step Time =    1.000,"P-30-1",           235,       190.569,       9.82995,            0.,NA,NA,"",   999.855E+03,   987.830E+03,   987.830E+03
C:/temp/Job-30.odb,Step-1,Increment      1: Step Time =    1.000,"P-30-1",           236,       180.018,       12.7171,            0.,NA,NA,"",   1.05573E+06,   1.04016E+06,   1.04016E+06
C:/temp/Job-30.odb,Step-1,Increment      1: Step Time =    1.000,"P-30-1",           237,       168.636,       10.5462,            0.,NA,NA,"",   1.02881E+06,   999.791E+03,   999.791E+03
C:/temp/Job-30.odb,Step-1,Increment      1: Step Time =    1.000,"P-30-1",           238,       158.842,       9.48382,            0.,NA,NA,"",   959.264E+03,   920.404E+03,   920.404E+03
C:/temp/Job-30.odb,Step-1,Increment      1: Step Time =    1.000,"P-30-1",           239,       149.175,       9.16504,            0.,NA,NA,"",   879.741E+03,   833.465E+03,   833.465E+03
C:/temp/Job-30.odb,Step-1,Increment      1: Step Time =    1.000,"P-30-1",           240,       134.673,       9.62999,            0.,NA,NA,"",   779.488E+03,   763.229E+03,   763.229E+03
C:/temp/Job-30.odb,Step-1,Increment      1: Step Time =    1.000,"P-30-1",           241,       124.755,       9.92342,            0.,NA,NA,"",   691.457E+03,   735.362E+03,   735.362E+03
C:/temp/Job-30.odb,Step-1,Increment      1: Step Time =    1.000,"P-30-1",           242,       115.011,       9.72766,            0.,NA,NA,"",   781.363E+03,   833.503E+03,   833.503E+03
C:/temp/Job-30.odb,Step-1,Increment      1: Step Time =    1.000,"P-30-1",           243,       105.251,       9.88104,            0.,NA,NA,"",   1.22341E+06,   1.22074E+06,   1.22074E+06
C:/temp/Job-30.odb,Step-1,Increment      1: Step Time =    1.000,"P-30-1",           244,       94.9934,       10.8195,            0.,NA,NA,"",   1.84882E+06,   1.77927E+06,   1.77927E+06
C:/temp/Job-30.odb,Step-1,Increment      1: Step Time =    1.000,"P-30-1",           245,       84.6646,       10.4708,            0.,NA,NA,"",   2.29328E+06,   2.16908E+06,   2.16908E+06
C:/temp/Job-30.odb,Step-1,Increment      1: Step Time =    1.000,"P-30-1",           246,       74.3569,       10.2219,            0.,NA,NA,"",   2.61947E+06,   2.48752E+06,   2.48752E+06
C:/temp/Job-30.odb,Step-1,Increment      1: Step Time =    1.000,"P-30-1",           247,       64.1464,       9.46253,            0.,NA,NA,"",   2.86473E+06,   2.76518E+06,   2.76518E+06
C:/temp/Job-30.odb,Step-1,Increment      1: Step Time =    1.000,"P-30-1",           248,       49.6366,       9.83710,            0.,NA,NA,"",   3.11307E+06,   3.05376E+06,   3.05376E+06
C:/temp/Job-30.odb,Step-1,Increment      1: Step Time =    1.000,"P-30-1",           249,       40.0538,       10.5721,            0.,NA,NA,"",   3.15939E+06,   3.12097E+06,   3.12097E+06
C:/temp/Job-30.odb,Step-1,Increment      1: Step Time =    1.000,"P-30-1",           250,       30.5061,       11.8784,            0.,NA,NA,"",   3.10309E+06,   3.08283E+06,   3.08283E+06
C:/temp/Job-30.odb,Step-1,Increment      1: Step Time =    1.000,"P-30-1",           251,       19.6651,       8.71635,            0.,NA,NA,"",   3.35997E+06,   3.36581E+06,   3.36581E+06
C:/temp/Job-30.odb,Step-1,Increment      1: Step Time =    1.000,"P-30-1",           252,       10.1216,       9.73662,            0.,NA,NA,"",   3.30369E+06,   3.39643E+06,   3.39643E+06
C:/temp/Job-30.odb,Step-1,Increment      1: Step Time =    1.000,"P-30-1",           253,       190.473,       22.8737,            0.,NA,NA,"",   1.07639E+06,   1.06518E+06,   1.06518E+06
C:/temp/Job-30.odb,Step-1,Increment      1: Step Time =    1.000,"P-30-1",           254,       174.397,       23.2400,            0.,NA,NA,"",   1.40264E+06,   1.34961E+06,   1.34961E+06
C:/temp/Job-30.odb,Step-1,Increment      1: Step Time =    1.000,"P-30-1",           255,       168.467,       26.1554,            0.,NA,NA,"",   1.64404E+06,   1.56041E+06,   1.56041E+06
C:/temp/Job-30.odb,Step-1,Increment      1: Step Time =    1.000,"P-30-1",           256,       156.859,       18.4547,            0.,NA,NA,"",   1.51204E+06,   1.44842E+06,   1.44842E+06
C:/temp/Job-30.odb,Step-1,Increment      1: Step Time =    1.000,"P-30-1",           257,       143.821,       18.0769,            0.,NA,NA,"",   1.62926E+06,   1.61203E+06,   1.61203E+06
C:/temp/Job-30.odb,Step-1,Increment      1: Step Time =    1.000,"P-30-1",           258,       134.777,       18.9463,            0.,NA,NA,"",   1.82147E+06,   1.88216E+06,   1.88216E+06
C:/temp/Job-30.odb,Step-1,Increment      1: Step Time =    1.000,"P-30-1",           259,       124.255,       20.3178,            0.,NA,NA,"",   2.29702E+06,   2.45509E+06,   2.45509E+06
C:/temp/Job-30.odb,Step-1,Increment      1: Step Time =    1.000,"P-30-1",           260,       113.715,       20.1908,            0.,NA,NA,"",   2.59479E+06,   2.75877E+06,   2.75877E+06
C:/temp/Job-30.odb,Step-1,Increment      1: Step Time =    1.000,"P-30-1",           261,       106.719,       18.8657,            0.,NA,NA,"",   2.56742E+06,   2.69003E+06,   2.69003E+06
C:/temp/Job-30.odb,Step-1,Increment      1: Step Time =    1.000,"P-30-1",           262,       92.6435,       22.2925,            0.,NA,NA,"",   3.39026E+06,   3.39824E+06,   3.39824E+06
C:/temp/Job-30.odb,Step-1,Increment      1: Step Time =    1.000,"P-30-1",           263,       70.8704,       19.7475,            0.,NA,NA,"",   3.01595E+06,   2.77160E+06,   2.77160E+06
C:/temp/Job-30.odb,Step-1,Increment      1: Step Time =    1.000,"P-30-1",           264,       66.5414,       20.9572,            0.,NA,NA,"",   2.97190E+06,   2.70539E+06,   2.70539E+06
C:/temp/Job-30.odb,Step-1,Increment      1: Step Time =    1.000,"P-30-1",           265,       54.3696,       19.0146,            0.,NA,NA,"",   2.81474E+06,   2.62141E+06,   2.62141E+06
C:/temp/Job-30.odb,Step-1,Increment      1: Step Time =    1.000,"P-30-1",           266,       40.1411,       21.3738,            0.,NA,NA,"",   2.56408E+06,   2.45033E+06,   2.45033E+06
C:/temp/Job-30.odb,Step-1,Increment      1: Step Time =    1.000,"P-30-1",           267,       31.2011,       21.0755,            0.,NA,NA,"",   2.52045E+06,   2.46698E+06,   2.46698E+06
C:/temp/Job-30.odb,Step-1,Increment      1: Step Time =    1.000,"P-30-1",           268,       21.3105,       18.2666,            0.,NA,NA,"",   2.67296E+06,   2.69404E+06,   2.69404E+06
C:/temp/Job-30.odb,Step-1,Increment      1: Step Time =    1.000,"P-30-1",           269,       10.6561,       19.5722,            0.,NA,NA,"",   2.40763E+06,   2.55162E+06,   2.55162E+06
C:/temp/Job-30.odb,Step-1,Increment      1: Step Time =    1.000,"P-30-1",           270,       190.051,       179.794,            0.,NA,NA,"",   1.06869E+06,   1.05343E+06,   1.05343E+06
C:/temp/Job-30.odb,Step-1,Increment      1: Step Time =    1.000,"P-30-1",           271,       180.353,       179.662,            0.,NA,NA,"",   1.19075E+06,   1.16799E+06,   1.16799E+06
C:/temp/Job-30.odb,Step-1,Increment      1: Step Time =    1.000,"P-30-1",           272,       169.996,       179.496,            0.,NA,NA,"",   1.39876E+06,   1.34218E+06,   1.34218E+06
C:/temp/Job-30.odb,Step-1,Increment      1: Step Time =    1.000,"P-30-1",           273,       156.340,       179.226,            0.,NA,NA,"",   1.66051E+06,   1.59294E+06,   1.59294E+06
C:/temp/Job-30.odb,Step-1,Increment      1: Step Time =    1.000,"P-30-1",           274,       148.111,       178.590,            0.,NA,NA,"",   1.83638E+06,   1.80034E+06,   1.80034E+06
C:/temp/Job-30.odb,Step-1,Increment      1: Step Time =    1.000,"P-30-1",           275,       137.465,       180.638,            0.,NA,NA,"",   1.84353E+06,   1.88527E+06,   1.88527E+06
C:/temp/Job-30.odb,Step-1,Increment      1: Step Time =    1.000,"P-30-1",           276,       129.167,       181.772,            0.,NA,NA,"",   1.83803E+06,   1.94252E+06,   1.94252E+06
C:/temp/Job-30.odb,Step-1,Increment      1: Step Time =    1.000,"P-30-1",           277,       113.326,       179.650,            0.,NA,NA,"",   2.66300E+06,   2.83622E+06,   2.83622E+06
C:/temp/Job-30.odb,Step-1,Increment      1: Step Time =    1.000,"P-30-1",           278,       108.921,       176.194,            0.,NA,NA,"",   3.51763E+06,   3.70986E+06,   3.70986E+06
C:/temp/Job-30.odb,Step-1,Increment      1: Step Time =    1.000,"P-30-1",           279,       95.1256,       180.986,            0.,NA,NA,"",   2.94726E+06,   2.95466E+06,   2.95466E+06
C:/temp/Job-30.odb,Step-1,Increment      1: Step Time =    1.000,"P-30-1",           280,       86.0747,       177.183,            0.,NA,NA,"",   3.32818E+06,   3.25086E+06,   3.25086E+06
C:/temp/Job-30.odb,Step-1,Increment      1: Step Time =    1.000,"P-30-1",           281,       72.6068,       179.117,            0.,NA,NA,"",   3.06221E+06,   2.82314E+06,   2.82314E+06
C:/temp/Job-30.odb,Step-1,Increment      1: Step Time =    1.000,"P-30-1",           282,       67.1103,       176.448,            0.,NA,NA,"",   2.94387E+06,   2.66050E+06,   2.66050E+06
C:/temp/Job-30.odb,Step-1,Increment      1: Step Time =    1.000,"P-30-1",           283,       53.9964,       180.735,            0.,NA,NA,"",   2.79476E+06,   2.59996E+06,   2.59996E+06
C:/temp/Job-30.odb,Step-1,Increment      1: Step Time =    1.000,"P-30-1",           284,       41.9960,       183.094,            0.,NA,NA,"",   2.80282E+06,   2.70281E+06,   2.70281E+06
C:/temp/Job-30.odb,Step-1,Increment      1: Step Time =    1.000,"P-30-1",           285,       32.0385,       177.686,            0.,NA,NA,"",   2.44532E+06,   2.38226E+06,   2.38226E+06
C:/temp/Job-30.odb,Step-1,Increment      1: Step Time =    1.000,"P-30-1",           286,       17.8946,       178.466,            0.,NA,NA,"",   2.37285E+06,   2.43421E+06,   2.43421E+06
C:/temp/Job-30.odb,Step-1,Increment      1: Step Time =    1.000,"P-30-1",           287,       8.55420,       180.299,            0.,NA,NA,"",   2.32884E+06,   2.50200E+06,   2.50200E+06
C:/temp/Job-30.odb,Step-1,Increment      1: Step Time =    1.000,"P-30-1",           288,       190.000,       189.906,            0.,NA,NA,"",   1.00450E+06,   993.227E+03,   993.227E+03
C:/temp/Job-30.odb,Step-1,Increment      1: Step Time =    1.000,"P-30-1",           289,       175.478,       189.797,            0.,NA,NA,"",   997.482E+03,   981.823E+03,   981.823E+03
C:/temp/Job-30.odb,Step-1,Increment      1: Step Time =    1.000,"P-30-1",           290,       166.564,       189.043,            0.,NA,NA,"",   1.05330E+06,   1.01610E+06,   1.01610E+06
C:/temp/Job-30.odb,Step-1,Increment      1: Step Time =    1.000,"P-30-1",           291,       155.858,       186.359,            0.,NA,NA,"",   1.23732E+06,   1.18296E+06,   1.18296E+06
C:/temp/Job-30.odb,Step-1,Increment      1: Step Time =    1.000,"P-30-1",           292,       147.669,       189.393,            0.,NA,NA,"",   989.781E+03,   943.541E+03,   943.541E+03
C:/temp/Job-30.odb,Step-1,Increment      1: Step Time =    1.000,"P-30-1",           293,       134.314,       191.029,            0.,NA,NA,"",   690.697E+03,   670.760E+03,   670.760E+03
C:/temp/Job-30.odb,Step-1,Increment      1: Step Time =    1.000,"P-30-1",           294,       125.091,       190.965,            0.,NA,NA,"",   591.434E+03,   625.688E+03,   625.688E+03
C:/temp/Job-30.odb,Step-1,Increment      1: Step Time =    1.000,"P-30-1",           295,       115.349,       189.876,            0.,NA,NA,"",   839.354E+03,   892.757E+03,   892.757E+03
C:/temp/Job-30.odb,Step-1,Increment      1: Step Time =    1.000,"P-30-1",           296,       105.025,       190.120,            0.,NA,NA,"",   1.21292E+06,   1.21252E+06,   1.21252E+06
C:/temp/Job-30.odb,Step-1,Increment      1: Step Time =    1.000,"P-30-1",           297,       94.9388,       190.190,            0.,NA,NA,"",   1.71976E+06,   1.64580E+06,   1.64580E+06
C:/temp/Job-30.odb,Step-1,Increment      1: Step Time =    1.000,"P-30-1",           298,       84.8316,       189.697,            0.,NA,NA,"",   2.25154E+06,   2.13070E+06,   2.13070E+06
C:/temp/Job-30.odb,Step-1,Increment      1: Step Time =    1.000,"P-30-1",           299,       74.7403,       189.657,            0.,NA,NA,"",   2.62036E+06,   2.48611E+06,   2.48611E+06
C:/temp/Job-30.odb,Step-1,Increment      1: Step Time =    1.000,"P-30-1",           300,       64.4034,       190.227,            0.,NA,NA,"",   2.86686E+06,   2.75999E+06,   2.75999E+06
C:/temp/Job-30.odb,Step-1,Increment      1: Step Time =    1.000,"P-30-1",           301,       49.9190,       190.696,            0.,NA,NA,"",   3.13537E+06,   3.08088E+06,   3.08088E+06
C:/temp/Job-30.odb,Step-1,Increment      1: Step Time =    1.000,"P-30-1",           302,       40.6968,       190.397,            0.,NA,NA,"",   3.20751E+06,   3.17233E+06,   3.17233E+06
C:/temp/Job-30.odb,Step-1,Increment      1: Step Time =    1.000,"P-30-1",           303,       30.4266,       187.138,            0.,NA,NA,"",   3.03871E+06,   3.01653E+06,   3.01653E+06
C:/temp/Job-30.odb,Step-1,Increment      1: Step Time =    1.000,"P-30-1",           304,       19.4091,       189.095,            0.,NA,NA,"",   3.19780E+06,   3.21959E+06,   3.21959E+06
C:/temp/Job-30.odb,Step-1,Increment      1: Step Time =    1.000,"P-30-1",           305,       9.63704,       189.865,            0.,NA,NA,"",   3.25508E+06,   3.36101E+06,   3.36101E+06
C:/temp/Job-30.odb,Step-1,Increment      1: Step Time =    1.000,"P-30-1",           306,       94.9786,       163.803,            0.,NA,NA,"",   5.71617E+06,   5.77890E+06,   5.77890E+06
C:/temp/Job-30.odb,Step-1,Increment      1: Step Time =    1.000,"P-30-1",           307,       89.9882,       163.212,            0.,NA,NA,"",   4.94394E+06,   4.99933E+06,   4.99933E+06
C:/temp/Job-30.odb,Step-1,Increment      1: Step Time =    1.000,"P-30-1",           308,       80.2229,       160.868,            0.,NA,NA,"",   3.20122E+06,   3.20463E+06,   3.20463E+06
C:/temp/Job-30.odb,Step-1,Increment      1: Step Time =    1.000,"P-30-1",           309,       75.5083,       159.128,            0.,NA,NA,"",   2.22952E+06,   2.20492E+06,   2.20492E+06
C:/temp/Job-30.odb,Step-1,Increment      1: Step Time =    1.000,"P-30-1",           310,       66.5601,       154.569,            0.,NA,NA,"",   735.754E+03,   221.047E+03,   221.047E+03
C:/temp/Job-30.odb,Step-1,Increment      1: Step Time =    1.000,"P-30-1",           311,       62.3817,       151.777,            0.,NA,NA,"",   693.521E+03,  -548.344E+03,  -548.344E+03
C:/temp/Job-30.odb,Step-1,Increment      1: Step Time =    1.000,"P-30-1",           312,       54.7452,       145.255,            0.,NA,NA,"",   1.31570E+06,  -1.31494E+06,  -1.31494E+06
C:/temp/Job-30.odb,Step-1,Increment      1: Step Time =    1.000,"P-30-1",           313,       51.3340,       141.565,            0.,NA,NA,"",   1.53788E+06,  -1.54948E+06,  -1.54948E+06
C:/temp/Job-30.odb,Step-1,Increment      1: Step Time =    1.000,"P-30-1",           314,       45.4310,       133.440,            0.,NA,NA,"",   1.60767E+06,  -1.62527E+06,  -1.62527E+06
C:/temp/Job-30.odb,Step-1,Increment      1: Step Time =    1.000,"P-30-1",           315,       42.9756,       129.055,            0.,NA,NA,"",   1.49873E+06,  -1.51629E+06,  -1.51629E+06
C:/temp/Job-30.odb,Step-1,Increment      1: Step Time =    1.000,"P-30-1",           316,       39.1324,       119.777,            0.,NA,NA,"",   1.16017E+06,  -1.17851E+06,  -1.17851E+06
C:/temp/Job-30.odb,Step-1,Increment      1: Step Time =    1.000,"P-30-1",           317,       37.7683,       114.941,            0.,NA,NA,"",   998.972E+03,  -1.01517E+06,  -1.01517E+06
C:/temp/Job-30.odb,Step-1,Increment      1: Step Time =    1.000,"P-30-1",           318,       36.1973,       105.021,            0.,NA,NA,"",   764.645E+03,  -785.482E+03,  -785.482E+03
C:/temp/Job-30.odb,Step-1,Increment      1: Step Time =    1.000,"P-30-1",           319,           36.,          100.,            0.,NA,NA,"",   736.867E+03,  -755.140E+03,  -755.140E+03
C:/temp/Job-30.odb,Step-1,Increment      1: Step Time =    1.000,"P-30-1",           320,       36.7879,       89.9882,            0.,NA,NA,"",   854.915E+03,  -869.133E+03,  -869.133E+03
C:/temp/Job-30.odb,Step-1,Increment      1: Step Time =    1.000,"P-30-1",           321,       37.7683,       85.0595,            0.,NA,NA,"",   978.222E+03,  -994.819E+03,  -994.819E+03
C:/temp/Job-30.odb,Step-1,Increment      1: Step Time =    1.000,"P-30-1",           322,       40.8717,       75.5083,            0.,NA,NA,"",   1.27526E+06,  -1.30083E+06,  -1.30083E+06
C:/temp/Job-30.odb,Step-1,Increment      1: Step Time =    1.000,"P-30-1",           323,       42.9756,       70.9446,            0.,NA,NA,"",   1.41561E+06,  -1.44488E+06,  -1.44488E+06
C:/temp/Job-30.odb,Step-1,Increment      1: Step Time =    1.000,"P-30-1",           324,       48.2229,       62.3817,            0.,NA,NA,"",   1.60735E+06,  -1.62038E+06,  -1.62038E+06
C:/temp/Job-30.odb,Step-1,Increment      1: Step Time =    1.000,"P-30-1",           325,       51.3340,       58.4353,            0.,NA,NA,"",   1.53370E+06,  -1.54458E+06,  -1.54458E+06
C:/temp/Job-30.odb,Step-1,Increment      1: Step Time =    1.000,"P-30-1",           326,       58.4353,       51.3340,            0.,NA,NA,"",   977.341E+03,  -957.133E+03,  -957.133E+03
C:/temp/Job-30.odb,Step-1,Increment      1: Step Time =    1.000,"P-30-1",           327,       62.3817,       48.2229,            0.,NA,NA,"",   633.529E+03,  -538.169E+03,  -538.169E+03
C:/temp/Job-30.odb,Step-1,Increment      1: Step Time =    1.000,"P-30-1",           328,       70.9446,       42.9756,            0.,NA,NA,"",   1.18015E+06,   1.13948E+06,   1.13948E+06
C:/temp/Job-30.odb,Step-1,Increment      1: Step Time =    1.000,"P-30-1",           329,       75.5083,       40.8717,            0.,NA,NA,"",   1.99045E+06,   1.99313E+06,   1.99313E+06
C:/temp/Job-30.odb,Step-1,Increment      1: Step Time =    1.000,"P-30-1",           330,       85.0595,       37.7683,            0.,NA,NA,"",   4.06911E+06,   4.09081E+06,   4.09081E+06
C:/temp/Job-30.odb,Step-1,Increment      1: Step Time =    1.000,"P-30-1",           331,       89.9882,       36.7879,            0.,NA,NA,"",   4.93469E+06,   4.98275E+06,   4.98275E+06
C:/temp/Job-30.odb,Step-1,Increment      1: Step Time =    1.000,"P-30-1",           332,          100.,           36.,            0.,NA,NA,"",   6.27645E+06,   6.34616E+06,   6.34616E+06
C:/temp/Job-30.odb,Step-1,Increment      1: Step Time =    1.000,"P-30-1",           333,       110.012,       36.7879,            0.,NA,NA,"",   6.57415E+06,   6.68126E+06,   6.68126E+06
C:/temp/Job-30.odb,Step-1,Increment      1: Step Time =    1.000,"P-30-1",           334,       114.941,       37.7683,            0.,NA,NA,"",   6.39649E+06,   6.54280E+06,   6.54280E+06
C:/temp/Job-30.odb,Step-1,Increment      1: Step Time =    1.000,"P-30-1",           335,       124.492,       40.8717,            0.,NA,NA,"",   5.84820E+06,   5.92597E+06,   5.92597E+06
C:/temp/Job-30.odb,Step-1,Increment      1: Step Time =    1.000,"P-30-1",           336,       129.055,       42.9756,            0.,NA,NA,"",   5.33482E+06,   5.40784E+06,   5.40784E+06
C:/temp/Job-30.odb,Step-1,Increment      1: Step Time =    1.000,"P-30-1",           337,       137.618,       48.2229,            0.,NA,NA,"",   3.98799E+06,   4.03968E+06,   4.03968E+06
C:/temp/Job-30.odb,Step-1,Increment      1: Step Time =    1.000,"P-30-1",           338,       141.565,       51.3340,            0.,NA,NA,"",   3.27984E+06,   3.34248E+06,   3.34248E+06
C:/temp/Job-30.odb,Step-1,Increment      1: Step Time =    1.000,"P-30-1",           339,       148.666,       58.4353,            0.,NA,NA,"",   1.88706E+06,   1.89604E+06,   1.89604E+06
C:/temp/Job-30.odb,Step-1,Increment      1: Step Time =    1.000,"P-30-1",           340,       151.777,       62.3817,            0.,NA,NA,"",   1.21131E+06,   1.18786E+06,   1.18786E+06
C:/temp/Job-30.odb,Step-1,Increment      1: Step Time =    1.000,"P-30-1",           341,       157.024,       70.9446,            0.,NA,NA,"",   749.948E+03,  -624.060E+03,  -624.060E+03
C:/temp/Job-30.odb,Step-1,Increment      1: Step Time =    1.000,"P-30-1",           342,       159.128,       75.5083,            0.,NA,NA,"",   1.33526E+06,  -1.31377E+06,  -1.31377E+06
C:/temp/Job-30.odb,Step-1,Increment      1: Step Time =    1.000,"P-30-1",           343,       162.232,       85.0595,            0.,NA,NA,"",   2.93794E+06,  -2.94227E+06,  -2.94227E+06
C:/temp/Job-30.odb,Step-1,Increment      1: Step Time =    1.000,"P-30-1",           344,       163.212,       89.9882,            0.,NA,NA,"",   3.52871E+06,  -3.55662E+06,  -3.55662E+06
C:/temp/Job-30.odb,Step-1,Increment      1: Step Time =    1.000,"P-30-1",           345,          164.,          100.,            0.,NA,NA,"",   4.03222E+06,  -4.06795E+06,  -4.06795E+06
C:/temp/Job-30.odb,Step-1,Increment      1: Step Time =    1.000,"P-30-1",           346,       163.803,       105.021,            0.,NA,NA,"",   3.81101E+06,  -3.83895E+06,  -3.83895E+06
C:/temp/Job-30.odb,Step-1,Increment      1: Step Time =    1.000,"P-30-1",           347,       162.232,       114.941,            0.,NA,NA,"",   2.69209E+06,  -2.73091E+06,  -2.73091E+06
C:/temp/Job-30.odb,Step-1,Increment      1: Step Time =    1.000,"P-30-1",           348,       160.868,       119.777,            0.,NA,NA,"",   2.03597E+06,  -2.05192E+06,  -2.05192E+06
C:/temp/Job-30.odb,Step-1,Increment      1: Step Time =    1.000,"P-30-1",           349,       157.024,       129.055,            0.,NA,NA,"",   746.427E+03,  -634.549E+03,  -634.549E+03
C:/temp/Job-30.odb,Step-1,Increment      1: Step Time =    1.000,"P-30-1",           350,       154.569,       133.440,            0.,NA,NA,"",   698.750E+03,   271.890E+03,   271.890E+03
C:/temp/Job-30.odb,Step-1,Increment      1: Step Time =    1.000,"P-30-1",           351,       148.666,       141.565,            0.,NA,NA,"",   1.96531E+06,   1.97229E+06,   1.97229E+06
C:/temp/Job-30.odb,Step-1,Increment      1: Step Time =    1.000,"P-30-1",           352,       145.255,       145.255,            0.,NA,NA,"",   2.68572E+06,   2.71215E+06,   2.71215E+06
C:/temp/Job-30.odb,Step-1,Increment      1: Step Time =    1.000,"P-30-1",           353,       137.618,       151.777,            0.,NA,NA,"",   4.08558E+06,   4.13602E+06,   4.13602E+06
C:/temp/Job-30.odb,Step-1,Increment      1: Step Time =    1.000,"P-30-1",           354,       133.440,       154.569,            0.,NA,NA,"",   4.73979E+06,   4.80337E+06,   4.80337E+06
C:/temp/Job-30.odb,Step-1,Increment      1: Step Time =    1.000,"P-30-1",           355,       124.492,       159.128,            0.,NA,NA,"",   5.79737E+06,   5.89311E+06,   5.89311E+06
C:/temp/Job-30.odb,Step-1,Increment      1: Step Time =    1.000,"P-30-1",           356,       119.777,       160.868,            0.,NA,NA,"",   5.97802E+06,   6.11976E+06,   6.11976E+06
C:/temp/Job-30.odb,Step-1,Increment      1: Step Time =    1.000,"P-30-1",           357,       110.012,       163.212,            0.,NA,NA,"",   6.80600E+06,   6.88416E+06,   6.88416E+06
C:/temp/Job-30.odb,Step-1,Increment      1: Step Time =    1.000,"P-30-1",           358,       105.021,       163.803,            0.,NA,NA,"",   6.69979E+06,   6.77846E+06,   6.77846E+06
C:/temp/Job-30.odb,Step-1,Increment      1: Step Time =    1.000,"P-30-1",           359,          195.,            0.,            0.,NA,NA,"",   989.853E+03,   987.460E+03,   987.460E+03
C:/temp/Job-30.odb,Step-1,Increment      1: Step Time =    1.000,"P-30-1",           360,          185.,            0.,            0.,NA,NA,"",   921.487E+03,   919.261E+03,   919.261E+03
C:/temp/Job-30.odb,Step-1,Increment      1: Step Time =    1.000,"P-30-1",           361,          175.,            0.,            0.,NA,NA,"",   812.276E+03,   809.577E+03,   809.577E+03
C:/temp/Job-30.odb,Step-1,Increment      1: Step Time =    1.000,"P-30-1",           362,          165.,            0.,            0.,NA,NA,"",   647.232E+03,   642.568E+03,   642.568E+03
C:/temp/Job-30.odb,Step-1,Increment      1: Step Time =    1.000,"P-30-1",           363,          155.,            0.,            0.,NA,NA,"",   399.043E+03,   389.540E+03,   389.540E+03
C:/temp/Job-30.odb,Step-1,Increment      1: Step Time =    1.000,"P-30-1",           364,          145.,            0.,            0.,NA,NA,"",   178.133E+03,   20.5131E+03,   20.5131E+03
C:/temp/Job-30.odb,Step-1,Increment      1: Step Time =    1.000,"P-30-1",           365,          135.,            0.,            0.,NA,NA,"",   366.660E+03,  -352.776E+03,  -352.776E+03
C:/temp/Job-30.odb,Step-1,Increment      1: Step Time =    1.000,"P-30-1",           366,          125.,            0.,            0.,NA,NA,"",   611.004E+03,  -601.331E+03,  -601.331E+03
C:/temp/Job-30.odb,Step-1,Increment      1: Step Time =    1.000,"P-30-1",           367,          115.,            0.,            0.,NA,NA,"",   642.612E+03,  -629.603E+03,  -629.603E+03
C:/temp/Job-30.odb,Step-1,Increment      1: Step Time =    1.000,"P-30-1",           368,          105.,            0.,            0.,NA,NA,"",   398.378E+03,  -352.800E+03,  -352.800E+03
C:/temp/Job-30.odb,Step-1,Increment      1: Step Time =    1.000,"P-30-1",           369,           95.,            0.,            0.,NA,NA,"",   513.239E+03,   457.192E+03,   457.192E+03
C:/temp/Job-30.odb,Step-1,Increment      1: Step Time =    1.000,"P-30-1",           370,           85.,            0.,            0.,NA,NA,"",   1.25052E+06,   1.22901E+06,   1.22901E+06
C:/temp/Job-30.odb,Step-1,Increment      1: Step Time =    1.000,"P-30-1",           371,           75.,            0.,            0.,NA,NA,"",   2.10434E+06,   2.08676E+06,   2.08676E+06
C:/temp/Job-30.odb,Step-1,Increment      1: Step Time =    1.000,"P-30-1",           372,           65.,            0.,            0.,NA,NA,"",   2.83724E+06,   2.82493E+06,   2.82493E+06
C:/temp/Job-30.odb,Step-1,Increment      1: Step Time =    1.000,"P-30-1",           373,           55.,            0.,            0.,NA,NA,"",   3.34422E+06,   3.33633E+06,   3.33633E+06
C:/temp/Job-30.odb,Step-1,Increment      1: Step Time =    1.000,"P-30-1",           374,           45.,            0.,            0.,NA,NA,"",   3.61376E+06,   3.60821E+06,   3.60821E+06
C:/temp/Job-30.odb,Step-1,Increment      1: Step Time =    1.000,"P-30-1",           375,           35.,            0.,            0.,NA,NA,"",   3.70222E+06,   3.70105E+06,   3.70105E+06
C:/temp/Job-30.odb,Step-1,Increment      1: Step Time =    1.000,"P-30-1",           376,           25.,            0.,            0.,NA,NA,"",   3.72214E+06,   3.72357E+06,   3.72357E+06
C:/temp/Job-30.odb,Step-1,Increment      1: Step Time =    1.000,"P-30-1",           377,           15.,            0.,            0.,NA,NA,"",   3.73737E+06,   3.74573E+06,   3.74573E+06
C:/temp/Job-30.odb,Step-1,Increment      1: Step Time =    1.000,"P-30-1",           378,            5.,            0.,            0.,NA,NA,"",   4.04738E+06,   4.13853E+06,   4.13853E+06
C:/temp/Job-30.odb,Step-1,Increment      1: Step Time =    1.000,"P-30-1",           379,          200.,          195.,            0.,NA,NA,"",   1.00266E+06,   995.522E+03,   995.522E+03
C:/temp/Job-30.odb,Step-1,Increment      1: Step Time =    1.000,"P-30-1",           380,          200.,          185.,            0.,NA,NA,"",   1.03950E+06,   1.00260E+06,   1.00260E+06
C:/temp/Job-30.odb,Step-1,Increment      1: Step Time =    1.000,"P-30-1",           381,          200.,          175.,            0.,NA,NA,"",   1.05759E+06,   1.01033E+06,   1.01033E+06
C:/temp/Job-30.odb,Step-1,Increment      1: Step Time =    1.000,"P-30-1",           382,          200.,          165.,            0.,NA,NA,"",   998.464E+03,   1.01953E+06,   1.01953E+06
C:/temp/Job-30.odb,Step-1,Increment      1: Step Time =    1.000,"P-30-1",           383,          200.,          155.,            0.,NA,NA,"",   919.528E+03,   1.04517E+06,   1.04517E+06
C:/temp/Job-30.odb,Step-1,Increment      1: Step Time =    1.000,"P-30-1",           384,          200.,          145.,            0.,NA,NA,"",   1.12053E+06,   1.27248E+06,   1.27248E+06
C:/temp/Job-30.odb,Step-1,Increment      1: Step Time =    1.000,"P-30-1",           385,          200.,          135.,            0.,NA,NA,"",   1.77502E+06,   2.04487E+06,   2.04487E+06
C:/temp/Job-30.odb,Step-1,Increment      1: Step Time =    1.000,"P-30-1",           386,          200.,          125.,            0.,NA,NA,"",   2.65572E+06,   3.00201E+06,   3.00201E+06
C:/temp/Job-30.odb,Step-1,Increment      1: Step Time =    1.000,"P-30-1",           387,          200.,          115.,            0.,NA,NA,"",   3.43841E+06,   3.81820E+06,   3.81820E+06
C:/temp/Job-30.odb,Step-1,Increment      1: Step Time =    1.000,"P-30-1",           388,          200.,          105.,            0.,NA,NA,"",   3.88244E+06,   4.27294E+06,   4.27294E+06
C:/temp/Job-30.odb,Step-1,Increment      1: Step Time =    1.000,"P-30-1",           389,          200.,           95.,            0.,NA,NA,"",   3.85650E+06,   4.25098E+06,   4.25098E+06
C:/temp/Job-30.odb,Step-1,Increment      1: Step Time =    1.000,"P-30-1",           390,          200.,           85.,            0.,NA,NA,"",   3.43899E+06,   3.81888E+06,   3.81888E+06
C:/temp/Job-30.odb,Step-1,Increment      1: Step Time =    1.000,"P-30-1",           391,          200.,           75.,            0.,NA,NA,"",   2.65960E+06,   3.00687E+06,   3.00687E+06
C:/temp/Job-30.odb,Step-1,Increment      1: Step Time =    1.000,"P-30-1",           392,          200.,           65.,            0.,NA,NA,"",   1.77681E+06,   2.04663E+06,   2.04663E+06
C:/temp/Job-30.odb,Step-1,Increment      1: Step Time =    1.000,"P-30-1",           393,          200.,           55.,            0.,NA,NA,"",   1.12536E+06,   1.28116E+06,   1.28116E+06
C:/temp/Job-30.odb,Step-1,Increment      1: Step Time =    1.000,"P-30-1",           394,          200.,           45.,            0.,NA,NA,"",   936.979E+03,   1.06092E+06,   1.06092E+06
C:/temp/Job-30.odb,Step-1,Increment      1: Step Time =    1.000,"P-30-1",           395,          200.,           35.,            0.,NA,NA,"",   1.02142E+06,   1.04213E+06,   1.04213E+06
C:/temp/Job-30.odb,Step-1,Increment      1: Step Time =    1.000,"P-30-1",           396,          200.,           25.,            0.,NA,NA,"",   1.06193E+06,   1.00965E+06,   1.00965E+06
C:/temp/Job-30.odb,Step-1,Increment      1: Step Time =    1.000,"P-30-1",           397,          200.,           15.,            0.,NA,NA,"",   1.04013E+06,   1.00167E+06,   1.00167E+06
C:/temp/Job-30.odb,Step-1,Increment      1: Step Time =    1.000,"P-30-1",           398,          200.,            5.,            0.,NA,NA,"",   1.00204E+06,   995.591E+03,   995.591E+03
C:/temp/Job-30.odb,Step-1,Increment      1: Step Time =    1.000,"P-30-1",           399,            5.,          200.,            0.,NA,NA,"",   4.03313E+06,   4.12517E+06,   4.12517E+06
C:/temp/Job-30.odb,Step-1,Increment      1: Step Time =    1.000,"P-30-1",           400,           15.,          200.,            0.,NA,NA,"",   3.71039E+06,   3.72147E+06,   3.72147E+06
C:/temp/Job-30.odb,Step-1,Increment      1: Step Time =    1.000,"P-30-1",           401,           25.,          200.,            0.,NA,NA,"",   3.71556E+06,   3.71672E+06,   3.71672E+06
C:/temp/Job-30.odb,Step-1,Increment      1: Step Time =    1.000,"P-30-1",           402,           35.,          200.,            0.,NA,NA,"",   3.71765E+06,   3.71438E+06,   3.71438E+06
C:/temp/Job-30.odb,Step-1,Increment      1: Step Time =    1.000,"P-30-1",           403,           45.,          200.,            0.,NA,NA,"",   3.61956E+06,   3.61451E+06,   3.61451E+06
C:/temp/Job-30.odb,Step-1,Increment      1: Step Time =    1.000,"P-30-1",           404,           55.,          200.,            0.,NA,NA,"",   3.34296E+06,   3.33472E+06,   3.33472E+06
C:/temp/Job-30.odb,Step-1,Increment      1: Step Time =    1.000,"P-30-1",           405,           65.,          200.,            0.,NA,NA,"",   2.83113E+06,   2.81782E+06,   2.81782E+06
C:/temp/Job-30.odb,Step-1,Increment      1: Step Time =    1.000,"P-30-1",           406,           75.,          200.,            0.,NA,NA,"",   2.09333E+06,   2.07745E+06,   2.07745E+06
C:/temp/Job-30.odb,Step-1,Increment      1: Step Time =    1.000,"P-30-1",           407,           85.,          200.,            0.,NA,NA,"",   1.24210E+06,   1.22111E+06,   1.22111E+06
C:/temp/Job-30.odb,Step-1,Increment      1: Step Time =    1.000,"P-30-1",           408,           95.,          200.,            0.,NA,NA,"",   481.737E+03,   431.568E+03,   431.568E+03
C:/temp/Job-30.odb,Step-1,Increment      1: Step Time =    1.000,"P-30-1",           409,          105.,          200.,            0.,NA,NA,"",   394.816E+03,  -353.591E+03,  -353.591E+03
C:/temp/Job-30.odb,Step-1,Increment      1: Step Time =    1.000,"P-30-1",           410,          115.,          200.,            0.,NA,NA,"",   632.050E+03,  -622.884E+03,  -622.884E+03
C:/temp/Job-30.odb,Step-1,Increment      1: Step Time =    1.000,"P-30-1",           411,          125.,          200.,            0.,NA,NA,"",   637.316E+03,  -627.694E+03,  -627.694E+03
C:/temp/Job-30.odb,Step-1,Increment      1: Step Time =    1.000,"P-30-1",           412,          135.,          200.,            0.,NA,NA,"",   381.666E+03,  -368.515E+03,  -368.515E+03
C:/temp/Job-30.odb,Step-1,Increment      1: Step Time =    1.000,"P-30-1",           413,          145.,          200.,            0.,NA,NA,"",   201.367E+03,   32.2202E+03,   32.2202E+03
C:/temp/Job-30.odb,Step-1,Increment      1: Step Time =    1.000,"P-30-1",           414,          155.,          200.,            0.,NA,NA,"",   461.548E+03,   446.074E+03,   446.074E+03
C:/temp/Job-30.odb,Step-1,Increment      1: Step Time =    1.000,"P-30-1",           415,          165.,          200.,            0.,NA,NA,"",   684.198E+03,   671.516E+03,   671.516E+03
C:/temp/Job-30.odb,Step-1,Increment      1: Step Time =    1.000,"P-30-1",           416,          175.,          200.,            0.,NA,NA,"",   818.814E+03,   816.974E+03,   816.974E+03
C:/temp/Job-30.odb,Step-1,Increment      1: Step Time =    1.000,"P-30-1",           417,          185.,          200.,            0.,NA,NA,"",   920.582E+03,   919.525E+03,   919.525E+03
C:/temp/Job-30.odb,Step-1,Increment      1: Step Time =    1.000,"P-30-1",           418,          195.,          200.,            0.,NA,NA,"",   988.429E+03,   985.998E+03,   985.998E+03
C:/temp/Job-30.odb,Step-1,Increment      1: Step Time =    1.000,"P-30-1",           419,            0.,            5.,            0.,NA,NA,"",   3.69555E+06,   3.95721E+06,   3.95721E+06
C:/temp/Job-30.odb,Step-1,Increment      1: Step Time =    1.000,"P-30-1",           420,            0.,           15.,            0.,NA,NA,"",   2.52570E+06,   2.80202E+06,   2.80202E+06
C:/temp/Job-30.odb,Step-1,Increment      1: Step Time =    1.000,"P-30-1",           421,            0.,           25.,            0.,NA,NA,"",   1.82472E+06,   2.03824E+06,   2.03824E+06
C:/temp/Job-30.odb,Step-1,Increment      1: Step Time =    1.000,"P-30-1",           422,            0.,           35.,            0.,NA,NA,"",   1.23687E+06,   1.38402E+06,   1.38402E+06
C:/temp/Job-30.odb,Step-1,Increment      1: Step Time =    1.000,"P-30-1",           423,            0.,           45.,            0.,NA,NA,"",   711.122E+03,   793.881E+03,   793.881E+03
C:/temp/Job-30.odb,Step-1,Increment      1: Step Time =    1.000,"P-30-1",           424,            0.,           55.,            0.,NA,NA,"",   291.691E+03,   319.526E+03,   319.526E+03
C:/temp/Job-30.odb,Step-1,Increment      1: Step Time =    1.000,"P-30-1",           425,            0.,           65.,            0.,NA,NA,"",   117.280E+03,  -39.7277E+03,  -39.7277E+03
C:/temp/Job-30.odb,Step-1,Increment      1: Step Time =    1.000,"P-30-1",           426,            0.,           75.,            0.,NA,NA,"",   252.786E+03,  -280.272E+03,  -280.272E+03
C:/temp/Job-30.odb,Step-1,Increment      1: Step Time =    1.000,"P-30-1",           427,            0.,           85.,            0.,NA,NA,"",   331.832E+03,  -374.446E+03,  -374.446E+03
C:/temp/Job-30.odb,Step-1,Increment      1: Step Time =    1.000,"P-30-1",           428,            0.,           95.,            0.,NA,NA,"",   349.371E+03,  -398.564E+03,  -398.564E+03
C:/temp/Job-30.odb,Step-1,Increment      1: Step Time =    1.000,"P-30-1",           429,            0.,          105.,            0.,NA,NA,"",   349.367E+03,  -398.740E+03,  -398.740E+03
C:/temp/Job-30.odb,Step-1,Increment      1: Step Time =    1.000,"P-30-1",           430,            0.,          115.,            0.,NA,NA,"",   332.637E+03,  -375.780E+03,  -375.780E+03
C:/temp/Job-30.odb,Step-1,Increment      1: Step Time =    1.000,"P-30-1",           431,            0.,          125.,            0.,NA,NA,"",   253.399E+03,  -281.043E+03,  -281.043E+03
C:/temp/Job-30.odb,Step-1,Increment      1: Step Time =    1.000,"P-30-1",           432,            0.,          135.,            0.,NA,NA,"",   116.868E+03,  -36.5762E+03,  -36.5762E+03
C:/temp/Job-30.odb,Step-1,Increment      1: Step Time =    1.000,"P-30-1",           433,            0.,          145.,            0.,NA,NA,"",   295.709E+03,   324.565E+03,   324.565E+03
C:/temp/Job-30.odb,Step-1,Increment      1: Step Time =    1.000,"P-30-1",           434,            0.,          155.,            0.,NA,NA,"",   713.264E+03,   796.322E+03,   796.322E+03
C:/temp/Job-30.odb,Step-1,Increment      1: Step Time =    1.000,"P-30-1",           435,            0.,          165.,            0.,NA,NA,"",   1.24866E+06,   1.39389E+06,   1.39389E+06
C:/temp/Job-30.odb,Step-1,Increment      1: Step Time =    1.000,"P-30-1",           436,            0.,          175.,            0.,NA,NA,"",   1.83833E+06,   2.06255E+06,   2.06255E+06
C:/temp/Job-30.odb,Step-1,Increment      1: Step Time =    1.000,"P-30-1",           437,            0.,          185.,            0.,NA,NA,"",   2.52399E+06,   2.80573E+06,   2.80573E+06
C:/temp/Job-30.odb,Step-1,Increment      1: Step Time =    1.000,"P-30-1",           438,            0.,          195.,            0.,NA,NA,"",   3.67832E+06,   3.94023E+06,   3.94023E+06
C:/temp/Job-30.odb,Step-1,Increment      1: Step Time =    1.000,"P-30-1",           439,       132.115,       160.558,            0.,NA,NA,"",   4.74257E+06,   4.84592E+06,   4.84592E+06
C:/temp/Job-30.odb,Step-1,Increment      1: Step Time =    1.000,"P-30-1",           440,       41.7238,       63.7808,            0.,NA,NA,"",   1.30441E+06,  -1.32825E+06,  -1.32825E+06
C:/temp/Job-30.odb,Step-1,Increment      1: Step Time =    1.000,"P-30-1",           441,       124.965,       195.460,            0.,NA,NA,"",   447.737E+03,  -180.362E+03,  -180.362E+03
C:/temp/Job-30.odb,Step-1,Increment      1: Step Time =    1.000,"P-30-1",           442,       195.196,       124.995,            0.,NA,NA,"",   2.41847E+06,   2.72355E+06,   2.72355E+06
C:/temp/Job-30.odb,Step-1,Increment      1: Step Time =    1.000,"P-30-1",           443,       195.275,       134.926,            0.,NA,NA,"",   1.75776E+06,   2.00375E+06,   2.00375E+06
C:/temp/Job-30.odb,Step-1,Increment      1: Step Time =    1.000,"P-30-1",           444,       134.689,       195.540,            0.,NA,NA,"",   405.271E+03,   8.27177E+03,   8.27177E+03
C:/temp/Job-30.odb,Step-1,Increment      1: Step Time =    1.000,"P-30-1",           445,       194.770,       104.949,            0.,NA,NA,"",   3.25408E+06,   3.60483E+06,   3.60483E+06
C:/temp/Job-30.odb,Step-1,Increment      1: Step Time =    1.000,"P-30-1",           446,       144.672,       4.64300,            0.,NA,NA,"",   400.977E+03,   297.686E+03,   297.686E+03
C:/temp/Job-30.odb,Step-1,Increment      1: Step Time =    1.000,"P-30-1",           447,       154.544,       4.65792,            0.,NA,NA,"",   575.140E+03,   552.593E+03,   552.593E+03
C:/temp/Job-30.odb,Step-1,Increment      1: Step Time =    1.000,"P-30-1",           448,       164.472,       5.01997,            0.,NA,NA,"",   760.826E+03,   746.433E+03,   746.433E+03
C:/temp/Job-30.odb,Step-1,Increment      1: Step Time =    1.000,"P-30-1",           449,       134.805,       4.81767,            0.,NA,NA,"",   431.164E+03,   52.2912E+03,   52.2912E+03
C:/temp/Job-30.odb,Step-1,Increment      1: Step Time =    1.000,"P-30-1",           450,       124.892,       4.93353,            0.,NA,NA,"",   463.735E+03,  -134.681E+03,  -134.681E+03
C:/temp/Job-30.odb,Step-1,Increment      1: Step Time =    1.000,"P-30-1",           451,       115.026,       4.87458,            0.,NA,NA,"",   505.973E+03,  -118.030E+03,  -118.030E+03
C:/temp/Job-30.odb,Step-1,Increment      1: Step Time =    1.000,"P-30-1",           452,       105.049,       5.01001,            0.,NA,NA,"",   621.633E+03,   230.464E+03,   230.464E+03
C:/temp/Job-30.odb,Step-1,Increment      1: Step Time =    1.000,"P-30-1",           453,       94.9639,       5.34477,            0.,NA,NA,"",   978.395E+03,   909.482E+03,   909.482E+03
C:/temp/Job-30.odb,Step-1,Increment      1: Step Time =    1.000,"P-30-1",           454,       84.8698,       5.27654,            0.,NA,NA,"",   1.62400E+06,   1.56162E+06,   1.56162E+06
C:/temp/Job-30.odb,Step-1,Increment      1: Step Time =    1.000,"P-30-1",           455,       5.05588,       104.944,            0.,NA,NA,"",   340.006E+03,  -390.183E+03,  -390.183E+03
C:/temp/Job-30.odb,Step-1,Increment      1: Step Time =    1.000,"P-30-1",           456,       4.43592,       175.735,            0.,NA,NA,"",   1.91251E+06,   2.11824E+06,   2.11824E+06
C:/temp/Job-30.odb,Step-1,Increment      1: Step Time =    1.000,"P-30-1",           457,       5.49702,       165.145,            0.,NA,NA,"",   1.25536E+06,   1.39292E+06,   1.39292E+06
C:/temp/Job-30.odb,Step-1,Increment      1: Step Time =    1.000,"P-30-1",           458,       4.96887,       94.8366,            0.,NA,NA,"",   341.152E+03,  -391.321E+03,  -391.321E+03
C:/temp/Job-30.odb,Step-1,Increment      1: Step Time =    1.000,"P-30-1",           459,       54.8359,       195.316,            0.,NA,NA,"",   3.23443E+06,   3.20962E+06,   3.20962E+06
C:/temp/Job-30.odb,Step-1,Increment      1: Step Time =    1.000,"P-30-1",           460,       45.1102,       195.315,            0.,NA,NA,"",   3.46541E+06,   3.44958E+06,   3.44958E+06
C:/temp/Job-30.odb,Step-1,Increment      1: Step Time =    1.000,"P-30-1",           461,       35.1334,       194.537,            0.,NA,NA,"",   3.51335E+06,   3.50328E+06,   3.50328E+06
C:/temp/Job-30.odb,Step-1,Increment      1: Step Time =    1.000,"P-30-1",           462,       74.8772,       194.854,            0.,NA,NA,"",   2.26991E+06,   2.21459E+06,   2.21459E+06
C:/temp/Job-30.odb,Step-1,Increment      1: Step Time =    1.000,"P-30-1",           463,       115.108,       195.029,            0.,NA,NA,"",   510.306E+03,  -106.154E+03,  -106.154E+03
C:/temp/Job-30.odb,Step-1,Increment      1: Step Time =    1.000,"P-30-1",           464,       105.043,       194.998,            0.,NA,NA,"",   610.292E+03,   221.790E+03,   221.790E+03
C:/temp/Job-30.odb,Step-1,Increment      1: Step Time =    1.000,"P-30-1",           465,       94.9420,       195.026,            0.,NA,NA,"",   925.952E+03,   860.557E+03,   860.557E+03
C:/temp/Job-30.odb,Step-1,Increment      1: Step Time =    1.000,"P-30-1",           466,       84.8890,       194.876,            0.,NA,NA,"",   1.59633E+06,   1.53550E+06,   1.53550E+06
C:/temp/Job-30.odb,Step-1,Increment      1: Step Time =    1.000,"P-30-1",           467,       5.07620,       9.91671,            0.,NA,NA,"",   3.10561E+06,   3.32708E+06,   3.32708E+06
C:/temp/Job-30.odb,Step-1,Increment      1: Step Time =    1.000,"P-30-1",           468,       5.19379,       14.8914,            0.,NA,NA,"",   2.62284E+06,   2.85300E+06,   2.85300E+06
C:/temp/Job-30.odb,Step-1,Increment      1: Step Time =    1.000,"P-30-1",           469,       5.49266,       24.9556,            0.,NA,NA,"",   1.88411E+06,   2.07405E+06,   2.07405E+06
C:/temp/Job-30.odb,Step-1,Increment      1: Step Time =    1.000,"P-30-1",           470,       5.08282,       35.1807,            0.,NA,NA,"",   1.24105E+06,   1.37800E+06,   1.37800E+06
C:/temp/Job-30.odb,Step-1,Increment      1: Step Time =    1.000,"P-30-1",           471,       4.66652,       45.1798,            0.,NA,NA,"",   697.027E+03,   779.434E+03,   779.434E+03
C:/temp/Job-30.odb,Step-1,Increment      1: Step Time =    1.000,"P-30-1",           472,       5.11149,       84.8109,            0.,NA,NA,"",   334.337E+03,  -378.017E+03,  -378.017E+03
C:/temp/Job-30.odb,Step-1,Increment      1: Step Time =    1.000,"P-30-1",           473,       14.8963,       4.62914,            0.,NA,NA,"",   3.61988E+06,   3.63239E+06,   3.63239E+06
C:/temp/Job-30.odb,Step-1,Increment      1: Step Time =    1.000,"P-30-1",           474,       24.2743,       4.56273,            0.,NA,NA,"",   3.59395E+06,   3.59336E+06,   3.59336E+06
C:/temp/Job-30.odb,Step-1,Increment      1: Step Time =    1.000,"P-30-1",           475,       34.8326,       5.73402,            0.,NA,NA,"",   3.50725E+06,   3.49843E+06,   3.49843E+06
C:/temp/Job-30.odb,Step-1,Increment      1: Step Time =    1.000,"P-30-1",           476,       44.8417,       5.09133,            0.,NA,NA,"",   3.44707E+06,   3.42960E+06,   3.42960E+06
C:/temp/Job-30.odb,Step-1,Increment      1: Step Time =    1.000,"P-30-1",           477,       54.6928,       4.79128,            0.,NA,NA,"",   3.23289E+06,   3.20793E+06,   3.20793E+06
C:/temp/Job-30.odb,Step-1,Increment      1: Step Time =    1.000,"P-30-1",           478,       64.6160,       4.79690,            0.,NA,NA,"",   2.83742E+06,   2.79856E+06,   2.79856E+06
C:/temp/Job-30.odb,Step-1,Increment      1: Step Time =    1.000,"P-30-1",           479,       74.7325,       5.11572,            0.,NA,NA,"",   2.27655E+06,   2.22093E+06,   2.22093E+06
C:/temp/Job-30.odb,Step-1,Increment      1: Step Time =    1.000,"P-30-1",           480,       174.648,       5.74854,            0.,NA,NA,"",   889.008E+03,   879.967E+03,   879.967E+03
C:/temp/Job-30.odb,Step-1,Increment      1: Step Time =    1.000,"P-30-1",           481,       184.995,       5.44681,            0.,NA,NA,"",   951.479E+03,   946.536E+03,   946.536E+03
C:/temp/Job-30.odb,Step-1,Increment      1: Step Time =    1.000,"P-30-1",           482,       193.760,       45.2827,            0.,NA,NA,"",   1.08167E+06,   1.18854E+06,   1.18854E+06
C:/temp/Job-30.odb,Step-1,Increment      1: Step Time =    1.000,"P-30-1",           483,       194.984,       55.3182,            0.,NA,NA,"",   1.24977E+06,   1.41092E+06,   1.41092E+06
C:/temp/Job-30.odb,Step-1,Increment      1: Step Time =    1.000,"P-30-1",           484,       195.416,       64.9987,            0.,NA,NA,"",   1.75642E+06,   2.00371E+06,   2.00371E+06
C:/temp/Job-30.odb,Step-1,Increment      1: Step Time =    1.000,"P-30-1",           485,       195.467,       74.7616,            0.,NA,NA,"",   2.42596E+06,   2.73533E+06,   2.73533E+06
C:/temp/Job-30.odb,Step-1,Increment      1: Step Time =    1.000,"P-30-1",           486,       195.129,       84.5603,            0.,NA,NA,"",   2.97289E+06,   3.31221E+06,   3.31221E+06
C:/temp/Job-30.odb,Step-1,Increment      1: Step Time =    1.000,"P-30-1",           487,       194.646,       94.6589,            0.,NA,NA,"",   3.23158E+06,   3.58637E+06,   3.58637E+06
C:/temp/Job-30.odb,Step-1,Increment      1: Step Time =    1.000,"P-30-1",           488,       195.146,       4.94521,            0.,NA,NA,"",   994.358E+03,   987.949E+03,   987.949E+03
C:/temp/Job-30.odb,Step-1,Increment      1: Step Time =    1.000,"P-30-1",           489,       195.459,       14.6281,            0.,NA,NA,"",   1.03494E+06,   1.00511E+06,   1.00511E+06
C:/temp/Job-30.odb,Step-1,Increment      1: Step Time =    1.000,"P-30-1",           490,       195.120,       24.0726,            0.,NA,NA,"",   1.05969E+06,   1.02586E+06,   1.02586E+06
C:/temp/Job-30.odb,Step-1,Increment      1: Step Time =    1.000,"P-30-1",           491,       193.752,       33.7438,            0.,NA,NA,"",   1.05842E+06,   1.08099E+06,   1.08099E+06
C:/temp/Job-30.odb,Step-1,Increment      1: Step Time =    1.000,"P-30-1",           492,       194.995,       115.089,            0.,NA,NA,"",   2.96932E+06,   3.30800E+06,   3.30800E+06
C:/temp/Job-30.odb,Step-1,Increment      1: Step Time =    1.000,"P-30-1",           493,       195.237,       144.891,            0.,NA,NA,"",   1.23255E+06,   1.39349E+06,   1.39349E+06
C:/temp/Job-30.odb,Step-1,Increment      1: Step Time =    1.000,"P-30-1",           494,       195.152,       154.786,            0.,NA,NA,"",   1.02462E+06,   1.14185E+06,   1.14185E+06
C:/temp/Job-30.odb,Step-1,Increment      1: Step Time =    1.000,"P-30-1",           495,       144.295,       195.063,            0.,NA,NA,"",   428.320E+03,   319.543E+03,   319.543E+03
C:/temp/Job-30.odb,Step-1,Increment      1: Step Time =    1.000,"P-30-1",           496,       195.069,       164.813,            0.,NA,NA,"",   1.03366E+06,   1.06341E+06,   1.06341E+06
C:/temp/Job-30.odb,Step-1,Increment      1: Step Time =    1.000,"P-30-1",           497,       154.014,       193.703,            0.,NA,NA,"",   679.256E+03,   648.663E+03,   648.663E+03
C:/temp/Job-30.odb,Step-1,Increment      1: Step Time =    1.000,"P-30-1",           498,       195.016,       174.870,            0.,NA,NA,"",   1.05885E+06,   1.03008E+06,   1.03008E+06
C:/temp/Job-30.odb,Step-1,Increment      1: Step Time =    1.000,"P-30-1",           499,       165.269,       193.940,            0.,NA,NA,"",   812.384E+03,   790.859E+03,   790.859E+03
C:/temp/Job-30.odb,Step-1,Increment      1: Step Time =    1.000,"P-30-1",           500,       194.982,       184.916,            0.,NA,NA,"",   1.03626E+06,   1.00802E+06,   1.00802E+06
C:/temp/Job-30.odb,Step-1,Increment      1: Step Time =    1.000,"P-30-1",           501,       175.214,       194.864,            0.,NA,NA,"",   873.452E+03,   867.933E+03,   867.933E+03
C:/temp/Job-30.odb,Step-1,Increment      1: Step Time =    1.000,"P-30-1",           502,       194.983,       194.976,            0.,NA,NA,"",   994.837E+03,   988.223E+03,   988.223E+03
C:/temp/Job-30.odb,Step-1,Increment      1: Step Time =    1.000,"P-30-1",           503,       185.033,       194.951,            0.,NA,NA,"",   945.054E+03,   941.544E+03,   941.544E+03
C:/temp/Job-30.odb,Step-1,Increment      1: Step Time =    1.000,"P-30-1",           504,       24.9781,       194.181,            0.,NA,NA,"",   3.51820E+06,   3.51722E+06,   3.51722E+06
C:/temp/Job-30.odb,Step-1,Increment      1: Step Time =    1.000,"P-30-1",           505,       14.8485,       194.746,            0.,NA,NA,"",   3.57416E+06,   3.59181E+06,   3.59181E+06
C:/temp/Job-30.odb,Step-1,Increment      1: Step Time =    1.000,"P-30-1",           506,       4.91973,       194.999,            0.,NA,NA,"",   3.70445E+06,   3.85639E+06,   3.85639E+06
C:/temp/Job-30.odb,Step-1,Increment      1: Step Time =    1.000,"P-30-1",           507,       4.55747,       185.106,            0.,NA,NA,"",   2.60050E+06,   2.84205E+06,   2.84205E+06
C:/temp/Job-30.odb,Step-1,Increment      1: Step Time =    1.000,"P-30-1",           508,       4.90457,       155.025,            0.,NA,NA,"",   702.835E+03,   785.770E+03,   785.770E+03
C:/temp/Job-30.odb,Step-1,Increment      1: Step Time =    1.000,"P-30-1",           509,       4.85181,       145.165,            0.,NA,NA,"",   271.625E+03,   303.919E+03,   303.919E+03
C:/temp/Job-30.odb,Step-1,Increment      1: Step Time =    1.000,"P-30-1",           510,       4.95666,       135.324,            0.,NA,NA,"",   116.371E+03,  -42.1522E+03,  -42.1522E+03
C:/temp/Job-30.odb,Step-1,Increment      1: Step Time =    1.000,"P-30-1",           511,       5.13907,       125.307,            0.,NA,NA,"",   267.727E+03,  -292.092E+03,  -292.092E+03
C:/temp/Job-30.odb,Step-1,Increment      1: Step Time =    1.000,"P-30-1",           512,       5.31370,       115.112,            0.,NA,NA,"",   334.739E+03,  -378.990E+03,  -378.990E+03
C:/temp/Job-30.odb,Step-1,Increment      1: Step Time =    1.000,"P-30-1",           513,       5.07697,       74.8655,            0.,NA,NA,"",   267.014E+03,  -291.851E+03,  -291.851E+03
C:/temp/Job-30.odb,Step-1,Increment      1: Step Time =    1.000,"P-30-1",           514,       4.93341,       64.9396,            0.,NA,NA,"",   120.901E+03,  -47.7851E+03,  -47.7851E+03
C:/temp/Job-30.odb,Step-1,Increment      1: Step Time =    1.000,"P-30-1",           515,       4.76541,       55.0657,            0.,NA,NA,"",   262.434E+03,   293.358E+03,   293.358E+03
C:/temp/Job-30.odb,Step-1,Increment      1: Step Time =    1.000,"P-30-1",           516,       64.7639,       195.074,            0.,NA,NA,"",   2.83189E+06,   2.79052E+06,   2.79052E+06
C:/temp/Job-30.odb,Step-1,Increment      1: Step Time =    1.000,"P-30-1",           517,       190.171,       5.07517,            0.,NA,NA,"",   974.708E+03,   969.112E+03,   969.112E+03
C:/temp/Job-30.odb,Step-1,Increment      1: Step Time =    1.000,"P-30-1",           518,       179.843,       5.96113,            0.,NA,NA,"",   926.214E+03,   919.899E+03,   919.899E+03
C:/temp/Job-30.odb,Step-1,Increment      1: Step Time =    1.000,"P-30-1",           519,       169.496,       5.37064,            0.,NA,NA,"",   833.422E+03,   821.514E+03,   821.514E+03
C:/temp/Job-30.odb,Step-1,Increment      1: Step Time =    1.000,"P-30-1",           520,       159.492,       4.78348,            0.,NA,NA,"",   674.036E+03,   656.266E+03,   656.266E+03
C:/temp/Job-30.odb,Step-1,Increment      1: Step Time =    1.000,"P-30-1",           521,       149.591,       4.59999,            0.,NA,NA,"",   472.683E+03,   442.196E+03,   442.196E+03
C:/temp/Job-30.odb,Step-1,Increment      1: Step Time =    1.000,"P-30-1",           522,       139.749,       4.71182,            0.,NA,NA,"",   395.701E+03,   157.443E+03,   157.443E+03
C:/temp/Job-30.odb,Step-1,Increment      1: Step Time =    1.000,"P-30-1",           523,       129.849,       4.89021,            0.,NA,NA,"",   455.146E+03,  -51.4420E+03,  -51.4420E+03
C:/temp/Job-30.odb,Step-1,Increment      1: Step Time =    1.000,"P-30-1",           524,       119.954,       4.90298,            0.,NA,NA,"",   473.152E+03,  -167.803E+03,  -167.803E+03
C:/temp/Job-30.odb,Step-1,Increment      1: Step Time =    1.000,"P-30-1",           525,       110.071,       4.88277,            0.,NA,NA,"",   556.685E+03,   20.4653E+03,   20.4653E+03
C:/temp/Job-30.odb,Step-1,Increment      1: Step Time =    1.000,"P-30-1",           526,       100.006,       5.19734,            0.,NA,NA,"",   748.790E+03,   556.121E+03,   556.121E+03
C:/temp/Job-30.odb,Step-1,Increment      1: Step Time =    1.000,"P-30-1",           527,       89.9304,       5.34761,            0.,NA,NA,"",   1.28786E+06,   1.22524E+06,   1.22524E+06
C:/temp/Job-30.odb,Step-1,Increment      1: Step Time =    1.000,"P-30-1",           528,       79.7994,       5.20427,            0.,NA,NA,"",   1.95920E+06,   1.89721E+06,   1.89721E+06
C:/temp/Job-30.odb,Step-1,Increment      1: Step Time =    1.000,"P-30-1",           529,       69.6676,       4.94367,            0.,NA,NA,"",   2.57208E+06,   2.52503E+06,   2.52503E+06
C:/temp/Job-30.odb,Step-1,Increment      1: Step Time =    1.000,"P-30-1",           530,       59.6316,       4.74352,            0.,NA,NA,"",   3.05834E+06,   3.02756E+06,   3.02756E+06
C:/temp/Job-30.odb,Step-1,Increment      1: Step Time =    1.000,"P-30-1",           531,       49.7594,       4.90929,            0.,NA,NA,"",   3.36165E+06,   3.34100E+06,   3.34100E+06
C:/temp/Job-30.odb,Step-1,Increment      1: Step Time =    1.000,"P-30-1",           532,       39.8988,       5.33598,            0.,NA,NA,"",   3.49700E+06,   3.48254E+06,   3.48254E+06
C:/temp/Job-30.odb,Step-1,Increment      1: Step Time =    1.000,"P-30-1",           533,       29.1956,       6.42066,            0.,NA,NA,"",   3.47677E+06,   3.47178E+06,   3.47178E+06
C:/temp/Job-30.odb,Step-1,Increment      1: Step Time =    1.000,"P-30-1",           534,       19.6331,       4.38086,            0.,NA,NA,"",   3.62487E+06,   3.62536E+06,   3.62536E+06
C:/temp/Job-30.odb,Step-1,Increment      1: Step Time =    1.000,"P-30-1",           535,       9.98987,       4.81903,            0.,NA,NA,"",   3.68234E+06,   3.71123E+06,   3.71123E+06
C:/temp/Job-30.odb,Step-1,Increment      1: Step Time =    1.000,"P-30-1",           536,       194.981,       189.951,            0.,NA,NA,"",   1.01350E+06,   996.542E+03,   996.542E+03
C:/temp/Job-30.odb,Step-1,Increment      1: Step Time =    1.000,"P-30-1",           537,       195.003,       179.899,            0.,NA,NA,"",   1.05309E+06,   1.01887E+06,   1.01887E+06
C:/temp/Job-30.odb,Step-1,Increment      1: Step Time =    1.000,"P-30-1",           538,       195.045,       169.853,            0.,NA,NA,"",   1.05149E+06,   1.04393E+06,   1.04393E+06
C:/temp/Job-30.odb,Step-1,Increment      1: Step Time =    1.000,"P-30-1",           539,       195.111,       159.787,            0.,NA,NA,"",   1.01698E+06,   1.09345E+06,   1.09345E+06
C:/temp/Job-30.odb,Step-1,Increment      1: Step Time =    1.000,"P-30-1",           540,       195.204,       149.840,            0.,NA,NA,"",   1.08795E+06,   1.22694E+06,   1.22694E+06
C:/temp/Job-30.odb,Step-1,Increment      1: Step Time =    1.000,"P-30-1",           541,       195.274,       139.920,            0.,NA,NA,"",   1.46263E+06,   1.66403E+06,   1.66403E+06
C:/temp/Job-30.odb,Step-1,Increment      1: Step Time =    1.000,"P-30-1",           542,       195.254,       129.940,            0.,NA,NA,"",   2.08591E+06,   2.36659E+06,   2.36659E+06
C:/temp/Job-30.odb,Step-1,Increment      1: Step Time =    1.000,"P-30-1",           543,       195.112,       120.046,            0.,NA,NA,"",   2.72087E+06,   3.04551E+06,   3.04551E+06
C:/temp/Job-30.odb,Step-1,Increment      1: Step Time =    1.000,"P-30-1",           544,       194.906,       110.084,            0.,NA,NA,"",   3.15310E+06,   3.50001E+06,   3.50001E+06
C:/temp/Job-30.odb,Step-1,Increment      1: Step Time =    1.000,"P-30-1",           545,       194.645,       99.7970,            0.,NA,NA,"",   3.27094E+06,   3.62560E+06,   3.62560E+06
C:/temp/Job-30.odb,Step-1,Increment      1: Step Time =    1.000,"P-30-1",           546,       194.875,       89.5707,            0.,NA,NA,"",   3.13990E+06,   3.48627E+06,   3.48627E+06
C:/temp/Job-30.odb,Step-1,Increment      1: Step Time =    1.000,"P-30-1",           547,       195.347,       79.6431,            0.,NA,NA,"",   2.73072E+06,   3.05977E+06,   3.05977E+06
C:/temp/Job-30.odb,Step-1,Increment      1: Step Time =    1.000,"P-30-1",           548,       195.511,       69.8766,            0.,NA,NA,"",   2.08802E+06,   2.37112E+06,   2.37112E+06
C:/temp/Job-30.odb,Step-1,Increment      1: Step Time =    1.000,"P-30-1",           549,       195.251,       60.1528,            0.,NA,NA,"",   1.46562E+06,   1.66824E+06,   1.66824E+06
C:/temp/Job-30.odb,Step-1,Increment      1: Step Time =    1.000,"P-30-1",           550,       194.546,       50.4154,            0.,NA,NA,"",   1.12251E+06,   1.25745E+06,   1.25745E+06
C:/temp/Job-30.odb,Step-1,Increment      1: Step Time =    1.000,"P-30-1",           551,       192.285,       39.3397,            0.,NA,NA,"",   1.11532E+06,   1.17099E+06,   1.17099E+06
C:/temp/Job-30.odb,Step-1,Increment      1: Step Time =    1.000,"P-30-1",           552,       194.588,       28.8714,            0.,NA,NA,"",   1.05586E+06,   1.04364E+06,   1.04364E+06
C:/temp/Job-30.odb,Step-1,Increment      1: Step Time =    1.000,"P-30-1",           553,       195.377,       19.3521,            0.,NA,NA,"",   1.05225E+06,   1.01413E+06,   1.01413E+06
C:/temp/Job-30.odb,Step-1,Increment      1: Step Time =    1.000,"P-30-1",           554,       195.341,       9.82129,            0.,NA,NA,"",   1.01180E+06,   994.767E+03,   994.767E+03
C:/temp/Job-30.odb,Step-1,Increment      1: Step Time =    1.000,"P-30-1",           555,       9.87321,       194.911,            0.,NA,NA,"",   3.65925E+06,   3.69248E+06,   3.69248E+06
C:/temp/Job-30.odb,Step-1,Increment      1: Step Time =    1.000,"P-30-1",           556,       19.8549,       194.486,            0.,NA,NA,"",   3.54516E+06,   3.55175E+06,   3.55175E+06
C:/temp/Job-30.odb,Step-1,Increment      1: Step Time =    1.000,"P-30-1",           557,       30.0811,       194.010,            0.,NA,NA,"",   3.50654E+06,   3.49938E+06,   3.49938E+06
C:/temp/Job-30.odb,Step-1,Increment      1: Step Time =    1.000,"P-30-1",           558,       40.1756,       195.052,            0.,NA,NA,"",   3.51002E+06,   3.49821E+06,   3.49821E+06
C:/temp/Job-30.odb,Step-1,Increment      1: Step Time =    1.000,"P-30-1",           559,       49.9750,       195.374,            0.,NA,NA,"",   3.37169E+06,   3.35211E+06,   3.35211E+06
C:/temp/Job-30.odb,Step-1,Increment      1: Step Time =    1.000,"P-30-1",           560,       59.7563,       195.214,            0.,NA,NA,"",   3.05530E+06,   3.02278E+06,   3.02278E+06
C:/temp/Job-30.odb,Step-1,Increment      1: Step Time =    1.000,"P-30-1",           561,       69.8289,       194.936,            0.,NA,NA,"",   2.56818E+06,   2.51838E+06,   2.51838E+06
C:/temp/Job-30.odb,Step-1,Increment      1: Step Time =    1.000,"P-30-1",           562,       79.8889,       194.862,            0.,NA,NA,"",   1.94158E+06,   1.88283E+06,   1.88283E+06
C:/temp/Job-30.odb,Step-1,Increment      1: Step Time =    1.000,"P-30-1",           563,       89.9008,       194.959,            0.,NA,NA,"",   1.24767E+06,   1.18697E+06,   1.18697E+06
C:/temp/Job-30.odb,Step-1,Increment      1: Step Time =    1.000,"P-30-1",           564,       99.9793,       195.041,            0.,NA,NA,"",   704.762E+03,   514.373E+03,   514.373E+03
C:/temp/Job-30.odb,Step-1,Increment      1: Step Time =    1.000,"P-30-1",           565,       110.110,       194.976,            0.,NA,NA,"",   563.240E+03,   38.2594E+03,   38.2594E+03
C:/temp/Job-30.odb,Step-1,Increment      1: Step Time =    1.000,"P-30-1",           566,       120.034,       195.243,            0.,NA,NA,"",   469.165E+03,  -185.130E+03,  -185.130E+03
C:/temp/Job-30.odb,Step-1,Increment      1: Step Time =    1.000,"P-30-1",           567,       129.844,       195.572,            0.,NA,NA,"",   431.207E+03,  -105.977E+03,  -105.977E+03
C:/temp/Job-30.odb,Step-1,Increment      1: Step Time =    1.000,"P-30-1",           568,       139.497,       195.386,            0.,NA,NA,"",   387.139E+03,   139.290E+03,   139.290E+03
C:/temp/Job-30.odb,Step-1,Increment      1: Step Time =    1.000,"P-30-1",           569,       149.111,       194.541,            0.,NA,NA,"",   537.830E+03,   503.513E+03,   503.513E+03
C:/temp/Job-30.odb,Step-1,Increment      1: Step Time =    1.000,"P-30-1",           570,       159.527,       192.248,            0.,NA,NA,"",   858.087E+03,   823.231E+03,   823.231E+03
C:/temp/Job-30.odb,Step-1,Increment      1: Step Time =    1.000,"P-30-1",           571,       170.329,       194.633,            0.,NA,NA,"",   833.212E+03,   823.156E+03,   823.156E+03
C:/temp/Job-30.odb,Step-1,Increment      1: Step Time =    1.000,"P-30-1",           572,       180.106,       194.935,            0.,NA,NA,"",   911.487E+03,   907.585E+03,   907.585E+03
C:/temp/Job-30.odb,Step-1,Increment      1: Step Time =    1.000,"P-30-1",           573,       189.998,       194.965,            0.,NA,NA,"",   973.885E+03,   968.912E+03,   968.912E+03
C:/temp/Job-30.odb,Step-1,Increment      1: Step Time =    1.000,"P-30-1",           574,       5.34344,       19.8751,            0.,NA,NA,"",   2.24407E+06,   2.45757E+06,   2.45757E+06
C:/temp/Job-30.odb,Step-1,Increment      1: Step Time =    1.000,"P-30-1",           575,       5.51868,       30.0373,            0.,NA,NA,"",   1.55413E+06,   1.71777E+06,   1.71777E+06
C:/temp/Job-30.odb,Step-1,Increment      1: Step Time =    1.000,"P-30-1",           576,       4.76700,       40.2188,            0.,NA,NA,"",   954.028E+03,   1.06331E+06,   1.06331E+06
C:/temp/Job-30.odb,Step-1,Increment      1: Step Time =    1.000,"P-30-1",           577,       4.67839,       50.1263,            0.,NA,NA,"",   463.854E+03,   520.330E+03,   520.330E+03
C:/temp/Job-30.odb,Step-1,Increment      1: Step Time =    1.000,"P-30-1",           578,       4.84917,       59.9980,            0.,NA,NA,"",   128.009E+03,   125.325E+03,   125.325E+03
C:/temp/Job-30.odb,Step-1,Increment      1: Step Time =    1.000,"P-30-1",           579,       5.00707,       69.8963,            0.,NA,NA,"",   197.733E+03,  -206.947E+03,  -206.947E+03
C:/temp/Job-30.odb,Step-1,Increment      1: Step Time =    1.000,"P-30-1",           580,       5.11522,       79.8476,            0.,NA,NA,"",   311.927E+03,  -347.759E+03,  -347.759E+03
C:/temp/Job-30.odb,Step-1,Increment      1: Step Time =    1.000,"P-30-1",           581,       5.04915,       89.8046,            0.,NA,NA,"",   341.378E+03,  -389.765E+03,  -389.765E+03
C:/temp/Job-30.odb,Step-1,Increment      1: Step Time =    1.000,"P-30-1",           582,       4.94809,       99.9035,            0.,NA,NA,"",   339.402E+03,  -389.782E+03,  -389.782E+03
C:/temp/Job-30.odb,Step-1,Increment      1: Step Time =    1.000,"P-30-1",           583,       5.21373,       110.007,            0.,NA,NA,"",   341.057E+03,  -389.715E+03,  -389.715E+03
C:/temp/Job-30.odb,Step-1,Increment      1: Step Time =    1.000,"P-30-1",           584,       5.25600,       120.226,            0.,NA,NA,"",   313.198E+03,  -349.391E+03,  -349.391E+03
C:/temp/Job-30.odb,Step-1,Increment      1: Step Time =    1.000,"P-30-1",           585,       5.02747,       130.337,            0.,NA,NA,"",   194.321E+03,  -202.448E+03,  -202.448E+03
C:/temp/Job-30.odb,Step-1,Increment      1: Step Time =    1.000,"P-30-1",           586,       4.89641,       140.252,            0.,NA,NA,"",   131.177E+03,   132.840E+03,   132.840E+03
C:/temp/Job-30.odb,Step-1,Increment      1: Step Time =    1.000,"P-30-1",           587,       4.82604,       150.098,            0.,NA,NA,"",   471.140E+03,   528.540E+03,   528.540E+03
C:/temp/Job-30.odb,Step-1,Increment      1: Step Time =    1.000,"P-30-1",           588,       5.08144,       160.023,            0.,NA,NA,"",   962.077E+03,   1.07186E+06,   1.07186E+06
C:/temp/Job-30.odb,Step-1,Increment      1: Step Time =    1.000,"P-30-1",           589,       6.21750,       170.800,            0.,NA,NA,"",   1.62565E+06,   1.79173E+06,   1.79173E+06
C:/temp/Job-30.odb,Step-1,Increment      1: Step Time =    1.000,"P-30-1",           590,       4.28859,       180.356,            0.,NA,NA,"",   2.23880E+06,   2.46873E+06,   2.46873E+06
C:/temp/Job-30.odb,Step-1,Increment      1: Step Time =    1.000,"P-30-1",           591,       4.77015,       190.014,            0.,NA,NA,"",   3.07939E+06,   3.30820E+06,   3.30820E+06
C:/temp/Job-30.odb,Step-1,Increment      1: Step Time =    1.000,"P-30-1",           592,       70.3336,       164.036,            0.,NA,NA,"",   2.17074E+06,   2.03393E+06,   2.03393E+06
C:/temp/Job-30.odb,Step-1,Increment      1: Step Time =    1.000,"P-30-1",           593,       51.6481,       52.1502,            0.,NA,NA,"",   1.13840E+06,  -1.10441E+06,  -1.10441E+06
C:/temp/Job-30.odb,Step-1,Increment      1: Step Time =    1.000,"P-30-1",           594,       54.3231,       151.606,            0.,NA,NA,"",   976.053E+03,  -834.687E+03,  -834.687E+03
C:/temp/Job-30.odb,Step-1,Increment      1: Step Time =    1.000,"P-30-1",           595,       51.0285,       147.741,            0.,NA,NA,"",   1.12571E+06,  -1.09199E+06,  -1.09199E+06
C:/temp/Job-30.odb,Step-1,Increment      1: Step Time =    1.000,"P-30-1",           596,       37.1329,       68.0358,            0.,NA,NA,"",   1.09256E+06,  -1.12465E+06,  -1.12465E+06
C:/temp/Job-30.odb,Step-1,Increment      1: Step Time =    1.000,"P-30-1",           597,       34.4745,       79.4394,            0.,NA,NA,"",   1.00091E+06,  -1.02729E+06,  -1.02729E+06
C:/temp/Job-30.odb,Step-1,Increment      1: Step Time =    1.000,"P-30-1",           598,       80.6252,       165.888,            0.,NA,NA,"",   3.26520E+06,   3.24813E+06,   3.24813E+06
C:/temp/Job-30.odb,Step-1,Increment      1: Step Time =    1.000,"P-30-1",           599,       41.8449,       135.324,            0.,NA,NA,"",   1.36133E+06,  -1.38627E+06,  -1.38627E+06
C:/temp/Job-30.odb,Step-1,Increment      1: Step Time =    1.000,"P-30-1",           600,       39.2372,       130.804,            0.,NA,NA,"",   1.29082E+06,  -1.31630E+06,  -1.31630E+06
C:/temp/Job-30.odb,Step-1,Increment      1: Step Time =    1.000,"P-30-1",           601,       36.8915,       126.110,            0.,NA,NA,"",   1.17004E+06,  -1.19613E+06,  -1.19613E+06
C:/temp/Job-30.odb,Step-1,Increment      1: Step Time =    1.000,"P-30-1",           602,       57.6616,       155.975,            0.,NA,NA,"",   1.03693E+06,   45.8499E+03,   45.8499E+03
C:/temp/Job-30.odb,Step-1,Increment      1: Step Time =    1.000,"P-30-1",           603,       55.1334,       48.3861,            0.,NA,NA,"",   975.218E+03,  -842.973E+03,  -842.973E+03
C:/temp/Job-30.odb,Step-1,Increment      1: Step Time =    1.000,"P-30-1",           604,       35.6870,       74.1306,            0.,NA,NA,"",   1.09070E+06,  -1.12175E+06,  -1.12175E+06
C:/temp/Job-30.odb,Step-1,Increment      1: Step Time =    1.000,"P-30-1",           605,       67.1010,       161.266,            0.,NA,NA,"",   1.62813E+06,   1.46461E+06,   1.46461E+06
C:/temp/Job-30.odb,Step-1,Increment      1: Step Time =    1.000,"P-30-1",           606,       48.3944,       56.0005,            0.,NA,NA,"",   1.29237E+06,  -1.29693E+06,  -1.29693E+06
C:/temp/Job-30.odb,Step-1,Increment      1: Step Time =    1.000,"P-30-1",           607,       76.7534,       166.242,            0.,NA,NA,"",   2.84245E+06,   2.76947E+06,   2.76947E+06
C:/temp/Job-30.odb,Step-1,Increment      1: Step Time =    1.000,"P-30-1",           608,       34.8394,       121.233,            0.,NA,NA,"",   1.02651E+06,  -1.05386E+06,  -1.05386E+06
C:/temp/Job-30.odb,Step-1,Increment      1: Step Time =    1.000,"P-30-1",           609,       160.439,       67.9779,            0.,NA,NA,"",   1.15227E+06,  -306.659E+03,  -306.659E+03
C:/temp/Job-30.odb,Step-1,Increment      1: Step Time =    1.000,"P-30-1",           610,       47.7978,       143.793,            0.,NA,NA,"",   1.27668E+06,  -1.28216E+06,  -1.28216E+06
C:/temp/Job-30.odb,Step-1,Increment      1: Step Time =    1.000,"P-30-1",           611,       144.645,       151.792,            0.,NA,NA,"",   3.18823E+06,   3.22594E+06,   3.22594E+06
C:/temp/Job-30.odb,Step-1,Increment      1: Step Time =    1.000,"P-30-1",           612,       151.718,       144.122,            0.,NA,NA,"",   2.04175E+06,   2.00370E+06,   2.00370E+06
C:/temp/Job-30.odb,Step-1,Increment      1: Step Time =    1.000,"P-30-1",           613,       136.274,       41.4961,            0.,NA,NA,"",   4.25437E+06,   4.33697E+06,   4.33697E+06
C:/temp/Job-30.odb,Step-1,Increment      1: Step Time =    1.000,"P-30-1",           614,       154.783,       60.0089,            0.,NA,NA,"",   1.47263E+06,   1.36902E+06,   1.36902E+06
C:/temp/Job-30.odb,Step-1,Increment      1: Step Time =    1.000,"P-30-1",           615,       152.046,       56.0812,            0.,NA,NA,"",   1.99764E+06,   1.95424E+06,   1.95424E+06
C:/temp/Job-30.odb,Step-1,Increment      1: Step Time =    1.000,"P-30-1",           616,       131.620,       39.1559,            0.,NA,NA,"",   4.77028E+06,   4.87612E+06,   4.87612E+06
C:/temp/Job-30.odb,Step-1,Increment      1: Step Time =    1.000,"P-30-1",           617,       118.543,       167.859,            0.,NA,NA,"",   5.13462E+06,   5.31597E+06,   5.31597E+06
C:/temp/Job-30.odb,Step-1,Increment      1: Step Time =    1.000,"P-30-1",           618,       81.5527,       31.6545,            0.,NA,NA,"",   3.38555E+06,   3.35598E+06,   3.35598E+06
C:/temp/Job-30.odb,Step-1,Increment      1: Step Time =    1.000,"P-30-1",           619,       71.8391,       36.9454,            0.,NA,NA,"",   2.17307E+06,   2.07401E+06,   2.07401E+06
C:/temp/Job-30.odb,Step-1,Increment      1: Step Time =    1.000,"P-30-1",           620,       168.373,       82.0981,            0.,NA,NA,"",   1.95876E+06,  -1.80845E+06,  -1.80845E+06
C:/temp/Job-30.odb,Step-1,Increment      1: Step Time =    1.000,"P-30-1",           621,       75.0122,       34.3195,            0.,NA,NA,"",   2.69731E+06,   2.62069E+06,   2.62069E+06
C:/temp/Job-30.odb,Step-1,Increment      1: Step Time =    1.000,"P-30-1",           622,       125.024,       165.752,            0.,NA,NA,"",   4.87604E+06,   5.05223E+06,   5.05223E+06
C:/temp/Job-30.odb,Step-1,Increment      1: Step Time =    1.000,"P-30-1",           623,       149.387,       51.7678,            0.,NA,NA,"",   2.53838E+06,   2.53279E+06,   2.53279E+06
C:/temp/Job-30.odb,Step-1,Increment      1: Step Time =    1.000,"P-30-1",           624,       122.310,       34.5025,            0.,NA,NA,"",   5.37663E+06,   5.52687E+06,   5.52687E+06
C:/temp/Job-30.odb,Step-1,Increment      1: Step Time =    1.000,"P-30-1",           625,       160.198,       131.471,            0.,NA,NA,"",   1.06888E+06,  -311.084E+03,  -311.084E+03
C:/temp/Job-30.odb,Step-1,Increment      1: Step Time =    1.000,"P-30-1",           626,       162.736,       127.021,            0.,NA,NA,"",   1.43853E+06,  -1.22869E+06,  -1.22869E+06
C:/temp/Job-30.odb,Step-1,Increment      1: Step Time =    1.000,"P-30-1",           627,       165.354,       122.432,            0.,NA,NA,"",   1.88164E+06,  -1.73083E+06,  -1.73083E+06
C:/temp/Job-30.odb,Step-1,Increment      1: Step Time =    1.000,"P-30-1",           628,       140.568,       155.019,            0.,NA,NA,"",   3.74561E+06,   3.80920E+06,   3.80920E+06
C:/temp/Job-30.odb,Step-1,Increment      1: Step Time =    1.000,"P-30-1",           629,       165.852,       75.2269,            0.,NA,NA,"",   1.75411E+06,  -1.45610E+06,  -1.45610E+06
C:/temp/Job-30.odb,Step-1,Increment      1: Step Time =    1.000,"P-30-1",           630,       127.013,       36.8809,            0.,NA,NA,"",   5.18392E+06,    5.3053E+06,    5.3053E+06
C:/temp/Job-30.odb,Step-1,Increment      1: Step Time =    1.000,"P-30-1",           631,       58.9161,       44.9481,            0.,NA,NA,"",   892.102E+03,  -205.986E+03,  -205.986E+03
C:/temp/Job-30.odb,Step-1,Increment      1: Step Time =    1.000,"P-30-1",           632,       163.137,       71.8927,            0.,NA,NA,"",   1.52927E+06,  -1.21165E+06,  -1.21165E+06
C:/temp/Job-30.odb,Step-1,Increment      1: Step Time =    1.000,"P-30-1",           633,       128.158,       163.154,            0.,NA,NA,"",   5.01032E+06,   5.14206E+06,   5.14206E+06
C:/temp/Job-30.odb,Step-1,Increment      1: Step Time =    1.000,"P-30-1",           634,       67.7712,       39.5124,            0.,NA,NA,"",   1.51817E+06,   1.38450E+06,   1.38450E+06
C:/temp/Job-30.odb,Step-1,Increment      1: Step Time =    1.000,"P-30-1",           635,       146.657,       46.6201,            0.,NA,NA,"",   2.98937E+06,   3.01488E+06,   3.01488E+06
C:/temp/Job-30.odb,Step-1,Increment      1: Step Time =    1.000,"P-30-1",           636,       157.600,       135.767,            0.,NA,NA,"",   1.08636E+06,   706.388E+03,   706.388E+03
C:/temp/Job-30.odb,Step-1,Increment      1: Step Time =    1.000,"P-30-1",           637,       148.338,       148.126,            0.,NA,NA,"",   2.62050E+06,   2.62578E+06,   2.62578E+06
C:/temp/Job-30.odb,Step-1,Increment      1: Step Time =    1.000,"P-30-1",           638,       78.2087,       171.108,            0.,NA,NA,"",   3.23525E+06,   3.11072E+06,   3.11072E+06
C:/temp/Job-30.odb,Step-1,Increment      1: Step Time =    1.000,"P-30-1",           639,       172.575,       122.683,            0.,NA,NA,"",   1.79397E+06,  -56.7089E+03,  -56.7089E+03
C:/temp/Job-30.odb,Step-1,Increment      1: Step Time =    1.000,"P-30-1",           640,       122.744,       169.612,            0.,NA,NA,"",   4.26521E+06,   4.47696E+06,   4.47696E+06
C:/temp/Job-30.odb,Step-1,Increment      1: Step Time =    1.000,"P-30-1",           641,       170.066,       77.9341,            0.,NA,NA,"",   1.72035E+06,  -1.33790E+06,  -1.33790E+06
C:/temp/Job-30.odb,Step-1,Increment      1: Step Time =    1.000,"P-30-1",           642,       29.4927,       79.1413,            0.,NA,NA,"",   767.433E+03,  -805.263E+03,  -805.263E+03
C:/temp/Job-30.odb,Step-1,Increment      1: Step Time =    1.000,"P-30-1",           643,       122.316,       27.4592,            0.,NA,NA,"",   3.60773E+06,   3.81316E+06,   3.81316E+06
C:/temp/Job-30.odb,Step-1,Increment      1: Step Time =    1.000,"P-30-1",           644,       77.2698,       30.2035,            0.,NA,NA,"",   3.04516E+06,   2.94969E+06,   2.94969E+06
C:/temp/Job-30.odb,Step-1,Increment      1: Step Time =    1.000,"P-30-1",           645,       30.4438,       122.981,            0.,NA,NA,"",   794.679E+03,  -832.269E+03,  -832.269E+03
C:/temp/Job-30.odb,Step-1,Increment      1: Step Time =    1.000,"P-30-1",           646,       38.1124,       137.286,            0.,NA,NA,"",   940.366E+03,  -966.869E+03,  -966.869E+03
C:/temp/Job-30.odb,Step-1,Increment      1: Step Time =    1.000,"P-30-1",           647,       138.762,       37.4129,            0.,NA,NA,"",   3.48566E+06,   3.59099E+06,   3.59099E+06
C:/temp/Job-30.odb,Step-1,Increment      1: Step Time =    1.000,"P-30-1",           648,       135.291,       164.064,            0.,NA,NA,"",   3.74327E+06,   3.87767E+06,   3.87767E+06
C:/temp/Job-30.odb,Step-1,Increment      1: Step Time =    1.000,"P-30-1",           649,       160.823,       138.289,            0.,NA,NA,"",   1.73707E+06,   1.35154E+06,   1.35154E+06
C:/temp/Job-30.odb,Step-1,Increment      1: Step Time =    1.000,"P-30-1",           650,       64.7842,       36.1700,            0.,NA,NA,"",   2.04429E+06,   1.76481E+06,   1.76481E+06
C:/temp/Job-30.odb,Step-1,Increment      1: Step Time =    1.000,"P-30-1",           651,       39.1614,       60.4124,            0.,NA,NA,"",   896.197E+03,  -917.331E+03,  -917.331E+03
C:/temp/Job-30.odb,Step-1,Increment      1: Step Time =    1.000,"P-30-1",           652,       163.825,       64.6227,            0.,NA,NA,"",   1.82903E+06,   771.381E+03,   771.381E+03
C:/temp/Job-30.odb,Step-1,Increment      1: Step Time =    1.000,"P-30-1",           653,       60.0920,       162.772,            0.,NA,NA,"",   1.85161E+06,   1.50192E+06,   1.50192E+06
C:/temp/Job-30.odb,Step-1,Increment      1: Step Time =    1.000,"P-30-1",           654,       35.4131,       132.683,            0.,NA,NA,"",   928.808E+03,  -959.341E+03,  -959.341E+03
C:/temp/Job-30.odb,Step-1,Increment      1: Step Time =    1.000,"P-30-1",           655,       134.233,       35.2009,            0.,NA,NA,"",   3.80434E+06,   3.94026E+06,   3.94026E+06
C:/temp/Job-30.odb,Step-1,Increment      1: Step Time =    1.000,"P-30-1",           656,       68.4374,       33.6292,            0.,NA,NA,"",   2.43325E+06,   2.19086E+06,   2.19086E+06
C:/temp/Job-30.odb,Step-1,Increment      1: Step Time =    1.000,"P-30-1",           657,       35.0180,       62.3997,            0.,NA,NA,"",   734.049E+03,  -753.493E+03,  -753.493E+03
C:/temp/Job-30.odb,Step-1,Increment      1: Step Time =    1.000,"P-30-1",           658,       131.678,       166.710,            0.,NA,NA,"",   3.76911E+06,   3.93642E+06,   3.93642E+06
C:/temp/Job-30.odb,Step-1,Increment      1: Step Time =    1.000,"P-30-1",           659,       163.346,       134.179,            0.,NA,NA,"",   1.66995E+06,   680.717E+03,   680.717E+03
C:/temp/Job-30.odb,Step-1,Increment      1: Step Time =    1.000,"P-30-1",           660,       166.626,       68.2571,            0.,NA,NA,"",   1.88067E+06,   137.845E+03,   137.845E+03
C:/temp/Job-30.odb,Step-1,Increment      1: Step Time =    1.000,"P-30-1",           661,       63.7059,       164.972,            0.,NA,NA,"",   2.15626E+06,   1.84291E+06,   1.84291E+06
C:/temp/Job-30.odb,Step-1,Increment      1: Step Time =    1.000,"P-30-1",           662,       69.1946,       9.75545,            0.,NA,NA,"",   2.74973E+06,   2.63082E+06,   2.63082E+06
C:/temp/Job-30.odb,Step-1,Increment      1: Step Time =    1.000,"P-30-1",           663,       59.2714,       9.42738,            0.,NA,NA,"",   2.96782E+06,   2.88549E+06,   2.88549E+06
C:/temp/Job-30.odb,Step-1,Increment      1: Step Time =    1.000,"P-30-1",           664,       190.605,       139.847,            0.,NA,NA,"",   1.63877E+06,   1.77284E+06,   1.77284E+06
C:/temp/Job-30.odb,Step-1,Increment      1: Step Time =    1.000,"P-30-1",           665,       190.551,       129.908,            0.,NA,NA,"",   1.95358E+06,   2.12912E+06,   2.12912E+06
C:/temp/Job-30.odb,Step-1,Increment      1: Step Time =    1.000,"P-30-1",           666,       189.968,       110.246,            0.,NA,NA,"",   2.16758E+06,   2.41952E+06,   2.41952E+06
C:/temp/Job-30.odb,Step-1,Increment      1: Step Time =    1.000,"P-30-1",           667,       189.878,       88.8921,            0.,NA,NA,"",   2.16386E+06,   2.41316E+06,   2.41316E+06
C:/temp/Job-30.odb,Step-1,Increment      1: Step Time =    1.000,"P-30-1",           668,       190.732,       79.1413,            0.,NA,NA,"",   2.18002E+06,   2.40631E+06,   2.40631E+06
C:/temp/Job-30.odb,Step-1,Increment      1: Step Time =    1.000,"P-30-1",           669,       191.095,       69.8019,            0.,NA,NA,"",   1.94891E+06,   2.13486E+06,   2.13486E+06
C:/temp/Job-30.odb,Step-1,Increment      1: Step Time =    1.000,"P-30-1",           670,       190.494,       60.5297,            0.,NA,NA,"",   1.64956E+06,   1.78507E+06,   1.78507E+06
C:/temp/Job-30.odb,Step-1,Increment      1: Step Time =    1.000,"P-30-1",           671,       69.5720,       189.914,            0.,NA,NA,"",   2.75034E+06,   2.62609E+06,   2.62609E+06
C:/temp/Job-30.odb,Step-1,Increment      1: Step Time =    1.000,"P-30-1",           672,       89.8985,       189.996,            0.,NA,NA,"",   1.99908E+06,   1.89777E+06,   1.89777E+06
C:/temp/Job-30.odb,Step-1,Increment      1: Step Time =    1.000,"P-30-1",           673,       99.9508,       190.227,            0.,NA,NA,"",   1.45376E+06,   1.41355E+06,   1.41355E+06
C:/temp/Job-30.odb,Step-1,Increment      1: Step Time =    1.000,"P-30-1",           674,       110.194,       189.953,            0.,NA,NA,"",   1.01411E+06,   1.04726E+06,   1.04726E+06
C:/temp/Job-30.odb,Step-1,Increment      1: Step Time =    1.000,"P-30-1",           675,       120.264,       190.441,            0.,NA,NA,"",   673.841E+03,   729.147E+03,   729.147E+03
C:/temp/Job-30.odb,Step-1,Increment      1: Step Time =    1.000,"P-30-1",           676,       9.74268,       59.9079,            0.,NA,NA,"",   110.880E+03,   70.4031E+03,   70.4031E+03
C:/temp/Job-30.odb,Step-1,Increment      1: Step Time =    1.000,"P-30-1",           677,       10.0455,       69.7232,            0.,NA,NA,"",   236.578E+03,  -239.751E+03,  -239.751E+03
C:/temp/Job-30.odb,Step-1,Increment      1: Step Time =    1.000,"P-30-1",           678,       10.2870,       79.6911,            0.,NA,NA,"",   335.615E+03,   -372.73E+03,   -372.73E+03
C:/temp/Job-30.odb,Step-1,Increment      1: Step Time =    1.000,"P-30-1",           679,       10.0836,       89.6999,            0.,NA,NA,"",   340.587E+03,  -391.416E+03,  -391.416E+03
C:/temp/Job-30.odb,Step-1,Increment      1: Step Time =    1.000,"P-30-1",           680,       9.68336,       99.8011,            0.,NA,NA,"",   322.560E+03,  -366.005E+03,  -366.005E+03
C:/temp/Job-30.odb,Step-1,Increment      1: Step Time =    1.000,"P-30-1",           681,       10.4487,       120.564,            0.,NA,NA,"",   337.830E+03,  -374.895E+03,  -374.895E+03
C:/temp/Job-30.odb,Step-1,Increment      1: Step Time =    1.000,"P-30-1",           682,       9.99518,       130.758,            0.,NA,NA,"",   229.194E+03,  -230.278E+03,  -230.278E+03
C:/temp/Job-30.odb,Step-1,Increment      1: Step Time =    1.000,"P-30-1",           683,       9.86407,       140.592,            0.,NA,NA,"",   113.423E+03,   115.444E+03,   115.444E+03
C:/temp/Job-30.odb,Step-1,Increment      1: Step Time =    1.000,"P-30-1",           684,       139.537,       9.39081,            0.,NA,NA,"",   810.767E+03,   774.968E+03,   774.968E+03
C:/temp/Job-30.odb,Step-1,Increment      1: Step Time =    1.000,"P-30-1",           685,       129.715,       9.80399,            0.,NA,NA,"",   738.114E+03,   751.408E+03,   751.408E+03
C:/temp/Job-30.odb,Step-1,Increment      1: Step Time =    1.000,"P-30-1",           686,       119.840,       9.84396,            0.,NA,NA,"",   693.797E+03,   751.811E+03,   751.811E+03
C:/temp/Job-30.odb,Step-1,Increment      1: Step Time =    1.000,"P-30-1",           687,       110.206,       9.62792,            0.,NA,NA,"",   961.746E+03,   991.906E+03,   991.906E+03
C:/temp/Job-30.odb,Step-1,Increment      1: Step Time =    1.000,"P-30-1",           688,       100.201,       10.3652,            0.,NA,NA,"",   1.53661E+06,   1.50062E+06,   1.50062E+06
C:/temp/Job-30.odb,Step-1,Increment      1: Step Time =    1.000,"P-30-1",           689,       89.7953,       10.7096,            0.,NA,NA,"",   2.09808E+06,   1.99710E+06,   1.99710E+06
C:/temp/Job-30.odb,Step-1,Increment      1: Step Time =    1.000,"P-30-1",           690,       79.5373,       10.3193,            0.,NA,NA,"",   2.46606E+06,   2.33191E+06,   2.33191E+06
C:/temp/Job-30.odb,Step-1,Increment      1: Step Time =    1.000,"P-30-1",           691,       190.254,       120.176,            0.,NA,NA,"",   2.14065E+06,   2.35439E+06,   2.35439E+06
C:/temp/Job-30.odb,Step-1,Increment      1: Step Time =    1.000,"P-30-1",           692,       189.352,       99.6593,            0.,NA,NA,"",   2.07388E+06,   2.33652E+06,   2.33652E+06
C:/temp/Job-30.odb,Step-1,Increment      1: Step Time =    1.000,"P-30-1",           693,       59.4152,       190.437,            0.,NA,NA,"",   2.97037E+06,   2.88314E+06,   2.88314E+06
C:/temp/Job-30.odb,Step-1,Increment      1: Step Time =    1.000,"P-30-1",           694,       79.7843,       189.753,            0.,NA,NA,"",   2.45678E+06,   2.32524E+06,   2.32524E+06
C:/temp/Job-30.odb,Step-1,Increment      1: Step Time =    1.000,"P-30-1",           695,       129.761,       191.131,            0.,NA,NA,"",   616.047E+03,   619.313E+03,   619.313E+03
C:/temp/Job-30.odb,Step-1,Increment      1: Step Time =    1.000,"P-30-1",           696,       138.808,       190.749,            0.,NA,NA,"",   783.759E+03,   751.462E+03,   751.462E+03
C:/temp/Job-30.odb,Step-1,Increment      1: Step Time =    1.000,"P-30-1",           697,       10.3710,       109.863,            0.,NA,NA,"",   337.227E+03,  -387.478E+03,  -387.478E+03
C:/temp/Job-30.odb,Step-1,Increment      1: Step Time =    1.000,"P-30-1",           698,       32.7544,       89.3587,            0.,NA,NA,"",   789.014E+03,  -815.321E+03,  -815.321E+03
C:/temp/Job-30.odb,Step-1,Increment      1: Step Time =    1.000,"P-30-1",           699,       110.703,       31.7876,            0.,NA,NA,"",   5.72298E+06,   5.88064E+06,   5.88064E+06
C:/temp/Job-30.odb,Step-1,Increment      1: Step Time =    1.000,"P-30-1",           700,       109.749,       167.486,            0.,NA,NA,"",   5.98678E+06,   6.12075E+06,   6.12075E+06
C:/temp/Job-30.odb,Step-1,Increment      1: Step Time =    1.000,"P-30-1",           701,       168.075,       110.637,            0.,NA,NA,"",   2.67522E+06,  -2.68083E+06,  -2.68083E+06
C:/temp/Job-30.odb,Step-1,Increment      1: Step Time =    1.000,"P-30-1",           702,       167.640,       90.7857,            0.,NA,NA,"",   2.86686E+06,  -2.89153E+06,  -2.89153E+06
C:/temp/Job-30.odb,Step-1,Increment      1: Step Time =    1.000,"P-30-1",           703,       90.3970,       32.1106,            0.,NA,NA,"",   4.55045E+06,   4.61226E+06,   4.61226E+06
C:/temp/Job-30.odb,Step-1,Increment      1: Step Time =    1.000,"P-30-1",           704,       48.1590,       49.5620,            0.,NA,NA,"",   932.659E+03,  -779.788E+03,  -779.788E+03
C:/temp/Job-30.odb,Step-1,Increment      1: Step Time =    1.000,"P-30-1",           705,       46.8841,       150.088,            0.,NA,NA,"",   901.754E+03,  -747.108E+03,  -747.108E+03
C:/temp/Job-30.odb,Step-1,Increment      1: Step Time =    1.000,"P-30-1",           706,       154.138,       49.9878,            0.,NA,NA,"",   2.47148E+06,   2.35328E+06,   2.35328E+06
C:/temp/Job-30.odb,Step-1,Increment      1: Step Time =    1.000,"P-30-1",           707,       151.804,       151.053,            0.,NA,NA,"",   2.54623E+06,   2.48473E+06,   2.48473E+06
C:/temp/Job-30.odb,Step-1,Increment      1: Step Time =    1.000,"P-30-1",           708,       58.9930,       14.0278,            0.,NA,NA,"",   2.92361E+06,   2.77728E+06,   2.77728E+06
C:/temp/Job-30.odb,Step-1,Increment      1: Step Time =    1.000,"P-30-1",           709,       14.6604,       59.7081,            0.,NA,NA,"",   134.730E+03,   15.1622E+03,   15.1622E+03
C:/temp/Job-30.odb,Step-1,Increment      1: Step Time =    1.000,"P-30-1",           710,       185.717,       61.1643,            0.,NA,NA,"",   1.88640E+06,   1.86528E+06,   1.86528E+06
C:/temp/Job-30.odb,Step-1,Increment      1: Step Time =    1.000,"P-30-1",           711,       59.0517,       185.705,            0.,NA,NA,"",   2.92522E+06,   2.77010E+06,   2.77010E+06
C:/temp/Job-30.odb,Step-1,Increment      1: Step Time =    1.000,"P-30-1",           712,       14.9355,       141.078,            0.,NA,NA,"",   137.660E+03,   72.3374E+03,   72.3374E+03
C:/temp/Job-30.odb,Step-1,Increment      1: Step Time =    1.000,"P-30-1",           713,       139.387,       13.9227,            0.,NA,NA,"",   1.28293E+06,   1.27488E+06,   1.27488E+06
C:/temp/Job-30.odb,Step-1,Increment      1: Step Time =    1.000,"P-30-1",           714,       186.066,       139.747,            0.,NA,NA,"",   1.86213E+06,   1.85210E+06,   1.85210E+06
C:/temp/Job-30.odb,Step-1,Increment      1: Step Time =    1.000,"P-30-1",           715,       138.030,       186.032,            0.,NA,NA,"",   1.27601E+06,   1.27982E+06,   1.27982E+06
C:/temp/Job-30.odb,Step-1,Increment      1: Step Time =    1.000,"P-30-1",           716,       172.903,       88.0417,            0.,NA,NA,"",   1.53422E+06,  -1.36996E+06,  -1.36996E+06
C:/temp/Job-30.odb,Step-1,Increment      1: Step Time =    1.000,"P-30-1",           717,       113.570,       172.047,            0.,NA,NA,"",     4.296E+06,   4.50484E+06,   4.50484E+06
C:/temp/Job-30.odb,Step-1,Increment      1: Step Time =    1.000,"P-30-1",           718,       86.8846,       26.6188,            0.,NA,NA,"",   3.62589E+06,   3.60946E+06,   3.60946E+06
C:/temp/Job-30.odb,Step-1,Increment      1: Step Time =    1.000,"P-30-1",           719,       14.7778,       131.207,            0.,NA,NA,"",   282.146E+03,  -282.905E+03,  -282.905E+03
C:/temp/Job-30.odb,Step-1,Increment      1: Step Time =    1.000,"P-30-1",           720,       129.641,       14.6878,            0.,NA,NA,"",   1.38913E+06,   1.45169E+06,   1.45169E+06
C:/temp/Job-30.odb,Step-1,Increment      1: Step Time =    1.000,"P-30-1",           721,       68.4647,       14.2421,            0.,NA,NA,"",   2.90214E+06,   2.71411E+06,   2.71411E+06
C:/temp/Job-30.odb,Step-1,Increment      1: Step Time =    1.000,"P-30-1",           722,       15.0916,       69.4618,            0.,NA,NA,"",   289.312E+03,  -293.503E+03,  -293.503E+03
C:/temp/Job-30.odb,Step-1,Increment      1: Step Time =    1.000,"P-30-1",           723,       185.944,       129.947,            0.,NA,NA,"",   1.97006E+06,   1.96947E+06,   1.96947E+06
C:/temp/Job-30.odb,Step-1,Increment      1: Step Time =    1.000,"P-30-1",           724,       69.1219,       185.046,            0.,NA,NA,"",   2.91324E+06,   2.71799E+06,   2.71799E+06
C:/temp/Job-30.odb,Step-1,Increment      1: Step Time =    1.000,"P-30-1",           725,       186.973,       69.8239,            0.,NA,NA,"",   1.95367E+06,   1.99334E+06,   1.99334E+06
C:/temp/Job-30.odb,Step-1,Increment      1: Step Time =    1.000,"P-30-1",           726,       129.675,       186.666,            0.,NA,NA,"",   1.19836E+06,   1.25165E+06,   1.25165E+06
C:/temp/Job-30.odb,Step-1,Increment      1: Step Time =    1.000,"P-30-1",           727,       174.107,       115.089,            0.,NA,NA,"",   1.48703E+06,  -715.965E+03,  -715.965E+03
C:/temp/Job-30.odb,Step-1,Increment      1: Step Time =    1.000,"P-30-1",           728,       27.9646,       117.420,            0.,NA,NA,"",   675.943E+03,  -721.079E+03,  -721.079E+03
C:/temp/Job-30.odb,Step-1,Increment      1: Step Time =    1.000,"P-30-1",           729,       84.5369,       172.114,            0.,NA,NA,"",   3.54074E+06,   3.50614E+06,   3.50614E+06
C:/temp/Job-30.odb,Step-1,Increment      1: Step Time =    1.000,"P-30-1",           730,       115.980,       176.986,            0.,NA,NA,"",   3.05750E+06,   3.24848E+06,   3.24848E+06
C:/temp/Job-30.odb,Step-1,Increment      1: Step Time =    1.000,"P-30-1",           731,       178.134,       85.6375,            0.,NA,NA,"",   1.26532E+06,   467.057E+03,   467.057E+03
C:/temp/Job-30.odb,Step-1,Increment      1: Step Time =    1.000,"P-30-1",           732,       28.6299,       84.0653,            0.,NA,NA,"",   705.678E+03,  -748.259E+03,  -748.259E+03
C:/temp/Job-30.odb,Step-1,Increment      1: Step Time =    1.000,"P-30-1",           733,       115.225,       25.6407,            0.,NA,NA,"",   3.67232E+06,   3.88770E+06,   3.88770E+06
C:/temp/Job-30.odb,Step-1,Increment      1: Step Time =    1.000,"P-30-1",           734,       83.5793,       20.6672,            0.,NA,NA,"",   3.17524E+06,   3.04224E+06,   3.04224E+06
C:/temp/Job-30.odb,Step-1,Increment      1: Step Time =    1.000,"P-30-1",           735,       158.040,       142.405,            0.,NA,NA,"",   1.93029E+06,   1.68926E+06,   1.68926E+06
C:/temp/Job-30.odb,Step-1,Increment      1: Step Time =    1.000,"P-30-1",           736,       60.4874,       38.6105,            0.,NA,NA,"",   1.67486E+06,   1.33729E+06,   1.33729E+06
C:/temp/Job-30.odb,Step-1,Increment      1: Step Time =    1.000,"P-30-1",           737,       56.1896,       161.072,            0.,NA,NA,"",   1.62968E+06,   1.24769E+06,   1.24769E+06
C:/temp/Job-30.odb,Step-1,Increment      1: Step Time =    1.000,"P-30-1",           738,       40.9816,       141.721,            0.,NA,NA,"",   914.595E+03,   -925.22E+03,   -925.22E+03
C:/temp/Job-30.odb,Step-1,Increment      1: Step Time =    1.000,"P-30-1",           739,       143.542,       39.4012,            0.,NA,NA,"",   3.12257E+06,   3.18505E+06,   3.18505E+06
C:/temp/Job-30.odb,Step-1,Increment      1: Step Time =    1.000,"P-30-1",           740,       139.330,       161.399,            0.,NA,NA,"",   3.51905E+06,   3.61985E+06,   3.61985E+06
C:/temp/Job-30.odb,Step-1,Increment      1: Step Time =    1.000,"P-30-1",           741,       42.3595,       57.2134,            0.,NA,NA,"",   955.262E+03,  -961.653E+03,  -961.653E+03
C:/temp/Job-30.odb,Step-1,Increment      1: Step Time =    1.000,"P-30-1",           742,       160.968,       60.8590,            0.,NA,NA,"",   1.83504E+06,   1.45150E+06,   1.45150E+06
C:/temp/Job-30.odb,Step-1,Increment      1: Step Time =    1.000,"P-30-1",           743,       166.120,       130.082,            0.,NA,NA,"",   1.75599E+06,   39.4695E+03,   39.4695E+03
C:/temp/Job-30.odb,Step-1,Increment      1: Step Time =    1.000,"P-30-1",           744,       66.6538,       167.504,            0.,NA,NA,"",   2.46404E+06,   2.18469E+06,   2.18469E+06
C:/temp/Job-30.odb,Step-1,Increment      1: Step Time =    1.000,"P-30-1",           745,       129.883,       32.9299,            0.,NA,NA,"",   4.01257E+06,   4.17939E+06,   4.17939E+06
C:/temp/Job-30.odb,Step-1,Increment      1: Step Time =    1.000,"P-30-1",           746,       30.7230,       68.4424,            0.,NA,NA,"",   699.421E+03,  -728.195E+03,  -728.195E+03
C:/temp/Job-30.odb,Step-1,Increment      1: Step Time =    1.000,"P-30-1",           747,       15.4624,       121.131,            0.,NA,NA,"",   387.340E+03,  -426.346E+03,  -426.346E+03
C:/temp/Job-30.odb,Step-1,Increment      1: Step Time =    1.000,"P-30-1",           748,       79.3477,       15.2254,            0.,NA,NA,"",   2.85853E+06,   2.68245E+06,   2.68245E+06
C:/temp/Job-30.odb,Step-1,Increment      1: Step Time =    1.000,"P-30-1",           749,       119.582,       14.8353,            0.,NA,NA,"",   1.54139E+06,   1.65778E+06,   1.65778E+06
C:/temp/Job-30.odb,Step-1,Increment      1: Step Time =    1.000,"P-30-1",           750,       15.5111,       79.4801,            0.,NA,NA,"",   387.333E+03,  -427.375E+03,  -427.375E+03
C:/temp/Job-30.odb,Step-1,Increment      1: Step Time =    1.000,"P-30-1",           751,       79.7041,       184.941,            0.,NA,NA,"",   2.84871E+06,   2.67251E+06,   2.67251E+06
C:/temp/Job-30.odb,Step-1,Increment      1: Step Time =    1.000,"P-30-1",           752,       185.660,       120.503,            0.,NA,NA,"",   1.83531E+06,   1.86863E+06,   1.86863E+06
C:/temp/Job-30.odb,Step-1,Increment      1: Step Time =    1.000,"P-30-1",           753,       186.181,       78.4748,            0.,NA,NA,"",   1.89253E+06,   1.94419E+06,   1.94419E+06
C:/temp/Job-30.odb,Step-1,Increment      1: Step Time =    1.000,"P-30-1",           754,       120.959,       185.783,            0.,NA,NA,"",   1.40888E+06,   1.51136E+06,   1.51136E+06
C:/temp/Job-30.odb,Step-1,Increment      1: Step Time =    1.000,"P-30-1",           755,       110.345,       14.0667,            0.,NA,NA,"",   1.70882E+06,   1.79748E+06,   1.79748E+06
C:/temp/Job-30.odb,Step-1,Increment      1: Step Time =    1.000,"P-30-1",           756,       15.0798,       89.8533,            0.,NA,NA,"",   360.460E+03,  -413.496E+03,  -413.496E+03
C:/temp/Job-30.odb,Step-1,Increment      1: Step Time =    1.000,"P-30-1",           757,       89.3719,       16.0211,            0.,NA,NA,"",   2.74490E+06,   2.65013E+06,   2.65013E+06
C:/temp/Job-30.odb,Step-1,Increment      1: Step Time =    1.000,"P-30-1",           758,       15.4270,       109.386,            0.,NA,NA,"",   354.381E+03,  -406.722E+03,  -406.722E+03
C:/temp/Job-30.odb,Step-1,Increment      1: Step Time =    1.000,"P-30-1",           759,       185.406,       110.315,            0.,NA,NA,"",   1.47123E+06,   1.60365E+06,   1.60365E+06
C:/temp/Job-30.odb,Step-1,Increment      1: Step Time =    1.000,"P-30-1",           760,       90.1872,       185.286,            0.,NA,NA,"",   2.57381E+06,   2.47921E+06,   2.47921E+06
C:/temp/Job-30.odb,Step-1,Increment      1: Step Time =    1.000,"P-30-1",           761,       185.276,       87.8037,            0.,NA,NA,"",   1.56478E+06,   1.66350E+06,   1.66350E+06
C:/temp/Job-30.odb,Step-1,Increment      1: Step Time =    1.000,"P-30-1",           762,       110.007,       185.077,            0.,NA,NA,"",   1.82286E+06,   1.91558E+06,   1.91558E+06
C:/temp/Job-30.odb,Step-1,Increment      1: Step Time =    1.000,"P-30-1",           763,       14.0352,       99.6763,            0.,NA,NA,"",   322.875E+03,  -355.014E+03,  -355.014E+03
C:/temp/Job-30.odb,Step-1,Increment      1: Step Time =    1.000,"P-30-1",           764,       100.838,       15.3381,            0.,NA,NA,"",   2.24137E+06,   2.26542E+06,   2.26542E+06
C:/temp/Job-30.odb,Step-1,Increment      1: Step Time =    1.000,"P-30-1",           765,       99.9027,       185.569,            0.,NA,NA,"",   2.15483E+06,   2.16299E+06,   2.16299E+06
C:/temp/Job-30.odb,Step-1,Increment      1: Step Time =    1.000,"P-30-1",           766,       184.120,       99.8244,            0.,NA,NA,"",   1.06665E+06,   1.21516E+06,   1.21516E+06
C:/temp/Job-30.odb,Step-1,Increment      1: Step Time =    1.000,"P-30-1",           767,       25.2881,       68.7612,            0.,NA,NA,"",   498.706E+03,  -516.819E+03,  -516.819E+03
C:/temp/Job-30.odb,Step-1,Increment      1: Step Time =    1.000,"P-30-1",           768,       128.802,       26.9739,            0.,NA,NA,"",   3.06565E+06,   3.23778E+06,   3.23778E+06
C:/temp/Job-30.odb,Step-1,Increment      1: Step Time =    1.000,"P-30-1",           769,       69.0645,       170.846,            0.,NA,NA,"",   2.76144E+06,   2.50148E+06,   2.50148E+06
C:/temp/Job-30.odb,Step-1,Increment      1: Step Time =    1.000,"P-30-1",           770,       172.271,       130.241,            0.,NA,NA,"",   2.06631E+06,   1.38807E+06,   1.38807E+06
C:/temp/Job-30.odb,Step-1,Increment      1: Step Time =    1.000,"P-30-1",           771,       63.6366,       13.8942,            0.,NA,NA,"",    2.9091E+06,   2.74238E+06,   2.74238E+06
C:/temp/Job-30.odb,Step-1,Increment      1: Step Time =    1.000,"P-30-1",           772,       14.8746,       64.5811,            0.,NA,NA,"",   195.856E+03,  -174.362E+03,  -174.362E+03
C:/temp/Job-30.odb,Step-1,Increment      1: Step Time =    1.000,"P-30-1",           773,       186.480,       65.5514,            0.,NA,NA,"",   1.92651E+06,   1.94020E+06,   1.94020E+06
C:/temp/Job-30.odb,Step-1,Increment      1: Step Time =    1.000,"P-30-1",           774,       63.9618,       185.568,            0.,NA,NA,"",   2.91706E+06,   2.73874E+06,   2.73874E+06
C:/temp/Job-30.odb,Step-1,Increment      1: Step Time =    1.000,"P-30-1",           775,       15.0514,       136.186,            0.,NA,NA,"",   179.786E+03,  -121.450E+03,  -121.450E+03
C:/temp/Job-30.odb,Step-1,Increment      1: Step Time =    1.000,"P-30-1",           776,       134.599,       14.2880,            0.,NA,NA,"",   1.32135E+06,   1.34582E+06,   1.34582E+06
C:/temp/Job-30.odb,Step-1,Increment      1: Step Time =    1.000,"P-30-1",           777,       186.246,       134.887,            0.,NA,NA,"",   1.93535E+06,   1.93132E+06,   1.93132E+06
C:/temp/Job-30.odb,Step-1,Increment      1: Step Time =    1.000,"P-30-1",           778,       133.877,       186.432,            0.,NA,NA,"",   1.23724E+06,   1.26428E+06,   1.26428E+06
C:/temp/Job-30.odb,Step-1,Increment      1: Step Time =    1.000,"P-30-1",           779,       15.2714,       74.3983,            0.,NA,NA,"",   354.402E+03,  -377.716E+03,  -377.716E+03
C:/temp/Job-30.odb,Step-1,Increment      1: Step Time =    1.000,"P-30-1",           780,       73.8205,       15.5980,            0.,NA,NA,"",   2.92422E+06,   2.72384E+06,   2.72384E+06
C:/temp/Job-30.odb,Step-1,Increment      1: Step Time =    1.000,"P-30-1",           781,       124.525,       14.9430,            0.,NA,NA,"",   1.46431E+06,   1.56617E+06,   1.56617E+06
C:/temp/Job-30.odb,Step-1,Increment      1: Step Time =    1.000,"P-30-1",           782,       15.2888,       126.368,            0.,NA,NA,"",   353.370E+03,  -375.053E+03,  -375.053E+03
C:/temp/Job-30.odb,Step-1,Increment      1: Step Time =    1.000,"P-30-1",           783,       186.606,       74.0754,            0.,NA,NA,"",   1.95839E+06,   2.00162E+06,   2.00162E+06
C:/temp/Job-30.odb,Step-1,Increment      1: Step Time =    1.000,"P-30-1",           784,       74.7181,       184.054,            0.,NA,NA,"",   2.92641E+06,   2.72567E+06,   2.72567E+06
C:/temp/Job-30.odb,Step-1,Increment      1: Step Time =    1.000,"P-30-1",           785,       185.646,       125.132,            0.,NA,NA,"",   1.95222E+06,   1.96198E+06,   1.96198E+06
C:/temp/Job-30.odb,Step-1,Increment      1: Step Time =    1.000,"P-30-1",           786,       125.428,       186.766,            0.,NA,NA,"",   1.22208E+06,   1.30098E+06,   1.30098E+06
C:/temp/Job-30.odb,Step-1,Increment      1: Step Time =    1.000,"P-30-1",           787,       176.489,       119.968,            0.,NA,NA,"",   1.62086E+06,   581.842E+03,   581.842E+03
C:/temp/Job-30.odb,Step-1,Increment      1: Step Time =    1.000,"P-30-1",           788,       172.633,       109.859,            0.,NA,NA,"",   1.61181E+06,  -1.53031E+06,  -1.53031E+06
C:/temp/Job-30.odb,Step-1,Increment      1: Step Time =    1.000,"P-30-1",           789,       23.9987,       120.787,            0.,NA,NA,"",   558.460E+03,  -601.651E+03,  -601.651E+03
C:/temp/Job-30.odb,Step-1,Increment      1: Step Time =    1.000,"P-30-1",           790,       28.3652,       111.928,            0.,NA,NA,"",   643.479E+03,  -693.992E+03,  -693.992E+03
C:/temp/Job-30.odb,Step-1,Increment      1: Step Time =    1.000,"P-30-1",           791,       89.8238,       171.912,            0.,NA,NA,"",   3.91829E+06,   3.97040E+06,   3.97040E+06
C:/temp/Job-30.odb,Step-1,Increment      1: Step Time =    1.000,"P-30-1",           792,       76.5340,       177.078,            0.,NA,NA,"",   3.16086E+06,   2.95879E+06,   2.95879E+06
C:/temp/Job-30.odb,Step-1,Increment      1: Step Time =    1.000,"P-30-1",           793,       122.073,       174.513,            0.,NA,NA,"",   3.30149E+06,   3.50824E+06,   3.50824E+06
C:/temp/Job-30.odb,Step-1,Increment      1: Step Time =    1.000,"P-30-1",           794,       175.211,       79.0586,            0.,NA,NA,"",   1.66575E+06,   197.200E+03,   197.200E+03
C:/temp/Job-30.odb,Step-1,Increment      1: Step Time =    1.000,"P-30-1",           795,       28.5698,       88.7389,            0.,NA,NA,"",   651.303E+03,  -698.825E+03,  -698.825E+03
C:/temp/Job-30.odb,Step-1,Increment      1: Step Time =    1.000,"P-30-1",           796,       24.6795,       78.8833,            0.,NA,NA,"",   582.970E+03,  -626.051E+03,  -626.051E+03
C:/temp/Job-30.odb,Step-1,Increment      1: Step Time =    1.000,"P-30-1",           797,       120.123,       23.6230,            0.,NA,NA,"",   3.02792E+06,   3.22833E+06,   3.22833E+06
C:/temp/Job-30.odb,Step-1,Increment      1: Step Time =    1.000,"P-30-1",           798,       110.080,       27.0692,            0.,NA,NA,"",   4.26110E+06,   4.46879E+06,   4.46879E+06
C:/temp/Job-30.odb,Step-1,Increment      1: Step Time =    1.000,"P-30-1",           799,       77.6615,       25.2326,            0.,NA,NA,"",   3.18813E+06,   3.02353E+06,   3.02353E+06
C:/temp/Job-30.odb,Step-1,Increment      1: Step Time =    1.000,"P-30-1",           800,       164.321,       140.896,            0.,NA,NA,"",   2.15597E+06,   1.69712E+06,   1.69712E+06
C:/temp/Job-30.odb,Step-1,Increment      1: Step Time =    1.000,"P-30-1",           801,       57.4983,       166.819,            0.,NA,NA,"",   2.22189E+06,   1.87000E+06,   1.87000E+06
C:/temp/Job-30.odb,Step-1,Increment      1: Step Time =    1.000,"P-30-1",           802,       141.112,       33.2795,            0.,NA,NA,"",   2.95307E+06,   3.02937E+06,   3.02937E+06
C:/temp/Job-30.odb,Step-1,Increment      1: Step Time =    1.000,"P-30-1",           803,       34.3616,       57.5929,            0.,NA,NA,"",   558.638E+03,  -535.785E+03,  -535.785E+03
C:/temp/Job-30.odb,Step-1,Increment      1: Step Time =    1.000,"P-30-1",           804,       114.787,       14.5921,            0.,NA,NA,"",   1.61482E+06,   1.72270E+06,   1.72270E+06
C:/temp/Job-30.odb,Step-1,Increment      1: Step Time =    1.000,"P-30-1",           805,       15.7675,       84.5246,            0.,NA,NA,"",   387.539E+03,  -439.524E+03,  -439.524E+03
C:/temp/Job-30.odb,Step-1,Increment      1: Step Time =    1.000,"P-30-1",           806,       16.2933,       115.279,            0.,NA,NA,"",   394.080E+03,  -447.485E+03,  -447.485E+03
C:/temp/Job-30.odb,Step-1,Increment      1: Step Time =    1.000,"P-30-1",           807,       84.2850,       15.5263,            0.,NA,NA,"",   2.80239E+06,   2.65578E+06,   2.65578E+06
C:/temp/Job-30.odb,Step-1,Increment      1: Step Time =    1.000,"P-30-1",           808,       185.694,       83.0724,            0.,NA,NA,"",   1.76055E+06,   1.83744E+06,   1.83744E+06
C:/temp/Job-30.odb,Step-1,Increment      1: Step Time =    1.000,"P-30-1",           809,       115.789,       184.060,            0.,NA,NA,"",   1.82836E+06,   1.95048E+06,   1.95048E+06
C:/temp/Job-30.odb,Step-1,Increment      1: Step Time =    1.000,"P-30-1",           810,       84.8426,       184.089,            0.,NA,NA,"",   2.83139E+06,   2.69472E+06,   2.69472E+06
C:/temp/Job-30.odb,Step-1,Increment      1: Step Time =    1.000,"P-30-1",           811,       184.492,       115.362,            0.,NA,NA,"",   1.59796E+06,   1.63986E+06,   1.63986E+06
C:/temp/Job-30.odb,Step-1,Increment      1: Step Time =    1.000,"P-30-1",           812,       95.1192,       16.7937,            0.,NA,NA,"",   2.68941E+06,   2.67140E+06,   2.67140E+06
C:/temp/Job-30.odb,Step-1,Increment      1: Step Time =    1.000,"P-30-1",           813,       14.8266,       104.252,            0.,NA,NA,"",   331.512E+03,  -371.149E+03,  -371.149E+03
C:/temp/Job-30.odb,Step-1,Increment      1: Step Time =    1.000,"P-30-1",           814,       183.384,       93.4676,            0.,NA,NA,"",   1.12173E+06,   1.19819E+06,   1.19819E+06
C:/temp/Job-30.odb,Step-1,Increment      1: Step Time =    1.000,"P-30-1",           815,       104.874,       185.444,            0.,NA,NA,"",   1.96320E+06,   2.01927E+06,   2.01927E+06
C:/temp/Job-30.odb,Step-1,Increment      1: Step Time =    1.000,"P-30-1",           816,       14.3153,       94.8969,            0.,NA,NA,"",   331.575E+03,  -373.212E+03,  -373.212E+03
C:/temp/Job-30.odb,Step-1,Increment      1: Step Time =    1.000,"P-30-1",           817,       105.695,       14.4730,            0.,NA,NA,"",   1.91500E+06,   1.97208E+06,   1.97208E+06
C:/temp/Job-30.odb,Step-1,Increment      1: Step Time =    1.000,"P-30-1",           818,       95.0496,       185.554,            0.,NA,NA,"",   2.36047E+06,   2.31511E+06,   2.31511E+06
C:/temp/Job-30.odb,Step-1,Increment      1: Step Time =    1.000,"P-30-1",           819,       185.036,       105.234,            0.,NA,NA,"",   1.27237E+06,   1.43243E+06,   1.43243E+06
C:/temp/Job-30.odb,Step-1,Increment      1: Step Time =    1.000,"P-30-1",           820,       148.144,       155.215,            0.,NA,NA,"",   2.87241E+06,   2.87370E+06,   2.87370E+06
C:/temp/Job-30.odb,Step-1,Increment      1: Step Time =    1.000,"P-30-1",           821,       51.3124,       45.4544,            0.,NA,NA,"",   1.06827E+06,  -296.336E+03,  -296.336E+03
C:/temp/Job-30.odb,Step-1,Increment      1: Step Time =    1.000,"P-30-1",           822,       28.7351,       130.088,            0.,NA,NA,"",   645.211E+03,  -672.427E+03,  -672.427E+03
C:/temp/Job-30.odb,Step-1,Increment      1: Step Time =    1.000,"P-30-1",           823,       131.700,       172.794,            0.,NA,NA,"",   2.95326E+06,   3.10946E+06,   3.10946E+06
C:/temp/Job-30.odb,Step-1,Increment      1: Step Time =    1.000,"P-30-1",           824,       172.772,       68.3505,            0.,NA,NA,"",   2.07470E+06,   1.47706E+06,   1.47706E+06
C:/temp/Job-30.odb,Step-1,Increment      1: Step Time =    1.000,"P-30-1",           825,       68.3785,       28.0303,            0.,NA,NA,"",   2.81087E+06,   2.53500E+06,   2.53500E+06
C:/temp/Job-30.odb,Step-1,Increment      1: Step Time =    1.000,"P-30-1",           826,       34.2989,       139.295,            0.,NA,NA,"",   640.773E+03,  -647.869E+03,  -647.869E+03
C:/temp/Job-30.odb,Step-1,Increment      1: Step Time =    1.000,"P-30-1",           827,       167.284,       61.2682,            0.,NA,NA,"",   2.20374E+06,   1.66866E+06,   1.66866E+06
C:/temp/Job-30.odb,Step-1,Increment      1: Step Time =    1.000,"P-30-1",           828,       138.263,       167.640,            0.,NA,NA,"",   3.06206E+06,   3.17307E+06,   3.17307E+06
C:/temp/Job-30.odb,Step-1,Increment      1: Step Time =    1.000,"P-30-1",           829,       62.2854,       32.9019,            0.,NA,NA,"",   2.34256E+06,   2.00338E+06,   2.00338E+06
C:/temp/Job-30.odb,Step-1,Increment      1: Step Time =    1.000,"P-30-1",           830,       177.344,       89.7387,            0.,NA,NA,"",   1.04476E+06,  -122.014E+03,  -122.014E+03
C:/temp/Job-30.odb,Step-1,Increment      1: Step Time =    1.000,"P-30-1",           831,       112.843,       176.082,            0.,NA,NA,"",   3.38684E+06,   3.58959E+06,   3.58959E+06
C:/temp/Job-30.odb,Step-1,Increment      1: Step Time =    1.000,"P-30-1",           832,       88.1648,       21.3125,            0.,NA,NA,"",   3.25898E+06,   3.19513E+06,   3.19513E+06
C:/temp/Job-30.odb,Step-1,Increment      1: Step Time =    1.000,"P-30-1",           833,       155.681,       153.661,            0.,NA,NA,"",   2.51620E+06,   2.37020E+06,   2.37020E+06
C:/temp/Job-30.odb,Step-1,Increment      1: Step Time =    1.000,"P-30-1",           834,       19.6728,       90.6769,            0.,NA,NA,"",   408.823E+03,   -467.42E+03,   -467.42E+03
C:/temp/Job-30.odb,Step-1,Increment      1: Step Time =    1.000,"P-30-1",           835,       110.223,       17.6441,            0.,NA,NA,"",   2.25794E+06,   2.38672E+06,   2.38672E+06
C:/temp/Job-30.odb,Step-1,Increment      1: Step Time =    1.000,"P-30-1",           836,       90.7571,       180.966,            0.,NA,NA,"",   3.03777E+06,   2.98425E+06,   2.98425E+06
C:/temp/Job-30.odb,Step-1,Increment      1: Step Time =    1.000,"P-30-1",           837,       181.927,       109.913,            0.,NA,NA,"",   1.09755E+06,   1.09950E+06,   1.09950E+06
C:/temp/Job-30.odb,Step-1,Increment      1: Step Time =    1.000,"P-30-1",           838,       17.4741,       99.3289,            0.,NA,NA,"",   341.661E+03,  -377.444E+03,  -377.444E+03
C:/temp/Job-30.odb,Step-1,Increment      1: Step Time =    1.000,"P-30-1",           839,       97.9486,       20.2981,            0.,NA,NA,"",   3.09854E+06,   3.15666E+06,   3.15666E+06
C:/temp/Job-30.odb,Step-1,Increment      1: Step Time =    1.000,"P-30-1",           840,       99.8310,       180.964,            0.,NA,NA,"",   2.84270E+06,   2.90918E+06,   2.90918E+06
C:/temp/Job-30.odb,Step-1,Increment      1: Step Time =    1.000,"P-30-1",           841,       180.577,       89.8859,            0.,NA,NA,"",   999.030E+03,   897.443E+03,   897.443E+03
C:/temp/Job-30.odb,Step-1,Increment      1: Step Time =    1.000,"P-30-1",           842,       152.383,       159.344,            0.,NA,NA,"",   2.63255E+06,   2.56239E+06,   2.56239E+06
C:/temp/Job-30.odb,Step-1,Increment      1: Step Time =    1.000,"P-30-1",           843,       42.6087,       152.425,            0.,NA,NA,"",   893.320E+03,  -238.482E+03,  -238.482E+03
C:/temp/Job-30.odb,Step-1,Increment      1: Step Time =    1.000,"P-30-1",           844,       46.7243,       42.9977,            0.,NA,NA,"",   1.22642E+06,   543.695E+03,   543.695E+03
C:/temp/Job-30.odb,Step-1,Increment      1: Step Time =    1.000,"P-30-1",           845,       58.7126,       35.0484,            0.,NA,NA,"",   2.08203E+06,   1.71663E+06,   1.71663E+06
C:/temp/Job-30.odb,Step-1,Increment      1: Step Time =    1.000,"P-30-1",           846,       52.7301,       160.338,            0.,NA,NA,"",   1.53080E+06,   1.13227E+06,   1.13227E+06
C:/temp/Job-30.odb,Step-1,Increment      1: Step Time =    1.000,"P-30-1",           847,       161.451,       144.819,            0.,NA,NA,"",   2.23847E+06,   1.90446E+06,   1.90446E+06
C:/temp/Job-30.odb,Step-1,Increment      1: Step Time =    1.000,"P-30-1",           848,       37.5812,       57.6711,            0.,NA,NA,"",   682.740E+03,  -681.273E+03,  -681.273E+03
C:/temp/Job-30.odb,Step-1,Increment      1: Step Time =    1.000,"P-30-1",           849,       37.1144,       143.783,            0.,NA,NA,"",   640.210E+03,  -604.256E+03,  -604.256E+03
C:/temp/Job-30.odb,Step-1,Increment      1: Step Time =    1.000,"P-30-1",           850,       145.565,       35.0349,            0.,NA,NA,"",   2.78638E+06,   2.81278E+06,   2.81278E+06
C:/temp/Job-30.odb,Step-1,Increment      1: Step Time =    1.000,"P-30-1",           851,       164.332,       57.4386,            0.,NA,NA,"",   2.25353E+06,   1.82157E+06,   1.82157E+06
C:/temp/Job-30.odb,Step-1,Increment      1: Step Time =    1.000,"P-30-1",           852,       142.112,       165.055,            0.,NA,NA,"",   3.00128E+06,   3.07553E+06,   3.07553E+06
C:/temp/Job-30.odb,Step-1,Increment      1: Step Time =    1.000,"P-30-1",           853,       25.1691,       73.7760,            0.,NA,NA,"",   569.276E+03,  -600.883E+03,  -600.883E+03
C:/temp/Job-30.odb,Step-1,Increment      1: Step Time =    1.000,"P-30-1",           854,       126.192,       24.4555,            0.,NA,NA,"",   2.82105E+06,   2.99488E+06,   2.99488E+06
C:/temp/Job-30.odb,Step-1,Increment      1: Step Time =    1.000,"P-30-1",           855,       74.6618,       172.814,            0.,NA,NA,"",   3.09316E+06,   2.89646E+06,   2.89646E+06
C:/temp/Job-30.odb,Step-1,Increment      1: Step Time =    1.000,"P-30-1",           856,       175.772,       127.358,            0.,NA,NA,"",   1.98054E+06,   1.44015E+06,   1.44015E+06
C:/temp/Job-30.odb,Step-1,Increment      1: Step Time =    1.000,"P-30-1",           857,       62.6678,       27.2568,            0.,NA,NA,"",   2.72370E+06,   2.40516E+06,   2.40516E+06
C:/temp/Job-30.odb,Step-1,Increment      1: Step Time =    1.000,"P-30-1",           858,       59.1933,       172.059,            0.,NA,NA,"",   2.61031E+06,   2.29032E+06,   2.29032E+06
C:/temp/Job-30.odb,Step-1,Increment      1: Step Time =    1.000,"P-30-1",           859,       169.111,       138.977,            0.,NA,NA,"",   2.28920E+06,   1.74118E+06,   1.74118E+06
C:/temp/Job-30.odb,Step-1,Increment      1: Step Time =    1.000,"P-30-1",           860,       29.5128,       57.0644,            0.,NA,NA,"",   400.943E+03,  -238.615E+03,  -238.615E+03
C:/temp/Job-30.odb,Step-1,Increment      1: Step Time =    1.000,"P-30-1",           861,       30.3751,       141.344,            0.,NA,NA,"",   434.107E+03,  -402.967E+03,  -402.967E+03
C:/temp/Job-30.odb,Step-1,Increment      1: Step Time =    1.000,"P-30-1",           862,       139.797,       27.0312,            0.,NA,NA,"",   2.52046E+06,   2.58770E+06,   2.58770E+06
C:/temp/Job-30.odb,Step-1,Increment      1: Step Time =    1.000,"P-30-1",           863,       173.668,       61.7338,            0.,NA,NA,"",   2.24951E+06,   1.79513E+06,   1.79513E+06
C:/temp/Job-30.odb,Step-1,Increment      1: Step Time =    1.000,"P-30-1",           864,       137.674,       173.794,            0.,NA,NA,"",   2.52550E+06,   2.61154E+06,   2.61154E+06
C:/temp/Job-30.odb,Step-1,Increment      1: Step Time =    1.000,"P-30-1",           865,       58.9218,       18.6243,            0.,NA,NA,"",   2.87116E+06,   2.65784E+06,   2.65784E+06
C:/temp/Job-30.odb,Step-1,Increment      1: Step Time =    1.000,"P-30-1",           866,       19.4976,       59.4589,            0.,NA,NA,"",   185.723E+03,  -31.1457E+03,  -31.1457E+03
C:/temp/Job-30.odb,Step-1,Increment      1: Step Time =    1.000,"P-30-1",           867,       58.8856,       181.036,            0.,NA,NA,"",   2.86135E+06,   2.63985E+06,   2.63985E+06
C:/temp/Job-30.odb,Step-1,Increment      1: Step Time =    1.000,"P-30-1",           868,       180.596,       62.0375,            0.,NA,NA,"",   2.12469E+06,   1.88934E+06,   1.88934E+06
C:/temp/Job-30.odb,Step-1,Increment      1: Step Time =    1.000,"P-30-1",           869,       139.352,       18.1492,            0.,NA,NA,"",   1.70604E+06,   1.72750E+06,   1.72750E+06
C:/temp/Job-30.odb,Step-1,Increment      1: Step Time =    1.000,"P-30-1",           870,       20.0693,       141.906,            0.,NA,NA,"",   196.601E+03,   18.8291E+03,   18.8291E+03
C:/temp/Job-30.odb,Step-1,Increment      1: Step Time =    1.000,"P-30-1",           871,       181.717,       139.451,            0.,NA,NA,"",   2.06637E+06,   1.89039E+06,   1.89039E+06
C:/temp/Job-30.odb,Step-1,Increment      1: Step Time =    1.000,"P-30-1",           872,       141.221,       181.881,            0.,NA,NA,"",   1.65315E+06,   1.65801E+06,   1.65801E+06
C:/temp/Job-30.odb,Step-1,Increment      1: Step Time =    1.000,"P-30-1",           873,       18.7733,       131.562,            0.,NA,NA,"",   336.156E+03,  -339.861E+03,  -339.861E+03
C:/temp/Job-30.odb,Step-1,Increment      1: Step Time =    1.000,"P-30-1",           874,       129.781,       19.3360,            0.,NA,NA,"",   1.97894E+06,   2.08389E+06,   2.08389E+06
C:/temp/Job-30.odb,Step-1,Increment      1: Step Time =    1.000,"P-30-1",           875,       68.1916,       180.517,            0.,NA,NA,"",   2.98544E+06,   2.73779E+06,   2.73779E+06
C:/temp/Job-30.odb,Step-1,Increment      1: Step Time =    1.000,"P-30-1",           876,       183.750,       69.8545,            0.,NA,NA,"",   1.98599E+06,   1.89335E+06,   1.89335E+06
C:/temp/Job-30.odb,Step-1,Increment      1: Step Time =    1.000,"P-30-1",           877,       67.3153,       18.1616,            0.,NA,NA,"",   2.96873E+06,   2.73185E+06,   2.73185E+06
C:/temp/Job-30.odb,Step-1,Increment      1: Step Time =    1.000,"P-30-1",           878,       181.629,       130.309,            0.,NA,NA,"",   2.03340E+06,   1.82881E+06,   1.82881E+06
C:/temp/Job-30.odb,Step-1,Increment      1: Step Time =    1.000,"P-30-1",           879,       133.287,       181.953,            0.,NA,NA,"",   1.74718E+06,   1.81777E+06,   1.81777E+06
C:/temp/Job-30.odb,Step-1,Increment      1: Step Time =    1.000,"P-30-1",           880,       26.0934,       125.315,            0.,NA,NA,"",   608.751E+03,  -643.712E+03,  -643.712E+03
C:/temp/Job-30.odb,Step-1,Increment      1: Step Time =    1.000,"P-30-1",           881,       24.3871,       111.115,            0.,NA,NA,"",   525.363E+03,  -586.032E+03,  -586.032E+03
C:/temp/Job-30.odb,Step-1,Increment      1: Step Time =    1.000,"P-30-1",           882,       175.592,       71.9062,            0.,NA,NA,"",   1.99323E+06,   1.43836E+06,   1.43836E+06
C:/temp/Job-30.odb,Step-1,Increment      1: Step Time =    1.000,"P-30-1",           883,       128.647,       175.420,            0.,NA,NA,"",   2.78533E+06,   2.94797E+06,   2.94797E+06
C:/temp/Job-30.odb,Step-1,Increment      1: Step Time =    1.000,"P-30-1",           884,       71.2391,       25.3295,            0.,NA,NA,"",   2.99553E+06,   2.74406E+06,   2.74406E+06
C:/temp/Job-30.odb,Step-1,Increment      1: Step Time =    1.000,"P-30-1",           885,       20.9699,       118.066,            0.,NA,NA,"",   481.805E+03,  -532.722E+03,  -532.722E+03
C:/temp/Job-30.odb,Step-1,Increment      1: Step Time =    1.000,"P-30-1",           886,       79.2048,       20.0138,            0.,NA,NA,"",   3.11531E+06,   2.93157E+06,   2.93157E+06
C:/temp/Job-30.odb,Step-1,Increment      1: Step Time =    1.000,"P-30-1",           887,       119.205,       19.6437,            0.,NA,NA,"",   2.34271E+06,   2.51044E+06,   2.51044E+06
C:/temp/Job-30.odb,Step-1,Increment      1: Step Time =    1.000,"P-30-1",           888,       20.4764,       78.9661,            0.,NA,NA,"",   466.042E+03,  -509.155E+03,  -509.155E+03
C:/temp/Job-30.odb,Step-1,Increment      1: Step Time =    1.000,"P-30-1",           889,       82.3851,       179.236,            0.,NA,NA,"",   3.18376E+06,   3.03733E+06,   3.03733E+06
C:/temp/Job-30.odb,Step-1,Increment      1: Step Time =    1.000,"P-30-1",           890,       180.314,       117.622,            0.,NA,NA,"",   1.51994E+06,   1.29239E+06,   1.29239E+06
C:/temp/Job-30.odb,Step-1,Increment      1: Step Time =    1.000,"P-30-1",           891,       180.620,       82.2762,            0.,NA,NA,"",   1.53596E+06,   1.30461E+06,   1.30461E+06
C:/temp/Job-30.odb,Step-1,Increment      1: Step Time =    1.000,"P-30-1",           892,       119.253,       179.259,            0.,NA,NA,"",   2.54242E+06,   2.71361E+06,   2.71361E+06
C:/temp/Job-30.odb,Step-1,Increment      1: Step Time =    1.000,"P-30-1",           893,       20.6240,       108.644,            0.,NA,NA,"",   427.311E+03,  -487.805E+03,  -487.805E+03
C:/temp/Job-30.odb,Step-1,Increment      1: Step Time =    1.000,"P-30-1",           894,       134.614,       176.441,            0.,NA,NA,"",   2.40563E+06,   2.50811E+06,   2.50811E+06
C:/temp/Job-30.odb,Step-1,Increment      1: Step Time =    1.000,"P-30-1",           895,       176.354,       65.2838,            0.,NA,NA,"",   2.18676E+06,   1.75454E+06,   1.75454E+06
C:/temp/Job-30.odb,Step-1,Increment      1: Step Time =    1.000,"P-30-1",           896,       27.9301,       136.804,            0.,NA,NA,"",   448.241E+03,  -448.004E+03,  -448.004E+03
C:/temp/Job-30.odb,Step-1,Increment      1: Step Time =    1.000,"P-30-1",           897,       65.7199,       25.0979,            0.,NA,NA,"",   2.88074E+06,   2.58414E+06,   2.58414E+06
C:/temp/Job-30.odb,Step-1,Increment      1: Step Time =    1.000,"P-30-1",           898,       172.266,       92.2578,            0.,NA,NA,"",   1.71157E+06,  -1.66739E+06,  -1.66739E+06
C:/temp/Job-30.odb,Step-1,Increment      1: Step Time =    1.000,"P-30-1",           899,       109.247,       171.851,            0.,NA,NA,"",   4.55874E+06,   4.75947E+06,   4.75947E+06
C:/temp/Job-30.odb,Step-1,Increment      1: Step Time =    1.000,"P-30-1",           900,       91.2948,       27.2539,            0.,NA,NA,"",   3.92339E+06,   3.97521E+06,   3.97521E+06
C:/temp/Job-30.odb,Step-1,Increment      1: Step Time =    1.000,"P-30-1",           901,       108.704,       22.7163,            0.,NA,NA,"",   3.27857E+06,   3.46060E+06,   3.46060E+06
C:/temp/Job-30.odb,Step-1,Increment      1: Step Time =    1.000,"P-30-1",           902,       24.9268,       88.5500,            0.,NA,NA,"",   545.702E+03,  -604.585E+03,  -604.585E+03
C:/temp/Job-30.odb,Step-1,Increment      1: Step Time =    1.000,"P-30-1",           903,       90.3911,       176.502,            0.,NA,NA,"",   3.46602E+06,   3.46669E+06,   3.46669E+06
C:/temp/Job-30.odb,Step-1,Increment      1: Step Time =    1.000,"P-30-1",           904,       176.948,       108.237,            0.,NA,NA,"",   957.670E+03,  -414.896E+03,  -414.896E+03
C:/temp/Job-30.odb,Step-1,Increment      1: Step Time =    1.000,"P-30-1",           905,       99.7635,       176.376,            0.,NA,NA,"",   3.60418E+06,   3.72267E+06,   3.72267E+06
C:/temp/Job-30.odb,Step-1,Increment      1: Step Time =    1.000,"P-30-1",           906,       174.940,       100.543,            0.,NA,NA,"",   1.11201E+06,  -1.09718E+06,  -1.09718E+06
C:/temp/Job-30.odb,Step-1,Increment      1: Step Time =    1.000,"P-30-1",           907,       22.3724,       97.2469,            0.,NA,NA,"",   429.722E+03,  -490.671E+03,  -490.671E+03
C:/temp/Job-30.odb,Step-1,Increment      1: Step Time =    1.000,"P-30-1",           908,       100.771,       24.3759,            0.,NA,NA,"",   3.75426E+06,   3.88953E+06,   3.88953E+06
C:/temp/Job-30.odb,Step-1,Increment      1: Step Time =    1.000,"P-30-1",           909,       63.6496,       21.8886,            0.,NA,NA,"",   2.91007E+06,   2.63551E+06,   2.63551E+06
C:/temp/Job-30.odb,Step-1,Increment      1: Step Time =    1.000,"P-30-1",           910,       23.4292,       55.6907,            0.,NA,NA,"",   249.231E+03,   62.2004E+03,   62.2004E+03
C:/temp/Job-30.odb,Step-1,Increment      1: Step Time =    1.000,"P-30-1",           911,       139.530,       21.6174,            0.,NA,NA,"",   2.01663E+06,   2.05712E+06,   2.05712E+06
C:/temp/Job-30.odb,Step-1,Increment      1: Step Time =    1.000,"P-30-1",           912,       24.9454,       138.746,            0.,NA,NA,"",   315.296E+03,  -296.618E+03,  -296.618E+03
C:/temp/Job-30.odb,Step-1,Increment      1: Step Time =    1.000,"P-30-1",           913,       177.363,       138.463,            0.,NA,NA,"",   2.21547E+06,   1.87147E+06,   1.87147E+06
C:/temp/Job-30.odb,Step-1,Increment      1: Step Time =    1.000,"P-30-1",           914,       140.350,       177.118,            0.,NA,NA,"",   2.15297E+06,   2.19383E+06,   2.19383E+06
C:/temp/Job-30.odb,Step-1,Increment      1: Step Time =    1.000,"P-30-1",           915,       62.5716,       174.708,            0.,NA,NA,"",   2.78763E+06,   2.47915E+06,   2.47915E+06
C:/temp/Job-30.odb,Step-1,Increment      1: Step Time =    1.000,"P-30-1",           916,       177.464,       58.8389,            0.,NA,NA,"",   2.22249E+06,   1.89881E+06,   1.89881E+06
C:/temp/Job-30.odb,Step-1,Increment      1: Step Time =    1.000,"P-30-1",           917,       95.8069,       27.8850,            0.,NA,NA,"",   4.27454E+06,   4.38266E+06,   4.38266E+06
C:/temp/Job-30.odb,Step-1,Increment      1: Step Time =    1.000,"P-30-1",           918,       104.630,       171.900,            0.,NA,NA,"",   4.62480E+06,   4.80062E+06,   4.80062E+06
C:/temp/Job-30.odb,Step-1,Increment      1: Step Time =    1.000,"P-30-1",           919,       171.383,       96.1677,            0.,NA,NA,"",   1.95274E+06,  -1.99304E+06,  -1.99304E+06
C:/temp/Job-30.odb,Step-1,Increment      1: Step Time =    1.000,"P-30-1",           920,       68.6072,       22.8356,            0.,NA,NA,"",   2.98797E+06,   2.71601E+06,   2.71601E+06
C:/temp/Job-30.odb,Step-1,Increment      1: Step Time =    1.000,"P-30-1",           921,       20.1375,       69.1079,            0.,NA,NA,"",   370.947E+03,  -380.447E+03,  -380.447E+03
C:/temp/Job-30.odb,Step-1,Increment      1: Step Time =    1.000,"P-30-1",           922,       177.880,       131.749,            0.,NA,NA,"",   2.12137E+06,   1.73869E+06,   1.73869E+06
C:/temp/Job-30.odb,Step-1,Increment      1: Step Time =    1.000,"P-30-1",           923,       131.555,       178.680,            0.,NA,NA,"",   2.21802E+06,   2.33202E+06,   2.33202E+06
C:/temp/Job-30.odb,Step-1,Increment      1: Step Time =    1.000,"P-30-1",           924,       24.7671,       132.571,            0.,NA,NA,"",   458.018E+03,  -471.606E+03,  -471.606E+03
C:/temp/Job-30.odb,Step-1,Increment      1: Step Time =    1.000,"P-30-1",           925,       130.165,       23.4524,            0.,NA,NA,"",   2.50257E+06,   2.64182E+06,   2.64182E+06
C:/temp/Job-30.odb,Step-1,Increment      1: Step Time =    1.000,"P-30-1",           926,       70.9323,       174.773,            0.,NA,NA,"",   2.99848E+06,   2.74443E+06,   2.74443E+06
C:/temp/Job-30.odb,Step-1,Increment      1: Step Time =    1.000,"P-30-1",           927,       178.855,       69.1189,            0.,NA,NA,"",   2.09141E+06,   1.74481E+06,   1.74481E+06
C:/temp/Job-30.odb,Step-1,Increment      1: Step Time =    1.000,"P-30-1",           928,       95.0048,       176.392,            0.,NA,NA,"",   3.56142E+06,   3.62838E+06,   3.62838E+06
C:/temp/Job-30.odb,Step-1,Increment      1: Step Time =    1.000,"P-30-1",           929,       27.7890,       93.6398,            0.,NA,NA,"",   600.034E+03,  -652.166E+03,  -652.166E+03
C:/temp/Job-30.odb,Step-1,Increment      1: Step Time =    1.000,"P-30-1",           930,       104.390,       24.0966,            0.,NA,NA,"",   3.67600E+06,   3.84218E+06,   3.84218E+06
C:/temp/Job-30.odb,Step-1,Increment      1: Step Time =    1.000,"P-30-1",           931,       175.446,       103.914,            0.,NA,NA,"",   998.942E+03,  -913.219E+03,  -913.219E+03
C:/temp/Job-30.odb,Step-1,Increment      1: Step Time =    1.000,"P-30-1",           932,       158.518,       148.851,            0.,NA,NA,"",   2.36437E+06,   2.13824E+06,   2.13824E+06
C:/temp/Job-30.odb,Step-1,Increment      1: Step Time =    1.000,"P-30-1",           933,       45.1376,       156.409,            0.,NA,NA,"",   1.16662E+06,   510.175E+03,   510.175E+03
C:/temp/Job-30.odb,Step-1,Increment      1: Step Time =    1.000,"P-30-1",           934,       44.3010,       47.2203,            0.,NA,NA,"",   927.398E+03,  -274.886E+03,  -274.886E+03
C:/temp/Job-30.odb,Step-1,Increment      1: Step Time =    1.000,"P-30-1",           935,       61.7643,       172.438,            0.,NA,NA,"",   2.70308E+06,   2.37675E+06,   2.37675E+06
C:/temp/Job-30.odb,Step-1,Increment      1: Step Time =    1.000,"P-30-1",           936,       171.826,       136.910,            0.,NA,NA,"",   2.25864E+06,   1.71898E+06,   1.71898E+06
C:/temp/Job-30.odb,Step-1,Increment      1: Step Time =    1.000,"P-30-1",           937,       24.2988,       59.1032,            0.,NA,NA,"",   266.847E+03,  -166.288E+03,  -166.288E+03
C:/temp/Job-30.odb,Step-1,Increment      1: Step Time =    1.000,"P-30-1",           938,       135.480,       24.0946,            0.,NA,NA,"",   2.36226E+06,   2.45422E+06,   2.45422E+06
C:/temp/Job-30.odb,Step-1,Increment      1: Step Time =    1.000,"P-30-1",           939,       54.2889,       185.732,            0.,NA,NA,"",   2.93352E+06,   2.80518E+06,   2.80518E+06
C:/temp/Job-30.odb,Step-1,Increment      1: Step Time =    1.000,"P-30-1",           940,       185.372,       56.7691,            0.,NA,NA,"",   1.82190E+06,   1.78589E+06,   1.78589E+06
C:/temp/Job-30.odb,Step-1,Increment      1: Step Time =    1.000,"P-30-1",           941,       14.5807,       145.848,            0.,NA,NA,"",   247.587E+03,   275.488E+03,   275.488E+03
C:/temp/Job-30.odb,Step-1,Increment      1: Step Time =    1.000,"P-30-1",           942,       144.078,       13.6841,            0.,NA,NA,"",   1.26186E+06,   1.22763E+06,   1.22763E+06
C:/temp/Job-30.odb,Step-1,Increment      1: Step Time =    1.000,"P-30-1",           943,       14.3816,       54.8455,            0.,NA,NA,"",   216.575E+03,   239.584E+03,   239.584E+03
C:/temp/Job-30.odb,Step-1,Increment      1: Step Time =    1.000,"P-30-1",           944,       54.3486,       14.3212,            0.,NA,NA,"",   2.92920E+06,   2.80027E+06,   2.80027E+06
C:/temp/Job-30.odb,Step-1,Increment      1: Step Time =    1.000,"P-30-1",           945,       185.706,       144.605,            0.,NA,NA,"",   1.76987E+06,   1.75168E+06,   1.75168E+06
C:/temp/Job-30.odb,Step-1,Increment      1: Step Time =    1.000,"P-30-1",           946,       146.020,       184.513,            0.,NA,NA,"",   1.40161E+06,   1.36473E+06,   1.36473E+06
C:/temp/Job-30.odb,Step-1,Increment      1: Step Time =    1.000,"P-30-1",           947,       35.9568,       150.299,            0.,NA,NA,"",   680.238E+03,   11.7608E+03,   11.7608E+03
C:/temp/Job-30.odb,Step-1,Increment      1: Step Time =    1.000,"P-30-1",           948,       150.104,       36.0906,            0.,NA,NA,"",   2.62201E+06,   2.59237E+06,   2.59237E+06
C:/temp/Job-30.odb,Step-1,Increment      1: Step Time =    1.000,"P-30-1",           949,       148.406,       166.493,            0.,NA,NA,"",   2.56263E+06,   2.54620E+06,   2.54620E+06
C:/temp/Job-30.odb,Step-1,Increment      1: Step Time =    1.000,"P-30-1",           950,       54.5653,       33.2792,            0.,NA,NA,"",   2.17841E+06,   1.83307E+06,   1.83307E+06
C:/temp/Job-30.odb,Step-1,Increment      1: Step Time =    1.000,"P-30-1",           951,       50.2319,       163.040,            0.,NA,NA,"",   1.74489E+06,   1.38514E+06,   1.38514E+06
C:/temp/Job-30.odb,Step-1,Increment      1: Step Time =    1.000,"P-30-1",           952,       122.849,       181.519,            0.,NA,NA,"",   2.02693E+06,   2.16873E+06,   2.16873E+06
C:/temp/Job-30.odb,Step-1,Increment      1: Step Time =    1.000,"P-30-1",           953,       75.7090,       19.4194,            0.,NA,NA,"",   3.07237E+06,   2.85865E+06,   2.85865E+06
C:/temp/Job-30.odb,Step-1,Increment      1: Step Time =    1.000,"P-30-1",           954,       181.881,       77.6512,            0.,NA,NA,"",   1.77714E+06,   1.60499E+06,   1.60499E+06
C:/temp/Job-30.odb,Step-1,Increment      1: Step Time =    1.000,"P-30-1",           955,       20.1833,       121.918,            0.,NA,NA,"",   466.191E+03,  -506.241E+03,  -506.241E+03
C:/temp/Job-30.odb,Step-1,Increment      1: Step Time =    1.000,"P-30-1",           956,       165.373,       49.7373,            0.,NA,NA,"",   2.38885E+06,   2.06776E+06,   2.06776E+06
C:/temp/Job-30.odb,Step-1,Increment      1: Step Time =    1.000,"P-30-1",           957,       171.225,       100.524,            0.,NA,NA,"",   2.07699E+06,  -2.13099E+06,  -2.13099E+06
C:/temp/Job-30.odb,Step-1,Increment      1: Step Time =    1.000,"P-30-1",           958,       99.7839,       171.949,            0.,NA,NA,"",   4.51252E+06,   4.65647E+06,   4.65647E+06
C:/temp/Job-30.odb,Step-1,Increment      1: Step Time =    1.000,"P-30-1",           959,       100.471,       28.2119,            0.,NA,NA,"",   4.55454E+06,   4.69951E+06,   4.69951E+06
C:/temp/Job-30.odb,Step-1,Increment      1: Step Time =    1.000,"P-30-1",           960,       9.53739,       55.0299,            0.,NA,NA,"",   221.443E+03,   253.377E+03,   253.377E+03
C:/temp/Job-30.odb,Step-1,Increment      1: Step Time =    1.000,"P-30-1",           961,       54.6064,       190.578,            0.,NA,NA,"",   3.05900E+06,   2.99062E+06,   2.99062E+06
C:/temp/Job-30.odb,Step-1,Increment      1: Step Time =    1.000,"P-30-1",           962,       144.349,       9.20384,            0.,NA,NA,"",   843.624E+03,   798.712E+03,   798.712E+03
C:/temp/Job-30.odb,Step-1,Increment      1: Step Time =    1.000,"P-30-1",           963,       190.492,       144.784,            0.,NA,NA,"",   1.48875E+06,   1.60236E+06,   1.60236E+06
C:/temp/Job-30.odb,Step-1,Increment      1: Step Time =    1.000,"P-30-1",           964,       47.5266,       159.999,            0.,NA,NA,"",   1.45417E+06,   1.08993E+06,   1.08993E+06
C:/temp/Job-30.odb,Step-1,Increment      1: Step Time =    1.000,"P-30-1",           965,       40.4249,       45.3026,            0.,NA,NA,"",   971.662E+03,   427.330E+03,   427.330E+03
C:/temp/Job-30.odb,Step-1,Increment      1: Step Time =    1.000,"P-30-1",           966,       32.1348,       152.284,            0.,NA,NA,"",   715.130E+03,   551.913E+03,   551.913E+03
C:/temp/Job-30.odb,Step-1,Increment      1: Step Time =    1.000,"P-30-1",           967,       153.445,       169.878,            0.,NA,NA,"",   2.27144E+06,   2.20430E+06,   2.20430E+06
C:/temp/Job-30.odb,Step-1,Increment      1: Step Time =    1.000,"P-30-1",           968,       52.3360,       31.9952,            0.,NA,NA,"",   2.19516E+06,   1.87205E+06,   1.87205E+06
C:/temp/Job-30.odb,Step-1,Increment      1: Step Time =    1.000,"P-30-1",           969,       38.1312,       49.2912,            0.,NA,NA,"",   723.410E+03,  -24.7173E+03,  -24.7173E+03
C:/temp/Job-30.odb,Step-1,Increment      1: Step Time =    1.000,"P-30-1",           970,       47.1702,       166.619,            0.,NA,NA,"",   1.97118E+06,   1.67898E+06,   1.67898E+06
C:/temp/Job-30.odb,Step-1,Increment      1: Step Time =    1.000,"P-30-1",           971,       100.243,       32.1416,            0.,NA,NA,"",   5.64474E+06,   5.75108E+06,   5.75108E+06
C:/temp/Job-30.odb,Step-1,Increment      1: Step Time =    1.000,"P-30-1",           972,       167.554,       100.303,            0.,NA,NA,"",   3.31725E+06,  -3.36959E+06,  -3.36959E+06
C:/temp/Job-30.odb,Step-1,Increment      1: Step Time =    1.000,"P-30-1",           973,       99.8837,       167.803,            0.,NA,NA,"",   5.66900E+06,   5.77757E+06,   5.77757E+06
C:/temp/Job-30.odb,Step-1,Increment      1: Step Time =    1.000,"P-30-1",           974,       49.6525,       153.937,            0.,NA,NA,"",   1.03732E+06,  -304.830E+03,  -304.830E+03
C:/temp/Job-30.odb,Step-1,Increment      1: Step Time =    1.000,"P-30-1",           975,       43.6621,       163.156,            0.,NA,NA,"",   1.62968E+06,   1.35037E+06,   1.35037E+06
C:/temp/Job-30.odb,Step-1,Increment      1: Step Time =    1.000,"P-30-1",           976,       38.0590,       40.2558,            0.,NA,NA,"",   1.29722E+06,   1.08774E+06,   1.08774E+06
C:/temp/Job-30.odb,Step-1,Increment      1: Step Time =    1.000,"P-30-1",           977,       153.986,       9.21556,            0.,NA,NA,"",   917.633E+03,   874.810E+03,   874.810E+03
C:/temp/Job-30.odb,Step-1,Increment      1: Step Time =    1.000,"P-30-1",           978,       190.303,       154.542,            0.,NA,NA,"",   1.26719E+06,   1.33901E+06,   1.33901E+06
C:/temp/Job-30.odb,Step-1,Increment      1: Step Time =    1.000,"P-30-1",           979,       45.3379,       190.739,            0.,NA,NA,"",   3.19318E+06,   3.14812E+06,   3.14812E+06
C:/temp/Job-30.odb,Step-1,Increment      1: Step Time =    1.000,"P-30-1",           980,       9.22263,       45.3359,            0.,NA,NA,"",   682.452E+03,   760.004E+03,   760.004E+03
C:/temp/Job-30.odb,Step-1,Increment      1: Step Time =    1.000,"P-30-1",           981,       147.727,       173.478,            0.,NA,NA,"",   2.22446E+06,   2.20629E+06,   2.20629E+06
C:/temp/Job-30.odb,Step-1,Increment      1: Step Time =    1.000,"P-30-1",           982,       156.461,       165.113,            0.,NA,NA,"",   2.37375E+06,   2.26849E+06,   2.26849E+06
C:/temp/Job-30.odb,Step-1,Increment      1: Step Time =    1.000,"P-30-1",           983,       29.7543,       147.857,            0.,NA,NA,"",   466.503E+03,   206.723E+03,   206.723E+03
C:/temp/Job-30.odb,Step-1,Increment      1: Step Time =    1.000,"P-30-1",           984,       34.5022,       156.776,            0.,NA,NA,"",   1.01972E+06,   843.526E+03,   843.526E+03
C:/temp/Job-30.odb,Step-1,Increment      1: Step Time =    1.000,"P-30-1",           985,       47.6210,       32.7709,            0.,NA,NA,"",   2.02541E+06,   1.72576E+06,   1.72576E+06
C:/temp/Job-30.odb,Step-1,Increment      1: Step Time =    1.000,"P-30-1",           986,       54.2947,       28.2408,            0.,NA,NA,"",   2.46074E+06,   2.16229E+06,   2.16229E+06
C:/temp/Job-30.odb,Step-1,Increment      1: Step Time =    1.000,"P-30-1",           987,       26.7069,       98.6040,            0.,NA,NA,"",   546.163E+03,  -603.025E+03,  -603.025E+03
C:/temp/Job-30.odb,Step-1,Increment      1: Step Time =    1.000,"P-30-1",           988,       164.724,       147.378,            0.,NA,NA,"",   2.37015E+06,   2.01700E+06,   2.01700E+06
C:/temp/Job-30.odb,Step-1,Increment      1: Step Time =    1.000,"P-30-1",           989,       151.502,       31.7131,            0.,NA,NA,"",   2.39406E+06,   2.34865E+06,   2.34865E+06
C:/temp/Job-30.odb,Step-1,Increment      1: Step Time =    1.000,"P-30-1",           990,       169.771,       48.0393,            0.,NA,NA,"",   2.28155E+06,   1.99228E+06,   1.99228E+06
C:/temp/Job-30.odb,Step-1,Increment      1: Step Time =    1.000,"P-30-1",           991,       153.942,       41.1026,            0.,NA,NA,"",   2.57870E+06,   2.49283E+06,   2.49283E+06
C:/temp/Job-30.odb,Step-1,Increment      1: Step Time =    1.000,"P-30-1",           992,       158.621,       48.6255,            0.,NA,NA,"",   2.44634E+06,   2.23316E+06,   2.23316E+06
C:/temp/Job-30.odb,Step-1,Increment      1: Step Time =    1.000,"P-30-1",           993,       25.4248,       103.468,            0.,NA,NA,"",   518.065E+03,  -578.330E+03,  -578.330E+03
C:/temp/Job-30.odb,Step-1,Increment      1: Step Time =    1.000,"P-30-1",           994,       49.7379,       185.917,            0.,NA,NA,"",   2.94888E+06,   2.84629E+06,   2.84629E+06
C:/temp/Job-30.odb,Step-1,Increment      1: Step Time =    1.000,"P-30-1",           995,       184.745,       52.4777,            0.,NA,NA,"",   1.75044E+06,   1.70624E+06,   1.70624E+06
C:/temp/Job-30.odb,Step-1,Increment      1: Step Time =    1.000,"P-30-1",           996,       185.428,       149.424,            0.,NA,NA,"",   1.66203E+06,   1.64185E+06,   1.64185E+06
C:/temp/Job-30.odb,Step-1,Increment      1: Step Time =    1.000,"P-30-1",           997,       149.766,       183.308,            0.,NA,NA,"",   1.48070E+06,   1.43253E+06,   1.43253E+06
C:/temp/Job-30.odb,Step-1,Increment      1: Step Time =    1.000,"P-30-1",           998,       13.8403,       50.0830,            0.,NA,NA,"",   434.955E+03,   481.367E+03,   481.367E+03
C:/temp/Job-30.odb,Step-1,Increment      1: Step Time =    1.000,"P-30-1",           999,       49.6188,       14.7335,            0.,NA,NA,"",   2.92206E+06,   2.80910E+06,   2.80910E+06
C:/temp/Job-30.odb,Step-1,Increment      1: Step Time =    1.000,"P-30-1",          1000,       14.2516,       150.523,            0.,NA,NA,"",   465.623E+03,   513.871E+03,   513.871E+03
C:/temp/Job-30.odb,Step-1,Increment      1: Step Time =    1.000,"P-30-1",          1001,       148.712,       13.5286,            0.,NA,NA,"",   1.24494E+06,   1.19760E+06,   1.19760E+06
C:/temp/Job-30.odb,Step-1,Increment      1: Step Time =    1.000,"P-30-1",          1002,       166.334,       151.127,            0.,NA,NA,"",   2.38184E+06,   2.06835E+06,   2.06835E+06
C:/temp/Job-30.odb,Step-1,Increment      1: Step Time =    1.000,"P-30-1",          1003,       164.430,       155.397,            0.,NA,NA,"",   2.37118E+06,   2.11131E+06,   2.11131E+06
C:/temp/Job-30.odb,Step-1,Increment      1: Step Time =    1.000,"P-30-1",          1004,       31.1881,       45.6042,            0.,NA,NA,"",   814.802E+03,   693.746E+03,   693.746E+03
C:/temp/Job-30.odb,Step-1,Increment      1: Step Time =    1.000,"P-30-1",          1005,       48.2485,       174.772,            0.,NA,NA,"",   2.47627E+06,   2.25161E+06,   2.25161E+06
C:/temp/Job-30.odb,Step-1,Increment      1: Step Time =    1.000,"P-30-1",          1006,       31.3913,       99.6844,            0.,NA,NA,"",   677.119E+03,  -710.508E+03,  -710.508E+03
C:/temp/Job-30.odb,Step-1,Increment      1: Step Time =    1.000,"P-30-1",          1007,       161.848,       165.970,            0.,NA,NA,"",   2.14569E+06,   2.00692E+06,   2.00692E+06
C:/temp/Job-30.odb,Step-1,Increment      1: Step Time =    1.000,"P-30-1",          1008,       36.8999,       161.372,            0.,NA,NA,"",   1.37875E+06,   1.19032E+06,   1.19032E+06
C:/temp/Job-30.odb,Step-1,Increment      1: Step Time =    1.000,"P-30-1",          1009,       38.3615,       35.8605,            0.,NA,NA,"",   1.60640E+06,   1.41597E+06,   1.41597E+06
C:/temp/Job-30.odb,Step-1,Increment      1: Step Time =    1.000,"P-30-1",          1010,       153.153,       174.856,            0.,NA,NA,"",   1.97859E+06,   1.91631E+06,   1.91631E+06
C:/temp/Job-30.odb,Step-1,Increment      1: Step Time =    1.000,"P-30-1",          1011,       27.8944,       154.020,            0.,NA,NA,"",   752.405E+03,   681.992E+03,   681.992E+03
C:/temp/Job-30.odb,Step-1,Increment      1: Step Time =    1.000,"P-30-1",          1012,       46.3142,       29.0172,            0.,NA,NA,"",   2.22758E+06,   1.97723E+06,   1.97723E+06
C:/temp/Job-30.odb,Step-1,Increment      1: Step Time =    1.000,"P-30-1",          1013,       38.4909,       154.695,            0.,NA,NA,"",   951.734E+03,   457.266E+03,   457.266E+03
C:/temp/Job-30.odb,Step-1,Increment      1: Step Time =    1.000,"P-30-1",          1014,       48.8918,       38.8594,            0.,NA,NA,"",   1.57934E+06,   1.21197E+06,   1.21197E+06
C:/temp/Job-30.odb,Step-1,Increment      1: Step Time =    1.000,"P-30-1",          1015,       148.532,       28.0878,            0.,NA,NA,"",   2.30454E+06,   2.28503E+06,   2.28503E+06
C:/temp/Job-30.odb,Step-1,Increment      1: Step Time =    1.000,"P-30-1",          1016,       154.973,       36.5624,            0.,NA,NA,"",   2.45819E+06,   2.36959E+06,   2.36959E+06
C:/temp/Job-30.odb,Step-1,Increment      1: Step Time =    1.000,"P-30-1",          1017,       162.262,       46.0782,            0.,NA,NA,"",   2.40767E+06,   2.15300E+06,   2.15300E+06
C:/temp/Job-30.odb,Step-1,Increment      1: Step Time =    1.000,"P-30-1",          1018,       188.464,       46.7251,            0.,NA,NA,"",   1.39234E+06,   1.43564E+06,   1.43564E+06
C:/temp/Job-30.odb,Step-1,Increment      1: Step Time =    1.000,"P-30-1",          1019,       151.931,       188.201,            0.,NA,NA,"",   1.10280E+06,   1.05326E+06,   1.05326E+06
C:/temp/Job-30.odb,Step-1,Increment      1: Step Time =    1.000,"P-30-1",          1020,       44.8158,       10.1737,            0.,NA,NA,"",   3.14863E+06,   3.09928E+06,   3.09928E+06
C:/temp/Job-30.odb,Step-1,Increment      1: Step Time =    1.000,"P-30-1",          1021,       9.60603,       155.012,            0.,NA,NA,"",   695.002E+03,   772.999E+03,   772.999E+03
C:/temp/Job-30.odb,Step-1,Increment      1: Step Time =    1.000,"P-30-1",          1022,       33.8247,       36.1910,            0.,NA,NA,"",   1.50977E+06,   1.38616E+06,   1.38616E+06
C:/temp/Job-30.odb,Step-1,Increment      1: Step Time =    1.000,"P-30-1",          1023,       39.3072,       166.817,            0.,NA,NA,"",   1.81757E+06,   1.62478E+06,   1.62478E+06
C:/temp/Job-30.odb,Step-1,Increment      1: Step Time =    1.000,"P-30-1",          1024,       173.142,       148.952,            0.,NA,NA,"",   2.22189E+06,   1.93152E+06,   1.93152E+06
C:/temp/Job-30.odb,Step-1,Increment      1: Step Time =    1.000,"P-30-1",          1025,       26.2216,       39.1907,            0.,NA,NA,"",   1.18876E+06,   1.15842E+06,   1.15842E+06
C:/temp/Job-30.odb,Step-1,Increment      1: Step Time =    1.000,"P-30-1",          1026,       42.4387,       177.543,            0.,NA,NA,"",   2.51577E+06,   2.36880E+06,   2.36880E+06
C:/temp/Job-30.odb,Step-1,Increment      1: Step Time =    1.000,"P-30-1",          1027,       164.635,       169.635,            0.,NA,NA,"",   1.90840E+06,   1.79521E+06,   1.79521E+06
C:/temp/Job-30.odb,Step-1,Increment      1: Step Time =    1.000,"P-30-1",          1028,       32.8588,       163.002,            0.,NA,NA,"",   1.43570E+06,   1.31789E+06,   1.31789E+06
C:/temp/Job-30.odb,Step-1,Increment      1: Step Time =    1.000,"P-30-1",          1029,       38.0834,       31.2895,            0.,NA,NA,"",   1.92255E+06,   1.75944E+06,   1.75944E+06
C:/temp/Job-30.odb,Step-1,Increment      1: Step Time =    1.000,"P-30-1",          1030,       143.442,       22.9021,            0.,NA,NA,"",   2.03698E+06,   2.04628E+06,   2.04628E+06
C:/temp/Job-30.odb,Step-1,Increment      1: Step Time =    1.000,"P-30-1",          1031,       174.836,       48.3555,            0.,NA,NA,"",   2.11788E+06,   1.87686E+06,   1.87686E+06
C:/temp/Job-30.odb,Step-1,Increment      1: Step Time =    1.000,"P-30-1",          1032,       183.741,       48.3796,            0.,NA,NA,"",   1.70388E+06,   1.64488E+06,   1.64488E+06
C:/temp/Job-30.odb,Step-1,Increment      1: Step Time =    1.000,"P-30-1",          1033,       153.305,       181.764,            0.,NA,NA,"",   1.56703E+06,   1.51003E+06,   1.51003E+06
C:/temp/Job-30.odb,Step-1,Increment      1: Step Time =    1.000,"P-30-1",          1034,       44.8724,       15.2714,            0.,NA,NA,"",   2.89593E+06,   2.80191E+06,   2.80191E+06
C:/temp/Job-30.odb,Step-1,Increment      1: Step Time =    1.000,"P-30-1",          1035,       14.0924,       155.078,            0.,NA,NA,"",   713.557E+03,   777.381E+03,   777.381E+03
C:/temp/Job-30.odb,Step-1,Increment      1: Step Time =    1.000,"P-30-1",          1036,       164.537,       159.777,            0.,NA,NA,"",   2.25405E+06,   2.05331E+06,   2.05331E+06
C:/temp/Job-30.odb,Step-1,Increment      1: Step Time =    1.000,"P-30-1",          1037,       29.8969,       36.4368,            0.,NA,NA,"",   1.43845E+06,   1.36981E+06,   1.36981E+06
C:/temp/Job-30.odb,Step-1,Increment      1: Step Time =    1.000,"P-30-1",          1038,       37.7220,       172.359,            0.,NA,NA,"",   2.18600E+06,   2.04619E+06,   2.04619E+06
C:/temp/Job-30.odb,Step-1,Increment      1: Step Time =    1.000,"P-30-1",          1039,       157.166,       45.4080,            0.,NA,NA,"",   2.49550E+06,   2.33141E+06,   2.33141E+06
C:/temp/Job-30.odb,Step-1,Increment      1: Step Time =    1.000,"P-30-1",          1040,       152.517,       26.9367,            0.,NA,NA,"",   2.11829E+06,   2.06503E+06,   2.06503E+06
C:/temp/Job-30.odb,Step-1,Increment      1: Step Time =    1.000,"P-30-1",          1041,       49.9436,       23.9453,            0.,NA,NA,"",   2.57126E+06,   2.34465E+06,   2.34465E+06
C:/temp/Job-30.odb,Step-1,Increment      1: Step Time =    1.000,"P-30-1",          1042,       23.0783,       152.250,            0.,NA,NA,"",   595.749E+03,   587.625E+03,   587.625E+03
C:/temp/Job-30.odb,Step-1,Increment      1: Step Time =    1.000,"P-30-1",          1043,       36.9818,       24.6651,            0.,NA,NA,"",   2.36129E+06,   2.25092E+06,   2.25092E+06
C:/temp/Job-30.odb,Step-1,Increment      1: Step Time =    1.000,"P-30-1",          1044,       26.4780,       161.057,            0.,NA,NA,"",   1.20490E+06,   1.17332E+06,   1.17332E+06
C:/temp/Job-30.odb,Step-1,Increment      1: Step Time =    1.000,"P-30-1",          1045,       161.988,       172.852,            0.,NA,NA,"",   1.85826E+06,   1.76162E+06,   1.76162E+06
C:/temp/Job-30.odb,Step-1,Increment      1: Step Time =    1.000,"P-30-1",          1046,       160.116,       36.4917,            0.,NA,NA,"",   2.28480E+06,   2.14754E+06,   2.14754E+06
C:/temp/Job-30.odb,Step-1,Increment      1: Step Time =    1.000,"P-30-1",          1047,       173.249,       159.426,            0.,NA,NA,"",   1.96379E+06,   1.79581E+06,   1.79581E+06
C:/temp/Job-30.odb,Step-1,Increment      1: Step Time =    1.000,"P-30-1",          1048,       151.736,       21.3524,            0.,NA,NA,"",   1.77413E+06,   1.72000E+06,   1.72000E+06
C:/temp/Job-30.odb,Step-1,Increment      1: Step Time =    1.000,"P-30-1",          1049,       175.942,       50.9669,            0.,NA,NA,"",   2.14462E+06,   1.89384E+06,   1.89384E+06
C:/temp/Job-30.odb,Step-1,Increment      1: Step Time =    1.000,"P-30-1",          1050,       160.095,       28.7358,            0.,NA,NA,"",   1.99257E+06,   1.89542E+06,   1.89542E+06
C:/temp/Job-30.odb,Step-1,Increment      1: Step Time =    1.000,"P-30-1",          1051,       173.632,       39.9008,            0.,NA,NA,"",   1.92670E+06,   1.77076E+06,   1.77076E+06
C:/temp/Job-30.odb,Step-1,Increment      1: Step Time =    1.000,"P-30-1",          1052,       176.363,       143.230,            0.,NA,NA,"",   2.22474E+06,   1.90606E+06,   1.90606E+06
C:/temp/Job-30.odb,Step-1,Increment      1: Step Time =    1.000,"P-30-1",          1053,       20.9787,       48.8698,            0.,NA,NA,"",   515.036E+03,   521.822E+03,   521.822E+03
C:/temp/Job-30.odb,Step-1,Increment      1: Step Time =    1.000,"P-30-1",          1054,       165.581,       163.790,            0.,NA,NA,"",   2.10574E+06,   1.94452E+06,   1.94452E+06
C:/temp/Job-30.odb,Step-1,Increment      1: Step Time =    1.000,"P-30-1",          1055,       179.560,       49.9092,            0.,NA,NA,"",   1.96024E+06,   1.79434E+06,   1.79434E+06
C:/temp/Job-30.odb,Step-1,Increment      1: Step Time =    1.000,"P-30-1",          1056,       37.1483,       176.915,            0.,NA,NA,"",   2.44828E+06,   2.34467E+06,   2.34467E+06
C:/temp/Job-30.odb,Step-1,Increment      1: Step Time =    1.000,"P-30-1",          1057,       26.1078,       36.0931,            0.,NA,NA,"",   1.38100E+06,   1.35271E+06,   1.35271E+06
C:/temp/Job-30.odb,Step-1,Increment      1: Step Time =    1.000,"P-30-1",          1058,       173.019,       163.199,            0.,NA,NA,"",   1.85837E+06,   1.72587E+06,   1.72587E+06
C:/temp/Job-30.odb,Step-1,Increment      1: Step Time =    1.000,"P-30-1",          1059,       155.858,       54.1199,            0.,NA,NA,"",   2.21623E+06,   2.04717E+06,   2.04717E+06
C:/temp/Job-30.odb,Step-1,Increment      1: Step Time =    1.000,"P-30-1",          1060,       159.303,       183.278,            0.,NA,NA,"",   1.39001E+06,   1.32738E+06,   1.32738E+06
C:/temp/Job-30.odb,Step-1,Increment      1: Step Time =    1.000,"P-30-1",          1061,       183.707,       38.4223,            0.,NA,NA,"",   1.44231E+06,   1.41677E+06,   1.41677E+06
C:/temp/Job-30.odb,Step-1,Increment      1: Step Time =    1.000,"P-30-1",          1062,       40.1936,       15.7847,            0.,NA,NA,"",   2.86382E+06,   2.78990E+06,   2.78990E+06
C:/temp/Job-30.odb,Step-1,Increment      1: Step Time =    1.000,"P-30-1",          1063,       14.2304,       159.589,            0.,NA,NA,"",   981.923E+03,   1.05769E+06,   1.05769E+06
C:/temp/Job-30.odb,Step-1,Increment      1: Step Time =    1.000,"P-30-1",          1064,       166.294,       40.0766,            0.,NA,NA,"",   2.18883E+06,   1.99375E+06,   1.99375E+06
C:/temp/Job-30.odb,Step-1,Increment      1: Step Time =    1.000,"P-30-1",          1065,       167.869,       172.534,            0.,NA,NA,"",   1.69895E+06,   1.60883E+06,   1.60883E+06
C:/temp/Job-30.odb,Step-1,Increment      1: Step Time =    1.000,"P-30-1",          1066,       23.6416,       164.979,            0.,NA,NA,"",   1.44637E+06,   1.45360E+06,   1.45360E+06
C:/temp/Job-30.odb,Step-1,Increment      1: Step Time =    1.000,"P-30-1",          1067,       32.1814,       24.7099,            0.,NA,NA,"",   2.28621E+06,   2.21043E+06,   2.21043E+06
C:/temp/Job-30.odb,Step-1,Increment      1: Step Time =    1.000,"P-30-1",          1068,       164.418,       30.8693,            0.,NA,NA,"",   1.95331E+06,   1.83808E+06,   1.83808E+06
C:/temp/Job-30.odb,Step-1,Increment      1: Step Time =    1.000,"P-30-1",          1069,       160.162,       155.113,            0.,NA,NA,"",   2.45519E+06,   2.24170E+06,   2.24170E+06
C:/temp/Job-30.odb,Step-1,Increment      1: Step Time =    1.000,"P-30-1",          1070,       18.2562,       36.7816,            0.,NA,NA,"",   1.25471E+06,   1.30572E+06,   1.30572E+06
C:/temp/Job-30.odb,Step-1,Increment      1: Step Time =    1.000,"P-30-1",          1071,       171.209,       36.8346,            0.,NA,NA,"",   1.91886E+06,   1.77414E+06,   1.77414E+06
C:/temp/Job-30.odb,Step-1,Increment      1: Step Time =    1.000,"P-30-1",          1072,       25.4461,       47.4594,            0.,NA,NA,"",   639.844E+03,   600.637E+03,   600.637E+03
C:/temp/Job-30.odb,Step-1,Increment      1: Step Time =    1.000,"P-30-1",          1073,       54.1675,       175.787,            0.,NA,NA,"",   2.63629E+06,   2.37931E+06,   2.37931E+06
C:/temp/Job-30.odb,Step-1,Increment      1: Step Time =    1.000,"P-30-1",          1074,       33.5100,       172.020,            0.,NA,NA,"",   2.07948E+06,   1.98517E+06,   1.98517E+06
C:/temp/Job-30.odb,Step-1,Increment      1: Step Time =    1.000,"P-30-1",          1075,       29.7813,       33.2006,            0.,NA,NA,"",   1.65861E+06,   1.59329E+06,   1.59329E+06
C:/temp/Job-30.odb,Step-1,Increment      1: Step Time =    1.000,"P-30-1",          1076,       162.708,       186.969,            0.,NA,NA,"",   1.17780E+06,   1.12731E+06,   1.12731E+06
C:/temp/Job-30.odb,Step-1,Increment      1: Step Time =    1.000,"P-30-1",          1077,       186.961,       35.3927,            0.,NA,NA,"",   1.26456E+06,   1.26986E+06,   1.26986E+06
C:/temp/Job-30.odb,Step-1,Increment      1: Step Time =    1.000,"P-30-1",          1078,       169.941,       169.390,            0.,NA,NA,"",   1.74601E+06,   1.64718E+06,   1.64718E+06
C:/temp/Job-30.odb,Step-1,Increment      1: Step Time =    1.000,"P-30-1",          1079,       152.614,       17.7273,            0.,NA,NA,"",   1.52692E+06,   1.47247E+06,   1.47247E+06
C:/temp/Job-30.odb,Step-1,Increment      1: Step Time =    1.000,"P-30-1",          1080,       169.569,       165.484,            0.,NA,NA,"",   1.92086E+06,   1.78581E+06,   1.78581E+06
C:/temp/Job-30.odb,Step-1,Increment      1: Step Time =    1.000,"P-30-1",          1081,       45.0687,       20.2260,            0.,NA,NA,"",   2.67215E+06,   2.52650E+06,   2.52650E+06
C:/temp/Job-30.odb,Step-1,Increment      1: Step Time =    1.000,"P-30-1",          1082,       18.3053,       155.383,            0.,NA,NA,"",   758.125E+03,   799.312E+03,   799.312E+03
C:/temp/Job-30.odb,Step-1,Increment      1: Step Time =    1.000,"P-30-1",          1083,       151.377,       178.309,            0.,NA,NA,"",   1.81062E+06,   1.75812E+06,   1.75812E+06
C:/temp/Job-30.odb,Step-1,Increment      1: Step Time =    1.000,"P-30-1",          1084,       176.066,       154.683,            0.,NA,NA,"",   1.98245E+06,   1.80207E+06,   1.80207E+06
C:/temp/Job-30.odb,Step-1,Increment      1: Step Time =    1.000,"P-30-1",          1085,       26.1976,       53.3470,            0.,NA,NA,"",   366.205E+03,   190.584E+03,   190.584E+03
C:/temp/Job-30.odb,Step-1,Increment      1: Step Time =    1.000,"P-30-1",          1086,       153.334,       13.5921,            0.,NA,NA,"",   1.23920E+06,   1.18632E+06,   1.18632E+06
C:/temp/Job-30.odb,Step-1,Increment      1: Step Time =    1.000,"P-30-1",          1087,       18.2502,       41.0909,            0.,NA,NA,"",   981.278E+03,   1.02579E+06,   1.02579E+06
C:/temp/Job-30.odb,Step-1,Increment      1: Step Time =    1.000,"P-30-1",          1088,       41.4697,       186.289,            0.,NA,NA,"",   2.97540E+06,   2.90563E+06,   2.90563E+06
C:/temp/Job-30.odb,Step-1,Increment      1: Step Time =    1.000,"P-30-1",          1089,       175.160,       34.3577,            0.,NA,NA,"",   1.69253E+06,   1.59515E+06,   1.59515E+06
C:/temp/Job-30.odb,Step-1,Increment      1: Step Time =    1.000,"P-30-1",          1090,       167.815,       185.447,            0.,NA,NA,"",   1.20896E+06,   1.16302E+06,   1.16302E+06
C:/temp/Job-30.odb,Step-1,Increment      1: Step Time =    1.000,"P-30-1",          1091,       183.362,       33.2128,            0.,NA,NA,"",   1.34884E+06,   1.32665E+06,   1.32665E+06
C:/temp/Job-30.odb,Step-1,Increment      1: Step Time =    1.000,"P-30-1",          1092,       35.5342,       16.0055,            0.,NA,NA,"",   2.83739E+06,   2.78140E+06,   2.78140E+06
C:/temp/Job-30.odb,Step-1,Increment      1: Step Time =    1.000,"P-30-1",          1093,       14.8331,       164.104,            0.,NA,NA,"",   1.27999E+06,   1.36080E+06,   1.36080E+06
C:/temp/Job-30.odb,Step-1,Increment      1: Step Time =    1.000,"P-30-1",          1094,       27.9999,       27.4641,            0.,NA,NA,"",   2.04297E+06,    2.0046E+06,    2.0046E+06
C:/temp/Job-30.odb,Step-1,Increment      1: Step Time =    1.000,"P-30-1",          1095,       29.6048,       170.745,            0.,NA,NA,"",   1.93193E+06,   1.87639E+06,   1.87639E+06
C:/temp/Job-30.odb,Step-1,Increment      1: Step Time =    1.000,"P-30-1",          1096,       175.752,       169.222,            0.,NA,NA,"",   1.57677E+06,   1.50519E+06,   1.50519E+06
C:/temp/Job-30.odb,Step-1,Increment      1: Step Time =    1.000,"P-30-1",          1097,       157.974,       14.0256,            0.,NA,NA,"",   1.24287E+06,   1.18824E+06,   1.18824E+06
C:/temp/Job-30.odb,Step-1,Increment      1: Step Time =    1.000,"P-30-1",          1098,       168.477,       29.8162,            0.,NA,NA,"",   1.78145E+06,   1.67759E+06,   1.67759E+06
C:/temp/Job-30.odb,Step-1,Increment      1: Step Time =    1.000,"P-30-1",          1099,       163.607,       25.9867,            0.,NA,NA,"",   1.77795E+06,   1.68875E+06,   1.68875E+06
C:/temp/Job-30.odb,Step-1,Increment      1: Step Time =    1.000,"P-30-1",          1100,       180.542,       154.148,            0.,NA,NA,"",   1.79728E+06,   1.68659E+06,   1.68659E+06
C:/temp/Job-30.odb,Step-1,Increment      1: Step Time =    1.000,"P-30-1",          1101,       22.6454,       172.347,            0.,NA,NA,"",   1.95772E+06,   1.97491E+06,   1.97491E+06
C:/temp/Job-30.odb,Step-1,Increment      1: Step Time =    1.000,"P-30-1",          1102,       26.7585,       22.3101,            0.,NA,NA,"",   2.41116E+06,   2.39229E+06,   2.39229E+06
C:/temp/Job-30.odb,Step-1,Increment      1: Step Time =    1.000,"P-30-1",          1103,       176.806,       163.972,            0.,NA,NA,"",   1.68038E+06,   1.58906E+06,   1.58906E+06
C:/temp/Job-30.odb,Step-1,Increment      1: Step Time =    1.000,"P-30-1",          1104,       13.9687,       36.6790,            0.,NA,NA,"",   1.23396E+06,   1.32041E+06,   1.32041E+06
C:/temp/Job-30.odb,Step-1,Increment      1: Step Time =    1.000,"P-30-1",          1105,       17.8878,       45.3264,            0.,NA,NA,"",   715.046E+03,   754.450E+03,   754.450E+03
C:/temp/Job-30.odb,Step-1,Increment      1: Step Time =    1.000,"P-30-1",          1106,       44.9122,       181.837,            0.,NA,NA,"",   2.76088E+06,   2.63277E+06,   2.63277E+06
C:/temp/Job-30.odb,Step-1,Increment      1: Step Time =    1.000,"P-30-1",          1107,       37.6776,       185.038,            0.,NA,NA,"",   2.90915E+06,   2.85524E+06,   2.85524E+06
C:/temp/Job-30.odb,Step-1,Increment      1: Step Time =    1.000,"P-30-1",          1108,       165.665,       182.863,            0.,NA,NA,"",   1.33619E+06,   1.27934E+06,   1.27934E+06
C:/temp/Job-30.odb,Step-1,Increment      1: Step Time =    1.000,"P-30-1",          1109,       180.746,       35.1532,            0.,NA,NA,"",   1.47890E+06,   1.43090E+06,   1.43090E+06
C:/temp/Job-30.odb,Step-1,Increment      1: Step Time =    1.000,"P-30-1",          1110,       35.4412,       20.2896,            0.,NA,NA,"",   2.58169E+06,   2.50585E+06,   2.50585E+06
C:/temp/Job-30.odb,Step-1,Increment      1: Step Time =    1.000,"P-30-1",          1111,       18.5916,       163.469,            0.,NA,NA,"",   1.27892E+06,   1.32669E+06,   1.32669E+06
C:/temp/Job-30.odb,Step-1,Increment      1: Step Time =    1.000,"P-30-1",          1112,       175.916,       174.642,            0.,NA,NA,"",   1.40930E+06,   1.36055E+06,   1.36055E+06
C:/temp/Job-30.odb,Step-1,Increment      1: Step Time =    1.000,"P-30-1",          1113,       180.966,       159.197,            0.,NA,NA,"",   1.63128E+06,   1.56190E+06,   1.56190E+06
C:/temp/Job-30.odb,Step-1,Increment      1: Step Time =    1.000,"P-30-1",          1114,       161.135,       19.4553,            0.,NA,NA,"",   1.50874E+06,   1.44153E+06,   1.44153E+06
C:/temp/Job-30.odb,Step-1,Increment      1: Step Time =    1.000,"P-30-1",          1115,       162.588,       14.7250,            0.,NA,NA,"",   1.24552E+06,   1.19350E+06,   1.19350E+06
C:/temp/Job-30.odb,Step-1,Increment      1: Step Time =    1.000,"P-30-1",          1116,       35.2274,       11.0202,            0.,NA,NA,"",   3.14741E+06,   3.11689E+06,   3.11689E+06
C:/temp/Job-30.odb,Step-1,Increment      1: Step Time =    1.000,"P-30-1",          1117,       10.3822,       164.676,            0.,NA,NA,"",   1.26845E+06,   1.38291E+06,   1.38291E+06
C:/temp/Job-30.odb,Step-1,Increment      1: Step Time =    1.000,"P-30-1",          1118,       171.206,       184.828,            0.,NA,NA,"",   1.18723E+06,   1.14779E+06,   1.14779E+06
C:/temp/Job-30.odb,Step-1,Increment      1: Step Time =    1.000,"P-30-1",          1119,       12.9549,       173.879,            0.,NA,NA,"",   1.95315E+06,   2.07113E+06,   2.07113E+06
C:/temp/Job-30.odb,Step-1,Increment      1: Step Time =    1.000,"P-30-1",          1120,       182.816,       29.2236,            0.,NA,NA,"",   1.29618E+06,   1.27485E+06,   1.27485E+06
C:/temp/Job-30.odb,Step-1,Increment      1: Step Time =    1.000,"P-30-1",          1121,       25.9806,       13.2032,            0.,NA,NA,"",   3.02198E+06,   3.01827E+06,   3.01827E+06
C:/temp/Job-30.odb,Step-1,Increment      1: Step Time =    1.000,"P-30-1",          1122,       173.254,       31.4269,            0.,NA,NA,"",   1.67275E+06,   1.57971E+06,   1.57971E+06
C:/temp/Job-30.odb,Step-1,Increment      1: Step Time =    1.000,"P-30-1",          1123,       175.930,       29.1400,            0.,NA,NA,"",   1.50528E+06,   1.44192E+06,   1.44192E+06
C:/temp/Job-30.odb,Step-1,Increment      1: Step Time =    1.000,"P-30-1",          1124,       45.4828,       186.308,            0.,NA,NA,"",   2.97752E+06,   2.89051E+06,   2.89051E+06
C:/temp/Job-30.odb,Step-1,Increment      1: Step Time =    1.000,"P-30-1",          1125,       13.6369,       45.3747,            0.,NA,NA,"",   692.030E+03,   756.488E+03,   756.488E+03
C:/temp/Job-30.odb,Step-1,Increment      1: Step Time =    1.000,"P-30-1",          1126,       177.369,       37.5130,            0.,NA,NA,"",   1.68802E+06,   1.59321E+06,   1.59321E+06
C:/temp/Job-30.odb,Step-1,Increment      1: Step Time =    1.000,"P-30-1",          1127,       34.9897,       23.1817,            0.,NA,NA,"",   2.41794E+06,   2.32696E+06,   2.32696E+06
C:/temp/Job-30.odb,Step-1,Increment      1: Step Time =    1.000,"P-30-1",          1128,       21.4645,       162.755,            0.,NA,NA,"",   1.26214E+06,   1.28739E+06,   1.28739E+06
C:/temp/Job-30.odb,Step-1,Increment      1: Step Time =    1.000,"P-30-1",          1129,       165.588,       176.162,            0.,NA,NA,"",   1.62854E+06,   1.54836E+06,   1.54836E+06
C:/temp/Job-30.odb,Step-1,Increment      1: Step Time =    1.000,"P-30-1",          1130,       163.676,       9.93112,            0.,NA,NA,"",   998.153E+03,   963.800E+03,   963.800E+03
C:/temp/Job-30.odb,Step-1,Increment      1: Step Time =    1.000,"P-30-1",          1131,       170.956,       189.693,            0.,NA,NA,"",   1.00194E+06,   977.416E+03,   977.416E+03
C:/temp/Job-30.odb,Step-1,Increment      1: Step Time =    1.000,"P-30-1",          1132,       9.83420,       175.058,            0.,NA,NA,"",   1.99306E+06,   2.14375E+06,   2.14375E+06
C:/temp/Job-30.odb,Step-1,Increment      1: Step Time =    1.000,"P-30-1",          1133,       189.555,       27.1959,            0.,NA,NA,"",   1.10247E+06,   1.10365E+06,   1.10365E+06
C:/temp/Job-30.odb,Step-1,Increment      1: Step Time =    1.000,"P-30-1",          1134,       24.8829,       10.0312,            0.,NA,NA,"",   3.24375E+06,   3.24579E+06,   3.24579E+06
C:/temp/Job-30.odb,Step-1,Increment      1: Step Time =    1.000,"P-30-1",          1135,       175.507,       179.633,            0.,NA,NA,"",   1.28139E+06,   1.24338E+06,   1.24338E+06
C:/temp/Job-30.odb,Step-1,Increment      1: Step Time =    1.000,"P-30-1",          1136,       26.2414,       17.6134,            0.,NA,NA,"",   2.73820E+06,   2.72735E+06,   2.72735E+06
C:/temp/Job-30.odb,Step-1,Increment      1: Step Time =    1.000,"P-30-1",          1137,       17.3885,       173.320,            0.,NA,NA,"",   1.95914E+06,   2.03176E+06,   2.03176E+06
C:/temp/Job-30.odb,Step-1,Increment      1: Step Time =    1.000,"P-30-1",          1138,       35.8862,       189.303,            0.,NA,NA,"",   3.16566E+06,   3.13731E+06,   3.13731E+06
C:/temp/Job-30.odb,Step-1,Increment      1: Step Time =    1.000,"P-30-1",          1139,       9.80217,       35.7460,            0.,NA,NA,"",   1.23999E+06,   1.35605E+06,   1.35605E+06
C:/temp/Job-30.odb,Step-1,Increment      1: Step Time =    1.000,"P-30-1",          1140,       172.214,       27.8070,            0.,NA,NA,"",   1.58944E+06,   1.51055E+06,   1.51055E+06
C:/temp/Job-30.odb,Step-1,Increment      1: Step Time =    1.000,"P-30-1",          1141,       7.69096,       176.923,            0.,NA,NA,"",   2.05560E+06,   2.23113E+06,   2.23113E+06
C:/temp/Job-30.odb,Step-1,Increment      1: Step Time =    1.000,"P-30-1",          1142,       23.0415,       7.86418,            0.,NA,NA,"",   3.39929E+06,   3.39676E+06,   3.39676E+06
C:/temp/Job-30.odb,Step-1,Increment      1: Step Time =    1.000,"P-30-1",          1143,       171.674,       174.481,            0.,NA,NA,"",   1.53831E+06,   1.46914E+06,   1.46914E+06
C:/temp/Job-30.odb,Step-1,Increment      1: Step Time =    1.000,"P-30-1",          1144,       175.594,       184.684,            0.,NA,NA,"",   1.14436E+06,   1.11619E+06,   1.11619E+06
C:/temp/Job-30.odb,Step-1,Increment      1: Step Time =    1.000,"P-30-1",          1145,       184.856,       24.9624,            0.,NA,NA,"",   1.16787E+06,   1.15870E+06,   1.15870E+06
C:/temp/Job-30.odb,Step-1,Increment      1: Step Time =    1.000,"P-30-1",          1146,       21.1733,       13.0755,            0.,NA,NA,"",   3.04219E+06,   3.05435E+06,   3.05435E+06
C:/temp/Job-30.odb,Step-1,Increment      1: Step Time =    1.000,"P-30-1",          1147,       170.127,       21.6558,            0.,NA,NA,"",   1.45213E+06,   1.38968E+06,   1.38968E+06
C:/temp/Job-30.odb,Step-1,Increment      1: Step Time =    1.000,"P-30-1",          1148,       165.546,       20.6205,            0.,NA,NA,"",   1.49094E+06,   1.42368E+06,   1.42368E+06
C:/temp/Job-30.odb,Step-1,Increment      1: Step Time =    1.000,"P-30-1",          1149,       172.123,       16.7213,            0.,NA,NA,"",   1.23531E+06,   1.19492E+06,   1.19492E+06
C:/temp/Job-30.odb,Step-1,Increment      1: Step Time =    1.000,"P-30-1",          1150,       176.872,       18.5181,            0.,NA,NA,"",   1.22323E+06,   1.19104E+06,   1.19104E+06
C:/temp/Job-30.odb,Step-1,Increment      1: Step Time =    1.000,"P-30-1",          1151,       173.890,       11.4371,            0.,NA,NA,"",   1.04955E+06,   1.02645E+06,   1.02645E+06
C:/temp/Job-30.odb,Step-1,Increment      1: Step Time =    1.000,"P-30-1",          1152,       184.869,       17.7587,            0.,NA,NA,"",   1.09122E+06,   1.07822E+06,   1.07822E+06
C:/temp/Job-30.odb,Step-1,Increment      1: Step Time =    1.000,"P-30-1",          1153,       187.032,       14.1802,            0.,NA,NA,"",   1.03821E+06,   1.02534E+06,   1.02534E+06
C:/temp/Job-30.odb,Step-1,Increment      1: Step Time =    1.000,"P-30-1",          1154,       186.702,       22.0320,            0.,NA,NA,"",   1.10841E+06,   1.10038E+06,   1.10038E+06
C:/temp/Job-30.odb,Step-1,Increment      1: Step Time =    1.000,"P-30-1",          1155,       190.620,       18.5820,            0.,NA,NA,"",   1.05811E+06,   1.04026E+06,   1.04026E+06
C:/temp/Job-30.odb,Step-1,Increment      1: Step Time =    1.000,"P-30-1",          1156,       89.7996,       167.356,            0.,NA,NA,"",   4.55454E+06,   4.61998E+06,   4.61998E+06
C:/temp/Job-30.odb,Step-1,Increment      1: Step Time =    1.000,"P-30-1",          1157,       32.4081,       111.022,            0.,NA,NA,"",   783.709E+03,  -814.303E+03,  -814.303E+03
C:/temp/Job-30.odb,Step-1,Increment      1: Step Time =    1.000,"P-30-1",          1158,       190.207,       164.630,            0.,NA,NA,"",   1.14679E+06,   1.17388E+06,   1.17388E+06
C:/temp/Job-30.odb,Step-1,Increment      1: Step Time =    1.000,"P-30-1",          1159,       57.8486,       27.2140,            0.,NA,NA,"",   2.60661E+06,   2.29656E+06,   2.29656E+06
C:/temp/Job-30.odb,Step-1,Increment      1: Step Time =    1.000,"P-30-1",          1160,       175.548,       54.6940,            0.,NA,NA,"",   2.22469E+06,   1.91295E+06,   1.91295E+06
C:/temp/Job-30.odb,Step-1,Increment      1: Step Time =    1.000,"P-30-1",          1161,       143.325,       175.091,            0.,NA,NA,"",   2.24191E+06,   2.26444E+06,   2.26444E+06
C:/temp/Job-30.odb,Step-1,Increment      1: Step Time =    1.000,"P-30-1",          1162,       25.7135,       143.473,            0.,NA,NA,"",   306.797E+03,  -63.8296E+03,  -63.8296E+03
C:/temp/Job-30.odb,Step-1,Increment      1: Step Time =    1.000,"P-30-1",          1163,       10.9639,       24.6860,            0.,NA,NA,"",   2.02076E+06,   2.15831E+06,   2.15831E+06
C:/temp/Job-30.odb,Step-1,Increment      1: Step Time =    1.000,"P-30-1",          1164,       24.5664,       188.392,            0.,NA,NA,"",   3.14019E+06,   3.14079E+06,   3.14079E+06
C:/temp/Job-30.odb,Step-1,Increment      1: Step Time =    1.000,"P-30-1",          1165,       190.098,       174.759,            0.,NA,NA,"",   1.09224E+06,   1.08475E+06,   1.08475E+06
C:/temp/Job-30.odb,Step-1,Increment      1: Step Time =    1.000,"P-30-1",          1166,       34.2486,       182.501,            0.,NA,NA,"",   2.74909E+06,   2.69423E+06,   2.69423E+06
C:/temp/Job-30.odb,Step-1,Increment      1: Step Time =    1.000,"P-30-1",          1167,       14.5048,       33.1819,            0.,NA,NA,"",   1.46055E+06,   1.54882E+06,   1.54882E+06
C:/temp/Job-30.odb,Step-1,Increment      1: Step Time =    1.000,"P-30-1",          1168,       180.491,       174.618,            0.,NA,NA,"",   1.28818E+06,   1.26034E+06,   1.26034E+06
C:/temp/Job-30.odb,Step-1,Increment      1: Step Time =    1.000,"P-30-1",          1169,       65.7473,       173.086,            0.,NA,NA,"",   2.81131E+06,   2.50391E+06,   2.50391E+06
C:/temp/Job-30.odb,Step-1,Increment      1: Step Time =    1.000,"P-30-1",          1170,       24.9797,       63.7829,            0.,NA,NA,"",   380.590E+03,  -376.731E+03,  -376.731E+03
C:/temp/Job-30.odb,Step-1,Increment      1: Step Time =    1.000,"P-30-1",          1171,       174.769,       134.327,            0.,NA,NA,"",   2.20288E+06,   1.70818E+06,   1.70818E+06
C:/temp/Job-30.odb,Step-1,Increment      1: Step Time =    1.000,"P-30-1",          1172,       9.21983,       184.898,            0.,NA,NA,"",   2.73760E+06,   2.89525E+06,   2.89525E+06
C:/temp/Job-30.odb,Step-1,Increment      1: Step Time =    1.000,"P-30-1",          1173,       185.545,       10.5182,            0.,NA,NA,"",   1.00396E+06,   994.270E+03,   994.270E+03
C:/temp/Job-30.odb,Step-1,Increment      1: Step Time =    1.000,"P-30-1",          1174,       15.0686,       9.35421,            0.,NA,NA,"",   3.33201E+06,   3.36211E+06,   3.36211E+06
C:/temp/Job-30.odb,Step-1,Increment      1: Step Time =    1.000,"P-30-1",          1175,       10.3801,       14.6072,            0.,NA,NA,"",   2.81950E+06,   2.95543E+06,   2.95543E+06
C:/temp/Job-30.odb,Step-1,Increment      1: Step Time =    1.000,"P-30-1",          1176,       180.227,       189.847,            0.,NA,NA,"",   999.199E+03,   988.616E+03,   988.616E+03
C:/temp/Job-30.odb,Step-1,Increment      1: Step Time =    1.000,"P-30-1",          1177,       190.026,       184.848,            0.,NA,NA,"",   1.03922E+06,   1.02332E+06,   1.02332E+06
C:/temp/Job-30.odb,Step-1,Increment      1: Step Time =    1.000,"P-30-1",          1178,       14.4791,       189.529,            0.,NA,NA,"",   3.25151E+06,   3.29516E+06,   3.29516E+06
C:/temp/Job-30.odb,Step-1,Increment      1: Step Time =    1.000,"P-30-1",          1179,       78.5137,       181.088,            0.,NA,NA,"",   3.06810E+06,   2.87436E+06,   2.87436E+06
C:/temp/Job-30.odb,Step-1,Increment      1: Step Time =    1.000,"P-30-1",          1180,       182.115,       120.922,            0.,NA,NA,"",   1.71763E+06,   1.55841E+06,   1.55841E+06
C:/temp/Job-30.odb,Step-1,Increment      1: Step Time =    1.000,"P-30-1",          1181,       180.933,       164.296,            0.,NA,NA,"",   1.49980E+06,   1.45281E+06,   1.45281E+06
C:/temp/Job-30.odb,Step-1,Increment      1: Step Time =    1.000,"P-30-1",          1182,       180.314,       184.731,            0.,NA,NA,"",   1.09664E+06,   1.07903E+06,   1.07903E+06
C:/temp/Job-30.odb,Step-1,Increment      1: Step Time =    1.000,"P-30-1",          1183,       12.8567,       178.698,            0.,NA,NA,"",   2.31057E+06,   2.42967E+06,   2.42967E+06
C:/temp/Job-30.odb,Step-1,Increment      1: Step Time =    1.000,"P-30-1",          1184,       169.169,       133.365,            0.,NA,NA,"",   2.09322E+06,   1.40903E+06,   1.40903E+06
C:/temp/Job-30.odb,Step-1,Increment      1: Step Time =    1.000,"P-30-1",          1185,       63.7599,       170.298,            0.,NA,NA,"",   2.62595E+06,   2.30215E+06,   2.30215E+06
C:/temp/Job-30.odb,Step-1,Increment      1: Step Time =    1.000,"P-30-1",          1186,       132.818,       28.8577,            0.,NA,NA,"",   3.11365E+06,   3.26133E+06,   3.26133E+06
C:/temp/Job-30.odb,Step-1,Increment      1: Step Time =    1.000,"P-30-1",          1187,       30.1446,       63.0605,            0.,NA,NA,"",   541.503E+03,  -551.212E+03,  -551.212E+03
C:/temp/Job-30.odb,Step-1,Increment      1: Step Time =    1.000,"P-30-1",          1188,       185.437,       154.290,            0.,NA,NA,"",   1.54379E+06,   1.52829E+06,   1.52829E+06
C:/temp/Job-30.odb,Step-1,Increment      1: Step Time =    1.000,"P-30-1",          1189,       190.116,       55.9683,            0.,NA,NA,"",   1.53324E+06,   1.63723E+06,   1.63723E+06
C:/temp/Job-30.odb,Step-1,Increment      1: Step Time =    1.000,"P-30-1",          1190,       54.4582,       9.57295,            0.,NA,NA,"",   3.05278E+06,   2.98337E+06,   2.98337E+06
C:/temp/Job-30.odb,Step-1,Increment      1: Step Time =    1.000,"P-30-1",          1191,       143.288,       190.254,            0.,NA,NA,"",   885.634E+03,   845.506E+03,   845.506E+03
C:/temp/Job-30.odb,Step-1,Increment      1: Step Time =    1.000,"P-30-1",          1192,       9.71148,       145.426,            0.,NA,NA,"",   241.021E+03,   275.544E+03,   275.544E+03
C:/temp/Job-30.odb,Step-1,Increment      1: Step Time =    1.000,"P-30-1",          1193,       25.8870,       178.103,            0.,NA,NA,"",   2.40777E+06,   2.39320E+06,   2.39320E+06
C:/temp/Job-30.odb,Step-1,Increment      1: Step Time =    1.000,"P-30-1",          1194,       21.7421,       23.0749,            0.,NA,NA,"",   2.29826E+06,   2.32379E+06,   2.32379E+06
C:/temp/Job-30.odb,Step-1,Increment      1: Step Time =    1.000,"P-30-1",          1195,       24.7322,       107.644,            0.,NA,NA,"",   521.451E+03,  -583.432E+03,  -583.432E+03
C:/temp/Job-30.odb,Step-1,Increment      1: Step Time =    1.000,"P-30-1",          1196,       185.464,       164.468,            0.,NA,NA,"",   1.31577E+06,   1.31141E+06,   1.31141E+06
C:/temp/Job-30.odb,Step-1,Increment      1: Step Time =    1.000,"P-30-1",          1197,       16.4041,       23.8317,            0.,NA,NA,"",   2.17057E+06,   2.24891E+06,   2.24891E+06
C:/temp/Job-30.odb,Step-1,Increment      1: Step Time =    1.000,"P-30-1",          1198,       23.3369,       183.120,            0.,NA,NA,"",   2.77248E+06,   2.78147E+06,   2.78147E+06
C:/temp/Job-30.odb,Step-1,Increment      1: Step Time =    1.000,"P-30-1",          1199,       185.254,       174.676,            0.,NA,NA,"",   1.17561E+06,   1.16477E+06,   1.16477E+06
C:/temp/Job-30.odb,Step-1,Increment      1: Step Time =    1.000,"P-30-1",          1200,       13.8595,       184.286,            0.,NA,NA,"",   2.80938E+06,   2.89441E+06,   2.89441E+06
C:/temp/Job-30.odb,Step-1,Increment      1: Step Time =    1.000,"P-30-1",          1201,       185.135,       184.793,            0.,NA,NA,"",   1.06016E+06,   1.04717E+06,   1.04717E+06
C:/temp/Job-30.odb,Step-1,Increment      1: Step Time =    1.000,"P-30-1",          1202,       15.6139,       14.0569,            0.,NA,NA,"",   2.95851E+06,   3.01577E+06,   3.01577E+06
C:/temp/Job-30.odb,Step-1,Increment      1: Step Time =    1.000,"P-30-1",          1203,       15.9952,       18.9288,            0.,NA,NA,"",   2.55560E+06,   2.63051E+06,   2.63051E+06
C:/temp/Job-30.odb,Step-1,Increment      1: Step Time =    1.000,"P-30-1",          1204,       185.346,       169.589,            0.,NA,NA,"",   1.23696E+06,   1.23037E+06,   1.23037E+06
C:/temp/Job-30.odb,Step-1,Increment      1: Step Time =    1.000,"P-30-1",          1205,       185.196,       179.737,            0.,NA,NA,"",   1.11888E+06,   1.10525E+06,   1.10525E+06
C:/temp/Job-30.odb,Step-1,Increment      1: Step Time =    1.000,"P-30-1",          1206,       22.2543,       27.6446,            0.,NA,NA,"",   1.96367E+06,   1.98646E+06,   1.98646E+06
C:/temp/Job-30.odb,Step-1,Increment      1: Step Time =    1.000,"P-30-1",          1207,       27.8713,       181.569,            0.,NA,NA,"",   2.66658E+06,   2.64258E+06,   2.64258E+06
C:/temp/Job-30.odb,Step-1,Increment      1: Step Time =    1.000,"P-30-1",          1208,       18.6060,       183.775,            0.,NA,NA,"",   2.80855E+06,   2.84934E+06,   2.84934E+06
C:/temp/Job-30.odb,Step-1,Increment      1: Step Time =    1.000,"P-30-1",          1209,       5.00569,       4.93572,            0.,NA,NA,"",   3.72356E+06,   3.87214E+06,   3.87214E+06
C:/temp/Job-30.odb,Step-1,Increment      1: Step Time =    1.000,"P-30-1",          1210,       114.445,       167.413,            0.,NA,NA,"",   5.72635E+06,   5.87448E+06,   5.87448E+06
C:/temp/Job-30.odb,Step-1,Increment      1: Step Time =    1.000,"P-30-1",          1211,       167.859,       86.2453,            0.,NA,NA,"",   2.39292E+06,  -2.36418E+06,  -2.36418E+06
C:/temp/Job-30.odb,Step-1,Increment      1: Step Time =    1.000,"P-30-1",          1212,       85.7349,       32.0140,            0.,NA,NA,"",   3.91403E+06,   3.93044E+06,   3.93044E+06
C:/temp/Job-30.odb,Step-1,Increment      1: Step Time =    1.000,"P-30-1",          1213,       190.950,       14.3600,            0.,NA,NA,"",   1.03226E+06,   1.01478E+06,   1.01478E+06
C:/temp/Job-30.odb,Step-1,Increment      1: Step Time =    1.000,"P-30-1",          1214,       185.090,       189.886,            0.,NA,NA,"",   999.876E+03,   991.034E+03,   991.034E+03
C:/temp/Job-30.odb,Step-1,Increment      1: Step Time =    1.000,"P-30-1",          1215,       80.9811,       169.772,            0.,NA,NA,"",   3.35539E+06,   3.29895E+06,   3.29895E+06
C:/temp/Job-30.odb,Step-1,Increment      1: Step Time =    1.000,"P-30-1",          1216,       74.1285,       28.0480,            0.,NA,NA,"",   2.95938E+06,   2.77386E+06,   2.77386E+06
C:/temp/Job-30.odb,Step-1,Increment      1: Step Time =    1.000,"P-30-1",          1217,       125.780,       172.095,            0.,NA,NA,"",   3.43512E+06,   3.64138E+06,   3.64138E+06
C:/temp/Job-30.odb,Step-1,Increment      1: Step Time =    1.000,"P-30-1",          1218,       172.510,       74.7836,            0.,NA,NA,"",   1.78522E+06,   50.3649E+03,   50.3649E+03
C:/temp/Job-30.odb,Step-1,Increment      1: Step Time =    1.000,"P-30-1",          1219,       94.8381,       171.931,            0.,NA,NA,"",   4.26204E+06,   4.36824E+06,   4.36824E+06
C:/temp/Job-30.odb,Step-1,Increment      1: Step Time =    1.000,"P-30-1",          1220,       105.084,       27.9647,            0.,NA,NA,"",   4.59656E+06,   4.77241E+06,   4.77241E+06
C:/temp/Job-30.odb,Step-1,Increment      1: Step Time =    1.000,"P-30-1",          1221,       171.633,       104.903,            0.,NA,NA,"",   1.92586E+06,  -1.94320E+06,  -1.94320E+06
C:/temp/Job-30.odb,Step-1,Increment      1: Step Time =    1.000,"P-30-1",          1222,       80.3923,       174.994,            0.,NA,NA,"",   3.30484E+06,   3.16573E+06,   3.16573E+06
C:/temp/Job-30.odb,Step-1,Increment      1: Step Time =    1.000,"P-30-1",          1223,       153.029,       45.6622,            0.,NA,NA,"",   2.59313E+06,   2.50513E+06,   2.50513E+06
C:/temp/Job-30.odb,Step-1,Increment      1: Step Time =    1.000,"P-30-1",          1224,       162.580,       179.717,            0.,NA,NA,"",   1.52937E+06,   1.45842E+06,   1.45842E+06
C:/temp/Job-30.odb,Step-1,Increment      1: Step Time =    1.000,"P-30-1",          1225,       185.510,       159.335,            0.,NA,NA,"",   1.42114E+06,   1.41341E+06,   1.41341E+06
C:/temp/Job-30.odb,Step-1,Increment      1: Step Time =    1.000,"P-30-1",          1226,       182.154,       44.5140,            0.,NA,NA,"",   1.68139E+06,   1.60919E+06,   1.60919E+06
C:/temp/Job-30.odb,Step-1,Increment      1: Step Time =    1.000,"P-30-1",          1227,       179.888,       40.9049,            0.,NA,NA,"",   1.67985E+06,   1.59476E+06,   1.59476E+06
C:/temp/Job-30.odb,Step-1,Increment      1: Step Time =    1.000,"P-30-1",          1228,       167.266,       15.6243,            0.,NA,NA,"",   1.24464E+06,   1.19721E+06,   1.19721E+06
C:/temp/Job-30.odb,Step-1,Increment      1: Step Time =    1.000,"P-30-1",          1229,       30.8585,       16.6491,            0.,NA,NA,"",   2.79261E+06,   2.75786E+06,   2.75786E+06
C:/temp/Job-30.odb,Step-1,Increment      1: Step Time =    1.000,"P-30-1",          1230,       142.153,       185.674,            0.,NA,NA,"",   1.32768E+06,   1.31036E+06,   1.31036E+06
C:/temp/Job-30.odb,Step-1,Increment      1: Step Time =    1.000,"P-30-1",          1231,       27.9332,       108.301,            0.,NA,NA,"",   606.707E+03,  -660.938E+03,  -660.938E+03
C:/temp/Job-30.odb,Step-1,Increment      1: Step Time =    1.000,"P-30-1",          1232,       104.496,       176.317,            0.,NA,NA,"",   3.59004E+06,   3.74965E+06,   3.74965E+06
C:/temp/Job-30.odb,Step-1,Increment      1: Step Time =    1.000,"P-30-1",          1233,       174.638,       97.0941,            0.,NA,NA,"",   1.16035E+06,  -1.17802E+06,  -1.17802E+06
C:/temp/Job-30.odb,Step-1,Increment      1: Step Time =    1.000,"P-30-1",          1234,       96.6816,       23.6787,            0.,NA,NA,"",   3.58924E+06,   3.66971E+06,   3.66971E+06
C:/temp/Job-30.odb,Step-1,Increment      1: Step Time =    1.000,"P-30-1",          1235,       73.8111,       22.3905,            0.,NA,NA,"",   3.08628E+06,   2.85747E+06,   2.85747E+06
C:/temp/Job-30.odb,Step-1,Increment      1: Step Time =    1.000,"P-30-1",          1236,       125.663,       178.161,            0.,NA,NA,"",   2.49660E+06,   2.65828E+06,   2.65828E+06
C:/temp/Job-30.odb,Step-1,Increment      1: Step Time =    1.000,"P-30-1",          1237,       178.435,       75.5212,            0.,NA,NA,"",   1.84535E+06,   1.44278E+06,   1.44278E+06
C:/temp/Job-30.odb,Step-1,Increment      1: Step Time =    1.000,"P-30-1",          1238,       159.431,       176.376,            0.,NA,NA,"",   1.76577E+06,   1.68546E+06,   1.68546E+06
C:/temp/Job-30.odb,Step-1,Increment      1: Step Time =    1.000,"P-30-1",          1239,       181.109,       21.6337,            0.,NA,NA,"",   1.20691E+06,   1.18447E+06,   1.18447E+06
C:/temp/Job-30.odb,Step-1,Increment      1: Step Time =    1.000,"P-30-1",          1240,       53.7754,       165.166,            0.,NA,NA,"",   2.00933E+06,   1.65346E+06,   1.65346E+06
C:/temp/Job-30.odb,Step-1,Increment      1: Step Time =    1.000,"P-30-1",          1241,       39.9263,       148.189,            0.,NA,NA,"",   710.092E+03,  -564.811E+03,  -564.811E+03
C:/temp/Job-30.odb,Step-1,Increment      1: Step Time =    1.000,"P-30-1",          1242,       17.0844,       28.3593,            0.,NA,NA,"",   1.83839E+06,   1.91197E+06,   1.91197E+06
C:/temp/Job-30.odb,Step-1,Increment      1: Step Time =    1.000,"P-30-1",          1243,       180.866,       144.230,            0.,NA,NA,"",   2.03212E+06,   1.85485E+06,   1.85485E+06
C:/temp/Job-30.odb,Step-1,Increment      1: Step Time =    1.000,"P-30-1",          1244,       182.316,       134.980,            0.,NA,NA,"",   2.07103E+06,   1.89807E+06,   1.89807E+06
C:/temp/Job-30.odb,Step-1,Increment      1: Step Time =    1.000,"P-30-1",          1245,       27.6109,       174.719,            0.,NA,NA,"",   2.20049E+06,   2.16697E+06,   2.16697E+06
C:/temp/Job-30.odb,Step-1,Increment      1: Step Time =    1.000,"P-30-1",          1246,       109.235,       180.544,            0.,NA,NA,"",   2.64749E+06,   2.79365E+06,   2.79365E+06
C:/temp/Job-30.odb,Step-1,Increment      1: Step Time =    1.000,"P-30-1",          1247,       104.615,       180.861,            0.,NA,NA,"",   2.72540E+06,   2.83725E+06,   2.83725E+06
C:/temp/Job-30.odb,Step-1,Increment      1: Step Time =    1.000,"P-30-1",          1248,       125.786,       183.365,            0.,NA,NA,"",   1.67770E+06,   1.78856E+06,   1.78856E+06
C:/temp/Job-30.odb,Step-1,Increment      1: Step Time =    1.000,"P-30-1",          1249,       176.137,       43.1769,            0.,NA,NA,"",   1.91588E+06,   1.75830E+06,   1.75830E+06
C:/temp/Job-30.odb,Step-1,Increment      1: Step Time =    1.000,"P-30-1",          1250,       181.016,       57.5369,            0.,NA,NA,"",   2.07341E+06,   1.88375E+06,   1.88375E+06
C:/temp/Job-30.odb,Step-1,Increment      1: Step Time =    1.000,"P-30-1",          1251,       13.7294,       40.9127,            0.,NA,NA,"",   956.376E+03,   1.03482E+06,   1.03482E+06
C:/temp/Job-30.odb,Step-1,Increment      1: Step Time =    1.000,"P-30-1",          1252,       16.0044,       168.608,            0.,NA,NA,"",   1.60636E+06,   1.68381E+06,   1.68381E+06
C:/temp/Job-30.odb,Step-1,Increment      1: Step Time =    1.000,"P-30-1",          1253,       102.136,       20.2917,            0.,NA,NA,"",   3.02163E+06,   3.12702E+06,   3.12702E+06
C:/temp/Job-30.odb,Step-1,Increment      1: Step Time =    1.000,"P-30-1",          1254,       148.290,       17.6697,            0.,NA,NA,"",   1.57289E+06,   1.53284E+06,   1.53284E+06
C:/temp/Job-30.odb,Step-1,Increment      1: Step Time =    1.000,"P-30-1",          1255,       178.497,       25.6495,            0.,NA,NA,"",   1.35107E+06,   1.31129E+06,   1.31129E+06
C:/temp/Job-30.odb,Step-1,Increment      1: Step Time =    1.000,"P-30-1",          1256,       63.2672,       18.0740,            0.,NA,NA,"",   2.92322E+06,   2.69547E+06,   2.69547E+06
C:/temp/Job-30.odb,Step-1,Increment      1: Step Time =    1.000,"P-30-1",          1257,       49.7282,       19.4739,            0.,NA,NA,"",   2.75221E+06,   2.58109E+06,   2.58109E+06
C:/temp/Job-30.odb,Step-1,Increment      1: Step Time =    1.000,"P-30-1",          1258,       178.906,       100.938,            0.,NA,NA,"",   615.714E+03,  -33.8695E+03,  -33.8695E+03
C:/temp/Job-30.odb,Step-1,Increment      1: Step Time =    1.000,"P-30-1",          1259,       141.006,       171.341,            0.,NA,NA,"",   2.59212E+06,   2.65677E+06,   2.65677E+06
C:/temp/Job-30.odb,Step-1,Increment      1: Step Time =    1.000,"P-30-1",          1260,       160.655,       53.3670,            0.,NA,NA,"",   2.32417E+06,   2.02318E+06,   2.02318E+06
C:/temp/Job-30.odb,Step-1,Increment      1: Step Time =    1.000,"P-30-1",          1261,       51.1278,       169.471,            0.,NA,NA,"",   2.25480E+06,   1.95029E+06,   1.95029E+06
C:/temp/Job-30.odb,Step-1,Increment      1: Step Time =    1.000,"P-30-1",          1262,       59.3933,       23.5887,            0.,NA,NA,"",   2.76851E+06,   2.48879E+06,   2.48879E+06
C:/temp/Job-30.odb,Step-1,Increment      1: Step Time =    1.000,"P-30-1",          1263,       39.3844,       54.8174,            0.,NA,NA,"",   702.659E+03,  -661.024E+03,  -661.024E+03
C:/temp/Job-30.odb,Step-1,Increment      1: Step Time =    1.000,"P-30-1",          1264,       41.7813,       51.2132,            0.,NA,NA,"",   766.902E+03,  -624.655E+03,  -624.655E+03
C:/temp/Job-30.odb,Step-1,Increment      1: Step Time =    1.000,"P-30-1",          1265,       63.4893,       181.183,            0.,NA,NA,"",   2.92394E+06,   2.68463E+06,   2.68463E+06
C:/temp/Job-30.odb,Step-1,Increment      1: Step Time =    1.000,"P-30-1",          1266,       63.2565,       177.341,            0.,NA,NA,"",   2.87298E+06,   2.59112E+06,   2.59112E+06
C:/temp/Job-30.odb,Step-1,Increment      1: Step Time =    1.000,"P-30-1",          1267,       54.4381,       23.5792,            0.,NA,NA,"",   2.66867E+06,   2.41946E+06,   2.41946E+06
C:/temp/Job-30.odb,Step-1,Increment      1: Step Time =    1.000,"P-30-1",          1268,       59.9489,       29.7242,            0.,NA,NA,"",   2.52343E+06,   2.18838E+06,   2.18838E+06
C:/temp/Job-30.odb,Step-1,Increment      1: Step Time =    1.000,"P-30-1",          1269,       54.6788,       36.2861,            0.,NA,NA,"",   1.91847E+06,   1.54787E+06,   1.54787E+06
C:/temp/Job-30.odb,Step-1,Increment      1: Step Time =    1.000,"P-30-1",          1270,       171.107,       58.0184,            0.,NA,NA,"",   2.30815E+06,   1.86338E+06,   1.86338E+06
C:/temp/Job-30.odb,Step-1,Increment      1: Step Time =    1.000,"P-30-1",          1271,       156.863,       173.655,            0.,NA,NA,"",   1.95485E+06,   1.87292E+06,   1.87292E+06
C:/temp/Job-30.odb,Step-1,Increment      1: Step Time =    1.000,"P-30-1",          1272,       146.532,       162.319,            0.,NA,NA,"",   2.84652E+06,   2.86453E+06,   2.86453E+06
C:/temp/Job-30.odb,Step-1,Increment      1: Step Time =    1.000,"P-30-1",          1273,       87.2917,       180.749,            0.,NA,NA,"",   3.09580E+06,   2.99897E+06,   2.99897E+06
C:/temp/Job-30.odb,Step-1,Increment      1: Step Time =    1.000,"P-30-1",          1274,       144.017,       179.528,            0.,NA,NA,"",   1.85444E+06,   1.84976E+06,   1.84976E+06
C:/temp/Job-30.odb,Step-1,Increment      1: Step Time =    1.000,"P-30-1",          1275,       59.3518,       176.321,            0.,NA,NA,"",   2.76255E+06,   2.48205E+06,   2.48205E+06
C:/temp/Job-30.odb,Step-1,Increment      1: Step Time =    1.000,"P-30-1",          1276,       22.3249,       178.081,            0.,NA,NA,"",   2.38760E+06,   2.40410E+06,   2.40410E+06
C:/temp/Job-30.odb,Step-1,Increment      1: Step Time =    1.000,"P-30-1",          1277,       49.2139,       180.773,            0.,NA,NA,"",   2.75046E+06,   2.59058E+06,   2.59058E+06
C:/temp/Job-30.odb,Step-1,Increment      1: Step Time =    1.000,"P-30-1",          1278,       22.3076,       32.0280,            0.,NA,NA,"",   1.62762E+06,   1.64767E+06,   1.64767E+06
C:/temp/Job-30.odb,Step-1,Increment      1: Step Time =    1.000,"P-30-1",          1279,       45.6808,       24.7784,            0.,NA,NA,"",   2.45780E+06,   2.25765E+06,   2.25765E+06
C:/temp/Job-30.odb,Step-1,Increment      1: Step Time =    1.000,"P-30-1",          1280,       41.6864,       26.0015,            0.,NA,NA,"",   2.32516E+06,   2.15758E+06,   2.15758E+06
C:/temp/Job-30.odb,Step-1,Increment      1: Step Time =    1.000,"P-30-1",          1281,       37.1444,       180.231,            0.,NA,NA,"",   2.61480E+06,   2.53032E+06,   2.53032E+06
C:/temp/Job-30.odb,Step-1,Increment      1: Step Time =    1.000,"P-30-1",          1282,       19.3177,       146.657,            0.,NA,NA,"",   298.794E+03,   303.056E+03,   303.056E+03
C:/temp/Job-30.odb,Step-1,Increment      1: Step Time =    1.000,"P-30-1",          1283,       149.945,       169.945,            0.,NA,NA,"",   2.35574E+06,   2.31786E+06,   2.31786E+06
C:/temp/Job-30.odb,Step-1,Increment      1: Step Time =    1.000,"P-30-1",          1284,       165.083,       35.4008,            0.,NA,NA,"",   2.09261E+06,   1.94348E+06,   1.94348E+06
C:/temp/Job-30.odb,Step-1,Increment      1: Step Time =    1.000,"P-30-1",          1285,       165.637,       45.0537,            0.,NA,NA,"",   2.33952E+06,   2.07713E+06,   2.07713E+06
C:/temp/Job-30.odb,Step-1,Increment      1: Step Time =    1.000,"P-30-1",          1286,       172.788,       45.5719,            0.,NA,NA,"",   2.11589E+06,   1.88592E+06,   1.88592E+06
C:/temp/Job-30.odb,Step-1,Increment      1: Step Time =    1.000,"P-30-1",          1287,       170.293,       42.6385,            0.,NA,NA,"",   2.13455E+06,   1.91945E+06,   1.91945E+06
C:/temp/Job-30.odb,Step-1,Increment      1: Step Time =    1.000,"P-30-1",          1288,       143.457,       29.3651,            0.,NA,NA,"",   2.55658E+06,   2.59167E+06,   2.59167E+06
C:/temp/Job-30.odb,Step-1,Increment      1: Step Time =    1.000,"P-30-1",          1289,       160.216,       32.0929,            0.,NA,NA,"",   2.12173E+06,   2.01071E+06,   2.01071E+06
C:/temp/Job-30.odb,Step-1,Increment      1: Step Time =    1.000,"P-30-1",          1290,       20.0099,       112.997,            0.,NA,NA,"",   426.785E+03,  -487.038E+03,  -487.038E+03
C:/temp/Job-30.odb,Step-1,Increment      1: Step Time =    1.000,"P-30-1",          1291,       18.5132,       95.5821,            0.,NA,NA,"",   360.943E+03,  -409.060E+03,  -409.060E+03
C:/temp/Job-30.odb,Step-1,Increment      1: Step Time =    1.000,"P-30-1",          1292,       17.9433,       49.6547,            0.,NA,NA,"",   468.764E+03,   495.825E+03,   495.825E+03
C:/temp/Job-30.odb,Step-1,Increment      1: Step Time =    1.000,"P-30-1",          1293,       18.0343,       32.4373,            0.,NA,NA,"",   1.54208E+06,   1.60443E+06,   1.60443E+06
C:/temp/Job-30.odb,Step-1,Increment      1: Step Time =    1.000,"P-30-1",          1294,       35.9023,       53.2774,            0.,NA,NA,"",   569.703E+03,  -274.848E+03,  -274.848E+03
C:/temp/Job-30.odb,Step-1,Increment      1: Step Time =    1.000,"P-30-1",          1295,       28.8379,       49.6470,            0.,NA,NA,"",   555.758E+03,   447.372E+03,   447.372E+03
C:/temp/Job-30.odb,Step-1,Increment      1: Step Time =    1.000,"P-30-1",          1296,       38.0356,       27.2650,            0.,NA,NA,"",   2.20146E+06,   2.06568E+06,   2.06568E+06
C:/temp/Job-30.odb,Step-1,Increment      1: Step Time =    1.000,"P-30-1",          1297,       50.7361,       35.2257,            0.,NA,NA,"",   1.90924E+06,   1.56232E+06,   1.56232E+06
C:/temp/Job-30.odb,Step-1,Increment      1: Step Time =    1.000,"P-30-1",          1298,       173.647,       140.667,            0.,NA,NA,"",   2.29975E+06,   1.87615E+06,   1.87615E+06
C:/temp/Job-30.odb,Step-1,Increment      1: Step Time =    1.000,"P-30-1",          1299,       162.030,       150.602,            0.,NA,NA,"",   2.42054E+06,   2.14164E+06,   2.14164E+06
C:/temp/Job-30.odb,Step-1,Increment      1: Step Time =    1.000,"P-30-1",          1300,       159.162,       23.9438,            0.,NA,NA,"",   1.78241E+06,   1.70447E+06,   1.70447E+06
C:/temp/Job-30.odb,Step-1,Increment      1: Step Time =    1.000,"P-30-1",          1301,       155.140,       22.6814,            0.,NA,NA,"",   1.78825E+06,   1.72195E+06,   1.72195E+06
C:/temp/Job-30.odb,Step-1,Increment      1: Step Time =    1.000,"P-30-1",          1302,       172.509,       51.3554,            0.,NA,NA,"",   2.26730E+06,   1.95269E+06,   1.95269E+06
C:/temp/Job-30.odb,Step-1,Increment      1: Step Time =    1.000,"P-30-1",          1303,       152.736,       165.081,            0.,NA,NA,"",   2.47134E+06,   2.40231E+06,   2.40231E+06
C:/temp/Job-30.odb,Step-1,Increment      1: Step Time =    1.000,"P-30-1",          1304,       23.1147,       50.9690,            0.,NA,NA,"",   436.731E+03,   415.543E+03,   415.543E+03
C:/temp/Job-30.odb,Step-1,Increment      1: Step Time =    1.000,"P-30-1",          1305,       148.248,       21.2848,            0.,NA,NA,"",   1.82914E+06,   1.79391E+06,   1.79391E+06
C:/temp/Job-30.odb,Step-1,Increment      1: Step Time =    1.000,"P-30-1",          1306,       146.245,       26.0179,            0.,NA,NA,"",   2.23415E+06,   2.23037E+06,   2.23037E+06
C:/temp/Job-30.odb,Step-1,Increment      1: Step Time =    1.000,"P-30-1",          1307,       156.904,       27.8419,            0.,NA,NA,"",   2.04511E+06,   1.96233E+06,   1.96233E+06
C:/temp/Job-30.odb,Step-1,Increment      1: Step Time =    1.000,"P-30-1",          1308,       50.0634,       27.9466,            0.,NA,NA,"",   2.37910E+06,   2.10658E+06,   2.10658E+06
C:/temp/Job-30.odb,Step-1,Increment      1: Step Time =    1.000,"P-30-1",          1309,       172.396,       171.036,            0.,NA,NA,"",   1.62169E+06,   1.54193E+06,   1.54193E+06
C:/temp/Job-30.odb,Step-1,Increment      1: Step Time =    1.000,"P-30-1",          1310,       34.5824,       47.5382,            0.,NA,NA,"",   752.308E+03,   546.763E+03,   546.763E+03
C:/temp/Job-30.odb,Step-1,Increment      1: Step Time =    1.000,"P-30-1",          1311,       22.3558,       36.4785,            0.,NA,NA,"",   1.31353E+06,   1.32601E+06,   1.32601E+06
C:/temp/Job-30.odb,Step-1,Increment      1: Step Time =    1.000,"P-30-1",          1312,       41.4290,       173.331,            0.,NA,NA,"",   2.28465E+06,   2.10772E+06,   2.10772E+06
C:/temp/Job-30.odb,Step-1,Increment      1: Step Time =    1.000,"P-30-1",          1313,       27.4390,       43.7891,            0.,NA,NA,"",   889.864E+03,   833.217E+03,   833.217E+03
C:/temp/Job-30.odb,Step-1,Increment      1: Step Time =    1.000,"P-30-1",          1314,       43.8379,       35.8308,            0.,NA,NA,"",   1.71987E+06,   1.44758E+06,   1.44758E+06
C:/temp/Job-30.odb,Step-1,Increment      1: Step Time =    1.000,"P-30-1",          1315,       149.672,       23.9472,            0.,NA,NA,"",   1.99156E+06,   1.95165E+06,   1.95165E+06
C:/temp/Job-30.odb,Step-1,Increment      1: Step Time =    1.000,"P-30-1",          1316,       21.8763,       45.6907,            0.,NA,NA,"",   707.513E+03,   711.602E+03,   711.602E+03
C:/temp/Job-30.odb,Step-1,Increment      1: Step Time =    1.000,"P-30-1",          1317,       50.0965,       30.9163,            0.,NA,NA,"",   2.21373E+06,   1.90967E+06,   1.90967E+06
C:/temp/Job-30.odb,Step-1,Increment      1: Step Time =    1.000,"P-30-1",          1318,       23.7829,       148.028,            0.,NA,NA,"",   398.083E+03,   356.542E+03,   356.542E+03
C:/temp/Job-30.odb,Step-1,Increment      1: Step Time =    1.000,"P-30-1",          1319,       22.3071,       156.041,            0.,NA,NA,"",   833.804E+03,   841.664E+03,   841.664E+03
C:/temp/Job-30.odb,Step-1,Increment      1: Step Time =    1.000,"P-30-1",          1320,       22.1004,       159.816,            0.,NA,NA,"",   1.08336E+06,   1.10180E+06,   1.10180E+06
C:/temp/Job-30.odb,Step-1,Increment      1: Step Time =    1.000,"P-30-1",          1321,       39.7787,       181.492,            0.,NA,NA,"",   2.70099E+06,   2.61027E+06,   2.61027E+06
C:/temp/Job-30.odb,Step-1,Increment      1: Step Time =    1.000,"P-30-1",          1322,       26.2312,       168.222,            0.,NA,NA,"",   1.70489E+06,   1.68273E+06,   1.68273E+06
C:/temp/Job-30.odb,Step-1,Increment      1: Step Time =    1.000,"P-30-1",          1323,       172.125,       166.750,            0.,NA,NA,"",   1.78834E+06,   1.67753E+06,   1.67753E+06
C:/temp/Job-30.odb,Step-1,Increment      1: Step Time =    1.000,"P-30-1",          1324,       169.296,       158.637,            0.,NA,NA,"",   2.12677E+06,   1.92075E+06,   1.92075E+06
C:/temp/Job-30.odb,Step-1,Increment      1: Step Time =    1.000,"P-30-1",          1325,       167.870,       154.627,            0.,NA,NA,"",   2.26653E+06,   2.00269E+06,   2.00269E+06
C:/temp/Job-30.odb,Step-1,Increment      1: Step Time =    1.000,"P-30-1",          1326,       172.670,       156.227,            0.,NA,NA,"",   2.08656E+06,   1.87441E+06,   1.87441E+06
C:/temp/Job-30.odb,Step-1,Increment      1: Step Time =    1.000,"P-30-1",          1327,       171.170,       153.416,            0.,NA,NA,"",   2.19262E+06,   1.94194E+06,   1.94194E+06
C:/temp/Job-30.odb,Step-1,Increment      1: Step Time =    1.000,"P-30-1",          1328,       34.7498,       27.0129,            0.,NA,NA,"",   2.16653E+06,   2.06135E+06,   2.06135E+06
C:/temp/Job-30.odb,Step-1,Increment      1: Step Time =    1.000,"P-30-1",          1329,       33.7147,       41.1565,            0.,NA,NA,"",   1.15773E+06,   1.01832E+06,   1.01832E+06
C:/temp/Job-30.odb,Step-1,Increment      1: Step Time =    1.000,"P-30-1",          1330,       36.8504,       43.7257,            0.,NA,NA,"",   1.01994E+06,   807.255E+03,   807.255E+03
C:/temp/Job-30.odb,Step-1,Increment      1: Step Time =    1.000,"P-30-1",          1331,       34.2671,       167.342,            0.,NA,NA,"",   1.75396E+06,   1.63675E+06,   1.63675E+06
C:/temp/Job-30.odb,Step-1,Increment      1: Step Time =    1.000,"P-30-1",          1332,       27.2709,       149.808,            0.,NA,NA,"",   504.435E+03,   420.625E+03,   420.625E+03
C:/temp/Job-30.odb,Step-1,Increment      1: Step Time =    1.000,"P-30-1",          1333,       25.5732,       156.895,            0.,NA,NA,"",   915.531E+03,   888.051E+03,   888.051E+03
C:/temp/Job-30.odb,Step-1,Increment      1: Step Time =    1.000,"P-30-1",          1334,       29.1953,       164.916,            0.,NA,NA,"",   1.52251E+06,   1.46012E+06,   1.46012E+06
