ODB Name,Step,Frame,Part Instance Name,    Node Label,X,Y,Z,Section Name,Material Name,Section Point,       S-Mises,S-Max. In-Plane Principal (Abs),S-Max. Principal (Abs)
C:/temp/Job-31.odb,Step-1,Increment      1: Step Time =    1.000,"P-31-1",             1,       90.0432,       131.462,            0.,NA,NA,"",   2.56005E+06,   2.62034E+06,   2.62034E+06
C:/temp/Job-31.odb,Step-1,Increment      1: Step Time =    1.000,"P-31-1",             2,       77.1167,       123.777,            0.,NA,NA,"",   996.985E+03,   981.448E+03,   981.448E+03
C:/temp/Job-31.odb,Step-1,Increment      1: Step Time =    1.000,"P-31-1",             3,       71.0091,       115.765,            0.,NA,NA,"",   441.105E+03,  -146.045E+03,  -146.045E+03
C:/temp/Job-31.odb,Step-1,Increment      1: Step Time =    1.000,"P-31-1",             4,       67.0242,       101.264,            0.,NA,NA,"",   767.441E+03,  -784.923E+03,  -784.923E+03
C:/temp/Job-31.odb,Step-1,Increment      1: Step Time =    1.000,"P-31-1",             5,       68.1796,       91.2556,            0.,NA,NA,"",   601.853E+03,  -607.231E+03,  -607.231E+03
C:/temp/Job-31.odb,Step-1,Increment      1: Step Time =    1.000,"P-31-1",             6,       72.3009,       82.0623,            0.,NA,NA,"",   413.869E+03,   109.946E+03,   109.946E+03
C:/temp/Job-31.odb,Step-1,Increment      1: Step Time =    1.000,"P-31-1",             7,       83.1364,       71.6342,            0.,NA,NA,"",   1.77130E+06,   1.81118E+06,   1.81118E+06
C:/temp/Job-31.odb,Step-1,Increment      1: Step Time =    1.000,"P-31-1",             8,       92.4808,       67.8680,            0.,NA,NA,"",   2.71278E+06,   2.79516E+06,   2.79516E+06
C:/temp/Job-31.odb,Step-1,Increment      1: Step Time =    1.000,"P-31-1",             9,       107.519,       67.8680,            0.,NA,NA,"",   3.00787E+06,   3.07809E+06,   3.07809E+06
C:/temp/Job-31.odb,Step-1,Increment      1: Step Time =    1.000,"P-31-1",            10,       116.864,       71.6342,            0.,NA,NA,"",   2.21842E+06,   2.26553E+06,   2.26553E+06
C:/temp/Job-31.odb,Step-1,Increment      1: Step Time =    1.000,"P-31-1",            11,       127.699,       82.0623,            0.,NA,NA,"",   546.388E+03,   137.720E+03,   137.720E+03
C:/temp/Job-31.odb,Step-1,Increment      1: Step Time =    1.000,"P-31-1",            12,       131.820,       91.2556,            0.,NA,NA,"",   917.263E+03,  -921.767E+03,  -921.767E+03
C:/temp/Job-31.odb,Step-1,Increment      1: Step Time =    1.000,"P-31-1",            13,       132.976,       101.264,            0.,NA,NA,"",   1.18395E+06,  -1.20076E+06,  -1.20076E+06
C:/temp/Job-31.odb,Step-1,Increment      1: Step Time =    1.000,"P-31-1",            14,       128.991,       115.765,            0.,NA,NA,"",   454.299E+03,  -67.4687E+03,  -67.4687E+03
C:/temp/Job-31.odb,Step-1,Increment      1: Step Time =    1.000,"P-31-1",            15,       122.883,       123.777,            0.,NA,NA,"",   1.30117E+06,   1.30701E+06,   1.30701E+06
C:/temp/Job-31.odb,Step-1,Increment      1: Step Time =    1.000,"P-31-1",            16,       109.957,       131.462,            0.,NA,NA,"",   2.78037E+06,   2.85902E+06,   2.85902E+06
C:/temp/Job-31.odb,Step-1,Increment      1: Step Time =    1.000,"P-31-1",            17,          100.,          133.,            0.,NA,NA,"",   3.02260E+06,   3.10820E+06,   3.10820E+06
C:/temp/Job-31.odb,Step-1,Increment      1: Step Time =    1.000,"P-31-1",            18,          190.,            0.,            0.,NA,NA,"",   997.535E+03,   997.645E+03,   997.645E+03
C:/temp/Job-31.odb,Step-1,Increment      1: Step Time =    1.000,"P-31-1",            19,          180.,            0.,            0.,NA,NA,"",   997.042E+03,   997.097E+03,   997.097E+03
C:/temp/Job-31.odb,Step-1,Increment      1: Step Time =    1.000,"P-31-1",            20,          170.,            0.,            0.,NA,NA,"",   998.416E+03,   998.157E+03,   998.157E+03
C:/temp/Job-31.odb,Step-1,Increment      1: Step Time =    1.000,"P-31-1",            21,          160.,            0.,            0.,NA,NA,"",   991.366E+03,   990.826E+03,   990.826E+03
C:/temp/Job-31.odb,Step-1,Increment      1: Step Time =    1.000,"P-31-1",            22,          150.,            0.,            0.,NA,NA,"",   964.963E+03,   964.326E+03,   964.326E+03
C:/temp/Job-31.odb,Step-1,Increment      1: Step Time =    1.000,"P-31-1",            23,          140.,            0.,            0.,NA,NA,"",   915.483E+03,   914.985E+03,   914.985E+03
C:/temp/Job-31.odb,Step-1,Increment      1: Step Time =    1.000,"P-31-1",            24,          130.,            0.,            0.,NA,NA,"",   852.003E+03,   851.890E+03,   851.890E+03
C:/temp/Job-31.odb,Step-1,Increment      1: Step Time =    1.000,"P-31-1",            25,          120.,            0.,            0.,NA,NA,"",   791.661E+03,   792.343E+03,   792.343E+03
C:/temp/Job-31.odb,Step-1,Increment      1: Step Time =    1.000,"P-31-1",            26,          110.,            0.,            0.,NA,NA,"",   756.991E+03,   758.463E+03,   758.463E+03
C:/temp/Job-31.odb,Step-1,Increment      1: Step Time =    1.000,"P-31-1",            27,          100.,            0.,            0.,NA,NA,"",   768.527E+03,   770.061E+03,   770.061E+03
C:/temp/Job-31.odb,Step-1,Increment      1: Step Time =    1.000,"P-31-1",            28,           90.,            0.,            0.,NA,NA,"",   831.674E+03,   832.577E+03,   832.577E+03
C:/temp/Job-31.odb,Step-1,Increment      1: Step Time =    1.000,"P-31-1",            29,           80.,            0.,            0.,NA,NA,"",   936.294E+03,   936.413E+03,   936.413E+03
C:/temp/Job-31.odb,Step-1,Increment      1: Step Time =    1.000,"P-31-1",            30,           70.,            0.,            0.,NA,NA,"",   1.06309E+06,   1.06292E+06,   1.06292E+06
C:/temp/Job-31.odb,Step-1,Increment      1: Step Time =    1.000,"P-31-1",            31,           60.,            0.,            0.,NA,NA,"",   1.19107E+06,   1.19125E+06,   1.19125E+06
C:/temp/Job-31.odb,Step-1,Increment      1: Step Time =    1.000,"P-31-1",            32,           50.,            0.,            0.,NA,NA,"",   1.29598E+06,   1.29235E+06,   1.29235E+06
C:/temp/Job-31.odb,Step-1,Increment      1: Step Time =    1.000,"P-31-1",            33,           40.,            0.,            0.,NA,NA,"",   1.37156E+06,   1.37019E+06,   1.37019E+06
C:/temp/Job-31.odb,Step-1,Increment      1: Step Time =    1.000,"P-31-1",            34,           30.,            0.,            0.,NA,NA,"",   1.42505E+06,   1.42429E+06,   1.42429E+06
C:/temp/Job-31.odb,Step-1,Increment      1: Step Time =    1.000,"P-31-1",            35,           20.,            0.,            0.,NA,NA,"",   1.48218E+06,   1.48306E+06,   1.48306E+06
C:/temp/Job-31.odb,Step-1,Increment      1: Step Time =    1.000,"P-31-1",            36,           10.,            0.,            0.,NA,NA,"",   1.62152E+06,   1.62571E+06,   1.62571E+06
C:/temp/Job-31.odb,Step-1,Increment      1: Step Time =    1.000,"P-31-1",            37,          200.,            0.,            0.,NA,NA,"",   999.759E+03,   999.525E+03,   999.525E+03
C:/temp/Job-31.odb,Step-1,Increment      1: Step Time =    1.000,"P-31-1",            38,            0.,            0.,            0.,NA,NA,"",   1.98677E+06,   2.07970E+06,   2.07970E+06
C:/temp/Job-31.odb,Step-1,Increment      1: Step Time =    1.000,"P-31-1",            39,          200.,          190.,            0.,NA,NA,"",   1.00127E+06,   1.00036E+06,   1.00036E+06
C:/temp/Job-31.odb,Step-1,Increment      1: Step Time =    1.000,"P-31-1",            40,          200.,          180.,            0.,NA,NA,"",   1.00028E+06,   1.00119E+06,   1.00119E+06
C:/temp/Job-31.odb,Step-1,Increment      1: Step Time =    1.000,"P-31-1",            41,          200.,          170.,            0.,NA,NA,"",   989.654E+03,   1.00164E+06,   1.00164E+06
C:/temp/Job-31.odb,Step-1,Increment      1: Step Time =    1.000,"P-31-1",            42,          200.,          160.,            0.,NA,NA,"",   965.995E+03,   1.00217E+06,   1.00217E+06
C:/temp/Job-31.odb,Step-1,Increment      1: Step Time =    1.000,"P-31-1",            43,          200.,          150.,            0.,NA,NA,"",   930.350E+03,   1.00275E+06,   1.00275E+06
C:/temp/Job-31.odb,Step-1,Increment      1: Step Time =    1.000,"P-31-1",            44,          200.,          140.,            0.,NA,NA,"",   892.855E+03,   1.00296E+06,   1.00296E+06
C:/temp/Job-31.odb,Step-1,Increment      1: Step Time =    1.000,"P-31-1",            45,          200.,          130.,            0.,NA,NA,"",   870.739E+03,   1.00249E+06,   1.00249E+06
C:/temp/Job-31.odb,Step-1,Increment      1: Step Time =    1.000,"P-31-1",            46,          200.,          120.,            0.,NA,NA,"",   871.589E+03,   1.00059E+06,   1.00059E+06
C:/temp/Job-31.odb,Step-1,Increment      1: Step Time =    1.000,"P-31-1",            47,          200.,          110.,            0.,NA,NA,"",   885.936E+03,   997.073E+03,   997.073E+03
C:/temp/Job-31.odb,Step-1,Increment      1: Step Time =    1.000,"P-31-1",            48,          200.,          100.,            0.,NA,NA,"",   894.454E+03,   994.938E+03,   994.938E+03
C:/temp/Job-31.odb,Step-1,Increment      1: Step Time =    1.000,"P-31-1",            49,          200.,           90.,            0.,NA,NA,"",   886.746E+03,   997.150E+03,   997.150E+03
C:/temp/Job-31.odb,Step-1,Increment      1: Step Time =    1.000,"P-31-1",            50,          200.,           80.,            0.,NA,NA,"",   872.113E+03,   1.00036E+06,   1.00036E+06
C:/temp/Job-31.odb,Step-1,Increment      1: Step Time =    1.000,"P-31-1",            51,          200.,           70.,            0.,NA,NA,"",   869.599E+03,   1.00131E+06,   1.00131E+06
C:/temp/Job-31.odb,Step-1,Increment      1: Step Time =    1.000,"P-31-1",            52,          200.,           60.,            0.,NA,NA,"",   892.987E+03,   1.00075E+06,   1.00075E+06
C:/temp/Job-31.odb,Step-1,Increment      1: Step Time =    1.000,"P-31-1",            53,          200.,           50.,            0.,NA,NA,"",   938.668E+03,   1.00908E+06,   1.00908E+06
C:/temp/Job-31.odb,Step-1,Increment      1: Step Time =    1.000,"P-31-1",            54,          200.,           40.,            0.,NA,NA,"",   969.161E+03,   1.00288E+06,   1.00288E+06
C:/temp/Job-31.odb,Step-1,Increment      1: Step Time =    1.000,"P-31-1",            55,          200.,           30.,            0.,NA,NA,"",   990.971E+03,   1.00137E+06,   1.00137E+06
C:/temp/Job-31.odb,Step-1,Increment      1: Step Time =    1.000,"P-31-1",            56,          200.,           20.,            0.,NA,NA,"",   1.00096E+06,   1.00080E+06,   1.00080E+06
C:/temp/Job-31.odb,Step-1,Increment      1: Step Time =    1.000,"P-31-1",            57,          200.,           10.,            0.,NA,NA,"",   1.00150E+06,   1.00027E+06,   1.00027E+06
C:/temp/Job-31.odb,Step-1,Increment      1: Step Time =    1.000,"P-31-1",            58,          200.,          200.,            0.,NA,NA,"",   999.783E+03,   999.565E+03,   999.565E+03
C:/temp/Job-31.odb,Step-1,Increment      1: Step Time =    1.000,"P-31-1",            59,           10.,          200.,            0.,NA,NA,"",   1.62532E+06,   1.62906E+06,   1.62906E+06
C:/temp/Job-31.odb,Step-1,Increment      1: Step Time =    1.000,"P-31-1",            60,           20.,          200.,            0.,NA,NA,"",   1.48540E+06,   1.48650E+06,   1.48650E+06
C:/temp/Job-31.odb,Step-1,Increment      1: Step Time =    1.000,"P-31-1",            61,           30.,          200.,            0.,NA,NA,"",   1.42531E+06,   1.42479E+06,   1.42479E+06
C:/temp/Job-31.odb,Step-1,Increment      1: Step Time =    1.000,"P-31-1",            62,           40.,          200.,            0.,NA,NA,"",   1.36884E+06,   1.36799E+06,   1.36799E+06
C:/temp/Job-31.odb,Step-1,Increment      1: Step Time =    1.000,"P-31-1",            63,           50.,          200.,            0.,NA,NA,"",   1.29236E+06,   1.29131E+06,   1.29131E+06
C:/temp/Job-31.odb,Step-1,Increment      1: Step Time =    1.000,"P-31-1",            64,           60.,          200.,            0.,NA,NA,"",   1.18958E+06,   1.18846E+06,   1.18846E+06
C:/temp/Job-31.odb,Step-1,Increment      1: Step Time =    1.000,"P-31-1",            65,           70.,          200.,            0.,NA,NA,"",   1.06733E+06,   1.06654E+06,   1.06654E+06
C:/temp/Job-31.odb,Step-1,Increment      1: Step Time =    1.000,"P-31-1",            66,           80.,          200.,            0.,NA,NA,"",   941.628E+03,   941.688E+03,   941.688E+03
C:/temp/Job-31.odb,Step-1,Increment      1: Step Time =    1.000,"P-31-1",            67,           90.,          200.,            0.,NA,NA,"",   834.791E+03,   835.853E+03,   835.853E+03
C:/temp/Job-31.odb,Step-1,Increment      1: Step Time =    1.000,"P-31-1",            68,          100.,          200.,            0.,NA,NA,"",   768.383E+03,   770.021E+03,   770.021E+03
C:/temp/Job-31.odb,Step-1,Increment      1: Step Time =    1.000,"P-31-1",            69,          110.,          200.,            0.,NA,NA,"",   753.533E+03,   754.973E+03,   754.973E+03
C:/temp/Job-31.odb,Step-1,Increment      1: Step Time =    1.000,"P-31-1",            70,          120.,          200.,            0.,NA,NA,"",   787.403E+03,   788.039E+03,   788.039E+03
C:/temp/Job-31.odb,Step-1,Increment      1: Step Time =    1.000,"P-31-1",            71,          130.,          200.,            0.,NA,NA,"",   851.498E+03,   851.718E+03,   851.718E+03
C:/temp/Job-31.odb,Step-1,Increment      1: Step Time =    1.000,"P-31-1",            72,          140.,          200.,            0.,NA,NA,"",   923.136E+03,   922.854E+03,   922.854E+03
C:/temp/Job-31.odb,Step-1,Increment      1: Step Time =    1.000,"P-31-1",            73,          150.,          200.,            0.,NA,NA,"",   972.478E+03,   970.499E+03,   970.499E+03
C:/temp/Job-31.odb,Step-1,Increment      1: Step Time =    1.000,"P-31-1",            74,          160.,          200.,            0.,NA,NA,"",   994.600E+03,   994.122E+03,   994.122E+03
C:/temp/Job-31.odb,Step-1,Increment      1: Step Time =    1.000,"P-31-1",            75,          170.,          200.,            0.,NA,NA,"",   999.927E+03,   999.772E+03,   999.772E+03
C:/temp/Job-31.odb,Step-1,Increment      1: Step Time =    1.000,"P-31-1",            76,          180.,          200.,            0.,NA,NA,"",   997.717E+03,   997.728E+03,   997.728E+03
C:/temp/Job-31.odb,Step-1,Increment      1: Step Time =    1.000,"P-31-1",            77,          190.,          200.,            0.,NA,NA,"",   997.684E+03,   997.767E+03,   997.767E+03
C:/temp/Job-31.odb,Step-1,Increment      1: Step Time =    1.000,"P-31-1",            78,            0.,          200.,            0.,NA,NA,"",   1.98741E+06,   2.08273E+06,   2.08273E+06
C:/temp/Job-31.odb,Step-1,Increment      1: Step Time =    1.000,"P-31-1",            79,            0.,           10.,            0.,NA,NA,"",   1.43124E+06,   1.56348E+06,   1.56348E+06
C:/temp/Job-31.odb,Step-1,Increment      1: Step Time =    1.000,"P-31-1",            80,            0.,           20.,            0.,NA,NA,"",   1.20142E+06,   1.33352E+06,   1.33352E+06
C:/temp/Job-31.odb,Step-1,Increment      1: Step Time =    1.000,"P-31-1",            81,            0.,           30.,            0.,NA,NA,"",   1.06375E+06,   1.18968E+06,   1.18968E+06
C:/temp/Job-31.odb,Step-1,Increment      1: Step Time =    1.000,"P-31-1",            82,            0.,           40.,            0.,NA,NA,"",   953.009E+03,   1.06931E+06,   1.06931E+06
C:/temp/Job-31.odb,Step-1,Increment      1: Step Time =    1.000,"P-31-1",            83,            0.,           50.,            0.,NA,NA,"",   848.021E+03,   952.806E+03,   952.806E+03
C:/temp/Job-31.odb,Step-1,Increment      1: Step Time =    1.000,"P-31-1",            84,            0.,           60.,            0.,NA,NA,"",   745.011E+03,   837.298E+03,   837.298E+03
C:/temp/Job-31.odb,Step-1,Increment      1: Step Time =    1.000,"P-31-1",            85,            0.,           70.,            0.,NA,NA,"",   641.572E+03,   721.863E+03,   721.863E+03
C:/temp/Job-31.odb,Step-1,Increment      1: Step Time =    1.000,"P-31-1",            86,            0.,           80.,            0.,NA,NA,"",   546.319E+03,   617.061E+03,   617.061E+03
C:/temp/Job-31.odb,Step-1,Increment      1: Step Time =    1.000,"P-31-1",            87,            0.,           90.,            0.,NA,NA,"",   475.774E+03,   540.538E+03,   540.538E+03
C:/temp/Job-31.odb,Step-1,Increment      1: Step Time =    1.000,"P-31-1",            88,            0.,          100.,            0.,NA,NA,"",   448.845E+03,   511.515E+03,   511.515E+03
C:/temp/Job-31.odb,Step-1,Increment      1: Step Time =    1.000,"P-31-1",            89,            0.,          110.,            0.,NA,NA,"",   475.804E+03,   540.499E+03,   540.499E+03
C:/temp/Job-31.odb,Step-1,Increment      1: Step Time =    1.000,"P-31-1",            90,            0.,          120.,            0.,NA,NA,"",   545.637E+03,   616.246E+03,   616.246E+03
C:/temp/Job-31.odb,Step-1,Increment      1: Step Time =    1.000,"P-31-1",            91,            0.,          130.,            0.,NA,NA,"",   639.607E+03,   719.524E+03,   719.524E+03
C:/temp/Job-31.odb,Step-1,Increment      1: Step Time =    1.000,"P-31-1",            92,            0.,          140.,            0.,NA,NA,"",   748.424E+03,   838.890E+03,   838.890E+03
C:/temp/Job-31.odb,Step-1,Increment      1: Step Time =    1.000,"P-31-1",            93,            0.,          150.,            0.,NA,NA,"",   855.092E+03,   959.312E+03,   959.312E+03
C:/temp/Job-31.odb,Step-1,Increment      1: Step Time =    1.000,"P-31-1",            94,            0.,          160.,            0.,NA,NA,"",   956.745E+03,   1.07343E+06,   1.07343E+06
C:/temp/Job-31.odb,Step-1,Increment      1: Step Time =    1.000,"P-31-1",            95,            0.,          170.,            0.,NA,NA,"",   1.06436E+06,   1.19131E+06,   1.19131E+06
C:/temp/Job-31.odb,Step-1,Increment      1: Step Time =    1.000,"P-31-1",            96,            0.,          180.,            0.,NA,NA,"",   1.19930E+06,   1.33317E+06,   1.33317E+06
C:/temp/Job-31.odb,Step-1,Increment      1: Step Time =    1.000,"P-31-1",            97,            0.,          190.,            0.,NA,NA,"",   1.42898E+06,   1.56331E+06,   1.56331E+06
C:/temp/Job-31.odb,Step-1,Increment      1: Step Time =    1.000,"P-31-1",            98,       97.9474,       62.6450,            0.,NA,NA,"",   2.65483E+06,   2.76808E+06,   2.76808E+06
C:/temp/Job-31.odb,Step-1,Increment      1: Step Time =    1.000,"P-31-1",            99,       190.237,       66.6104,            0.,NA,NA,"",   922.168E+03,   1.02653E+06,   1.02653E+06
C:/temp/Job-31.odb,Step-1,Increment      1: Step Time =    1.000,"P-31-1",           100,       190.642,       135.150,            0.,NA,NA,"",   923.716E+03,   1.02603E+06,   1.02603E+06
C:/temp/Job-31.odb,Step-1,Increment      1: Step Time =    1.000,"P-31-1",           101,       180.861,       136.379,            0.,NA,NA,"",   1.02126E+06,   1.06941E+06,   1.06941E+06
C:/temp/Job-31.odb,Step-1,Increment      1: Step Time =    1.000,"P-31-1",           102,       169.321,       137.757,            0.,NA,NA,"",   1.16989E+06,   1.13373E+06,   1.13373E+06
C:/temp/Job-31.odb,Step-1,Increment      1: Step Time =    1.000,"P-31-1",           103,       157.482,       139.546,            0.,NA,NA,"",   1.35756E+06,   1.23626E+06,   1.23626E+06
C:/temp/Job-31.odb,Step-1,Increment      1: Step Time =    1.000,"P-31-1",           104,       148.152,       135.180,            0.,NA,NA,"",   1.47594E+06,   1.28793E+06,   1.28793E+06
C:/temp/Job-31.odb,Step-1,Increment      1: Step Time =    1.000,"P-31-1",           105,       134.426,       136.675,            0.,NA,NA,"",   1.65260E+06,   1.50486E+06,   1.50486E+06
C:/temp/Job-31.odb,Step-1,Increment      1: Step Time =    1.000,"P-31-1",           106,       125.226,       139.102,            0.,NA,NA,"",   1.74199E+06,   1.71806E+06,   1.71806E+06
C:/temp/Job-31.odb,Step-1,Increment      1: Step Time =    1.000,"P-31-1",           107,       118.766,       137.213,            0.,NA,NA,"",   1.91961E+06,   1.98502E+06,   1.98502E+06
C:/temp/Job-31.odb,Step-1,Increment      1: Step Time =    1.000,"P-31-1",           108,       106.006,       138.578,            0.,NA,NA,"",   2.44188E+06,   2.58052E+06,   2.58052E+06
C:/temp/Job-31.odb,Step-1,Increment      1: Step Time =    1.000,"P-31-1",           109,       94.4934,       137.208,            0.,NA,NA,"",   2.54537E+06,   2.65000E+06,   2.65000E+06
C:/temp/Job-31.odb,Step-1,Increment      1: Step Time =    1.000,"P-31-1",           110,       85.2568,       140.319,            0.,NA,NA,"",   1.84786E+06,   1.92331E+06,   1.92331E+06
C:/temp/Job-31.odb,Step-1,Increment      1: Step Time =    1.000,"P-31-1",           111,       75.0518,       139.484,            0.,NA,NA,"",   1.60647E+06,   1.56894E+06,   1.56894E+06
C:/temp/Job-31.odb,Step-1,Increment      1: Step Time =    1.000,"P-31-1",           112,       63.5540,       136.315,            0.,NA,NA,"",   1.39171E+06,   1.25480E+06,   1.25480E+06
C:/temp/Job-31.odb,Step-1,Increment      1: Step Time =    1.000,"P-31-1",           113,       51.7447,       137.369,            0.,NA,NA,"",   1.21645E+06,   1.10743E+06,   1.10743E+06
C:/temp/Job-31.odb,Step-1,Increment      1: Step Time =    1.000,"P-31-1",           114,       41.3471,       134.227,            0.,NA,NA,"",   977.589E+03,   931.769E+03,   931.769E+03
C:/temp/Job-31.odb,Step-1,Increment      1: Step Time =    1.000,"P-31-1",           115,       33.1969,       136.375,            0.,NA,NA,"",   913.142E+03,   911.951E+03,   911.951E+03
C:/temp/Job-31.odb,Step-1,Increment      1: Step Time =    1.000,"P-31-1",           116,       18.9162,       133.155,            0.,NA,NA,"",   734.148E+03,   793.502E+03,   793.502E+03
C:/temp/Job-31.odb,Step-1,Increment      1: Step Time =    1.000,"P-31-1",           117,       9.82318,       134.162,            0.,NA,NA,"",   703.595E+03,   780.610E+03,   780.610E+03
C:/temp/Job-31.odb,Step-1,Increment      1: Step Time =    1.000,"P-31-1",           118,       9.49426,       124.865,            0.,NA,NA,"",   589.732E+03,   662.857E+03,   662.857E+03
C:/temp/Job-31.odb,Step-1,Increment      1: Step Time =    1.000,"P-31-1",           119,       19.0067,       125.292,            0.,NA,NA,"",   612.122E+03,   675.097E+03,   675.097E+03
C:/temp/Job-31.odb,Step-1,Increment      1: Step Time =    1.000,"P-31-1",           120,       33.8464,       126.190,            0.,NA,NA,"",   715.490E+03,   725.134E+03,   725.134E+03
C:/temp/Job-31.odb,Step-1,Increment      1: Step Time =    1.000,"P-31-1",           121,       43.0746,       125.717,            0.,NA,NA,"",   801.769E+03,   753.698E+03,   753.698E+03
C:/temp/Job-31.odb,Step-1,Increment      1: Step Time =    1.000,"P-31-1",           122,       53.3271,       125.881,            0.,NA,NA,"",   956.874E+03,   820.111E+03,   820.111E+03
C:/temp/Job-31.odb,Step-1,Increment      1: Step Time =    1.000,"P-31-1",           123,       61.2908,       129.551,            0.,NA,NA,"",   1.18733E+06,   1.02382E+06,   1.02382E+06
C:/temp/Job-31.odb,Step-1,Increment      1: Step Time =    1.000,"P-31-1",           124,       72.6838,       126.405,            0.,NA,NA,"",   1.05202E+06,   972.049E+03,   972.049E+03
C:/temp/Job-31.odb,Step-1,Increment      1: Step Time =    1.000,"P-31-1",           125,       126.967,       127.573,            0.,NA,NA,"",   1.41177E+06,   1.35510E+06,   1.35510E+06
C:/temp/Job-31.odb,Step-1,Increment      1: Step Time =    1.000,"P-31-1",           126,       137.826,       126.574,            0.,NA,NA,"",   1.42078E+06,   1.16844E+06,   1.16844E+06
C:/temp/Job-31.odb,Step-1,Increment      1: Step Time =    1.000,"P-31-1",           127,       147.440,       125.647,            0.,NA,NA,"",   1.31895E+06,   1.08266E+06,   1.08266E+06
C:/temp/Job-31.odb,Step-1,Increment      1: Step Time =    1.000,"P-31-1",           128,       156.851,       125.258,            0.,NA,NA,"",   1.17788E+06,   1.03978E+06,   1.03978E+06
C:/temp/Job-31.odb,Step-1,Increment      1: Step Time =    1.000,"P-31-1",           129,       165.659,       124.767,            0.,NA,NA,"",   1.06080E+06,   1.01876E+06,   1.01876E+06
C:/temp/Job-31.odb,Step-1,Increment      1: Step Time =    1.000,"P-31-1",           130,       179.697,       125.991,            0.,NA,NA,"",   960.175E+03,   1.02762E+06,   1.02762E+06
C:/temp/Job-31.odb,Step-1,Increment      1: Step Time =    1.000,"P-31-1",           131,       190.097,       125.323,            0.,NA,NA,"",   894.072E+03,   1.01554E+06,   1.01554E+06
C:/temp/Job-31.odb,Step-1,Increment      1: Step Time =    1.000,"P-31-1",           132,       137.546,       115.527,            0.,NA,NA,"",   858.744E+03,   52.4886E+03,   52.4886E+03
C:/temp/Job-31.odb,Step-1,Increment      1: Step Time =    1.000,"P-31-1",           133,       147.196,       115.803,            0.,NA,NA,"",   961.828E+03,   711.461E+03,   711.461E+03
C:/temp/Job-31.odb,Step-1,Increment      1: Step Time =    1.000,"P-31-1",           134,       156.604,       116.206,            0.,NA,NA,"",   910.612E+03,   805.888E+03,   805.888E+03
C:/temp/Job-31.odb,Step-1,Increment      1: Step Time =    1.000,"P-31-1",           135,       169.561,       114.738,            0.,NA,NA,"",   838.516E+03,   872.785E+03,   872.785E+03
C:/temp/Job-31.odb,Step-1,Increment      1: Step Time =    1.000,"P-31-1",           136,       180.011,       115.403,            0.,NA,NA,"",   854.597E+03,   950.960E+03,   950.960E+03
C:/temp/Job-31.odb,Step-1,Increment      1: Step Time =    1.000,"P-31-1",           137,       189.997,       115.267,            0.,NA,NA,"",   861.226E+03,   990.790E+03,   990.790E+03
C:/temp/Job-31.odb,Step-1,Increment      1: Step Time =    1.000,"P-31-1",           138,       137.136,       106.217,            0.,NA,NA,"",   827.826E+03,  -809.315E+03,  -809.315E+03
C:/temp/Job-31.odb,Step-1,Increment      1: Step Time =    1.000,"P-31-1",           139,       147.771,       104.952,            0.,NA,NA,"",   463.264E+03,   55.4202E+03,   55.4202E+03
C:/temp/Job-31.odb,Step-1,Increment      1: Step Time =    1.000,"P-31-1",           140,       158.851,       103.825,            0.,NA,NA,"",   514.909E+03,   526.923E+03,   526.923E+03
C:/temp/Job-31.odb,Step-1,Increment      1: Step Time =    1.000,"P-31-1",           141,       168.068,       103.936,            0.,NA,NA,"",   641.418E+03,   705.409E+03,   705.409E+03
C:/temp/Job-31.odb,Step-1,Increment      1: Step Time =    1.000,"P-31-1",           142,       180.365,       105.515,            0.,NA,NA,"",   773.888E+03,   883.341E+03,   883.341E+03
C:/temp/Job-31.odb,Step-1,Increment      1: Step Time =    1.000,"P-31-1",           143,       190.002,       105.188,            0.,NA,NA,"",   836.893E+03,   963.426E+03,   963.426E+03
C:/temp/Job-31.odb,Step-1,Increment      1: Step Time =    1.000,"P-31-1",           144,       136.385,       96.0435,            0.,NA,NA,"",   924.764E+03,  -935.756E+03,  -935.756E+03
C:/temp/Job-31.odb,Step-1,Increment      1: Step Time =    1.000,"P-31-1",           145,       144.538,       95.4291,            0.,NA,NA,"",   466.949E+03,  -195.109E+03,  -195.109E+03
C:/temp/Job-31.odb,Step-1,Increment      1: Step Time =    1.000,"P-31-1",           146,       158.376,       94.0452,            0.,NA,NA,"",   567.507E+03,   561.302E+03,   561.302E+03
C:/temp/Job-31.odb,Step-1,Increment      1: Step Time =    1.000,"P-31-1",           147,       168.681,       94.4184,            0.,NA,NA,"",   669.059E+03,   731.785E+03,   731.785E+03
C:/temp/Job-31.odb,Step-1,Increment      1: Step Time =    1.000,"P-31-1",           148,       179.564,       95.4763,            0.,NA,NA,"",   759.227E+03,   866.516E+03,   866.516E+03
C:/temp/Job-31.odb,Step-1,Increment      1: Step Time =    1.000,"P-31-1",           149,       189.949,       95.1215,            0.,NA,NA,"",   836.024E+03,   962.332E+03,   962.332E+03
C:/temp/Job-31.odb,Step-1,Increment      1: Step Time =    1.000,"P-31-1",           150,       138.529,       82.0124,            0.,NA,NA,"",   1.04292E+06,   698.639E+03,   698.639E+03
C:/temp/Job-31.odb,Step-1,Increment      1: Step Time =    1.000,"P-31-1",           151,       148.362,       82.7796,            0.,NA,NA,"",   1.02229E+06,   789.822E+03,   789.822E+03
C:/temp/Job-31.odb,Step-1,Increment      1: Step Time =    1.000,"P-31-1",           152,       159.691,       84.1607,            0.,NA,NA,"",   885.183E+03,   825.826E+03,   825.826E+03
C:/temp/Job-31.odb,Step-1,Increment      1: Step Time =    1.000,"P-31-1",           153,       169.134,       82.0514,            0.,NA,NA,"",   912.707E+03,   926.281E+03,   926.281E+03
C:/temp/Job-31.odb,Step-1,Increment      1: Step Time =    1.000,"P-31-1",           154,       179.470,       85.1570,            0.,NA,NA,"",   847.226E+03,   941.215E+03,   941.215E+03
C:/temp/Job-31.odb,Step-1,Increment      1: Step Time =    1.000,"P-31-1",           155,       190.123,       85.2322,            0.,NA,NA,"",   858.665E+03,   988.368E+03,   988.368E+03
C:/temp/Job-31.odb,Step-1,Increment      1: Step Time =    1.000,"P-31-1",           156,       127.733,       71.5926,            0.,NA,NA,"",   1.44645E+06,   1.37114E+06,   1.37114E+06
C:/temp/Job-31.odb,Step-1,Increment      1: Step Time =    1.000,"P-31-1",           157,       138.674,       73.7191,            0.,NA,NA,"",   1.38943E+06,   1.13306E+06,   1.13306E+06
C:/temp/Job-31.odb,Step-1,Increment      1: Step Time =    1.000,"P-31-1",           158,       147.720,       75.3321,            0.,NA,NA,"",   1.28690E+06,   1.05242E+06,   1.05242E+06
C:/temp/Job-31.odb,Step-1,Increment      1: Step Time =    1.000,"P-31-1",           159,       160.069,       73.5651,            0.,NA,NA,"",   1.15706E+06,   1.05257E+06,   1.05257E+06
C:/temp/Job-31.odb,Step-1,Increment      1: Step Time =    1.000,"P-31-1",           160,       171.269,       74.1178,            0.,NA,NA,"",   1.02551E+06,   1.03208E+06,   1.03208E+06
C:/temp/Job-31.odb,Step-1,Increment      1: Step Time =    1.000,"P-31-1",           161,       180.576,       74.8359,            0.,NA,NA,"",   952.844E+03,   1.02595E+06,   1.02595E+06
C:/temp/Job-31.odb,Step-1,Increment      1: Step Time =    1.000,"P-31-1",           162,       190.625,       75.6848,            0.,NA,NA,"",   887.553E+03,   1.01201E+06,   1.01201E+06
C:/temp/Job-31.odb,Step-1,Increment      1: Step Time =    1.000,"P-31-1",           163,       108.539,       63.9316,            0.,NA,NA,"",   2.64820E+06,   2.75407E+06,   2.75407E+06
C:/temp/Job-31.odb,Step-1,Increment      1: Step Time =    1.000,"P-31-1",           164,       9.80706,       64.5482,            0.,NA,NA,"",   721.366E+03,   798.717E+03,   798.717E+03
C:/temp/Job-31.odb,Step-1,Increment      1: Step Time =    1.000,"P-31-1",           165,       19.7206,       63.8922,            0.,NA,NA,"",   782.198E+03,   837.776E+03,   837.776E+03
C:/temp/Job-31.odb,Step-1,Increment      1: Step Time =    1.000,"P-31-1",           166,       29.7315,       63.9511,            0.,NA,NA,"",   864.190E+03,   881.835E+03,   881.835E+03
C:/temp/Job-31.odb,Step-1,Increment      1: Step Time =    1.000,"P-31-1",           167,       40.1468,       63.9701,            0.,NA,NA,"",   994.360E+03,   956.387E+03,   956.387E+03
C:/temp/Job-31.odb,Step-1,Increment      1: Step Time =    1.000,"P-31-1",           168,       50.3167,       65.0134,            0.,NA,NA,"",   1.14068E+06,   1.03719E+06,   1.03719E+06
C:/temp/Job-31.odb,Step-1,Increment      1: Step Time =    1.000,"P-31-1",           169,       59.8110,       63.3874,            0.,NA,NA,"",   1.34549E+06,   1.20803E+06,   1.20803E+06
C:/temp/Job-31.odb,Step-1,Increment      1: Step Time =    1.000,"P-31-1",           170,       70.6379,       63.9850,            0.,NA,NA,"",   1.49425E+06,   1.39734E+06,   1.39734E+06
C:/temp/Job-31.odb,Step-1,Increment      1: Step Time =    1.000,"P-31-1",           171,       84.9161,       60.1954,            0.,NA,NA,"",   1.84293E+06,   1.91958E+06,   1.91958E+06
C:/temp/Job-31.odb,Step-1,Increment      1: Step Time =    1.000,"P-31-1",           172,       127.462,       59.7769,            0.,NA,NA,"",   1.71169E+06,   1.66367E+06,   1.66367E+06
C:/temp/Job-31.odb,Step-1,Increment      1: Step Time =    1.000,"P-31-1",           173,       136.793,       63.0140,            0.,NA,NA,"",   1.62744E+06,   1.46504E+06,   1.46504E+06
C:/temp/Job-31.odb,Step-1,Increment      1: Step Time =    1.000,"P-31-1",           174,       148.003,       63.0089,            0.,NA,NA,"",   1.49316E+06,   1.31376E+06,   1.31376E+06
C:/temp/Job-31.odb,Step-1,Increment      1: Step Time =    1.000,"P-31-1",           175,       158.572,       63.0024,            0.,NA,NA,"",   1.32587E+06,   1.20839E+06,   1.20839E+06
C:/temp/Job-31.odb,Step-1,Increment      1: Step Time =    1.000,"P-31-1",           176,       167.378,       65.4352,            0.,NA,NA,"",   1.17627E+06,   1.12813E+06,   1.12813E+06
C:/temp/Job-31.odb,Step-1,Increment      1: Step Time =    1.000,"P-31-1",           177,       177.801,       64.4609,            0.,NA,NA,"",   1.05095E+06,   1.08099E+06,   1.08099E+06
C:/temp/Job-31.odb,Step-1,Increment      1: Step Time =    1.000,"P-31-1",           178,       75.8983,       70.5961,            0.,NA,NA,"",   1.31299E+06,   1.29249E+06,   1.29249E+06
C:/temp/Job-31.odb,Step-1,Increment      1: Step Time =    1.000,"P-31-1",           179,       60.5446,       72.7057,            0.,NA,NA,"",   1.09516E+06,   920.284E+03,   920.284E+03
C:/temp/Job-31.odb,Step-1,Increment      1: Step Time =    1.000,"P-31-1",           180,       52.4053,       73.6841,            0.,NA,NA,"",   958.759E+03,   831.498E+03,   831.498E+03
C:/temp/Job-31.odb,Step-1,Increment      1: Step Time =    1.000,"P-31-1",           181,       44.1011,       76.5537,            0.,NA,NA,"",   764.995E+03,   711.618E+03,   711.618E+03
C:/temp/Job-31.odb,Step-1,Increment      1: Step Time =    1.000,"P-31-1",           182,       28.4123,       72.9651,            0.,NA,NA,"",   689.402E+03,   724.630E+03,   724.630E+03
C:/temp/Job-31.odb,Step-1,Increment      1: Step Time =    1.000,"P-31-1",           183,       19.9031,       74.1410,            0.,NA,NA,"",   626.071E+03,   686.184E+03,   686.184E+03
C:/temp/Job-31.odb,Step-1,Increment      1: Step Time =    1.000,"P-31-1",           184,       10.0886,       74.7000,            0.,NA,NA,"",   596.012E+03,   668.800E+03,   668.800E+03
C:/temp/Job-31.odb,Step-1,Increment      1: Step Time =    1.000,"P-31-1",           185,       62.2451,       82.5470,            0.,NA,NA,"",   662.978E+03,   269.851E+03,   269.851E+03
C:/temp/Job-31.odb,Step-1,Increment      1: Step Time =    1.000,"P-31-1",           186,       50.9907,       83.2438,            0.,NA,NA,"",   635.387E+03,   521.485E+03,   521.485E+03
C:/temp/Job-31.odb,Step-1,Increment      1: Step Time =    1.000,"P-31-1",           187,       41.6485,       82.6255,            0.,NA,NA,"",   578.883E+03,   559.653E+03,   559.653E+03
C:/temp/Job-31.odb,Step-1,Increment      1: Step Time =    1.000,"P-31-1",           188,       31.4048,       82.0118,            0.,NA,NA,"",   538.671E+03,   575.759E+03,   575.759E+03
C:/temp/Job-31.odb,Step-1,Increment      1: Step Time =    1.000,"P-31-1",           189,       20.8041,       84.9699,            0.,NA,NA,"",   477.738E+03,   540.701E+03,   540.701E+03
C:/temp/Job-31.odb,Step-1,Increment      1: Step Time =    1.000,"P-31-1",           190,       10.2883,       84.9394,            0.,NA,NA,"",   490.151E+03,   558.913E+03,   558.913E+03
C:/temp/Job-31.odb,Step-1,Increment      1: Step Time =    1.000,"P-31-1",           191,       61.0414,       95.1158,            0.,NA,NA,"",   500.824E+03,  -493.702E+03,  -493.702E+03
C:/temp/Job-31.odb,Step-1,Increment      1: Step Time =    1.000,"P-31-1",           192,       52.7096,       93.4638,            0.,NA,NA,"",   289.601E+03,   84.1044E+03,   84.1044E+03
C:/temp/Job-31.odb,Step-1,Increment      1: Step Time =    1.000,"P-31-1",           193,       41.4649,       93.5643,            0.,NA,NA,"",   298.498E+03,   319.456E+03,   319.456E+03
C:/temp/Job-31.odb,Step-1,Increment      1: Step Time =    1.000,"P-31-1",           194,       31.2717,       97.1186,            0.,NA,NA,"",   328.935E+03,   378.623E+03,   378.623E+03
C:/temp/Job-31.odb,Step-1,Increment      1: Step Time =    1.000,"P-31-1",           195,       20.3685,       95.6899,            0.,NA,NA,"",   392.079E+03,   452.313E+03,   452.313E+03
C:/temp/Job-31.odb,Step-1,Increment      1: Step Time =    1.000,"P-31-1",           196,       10.2178,       95.1299,            0.,NA,NA,"",   428.947E+03,   493.680E+03,   493.680E+03
C:/temp/Job-31.odb,Step-1,Increment      1: Step Time =    1.000,"P-31-1",           197,       62.9056,       106.519,            0.,NA,NA,"",   565.097E+03,  -560.844E+03,  -560.844E+03
C:/temp/Job-31.odb,Step-1,Increment      1: Step Time =    1.000,"P-31-1",           198,       51.7488,       106.242,            0.,NA,NA,"",   276.421E+03,   113.963E+03,   113.963E+03
C:/temp/Job-31.odb,Step-1,Increment      1: Step Time =    1.000,"P-31-1",           199,       40.4911,       104.727,            0.,NA,NA,"",   283.549E+03,   313.446E+03,   313.446E+03
C:/temp/Job-31.odb,Step-1,Increment      1: Step Time =    1.000,"P-31-1",           200,       32.2242,       103.046,            0.,NA,NA,"",   328.517E+03,   378.054E+03,   378.054E+03
C:/temp/Job-31.odb,Step-1,Increment      1: Step Time =    1.000,"P-31-1",           201,       20.0046,       106.052,            0.,NA,NA,"",   401.322E+03,   462.392E+03,   462.392E+03
C:/temp/Job-31.odb,Step-1,Increment      1: Step Time =    1.000,"P-31-1",           202,       10.0626,       105.320,            0.,NA,NA,"",   430.935E+03,   495.838E+03,   495.838E+03
C:/temp/Job-31.odb,Step-1,Increment      1: Step Time =    1.000,"P-31-1",           203,       52.9659,       116.015,            0.,NA,NA,"",   609.633E+03,   473.881E+03,   473.881E+03
C:/temp/Job-31.odb,Step-1,Increment      1: Step Time =    1.000,"P-31-1",           204,       39.7236,       113.470,            0.,NA,NA,"",   459.871E+03,   468.776E+03,   468.776E+03
C:/temp/Job-31.odb,Step-1,Increment      1: Step Time =    1.000,"P-31-1",           205,       31.2691,       115.900,            0.,NA,NA,"",   492.195E+03,   533.101E+03,   533.101E+03
C:/temp/Job-31.odb,Step-1,Increment      1: Step Time =    1.000,"P-31-1",           206,       20.0127,       116.218,            0.,NA,NA,"",   493.600E+03,   557.366E+03,   557.366E+03
C:/temp/Job-31.odb,Step-1,Increment      1: Step Time =    1.000,"P-31-1",           207,       9.80451,       115.281,            0.,NA,NA,"",   492.775E+03,   561.729E+03,   561.729E+03
C:/temp/Job-31.odb,Step-1,Increment      1: Step Time =    1.000,"P-31-1",           208,       188.735,       11.9913,            0.,NA,NA,"",   1.00384E+06,   1.00562E+06,   1.00562E+06
C:/temp/Job-31.odb,Step-1,Increment      1: Step Time =    1.000,"P-31-1",           209,       178.411,       10.0884,            0.,NA,NA,"",   1.01295E+06,   1.01303E+06,   1.01303E+06
C:/temp/Job-31.odb,Step-1,Increment      1: Step Time =    1.000,"P-31-1",           210,       168.675,       9.40573,            0.,NA,NA,"",   1.02143E+06,   1.01902E+06,   1.01902E+06
C:/temp/Job-31.odb,Step-1,Increment      1: Step Time =    1.000,"P-31-1",           211,       159.102,       9.04056,            0.,NA,NA,"",   1.02244E+06,   1.01809E+06,   1.01809E+06
C:/temp/Job-31.odb,Step-1,Increment      1: Step Time =    1.000,"P-31-1",           212,       149.322,       13.1179,            0.,NA,NA,"",   1.05120E+06,   1.04097E+06,   1.04097E+06
C:/temp/Job-31.odb,Step-1,Increment      1: Step Time =    1.000,"P-31-1",           213,       135.070,       9.40080,            0.,NA,NA,"",   975.880E+03,   972.752E+03,   972.752E+03
C:/temp/Job-31.odb,Step-1,Increment      1: Step Time =    1.000,"P-31-1",           214,       125.267,       9.87743,            0.,NA,NA,"",   942.750E+03,   944.833E+03,   944.833E+03
C:/temp/Job-31.odb,Step-1,Increment      1: Step Time =    1.000,"P-31-1",           215,       115.232,       10.0051,            0.,NA,NA,"",   911.976E+03,   920.864E+03,   920.864E+03
C:/temp/Job-31.odb,Step-1,Increment      1: Step Time =    1.000,"P-31-1",           216,       105.187,       10.0350,            0.,NA,NA,"",   905.746E+03,   918.708E+03,   918.708E+03
C:/temp/Job-31.odb,Step-1,Increment      1: Step Time =    1.000,"P-31-1",           217,       95.1420,       9.96629,            0.,NA,NA,"",   940.484E+03,   951.082E+03,   951.082E+03
C:/temp/Job-31.odb,Step-1,Increment      1: Step Time =    1.000,"P-31-1",           218,       85.2842,       9.71110,            0.,NA,NA,"",   1.00856E+06,   1.01232E+06,   1.01232E+06
C:/temp/Job-31.odb,Step-1,Increment      1: Step Time =    1.000,"P-31-1",           219,       75.6839,       9.44079,            0.,NA,NA,"",   1.09355E+06,   1.09070E+06,   1.09070E+06
C:/temp/Job-31.odb,Step-1,Increment      1: Step Time =    1.000,"P-31-1",           220,       66.4581,       10.0400,            0.,NA,NA,"",   1.18700E+06,   1.17920E+06,   1.17920E+06
C:/temp/Job-31.odb,Step-1,Increment      1: Step Time =    1.000,"P-31-1",           221,       51.2206,       13.2915,            0.,NA,NA,"",   1.31470E+06,   1.29964E+06,   1.29964E+06
C:/temp/Job-31.odb,Step-1,Increment      1: Step Time =    1.000,"P-31-1",           222,       43.0186,       10.0796,            0.,NA,NA,"",   1.34644E+06,   1.33863E+06,   1.33863E+06
C:/temp/Job-31.odb,Step-1,Increment      1: Step Time =    1.000,"P-31-1",           223,       29.8542,       7.96356,            0.,NA,NA,"",   1.41823E+06,   1.41757E+06,   1.41757E+06
C:/temp/Job-31.odb,Step-1,Increment      1: Step Time =    1.000,"P-31-1",           224,       21.6337,       8.33537,            0.,NA,NA,"",   1.46722E+06,   1.47392E+06,   1.47392E+06
C:/temp/Job-31.odb,Step-1,Increment      1: Step Time =    1.000,"P-31-1",           225,       12.2281,       11.7695,            0.,NA,NA,"",   1.48880E+06,   1.53557E+06,   1.53557E+06
C:/temp/Job-31.odb,Step-1,Increment      1: Step Time =    1.000,"P-31-1",           226,       192.130,       20.7806,            0.,NA,NA,"",   1.00109E+06,   1.00637E+06,   1.00637E+06
C:/temp/Job-31.odb,Step-1,Increment      1: Step Time =    1.000,"P-31-1",           227,       178.620,       25.7963,            0.,NA,NA,"",   1.04659E+06,   1.04809E+06,   1.04809E+06
C:/temp/Job-31.odb,Step-1,Increment      1: Step Time =    1.000,"P-31-1",           228,       167.087,       18.9894,            0.,NA,NA,"",   1.07077E+06,   1.06116E+06,   1.06116E+06
C:/temp/Job-31.odb,Step-1,Increment      1: Step Time =    1.000,"P-31-1",           229,       156.289,       25.0069,            0.,NA,NA,"",   1.15550E+06,   1.12857E+06,   1.12857E+06
C:/temp/Job-31.odb,Step-1,Increment      1: Step Time =    1.000,"P-31-1",           230,       147.760,       21.3142,            0.,NA,NA,"",   1.13434E+06,   1.11289E+06,   1.11289E+06
C:/temp/Job-31.odb,Step-1,Increment      1: Step Time =    1.000,"P-31-1",           231,       135.969,       19.4786,            0.,NA,NA,"",   1.11181E+06,   1.10133E+06,   1.10133E+06
C:/temp/Job-31.odb,Step-1,Increment      1: Step Time =    1.000,"P-31-1",           232,       125.680,       20.1298,            0.,NA,NA,"",   1.09514E+06,   1.10246E+06,   1.10246E+06
C:/temp/Job-31.odb,Step-1,Increment      1: Step Time =    1.000,"P-31-1",           233,       115.426,       20.1572,            0.,NA,NA,"",   1.06015E+06,   1.08817E+06,   1.08817E+06
C:/temp/Job-31.odb,Step-1,Increment      1: Step Time =    1.000,"P-31-1",           234,       105.393,       20.1258,            0.,NA,NA,"",   1.04966E+06,   1.08969E+06,   1.08969E+06
C:/temp/Job-31.odb,Step-1,Increment      1: Step Time =    1.000,"P-31-1",           235,       95.0834,       20.3041,            0.,NA,NA,"",   1.08785E+06,   1.12276E+06,   1.12276E+06
C:/temp/Job-31.odb,Step-1,Increment      1: Step Time =    1.000,"P-31-1",           236,       85.1004,       19.8994,            0.,NA,NA,"",   1.15642E+06,   1.17176E+06,   1.17176E+06
C:/temp/Job-31.odb,Step-1,Increment      1: Step Time =    1.000,"P-31-1",           237,       75.6943,       18.9081,            0.,NA,NA,"",   1.22214E+06,   1.21563E+06,   1.21563E+06
C:/temp/Job-31.odb,Step-1,Increment      1: Step Time =    1.000,"P-31-1",           238,       65.8759,       20.8038,            0.,NA,NA,"",   1.30247E+06,   1.27864E+06,   1.27864E+06
C:/temp/Job-31.odb,Step-1,Increment      1: Step Time =    1.000,"P-31-1",           239,       51.9317,       20.2289,            0.,NA,NA,"",   1.34716E+06,   1.31950E+06,   1.31950E+06
C:/temp/Job-31.odb,Step-1,Increment      1: Step Time =    1.000,"P-31-1",           240,       40.6370,       24.9441,            0.,NA,NA,"",   1.35950E+06,   1.33685E+06,   1.33685E+06
C:/temp/Job-31.odb,Step-1,Increment      1: Step Time =    1.000,"P-31-1",           241,       32.8044,       18.2646,            0.,NA,NA,"",   1.37681E+06,   1.37231E+06,   1.37231E+06
C:/temp/Job-31.odb,Step-1,Increment      1: Step Time =    1.000,"P-31-1",           242,       22.4180,       22.6930,            0.,NA,NA,"",   1.33593E+06,   1.36210E+06,   1.36210E+06
C:/temp/Job-31.odb,Step-1,Increment      1: Step Time =    1.000,"P-31-1",           243,       9.63888,       21.9659,            0.,NA,NA,"",   1.25885E+06,   1.35169E+06,   1.35169E+06
C:/temp/Job-31.odb,Step-1,Increment      1: Step Time =    1.000,"P-31-1",           244,       191.444,       29.3171,            0.,NA,NA,"",   997.083E+03,   1.01139E+06,   1.01139E+06
C:/temp/Job-31.odb,Step-1,Increment      1: Step Time =    1.000,"P-31-1",           245,       180.974,       33.0336,            0.,NA,NA,"",   1.04597E+06,   1.05403E+06,   1.05403E+06
C:/temp/Job-31.odb,Step-1,Increment      1: Step Time =    1.000,"P-31-1",           246,       167.475,       31.8908,            0.,NA,NA,"",   1.14372E+06,   1.12149E+06,   1.12149E+06
C:/temp/Job-31.odb,Step-1,Increment      1: Step Time =    1.000,"P-31-1",           247,       157.927,       34.5282,            0.,NA,NA,"",   1.22859E+06,   1.18441E+06,   1.18441E+06
C:/temp/Job-31.odb,Step-1,Increment      1: Step Time =    1.000,"P-31-1",           248,       145.364,       34.0653,            0.,NA,NA,"",   1.30033E+06,   1.25107E+06,   1.25107E+06
C:/temp/Job-31.odb,Step-1,Increment      1: Step Time =    1.000,"P-31-1",           249,       135.750,       31.7823,            0.,NA,NA,"",   1.28529E+06,   1.26013E+06,   1.26013E+06
C:/temp/Job-31.odb,Step-1,Increment      1: Step Time =    1.000,"P-31-1",           250,       125.511,       35.6080,            0.,NA,NA,"",   1.32386E+06,   1.33698E+06,   1.33698E+06
C:/temp/Job-31.odb,Step-1,Increment      1: Step Time =    1.000,"P-31-1",           251,       115.566,       30.6188,            0.,NA,NA,"",   1.19698E+06,   1.24966E+06,   1.24966E+06
C:/temp/Job-31.odb,Step-1,Increment      1: Step Time =    1.000,"P-31-1",           252,       107.600,       33.8414,            0.,NA,NA,"",   1.21385E+06,   1.29903E+06,   1.29903E+06
C:/temp/Job-31.odb,Step-1,Increment      1: Step Time =    1.000,"P-31-1",           253,       95.8234,       31.6998,            0.,NA,NA,"",   1.22045E+06,   1.29431E+06,   1.29431E+06
C:/temp/Job-31.odb,Step-1,Increment      1: Step Time =    1.000,"P-31-1",           254,       83.5994,       30.4686,            0.,NA,NA,"",   1.30581E+06,   1.33069E+06,   1.33069E+06
C:/temp/Job-31.odb,Step-1,Increment      1: Step Time =    1.000,"P-31-1",           255,       72.4925,       32.1023,            0.,NA,NA,"",   1.39911E+06,   1.37733E+06,   1.37733E+06
C:/temp/Job-31.odb,Step-1,Increment      1: Step Time =    1.000,"P-31-1",           256,       63.9453,       30.5953,            0.,NA,NA,"",   1.40210E+06,   1.35940E+06,   1.35940E+06
C:/temp/Job-31.odb,Step-1,Increment      1: Step Time =    1.000,"P-31-1",           257,       54.0071,       31.9854,            0.,NA,NA,"",   1.39687E+06,   1.34618E+06,   1.34618E+06
C:/temp/Job-31.odb,Step-1,Increment      1: Step Time =    1.000,"P-31-1",           258,       42.2720,       31.4722,            0.,NA,NA,"",   1.35038E+06,   1.31776E+06,   1.31776E+06
C:/temp/Job-31.odb,Step-1,Increment      1: Step Time =    1.000,"P-31-1",           259,       31.1246,       29.5472,            0.,NA,NA,"",   1.30851E+06,   1.30851E+06,   1.30851E+06
C:/temp/Job-31.odb,Step-1,Increment      1: Step Time =    1.000,"P-31-1",           260,       21.8623,       33.6106,            0.,NA,NA,"",   1.21066E+06,   1.24794E+06,   1.24794E+06
C:/temp/Job-31.odb,Step-1,Increment      1: Step Time =    1.000,"P-31-1",           261,       8.94178,       31.3327,            0.,NA,NA,"",   1.11688E+06,   1.21545E+06,   1.21545E+06
C:/temp/Job-31.odb,Step-1,Increment      1: Step Time =    1.000,"P-31-1",           262,       189.932,       43.0167,            0.,NA,NA,"",   987.619E+03,   1.02701E+06,   1.02701E+06
C:/temp/Job-31.odb,Step-1,Increment      1: Step Time =    1.000,"P-31-1",           263,       176.079,       41.7188,            0.,NA,NA,"",   1.10647E+06,   1.10278E+06,   1.10278E+06
C:/temp/Job-31.odb,Step-1,Increment      1: Step Time =    1.000,"P-31-1",           264,       170.637,       43.3839,            0.,NA,NA,"",   1.16620E+06,   1.14231E+06,   1.14231E+06
C:/temp/Job-31.odb,Step-1,Increment      1: Step Time =    1.000,"P-31-1",           265,       160.061,       40.7972,            0.,NA,NA,"",   1.25482E+06,   1.20224E+06,   1.20224E+06
C:/temp/Job-31.odb,Step-1,Increment      1: Step Time =    1.000,"P-31-1",           266,       145.623,       44.0339,            0.,NA,NA,"",   1.41852E+06,   1.33522E+06,   1.33522E+06
C:/temp/Job-31.odb,Step-1,Increment      1: Step Time =    1.000,"P-31-1",           267,       125.757,       41.6370,            0.,NA,NA,"",   1.41931E+06,   1.42716E+06,   1.42716E+06
C:/temp/Job-31.odb,Step-1,Increment      1: Step Time =    1.000,"P-31-1",           268,       116.504,       40.9570,            0.,NA,NA,"",   1.36238E+06,   1.43468E+06,   1.43468E+06
C:/temp/Job-31.odb,Step-1,Increment      1: Step Time =    1.000,"P-31-1",           269,       102.812,       41.1279,            0.,NA,NA,"",   1.33537E+06,   1.45363E+06,   1.45363E+06
C:/temp/Job-31.odb,Step-1,Increment      1: Step Time =    1.000,"P-31-1",           270,       93.1869,       40.9918,            0.,NA,NA,"",   1.37873E+06,   1.47869E+06,   1.47869E+06
C:/temp/Job-31.odb,Step-1,Increment      1: Step Time =    1.000,"P-31-1",           271,       84.1694,       41.5822,            0.,NA,NA,"",   1.45914E+06,   1.50278E+06,   1.50278E+06
C:/temp/Job-31.odb,Step-1,Increment      1: Step Time =    1.000,"P-31-1",           272,       74.7049,       42.6551,            0.,NA,NA,"",   1.50886E+06,   1.49031E+06,   1.49031E+06
C:/temp/Job-31.odb,Step-1,Increment      1: Step Time =    1.000,"P-31-1",           273,       65.1417,       40.8736,            0.,NA,NA,"",   1.48018E+06,   1.41856E+06,   1.41856E+06
C:/temp/Job-31.odb,Step-1,Increment      1: Step Time =    1.000,"P-31-1",           274,       54.7364,       40.7361,            0.,NA,NA,"",   1.42427E+06,   1.35485E+06,   1.35485E+06
C:/temp/Job-31.odb,Step-1,Increment      1: Step Time =    1.000,"P-31-1",           275,       42.7993,       38.6883,            0.,NA,NA,"",   1.32812E+06,   1.28638E+06,   1.28638E+06
C:/temp/Job-31.odb,Step-1,Increment      1: Step Time =    1.000,"P-31-1",           276,       30.5071,       43.7321,            0.,NA,NA,"",   1.17262E+06,   1.17528E+06,   1.17528E+06
C:/temp/Job-31.odb,Step-1,Increment      1: Step Time =    1.000,"P-31-1",           277,       21.1870,       42.6116,            0.,NA,NA,"",   1.09370E+06,   1.13747E+06,   1.13747E+06
C:/temp/Job-31.odb,Step-1,Increment      1: Step Time =    1.000,"P-31-1",           278,       8.73929,       40.6727,            0.,NA,NA,"",   1.00473E+06,   1.09958E+06,   1.09958E+06
C:/temp/Job-31.odb,Step-1,Increment      1: Step Time =    1.000,"P-31-1",           279,       186.982,       51.5356,            0.,NA,NA,"",   997.477E+03,   1.04766E+06,   1.04766E+06
C:/temp/Job-31.odb,Step-1,Increment      1: Step Time =    1.000,"P-31-1",           280,       180.183,       52.4369,            0.,NA,NA,"",   1.06557E+06,   1.08763E+06,   1.08763E+06
C:/temp/Job-31.odb,Step-1,Increment      1: Step Time =    1.000,"P-31-1",           281,       169.544,       53.0802,            0.,NA,NA,"",   1.19457E+06,   1.16008E+06,   1.16008E+06
C:/temp/Job-31.odb,Step-1,Increment      1: Step Time =    1.000,"P-31-1",           282,       158.578,       52.4706,            0.,NA,NA,"",   1.34010E+06,   1.25025E+06,   1.25025E+06
C:/temp/Job-31.odb,Step-1,Increment      1: Step Time =    1.000,"P-31-1",           283,       143.776,       51.0224,            0.,NA,NA,"",   1.50964E+06,   1.39429E+06,   1.39429E+06
C:/temp/Job-31.odb,Step-1,Increment      1: Step Time =    1.000,"P-31-1",           284,       135.253,       47.9521,            0.,NA,NA,"",   1.52522E+06,   1.45775E+06,   1.45775E+06
C:/temp/Job-31.odb,Step-1,Increment      1: Step Time =    1.000,"P-31-1",           285,       127.433,       49.7842,            0.,NA,NA,"",   1.57060E+06,   1.55316E+06,   1.55316E+06
C:/temp/Job-31.odb,Step-1,Increment      1: Step Time =    1.000,"P-31-1",           286,       115.227,       52.2377,            0.,NA,NA,"",   1.63672E+06,   1.74301E+06,   1.74301E+06
C:/temp/Job-31.odb,Step-1,Increment      1: Step Time =    1.000,"P-31-1",           287,       105.373,       54.5518,            0.,NA,NA,"",   1.77405E+06,   1.93674E+06,   1.93674E+06
C:/temp/Job-31.odb,Step-1,Increment      1: Step Time =    1.000,"P-31-1",           288,       97.2541,       52.1621,            0.,NA,NA,"",   1.67895E+06,   1.83066E+06,   1.83066E+06
C:/temp/Job-31.odb,Step-1,Increment      1: Step Time =    1.000,"P-31-1",           289,       83.4094,       51.0781,            0.,NA,NA,"",   1.61479E+06,   1.66400E+06,   1.66400E+06
C:/temp/Job-31.odb,Step-1,Increment      1: Step Time =    1.000,"P-31-1",           290,       74.2811,       53.6770,            0.,NA,NA,"",   1.61965E+06,   1.58302E+06,   1.58302E+06
C:/temp/Job-31.odb,Step-1,Increment      1: Step Time =    1.000,"P-31-1",           291,       63.1990,       52.5127,            0.,NA,NA,"",   1.50323E+06,   1.40705E+06,   1.40705E+06
C:/temp/Job-31.odb,Step-1,Increment      1: Step Time =    1.000,"P-31-1",           292,       51.9155,       52.8722,            0.,NA,NA,"",   1.34775E+06,   1.25714E+06,   1.25714E+06
C:/temp/Job-31.odb,Step-1,Increment      1: Step Time =    1.000,"P-31-1",           293,       40.1188,       53.9284,            0.,NA,NA,"",   1.16086E+06,   1.11867E+06,   1.11867E+06
C:/temp/Job-31.odb,Step-1,Increment      1: Step Time =    1.000,"P-31-1",           294,       33.9155,       54.1936,            0.,NA,NA,"",   1.07432E+06,   1.06392E+06,   1.06392E+06
C:/temp/Job-31.odb,Step-1,Increment      1: Step Time =    1.000,"P-31-1",           295,       19.6742,       53.5712,            0.,NA,NA,"",   933.688E+03,   985.864E+03,   985.864E+03
C:/temp/Job-31.odb,Step-1,Increment      1: Step Time =    1.000,"P-31-1",           296,       13.9818,       49.5449,            0.,NA,NA,"",   940.630E+03,   1.01299E+06,   1.01299E+06
C:/temp/Job-31.odb,Step-1,Increment      1: Step Time =    1.000,"P-31-1",           297,       186.936,       149.394,            0.,NA,NA,"",   999.170E+03,   1.04735E+06,   1.04735E+06
C:/temp/Job-31.odb,Step-1,Increment      1: Step Time =    1.000,"P-31-1",           298,       178.892,       147.960,            0.,NA,NA,"",   1.07599E+06,   1.09384E+06,   1.09384E+06
C:/temp/Job-31.odb,Step-1,Increment      1: Step Time =    1.000,"P-31-1",           299,       148.629,       150.703,            0.,NA,NA,"",   1.44355E+06,   1.33809E+06,   1.33809E+06
C:/temp/Job-31.odb,Step-1,Increment      1: Step Time =    1.000,"P-31-1",           300,       135.490,       144.950,            0.,NA,NA,"",   1.62195E+06,   1.51699E+06,   1.51699E+06
C:/temp/Job-31.odb,Step-1,Increment      1: Step Time =    1.000,"P-31-1",           301,       128.520,       146.621,            0.,NA,NA,"",   1.62743E+06,   1.58784E+06,   1.58784E+06
C:/temp/Job-31.odb,Step-1,Increment      1: Step Time =    1.000,"P-31-1",           302,       116.463,       150.272,            0.,NA,NA,"",   1.54959E+06,   1.63818E+06,   1.63818E+06
C:/temp/Job-31.odb,Step-1,Increment      1: Step Time =    1.000,"P-31-1",           303,       106.775,       146.833,            0.,NA,NA,"",   1.71568E+06,   1.87426E+06,   1.87426E+06
C:/temp/Job-31.odb,Step-1,Increment      1: Step Time =    1.000,"P-31-1",           304,       93.9089,       146.481,            0.,NA,NA,"",   1.71536E+06,   1.85453E+06,   1.85453E+06
C:/temp/Job-31.odb,Step-1,Increment      1: Step Time =    1.000,"P-31-1",           305,       84.1606,       147.272,            0.,NA,NA,"",   1.66869E+06,   1.72905E+06,   1.72905E+06
C:/temp/Job-31.odb,Step-1,Increment      1: Step Time =    1.000,"P-31-1",           306,       74.3406,       150.422,            0.,NA,NA,"",   1.58284E+06,   1.55291E+06,   1.55291E+06
C:/temp/Job-31.odb,Step-1,Increment      1: Step Time =    1.000,"P-31-1",           307,       62.4252,       147.173,            0.,NA,NA,"",   1.49859E+06,   1.39765E+06,   1.39765E+06
C:/temp/Job-31.odb,Step-1,Increment      1: Step Time =    1.000,"P-31-1",           308,       51.1320,       148.837,            0.,NA,NA,"",   1.35118E+06,   1.26666E+06,   1.26666E+06
C:/temp/Job-31.odb,Step-1,Increment      1: Step Time =    1.000,"P-31-1",           309,       42.9051,       149.050,            0.,NA,NA,"",   1.23682E+06,   1.18327E+06,   1.18327E+06
C:/temp/Job-31.odb,Step-1,Increment      1: Step Time =    1.000,"P-31-1",           310,       29.8141,       146.307,            0.,NA,NA,"",   1.03511E+06,   1.04449E+06,   1.04449E+06
C:/temp/Job-31.odb,Step-1,Increment      1: Step Time =    1.000,"P-31-1",           311,       20.4466,       148.151,            0.,NA,NA,"",   963.057E+03,   1.01311E+06,   1.01311E+06
C:/temp/Job-31.odb,Step-1,Increment      1: Step Time =    1.000,"P-31-1",           312,       12.0939,       148.800,            0.,NA,NA,"",   904.174E+03,   981.803E+03,   981.803E+03
C:/temp/Job-31.odb,Step-1,Increment      1: Step Time =    1.000,"P-31-1",           313,       190.962,       159.192,            0.,NA,NA,"",   985.243E+03,   1.02062E+06,   1.02062E+06
C:/temp/Job-31.odb,Step-1,Increment      1: Step Time =    1.000,"P-31-1",           314,       175.332,       156.983,            0.,NA,NA,"",   1.11340E+06,   1.10820E+06,   1.10820E+06
C:/temp/Job-31.odb,Step-1,Increment      1: Step Time =    1.000,"P-31-1",           315,       165.460,       160.071,            0.,NA,NA,"",   1.20238E+06,   1.16510E+06,   1.16510E+06
C:/temp/Job-31.odb,Step-1,Increment      1: Step Time =    1.000,"P-31-1",           316,       160.428,       156.759,            0.,NA,NA,"",   1.27320E+06,   1.21383E+06,   1.21383E+06
C:/temp/Job-31.odb,Step-1,Increment      1: Step Time =    1.000,"P-31-1",           317,       148.486,       158.313,            0.,NA,NA,"",   1.36908E+06,   1.29416E+06,   1.29416E+06
C:/temp/Job-31.odb,Step-1,Increment      1: Step Time =    1.000,"P-31-1",           318,       135.353,       158.552,            0.,NA,NA,"",   1.42845E+06,   1.38219E+06,   1.38219E+06
C:/temp/Job-31.odb,Step-1,Increment      1: Step Time =    1.000,"P-31-1",           319,       126.446,       159.929,            0.,NA,NA,"",   1.39764E+06,   1.40412E+06,   1.40412E+06
C:/temp/Job-31.odb,Step-1,Increment      1: Step Time =    1.000,"P-31-1",           320,       118.537,       160.044,            0.,NA,NA,"",   1.35631E+06,   1.41350E+06,   1.41350E+06
C:/temp/Job-31.odb,Step-1,Increment      1: Step Time =    1.000,"P-31-1",           321,       105.725,       157.379,            0.,NA,NA,"",   1.35881E+06,   1.48444E+06,   1.48444E+06
C:/temp/Job-31.odb,Step-1,Increment      1: Step Time =    1.000,"P-31-1",           322,       95.5712,       156.326,            0.,NA,NA,"",   1.41868E+06,   1.53418E+06,   1.53418E+06
C:/temp/Job-31.odb,Step-1,Increment      1: Step Time =    1.000,"P-31-1",           323,       83.4282,       158.541,            0.,NA,NA,"",   1.45772E+06,   1.49885E+06,   1.49885E+06
C:/temp/Job-31.odb,Step-1,Increment      1: Step Time =    1.000,"P-31-1",           324,       71.9356,       159.048,            0.,NA,NA,"",   1.50296E+06,   1.46901E+06,   1.46901E+06
C:/temp/Job-31.odb,Step-1,Increment      1: Step Time =    1.000,"P-31-1",           325,       60.8180,       156.861,            0.,NA,NA,"",   1.47320E+06,   1.39658E+06,   1.39658E+06
C:/temp/Job-31.odb,Step-1,Increment      1: Step Time =    1.000,"P-31-1",           326,       54.3927,       155.378,            0.,NA,NA,"",   1.42302E+06,   1.34246E+06,   1.34246E+06
C:/temp/Job-31.odb,Step-1,Increment      1: Step Time =    1.000,"P-31-1",           327,       39.1957,       161.219,            0.,NA,NA,"",   1.30157E+06,   1.27065E+06,   1.27065E+06
C:/temp/Job-31.odb,Step-1,Increment      1: Step Time =    1.000,"P-31-1",           328,       27.4588,       159.707,            0.,NA,NA,"",   1.17908E+06,   1.19550E+06,   1.19550E+06
C:/temp/Job-31.odb,Step-1,Increment      1: Step Time =    1.000,"P-31-1",           329,       20.8461,       158.181,            0.,NA,NA,"",   1.10299E+06,   1.14754E+06,   1.14754E+06
C:/temp/Job-31.odb,Step-1,Increment      1: Step Time =    1.000,"P-31-1",           330,       9.89925,       156.676,            0.,NA,NA,"",   981.377E+03,   1.07030E+06,   1.07030E+06
C:/temp/Job-31.odb,Step-1,Increment      1: Step Time =    1.000,"P-31-1",           331,       190.630,       168.789,            0.,NA,NA,"",   999.213E+03,   1.01596E+06,   1.01596E+06
C:/temp/Job-31.odb,Step-1,Increment      1: Step Time =    1.000,"P-31-1",           332,       181.161,       167.454,            0.,NA,NA,"",   1.04730E+06,   1.05423E+06,   1.05423E+06
C:/temp/Job-31.odb,Step-1,Increment      1: Step Time =    1.000,"P-31-1",           333,       166.891,       169.889,            0.,NA,NA,"",   1.13200E+06,   1.11217E+06,   1.11217E+06
C:/temp/Job-31.odb,Step-1,Increment      1: Step Time =    1.000,"P-31-1",           334,       156.910,       165.104,            0.,NA,NA,"",   1.24022E+06,   1.19334E+06,   1.19334E+06
C:/temp/Job-31.odb,Step-1,Increment      1: Step Time =    1.000,"P-31-1",           335,       146.003,       167.059,            0.,NA,NA,"",   1.28059E+06,   1.23364E+06,   1.23364E+06
C:/temp/Job-31.odb,Step-1,Increment      1: Step Time =    1.000,"P-31-1",           336,       135.211,       168.360,            0.,NA,NA,"",   1.28289E+06,   1.25969E+06,   1.25969E+06
C:/temp/Job-31.odb,Step-1,Increment      1: Step Time =    1.000,"P-31-1",           337,       126.193,       167.723,            0.,NA,NA,"",   1.27242E+06,   1.28233E+06,   1.28233E+06
C:/temp/Job-31.odb,Step-1,Increment      1: Step Time =    1.000,"P-31-1",           338,       104.523,       169.672,            0.,NA,NA,"",   1.16976E+06,   1.24558E+06,   1.24558E+06
C:/temp/Job-31.odb,Step-1,Increment      1: Step Time =    1.000,"P-31-1",           339,       97.2118,       167.118,            0.,NA,NA,"",   1.22840E+06,   1.30862E+06,   1.30862E+06
C:/temp/Job-31.odb,Step-1,Increment      1: Step Time =    1.000,"P-31-1",           340,       83.1707,       168.802,            0.,NA,NA,"",   1.31971E+06,   1.34337E+06,   1.34337E+06
C:/temp/Job-31.odb,Step-1,Increment      1: Step Time =    1.000,"P-31-1",           341,       72.3588,       168.342,            0.,NA,NA,"",   1.39334E+06,   1.37196E+06,   1.37196E+06
C:/temp/Job-31.odb,Step-1,Increment      1: Step Time =    1.000,"P-31-1",           342,       63.6250,       168.832,            0.,NA,NA,"",   1.41149E+06,   1.36646E+06,   1.36646E+06
C:/temp/Job-31.odb,Step-1,Increment      1: Step Time =    1.000,"P-31-1",           343,       53.2559,       168.935,            0.,NA,NA,"",   1.39503E+06,   1.34562E+06,   1.34562E+06
C:/temp/Job-31.odb,Step-1,Increment      1: Step Time =    1.000,"P-31-1",           344,       44.3501,       168.799,            0.,NA,NA,"",   1.36433E+06,   1.32573E+06,   1.32573E+06
C:/temp/Job-31.odb,Step-1,Increment      1: Step Time =    1.000,"P-31-1",           345,       30.8709,       168.822,            0.,NA,NA,"",   1.29583E+06,   1.29603E+06,   1.29603E+06
C:/temp/Job-31.odb,Step-1,Increment      1: Step Time =    1.000,"P-31-1",           346,       19.9462,       170.332,            0.,NA,NA,"",   1.24017E+06,   1.28349E+06,   1.28349E+06
C:/temp/Job-31.odb,Step-1,Increment      1: Step Time =    1.000,"P-31-1",           347,       8.82850,       169.944,            0.,NA,NA,"",   1.13184E+06,   1.23158E+06,   1.23158E+06
C:/temp/Job-31.odb,Step-1,Increment      1: Step Time =    1.000,"P-31-1",           348,       189.935,       178.463,            0.,NA,NA,"",   1.00479E+06,   1.01108E+06,   1.01108E+06
C:/temp/Job-31.odb,Step-1,Increment      1: Step Time =    1.000,"P-31-1",           349,       174.102,       178.704,            0.,NA,NA,"",   1.05369E+06,   1.05021E+06,   1.05021E+06
C:/temp/Job-31.odb,Step-1,Increment      1: Step Time =    1.000,"P-31-1",           350,       167.101,       181.320,            0.,NA,NA,"",   1.06768E+06,   1.05874E+06,   1.05874E+06
C:/temp/Job-31.odb,Step-1,Increment      1: Step Time =    1.000,"P-31-1",           351,       160.113,       176.850,            0.,NA,NA,"",   1.12402E+06,   1.10354E+06,   1.10354E+06
C:/temp/Job-31.odb,Step-1,Increment      1: Step Time =    1.000,"P-31-1",           352,       147.963,       179.733,            0.,NA,NA,"",   1.12800E+06,   1.10748E+06,   1.10748E+06
C:/temp/Job-31.odb,Step-1,Increment      1: Step Time =    1.000,"P-31-1",           353,       133.749,       178.924,            0.,NA,NA,"",   1.12923E+06,   1.12035E+06,   1.12035E+06
C:/temp/Job-31.odb,Step-1,Increment      1: Step Time =    1.000,"P-31-1",           354,       124.234,       181.248,            0.,NA,NA,"",   1.07136E+06,   1.08003E+06,   1.08003E+06
C:/temp/Job-31.odb,Step-1,Increment      1: Step Time =    1.000,"P-31-1",           355,       115.285,       180.497,            0.,NA,NA,"",   1.05147E+06,   1.07869E+06,   1.07869E+06
C:/temp/Job-31.odb,Step-1,Increment      1: Step Time =    1.000,"P-31-1",           356,       105.393,       179.293,            0.,NA,NA,"",   1.05550E+06,   1.09834E+06,   1.09834E+06
C:/temp/Job-31.odb,Step-1,Increment      1: Step Time =    1.000,"P-31-1",           357,       94.7852,       178.708,            0.,NA,NA,"",   1.10289E+06,   1.13974E+06,   1.13974E+06
C:/temp/Job-31.odb,Step-1,Increment      1: Step Time =    1.000,"P-31-1",           358,       84.6068,       179.338,            0.,NA,NA,"",   1.17143E+06,   1.18582E+06,   1.18582E+06
C:/temp/Job-31.odb,Step-1,Increment      1: Step Time =    1.000,"P-31-1",           359,       74.4462,       179.407,            0.,NA,NA,"",   1.24991E+06,   1.24058E+06,   1.24058E+06
C:/temp/Job-31.odb,Step-1,Increment      1: Step Time =    1.000,"P-31-1",           360,       64.4091,       180.181,            0.,NA,NA,"",   1.30123E+06,   1.27753E+06,   1.27753E+06
C:/temp/Job-31.odb,Step-1,Increment      1: Step Time =    1.000,"P-31-1",           361,       51.4442,       177.844,            0.,NA,NA,"",   1.35548E+06,   1.32502E+06,   1.32502E+06
C:/temp/Job-31.odb,Step-1,Increment      1: Step Time =    1.000,"P-31-1",           362,       42.9077,       177.074,            0.,NA,NA,"",   1.36463E+06,   1.34000E+06,   1.34000E+06
C:/temp/Job-31.odb,Step-1,Increment      1: Step Time =    1.000,"P-31-1",           363,       32.6106,       180.400,            0.,NA,NA,"",   1.37294E+06,   1.36836E+06,   1.36836E+06
C:/temp/Job-31.odb,Step-1,Increment      1: Step Time =    1.000,"P-31-1",           364,       19.5991,       175.665,            0.,NA,NA,"",   1.30255E+06,   1.34369E+06,   1.34369E+06
C:/temp/Job-31.odb,Step-1,Increment      1: Step Time =    1.000,"P-31-1",           365,       8.32193,       178.606,            0.,NA,NA,"",   1.25613E+06,   1.35703E+06,   1.35703E+06
C:/temp/Job-31.odb,Step-1,Increment      1: Step Time =    1.000,"P-31-1",           366,       188.007,       188.723,            0.,NA,NA,"",   1.00462E+06,   1.00620E+06,   1.00620E+06
C:/temp/Job-31.odb,Step-1,Increment      1: Step Time =    1.000,"P-31-1",           367,       179.225,       192.108,            0.,NA,NA,"",   1.00853E+06,   1.00874E+06,   1.00874E+06
C:/temp/Job-31.odb,Step-1,Increment      1: Step Time =    1.000,"P-31-1",           368,       170.698,       191.441,            0.,NA,NA,"",   1.01635E+06,   1.01502E+06,   1.01502E+06
C:/temp/Job-31.odb,Step-1,Increment      1: Step Time =    1.000,"P-31-1",           369,       156.970,       189.881,            0.,NA,NA,"",   1.02782E+06,   1.02220E+06,   1.02220E+06
C:/temp/Job-31.odb,Step-1,Increment      1: Step Time =    1.000,"P-31-1",           370,       148.534,       186.814,            0.,NA,NA,"",   1.05304E+06,   1.04257E+06,   1.04257E+06
C:/temp/Job-31.odb,Step-1,Increment      1: Step Time =    1.000,"P-31-1",           371,       133.463,       189.932,            0.,NA,NA,"",   978.906E+03,   976.516E+03,   976.516E+03
C:/temp/Job-31.odb,Step-1,Increment      1: Step Time =    1.000,"P-31-1",           372,       124.344,       190.642,            0.,NA,NA,"",   931.848E+03,   934.257E+03,   934.257E+03
C:/temp/Job-31.odb,Step-1,Increment      1: Step Time =    1.000,"P-31-1",           373,       114.830,       190.340,            0.,NA,NA,"",   903.727E+03,   912.924E+03,   912.924E+03
C:/temp/Job-31.odb,Step-1,Increment      1: Step Time =    1.000,"P-31-1",           374,       104.938,       189.879,            0.,NA,NA,"",   906.191E+03,   919.699E+03,   919.699E+03
C:/temp/Job-31.odb,Step-1,Increment      1: Step Time =    1.000,"P-31-1",           375,       94.9159,       189.688,            0.,NA,NA,"",   947.891E+03,   958.870E+03,   958.870E+03
C:/temp/Job-31.odb,Step-1,Increment      1: Step Time =    1.000,"P-31-1",           376,       84.8909,       189.780,            0.,NA,NA,"",   1.02093E+06,   1.02468E+06,   1.02468E+06
C:/temp/Job-31.odb,Step-1,Increment      1: Step Time =    1.000,"P-31-1",           377,       74.8635,       189.983,            0.,NA,NA,"",   1.10977E+06,   1.10566E+06,   1.10566E+06
C:/temp/Job-31.odb,Step-1,Increment      1: Step Time =    1.000,"P-31-1",           378,       65.0339,       190.417,            0.,NA,NA,"",   1.19339E+06,   1.18538E+06,   1.18538E+06
C:/temp/Job-31.odb,Step-1,Increment      1: Step Time =    1.000,"P-31-1",           379,       50.7527,       186.532,            0.,NA,NA,"",   1.31818E+06,   1.30326E+06,   1.30326E+06
C:/temp/Job-31.odb,Step-1,Increment      1: Step Time =    1.000,"P-31-1",           380,       40.8117,       190.851,            0.,NA,NA,"",   1.35928E+06,   1.35373E+06,   1.35373E+06
C:/temp/Job-31.odb,Step-1,Increment      1: Step Time =    1.000,"P-31-1",           381,       31.2098,       190.530,            0.,NA,NA,"",   1.40913E+06,   1.40783E+06,   1.40783E+06
C:/temp/Job-31.odb,Step-1,Increment      1: Step Time =    1.000,"P-31-1",           382,       21.6323,       190.085,            0.,NA,NA,"",   1.46047E+06,   1.46954E+06,   1.46954E+06
C:/temp/Job-31.odb,Step-1,Increment      1: Step Time =    1.000,"P-31-1",           383,       11.3145,       188.152,            0.,NA,NA,"",   1.48542E+06,   1.53894E+06,   1.53894E+06
C:/temp/Job-31.odb,Step-1,Increment      1: Step Time =    1.000,"P-31-1",           384,       94.9626,       132.613,            0.,NA,NA,"",   2.89003E+06,   2.95926E+06,   2.95926E+06
C:/temp/Job-31.odb,Step-1,Increment      1: Step Time =    1.000,"P-31-1",           385,       85.3572,       129.573,            0.,NA,NA,"",   1.95865E+06,   2.02065E+06,   2.02065E+06
C:/temp/Job-31.odb,Step-1,Increment      1: Step Time =    1.000,"P-31-1",           386,       81.0145,       126.992,            0.,NA,NA,"",   1.42464E+06,   1.45780E+06,   1.45780E+06
C:/temp/Job-31.odb,Step-1,Increment      1: Step Time =    1.000,"P-31-1",           387,       73.7553,       120.005,            0.,NA,NA,"",   513.288E+03,   445.586E+03,   445.586E+03
C:/temp/Job-31.odb,Step-1,Increment      1: Step Time =    1.000,"P-31-1",           388,       68.9424,       111.155,            0.,NA,NA,"",   560.971E+03,  -549.928E+03,  -549.928E+03
C:/temp/Job-31.odb,Step-1,Increment      1: Step Time =    1.000,"P-31-1",           389,       67.6036,       106.283,            0.,NA,NA,"",   721.453E+03,  -730.727E+03,  -730.727E+03
C:/temp/Job-31.odb,Step-1,Increment      1: Step Time =    1.000,"P-31-1",           390,       67.2177,       96.2154,            0.,NA,NA,"",   722.600E+03,  -741.420E+03,  -741.420E+03
C:/temp/Job-31.odb,Step-1,Increment      1: Step Time =    1.000,"P-31-1",           391,       69.8874,       86.5007,            0.,NA,NA,"",   418.027E+03,  -384.203E+03,  -384.203E+03
C:/temp/Job-31.odb,Step-1,Increment      1: Step Time =    1.000,"P-31-1",           392,       75.3637,       78.0443,            0.,NA,NA,"",   727.487E+03,   699.686E+03,   699.686E+03
C:/temp/Job-31.odb,Step-1,Increment      1: Step Time =    1.000,"P-31-1",           393,       79.0040,       74.5409,            0.,NA,NA,"",   1.22515E+06,   1.23554E+06,   1.23554E+06
C:/temp/Job-31.odb,Step-1,Increment      1: Step Time =    1.000,"P-31-1",           394,       87.6640,       69.3924,            0.,NA,NA,"",   2.28510E+06,   2.34818E+06,   2.34818E+06
C:/temp/Job-31.odb,Step-1,Increment      1: Step Time =    1.000,"P-31-1",           395,       97.4739,       67.0968,            0.,NA,NA,"",   3.01654E+06,   3.08909E+06,   3.08909E+06
C:/temp/Job-31.odb,Step-1,Increment      1: Step Time =    1.000,"P-31-1",           396,       102.526,       67.0968,            0.,NA,NA,"",   3.13451E+06,   3.20415E+06,   3.20415E+06
C:/temp/Job-31.odb,Step-1,Increment      1: Step Time =    1.000,"P-31-1",           397,       112.336,       69.3924,            0.,NA,NA,"",   2.68594E+06,   2.74853E+06,   2.74853E+06
C:/temp/Job-31.odb,Step-1,Increment      1: Step Time =    1.000,"P-31-1",           398,       120.996,       74.5409,            0.,NA,NA,"",   1.66791E+06,   1.68171E+06,   1.68171E+06
C:/temp/Job-31.odb,Step-1,Increment      1: Step Time =    1.000,"P-31-1",           399,       124.636,       78.0443,            0.,NA,NA,"",   1.06788E+06,   1.01782E+06,   1.01782E+06
C:/temp/Job-31.odb,Step-1,Increment      1: Step Time =    1.000,"P-31-1",           400,       130.113,       86.5007,            0.,NA,NA,"",   583.741E+03,  -543.851E+03,  -543.851E+03
C:/temp/Job-31.odb,Step-1,Increment      1: Step Time =    1.000,"P-31-1",           401,       132.782,       96.2154,            0.,NA,NA,"",   1.15067E+06,  -1.16752E+06,  -1.16752E+06
C:/temp/Job-31.odb,Step-1,Increment      1: Step Time =    1.000,"P-31-1",           402,       132.396,       106.283,            0.,NA,NA,"",   1.01748E+06,  -1.02339E+06,  -1.02339E+06
C:/temp/Job-31.odb,Step-1,Increment      1: Step Time =    1.000,"P-31-1",           403,       131.058,       111.155,            0.,NA,NA,"",   678.061E+03,  -639.983E+03,  -639.983E+03
C:/temp/Job-31.odb,Step-1,Increment      1: Step Time =    1.000,"P-31-1",           404,       126.245,       120.005,            0.,NA,NA,"",   705.900E+03,   669.117E+03,   669.117E+03
C:/temp/Job-31.odb,Step-1,Increment      1: Step Time =    1.000,"P-31-1",           405,       118.986,       126.992,            0.,NA,NA,"",   1.88926E+06,   1.91662E+06,   1.91662E+06
C:/temp/Job-31.odb,Step-1,Increment      1: Step Time =    1.000,"P-31-1",           406,       114.643,       129.573,            0.,NA,NA,"",   2.41789E+06,   2.46661E+06,   2.46661E+06
C:/temp/Job-31.odb,Step-1,Increment      1: Step Time =    1.000,"P-31-1",           407,       105.037,       132.613,            0.,NA,NA,"",   2.97134E+06,   3.07244E+06,   3.07244E+06
C:/temp/Job-31.odb,Step-1,Increment      1: Step Time =    1.000,"P-31-1",           408,          195.,            0.,            0.,NA,NA,"",   999.021E+03,   998.912E+03,   998.912E+03
C:/temp/Job-31.odb,Step-1,Increment      1: Step Time =    1.000,"P-31-1",           409,          185.,            0.,            0.,NA,NA,"",   996.588E+03,   996.825E+03,   996.825E+03
C:/temp/Job-31.odb,Step-1,Increment      1: Step Time =    1.000,"P-31-1",           410,          175.,            0.,            0.,NA,NA,"",   998.080E+03,   997.979E+03,   997.979E+03
C:/temp/Job-31.odb,Step-1,Increment      1: Step Time =    1.000,"P-31-1",           411,          165.,            0.,            0.,NA,NA,"",   996.579E+03,   996.244E+03,   996.244E+03
C:/temp/Job-31.odb,Step-1,Increment      1: Step Time =    1.000,"P-31-1",           412,          155.,            0.,            0.,NA,NA,"",   981.029E+03,   980.471E+03,   980.471E+03
C:/temp/Job-31.odb,Step-1,Increment      1: Step Time =    1.000,"P-31-1",           413,          145.,            0.,            0.,NA,NA,"",   942.886E+03,   942.238E+03,   942.238E+03
C:/temp/Job-31.odb,Step-1,Increment      1: Step Time =    1.000,"P-31-1",           414,          135.,            0.,            0.,NA,NA,"",   884.683E+03,   884.219E+03,   884.219E+03
C:/temp/Job-31.odb,Step-1,Increment      1: Step Time =    1.000,"P-31-1",           415,          125.,            0.,            0.,NA,NA,"",   820.199E+03,   820.369E+03,   820.369E+03
C:/temp/Job-31.odb,Step-1,Increment      1: Step Time =    1.000,"P-31-1",           416,          115.,            0.,            0.,NA,NA,"",   769.649E+03,   770.740E+03,   770.740E+03
C:/temp/Job-31.odb,Step-1,Increment      1: Step Time =    1.000,"P-31-1",           417,          105.,            0.,            0.,NA,NA,"",   756.206E+03,   757.837E+03,   757.837E+03
C:/temp/Job-31.odb,Step-1,Increment      1: Step Time =    1.000,"P-31-1",           418,           95.,            0.,            0.,NA,NA,"",   793.885E+03,   795.238E+03,   795.238E+03
C:/temp/Job-31.odb,Step-1,Increment      1: Step Time =    1.000,"P-31-1",           419,           85.,            0.,            0.,NA,NA,"",   879.845E+03,   880.384E+03,   880.384E+03
C:/temp/Job-31.odb,Step-1,Increment      1: Step Time =    1.000,"P-31-1",           420,           75.,            0.,            0.,NA,NA,"",   998.235E+03,   998.186E+03,   998.186E+03
C:/temp/Job-31.odb,Step-1,Increment      1: Step Time =    1.000,"P-31-1",           421,           65.,            0.,            0.,NA,NA,"",   1.12802E+06,   1.12823E+06,   1.12823E+06
C:/temp/Job-31.odb,Step-1,Increment      1: Step Time =    1.000,"P-31-1",           422,           55.,            0.,            0.,NA,NA,"",   1.24709E+06,   1.24509E+06,   1.24509E+06
C:/temp/Job-31.odb,Step-1,Increment      1: Step Time =    1.000,"P-31-1",           423,           45.,            0.,            0.,NA,NA,"",   1.33704E+06,   1.33547E+06,   1.33547E+06
C:/temp/Job-31.odb,Step-1,Increment      1: Step Time =    1.000,"P-31-1",           424,           35.,            0.,            0.,NA,NA,"",   1.39902E+06,   1.39906E+06,   1.39906E+06
C:/temp/Job-31.odb,Step-1,Increment      1: Step Time =    1.000,"P-31-1",           425,           25.,            0.,            0.,NA,NA,"",   1.44950E+06,   1.45043E+06,   1.45043E+06
C:/temp/Job-31.odb,Step-1,Increment      1: Step Time =    1.000,"P-31-1",           426,           15.,            0.,            0.,NA,NA,"",   1.53235E+06,   1.53812E+06,   1.53812E+06
C:/temp/Job-31.odb,Step-1,Increment      1: Step Time =    1.000,"P-31-1",           427,            5.,            0.,            0.,NA,NA,"",   1.83577E+06,   1.87812E+06,   1.87812E+06
C:/temp/Job-31.odb,Step-1,Increment      1: Step Time =    1.000,"P-31-1",           428,          200.,          195.,            0.,NA,NA,"",   1.00036E+06,   999.887E+03,   999.887E+03
C:/temp/Job-31.odb,Step-1,Increment      1: Step Time =    1.000,"P-31-1",           429,          200.,          185.,            0.,NA,NA,"",   1.00183E+06,   1.00105E+06,   1.00105E+06
C:/temp/Job-31.odb,Step-1,Increment      1: Step Time =    1.000,"P-31-1",           430,          200.,          175.,            0.,NA,NA,"",   996.418E+03,   1.00140E+06,   1.00140E+06
C:/temp/Job-31.odb,Step-1,Increment      1: Step Time =    1.000,"P-31-1",           431,          200.,          165.,            0.,NA,NA,"",   979.524E+03,   1.00187E+06,   1.00187E+06
C:/temp/Job-31.odb,Step-1,Increment      1: Step Time =    1.000,"P-31-1",           432,          200.,          155.,            0.,NA,NA,"",   949.182E+03,   1.00235E+06,   1.00235E+06
C:/temp/Job-31.odb,Step-1,Increment      1: Step Time =    1.000,"P-31-1",           433,          200.,          145.,            0.,NA,NA,"",   910.636E+03,   1.00280E+06,   1.00280E+06
C:/temp/Job-31.odb,Step-1,Increment      1: Step Time =    1.000,"P-31-1",           434,          200.,          135.,            0.,NA,NA,"",   878.992E+03,   1.00283E+06,   1.00283E+06
C:/temp/Job-31.odb,Step-1,Increment      1: Step Time =    1.000,"P-31-1",           435,          200.,          125.,            0.,NA,NA,"",   868.515E+03,   1.00178E+06,   1.00178E+06
C:/temp/Job-31.odb,Step-1,Increment      1: Step Time =    1.000,"P-31-1",           436,          200.,          115.,            0.,NA,NA,"",   878.186E+03,   998.876E+03,   998.876E+03
C:/temp/Job-31.odb,Step-1,Increment      1: Step Time =    1.000,"P-31-1",           437,          200.,          105.,            0.,NA,NA,"",   892.030E+03,   995.526E+03,   995.526E+03
C:/temp/Job-31.odb,Step-1,Increment      1: Step Time =    1.000,"P-31-1",           438,          200.,           95.,            0.,NA,NA,"",   892.509E+03,   995.667E+03,   995.667E+03
C:/temp/Job-31.odb,Step-1,Increment      1: Step Time =    1.000,"P-31-1",           439,          200.,           85.,            0.,NA,NA,"",   879.087E+03,   998.855E+03,   998.855E+03
C:/temp/Job-31.odb,Step-1,Increment      1: Step Time =    1.000,"P-31-1",           440,          200.,           75.,            0.,NA,NA,"",   867.923E+03,   1.00086E+06,   1.00086E+06
C:/temp/Job-31.odb,Step-1,Increment      1: Step Time =    1.000,"P-31-1",           441,          200.,           65.,            0.,NA,NA,"",   877.223E+03,   1.00039E+06,   1.00039E+06
C:/temp/Job-31.odb,Step-1,Increment      1: Step Time =    1.000,"P-31-1",           442,          200.,           55.,            0.,NA,NA,"",   917.157E+03,   1.00694E+06,   1.00694E+06
C:/temp/Job-31.odb,Step-1,Increment      1: Step Time =    1.000,"P-31-1",           443,          200.,           45.,            0.,NA,NA,"",   954.486E+03,   1.00508E+06,   1.00508E+06
C:/temp/Job-31.odb,Step-1,Increment      1: Step Time =    1.000,"P-31-1",           444,          200.,           35.,            0.,NA,NA,"",   981.672E+03,   1.00200E+06,   1.00200E+06
C:/temp/Job-31.odb,Step-1,Increment      1: Step Time =    1.000,"P-31-1",           445,          200.,           25.,            0.,NA,NA,"",   997.328E+03,   1.00100E+06,   1.00100E+06
C:/temp/Job-31.odb,Step-1,Increment      1: Step Time =    1.000,"P-31-1",           446,          200.,           15.,            0.,NA,NA,"",   1.00221E+06,   1.00073E+06,   1.00073E+06
C:/temp/Job-31.odb,Step-1,Increment      1: Step Time =    1.000,"P-31-1",           447,          200.,            5.,            0.,NA,NA,"",   1.00033E+06,   999.774E+03,   999.774E+03
C:/temp/Job-31.odb,Step-1,Increment      1: Step Time =    1.000,"P-31-1",           448,            5.,          200.,            0.,NA,NA,"",   1.83833E+06,   1.88168E+06,   1.88168E+06
C:/temp/Job-31.odb,Step-1,Increment      1: Step Time =    1.000,"P-31-1",           449,           15.,          200.,            0.,NA,NA,"",   1.53527E+06,   1.54155E+06,   1.54155E+06
C:/temp/Job-31.odb,Step-1,Increment      1: Step Time =    1.000,"P-31-1",           450,           25.,          200.,            0.,NA,NA,"",   1.45124E+06,   1.45235E+06,   1.45235E+06
C:/temp/Job-31.odb,Step-1,Increment      1: Step Time =    1.000,"P-31-1",           451,           35.,          200.,            0.,NA,NA,"",   1.39812E+06,   1.39806E+06,   1.39806E+06
C:/temp/Job-31.odb,Step-1,Increment      1: Step Time =    1.000,"P-31-1",           452,           45.,          200.,            0.,NA,NA,"",   1.33351E+06,   1.33293E+06,   1.33293E+06
C:/temp/Job-31.odb,Step-1,Increment      1: Step Time =    1.000,"P-31-1",           453,           55.,          200.,            0.,NA,NA,"",   1.24378E+06,   1.24299E+06,   1.24299E+06
C:/temp/Job-31.odb,Step-1,Increment      1: Step Time =    1.000,"P-31-1",           454,           65.,          200.,            0.,NA,NA,"",   1.12985E+06,   1.12904E+06,   1.12904E+06
C:/temp/Job-31.odb,Step-1,Increment      1: Step Time =    1.000,"P-31-1",           455,           75.,          200.,            0.,NA,NA,"",   1.00365E+06,   1.00324E+06,   1.00324E+06
C:/temp/Job-31.odb,Step-1,Increment      1: Step Time =    1.000,"P-31-1",           456,           85.,          200.,            0.,NA,NA,"",   884.384E+03,   884.917E+03,   884.917E+03
C:/temp/Job-31.odb,Step-1,Increment      1: Step Time =    1.000,"P-31-1",           457,           95.,          200.,            0.,NA,NA,"",   795.632E+03,   796.995E+03,   796.995E+03
C:/temp/Job-31.odb,Step-1,Increment      1: Step Time =    1.000,"P-31-1",           458,          105.,          200.,            0.,NA,NA,"",   754.295E+03,   755.964E+03,   755.964E+03
C:/temp/Job-31.odb,Step-1,Increment      1: Step Time =    1.000,"P-31-1",           459,          115.,          200.,            0.,NA,NA,"",   765.083E+03,   766.283E+03,   766.283E+03
C:/temp/Job-31.odb,Step-1,Increment      1: Step Time =    1.000,"P-31-1",           460,          125.,          200.,            0.,NA,NA,"",   817.013E+03,   817.476E+03,   817.476E+03
C:/temp/Job-31.odb,Step-1,Increment      1: Step Time =    1.000,"P-31-1",           461,          135.,          200.,            0.,NA,NA,"",   887.791E+03,   888.079E+03,   888.079E+03
C:/temp/Job-31.odb,Step-1,Increment      1: Step Time =    1.000,"P-31-1",           462,          145.,          200.,            0.,NA,NA,"",   952.403E+03,   950.248E+03,   950.248E+03
C:/temp/Job-31.odb,Step-1,Increment      1: Step Time =    1.000,"P-31-1",           463,          155.,          200.,            0.,NA,NA,"",   986.304E+03,   985.374E+03,   985.374E+03
C:/temp/Job-31.odb,Step-1,Increment      1: Step Time =    1.000,"P-31-1",           464,          165.,          200.,            0.,NA,NA,"",   998.783E+03,   998.481E+03,   998.481E+03
C:/temp/Job-31.odb,Step-1,Increment      1: Step Time =    1.000,"P-31-1",           465,          175.,          200.,            0.,NA,NA,"",   999.191E+03,   999.136E+03,   999.136E+03
C:/temp/Job-31.odb,Step-1,Increment      1: Step Time =    1.000,"P-31-1",           466,          185.,          200.,            0.,NA,NA,"",   996.800E+03,   997.053E+03,   997.053E+03
C:/temp/Job-31.odb,Step-1,Increment      1: Step Time =    1.000,"P-31-1",           467,          195.,          200.,            0.,NA,NA,"",   999.083E+03,   998.992E+03,   998.992E+03
C:/temp/Job-31.odb,Step-1,Increment      1: Step Time =    1.000,"P-31-1",           468,            0.,            5.,            0.,NA,NA,"",   1.74139E+06,   1.85340E+06,   1.85340E+06
C:/temp/Job-31.odb,Step-1,Increment      1: Step Time =    1.000,"P-31-1",           469,            0.,           15.,            0.,NA,NA,"",   1.30305E+06,   1.43622E+06,   1.43622E+06
C:/temp/Job-31.odb,Step-1,Increment      1: Step Time =    1.000,"P-31-1",           470,            0.,           25.,            0.,NA,NA,"",   1.12760E+06,   1.25729E+06,   1.25729E+06
C:/temp/Job-31.odb,Step-1,Increment      1: Step Time =    1.000,"P-31-1",           471,            0.,           35.,            0.,NA,NA,"",   1.00728E+06,   1.12860E+06,   1.12860E+06
C:/temp/Job-31.odb,Step-1,Increment      1: Step Time =    1.000,"P-31-1",           472,            0.,           45.,            0.,NA,NA,"",   900.379E+03,   1.01104E+06,   1.01104E+06
C:/temp/Job-31.odb,Step-1,Increment      1: Step Time =    1.000,"P-31-1",           473,            0.,           55.,            0.,NA,NA,"",   796.508E+03,   895.109E+03,   895.109E+03
C:/temp/Job-31.odb,Step-1,Increment      1: Step Time =    1.000,"P-31-1",           474,            0.,           65.,            0.,NA,NA,"",   693.139E+03,   779.261E+03,   779.261E+03
C:/temp/Job-31.odb,Step-1,Increment      1: Step Time =    1.000,"P-31-1",           475,            0.,           75.,            0.,NA,NA,"",   591.974E+03,   667.073E+03,   667.073E+03
C:/temp/Job-31.odb,Step-1,Increment      1: Step Time =    1.000,"P-31-1",           476,            0.,           85.,            0.,NA,NA,"",   506.804E+03,   574.090E+03,   574.090E+03
C:/temp/Job-31.odb,Step-1,Increment      1: Step Time =    1.000,"P-31-1",           477,            0.,           95.,            0.,NA,NA,"",   455.757E+03,   518.993E+03,   518.993E+03
C:/temp/Job-31.odb,Step-1,Increment      1: Step Time =    1.000,"P-31-1",           478,            0.,          105.,            0.,NA,NA,"",   455.846E+03,   519.050E+03,   519.050E+03
C:/temp/Job-31.odb,Step-1,Increment      1: Step Time =    1.000,"P-31-1",           479,            0.,          115.,            0.,NA,NA,"",   506.624E+03,   573.799E+03,   573.799E+03
C:/temp/Job-31.odb,Step-1,Increment      1: Step Time =    1.000,"P-31-1",           480,            0.,          125.,            0.,NA,NA,"",   590.732E+03,   665.616E+03,   665.616E+03
C:/temp/Job-31.odb,Step-1,Increment      1: Step Time =    1.000,"P-31-1",           481,            0.,          135.,            0.,NA,NA,"",   691.820E+03,   777.017E+03,   777.017E+03
C:/temp/Job-31.odb,Step-1,Increment      1: Step Time =    1.000,"P-31-1",           482,            0.,          145.,            0.,NA,NA,"",   803.339E+03,   899.989E+03,   899.989E+03
C:/temp/Job-31.odb,Step-1,Increment      1: Step Time =    1.000,"P-31-1",           483,            0.,          155.,            0.,NA,NA,"",   905.421E+03,   1.01663E+06,   1.01663E+06
C:/temp/Job-31.odb,Step-1,Increment      1: Step Time =    1.000,"P-31-1",           484,            0.,          165.,            0.,NA,NA,"",   1.01087E+06,   1.13280E+06,   1.13280E+06
C:/temp/Job-31.odb,Step-1,Increment      1: Step Time =    1.000,"P-31-1",           485,            0.,          175.,            0.,NA,NA,"",   1.12657E+06,   1.25780E+06,   1.25780E+06
C:/temp/Job-31.odb,Step-1,Increment      1: Step Time =    1.000,"P-31-1",           486,            0.,          185.,            0.,NA,NA,"",   1.30061E+06,   1.43600E+06,   1.43600E+06
C:/temp/Job-31.odb,Step-1,Increment      1: Step Time =    1.000,"P-31-1",           487,            0.,          195.,            0.,NA,NA,"",   1.74028E+06,   1.85418E+06,   1.85418E+06
C:/temp/Job-31.odb,Step-1,Increment      1: Step Time =    1.000,"P-31-1",           488,       103.252,       63.1674,            0.,NA,NA,"",   2.76297E+06,   2.87337E+06,   2.87337E+06
C:/temp/Job-31.odb,Step-1,Increment      1: Step Time =    1.000,"P-31-1",           489,       194.814,       44.2499,            0.,NA,NA,"",   963.133E+03,   1.01118E+06,   1.01118E+06
C:/temp/Job-31.odb,Step-1,Increment      1: Step Time =    1.000,"P-31-1",           490,       4.39589,       35.4787,            0.,NA,NA,"",   1.02441E+06,   1.13818E+06,   1.13818E+06
C:/temp/Job-31.odb,Step-1,Increment      1: Step Time =    1.000,"P-31-1",           491,       4.63977,       25.7539,            0.,NA,NA,"",   1.14580E+06,   1.26520E+06,   1.26520E+06
C:/temp/Job-31.odb,Step-1,Increment      1: Step Time =    1.000,"P-31-1",           492,       5.39101,       15.8293,            0.,NA,NA,"",   1.32224E+06,   1.43624E+06,   1.43624E+06
C:/temp/Job-31.odb,Step-1,Increment      1: Step Time =    1.000,"P-31-1",           493,       25.3145,       3.88510,            0.,NA,NA,"",   1.44789E+06,   1.44887E+06,   1.44887E+06
C:/temp/Job-31.odb,Step-1,Increment      1: Step Time =    1.000,"P-31-1",           494,       34.7213,       4.20623,            0.,NA,NA,"",   1.39693E+06,   1.39592E+06,   1.39592E+06
C:/temp/Job-31.odb,Step-1,Increment      1: Step Time =    1.000,"P-31-1",           495,       4.40321,       45.2351,            0.,NA,NA,"",   916.059E+03,   1.02072E+06,   1.02072E+06
C:/temp/Job-31.odb,Step-1,Increment      1: Step Time =    1.000,"P-31-1",           496,       192.574,       54.9295,            0.,NA,NA,"",   943.565E+03,   1.02203E+06,   1.02203E+06
C:/temp/Job-31.odb,Step-1,Increment      1: Step Time =    1.000,"P-31-1",           497,       5.03974,       134.726,            0.,NA,NA,"",   695.282E+03,   778.042E+03,   778.042E+03
C:/temp/Job-31.odb,Step-1,Increment      1: Step Time =    1.000,"P-31-1",           498,       4.74631,       124.917,            0.,NA,NA,"",   589.498E+03,   664.136E+03,   664.136E+03
C:/temp/Job-31.odb,Step-1,Increment      1: Step Time =    1.000,"P-31-1",           499,       195.128,       85.1535,            0.,NA,NA,"",   870.920E+03,   997.186E+03,   997.186E+03
C:/temp/Job-31.odb,Step-1,Increment      1: Step Time =    1.000,"P-31-1",           500,       195.000,       95.0669,            0.,NA,NA,"",   872.638E+03,   987.245E+03,   987.245E+03
C:/temp/Job-31.odb,Step-1,Increment      1: Step Time =    1.000,"P-31-1",           501,       94.9540,       194.886,            0.,NA,NA,"",   849.683E+03,   853.504E+03,   853.504E+03
C:/temp/Job-31.odb,Step-1,Increment      1: Step Time =    1.000,"P-31-1",           502,       84.9592,       194.916,            0.,NA,NA,"",   931.826E+03,   933.029E+03,   933.029E+03
C:/temp/Job-31.odb,Step-1,Increment      1: Step Time =    1.000,"P-31-1",           503,       5.54091,       5.47602,            0.,NA,NA,"",   1.70120E+06,   1.76739E+06,   1.76739E+06
C:/temp/Job-31.odb,Step-1,Increment      1: Step Time =    1.000,"P-31-1",           504,       15.8093,       4.88886,            0.,NA,NA,"",   1.52162E+06,   1.53125E+06,   1.53125E+06
C:/temp/Job-31.odb,Step-1,Increment      1: Step Time =    1.000,"P-31-1",           505,       44.2998,       5.16005,            0.,NA,NA,"",   1.33861E+06,   1.33504E+06,   1.33504E+06
C:/temp/Job-31.odb,Step-1,Increment      1: Step Time =    1.000,"P-31-1",           506,       54.8076,       7.56492,            0.,NA,NA,"",   1.26549E+06,   1.25857E+06,   1.25857E+06
C:/temp/Job-31.odb,Step-1,Increment      1: Step Time =    1.000,"P-31-1",           507,       65.5327,       5.19932,            0.,NA,NA,"",   1.14661E+06,   1.14438E+06,   1.14438E+06
C:/temp/Job-31.odb,Step-1,Increment      1: Step Time =    1.000,"P-31-1",           508,       75.3468,       4.72157,            0.,NA,NA,"",   1.03000E+06,   1.02898E+06,   1.02898E+06
C:/temp/Job-31.odb,Step-1,Increment      1: Step Time =    1.000,"P-31-1",           509,       85.1768,       4.81962,            0.,NA,NA,"",   924.268E+03,   925.494E+03,   925.494E+03
C:/temp/Job-31.odb,Step-1,Increment      1: Step Time =    1.000,"P-31-1",           510,       95.0941,       4.96040,            0.,NA,NA,"",   846.035E+03,   849.740E+03,   849.740E+03
C:/temp/Job-31.odb,Step-1,Increment      1: Step Time =    1.000,"P-31-1",           511,       105.097,       5.01455,            0.,NA,NA,"",   809.836E+03,   814.461E+03,   814.461E+03
C:/temp/Job-31.odb,Step-1,Increment      1: Step Time =    1.000,"P-31-1",           512,       115.109,       4.99445,            0.,NA,NA,"",   819.781E+03,   822.941E+03,   822.941E+03
C:/temp/Job-31.odb,Step-1,Increment      1: Step Time =    1.000,"P-31-1",           513,       125.097,       4.90055,            0.,NA,NA,"",   862.004E+03,   862.609E+03,   862.609E+03
C:/temp/Job-31.odb,Step-1,Increment      1: Step Time =    1.000,"P-31-1",           514,       134.977,       4.65513,            0.,NA,NA,"",   914.255E+03,   913.086E+03,   913.086E+03
C:/temp/Job-31.odb,Step-1,Increment      1: Step Time =    1.000,"P-31-1",           515,       144.836,       4.42063,            0.,NA,NA,"",   961.120E+03,   959.305E+03,   959.305E+03
C:/temp/Job-31.odb,Step-1,Increment      1: Step Time =    1.000,"P-31-1",           516,       154.713,       4.40296,            0.,NA,NA,"",   992.094E+03,   990.352E+03,   990.352E+03
C:/temp/Job-31.odb,Step-1,Increment      1: Step Time =    1.000,"P-31-1",           517,       164.489,       4.55854,            0.,NA,NA,"",   1.00422E+06,   1.00308E+06,   1.00308E+06
C:/temp/Job-31.odb,Step-1,Increment      1: Step Time =    1.000,"P-31-1",           518,       174.347,       4.85073,            0.,NA,NA,"",   1.00407E+06,   1.00372E+06,   1.00372E+06
C:/temp/Job-31.odb,Step-1,Increment      1: Step Time =    1.000,"P-31-1",           519,       184.345,       5.43755,            0.,NA,NA,"",   1.00041E+06,   1.00094E+06,   1.00094E+06
C:/temp/Job-31.odb,Step-1,Increment      1: Step Time =    1.000,"P-31-1",           520,       194.660,       5.43980,            0.,NA,NA,"",   999.896E+03,   999.768E+03,   999.768E+03
C:/temp/Job-31.odb,Step-1,Increment      1: Step Time =    1.000,"P-31-1",           521,       195.405,       15.4831,            0.,NA,NA,"",   1.00168E+06,   1.00206E+06,   1.00206E+06
C:/temp/Job-31.odb,Step-1,Increment      1: Step Time =    1.000,"P-31-1",           522,       195.992,       25.0350,            0.,NA,NA,"",   996.931E+03,   1.00296E+06,   1.00296E+06
C:/temp/Job-31.odb,Step-1,Increment      1: Step Time =    1.000,"P-31-1",           523,       195.586,       34.5398,            0.,NA,NA,"",   983.908E+03,   1.00543E+06,   1.00543E+06
C:/temp/Job-31.odb,Step-1,Increment      1: Step Time =    1.000,"P-31-1",           524,       195.333,       75.3705,            0.,NA,NA,"",   873.048E+03,   1.00512E+06,   1.00512E+06
C:/temp/Job-31.odb,Step-1,Increment      1: Step Time =    1.000,"P-31-1",           525,       194.953,       65.6067,            0.,NA,NA,"",   890.777E+03,   1.00870E+06,   1.00870E+06
C:/temp/Job-31.odb,Step-1,Increment      1: Step Time =    1.000,"P-31-1",           526,       194.985,       105.088,            0.,NA,NA,"",   872.391E+03,   987.272E+03,   987.272E+03
C:/temp/Job-31.odb,Step-1,Increment      1: Step Time =    1.000,"P-31-1",           527,       104.933,       194.983,            0.,NA,NA,"",   808.638E+03,   813.395E+03,   813.395E+03
C:/temp/Job-31.odb,Step-1,Increment      1: Step Time =    1.000,"P-31-1",           528,          195.,       115.126,            0.,NA,NA,"",   870.865E+03,   997.729E+03,   997.729E+03
C:/temp/Job-31.odb,Step-1,Increment      1: Step Time =    1.000,"P-31-1",           529,       114.862,       195.194,            0.,NA,NA,"",   813.862E+03,   817.145E+03,   817.145E+03
C:/temp/Job-31.odb,Step-1,Increment      1: Step Time =    1.000,"P-31-1",           530,       195.088,       125.113,            0.,NA,NA,"",   875.021E+03,   1.00660E+06,   1.00660E+06
C:/temp/Job-31.odb,Step-1,Increment      1: Step Time =    1.000,"P-31-1",           531,       124.671,       195.321,            0.,NA,NA,"",   856.247E+03,   857.121E+03,   857.121E+03
C:/temp/Job-31.odb,Step-1,Increment      1: Step Time =    1.000,"P-31-1",           532,       195.355,       135.004,            0.,NA,NA,"",   891.738E+03,   1.00973E+06,   1.00973E+06
C:/temp/Job-31.odb,Step-1,Increment      1: Step Time =    1.000,"P-31-1",           533,       134.443,       194.804,            0.,NA,NA,"",   917.454E+03,   916.868E+03,   916.868E+03
C:/temp/Job-31.odb,Step-1,Increment      1: Step Time =    1.000,"P-31-1",           534,       195.596,       144.855,            0.,NA,NA,"",   921.827E+03,   1.00949E+06,   1.00949E+06
C:/temp/Job-31.odb,Step-1,Increment      1: Step Time =    1.000,"P-31-1",           535,       195.598,       154.732,            0.,NA,NA,"",   955.612E+03,   1.00789E+06,   1.00789E+06
C:/temp/Job-31.odb,Step-1,Increment      1: Step Time =    1.000,"P-31-1",           536,       145.081,       192.426,            0.,NA,NA,"",   991.275E+03,   986.349E+03,   986.349E+03
C:/temp/Job-31.odb,Step-1,Increment      1: Step Time =    1.000,"P-31-1",           537,       195.444,       164.532,            0.,NA,NA,"",   981.835E+03,   1.00610E+06,   1.00610E+06
C:/temp/Job-31.odb,Step-1,Increment      1: Step Time =    1.000,"P-31-1",           538,       155.736,       194.774,            0.,NA,NA,"",   998.492E+03,   996.345E+03,   996.345E+03
C:/temp/Job-31.odb,Step-1,Increment      1: Step Time =    1.000,"P-31-1",           539,       195.169,       174.388,            0.,NA,NA,"",   996.822E+03,   1.00446E+06,   1.00446E+06
C:/temp/Job-31.odb,Step-1,Increment      1: Step Time =    1.000,"P-31-1",           540,       165.461,       195.567,            0.,NA,NA,"",   1.00520E+06,   1.00435E+06,   1.00435E+06
C:/temp/Job-31.odb,Step-1,Increment      1: Step Time =    1.000,"P-31-1",           541,       194.573,       184.354,            0.,NA,NA,"",   1.00191E+06,   1.00302E+06,   1.00302E+06
C:/temp/Job-31.odb,Step-1,Increment      1: Step Time =    1.000,"P-31-1",           542,       174.969,       195.976,            0.,NA,NA,"",   1.00331E+06,   1.00316E+06,   1.00316E+06
C:/temp/Job-31.odb,Step-1,Increment      1: Step Time =    1.000,"P-31-1",           543,       194.559,       194.656,            0.,NA,NA,"",   1.00000E+06,   999.915E+03,   999.915E+03
C:/temp/Job-31.odb,Step-1,Increment      1: Step Time =    1.000,"P-31-1",           544,       184.516,       195.393,            0.,NA,NA,"",   1.00019E+06,   1.00062E+06,   1.00062E+06
C:/temp/Job-31.odb,Step-1,Increment      1: Step Time =    1.000,"P-31-1",           545,       74.9688,       195.033,            0.,NA,NA,"",   1.03879E+06,   1.03724E+06,   1.03724E+06
C:/temp/Job-31.odb,Step-1,Increment      1: Step Time =    1.000,"P-31-1",           546,       65.0678,       195.257,            0.,NA,NA,"",   1.14945E+06,   1.14656E+06,   1.14656E+06
C:/temp/Job-31.odb,Step-1,Increment      1: Step Time =    1.000,"P-31-1",           547,       55.2138,       195.469,            0.,NA,NA,"",   1.24983E+06,   1.24686E+06,   1.24686E+06
C:/temp/Job-31.odb,Step-1,Increment      1: Step Time =    1.000,"P-31-1",           548,       45.3164,       195.498,            0.,NA,NA,"",   1.33135E+06,   1.32896E+06,   1.32896E+06
C:/temp/Job-31.odb,Step-1,Increment      1: Step Time =    1.000,"P-31-1",           549,       35.4577,       195.388,            0.,NA,NA,"",   1.39321E+06,   1.39196E+06,   1.39196E+06
C:/temp/Job-31.odb,Step-1,Increment      1: Step Time =    1.000,"P-31-1",           550,       25.6588,       195.170,            0.,NA,NA,"",   1.44761E+06,   1.44879E+06,   1.44879E+06
C:/temp/Job-31.odb,Step-1,Increment      1: Step Time =    1.000,"P-31-1",           551,       15.6846,       194.647,            0.,NA,NA,"",   1.52312E+06,   1.53399E+06,   1.53399E+06
C:/temp/Job-31.odb,Step-1,Increment      1: Step Time =    1.000,"P-31-1",           552,       5.35687,       194.571,            0.,NA,NA,"",   1.70216E+06,   1.77074E+06,   1.77074E+06
C:/temp/Job-31.odb,Step-1,Increment      1: Step Time =    1.000,"P-31-1",           553,       4.74581,       184.322,            0.,NA,NA,"",   1.31719E+06,   1.43592E+06,   1.43592E+06
C:/temp/Job-31.odb,Step-1,Increment      1: Step Time =    1.000,"P-31-1",           554,       4.11266,       174.546,            0.,NA,NA,"",   1.14560E+06,   1.26752E+06,   1.26752E+06
C:/temp/Job-31.odb,Step-1,Increment      1: Step Time =    1.000,"P-31-1",           555,       4.41442,       165.171,            0.,NA,NA,"",   1.03255E+06,   1.14722E+06,   1.14722E+06
C:/temp/Job-31.odb,Step-1,Increment      1: Step Time =    1.000,"P-31-1",           556,       4.99916,       155.598,            0.,NA,NA,"",   928.890E+03,   1.03301E+06,   1.03301E+06
C:/temp/Job-31.odb,Step-1,Increment      1: Step Time =    1.000,"P-31-1",           557,       6.97045,       145.423,            0.,NA,NA,"",   829.008E+03,   917.954E+03,   917.954E+03
C:/temp/Job-31.odb,Step-1,Increment      1: Step Time =    1.000,"P-31-1",           558,       4.88228,       115.088,            0.,NA,NA,"",   500.999E+03,   569.151E+03,   569.151E+03
C:/temp/Job-31.odb,Step-1,Increment      1: Step Time =    1.000,"P-31-1",           559,       5.03882,       105.120,            0.,NA,NA,"",   446.949E+03,   511.174E+03,   511.174E+03
C:/temp/Job-31.odb,Step-1,Increment      1: Step Time =    1.000,"P-31-1",           560,       5.11626,       95.0405,            0.,NA,NA,"",   446.400E+03,   510.613E+03,   510.613E+03
C:/temp/Job-31.odb,Step-1,Increment      1: Step Time =    1.000,"P-31-1",           561,       5.13362,       84.9664,            0.,NA,NA,"",   500.553E+03,   568.745E+03,   568.745E+03
C:/temp/Job-31.odb,Step-1,Increment      1: Step Time =    1.000,"P-31-1",           562,       5.04385,       74.8789,            0.,NA,NA,"",   592.208E+03,   666.958E+03,   666.958E+03
C:/temp/Job-31.odb,Step-1,Increment      1: Step Time =    1.000,"P-31-1",           563,       4.86913,       64.8242,            0.,NA,NA,"",   701.277E+03,   784.922E+03,   784.922E+03
C:/temp/Job-31.odb,Step-1,Increment      1: Step Time =    1.000,"P-31-1",           564,       4.63839,       54.9294,            0.,NA,NA,"",   810.209E+03,   904.329E+03,   904.329E+03
C:/temp/Job-31.odb,Step-1,Increment      1: Step Time =    1.000,"P-31-1",           565,       189.388,       5.72471,            0.,NA,NA,"",   999.547E+03,   1.00004E+06,   1.00004E+06
C:/temp/Job-31.odb,Step-1,Increment      1: Step Time =    1.000,"P-31-1",           566,       179.329,       5.10941,            0.,NA,NA,"",   1.00222E+06,   1.00232E+06,   1.00232E+06
C:/temp/Job-31.odb,Step-1,Increment      1: Step Time =    1.000,"P-31-1",           567,       169.400,       4.68370,            0.,NA,NA,"",   1.00513E+06,   1.00437E+06,   1.00437E+06
C:/temp/Job-31.odb,Step-1,Increment      1: Step Time =    1.000,"P-31-1",           568,       159.603,       4.46498,            0.,NA,NA,"",   1.00018E+06,   998.686E+03,   998.686E+03
C:/temp/Job-31.odb,Step-1,Increment      1: Step Time =    1.000,"P-31-1",           569,       149.787,       4.38464,            0.,NA,NA,"",   979.087E+03,   977.221E+03,   977.221E+03
C:/temp/Job-31.odb,Step-1,Increment      1: Step Time =    1.000,"P-31-1",           570,       139.895,       4.51858,            0.,NA,NA,"",   939.106E+03,   937.521E+03,   937.521E+03
C:/temp/Job-31.odb,Step-1,Increment      1: Step Time =    1.000,"P-31-1",           571,       130.053,       4.79145,            0.,NA,NA,"",   888.012E+03,   887.592E+03,   887.592E+03
C:/temp/Job-31.odb,Step-1,Increment      1: Step Time =    1.000,"P-31-1",           572,       120.111,       4.96546,            0.,NA,NA,"",   838.284E+03,   840.176E+03,   840.176E+03
C:/temp/Job-31.odb,Step-1,Increment      1: Step Time =    1.000,"P-31-1",           573,       110.103,       5.00899,            0.,NA,NA,"",   809.523E+03,   813.670E+03,   813.670E+03
C:/temp/Job-31.odb,Step-1,Increment      1: Step Time =    1.000,"P-31-1",           574,       100.088,       5.00095,            0.,NA,NA,"",   822.018E+03,   826.471E+03,   826.471E+03
C:/temp/Job-31.odb,Step-1,Increment      1: Step Time =    1.000,"P-31-1",           575,       90.1254,       4.89534,            0.,NA,NA,"",   880.723E+03,   883.243E+03,   883.243E+03
C:/temp/Job-31.odb,Step-1,Increment      1: Step Time =    1.000,"P-31-1",           576,       80.2469,       4.74467,            0.,NA,NA,"",   974.719E+03,   974.706E+03,   974.706E+03
C:/temp/Job-31.odb,Step-1,Increment      1: Step Time =    1.000,"P-31-1",           577,       70.4532,       4.83740,            0.,NA,NA,"",   1.08825E+06,   1.08645E+06,   1.08645E+06
C:/temp/Job-31.odb,Step-1,Increment      1: Step Time =    1.000,"P-31-1",           578,       60.5170,       5.99469,            0.,NA,NA,"",   1.20416E+06,   1.20083E+06,   1.20083E+06
C:/temp/Job-31.odb,Step-1,Increment      1: Step Time =    1.000,"P-31-1",           579,       49.2361,       6.04287,            0.,NA,NA,"",   1.30435E+06,   1.29889E+06,   1.29889E+06
C:/temp/Job-31.odb,Step-1,Increment      1: Step Time =    1.000,"P-31-1",           580,       39.4730,       4.57927,            0.,NA,NA,"",   1.36989E+06,   1.36774E+06,   1.36774E+06
C:/temp/Job-31.odb,Step-1,Increment      1: Step Time =    1.000,"P-31-1",           581,       30.0197,       3.92825,            0.,NA,NA,"",   1.42232E+06,   1.42195E+06,   1.42195E+06
C:/temp/Job-31.odb,Step-1,Increment      1: Step Time =    1.000,"P-31-1",           582,       20.5929,       4.21526,            0.,NA,NA,"",   1.48102E+06,   1.48376E+06,   1.48376E+06
C:/temp/Job-31.odb,Step-1,Increment      1: Step Time =    1.000,"P-31-1",           583,       10.9049,       5.55465,            0.,NA,NA,"",   1.60121E+06,   1.61948E+06,   1.61948E+06
C:/temp/Job-31.odb,Step-1,Increment      1: Step Time =    1.000,"P-31-1",           584,       194.280,       189.387,            0.,NA,NA,"",   1.00154E+06,   1.00168E+06,   1.00168E+06
C:/temp/Job-31.odb,Step-1,Increment      1: Step Time =    1.000,"P-31-1",           585,       194.910,       179.357,            0.,NA,NA,"",   1.00032E+06,   1.00370E+06,   1.00370E+06
C:/temp/Job-31.odb,Step-1,Increment      1: Step Time =    1.000,"P-31-1",           586,       195.331,       169.449,            0.,NA,NA,"",   990.824E+03,   1.00531E+06,   1.00531E+06
C:/temp/Job-31.odb,Step-1,Increment      1: Step Time =    1.000,"P-31-1",           587,       195.533,       159.636,            0.,NA,NA,"",   970.033E+03,   1.00697E+06,   1.00697E+06
C:/temp/Job-31.odb,Step-1,Increment      1: Step Time =    1.000,"P-31-1",           588,       195.629,       149.807,            0.,NA,NA,"",   939.158E+03,   1.00881E+06,   1.00881E+06
C:/temp/Job-31.odb,Step-1,Increment      1: Step Time =    1.000,"P-31-1",           589,       195.501,       139.920,            0.,NA,NA,"",   905.467E+03,   1.00986E+06,   1.00986E+06
C:/temp/Job-31.odb,Step-1,Increment      1: Step Time =    1.000,"P-31-1",           590,       195.206,       130.073,            0.,NA,NA,"",   881.576E+03,   1.00880E+06,   1.00880E+06
C:/temp/Job-31.odb,Step-1,Increment      1: Step Time =    1.000,"P-31-1",           591,       195.025,       120.130,            0.,NA,NA,"",   871.725E+03,   1.00290E+06,   1.00290E+06
C:/temp/Job-31.odb,Step-1,Increment      1: Step Time =    1.000,"P-31-1",           592,       194.992,       110.112,            0.,NA,NA,"",   871.447E+03,   991.985E+03,   991.985E+03
C:/temp/Job-31.odb,Step-1,Increment      1: Step Time =    1.000,"P-31-1",           593,       194.985,       100.065,            0.,NA,NA,"",   872.883E+03,   985.417E+03,   985.417E+03
C:/temp/Job-31.odb,Step-1,Increment      1: Step Time =    1.000,"P-31-1",           594,       195.046,       90.0965,            0.,NA,NA,"",   871.775E+03,   991.758E+03,   991.758E+03
C:/temp/Job-31.odb,Step-1,Increment      1: Step Time =    1.000,"P-31-1",           595,       195.241,       80.2433,            0.,NA,NA,"",   870.893E+03,   1.00186E+06,   1.00186E+06
C:/temp/Job-31.odb,Step-1,Increment      1: Step Time =    1.000,"P-31-1",           596,       195.281,       70.5115,            0.,NA,NA,"",   879.468E+03,   1.00746E+06,   1.00746E+06
C:/temp/Job-31.odb,Step-1,Increment      1: Step Time =    1.000,"P-31-1",           597,       194.160,       60.5988,            0.,NA,NA,"",   909.832E+03,   1.01179E+06,   1.01179E+06
C:/temp/Job-31.odb,Step-1,Increment      1: Step Time =    1.000,"P-31-1",           598,       194.018,       49.2637,            0.,NA,NA,"",   952.967E+03,   1.01666E+06,   1.01666E+06
C:/temp/Job-31.odb,Step-1,Increment      1: Step Time =    1.000,"P-31-1",           599,       195.300,       39.3472,            0.,NA,NA,"",   973.969E+03,   1.00746E+06,   1.00746E+06
C:/temp/Job-31.odb,Step-1,Increment      1: Step Time =    1.000,"P-31-1",           600,       195.826,       29.7726,            0.,NA,NA,"",   991.464E+03,   1.00392E+06,   1.00392E+06
C:/temp/Job-31.odb,Step-1,Increment      1: Step Time =    1.000,"P-31-1",           601,       195.946,       20.2945,            0.,NA,NA,"",   1.00019E+06,   1.00232E+06,   1.00232E+06
C:/temp/Job-31.odb,Step-1,Increment      1: Step Time =    1.000,"P-31-1",           602,       194.717,       10.6853,            0.,NA,NA,"",   1.00141E+06,   1.00131E+06,   1.00131E+06
C:/temp/Job-31.odb,Step-1,Increment      1: Step Time =    1.000,"P-31-1",           603,       10.6209,       194.330,            0.,NA,NA,"",   1.60439E+06,   1.62444E+06,   1.62444E+06
C:/temp/Job-31.odb,Step-1,Increment      1: Step Time =    1.000,"P-31-1",           604,       20.7099,       194.967,            0.,NA,NA,"",   1.48108E+06,   1.48488E+06,   1.48488E+06
C:/temp/Job-31.odb,Step-1,Increment      1: Step Time =    1.000,"P-31-1",           605,       30.5589,       195.302,            0.,NA,NA,"",   1.42042E+06,   1.41992E+06,   1.41992E+06
C:/temp/Job-31.odb,Step-1,Increment      1: Step Time =    1.000,"P-31-1",           606,       40.3794,       195.452,            0.,NA,NA,"",   1.36446E+06,   1.36248E+06,   1.36248E+06
C:/temp/Job-31.odb,Step-1,Increment      1: Step Time =    1.000,"P-31-1",           607,       50.2646,       195.508,            0.,NA,NA,"",   1.29338E+06,   1.29058E+06,   1.29058E+06
C:/temp/Job-31.odb,Step-1,Increment      1: Step Time =    1.000,"P-31-1",           608,       60.1442,       195.378,            0.,NA,NA,"",   1.20151E+06,   1.19846E+06,   1.19846E+06
C:/temp/Job-31.odb,Step-1,Increment      1: Step Time =    1.000,"P-31-1",           609,       70.0086,       195.134,            0.,NA,NA,"",   1.09479E+06,   1.09235E+06,   1.09235E+06
C:/temp/Job-31.odb,Step-1,Increment      1: Step Time =    1.000,"P-31-1",           610,       79.9583,       194.959,            0.,NA,NA,"",   983.620E+03,   983.356E+03,   983.356E+03
C:/temp/Job-31.odb,Step-1,Increment      1: Step Time =    1.000,"P-31-1",           611,       89.9620,       194.887,            0.,NA,NA,"",   886.313E+03,   889.001E+03,   889.001E+03
C:/temp/Job-31.odb,Step-1,Increment      1: Step Time =    1.000,"P-31-1",           612,       99.9427,       194.911,            0.,NA,NA,"",   823.475E+03,   828.060E+03,   828.060E+03
C:/temp/Job-31.odb,Step-1,Increment      1: Step Time =    1.000,"P-31-1",           613,       109.907,       195.081,            0.,NA,NA,"",   805.634E+03,   809.919E+03,   809.919E+03
C:/temp/Job-31.odb,Step-1,Increment      1: Step Time =    1.000,"P-31-1",           614,       119.782,       195.296,            0.,NA,NA,"",   831.562E+03,   833.504E+03,   833.504E+03
C:/temp/Job-31.odb,Step-1,Increment      1: Step Time =    1.000,"P-31-1",           615,       129.547,       195.190,            0.,NA,NA,"",   885.698E+03,   885.756E+03,   885.756E+03
C:/temp/Job-31.odb,Step-1,Increment      1: Step Time =    1.000,"P-31-1",           616,       139.424,       193.993,            0.,NA,NA,"",   951.138E+03,   949.099E+03,   949.099E+03
C:/temp/Job-31.odb,Step-1,Increment      1: Step Time =    1.000,"P-31-1",           617,       150.735,       193.943,            0.,NA,NA,"",   992.801E+03,   989.188E+03,   989.188E+03
C:/temp/Job-31.odb,Step-1,Increment      1: Step Time =    1.000,"P-31-1",           618,       160.645,       195.279,            0.,NA,NA,"",   1.00313E+06,   1.00183E+06,   1.00183E+06
C:/temp/Job-31.odb,Step-1,Increment      1: Step Time =    1.000,"P-31-1",           619,       170.235,       195.815,            0.,NA,NA,"",   1.00493E+06,   1.00446E+06,   1.00446E+06
C:/temp/Job-31.odb,Step-1,Increment      1: Step Time =    1.000,"P-31-1",           620,       179.708,       195.934,            0.,NA,NA,"",   1.00162E+06,   1.00168E+06,   1.00168E+06
C:/temp/Job-31.odb,Step-1,Increment      1: Step Time =    1.000,"P-31-1",           621,       189.312,       194.709,            0.,NA,NA,"",   999.571E+03,   1.00007E+06,   1.00007E+06
C:/temp/Job-31.odb,Step-1,Increment      1: Step Time =    1.000,"P-31-1",           622,       5.80015,       10.8079,            0.,NA,NA,"",   1.47104E+06,   1.57124E+06,   1.57124E+06
C:/temp/Job-31.odb,Step-1,Increment      1: Step Time =    1.000,"P-31-1",           623,       4.92452,       20.8348,            0.,NA,NA,"",   1.22401E+06,   1.34291E+06,   1.34291E+06
C:/temp/Job-31.odb,Step-1,Increment      1: Step Time =    1.000,"P-31-1",           624,       4.45737,       30.6206,            0.,NA,NA,"",   1.08200E+06,   1.19923E+06,   1.19923E+06
C:/temp/Job-31.odb,Step-1,Increment      1: Step Time =    1.000,"P-31-1",           625,       4.35025,       40.3444,            0.,NA,NA,"",   969.998E+03,   1.07945E+06,   1.07945E+06
C:/temp/Job-31.odb,Step-1,Increment      1: Step Time =    1.000,"P-31-1",           626,       4.49803,       50.0653,            0.,NA,NA,"",   863.126E+03,   962.590E+03,   962.590E+03
C:/temp/Job-31.odb,Step-1,Increment      1: Step Time =    1.000,"P-31-1",           627,       4.77042,       59.8483,            0.,NA,NA,"",   756.462E+03,   845.244E+03,   845.244E+03
C:/temp/Job-31.odb,Step-1,Increment      1: Step Time =    1.000,"P-31-1",           628,       4.97004,       69.8356,            0.,NA,NA,"",   645.807E+03,   724.735E+03,   724.735E+03
C:/temp/Job-31.odb,Step-1,Increment      1: Step Time =    1.000,"P-31-1",           629,       5.11045,       79.9259,            0.,NA,NA,"",   542.920E+03,   614.100E+03,   614.100E+03
C:/temp/Job-31.odb,Step-1,Increment      1: Step Time =    1.000,"P-31-1",           630,       5.14005,       90.0016,            0.,NA,NA,"",   467.564E+03,   533.387E+03,   533.387E+03
C:/temp/Job-31.odb,Step-1,Increment      1: Step Time =    1.000,"P-31-1",           631,       5.08664,       100.081,            0.,NA,NA,"",   439.248E+03,   502.882E+03,   502.882E+03
C:/temp/Job-31.odb,Step-1,Increment      1: Step Time =    1.000,"P-31-1",           632,       4.96589,       110.124,            0.,NA,NA,"",   468.405E+03,   534.218E+03,   534.218E+03
C:/temp/Job-31.odb,Step-1,Increment      1: Step Time =    1.000,"P-31-1",           633,       4.79032,       120.013,            0.,NA,NA,"",   542.180E+03,   613.282E+03,   613.282E+03
C:/temp/Job-31.odb,Step-1,Increment      1: Step Time =    1.000,"P-31-1",           634,       4.79406,       129.818,            0.,NA,NA,"",   641.008E+03,   719.632E+03,   719.632E+03
C:/temp/Job-31.odb,Step-1,Increment      1: Step Time =    1.000,"P-31-1",           635,       5.64614,       139.754,            0.,NA,NA,"",   754.234E+03,   840.900E+03,   840.900E+03
C:/temp/Job-31.odb,Step-1,Increment      1: Step Time =    1.000,"P-31-1",           636,       5.68800,       150.789,            0.,NA,NA,"",   880.583E+03,   978.473E+03,   978.473E+03
C:/temp/Job-31.odb,Step-1,Increment      1: Step Time =    1.000,"P-31-1",           637,       4.56589,       160.420,            0.,NA,NA,"",   980.485E+03,   1.09009E+06,   1.09009E+06
C:/temp/Job-31.odb,Step-1,Increment      1: Step Time =    1.000,"P-31-1",           638,       4.24110,       169.872,            0.,NA,NA,"",   1.08552E+06,   1.20422E+06,   1.20422E+06
C:/temp/Job-31.odb,Step-1,Increment      1: Step Time =    1.000,"P-31-1",           639,       4.25606,       179.404,            0.,NA,NA,"",   1.22153E+06,   1.34441E+06,   1.34441E+06
C:/temp/Job-31.odb,Step-1,Increment      1: Step Time =    1.000,"P-31-1",           640,       5.36963,       189.288,            0.,NA,NA,"",   1.46759E+06,   1.57205E+06,   1.57205E+06
C:/temp/Job-31.odb,Step-1,Increment      1: Step Time =    1.000,"P-31-1",           641,       66.8564,       120.947,            0.,NA,NA,"",   682.946E+03,   370.089E+03,   370.089E+03
C:/temp/Job-31.odb,Step-1,Increment      1: Step Time =    1.000,"P-31-1",           642,       68.3796,       79.6752,            0.,NA,NA,"",   591.354E+03,   346.766E+03,   346.766E+03
C:/temp/Job-31.odb,Step-1,Increment      1: Step Time =    1.000,"P-31-1",           643,       63.9944,       111.050,            0.,NA,NA,"",   511.253E+03,  -460.000E+03,  -460.000E+03
C:/temp/Job-31.odb,Step-1,Increment      1: Step Time =    1.000,"P-31-1",           644,       66.0969,       84.5823,            0.,NA,NA,"",   497.348E+03,  -185.629E+03,  -185.629E+03
C:/temp/Job-31.odb,Step-1,Increment      1: Step Time =    1.000,"P-31-1",           645,       62.0144,       101.362,            0.,NA,NA,"",   568.409E+03,  -581.607E+03,  -581.607E+03
C:/temp/Job-31.odb,Step-1,Increment      1: Step Time =    1.000,"P-31-1",           646,       70.8042,       74.1471,            0.,NA,NA,"",   969.082E+03,   881.968E+03,   881.968E+03
C:/temp/Job-31.odb,Step-1,Increment      1: Step Time =    1.000,"P-31-1",           647,       132.609,       77.5362,            0.,NA,NA,"",   1.07485E+06,   889.221E+03,   889.221E+03
C:/temp/Job-31.odb,Step-1,Increment      1: Step Time =    1.000,"P-31-1",           648,       79.5910,       132.741,            0.,NA,NA,"",   1.65560E+06,   1.68110E+06,   1.68110E+06
C:/temp/Job-31.odb,Step-1,Increment      1: Step Time =    1.000,"P-31-1",           649,       116.650,       133.340,            0.,NA,NA,"",   2.21985E+06,   2.28191E+06,   2.28191E+06
C:/temp/Job-31.odb,Step-1,Increment      1: Step Time =    1.000,"P-31-1",           650,       132.129,       118.411,            0.,NA,NA,"",   716.347E+03,   318.889E+03,   318.889E+03
C:/temp/Job-31.odb,Step-1,Increment      1: Step Time =    1.000,"P-31-1",           651,       134.339,       86.1552,            0.,NA,NA,"",   684.503E+03,  -293.691E+03,  -293.691E+03
C:/temp/Job-31.odb,Step-1,Increment      1: Step Time =    1.000,"P-31-1",           652,       92.1386,       61.9910,            0.,NA,NA,"",   2.31096E+06,   2.42512E+06,   2.42512E+06
C:/temp/Job-31.odb,Step-1,Increment      1: Step Time =    1.000,"P-31-1",           653,       80.4495,       66.4431,            0.,NA,NA,"",   1.71601E+06,   1.74081E+06,   1.74081E+06
C:/temp/Job-31.odb,Step-1,Increment      1: Step Time =    1.000,"P-31-1",           654,       113.806,       65.0906,            0.,NA,NA,"",   2.38604E+06,   2.47462E+06,   2.47462E+06
C:/temp/Job-31.odb,Step-1,Increment      1: Step Time =    1.000,"P-31-1",           655,       123.405,       69.5117,            0.,NA,NA,"",   1.69948E+06,   1.69449E+06,   1.69449E+06
C:/temp/Job-31.odb,Step-1,Increment      1: Step Time =    1.000,"P-31-1",           656,       86.3059,       64.5739,            0.,NA,NA,"",   2.10891E+06,   2.18368E+06,   2.18368E+06
C:/temp/Job-31.odb,Step-1,Increment      1: Step Time =    1.000,"P-31-1",           657,       118.747,       67.1490,            0.,NA,NA,"",   2.04916E+06,   2.10228E+06,   2.10228E+06
C:/temp/Job-31.odb,Step-1,Increment      1: Step Time =    1.000,"P-31-1",           658,       136.923,       101.207,            0.,NA,NA,"",   922.347E+03,  -937.015E+03,  -937.015E+03
C:/temp/Job-31.odb,Step-1,Increment      1: Step Time =    1.000,"P-31-1",           659,       133.252,       81.6211,            0.,NA,NA,"",   783.877E+03,   404.959E+03,   404.959E+03
C:/temp/Job-31.odb,Step-1,Increment      1: Step Time =    1.000,"P-31-1",           660,       137.188,       110.771,            0.,NA,NA,"",   750.079E+03,  -640.121E+03,  -640.121E+03
C:/temp/Job-31.odb,Step-1,Increment      1: Step Time =    1.000,"P-31-1",           661,       120.609,       62.3117,            0.,NA,NA,"",   1.82620E+06,   1.86963E+06,   1.86963E+06
C:/temp/Job-31.odb,Step-1,Increment      1: Step Time =    1.000,"P-31-1",           662,       80.8181,       61.1225,            0.,NA,NA,"",   1.75845E+06,   1.79006E+06,   1.79006E+06
C:/temp/Job-31.odb,Step-1,Increment      1: Step Time =    1.000,"P-31-1",           663,       139.028,       86.3333,            0.,NA,NA,"",   832.910E+03,   9.28987E+03,   9.28987E+03
C:/temp/Job-31.odb,Step-1,Increment      1: Step Time =    1.000,"P-31-1",           664,       59.8696,       86.8109,            0.,NA,NA,"",   528.709E+03,  -4.57733E+03,  -4.57733E+03
C:/temp/Job-31.odb,Step-1,Increment      1: Step Time =    1.000,"P-31-1",           665,       140.396,       95.7773,            0.,NA,NA,"",   596.591E+03,  -567.818E+03,  -567.818E+03
C:/temp/Job-31.odb,Step-1,Increment      1: Step Time =    1.000,"P-31-1",           666,       55.4482,       97.6491,            0.,NA,NA,"",   242.691E+03,  -161.268E+03,  -161.268E+03
C:/temp/Job-31.odb,Step-1,Increment      1: Step Time =    1.000,"P-31-1",           667,       138.352,       77.9366,            0.,NA,NA,"",   1.23578E+06,   936.865E+03,   936.865E+03
C:/temp/Job-31.odb,Step-1,Increment      1: Step Time =    1.000,"P-31-1",           668,       64.0864,       78.0607,            0.,NA,NA,"",   847.996E+03,   654.287E+03,   654.287E+03
C:/temp/Job-31.odb,Step-1,Increment      1: Step Time =    1.000,"P-31-1",           669,       88.7580,       57.8241,            0.,NA,NA,"",   1.84915E+06,   1.96129E+06,   1.96129E+06
C:/temp/Job-31.odb,Step-1,Increment      1: Step Time =    1.000,"P-31-1",           670,       115.278,       59.7220,            0.,NA,NA,"",   1.91094E+06,   2.01967E+06,   2.01967E+06
C:/temp/Job-31.odb,Step-1,Increment      1: Step Time =    1.000,"P-31-1",           671,       142.127,       105.782,            0.,NA,NA,"",   567.543E+03,  -474.443E+03,  -474.443E+03
C:/temp/Job-31.odb,Step-1,Increment      1: Step Time =    1.000,"P-31-1",           672,       57.3906,       107.590,            0.,NA,NA,"",   386.165E+03,  -212.171E+03,  -212.171E+03
C:/temp/Job-31.odb,Step-1,Increment      1: Step Time =    1.000,"P-31-1",           673,       133.282,       72.8512,            0.,NA,NA,"",   1.37525E+06,   1.19936E+06,   1.19936E+06
C:/temp/Job-31.odb,Step-1,Increment      1: Step Time =    1.000,"P-31-1",           674,       69.1676,       68.8317,            0.,NA,NA,"",   1.34207E+06,   1.22691E+06,   1.22691E+06
C:/temp/Job-31.odb,Step-1,Increment      1: Step Time =    1.000,"P-31-1",           675,       99.4554,       57.9849,            0.,NA,NA,"",   2.07220E+06,   2.23301E+06,   2.23301E+06
C:/temp/Job-31.odb,Step-1,Increment      1: Step Time =    1.000,"P-31-1",           676,       139.877,       9.07765,            0.,NA,NA,"",   989.587E+03,   985.203E+03,   985.203E+03
C:/temp/Job-31.odb,Step-1,Increment      1: Step Time =    1.000,"P-31-1",           677,       130.211,       9.68426,            0.,NA,NA,"",   960.121E+03,   959.146E+03,   959.146E+03
C:/temp/Job-31.odb,Step-1,Increment      1: Step Time =    1.000,"P-31-1",           678,       120.254,       9.96730,            0.,NA,NA,"",   925.814E+03,   931.350E+03,   931.350E+03
C:/temp/Job-31.odb,Step-1,Increment      1: Step Time =    1.000,"P-31-1",           679,       110.215,       10.0252,            0.,NA,NA,"",   904.252E+03,   915.833E+03,   915.833E+03
C:/temp/Job-31.odb,Step-1,Increment      1: Step Time =    1.000,"P-31-1",           680,       100.145,       10.0227,            0.,NA,NA,"",   918.000E+03,   930.625E+03,   930.625E+03
C:/temp/Job-31.odb,Step-1,Increment      1: Step Time =    1.000,"P-31-1",           681,       90.1903,       9.85675,            0.,NA,NA,"",   971.484E+03,   978.895E+03,   978.895E+03
C:/temp/Job-31.odb,Step-1,Increment      1: Step Time =    1.000,"P-31-1",           682,       80.4420,       9.54807,            0.,NA,NA,"",   1.04957E+06,   1.04984E+06,   1.04984E+06
C:/temp/Job-31.odb,Step-1,Increment      1: Step Time =    1.000,"P-31-1",           683,       71.0297,       9.54475,            0.,NA,NA,"",   1.13974E+06,   1.13432E+06,   1.13432E+06
C:/temp/Job-31.odb,Step-1,Increment      1: Step Time =    1.000,"P-31-1",           684,       62.0968,       11.1660,            0.,NA,NA,"",   1.23323E+06,   1.22248E+06,   1.22248E+06
C:/temp/Job-31.odb,Step-1,Increment      1: Step Time =    1.000,"P-31-1",           685,       190.983,       139.947,            0.,NA,NA,"",   937.220E+03,   1.02705E+06,   1.02705E+06
C:/temp/Job-31.odb,Step-1,Increment      1: Step Time =    1.000,"P-31-1",           686,       190.322,       130.283,            0.,NA,NA,"",   909.554E+03,   1.02253E+06,   1.02253E+06
C:/temp/Job-31.odb,Step-1,Increment      1: Step Time =    1.000,"P-31-1",           687,       190.005,       120.306,            0.,NA,NA,"",   877.436E+03,   1.00463E+06,   1.00463E+06
C:/temp/Job-31.odb,Step-1,Increment      1: Step Time =    1.000,"P-31-1",           688,       190.012,       110.239,            0.,NA,NA,"",   847.056E+03,   975.833E+03,   975.833E+03
C:/temp/Job-31.odb,Step-1,Increment      1: Step Time =    1.000,"P-31-1",           689,       189.972,       100.134,            0.,NA,NA,"",   832.880E+03,   958.166E+03,   958.166E+03
C:/temp/Job-31.odb,Step-1,Increment      1: Step Time =    1.000,"P-31-1",           690,       189.989,       90.1586,            0.,NA,NA,"",   845.345E+03,   973.851E+03,   973.851E+03
C:/temp/Job-31.odb,Step-1,Increment      1: Step Time =    1.000,"P-31-1",           691,       189.106,       62.2836,            0.,NA,NA,"",   946.467E+03,   1.03435E+06,   1.03435E+06
C:/temp/Job-31.odb,Step-1,Increment      1: Step Time =    1.000,"P-31-1",           692,       60.2075,       190.684,            0.,NA,NA,"",   1.23190E+06,   1.22332E+06,   1.22332E+06
C:/temp/Job-31.odb,Step-1,Increment      1: Step Time =    1.000,"P-31-1",           693,       69.9256,       190.165,            0.,NA,NA,"",   1.15264E+06,   1.14605E+06,   1.14605E+06
C:/temp/Job-31.odb,Step-1,Increment      1: Step Time =    1.000,"P-31-1",           694,       79.8663,       189.855,            0.,NA,NA,"",   1.06493E+06,   1.06445E+06,   1.06445E+06
C:/temp/Job-31.odb,Step-1,Increment      1: Step Time =    1.000,"P-31-1",           695,       89.9122,       189.704,            0.,NA,NA,"",   981.199E+03,   988.922E+03,   988.922E+03
C:/temp/Job-31.odb,Step-1,Increment      1: Step Time =    1.000,"P-31-1",           696,       9.67343,       59.5590,            0.,NA,NA,"",   783.339E+03,   863.663E+03,   863.663E+03
C:/temp/Job-31.odb,Step-1,Increment      1: Step Time =    1.000,"P-31-1",           697,       9.95476,       69.5892,            0.,NA,NA,"",   658.225E+03,   733.084E+03,   733.084E+03
C:/temp/Job-31.odb,Step-1,Increment      1: Step Time =    1.000,"P-31-1",           698,       10.2285,       79.8309,            0.,NA,NA,"",   538.770E+03,   609.609E+03,   609.609E+03
C:/temp/Job-31.odb,Step-1,Increment      1: Step Time =    1.000,"P-31-1",           699,       10.2869,       90.0466,            0.,NA,NA,"",   452.726E+03,   519.302E+03,   519.302E+03
C:/temp/Job-31.odb,Step-1,Increment      1: Step Time =    1.000,"P-31-1",           700,       10.1475,       100.239,            0.,NA,NA,"",   421.301E+03,   485.336E+03,   485.336E+03
C:/temp/Job-31.odb,Step-1,Increment      1: Step Time =    1.000,"P-31-1",           701,       9.94968,       110.360,            0.,NA,NA,"",   455.886E+03,   522.684E+03,   522.684E+03
C:/temp/Job-31.odb,Step-1,Increment      1: Step Time =    1.000,"P-31-1",           702,       9.61837,       120.109,            0.,NA,NA,"",   538.099E+03,   609.179E+03,   609.179E+03
C:/temp/Job-31.odb,Step-1,Increment      1: Step Time =    1.000,"P-31-1",           703,       9.51552,       129.551,            0.,NA,NA,"",   645.927E+03,   721.057E+03,   721.057E+03
C:/temp/Job-31.odb,Step-1,Increment      1: Step Time =    1.000,"P-31-1",           704,       190.360,       80.4019,            0.,NA,NA,"",   873.350E+03,   1.00192E+06,   1.00192E+06
C:/temp/Job-31.odb,Step-1,Increment      1: Step Time =    1.000,"P-31-1",           705,       190.678,       71.1348,            0.,NA,NA,"",   903.253E+03,   1.01979E+06,   1.01979E+06
C:/temp/Job-31.odb,Step-1,Increment      1: Step Time =    1.000,"P-31-1",           706,       99.9274,       189.729,            0.,NA,NA,"",   922.393E+03,   935.428E+03,   935.428E+03
C:/temp/Job-31.odb,Step-1,Increment      1: Step Time =    1.000,"P-31-1",           707,       109.916,       190.101,            0.,NA,NA,"",   900.180E+03,   912.292E+03,   912.292E+03
C:/temp/Job-31.odb,Step-1,Increment      1: Step Time =    1.000,"P-31-1",           708,       119.642,       190.550,            0.,NA,NA,"",   914.988E+03,   920.672E+03,   920.672E+03
C:/temp/Job-31.odb,Step-1,Increment      1: Step Time =    1.000,"P-31-1",           709,       128.948,       190.491,            0.,NA,NA,"",   953.081E+03,   953.089E+03,   953.089E+03
C:/temp/Job-31.odb,Step-1,Increment      1: Step Time =    1.000,"P-31-1",           710,       137.756,       188.746,            0.,NA,NA,"",   1.00957E+06,   1.00415E+06,   1.00415E+06
C:/temp/Job-31.odb,Step-1,Increment      1: Step Time =    1.000,"P-31-1",           711,       10.5968,       138.637,            0.,NA,NA,"",   764.639E+03,   842.052E+03,   842.052E+03
C:/temp/Job-31.odb,Step-1,Increment      1: Step Time =    1.000,"P-31-1",           712,       63.8042,       89.5178,            0.,NA,NA,"",   539.003E+03,  -495.956E+03,  -495.956E+03
C:/temp/Job-31.odb,Step-1,Increment      1: Step Time =    1.000,"P-31-1",           713,       70.0540,       123.377,            0.,NA,NA,"",   786.809E+03,   669.423E+03,   669.423E+03
C:/temp/Job-31.odb,Step-1,Increment      1: Step Time =    1.000,"P-31-1",           714,       121.551,       130.711,            0.,NA,NA,"",   1.82944E+06,   1.84973E+06,   1.84973E+06
C:/temp/Job-31.odb,Step-1,Increment      1: Step Time =    1.000,"P-31-1",           715,       85.2539,       136.026,            0.,NA,NA,"",   1.99563E+06,   2.06369E+06,   2.06369E+06
C:/temp/Job-31.odb,Step-1,Increment      1: Step Time =    1.000,"P-31-1",           716,       63.9108,       115.043,            0.,NA,NA,"",   526.792E+03,  -171.273E+03,  -171.273E+03
C:/temp/Job-31.odb,Step-1,Increment      1: Step Time =    1.000,"P-31-1",           717,       111.669,       135.820,            0.,NA,NA,"",   2.46001E+06,   2.56203E+06,   2.56203E+06
C:/temp/Job-31.odb,Step-1,Increment      1: Step Time =    1.000,"P-31-1",           718,       60.3554,       17.5095,            0.,NA,NA,"",   1.29983E+06,   1.27720E+06,   1.27720E+06
C:/temp/Job-31.odb,Step-1,Increment      1: Step Time =    1.000,"P-31-1",           719,       14.7012,       59.1617,            0.,NA,NA,"",   818.083E+03,   886.618E+03,   886.618E+03
C:/temp/Job-31.odb,Step-1,Increment      1: Step Time =    1.000,"P-31-1",           720,       182.539,       61.1105,            0.,NA,NA,"",   1.01699E+06,   1.06828E+06,   1.06828E+06
C:/temp/Job-31.odb,Step-1,Increment      1: Step Time =    1.000,"P-31-1",           721,       60.1234,       185.909,            0.,NA,NA,"",   1.27098E+06,   1.25479E+06,   1.25479E+06
C:/temp/Job-31.odb,Step-1,Increment      1: Step Time =    1.000,"P-31-1",           722,       15.1535,       137.541,            0.,NA,NA,"",   773.539E+03,   840.953E+03,   840.953E+03
C:/temp/Job-31.odb,Step-1,Increment      1: Step Time =    1.000,"P-31-1",           723,       140.012,       13.6403,            0.,NA,NA,"",   1.04551E+06,   1.03709E+06,   1.03709E+06
C:/temp/Job-31.odb,Step-1,Increment      1: Step Time =    1.000,"P-31-1",           724,       186.503,       140.156,            0.,NA,NA,"",   979.353E+03,   1.04881E+06,   1.04881E+06
C:/temp/Job-31.odb,Step-1,Increment      1: Step Time =    1.000,"P-31-1",           725,       139.319,       182.233,            0.,NA,NA,"",   1.09865E+06,   1.08596E+06,   1.08596E+06
C:/temp/Job-31.odb,Step-1,Increment      1: Step Time =    1.000,"P-31-1",           726,       89.5679,       136.628,            0.,NA,NA,"",   2.29419E+06,   2.38094E+06,   2.38094E+06
C:/temp/Job-31.odb,Step-1,Increment      1: Step Time =    1.000,"P-31-1",           727,       56.7652,       90.6249,            0.,NA,NA,"",   405.634E+03,  -16.2875E+03,  -16.2875E+03
C:/temp/Job-31.odb,Step-1,Increment      1: Step Time =    1.000,"P-31-1",           728,       67.0586,       126.930,            0.,NA,NA,"",   1.13706E+06,   974.907E+03,   974.907E+03
C:/temp/Job-31.odb,Step-1,Increment      1: Step Time =    1.000,"P-31-1",           729,       114.219,       139.859,            0.,NA,NA,"",   1.97061E+06,   2.08767E+06,   2.08767E+06
C:/temp/Job-31.odb,Step-1,Increment      1: Step Time =    1.000,"P-31-1",           730,       123.510,       134.884,            0.,NA,NA,"",   1.76731E+06,   1.76495E+06,   1.76495E+06
C:/temp/Job-31.odb,Step-1,Increment      1: Step Time =    1.000,"P-31-1",           731,       118.867,       54.9950,            0.,NA,NA,"",   1.69020E+06,   1.75981E+06,   1.75981E+06
C:/temp/Job-31.odb,Step-1,Increment      1: Step Time =    1.000,"P-31-1",           732,       80.7789,       57.8476,            0.,NA,NA,"",   1.72769E+06,   1.75842E+06,   1.75842E+06
C:/temp/Job-31.odb,Step-1,Increment      1: Step Time =    1.000,"P-31-1",           733,       143.497,       82.5175,            0.,NA,NA,"",   1.05423E+06,   747.383E+03,   747.383E+03
C:/temp/Job-31.odb,Step-1,Increment      1: Step Time =    1.000,"P-31-1",           734,       56.4499,       84.0032,            0.,NA,NA,"",   632.954E+03,   451.135E+03,   451.135E+03
C:/temp/Job-31.odb,Step-1,Increment      1: Step Time =    1.000,"P-31-1",           735,       71.5295,       14.0623,            0.,NA,NA,"",   1.19182E+06,   1.18259E+06,   1.18259E+06
C:/temp/Job-31.odb,Step-1,Increment      1: Step Time =    1.000,"P-31-1",           736,       14.1374,       129.327,            0.,NA,NA,"",   655.547E+03,   725.181E+03,   725.181E+03
C:/temp/Job-31.odb,Step-1,Increment      1: Step Time =    1.000,"P-31-1",           737,       14.9045,       69.2846,            0.,NA,NA,"",   678.216E+03,   746.171E+03,   746.171E+03
C:/temp/Job-31.odb,Step-1,Increment      1: Step Time =    1.000,"P-31-1",           738,       130.498,       14.7290,            0.,NA,NA,"",   1.03266E+06,   1.03105E+06,   1.03105E+06
C:/temp/Job-31.odb,Step-1,Increment      1: Step Time =    1.000,"P-31-1",           739,       185.306,       130.690,            0.,NA,NA,"",   948.832E+03,   1.03762E+06,   1.03762E+06
C:/temp/Job-31.odb,Step-1,Increment      1: Step Time =    1.000,"P-31-1",           740,       128.384,       185.967,            0.,NA,NA,"",   1.01696E+06,   1.01755E+06,   1.01755E+06
C:/temp/Job-31.odb,Step-1,Increment      1: Step Time =    1.000,"P-31-1",           741,       69.7267,       185.040,            0.,NA,NA,"",   1.21525E+06,   1.20329E+06,   1.20329E+06
C:/temp/Job-31.odb,Step-1,Increment      1: Step Time =    1.000,"P-31-1",           742,       186.342,       71.6672,            0.,NA,NA,"",   933.260E+03,   1.03127E+06,   1.03127E+06
C:/temp/Job-31.odb,Step-1,Increment      1: Step Time =    1.000,"P-31-1",           743,       139.672,       90.9048,            0.,NA,NA,"",   684.320E+03,  -562.377E+03,  -562.377E+03
C:/temp/Job-31.odb,Step-1,Increment      1: Step Time =    1.000,"P-31-1",           744,       57.1001,       102.336,            0.,NA,NA,"",   289.143E+03,  -270.960E+03,  -270.960E+03
C:/temp/Job-31.odb,Step-1,Increment      1: Step Time =    1.000,"P-31-1",           745,       141.225,       100.827,            0.,NA,NA,"",   538.889E+03,  -520.492E+03,  -520.492E+03
C:/temp/Job-31.odb,Step-1,Increment      1: Step Time =    1.000,"P-31-1",           746,       60.0635,       111.014,            0.,NA,NA,"",   470.451E+03,  -353.421E+03,  -353.421E+03
C:/temp/Job-31.odb,Step-1,Increment      1: Step Time =    1.000,"P-31-1",           747,       128.443,       132.995,            0.,NA,NA,"",   1.64279E+06,   1.55784E+06,   1.55784E+06
C:/temp/Job-31.odb,Step-1,Increment      1: Step Time =    1.000,"P-31-1",           748,       80.4917,       14.4317,            0.,NA,NA,"",   1.12113E+06,   1.12287E+06,   1.12287E+06
C:/temp/Job-31.odb,Step-1,Increment      1: Step Time =    1.000,"P-31-1",           749,       14.5062,       120.357,            0.,NA,NA,"",   540.712E+03,   609.474E+03,   609.474E+03
C:/temp/Job-31.odb,Step-1,Increment      1: Step Time =    1.000,"P-31-1",           750,       15.3418,       79.7089,            0.,NA,NA,"",   539.758E+03,   607.707E+03,   607.707E+03
C:/temp/Job-31.odb,Step-1,Increment      1: Step Time =    1.000,"P-31-1",           751,       120.394,       15.0332,            0.,NA,NA,"",   1.00401E+06,   1.01526E+06,   1.01526E+06
C:/temp/Job-31.odb,Step-1,Increment      1: Step Time =    1.000,"P-31-1",           752,       184.922,       120.489,            0.,NA,NA,"",   891.016E+03,   1.00048E+06,   1.00048E+06
C:/temp/Job-31.odb,Step-1,Increment      1: Step Time =    1.000,"P-31-1",           753,       79.7281,       184.676,            0.,NA,NA,"",   1.14089E+06,   1.14118E+06,   1.14118E+06
C:/temp/Job-31.odb,Step-1,Increment      1: Step Time =    1.000,"P-31-1",           754,       185.277,       80.3654,            0.,NA,NA,"",   884.188E+03,   996.158E+03,   996.158E+03
C:/temp/Job-31.odb,Step-1,Increment      1: Step Time =    1.000,"P-31-1",           755,       119.641,       185.752,            0.,NA,NA,"",   990.505E+03,   1.00164E+06,   1.00164E+06
C:/temp/Job-31.odb,Step-1,Increment      1: Step Time =    1.000,"P-31-1",           756,       104.262,       58.9320,            0.,NA,NA,"",   2.15246E+06,   2.31273E+06,   2.31273E+06
C:/temp/Job-31.odb,Step-1,Increment      1: Step Time =    1.000,"P-31-1",           757,       95.1907,       56.5716,            0.,NA,NA,"",   1.91788E+06,   2.06866E+06,   2.06866E+06
C:/temp/Job-31.odb,Step-1,Increment      1: Step Time =    1.000,"P-31-1",           758,       65.0827,       73.3998,            0.,NA,NA,"",   1.07622E+06,   911.911E+03,   911.911E+03
C:/temp/Job-31.odb,Step-1,Increment      1: Step Time =    1.000,"P-31-1",           759,       68.3831,       65.4087,            0.,NA,NA,"",   1.45180E+06,   1.33570E+06,   1.33570E+06
C:/temp/Job-31.odb,Step-1,Increment      1: Step Time =    1.000,"P-31-1",           760,       129.984,       66.3527,            0.,NA,NA,"",   1.65308E+06,   1.54267E+06,   1.54267E+06
C:/temp/Job-31.odb,Step-1,Increment      1: Step Time =    1.000,"P-31-1",           761,       15.4550,       90.1757,            0.,NA,NA,"",   439.242E+03,   504.466E+03,   504.466E+03
C:/temp/Job-31.odb,Step-1,Increment      1: Step Time =    1.000,"P-31-1",           762,       110.331,       15.0648,            0.,NA,NA,"",   982.531E+03,   1.00488E+06,   1.00488E+06
C:/temp/Job-31.odb,Step-1,Increment      1: Step Time =    1.000,"P-31-1",           763,       90.1711,       14.9455,            0.,NA,NA,"",   1.05010E+06,   1.06545E+06,   1.06545E+06
C:/temp/Job-31.odb,Step-1,Increment      1: Step Time =    1.000,"P-31-1",           764,       14.9754,       110.733,            0.,NA,NA,"",   447.065E+03,   512.893E+03,   512.893E+03
C:/temp/Job-31.odb,Step-1,Increment      1: Step Time =    1.000,"P-31-1",           765,       185.090,       110.365,            0.,NA,NA,"",   828.314E+03,   949.397E+03,   949.397E+03
C:/temp/Job-31.odb,Step-1,Increment      1: Step Time =    1.000,"P-31-1",           766,       89.8272,       184.412,            0.,NA,NA,"",   1.06255E+06,   1.07851E+06,   1.07851E+06
C:/temp/Job-31.odb,Step-1,Increment      1: Step Time =    1.000,"P-31-1",           767,       184.787,       90.2187,            0.,NA,NA,"",   821.725E+03,   942.082E+03,   942.082E+03
C:/temp/Job-31.odb,Step-1,Increment      1: Step Time =    1.000,"P-31-1",           768,       110.076,       185.048,            0.,NA,NA,"",   978.753E+03,   1.00230E+06,   1.00230E+06
C:/temp/Job-31.odb,Step-1,Increment      1: Step Time =    1.000,"P-31-1",           769,       100.173,       15.0904,            0.,NA,NA,"",   995.438E+03,   1.02039E+06,   1.02039E+06
C:/temp/Job-31.odb,Step-1,Increment      1: Step Time =    1.000,"P-31-1",           770,       15.1699,       100.497,            0.,NA,NA,"",   404.171E+03,   466.448E+03,   466.448E+03
C:/temp/Job-31.odb,Step-1,Increment      1: Step Time =    1.000,"P-31-1",           771,       184.990,       100.247,            0.,NA,NA,"",   794.868E+03,   916.131E+03,   916.131E+03
C:/temp/Job-31.odb,Step-1,Increment      1: Step Time =    1.000,"P-31-1",           772,       99.9660,       184.404,            0.,NA,NA,"",   1.00321E+06,   1.02934E+06,   1.02934E+06
C:/temp/Job-31.odb,Step-1,Increment      1: Step Time =    1.000,"P-31-1",           773,       120.934,       141.202,            0.,NA,NA,"",   1.75927E+06,   1.80117E+06,   1.80117E+06
C:/temp/Job-31.odb,Step-1,Increment      1: Step Time =    1.000,"P-31-1",           774,       109.725,       55.3588,            0.,NA,NA,"",   1.78164E+06,   1.92821E+06,   1.92821E+06
C:/temp/Job-31.odb,Step-1,Increment      1: Step Time =    1.000,"P-31-1",           775,       91.7224,       54.2679,            0.,NA,NA,"",   1.75598E+06,   1.88593E+06,   1.88593E+06
C:/temp/Job-31.odb,Step-1,Increment      1: Step Time =    1.000,"P-31-1",           776,       94.0706,       141.992,            0.,NA,NA,"",   2.00880E+06,   2.15289E+06,   2.15289E+06
C:/temp/Job-31.odb,Step-1,Increment      1: Step Time =    1.000,"P-31-1",           777,       54.7843,       112.000,            0.,NA,NA,"",   488.052E+03,   177.327E+03,   177.327E+03
C:/temp/Job-31.odb,Step-1,Increment      1: Step Time =    1.000,"P-31-1",           778,       143.880,       86.6749,            0.,NA,NA,"",   863.825E+03,   323.488E+03,   323.488E+03
C:/temp/Job-31.odb,Step-1,Increment      1: Step Time =    1.000,"P-31-1",           779,       57.4505,       117.701,            0.,NA,NA,"",   689.968E+03,   492.878E+03,   492.878E+03
C:/temp/Job-31.odb,Step-1,Increment      1: Step Time =    1.000,"P-31-1",           780,       53.5093,       86.9394,            0.,NA,NA,"",   508.261E+03,   366.741E+03,   366.741E+03
C:/temp/Job-31.odb,Step-1,Increment      1: Step Time =    1.000,"P-31-1",           781,       14.7968,       64.1986,            0.,NA,NA,"",   748.773E+03,   816.846E+03,   816.846E+03
C:/temp/Job-31.odb,Step-1,Increment      1: Step Time =    1.000,"P-31-1",           782,       63.8429,       15.8865,            0.,NA,NA,"",   1.26551E+06,   1.24773E+06,   1.24773E+06
C:/temp/Job-31.odb,Step-1,Increment      1: Step Time =    1.000,"P-31-1",           783,       184.644,       64.1656,            0.,NA,NA,"",   981.326E+03,   1.05271E+06,   1.05271E+06
C:/temp/Job-31.odb,Step-1,Increment      1: Step Time =    1.000,"P-31-1",           784,       64.8518,       185.413,            0.,NA,NA,"",   1.24534E+06,   1.23028E+06,   1.23028E+06
C:/temp/Job-31.odb,Step-1,Increment      1: Step Time =    1.000,"P-31-1",           785,       135.324,       14.2797,            0.,NA,NA,"",   1.04089E+06,   1.03497E+06,   1.03497E+06
C:/temp/Job-31.odb,Step-1,Increment      1: Step Time =    1.000,"P-31-1",           786,       14.4622,       133.574,            0.,NA,NA,"",   716.750E+03,   785.838E+03,   785.838E+03
C:/temp/Job-31.odb,Step-1,Increment      1: Step Time =    1.000,"P-31-1",           787,       185.857,       135.540,            0.,NA,NA,"",   966.976E+03,   1.04595E+06,   1.04595E+06
C:/temp/Job-31.odb,Step-1,Increment      1: Step Time =    1.000,"P-31-1",           788,       135.918,       183.931,            0.,NA,NA,"",   1.06753E+06,   1.05968E+06,   1.05968E+06
C:/temp/Job-31.odb,Step-1,Increment      1: Step Time =    1.000,"P-31-1",           789,       69.5978,       131.462,            0.,NA,NA,"",   1.32074E+06,   1.20135E+06,   1.20135E+06
C:/temp/Job-31.odb,Step-1,Increment      1: Step Time =    1.000,"P-31-1",           790,       116.952,       143.753,            0.,NA,NA,"",   1.73020E+06,   1.82222E+06,   1.82222E+06
C:/temp/Job-31.odb,Step-1,Increment      1: Step Time =    1.000,"P-31-1",           791,       122.985,       57.6430,            0.,NA,NA,"",   1.72115E+06,   1.73684E+06,   1.73684E+06
C:/temp/Job-31.odb,Step-1,Increment      1: Step Time =    1.000,"P-31-1",           792,       76.8916,       59.8010,            0.,NA,NA,"",   1.66700E+06,   1.64976E+06,   1.64976E+06
C:/temp/Job-31.odb,Step-1,Increment      1: Step Time =    1.000,"P-31-1",           793,       15.0907,       74.4688,            0.,NA,NA,"",   607.104E+03,   675.111E+03,   675.111E+03
C:/temp/Job-31.odb,Step-1,Increment      1: Step Time =    1.000,"P-31-1",           794,       125.477,       14.9535,            0.,NA,NA,"",   1.01953E+06,   1.02408E+06,   1.02408E+06
C:/temp/Job-31.odb,Step-1,Increment      1: Step Time =    1.000,"P-31-1",           795,       14.2314,       124.927,            0.,NA,NA,"",   596.446E+03,   665.848E+03,   665.848E+03
C:/temp/Job-31.odb,Step-1,Increment      1: Step Time =    1.000,"P-31-1",           796,       75.8722,       14.1676,            0.,NA,NA,"",   1.15739E+06,   1.15290E+06,   1.15290E+06
C:/temp/Job-31.odb,Step-1,Increment      1: Step Time =    1.000,"P-31-1",           797,       184.983,       125.634,            0.,NA,NA,"",   922.959E+03,   1.02232E+06,   1.02232E+06
C:/temp/Job-31.odb,Step-1,Increment      1: Step Time =    1.000,"P-31-1",           798,       124.138,       185.958,            0.,NA,NA,"",   1.00206E+06,   1.00742E+06,   1.00742E+06
C:/temp/Job-31.odb,Step-1,Increment      1: Step Time =    1.000,"P-31-1",           799,       74.6779,       184.783,            0.,NA,NA,"",   1.17993E+06,   1.17316E+06,   1.17316E+06
C:/temp/Job-31.odb,Step-1,Increment      1: Step Time =    1.000,"P-31-1",           800,       185.827,       75.7789,            0.,NA,NA,"",   910.994E+03,   1.01647E+06,   1.01647E+06
C:/temp/Job-31.odb,Step-1,Increment      1: Step Time =    1.000,"P-31-1",           801,       85.2795,       14.7310,            0.,NA,NA,"",   1.08456E+06,   1.09318E+06,   1.09318E+06
C:/temp/Job-31.odb,Step-1,Increment      1: Step Time =    1.000,"P-31-1",           802,       14.7998,       115.654,            0.,NA,NA,"",   489.966E+03,   557.661E+03,   557.661E+03
C:/temp/Job-31.odb,Step-1,Increment      1: Step Time =    1.000,"P-31-1",           803,       15.5010,       84.9612,            0.,NA,NA,"",   482.811E+03,   549.933E+03,   549.933E+03
C:/temp/Job-31.odb,Step-1,Increment      1: Step Time =    1.000,"P-31-1",           804,       115.345,       15.0607,            0.,NA,NA,"",   990.528E+03,   1.00787E+06,   1.00787E+06
C:/temp/Job-31.odb,Step-1,Increment      1: Step Time =    1.000,"P-31-1",           805,       184.917,       85.2505,            0.,NA,NA,"",   851.529E+03,   968.860E+03,   968.860E+03
C:/temp/Job-31.odb,Step-1,Increment      1: Step Time =    1.000,"P-31-1",           806,       114.952,       185.435,            0.,NA,NA,"",   981.676E+03,   999.427E+03,   999.427E+03
C:/temp/Job-31.odb,Step-1,Increment      1: Step Time =    1.000,"P-31-1",           807,       185.000,       115.397,            0.,NA,NA,"",   857.755E+03,   974.899E+03,   974.899E+03
C:/temp/Job-31.odb,Step-1,Increment      1: Step Time =    1.000,"P-31-1",           808,       84.7801,       184.550,            0.,NA,NA,"",   1.10043E+06,   1.10880E+06,   1.10880E+06
C:/temp/Job-31.odb,Step-1,Increment      1: Step Time =    1.000,"P-31-1",           809,       101.089,       53.5200,            0.,NA,NA,"",   1.73583E+06,   1.89834E+06,   1.89834E+06
C:/temp/Job-31.odb,Step-1,Increment      1: Step Time =    1.000,"P-31-1",           810,       64.8384,       68.6189,            0.,NA,NA,"",   1.28708E+06,   1.13879E+06,   1.13879E+06
C:/temp/Job-31.odb,Step-1,Increment      1: Step Time =    1.000,"P-31-1",           811,       132.956,       127.587,            0.,NA,NA,"",   1.42498E+06,   1.23585E+06,   1.23585E+06
C:/temp/Job-31.odb,Step-1,Increment      1: Step Time =    1.000,"P-31-1",           812,       134.849,       67.9167,            0.,NA,NA,"",   1.57767E+06,   1.40153E+06,   1.40153E+06
C:/temp/Job-31.odb,Step-1,Increment      1: Step Time =    1.000,"P-31-1",           813,       95.1225,       15.0718,            0.,NA,NA,"",   1.01923E+06,   1.04050E+06,   1.04050E+06
C:/temp/Job-31.odb,Step-1,Increment      1: Step Time =    1.000,"P-31-1",           814,       15.0707,       105.675,            0.,NA,NA,"",   416.514E+03,   480.064E+03,   480.064E+03
C:/temp/Job-31.odb,Step-1,Increment      1: Step Time =    1.000,"P-31-1",           815,       184.826,       95.2295,            0.,NA,NA,"",   801.033E+03,   922.190E+03,   922.190E+03
C:/temp/Job-31.odb,Step-1,Increment      1: Step Time =    1.000,"P-31-1",           816,       105.066,       184.649,            0.,NA,NA,"",   985.668E+03,   1.01233E+06,   1.01233E+06
C:/temp/Job-31.odb,Step-1,Increment      1: Step Time =    1.000,"P-31-1",           817,       105.274,       15.0893,            0.,NA,NA,"",   983.119E+03,   1.00839E+06,   1.00839E+06
C:/temp/Job-31.odb,Step-1,Increment      1: Step Time =    1.000,"P-31-1",           818,       15.3177,       95.3596,            0.,NA,NA,"",   411.877E+03,   474.946E+03,   474.946E+03
C:/temp/Job-31.odb,Step-1,Increment      1: Step Time =    1.000,"P-31-1",           819,       185.106,       105.332,            0.,NA,NA,"",   805.534E+03,   927.273E+03,   927.273E+03
C:/temp/Job-31.odb,Step-1,Increment      1: Step Time =    1.000,"P-31-1",           820,       94.8742,       184.305,            0.,NA,NA,"",   1.02964E+06,   1.05180E+06,   1.05180E+06
C:/temp/Job-31.odb,Step-1,Increment      1: Step Time =    1.000,"P-31-1",           821,       56.8152,       75.7891,            0.,NA,NA,"",   955.595E+03,   786.018E+03,   786.018E+03
C:/temp/Job-31.odb,Step-1,Increment      1: Step Time =    1.000,"P-31-1",           822,       143.535,       74.5508,            0.,NA,NA,"",   1.35359E+06,   1.09217E+06,   1.09217E+06
C:/temp/Job-31.odb,Step-1,Increment      1: Step Time =    1.000,"P-31-1",           823,       80.4611,       137.462,            0.,NA,NA,"",   1.73595E+06,   1.76879E+06,   1.76879E+06
C:/temp/Job-31.odb,Step-1,Increment      1: Step Time =    1.000,"P-31-1",           824,       142.334,       110.675,            0.,NA,NA,"",   725.010E+03,  -229.998E+03,  -229.998E+03
C:/temp/Job-31.odb,Step-1,Increment      1: Step Time =    1.000,"P-31-1",           825,       129.373,       55.3613,            0.,NA,NA,"",   1.65535E+06,   1.60221E+06,   1.60221E+06
C:/temp/Job-31.odb,Step-1,Increment      1: Step Time =    1.000,"P-31-1",           826,       147.377,       110.663,            0.,NA,NA,"",   717.110E+03,   319.794E+03,   319.794E+03
C:/temp/Job-31.odb,Step-1,Increment      1: Step Time =    1.000,"P-31-1",           827,       110.445,       20.1634,            0.,NA,NA,"",   1.05058E+06,   1.08576E+06,   1.08576E+06
C:/temp/Job-31.odb,Step-1,Increment      1: Step Time =    1.000,"P-31-1",           828,       20.6262,       90.4490,            0.,NA,NA,"",   423.517E+03,   485.724E+03,   485.724E+03
C:/temp/Job-31.odb,Step-1,Increment      1: Step Time =    1.000,"P-31-1",           829,       180.259,       110.438,            0.,NA,NA,"",   809.509E+03,   914.909E+03,   914.909E+03
C:/temp/Job-31.odb,Step-1,Increment      1: Step Time =    1.000,"P-31-1",           830,       89.6274,       178.991,            0.,NA,NA,"",   1.13582E+06,   1.16215E+06,   1.16215E+06
C:/temp/Job-31.odb,Step-1,Increment      1: Step Time =    1.000,"P-31-1",           831,       100.191,       20.2011,            0.,NA,NA,"",   1.06182E+06,   1.10225E+06,   1.10225E+06
C:/temp/Job-31.odb,Step-1,Increment      1: Step Time =    1.000,"P-31-1",           832,       20.1137,       100.856,            0.,NA,NA,"",   385.072E+03,   444.574E+03,   444.574E+03
C:/temp/Job-31.odb,Step-1,Increment      1: Step Time =    1.000,"P-31-1",           833,       180.131,       100.488,            0.,NA,NA,"",   754.424E+03,   863.922E+03,   863.922E+03
C:/temp/Job-31.odb,Step-1,Increment      1: Step Time =    1.000,"P-31-1",           834,       100.086,       178.926,            0.,NA,NA,"",   1.07453E+06,   1.11740E+06,   1.11740E+06
C:/temp/Job-31.odb,Step-1,Increment      1: Step Time =    1.000,"P-31-1",           835,       142.292,       115.723,            0.,NA,NA,"",   960.459E+03,   388.811E+03,   388.811E+03
C:/temp/Job-31.odb,Step-1,Increment      1: Step Time =    1.000,"P-31-1",           836,       126.857,       143.091,            0.,NA,NA,"",   1.68578E+06,   1.65292E+06,   1.65292E+06
C:/temp/Job-31.odb,Step-1,Increment      1: Step Time =    1.000,"P-31-1",           837,       98.8360,       142.506,            0.,NA,NA,"",   2.02284E+06,   2.18794E+06,   2.18794E+06
C:/temp/Job-31.odb,Step-1,Increment      1: Step Time =    1.000,"P-31-1",           838,       98.8328,       48.0901,            0.,NA,NA,"",   1.51806E+06,   1.66036E+06,   1.66036E+06
C:/temp/Job-31.odb,Step-1,Increment      1: Step Time =    1.000,"P-31-1",           839,       62.2274,       119.166,            0.,NA,NA,"",   705.110E+03,   349.640E+03,   349.640E+03
C:/temp/Job-31.odb,Step-1,Increment      1: Step Time =    1.000,"P-31-1",           840,       19.7148,       58.7864,            0.,NA,NA,"",   858.175E+03,   911.685E+03,   911.685E+03
C:/temp/Job-31.odb,Step-1,Increment      1: Step Time =    1.000,"P-31-1",           841,       62.0485,       20.9910,            0.,NA,NA,"",   1.32158E+06,   1.29365E+06,   1.29365E+06
C:/temp/Job-31.odb,Step-1,Increment      1: Step Time =    1.000,"P-31-1",           842,       59.6838,       180.956,            0.,NA,NA,"",   1.31610E+06,   1.29053E+06,   1.29053E+06
C:/temp/Job-31.odb,Step-1,Increment      1: Step Time =    1.000,"P-31-1",           843,       176.001,       59.8741,            0.,NA,NA,"",   1.09849E+06,   1.10731E+06,   1.10731E+06
C:/temp/Job-31.odb,Step-1,Increment      1: Step Time =    1.000,"P-31-1",           844,       19.5005,       136.838,            0.,NA,NA,"",   791.252E+03,   847.805E+03,   847.805E+03
C:/temp/Job-31.odb,Step-1,Increment      1: Step Time =    1.000,"P-31-1",           845,       140.519,       18.1194,            0.,NA,NA,"",   1.10302E+06,   1.08907E+06,   1.08907E+06
C:/temp/Job-31.odb,Step-1,Increment      1: Step Time =    1.000,"P-31-1",           846,       182.155,       140.761,            0.,NA,NA,"",   1.02848E+06,   1.07298E+06,   1.07298E+06
C:/temp/Job-31.odb,Step-1,Increment      1: Step Time =    1.000,"P-31-1",           847,       137.538,       178.610,            0.,NA,NA,"",   1.14102E+06,   1.12614E+06,   1.12614E+06
C:/temp/Job-31.odb,Step-1,Increment      1: Step Time =    1.000,"P-31-1",           848,       74.6012,       134.526,            0.,NA,NA,"",   1.51729E+06,   1.47087E+06,   1.47087E+06
C:/temp/Job-31.odb,Step-1,Increment      1: Step Time =    1.000,"P-31-1",           849,       69.5969,       135.489,            0.,NA,NA,"",   1.46208E+06,   1.35701E+06,   1.35701E+06
C:/temp/Job-31.odb,Step-1,Increment      1: Step Time =    1.000,"P-31-1",           850,       113.376,       146.646,            0.,NA,NA,"",   1.66247E+06,   1.78408E+06,   1.78408E+06
C:/temp/Job-31.odb,Step-1,Increment      1: Step Time =    1.000,"P-31-1",           851,       78.0752,       56.1077,            0.,NA,NA,"",   1.67646E+06,   1.67880E+06,   1.67880E+06
C:/temp/Job-31.odb,Step-1,Increment      1: Step Time =    1.000,"P-31-1",           852,       125.291,       53.4141,            0.,NA,NA,"",   1.63473E+06,   1.63060E+06,   1.63060E+06
C:/temp/Job-31.odb,Step-1,Increment      1: Step Time =    1.000,"P-31-1",           853,       18.5189,       129.265,            0.,NA,NA,"",   671.848E+03,   733.500E+03,   733.500E+03
C:/temp/Job-31.odb,Step-1,Increment      1: Step Time =    1.000,"P-31-1",           854,       130.922,       20.0027,            0.,NA,NA,"",   1.10891E+06,   1.10582E+06,   1.10582E+06
C:/temp/Job-31.odb,Step-1,Increment      1: Step Time =    1.000,"P-31-1",           855,       69.3903,       179.710,            0.,NA,NA,"",   1.27984E+06,   1.26158E+06,   1.26158E+06
C:/temp/Job-31.odb,Step-1,Increment      1: Step Time =    1.000,"P-31-1",           856,       19.6918,       68.9821,            0.,NA,NA,"",   704.775E+03,   762.624E+03,   762.624E+03
C:/temp/Job-31.odb,Step-1,Increment      1: Step Time =    1.000,"P-31-1",           857,       68.3644,       17.9356,            0.,NA,NA,"",   1.25929E+06,   1.24223E+06,   1.24223E+06
C:/temp/Job-31.odb,Step-1,Increment      1: Step Time =    1.000,"P-31-1",           858,       180.136,       131.383,            0.,NA,NA,"",   999.532E+03,   1.05495E+06,   1.05495E+06
C:/temp/Job-31.odb,Step-1,Increment      1: Step Time =    1.000,"P-31-1",           859,       131.362,       181.940,            0.,NA,NA,"",   1.08264E+06,   1.07870E+06,   1.07870E+06
C:/temp/Job-31.odb,Step-1,Increment      1: Step Time =    1.000,"P-31-1",           860,       20.3752,       79.4896,            0.,NA,NA,"",   548.218E+03,   610.166E+03,   610.166E+03
C:/temp/Job-31.odb,Step-1,Increment      1: Step Time =    1.000,"P-31-1",           861,       120.499,       20.1601,            0.,NA,NA,"",   1.07651E+06,   1.09486E+06,   1.09486E+06
C:/temp/Job-31.odb,Step-1,Increment      1: Step Time =    1.000,"P-31-1",           862,       179.793,       120.595,            0.,NA,NA,"",   907.707E+03,   990.271E+03,   990.271E+03
C:/temp/Job-31.odb,Step-1,Increment      1: Step Time =    1.000,"P-31-1",           863,       79.5870,       179.475,            0.,NA,NA,"",   1.21131E+06,   1.21343E+06,   1.21343E+06
C:/temp/Job-31.odb,Step-1,Increment      1: Step Time =    1.000,"P-31-1",           864,       133.559,       132.087,            0.,NA,NA,"",   1.58328E+06,   1.41512E+06,   1.41512E+06
C:/temp/Job-31.odb,Step-1,Increment      1: Step Time =    1.000,"P-31-1",           865,       56.3364,       72.6300,            0.,NA,NA,"",   1.04704E+06,   889.384E+03,   889.384E+03
C:/temp/Job-31.odb,Step-1,Increment      1: Step Time =    1.000,"P-31-1",           866,       144.503,       70.6315,            0.,NA,NA,"",   1.44166E+06,   1.20697E+06,   1.20697E+06
C:/temp/Job-31.odb,Step-1,Increment      1: Step Time =    1.000,"P-31-1",           867,       81.7068,       142.269,            0.,NA,NA,"",   1.74320E+06,   1.78394E+06,   1.78394E+06
C:/temp/Job-31.odb,Step-1,Increment      1: Step Time =    1.000,"P-31-1",           868,       149.057,       86.9937,            0.,NA,NA,"",   828.029E+03,   621.334E+03,   621.334E+03
C:/temp/Job-31.odb,Step-1,Increment      1: Step Time =    1.000,"P-31-1",           869,       50.2760,       110.241,            0.,NA,NA,"",   401.340E+03,   316.531E+03,   316.531E+03
C:/temp/Job-31.odb,Step-1,Increment      1: Step Time =    1.000,"P-31-1",           870,       75.6886,       63.7670,            0.,NA,NA,"",   1.57415E+06,   1.53742E+06,   1.53742E+06
C:/temp/Job-31.odb,Step-1,Increment      1: Step Time =    1.000,"P-31-1",           871,       147.752,       78.8931,            0.,NA,NA,"",   1.17996E+06,   936.454E+03,   936.454E+03
C:/temp/Job-31.odb,Step-1,Increment      1: Step Time =    1.000,"P-31-1",           872,       125.434,       64.4967,            0.,NA,NA,"",   1.73333E+06,   1.69962E+06,   1.69962E+06
C:/temp/Job-31.odb,Step-1,Increment      1: Step Time =    1.000,"P-31-1",           873,       88.6415,       51.6202,            0.,NA,NA,"",   1.63928E+06,   1.73921E+06,   1.73921E+06
C:/temp/Job-31.odb,Step-1,Increment      1: Step Time =    1.000,"P-31-1",           874,       89.8183,       25.8700,            0.,NA,NA,"",   1.19283E+06,   1.23200E+06,   1.23200E+06
C:/temp/Job-31.odb,Step-1,Increment      1: Step Time =    1.000,"P-31-1",           875,       25.1534,       111.482,            0.,NA,NA,"",   430.870E+03,   489.255E+03,   489.255E+03
C:/temp/Job-31.odb,Step-1,Increment      1: Step Time =    1.000,"P-31-1",           876,       174.215,       90.5333,            0.,NA,NA,"",   762.797E+03,   842.768E+03,   842.768E+03
C:/temp/Job-31.odb,Step-1,Increment      1: Step Time =    1.000,"P-31-1",           877,       111.203,       175.241,            0.,NA,NA,"",   1.11003E+06,   1.15997E+06,   1.15997E+06
C:/temp/Job-31.odb,Step-1,Increment      1: Step Time =    1.000,"P-31-1",           878,       25.1579,       78.9134,            0.,NA,NA,"",   570.132E+03,   622.398E+03,   622.398E+03
C:/temp/Job-31.odb,Step-1,Increment      1: Step Time =    1.000,"P-31-1",           879,       120.542,       25.2994,            0.,NA,NA,"",   1.14661E+06,   1.17269E+06,   1.17269E+06
C:/temp/Job-31.odb,Step-1,Increment      1: Step Time =    1.000,"P-31-1",           880,       79.6438,       24.3861,            0.,NA,NA,"",   1.26093E+06,   1.26523E+06,   1.26523E+06
C:/temp/Job-31.odb,Step-1,Increment      1: Step Time =    1.000,"P-31-1",           881,       24.2961,       121.740,            0.,NA,NA,"",   573.603E+03,   628.413E+03,   628.413E+03
C:/temp/Job-31.odb,Step-1,Increment      1: Step Time =    1.000,"P-31-1",           882,       174.765,       120.443,            0.,NA,NA,"",   923.522E+03,   973.923E+03,   973.923E+03
C:/temp/Job-31.odb,Step-1,Increment      1: Step Time =    1.000,"P-31-1",           883,       79.6464,       174.562,            0.,NA,NA,"",   1.27245E+06,   1.27699E+06,   1.27699E+06
C:/temp/Job-31.odb,Step-1,Increment      1: Step Time =    1.000,"P-31-1",           884,       175.082,       79.5488,            0.,NA,NA,"",   930.028E+03,   980.477E+03,   980.477E+03
C:/temp/Job-31.odb,Step-1,Increment      1: Step Time =    1.000,"P-31-1",           885,       120.307,       176.051,            0.,NA,NA,"",   1.12999E+06,   1.15383E+06,   1.15383E+06
C:/temp/Job-31.odb,Step-1,Increment      1: Step Time =    1.000,"P-31-1",           886,       175.725,       101.070,            0.,NA,NA,"",   714.397E+03,   810.332E+03,   810.332E+03
C:/temp/Job-31.odb,Step-1,Increment      1: Step Time =    1.000,"P-31-1",           887,       100.331,       173.589,            0.,NA,NA,"",   1.13531E+06,   1.19607E+06,   1.19607E+06
C:/temp/Job-31.odb,Step-1,Increment      1: Step Time =    1.000,"P-31-1",           888,       100.286,       25.1980,            0.,NA,NA,"",   1.12076E+06,   1.17809E+06,   1.17809E+06
C:/temp/Job-31.odb,Step-1,Increment      1: Step Time =    1.000,"P-31-1",           889,       24.8908,       101.285,            0.,NA,NA,"",   362.863E+03,   418.850E+03,   418.850E+03
C:/temp/Job-31.odb,Step-1,Increment      1: Step Time =    1.000,"P-31-1",           890,       24.6170,       58.6054,            0.,NA,NA,"",   903.297E+03,   938.467E+03,   938.467E+03
C:/temp/Job-31.odb,Step-1,Increment      1: Step Time =    1.000,"P-31-1",           891,       59.5615,       24.7707,            0.,NA,NA,"",   1.35808E+06,   1.32196E+06,   1.32196E+06
C:/temp/Job-31.odb,Step-1,Increment      1: Step Time =    1.000,"P-31-1",           892,       23.3689,       141.976,            0.,NA,NA,"",   900.166E+03,   940.321E+03,   940.321E+03
C:/temp/Job-31.odb,Step-1,Increment      1: Step Time =    1.000,"P-31-1",           893,       142.033,       22.2260,            0.,NA,NA,"",   1.15103E+06,   1.13061E+06,   1.13061E+06
C:/temp/Job-31.odb,Step-1,Increment      1: Step Time =    1.000,"P-31-1",           894,       178.132,       142.350,            0.,NA,NA,"",   1.07855E+06,   1.09757E+06,   1.09757E+06
C:/temp/Job-31.odb,Step-1,Increment      1: Step Time =    1.000,"P-31-1",           895,       140.069,       174.566,            0.,NA,NA,"",   1.19487E+06,   1.17110E+06,   1.17110E+06
C:/temp/Job-31.odb,Step-1,Increment      1: Step Time =    1.000,"P-31-1",           896,       171.702,       61.0892,            0.,NA,NA,"",   1.15022E+06,   1.13002E+06,   1.13002E+06
C:/temp/Job-31.odb,Step-1,Increment      1: Step Time =    1.000,"P-31-1",           897,       58.0094,       175.386,            0.,NA,NA,"",   1.36278E+06,   1.32595E+06,   1.32595E+06
C:/temp/Job-31.odb,Step-1,Increment      1: Step Time =    1.000,"P-31-1",           898,       70.4606,       22.5291,            0.,NA,NA,"",   1.30063E+06,   1.28137E+06,   1.28137E+06
C:/temp/Job-31.odb,Step-1,Increment      1: Step Time =    1.000,"P-31-1",           899,       177.345,       70.3617,            0.,NA,NA,"",   1.01354E+06,   1.05487E+06,   1.05487E+06
C:/temp/Job-31.odb,Step-1,Increment      1: Step Time =    1.000,"P-31-1",           900,       129.171,       177.362,            0.,NA,NA,"",   1.14365E+06,   1.14311E+06,   1.14311E+06
C:/temp/Job-31.odb,Step-1,Increment      1: Step Time =    1.000,"P-31-1",           901,       23.2712,       132.667,            0.,NA,NA,"",   747.557E+03,   794.338E+03,   794.338E+03
C:/temp/Job-31.odb,Step-1,Increment      1: Step Time =    1.000,"P-31-1",           902,       132.073,       61.4636,            0.,NA,NA,"",   1.67314E+06,   1.56294E+06,   1.56294E+06
C:/temp/Job-31.odb,Step-1,Increment      1: Step Time =    1.000,"P-31-1",           903,       64.9299,       63.3254,            0.,NA,NA,"",   1.43606E+06,   1.31135E+06,   1.31135E+06
C:/temp/Job-31.odb,Step-1,Increment      1: Step Time =    1.000,"P-31-1",           904,       83.1212,       56.4043,            0.,NA,NA,"",   1.71246E+06,   1.76630E+06,   1.76630E+06
C:/temp/Job-31.odb,Step-1,Increment      1: Step Time =    1.000,"P-31-1",           905,       136.691,       121.085,            0.,NA,NA,"",   1.14499E+06,   859.981E+03,   859.981E+03
C:/temp/Job-31.odb,Step-1,Increment      1: Step Time =    1.000,"P-31-1",           906,       123.150,       145.108,            0.,NA,NA,"",   1.66314E+06,   1.68059E+06,   1.68059E+06
C:/temp/Job-31.odb,Step-1,Increment      1: Step Time =    1.000,"P-31-1",           907,       130.868,       141.685,            0.,NA,NA,"",   1.67911E+06,   1.59502E+06,   1.59502E+06
C:/temp/Job-31.odb,Step-1,Increment      1: Step Time =    1.000,"P-31-1",           908,       99.8368,       137.777,            0.,NA,NA,"",   2.63229E+06,   2.75639E+06,   2.75639E+06
C:/temp/Job-31.odb,Step-1,Increment      1: Step Time =    1.000,"P-31-1",           909,       95.2889,       46.5322,            0.,NA,NA,"",   1.48969E+06,   1.61817E+06,   1.61817E+06
C:/temp/Job-31.odb,Step-1,Increment      1: Step Time =    1.000,"P-31-1",           910,       55.5094,       121.740,            0.,NA,NA,"",   836.684E+03,   673.741E+03,   673.741E+03
C:/temp/Job-31.odb,Step-1,Increment      1: Step Time =    1.000,"P-31-1",           911,       55.4877,       186.358,            0.,NA,NA,"",   1.29518E+06,   1.27919E+06,   1.27919E+06
C:/temp/Job-31.odb,Step-1,Increment      1: Step Time =    1.000,"P-31-1",           912,       144.657,       13.1433,            0.,NA,NA,"",   1.04854E+06,   1.03868E+06,   1.03868E+06
C:/temp/Job-31.odb,Step-1,Increment      1: Step Time =    1.000,"P-31-1",           913,       14.7291,       146.331,            0.,NA,NA,"",   889.797E+03,   959.489E+03,   959.489E+03
C:/temp/Job-31.odb,Step-1,Increment      1: Step Time =    1.000,"P-31-1",           914,       14.4966,       54.1907,            0.,NA,NA,"",   884.002E+03,   953.827E+03,   953.827E+03
C:/temp/Job-31.odb,Step-1,Increment      1: Step Time =    1.000,"P-31-1",           915,       54.5451,       16.3218,            0.,NA,NA,"",   1.31489E+06,   1.29433E+06,   1.29433E+06
C:/temp/Job-31.odb,Step-1,Increment      1: Step Time =    1.000,"P-31-1",           916,       183.970,       55.0622,            0.,NA,NA,"",   1.01716E+06,   1.06366E+06,   1.06366E+06
C:/temp/Job-31.odb,Step-1,Increment      1: Step Time =    1.000,"P-31-1",           917,       186.966,       144.759,            0.,NA,NA,"",   989.662E+03,   1.04881E+06,   1.04881E+06
C:/temp/Job-31.odb,Step-1,Increment      1: Step Time =    1.000,"P-31-1",           918,       145.166,       183.584,            0.,NA,NA,"",   1.08313E+06,   1.06911E+06,   1.06911E+06
C:/temp/Job-31.odb,Step-1,Increment      1: Step Time =    1.000,"P-31-1",           919,       65.1607,       131.118,            0.,NA,NA,"",   1.28274E+06,   1.12984E+06,   1.12984E+06
C:/temp/Job-31.odb,Step-1,Increment      1: Step Time =    1.000,"P-31-1",           920,       110.102,       142.945,            0.,NA,NA,"",   1.88460E+06,   2.03332E+06,   2.03332E+06
C:/temp/Job-31.odb,Step-1,Increment      1: Step Time =    1.000,"P-31-1",           921,       151.883,       78.5539,            0.,NA,NA,"",   1.14687E+06,   953.680E+03,   953.680E+03
C:/temp/Job-31.odb,Step-1,Increment      1: Step Time =    1.000,"P-31-1",           922,       139.774,       69.3077,            0.,NA,NA,"",   1.51172E+06,   1.28832E+06,   1.28832E+06
C:/temp/Job-31.odb,Step-1,Increment      1: Step Time =    1.000,"P-31-1",           923,       77.2429,       144.173,            0.,NA,NA,"",   1.65222E+06,   1.64492E+06,   1.64492E+06
C:/temp/Job-31.odb,Step-1,Increment      1: Step Time =    1.000,"P-31-1",           924,       88.7053,       142.412,            0.,NA,NA,"",   1.87142E+06,   1.97666E+06,   1.97666E+06
C:/temp/Job-31.odb,Step-1,Increment      1: Step Time =    1.000,"P-31-1",           925,       77.1587,       49.3522,            0.,NA,NA,"",   1.58508E+06,   1.58100E+06,   1.58100E+06
C:/temp/Job-31.odb,Step-1,Increment      1: Step Time =    1.000,"P-31-1",           926,       48.6227,       114.204,            0.,NA,NA,"",   522.464E+03,   446.820E+03,   446.820E+03
C:/temp/Job-31.odb,Step-1,Increment      1: Step Time =    1.000,"P-31-1",           927,       152.264,       111.236,            0.,NA,NA,"",   730.303E+03,   596.907E+03,   596.907E+03
C:/temp/Job-31.odb,Step-1,Increment      1: Step Time =    1.000,"P-31-1",           928,       180.035,       80.0576,            0.,NA,NA,"",   902.602E+03,   986.987E+03,   986.987E+03
C:/temp/Job-31.odb,Step-1,Increment      1: Step Time =    1.000,"P-31-1",           929,       119.853,       180.895,            0.,NA,NA,"",   1.06102E+06,   1.07849E+06,   1.07849E+06
C:/temp/Job-31.odb,Step-1,Increment      1: Step Time =    1.000,"P-31-1",           930,       80.2629,       19.4250,            0.,NA,NA,"",   1.19160E+06,   1.19521E+06,   1.19521E+06
C:/temp/Job-31.odb,Step-1,Increment      1: Step Time =    1.000,"P-31-1",           931,       19.4916,       120.878,            0.,NA,NA,"",   554.010E+03,   617.527E+03,   617.527E+03
C:/temp/Job-31.odb,Step-1,Increment      1: Step Time =    1.000,"P-31-1",           932,       179.440,       90.3342,            0.,NA,NA,"",   793.964E+03,   896.208E+03,   896.208E+03
C:/temp/Job-31.odb,Step-1,Increment      1: Step Time =    1.000,"P-31-1",           933,       110.468,       179.996,            0.,NA,NA,"",   1.04790E+06,   1.08490E+06,   1.08490E+06
C:/temp/Job-31.odb,Step-1,Increment      1: Step Time =    1.000,"P-31-1",           934,       90.0490,       20.2517,            0.,NA,NA,"",   1.12092E+06,   1.14696E+06,   1.14696E+06
C:/temp/Job-31.odb,Step-1,Increment      1: Step Time =    1.000,"P-31-1",           935,       20.0738,       111.209,            0.,NA,NA,"",   439.995E+03,   503.098E+03,   503.098E+03
C:/temp/Job-31.odb,Step-1,Increment      1: Step Time =    1.000,"P-31-1",           936,       153.250,       82.2306,            0.,NA,NA,"",   1.00340E+06,   841.626E+03,   841.626E+03
C:/temp/Job-31.odb,Step-1,Increment      1: Step Time =    1.000,"P-31-1",           937,       70.0974,       139.425,            0.,NA,NA,"",   1.54759E+06,   1.45558E+06,   1.45558E+06
C:/temp/Job-31.odb,Step-1,Increment      1: Step Time =    1.000,"P-31-1",           938,       113.411,       153.227,            0.,NA,NA,"",   1.46946E+06,   1.57504E+06,   1.57504E+06
C:/temp/Job-31.odb,Step-1,Increment      1: Step Time =    1.000,"P-31-1",           939,       153.889,       92.1021,            0.,NA,NA,"",   587.872E+03,   516.185E+03,   516.185E+03
C:/temp/Job-31.odb,Step-1,Increment      1: Step Time =    1.000,"P-31-1",           940,       122.531,       151.288,            0.,NA,NA,"",   1.53945E+06,   1.57002E+06,   1.57002E+06
C:/temp/Job-31.odb,Step-1,Increment      1: Step Time =    1.000,"P-31-1",           941,       103.322,       143.870,            0.,NA,NA,"",   1.89954E+06,   2.06869E+06,   2.06869E+06
C:/temp/Job-31.odb,Step-1,Increment      1: Step Time =    1.000,"P-31-1",           942,       96.8071,       42.5978,            0.,NA,NA,"",   1.39034E+06,   1.50870E+06,   1.50870E+06
C:/temp/Job-31.odb,Step-1,Increment      1: Step Time =    1.000,"P-31-1",           943,       87.9575,       43.4512,            0.,NA,NA,"",   1.46468E+06,   1.53960E+06,   1.53960E+06
C:/temp/Job-31.odb,Step-1,Increment      1: Step Time =    1.000,"P-31-1",           944,       146.069,       66.7789,            0.,NA,NA,"",   1.48564E+06,   1.27899E+06,   1.27899E+06
C:/temp/Job-31.odb,Step-1,Increment      1: Step Time =    1.000,"P-31-1",           945,       58.9662,       133.713,            0.,NA,NA,"",   1.26083E+06,   1.11803E+06,   1.11803E+06
C:/temp/Job-31.odb,Step-1,Increment      1: Step Time =    1.000,"P-31-1",           946,       9.45789,       54.6743,            0.,NA,NA,"",   841.923E+03,   925.710E+03,   925.710E+03
C:/temp/Job-31.odb,Step-1,Increment      1: Step Time =    1.000,"P-31-1",           947,       55.3909,       190.900,            0.,NA,NA,"",   1.26785E+06,   1.25941E+06,   1.25941E+06
C:/temp/Job-31.odb,Step-1,Increment      1: Step Time =    1.000,"P-31-1",           948,       144.708,       8.83398,            0.,NA,NA,"",   1.00184E+06,   996.777E+03,   996.777E+03
C:/temp/Job-31.odb,Step-1,Increment      1: Step Time =    1.000,"P-31-1",           949,       191.220,       144.773,            0.,NA,NA,"",   950.736E+03,   1.02655E+06,   1.02655E+06
C:/temp/Job-31.odb,Step-1,Increment      1: Step Time =    1.000,"P-31-1",           950,       95.1260,       25.7905,            0.,NA,NA,"",   1.15285E+06,   1.20491E+06,   1.20491E+06
C:/temp/Job-31.odb,Step-1,Increment      1: Step Time =    1.000,"P-31-1",           951,       24.7647,       106.424,            0.,NA,NA,"",   385.464E+03,   443.315E+03,   443.315E+03
C:/temp/Job-31.odb,Step-1,Increment      1: Step Time =    1.000,"P-31-1",           952,       173.801,       96.1522,            0.,NA,NA,"",   703.715E+03,   791.356E+03,   791.356E+03
C:/temp/Job-31.odb,Step-1,Increment      1: Step Time =    1.000,"P-31-1",           953,       106.099,       173.592,            0.,NA,NA,"",   1.12432E+06,   1.18601E+06,   1.18601E+06
C:/temp/Job-31.odb,Step-1,Increment      1: Step Time =    1.000,"P-31-1",           954,       25.8343,       117.157,            0.,NA,NA,"",   507.710E+03,   562.214E+03,   562.214E+03
C:/temp/Job-31.odb,Step-1,Increment      1: Step Time =    1.000,"P-31-1",           955,       26.4963,       84.9223,            0.,NA,NA,"",   478.356E+03,   532.379E+03,   532.379E+03
C:/temp/Job-31.odb,Step-1,Increment      1: Step Time =    1.000,"P-31-1",           956,       115.468,       25.3640,            0.,NA,NA,"",   1.12737E+06,   1.16781E+06,   1.16781E+06
C:/temp/Job-31.odb,Step-1,Increment      1: Step Time =    1.000,"P-31-1",           957,       84.5997,       25.2239,            0.,NA,NA,"",   1.22987E+06,   1.25175E+06,   1.25175E+06
C:/temp/Job-31.odb,Step-1,Increment      1: Step Time =    1.000,"P-31-1",           958,       174.992,       115.206,            0.,NA,NA,"",   848.732E+03,   918.864E+03,   918.864E+03
C:/temp/Job-31.odb,Step-1,Increment      1: Step Time =    1.000,"P-31-1",           959,       84.2411,       174.161,            0.,NA,NA,"",   1.23939E+06,   1.25978E+06,   1.25978E+06
C:/temp/Job-31.odb,Step-1,Increment      1: Step Time =    1.000,"P-31-1",           960,       173.496,       84.9281,            0.,NA,NA,"",   848.029E+03,   905.913E+03,   905.913E+03
C:/temp/Job-31.odb,Step-1,Increment      1: Step Time =    1.000,"P-31-1",           961,       115.800,       175.567,            0.,NA,NA,"",   1.11778E+06,   1.15479E+06,   1.15479E+06
C:/temp/Job-31.odb,Step-1,Increment      1: Step Time =    1.000,"P-31-1",           962,       24.5619,       63.7644,            0.,NA,NA,"",   819.463E+03,   859.094E+03,   859.094E+03
C:/temp/Job-31.odb,Step-1,Increment      1: Step Time =    1.000,"P-31-1",           963,       64.6813,       25.8617,            0.,NA,NA,"",   1.35827E+06,   1.32469E+06,   1.32469E+06
C:/temp/Job-31.odb,Step-1,Increment      1: Step Time =    1.000,"P-31-1",           964,       137.466,       25.6416,            0.,NA,NA,"",   1.19813E+06,   1.17838E+06,   1.17838E+06
C:/temp/Job-31.odb,Step-1,Increment      1: Step Time =    1.000,"P-31-1",           965,       28.4815,       136.533,            0.,NA,NA,"",   865.115E+03,   886.741E+03,   886.741E+03
C:/temp/Job-31.odb,Step-1,Increment      1: Step Time =    1.000,"P-31-1",           966,       175.226,       138.162,            0.,NA,NA,"",   1.09693E+06,   1.10344E+06,   1.10344E+06
C:/temp/Job-31.odb,Step-1,Increment      1: Step Time =    1.000,"P-31-1",           967,       134.787,       173.531,            0.,NA,NA,"",   1.21028E+06,   1.19459E+06,   1.19459E+06
C:/temp/Job-31.odb,Step-1,Increment      1: Step Time =    1.000,"P-31-1",           968,       172.302,       65.2722,            0.,NA,NA,"",   1.11205E+06,   1.10300E+06,   1.10300E+06
C:/temp/Job-31.odb,Step-1,Increment      1: Step Time =    1.000,"P-31-1",           969,       63.7554,       174.707,            0.,NA,NA,"",   1.35723E+06,   1.32349E+06,   1.32349E+06
C:/temp/Job-31.odb,Step-1,Increment      1: Step Time =    1.000,"P-31-1",           970,       133.850,       56.7166,            0.,NA,NA,"",   1.64456E+06,   1.54432E+06,   1.54432E+06
C:/temp/Job-31.odb,Step-1,Increment      1: Step Time =    1.000,"P-31-1",           971,       63.8037,       57.5905,            0.,NA,NA,"",   1.48539E+06,   1.37570E+06,   1.37570E+06
C:/temp/Job-31.odb,Step-1,Increment      1: Step Time =    1.000,"P-31-1",           972,       142.185,       120.896,            0.,NA,NA,"",   1.19525E+06,   899.790E+03,   899.790E+03
C:/temp/Job-31.odb,Step-1,Increment      1: Step Time =    1.000,"P-31-1",           973,       129.744,       137.562,            0.,NA,NA,"",   1.69840E+06,   1.60819E+06,   1.60819E+06
C:/temp/Job-31.odb,Step-1,Increment      1: Step Time =    1.000,"P-31-1",           974,       131.778,       145.170,            0.,NA,NA,"",   1.63700E+06,   1.56162E+06,   1.56162E+06
C:/temp/Job-31.odb,Step-1,Increment      1: Step Time =    1.000,"P-31-1",           975,       78.8674,       148.748,            0.,NA,NA,"",   1.61751E+06,   1.62617E+06,   1.62617E+06
C:/temp/Job-31.odb,Step-1,Increment      1: Step Time =    1.000,"P-31-1",           976,       45.6975,       108.840,            0.,NA,NA,"",   349.683E+03,   330.853E+03,   330.853E+03
C:/temp/Job-31.odb,Step-1,Increment      1: Step Time =    1.000,"P-31-1",           977,       46.5720,       118.113,            0.,NA,NA,"",   626.078E+03,   561.791E+03,   561.791E+03
C:/temp/Job-31.odb,Step-1,Increment      1: Step Time =    1.000,"P-31-1",           978,       133.707,       115.182,            0.,NA,NA,"",   681.464E+03,  -148.147E+03,  -148.147E+03
C:/temp/Job-31.odb,Step-1,Increment      1: Step Time =    1.000,"P-31-1",           979,       151.969,       115.983,            0.,NA,NA,"",   935.933E+03,   763.103E+03,   763.103E+03
C:/temp/Job-31.odb,Step-1,Increment      1: Step Time =    1.000,"P-31-1",           980,       155.680,       76.6661,            0.,NA,NA,"",   1.14673E+06,   996.873E+03,   996.873E+03
C:/temp/Job-31.odb,Step-1,Increment      1: Step Time =    1.000,"P-31-1",           981,       71.2145,       142.776,            0.,NA,NA,"",   1.58544E+06,   1.51205E+06,   1.51205E+06
C:/temp/Job-31.odb,Step-1,Increment      1: Step Time =    1.000,"P-31-1",           982,       116.205,       156.682,            0.,NA,NA,"",   1.40533E+06,   1.48352E+06,   1.48352E+06
C:/temp/Job-31.odb,Step-1,Increment      1: Step Time =    1.000,"P-31-1",           983,       155.193,       87.1531,            0.,NA,NA,"",   794.292E+03,   695.736E+03,   695.736E+03
C:/temp/Job-31.odb,Step-1,Increment      1: Step Time =    1.000,"P-31-1",           984,       148.392,       98.7553,            0.,NA,NA,"",   347.107E+03,   89.2202E+03,   89.2202E+03
C:/temp/Job-31.odb,Step-1,Increment      1: Step Time =    1.000,"P-31-1",           985,       24.1755,       126.582,            0.,NA,NA,"",   653.231E+03,   703.619E+03,   703.619E+03
C:/temp/Job-31.odb,Step-1,Increment      1: Step Time =    1.000,"P-31-1",           986,       74.9420,       23.5019,            0.,NA,NA,"",   1.28475E+06,   1.27518E+06,   1.27518E+06
C:/temp/Job-31.odb,Step-1,Increment      1: Step Time =    1.000,"P-31-1",           987,       124.788,       176.645,            0.,NA,NA,"",   1.14019E+06,   1.15080E+06,   1.15080E+06
C:/temp/Job-31.odb,Step-1,Increment      1: Step Time =    1.000,"P-31-1",           988,       175.874,       74.9026,            0.,NA,NA,"",   983.267E+03,   1.02598E+06,   1.02598E+06
C:/temp/Job-31.odb,Step-1,Increment      1: Step Time =    1.000,"P-31-1",           989,       90.4559,       146.135,            0.,NA,NA,"",   1.72710E+06,   1.84158E+06,   1.84158E+06
C:/temp/Job-31.odb,Step-1,Increment      1: Step Time =    1.000,"P-31-1",           990,       72.4114,       46.8193,            0.,NA,NA,"",   1.55139E+06,   1.51185E+06,   1.51185E+06
C:/temp/Job-31.odb,Step-1,Increment      1: Step Time =    1.000,"P-31-1",           991,       25.4814,       96.2432,            0.,NA,NA,"",   366.583E+03,   422.806E+03,   422.806E+03
C:/temp/Job-31.odb,Step-1,Increment      1: Step Time =    1.000,"P-31-1",           992,       105.504,       25.0765,            0.,NA,NA,"",   1.10910E+06,   1.16465E+06,   1.16465E+06
C:/temp/Job-31.odb,Step-1,Increment      1: Step Time =    1.000,"P-31-1",           993,       175.934,       105.693,            0.,NA,NA,"",   740.546E+03,   835.009E+03,   835.009E+03
C:/temp/Job-31.odb,Step-1,Increment      1: Step Time =    1.000,"P-31-1",           994,       94.6416,       172.481,            0.,NA,NA,"",   1.18085E+06,   1.23662E+06,   1.23662E+06
C:/temp/Job-31.odb,Step-1,Increment      1: Step Time =    1.000,"P-31-1",           995,       107.381,       153.516,            0.,NA,NA,"",   1.45449E+06,   1.59092E+06,   1.59092E+06
C:/temp/Job-31.odb,Step-1,Increment      1: Step Time =    1.000,"P-31-1",           996,       82.4837,       45.5707,            0.,NA,NA,"",   1.53035E+06,   1.56637E+06,   1.56637E+06
C:/temp/Job-31.odb,Step-1,Increment      1: Step Time =    1.000,"P-31-1",           997,       65.1861,       140.958,            0.,NA,NA,"",   1.49550E+06,   1.38093E+06,   1.38093E+06
C:/temp/Job-31.odb,Step-1,Increment      1: Step Time =    1.000,"P-31-1",           998,       98.4649,       38.7765,            0.,NA,NA,"",   1.30739E+06,   1.41285E+06,   1.41285E+06
C:/temp/Job-31.odb,Step-1,Increment      1: Step Time =    1.000,"P-31-1",           999,       161.646,       78.2851,            0.,NA,NA,"",   1.03033E+06,   961.443E+03,   961.443E+03
C:/temp/Job-31.odb,Step-1,Increment      1: Step Time =    1.000,"P-31-1",          1000,       24.2003,       68.8000,            0.,NA,NA,"",   735.794E+03,   780.304E+03,   780.304E+03
C:/temp/Job-31.odb,Step-1,Increment      1: Step Time =    1.000,"P-31-1",          1001,       175.043,       132.310,            0.,NA,NA,"",   1.05774E+06,   1.07495E+06,   1.07495E+06
C:/temp/Job-31.odb,Step-1,Increment      1: Step Time =    1.000,"P-31-1",          1002,       131.235,       25.4130,            0.,NA,NA,"",   1.18685E+06,   1.18153E+06,   1.18153E+06
C:/temp/Job-31.odb,Step-1,Increment      1: Step Time =    1.000,"P-31-1",          1003,       68.8967,       174.323,            0.,NA,NA,"",   1.34277E+06,   1.31736E+06,   1.31736E+06
C:/temp/Job-31.odb,Step-1,Increment      1: Step Time =    1.000,"P-31-1",          1004,       128.229,       151.952,            0.,NA,NA,"",   1.53733E+06,   1.51630E+06,   1.51630E+06
C:/temp/Job-31.odb,Step-1,Increment      1: Step Time =    1.000,"P-31-1",          1005,       100.267,       44.3414,            0.,NA,NA,"",   1.40912E+06,   1.53921E+06,   1.53921E+06
C:/temp/Job-31.odb,Step-1,Increment      1: Step Time =    1.000,"P-31-1",          1006,       30.0052,       110.987,            0.,NA,NA,"",   413.034E+03,   464.072E+03,   464.072E+03
C:/temp/Job-31.odb,Step-1,Increment      1: Step Time =    1.000,"P-31-1",          1007,       169.613,       90.6947,            0.,NA,NA,"",   733.214E+03,   789.907E+03,   789.907E+03
C:/temp/Job-31.odb,Step-1,Increment      1: Step Time =    1.000,"P-31-1",          1008,       109.490,       169.271,            0.,NA,NA,"",   1.17626E+06,   1.24754E+06,   1.24754E+06
C:/temp/Job-31.odb,Step-1,Increment      1: Step Time =    1.000,"P-31-1",          1009,       29.7001,       77.4392,            0.,NA,NA,"",   615.753E+03,   652.332E+03,   652.332E+03
C:/temp/Job-31.odb,Step-1,Increment      1: Step Time =    1.000,"P-31-1",          1010,       120.544,       30.3993,            0.,NA,NA,"",   1.21767E+06,   1.25135E+06,   1.25135E+06
C:/temp/Job-31.odb,Step-1,Increment      1: Step Time =    1.000,"P-31-1",          1011,       28.1984,       121.654,            0.,NA,NA,"",   587.574E+03,   630.440E+03,   630.440E+03
C:/temp/Job-31.odb,Step-1,Increment      1: Step Time =    1.000,"P-31-1",          1012,       78.5449,       29.2638,            0.,NA,NA,"",   1.32928E+06,   1.33156E+06,   1.33156E+06
C:/temp/Job-31.odb,Step-1,Increment      1: Step Time =    1.000,"P-31-1",          1013,       170.050,       120.086,            0.,NA,NA,"",   941.260E+03,   955.822E+03,   955.822E+03
C:/temp/Job-31.odb,Step-1,Increment      1: Step Time =    1.000,"P-31-1",          1014,       76.6794,       170.466,            0.,NA,NA,"",   1.34290E+06,   1.33920E+06,   1.33920E+06
C:/temp/Job-31.odb,Step-1,Increment      1: Step Time =    1.000,"P-31-1",          1015,       170.563,       78.2904,            0.,NA,NA,"",   969.583E+03,   982.130E+03,   982.130E+03
C:/temp/Job-31.odb,Step-1,Increment      1: Step Time =    1.000,"P-31-1",          1016,       120.981,       171.328,            0.,NA,NA,"",   1.19774E+06,   1.22584E+06,   1.22584E+06
C:/temp/Job-31.odb,Step-1,Increment      1: Step Time =    1.000,"P-31-1",          1017,       59.3294,       30.3054,            0.,NA,NA,"",   1.40006E+06,   1.35260E+06,   1.35260E+06
C:/temp/Job-31.odb,Step-1,Increment      1: Step Time =    1.000,"P-31-1",          1018,       29.2432,       58.5055,            0.,NA,NA,"",   953.914E+03,   968.187E+03,   968.187E+03
C:/temp/Job-31.odb,Step-1,Increment      1: Step Time =    1.000,"P-31-1",          1019,       28.9736,       141.475,            0.,NA,NA,"",   953.361E+03,   968.514E+03,   968.514E+03
C:/temp/Job-31.odb,Step-1,Increment      1: Step Time =    1.000,"P-31-1",          1020,       142.524,       28.8403,            0.,NA,NA,"",   1.23979E+06,   1.20681E+06,   1.20681E+06
C:/temp/Job-31.odb,Step-1,Increment      1: Step Time =    1.000,"P-31-1",          1021,       171.431,       142.878,            0.,NA,NA,"",   1.16983E+06,   1.14375E+06,   1.14375E+06
C:/temp/Job-31.odb,Step-1,Increment      1: Step Time =    1.000,"P-31-1",          1022,       140.217,       168.297,            0.,NA,NA,"",   1.28348E+06,   1.24750E+06,   1.24750E+06
C:/temp/Job-31.odb,Step-1,Increment      1: Step Time =    1.000,"P-31-1",          1023,       167.550,       61.7531,            0.,NA,NA,"",   1.19830E+06,   1.15066E+06,   1.15066E+06
C:/temp/Job-31.odb,Step-1,Increment      1: Step Time =    1.000,"P-31-1",          1024,       58.2317,       169.665,            0.,NA,NA,"",   1.40217E+06,   1.35344E+06,   1.35344E+06
C:/temp/Job-31.odb,Step-1,Increment      1: Step Time =    1.000,"P-31-1",          1025,       130.921,       51.2562,            0.,NA,NA,"",   1.59263E+06,   1.54056E+06,   1.54056E+06
C:/temp/Job-31.odb,Step-1,Increment      1: Step Time =    1.000,"P-31-1",          1026,       154.368,       8.86967,            0.,NA,NA,"",   1.01862E+06,   1.01364E+06,   1.01364E+06
C:/temp/Job-31.odb,Step-1,Increment      1: Step Time =    1.000,"P-31-1",          1027,       191.136,       154.425,            0.,NA,NA,"",   975.397E+03,   1.02294E+06,   1.02294E+06
C:/temp/Job-31.odb,Step-1,Increment      1: Step Time =    1.000,"P-31-1",          1028,       45.6625,       190.970,            0.,NA,NA,"",   1.33197E+06,   1.32500E+06,   1.32500E+06
C:/temp/Job-31.odb,Step-1,Increment      1: Step Time =    1.000,"P-31-1",          1029,       8.82074,       45.3805,            0.,NA,NA,"",   950.420E+03,   1.04166E+06,   1.04166E+06
C:/temp/Job-31.odb,Step-1,Increment      1: Step Time =    1.000,"P-31-1",          1030,       147.187,       120.770,            0.,NA,NA,"",   1.16633E+06,   915.217E+03,   915.217E+03
C:/temp/Job-31.odb,Step-1,Increment      1: Step Time =    1.000,"P-31-1",          1031,       135.182,       141.009,            0.,NA,NA,"",   1.64967E+06,   1.52369E+06,   1.52369E+06
C:/temp/Job-31.odb,Step-1,Increment      1: Step Time =    1.000,"P-31-1",          1032,       156.870,       111.876,            0.,NA,NA,"",   750.361E+03,   682.711E+03,   682.711E+03
C:/temp/Job-31.odb,Step-1,Increment      1: Step Time =    1.000,"P-31-1",          1033,       151.982,       120.714,            0.,NA,NA,"",   1.11165E+06,   922.910E+03,   922.910E+03
C:/temp/Job-31.odb,Step-1,Increment      1: Step Time =    1.000,"P-31-1",          1034,       152.736,       73.7242,            0.,NA,NA,"",   1.25820E+06,   1.07444E+06,   1.07444E+06
C:/temp/Job-31.odb,Step-1,Increment      1: Step Time =    1.000,"P-31-1",          1035,       152.702,       96.4247,            0.,NA,NA,"",   434.364E+03,   384.009E+03,   384.009E+03
C:/temp/Job-31.odb,Step-1,Increment      1: Step Time =    1.000,"P-31-1",          1036,       27.8101,       130.966,            0.,NA,NA,"",   753.745E+03,   785.054E+03,   785.054E+03
C:/temp/Job-31.odb,Step-1,Increment      1: Step Time =    1.000,"P-31-1",          1037,       69.2707,       26.8668,            0.,NA,NA,"",   1.35267E+06,   1.32616E+06,   1.32616E+06
C:/temp/Job-31.odb,Step-1,Increment      1: Step Time =    1.000,"P-31-1",          1038,       130.071,       172.799,            0.,NA,NA,"",   1.21043E+06,   1.20679E+06,   1.20679E+06
C:/temp/Job-31.odb,Step-1,Increment      1: Step Time =    1.000,"P-31-1",          1039,       172.020,       69.7936,            0.,NA,NA,"",   1.07230E+06,   1.07150E+06,   1.07150E+06
C:/temp/Job-31.odb,Step-1,Increment      1: Step Time =    1.000,"P-31-1",          1040,       68.9602,       51.4011,            0.,NA,NA,"",   1.56049E+06,   1.48947E+06,   1.48947E+06
C:/temp/Job-31.odb,Step-1,Increment      1: Step Time =    1.000,"P-31-1",          1041,       29.2292,       101.947,            0.,NA,NA,"",   341.682E+03,   394.097E+03,   394.097E+03
C:/temp/Job-31.odb,Step-1,Increment      1: Step Time =    1.000,"P-31-1",          1042,       100.734,       29.6265,            0.,NA,NA,"",   1.16822E+06,   1.24090E+06,   1.24090E+06
C:/temp/Job-31.odb,Step-1,Increment      1: Step Time =    1.000,"P-31-1",          1043,       25.6513,       90.9799,            0.,NA,NA,"",   403.126E+03,   460.737E+03,   460.737E+03
C:/temp/Job-31.odb,Step-1,Increment      1: Step Time =    1.000,"P-31-1",          1044,       110.527,       25.3856,            0.,NA,NA,"",   1.11390E+06,   1.16410E+06,   1.16410E+06
C:/temp/Job-31.odb,Step-1,Increment      1: Step Time =    1.000,"P-31-1",          1045,       170.200,       100.041,            0.,NA,NA,"",   648.817E+03,   725.660E+03,   725.660E+03
C:/temp/Job-31.odb,Step-1,Increment      1: Step Time =    1.000,"P-31-1",          1046,       101.139,       168.845,            0.,NA,NA,"",   1.18968E+06,   1.26913E+06,   1.26913E+06
C:/temp/Job-31.odb,Step-1,Increment      1: Step Time =    1.000,"P-31-1",          1047,       175.507,       110.321,            0.,NA,NA,"",   785.830E+03,   870.983E+03,   870.983E+03
C:/temp/Job-31.odb,Step-1,Increment      1: Step Time =    1.000,"P-31-1",          1048,       89.0719,       173.567,            0.,NA,NA,"",   1.20739E+06,   1.24410E+06,   1.24410E+06
C:/temp/Job-31.odb,Step-1,Increment      1: Step Time =    1.000,"P-31-1",          1049,       113.002,       159.580,            0.,NA,NA,"",   1.33782E+06,   1.42915E+06,   1.42915E+06
C:/temp/Job-31.odb,Step-1,Increment      1: Step Time =    1.000,"P-31-1",          1050,       103.136,       151.260,            0.,NA,NA,"",   1.53689E+06,   1.68636E+06,   1.68636E+06
C:/temp/Job-31.odb,Step-1,Increment      1: Step Time =    1.000,"P-31-1",          1051,       78.5730,       44.3145,            0.,NA,NA,"",   1.51923E+06,   1.52540E+06,   1.52540E+06
C:/temp/Job-31.odb,Step-1,Increment      1: Step Time =    1.000,"P-31-1",          1052,       58.4760,       139.991,            0.,NA,NA,"",   1.37113E+06,   1.24614E+06,   1.24614E+06
C:/temp/Job-31.odb,Step-1,Increment      1: Step Time =    1.000,"P-31-1",          1053,       79.5629,       153.623,            0.,NA,NA,"",   1.55078E+06,   1.56615E+06,   1.56615E+06
C:/temp/Job-31.odb,Step-1,Increment      1: Step Time =    1.000,"P-31-1",          1054,       88.7238,       149.543,            0.,NA,NA,"",   1.62339E+06,   1.72089E+06,   1.72089E+06
C:/temp/Job-31.odb,Step-1,Increment      1: Step Time =    1.000,"P-31-1",          1055,       42.4021,       115.928,            0.,NA,NA,"",   531.334E+03,   511.177E+03,   511.177E+03
C:/temp/Job-31.odb,Step-1,Increment      1: Step Time =    1.000,"P-31-1",          1056,       132.918,       123.755,            0.,NA,NA,"",   1.23949E+06,   1.02658E+06,   1.02658E+06
C:/temp/Job-31.odb,Step-1,Increment      1: Step Time =    1.000,"P-31-1",          1057,       40.8792,       109.607,            0.,NA,NA,"",   373.249E+03,   386.157E+03,   386.157E+03
C:/temp/Job-31.odb,Step-1,Increment      1: Step Time =    1.000,"P-31-1",          1058,       160.222,       90.4039,            0.,NA,NA,"",    684.86E+03,   672.055E+03,   672.055E+03
C:/temp/Job-31.odb,Step-1,Increment      1: Step Time =    1.000,"P-31-1",          1059,       153.900,       13.4399,            0.,NA,NA,"",   1.05313E+06,   1.04334E+06,   1.04334E+06
C:/temp/Job-31.odb,Step-1,Increment      1: Step Time =    1.000,"P-31-1",          1060,       13.0959,       45.3375,            0.,NA,NA,"",   989.644E+03,   1.06594E+06,   1.06594E+06
C:/temp/Job-31.odb,Step-1,Increment      1: Step Time =    1.000,"P-31-1",          1061,       186.599,       154.017,            0.,NA,NA,"",   1.00712E+06,   1.04468E+06,   1.04468E+06
C:/temp/Job-31.odb,Step-1,Increment      1: Step Time =    1.000,"P-31-1",          1062,       46.0567,       186.449,            0.,NA,NA,"",   1.33925E+06,   1.32610E+06,   1.32610E+06
C:/temp/Job-31.odb,Step-1,Increment      1: Step Time =    1.000,"P-31-1",          1063,       151.034,       100.642,            0.,NA,NA,"",   369.190E+03,   299.220E+03,   299.220E+03
C:/temp/Job-31.odb,Step-1,Increment      1: Step Time =    1.000,"P-31-1",          1064,       139.656,       140.834,            0.,NA,NA,"",   1.60682E+06,   1.45368E+06,   1.45368E+06
C:/temp/Job-31.odb,Step-1,Increment      1: Step Time =    1.000,"P-31-1",          1065,       156.643,       98.0861,            0.,NA,NA,"",   456.801E+03,   456.064E+03,   456.064E+03
C:/temp/Job-31.odb,Step-1,Increment      1: Step Time =    1.000,"P-31-1",          1066,       94.6590,       36.7748,            0.,NA,NA,"",   1.30208E+06,   1.39116E+06,   1.39116E+06
C:/temp/Job-31.odb,Step-1,Increment      1: Step Time =    1.000,"P-31-1",          1067,       163.355,       81.9298,            0.,NA,NA,"",   935.102E+03,   901.177E+03,   901.177E+03
C:/temp/Job-31.odb,Step-1,Increment      1: Step Time =    1.000,"P-31-1",          1068,       132.070,       47.0793,            0.,NA,NA,"",   1.52305E+06,   1.47818E+06,   1.47818E+06
C:/temp/Job-31.odb,Step-1,Increment      1: Step Time =    1.000,"P-31-1",          1069,       49.1014,       123.916,            0.,NA,NA,"",   835.436E+03,   735.568E+03,   735.568E+03
C:/temp/Job-31.odb,Step-1,Increment      1: Step Time =    1.000,"P-31-1",          1070,       125.766,       25.3082,            0.,NA,NA,"",   1.16759E+06,   1.17775E+06,   1.17775E+06
C:/temp/Job-31.odb,Step-1,Increment      1: Step Time =    1.000,"P-31-1",          1071,       74.2587,       173.557,            0.,NA,NA,"",   1.32153E+06,   1.30980E+06,   1.30980E+06
C:/temp/Job-31.odb,Step-1,Increment      1: Step Time =    1.000,"P-31-1",          1072,       24.3359,       73.6994,            0.,NA,NA,"",   652.335E+03,   701.309E+03,   701.309E+03
C:/temp/Job-31.odb,Step-1,Increment      1: Step Time =    1.000,"P-31-1",          1073,       174.095,       126.368,            0.,NA,NA,"",   1.00795E+06,   1.03373E+06,   1.03373E+06
C:/temp/Job-31.odb,Step-1,Increment      1: Step Time =    1.000,"P-31-1",          1074,       38.8062,       119.659,            0.,NA,NA,"",   610.338E+03,   604.850E+03,   604.850E+03
C:/temp/Job-31.odb,Step-1,Increment      1: Step Time =    1.000,"P-31-1",          1075,       122.675,       158.143,            0.,NA,NA,"",   1.41005E+06,   1.44080E+06,   1.44080E+06
C:/temp/Job-31.odb,Step-1,Increment      1: Step Time =    1.000,"P-31-1",          1076,       132.422,       147.694,            0.,NA,NA,"",   1.60337E+06,   1.53428E+06,   1.53428E+06
C:/temp/Job-31.odb,Step-1,Increment      1: Step Time =    1.000,"P-31-1",          1077,       54.6333,       25.8496,            0.,NA,NA,"",   1.37051E+06,   1.33165E+06,   1.33165E+06
C:/temp/Job-31.odb,Step-1,Increment      1: Step Time =    1.000,"P-31-1",          1078,       24.7138,       53.4323,            0.,NA,NA,"",   986.272E+03,   1.01789E+06,   1.01789E+06
C:/temp/Job-31.odb,Step-1,Increment      1: Step Time =    1.000,"P-31-1",          1079,       24.9541,       146.578,            0.,NA,NA,"",   990.455E+03,   1.02178E+06,   1.02178E+06
C:/temp/Job-31.odb,Step-1,Increment      1: Step Time =    1.000,"P-31-1",          1080,       145.295,       24.8796,            0.,NA,NA,"",   1.18215E+06,   1.15527E+06,   1.15527E+06
C:/temp/Job-31.odb,Step-1,Increment      1: Step Time =    1.000,"P-31-1",          1081,       145.435,       173.547,            0.,NA,NA,"",   1.20102E+06,   1.17017E+06,   1.17017E+06
C:/temp/Job-31.odb,Step-1,Increment      1: Step Time =    1.000,"P-31-1",          1082,       175.408,       145.650,            0.,NA,NA,"",   1.11957E+06,   1.11830E+06,   1.11830E+06
C:/temp/Job-31.odb,Step-1,Increment      1: Step Time =    1.000,"P-31-1",          1083,       174.224,       55.1982,            0.,NA,NA,"",   1.13139E+06,   1.12472E+06,   1.12472E+06
C:/temp/Job-31.odb,Step-1,Increment      1: Step Time =    1.000,"P-31-1",          1084,       52.5986,       173.674,            0.,NA,NA,"",   1.37522E+06,   1.33588E+06,   1.33588E+06
C:/temp/Job-31.odb,Step-1,Increment      1: Step Time =    1.000,"P-31-1",          1085,       129.524,       122.300,            0.,NA,NA,"",   938.194E+03,   825.943E+03,   825.943E+03
C:/temp/Job-31.odb,Step-1,Increment      1: Step Time =    1.000,"P-31-1",          1086,       156.618,       120.680,            0.,NA,NA,"",   1.05936E+06,   930.797E+03,   930.797E+03
C:/temp/Job-31.odb,Step-1,Increment      1: Step Time =    1.000,"P-31-1",          1087,       153.070,       106.615,            0.,NA,NA,"",   536.648E+03,   462.310E+03,   462.310E+03
C:/temp/Job-31.odb,Step-1,Increment      1: Step Time =    1.000,"P-31-1",          1088,       68.5508,       57.0492,            0.,NA,NA,"",   1.55251E+06,   1.46217E+06,   1.46217E+06
C:/temp/Job-31.odb,Step-1,Increment      1: Step Time =    1.000,"P-31-1",          1089,       102.348,       156.303,            0.,NA,NA,"",   1.38180E+06,   1.50947E+06,   1.50947E+06
C:/temp/Job-31.odb,Step-1,Increment      1: Step Time =    1.000,"P-31-1",          1090,       56.5748,       137.162,            0.,NA,NA,"",   1.29708E+06,   1.16766E+06,   1.16766E+06
C:/temp/Job-31.odb,Step-1,Increment      1: Step Time =    1.000,"P-31-1",          1091,       106.569,       50.1328,            0.,NA,NA,"",   1.56226E+06,   1.70880E+06,   1.70880E+06
C:/temp/Job-31.odb,Step-1,Increment      1: Step Time =    1.000,"P-31-1",          1092,       83.6892,       153.410,            0.,NA,NA,"",   1.54056E+06,   1.59028E+06,   1.59028E+06
C:/temp/Job-31.odb,Step-1,Increment      1: Step Time =    1.000,"P-31-1",          1093,       97.6245,       152.215,            0.,NA,NA,"",   1.50808E+06,   1.64357E+06,   1.64357E+06
C:/temp/Job-31.odb,Step-1,Increment      1: Step Time =    1.000,"P-31-1",          1094,       36.1048,       114.625,            0.,NA,NA,"",   475.916E+03,   500.316E+03,   500.316E+03
C:/temp/Job-31.odb,Step-1,Increment      1: Step Time =    1.000,"P-31-1",          1095,       30.2874,       87.5547,            0.,NA,NA,"",   434.942E+03,   484.337E+03,   484.337E+03
C:/temp/Job-31.odb,Step-1,Increment      1: Step Time =    1.000,"P-31-1",          1096,       88.0932,       168.104,            0.,NA,NA,"",   1.28712E+06,   1.33584E+06,   1.33584E+06
C:/temp/Job-31.odb,Step-1,Increment      1: Step Time =    1.000,"P-31-1",          1097,       170.766,       109.685,            0.,NA,NA,"",   749.479E+03,   812.342E+03,   812.342E+03
C:/temp/Job-31.odb,Step-1,Increment      1: Step Time =    1.000,"P-31-1",          1098,       68.7043,       43.7010,            0.,NA,NA,"",   1.51525E+06,   1.45933E+06,   1.45933E+06
C:/temp/Job-31.odb,Step-1,Increment      1: Step Time =    1.000,"P-31-1",          1099,       166.640,       98.1065,            0.,NA,NA,"",   608.442E+03,   669.402E+03,   669.402E+03
C:/temp/Job-31.odb,Step-1,Increment      1: Step Time =    1.000,"P-31-1",          1100,       103.003,       164.655,            0.,NA,NA,"",   1.24148E+06,   1.33779E+06,   1.33779E+06
C:/temp/Job-31.odb,Step-1,Increment      1: Step Time =    1.000,"P-31-1",          1101,       34.6704,       101.298,            0.,NA,NA,"",   299.958E+03,   345.108E+03,   345.108E+03
C:/temp/Job-31.odb,Step-1,Increment      1: Step Time =    1.000,"P-31-1",          1102,       99.9311,       35.0762,            0.,NA,NA,"",   1.24255E+06,   1.33602E+06,   1.33602E+06
C:/temp/Job-31.odb,Step-1,Increment      1: Step Time =    1.000,"P-31-1",          1103,       166.171,       89.6959,            0.,NA,NA,"",   728.498E+03,   759.249E+03,   759.249E+03
C:/temp/Job-31.odb,Step-1,Increment      1: Step Time =    1.000,"P-31-1",          1104,       106.629,       166.589,            0.,NA,NA,"",   1.20700E+06,   1.29199E+06,   1.29199E+06
C:/temp/Job-31.odb,Step-1,Increment      1: Step Time =    1.000,"P-31-1",          1105,       89.2881,       32.0727,            0.,NA,NA,"",   1.27865E+06,   1.33205E+06,   1.33205E+06
C:/temp/Job-31.odb,Step-1,Increment      1: Step Time =    1.000,"P-31-1",          1106,       35.0245,       109.511,            0.,NA,NA,"",    377.17E+03,   417.926E+03,   417.926E+03
C:/temp/Job-31.odb,Step-1,Increment      1: Step Time =    1.000,"P-31-1",          1107,       165.596,       120.374,            0.,NA,NA,"",   970.122E+03,   943.470E+03,   943.470E+03
C:/temp/Job-31.odb,Step-1,Increment      1: Step Time =    1.000,"P-31-1",          1108,       79.4682,       167.291,            0.,NA,NA,"",   1.36762E+06,   1.37714E+06,   1.37714E+06
C:/temp/Job-31.odb,Step-1,Increment      1: Step Time =    1.000,"P-31-1",          1109,       122.089,       167.068,            0.,NA,NA,"",   1.26483E+06,   1.29391E+06,   1.29391E+06
C:/temp/Job-31.odb,Step-1,Increment      1: Step Time =    1.000,"P-31-1",          1110,       166.117,       77.4996,            0.,NA,NA,"",   1.01180E+06,   982.515E+03,   982.515E+03
C:/temp/Job-31.odb,Step-1,Increment      1: Step Time =    1.000,"P-31-1",          1111,       33.9887,       75.5850,            0.,NA,NA,"",   683.842E+03,   697.221E+03,   697.221E+03
C:/temp/Job-31.odb,Step-1,Increment      1: Step Time =    1.000,"P-31-1",          1112,       120.527,       35.3279,            0.,NA,NA,"",   1.28995E+06,   1.33089E+06,   1.33089E+06
C:/temp/Job-31.odb,Step-1,Increment      1: Step Time =    1.000,"P-31-1",          1113,       32.9550,       120.787,            0.,NA,NA,"",   594.684E+03,    620.14E+03,    620.14E+03
C:/temp/Job-31.odb,Step-1,Increment      1: Step Time =    1.000,"P-31-1",          1114,       76.8565,       34.2857,            0.,NA,NA,"",   1.40206E+06,   1.39781E+06,   1.39781E+06
C:/temp/Job-31.odb,Step-1,Increment      1: Step Time =    1.000,"P-31-1",          1115,       164.433,       92.7561,            0.,NA,NA,"",   654.748E+03,   687.918E+03,   687.918E+03
C:/temp/Job-31.odb,Step-1,Increment      1: Step Time =    1.000,"P-31-1",          1116,       161.252,       112.360,            0.,NA,NA,"",   767.298E+03,   746.416E+03,   746.416E+03
C:/temp/Job-31.odb,Step-1,Increment      1: Step Time =    1.000,"P-31-1",          1117,       130.562,       168.101,            0.,NA,NA,"",   1.28008E+06,   1.27185E+06,   1.27185E+06
C:/temp/Job-31.odb,Step-1,Increment      1: Step Time =    1.000,"P-31-1",          1118,       166.772,       69.4811,            0.,NA,NA,"",   1.13970E+06,   1.09184E+06,   1.09184E+06
C:/temp/Job-31.odb,Step-1,Increment      1: Step Time =    1.000,"P-31-1",          1119,       68.2648,       31.3651,            0.,NA,NA,"",   1.40261E+06,   1.36742E+06,   1.36742E+06
C:/temp/Job-31.odb,Step-1,Increment      1: Step Time =    1.000,"P-31-1",          1120,       36.4885,       129.161,            0.,NA,NA,"",   809.395E+03,   797.932E+03,   797.932E+03
C:/temp/Job-31.odb,Step-1,Increment      1: Step Time =    1.000,"P-31-1",          1121,       80.2991,       39.9716,            0.,NA,NA,"",   1.45629E+06,   1.47231E+06,   1.47231E+06
C:/temp/Job-31.odb,Step-1,Increment      1: Step Time =    1.000,"P-31-1",          1122,       35.9613,       105.310,            0.,NA,NA,"",   319.022E+03,   361.809E+03,   361.809E+03
C:/temp/Job-31.odb,Step-1,Increment      1: Step Time =    1.000,"P-31-1",          1123,       135.474,       90.9764,            0.,NA,NA,"",   809.106E+03,  -782.073E+03,  -782.073E+03
C:/temp/Job-31.odb,Step-1,Increment      1: Step Time =    1.000,"P-31-1",          1124,       102.462,       49.2789,            0.,NA,NA,"",   1.54393E+06,   1.69348E+06,   1.69348E+06
C:/temp/Job-31.odb,Step-1,Increment      1: Step Time =    1.000,"P-31-1",          1125,       58.7622,       58.0959,            0.,NA,NA,"",   1.40388E+06,   1.28634E+06,   1.28634E+06
C:/temp/Job-31.odb,Step-1,Increment      1: Step Time =    1.000,"P-31-1",          1126,       102.156,       159.898,            0.,NA,NA,"",   1.31346E+06,   1.42781E+06,   1.42781E+06
C:/temp/Job-31.odb,Step-1,Increment      1: Step Time =    1.000,"P-31-1",          1127,       148.995,       26.7942,            0.,NA,NA,"",   1.19975E+06,   1.16704E+06,   1.16704E+06
C:/temp/Job-31.odb,Step-1,Increment      1: Step Time =    1.000,"P-31-1",          1128,       22.0866,       152.066,            0.,NA,NA,"",   1.03541E+06,   1.07533E+06,   1.07533E+06
C:/temp/Job-31.odb,Step-1,Increment      1: Step Time =    1.000,"P-31-1",          1129,       48.0805,       173.134,            0.,NA,NA,"",   1.37457E+06,   1.33743E+06,   1.33743E+06
C:/temp/Job-31.odb,Step-1,Increment      1: Step Time =    1.000,"P-31-1",          1130,       50.4540,       24.8029,            0.,NA,NA,"",   1.36918E+06,   1.33350E+06,   1.33350E+06
C:/temp/Job-31.odb,Step-1,Increment      1: Step Time =    1.000,"P-31-1",          1131,       19.4125,       47.9137,            0.,NA,NA,"",   1.01044E+06,   1.06294E+06,   1.06294E+06
C:/temp/Job-31.odb,Step-1,Increment      1: Step Time =    1.000,"P-31-1",          1132,       176.047,       50.8579,            0.,NA,NA,"",   1.11455E+06,   1.11423E+06,   1.11423E+06
C:/temp/Job-31.odb,Step-1,Increment      1: Step Time =    1.000,"P-31-1",          1133,       150.629,       174.819,            0.,NA,NA,"",   1.17565E+06,   1.14603E+06,   1.14603E+06
C:/temp/Job-31.odb,Step-1,Increment      1: Step Time =    1.000,"P-31-1",          1134,       173.586,       149.534,            0.,NA,NA,"",   1.14502E+06,   1.13164E+06,   1.13164E+06
C:/temp/Job-31.odb,Step-1,Increment      1: Step Time =    1.000,"P-31-1",          1135,       66.0140,       46.8412,            0.,NA,NA,"",   1.52048E+06,   1.44711E+06,   1.44711E+06
C:/temp/Job-31.odb,Step-1,Increment      1: Step Time =    1.000,"P-31-1",          1136,       71.2204,       40.2362,            0.,NA,NA,"",   1.48760E+06,   1.45093E+06,   1.45093E+06
C:/temp/Job-31.odb,Step-1,Increment      1: Step Time =    1.000,"P-31-1",          1137,       139.094,       136.111,            0.,NA,NA,"",   1.60167E+06,   1.41619E+06,   1.41619E+06
C:/temp/Job-31.odb,Step-1,Increment      1: Step Time =    1.000,"P-31-1",          1138,       152.194,       125.450,            0.,NA,NA,"",   1.24722E+06,   1.05801E+06,   1.05801E+06
C:/temp/Job-31.odb,Step-1,Increment      1: Step Time =    1.000,"P-31-1",          1139,       161.128,       120.594,            0.,NA,NA,"",   1.01065E+06,   936.866E+03,   936.866E+03
C:/temp/Job-31.odb,Step-1,Increment      1: Step Time =    1.000,"P-31-1",          1140,       89.5346,       39.3620,            0.,NA,NA,"",   1.37555E+06,   1.45083E+06,   1.45083E+06
C:/temp/Job-31.odb,Step-1,Increment      1: Step Time =    1.000,"P-31-1",          1141,       124.511,       47.2986,            0.,NA,NA,"",   1.52138E+06,   1.53592E+06,   1.53592E+06
C:/temp/Job-31.odb,Step-1,Increment      1: Step Time =    1.000,"P-31-1",          1142,       130.702,       30.6535,            0.,NA,NA,"",   1.26190E+06,   1.25432E+06,   1.25432E+06
C:/temp/Job-31.odb,Step-1,Increment      1: Step Time =    1.000,"P-31-1",          1143,       68.2558,       169.123,            0.,NA,NA,"",   1.40005E+06,   1.36615E+06,   1.36615E+06
C:/temp/Job-31.odb,Step-1,Increment      1: Step Time =    1.000,"P-31-1",          1144,       28.2795,       69.0061,            0.,NA,NA,"",   761.419E+03,   791.834E+03,   791.834E+03
C:/temp/Job-31.odb,Step-1,Increment      1: Step Time =    1.000,"P-31-1",          1145,       170.586,       132.825,            0.,NA,NA,"",   1.11589E+06,   1.09591E+06,   1.09591E+06
C:/temp/Job-31.odb,Step-1,Increment      1: Step Time =    1.000,"P-31-1",          1146,       165.380,       112.683,            0.,NA,NA,"",   787.537E+03,   801.324E+03,   801.324E+03
C:/temp/Job-31.odb,Step-1,Increment      1: Step Time =    1.000,"P-31-1",          1147,       107.695,       41.3711,            0.,NA,NA,"",   1.33857E+06,   1.45068E+06,   1.45068E+06
C:/temp/Job-31.odb,Step-1,Increment      1: Step Time =    1.000,"P-31-1",          1148,       79.6950,       158.535,            0.,NA,NA,"",   1.48148E+06,   1.49691E+06,   1.49691E+06
C:/temp/Job-31.odb,Step-1,Increment      1: Step Time =    1.000,"P-31-1",          1149,       91.8133,       155.189,            0.,NA,NA,"",   1.46571E+06,   1.56769E+06,   1.56769E+06
C:/temp/Job-31.odb,Step-1,Increment      1: Step Time =    1.000,"P-31-1",          1150,       97.8959,       147.168,            0.,NA,NA,"",   1.69416E+06,   1.85124E+06,   1.85124E+06
C:/temp/Job-31.odb,Step-1,Increment      1: Step Time =    1.000,"P-31-1",          1151,       103.859,       36.7747,            0.,NA,NA,"",   1.25787E+06,   1.35954E+06,   1.35954E+06
C:/temp/Job-31.odb,Step-1,Increment      1: Step Time =    1.000,"P-31-1",          1152,       165.246,       116.237,            0.,NA,NA,"",   879.718E+03,   871.239E+03,   871.239E+03
C:/temp/Job-31.odb,Step-1,Increment      1: Step Time =    1.000,"P-31-1",          1153,       83.3278,       163.538,            0.,NA,NA,"",   1.38849E+06,   1.42212E+06,   1.42212E+06
C:/temp/Job-31.odb,Step-1,Increment      1: Step Time =    1.000,"P-31-1",          1154,       116.035,       35.7775,            0.,NA,NA,"",   1.27137E+06,   1.33496E+06,   1.33496E+06
C:/temp/Job-31.odb,Step-1,Increment      1: Step Time =    1.000,"P-31-1",          1155,       35.7164,       80.0317,            0.,NA,NA,"",   601.554E+03,   614.773E+03,   614.773E+03
C:/temp/Job-31.odb,Step-1,Increment      1: Step Time =    1.000,"P-31-1",          1156,       54.9491,       63.9322,            0.,NA,NA,"",   1.24711E+06,   1.11994E+06,   1.11994E+06
C:/temp/Job-31.odb,Step-1,Increment      1: Step Time =    1.000,"P-31-1",          1157,       104.937,       161.228,            0.,NA,NA,"",   1.29019E+06,   1.40037E+06,   1.40037E+06
C:/temp/Job-31.odb,Step-1,Increment      1: Step Time =    1.000,"P-31-1",          1158,       115.470,       162.901,            0.,NA,NA,"",   1.29421E+06,   1.36469E+06,   1.36469E+06
C:/temp/Job-31.odb,Step-1,Increment      1: Step Time =    1.000,"P-31-1",          1159,       81.8269,       35.4095,            0.,NA,NA,"",   1.38349E+06,   1.40610E+06,   1.40610E+06
C:/temp/Job-31.odb,Step-1,Increment      1: Step Time =    1.000,"P-31-1",          1160,       47.0511,       127.744,            0.,NA,NA,"",   913.312E+03,   830.258E+03,   830.258E+03
C:/temp/Job-31.odb,Step-1,Increment      1: Step Time =    1.000,"P-31-1",          1161,       129.862,       158.186,            0.,NA,NA,"",   1.43170E+06,   1.41495E+06,   1.41495E+06
C:/temp/Job-31.odb,Step-1,Increment      1: Step Time =    1.000,"P-31-1",          1162,       76.5392,       38.7505,            0.,NA,NA,"",   1.45626E+06,   1.44974E+06,   1.44974E+06
C:/temp/Job-31.odb,Step-1,Increment      1: Step Time =    1.000,"P-31-1",          1163,       38.6343,       124.636,            0.,NA,NA,"",   729.117E+03,   714.606E+03,   714.606E+03
C:/temp/Job-31.odb,Step-1,Increment      1: Step Time =    1.000,"P-31-1",          1164,       126.535,       163.455,            0.,NA,NA,"",   1.34452E+06,   1.35257E+06,   1.35257E+06
C:/temp/Job-31.odb,Step-1,Increment      1: Step Time =    1.000,"P-31-1",          1165,       166.137,       73.6075,            0.,NA,NA,"",   1.08311E+06,   1.04126E+06,   1.04126E+06
C:/temp/Job-31.odb,Step-1,Increment      1: Step Time =    1.000,"P-31-1",          1166,       161.661,       108.560,            0.,NA,NA,"",   661.536E+03,   668.806E+03,   668.806E+03
C:/temp/Job-31.odb,Step-1,Increment      1: Step Time =    1.000,"P-31-1",          1167,       99.0983,       161.860,            0.,NA,NA,"",   1.29789E+06,   1.40254E+06,   1.40254E+06
C:/temp/Job-31.odb,Step-1,Increment      1: Step Time =    1.000,"P-31-1",          1168,       36.7365,       95.2498,            0.,NA,NA,"",   302.999E+03,   342.902E+03,   342.902E+03
C:/temp/Job-31.odb,Step-1,Increment      1: Step Time =    1.000,"P-31-1",          1169,       36.7408,       133.057,            0.,NA,NA,"",   891.373E+03,   873.368E+03,   873.368E+03
C:/temp/Job-31.odb,Step-1,Increment      1: Step Time =    1.000,"P-31-1",          1170,       135.077,       163.445,            0.,NA,NA,"",   1.35479E+06,   1.32286E+06,   1.32286E+06
C:/temp/Job-31.odb,Step-1,Increment      1: Step Time =    1.000,"P-31-1",          1171,       164.141,       61.0529,            0.,NA,NA,"",   1.24938E+06,   1.17759E+06,   1.17759E+06
C:/temp/Job-31.odb,Step-1,Increment      1: Step Time =    1.000,"P-31-1",          1172,       57.8046,       52.7335,            0.,NA,NA,"",   1.43391E+06,   1.33295E+06,   1.33295E+06
C:/temp/Job-31.odb,Step-1,Increment      1: Step Time =    1.000,"P-31-1",          1173,       54.6642,       132.072,            0.,NA,NA,"",   1.15118E+06,   1.01747E+06,   1.01747E+06
C:/temp/Job-31.odb,Step-1,Increment      1: Step Time =    1.000,"P-31-1",          1174,       38.3773,       73.9132,            0.,NA,NA,"",   763.812E+03,   748.011E+03,   748.011E+03
C:/temp/Job-31.odb,Step-1,Increment      1: Step Time =    1.000,"P-31-1",          1175,       123.940,       39.1471,            0.,NA,NA,"",   1.37134E+06,   1.39292E+06,   1.39292E+06
C:/temp/Job-31.odb,Step-1,Increment      1: Step Time =    1.000,"P-31-1",          1176,       75.7822,       163.250,            0.,NA,NA,"",   1.43914E+06,   1.43079E+06,   1.43079E+06
C:/temp/Job-31.odb,Step-1,Increment      1: Step Time =    1.000,"P-31-1",          1177,       161.312,       125.038,            0.,NA,NA,"",   1.11536E+06,   1.02691E+06,   1.02691E+06
C:/temp/Job-31.odb,Step-1,Increment      1: Step Time =    1.000,"P-31-1",          1178,       122.856,       162.938,            0.,NA,NA,"",   1.33294E+06,   1.36264E+06,   1.36264E+06
C:/temp/Job-31.odb,Step-1,Increment      1: Step Time =    1.000,"P-31-1",          1179,       79.6690,       163.213,            0.,NA,NA,"",   1.41725E+06,   1.42985E+06,   1.42985E+06
C:/temp/Job-31.odb,Step-1,Increment      1: Step Time =    1.000,"P-31-1",          1180,       94.8420,       160.811,            0.,NA,NA,"",   1.34119E+06,   1.43814E+06,   1.43814E+06
C:/temp/Job-31.odb,Step-1,Increment      1: Step Time =    1.000,"P-31-1",          1181,       16.9582,       154.212,            0.,NA,NA,"",   1.01385E+06,   1.07517E+06,   1.07517E+06
C:/temp/Job-31.odb,Step-1,Increment      1: Step Time =    1.000,"P-31-1",          1182,       151.613,       22.8129,            0.,NA,NA,"",   1.14515E+06,   1.12093E+06,   1.12093E+06
C:/temp/Job-31.odb,Step-1,Increment      1: Step Time =    1.000,"P-31-1",          1183,       25.5889,       150.125,            0.,NA,NA,"",   1.04483E+06,   1.07122E+06,   1.07122E+06
C:/temp/Job-31.odb,Step-1,Increment      1: Step Time =    1.000,"P-31-1",          1184,       47.2551,       177.496,            0.,NA,NA,"",   1.36237E+06,   1.33375E+06,   1.33375E+06
C:/temp/Job-31.odb,Step-1,Increment      1: Step Time =    1.000,"P-31-1",          1185,       16.5363,       44.8656,            0.,NA,NA,"",   1.02273E+06,   1.08699E+06,   1.08699E+06
C:/temp/Job-31.odb,Step-1,Increment      1: Step Time =    1.000,"P-31-1",          1186,       46.6249,       22.9387,            0.,NA,NA,"",   1.36420E+06,   1.33497E+06,   1.33497E+06
C:/temp/Job-31.odb,Step-1,Increment      1: Step Time =    1.000,"P-31-1",          1187,       178.001,       47.1590,            0.,NA,NA,"",   1.09265E+06,   1.09869E+06,   1.09869E+06
C:/temp/Job-31.odb,Step-1,Increment      1: Step Time =    1.000,"P-31-1",          1188,       172.219,       49.0468,            0.,NA,NA,"",   1.15776E+06,   1.13881E+06,   1.13881E+06
C:/temp/Job-31.odb,Step-1,Increment      1: Step Time =    1.000,"P-31-1",          1189,       177.472,       151.980,            0.,NA,NA,"",   1.09393E+06,   1.10062E+06,   1.10062E+06
C:/temp/Job-31.odb,Step-1,Increment      1: Step Time =    1.000,"P-31-1",          1190,       156.718,       178.871,            0.,NA,NA,"",   1.11794E+06,   1.09814E+06,   1.09814E+06
C:/temp/Job-31.odb,Step-1,Increment      1: Step Time =    1.000,"P-31-1",          1191,       151.316,       168.932,            0.,NA,NA,"",   1.23514E+06,   1.19268E+06,   1.19268E+06
C:/temp/Job-31.odb,Step-1,Increment      1: Step Time =    1.000,"P-31-1",          1192,       134.978,       148.400,            0.,NA,NA,"",   1.58285E+06,   1.50052E+06,   1.50052E+06
C:/temp/Job-31.odb,Step-1,Increment      1: Step Time =    1.000,"P-31-1",          1193,       138.452,       131.384,            0.,NA,NA,"",   1.54101E+06,   1.32301E+06,   1.32301E+06
C:/temp/Job-31.odb,Step-1,Increment      1: Step Time =    1.000,"P-31-1",          1194,       129.202,       46.9567,            0.,NA,NA,"",   1.52113E+06,   1.49626E+06,   1.49626E+06
C:/temp/Job-31.odb,Step-1,Increment      1: Step Time =    1.000,"P-31-1",          1195,       121.500,       50.6797,            0.,NA,NA,"",   1.58439E+06,   1.62394E+06,   1.62394E+06
C:/temp/Job-31.odb,Step-1,Increment      1: Step Time =    1.000,"P-31-1",          1196,       107.894,       37.1464,            0.,NA,NA,"",   1.26177E+06,   1.35813E+06,   1.35813E+06
C:/temp/Job-31.odb,Step-1,Increment      1: Step Time =    1.000,"P-31-1",          1197,       112.038,       46.2535,            0.,NA,NA,"",   1.45685E+06,   1.56914E+06,   1.56914E+06
C:/temp/Job-31.odb,Step-1,Increment      1: Step Time =    1.000,"P-31-1",          1198,       75.8212,       158.842,            0.,NA,NA,"",   1.49642E+06,   1.48599E+06,   1.48599E+06
C:/temp/Job-31.odb,Step-1,Increment      1: Step Time =    1.000,"P-31-1",          1199,       110.376,       31.0995,            0.,NA,NA,"",   1.18482E+06,   1.25395E+06,   1.25395E+06
C:/temp/Job-31.odb,Step-1,Increment      1: Step Time =    1.000,"P-31-1",          1200,       90.0277,       163.968,            0.,NA,NA,"",   1.32873E+06,   1.39578E+06,   1.39578E+06
C:/temp/Job-31.odb,Step-1,Increment      1: Step Time =    1.000,"P-31-1",          1201,       120.625,       39.8726,            0.,NA,NA,"",   1.37008E+06,   1.41400E+06,   1.41400E+06
C:/temp/Job-31.odb,Step-1,Increment      1: Step Time =    1.000,"P-31-1",          1202,       39.9289,       78.2531,            0.,NA,NA,"",   676.821E+03,   659.439E+03,   659.439E+03
C:/temp/Job-31.odb,Step-1,Increment      1: Step Time =    1.000,"P-31-1",          1203,       33.6027,       86.0692,            0.,NA,NA,"",   460.988E+03,   498.704E+03,   498.704E+03
C:/temp/Job-31.odb,Step-1,Increment      1: Step Time =    1.000,"P-31-1",          1204,       55.7633,       68.5369,            0.,NA,NA,"",   1.15658E+06,   1.01415E+06,   1.01415E+06
C:/temp/Job-31.odb,Step-1,Increment      1: Step Time =    1.000,"P-31-1",          1205,       109.190,       162.473,            0.,NA,NA,"",   1.27669E+06,   1.37475E+06,   1.37475E+06
C:/temp/Job-31.odb,Step-1,Increment      1: Step Time =    1.000,"P-31-1",          1206,       41.4767,       129.004,            0.,NA,NA,"",   863.247E+03,   823.251E+03,   823.251E+03
C:/temp/Job-31.odb,Step-1,Increment      1: Step Time =    1.000,"P-31-1",          1207,       38.9027,       99.8319,            0.,NA,NA,"",   259.246E+03,   296.332E+03,   296.332E+03
C:/temp/Job-31.odb,Step-1,Increment      1: Step Time =    1.000,"P-31-1",          1208,       34.0173,       140.921,            0.,NA,NA,"",   1.00204E+06,   993.102E+03,   993.102E+03
C:/temp/Job-31.odb,Step-1,Increment      1: Step Time =    1.000,"P-31-1",          1209,       130.611,       163.349,            0.,NA,NA,"",   1.35309E+06,   1.33903E+06,   1.33903E+06
C:/temp/Job-31.odb,Step-1,Increment      1: Step Time =    1.000,"P-31-1",          1210,       139.506,       163.412,            0.,NA,NA,"",   1.35355E+06,   1.30673E+06,   1.30673E+06
C:/temp/Job-31.odb,Step-1,Increment      1: Step Time =    1.000,"P-31-1",          1211,       63.2561,       35.0166,            0.,NA,NA,"",   1.43491E+06,   1.38237E+06,   1.38237E+06
C:/temp/Job-31.odb,Step-1,Increment      1: Step Time =    1.000,"P-31-1",          1212,       166.489,       58.4632,            0.,NA,NA,"",   1.22596E+06,   1.17217E+06,   1.17217E+06
C:/temp/Job-31.odb,Step-1,Increment      1: Step Time =    1.000,"P-31-1",          1213,       162.860,       64.6417,            0.,NA,NA,"",   1.24761E+06,   1.16256E+06,   1.16256E+06
C:/temp/Job-31.odb,Step-1,Increment      1: Step Time =    1.000,"P-31-1",          1214,       53.6881,       58.8347,            0.,NA,NA,"",   1.30920E+06,   1.19880E+06,   1.19880E+06
C:/temp/Job-31.odb,Step-1,Increment      1: Step Time =    1.000,"P-31-1",          1215,       57.2974,       127.730,            0.,NA,NA,"",   1.07356E+06,   914.936E+03,   914.936E+03
C:/temp/Job-31.odb,Step-1,Increment      1: Step Time =    1.000,"P-31-1",          1216,       32.2478,       70.8504,            0.,NA,NA,"",   765.134E+03,   779.845E+03,   779.845E+03
C:/temp/Job-31.odb,Step-1,Increment      1: Step Time =    1.000,"P-31-1",          1217,       71.7503,       163.690,            0.,NA,NA,"",   1.45161E+06,   1.42298E+06,   1.42298E+06
C:/temp/Job-31.odb,Step-1,Increment      1: Step Time =    1.000,"P-31-1",          1218,       161.681,       129.656,            0.,NA,NA,"",   1.19644E+06,   1.10166E+06,   1.10166E+06
C:/temp/Job-31.odb,Step-1,Increment      1: Step Time =    1.000,"P-31-1",          1219,       62.4068,       48.0427,            0.,NA,NA,"",   1.50030E+06,   1.41496E+06,   1.41496E+06
C:/temp/Job-31.odb,Step-1,Increment      1: Step Time =    1.000,"P-31-1",          1220,       61.2645,       38.8709,            0.,NA,NA,"",   1.45312E+06,   1.39009E+06,   1.39009E+06
C:/temp/Job-31.odb,Step-1,Increment      1: Step Time =    1.000,"P-31-1",          1221,       152.517,       130.184,            0.,NA,NA,"",   1.34254E+06,   1.16317E+06,   1.16317E+06
C:/temp/Job-31.odb,Step-1,Increment      1: Step Time =    1.000,"P-31-1",          1222,       57.4113,       36.3843,            0.,NA,NA,"",   1.42755E+06,   1.36738E+06,   1.36738E+06
C:/temp/Job-31.odb,Step-1,Increment      1: Step Time =    1.000,"P-31-1",          1223,       132.615,       41.7419,            0.,NA,NA,"",   1.43449E+06,   1.40130E+06,   1.40130E+06
C:/temp/Job-31.odb,Step-1,Increment      1: Step Time =    1.000,"P-31-1",          1224,       156.193,       169.418,            0.,NA,NA,"",   1.20392E+06,   1.16641E+06,   1.16641E+06
C:/temp/Job-31.odb,Step-1,Increment      1: Step Time =    1.000,"P-31-1",          1225,       44.5958,       27.3915,            0.,NA,NA,"",   1.36481E+06,   1.33216E+06,   1.33216E+06
C:/temp/Job-31.odb,Step-1,Increment      1: Step Time =    1.000,"P-31-1",          1226,       174.226,       45.3566,            0.,NA,NA,"",   1.13151E+06,   1.12128E+06,   1.12128E+06
C:/temp/Job-31.odb,Step-1,Increment      1: Step Time =    1.000,"P-31-1",          1227,       24.9692,       155.643,            0.,NA,NA,"",   1.10809E+06,   1.13593E+06,   1.13593E+06
C:/temp/Job-31.odb,Step-1,Increment      1: Step Time =    1.000,"P-31-1",          1228,       152.995,       164.348,            0.,NA,NA,"",   1.27824E+06,   1.22407E+06,   1.22407E+06
C:/temp/Job-31.odb,Step-1,Increment      1: Step Time =    1.000,"P-31-1",          1229,       168.651,       46.8250,            0.,NA,NA,"",   1.20088E+06,   1.16504E+06,   1.16504E+06
C:/temp/Job-31.odb,Step-1,Increment      1: Step Time =    1.000,"P-31-1",          1230,       48.8418,       29.7509,            0.,NA,NA,"",   1.37738E+06,   1.33492E+06,   1.33492E+06
C:/temp/Job-31.odb,Step-1,Increment      1: Step Time =    1.000,"P-31-1",          1231,       29.8596,       152.085,            0.,NA,NA,"",   1.11086E+06,   1.11859E+06,   1.11859E+06
C:/temp/Job-31.odb,Step-1,Increment      1: Step Time =    1.000,"P-31-1",          1232,       55.7639,       146.282,            0.,NA,NA,"",   1.39398E+06,   1.29229E+06,   1.29229E+06
C:/temp/Job-31.odb,Step-1,Increment      1: Step Time =    1.000,"P-31-1",          1233,       53.5656,       142.246,            0.,NA,NA,"",   1.32198E+06,   1.21623E+06,   1.21623E+06
C:/temp/Job-31.odb,Step-1,Increment      1: Step Time =    1.000,"P-31-1",          1234,       122.040,       44.1056,            0.,NA,NA,"",   1.45235E+06,   1.48805E+06,   1.48805E+06
C:/temp/Job-31.odb,Step-1,Increment      1: Step Time =    1.000,"P-31-1",          1235,       72.4213,       155.371,            0.,NA,NA,"",   1.53721E+06,   1.50111E+06,   1.50111E+06
C:/temp/Job-31.odb,Step-1,Increment      1: Step Time =    1.000,"P-31-1",          1236,       143.118,       130.853,            0.,NA,NA,"",   1.48778E+06,   1.26045E+06,   1.26045E+06
C:/temp/Job-31.odb,Step-1,Increment      1: Step Time =    1.000,"P-31-1",          1237,       16.2646,       149.556,            0.,NA,NA,"",   945.152E+03,   1.01022E+06,   1.01022E+06
C:/temp/Job-31.odb,Step-1,Increment      1: Step Time =    1.000,"P-31-1",          1238,       148.874,       17.3306,            0.,NA,NA,"",   1.09266E+06,   1.07677E+06,   1.07677E+06
C:/temp/Job-31.odb,Step-1,Increment      1: Step Time =    1.000,"P-31-1",          1239,       50.9766,       182.176,            0.,NA,NA,"",   1.33660E+06,   1.31420E+06,   1.31420E+06
C:/temp/Job-31.odb,Step-1,Increment      1: Step Time =    1.000,"P-31-1",          1240,       48.6514,       18.2371,            0.,NA,NA,"",   1.34720E+06,   1.32437E+06,   1.32437E+06
C:/temp/Job-31.odb,Step-1,Increment      1: Step Time =    1.000,"P-31-1",          1241,       182.260,       49.0768,            0.,NA,NA,"",   1.04782E+06,   1.07388E+06,   1.07388E+06
C:/temp/Job-31.odb,Step-1,Increment      1: Step Time =    1.000,"P-31-1",          1242,       151.043,       182.204,            0.,NA,NA,"",   1.10020E+06,   1.08342E+06,   1.08342E+06
C:/temp/Job-31.odb,Step-1,Increment      1: Step Time =    1.000,"P-31-1",          1243,       182.797,       148.997,            0.,NA,NA,"",   1.03794E+06,   1.07108E+06,   1.07108E+06
C:/temp/Job-31.odb,Step-1,Increment      1: Step Time =    1.000,"P-31-1",          1244,       136.568,       44.6276,            0.,NA,NA,"",   1.47208E+06,   1.41085E+06,   1.41085E+06
C:/temp/Job-31.odb,Step-1,Increment      1: Step Time =    1.000,"P-31-1",          1245,       87.1473,       158.915,            0.,NA,NA,"",   1.42411E+06,   1.48813E+06,   1.48813E+06
C:/temp/Job-31.odb,Step-1,Increment      1: Step Time =    1.000,"P-31-1",          1246,       37.6011,       84.3974,            0.,NA,NA,"",   510.186E+03,   524.399E+03,   524.399E+03
C:/temp/Job-31.odb,Step-1,Increment      1: Step Time =    1.000,"P-31-1",          1247,       60.3141,       68.3026,            0.,NA,NA,"",   1.23619E+06,   1.07878E+06,   1.07878E+06
C:/temp/Job-31.odb,Step-1,Increment      1: Step Time =    1.000,"P-31-1",          1248,       44.5627,       131.311,            0.,NA,NA,"",   960.489E+03,   895.649E+03,   895.649E+03
C:/temp/Job-31.odb,Step-1,Increment      1: Step Time =    1.000,"P-31-1",          1249,       37.4429,       135.991,            0.,NA,NA,"",   958.412E+03,   933.371E+03,   933.371E+03
C:/temp/Job-31.odb,Step-1,Increment      1: Step Time =    1.000,"P-31-1",          1250,       138.879,       159.991,            0.,NA,NA,"",   1.40017E+06,   1.34549E+06,   1.34549E+06
C:/temp/Job-31.odb,Step-1,Increment      1: Step Time =    1.000,"P-31-1",          1251,       160.614,       58.8774,            0.,NA,NA,"",   1.31279E+06,   1.21736E+06,   1.21736E+06
C:/temp/Job-31.odb,Step-1,Increment      1: Step Time =    1.000,"P-31-1",          1252,       59.1008,       42.9160,            0.,NA,NA,"",   1.46017E+06,   1.38552E+06,   1.38552E+06
C:/temp/Job-31.odb,Step-1,Increment      1: Step Time =    1.000,"P-31-1",          1253,       157.572,       134.808,            0.,NA,NA,"",   1.32023E+06,   1.19175E+06,   1.19175E+06
C:/temp/Job-31.odb,Step-1,Increment      1: Step Time =    1.000,"P-31-1",          1254,       39.0295,       131.401,            0.,NA,NA,"",   887.511E+03,   859.264E+03,   859.264E+03
C:/temp/Job-31.odb,Step-1,Increment      1: Step Time =    1.000,"P-31-1",          1255,       93.5981,       165.194,            0.,NA,NA,"",   1.28015E+06,   1.35677E+06,   1.35677E+06
C:/temp/Job-31.odb,Step-1,Increment      1: Step Time =    1.000,"P-31-1",          1256,       35.1586,       90.5874,            0.,NA,NA,"",   378.286E+03,   417.722E+03,   417.722E+03
C:/temp/Job-31.odb,Step-1,Increment      1: Step Time =    1.000,"P-31-1",          1257,       111.811,       36.4313,            0.,NA,NA,"",   1.26334E+06,   1.34548E+06,   1.34548E+06
C:/temp/Job-31.odb,Step-1,Increment      1: Step Time =    1.000,"P-31-1",          1258,       87.7445,       154.155,            0.,NA,NA,"",   1.51107E+06,   1.59127E+06,   1.59127E+06
C:/temp/Job-31.odb,Step-1,Increment      1: Step Time =    1.000,"P-31-1",          1259,       35.1637,       145.623,            0.,NA,NA,"",   1.08842E+06,   1.07192E+06,   1.07192E+06
C:/temp/Job-31.odb,Step-1,Increment      1: Step Time =    1.000,"P-31-1",          1260,       163.678,       54.6135,            0.,NA,NA,"",   1.26980E+06,   1.20258E+06,   1.20258E+06
C:/temp/Job-31.odb,Step-1,Increment      1: Step Time =    1.000,"P-31-1",          1261,       143.918,       161.696,            0.,NA,NA,"",   1.35985E+06,   1.29917E+06,   1.29917E+06
C:/temp/Job-31.odb,Step-1,Increment      1: Step Time =    1.000,"P-31-1",          1262,       156.453,       56.8106,            0.,NA,NA,"",   1.37872E+06,   1.26437E+06,   1.26437E+06
C:/temp/Job-31.odb,Step-1,Increment      1: Step Time =    1.000,"P-31-1",          1263,       141.755,       157.838,            0.,NA,NA,"",   1.42058E+06,   1.35147E+06,   1.35147E+06
C:/temp/Job-31.odb,Step-1,Increment      1: Step Time =    1.000,"P-31-1",          1264,       133.812,       36.6102,            0.,NA,NA,"",   1.35582E+06,   1.32813E+06,   1.32813E+06
C:/temp/Job-31.odb,Step-1,Increment      1: Step Time =    1.000,"P-31-1",          1265,       50.8494,       130.019,            0.,NA,NA,"",   1.03588E+06,   923.328E+03,   923.328E+03
C:/temp/Job-31.odb,Step-1,Increment      1: Step Time =    1.000,"P-31-1",          1266,       149.921,       162.566,            0.,NA,NA,"",   1.31942E+06,   1.25714E+06,   1.25714E+06
C:/temp/Job-31.odb,Step-1,Increment      1: Step Time =    1.000,"P-31-1",          1267,       164.045,       49.7565,            0.,NA,NA,"",   1.25843E+06,   1.20041E+06,   1.20041E+06
C:/temp/Job-31.odb,Step-1,Increment      1: Step Time =    1.000,"P-31-1",          1268,       50.5277,       37.4500,            0.,NA,NA,"",   1.39108E+06,   1.33255E+06,   1.33255E+06
C:/temp/Job-31.odb,Step-1,Increment      1: Step Time =    1.000,"P-31-1",          1269,       36.2680,       150.597,            0.,NA,NA,"",   1.16844E+06,   1.14598E+06,   1.14598E+06
C:/temp/Job-31.odb,Step-1,Increment      1: Step Time =    1.000,"P-31-1",          1270,       46.1182,       141.165,            0.,NA,NA,"",   1.18099E+06,   1.10687E+06,   1.10687E+06
C:/temp/Job-31.odb,Step-1,Increment      1: Step Time =    1.000,"P-31-1",          1271,       51.3674,       69.4537,            0.,NA,NA,"",   1.05856E+06,   943.295E+03,   943.295E+03
C:/temp/Job-31.odb,Step-1,Increment      1: Step Time =    1.000,"P-31-1",          1272,       117.446,       46.9044,            0.,NA,NA,"",   1.49142E+06,   1.56798E+06,   1.56798E+06
C:/temp/Job-31.odb,Step-1,Increment      1: Step Time =    1.000,"P-31-1",          1273,       142.601,       125.963,            0.,NA,NA,"",   1.37651E+06,   1.11682E+06,   1.11682E+06
C:/temp/Job-31.odb,Step-1,Increment      1: Step Time =    1.000,"P-31-1",          1274,       45.1286,       16.3667,            0.,NA,NA,"",   1.35025E+06,   1.33280E+06,   1.33280E+06
C:/temp/Job-31.odb,Step-1,Increment      1: Step Time =    1.000,"P-31-1",          1275,       184.001,       45.4440,            0.,NA,NA,"",   1.03165E+06,   1.05942E+06,   1.05942E+06
C:/temp/Job-31.odb,Step-1,Increment      1: Step Time =    1.000,"P-31-1",          1276,       154.686,       183.826,            0.,NA,NA,"",   1.07674E+06,   1.06358E+06,   1.06358E+06
C:/temp/Job-31.odb,Step-1,Increment      1: Step Time =    1.000,"P-31-1",          1277,       152.805,       134.817,            0.,NA,NA,"",   1.40005E+06,   1.23591E+06,   1.23591E+06
C:/temp/Job-31.odb,Step-1,Increment      1: Step Time =    1.000,"P-31-1",          1278,       58.1530,       150.670,            0.,NA,NA,"",   1.45167E+06,   1.35850E+06,   1.35850E+06
C:/temp/Job-31.odb,Step-1,Increment      1: Step Time =    1.000,"P-31-1",          1279,       160.430,       173.636,            0.,NA,NA,"",   1.14460E+06,   1.12004E+06,   1.12004E+06
C:/temp/Job-31.odb,Step-1,Increment      1: Step Time =    1.000,"P-31-1",          1280,       38.2166,       28.6006,            0.,NA,NA,"",   1.34345E+06,   1.32311E+06,   1.32311E+06
C:/temp/Job-31.odb,Step-1,Increment      1: Step Time =    1.000,"P-31-1",          1281,       172.892,       40.1406,            0.,NA,NA,"",   1.13205E+06,   1.11823E+06,   1.11823E+06
C:/temp/Job-31.odb,Step-1,Increment      1: Step Time =    1.000,"P-31-1",          1282,       23.4598,       161.755,            0.,NA,NA,"",   1.16842E+06,   1.20121E+06,   1.20121E+06
C:/temp/Job-31.odb,Step-1,Increment      1: Step Time =    1.000,"P-31-1",          1283,       68.2997,       158.551,            0.,NA,NA,"",   1.50287E+06,   1.45024E+06,   1.45024E+06
C:/temp/Job-31.odb,Step-1,Increment      1: Step Time =    1.000,"P-31-1",          1284,       39.4900,       88.9389,            0.,NA,NA,"",   404.879E+03,   421.881E+03,   421.881E+03
C:/temp/Job-31.odb,Step-1,Increment      1: Step Time =    1.000,"P-31-1",          1285,       138.988,       155.161,            0.,NA,NA,"",   1.46957E+06,   1.39781E+06,   1.39781E+06
C:/temp/Job-31.odb,Step-1,Increment      1: Step Time =    1.000,"P-31-1",          1286,       37.4406,       155.778,            0.,NA,NA,"",   1.23844E+06,   1.21166E+06,   1.21166E+06
C:/temp/Job-31.odb,Step-1,Increment      1: Step Time =    1.000,"P-31-1",          1287,       154.303,       160.643,            0.,NA,NA,"",   1.30471E+06,   1.24079E+06,   1.24079E+06
C:/temp/Job-31.odb,Step-1,Increment      1: Step Time =    1.000,"P-31-1",          1288,       46.2246,       34.3917,            0.,NA,NA,"",   1.36567E+06,   1.32024E+06,   1.32024E+06
C:/temp/Job-31.odb,Step-1,Increment      1: Step Time =    1.000,"P-31-1",          1289,       164.171,       45.0809,            0.,NA,NA,"",   1.24189E+06,   1.19183E+06,   1.19183E+06
C:/temp/Job-31.odb,Step-1,Increment      1: Step Time =    1.000,"P-31-1",          1290,       144.166,       140.657,            0.,NA,NA,"",   1.55356E+06,   1.38880E+06,   1.38880E+06
C:/temp/Job-31.odb,Step-1,Increment      1: Step Time =    1.000,"P-31-1",          1291,       68.4796,       148.553,            0.,NA,NA,"",   1.55543E+06,   1.48159E+06,   1.48159E+06
C:/temp/Job-31.odb,Step-1,Increment      1: Step Time =    1.000,"P-31-1",          1292,       43.6866,       98.2593,            0.,NA,NA,"",   219.962E+03,   241.272E+03,   241.272E+03
C:/temp/Job-31.odb,Step-1,Increment      1: Step Time =    1.000,"P-31-1",          1293,       67.1908,       164.161,            0.,NA,NA,"",   1.45135E+06,   1.40596E+06,   1.40596E+06
C:/temp/Job-31.odb,Step-1,Increment      1: Step Time =    1.000,"P-31-1",          1294,       36.1035,       65.5196,            0.,NA,NA,"",   905.408E+03,   893.935E+03,   893.935E+03
C:/temp/Job-31.odb,Step-1,Increment      1: Step Time =    1.000,"P-31-1",          1295,       41.4560,       68.0952,            0.,NA,NA,"",   929.799E+03,   886.317E+03,   886.317E+03
C:/temp/Job-31.odb,Step-1,Increment      1: Step Time =    1.000,"P-31-1",          1296,       144.861,       146.512,            0.,NA,NA,"",   1.51889E+06,   1.39072E+06,   1.39072E+06
C:/temp/Job-31.odb,Step-1,Increment      1: Step Time =    1.000,"P-31-1",          1297,       148.577,       139.754,            0.,NA,NA,"",   1.49127E+06,   1.32872E+06,   1.32872E+06
C:/temp/Job-31.odb,Step-1,Increment      1: Step Time =    1.000,"P-31-1",          1298,       152.930,       139.045,            0.,NA,NA,"",   1.42550E+06,   1.27720E+06,   1.27720E+06
C:/temp/Job-31.odb,Step-1,Increment      1: Step Time =    1.000,"P-31-1",          1299,       145.244,       154.540,            0.,NA,NA,"",   1.44087E+06,   1.35176E+06,   1.35176E+06
C:/temp/Job-31.odb,Step-1,Increment      1: Step Time =    1.000,"P-31-1",          1300,       154.352,       61.0409,            0.,NA,NA,"",   1.40444E+06,   1.26306E+06,   1.26306E+06
C:/temp/Job-31.odb,Step-1,Increment      1: Step Time =    1.000,"P-31-1",          1301,       47.4979,       85.1344,            0.,NA,NA,"",   545.185E+03,   478.575E+03,   478.575E+03
C:/temp/Job-31.odb,Step-1,Increment      1: Step Time =    1.000,"P-31-1",          1302,       147.779,       130.457,            0.,NA,NA,"",   1.42045E+06,   1.20752E+06,   1.20752E+06
C:/temp/Job-31.odb,Step-1,Increment      1: Step Time =    1.000,"P-31-1",          1303,       53.3025,       152.398,            0.,NA,NA,"",   1.40073E+06,   1.31727E+06,   1.31727E+06
C:/temp/Job-31.odb,Step-1,Increment      1: Step Time =    1.000,"P-31-1",          1304,       36.0069,       32.1997,            0.,NA,NA,"",   1.31818E+06,   1.30081E+06,   1.30081E+06
C:/temp/Job-31.odb,Step-1,Increment      1: Step Time =    1.000,"P-31-1",          1305,       170.835,       35.5370,            0.,NA,NA,"",   1.13187E+06,   1.11512E+06,   1.11512E+06
C:/temp/Job-31.odb,Step-1,Increment      1: Step Time =    1.000,"P-31-1",          1306,       29.0835,       164.191,            0.,NA,NA,"",   1.24158E+06,   1.24909E+06,   1.24909E+06
C:/temp/Job-31.odb,Step-1,Increment      1: Step Time =    1.000,"P-31-1",          1307,       33.6143,       162.243,            0.,NA,NA,"",   1.26387E+06,   1.25308E+06,   1.25308E+06
C:/temp/Job-31.odb,Step-1,Increment      1: Step Time =    1.000,"P-31-1",          1308,       161.398,       165.147,            0.,NA,NA,"",   1.20407E+06,   1.16576E+06,   1.16576E+06
C:/temp/Job-31.odb,Step-1,Increment      1: Step Time =    1.000,"P-31-1",          1309,       39.8958,       34.8162,            0.,NA,NA,"",   1.32778E+06,   1.29738E+06,   1.29738E+06
C:/temp/Job-31.odb,Step-1,Increment      1: Step Time =    1.000,"P-31-1",          1310,       170.411,       38.8059,            0.,NA,NA,"",   1.14734E+06,   1.12755E+06,   1.12755E+06
C:/temp/Job-31.odb,Step-1,Increment      1: Step Time =    1.000,"P-31-1",          1311,       65.3877,       153.554,            0.,NA,NA,"",   1.51851E+06,   1.44425E+06,   1.44425E+06
C:/temp/Job-31.odb,Step-1,Increment      1: Step Time =    1.000,"P-31-1",          1312,       52.2287,       46.2833,            0.,NA,NA,"",   1.39429E+06,   1.31502E+06,   1.31502E+06
C:/temp/Job-31.odb,Step-1,Increment      1: Step Time =    1.000,"P-31-1",          1313,       49.9233,       89.3479,            0.,NA,NA,"",   411.542E+03,   328.937E+03,   328.937E+03
C:/temp/Job-31.odb,Step-1,Increment      1: Step Time =    1.000,"P-31-1",          1314,       162.316,       134.722,            0.,NA,NA,"",   1.24462E+06,   1.15441E+06,   1.15441E+06
C:/temp/Job-31.odb,Step-1,Increment      1: Step Time =    1.000,"P-31-1",          1315,       139.746,       42.1581,            0.,NA,NA,"",   1.42631E+06,   1.36357E+06,   1.36357E+06
C:/temp/Job-31.odb,Step-1,Increment      1: Step Time =    1.000,"P-31-1",          1316,       48.2217,       95.9291,            0.,NA,NA,"",   217.950E+03,   192.025E+03,   192.025E+03
C:/temp/Job-31.odb,Step-1,Increment      1: Step Time =    1.000,"P-31-1",          1317,       46.2824,       103.607,            0.,NA,NA,"",   233.012E+03,   230.310E+03,   230.310E+03
C:/temp/Job-31.odb,Step-1,Increment      1: Step Time =    1.000,"P-31-1",          1318,       59.9665,       33.9063,            0.,NA,NA,"",   1.42247E+06,   1.36835E+06,   1.36835E+06
C:/temp/Job-31.odb,Step-1,Increment      1: Step Time =    1.000,"P-31-1",          1319,       136.997,       38.6737,            0.,NA,NA,"",   1.38506E+06,   1.34155E+06,   1.34155E+06
C:/temp/Job-31.odb,Step-1,Increment      1: Step Time =    1.000,"P-31-1",          1320,       36.7845,       22.1418,            0.,NA,NA,"",   1.36144E+06,   1.34797E+06,   1.34797E+06
C:/temp/Job-31.odb,Step-1,Increment      1: Step Time =    1.000,"P-31-1",          1321,       178.025,       37.6366,            0.,NA,NA,"",   1.07832E+06,   1.08059E+06,   1.08059E+06
C:/temp/Job-31.odb,Step-1,Increment      1: Step Time =    1.000,"P-31-1",          1322,       163.171,       178.466,            0.,NA,NA,"",   1.10149E+06,   1.08565E+06,   1.08565E+06
C:/temp/Job-31.odb,Step-1,Increment      1: Step Time =    1.000,"P-31-1",          1323,       20.8343,       163.902,            0.,NA,NA,"",   1.16888E+06,   1.21378E+06,   1.21378E+06
C:/temp/Job-31.odb,Step-1,Increment      1: Step Time =    1.000,"P-31-1",          1324,       66.7892,       144.799,            0.,NA,NA,"",   1.54592E+06,   1.45258E+06,   1.45258E+06
C:/temp/Job-31.odb,Step-1,Increment      1: Step Time =    1.000,"P-31-1",          1325,       138.914,       52.1685,            0.,NA,NA,"",   1.56182E+06,   1.45585E+06,   1.45585E+06
C:/temp/Job-31.odb,Step-1,Increment      1: Step Time =    1.000,"P-31-1",          1326,       47.0432,       70.7710,            0.,NA,NA,"",   954.575E+03,   872.123E+03,   872.123E+03
C:/temp/Job-31.odb,Step-1,Increment      1: Step Time =    1.000,"P-31-1",          1327,       48.2996,       75.0509,            0.,NA,NA,"",   860.911E+03,   769.532E+03,   769.532E+03
C:/temp/Job-31.odb,Step-1,Increment      1: Step Time =    1.000,"P-31-1",          1328,       155.703,       143.956,            0.,NA,NA,"",   1.39193E+06,   1.27377E+06,   1.27377E+06
C:/temp/Job-31.odb,Step-1,Increment      1: Step Time =    1.000,"P-31-1",          1329,       129.967,       35.3930,            0.,NA,NA,"",   1.33287E+06,   1.32324E+06,   1.32324E+06
C:/temp/Job-31.odb,Step-1,Increment      1: Step Time =    1.000,"P-31-1",          1330,       156.886,       66.9310,            0.,NA,NA,"",   1.31503E+06,   1.17702E+06,   1.17702E+06
C:/temp/Job-31.odb,Step-1,Increment      1: Step Time =    1.000,"P-31-1",          1331,       152.230,       54.9925,            0.,NA,NA,"",   1.43630E+06,   1.31103E+06,   1.31103E+06
C:/temp/Job-31.odb,Step-1,Increment      1: Step Time =    1.000,"P-31-1",          1332,       45.6607,       80.8587,            0.,NA,NA,"",   662.892E+03,   604.474E+03,   604.474E+03
C:/temp/Job-31.odb,Step-1,Increment      1: Step Time =    1.000,"P-31-1",          1333,       47.3603,       151.812,            0.,NA,NA,"",   1.32230E+06,   1.25285E+06,   1.25285E+06
C:/temp/Job-31.odb,Step-1,Increment      1: Step Time =    1.000,"P-31-1",          1334,       57.3248,       155.817,            0.,NA,NA,"",   1.44662E+06,   1.36573E+06,   1.36573E+06
C:/temp/Job-31.odb,Step-1,Increment      1: Step Time =    1.000,"P-31-1",          1335,       47.6311,       41.9475,            0.,NA,NA,"",   1.36079E+06,   1.29952E+06,   1.29952E+06
C:/temp/Job-31.odb,Step-1,Increment      1: Step Time =    1.000,"P-31-1",          1336,       163.112,       140.759,            0.,NA,NA,"",   1.27275E+06,   1.19315E+06,   1.19315E+06
C:/temp/Job-31.odb,Step-1,Increment      1: Step Time =    1.000,"P-31-1",          1337,       34.5264,       61.8498,            0.,NA,NA,"",   960.250E+03,   952.676E+03,   952.676E+03
C:/temp/Job-31.odb,Step-1,Increment      1: Step Time =    1.000,"P-31-1",          1338,       63.3525,       162.194,            0.,NA,NA,"",   1.46246E+06,   1.40296E+06,   1.40296E+06
C:/temp/Job-31.odb,Step-1,Increment      1: Step Time =    1.000,"P-31-1",          1339,       45.8293,       91.5464,            0.,NA,NA,"",   334.217E+03,   313.933E+03,   313.933E+03
C:/temp/Job-31.odb,Step-1,Increment      1: Step Time =    1.000,"P-31-1",          1340,       50.6999,       99.9417,            0.,NA,NA,"",   173.217E+03,   74.1001E+03,   74.1001E+03
C:/temp/Job-31.odb,Step-1,Increment      1: Step Time =    1.000,"P-31-1",          1341,       39.4124,       18.8271,            0.,NA,NA,"",   1.36501E+06,   1.35044E+06,   1.35044E+06
C:/temp/Job-31.odb,Step-1,Increment      1: Step Time =    1.000,"P-31-1",          1342,       34.2124,       25.6422,            0.,NA,NA,"",   1.34526E+06,   1.33588E+06,   1.33588E+06
C:/temp/Job-31.odb,Step-1,Increment      1: Step Time =    1.000,"P-31-1",          1343,       181.347,       39.8415,            0.,NA,NA,"",   1.05174E+06,    1.0651E+06,    1.0651E+06
C:/temp/Job-31.odb,Step-1,Increment      1: Step Time =    1.000,"P-31-1",          1344,       174.611,       36.0479,            0.,NA,NA,"",   1.10245E+06,   1.09553E+06,   1.09553E+06
C:/temp/Job-31.odb,Step-1,Increment      1: Step Time =    1.000,"P-31-1",          1345,       165.030,       174.700,            0.,NA,NA,"",   1.11618E+06,   1.09832E+06,   1.09832E+06
C:/temp/Job-31.odb,Step-1,Increment      1: Step Time =    1.000,"P-31-1",          1346,       163.231,       183.095,            0.,NA,NA,"",   1.06690E+06,   1.05693E+06,   1.05693E+06
C:/temp/Job-31.odb,Step-1,Increment      1: Step Time =    1.000,"P-31-1",          1347,       17.7893,       161.239,            0.,NA,NA,"",   1.10856E+06,   1.16690E+06,   1.16690E+06
C:/temp/Job-31.odb,Step-1,Increment      1: Step Time =    1.000,"P-31-1",          1348,       24.2819,       166.223,            0.,NA,NA,"",   1.22450E+06,   1.25172E+06,   1.25172E+06
C:/temp/Job-31.odb,Step-1,Increment      1: Step Time =    1.000,"P-31-1",          1349,       152.846,       142.345,            0.,NA,NA,"",   1.43150E+06,   1.29512E+06,   1.29512E+06
C:/temp/Job-31.odb,Step-1,Increment      1: Step Time =    1.000,"P-31-1",          1350,       139.147,       57.6385,            0.,NA,NA,"",   1.60062E+06,   1.46145E+06,   1.46145E+06
C:/temp/Job-31.odb,Step-1,Increment      1: Step Time =    1.000,"P-31-1",          1351,       141.883,       46.2741,            0.,NA,NA,"",   1.47333E+06,   1.38651E+06,   1.38651E+06
C:/temp/Job-31.odb,Step-1,Increment      1: Step Time =    1.000,"P-31-1",          1352,       138.384,       149.572,            0.,NA,NA,"",   1.54799E+06,   1.45321E+06,   1.45321E+06
C:/temp/Job-31.odb,Step-1,Increment      1: Step Time =    1.000,"P-31-1",          1353,       143.645,       39.6050,            0.,NA,NA,"",   1.37741E+06,   1.31363E+06,   1.31363E+06
C:/temp/Job-31.odb,Step-1,Increment      1: Step Time =    1.000,"P-31-1",          1354,       57.7691,       47.5673,            0.,NA,NA,"",   1.45378E+06,   1.36638E+06,   1.36638E+06
C:/temp/Job-31.odb,Step-1,Increment      1: Step Time =    1.000,"P-31-1",          1355,       34.7394,       166.506,            0.,NA,NA,"",   1.30557E+06,   1.29149E+06,   1.29149E+06
C:/temp/Job-31.odb,Step-1,Increment      1: Step Time =    1.000,"P-31-1",          1356,       166.186,       164.690,            0.,NA,NA,"",   1.16974E+06,   1.14117E+06,   1.14117E+06
C:/temp/Job-31.odb,Step-1,Increment      1: Step Time =    1.000,"P-31-1",          1357,       164.634,       32.4226,            0.,NA,NA,"",   1.16633E+06,   1.13795E+06,   1.13795E+06
C:/temp/Job-31.odb,Step-1,Increment      1: Step Time =    1.000,"P-31-1",          1358,       34.6000,       35.9818,            0.,NA,NA,"",   1.28091E+06,   1.26772E+06,   1.26772E+06
C:/temp/Job-31.odb,Step-1,Increment      1: Step Time =    1.000,"P-31-1",          1359,       45.8267,       66.5016,            0.,NA,NA,"",   1.03229E+06,   958.271E+03,   958.271E+03
C:/temp/Job-31.odb,Step-1,Increment      1: Step Time =    1.000,"P-31-1",          1360,       62.0339,       152.873,            0.,NA,NA,"",   1.49577E+06,   1.40994E+06,   1.40994E+06
C:/temp/Job-31.odb,Step-1,Increment      1: Step Time =    1.000,"P-31-1",          1361,       162.243,       29.9804,            0.,NA,NA,"",   1.16352E+06,   1.13512E+06,   1.13512E+06
C:/temp/Job-31.odb,Step-1,Increment      1: Step Time =    1.000,"P-31-1",          1362,       171.031,       163.474,            0.,NA,NA,"",   1.13298E+06,   1.11647E+06,   1.11647E+06
C:/temp/Job-31.odb,Step-1,Increment      1: Step Time =    1.000,"P-31-1",          1363,       30.0574,       39.1678,            0.,NA,NA,"",   1.22096E+06,   1.22403E+06,   1.22403E+06
C:/temp/Job-31.odb,Step-1,Increment      1: Step Time =    1.000,"P-31-1",          1364,       36.9302,       170.124,            0.,NA,NA,"",   1.33299E+06,   1.31514E+06,   1.31514E+06
C:/temp/Job-31.odb,Step-1,Increment      1: Step Time =    1.000,"P-31-1",          1365,       148.623,       37.3309,            0.,NA,NA,"",   1.31978E+06,   1.26016E+06,   1.26016E+06
C:/temp/Job-31.odb,Step-1,Increment      1: Step Time =    1.000,"P-31-1",          1366,       32.7398,       66.7227,            0.,NA,NA,"",   844.821E+03,   851.403E+03,   851.403E+03
C:/temp/Job-31.odb,Step-1,Increment      1: Step Time =    1.000,"P-31-1",          1367,       49.9695,       155.086,            0.,NA,NA,"",   1.37153E+06,   1.29855E+06,   1.29855E+06
C:/temp/Job-31.odb,Step-1,Increment      1: Step Time =    1.000,"P-31-1",          1368,       44.9007,       45.4812,            0.,NA,NA,"",   1.31606E+06,   1.25791E+06,   1.25791E+06
C:/temp/Job-31.odb,Step-1,Increment      1: Step Time =    1.000,"P-31-1",          1369,       42.5929,       58.0416,            0.,NA,NA,"",   1.13695E+06,   1.08175E+06,   1.08175E+06
C:/temp/Job-31.odb,Step-1,Increment      1: Step Time =    1.000,"P-31-1",          1370,       53.0968,       102.909,            0.,NA,NA,"",   202.476E+03,  -56.2100E+03,  -56.2100E+03
C:/temp/Job-31.odb,Step-1,Increment      1: Step Time =    1.000,"P-31-1",          1371,       143.131,       55.3702,            0.,NA,NA,"",   1.55173E+06,   1.41406E+06,   1.41406E+06
C:/temp/Job-31.odb,Step-1,Increment      1: Step Time =    1.000,"P-31-1",          1372,       54.1161,       78.1579,            0.,NA,NA,"",   839.116E+03,   690.854E+03,   690.854E+03
C:/temp/Job-31.odb,Step-1,Increment      1: Step Time =    1.000,"P-31-1",          1373,       166.804,       133.544,            0.,NA,NA,"",   1.17698E+06,   1.12187E+06,   1.12187E+06
C:/temp/Job-31.odb,Step-1,Increment      1: Step Time =    1.000,"P-31-1",          1374,       140.765,       34.5351,            0.,NA,NA,"",   1.31740E+06,   1.27399E+06,   1.27399E+06
C:/temp/Job-31.odb,Step-1,Increment      1: Step Time =    1.000,"P-31-1",          1375,       39.8530,       167.248,            0.,NA,NA,"",   1.33378E+06,   1.30613E+06,   1.30613E+06
C:/temp/Job-31.odb,Step-1,Increment      1: Step Time =    1.000,"P-31-1",          1376,       161.277,       160.894,            0.,NA,NA,"",   1.23607E+06,   1.18879E+06,   1.18879E+06
C:/temp/Job-31.odb,Step-1,Increment      1: Step Time =    1.000,"P-31-1",          1377,       160.901,       35.2855,            0.,NA,NA,"",   1.21417E+06,   1.17330E+06,   1.17330E+06
C:/temp/Job-31.odb,Step-1,Increment      1: Step Time =    1.000,"P-31-1",          1378,       33.4344,       39.2514,            0.,NA,NA,"",   1.24680E+06,   1.23750E+06,   1.23750E+06
C:/temp/Job-31.odb,Step-1,Increment      1: Step Time =    1.000,"P-31-1",          1379,       48.9228,       60.3993,            0.,NA,NA,"",   1.20195E+06,   1.11186E+06,   1.11186E+06
C:/temp/Job-31.odb,Step-1,Increment      1: Step Time =    1.000,"P-31-1",          1380,       151.797,       159.469,            0.,NA,NA,"",   1.33493E+06,   1.26426E+06,   1.26426E+06
C:/temp/Job-31.odb,Step-1,Increment      1: Step Time =    1.000,"P-31-1",          1381,       44.4066,       62.2167,            0.,NA,NA,"",   1.09403E+06,   1.02892E+06,   1.02892E+06
C:/temp/Job-31.odb,Step-1,Increment      1: Step Time =    1.000,"P-31-1",          1382,       159.456,       146.308,            0.,NA,NA,"",   1.33682E+06,   1.24417E+06,   1.24417E+06
C:/temp/Job-31.odb,Step-1,Increment      1: Step Time =    1.000,"P-31-1",          1383,       150.554,       68.5376,            0.,NA,NA,"",   1.39553E+06,   1.20287E+06,   1.20287E+06
C:/temp/Job-31.odb,Step-1,Increment      1: Step Time =    1.000,"P-31-1",          1384,       55.6149,       159.980,            0.,NA,NA,"",   1.43218E+06,   1.36211E+06,   1.36211E+06
C:/temp/Job-31.odb,Step-1,Increment      1: Step Time =    1.000,"P-31-1",          1385,       152.391,       147.396,            0.,NA,NA,"",   1.42542E+06,   1.31068E+06,   1.31068E+06
C:/temp/Job-31.odb,Step-1,Increment      1: Step Time =    1.000,"P-31-1",          1386,       147.579,       47.7906,            0.,NA,NA,"",   1.44264E+06,   1.34138E+06,   1.34138E+06
C:/temp/Job-31.odb,Step-1,Increment      1: Step Time =    1.000,"P-31-1",          1387,       33.4430,       58.0425,            0.,NA,NA,"",   1.00855E+06,   1.00338E+06,   1.00338E+06
C:/temp/Job-31.odb,Step-1,Increment      1: Step Time =    1.000,"P-31-1",          1388,       58.3019,       165.186,            0.,NA,NA,"",   1.43147E+06,   1.37298E+06,   1.37298E+06
C:/temp/Job-31.odb,Step-1,Increment      1: Step Time =    1.000,"P-31-1",          1389,       143.670,       60.8529,            0.,NA,NA,"",   1.56002E+06,   1.38843E+06,   1.38843E+06
C:/temp/Job-31.odb,Step-1,Increment      1: Step Time =    1.000,"P-31-1",          1390,       155.084,       70.5889,            0.,NA,NA,"",   1.28998E+06,   1.13060E+06,   1.13060E+06
C:/temp/Job-31.odb,Step-1,Increment      1: Step Time =    1.000,"P-31-1",          1391,       166.576,       23.8027,            0.,NA,NA,"",   1.09793E+06,   1.08389E+06,   1.08389E+06
C:/temp/Job-31.odb,Step-1,Increment      1: Step Time =    1.000,"P-31-1",          1392,       176.511,       167.131,            0.,NA,NA,"",   1.07843E+06,   1.07645E+06,   1.07645E+06
C:/temp/Job-31.odb,Step-1,Increment      1: Step Time =    1.000,"P-31-1",          1393,       26.1801,       29.9719,            0.,NA,NA,"",   1.27995E+06,   1.29740E+06,   1.29740E+06
C:/temp/Job-31.odb,Step-1,Increment      1: Step Time =    1.000,"P-31-1",          1394,       33.2857,       174.244,            0.,NA,NA,"",   1.34234E+06,   1.33547E+06,   1.33547E+06
C:/temp/Job-31.odb,Step-1,Increment      1: Step Time =    1.000,"P-31-1",          1395,       153.225,       42.8388,            0.,NA,NA,"",   1.34272E+06,   1.26789E+06,   1.26789E+06
C:/temp/Job-31.odb,Step-1,Increment      1: Step Time =    1.000,"P-31-1",          1396,       45.4989,       154.535,            0.,NA,NA,"",   1.31624E+06,   1.25583E+06,   1.25583E+06
C:/temp/Job-31.odb,Step-1,Increment      1: Step Time =    1.000,"P-31-1",          1397,       47.0319,       157.423,            0.,NA,NA,"",   1.34937E+06,   1.28777E+06,   1.28777E+06
C:/temp/Job-31.odb,Step-1,Increment      1: Step Time =    1.000,"P-31-1",          1398,       36.7366,       56.5773,            0.,NA,NA,"",   1.07713E+06,   1.05387E+06,   1.05387E+06
C:/temp/Job-31.odb,Step-1,Increment      1: Step Time =    1.000,"P-31-1",          1399,       154.636,       37.6617,            0.,NA,NA,"",   1.27779E+06,   1.22174E+06,   1.22174E+06
C:/temp/Job-31.odb,Step-1,Increment      1: Step Time =    1.000,"P-31-1",          1400,       154.723,       156.688,            0.,NA,NA,"",   1.32821E+06,   1.25515E+06,   1.25515E+06
C:/temp/Job-31.odb,Step-1,Increment      1: Step Time =    1.000,"P-31-1",          1401,       163.294,       150.036,            0.,NA,NA,"",   1.26990E+06,   1.20696E+06,   1.20696E+06
C:/temp/Job-31.odb,Step-1,Increment      1: Step Time =    1.000,"P-31-1",          1402,       53.8604,       164.174,            0.,NA,NA,"",   1.41434E+06,   1.35436E+06,   1.35436E+06
C:/temp/Job-31.odb,Step-1,Increment      1: Step Time =    1.000,"P-31-1",          1403,       48.0333,       49.0835,            0.,NA,NA,"",   1.32565E+06,   1.25346E+06,   1.25346E+06
C:/temp/Job-31.odb,Step-1,Increment      1: Step Time =    1.000,"P-31-1",          1404,       41.6074,       47.6841,            0.,NA,NA,"",   1.25824E+06,   1.21179E+06,   1.21179E+06
C:/temp/Job-31.odb,Step-1,Increment      1: Step Time =    1.000,"P-31-1",          1405,       153.842,       49.9001,            0.,NA,NA,"",   1.39419E+06,   1.29416E+06,   1.29416E+06
C:/temp/Job-31.odb,Step-1,Increment      1: Step Time =    1.000,"P-31-1",          1406,       49.6406,       79.2778,            0.,NA,NA,"",   755.181E+03,   654.554E+03,   654.554E+03
C:/temp/Job-31.odb,Step-1,Increment      1: Step Time =    1.000,"P-31-1",          1407,       46.9290,       55.7775,            0.,NA,NA,"",   1.23644E+06,   1.16136E+06,   1.16136E+06
C:/temp/Job-31.odb,Step-1,Increment      1: Step Time =    1.000,"P-31-1",          1408,       146.235,       57.2585,            0.,NA,NA,"",   1.52302E+06,   1.37554E+06,   1.37554E+06
C:/temp/Job-31.odb,Step-1,Increment      1: Step Time =    1.000,"P-31-1",          1409,       176.049,       30.8403,            0.,NA,NA,"",   1.07660E+06,   1.07339E+06,   1.07339E+06
C:/temp/Job-31.odb,Step-1,Increment      1: Step Time =    1.000,"P-31-1",          1410,       161.797,       24.3998,            0.,NA,NA,"",   1.12419E+06,   1.10373E+06,   1.10373E+06
C:/temp/Job-31.odb,Step-1,Increment      1: Step Time =    1.000,"P-31-1",          1411,       176.052,       162.590,            0.,NA,NA,"",   1.09294E+06,   1.09011E+06,   1.09011E+06
C:/temp/Job-31.odb,Step-1,Increment      1: Step Time =    1.000,"P-31-1",          1412,       169.255,       176.910,            0.,NA,NA,"",   1.08350E+06,   1.07327E+06,   1.07327E+06
C:/temp/Job-31.odb,Step-1,Increment      1: Step Time =    1.000,"P-31-1",          1413,       30.6046,       22.3693,            0.,NA,NA,"",   1.35330E+06,   1.35469E+06,   1.35469E+06
C:/temp/Job-31.odb,Step-1,Increment      1: Step Time =    1.000,"P-31-1",          1414,       25.9268,       38.7061,            0.,NA,NA,"",   1.18792E+06,   1.20883E+06,   1.20883E+06
C:/temp/Job-31.odb,Step-1,Increment      1: Step Time =    1.000,"P-31-1",          1415,       26.7606,       170.574,            0.,NA,NA,"",   1.28751E+06,   1.30264E+06,   1.30264E+06
C:/temp/Job-31.odb,Step-1,Increment      1: Step Time =    1.000,"P-31-1",          1416,       38.3629,       176.172,            0.,NA,NA,"",   1.36028E+06,   1.34246E+06,   1.34246E+06
C:/temp/Job-31.odb,Step-1,Increment      1: Step Time =    1.000,"P-31-1",          1417,       150.196,       32.3060,            0.,NA,NA,"",   1.25660E+06,   1.21020E+06,   1.21020E+06
C:/temp/Job-31.odb,Step-1,Increment      1: Step Time =    1.000,"P-31-1",          1418,       35.9822,       42.9372,            0.,NA,NA,"",   1.23863E+06,   1.21846E+06,   1.21846E+06
C:/temp/Job-31.odb,Step-1,Increment      1: Step Time =    1.000,"P-31-1",          1419,       164.402,       155.439,            0.,NA,NA,"",   1.23719E+06,   1.18841E+06,   1.18841E+06
C:/temp/Job-31.odb,Step-1,Increment      1: Step Time =    1.000,"P-31-1",          1420,       43.0225,       164.789,            0.,NA,NA,"",   1.34580E+06,   1.30625E+06,   1.30625E+06
C:/temp/Job-31.odb,Step-1,Increment      1: Step Time =    1.000,"P-31-1",          1421,       158.460,       153.225,            0.,NA,NA,"",   1.31883E+06,   1.24346E+06,   1.24346E+06
C:/temp/Job-31.odb,Step-1,Increment      1: Step Time =    1.000,"P-31-1",          1422,       157.025,       45.4027,            0.,NA,NA,"",   1.32226E+06,   1.24799E+06,   1.24799E+06
C:/temp/Job-31.odb,Step-1,Increment      1: Step Time =    1.000,"P-31-1",          1423,       48.1859,       162.127,            0.,NA,NA,"",   1.37448E+06,   1.31874E+06,   1.31874E+06
C:/temp/Job-31.odb,Step-1,Increment      1: Step Time =    1.000,"P-31-1",          1424,       42.3206,       154.538,            0.,NA,NA,"",   1.28076E+06,   1.23382E+06,   1.23382E+06
C:/temp/Job-31.odb,Step-1,Increment      1: Step Time =    1.000,"P-31-1",          1425,       148.873,       71.9335,            0.,NA,NA,"",   1.35716E+06,   1.14191E+06,   1.14191E+06
C:/temp/Job-31.odb,Step-1,Increment      1: Step Time =    1.000,"P-31-1",          1426,       36.3863,       49.3770,            0.,NA,NA,"",   1.17127E+06,   1.14757E+06,   1.14757E+06
C:/temp/Job-31.odb,Step-1,Increment      1: Step Time =    1.000,"P-31-1",          1427,       157.559,       30.4212,            0.,NA,NA,"",   1.20019E+06,   1.16332E+06,   1.16332E+06
C:/temp/Job-31.odb,Step-1,Increment      1: Step Time =    1.000,"P-31-1",          1428,       173.847,       27.6196,            0.,NA,NA,"",   1.07785E+06,   1.07174E+06,   1.07174E+06
C:/temp/Job-31.odb,Step-1,Increment      1: Step Time =    1.000,"P-31-1",          1429,       170.076,       158.951,            0.,NA,NA,"",   1.16367E+06,   1.13943E+06,   1.13943E+06
C:/temp/Job-31.odb,Step-1,Increment      1: Step Time =    1.000,"P-31-1",          1430,       25.5812,       43.4468,            0.,NA,NA,"",   1.12614E+06,   1.15069E+06,   1.15069E+06
C:/temp/Job-31.odb,Step-1,Increment      1: Step Time =    1.000,"P-31-1",          1431,       21.9782,       25.8175,            0.,NA,NA,"",   1.29886E+06,   1.32964E+06,   1.32964E+06
C:/temp/Job-31.odb,Step-1,Increment      1: Step Time =    1.000,"P-31-1",          1432,       27.9977,       175.364,            0.,NA,NA,"",   1.33514E+06,   1.34358E+06,   1.34358E+06
C:/temp/Job-31.odb,Step-1,Increment      1: Step Time =    1.000,"P-31-1",          1433,       40.1081,       172.190,            0.,NA,NA,"",   1.35348E+06,   1.32865E+06,   1.32865E+06
C:/temp/Job-31.odb,Step-1,Increment      1: Step Time =    1.000,"P-31-1",          1434,       152.109,       28.8570,            0.,NA,NA,"",   1.21071E+06,   1.17360E+06,   1.17360E+06
C:/temp/Job-31.odb,Step-1,Increment      1: Step Time =    1.000,"P-31-1",          1435,       30.3857,       48.6701,            0.,NA,NA,"",   1.11257E+06,   1.11706E+06,   1.11706E+06
C:/temp/Job-31.odb,Step-1,Increment      1: Step Time =    1.000,"P-31-1",          1436,       168.216,       151.065,            0.,NA,NA,"",   1.20231E+06,   1.16610E+06,   1.16610E+06
C:/temp/Job-31.odb,Step-1,Increment      1: Step Time =    1.000,"P-31-1",          1437,       48.5091,       168.303,            0.,NA,NA,"",   1.38173E+06,   1.33581E+06,   1.33581E+06
C:/temp/Job-31.odb,Step-1,Increment      1: Step Time =    1.000,"P-31-1",          1438,       162.303,       19.0755,            0.,NA,NA,"",   1.08503E+06,   1.07175E+06,   1.07175E+06
C:/temp/Job-31.odb,Step-1,Increment      1: Step Time =    1.000,"P-31-1",          1439,       17.4836,       37.2166,            0.,NA,NA,"",   1.12519E+06,   1.18447E+06,   1.18447E+06
C:/temp/Job-31.odb,Step-1,Increment      1: Step Time =    1.000,"P-31-1",          1440,       37.2916,       180.952,            0.,NA,NA,"",   1.36848E+06,   1.35638E+06,   1.35638E+06
C:/temp/Job-31.odb,Step-1,Increment      1: Step Time =    1.000,"P-31-1",          1441,       181.106,       162.766,            0.,NA,NA,"",   1.05255E+06,   1.06280E+06,   1.06280E+06
C:/temp/Job-31.odb,Step-1,Increment      1: Step Time =    1.000,"P-31-1",          1442,       23.4835,       172.231,            0.,NA,NA,"",   1.28567E+06,   1.31153E+06,   1.31153E+06
C:/temp/Job-31.odb,Step-1,Increment      1: Step Time =    1.000,"P-31-1",          1443,       26.6998,       20.4240,            0.,NA,NA,"",   1.36107E+06,   1.37259E+06,   1.37259E+06
C:/temp/Job-31.odb,Step-1,Increment      1: Step Time =    1.000,"P-31-1",          1444,       171.571,       152.997,            0.,NA,NA,"",   1.16063E+06,   1.14014E+06,   1.14014E+06
C:/temp/Job-31.odb,Step-1,Increment      1: Step Time =    1.000,"P-31-1",          1445,       43.9155,       172.910,            0.,NA,NA,"",   1.36813E+06,   1.33587E+06,   1.33587E+06
C:/temp/Job-31.odb,Step-1,Increment      1: Step Time =    1.000,"P-31-1",          1446,       27.9099,       180.464,            0.,NA,NA,"",   1.37506E+06,   1.38070E+06,   1.38070E+06
C:/temp/Job-31.odb,Step-1,Increment      1: Step Time =    1.000,"P-31-1",          1447,       180.894,       171.917,            0.,NA,NA,"",   1.04187E+06,   1.04623E+06,   1.04623E+06
C:/temp/Job-31.odb,Step-1,Increment      1: Step Time =    1.000,"P-31-1",          1448,       18.1541,       24.8015,            0.,NA,NA,"",   1.29201E+06,   1.33942E+06,   1.33942E+06
C:/temp/Job-31.odb,Step-1,Increment      1: Step Time =    1.000,"P-31-1",          1449,       171.681,       19.1867,            0.,NA,NA,"",   1.05609E+06,   1.05054E+06,   1.05054E+06
C:/temp/Job-31.odb,Step-1,Increment      1: Step Time =    1.000,"P-31-1",          1450,       167.856,       14.1896,            0.,NA,NA,"",   1.04374E+06,   1.03834E+06,   1.03834E+06
C:/temp/Job-31.odb,Step-1,Increment      1: Step Time =    1.000,"P-31-1",          1451,       13.3161,       32.1067,            0.,NA,NA,"",   1.15022E+06,   1.22828E+06,   1.22828E+06
C:/temp/Job-31.odb,Step-1,Increment      1: Step Time =    1.000,"P-31-1",          1452,       31.9044,       185.627,            0.,NA,NA,"",   1.39428E+06,   1.39142E+06,   1.39142E+06
C:/temp/Job-31.odb,Step-1,Increment      1: Step Time =    1.000,"P-31-1",          1453,       185.894,       168.089,            0.,NA,NA,"",   1.01910E+06,   1.03292E+06,   1.03292E+06
C:/temp/Job-31.odb,Step-1,Increment      1: Step Time =    1.000,"P-31-1",          1454,       146.720,       30.5666,            0.,NA,NA,"",   1.25678E+06,   1.21494E+06,   1.21494E+06
C:/temp/Job-31.odb,Step-1,Increment      1: Step Time =    1.000,"P-31-1",          1455,       42.0015,       181.553,            0.,NA,NA,"",   1.36121E+06,   1.34384E+06,   1.34384E+06
C:/temp/Job-31.odb,Step-1,Increment      1: Step Time =    1.000,"P-31-1",          1456,       181.182,       157.944,            0.,NA,NA,"",   1.05376E+06,   1.06917E+06,   1.06917E+06
C:/temp/Job-31.odb,Step-1,Increment      1: Step Time =    1.000,"P-31-1",          1457,       17.1666,       41.4325,            0.,NA,NA,"",   1.06733E+06,   1.12911E+06,   1.12911E+06
C:/temp/Job-31.odb,Step-1,Increment      1: Step Time =    1.000,"P-31-1",          1458,       157.568,       18.9471,            0.,NA,NA,"",   1.09445E+06,   1.07876E+06,   1.07876E+06
C:/temp/Job-31.odb,Step-1,Increment      1: Step Time =    1.000,"P-31-1",          1459,       163.090,       14.0450,            0.,NA,NA,"",   1.05001E+06,   1.04256E+06,   1.04256E+06
C:/temp/Job-31.odb,Step-1,Increment      1: Step Time =    1.000,"P-31-1",          1460,       13.1138,       36.5494,            0.,NA,NA,"",   1.09211E+06,   1.17127E+06,   1.17127E+06
C:/temp/Job-31.odb,Step-1,Increment      1: Step Time =    1.000,"P-31-1",          1461,       36.5754,       185.884,            0.,NA,NA,"",   1.37733E+06,   1.36990E+06,   1.36990E+06
C:/temp/Job-31.odb,Step-1,Increment      1: Step Time =    1.000,"P-31-1",          1462,       186.032,       163.348,            0.,NA,NA,"",   1.01718E+06,   1.03745E+06,   1.03745E+06
C:/temp/Job-31.odb,Step-1,Increment      1: Step Time =    1.000,"P-31-1",          1463,       169.979,       147.426,            0.,NA,NA,"",   1.19309E+06,   1.16004E+06,   1.16004E+06
C:/temp/Job-31.odb,Step-1,Increment      1: Step Time =    1.000,"P-31-1",          1464,       24.9757,       48.3909,            0.,NA,NA,"",   1.05941E+06,   1.08780E+06,   1.08780E+06
C:/temp/Job-31.odb,Step-1,Increment      1: Step Time =    1.000,"P-31-1",          1465,       27.0694,       16.1605,            0.,NA,NA,"",   1.39828E+06,   1.40541E+06,   1.40541E+06
C:/temp/Job-31.odb,Step-1,Increment      1: Step Time =    1.000,"P-31-1",          1466,       182.541,       27.3157,            0.,NA,NA,"",   1.02990E+06,   1.03677E+06,   1.03677E+06
C:/temp/Job-31.odb,Step-1,Increment      1: Step Time =    1.000,"P-31-1",          1467,       172.698,       182.693,            0.,NA,NA,"",   1.04392E+06,   1.04051E+06,   1.04051E+06
C:/temp/Job-31.odb,Step-1,Increment      1: Step Time =    1.000,"P-31-1",          1468,       23.6197,       12.3001,            0.,NA,NA,"",   1.44030E+06,   1.44908E+06,   1.44908E+06
C:/temp/Job-31.odb,Step-1,Increment      1: Step Time =    1.000,"P-31-1",          1469,       16.0656,       180.202,            0.,NA,NA,"",   1.35010E+06,   1.39857E+06,   1.39857E+06
C:/temp/Job-31.odb,Step-1,Increment      1: Step Time =    1.000,"P-31-1",          1470,       184.324,       21.8263,            0.,NA,NA,"",   1.01695E+06,   1.02242E+06,   1.02242E+06
C:/temp/Job-31.odb,Step-1,Increment      1: Step Time =    1.000,"P-31-1",          1471,       178.163,       184.341,            0.,NA,NA,"",   1.02451E+06,   1.02494E+06,   1.02494E+06
C:/temp/Job-31.odb,Step-1,Increment      1: Step Time =    1.000,"P-31-1",          1472,       27.2497,       185.491,            0.,NA,NA,"",   1.40994E+06,   1.41392E+06,   1.41392E+06
C:/temp/Job-31.odb,Step-1,Increment      1: Step Time =    1.000,"P-31-1",          1473,       185.587,       172.773,            0.,NA,NA,"",   1.01891E+06,   1.02796E+06,   1.02796E+06
C:/temp/Job-31.odb,Step-1,Increment      1: Step Time =    1.000,"P-31-1",          1474,       172.600,       14.4741,            0.,NA,NA,"",   1.03506E+06,   1.03219E+06,   1.03219E+06
C:/temp/Job-31.odb,Step-1,Increment      1: Step Time =    1.000,"P-31-1",          1475,       13.5433,       27.6992,            0.,NA,NA,"",   1.21222E+06,   1.28737E+06,   1.28737E+06
C:/temp/Job-31.odb,Step-1,Increment      1: Step Time =    1.000,"P-31-1",          1476,       190.356,       173.632,            0.,NA,NA,"",   1.00302E+06,   1.01354E+06,   1.01354E+06
C:/temp/Job-31.odb,Step-1,Increment      1: Step Time =    1.000,"P-31-1",          1477,       26.4382,       190.352,            0.,NA,NA,"",   1.43488E+06,   1.43705E+06,   1.43705E+06
C:/temp/Job-31.odb,Step-1,Increment      1: Step Time =    1.000,"P-31-1",          1478,       173.526,       9.68696,            0.,NA,NA,"",   1.01771E+06,   1.01653E+06,   1.01653E+06
C:/temp/Job-31.odb,Step-1,Increment      1: Step Time =    1.000,"P-31-1",          1479,       9.14863,       26.6803,            0.,NA,NA,"",   1.18163E+06,   1.27935E+06,   1.27935E+06
C:/temp/Job-31.odb,Step-1,Increment      1: Step Time =    1.000,"P-31-1",          1480,       18.9703,       21.4320,            0.,NA,NA,"",   1.34099E+06,   1.37945E+06,   1.37945E+06
C:/temp/Job-31.odb,Step-1,Increment      1: Step Time =    1.000,"P-31-1",          1481,       26.0581,       10.7328,            0.,NA,NA,"",   1.43247E+06,   1.43625E+06,   1.43625E+06
C:/temp/Job-31.odb,Step-1,Increment      1: Step Time =    1.000,"P-31-1",          1482,       11.4036,       174.299,            0.,NA,NA,"",   1.22237E+06,   1.30854E+06,   1.30854E+06
C:/temp/Job-31.odb,Step-1,Increment      1: Step Time =    1.000,"P-31-1",          1483,       19.4195,       180.373,            0.,NA,NA,"",   1.35966E+06,   1.39583E+06,   1.39583E+06
C:/temp/Job-31.odb,Step-1,Increment      1: Step Time =    1.000,"P-31-1",          1484,       180.205,       20.8148,            0.,NA,NA,"",   1.02914E+06,   1.03153E+06,   1.03153E+06
C:/temp/Job-31.odb,Step-1,Increment      1: Step Time =    1.000,"P-31-1",          1485,       179.139,       180.217,            0.,NA,NA,"",   1.03178E+06,   1.03275E+06,   1.03275E+06
C:/temp/Job-31.odb,Step-1,Increment      1: Step Time =    1.000,"P-31-1",          1486,       184.996,       177.313,            0.,NA,NA,"",   1.01758E+06,   1.02324E+06,   1.02324E+06
C:/temp/Job-31.odb,Step-1,Increment      1: Step Time =    1.000,"P-31-1",          1487,       22.6647,       185.318,            0.,NA,NA,"",   1.42302E+06,   1.43707E+06,   1.43707E+06
C:/temp/Job-31.odb,Step-1,Increment      1: Step Time =    1.000,"P-31-1",          1488,       177.238,       15.0164,            0.,NA,NA,"",   1.02576E+06,   1.02548E+06,   1.02548E+06
C:/temp/Job-31.odb,Step-1,Increment      1: Step Time =    1.000,"P-31-1",          1489,       14.0366,       23.4000,            0.,NA,NA,"",   1.27923E+06,   1.34782E+06,   1.34782E+06
C:/temp/Job-31.odb,Step-1,Increment      1: Step Time =    1.000,"P-31-1",          1490,       25.7194,       7.61936,            0.,NA,NA,"",   1.44342E+06,   1.44495E+06,   1.44495E+06
C:/temp/Job-31.odb,Step-1,Increment      1: Step Time =    1.000,"P-31-1",          1491,       192.005,       24.9257,            0.,NA,NA,"",   999.750E+03,   1.00860E+06,   1.00860E+06
C:/temp/Job-31.odb,Step-1,Increment      1: Step Time =    1.000,"P-31-1",          1492,       8.12474,       174.188,            0.,NA,NA,"",   1.18673E+06,   1.28946E+06,   1.28946E+06
C:/temp/Job-31.odb,Step-1,Increment      1: Step Time =    1.000,"P-31-1",          1493,       175.086,       191.996,            0.,NA,NA,"",   1.01221E+06,   1.01175E+06,   1.01175E+06
C:/temp/Job-31.odb,Step-1,Increment      1: Step Time =    1.000,"P-31-1",          1494,       16.9395,       16.0176,            0.,NA,NA,"",   1.41529E+06,   1.45215E+06,   1.45215E+06
C:/temp/Job-31.odb,Step-1,Increment      1: Step Time =    1.000,"P-31-1",          1495,       29.1568,       12.0910,            0.,NA,NA,"",   1.41089E+06,   1.41150E+06,   1.41150E+06
C:/temp/Job-31.odb,Step-1,Increment      1: Step Time =    1.000,"P-31-1",          1496,       14.9290,       183.710,            0.,NA,NA,"",   1.40840E+06,   1.45545E+06,   1.45545E+06
C:/temp/Job-31.odb,Step-1,Increment      1: Step Time =    1.000,"P-31-1",          1497,       14.1000,       171.060,            0.,NA,NA,"",   1.20142E+06,   1.27481E+06,   1.27481E+06
C:/temp/Job-31.odb,Step-1,Increment      1: Step Time =    1.000,"P-31-1",          1498,       185.226,       17.0813,            0.,NA,NA,"",   1.01098E+06,   1.01464E+06,   1.01464E+06
C:/temp/Job-31.odb,Step-1,Increment      1: Step Time =    1.000,"P-31-1",          1499,       186.922,       28.5045,            0.,NA,NA,"",   1.01163E+06,   1.02346E+06,   1.02346E+06
C:/temp/Job-31.odb,Step-1,Increment      1: Step Time =    1.000,"P-31-1",          1500,       182.904,       185.211,            0.,NA,NA,"",   1.01396E+06,   1.01593E+06,   1.01593E+06
C:/temp/Job-31.odb,Step-1,Increment      1: Step Time =    1.000,"P-31-1",          1501,       171.523,       186.988,            0.,NA,NA,"",   1.03045E+06,   1.02794E+06,   1.02794E+06
C:/temp/Job-31.odb,Step-1,Increment      1: Step Time =    1.000,"P-31-1",          1502,       15.0672,       19.3463,            0.,NA,NA,"",   1.35392E+06,   1.40917E+06,   1.40917E+06
C:/temp/Job-31.odb,Step-1,Increment      1: Step Time =    1.000,"P-31-1",          1503,       18.3797,       184.842,            0.,NA,NA,"",   1.42664E+06,   1.45575E+06,   1.45575E+06
C:/temp/Job-31.odb,Step-1,Increment      1: Step Time =    1.000,"P-31-1",          1504,       181.586,       15.8879,            0.,NA,NA,"",   1.01735E+06,   1.01926E+06,   1.01926E+06
C:/temp/Job-31.odb,Step-1,Increment      1: Step Time =    1.000,"P-31-1",          1505,       184.102,       181.598,            0.,NA,NA,"",   1.01567E+06,   1.01902E+06,   1.01902E+06
C:/temp/Job-31.odb,Step-1,Increment      1: Step Time =    1.000,"P-31-1",          1506,       186.398,       33.1157,            0.,NA,NA,"",   1.01425E+06,   1.03079E+06,   1.03079E+06
C:/temp/Job-31.odb,Step-1,Increment      1: Step Time =    1.000,"P-31-1",          1507,       33.3229,       13.0298,            0.,NA,NA,"",   1.39128E+06,   1.38768E+06,   1.38768E+06
C:/temp/Job-31.odb,Step-1,Increment      1: Step Time =    1.000,"P-31-1",          1508,       166.924,       186.503,            0.,NA,NA,"",   1.03982E+06,   1.03505E+06,   1.03505E+06
C:/temp/Job-31.odb,Step-1,Increment      1: Step Time =    1.000,"P-31-1",          1509,       14.4155,       165.279,            0.,NA,NA,"",   1.12606E+06,   1.19862E+06,   1.19862E+06
C:/temp/Job-31.odb,Step-1,Increment      1: Step Time =    1.000,"P-31-1",          1510,       186.355,       37.3953,            0.,NA,NA,"",   1.01566E+06,   1.03769E+06,   1.03769E+06
C:/temp/Job-31.odb,Step-1,Increment      1: Step Time =    1.000,"P-31-1",          1511,       162.616,       186.429,            0.,NA,NA,"",   1.04806E+06,   1.04095E+06,   1.04095E+06
C:/temp/Job-31.odb,Step-1,Increment      1: Step Time =    1.000,"P-31-1",          1512,       37.4319,       13.4155,            0.,NA,NA,"",   1.37369E+06,   1.36555E+06,   1.36555E+06
C:/temp/Job-31.odb,Step-1,Increment      1: Step Time =    1.000,"P-31-1",          1513,       12.6256,       161.492,            0.,NA,NA,"",   1.06347E+06,   1.14398E+06,   1.14398E+06
C:/temp/Job-31.odb,Step-1,Increment      1: Step Time =    1.000,"P-31-1",          1514,       10.5127,       17.1336,            0.,NA,NA,"",   1.35007E+06,   1.43061E+06,   1.43061E+06
C:/temp/Job-31.odb,Step-1,Increment      1: Step Time =    1.000,"P-31-1",          1515,       183.348,       10.7727,            0.,NA,NA,"",   1.00815E+06,   1.00934E+06,   1.00934E+06
C:/temp/Job-31.odb,Step-1,Increment      1: Step Time =    1.000,"P-31-1",          1516,       189.235,       183.366,            0.,NA,NA,"",   1.00527E+06,   1.00883E+06,   1.00883E+06
C:/temp/Job-31.odb,Step-1,Increment      1: Step Time =    1.000,"P-31-1",          1517,       16.7231,       189.539,            0.,NA,NA,"",   1.48923E+06,   1.50884E+06,   1.50884E+06
C:/temp/Job-31.odb,Step-1,Increment      1: Step Time =    1.000,"P-31-1",          1518,       191.075,       33.8543,            0.,NA,NA,"",   993.912E+03,   1.01518E+06,   1.01518E+06
C:/temp/Job-31.odb,Step-1,Increment      1: Step Time =    1.000,"P-31-1",          1519,       34.1557,       8.50771,            0.,NA,NA,"",   1.39476E+06,   1.39217E+06,   1.39217E+06
C:/temp/Job-31.odb,Step-1,Increment      1: Step Time =    1.000,"P-31-1",          1520,       166.158,       191.088,            0.,NA,NA,"",   1.02006E+06,   1.01773E+06,   1.01773E+06
C:/temp/Job-31.odb,Step-1,Increment      1: Step Time =    1.000,"P-31-1",          1521,       9.09696,       165.481,            0.,NA,NA,"",   1.08051E+06,   1.17733E+06,   1.17733E+06
C:/temp/Job-31.odb,Step-1,Increment      1: Step Time =    1.000,"P-31-1",          1522,       185.429,       41.5554,            0.,NA,NA,"",   1.02020E+06,   1.04671E+06,   1.04671E+06
C:/temp/Job-31.odb,Step-1,Increment      1: Step Time =    1.000,"P-31-1",          1523,       158.491,       185.352,            0.,NA,NA,"",   1.06004E+06,   1.05002E+06,   1.05002E+06
C:/temp/Job-31.odb,Step-1,Increment      1: Step Time =    1.000,"P-31-1",          1524,       41.3958,       14.6823,            0.,NA,NA,"",   1.35866E+06,   1.34632E+06,   1.34632E+06
C:/temp/Job-31.odb,Step-1,Increment      1: Step Time =    1.000,"P-31-1",          1525,       14.4522,       158.390,            0.,NA,NA,"",   1.04330E+06,   1.11621E+06,   1.11621E+06
C:/temp/Job-31.odb,Step-1,Increment      1: Step Time =    1.000,"P-31-1",          1526,       51.0597,       119.966,            0.,NA,NA,"",   731.291E+03,   614.744E+03,   614.744E+03
C:/temp/Job-31.odb,Step-1,Increment      1: Step Time =    1.000,"P-31-1",          1527,       98.8023,       156.630,            0.,NA,NA,"",   1.39420E+06,   1.51782E+06,   1.51782E+06
C:/temp/Job-31.odb,Step-1,Increment      1: Step Time =    1.000,"P-31-1",          1528,       48.4242,       145.133,            0.,NA,NA,"",   1.27527E+06,   1.19360E+06,   1.19360E+06
C:/temp/Job-31.odb,Step-1,Increment      1: Step Time =    1.000,"P-31-1",          1529,       163.846,       9.22808,            0.,NA,NA,"",   1.02322E+06,   1.01973E+06,   1.01973E+06
C:/temp/Job-31.odb,Step-1,Increment      1: Step Time =    1.000,"P-31-1",          1530,       8.75125,       35.9946,            0.,NA,NA,"",   1.05870E+06,   1.15623E+06,   1.15623E+06
C:/temp/Job-31.odb,Step-1,Increment      1: Step Time =    1.000,"P-31-1",          1531,       190.799,       163.977,            0.,NA,NA,"",   993.266E+03,   1.01833E+06,   1.01833E+06
C:/temp/Job-31.odb,Step-1,Increment      1: Step Time =    1.000,"P-31-1",          1532,       35.9793,       190.692,            0.,NA,NA,"",   1.38492E+06,   1.38101E+06,   1.38101E+06
C:/temp/Job-31.odb,Step-1,Increment      1: Step Time =    1.000,"P-31-1",          1533,       110.927,       50.9318,            0.,NA,NA,"",   1.58946E+06,   1.72004E+06,   1.72004E+06
C:/temp/Job-31.odb,Step-1,Increment      1: Step Time =    1.000,"P-31-1",          1534,       63.7734,       125.212,            0.,NA,NA,"",   1.03433E+06,   855.667E+03,   855.667E+03
C:/temp/Job-31.odb,Step-1,Increment      1: Step Time =    1.000,"P-31-1",          1535,       86.0228,       37.1385,            0.,NA,NA,"",   1.37578E+06,   1.42437E+06,   1.42437E+06
C:/temp/Job-31.odb,Step-1,Increment      1: Step Time =    1.000,"P-31-1",          1536,       9.21213,       183.121,            0.,NA,NA,"",   1.34118E+06,   1.43083E+06,   1.43083E+06
C:/temp/Job-31.odb,Step-1,Increment      1: Step Time =    1.000,"P-31-1",          1537,       17.3152,       9.64455,            0.,NA,NA,"",   1.49082E+06,   1.50648E+06,   1.50648E+06
C:/temp/Job-31.odb,Step-1,Increment      1: Step Time =    1.000,"P-31-1",          1538,       183.390,       191.053,            0.,NA,NA,"",   1.00639E+06,   1.00720E+06,   1.00720E+06
C:/temp/Job-31.odb,Step-1,Increment      1: Step Time =    1.000,"P-31-1",          1539,       191.071,       16.6090,            0.,NA,NA,"",   1.00236E+06,   1.00561E+06,   1.00561E+06
C:/temp/Job-31.odb,Step-1,Increment      1: Step Time =    1.000,"P-31-1",          1540,       181.979,       153.336,            0.,NA,NA,"",   1.04805E+06,   1.07151E+06,   1.07151E+06
C:/temp/Job-31.odb,Step-1,Increment      1: Step Time =    1.000,"P-31-1",          1541,       153.117,       18.1555,            0.,NA,NA,"",   1.09596E+06,   1.07959E+06,   1.07959E+06
C:/temp/Job-31.odb,Step-1,Increment      1: Step Time =    1.000,"P-31-1",          1542,       46.5577,       181.957,            0.,NA,NA,"",   1.34977E+06,   1.32935E+06,   1.32935E+06
C:/temp/Job-31.odb,Step-1,Increment      1: Step Time =    1.000,"P-31-1",          1543,       119.500,       154.045,            0.,NA,NA,"",   1.47420E+06,   1.53207E+06,   1.53207E+06
C:/temp/Job-31.odb,Step-1,Increment      1: Step Time =    1.000,"P-31-1",          1544,       187.136,       58.3866,            0.,NA,NA,"",   977.790E+03,   1.04628E+06,   1.04628E+06
C:/temp/Job-31.odb,Step-1,Increment      1: Step Time =    1.000,"P-31-1",          1545,       58.0304,       13.0538,            0.,NA,NA,"",   1.27585E+06,   1.26100E+06,   1.26100E+06
C:/temp/Job-31.odb,Step-1,Increment      1: Step Time =    1.000,"P-31-1",          1546,       141.740,       186.816,            0.,NA,NA,"",   1.04443E+06,   1.03525E+06,   1.03525E+06
C:/temp/Job-31.odb,Step-1,Increment      1: Step Time =    1.000,"P-31-1",          1547,       12.1190,       142.816,            0.,NA,NA,"",   828.473E+03,   903.252E+03,   903.252E+03
C:/temp/Job-31.odb,Step-1,Increment      1: Step Time =    1.000,"P-31-1",          1548,       119.705,       147.583,            0.,NA,NA,"",   1.61603E+06,   1.67531E+06,   1.67531E+06
C:/temp/Job-31.odb,Step-1,Increment      1: Step Time =    1.000,"P-31-1",          1549,       47.2931,       11.4284,            0.,NA,NA,"",   1.32642E+06,   1.31546E+06,   1.31546E+06
C:/temp/Job-31.odb,Step-1,Increment      1: Step Time =    1.000,"P-31-1",          1550,       188.756,       47.4450,            0.,NA,NA,"",   988.878E+03,   1.03598E+06,   1.03598E+06
C:/temp/Job-31.odb,Step-1,Increment      1: Step Time =    1.000,"P-31-1",          1551,       11.0438,       152.583,            0.,NA,NA,"",   940.180E+03,   1.02297E+06,   1.02297E+06
C:/temp/Job-31.odb,Step-1,Increment      1: Step Time =    1.000,"P-31-1",          1552,       152.605,       188.648,            0.,NA,NA,"",   1.03603E+06,   1.02812E+06,   1.02812E+06
C:/temp/Job-31.odb,Step-1,Increment      1: Step Time =    1.000,"P-31-1",          1553,       109.353,       59.6561,            0.,NA,NA,"",   2.09440E+06,   2.24156E+06,   2.24156E+06
C:/temp/Job-31.odb,Step-1,Increment      1: Step Time =    1.000,"P-31-1",          1554,       145.343,       100.033,            0.,NA,NA,"",   379.075E+03,  -190.268E+03,  -190.268E+03
C:/temp/Job-31.odb,Step-1,Increment      1: Step Time =    1.000,"P-31-1",          1555,       77.9757,       128.896,            0.,NA,NA,"",   1.39121E+06,   1.39449E+06,   1.39449E+06
C:/temp/Job-31.odb,Step-1,Increment      1: Step Time =    1.000,"P-31-1",          1556,       73.8529,       130.377,            0.,NA,NA,"",   1.33969E+06,   1.27874E+06,   1.27874E+06
C:/temp/Job-31.odb,Step-1,Increment      1: Step Time =    1.000,"P-31-1",          1557,       38.5610,       9.10632,            0.,NA,NA,"",   1.37001E+06,   1.36523E+06,   1.36523E+06
C:/temp/Job-31.odb,Step-1,Increment      1: Step Time =    1.000,"P-31-1",          1558,       9.12525,       49.9713,            0.,NA,NA,"",   896.152E+03,   983.678E+03,   983.678E+03
C:/temp/Job-31.odb,Step-1,Increment      1: Step Time =    1.000,"P-31-1",          1559,       190.701,       38.4053,            0.,NA,NA,"",   990.388E+03,   1.02027E+06,   1.02027E+06
C:/temp/Job-31.odb,Step-1,Increment      1: Step Time =    1.000,"P-31-1",          1560,       149.568,       8.77387,            0.,NA,NA,"",   1.01180E+06,   1.00653E+06,   1.00653E+06
C:/temp/Job-31.odb,Step-1,Increment      1: Step Time =    1.000,"P-31-1",          1561,       161.589,       190.701,            0.,NA,NA,"",   1.02363E+06,   1.01995E+06,   1.01995E+06
C:/temp/Job-31.odb,Step-1,Increment      1: Step Time =    1.000,"P-31-1",          1562,       191.257,       149.623,            0.,NA,NA,"",   963.798E+03,   1.02505E+06,   1.02505E+06
C:/temp/Job-31.odb,Step-1,Increment      1: Step Time =    1.000,"P-31-1",          1563,       9.00819,       161.051,            0.,NA,NA,"",   1.02785E+06,   1.12179E+06,   1.12179E+06
C:/temp/Job-31.odb,Step-1,Increment      1: Step Time =    1.000,"P-31-1",          1564,       50.5216,       190.998,            0.,NA,NA,"",   1.30127E+06,   1.29347E+06,   1.29347E+06
C:/temp/Job-31.odb,Step-1,Increment      1: Step Time =    1.000,"P-31-1",          1565,       59.8069,       123.430,            0.,NA,NA,"",   933.470E+03,   751.046E+03,   751.046E+03
C:/temp/Job-31.odb,Step-1,Increment      1: Step Time =    1.000,"P-31-1",          1566,       69.6558,       128.290,            0.,NA,NA,"",   1.20389E+06,   1.06663E+06,   1.06663E+06
C:/temp/Job-31.odb,Step-1,Increment      1: Step Time =    1.000,"P-31-1",          1567,       73.0140,       66.9082,            0.,NA,NA,"",   1.44537E+06,   1.37337E+06,   1.37337E+06
C:/temp/Job-31.odb,Step-1,Increment      1: Step Time =    1.000,"P-31-1",          1568,       13.0229,       181.102,            0.,NA,NA,"",   1.34971E+06,   1.41458E+06,   1.41458E+06
C:/temp/Job-31.odb,Step-1,Increment      1: Step Time =    1.000,"P-31-1",          1569,       41.3244,       186.201,            0.,NA,NA,"",   1.35932E+06,   1.34837E+06,   1.34837E+06
C:/temp/Job-31.odb,Step-1,Increment      1: Step Time =    1.000,"P-31-1",          1570,       12.9302,       40.9343,            0.,NA,NA,"",   1.03834E+06,   1.11748E+06,   1.11748E+06
C:/temp/Job-31.odb,Step-1,Increment      1: Step Time =    1.000,"P-31-1",          1571,       187.537,       19.1049,            0.,NA,NA,"",   1.00708E+06,   1.01207E+06,   1.01207E+06
C:/temp/Job-31.odb,Step-1,Increment      1: Step Time =    1.000,"P-31-1",          1572,       158.436,       13.8215,            0.,NA,NA,"",   1.05299E+06,   1.04410E+06,   1.04410E+06
C:/temp/Job-31.odb,Step-1,Increment      1: Step Time =    1.000,"P-31-1",          1573,       180.887,       187.521,            0.,NA,NA,"",   1.01325E+06,   1.01442E+06,   1.01442E+06
C:/temp/Job-31.odb,Step-1,Increment      1: Step Time =    1.000,"P-31-1",          1574,       186.229,       158.646,            0.,NA,NA,"",   1.01310E+06,   1.04133E+06,   1.04133E+06
C:/temp/Job-31.odb,Step-1,Increment      1: Step Time =    1.000,"P-31-1",          1575,       142.465,       179.602,            0.,NA,NA,"",   1.12960E+06,   1.11102E+06,   1.11102E+06
C:/temp/Job-31.odb,Step-1,Increment      1: Step Time =    1.000,"P-31-1",          1576,       132.391,       185.423,            0.,NA,NA,"",   1.03975E+06,   1.03594E+06,   1.03594E+06
C:/temp/Job-31.odb,Step-1,Increment      1: Step Time =    1.000,"P-31-1",          1577,       57.2538,       20.0521,            0.,NA,NA,"",   1.33022E+06,   1.30253E+06,   1.30253E+06
C:/temp/Job-31.odb,Step-1,Increment      1: Step Time =    1.000,"P-31-1",          1578,       67.4466,       14.4883,            0.,NA,NA,"",   1.22886E+06,   1.21540E+06,   1.21540E+06
C:/temp/Job-31.odb,Step-1,Increment      1: Step Time =    1.000,"P-31-1",          1579,       180.240,       57.9641,            0.,NA,NA,"",   1.05274E+06,   1.08486E+06,   1.08486E+06
C:/temp/Job-31.odb,Step-1,Increment      1: Step Time =    1.000,"P-31-1",          1580,       185.856,       67.7701,            0.,NA,NA,"",   954.360E+03,   1.04221E+06,   1.04221E+06
C:/temp/Job-31.odb,Step-1,Increment      1: Step Time =    1.000,"P-31-1",          1581,       16.4485,       141.259,            0.,NA,NA,"",   832.073E+03,   895.039E+03,   895.039E+03
C:/temp/Job-31.odb,Step-1,Increment      1: Step Time =    1.000,"P-31-1",          1582,       18.7084,       144.584,            0.,NA,NA,"",   896.267E+03,   953.141E+03,   953.141E+03
C:/temp/Job-31.odb,Step-1,Increment      1: Step Time =    1.000,"P-31-1",          1583,       141.481,       64.9258,            0.,NA,NA,"",   1.56600E+06,   1.36931E+06,   1.36931E+06
C:/temp/Job-31.odb,Step-1,Increment      1: Step Time =    1.000,"P-31-1",          1584,       72.8758,       146.450,            0.,NA,NA,"",   1.59541E+06,   1.54577E+06,   1.54577E+06
C:/temp/Job-31.odb,Step-1,Increment      1: Step Time =    1.000,"P-31-1",          1585,       143.300,       78.5045,            0.,NA,NA,"",   1.22010E+06,   934.879E+03,   934.879E+03
C:/temp/Job-31.odb,Step-1,Increment      1: Step Time =    1.000,"P-31-1",          1586,       189.201,       21.2947,            0.,NA,NA,"",   1.00489E+06,   1.01100E+06,   1.01100E+06
C:/temp/Job-31.odb,Step-1,Increment      1: Step Time =    1.000,"P-31-1",          1587,       20.0624,       13.8288,            0.,NA,NA,"",   1.44097E+06,   1.46000E+06,   1.46000E+06
C:/temp/Job-31.odb,Step-1,Increment      1: Step Time =    1.000,"P-31-1",          1588,       178.707,       189.189,            0.,NA,NA,"",   1.01345E+06,   1.01392E+06,   1.01392E+06
C:/temp/Job-31.odb,Step-1,Increment      1: Step Time =    1.000,"P-31-1",          1589,       12.1991,       177.483,            0.,NA,NA,"",   1.27573E+06,   1.35468E+06,   1.35468E+06
C:/temp/Job-31.odb,Step-1,Increment      1: Step Time =    1.000,"P-31-1",          1590,       144.188,       90.9553,            0.,NA,NA,"",   655.123E+03,  -38.2325E+03,  -38.2325E+03
C:/temp/Job-31.odb,Step-1,Increment      1: Step Time =    1.000,"P-31-1",          1591,       54.6195,       21.8969,            0.,NA,NA,"",   1.34916E+06,   1.31788E+06,   1.31788E+06
C:/temp/Job-31.odb,Step-1,Increment      1: Step Time =    1.000,"P-31-1",          1592,       178.355,       55.2145,            0.,NA,NA,"",   1.08045E+06,   1.09765E+06,   1.09765E+06
C:/temp/Job-31.odb,Step-1,Increment      1: Step Time =    1.000,"P-31-1",          1593,       145.287,       177.769,            0.,NA,NA,"",   1.15053E+06,   1.12769E+06,   1.12769E+06
C:/temp/Job-31.odb,Step-1,Increment      1: Step Time =    1.000,"P-31-1",          1594,       101.338,       147.467,            0.,NA,NA,"",   1.68160E+06,   1.84491E+06,   1.84491E+06
C:/temp/Job-31.odb,Step-1,Increment      1: Step Time =    1.000,"P-31-1",          1595,       58.9234,       113.951,            0.,NA,NA,"",   558.813E+03,   27.7935E+03,   27.7935E+03
C:/temp/Job-31.odb,Step-1,Increment      1: Step Time =    1.000,"P-31-1",          1596,       93.0391,       150.912,            0.,NA,NA,"",   1.56457E+06,   1.68573E+06,   1.68573E+06
C:/temp/Job-31.odb,Step-1,Increment      1: Step Time =    1.000,"P-31-1",          1597,       176.100,       19.8146,            0.,NA,NA,"",   1.04204E+06,   1.04066E+06,   1.04066E+06
C:/temp/Job-31.odb,Step-1,Increment      1: Step Time =    1.000,"P-31-1",          1598,       180.139,       176.170,            0.,NA,NA,"",   1.03705E+06,   1.03935E+06,   1.03935E+06
C:/temp/Job-31.odb,Step-1,Increment      1: Step Time =    1.000,"P-31-1",          1599,       23.4074,       180.547,            0.,NA,NA,"",   1.37280E+06,   1.39251E+06,   1.39251E+06
C:/temp/Job-31.odb,Step-1,Increment      1: Step Time =    1.000,"P-31-1",          1600,       85.9602,       54.2392,            0.,NA,NA,"",   1.68524E+06,   1.76534E+06,   1.76534E+06
C:/temp/Job-31.odb,Step-1,Increment      1: Step Time =    1.000,"P-31-1",          1601,       72.1803,       61.7340,            0.,NA,NA,"",   1.55262E+06,   1.47491E+06,   1.47491E+06
C:/temp/Job-31.odb,Step-1,Increment      1: Step Time =    1.000,"P-31-1",          1602,       72.9670,       57.9831,            0.,NA,NA,"",   1.60594E+06,   1.54530E+06,   1.54530E+06
C:/temp/Job-31.odb,Step-1,Increment      1: Step Time =    1.000,"P-31-1",          1603,       181.297,       65.9963,            0.,NA,NA,"",   1.00337E+06,   1.06109E+06,   1.06109E+06
C:/temp/Job-31.odb,Step-1,Increment      1: Step Time =    1.000,"P-31-1",          1604,       42.9452,       20.8830,            0.,NA,NA,"",   1.36242E+06,   1.34069E+06,   1.34069E+06
C:/temp/Job-31.odb,Step-1,Increment      1: Step Time =    1.000,"P-31-1",          1605,       20.2413,       18.8043,            0.,NA,NA,"",   1.37974E+06,   1.40916E+06,   1.40916E+06
C:/temp/Job-31.odb,Step-1,Increment      1: Step Time =    1.000,"P-31-1",          1606,       17.7601,       28.7176,            0.,NA,NA,"",   1.23637E+06,   1.29012E+06,   1.29012E+06
C:/temp/Job-31.odb,Step-1,Increment      1: Step Time =    1.000,"P-31-1",          1607,       17.5746,       32.9036,            0.,NA,NA,"",   1.18169E+06,   1.23886E+06,   1.23886E+06
C:/temp/Job-31.odb,Step-1,Increment      1: Step Time =    1.000,"P-31-1",          1608,       58.3963,       80.4797,            0.,NA,NA,"",   784.949E+03,   586.858E+03,   586.858E+03
C:/temp/Job-31.odb,Step-1,Increment      1: Step Time =    1.000,"P-31-1",          1609,       60.0109,       76.8048,            0.,NA,NA,"",   942.861E+03,   751.924E+03,   751.924E+03
C:/temp/Job-31.odb,Step-1,Increment      1: Step Time =    1.000,"P-31-1",          1610,       75.5851,       154.437,            0.,NA,NA,"",   1.54620E+06,   1.52960E+06,   1.52960E+06
C:/temp/Job-31.odb,Step-1,Increment      1: Step Time =    1.000,"P-31-1",          1611,       188.064,       24.1920,            0.,NA,NA,"",   1.00806E+06,   1.01618E+06,   1.01618E+06
C:/temp/Job-31.odb,Step-1,Increment      1: Step Time =    1.000,"P-31-1",          1612,       19.7228,       139.898,            0.,NA,NA,"",   835.532E+03,   889.944E+03,   889.944E+03
C:/temp/Job-31.odb,Step-1,Increment      1: Step Time =    1.000,"P-31-1",          1613,       179.770,       43.5230,            0.,NA,NA,"",   1.07196E+06,   1.08234E+06,   1.08234E+06
C:/temp/Job-31.odb,Step-1,Increment      1: Step Time =    1.000,"P-31-1",          1614,       175.820,       188.082,            0.,NA,NA,"",   1.02031E+06,   1.01979E+06,   1.01979E+06
C:/temp/Job-31.odb,Step-1,Increment      1: Step Time =    1.000,"P-31-1",          1615,       152.914,       178.623,            0.,NA,NA,"",   1.13153E+06,   1.10936E+06,   1.10936E+06
C:/temp/Job-31.odb,Step-1,Increment      1: Step Time =    1.000,"P-31-1",          1616,       160.426,       181.418,            0.,NA,NA,"",   1.08488E+06,   1.07134E+06,   1.07134E+06
C:/temp/Job-31.odb,Step-1,Increment      1: Step Time =    1.000,"P-31-1",          1617,       15.7002,       176.089,            0.,NA,NA,"",   1.28935E+06,   1.34816E+06,   1.34816E+06
C:/temp/Job-31.odb,Step-1,Increment      1: Step Time =    1.000,"P-31-1",          1618,       110.162,       149.957,            0.,NA,NA,"",   1.56346E+06,   1.69889E+06,   1.69889E+06
C:/temp/Job-31.odb,Step-1,Increment      1: Step Time =    1.000,"P-31-1",          1619,       152.397,       64.9081,            0.,NA,NA,"",   1.41032E+06,   1.24258E+06,   1.24258E+06
C:/temp/Job-31.odb,Step-1,Increment      1: Step Time =    1.000,"P-31-1",          1620,       69.7364,       153.140,            0.,NA,NA,"",   1.54416E+06,   1.48875E+06,   1.48875E+06
C:/temp/Job-31.odb,Step-1,Increment      1: Step Time =    1.000,"P-31-1",          1621,       149.016,       91.2191,            0.,NA,NA,"",   622.385E+03,   448.629E+03,   448.629E+03
C:/temp/Job-31.odb,Step-1,Increment      1: Step Time =    1.000,"P-31-1",          1622,       148.685,       95.3705,            0.,NA,NA,"",   434.415E+03,   195.468E+03,   195.468E+03
C:/temp/Job-31.odb,Step-1,Increment      1: Step Time =    1.000,"P-31-1",          1623,       36.6085,       16.8503,            0.,NA,NA,"",   1.37235E+06,   1.36291E+06,   1.36291E+06
C:/temp/Job-31.odb,Step-1,Increment      1: Step Time =    1.000,"P-31-1",          1624,       182.938,       36.8487,            0.,NA,NA,"",   1.03722E+06,   1.05211E+06,   1.05211E+06
C:/temp/Job-31.odb,Step-1,Increment      1: Step Time =    1.000,"P-31-1",          1625,       22.6062,       17.1400,            0.,NA,NA,"",   1.39945E+06,   1.41865E+06,   1.41865E+06
C:/temp/Job-31.odb,Step-1,Increment      1: Step Time =    1.000,"P-31-1",          1626,       80.3968,       53.2772,            0.,NA,NA,"",   1.64550E+06,   1.67084E+06,   1.67084E+06
C:/temp/Job-31.odb,Step-1,Increment      1: Step Time =    1.000,"P-31-1",          1627,       68.8664,       61.3245,            0.,NA,NA,"",   1.51804E+06,   1.41869E+06,   1.41869E+06
C:/temp/Job-31.odb,Step-1,Increment      1: Step Time =    1.000,"P-31-1",          1628,       23.8465,       136.912,            0.,NA,NA,"",   823.530E+03,   864.563E+03,   864.563E+03
C:/temp/Job-31.odb,Step-1,Increment      1: Step Time =    1.000,"P-31-1",          1629,       155.925,       173.961,            0.,NA,NA,"",   1.16531E+06,   1.13637E+06,   1.13637E+06
C:/temp/Job-31.odb,Step-1,Increment      1: Step Time =    1.000,"P-31-1",          1630,       182.825,       71.7410,            0.,NA,NA,"",   960.041E+03,   1.03937E+06,   1.03937E+06
C:/temp/Job-31.odb,Step-1,Increment      1: Step Time =    1.000,"P-31-1",          1631,       55.4028,       181.992,            0.,NA,NA,"",   1.32635E+06,   1.30175E+06,   1.30175E+06
C:/temp/Job-31.odb,Step-1,Increment      1: Step Time =    1.000,"P-31-1",          1632,       144.713,       17.1135,            0.,NA,NA,"",   1.09340E+06,   1.07821E+06,   1.07821E+06
C:/temp/Job-31.odb,Step-1,Increment      1: Step Time =    1.000,"P-31-1",          1633,       86.4214,       47.9653,            0.,NA,NA,"",   1.56077E+06,   1.63359E+06,   1.63359E+06
C:/temp/Job-31.odb,Step-1,Increment      1: Step Time =    1.000,"P-31-1",          1634,       154.800,       102.320,            0.,NA,NA,"",   431.162E+03,   409.553E+03,   409.553E+03
C:/temp/Job-31.odb,Step-1,Increment      1: Step Time =    1.000,"P-31-1",          1635,       128.246,       181.556,            0.,NA,NA,"",   1.07953E+06,   1.08038E+06,   1.08038E+06
C:/temp/Job-31.odb,Step-1,Increment      1: Step Time =    1.000,"P-31-1",          1636,       183.073,       144.856,            0.,NA,NA,"",   1.03110E+06,   1.07168E+06,   1.07168E+06
C:/temp/Job-31.odb,Step-1,Increment      1: Step Time =    1.000,"P-31-1",          1637,       71.5466,       18.4382,            0.,NA,NA,"",   1.24555E+06,   1.23206E+06,   1.23206E+06
C:/temp/Job-31.odb,Step-1,Increment      1: Step Time =    1.000,"P-31-1",          1638,       23.0728,       19.9031,            0.,NA,NA,"",   1.37112E+06,   1.39207E+06,   1.39207E+06
C:/temp/Job-31.odb,Step-1,Increment      1: Step Time =    1.000,"P-31-1",          1639,       21.8891,       29.5609,            0.,NA,NA,"",   1.25830E+06,   1.29280E+06,   1.29280E+06
C:/temp/Job-31.odb,Step-1,Increment      1: Step Time =    1.000,"P-31-1",          1640,       21.6522,       37.9977,            0.,NA,NA,"",   1.15682E+06,   1.19658E+06,   1.19658E+06
C:/temp/Job-31.odb,Step-1,Increment      1: Step Time =    1.000,"P-31-1",          1641,       93.7321,       50.4798,            0.,NA,NA,"",   1.61531E+06,   1.74874E+06,   1.74874E+06
C:/temp/Job-31.odb,Step-1,Increment      1: Step Time =    1.000,"P-31-1",          1642,       113.360,       55.7719,            0.,NA,NA,"",   1.76551E+06,   1.89151E+06,   1.89151E+06
C:/temp/Job-31.odb,Step-1,Increment      1: Step Time =    1.000,"P-31-1",          1643,       23.5836,       175.937,            0.,NA,NA,"",   1.32054E+06,   1.34460E+06,   1.34460E+06
C:/temp/Job-31.odb,Step-1,Increment      1: Step Time =    1.000,"P-31-1",          1644,       175.008,       24.2591,            0.,NA,NA,"",   1.06169E+06,   1.05797E+06,   1.05797E+06
C:/temp/Job-31.odb,Step-1,Increment      1: Step Time =    1.000,"P-31-1",          1645,       170.939,       23.7009,            0.,NA,NA,"",   1.07727E+06,    1.0687E+06,    1.0687E+06
C:/temp/Job-31.odb,Step-1,Increment      1: Step Time =    1.000,"P-31-1",          1646,       175.474,       174.949,            0.,NA,NA,"",   1.06066E+06,   1.05779E+06,   1.05779E+06
C:/temp/Job-31.odb,Step-1,Increment      1: Step Time =    1.000,"P-31-1",          1647,       176.504,       171.168,            0.,NA,NA,"",   1.06839E+06,   1.06614E+06,   1.06614E+06
C:/temp/Job-31.odb,Step-1,Increment      1: Step Time =    1.000,"P-31-1",          1648,       170.395,       57.0953,            0.,NA,NA,"",   1.18202E+06,   1.15075E+06,   1.15075E+06
C:/temp/Job-31.odb,Step-1,Increment      1: Step Time =    1.000,"P-31-1",          1649,       53.7945,       81.8489,            0.,NA,NA,"",   705.061E+03,   557.513E+03,   557.513E+03
C:/temp/Job-31.odb,Step-1,Increment      1: Step Time =    1.000,"P-31-1",          1650,       110.668,       156.243,            0.,NA,NA,"",   1.39160E+06,   1.50575E+06,   1.50575E+06
C:/temp/Job-31.odb,Step-1,Increment      1: Step Time =    1.000,"P-31-1",          1651,       157.190,       129.983,            0.,NA,NA,"",   1.26412E+06,   1.12756E+06,   1.12756E+06
C:/temp/Job-31.odb,Step-1,Increment      1: Step Time =    1.000,"P-31-1",          1652,       60.3994,       143.566,            0.,NA,NA,"",   1.44518E+06,   1.32988E+06,   1.32988E+06
C:/temp/Job-31.odb,Step-1,Increment      1: Step Time =    1.000,"P-31-1",          1653,       64.5682,       150.296,            0.,NA,NA,"",   1.52168E+06,   1.43643E+06,   1.43643E+06
C:/temp/Job-31.odb,Step-1,Increment      1: Step Time =    1.000,"P-31-1",          1654,       47.8361,       134.125,            0.,NA,NA,"",   1.07875E+06,   990.221E+03,   990.221E+03
C:/temp/Job-31.odb,Step-1,Increment      1: Step Time =    1.000,"P-31-1",          1655,       157.552,       107.728,            0.,NA,NA,"",   609.797E+03,   584.707E+03,   584.707E+03
C:/temp/Job-31.odb,Step-1,Increment      1: Step Time =    1.000,"P-31-1",          1656,       150.181,       59.1310,            0.,NA,NA,"",   1.47254E+06,   1.32076E+06,   1.32076E+06
C:/temp/Job-31.odb,Step-1,Increment      1: Step Time =    1.000,"P-31-1",          1657,       143.616,       135.661,            0.,NA,NA,"",   1.54303E+06,   1.34613E+06,   1.34613E+06
C:/temp/Job-31.odb,Step-1,Increment      1: Step Time =    1.000,"P-31-1",          1658,       43.6160,       87.0789,            0.,NA,NA,"",   463.363E+03,   443.442E+03,   443.442E+03
C:/temp/Job-31.odb,Step-1,Increment      1: Step Time =    1.000,"P-31-1",          1659,       90.3418,       48.7523,            0.,NA,NA,"",   1.56884E+06,   1.67568E+06,   1.67568E+06
C:/temp/Job-31.odb,Step-1,Increment      1: Step Time =    1.000,"P-31-1",          1660,       144.896,       20.1667,            0.,NA,NA,"",   1.12490E+06,   1.10564E+06,   1.10564E+06
C:/temp/Job-31.odb,Step-1,Increment      1: Step Time =    1.000,"P-31-1",          1661,       180.073,       145.078,            0.,NA,NA,"",   1.06232E+06,   1.08861E+06,   1.08861E+06
C:/temp/Job-31.odb,Step-1,Increment      1: Step Time =    1.000,"P-31-1",          1662,       108.492,       158.556,            0.,NA,NA,"",   1.34029E+06,   1.45659E+06,   1.45659E+06
C:/temp/Job-31.odb,Step-1,Increment      1: Step Time =    1.000,"P-31-1",          1663,       54.8895,       178.467,            0.,NA,NA,"",   1.34798E+06,   1.31706E+06,   1.31706E+06
C:/temp/Job-31.odb,Step-1,Increment      1: Step Time =    1.000,"P-31-1",          1664,       18.4350,       166.548,            0.,NA,NA,"",    1.1785E+06,   1.23182E+06,   1.23182E+06
C:/temp/Job-31.odb,Step-1,Increment      1: Step Time =    1.000,"P-31-1",          1665,       44.4815,       121.883,            0.,NA,NA,"",   719.525E+03,   664.681E+03,   664.681E+03
C:/temp/Job-31.odb,Step-1,Increment      1: Step Time =    1.000,"P-31-1",          1666,       150.882,       75.8837,            0.,NA,NA,"",   1.23387E+06,   1.02764E+06,   1.02764E+06
C:/temp/Job-31.odb,Step-1,Increment      1: Step Time =    1.000,"P-31-1",          1667,       22.0762,       129.506,            0.,NA,NA,"",   690.494E+03,   743.498E+03,   743.498E+03
C:/temp/Job-31.odb,Step-1,Increment      1: Step Time =    1.000,"P-31-1",          1668,       81.0877,       48.6255,            0.,NA,NA,"",   1.57579E+06,   1.60486E+06,   1.60486E+06
C:/temp/Job-31.odb,Step-1,Increment      1: Step Time =    1.000,"P-31-1",          1669,       25.7413,       23.4600,            0.,NA,NA,"",   1.34027E+06,   1.35490E+06,   1.35490E+06
C:/temp/Job-31.odb,Step-1,Increment      1: Step Time =    1.000,"P-31-1",          1670,       25.5349,       26.2233,            0.,NA,NA,"",   1.31452E+06,   1.33116E+06,   1.33116E+06
C:/temp/Job-31.odb,Step-1,Increment      1: Step Time =    1.000,"P-31-1",          1671,       26.1566,       34.1610,            0.,NA,NA,"",   1.23927E+06,   1.25800E+06,   1.25800E+06
C:/temp/Job-31.odb,Step-1,Increment      1: Step Time =    1.000,"P-31-1",          1672,       161.177,       169.506,            0.,NA,NA,"",   1.17263E+06,   1.14199E+06,   1.14199E+06
C:/temp/Job-31.odb,Step-1,Increment      1: Step Time =    1.000,"P-31-1",          1673,       173.022,       170.644,            0.,NA,NA,"",   1.09006E+06,   1.08197E+06,   1.08197E+06
C:/temp/Job-31.odb,Step-1,Increment      1: Step Time =    1.000,"P-31-1",          1674,       171.862,       167.641,            0.,NA,NA,"",   1.10770E+06,   1.09640E+06,   1.09640E+06
C:/temp/Job-31.odb,Step-1,Increment      1: Step Time =    1.000,"P-31-1",          1675,       91.6624,       44.9300,            0.,NA,NA,"",   1.47263E+06,   1.57788E+06,   1.57788E+06
C:/temp/Job-31.odb,Step-1,Increment      1: Step Time =    1.000,"P-31-1",          1676,       170.683,       27.8180,            0.,NA,NA,"",   1.09571E+06,   1.08467E+06,   1.08467E+06
C:/temp/Job-31.odb,Step-1,Increment      1: Step Time =    1.000,"P-31-1",          1677,       166.780,       28.2530,            0.,NA,NA,"",   1.12254E+06,   1.10430E+06,   1.10430E+06
C:/temp/Job-31.odb,Step-1,Increment      1: Step Time =    1.000,"P-31-1",          1678,       181.742,       68.9878,            0.,NA,NA,"",   984.047E+03,   1.05146E+06,   1.05146E+06
C:/temp/Job-31.odb,Step-1,Increment      1: Step Time =    1.000,"P-31-1",          1679,       160.650,       99.9386,            0.,NA,NA,"",   506.758E+03,   538.360E+03,   538.360E+03
C:/temp/Job-31.odb,Step-1,Increment      1: Step Time =    1.000,"P-31-1",          1680,       153.645,       32.2859,            0.,NA,NA,"",   1.23664E+06,   1.19240E+06,   1.19240E+06
C:/temp/Job-31.odb,Step-1,Increment      1: Step Time =    1.000,"P-31-1",          1681,       168.468,       154.765,            0.,NA,NA,"",   1.19225E+06,   1.15931E+06,   1.15931E+06
C:/temp/Job-31.odb,Step-1,Increment      1: Step Time =    1.000,"P-31-1",          1682,       44.5756,       112.370,            0.,NA,NA,"",   446.810E+03,   420.174E+03,   420.174E+03
C:/temp/Job-31.odb,Step-1,Increment      1: Step Time =    1.000,"P-31-1",          1683,       43.6557,       137.488,            0.,NA,NA,"",   1.07804E+06,   1.01600E+06,   1.01600E+06
C:/temp/Job-31.odb,Step-1,Increment      1: Step Time =    1.000,"P-31-1",          1684,       162.655,       105.387,            0.,NA,NA,"",   596.203E+03,   627.703E+03,   627.703E+03
C:/temp/Job-31.odb,Step-1,Increment      1: Step Time =    1.000,"P-31-1",          1685,       164.544,       101.890,            0.,NA,NA,"",   575.123E+03,   625.971E+03,   625.971E+03
C:/temp/Job-31.odb,Step-1,Increment      1: Step Time =    1.000,"P-31-1",          1686,       161.025,       116.346,            0.,NA,NA,"",   894.673E+03,   843.931E+03,   843.931E+03
C:/temp/Job-31.odb,Step-1,Increment      1: Step Time =    1.000,"P-31-1",          1687,       134.750,       52.1458,            0.,NA,NA,"",   1.58800E+06,   1.50501E+06,   1.50501E+06
C:/temp/Job-31.odb,Step-1,Increment      1: Step Time =    1.000,"P-31-1",          1688,       148.141,       53.4991,            0.,NA,NA,"",   1.47746E+06,   1.35155E+06,   1.35155E+06
C:/temp/Job-31.odb,Step-1,Increment      1: Step Time =    1.000,"P-31-1",          1689,       161.620,       68.7053,            0.,NA,NA,"",   1.22007E+06,   1.12491E+06,   1.12491E+06
C:/temp/Job-31.odb,Step-1,Increment      1: Step Time =    1.000,"P-31-1",          1690,       139.682,       145.422,            0.,NA,NA,"",   1.58378E+06,   1.46028E+06,   1.46028E+06
C:/temp/Job-31.odb,Step-1,Increment      1: Step Time =    1.000,"P-31-1",          1691,       157.566,       80.3188,            0.,NA,NA,"",   1.01812E+06,   908.293E+03,   908.293E+03
C:/temp/Job-31.odb,Step-1,Increment      1: Step Time =    1.000,"P-31-1",          1692,       162.908,       87.3164,            0.,NA,NA,"",   781.334E+03,   773.228E+03,   773.228E+03
C:/temp/Job-31.odb,Step-1,Increment      1: Step Time =    1.000,"P-31-1",          1693,       90.9268,       159.681,            0.,NA,NA,"",   1.38416E+06,   1.46706E+06,   1.46706E+06
C:/temp/Job-31.odb,Step-1,Increment      1: Step Time =    1.000,"P-31-1",          1694,       125.510,       148.747,            0.,NA,NA,"",   1.59333E+06,   1.59054E+06,   1.59054E+06
C:/temp/Job-31.odb,Step-1,Increment      1: Step Time =    1.000,"P-31-1",          1695,       67.7231,       36.5420,            0.,NA,NA,"",   1.45248E+06,   1.40776E+06,   1.40776E+06
C:/temp/Job-31.odb,Step-1,Increment      1: Step Time =    1.000,"P-31-1",          1696,       112.151,       41.3300,            0.,NA,NA,"",   1.34997E+06,   1.44620E+06,   1.44620E+06
C:/temp/Job-31.odb,Step-1,Increment      1: Step Time =    1.000,"P-31-1",          1697,       32.1223,       157.423,            0.,NA,NA,"",   1.20131E+06,   1.19719E+06,   1.19719E+06
C:/temp/Job-31.odb,Step-1,Increment      1: Step Time =    1.000,"P-31-1",          1698,       28.4659,       25.2600,            0.,NA,NA,"",   1.33168E+06,   1.33908E+06,   1.33908E+06
C:/temp/Job-31.odb,Step-1,Increment      1: Step Time =    1.000,"P-31-1",          1699,       64.5990,       157.830,            0.,NA,NA,"",   1.49369E+06,   1.42721E+06,   1.42721E+06
C:/temp/Job-31.odb,Step-1,Increment      1: Step Time =    1.000,"P-31-1",          1700,       33.3465,       131.355,            0.,NA,NA,"",   818.653E+03,   821.345E+03,   821.345E+03
C:/temp/Job-31.odb,Step-1,Increment      1: Step Time =    1.000,"P-31-1",          1701,       30.4028,       34.6255,            0.,NA,NA,"",   1.26318E+06,   1.26576E+06,   1.26576E+06
C:/temp/Job-31.odb,Step-1,Increment      1: Step Time =    1.000,"P-31-1",          1702,       107.447,       45.7113,            0.,NA,NA,"",   1.43601E+06,   1.56476E+06,   1.56476E+06
C:/temp/Job-31.odb,Step-1,Increment      1: Step Time =    1.000,"P-31-1",          1703,       38.8180,       127.515,            0.,NA,NA,"",   800.163E+03,   779.207E+03,   779.207E+03
C:/temp/Job-31.odb,Step-1,Increment      1: Step Time =    1.000,"P-31-1",          1704,       171.187,       31.5580,            0.,NA,NA,"",   1.11346E+06,   1.09986E+06,   1.09986E+06
C:/temp/Job-31.odb,Step-1,Increment      1: Step Time =    1.000,"P-31-1",          1705,       171.092,       173.216,            0.,NA,NA,"",   1.08982E+06,   1.08013E+06,   1.08013E+06
C:/temp/Job-31.odb,Step-1,Increment      1: Step Time =    1.000,"P-31-1",          1706,       149.743,       50.4334,            0.,NA,NA,"",   1.44629E+06,   1.33450E+06,   1.33450E+06
C:/temp/Job-31.odb,Step-1,Increment      1: Step Time =    1.000,"P-31-1",          1707,       166.088,       84.7342,            0.,NA,NA,"",   856.022E+03,   860.664E+03,   860.664E+03
C:/temp/Job-31.odb,Step-1,Increment      1: Step Time =    1.000,"P-31-1",          1708,       41.4245,       169.316,            0.,NA,NA,"",   1.34975E+06,   1.31885E+06,   1.31885E+06
C:/temp/Job-31.odb,Step-1,Increment      1: Step Time =    1.000,"P-31-1",          1709,       157.469,       161.231,            0.,NA,NA,"",   1.27196E+06,   1.21547E+06,   1.21547E+06
C:/temp/Job-31.odb,Step-1,Increment      1: Step Time =    1.000,"P-31-1",          1710,       30.4763,       91.5869,            0.,NA,NA,"",   382.586E+03,   433.573E+03,   433.573E+03
C:/temp/Job-31.odb,Step-1,Increment      1: Step Time =    1.000,"P-31-1",          1711,       73.7608,       37.2356,            0.,NA,NA,"",   1.44859E+06,   1.42745E+06,   1.42745E+06
C:/temp/Job-31.odb,Step-1,Increment      1: Step Time =    1.000,"P-31-1",          1712,       138.336,       47.8443,            0.,NA,NA,"",   1.51097E+06,   1.42857E+06,   1.42857E+06
C:/temp/Job-31.odb,Step-1,Increment      1: Step Time =    1.000,"P-31-1",          1713,       168.804,       87.3957,            0.,NA,NA,"",   791.298E+03,   829.679E+03,   829.679E+03
C:/temp/Job-31.odb,Step-1,Increment      1: Step Time =    1.000,"P-31-1",          1714,       162.581,       96.1783,            0.,NA,NA,"",   574.159E+03,   609.479E+03,   609.479E+03
C:/temp/Job-31.odb,Step-1,Increment      1: Step Time =    1.000,"P-31-1",          1715,       125.747,       154.801,            0.,NA,NA,"",   1.48263E+06,   1.48869E+06,   1.48869E+06
C:/temp/Job-31.odb,Step-1,Increment      1: Step Time =    1.000,"P-31-1",          1716,       112.526,       166.031,            0.,NA,NA,"",   1.23192E+06,   1.30667E+06,   1.30667E+06
C:/temp/Job-31.odb,Step-1,Increment      1: Step Time =    1.000,"P-31-1",          1717,       130.583,       149.466,            0.,NA,NA,"",   1.58122E+06,   1.53256E+06,   1.53256E+06
C:/temp/Job-31.odb,Step-1,Increment      1: Step Time =    1.000,"P-31-1",          1718,       86.8664,       163.558,            0.,NA,NA,"",   1.36020E+06,   1.41274E+06,   1.41274E+06
C:/temp/Job-31.odb,Step-1,Increment      1: Step Time =    1.000,"P-31-1",          1719,       75.9325,       167.387,            0.,NA,NA,"",   1.38473E+06,   1.37894E+06,   1.37894E+06
C:/temp/Job-31.odb,Step-1,Increment      1: Step Time =    1.000,"P-31-1",          1720,       127.878,       44.3490,            0.,NA,NA,"",   1.47577E+06,   1.46584E+06,   1.46584E+06
C:/temp/Job-31.odb,Step-1,Increment      1: Step Time =    1.000,"P-31-1",          1721,       141.938,       151.445,            0.,NA,NA,"",   1.50085E+06,   1.40356E+06,   1.40356E+06
C:/temp/Job-31.odb,Step-1,Increment      1: Step Time =    1.000,"P-31-1",          1722,       165.966,       108.168,            0.,NA,NA,"",   686.168E+03,   725.089E+03,   725.089E+03
C:/temp/Job-31.odb,Step-1,Increment      1: Step Time =    1.000,"P-31-1",          1723,       165.967,       129.063,            0.,NA,NA,"",   1.13318E+06,   1.08059E+06,   1.08059E+06
C:/temp/Job-31.odb,Step-1,Increment      1: Step Time =    1.000,"P-31-1",          1724,       125.519,       172.138,            0.,NA,NA,"",   1.20521E+06,   1.21606E+06,   1.21606E+06
C:/temp/Job-31.odb,Step-1,Increment      1: Step Time =    1.000,"P-31-1",          1725,       169.939,       128.439,            0.,NA,NA,"",   1.07561E+06,   1.06269E+06,   1.06269E+06
C:/temp/Job-31.odb,Step-1,Increment      1: Step Time =    1.000,"P-31-1",          1726,       38.8997,       139.767,            0.,NA,NA,"",   1.04643E+06,   1.01202E+06,   1.01202E+06
C:/temp/Job-31.odb,Step-1,Increment      1: Step Time =    1.000,"P-31-1",          1727,       40.7136,       144.038,            0.,NA,NA,"",   1.13961E+06,   1.09514E+06,   1.09514E+06
C:/temp/Job-31.odb,Step-1,Increment      1: Step Time =    1.000,"P-31-1",          1728,       73.8400,       27.9449,            0.,NA,NA,"",   1.34372E+06,   1.32922E+06,   1.32922E+06
C:/temp/Job-31.odb,Step-1,Increment      1: Step Time =    1.000,"P-31-1",          1729,       71.4186,       35.2756,            0.,NA,NA,"",   1.43682E+06,   1.40798E+06,   1.40798E+06
C:/temp/Job-31.odb,Step-1,Increment      1: Step Time =    1.000,"P-31-1",          1730,       43.8773,       158.849,            0.,NA,NA,"",   1.32622E+06,   1.27778E+06,   1.27778E+06
C:/temp/Job-31.odb,Step-1,Increment      1: Step Time =    1.000,"P-31-1",          1731,       125.633,       30.4189,            0.,NA,NA,"",   1.24121E+06,   1.25399E+06,   1.25399E+06
C:/temp/Job-31.odb,Step-1,Increment      1: Step Time =    1.000,"P-31-1",          1732,       166.667,       145.190,            0.,NA,NA,"",   1.23144E+06,   1.17983E+06,   1.17983E+06
C:/temp/Job-31.odb,Step-1,Increment      1: Step Time =    1.000,"P-31-1",          1733,       151.854,       153.917,            0.,NA,NA,"",   1.38114E+06,   1.29341E+06,   1.29341E+06
C:/temp/Job-31.odb,Step-1,Increment      1: Step Time =    1.000,"P-31-1",          1734,       164.053,       35.6828,            0.,NA,NA,"",   1.19016E+06,   1.15577E+06,   1.15577E+06
C:/temp/Job-31.odb,Step-1,Increment      1: Step Time =    1.000,"P-31-1",          1735,       167.364,       35.8347,            0.,NA,NA,"",   1.16167E+06,   1.13569E+06,   1.13569E+06
C:/temp/Job-31.odb,Step-1,Increment      1: Step Time =    1.000,"P-31-1",          1736,       167.179,       40.6036,            0.,NA,NA,"",   1.18608E+06,   1.15406E+06,   1.15406E+06
C:/temp/Job-31.odb,Step-1,Increment      1: Step Time =    1.000,"P-31-1",          1737,       169.758,       124.746,            0.,NA,NA,"",   1.02289E+06,   1.01958E+06,   1.01958E+06
C:/temp/Job-31.odb,Step-1,Increment      1: Step Time =    1.000,"P-31-1",          1738,       63.0641,       44.4595,            0.,NA,NA,"",   1.48999E+06,   1.41577E+06,   1.41577E+06
C:/temp/Job-31.odb,Step-1,Increment      1: Step Time =    1.000,"P-31-1",          1739,       103.388,       45.2863,            0.,NA,NA,"",   1.42283E+06,   1.55687E+06,   1.55687E+06
C:/temp/Job-31.odb,Step-1,Increment      1: Step Time =    1.000,"P-31-1",          1740,       37.9600,       165.089,            0.,NA,NA,"",   1.31472E+06,   1.29072E+06,   1.29072E+06
C:/temp/Job-31.odb,Step-1,Increment      1: Step Time =    1.000,"P-31-1",          1741,       149.649,       144.076,            0.,NA,NA,"",   1.47097E+06,   1.33329E+06,   1.33329E+06
C:/temp/Job-31.odb,Step-1,Increment      1: Step Time =    1.000,"P-31-1",          1742,       167.345,       49.8395,            0.,NA,NA,"",   1.22542E+06,   1.17952E+06,   1.17952E+06
C:/temp/Job-31.odb,Step-1,Increment      1: Step Time =    1.000,"P-31-1",          1743,       59.4590,       161.063,            0.,NA,NA,"",   1.45377E+06,   1.38647E+06,   1.38647E+06
C:/temp/Job-31.odb,Step-1,Increment      1: Step Time =    1.000,"P-31-1",          1744,       61.7387,       165.437,            0.,NA,NA,"",   1.43857E+06,   1.38387E+06,   1.38387E+06
C:/temp/Job-31.odb,Step-1,Increment      1: Step Time =    1.000,"P-31-1",          1745,       157.538,       158.198,            0.,NA,NA,"",   1.29373E+06,   1.22970E+06,   1.22970E+06
C:/temp/Job-31.odb,Step-1,Increment      1: Step Time =    1.000,"P-31-1",          1746,       166.176,       80.3886,            0.,NA,NA,"",   954.455E+03,   937.264E+03,   937.264E+03
C:/temp/Job-31.odb,Step-1,Increment      1: Step Time =    1.000,"P-31-1",          1747,       172.577,       102.083,            0.,NA,NA,"",   680.859E+03,   765.978E+03,   765.978E+03
C:/temp/Job-31.odb,Step-1,Increment      1: Step Time =    1.000,"P-31-1",          1748,       171.824,       105.418,            0.,NA,NA,"",   697.667E+03,    776.01E+03,    776.01E+03
C:/temp/Job-31.odb,Step-1,Increment      1: Step Time =    1.000,"P-31-1",          1749,       136.368,       152.945,            0.,NA,NA,"",   1.51077E+06,   1.44243E+06,   1.44243E+06
C:/temp/Job-31.odb,Step-1,Increment      1: Step Time =    1.000,"P-31-1",          1750,       133.356,       151.331,            0.,NA,NA,"",   1.54570E+06,   1.48619E+06,   1.48619E+06
C:/temp/Job-31.odb,Step-1,Increment      1: Step Time =    1.000,"P-31-1",          1751,       155.600,       150.251,            0.,NA,NA,"",   1.37014E+06,   1.27636E+06,   1.27636E+06
C:/temp/Job-31.odb,Step-1,Increment      1: Step Time =    1.000,"P-31-1",          1752,       32.8321,       106.085,            0.,NA,NA,"",   345.400E+03,   394.713E+03,   394.713E+03
C:/temp/Job-31.odb,Step-1,Increment      1: Step Time =    1.000,"P-31-1",          1753,       29.1419,       106.567,            0.,NA,NA,"",   368.427E+03,   422.307E+03,   422.307E+03
C:/temp/Job-31.odb,Step-1,Increment      1: Step Time =    1.000,"P-31-1",          1754,       79.6353,       170.549,            0.,NA,NA,"",   1.32401E+06,   1.33095E+06,   1.33095E+06
C:/temp/Job-31.odb,Step-1,Increment      1: Step Time =    1.000,"P-31-1",          1755,       28.6885,       126.170,            0.,NA,NA,"",   671.620E+03,   705.767E+03,   705.767E+03
C:/temp/Job-31.odb,Step-1,Increment      1: Step Time =    1.000,"P-31-1",          1756,       120.011,       162.861,            0.,NA,NA,"",   1.32190E+06,   1.36697E+06,   1.36697E+06
C:/temp/Job-31.odb,Step-1,Increment      1: Step Time =    1.000,"P-31-1",          1757,       116.049,       170.046,            0.,NA,NA,"",   1.19194E+06,   1.24213E+06,   1.24213E+06
C:/temp/Job-31.odb,Step-1,Increment      1: Step Time =    1.000,"P-31-1",          1758,       131.406,       154.323,            0.,NA,NA,"",   1.50077E+06,   1.46275E+06,   1.46275E+06
C:/temp/Job-31.odb,Step-1,Increment      1: Step Time =    1.000,"P-31-1",          1759,       112.162,       171.492,            0.,NA,NA,"",   1.15563E+06,   1.21457E+06,   1.21457E+06
C:/temp/Job-31.odb,Step-1,Increment      1: Step Time =    1.000,"P-31-1",          1760,       29.5662,       53.5590,            0.,NA,NA,"",   1.03781E+06,   1.04686E+06,   1.04686E+06
C:/temp/Job-31.odb,Step-1,Increment      1: Step Time =    1.000,"P-31-1",          1761,       149.426,       42.4233,            0.,NA,NA,"",   1.37019E+06,   1.29312E+06,   1.29312E+06
C:/temp/Job-31.odb,Step-1,Increment      1: Step Time =    1.000,"P-31-1",          1762,       41.1626,       43.5421,            0.,NA,NA,"",   1.28820E+06,   1.24564E+06,   1.24564E+06
C:/temp/Job-31.odb,Step-1,Increment      1: Step Time =    1.000,"P-31-1",          1763,       104.690,       33.1376,            0.,NA,NA,"",   1.20541E+06,   1.29121E+06,   1.29121E+06
C:/temp/Job-31.odb,Step-1,Increment      1: Step Time =    1.000,"P-31-1",          1764,       42.7372,       72.3158,            0.,NA,NA,"",   854.611E+03,   805.734E+03,   805.734E+03
C:/temp/Job-31.odb,Step-1,Increment      1: Step Time =    1.000,"P-31-1",          1765,       38.5673,       60.1215,            0.,NA,NA,"",   1.04643E+06,   1.01465E+06,   1.01465E+06
C:/temp/Job-31.odb,Step-1,Increment      1: Step Time =    1.000,"P-31-1",          1766,       91.2692,       36.0852,            0.,NA,NA,"",   1.31334E+06,   1.38810E+06,   1.38810E+06
C:/temp/Job-31.odb,Step-1,Increment      1: Step Time =    1.000,"P-31-1",          1767,       128.608,       38.8140,            0.,NA,NA,"",   1.38385E+06,   1.37674E+06,   1.37674E+06
C:/temp/Job-31.odb,Step-1,Increment      1: Step Time =    1.000,"P-31-1",          1768,       44.1808,       51.6665,            0.,NA,NA,"",   1.24669E+06,   1.18790E+06,   1.18790E+06
C:/temp/Job-31.odb,Step-1,Increment      1: Step Time =    1.000,"P-31-1",          1769,       160.715,       48.3217,            0.,NA,NA,"",   1.29375E+06,   1.22477E+06,   1.22477E+06
C:/temp/Job-31.odb,Step-1,Increment      1: Step Time =    1.000,"P-31-1",          1770,       52.1240,       158.182,            0.,NA,NA,"",   1.40446E+06,   1.33264E+06,   1.33264E+06
C:/temp/Job-31.odb,Step-1,Increment      1: Step Time =    1.000,"P-31-1",          1771,       134.355,       155.329,            0.,NA,NA,"",   1.48266E+06,   1.43209E+06,   1.43209E+06
C:/temp/Job-31.odb,Step-1,Increment      1: Step Time =    1.000,"P-31-1",          1772,       101.727,       32.6089,            0.,NA,NA,"",   1.20186E+06,   1.28611E+06,   1.28611E+06
C:/temp/Job-31.odb,Step-1,Increment      1: Step Time =    1.000,"P-31-1",          1773,       118.377,       165.755,            0.,NA,NA,"",   1.26891E+06,   1.31804E+06,   1.31804E+06
C:/temp/Job-31.odb,Step-1,Increment      1: Step Time =    1.000,"P-31-1",          1774,       38.1996,       38.0919,            0.,NA,NA,"",   1.29675E+06,   1.26975E+06,   1.26975E+06
C:/temp/Job-31.odb,Step-1,Increment      1: Step Time =    1.000,"P-31-1",          1775,       163.812,       39.0998,            0.,NA,NA,"",   1.21193E+06,   1.17163E+06,   1.17163E+06
C:/temp/Job-31.odb,Step-1,Increment      1: Step Time =    1.000,"P-31-1",          1776,       37.1177,       69.6676,            0.,NA,NA,"",   840.057E+03,   825.495E+03,   825.495E+03
C:/temp/Job-31.odb,Step-1,Increment      1: Step Time =    1.000,"P-31-1",          1777,       150.980,       45.8615,            0.,NA,NA,"",   1.39177E+06,   1.30276E+06,   1.30276E+06
C:/temp/Job-31.odb,Step-1,Increment      1: Step Time =    1.000,"P-31-1",          1778,       92.0465,       168.553,            0.,NA,NA,"",   1.24465E+06,   1.30605E+06,   1.30605E+06
C:/temp/Job-31.odb,Step-1,Increment      1: Step Time =    1.000,"P-31-1",          1779,       105.368,       29.5164,            0.,NA,NA,"",   1.15853E+06,   1.22868E+06,   1.22868E+06
