ODB Name,Step,Frame,Part Instance Name,    Node Label,X,Y,Z,Section Name,Material Name,Section Point,       S-Mises,S-Max. In-Plane Principal (Abs),S-Max. Principal (Abs)
C:/temp/Job-33.odb,Step-1,Increment      1: Step Time =    1.000,"P-33-1",             1,       90.2408,       118.595,            0.,NA,NA,"",   1.87789E+06,   1.93329E+06,   1.93329E+06
C:/temp/Job-33.odb,Step-1,Increment      1: Step Time =    1.000,"P-33-1",             2,       82.7173,       111.929,            0.,NA,NA,"",   588.650E+03,   308.790E+03,   308.790E+03
C:/temp/Job-33.odb,Step-1,Increment      1: Step Time =    1.000,"P-33-1",             3,       79.1531,       102.531,            0.,NA,NA,"",   487.755E+03,  -482.122E+03,  -482.122E+03
C:/temp/Job-33.odb,Step-1,Increment      1: Step Time =    1.000,"P-33-1",             4,       79.1531,       97.4687,            0.,NA,NA,"",   547.717E+03,  -545.813E+03,  -545.813E+03
C:/temp/Job-33.odb,Step-1,Increment      1: Step Time =    1.000,"P-33-1",             5,       82.7173,       88.0706,            0.,NA,NA,"",   581.854E+03,   301.242E+03,   301.242E+03
C:/temp/Job-33.odb,Step-1,Increment      1: Step Time =    1.000,"P-33-1",             6,       90.2408,       81.4054,            0.,NA,NA,"",   1.87034E+06,   1.93293E+06,   1.93293E+06
C:/temp/Job-33.odb,Step-1,Increment      1: Step Time =    1.000,"P-33-1",             7,          100.,           79.,            0.,NA,NA,"",   2.49249E+06,   2.59005E+06,   2.59005E+06
C:/temp/Job-33.odb,Step-1,Increment      1: Step Time =    1.000,"P-33-1",             8,       109.759,       81.4054,            0.,NA,NA,"",   1.95608E+06,   2.01225E+06,   2.01225E+06
C:/temp/Job-33.odb,Step-1,Increment      1: Step Time =    1.000,"P-33-1",             9,       117.283,       88.0706,            0.,NA,NA,"",   633.978E+03,   311.357E+03,   311.357E+03
C:/temp/Job-33.odb,Step-1,Increment      1: Step Time =    1.000,"P-33-1",            10,       120.847,       97.4687,            0.,NA,NA,"",   581.530E+03,  -576.085E+03,  -576.085E+03
C:/temp/Job-33.odb,Step-1,Increment      1: Step Time =    1.000,"P-33-1",            11,       120.847,       102.531,            0.,NA,NA,"",   643.054E+03,  -641.289E+03,  -641.289E+03
C:/temp/Job-33.odb,Step-1,Increment      1: Step Time =    1.000,"P-33-1",            12,       117.283,       111.929,            0.,NA,NA,"",   636.805E+03,   315.314E+03,   315.314E+03
C:/temp/Job-33.odb,Step-1,Increment      1: Step Time =    1.000,"P-33-1",            13,       109.759,       118.595,            0.,NA,NA,"",   1.94923E+06,   2.01320E+06,   2.01320E+06
C:/temp/Job-33.odb,Step-1,Increment      1: Step Time =    1.000,"P-33-1",            14,          100.,          121.,            0.,NA,NA,"",   2.49580E+06,   2.59208E+06,   2.59208E+06
C:/temp/Job-33.odb,Step-1,Increment      1: Step Time =    1.000,"P-33-1",            15,          190.,            0.,            0.,NA,NA,"",   999.198E+03,   999.242E+03,   999.242E+03
C:/temp/Job-33.odb,Step-1,Increment      1: Step Time =    1.000,"P-33-1",            16,          180.,            0.,            0.,NA,NA,"",   999.084E+03,   999.101E+03,   999.101E+03
C:/temp/Job-33.odb,Step-1,Increment      1: Step Time =    1.000,"P-33-1",            17,          170.,            0.,            0.,NA,NA,"",   999.138E+03,   999.023E+03,   999.023E+03
C:/temp/Job-33.odb,Step-1,Increment      1: Step Time =    1.000,"P-33-1",            18,          160.,            0.,            0.,NA,NA,"",   995.602E+03,   995.376E+03,   995.376E+03
C:/temp/Job-33.odb,Step-1,Increment      1: Step Time =    1.000,"P-33-1",            19,          150.,            0.,            0.,NA,NA,"",   984.029E+03,   983.757E+03,   983.757E+03
C:/temp/Job-33.odb,Step-1,Increment      1: Step Time =    1.000,"P-33-1",            20,          140.,            0.,            0.,NA,NA,"",   962.431E+03,   962.196E+03,   962.196E+03
C:/temp/Job-33.odb,Step-1,Increment      1: Step Time =    1.000,"P-33-1",            21,          130.,            0.,            0.,NA,NA,"",   933.899E+03,   933.800E+03,   933.800E+03
C:/temp/Job-33.odb,Step-1,Increment      1: Step Time =    1.000,"P-33-1",            22,          120.,            0.,            0.,NA,NA,"",   904.792E+03,   905.009E+03,   905.009E+03
C:/temp/Job-33.odb,Step-1,Increment      1: Step Time =    1.000,"P-33-1",            23,          110.,            0.,            0.,NA,NA,"",   884.320E+03,   884.855E+03,   884.855E+03
C:/temp/Job-33.odb,Step-1,Increment      1: Step Time =    1.000,"P-33-1",            24,          100.,            0.,            0.,NA,NA,"",   881.169E+03,   881.786E+03,   881.786E+03
C:/temp/Job-33.odb,Step-1,Increment      1: Step Time =    1.000,"P-33-1",            25,           90.,            0.,            0.,NA,NA,"",   897.962E+03,   898.429E+03,   898.429E+03
C:/temp/Job-33.odb,Step-1,Increment      1: Step Time =    1.000,"P-33-1",            26,           80.,            0.,            0.,NA,NA,"",   931.713E+03,   931.899E+03,   931.899E+03
C:/temp/Job-33.odb,Step-1,Increment      1: Step Time =    1.000,"P-33-1",            27,           70.,            0.,            0.,NA,NA,"",   975.869E+03,   975.953E+03,   975.953E+03
C:/temp/Job-33.odb,Step-1,Increment      1: Step Time =    1.000,"P-33-1",            28,           60.,            0.,            0.,NA,NA,"",   1.02374E+06,   1.02390E+06,   1.02390E+06
C:/temp/Job-33.odb,Step-1,Increment      1: Step Time =    1.000,"P-33-1",            29,           50.,            0.,            0.,NA,NA,"",   1.06498E+06,   1.06390E+06,   1.06390E+06
C:/temp/Job-33.odb,Step-1,Increment      1: Step Time =    1.000,"P-33-1",            30,           40.,            0.,            0.,NA,NA,"",   1.09857E+06,   1.09843E+06,   1.09843E+06
C:/temp/Job-33.odb,Step-1,Increment      1: Step Time =    1.000,"P-33-1",            31,           30.,            0.,            0.,NA,NA,"",   1.13488E+06,   1.13522E+06,   1.13522E+06
C:/temp/Job-33.odb,Step-1,Increment      1: Step Time =    1.000,"P-33-1",            32,           20.,            0.,            0.,NA,NA,"",   1.19371E+06,   1.19422E+06,   1.19422E+06
C:/temp/Job-33.odb,Step-1,Increment      1: Step Time =    1.000,"P-33-1",            33,           10.,            0.,            0.,NA,NA,"",   1.33453E+06,   1.33678E+06,   1.33678E+06
C:/temp/Job-33.odb,Step-1,Increment      1: Step Time =    1.000,"P-33-1",            34,          200.,            0.,            0.,NA,NA,"",   999.922E+03,   999.848E+03,   999.848E+03
C:/temp/Job-33.odb,Step-1,Increment      1: Step Time =    1.000,"P-33-1",            35,            0.,            0.,            0.,NA,NA,"",   1.68502E+06,   1.76748E+06,   1.76748E+06
C:/temp/Job-33.odb,Step-1,Increment      1: Step Time =    1.000,"P-33-1",            36,          200.,          190.,            0.,NA,NA,"",   1.00049E+06,   1.00013E+06,   1.00013E+06
C:/temp/Job-33.odb,Step-1,Increment      1: Step Time =    1.000,"P-33-1",            37,          200.,          180.,            0.,NA,NA,"",   1.00016E+06,   1.00042E+06,   1.00042E+06
C:/temp/Job-33.odb,Step-1,Increment      1: Step Time =    1.000,"P-33-1",            38,          200.,          170.,            0.,NA,NA,"",   996.735E+03,   1.00066E+06,   1.00066E+06
C:/temp/Job-33.odb,Step-1,Increment      1: Step Time =    1.000,"P-33-1",            39,          200.,          160.,            0.,NA,NA,"",   988.117E+03,   1.00083E+06,   1.00083E+06
C:/temp/Job-33.odb,Step-1,Increment      1: Step Time =    1.000,"P-33-1",            40,          200.,          150.,            0.,NA,NA,"",   973.038E+03,   1.00087E+06,   1.00087E+06
C:/temp/Job-33.odb,Step-1,Increment      1: Step Time =    1.000,"P-33-1",            41,          200.,          140.,            0.,NA,NA,"",   953.027E+03,   1.00084E+06,   1.00084E+06
C:/temp/Job-33.odb,Step-1,Increment      1: Step Time =    1.000,"P-33-1",            42,          200.,          130.,            0.,NA,NA,"",   931.147E+03,   1.00029E+06,   1.00029E+06
C:/temp/Job-33.odb,Step-1,Increment      1: Step Time =    1.000,"P-33-1",            43,          200.,          120.,            0.,NA,NA,"",   911.950E+03,   999.310E+03,   999.310E+03
C:/temp/Job-33.odb,Step-1,Increment      1: Step Time =    1.000,"P-33-1",            44,          200.,          110.,            0.,NA,NA,"",   899.295E+03,   998.398E+03,   998.398E+03
C:/temp/Job-33.odb,Step-1,Increment      1: Step Time =    1.000,"P-33-1",            45,          200.,          100.,            0.,NA,NA,"",   894.984E+03,   998.150E+03,   998.150E+03
C:/temp/Job-33.odb,Step-1,Increment      1: Step Time =    1.000,"P-33-1",            46,          200.,           90.,            0.,NA,NA,"",   899.026E+03,    998.53E+03,    998.53E+03
C:/temp/Job-33.odb,Step-1,Increment      1: Step Time =    1.000,"P-33-1",            47,          200.,           80.,            0.,NA,NA,"",   911.342E+03,   999.286E+03,   999.286E+03
C:/temp/Job-33.odb,Step-1,Increment      1: Step Time =    1.000,"P-33-1",            48,          200.,           70.,            0.,NA,NA,"",   930.302E+03,   999.719E+03,   999.719E+03
C:/temp/Job-33.odb,Step-1,Increment      1: Step Time =    1.000,"P-33-1",            49,          200.,           60.,            0.,NA,NA,"",   953.003E+03,   1.00009E+06,   1.00009E+06
C:/temp/Job-33.odb,Step-1,Increment      1: Step Time =    1.000,"P-33-1",            50,          200.,           50.,            0.,NA,NA,"",   975.479E+03,   1.00292E+06,   1.00292E+06
C:/temp/Job-33.odb,Step-1,Increment      1: Step Time =    1.000,"P-33-1",            51,          200.,           40.,            0.,NA,NA,"",   988.512E+03,   1.00083E+06,   1.00083E+06
C:/temp/Job-33.odb,Step-1,Increment      1: Step Time =    1.000,"P-33-1",            52,          200.,           30.,            0.,NA,NA,"",   996.802E+03,   1.00050E+06,   1.00050E+06
C:/temp/Job-33.odb,Step-1,Increment      1: Step Time =    1.000,"P-33-1",            53,          200.,           20.,            0.,NA,NA,"",   1.00019E+06,   1.00033E+06,   1.00033E+06
C:/temp/Job-33.odb,Step-1,Increment      1: Step Time =    1.000,"P-33-1",            54,          200.,           10.,            0.,NA,NA,"",   1.00048E+06,   1.00011E+06,   1.00011E+06
C:/temp/Job-33.odb,Step-1,Increment      1: Step Time =    1.000,"P-33-1",            55,          200.,          200.,            0.,NA,NA,"",   999.924E+03,   999.847E+03,   999.847E+03
C:/temp/Job-33.odb,Step-1,Increment      1: Step Time =    1.000,"P-33-1",            56,           10.,          200.,            0.,NA,NA,"",   1.33463E+06,   1.33739E+06,   1.33739E+06
C:/temp/Job-33.odb,Step-1,Increment      1: Step Time =    1.000,"P-33-1",            57,           20.,          200.,            0.,NA,NA,"",   1.19385E+06,   1.19476E+06,   1.19476E+06
C:/temp/Job-33.odb,Step-1,Increment      1: Step Time =    1.000,"P-33-1",            58,           30.,          200.,            0.,NA,NA,"",   1.13544E+06,   1.13561E+06,   1.13561E+06
C:/temp/Job-33.odb,Step-1,Increment      1: Step Time =    1.000,"P-33-1",            59,           40.,          200.,            0.,NA,NA,"",   1.09822E+06,   1.09807E+06,   1.09807E+06
C:/temp/Job-33.odb,Step-1,Increment      1: Step Time =    1.000,"P-33-1",            60,           50.,          200.,            0.,NA,NA,"",   1.06279E+06,   1.06254E+06,   1.06254E+06
C:/temp/Job-33.odb,Step-1,Increment      1: Step Time =    1.000,"P-33-1",            61,           60.,          200.,            0.,NA,NA,"",   1.02209E+06,   1.02179E+06,   1.02179E+06
C:/temp/Job-33.odb,Step-1,Increment      1: Step Time =    1.000,"P-33-1",            62,           70.,          200.,            0.,NA,NA,"",   977.481E+03,   977.338E+03,   977.338E+03
C:/temp/Job-33.odb,Step-1,Increment      1: Step Time =    1.000,"P-33-1",            63,           80.,          200.,            0.,NA,NA,"",   934.052E+03,   934.238E+03,   934.238E+03
C:/temp/Job-33.odb,Step-1,Increment      1: Step Time =    1.000,"P-33-1",            64,           90.,          200.,            0.,NA,NA,"",   899.813E+03,   900.332E+03,   900.332E+03
C:/temp/Job-33.odb,Step-1,Increment      1: Step Time =    1.000,"P-33-1",            65,          100.,          200.,            0.,NA,NA,"",   882.253E+03,   882.912E+03,   882.912E+03
C:/temp/Job-33.odb,Step-1,Increment      1: Step Time =    1.000,"P-33-1",            66,          110.,          200.,            0.,NA,NA,"",   884.780E+03,   885.329E+03,   885.329E+03
C:/temp/Job-33.odb,Step-1,Increment      1: Step Time =    1.000,"P-33-1",            67,          120.,          200.,            0.,NA,NA,"",   904.732E+03,   904.983E+03,   904.983E+03
C:/temp/Job-33.odb,Step-1,Increment      1: Step Time =    1.000,"P-33-1",            68,          130.,          200.,            0.,NA,NA,"",   934.393E+03,   934.457E+03,   934.457E+03
C:/temp/Job-33.odb,Step-1,Increment      1: Step Time =    1.000,"P-33-1",            69,          140.,          200.,            0.,NA,NA,"",   964.847E+03,   964.665E+03,   964.665E+03
C:/temp/Job-33.odb,Step-1,Increment      1: Step Time =    1.000,"P-33-1",            70,          150.,          200.,            0.,NA,NA,"",   986.046E+03,   985.256E+03,   985.256E+03
C:/temp/Job-33.odb,Step-1,Increment      1: Step Time =    1.000,"P-33-1",            71,          160.,          200.,            0.,NA,NA,"",   995.968E+03,   995.780E+03,   995.780E+03
C:/temp/Job-33.odb,Step-1,Increment      1: Step Time =    1.000,"P-33-1",            72,          170.,          200.,            0.,NA,NA,"",   999.088E+03,   999.004E+03,   999.004E+03
C:/temp/Job-33.odb,Step-1,Increment      1: Step Time =    1.000,"P-33-1",            73,          180.,          200.,            0.,NA,NA,"",   998.917E+03,   998.946E+03,   998.946E+03
C:/temp/Job-33.odb,Step-1,Increment      1: Step Time =    1.000,"P-33-1",            74,          190.,          200.,            0.,NA,NA,"",   999.165E+03,   999.200E+03,   999.200E+03
C:/temp/Job-33.odb,Step-1,Increment      1: Step Time =    1.000,"P-33-1",            75,            0.,          200.,            0.,NA,NA,"",   1.68324E+06,   1.76463E+06,   1.76463E+06
C:/temp/Job-33.odb,Step-1,Increment      1: Step Time =    1.000,"P-33-1",            76,            0.,           10.,            0.,NA,NA,"",   1.22026E+06,   1.33001E+06,   1.33001E+06
C:/temp/Job-33.odb,Step-1,Increment      1: Step Time =    1.000,"P-33-1",            77,            0.,           20.,            0.,NA,NA,"",   1.05463E+06,   1.16610E+06,   1.16610E+06
C:/temp/Job-33.odb,Step-1,Increment      1: Step Time =    1.000,"P-33-1",            78,            0.,           30.,            0.,NA,NA,"",   968.030E+03,   1.07764E+06,   1.07764E+06
C:/temp/Job-33.odb,Step-1,Increment      1: Step Time =    1.000,"P-33-1",            79,            0.,           40.,            0.,NA,NA,"",   906.782E+03,   1.01425E+06,   1.01425E+06
C:/temp/Job-33.odb,Step-1,Increment      1: Step Time =    1.000,"P-33-1",            80,            0.,           50.,            0.,NA,NA,"",   853.347E+03,   957.851E+03,   957.851E+03
C:/temp/Job-33.odb,Step-1,Increment      1: Step Time =    1.000,"P-33-1",            81,            0.,           60.,            0.,NA,NA,"",   802.972E+03,   903.935E+03,   903.935E+03
C:/temp/Job-33.odb,Step-1,Increment      1: Step Time =    1.000,"P-33-1",            82,            0.,           70.,            0.,NA,NA,"",   756.979E+03,   853.792E+03,   853.792E+03
C:/temp/Job-33.odb,Step-1,Increment      1: Step Time =    1.000,"P-33-1",            83,            0.,           80.,            0.,NA,NA,"",   719.178E+03,   812.212E+03,   812.212E+03
C:/temp/Job-33.odb,Step-1,Increment      1: Step Time =    1.000,"P-33-1",            84,            0.,           90.,            0.,NA,NA,"",   692.466E+03,   782.942E+03,   782.942E+03
C:/temp/Job-33.odb,Step-1,Increment      1: Step Time =    1.000,"P-33-1",            85,            0.,          100.,            0.,NA,NA,"",   682.499E+03,   772.057E+03,   772.057E+03
C:/temp/Job-33.odb,Step-1,Increment      1: Step Time =    1.000,"P-33-1",            86,            0.,          110.,            0.,NA,NA,"",   692.764E+03,   783.218E+03,   783.218E+03
C:/temp/Job-33.odb,Step-1,Increment      1: Step Time =    1.000,"P-33-1",            87,            0.,          120.,            0.,NA,NA,"",   720.275E+03,   813.285E+03,   813.285E+03
C:/temp/Job-33.odb,Step-1,Increment      1: Step Time =    1.000,"P-33-1",            88,            0.,          130.,            0.,NA,NA,"",   760.304E+03,   857.012E+03,   857.012E+03
C:/temp/Job-33.odb,Step-1,Increment      1: Step Time =    1.000,"P-33-1",            89,            0.,          140.,            0.,NA,NA,"",   805.698E+03,   906.626E+03,   906.626E+03
C:/temp/Job-33.odb,Step-1,Increment      1: Step Time =    1.000,"P-33-1",            90,            0.,          150.,            0.,NA,NA,"",   852.383E+03,   957.553E+03,   957.553E+03
C:/temp/Job-33.odb,Step-1,Increment      1: Step Time =    1.000,"P-33-1",            91,            0.,          160.,            0.,NA,NA,"",   904.198E+03,   1.01310E+06,   1.01310E+06
C:/temp/Job-33.odb,Step-1,Increment      1: Step Time =    1.000,"P-33-1",            92,            0.,          170.,            0.,NA,NA,"",   965.185E+03,   1.07613E+06,   1.07613E+06
C:/temp/Job-33.odb,Step-1,Increment      1: Step Time =    1.000,"P-33-1",            93,            0.,          180.,            0.,NA,NA,"",   1.05167E+06,   1.16363E+06,   1.16363E+06
C:/temp/Job-33.odb,Step-1,Increment      1: Step Time =    1.000,"P-33-1",            94,            0.,          190.,            0.,NA,NA,"",   1.21796E+06,   1.32794E+06,   1.32794E+06
C:/temp/Job-33.odb,Step-1,Increment      1: Step Time =    1.000,"P-33-1",            95,       105.955,       74.6408,            0.,NA,NA,"",   2.00336E+06,   2.11315E+06,   2.11315E+06
C:/temp/Job-33.odb,Step-1,Increment      1: Step Time =    1.000,"P-33-1",            96,       190.328,       75.4570,            0.,NA,NA,"",   935.911E+03,   998.425E+03,   998.425E+03
C:/temp/Job-33.odb,Step-1,Increment      1: Step Time =    1.000,"P-33-1",            97,       189.866,       125.100,            0.,NA,NA,"",   938.477E+03,   998.828E+03,   998.828E+03
C:/temp/Job-33.odb,Step-1,Increment      1: Step Time =    1.000,"P-33-1",            98,       179.542,       125.026,            0.,NA,NA,"",   959.633E+03,   994.769E+03,   994.769E+03
C:/temp/Job-33.odb,Step-1,Increment      1: Step Time =    1.000,"P-33-1",            99,       169.792,       125.330,            0.,NA,NA,"",   984.097E+03,   993.631E+03,   993.631E+03
C:/temp/Job-33.odb,Step-1,Increment      1: Step Time =    1.000,"P-33-1",           100,       156.408,       127.757,            0.,NA,NA,"",   1.06916E+06,   1.03096E+06,   1.03096E+06
C:/temp/Job-33.odb,Step-1,Increment      1: Step Time =    1.000,"P-33-1",           101,       148.832,       127.815,            0.,NA,NA,"",   1.12932E+06,   1.06080E+06,   1.06080E+06
C:/temp/Job-33.odb,Step-1,Increment      1: Step Time =    1.000,"P-33-1",           102,       139.016,       128.545,            0.,NA,NA,"",   1.24771E+06,   1.13812E+06,   1.13812E+06
C:/temp/Job-33.odb,Step-1,Increment      1: Step Time =    1.000,"P-33-1",           103,       128.501,       129.657,            0.,NA,NA,"",   1.40508E+06,   1.28849E+06,   1.28849E+06
C:/temp/Job-33.odb,Step-1,Increment      1: Step Time =    1.000,"P-33-1",           104,       115.488,       127.956,            0.,NA,NA,"",   1.55984E+06,   1.56859E+06,   1.56859E+06
C:/temp/Job-33.odb,Step-1,Increment      1: Step Time =    1.000,"P-33-1",           105,       105.456,       126.103,            0.,NA,NA,"",   1.90623E+06,   2.03063E+06,   2.03063E+06
C:/temp/Job-33.odb,Step-1,Increment      1: Step Time =    1.000,"P-33-1",           106,       94.3305,       125.433,            0.,NA,NA,"",   1.97729E+06,   2.08489E+06,   2.08489E+06
C:/temp/Job-33.odb,Step-1,Increment      1: Step Time =    1.000,"P-33-1",           107,       83.1028,       128.704,            0.,NA,NA,"",   1.49090E+06,   1.48371E+06,   1.48371E+06
C:/temp/Job-33.odb,Step-1,Increment      1: Step Time =    1.000,"P-33-1",           108,       73.0420,       127.671,            0.,NA,NA,"",   1.34195E+06,   1.24793E+06,   1.24793E+06
C:/temp/Job-33.odb,Step-1,Increment      1: Step Time =    1.000,"P-33-1",           109,       62.2074,       127.431,            0.,NA,NA,"",   1.14512E+06,   1.07356E+06,   1.07356E+06
C:/temp/Job-33.odb,Step-1,Increment      1: Step Time =    1.000,"P-33-1",           110,       51.6361,       126.201,            0.,NA,NA,"",   972.008E+03,   958.427E+03,   958.427E+03
C:/temp/Job-33.odb,Step-1,Increment      1: Step Time =    1.000,"P-33-1",           111,       44.9007,       128.529,            0.,NA,NA,"",   936.678E+03,   949.005E+03,   949.005E+03
C:/temp/Job-33.odb,Step-1,Increment      1: Step Time =    1.000,"P-33-1",           112,       32.2723,       124.932,            0.,NA,NA,"",   815.148E+03,   871.618E+03,   871.618E+03
C:/temp/Job-33.odb,Step-1,Increment      1: Step Time =    1.000,"P-33-1",           113,       22.5181,       122.699,            0.,NA,NA,"",   764.125E+03,   841.126E+03,   841.126E+03
C:/temp/Job-33.odb,Step-1,Increment      1: Step Time =    1.000,"P-33-1",           114,       9.68895,       125.914,            0.,NA,NA,"",   755.591E+03,   845.495E+03,   845.495E+03
C:/temp/Job-33.odb,Step-1,Increment      1: Step Time =    1.000,"P-33-1",           115,       10.2859,       115.730,            0.,NA,NA,"",   710.832E+03,   799.904E+03,   799.904E+03
C:/temp/Job-33.odb,Step-1,Increment      1: Step Time =    1.000,"P-33-1",           116,       29.5919,       113.323,            0.,NA,NA,"",   707.356E+03,   780.186E+03,   780.186E+03
C:/temp/Job-33.odb,Step-1,Increment      1: Step Time =    1.000,"P-33-1",           117,       41.5309,       116.047,            0.,NA,NA,"",   750.413E+03,   795.984E+03,   795.984E+03
C:/temp/Job-33.odb,Step-1,Increment      1: Step Time =    1.000,"P-33-1",           118,       49.8336,       117.041,            0.,NA,NA,"",   797.015E+03,   811.333E+03,   811.333E+03
C:/temp/Job-33.odb,Step-1,Increment      1: Step Time =    1.000,"P-33-1",           119,       60.7448,       113.728,            0.,NA,NA,"",   790.102E+03,   748.254E+03,   748.254E+03
C:/temp/Job-33.odb,Step-1,Increment      1: Step Time =    1.000,"P-33-1",           120,       73.4919,       114.852,            0.,NA,NA,"",   1.02813E+06,   837.698E+03,   837.698E+03
C:/temp/Job-33.odb,Step-1,Increment      1: Step Time =    1.000,"P-33-1",           121,       125.517,       115.112,            0.,NA,NA,"",   1.14337E+06,   908.611E+03,   908.611E+03
C:/temp/Job-33.odb,Step-1,Increment      1: Step Time =    1.000,"P-33-1",           122,       134.025,       115.517,            0.,NA,NA,"",   1.05204E+06,   892.719E+03,   892.719E+03
C:/temp/Job-33.odb,Step-1,Increment      1: Step Time =    1.000,"P-33-1",           123,       151.507,       114.362,            0.,NA,NA,"",   886.717E+03,   863.378E+03,   863.378E+03
C:/temp/Job-33.odb,Step-1,Increment      1: Step Time =    1.000,"P-33-1",           124,       156.033,       113.408,            0.,NA,NA,"",   870.629E+03,   867.657E+03,   867.657E+03
C:/temp/Job-33.odb,Step-1,Increment      1: Step Time =    1.000,"P-33-1",           125,       167.348,       115.686,            0.,NA,NA,"",   912.812E+03,   933.501E+03,   933.501E+03
C:/temp/Job-33.odb,Step-1,Increment      1: Step Time =    1.000,"P-33-1",           126,       179.137,       114.561,            0.,NA,NA,"",   917.615E+03,   965.877E+03,   965.877E+03
C:/temp/Job-33.odb,Step-1,Increment      1: Step Time =    1.000,"P-33-1",           127,       189.791,       114.986,            0.,NA,NA,"",   917.354E+03,   990.577E+03,   990.577E+03
C:/temp/Job-33.odb,Step-1,Increment      1: Step Time =    1.000,"P-33-1",           128,       125.389,       105.342,            0.,NA,NA,"",   627.495E+03,  -352.011E+03,  -352.011E+03
C:/temp/Job-33.odb,Step-1,Increment      1: Step Time =    1.000,"P-33-1",           129,       138.917,       107.732,            0.,NA,NA,"",   676.240E+03,   621.386E+03,   621.386E+03
C:/temp/Job-33.odb,Step-1,Increment      1: Step Time =    1.000,"P-33-1",           130,       148.063,       105.310,            0.,NA,NA,"",   676.449E+03,   682.722E+03,   682.722E+03
C:/temp/Job-33.odb,Step-1,Increment      1: Step Time =    1.000,"P-33-1",           131,       156.989,       103.765,            0.,NA,NA,"",   761.353E+03,   786.261E+03,   786.261E+03
C:/temp/Job-33.odb,Step-1,Increment      1: Step Time =    1.000,"P-33-1",           132,       166.879,       105.101,            0.,NA,NA,"",   842.065E+03,   877.743E+03,   877.743E+03
C:/temp/Job-33.odb,Step-1,Increment      1: Step Time =    1.000,"P-33-1",           133,       179.840,       104.127,            0.,NA,NA,"",   890.482E+03,   948.400E+03,   948.400E+03
C:/temp/Job-33.odb,Step-1,Increment      1: Step Time =    1.000,"P-33-1",           134,       189.882,       104.810,            0.,NA,NA,"",   903.846E+03,   984.646E+03,   984.646E+03
C:/temp/Job-33.odb,Step-1,Increment      1: Step Time =    1.000,"P-33-1",           135,       126.835,       94.5554,            0.,NA,NA,"",   553.364E+03,  -51.9880E+03,  -51.9880E+03
C:/temp/Job-33.odb,Step-1,Increment      1: Step Time =    1.000,"P-33-1",           136,       135.496,       95.5254,            0.,NA,NA,"",   509.682E+03,   443.419E+03,   443.419E+03
C:/temp/Job-33.odb,Step-1,Increment      1: Step Time =    1.000,"P-33-1",           137,       148.241,       96.6914,            0.,NA,NA,"",   645.347E+03,   659.198E+03,   659.198E+03
C:/temp/Job-33.odb,Step-1,Increment      1: Step Time =    1.000,"P-33-1",           138,       156.945,       93.0013,            0.,NA,NA,"",   783.551E+03,   803.047E+03,   803.047E+03
C:/temp/Job-33.odb,Step-1,Increment      1: Step Time =    1.000,"P-33-1",           139,       168.139,       94.7836,            0.,NA,NA,"",   846.382E+03,   884.139E+03,   884.139E+03
C:/temp/Job-33.odb,Step-1,Increment      1: Step Time =    1.000,"P-33-1",           140,       179.822,       93.9271,            0.,NA,NA,"",   894.874E+03,   952.115E+03,   952.115E+03
C:/temp/Job-33.odb,Step-1,Increment      1: Step Time =    1.000,"P-33-1",           141,       190.124,       94.8264,            0.,NA,NA,"",   904.705E+03,   986.025E+03,   986.025E+03
C:/temp/Job-33.odb,Step-1,Increment      1: Step Time =    1.000,"P-33-1",           142,       126.428,       85.2221,            0.,NA,NA,"",   1.13236E+06,   891.697E+03,   891.697E+03
C:/temp/Job-33.odb,Step-1,Increment      1: Step Time =    1.000,"P-33-1",           143,       138.948,       86.3595,            0.,NA,NA,"",   917.834E+03,   820.798E+03,   820.798E+03
C:/temp/Job-33.odb,Step-1,Increment      1: Step Time =    1.000,"P-33-1",           144,       148.789,       82.1002,            0.,NA,NA,"",   968.142E+03,   919.174E+03,   919.174E+03
C:/temp/Job-33.odb,Step-1,Increment      1: Step Time =    1.000,"P-33-1",           145,       158.513,       82.0793,            0.,NA,NA,"",   937.385E+03,   928.491E+03,   928.491E+03
C:/temp/Job-33.odb,Step-1,Increment      1: Step Time =    1.000,"P-33-1",           146,       167.821,       85.1771,            0.,NA,NA,"",   906.999E+03,   930.228E+03,   930.228E+03
C:/temp/Job-33.odb,Step-1,Increment      1: Step Time =    1.000,"P-33-1",           147,       181.374,       84.8354,            0.,NA,NA,"",   922.123E+03,   974.530E+03,   974.530E+03
C:/temp/Job-33.odb,Step-1,Increment      1: Step Time =    1.000,"P-33-1",           148,       190.429,       85.0980,            0.,NA,NA,"",   916.300E+03,   991.412E+03,   991.412E+03
C:/temp/Job-33.odb,Step-1,Increment      1: Step Time =    1.000,"P-33-1",           149,       9.28274,       75.4059,            0.,NA,NA,"",   747.794E+03,   838.120E+03,   838.120E+03
C:/temp/Job-33.odb,Step-1,Increment      1: Step Time =    1.000,"P-33-1",           150,       24.8050,       74.5009,            0.,NA,NA,"",   793.798E+03,   864.673E+03,   864.673E+03
C:/temp/Job-33.odb,Step-1,Increment      1: Step Time =    1.000,"P-33-1",           151,       33.8878,       73.5405,            0.,NA,NA,"",   840.875E+03,   891.097E+03,   891.097E+03
C:/temp/Job-33.odb,Step-1,Increment      1: Step Time =    1.000,"P-33-1",           152,       47.9762,       71.9950,            0.,NA,NA,"",   962.707E+03,   962.982E+03,   962.982E+03
C:/temp/Job-33.odb,Step-1,Increment      1: Step Time =    1.000,"P-33-1",           153,       51.2521,       72.2563,            0.,NA,NA,"",   994.409E+03,   979.793E+03,   979.793E+03
C:/temp/Job-33.odb,Step-1,Increment      1: Step Time =    1.000,"P-33-1",           154,       60.9589,       71.4609,            0.,NA,NA,"",   1.13652E+06,   1.07385E+06,   1.07385E+06
C:/temp/Job-33.odb,Step-1,Increment      1: Step Time =    1.000,"P-33-1",           155,       71.4230,       70.0604,            0.,NA,NA,"",   1.32862E+06,   1.24253E+06,   1.24253E+06
C:/temp/Job-33.odb,Step-1,Increment      1: Step Time =    1.000,"P-33-1",           156,       84.5973,       71.8560,            0.,NA,NA,"",   1.52931E+06,   1.53964E+06,   1.53964E+06
C:/temp/Job-33.odb,Step-1,Increment      1: Step Time =    1.000,"P-33-1",           157,       94.7797,       73.8519,            0.,NA,NA,"",   1.88229E+06,   2.00418E+06,   2.00418E+06
C:/temp/Job-33.odb,Step-1,Increment      1: Step Time =    1.000,"P-33-1",           158,       116.650,       72.4788,            0.,NA,NA,"",   1.54661E+06,   1.53643E+06,   1.53643E+06
C:/temp/Job-33.odb,Step-1,Increment      1: Step Time =    1.000,"P-33-1",           159,       126.435,       72.5371,            0.,NA,NA,"",   1.42679E+06,   1.30623E+06,   1.30623E+06
C:/temp/Job-33.odb,Step-1,Increment      1: Step Time =    1.000,"P-33-1",           160,       137.234,       72.6556,            0.,NA,NA,"",   1.26535E+06,   1.14511E+06,   1.14511E+06
C:/temp/Job-33.odb,Step-1,Increment      1: Step Time =    1.000,"P-33-1",           161,       148.094,       73.0428,            0.,NA,NA,"",   1.12254E+06,   1.05167E+06,   1.05167E+06
C:/temp/Job-33.odb,Step-1,Increment      1: Step Time =    1.000,"P-33-1",           162,       157.603,       72.9157,            0.,NA,NA,"",   1.05053E+06,   1.01839E+06,   1.01839E+06
C:/temp/Job-33.odb,Step-1,Increment      1: Step Time =    1.000,"P-33-1",           163,       167.274,       76.9283,            0.,NA,NA,"",   972.354E+03,   979.120E+03,   979.120E+03
C:/temp/Job-33.odb,Step-1,Increment      1: Step Time =    1.000,"P-33-1",           164,       180.642,       75.9453,            0.,NA,NA,"",   954.239E+03,   993.652E+03,   993.652E+03
C:/temp/Job-33.odb,Step-1,Increment      1: Step Time =    1.000,"P-33-1",           165,       74.4712,       84.8597,            0.,NA,NA,"",   1.03754E+06,   849.244E+03,   849.244E+03
C:/temp/Job-33.odb,Step-1,Increment      1: Step Time =    1.000,"P-33-1",           166,       65.9166,       84.4386,            0.,NA,NA,"",   931.176E+03,   825.604E+03,   825.604E+03
C:/temp/Job-33.odb,Step-1,Increment      1: Step Time =    1.000,"P-33-1",           167,       48.3064,       85.5412,            0.,NA,NA,"",   738.676E+03,   766.159E+03,   766.159E+03
C:/temp/Job-33.odb,Step-1,Increment      1: Step Time =    1.000,"P-33-1",           168,       43.7241,       86.4803,            0.,NA,NA,"",   713.868E+03,   759.324E+03,   759.324E+03
C:/temp/Job-33.odb,Step-1,Increment      1: Step Time =    1.000,"P-33-1",           169,       32.3419,       84.1771,            0.,NA,NA,"",   730.723E+03,   797.302E+03,   797.302E+03
C:/temp/Job-33.odb,Step-1,Increment      1: Step Time =    1.000,"P-33-1",           170,       20.6955,       85.5600,            0.,NA,NA,"",   712.220E+03,   794.150E+03,   794.150E+03
C:/temp/Job-33.odb,Step-1,Increment      1: Step Time =    1.000,"P-33-1",           171,       9.85068,       85.2767,            0.,NA,NA,"",   706.800E+03,   796.098E+03,   796.098E+03
C:/temp/Job-33.odb,Step-1,Increment      1: Step Time =    1.000,"P-33-1",           172,       74.5972,       94.6513,            0.,NA,NA,"",   537.078E+03,  -103.872E+03,  -103.872E+03
C:/temp/Job-33.odb,Step-1,Increment      1: Step Time =    1.000,"P-33-1",           173,       61.0104,       92.2325,            0.,NA,NA,"",   571.549E+03,   561.838E+03,   561.838E+03
C:/temp/Job-33.odb,Step-1,Increment      1: Step Time =    1.000,"P-33-1",           174,       51.8008,       94.6187,            0.,NA,NA,"",   556.437E+03,   600.757E+03,   600.757E+03
C:/temp/Job-33.odb,Step-1,Increment      1: Step Time =    1.000,"P-33-1",           175,       42.7205,       96.1188,            0.,NA,NA,"",   613.436E+03,   676.235E+03,   676.235E+03
C:/temp/Job-33.odb,Step-1,Increment      1: Step Time =    1.000,"P-33-1",           176,       31.8798,       94.8445,            0.,NA,NA,"",   662.678E+03,   737.116E+03,   737.116E+03
C:/temp/Job-33.odb,Step-1,Increment      1: Step Time =    1.000,"P-33-1",           177,       20.5720,       95.7339,            0.,NA,NA,"",   676.341E+03,   760.401E+03,   760.401E+03
C:/temp/Job-33.odb,Step-1,Increment      1: Step Time =    1.000,"P-33-1",           178,       10.0380,       95.2041,            0.,NA,NA,"",   682.422E+03,   771.275E+03,   771.275E+03
C:/temp/Job-33.odb,Step-1,Increment      1: Step Time =    1.000,"P-33-1",           179,       73.1316,       105.465,            0.,NA,NA,"",   468.026E+03,  -22.9299E+03,  -22.9299E+03
C:/temp/Job-33.odb,Step-1,Increment      1: Step Time =    1.000,"P-33-1",           180,       64.4217,       104.490,            0.,NA,NA,"",   424.454E+03,   402.057E+03,   402.057E+03
C:/temp/Job-33.odb,Step-1,Increment      1: Step Time =    1.000,"P-33-1",           181,       51.5899,       103.157,            0.,NA,NA,"",   527.326E+03,   576.730E+03,   576.730E+03
C:/temp/Job-33.odb,Step-1,Increment      1: Step Time =    1.000,"P-33-1",           182,       42.8961,       106.805,            0.,NA,NA,"",   628.919E+03,   688.966E+03,   688.966E+03
C:/temp/Job-33.odb,Step-1,Increment      1: Step Time =    1.000,"P-33-1",           183,       32.2622,       105.334,            0.,NA,NA,"",   660.935E+03,   735.159E+03,   735.159E+03
C:/temp/Job-33.odb,Step-1,Increment      1: Step Time =    1.000,"P-33-1",           184,       19.8024,       105.562,            0.,NA,NA,"",   679.981E+03,   764.408E+03,   764.408E+03
C:/temp/Job-33.odb,Step-1,Increment      1: Step Time =    1.000,"P-33-1",           185,       10.1517,       105.336,            0.,NA,NA,"",   682.962E+03,   771.761E+03,   771.761E+03
C:/temp/Job-33.odb,Step-1,Increment      1: Step Time =    1.000,"P-33-1",           186,       189.890,       10.2166,            0.,NA,NA,"",   1.00078E+06,   1.00118E+06,   1.00118E+06
C:/temp/Job-33.odb,Step-1,Increment      1: Step Time =    1.000,"P-33-1",           187,       179.544,       10.4533,            0.,NA,NA,"",   1.00408E+06,   1.00412E+06,   1.00412E+06
C:/temp/Job-33.odb,Step-1,Increment      1: Step Time =    1.000,"P-33-1",           188,       169.324,       10.0868,            0.,NA,NA,"",   1.00755E+06,   1.00650E+06,   1.00650E+06
C:/temp/Job-33.odb,Step-1,Increment      1: Step Time =    1.000,"P-33-1",           189,       159.315,       9.45601,            0.,NA,NA,"",   1.00720E+06,   1.00527E+06,   1.00527E+06
C:/temp/Job-33.odb,Step-1,Increment      1: Step Time =    1.000,"P-33-1",           190,       149.114,       13.3089,            0.,NA,NA,"",   1.01563E+06,   1.01125E+06,   1.01125E+06
C:/temp/Job-33.odb,Step-1,Increment      1: Step Time =    1.000,"P-33-1",           191,       134.762,       9.34136,            0.,NA,NA,"",   980.886E+03,   979.633E+03,   979.633E+03
C:/temp/Job-33.odb,Step-1,Increment      1: Step Time =    1.000,"P-33-1",           192,       124.987,       9.74482,            0.,NA,NA,"",   963.812E+03,   964.349E+03,   964.349E+03
C:/temp/Job-33.odb,Step-1,Increment      1: Step Time =    1.000,"P-33-1",           193,       115.034,       9.81739,            0.,NA,NA,"",   946.364E+03,   949.634E+03,   949.634E+03
C:/temp/Job-33.odb,Step-1,Increment      1: Step Time =    1.000,"P-33-1",           194,       105.100,       9.85603,            0.,NA,NA,"",   938.492E+03,   943.402E+03,   943.402E+03
C:/temp/Job-33.odb,Step-1,Increment      1: Step Time =    1.000,"P-33-1",           195,       95.2380,       9.85937,            0.,NA,NA,"",   945.491E+03,   950.240E+03,   950.240E+03
C:/temp/Job-33.odb,Step-1,Increment      1: Step Time =    1.000,"P-33-1",           196,       85.3836,       9.65824,            0.,NA,NA,"",   966.105E+03,   969.084E+03,   969.084E+03
C:/temp/Job-33.odb,Step-1,Increment      1: Step Time =    1.000,"P-33-1",           197,       75.7783,       9.41521,            0.,NA,NA,"",   995.938E+03,   996.651E+03,   996.651E+03
C:/temp/Job-33.odb,Step-1,Increment      1: Step Time =    1.000,"P-33-1",           198,       66.5509,       9.96720,            0.,NA,NA,"",   1.03253E+06,   1.03161E+06,   1.03161E+06
C:/temp/Job-33.odb,Step-1,Increment      1: Step Time =    1.000,"P-33-1",           199,       52.0418,       11.6165,            0.,NA,NA,"",   1.09026E+06,   1.08755E+06,   1.08755E+06
C:/temp/Job-33.odb,Step-1,Increment      1: Step Time =    1.000,"P-33-1",           200,       39.5128,       9.25750,            0.,NA,NA,"",   1.11929E+06,   1.11955E+06,   1.11955E+06
C:/temp/Job-33.odb,Step-1,Increment      1: Step Time =    1.000,"P-33-1",           201,       30.2806,       9.59216,            0.,NA,NA,"",   1.15521E+06,   1.15922E+06,   1.15922E+06
C:/temp/Job-33.odb,Step-1,Increment      1: Step Time =    1.000,"P-33-1",           202,       20.3438,       10.8757,            0.,NA,NA,"",   1.20520E+06,   1.22041E+06,   1.22041E+06
C:/temp/Job-33.odb,Step-1,Increment      1: Step Time =    1.000,"P-33-1",           203,       9.93901,       9.82260,            0.,NA,NA,"",   1.29229E+06,   1.33567E+06,   1.33567E+06
C:/temp/Job-33.odb,Step-1,Increment      1: Step Time =    1.000,"P-33-1",           204,       190.624,       24.7645,            0.,NA,NA,"",   1.00093E+06,   1.00401E+06,   1.00401E+06
C:/temp/Job-33.odb,Step-1,Increment      1: Step Time =    1.000,"P-33-1",           205,       179.345,       21.8853,            0.,NA,NA,"",   1.01232E+06,   1.01265E+06,   1.01265E+06
C:/temp/Job-33.odb,Step-1,Increment      1: Step Time =    1.000,"P-33-1",           206,       168.107,       20.3313,            0.,NA,NA,"",   1.02640E+06,   1.02235E+06,   1.02235E+06
C:/temp/Job-33.odb,Step-1,Increment      1: Step Time =    1.000,"P-33-1",           207,       156.491,       24.9753,            0.,NA,NA,"",   1.05630E+06,   1.04515E+06,   1.04515E+06
C:/temp/Job-33.odb,Step-1,Increment      1: Step Time =    1.000,"P-33-1",           208,       147.675,       21.3085,            0.,NA,NA,"",   1.04780E+06,   1.03847E+06,   1.03847E+06
C:/temp/Job-33.odb,Step-1,Increment      1: Step Time =    1.000,"P-33-1",           209,       135.139,       19.0008,            0.,NA,NA,"",   1.03127E+06,   1.02687E+06,   1.02687E+06
C:/temp/Job-33.odb,Step-1,Increment      1: Step Time =    1.000,"P-33-1",           210,       124.920,       20.0005,            0.,NA,NA,"",   1.02127E+06,   1.02341E+06,   1.02341E+06
C:/temp/Job-33.odb,Step-1,Increment      1: Step Time =    1.000,"P-33-1",           211,       114.899,       19.2388,            0.,NA,NA,"",   1.00038E+06,   1.01043E+06,   1.01043E+06
C:/temp/Job-33.odb,Step-1,Increment      1: Step Time =    1.000,"P-33-1",           212,       105.329,       19.7010,            0.,NA,NA,"",   991.956E+03,   1.00783E+06,   1.00783E+06
C:/temp/Job-33.odb,Step-1,Increment      1: Step Time =    1.000,"P-33-1",           213,       95.5221,       19.8697,            0.,NA,NA,"",   1.00015E+06,   1.01604E+06,   1.01604E+06
C:/temp/Job-33.odb,Step-1,Increment      1: Step Time =    1.000,"P-33-1",           214,       85.5925,       19.4832,            0.,NA,NA,"",   1.02215E+06,   1.03216E+06,   1.03216E+06
C:/temp/Job-33.odb,Step-1,Increment      1: Step Time =    1.000,"P-33-1",           215,       76.1719,       18.8698,            0.,NA,NA,"",   1.04929E+06,   1.05206E+06,   1.05206E+06
C:/temp/Job-33.odb,Step-1,Increment      1: Step Time =    1.000,"P-33-1",           216,       66.3662,       20.9897,            0.,NA,NA,"",   1.08932E+06,   1.08597E+06,   1.08597E+06
C:/temp/Job-33.odb,Step-1,Increment      1: Step Time =    1.000,"P-33-1",           217,       53.3628,       21.7180,            0.,NA,NA,"",   1.12217E+06,   1.11611E+06,   1.11611E+06
C:/temp/Job-33.odb,Step-1,Increment      1: Step Time =    1.000,"P-33-1",           218,       42.8880,       19.8706,            0.,NA,NA,"",   1.13410E+06,   1.13323E+06,   1.13323E+06
C:/temp/Job-33.odb,Step-1,Increment      1: Step Time =    1.000,"P-33-1",           219,       33.1523,       22.7762,            0.,NA,NA,"",   1.14104E+06,   1.15259E+06,   1.15259E+06
C:/temp/Job-33.odb,Step-1,Increment      1: Step Time =    1.000,"P-33-1",           220,       19.3459,       19.9415,            0.,NA,NA,"",   1.14865E+06,   1.18856E+06,   1.18856E+06
C:/temp/Job-33.odb,Step-1,Increment      1: Step Time =    1.000,"P-33-1",           221,       11.0949,       20.0503,            0.,NA,NA,"",   1.12093E+06,   1.19360E+06,   1.19360E+06
C:/temp/Job-33.odb,Step-1,Increment      1: Step Time =    1.000,"P-33-1",           222,       190.899,       34.0657,            0.,NA,NA,"",   997.310E+03,   1.00524E+06,   1.00524E+06
C:/temp/Job-33.odb,Step-1,Increment      1: Step Time =    1.000,"P-33-1",           223,       180.987,       34.0064,            0.,NA,NA,"",   1.01617E+06,   1.01926E+06,   1.01926E+06
C:/temp/Job-33.odb,Step-1,Increment      1: Step Time =    1.000,"P-33-1",           224,       166.365,       34.7395,            0.,NA,NA,"",   1.06023E+06,   1.04956E+06,   1.04956E+06
C:/temp/Job-33.odb,Step-1,Increment      1: Step Time =    1.000,"P-33-1",           225,       157.916,       34.7947,            0.,NA,NA,"",   1.08737E+06,   1.06907E+06,   1.06907E+06
C:/temp/Job-33.odb,Step-1,Increment      1: Step Time =    1.000,"P-33-1",           226,       150.216,       32.7998,            0.,NA,NA,"",   1.09764E+06,   1.07785E+06,   1.07785E+06
C:/temp/Job-33.odb,Step-1,Increment      1: Step Time =    1.000,"P-33-1",           227,       135.872,       29.9013,            0.,NA,NA,"",   1.09334E+06,   1.08148E+06,   1.08148E+06
C:/temp/Job-33.odb,Step-1,Increment      1: Step Time =    1.000,"P-33-1",           228,       126.210,       31.5425,            0.,NA,NA,"",   1.09086E+06,   1.09174E+06,   1.09174E+06
C:/temp/Job-33.odb,Step-1,Increment      1: Step Time =    1.000,"P-33-1",           229,       114.801,       31.0911,            0.,NA,NA,"",   1.05741E+06,   1.07846E+06,   1.07846E+06
C:/temp/Job-33.odb,Step-1,Increment      1: Step Time =    1.000,"P-33-1",           230,       106.912,       30.4850,            0.,NA,NA,"",   1.03715E+06,   1.06865E+06,   1.06865E+06
C:/temp/Job-33.odb,Step-1,Increment      1: Step Time =    1.000,"P-33-1",           231,       95.5893,       29.8860,            0.,NA,NA,"",   1.03954E+06,   1.07092E+06,   1.07092E+06
C:/temp/Job-33.odb,Step-1,Increment      1: Step Time =    1.000,"P-33-1",           232,       85.6540,       29.2223,            0.,NA,NA,"",   1.06694E+06,   1.08700E+06,   1.08700E+06
C:/temp/Job-33.odb,Step-1,Increment      1: Step Time =    1.000,"P-33-1",           233,       75.0901,       33.0857,            0.,NA,NA,"",   1.12563E+06,   1.13026E+06,   1.13026E+06
C:/temp/Job-33.odb,Step-1,Increment      1: Step Time =    1.000,"P-33-1",           234,       65.3301,       31.6771,            0.,NA,NA,"",   1.14475E+06,   1.13689E+06,   1.13689E+06
C:/temp/Job-33.odb,Step-1,Increment      1: Step Time =    1.000,"P-33-1",           235,       51.6864,       32.4109,            0.,NA,NA,"",   1.14870E+06,   1.13987E+06,   1.13987E+06
C:/temp/Job-33.odb,Step-1,Increment      1: Step Time =    1.000,"P-33-1",           236,       33.1224,       31.1965,            0.,NA,NA,"",   1.11706E+06,   1.13522E+06,   1.13522E+06
C:/temp/Job-33.odb,Step-1,Increment      1: Step Time =    1.000,"P-33-1",           237,       22.3440,       31.8217,            0.,NA,NA,"",   1.07572E+06,   1.12315E+06,   1.12315E+06
C:/temp/Job-33.odb,Step-1,Increment      1: Step Time =    1.000,"P-33-1",           238,       11.2961,       35.3384,            0.,NA,NA,"",   989.409E+03,   1.07497E+06,   1.07497E+06
C:/temp/Job-33.odb,Step-1,Increment      1: Step Time =    1.000,"P-33-1",           239,       190.318,       43.0322,            0.,NA,NA,"",   992.066E+03,   1.00768E+06,   1.00768E+06
C:/temp/Job-33.odb,Step-1,Increment      1: Step Time =    1.000,"P-33-1",           240,       177.128,       42.0910,            0.,NA,NA,"",   1.03159E+06,   1.03253E+06,   1.03253E+06
C:/temp/Job-33.odb,Step-1,Increment      1: Step Time =    1.000,"P-33-1",           241,       167.210,       44.4436,            0.,NA,NA,"",   1.07163E+06,   1.05879E+06,   1.05879E+06
C:/temp/Job-33.odb,Step-1,Increment      1: Step Time =    1.000,"P-33-1",           242,       160.128,       42.0631,            0.,NA,NA,"",   1.09995E+06,   1.07791E+06,   1.07791E+06
C:/temp/Job-33.odb,Step-1,Increment      1: Step Time =    1.000,"P-33-1",           243,       149.991,       39.9146,            0.,NA,NA,"",   1.13187E+06,   1.10328E+06,   1.10328E+06
C:/temp/Job-33.odb,Step-1,Increment      1: Step Time =    1.000,"P-33-1",           244,       137.148,       40.9274,            0.,NA,NA,"",   1.16618E+06,   1.14005E+06,   1.14005E+06
C:/temp/Job-33.odb,Step-1,Increment      1: Step Time =    1.000,"P-33-1",           245,       127.476,       44.4352,            0.,NA,NA,"",   1.18777E+06,   1.17590E+06,   1.17590E+06
C:/temp/Job-33.odb,Step-1,Increment      1: Step Time =    1.000,"P-33-1",           246,       112.356,       42.6349,            0.,NA,NA,"",   1.10709E+06,   1.14858E+06,   1.14858E+06
C:/temp/Job-33.odb,Step-1,Increment      1: Step Time =    1.000,"P-33-1",           247,       104.685,       41.0821,            0.,NA,NA,"",   1.07305E+06,   1.12816E+06,   1.12816E+06
C:/temp/Job-33.odb,Step-1,Increment      1: Step Time =    1.000,"P-33-1",           248,       96.4513,       44.6131,            0.,NA,NA,"",   1.08985E+06,   1.15639E+06,   1.15639E+06
C:/temp/Job-33.odb,Step-1,Increment      1: Step Time =    1.000,"P-33-1",           249,       85.2622,       42.6271,            0.,NA,NA,"",   1.13272E+06,   1.16766E+06,   1.16766E+06
C:/temp/Job-33.odb,Step-1,Increment      1: Step Time =    1.000,"P-33-1",           250,       74.8801,       45.4996,            0.,NA,NA,"",   1.20268E+06,   1.20316E+06,   1.20316E+06
C:/temp/Job-33.odb,Step-1,Increment      1: Step Time =    1.000,"P-33-1",           251,       64.9203,       42.2039,            0.,NA,NA,"",   1.19385E+06,   1.17731E+06,   1.17731E+06
C:/temp/Job-33.odb,Step-1,Increment      1: Step Time =    1.000,"P-33-1",           252,       49.1981,       44.4121,            0.,NA,NA,"",   1.14458E+06,   1.13513E+06,   1.13513E+06
C:/temp/Job-33.odb,Step-1,Increment      1: Step Time =    1.000,"P-33-1",           253,       40.1413,       43.3211,            0.,NA,NA,"",   1.10195E+06,   1.11106E+06,   1.11106E+06
C:/temp/Job-33.odb,Step-1,Increment      1: Step Time =    1.000,"P-33-1",           254,       30.1567,       40.7505,            0.,NA,NA,"",   1.06072E+06,   1.09431E+06,   1.09431E+06
C:/temp/Job-33.odb,Step-1,Increment      1: Step Time =    1.000,"P-33-1",           255,       20.8107,       43.4969,            0.,NA,NA,"",   992.434E+03,   1.05420E+06,   1.05420E+06
C:/temp/Job-33.odb,Step-1,Increment      1: Step Time =    1.000,"P-33-1",           256,       187.798,       50.6792,            0.,NA,NA,"",   990.442E+03,   1.01181E+06,   1.01181E+06
C:/temp/Job-33.odb,Step-1,Increment      1: Step Time =    1.000,"P-33-1",           257,       179.432,       53.6771,            0.,NA,NA,"",   1.01653E+06,   1.02756E+06,   1.02756E+06
C:/temp/Job-33.odb,Step-1,Increment      1: Step Time =    1.000,"P-33-1",           258,       169.395,       54.2095,            0.,NA,NA,"",   1.06295E+06,   1.05349E+06,   1.05349E+06
C:/temp/Job-33.odb,Step-1,Increment      1: Step Time =    1.000,"P-33-1",           259,       157.841,       53.4429,            0.,NA,NA,"",   1.12898E+06,   1.09407E+06,   1.09407E+06
C:/temp/Job-33.odb,Step-1,Increment      1: Step Time =    1.000,"P-33-1",           260,       148.590,       49.9178,            0.,NA,NA,"",   1.18188E+06,   1.13590E+06,   1.13590E+06
C:/temp/Job-33.odb,Step-1,Increment      1: Step Time =    1.000,"P-33-1",           261,       135.623,       52.1228,            0.,NA,NA,"",   1.25064E+06,   1.20152E+06,   1.20152E+06
C:/temp/Job-33.odb,Step-1,Increment      1: Step Time =    1.000,"P-33-1",           262,       127.799,       50.7947,            0.,NA,NA,"",   1.24417E+06,   1.22120E+06,   1.22120E+06
C:/temp/Job-33.odb,Step-1,Increment      1: Step Time =    1.000,"P-33-1",           263,       115.431,       54.1352,            0.,NA,NA,"",   1.22586E+06,   1.26497E+06,   1.26497E+06
C:/temp/Job-33.odb,Step-1,Increment      1: Step Time =    1.000,"P-33-1",           264,       104.949,       51.8670,            0.,NA,NA,"",   1.13184E+06,   1.21536E+06,   1.21536E+06
C:/temp/Job-33.odb,Step-1,Increment      1: Step Time =    1.000,"P-33-1",           265,       92.8478,       53.0122,            0.,NA,NA,"",   1.15897E+06,   1.23953E+06,   1.23953E+06
C:/temp/Job-33.odb,Step-1,Increment      1: Step Time =    1.000,"P-33-1",           266,       85.1992,       52.1806,            0.,NA,NA,"",   1.21184E+06,   1.25313E+06,   1.25313E+06
C:/temp/Job-33.odb,Step-1,Increment      1: Step Time =    1.000,"P-33-1",           267,       74.2273,       52.5633,            0.,NA,NA,"",   1.25851E+06,   1.24782E+06,   1.24782E+06
C:/temp/Job-33.odb,Step-1,Increment      1: Step Time =    1.000,"P-33-1",           268,       63.0054,       51.0611,            0.,NA,NA,"",   1.22552E+06,   1.19516E+06,   1.19516E+06
C:/temp/Job-33.odb,Step-1,Increment      1: Step Time =    1.000,"P-33-1",           269,       52.4429,       53.6495,            0.,NA,NA,"",   1.15120E+06,   1.13125E+06,   1.13125E+06
C:/temp/Job-33.odb,Step-1,Increment      1: Step Time =    1.000,"P-33-1",           270,       42.2972,       51.3448,            0.,NA,NA,"",   1.08135E+06,   1.08809E+06,   1.08809E+06
C:/temp/Job-33.odb,Step-1,Increment      1: Step Time =    1.000,"P-33-1",           271,       32.4877,       56.0127,            0.,NA,NA,"",   983.359E+03,   1.02063E+06,   1.02063E+06
C:/temp/Job-33.odb,Step-1,Increment      1: Step Time =    1.000,"P-33-1",           272,       20.7744,       53.3855,            0.,NA,NA,"",   930.222E+03,   996.487E+03,   996.487E+03
C:/temp/Job-33.odb,Step-1,Increment      1: Step Time =    1.000,"P-33-1",           273,       10.5571,       51.4126,            0.,NA,NA,"",   886.601E+03,   976.570E+03,   976.570E+03
C:/temp/Job-33.odb,Step-1,Increment      1: Step Time =    1.000,"P-33-1",           274,       189.235,       65.9218,            0.,NA,NA,"",   959.322E+03,   1.00451E+06,   1.00451E+06
C:/temp/Job-33.odb,Step-1,Increment      1: Step Time =    1.000,"P-33-1",           275,       178.736,       63.9834,            0.,NA,NA,"",    999.87E+03,   1.01875E+06,   1.01875E+06
C:/temp/Job-33.odb,Step-1,Increment      1: Step Time =    1.000,"P-33-1",           276,       168.476,       62.2609,            0.,NA,NA,"",   1.05142E+06,   1.04276E+06,   1.04276E+06
C:/temp/Job-33.odb,Step-1,Increment      1: Step Time =    1.000,"P-33-1",           277,       154.906,       64.8483,            0.,NA,NA,"",   1.12836E+06,   1.08068E+06,   1.08068E+06
C:/temp/Job-33.odb,Step-1,Increment      1: Step Time =    1.000,"P-33-1",           278,       149.931,       62.5311,            0.,NA,NA,"",   1.17968E+06,   1.11808E+06,   1.11808E+06
C:/temp/Job-33.odb,Step-1,Increment      1: Step Time =    1.000,"P-33-1",           279,       138.009,       62.6564,            0.,NA,NA,"",   1.29191E+06,   1.20655E+06,   1.20655E+06
C:/temp/Job-33.odb,Step-1,Increment      1: Step Time =    1.000,"P-33-1",           280,       126.347,       63.0917,            0.,NA,NA,"",   1.37281E+06,   1.31417E+06,   1.31417E+06
C:/temp/Job-33.odb,Step-1,Increment      1: Step Time =    1.000,"P-33-1",           281,       116.891,       63.8671,            0.,NA,NA,"",   1.37322E+06,   1.38995E+06,   1.38995E+06
C:/temp/Job-33.odb,Step-1,Increment      1: Step Time =    1.000,"P-33-1",           282,       106.389,       62.1184,            0.,NA,NA,"",   1.27158E+06,   1.38156E+06,   1.38156E+06
C:/temp/Job-33.odb,Step-1,Increment      1: Step Time =    1.000,"P-33-1",           283,       97.0794,       62.6738,            0.,NA,NA,"",   1.27618E+06,   1.40351E+06,   1.40351E+06
C:/temp/Job-33.odb,Step-1,Increment      1: Step Time =    1.000,"P-33-1",           284,       84.5816,       61.8336,            0.,NA,NA,"",   1.33784E+06,   1.37219E+06,   1.37219E+06
C:/temp/Job-33.odb,Step-1,Increment      1: Step Time =    1.000,"P-33-1",           285,       72.7445,       60.5647,            0.,NA,NA,"",   1.32002E+06,   1.28031E+06,   1.28031E+06
C:/temp/Job-33.odb,Step-1,Increment      1: Step Time =    1.000,"P-33-1",           286,       63.5029,       61.9835,            0.,NA,NA,"",   1.24077E+06,   1.18755E+06,   1.18755E+06
C:/temp/Job-33.odb,Step-1,Increment      1: Step Time =    1.000,"P-33-1",           287,       50.6156,       61.5967,            0.,NA,NA,"",   1.09699E+06,   1.07919E+06,   1.07919E+06
C:/temp/Job-33.odb,Step-1,Increment      1: Step Time =    1.000,"P-33-1",           288,       41.8525,       61.6907,            0.,NA,NA,"",   1.01175E+06,   1.02440E+06,   1.02440E+06
C:/temp/Job-33.odb,Step-1,Increment      1: Step Time =    1.000,"P-33-1",           289,       31.4506,       62.5451,            0.,NA,NA,"",   926.158E+03,   972.124E+03,   972.124E+03
C:/temp/Job-33.odb,Step-1,Increment      1: Step Time =    1.000,"P-33-1",           290,       20.8963,       63.5467,            0.,NA,NA,"",   859.664E+03,   931.359E+03,   931.359E+03
C:/temp/Job-33.odb,Step-1,Increment      1: Step Time =    1.000,"P-33-1",           291,       8.60525,       65.9368,            0.,NA,NA,"",   795.302E+03,   887.170E+03,   887.170E+03
C:/temp/Job-33.odb,Step-1,Increment      1: Step Time =    1.000,"P-33-1",           292,       190.061,       135.235,            0.,NA,NA,"",   960.783E+03,   1.00539E+06,   1.00539E+06
C:/temp/Job-33.odb,Step-1,Increment      1: Step Time =    1.000,"P-33-1",           293,       179.818,       135.343,            0.,NA,NA,"",   994.183E+03,   1.01657E+06,   1.01657E+06
C:/temp/Job-33.odb,Step-1,Increment      1: Step Time =    1.000,"P-33-1",           294,       169.974,       134.687,            0.,NA,NA,"",   1.03287E+06,   1.03134E+06,   1.03134E+06
C:/temp/Job-33.odb,Step-1,Increment      1: Step Time =    1.000,"P-33-1",           295,       156.029,       138.495,            0.,NA,NA,"",   1.13359E+06,   1.09020E+06,   1.09020E+06
C:/temp/Job-33.odb,Step-1,Increment      1: Step Time =    1.000,"P-33-1",           296,       149.537,       139.666,            0.,NA,NA,"",   1.18736E+06,   1.12734E+06,   1.12734E+06
C:/temp/Job-33.odb,Step-1,Increment      1: Step Time =    1.000,"P-33-1",           297,       136.242,       137.754,            0.,NA,NA,"",   1.30806E+06,   1.22305E+06,   1.22305E+06
C:/temp/Job-33.odb,Step-1,Increment      1: Step Time =    1.000,"P-33-1",           298,       126.761,       138.440,            0.,NA,NA,"",   1.36273E+06,   1.30735E+06,   1.30735E+06
C:/temp/Job-33.odb,Step-1,Increment      1: Step Time =    1.000,"P-33-1",           299,       115.818,       137.599,            0.,NA,NA,"",   1.34999E+06,   1.37997E+06,   1.37997E+06
C:/temp/Job-33.odb,Step-1,Increment      1: Step Time =    1.000,"P-33-1",           300,       103.356,       137.336,            0.,NA,NA,"",   1.27082E+06,   1.39851E+06,   1.39851E+06
C:/temp/Job-33.odb,Step-1,Increment      1: Step Time =    1.000,"P-33-1",           301,       94.1375,       136.877,            0.,NA,NA,"",   1.30006E+06,   1.41172E+06,   1.41172E+06
C:/temp/Job-33.odb,Step-1,Increment      1: Step Time =    1.000,"P-33-1",           302,       85.3550,       137.962,            0.,NA,NA,"",   1.34236E+06,   1.38058E+06,   1.38058E+06
C:/temp/Job-33.odb,Step-1,Increment      1: Step Time =    1.000,"P-33-1",           303,       71.8694,       137.054,            0.,NA,NA,"",   1.32471E+06,   1.27483E+06,   1.27483E+06
C:/temp/Job-33.odb,Step-1,Increment      1: Step Time =    1.000,"P-33-1",           304,       61.9286,       137.091,            0.,NA,NA,"",   1.22132E+06,   1.16901E+06,   1.16901E+06
C:/temp/Job-33.odb,Step-1,Increment      1: Step Time =    1.000,"P-33-1",           305,       51.3324,       136.623,            0.,NA,NA,"",   1.09334E+06,   1.07273E+06,   1.07273E+06
C:/temp/Job-33.odb,Step-1,Increment      1: Step Time =    1.000,"P-33-1",           306,       45.0840,       138.327,            0.,NA,NA,"",   1.04250E+06,   1.04416E+06,   1.04416E+06
C:/temp/Job-33.odb,Step-1,Increment      1: Step Time =    1.000,"P-33-1",           307,       29.4419,       138.375,            0.,NA,NA,"",   918.840E+03,   969.728E+03,   969.728E+03
C:/temp/Job-33.odb,Step-1,Increment      1: Step Time =    1.000,"P-33-1",           308,       21.0056,       135.497,            0.,NA,NA,"",   854.630E+03,   926.231E+03,   926.231E+03
C:/temp/Job-33.odb,Step-1,Increment      1: Step Time =    1.000,"P-33-1",           309,       10.0053,       135.697,            0.,NA,NA,"",   809.345E+03,   899.561E+03,   899.561E+03
C:/temp/Job-33.odb,Step-1,Increment      1: Step Time =    1.000,"P-33-1",           310,       185.474,       150.193,            0.,NA,NA,"",   999.000E+03,   1.01604E+06,   1.01604E+06
C:/temp/Job-33.odb,Step-1,Increment      1: Step Time =    1.000,"P-33-1",           311,       179.682,       145.702,            0.,NA,NA,"",   1.01439E+06,   1.02641E+06,   1.02641E+06
C:/temp/Job-33.odb,Step-1,Increment      1: Step Time =    1.000,"P-33-1",           312,       168.751,       144.809,            0.,NA,NA,"",   1.06408E+06,   1.05377E+06,   1.05377E+06
C:/temp/Job-33.odb,Step-1,Increment      1: Step Time =    1.000,"P-33-1",           313,       158.275,       147.348,            0.,NA,NA,"",   1.12737E+06,   1.09410E+06,   1.09410E+06
C:/temp/Job-33.odb,Step-1,Increment      1: Step Time =    1.000,"P-33-1",           314,       147.380,       146.742,            0.,NA,NA,"",   1.19563E+06,   1.14327E+06,   1.14327E+06
C:/temp/Job-33.odb,Step-1,Increment      1: Step Time =    1.000,"P-33-1",           315,       135.718,       148.143,            0.,NA,NA,"",   1.25014E+06,   1.20098E+06,   1.20098E+06
C:/temp/Job-33.odb,Step-1,Increment      1: Step Time =    1.000,"P-33-1",           316,       124.578,       145.793,            0.,NA,NA,"",   1.27352E+06,   1.25645E+06,   1.25645E+06
C:/temp/Job-33.odb,Step-1,Increment      1: Step Time =    1.000,"P-33-1",           317,       116.464,       147.915,            0.,NA,NA,"",   1.20950E+06,   1.24198E+06,   1.24198E+06
C:/temp/Job-33.odb,Step-1,Increment      1: Step Time =    1.000,"P-33-1",           318,       103.374,       147.729,            0.,NA,NA,"",   1.13035E+06,   1.21899E+06,   1.21899E+06
C:/temp/Job-33.odb,Step-1,Increment      1: Step Time =    1.000,"P-33-1",           319,       94.4777,       147.643,            0.,NA,NA,"",   1.14750E+06,   1.22944E+06,   1.22944E+06
C:/temp/Job-33.odb,Step-1,Increment      1: Step Time =    1.000,"P-33-1",           320,       85.2218,       147.955,            0.,NA,NA,"",   1.20710E+06,   1.24854E+06,   1.24854E+06
C:/temp/Job-33.odb,Step-1,Increment      1: Step Time =    1.000,"P-33-1",           321,       74.3095,       149.218,            0.,NA,NA,"",   1.24405E+06,   1.23562E+06,   1.23562E+06
C:/temp/Job-33.odb,Step-1,Increment      1: Step Time =    1.000,"P-33-1",           322,       62.0824,       147.041,            0.,NA,NA,"",   1.22369E+06,   1.19116E+06,   1.19116E+06
C:/temp/Job-33.odb,Step-1,Increment      1: Step Time =    1.000,"P-33-1",           323,       52.4745,       146.711,            0.,NA,NA,"",   1.15189E+06,   1.13172E+06,   1.13172E+06
C:/temp/Job-33.odb,Step-1,Increment      1: Step Time =    1.000,"P-33-1",           324,       42.6401,       148.040,            0.,NA,NA,"",   1.08028E+06,   1.08563E+06,   1.08563E+06
C:/temp/Job-33.odb,Step-1,Increment      1: Step Time =    1.000,"P-33-1",           325,       31.7091,       149.411,            0.,NA,NA,"",   1.01690E+06,   1.05193E+06,   1.05193E+06
C:/temp/Job-33.odb,Step-1,Increment      1: Step Time =    1.000,"P-33-1",           326,       20.3543,       145.313,            0.,NA,NA,"",   917.057E+03,   985.758E+03,   985.758E+03
C:/temp/Job-33.odb,Step-1,Increment      1: Step Time =    1.000,"P-33-1",           327,       10.6636,       146.222,            0.,NA,NA,"",   873.184E+03,   962.641E+03,   962.641E+03
C:/temp/Job-33.odb,Step-1,Increment      1: Step Time =    1.000,"P-33-1",           328,       190.530,       159.598,            0.,NA,NA,"",   994.964E+03,   1.00729E+06,   1.00729E+06
C:/temp/Job-33.odb,Step-1,Increment      1: Step Time =    1.000,"P-33-1",           329,       177.327,       156.892,            0.,NA,NA,"",   1.03035E+06,   1.03213E+06,   1.03213E+06
C:/temp/Job-33.odb,Step-1,Increment      1: Step Time =    1.000,"P-33-1",           330,       167.731,       158.884,            0.,NA,NA,"",   1.06701E+06,   1.05550E+06,   1.05550E+06
C:/temp/Job-33.odb,Step-1,Increment      1: Step Time =    1.000,"P-33-1",           331,       158.318,       158.068,            0.,NA,NA,"",   1.10674E+06,   1.08290E+06,   1.08290E+06
C:/temp/Job-33.odb,Step-1,Increment      1: Step Time =    1.000,"P-33-1",           332,       147.662,       157.592,            0.,NA,NA,"",   1.15167E+06,   1.11844E+06,   1.11844E+06
C:/temp/Job-33.odb,Step-1,Increment      1: Step Time =    1.000,"P-33-1",           333,       134.667,       157.566,            0.,NA,NA,"",   1.18007E+06,   1.15441E+06,   1.15441E+06
C:/temp/Job-33.odb,Step-1,Increment      1: Step Time =    1.000,"P-33-1",           334,       128.873,       158.134,            0.,NA,NA,"",   1.16963E+06,   1.15791E+06,   1.15791E+06
C:/temp/Job-33.odb,Step-1,Increment      1: Step Time =    1.000,"P-33-1",           335,       116.748,       155.517,            0.,NA,NA,"",   1.14158E+06,   1.17099E+06,   1.17099E+06
C:/temp/Job-33.odb,Step-1,Increment      1: Step Time =    1.000,"P-33-1",           336,       103.723,       157.882,            0.,NA,NA,"",   1.07604E+06,   1.13473E+06,   1.13473E+06
C:/temp/Job-33.odb,Step-1,Increment      1: Step Time =    1.000,"P-33-1",           337,       94.5462,       157.773,            0.,NA,NA,"",   1.08827E+06,   1.14443E+06,   1.14443E+06
C:/temp/Job-33.odb,Step-1,Increment      1: Step Time =    1.000,"P-33-1",           338,       86.2541,       157.323,            0.,NA,NA,"",   1.12821E+06,   1.16542E+06,   1.16542E+06
C:/temp/Job-33.odb,Step-1,Increment      1: Step Time =    1.000,"P-33-1",           339,       74.1337,       156.508,            0.,NA,NA,"",   1.19068E+06,   1.18866E+06,   1.18866E+06
C:/temp/Job-33.odb,Step-1,Increment      1: Step Time =    1.000,"P-33-1",           340,       62.8366,       158.466,            0.,NA,NA,"",   1.18661E+06,   1.16997E+06,   1.16997E+06
C:/temp/Job-33.odb,Step-1,Increment      1: Step Time =    1.000,"P-33-1",           341,       51.6513,       158.456,            0.,NA,NA,"",   1.15763E+06,   1.14573E+06,   1.14573E+06
C:/temp/Job-33.odb,Step-1,Increment      1: Step Time =    1.000,"P-33-1",           342,       42.2564,       159.830,            0.,NA,NA,"",   1.12112E+06,   1.12485E+06,   1.12485E+06
C:/temp/Job-33.odb,Step-1,Increment      1: Step Time =    1.000,"P-33-1",           343,       33.7671,       157.602,            0.,NA,NA,"",   1.07188E+06,   1.09640E+06,   1.09640E+06
C:/temp/Job-33.odb,Step-1,Increment      1: Step Time =    1.000,"P-33-1",           344,       21.1465,       155.045,            0.,NA,NA,"",   986.137E+03,   1.04773E+06,   1.04773E+06
C:/temp/Job-33.odb,Step-1,Increment      1: Step Time =    1.000,"P-33-1",           345,       8.52646,       159.795,            0.,NA,NA,"",   939.366E+03,   1.03383E+06,   1.03383E+06
C:/temp/Job-33.odb,Step-1,Increment      1: Step Time =    1.000,"P-33-1",           346,       189.872,       169.435,            0.,NA,NA,"",   1.00050E+06,   1.00590E+06,   1.00590E+06
C:/temp/Job-33.odb,Step-1,Increment      1: Step Time =    1.000,"P-33-1",           347,       179.450,       168.184,            0.,NA,NA,"",   1.01935E+06,   1.02060E+06,   1.02060E+06
C:/temp/Job-33.odb,Step-1,Increment      1: Step Time =    1.000,"P-33-1",           348,       167.123,       166.998,            0.,NA,NA,"",   1.05272E+06,   1.04400E+06,   1.04400E+06
C:/temp/Job-33.odb,Step-1,Increment      1: Step Time =    1.000,"P-33-1",           349,       155.988,       166.251,            0.,NA,NA,"",   1.08748E+06,   1.06936E+06,   1.06936E+06
C:/temp/Job-33.odb,Step-1,Increment      1: Step Time =    1.000,"P-33-1",           350,       145.682,       168.884,            0.,NA,NA,"",   1.09978E+06,   1.08105E+06,   1.08105E+06
C:/temp/Job-33.odb,Step-1,Increment      1: Step Time =    1.000,"P-33-1",           351,       137.432,       169.880,            0.,NA,NA,"",   1.09695E+06,   1.08369E+06,   1.08369E+06
C:/temp/Job-33.odb,Step-1,Increment      1: Step Time =    1.000,"P-33-1",           352,       122.895,       169.336,            0.,NA,NA,"",   1.07592E+06,   1.08363E+06,   1.08363E+06
C:/temp/Job-33.odb,Step-1,Increment      1: Step Time =    1.000,"P-33-1",           353,       113.583,       166.917,            0.,NA,NA,"",   1.06160E+06,   1.08823E+06,   1.08823E+06
C:/temp/Job-33.odb,Step-1,Increment      1: Step Time =    1.000,"P-33-1",           354,       104.808,       170.945,            0.,NA,NA,"",   1.02944E+06,   1.05953E+06,   1.05953E+06
C:/temp/Job-33.odb,Step-1,Increment      1: Step Time =    1.000,"P-33-1",           355,       94.5043,       169.060,            0.,NA,NA,"",   1.04530E+06,   1.07820E+06,   1.07820E+06
C:/temp/Job-33.odb,Step-1,Increment      1: Step Time =    1.000,"P-33-1",           356,       83.9409,       168.893,            0.,NA,NA,"",   1.08184E+06,   1.10079E+06,   1.10079E+06
C:/temp/Job-33.odb,Step-1,Increment      1: Step Time =    1.000,"P-33-1",           357,       72.9228,       169.570,            0.,NA,NA,"",   1.12002E+06,   1.12095E+06,   1.12095E+06
C:/temp/Job-33.odb,Step-1,Increment      1: Step Time =    1.000,"P-33-1",           358,       64.5948,       169.466,            0.,NA,NA,"",   1.14144E+06,   1.13304E+06,   1.13304E+06
C:/temp/Job-33.odb,Step-1,Increment      1: Step Time =    1.000,"P-33-1",           359,       54.9245,       167.862,            0.,NA,NA,"",   1.15156E+06,   1.14117E+06,   1.14117E+06
C:/temp/Job-33.odb,Step-1,Increment      1: Step Time =    1.000,"P-33-1",           360,       40.8138,       166.900,            0.,NA,NA,"",   1.13090E+06,   1.13555E+06,   1.13555E+06
C:/temp/Job-33.odb,Step-1,Increment      1: Step Time =    1.000,"P-33-1",           361,       29.9486,       169.167,            0.,NA,NA,"",   1.10828E+06,   1.13434E+06,   1.13434E+06
C:/temp/Job-33.odb,Step-1,Increment      1: Step Time =    1.000,"P-33-1",           362,       18.5055,       164.523,            0.,NA,NA,"",   1.03103E+06,   1.09448E+06,   1.09448E+06
C:/temp/Job-33.odb,Step-1,Increment      1: Step Time =    1.000,"P-33-1",           363,       9.53802,       169.252,            0.,NA,NA,"",   1.00944E+06,   1.09906E+06,   1.09906E+06
C:/temp/Job-33.odb,Step-1,Increment      1: Step Time =    1.000,"P-33-1",           364,       189.491,       179.527,            0.,NA,NA,"",   1.00189E+06,   1.00372E+06,   1.00372E+06
C:/temp/Job-33.odb,Step-1,Increment      1: Step Time =    1.000,"P-33-1",           365,       178.028,       179.387,            0.,NA,NA,"",   1.01302E+06,   1.01274E+06,   1.01274E+06
C:/temp/Job-33.odb,Step-1,Increment      1: Step Time =    1.000,"P-33-1",           366,       165.965,       181.004,            0.,NA,NA,"",   1.02539E+06,   1.02122E+06,   1.02122E+06
C:/temp/Job-33.odb,Step-1,Increment      1: Step Time =    1.000,"P-33-1",           367,       157.948,       176.986,            0.,NA,NA,"",   1.04772E+06,   1.03846E+06,   1.03846E+06
C:/temp/Job-33.odb,Step-1,Increment      1: Step Time =    1.000,"P-33-1",           368,       146.477,       179.465,            0.,NA,NA,"",   1.04420E+06,   1.03548E+06,   1.03548E+06
C:/temp/Job-33.odb,Step-1,Increment      1: Step Time =    1.000,"P-33-1",           369,       136.564,       179.070,            0.,NA,NA,"",   1.04435E+06,   1.03801E+06,   1.03801E+06
C:/temp/Job-33.odb,Step-1,Increment      1: Step Time =    1.000,"P-33-1",           370,       124.230,       179.620,            0.,NA,NA,"",   1.02302E+06,   1.02623E+06,   1.02623E+06
C:/temp/Job-33.odb,Step-1,Increment      1: Step Time =    1.000,"P-33-1",           371,       114.244,       180.411,            0.,NA,NA,"",   1.00013E+06,   1.01094E+06,   1.01094E+06
C:/temp/Job-33.odb,Step-1,Increment      1: Step Time =    1.000,"P-33-1",           372,       104.462,       180.156,            0.,NA,NA,"",   993.038E+03,   1.00923E+06,   1.00923E+06
C:/temp/Job-33.odb,Step-1,Increment      1: Step Time =    1.000,"P-33-1",           373,       94.5235,       179.677,            0.,NA,NA,"",   1.00392E+06,   1.02001E+06,   1.02001E+06
C:/temp/Job-33.odb,Step-1,Increment      1: Step Time =    1.000,"P-33-1",           374,       84.2370,       179.529,            0.,NA,NA,"",   1.03113E+06,   1.04099E+06,   1.04099E+06
C:/temp/Job-33.odb,Step-1,Increment      1: Step Time =    1.000,"P-33-1",           375,       74.0338,       179.792,            0.,NA,NA,"",   1.06315E+06,   1.06471E+06,   1.06471E+06
C:/temp/Job-33.odb,Step-1,Increment      1: Step Time =    1.000,"P-33-1",           376,       64.2347,       180.385,            0.,NA,NA,"",   1.08946E+06,   1.08536E+06,   1.08536E+06
C:/temp/Job-33.odb,Step-1,Increment      1: Step Time =    1.000,"P-33-1",           377,       55.6014,       181.156,            0.,NA,NA,"",   1.10735E+06,   1.10207E+06,   1.10207E+06
C:/temp/Job-33.odb,Step-1,Increment      1: Step Time =    1.000,"P-33-1",           378,       40.1549,       175.376,            0.,NA,NA,"",   1.13796E+06,   1.14069E+06,   1.14069E+06
C:/temp/Job-33.odb,Step-1,Increment      1: Step Time =    1.000,"P-33-1",           379,       31.3996,       180.235,            0.,NA,NA,"",   1.15046E+06,   1.16151E+06,   1.16151E+06
C:/temp/Job-33.odb,Step-1,Increment      1: Step Time =    1.000,"P-33-1",           380,       23.8954,       178.822,            0.,NA,NA,"",   1.14521E+06,   1.17288E+06,   1.17288E+06
C:/temp/Job-33.odb,Step-1,Increment      1: Step Time =    1.000,"P-33-1",           381,       9.86324,       179.492,            0.,NA,NA,"",   1.10726E+06,   1.18667E+06,   1.18667E+06
C:/temp/Job-33.odb,Step-1,Increment      1: Step Time =    1.000,"P-33-1",           382,       189.758,       189.874,            0.,NA,NA,"",   1.00081E+06,   1.00118E+06,   1.00118E+06
C:/temp/Job-33.odb,Step-1,Increment      1: Step Time =    1.000,"P-33-1",           383,       175.220,       190.623,            0.,NA,NA,"",   1.00476E+06,   1.00448E+06,   1.00448E+06
C:/temp/Job-33.odb,Step-1,Increment      1: Step Time =    1.000,"P-33-1",           384,       165.928,       190.896,            0.,NA,NA,"",   1.00635E+06,   1.00522E+06,   1.00522E+06
C:/temp/Job-33.odb,Step-1,Increment      1: Step Time =    1.000,"P-33-1",           385,       156.968,       190.313,            0.,NA,NA,"",   1.00628E+06,   1.00417E+06,   1.00417E+06
C:/temp/Job-33.odb,Step-1,Increment      1: Step Time =    1.000,"P-33-1",           386,       149.386,       187.813,            0.,NA,NA,"",   1.01066E+06,   1.00702E+06,   1.00702E+06
C:/temp/Job-33.odb,Step-1,Increment      1: Step Time =    1.000,"P-33-1",           387,       134.148,       189.185,            0.,NA,NA,"",   986.996E+03,   985.511E+03,   985.511E+03
C:/temp/Job-33.odb,Step-1,Increment      1: Step Time =    1.000,"P-33-1",           388,       124.509,       189.993,            0.,NA,NA,"",   963.807E+03,   964.863E+03,   964.863E+03
C:/temp/Job-33.odb,Step-1,Increment      1: Step Time =    1.000,"P-33-1",           389,       114.730,       190.087,            0.,NA,NA,"",   946.443E+03,   949.859E+03,   949.859E+03
C:/temp/Job-33.odb,Step-1,Increment      1: Step Time =    1.000,"P-33-1",           390,       104.753,       190.016,            0.,NA,NA,"",   939.569E+03,   944.604E+03,   944.604E+03
C:/temp/Job-33.odb,Step-1,Increment      1: Step Time =    1.000,"P-33-1",           391,       94.7491,       189.911,            0.,NA,NA,"",   948.189E+03,   953.106E+03,   953.106E+03
C:/temp/Job-33.odb,Step-1,Increment      1: Step Time =    1.000,"P-33-1",           392,       84.6943,       189.898,            0.,NA,NA,"",   971.496E+03,   974.501E+03,   974.501E+03
C:/temp/Job-33.odb,Step-1,Increment      1: Step Time =    1.000,"P-33-1",           393,       74.6800,       190.076,            0.,NA,NA,"",   1.00339E+06,   1.00382E+06,   1.00382E+06
C:/temp/Job-33.odb,Step-1,Increment      1: Step Time =    1.000,"P-33-1",           394,       64.8943,       190.469,            0.,NA,NA,"",   1.03676E+06,   1.03541E+06,   1.03541E+06
C:/temp/Job-33.odb,Step-1,Increment      1: Step Time =    1.000,"P-33-1",           395,       51.2348,       186.013,            0.,NA,NA,"",   1.10053E+06,   1.09738E+06,   1.09738E+06
C:/temp/Job-33.odb,Step-1,Increment      1: Step Time =    1.000,"P-33-1",           396,       40.9602,       189.202,            0.,NA,NA,"",   1.11961E+06,   1.11988E+06,   1.11988E+06
C:/temp/Job-33.odb,Step-1,Increment      1: Step Time =    1.000,"P-33-1",           397,       30.5703,       189.834,            0.,NA,NA,"",   1.15542E+06,   1.15934E+06,   1.15934E+06
C:/temp/Job-33.odb,Step-1,Increment      1: Step Time =    1.000,"P-33-1",           398,       20.4842,       189.278,            0.,NA,NA,"",   1.20590E+06,   1.22063E+06,   1.22063E+06
C:/temp/Job-33.odb,Step-1,Increment      1: Step Time =    1.000,"P-33-1",           399,       10.1806,       189.659,            0.,NA,NA,"",   1.28069E+06,   1.32595E+06,   1.32595E+06
C:/temp/Job-33.odb,Step-1,Increment      1: Step Time =    1.000,"P-33-1",           400,       94.9744,       120.390,            0.,NA,NA,"",   2.32710E+06,   2.40908E+06,   2.40908E+06
C:/temp/Job-33.odb,Step-1,Increment      1: Step Time =    1.000,"P-33-1",           401,       86.0744,       115.719,            0.,NA,NA,"",   1.22279E+06,   1.22406E+06,   1.22406E+06
C:/temp/Job-33.odb,Step-1,Increment      1: Step Time =    1.000,"P-33-1",           402,       80.3647,       107.447,            0.,NA,NA,"",   422.488E+03,  -345.707E+03,  -345.707E+03
C:/temp/Job-33.odb,Step-1,Increment      1: Step Time =    1.000,"P-33-1",           403,       80.3647,       92.5533,            0.,NA,NA,"",   419.209E+03,  -347.801E+03,  -347.801E+03
C:/temp/Job-33.odb,Step-1,Increment      1: Step Time =    1.000,"P-33-1",           404,       86.0744,       84.2813,            0.,NA,NA,"",   1.22587E+06,   1.22755E+06,   1.22755E+06
C:/temp/Job-33.odb,Step-1,Increment      1: Step Time =    1.000,"P-33-1",           405,       94.9744,       79.6102,            0.,NA,NA,"",   2.30268E+06,   2.40204E+06,   2.40204E+06
C:/temp/Job-33.odb,Step-1,Increment      1: Step Time =    1.000,"P-33-1",           406,       105.026,       79.6102,            0.,NA,NA,"",   2.37931E+06,   2.46502E+06,   2.46502E+06
C:/temp/Job-33.odb,Step-1,Increment      1: Step Time =    1.000,"P-33-1",           407,       113.926,       84.2813,            0.,NA,NA,"",   1.28555E+06,   1.28164E+06,   1.28164E+06
C:/temp/Job-33.odb,Step-1,Increment      1: Step Time =    1.000,"P-33-1",           408,       119.635,       92.5533,            0.,NA,NA,"",   488.007E+03,  -407.522E+03,  -407.522E+03
C:/temp/Job-33.odb,Step-1,Increment      1: Step Time =    1.000,"P-33-1",           409,       119.635,       107.447,            0.,NA,NA,"",   484.039E+03,  -406.608E+03,  -406.608E+03
C:/temp/Job-33.odb,Step-1,Increment      1: Step Time =    1.000,"P-33-1",           410,       113.926,       115.719,            0.,NA,NA,"",   1.29968E+06,   1.29957E+06,   1.29957E+06
C:/temp/Job-33.odb,Step-1,Increment      1: Step Time =    1.000,"P-33-1",           411,       105.026,       120.390,            0.,NA,NA,"",   2.35267E+06,   2.45335E+06,   2.45335E+06
C:/temp/Job-33.odb,Step-1,Increment      1: Step Time =    1.000,"P-33-1",           412,          195.,            0.,            0.,NA,NA,"",   999.673E+03,   999.641E+03,   999.641E+03
C:/temp/Job-33.odb,Step-1,Increment      1: Step Time =    1.000,"P-33-1",           413,          185.,            0.,            0.,NA,NA,"",   998.986E+03,   999.030E+03,   999.030E+03
C:/temp/Job-33.odb,Step-1,Increment      1: Step Time =    1.000,"P-33-1",           414,          175.,            0.,            0.,NA,NA,"",   999.287E+03,   999.239E+03,   999.239E+03
C:/temp/Job-33.odb,Step-1,Increment      1: Step Time =    1.000,"P-33-1",           415,          165.,            0.,            0.,NA,NA,"",   998.087E+03,   997.923E+03,   997.923E+03
C:/temp/Job-33.odb,Step-1,Increment      1: Step Time =    1.000,"P-33-1",           416,          155.,            0.,            0.,NA,NA,"",   991.048E+03,   990.796E+03,   990.796E+03
C:/temp/Job-33.odb,Step-1,Increment      1: Step Time =    1.000,"P-33-1",           417,          145.,            0.,            0.,NA,NA,"",   974.394E+03,   974.142E+03,   974.142E+03
C:/temp/Job-33.odb,Step-1,Increment      1: Step Time =    1.000,"P-33-1",           418,          135.,            0.,            0.,NA,NA,"",   948.657E+03,   948.501E+03,   948.501E+03
C:/temp/Job-33.odb,Step-1,Increment      1: Step Time =    1.000,"P-33-1",           419,          125.,            0.,            0.,NA,NA,"",   918.888E+03,   918.947E+03,   918.947E+03
C:/temp/Job-33.odb,Step-1,Increment      1: Step Time =    1.000,"P-33-1",           420,          115.,            0.,            0.,NA,NA,"",   892.829E+03,   893.232E+03,   893.232E+03
C:/temp/Job-33.odb,Step-1,Increment      1: Step Time =    1.000,"P-33-1",           421,          105.,            0.,            0.,NA,NA,"",   880.254E+03,   880.858E+03,   880.858E+03
C:/temp/Job-33.odb,Step-1,Increment      1: Step Time =    1.000,"P-33-1",           422,           95.,            0.,            0.,NA,NA,"",   887.175E+03,   887.734E+03,   887.734E+03
C:/temp/Job-33.odb,Step-1,Increment      1: Step Time =    1.000,"P-33-1",           423,           85.,            0.,            0.,NA,NA,"",   913.034E+03,   913.404E+03,   913.404E+03
C:/temp/Job-33.odb,Step-1,Increment      1: Step Time =    1.000,"P-33-1",           424,           75.,            0.,            0.,NA,NA,"",   952.876E+03,   953.057E+03,   953.057E+03
C:/temp/Job-33.odb,Step-1,Increment      1: Step Time =    1.000,"P-33-1",           425,           65.,            0.,            0.,NA,NA,"",   999.613E+03,   999.915E+03,   999.915E+03
C:/temp/Job-33.odb,Step-1,Increment      1: Step Time =    1.000,"P-33-1",           426,           55.,            0.,            0.,NA,NA,"",   1.04553E+06,   1.04492E+06,   1.04492E+06
C:/temp/Job-33.odb,Step-1,Increment      1: Step Time =    1.000,"P-33-1",           427,           45.,            0.,            0.,NA,NA,"",   1.08221E+06,   1.08202E+06,   1.08202E+06
C:/temp/Job-33.odb,Step-1,Increment      1: Step Time =    1.000,"P-33-1",           428,           35.,            0.,            0.,NA,NA,"",   1.11497E+06,   1.11546E+06,   1.11546E+06
C:/temp/Job-33.odb,Step-1,Increment      1: Step Time =    1.000,"P-33-1",           429,           25.,            0.,            0.,NA,NA,"",   1.15908E+06,   1.16074E+06,   1.16074E+06
C:/temp/Job-33.odb,Step-1,Increment      1: Step Time =    1.000,"P-33-1",           430,           15.,            0.,            0.,NA,NA,"",   1.24114E+06,   1.24710E+06,   1.24710E+06
C:/temp/Job-33.odb,Step-1,Increment      1: Step Time =    1.000,"P-33-1",           431,            5.,            0.,            0.,NA,NA,"",   1.54433E+06,   1.57988E+06,   1.57988E+06
C:/temp/Job-33.odb,Step-1,Increment      1: Step Time =    1.000,"P-33-1",           432,          200.,          195.,            0.,NA,NA,"",   1.00012E+06,   999.942E+03,   999.942E+03
C:/temp/Job-33.odb,Step-1,Increment      1: Step Time =    1.000,"P-33-1",           433,          200.,          185.,            0.,NA,NA,"",   1.00060E+06,   1.00030E+06,   1.00030E+06
C:/temp/Job-33.odb,Step-1,Increment      1: Step Time =    1.000,"P-33-1",           434,          200.,          175.,            0.,NA,NA,"",   998.954E+03,   1.00054E+06,   1.00054E+06
C:/temp/Job-33.odb,Step-1,Increment      1: Step Time =    1.000,"P-33-1",           435,          200.,          165.,            0.,NA,NA,"",   993.163E+03,   1.00072E+06,   1.00072E+06
C:/temp/Job-33.odb,Step-1,Increment      1: Step Time =    1.000,"P-33-1",           436,          200.,          155.,            0.,NA,NA,"",   981.385E+03,   1.00089E+06,   1.00089E+06
C:/temp/Job-33.odb,Step-1,Increment      1: Step Time =    1.000,"P-33-1",           437,          200.,          145.,            0.,NA,NA,"",   963.536E+03,   1.00093E+06,   1.00093E+06
C:/temp/Job-33.odb,Step-1,Increment      1: Step Time =    1.000,"P-33-1",           438,          200.,          135.,            0.,NA,NA,"",   941.988E+03,   1.00058E+06,   1.00058E+06
C:/temp/Job-33.odb,Step-1,Increment      1: Step Time =    1.000,"P-33-1",           439,          200.,          125.,            0.,NA,NA,"",   920.933E+03,   999.829E+03,   999.829E+03
C:/temp/Job-33.odb,Step-1,Increment      1: Step Time =    1.000,"P-33-1",           440,          200.,          115.,            0.,NA,NA,"",   904.677E+03,   998.840E+03,   998.840E+03
C:/temp/Job-33.odb,Step-1,Increment      1: Step Time =    1.000,"P-33-1",           441,          200.,          105.,            0.,NA,NA,"",   896.070E+03,   998.172E+03,   998.172E+03
C:/temp/Job-33.odb,Step-1,Increment      1: Step Time =    1.000,"P-33-1",           442,          200.,           95.,            0.,NA,NA,"",   896.008E+03,   998.319E+03,   998.319E+03
C:/temp/Job-33.odb,Step-1,Increment      1: Step Time =    1.000,"P-33-1",           443,          200.,           85.,            0.,NA,NA,"",   904.198E+03,   998.899E+03,   998.899E+03
C:/temp/Job-33.odb,Step-1,Increment      1: Step Time =    1.000,"P-33-1",           444,          200.,           75.,            0.,NA,NA,"",   920.068E+03,   999.470E+03,   999.470E+03
C:/temp/Job-33.odb,Step-1,Increment      1: Step Time =    1.000,"P-33-1",           445,          200.,           65.,            0.,NA,NA,"",   941.224E+03,   999.649E+03,   999.649E+03
C:/temp/Job-33.odb,Step-1,Increment      1: Step Time =    1.000,"P-33-1",           446,          200.,           55.,            0.,NA,NA,"",   965.516E+03,   1.00235E+06,   1.00235E+06
C:/temp/Job-33.odb,Step-1,Increment      1: Step Time =    1.000,"P-33-1",           447,          200.,           45.,            0.,NA,NA,"",   982.423E+03,   1.00136E+06,   1.00136E+06
C:/temp/Job-33.odb,Step-1,Increment      1: Step Time =    1.000,"P-33-1",           448,          200.,           35.,            0.,NA,NA,"",   993.374E+03,   1.00066E+06,   1.00066E+06
C:/temp/Job-33.odb,Step-1,Increment      1: Step Time =    1.000,"P-33-1",           449,          200.,           25.,            0.,NA,NA,"",   999.056E+03,   1.00045E+06,   1.00045E+06
C:/temp/Job-33.odb,Step-1,Increment      1: Step Time =    1.000,"P-33-1",           450,          200.,           15.,            0.,NA,NA,"",   1.00059E+06,   1.00023E+06,   1.00023E+06
C:/temp/Job-33.odb,Step-1,Increment      1: Step Time =    1.000,"P-33-1",           451,          200.,            5.,            0.,NA,NA,"",   1.00012E+06,   999.940E+03,   999.940E+03
C:/temp/Job-33.odb,Step-1,Increment      1: Step Time =    1.000,"P-33-1",           452,            5.,          200.,            0.,NA,NA,"",   1.54236E+06,   1.57817E+06,   1.57817E+06
C:/temp/Job-33.odb,Step-1,Increment      1: Step Time =    1.000,"P-33-1",           453,           15.,          200.,            0.,NA,NA,"",   1.24280E+06,   1.24860E+06,   1.24860E+06
C:/temp/Job-33.odb,Step-1,Increment      1: Step Time =    1.000,"P-33-1",           454,           25.,          200.,            0.,NA,NA,"",   1.15920E+06,   1.16084E+06,   1.16084E+06
C:/temp/Job-33.odb,Step-1,Increment      1: Step Time =    1.000,"P-33-1",           455,           35.,          200.,            0.,NA,NA,"",   1.11512E+06,   1.11561E+06,   1.11561E+06
C:/temp/Job-33.odb,Step-1,Increment      1: Step Time =    1.000,"P-33-1",           456,           45.,          200.,            0.,NA,NA,"",   1.08086E+06,   1.08091E+06,   1.08091E+06
C:/temp/Job-33.odb,Step-1,Increment      1: Step Time =    1.000,"P-33-1",           457,           55.,          200.,            0.,NA,NA,"",   1.04283E+06,   1.04278E+06,   1.04278E+06
C:/temp/Job-33.odb,Step-1,Increment      1: Step Time =    1.000,"P-33-1",           458,           65.,          200.,            0.,NA,NA,"",   999.944E+03,   999.834E+03,   999.834E+03
C:/temp/Job-33.odb,Step-1,Increment      1: Step Time =    1.000,"P-33-1",           459,           75.,          200.,            0.,NA,NA,"",   955.082E+03,   955.160E+03,   955.160E+03
C:/temp/Job-33.odb,Step-1,Increment      1: Step Time =    1.000,"P-33-1",           460,           85.,          200.,            0.,NA,NA,"",   915.248E+03,   915.625E+03,   915.625E+03
C:/temp/Job-33.odb,Step-1,Increment      1: Step Time =    1.000,"P-33-1",           461,           95.,          200.,            0.,NA,NA,"",   888.639E+03,   889.233E+03,   889.233E+03
C:/temp/Job-33.odb,Step-1,Increment      1: Step Time =    1.000,"P-33-1",           462,          105.,          200.,            0.,NA,NA,"",   881.042E+03,   881.659E+03,   881.659E+03
C:/temp/Job-33.odb,Step-1,Increment      1: Step Time =    1.000,"P-33-1",           463,          115.,          200.,            0.,NA,NA,"",   892.975E+03,   893.411E+03,   893.411E+03
C:/temp/Job-33.odb,Step-1,Increment      1: Step Time =    1.000,"P-33-1",           464,          125.,          200.,            0.,NA,NA,"",   918.772E+03,   919.008E+03,   919.008E+03
C:/temp/Job-33.odb,Step-1,Increment      1: Step Time =    1.000,"P-33-1",           465,          135.,          200.,            0.,NA,NA,"",   950.099E+03,   950.115E+03,   950.115E+03
C:/temp/Job-33.odb,Step-1,Increment      1: Step Time =    1.000,"P-33-1",           466,          145.,          200.,            0.,NA,NA,"",   977.203E+03,   976.325E+03,   976.325E+03
C:/temp/Job-33.odb,Step-1,Increment      1: Step Time =    1.000,"P-33-1",           467,          155.,          200.,            0.,NA,NA,"",   992.089E+03,   991.806E+03,   991.806E+03
C:/temp/Job-33.odb,Step-1,Increment      1: Step Time =    1.000,"P-33-1",           468,          165.,          200.,            0.,NA,NA,"",   998.186E+03,   998.054E+03,   998.054E+03
C:/temp/Job-33.odb,Step-1,Increment      1: Step Time =    1.000,"P-33-1",           469,          175.,          200.,            0.,NA,NA,"",   999.146E+03,   999.118E+03,   999.118E+03
C:/temp/Job-33.odb,Step-1,Increment      1: Step Time =    1.000,"P-33-1",           470,          185.,          200.,            0.,NA,NA,"",   998.880E+03,   998.921E+03,   998.921E+03
C:/temp/Job-33.odb,Step-1,Increment      1: Step Time =    1.000,"P-33-1",           471,          195.,          200.,            0.,NA,NA,"",   999.662E+03,   999.630E+03,   999.630E+03
C:/temp/Job-33.odb,Step-1,Increment      1: Step Time =    1.000,"P-33-1",           472,            0.,            5.,            0.,NA,NA,"",   1.48209E+06,   1.57729E+06,   1.57729E+06
C:/temp/Job-33.odb,Step-1,Increment      1: Step Time =    1.000,"P-33-1",           473,            0.,           15.,            0.,NA,NA,"",   1.12057E+06,   1.23192E+06,   1.23192E+06
C:/temp/Job-33.odb,Step-1,Increment      1: Step Time =    1.000,"P-33-1",           474,            0.,           25.,            0.,NA,NA,"",   1.00758E+06,   1.11844E+06,   1.11844E+06
C:/temp/Job-33.odb,Step-1,Increment      1: Step Time =    1.000,"P-33-1",           475,            0.,           35.,            0.,NA,NA,"",    934.89E+03,   1.04372E+06,   1.04372E+06
C:/temp/Job-33.odb,Step-1,Increment      1: Step Time =    1.000,"P-33-1",           476,            0.,           45.,            0.,NA,NA,"",   880.076E+03,   985.986E+03,   985.986E+03
C:/temp/Job-33.odb,Step-1,Increment      1: Step Time =    1.000,"P-33-1",           477,            0.,           55.,            0.,NA,NA,"",   828.075E+03,   930.938E+03,   930.938E+03
C:/temp/Job-33.odb,Step-1,Increment      1: Step Time =    1.000,"P-33-1",           478,            0.,           65.,            0.,NA,NA,"",   779.027E+03,   877.954E+03,   877.954E+03
C:/temp/Job-33.odb,Step-1,Increment      1: Step Time =    1.000,"P-33-1",           479,            0.,           75.,            0.,NA,NA,"",   736.946E+03,   831.762E+03,   831.762E+03
C:/temp/Job-33.odb,Step-1,Increment      1: Step Time =    1.000,"P-33-1",           480,            0.,           85.,            0.,NA,NA,"",   704.098E+03,   795.671E+03,   795.671E+03
C:/temp/Job-33.odb,Step-1,Increment      1: Step Time =    1.000,"P-33-1",           481,            0.,           95.,            0.,NA,NA,"",   685.047E+03,   774.834E+03,   774.834E+03
C:/temp/Job-33.odb,Step-1,Increment      1: Step Time =    1.000,"P-33-1",           482,            0.,          105.,            0.,NA,NA,"",   685.154E+03,   774.944E+03,   774.944E+03
C:/temp/Job-33.odb,Step-1,Increment      1: Step Time =    1.000,"P-33-1",           483,            0.,          115.,            0.,NA,NA,"",   704.643E+03,   796.169E+03,   796.169E+03
C:/temp/Job-33.odb,Step-1,Increment      1: Step Time =    1.000,"P-33-1",           484,            0.,          125.,            0.,NA,NA,"",   739.138E+03,   833.880E+03,   833.880E+03
C:/temp/Job-33.odb,Step-1,Increment      1: Step Time =    1.000,"P-33-1",           485,            0.,          135.,            0.,NA,NA,"",   782.783E+03,   881.556E+03,   881.556E+03
C:/temp/Job-33.odb,Step-1,Increment      1: Step Time =    1.000,"P-33-1",           486,            0.,          145.,            0.,NA,NA,"",   828.452E+03,   931.573E+03,   931.573E+03
C:/temp/Job-33.odb,Step-1,Increment      1: Step Time =    1.000,"P-33-1",           487,            0.,          155.,            0.,NA,NA,"",   878.146E+03,   985.399E+03,   985.399E+03
C:/temp/Job-33.odb,Step-1,Increment      1: Step Time =    1.000,"P-33-1",           488,            0.,          165.,            0.,NA,NA,"",   932.816E+03,   1.04304E+06,   1.04304E+06
C:/temp/Job-33.odb,Step-1,Increment      1: Step Time =    1.000,"P-33-1",           489,            0.,          175.,            0.,NA,NA,"",   1.00377E+06,   1.11554E+06,   1.11554E+06
C:/temp/Job-33.odb,Step-1,Increment      1: Step Time =    1.000,"P-33-1",           490,            0.,          185.,            0.,NA,NA,"",   1.11959E+06,   1.23132E+06,   1.23132E+06
C:/temp/Job-33.odb,Step-1,Increment      1: Step Time =    1.000,"P-33-1",           491,            0.,          195.,            0.,NA,NA,"",   1.47880E+06,   1.57341E+06,   1.57341E+06
C:/temp/Job-33.odb,Step-1,Increment      1: Step Time =    1.000,"P-33-1",           492,       45.3746,       195.104,            0.,NA,NA,"",   1.08779E+06,   1.08737E+06,   1.08737E+06
C:/temp/Job-33.odb,Step-1,Increment      1: Step Time =    1.000,"P-33-1",           493,       35.3565,       194.834,            0.,NA,NA,"",   1.12368E+06,   1.12411E+06,   1.12411E+06
C:/temp/Job-33.odb,Step-1,Increment      1: Step Time =    1.000,"P-33-1",           494,       25.2388,       194.779,            0.,NA,NA,"",   1.16918E+06,   1.17223E+06,   1.17223E+06
C:/temp/Job-33.odb,Step-1,Increment      1: Step Time =    1.000,"P-33-1",           495,       25.1397,       5.03522,            0.,NA,NA,"",   1.16868E+06,   1.17159E+06,   1.17159E+06
C:/temp/Job-33.odb,Step-1,Increment      1: Step Time =    1.000,"P-33-1",           496,       34.9285,       4.63374,            0.,NA,NA,"",   1.12295E+06,   1.12359E+06,   1.12359E+06
C:/temp/Job-33.odb,Step-1,Increment      1: Step Time =    1.000,"P-33-1",           497,       195.474,       34.5368,            0.,NA,NA,"",   994.057E+03,   1.00187E+06,   1.00187E+06
C:/temp/Job-33.odb,Step-1,Increment      1: Step Time =    1.000,"P-33-1",           498,       195.013,       44.1986,            0.,NA,NA,"",   984.600E+03,   1.00296E+06,   1.00296E+06
C:/temp/Job-33.odb,Step-1,Increment      1: Step Time =    1.000,"P-33-1",           499,       55.2010,       195.410,            0.,NA,NA,"",   1.05105E+06,   1.05047E+06,   1.05047E+06
C:/temp/Job-33.odb,Step-1,Increment      1: Step Time =    1.000,"P-33-1",           500,       195.344,       24.8309,            0.,NA,NA,"",    999.11E+03,   1.00134E+06,   1.00134E+06
C:/temp/Job-33.odb,Step-1,Increment      1: Step Time =    1.000,"P-33-1",           501,       105.051,       4.92843,            0.,NA,NA,"",   901.179E+03,   902.917E+03,   902.917E+03
C:/temp/Job-33.odb,Step-1,Increment      1: Step Time =    1.000,"P-33-1",           502,       95.1242,       4.91247,            0.,NA,NA,"",   908.047E+03,   909.691E+03,   909.691E+03
C:/temp/Job-33.odb,Step-1,Increment      1: Step Time =    1.000,"P-33-1",           503,       154.748,       4.57908,            0.,NA,NA,"",   995.003E+03,   994.242E+03,   994.242E+03
C:/temp/Job-33.odb,Step-1,Increment      1: Step Time =    1.000,"P-33-1",           504,       164.708,       4.86911,            0.,NA,NA,"",   1.00088E+06,   1.00037E+06,   1.00037E+06
C:/temp/Job-33.odb,Step-1,Increment      1: Step Time =    1.000,"P-33-1",           505,       174.746,       5.14263,            0.,NA,NA,"",   1.00133E+06,   1.00118E+06,   1.00118E+06
C:/temp/Job-33.odb,Step-1,Increment      1: Step Time =    1.000,"P-33-1",           506,       144.762,       4.48209,            0.,NA,NA,"",   980.756E+03,   980.005E+03,   980.005E+03
C:/temp/Job-33.odb,Step-1,Increment      1: Step Time =    1.000,"P-33-1",           507,       5.02619,       9.94652,            0.,NA,NA,"",   1.26097E+06,   1.34650E+06,   1.34650E+06
C:/temp/Job-33.odb,Step-1,Increment      1: Step Time =    1.000,"P-33-1",           508,       5.41149,       20.0663,            0.,NA,NA,"",   1.07937E+06,   1.17854E+06,   1.17854E+06
C:/temp/Job-33.odb,Step-1,Increment      1: Step Time =    1.000,"P-33-1",           509,       5.40212,       30.2725,            0.,NA,NA,"",   986.311E+03,   1.08821E+06,   1.08821E+06
C:/temp/Job-33.odb,Step-1,Increment      1: Step Time =    1.000,"P-33-1",           510,       5.41650,       45.5172,            0.,NA,NA,"",   893.199E+03,   993.498E+03,   993.498E+03
C:/temp/Job-33.odb,Step-1,Increment      1: Step Time =    1.000,"P-33-1",           511,       5.07994,       194.899,            0.,NA,NA,"",   1.44056E+06,   1.49676E+06,   1.49676E+06
C:/temp/Job-33.odb,Step-1,Increment      1: Step Time =    1.000,"P-33-1",           512,       15.0536,       5.06799,            0.,NA,NA,"",   1.25183E+06,   1.26172E+06,   1.26172E+06
C:/temp/Job-33.odb,Step-1,Increment      1: Step Time =    1.000,"P-33-1",           513,       15.1973,       194.723,            0.,NA,NA,"",   1.25099E+06,   1.26119E+06,   1.26119E+06
C:/temp/Job-33.odb,Step-1,Increment      1: Step Time =    1.000,"P-33-1",           514,       44.5795,       4.82852,            0.,NA,NA,"",   1.08959E+06,   1.08910E+06,   1.08910E+06
C:/temp/Job-33.odb,Step-1,Increment      1: Step Time =    1.000,"P-33-1",           515,       55.1368,       7.01418,            0.,NA,NA,"",   1.06088E+06,   1.05937E+06,   1.05937E+06
C:/temp/Job-33.odb,Step-1,Increment      1: Step Time =    1.000,"P-33-1",           516,       65.5893,       5.09904,            0.,NA,NA,"",   1.01037E+06,   1.01029E+06,   1.01029E+06
C:/temp/Job-33.odb,Step-1,Increment      1: Step Time =    1.000,"P-33-1",           517,       75.3879,       4.70160,            0.,NA,NA,"",   967.541E+03,   967.813E+03,   967.813E+03
C:/temp/Job-33.odb,Step-1,Increment      1: Step Time =    1.000,"P-33-1",           518,       85.2163,       4.80218,            0.,NA,NA,"",   931.609E+03,   932.635E+03,   932.635E+03
C:/temp/Job-33.odb,Step-1,Increment      1: Step Time =    1.000,"P-33-1",           519,       115.019,       4.91514,            0.,NA,NA,"",   911.735E+03,   912.883E+03,   912.883E+03
C:/temp/Job-33.odb,Step-1,Increment      1: Step Time =    1.000,"P-33-1",           520,       124.973,       4.83625,            0.,NA,NA,"",   934.064E+03,   934.232E+03,   934.232E+03
C:/temp/Job-33.odb,Step-1,Increment      1: Step Time =    1.000,"P-33-1",           521,       134.843,       4.64142,            0.,NA,NA,"",   959.035E+03,   958.569E+03,   958.569E+03
C:/temp/Job-33.odb,Step-1,Increment      1: Step Time =    1.000,"P-33-1",           522,       184.831,       5.19446,            0.,NA,NA,"",   1.00007E+06,   1.00021E+06,   1.00021E+06
C:/temp/Job-33.odb,Step-1,Increment      1: Step Time =    1.000,"P-33-1",           523,       194.964,       5.06418,            0.,NA,NA,"",   999.954E+03,   999.900E+03,   999.900E+03
C:/temp/Job-33.odb,Step-1,Increment      1: Step Time =    1.000,"P-33-1",           524,       195.066,       15.0468,            0.,NA,NA,"",   1.00052E+06,   1.00072E+06,   1.00072E+06
C:/temp/Job-33.odb,Step-1,Increment      1: Step Time =    1.000,"P-33-1",           525,       192.597,       54.4730,            0.,NA,NA,"",   974.402E+03,   1.00611E+06,   1.00611E+06
C:/temp/Job-33.odb,Step-1,Increment      1: Step Time =    1.000,"P-33-1",           526,       64.9939,       195.282,            0.,NA,NA,"",   1.01191E+06,   1.01143E+06,   1.01143E+06
C:/temp/Job-33.odb,Step-1,Increment      1: Step Time =    1.000,"P-33-1",           527,       194.509,       65.2571,            0.,NA,NA,"",   946.837E+03,   1.00111E+06,   1.00111E+06
C:/temp/Job-33.odb,Step-1,Increment      1: Step Time =    1.000,"P-33-1",           528,       74.8825,       195.072,            0.,NA,NA,"",   971.465E+03,   971.599E+03,   971.599E+03
C:/temp/Job-33.odb,Step-1,Increment      1: Step Time =    1.000,"P-33-1",           529,       195.116,       75.1699,            0.,NA,NA,"",   925.704E+03,   999.355E+03,   999.355E+03
C:/temp/Job-33.odb,Step-1,Increment      1: Step Time =    1.000,"P-33-1",           530,       195.193,       85.0651,            0.,NA,NA,"",   908.933E+03,   996.973E+03,   996.973E+03
C:/temp/Job-33.odb,Step-1,Increment      1: Step Time =    1.000,"P-33-1",           531,       195.072,       94.9594,            0.,NA,NA,"",   899.991E+03,   995.100E+03,   995.100E+03
C:/temp/Job-33.odb,Step-1,Increment      1: Step Time =    1.000,"P-33-1",           532,       194.942,       104.942,            0.,NA,NA,"",   899.952E+03,   994.709E+03,   994.709E+03
C:/temp/Job-33.odb,Step-1,Increment      1: Step Time =    1.000,"P-33-1",           533,       194.911,       115.007,            0.,NA,NA,"",   909.692E+03,   996.739E+03,   996.739E+03
C:/temp/Job-33.odb,Step-1,Increment      1: Step Time =    1.000,"P-33-1",           534,       194.955,       125.051,            0.,NA,NA,"",   926.938E+03,   999.678E+03,   999.678E+03
C:/temp/Job-33.odb,Step-1,Increment      1: Step Time =    1.000,"P-33-1",           535,       195.076,       135.095,            0.,NA,NA,"",   947.704E+03,   1.00189E+06,   1.00189E+06
C:/temp/Job-33.odb,Step-1,Increment      1: Step Time =    1.000,"P-33-1",           536,       195.244,       145.027,            0.,NA,NA,"",   967.484E+03,   1.00273E+06,   1.00273E+06
C:/temp/Job-33.odb,Step-1,Increment      1: Step Time =    1.000,"P-33-1",           537,       194.928,       194.959,            0.,NA,NA,"",   999.949E+03,   999.891E+03,   999.891E+03
C:/temp/Job-33.odb,Step-1,Increment      1: Step Time =    1.000,"P-33-1",           538,       184.942,       195.061,            0.,NA,NA,"",   999.898E+03,   1.00003E+06,   1.00003E+06
C:/temp/Job-33.odb,Step-1,Increment      1: Step Time =    1.000,"P-33-1",           539,       175.163,       195.344,            0.,NA,NA,"",   1.00085E+06,   1.00076E+06,   1.00076E+06
C:/temp/Job-33.odb,Step-1,Increment      1: Step Time =    1.000,"P-33-1",           540,       165.461,       195.473,            0.,NA,NA,"",   1.00059E+06,   1.00019E+06,   1.00019E+06
C:/temp/Job-33.odb,Step-1,Increment      1: Step Time =    1.000,"P-33-1",           541,       155.803,       195.014,            0.,NA,NA,"",   995.911E+03,   995.190E+03,   995.190E+03
C:/temp/Job-33.odb,Step-1,Increment      1: Step Time =    1.000,"P-33-1",           542,       145.567,       192.619,            0.,NA,NA,"",   991.081E+03,   989.090E+03,   989.090E+03
C:/temp/Job-33.odb,Step-1,Increment      1: Step Time =    1.000,"P-33-1",           543,       134.751,       194.481,            0.,NA,NA,"",   961.805E+03,   961.413E+03,   961.413E+03
C:/temp/Job-33.odb,Step-1,Increment      1: Step Time =    1.000,"P-33-1",           544,       124.805,       194.978,            0.,NA,NA,"",   934.306E+03,   934.708E+03,   934.708E+03
C:/temp/Job-33.odb,Step-1,Increment      1: Step Time =    1.000,"P-33-1",           545,       114.873,       195.039,            0.,NA,NA,"",   911.817E+03,   913.016E+03,   913.016E+03
C:/temp/Job-33.odb,Step-1,Increment      1: Step Time =    1.000,"P-33-1",           546,       104.879,       195.000,            0.,NA,NA,"",   902.082E+03,   903.861E+03,   903.861E+03
C:/temp/Job-33.odb,Step-1,Increment      1: Step Time =    1.000,"P-33-1",           547,       94.8763,       194.961,            0.,NA,NA,"",   909.963E+03,   911.689E+03,   911.689E+03
C:/temp/Job-33.odb,Step-1,Increment      1: Step Time =    1.000,"P-33-1",           548,       84.8635,       194.966,            0.,NA,NA,"",   934.989E+03,   936.034E+03,   936.034E+03
C:/temp/Job-33.odb,Step-1,Increment      1: Step Time =    1.000,"P-33-1",           549,       5.05731,       184.813,            0.,NA,NA,"",   1.13899E+06,   1.23649E+06,   1.23649E+06
C:/temp/Job-33.odb,Step-1,Increment      1: Step Time =    1.000,"P-33-1",           550,       4.87382,       174.701,            0.,NA,NA,"",   1.02003E+06,   1.12348E+06,   1.12348E+06
C:/temp/Job-33.odb,Step-1,Increment      1: Step Time =    1.000,"P-33-1",           551,       4.46900,       164.832,            0.,NA,NA,"",   946.002E+03,   1.05058E+06,   1.05058E+06
C:/temp/Job-33.odb,Step-1,Increment      1: Step Time =    1.000,"P-33-1",           552,       4.25412,       155.144,            0.,NA,NA,"",   889.923E+03,   993.167E+03,   993.167E+03
C:/temp/Job-33.odb,Step-1,Increment      1: Step Time =    1.000,"P-33-1",           553,       5.03237,       145.401,            0.,NA,NA,"",   841.354E+03,   940.547E+03,   940.547E+03
C:/temp/Job-33.odb,Step-1,Increment      1: Step Time =    1.000,"P-33-1",           554,       4.98445,       135.413,            0.,NA,NA,"",   791.463E+03,   887.585E+03,   887.585E+03
C:/temp/Job-33.odb,Step-1,Increment      1: Step Time =    1.000,"P-33-1",           555,       4.91014,       125.443,            0.,NA,NA,"",   744.420E+03,   837.728E+03,   837.728E+03
C:/temp/Job-33.odb,Step-1,Increment      1: Step Time =    1.000,"P-33-1",           556,       5.12616,       115.323,            0.,NA,NA,"",   706.293E+03,   797.227E+03,   797.227E+03
C:/temp/Job-33.odb,Step-1,Increment      1: Step Time =    1.000,"P-33-1",           557,       5.10753,       105.185,            0.,NA,NA,"",   684.329E+03,   773.977E+03,   773.977E+03
C:/temp/Job-33.odb,Step-1,Increment      1: Step Time =    1.000,"P-33-1",           558,       4.99356,       95.1127,            0.,NA,NA,"",   684.076E+03,   773.744E+03,   773.744E+03
C:/temp/Job-33.odb,Step-1,Increment      1: Step Time =    1.000,"P-33-1",           559,       4.85090,       85.1647,            0.,NA,NA,"",   704.818E+03,   795.819E+03,   795.819E+03
C:/temp/Job-33.odb,Step-1,Increment      1: Step Time =    1.000,"P-33-1",           560,       4.56173,       75.2688,            0.,NA,NA,"",   740.188E+03,   833.674E+03,   833.674E+03
C:/temp/Job-33.odb,Step-1,Increment      1: Step Time =    1.000,"P-33-1",           561,       4.30162,       65.4892,            0.,NA,NA,"",   784.271E+03,   880.956E+03,   880.956E+03
C:/temp/Job-33.odb,Step-1,Increment      1: Step Time =    1.000,"P-33-1",           562,       4.71345,       55.5855,            0.,NA,NA,"",   836.426E+03,   935.636E+03,   935.636E+03
C:/temp/Job-33.odb,Step-1,Increment      1: Step Time =    1.000,"P-33-1",           563,       195.329,       154.847,            0.,NA,NA,"",   983.466E+03,   1.00269E+06,   1.00269E+06
C:/temp/Job-33.odb,Step-1,Increment      1: Step Time =    1.000,"P-33-1",           564,       195.112,       164.804,            0.,NA,NA,"",   994.107E+03,   1.00231E+06,   1.00231E+06
C:/temp/Job-33.odb,Step-1,Increment      1: Step Time =    1.000,"P-33-1",           565,       194.836,       174.757,            0.,NA,NA,"",   999.188E+03,   1.00164E+06,   1.00164E+06
C:/temp/Job-33.odb,Step-1,Increment      1: Step Time =    1.000,"P-33-1",           566,       194.783,       184.814,            0.,NA,NA,"",   1.00061E+06,   1.00086E+06,   1.00086E+06
C:/temp/Job-33.odb,Step-1,Increment      1: Step Time =    1.000,"P-33-1",           567,       189.906,       5.13518,            0.,NA,NA,"",   999.800E+03,   999.924E+03,   999.924E+03
C:/temp/Job-33.odb,Step-1,Increment      1: Step Time =    1.000,"P-33-1",           568,       179.780,       5.20792,            0.,NA,NA,"",   1.00070E+06,   1.00072E+06,   1.00072E+06
C:/temp/Job-33.odb,Step-1,Increment      1: Step Time =    1.000,"P-33-1",           569,       169.721,       5.03270,            0.,NA,NA,"",   1.00155E+06,   1.00120E+06,   1.00120E+06
C:/temp/Job-33.odb,Step-1,Increment      1: Step Time =    1.000,"P-33-1",           570,       159.723,       4.71921,            0.,NA,NA,"",   998.847E+03,   998.183E+03,   998.183E+03
C:/temp/Job-33.odb,Step-1,Increment      1: Step Time =    1.000,"P-33-1",           571,       149.756,       4.50091,            0.,NA,NA,"",   989.011E+03,   988.214E+03,   988.214E+03
C:/temp/Job-33.odb,Step-1,Increment      1: Step Time =    1.000,"P-33-1",           572,       139.787,       4.53886,            0.,NA,NA,"",   970.575E+03,   969.938E+03,   969.938E+03
C:/temp/Job-33.odb,Step-1,Increment      1: Step Time =    1.000,"P-33-1",           573,       129.912,       4.74793,            0.,NA,NA,"",   946.665E+03,   946.453E+03,   946.453E+03
C:/temp/Job-33.odb,Step-1,Increment      1: Step Time =    1.000,"P-33-1",           574,       120.009,       4.88570,            0.,NA,NA,"",   922.036E+03,   922.689E+03,   922.689E+03
C:/temp/Job-33.odb,Step-1,Increment      1: Step Time =    1.000,"P-33-1",           575,       110.026,       4.91863,            0.,NA,NA,"",   904.447E+03,   905.983E+03,   905.983E+03
C:/temp/Job-33.odb,Step-1,Increment      1: Step Time =    1.000,"P-33-1",           576,       100.086,       4.92153,            0.,NA,NA,"",   902.376E+03,   904.147E+03,   904.147E+03
C:/temp/Job-33.odb,Step-1,Increment      1: Step Time =    1.000,"P-33-1",           577,       90.1627,       4.86371,            0.,NA,NA,"",   917.965E+03,   919.351E+03,   919.351E+03
C:/temp/Job-33.odb,Step-1,Increment      1: Step Time =    1.000,"P-33-1",           578,       80.2867,       4.72904,            0.,NA,NA,"",   948.391E+03,   948.994E+03,   948.994E+03
C:/temp/Job-33.odb,Step-1,Increment      1: Step Time =    1.000,"P-33-1",           579,       70.4966,       4.79504,            0.,NA,NA,"",   988.510E+03,   988.518E+03,   988.518E+03
C:/temp/Job-33.odb,Step-1,Increment      1: Step Time =    1.000,"P-33-1",           580,       60.6279,       5.76218,            0.,NA,NA,"",   1.03351E+06,   1.03299E+06,   1.03299E+06
C:/temp/Job-33.odb,Step-1,Increment      1: Step Time =    1.000,"P-33-1",           581,       49.5012,       5.44149,            0.,NA,NA,"",   1.07462E+06,   1.07345E+06,   1.07345E+06
C:/temp/Job-33.odb,Step-1,Increment      1: Step Time =    1.000,"P-33-1",           582,       39.7721,       4.62921,            0.,NA,NA,"",   1.10558E+06,   1.10568E+06,   1.10568E+06
C:/temp/Job-33.odb,Step-1,Increment      1: Step Time =    1.000,"P-33-1",           583,       30.0469,       4.78576,            0.,NA,NA,"",   1.14337E+06,   1.14494E+06,   1.14494E+06
C:/temp/Job-33.odb,Step-1,Increment      1: Step Time =    1.000,"P-33-1",           584,       20.1684,       5.23773,            0.,NA,NA,"",   1.20353E+06,   1.20857E+06,   1.20857E+06
C:/temp/Job-33.odb,Step-1,Increment      1: Step Time =    1.000,"P-33-1",           585,       9.98236,       4.97291,            0.,NA,NA,"",   1.34426E+06,   1.35904E+06,   1.35904E+06
C:/temp/Job-33.odb,Step-1,Increment      1: Step Time =    1.000,"P-33-1",           586,       194.849,       189.894,            0.,NA,NA,"",   1.00044E+06,   1.00040E+06,   1.00040E+06
C:/temp/Job-33.odb,Step-1,Increment      1: Step Time =    1.000,"P-33-1",           587,       194.771,       179.772,            0.,NA,NA,"",   1.00026E+06,   1.00127E+06,   1.00127E+06
C:/temp/Job-33.odb,Step-1,Increment      1: Step Time =    1.000,"P-33-1",           588,       194.960,       169.780,            0.,NA,NA,"",   997.229E+03,   1.00200E+06,   1.00200E+06
C:/temp/Job-33.odb,Step-1,Increment      1: Step Time =    1.000,"P-33-1",           589,       195.248,       159.838,            0.,NA,NA,"",   989.529E+03,   1.00253E+06,   1.00253E+06
C:/temp/Job-33.odb,Step-1,Increment      1: Step Time =    1.000,"P-33-1",           590,       195.304,       149.932,            0.,NA,NA,"",   976.058E+03,   1.00277E+06,   1.00277E+06
C:/temp/Job-33.odb,Step-1,Increment      1: Step Time =    1.000,"P-33-1",           591,       195.146,       140.086,            0.,NA,NA,"",   957.957E+03,   1.00248E+06,   1.00248E+06
C:/temp/Job-33.odb,Step-1,Increment      1: Step Time =    1.000,"P-33-1",           592,       194.998,       130.082,            0.,NA,NA,"",   937.157E+03,   1.00093E+06,   1.00093E+06
C:/temp/Job-33.odb,Step-1,Increment      1: Step Time =    1.000,"P-33-1",           593,       194.918,       120.028,            0.,NA,NA,"",   917.621E+03,   998.231E+03,   998.231E+03
C:/temp/Job-33.odb,Step-1,Increment      1: Step Time =    1.000,"P-33-1",           594,       194.912,       109.981,            0.,NA,NA,"",   903.658E+03,   995.462E+03,   995.462E+03
C:/temp/Job-33.odb,Step-1,Increment      1: Step Time =    1.000,"P-33-1",           595,       195.001,       99.9328,            0.,NA,NA,"",   898.764E+03,   994.625E+03,   994.625E+03
C:/temp/Job-33.odb,Step-1,Increment      1: Step Time =    1.000,"P-33-1",           596,       195.151,       90.0154,            0.,NA,NA,"",   903.389E+03,   995.894E+03,   995.894E+03
C:/temp/Job-33.odb,Step-1,Increment      1: Step Time =    1.000,"P-33-1",           597,       195.203,       80.1085,            0.,NA,NA,"",   916.515E+03,   998.216E+03,   998.216E+03
C:/temp/Job-33.odb,Step-1,Increment      1: Step Time =    1.000,"P-33-1",           598,       194.896,       70.2098,            0.,NA,NA,"",   936.023E+03,   1.00035E+06,   1.00035E+06
C:/temp/Job-33.odb,Step-1,Increment      1: Step Time =    1.000,"P-33-1",           599,       193.857,       60.1573,            0.,NA,NA,"",   959.122E+03,   1.00270E+06,   1.00270E+06
C:/temp/Job-33.odb,Step-1,Increment      1: Step Time =    1.000,"P-33-1",           600,       194.266,       49.0793,            0.,NA,NA,"",   979.351E+03,   1.00451E+06,   1.00451E+06
C:/temp/Job-33.odb,Step-1,Increment      1: Step Time =    1.000,"P-33-1",           601,       195.367,       39.3501,            0.,NA,NA,"",   989.761E+03,   1.00218E+06,   1.00218E+06
C:/temp/Job-33.odb,Step-1,Increment      1: Step Time =    1.000,"P-33-1",           602,       195.449,       29.7118,            0.,NA,NA,"",   997.108E+03,   1.00158E+06,   1.00158E+06
C:/temp/Job-33.odb,Step-1,Increment      1: Step Time =    1.000,"P-33-1",           603,       195.206,       19.9507,            0.,NA,NA,"",   1.00016E+06,   1.00104E+06,   1.00104E+06
C:/temp/Job-33.odb,Step-1,Increment      1: Step Time =    1.000,"P-33-1",           604,       194.981,       10.0819,            0.,NA,NA,"",   1.00040E+06,   1.00036E+06,   1.00036E+06
C:/temp/Job-33.odb,Step-1,Increment      1: Step Time =    1.000,"P-33-1",           605,       10.1348,       194.804,            0.,NA,NA,"",   1.33933E+06,   1.35523E+06,   1.35523E+06
C:/temp/Job-33.odb,Step-1,Increment      1: Step Time =    1.000,"P-33-1",           606,       20.2245,       194.695,            0.,NA,NA,"",   1.20431E+06,   1.20944E+06,   1.20944E+06
C:/temp/Job-33.odb,Step-1,Increment      1: Step Time =    1.000,"P-33-1",           607,       30.2804,       194.847,            0.,NA,NA,"",   1.14431E+06,   1.14569E+06,   1.14569E+06
C:/temp/Job-33.odb,Step-1,Increment      1: Step Time =    1.000,"P-33-1",           608,       40.4148,       194.803,            0.,NA,NA,"",   1.10536E+06,   1.10543E+06,   1.10543E+06
C:/temp/Job-33.odb,Step-1,Increment      1: Step Time =    1.000,"P-33-1",           609,       50.3094,       195.323,            0.,NA,NA,"",   1.06959E+06,   1.06906E+06,   1.06906E+06
C:/temp/Job-33.odb,Step-1,Increment      1: Step Time =    1.000,"P-33-1",           610,       60.0887,       195.375,            0.,NA,NA,"",   1.03192E+06,   1.03128E+06,   1.03128E+06
C:/temp/Job-33.odb,Step-1,Increment      1: Step Time =    1.000,"P-33-1",           611,       69.9176,       195.167,            0.,NA,NA,"",   991.640E+03,   991.387E+03,   991.387E+03
C:/temp/Job-33.odb,Step-1,Increment      1: Step Time =    1.000,"P-33-1",           612,       79.8649,       195.004,            0.,NA,NA,"",   952.263E+03,   952.847E+03,   952.847E+03
C:/temp/Job-33.odb,Step-1,Increment      1: Step Time =    1.000,"P-33-1",           613,       89.8691,       194.954,            0.,NA,NA,"",   920.607E+03,   922.061E+03,   922.061E+03
C:/temp/Job-33.odb,Step-1,Increment      1: Step Time =    1.000,"P-33-1",           614,       99.8765,       194.980,            0.,NA,NA,"",   903.700E+03,   905.554E+03,   905.554E+03
C:/temp/Job-33.odb,Step-1,Increment      1: Step Time =    1.000,"P-33-1",           615,       109.880,       195.023,            0.,NA,NA,"",   904.938E+03,   906.508E+03,   906.508E+03
C:/temp/Job-33.odb,Step-1,Increment      1: Step Time =    1.000,"P-33-1",           616,       119.851,       195.033,            0.,NA,NA,"",   921.942E+03,   922.701E+03,   922.701E+03
C:/temp/Job-33.odb,Step-1,Increment      1: Step Time =    1.000,"P-33-1",           617,       129.777,       194.804,            0.,NA,NA,"",   947.933E+03,   947.919E+03,   947.919E+03
C:/temp/Job-33.odb,Step-1,Increment      1: Step Time =    1.000,"P-33-1",           618,       139.867,       193.865,            0.,NA,NA,"",   975.933E+03,   974.931E+03,   974.931E+03
C:/temp/Job-33.odb,Step-1,Increment      1: Step Time =    1.000,"P-33-1",           619,       150.931,       194.274,            0.,NA,NA,"",   992.445E+03,   991.143E+03,   991.143E+03
C:/temp/Job-33.odb,Step-1,Increment      1: Step Time =    1.000,"P-33-1",           620,       160.650,       195.366,            0.,NA,NA,"",   998.952E+03,   998.426E+03,   998.426E+03
C:/temp/Job-33.odb,Step-1,Increment      1: Step Time =    1.000,"P-33-1",           621,       170.284,       195.449,            0.,NA,NA,"",   1.00106E+06,   1.00082E+06,   1.00082E+06
C:/temp/Job-33.odb,Step-1,Increment      1: Step Time =    1.000,"P-33-1",           622,       180.040,       195.204,            0.,NA,NA,"",   1.00035E+06,   1.00040E+06,   1.00040E+06
C:/temp/Job-33.odb,Step-1,Increment      1: Step Time =    1.000,"P-33-1",           623,       189.907,       194.975,            0.,NA,NA,"",   999.745E+03,   999.855E+03,   999.855E+03
C:/temp/Job-33.odb,Step-1,Increment      1: Step Time =    1.000,"P-33-1",           624,       5.17335,       14.9664,            0.,NA,NA,"",   1.14323E+06,   1.23954E+06,   1.23954E+06
C:/temp/Job-33.odb,Step-1,Increment      1: Step Time =    1.000,"P-33-1",           625,       5.34740,       25.1644,            0.,NA,NA,"",   1.02615E+06,   1.12753E+06,   1.12753E+06
C:/temp/Job-33.odb,Step-1,Increment      1: Step Time =    1.000,"P-33-1",           626,       5.66572,       35.3691,            0.,NA,NA,"",   952.601E+03,   1.05391E+06,   1.05391E+06
C:/temp/Job-33.odb,Step-1,Increment      1: Step Time =    1.000,"P-33-1",           627,       5.84913,       40.4510,            0.,NA,NA,"",   923.083E+03,   1.02369E+06,   1.02369E+06
C:/temp/Job-33.odb,Step-1,Increment      1: Step Time =    1.000,"P-33-1",           628,       5.16967,       50.5842,            0.,NA,NA,"",   864.205E+03,   964.082E+03,   964.082E+03
C:/temp/Job-33.odb,Step-1,Increment      1: Step Time =    1.000,"P-33-1",           629,       4.38816,       60.5799,            0.,NA,NA,"",   809.366E+03,   907.509E+03,   907.509E+03
C:/temp/Job-33.odb,Step-1,Increment      1: Step Time =    1.000,"P-33-1",           630,       4.40196,       70.3711,            0.,NA,NA,"",   761.268E+03,   856.324E+03,   856.324E+03
C:/temp/Job-33.odb,Step-1,Increment      1: Step Time =    1.000,"P-33-1",           631,       4.73269,       80.2061,            0.,NA,NA,"",   721.134E+03,   813.249E+03,   813.249E+03
C:/temp/Job-33.odb,Step-1,Increment      1: Step Time =    1.000,"P-33-1",           632,       4.93829,       90.1299,            0.,NA,NA,"",   692.157E+03,   782.335E+03,   782.335E+03
C:/temp/Job-33.odb,Step-1,Increment      1: Step Time =    1.000,"P-33-1",           633,       5.05268,       100.125,            0.,NA,NA,"",   681.297E+03,   770.785E+03,   770.785E+03
C:/temp/Job-33.odb,Step-1,Increment      1: Step Time =    1.000,"P-33-1",           634,       5.14922,       110.267,            0.,NA,NA,"",   693.001E+03,   783.142E+03,   783.142E+03
C:/temp/Job-33.odb,Step-1,Increment      1: Step Time =    1.000,"P-33-1",           635,       5.00033,       120.382,            0.,NA,NA,"",   723.626E+03,   815.627E+03,   815.627E+03
C:/temp/Job-33.odb,Step-1,Increment      1: Step Time =    1.000,"P-33-1",           636,       4.90988,       130.450,            0.,NA,NA,"",   767.292E+03,   862.019E+03,   862.019E+03
C:/temp/Job-33.odb,Step-1,Increment      1: Step Time =    1.000,"P-33-1",           637,       5.08376,       140.413,            0.,NA,NA,"",   816.843E+03,   914.382E+03,   914.382E+03
C:/temp/Job-33.odb,Step-1,Increment      1: Step Time =    1.000,"P-33-1",           638,       4.51044,       150.267,            0.,NA,NA,"",   865.426E+03,   966.698E+03,   966.698E+03
C:/temp/Job-33.odb,Step-1,Increment      1: Step Time =    1.000,"P-33-1",           639,       4.26666,       159.965,            0.,NA,NA,"",   916.387E+03,   1.02067E+06,   1.02067E+06
C:/temp/Job-33.odb,Step-1,Increment      1: Step Time =    1.000,"P-33-1",           640,       4.70080,       169.730,            0.,NA,NA,"",   980.613E+03,   1.08487E+06,   1.08487E+06
C:/temp/Job-33.odb,Step-1,Increment      1: Step Time =    1.000,"P-33-1",           641,       4.97206,       179.771,            0.,NA,NA,"",   1.07330E+06,   1.17449E+06,   1.17449E+06
C:/temp/Job-33.odb,Step-1,Increment      1: Step Time =    1.000,"P-33-1",           642,       5.09170,       189.841,            0.,NA,NA,"",   1.25503E+06,   1.34114E+06,   1.34114E+06
C:/temp/Job-33.odb,Step-1,Increment      1: Step Time =    1.000,"P-33-1",           643,       79.1711,       117.769,            0.,NA,NA,"",   1.11618E+06,   1.02478E+06,   1.02478E+06
C:/temp/Job-33.odb,Step-1,Increment      1: Step Time =    1.000,"P-33-1",           644,       72.2966,       98.0656,            0.,NA,NA,"",   404.747E+03,  -110.246E+03,  -110.246E+03
C:/temp/Job-33.odb,Step-1,Increment      1: Step Time =    1.000,"P-33-1",           645,       127.684,       101.933,            0.,NA,NA,"",   489.132E+03,  -147.747E+03,  -147.747E+03
C:/temp/Job-33.odb,Step-1,Increment      1: Step Time =    1.000,"P-33-1",           646,       119.937,       117.905,            0.,NA,NA,"",   1.20742E+06,   1.10888E+06,   1.10888E+06
C:/temp/Job-33.odb,Step-1,Increment      1: Step Time =    1.000,"P-33-1",           647,       114.954,       122.713,            0.,NA,NA,"",   1.57395E+06,   1.57589E+06,   1.57589E+06
C:/temp/Job-33.odb,Step-1,Increment      1: Step Time =    1.000,"P-33-1",           648,       120.792,       82.3709,            0.,NA,NA,"",   1.19126E+06,   1.07798E+06,   1.07798E+06
C:/temp/Job-33.odb,Step-1,Increment      1: Step Time =    1.000,"P-33-1",           649,       122.016,       86.3989,            0.,NA,NA,"",   895.178E+03,   600.350E+03,   600.350E+03
C:/temp/Job-33.odb,Step-1,Increment      1: Step Time =    1.000,"P-33-1",           650,       78.6752,       86.2711,            0.,NA,NA,"",   798.505E+03,   564.879E+03,   564.879E+03
C:/temp/Job-33.odb,Step-1,Increment      1: Step Time =    1.000,"P-33-1",           651,       89.1823,       124.500,            0.,NA,NA,"",   1.72525E+06,   1.78633E+06,   1.78633E+06
C:/temp/Job-33.odb,Step-1,Increment      1: Step Time =    1.000,"P-33-1",           652,       85.0826,       77.1932,            0.,NA,NA,"",   1.51491E+06,   1.51821E+06,   1.51821E+06
C:/temp/Job-33.odb,Step-1,Increment      1: Step Time =    1.000,"P-33-1",           653,       89.3635,       76.1918,            0.,NA,NA,"",   1.75864E+06,   1.82442E+06,   1.82442E+06
C:/temp/Job-33.odb,Step-1,Increment      1: Step Time =    1.000,"P-33-1",           654,       121.327,       113.720,            0.,NA,NA,"",   875.607E+03,   600.915E+03,   600.915E+03
C:/temp/Job-33.odb,Step-1,Increment      1: Step Time =    1.000,"P-33-1",           655,       115.552,       77.5234,            0.,NA,NA,"",   1.53689E+06,   1.53248E+06,   1.53248E+06
C:/temp/Job-33.odb,Step-1,Increment      1: Step Time =    1.000,"P-33-1",           656,       80.0707,       82.0539,            0.,NA,NA,"",   1.12899E+06,   1.04776E+06,   1.04776E+06
C:/temp/Job-33.odb,Step-1,Increment      1: Step Time =    1.000,"P-33-1",           657,       110.727,       123.741,            0.,NA,NA,"",   1.80796E+06,   1.87642E+06,   1.87642E+06
C:/temp/Job-33.odb,Step-1,Increment      1: Step Time =    1.000,"P-33-1",           658,       77.9438,       113.663,            0.,NA,NA,"",   823.225E+03,   574.115E+03,   574.115E+03
C:/temp/Job-33.odb,Step-1,Increment      1: Step Time =    1.000,"P-33-1",           659,       84.4401,       123.174,            0.,NA,NA,"",   1.47610E+06,   1.47642E+06,   1.47642E+06
C:/temp/Job-33.odb,Step-1,Increment      1: Step Time =    1.000,"P-33-1",           660,       110.953,       76.2373,            0.,NA,NA,"",   1.78205E+06,   1.84343E+06,   1.84343E+06
C:/temp/Job-33.odb,Step-1,Increment      1: Step Time =    1.000,"P-33-1",           661,       112.182,       71.3853,            0.,NA,NA,"",   1.55229E+06,   1.61080E+06,   1.61080E+06
C:/temp/Job-33.odb,Step-1,Increment      1: Step Time =    1.000,"P-33-1",           662,       88.3099,       131.049,            0.,NA,NA,"",   1.47625E+06,   1.53907E+06,   1.53907E+06
C:/temp/Job-33.odb,Step-1,Increment      1: Step Time =    1.000,"P-33-1",           663,       129.879,       9.58257,            0.,NA,NA,"",   972.722E+03,   972.184E+03,   972.184E+03
C:/temp/Job-33.odb,Step-1,Increment      1: Step Time =    1.000,"P-33-1",           664,       120.034,       9.79432,            0.,NA,NA,"",   954.599E+03,   956.498E+03,   956.498E+03
C:/temp/Job-33.odb,Step-1,Increment      1: Step Time =    1.000,"P-33-1",           665,       110.041,       9.81633,            0.,NA,NA,"",   940.668E+03,   944.991E+03,   944.991E+03
C:/temp/Job-33.odb,Step-1,Increment      1: Step Time =    1.000,"P-33-1",           666,       80.5401,       9.50651,            0.,NA,NA,"",   980.134E+03,   981.952E+03,   981.952E+03
C:/temp/Job-33.odb,Step-1,Increment      1: Step Time =    1.000,"P-33-1",           667,       71.1230,       9.51009,            0.,NA,NA,"",   1.01334E+06,   1.01322E+06,   1.01322E+06
C:/temp/Job-33.odb,Step-1,Increment      1: Step Time =    1.000,"P-33-1",           668,       62.2425,       11.0117,            0.,NA,NA,"",   1.05322E+06,   1.05136E+06,   1.05136E+06
C:/temp/Job-33.odb,Step-1,Increment      1: Step Time =    1.000,"P-33-1",           669,       190.149,       140.236,            0.,NA,NA,"",   970.351E+03,   1.00716E+06,   1.00716E+06
C:/temp/Job-33.odb,Step-1,Increment      1: Step Time =    1.000,"P-33-1",           670,       189.937,       130.171,            0.,NA,NA,"",   949.896E+03,   1.00251E+06,   1.00251E+06
C:/temp/Job-33.odb,Step-1,Increment      1: Step Time =    1.000,"P-33-1",           671,       189.791,       120.019,            0.,NA,NA,"",   927.444E+03,   994.771E+03,   994.771E+03
C:/temp/Job-33.odb,Step-1,Increment      1: Step Time =    1.000,"P-33-1",           672,       189.811,       109.903,            0.,NA,NA,"",   909.031E+03,   986.860E+03,   986.860E+03
C:/temp/Job-33.odb,Step-1,Increment      1: Step Time =    1.000,"P-33-1",           673,       189.984,       99.7548,            0.,NA,NA,"",   902.590E+03,   984.511E+03,   984.511E+03
C:/temp/Job-33.odb,Step-1,Increment      1: Step Time =    1.000,"P-33-1",           674,       190.309,       89.9605,            0.,NA,NA,"",   909.244E+03,   988.342E+03,   988.342E+03
C:/temp/Job-33.odb,Step-1,Increment      1: Step Time =    1.000,"P-33-1",           675,       190.474,       80.2363,            0.,NA,NA,"",   925.590E+03,   995.101E+03,   995.101E+03
C:/temp/Job-33.odb,Step-1,Increment      1: Step Time =    1.000,"P-33-1",           676,       189.934,       70.6587,            0.,NA,NA,"",   947.431E+03,   1.00148E+06,   1.00148E+06
C:/temp/Job-33.odb,Step-1,Increment      1: Step Time =    1.000,"P-33-1",           677,       188.464,       61.2545,            0.,NA,NA,"",   972.555E+03,   1.00846E+06,   1.00846E+06
C:/temp/Job-33.odb,Step-1,Increment      1: Step Time =    1.000,"P-33-1",           678,       89.7166,       189.882,            0.,NA,NA,"",   958.310E+03,   962.436E+03,   962.436E+03
C:/temp/Job-33.odb,Step-1,Increment      1: Step Time =    1.000,"P-33-1",           679,       99.7431,       189.963,            0.,NA,NA,"",   941.793E+03,   947.025E+03,   947.025E+03
C:/temp/Job-33.odb,Step-1,Increment      1: Step Time =    1.000,"P-33-1",           680,       109.738,       190.067,            0.,NA,NA,"",   941.285E+03,   945.677E+03,   945.677E+03
C:/temp/Job-33.odb,Step-1,Increment      1: Step Time =    1.000,"P-33-1",           681,       119.648,       190.071,            0.,NA,NA,"",   954.240E+03,   956.441E+03,   956.441E+03
C:/temp/Job-33.odb,Step-1,Increment      1: Step Time =    1.000,"P-33-1",           682,       129.353,       189.723,            0.,NA,NA,"",   975.295E+03,   975.141E+03,   975.141E+03
C:/temp/Job-33.odb,Step-1,Increment      1: Step Time =    1.000,"P-33-1",           683,       138.838,       188.510,            0.,NA,NA,"",   999.050E+03,   996.224E+03,   996.224E+03
C:/temp/Job-33.odb,Step-1,Increment      1: Step Time =    1.000,"P-33-1",           684,       8.63255,       61.2824,            0.,NA,NA,"",   821.913E+03,   914.213E+03,   914.213E+03
C:/temp/Job-33.odb,Step-1,Increment      1: Step Time =    1.000,"P-33-1",           685,       8.92519,       70.6234,            0.,NA,NA,"",   770.938E+03,   862.034E+03,   862.034E+03
C:/temp/Job-33.odb,Step-1,Increment      1: Step Time =    1.000,"P-33-1",           686,       9.63627,       80.3279,            0.,NA,NA,"",   725.947E+03,   815.666E+03,   815.666E+03
C:/temp/Job-33.odb,Step-1,Increment      1: Step Time =    1.000,"P-33-1",           687,       9.98915,       90.2400,            0.,NA,NA,"",   691.911E+03,   780.932E+03,   780.932E+03
C:/temp/Job-33.odb,Step-1,Increment      1: Step Time =    1.000,"P-33-1",           688,       10.0848,       100.226,            0.,NA,NA,"",   679.219E+03,   768.006E+03,   768.006E+03
C:/temp/Job-33.odb,Step-1,Increment      1: Step Time =    1.000,"P-33-1",           689,       10.2693,       110.544,            0.,NA,NA,"",   694.073E+03,   782.940E+03,   782.940E+03
C:/temp/Job-33.odb,Step-1,Increment      1: Step Time =    1.000,"P-33-1",           690,       9.87520,       120.867,            0.,NA,NA,"",   731.583E+03,   821.068E+03,   821.068E+03
C:/temp/Job-33.odb,Step-1,Increment      1: Step Time =    1.000,"P-33-1",           691,       9.78139,       130.834,            0.,NA,NA,"",   781.935E+03,   872.067E+03,   872.067E+03
C:/temp/Job-33.odb,Step-1,Increment      1: Step Time =    1.000,"P-33-1",           692,       139.618,       9.07448,            0.,NA,NA,"",   988.512E+03,   986.737E+03,   986.737E+03
C:/temp/Job-33.odb,Step-1,Increment      1: Step Time =    1.000,"P-33-1",           693,       100.174,       9.86289,            0.,NA,NA,"",   940.096E+03,   945.146E+03,   945.146E+03
C:/temp/Job-33.odb,Step-1,Increment      1: Step Time =    1.000,"P-33-1",           694,       90.3025,       9.77206,            0.,NA,NA,"",   954.317E+03,   958.341E+03,   958.341E+03
C:/temp/Job-33.odb,Step-1,Increment      1: Step Time =    1.000,"P-33-1",           695,       60.1221,       190.663,            0.,NA,NA,"",   1.05283E+06,   1.05114E+06,   1.05114E+06
C:/temp/Job-33.odb,Step-1,Increment      1: Step Time =    1.000,"P-33-1",           696,       69.7421,       190.252,            0.,NA,NA,"",   1.02019E+06,   1.01958E+06,   1.01958E+06
C:/temp/Job-33.odb,Step-1,Increment      1: Step Time =    1.000,"P-33-1",           697,       79.6698,       189.956,            0.,NA,NA,"",   986.841E+03,   988.556E+03,   988.556E+03
C:/temp/Job-33.odb,Step-1,Increment      1: Step Time =    1.000,"P-33-1",           698,       76.7668,       90.5559,            0.,NA,NA,"",   587.379E+03,   91.8507E+03,   91.8507E+03
C:/temp/Job-33.odb,Step-1,Increment      1: Step Time =    1.000,"P-33-1",           699,       123.223,       109.436,            0.,NA,NA,"",   669.441E+03,  -129.613E+03,  -129.613E+03
C:/temp/Job-33.odb,Step-1,Increment      1: Step Time =    1.000,"P-33-1",           700,       68.6350,       101.218,            0.,NA,NA,"",   318.579E+03,   117.741E+03,   117.741E+03
C:/temp/Job-33.odb,Step-1,Increment      1: Step Time =    1.000,"P-33-1",           701,       131.323,       98.7903,            0.,NA,NA,"",   395.409E+03,   116.809E+03,   116.809E+03
C:/temp/Job-33.odb,Step-1,Increment      1: Step Time =    1.000,"P-33-1",           702,       128.027,       88.3852,            0.,NA,NA,"",   934.305E+03,   701.941E+03,   701.941E+03
C:/temp/Job-33.odb,Step-1,Increment      1: Step Time =    1.000,"P-33-1",           703,       71.8961,       111.665,            0.,NA,NA,"",   832.871E+03,   655.231E+03,   655.231E+03
C:/temp/Job-33.odb,Step-1,Increment      1: Step Time =    1.000,"P-33-1",           704,       80.4661,       76.8901,            0.,NA,NA,"",   1.37081E+06,   1.31284E+06,   1.31284E+06
C:/temp/Job-33.odb,Step-1,Increment      1: Step Time =    1.000,"P-33-1",           705,       120.825,       77.5748,            0.,NA,NA,"",   1.40681E+06,   1.31712E+06,   1.31712E+06
C:/temp/Job-33.odb,Step-1,Increment      1: Step Time =    1.000,"P-33-1",           706,       79.0370,       122.865,            0.,NA,NA,"",   1.33312E+06,   1.26080E+06,   1.26080E+06
C:/temp/Job-33.odb,Step-1,Increment      1: Step Time =    1.000,"P-33-1",           707,       119.549,       122.982,            0.,NA,NA,"",   1.43714E+06,   1.36617E+06,   1.36617E+06
C:/temp/Job-33.odb,Step-1,Increment      1: Step Time =    1.000,"P-33-1",           708,       8.91005,       164.462,            0.,NA,NA,"",   972.428E+03,   1.06491E+06,   1.06491E+06
C:/temp/Job-33.odb,Step-1,Increment      1: Step Time =    1.000,"P-33-1",           709,       164.274,       9.78926,            0.,NA,NA,"",   1.00806E+06,   1.00650E+06,   1.00650E+06
C:/temp/Job-33.odb,Step-1,Increment      1: Step Time =    1.000,"P-33-1",           710,       34.9298,       9.27804,            0.,NA,NA,"",   1.13626E+06,   1.13795E+06,   1.13795E+06
C:/temp/Job-33.odb,Step-1,Increment      1: Step Time =    1.000,"P-33-1",           711,       161.440,       190.822,            0.,NA,NA,"",   1.00634E+06,   1.00482E+06,   1.00482E+06
C:/temp/Job-33.odb,Step-1,Increment      1: Step Time =    1.000,"P-33-1",           712,       190.216,       164.504,            0.,NA,NA,"",   998.257E+03,   1.00666E+06,   1.00666E+06
C:/temp/Job-33.odb,Step-1,Increment      1: Step Time =    1.000,"P-33-1",           713,       190.826,       38.5537,            0.,NA,NA,"",   994.801E+03,   1.00624E+06,   1.00624E+06
C:/temp/Job-33.odb,Step-1,Increment      1: Step Time =    1.000,"P-33-1",           714,       35.5633,       189.767,            0.,NA,NA,"",   1.13712E+06,   1.13841E+06,   1.13841E+06
C:/temp/Job-33.odb,Step-1,Increment      1: Step Time =    1.000,"P-33-1",           715,       60.4940,       17.4108,            0.,NA,NA,"",   1.08906E+06,   1.08485E+06,   1.08485E+06
C:/temp/Job-33.odb,Step-1,Increment      1: Step Time =    1.000,"P-33-1",           716,       13.5053,       58.0798,            0.,NA,NA,"",   862.447E+03,   946.841E+03,   946.841E+03
C:/temp/Job-33.odb,Step-1,Increment      1: Step Time =    1.000,"P-33-1",           717,       184.239,       62.4010,            0.,NA,NA,"",   983.555E+03,   1.01309E+06,   1.01309E+06
C:/temp/Job-33.odb,Step-1,Increment      1: Step Time =    1.000,"P-33-1",           718,       60.0567,       185.867,            0.,NA,NA,"",   1.07585E+06,   1.07255E+06,   1.07255E+06
C:/temp/Job-33.odb,Step-1,Increment      1: Step Time =    1.000,"P-33-1",           719,       15.4443,       140.480,            0.,NA,NA,"",   861.836E+03,   942.672E+03,   942.672E+03
C:/temp/Job-33.odb,Step-1,Increment      1: Step Time =    1.000,"P-33-1",           720,       139.547,       13.5428,            0.,NA,NA,"",   1.00909E+06,   1.00557E+06,   1.00557E+06
C:/temp/Job-33.odb,Step-1,Increment      1: Step Time =    1.000,"P-33-1",           721,       184.981,       140.405,            0.,NA,NA,"",   986.877E+03,   1.01419E+06,   1.01419E+06
C:/temp/Job-33.odb,Step-1,Increment      1: Step Time =    1.000,"P-33-1",           722,       137.822,       184.355,            0.,NA,NA,"",   1.01662E+06,   1.01234E+06,   1.01234E+06
C:/temp/Job-33.odb,Step-1,Increment      1: Step Time =    1.000,"P-33-1",           723,       64.1570,       96.8746,            0.,NA,NA,"",   372.279E+03,   364.948E+03,   364.948E+03
C:/temp/Job-33.odb,Step-1,Increment      1: Step Time =    1.000,"P-33-1",           724,       135.788,       103.112,            0.,NA,NA,"",   454.252E+03,   404.867E+03,   404.867E+03
C:/temp/Job-33.odb,Step-1,Increment      1: Step Time =    1.000,"P-33-1",           725,       129.271,       108.742,            0.,NA,NA,"",   720.943E+03,   299.228E+03,   299.228E+03
C:/temp/Job-33.odb,Step-1,Increment      1: Step Time =    1.000,"P-33-1",           726,       70.6977,       91.2387,            0.,NA,NA,"",   626.271E+03,   473.754E+03,   473.754E+03
C:/temp/Job-33.odb,Step-1,Increment      1: Step Time =    1.000,"P-33-1",           727,       13.0579,       163.733,            0.,NA,NA,"",   994.562E+03,   1.07499E+06,   1.07499E+06
C:/temp/Job-33.odb,Step-1,Increment      1: Step Time =    1.000,"P-33-1",           728,       163.666,       14.7802,            0.,NA,NA,"",   1.01838E+06,   1.01508E+06,   1.01508E+06
C:/temp/Job-33.odb,Step-1,Increment      1: Step Time =    1.000,"P-33-1",           729,       35.0416,       13.7938,            0.,NA,NA,"",   1.14362E+06,   1.14706E+06,   1.14706E+06
C:/temp/Job-33.odb,Step-1,Increment      1: Step Time =    1.000,"P-33-1",           730,       12.5266,       41.0867,            0.,NA,NA,"",   958.291E+03,   1.04208E+06,   1.04208E+06
C:/temp/Job-33.odb,Step-1,Increment      1: Step Time =    1.000,"P-33-1",           731,       162.180,       186.548,            0.,NA,NA,"",   1.01584E+06,   1.01281E+06,   1.01281E+06
C:/temp/Job-33.odb,Step-1,Increment      1: Step Time =    1.000,"P-33-1",           732,       185.312,       164.016,            0.,NA,NA,"",   1.00659E+06,   1.01329E+06,   1.01329E+06
C:/temp/Job-33.odb,Step-1,Increment      1: Step Time =    1.000,"P-33-1",           733,       186.559,       37.8013,            0.,NA,NA,"",   1.00343E+06,   1.01217E+06,   1.01217E+06
C:/temp/Job-33.odb,Step-1,Increment      1: Step Time =    1.000,"P-33-1",           734,       35.4364,       185.006,            0.,NA,NA,"",   1.14370E+06,   1.14709E+06,   1.14709E+06
C:/temp/Job-33.odb,Step-1,Increment      1: Step Time =    1.000,"P-33-1",           735,       129.922,       14.5534,            0.,NA,NA,"",   999.534E+03,   998.607E+03,   998.607E+03
C:/temp/Job-33.odb,Step-1,Increment      1: Step Time =    1.000,"P-33-1",           736,       13.6162,       70.6190,            0.,NA,NA,"",   784.182E+03,   870.184E+03,   870.184E+03
C:/temp/Job-33.odb,Step-1,Increment      1: Step Time =    1.000,"P-33-1",           737,       71.7371,       14.0696,            0.,NA,NA,"",   1.03693E+06,   1.03684E+06,   1.03684E+06
C:/temp/Job-33.odb,Step-1,Increment      1: Step Time =    1.000,"P-33-1",           738,       14.6107,       131.018,            0.,NA,NA,"",   797.405E+03,   881.508E+03,   881.508E+03
C:/temp/Job-33.odb,Step-1,Increment      1: Step Time =    1.000,"P-33-1",           739,       184.827,       130.216,            0.,NA,NA,"",   963.865E+03,   1.00463E+06,   1.00463E+06
C:/temp/Job-33.odb,Step-1,Increment      1: Step Time =    1.000,"P-33-1",           740,       128.736,       184.971,            0.,NA,NA,"",   1.00123E+06,   1.00099E+06,   1.00099E+06
C:/temp/Job-33.odb,Step-1,Increment      1: Step Time =    1.000,"P-33-1",           741,       69.4446,       185.213,            0.,NA,NA,"",   1.04890E+06,   1.04779E+06,   1.04779E+06
C:/temp/Job-33.odb,Step-1,Increment      1: Step Time =    1.000,"P-33-1",           742,       185.351,       71.3806,            0.,NA,NA,"",   957.718E+03,   1.00208E+06,   1.00208E+06
C:/temp/Job-33.odb,Step-1,Increment      1: Step Time =    1.000,"P-33-1",           743,       14.7966,       80.3573,            0.,NA,NA,"",   732.645E+03,   818.656E+03,   818.656E+03
C:/temp/Job-33.odb,Step-1,Increment      1: Step Time =    1.000,"P-33-1",           744,       120.035,       14.6965,            0.,NA,NA,"",   983.999E+03,   987.770E+03,   987.770E+03
C:/temp/Job-33.odb,Step-1,Increment      1: Step Time =    1.000,"P-33-1",           745,       80.7200,       14.3275,            0.,NA,NA,"",   1.00911E+06,   1.01285E+06,   1.01285E+06
C:/temp/Job-33.odb,Step-1,Increment      1: Step Time =    1.000,"P-33-1",           746,       14.4278,       121.574,            0.,NA,NA,"",   741.407E+03,   827.514E+03,   827.514E+03
C:/temp/Job-33.odb,Step-1,Increment      1: Step Time =    1.000,"P-33-1",           747,       184.576,       119.929,            0.,NA,NA,"",   934.160E+03,   988.645E+03,   988.645E+03
C:/temp/Job-33.odb,Step-1,Increment      1: Step Time =    1.000,"P-33-1",           748,       79.4158,       184.828,            0.,NA,NA,"",   1.01825E+06,   1.02170E+06,   1.02170E+06
C:/temp/Job-33.odb,Step-1,Increment      1: Step Time =    1.000,"P-33-1",           749,       185.876,       80.3345,            0.,NA,NA,"",   932.643E+03,   990.401E+03,   990.401E+03
C:/temp/Job-33.odb,Step-1,Increment      1: Step Time =    1.000,"P-33-1",           750,       119.403,       185.111,            0.,NA,NA,"",   983.254E+03,   987.730E+03,   987.730E+03
C:/temp/Job-33.odb,Step-1,Increment      1: Step Time =    1.000,"P-33-1",           751,       68.6009,       108.481,            0.,NA,NA,"",   601.554E+03,   492.563E+03,   492.563E+03
C:/temp/Job-33.odb,Step-1,Increment      1: Step Time =    1.000,"P-33-1",           752,       131.309,       91.5545,            0.,NA,NA,"",   695.163E+03,   532.942E+03,   532.942E+03
C:/temp/Job-33.odb,Step-1,Increment      1: Step Time =    1.000,"P-33-1",           753,       130.279,       85.5109,            0.,NA,NA,"",   1.04891E+06,   855.702E+03,   855.702E+03
C:/temp/Job-33.odb,Step-1,Increment      1: Step Time =    1.000,"P-33-1",           754,       69.5904,       114.571,            0.,NA,NA,"",   936.633E+03,   797.059E+03,   797.059E+03
C:/temp/Job-33.odb,Step-1,Increment      1: Step Time =    1.000,"P-33-1",           755,       110.045,       14.6493,            0.,NA,NA,"",   969.815E+03,   978.283E+03,   978.283E+03
C:/temp/Job-33.odb,Step-1,Increment      1: Step Time =    1.000,"P-33-1",           756,       15.2198,       90.3916,            0.,NA,NA,"",   691.649E+03,   778.370E+03,   778.370E+03
C:/temp/Job-33.odb,Step-1,Increment      1: Step Time =    1.000,"P-33-1",           757,       15.2981,       110.696,            0.,NA,NA,"",   695.084E+03,   781.648E+03,   781.648E+03
C:/temp/Job-33.odb,Step-1,Increment      1: Step Time =    1.000,"P-33-1",           758,       90.4265,       14.7211,            0.,NA,NA,"",   984.300E+03,   992.465E+03,   992.465E+03
C:/temp/Job-33.odb,Step-1,Increment      1: Step Time =    1.000,"P-33-1",           759,       184.694,       109.725,            0.,NA,NA,"",   907.982E+03,   973.175E+03,   973.175E+03
C:/temp/Job-33.odb,Step-1,Increment      1: Step Time =    1.000,"P-33-1",           760,       89.5510,       184.757,            0.,NA,NA,"",   989.346E+03,   997.639E+03,   997.639E+03
C:/temp/Job-33.odb,Step-1,Increment      1: Step Time =    1.000,"P-33-1",           761,       185.474,       89.7697,            0.,NA,NA,"",   909.709E+03,   976.570E+03,   976.570E+03
C:/temp/Job-33.odb,Step-1,Increment      1: Step Time =    1.000,"P-33-1",           762,       109.562,       185.162,            0.,NA,NA,"",   970.571E+03,   979.197E+03,   979.197E+03
C:/temp/Job-33.odb,Step-1,Increment      1: Step Time =    1.000,"P-33-1",           763,       119.556,       128.029,            0.,NA,NA,"",   1.51117E+06,   1.46092E+06,   1.46092E+06
C:/temp/Job-33.odb,Step-1,Increment      1: Step Time =    1.000,"P-33-1",           764,       121.359,       72.6912,            0.,NA,NA,"",   1.49148E+06,   1.41783E+06,   1.41783E+06
C:/temp/Job-33.odb,Step-1,Increment      1: Step Time =    1.000,"P-33-1",           765,       78.1672,       127.928,            0.,NA,NA,"",   1.43078E+06,   1.36835E+06,   1.36835E+06
C:/temp/Job-33.odb,Step-1,Increment      1: Step Time =    1.000,"P-33-1",           766,       80.4559,       71.6744,            0.,NA,NA,"",   1.46380E+06,   1.42385E+06,   1.42385E+06
C:/temp/Job-33.odb,Step-1,Increment      1: Step Time =    1.000,"P-33-1",           767,       15.0848,       100.351,            0.,NA,NA,"",   677.027E+03,   764.088E+03,   764.088E+03
C:/temp/Job-33.odb,Step-1,Increment      1: Step Time =    1.000,"P-33-1",           768,       100.296,       14.8336,            0.,NA,NA,"",   969.943E+03,   980.025E+03,   980.025E+03
C:/temp/Job-33.odb,Step-1,Increment      1: Step Time =    1.000,"P-33-1",           769,       184.916,       99.4167,            0.,NA,NA,"",   899.328E+03,   968.808E+03,   968.808E+03
C:/temp/Job-33.odb,Step-1,Increment      1: Step Time =    1.000,"P-33-1",           770,       99.6101,       184.940,            0.,NA,NA,"",   971.897E+03,   982.254E+03,   982.254E+03
C:/temp/Job-33.odb,Step-1,Increment      1: Step Time =    1.000,"P-33-1",           771,       107.450,       68.3810,            0.,NA,NA,"",   1.47792E+06,   1.59310E+06,   1.59310E+06
C:/temp/Job-33.odb,Step-1,Increment      1: Step Time =    1.000,"P-33-1",           772,       93.9314,       131.108,            0.,NA,NA,"",   1.49789E+06,   1.62412E+06,   1.62412E+06
C:/temp/Job-33.odb,Step-1,Increment      1: Step Time =    1.000,"P-33-1",           773,       75.6008,       75.9830,            0.,NA,NA,"",   1.32244E+06,   1.21539E+06,   1.21539E+06
C:/temp/Job-33.odb,Step-1,Increment      1: Step Time =    1.000,"P-33-1",           774,       124.398,       123.872,            0.,NA,NA,"",   1.40426E+06,   1.26902E+06,   1.26902E+06
C:/temp/Job-33.odb,Step-1,Increment      1: Step Time =    1.000,"P-33-1",           775,       17.4626,       60.2078,            0.,NA,NA,"",   867.360E+03,   944.518E+03,   944.518E+03
C:/temp/Job-33.odb,Step-1,Increment      1: Step Time =    1.000,"P-33-1",           776,       64.0578,       15.8685,            0.,NA,NA,"",   1.07117E+06,   1.06830E+06,   1.06830E+06
C:/temp/Job-33.odb,Step-1,Increment      1: Step Time =    1.000,"P-33-1",           777,       183.484,       66.6174,            0.,NA,NA,"",   975.978E+03,   1.00929E+06,   1.00929E+06
C:/temp/Job-33.odb,Step-1,Increment      1: Step Time =    1.000,"P-33-1",           778,       64.6838,       185.526,            0.,NA,NA,"",   1.06276E+06,   1.06025E+06,   1.06025E+06
C:/temp/Job-33.odb,Step-1,Increment      1: Step Time =    1.000,"P-33-1",           779,       15.1966,       135.730,            0.,NA,NA,"",   829.745E+03,   912.162E+03,   912.162E+03
C:/temp/Job-33.odb,Step-1,Increment      1: Step Time =    1.000,"P-33-1",           780,       134.778,       14.0956,            0.,NA,NA,"",   1.00499E+06,   1.00253E+06,   1.00253E+06
C:/temp/Job-33.odb,Step-1,Increment      1: Step Time =    1.000,"P-33-1",           781,       184.905,       135.310,            0.,NA,NA,"",   976.605E+03,   1.01044E+06,   1.01044E+06
C:/temp/Job-33.odb,Step-1,Increment      1: Step Time =    1.000,"P-33-1",           782,       133.655,       183.446,            0.,NA,NA,"",   1.01692E+06,   1.01377E+06,   1.01377E+06
C:/temp/Job-33.odb,Step-1,Increment      1: Step Time =    1.000,"P-33-1",           783,       14.7913,       168.464,            0.,NA,NA,"",   1.03837E+06,   1.11055E+06,   1.11055E+06
C:/temp/Job-33.odb,Step-1,Increment      1: Step Time =    1.000,"P-33-1",           784,       168.796,       15.2330,            0.,NA,NA,"",   1.01602E+06,   1.01372E+06,   1.01372E+06
C:/temp/Job-33.odb,Step-1,Increment      1: Step Time =    1.000,"P-33-1",           785,       30.7443,       14.3543,            0.,NA,NA,"",   1.15765E+06,   1.16461E+06,   1.16461E+06
C:/temp/Job-33.odb,Step-1,Increment      1: Step Time =    1.000,"P-33-1",           786,       19.0512,       29.2547,            0.,NA,NA,"",   1.07970E+06,   1.13509E+06,   1.13509E+06
C:/temp/Job-33.odb,Step-1,Increment      1: Step Time =    1.000,"P-33-1",           787,       166.288,       186.258,            0.,NA,NA,"",   1.01417E+06,   1.01188E+06,   1.01188E+06
C:/temp/Job-33.odb,Step-1,Increment      1: Step Time =    1.000,"P-33-1",           788,       184.707,       168.949,            0.,NA,NA,"",   1.00802E+06,   1.01215E+06,   1.01215E+06
C:/temp/Job-33.odb,Step-1,Increment      1: Step Time =    1.000,"P-33-1",           789,       30.9063,       184.998,            0.,NA,NA,"",   1.15718E+06,   1.16415E+06,   1.16415E+06
C:/temp/Job-33.odb,Step-1,Increment      1: Step Time =    1.000,"P-33-1",           790,       186.258,       33.6898,            0.,NA,NA,"",   1.00448E+06,   1.01076E+06,   1.01076E+06
C:/temp/Job-33.odb,Step-1,Increment      1: Step Time =    1.000,"P-33-1",           791,       14.2479,       126.302,            0.,NA,NA,"",   767.002E+03,   852.548E+03,   852.548E+03
C:/temp/Job-33.odb,Step-1,Increment      1: Step Time =    1.000,"P-33-1",           792,       124.991,       14.7392,            0.,NA,NA,"",   992.527E+03,   993.677E+03,   993.677E+03
C:/temp/Job-33.odb,Step-1,Increment      1: Step Time =    1.000,"P-33-1",           793,       14.2931,       75.3686,            0.,NA,NA,"",   758.608E+03,   844.434E+03,   844.434E+03
C:/temp/Job-33.odb,Step-1,Increment      1: Step Time =    1.000,"P-33-1",           794,       76.1129,       14.1230,            0.,NA,NA,"",   1.02278E+06,   1.02442E+06,   1.02442E+06
C:/temp/Job-33.odb,Step-1,Increment      1: Step Time =    1.000,"P-33-1",           795,       185.672,       75.8444,            0.,NA,NA,"",   944.856E+03,   996.560E+03,   996.560E+03
C:/temp/Job-33.odb,Step-1,Increment      1: Step Time =    1.000,"P-33-1",           796,       184.684,       125.043,            0.,NA,NA,"",   949.181E+03,   996.983E+03,   996.983E+03
C:/temp/Job-33.odb,Step-1,Increment      1: Step Time =    1.000,"P-33-1",           797,       124.115,       185.023,            0.,NA,NA,"",   991.492E+03,     993.7E+03,     993.7E+03
C:/temp/Job-33.odb,Step-1,Increment      1: Step Time =    1.000,"P-33-1",           798,       74.3917,       184.975,            0.,NA,NA,"",   1.03388E+06,   1.03485E+06,   1.03485E+06
C:/temp/Job-33.odb,Step-1,Increment      1: Step Time =    1.000,"P-33-1",           799,       85.5358,       14.5389,            0.,NA,NA,"",   995.965E+03,   1.00202E+06,   1.00202E+06
C:/temp/Job-33.odb,Step-1,Increment      1: Step Time =    1.000,"P-33-1",           800,       15.8644,       116.328,            0.,NA,NA,"",   718.587E+03,   804.099E+03,   804.099E+03
C:/temp/Job-33.odb,Step-1,Increment      1: Step Time =    1.000,"P-33-1",           801,       15.1344,       85.4127,            0.,NA,NA,"",   709.494E+03,   795.863E+03,   795.863E+03
C:/temp/Job-33.odb,Step-1,Increment      1: Step Time =    1.000,"P-33-1",           802,       115.001,       14.6052,            0.,NA,NA,"",   975.580E+03,   982.000E+03,   982.000E+03
C:/temp/Job-33.odb,Step-1,Increment      1: Step Time =    1.000,"P-33-1",           803,       185.810,       85.0557,            0.,NA,NA,"",   919.912E+03,   983.090E+03,   983.090E+03
C:/temp/Job-33.odb,Step-1,Increment      1: Step Time =    1.000,"P-33-1",           804,       114.489,       185.193,            0.,NA,NA,"",   975.643E+03,   982.405E+03,   982.405E+03
C:/temp/Job-33.odb,Step-1,Increment      1: Step Time =    1.000,"P-33-1",           805,       184.554,       114.817,            0.,NA,NA,"",   920.163E+03,   980.549E+03,   980.549E+03
C:/temp/Job-33.odb,Step-1,Increment      1: Step Time =    1.000,"P-33-1",           806,       84.4689,       184.748,            0.,NA,NA,"",   1.00296E+06,   1.00900E+06,   1.00900E+06
C:/temp/Job-33.odb,Step-1,Increment      1: Step Time =    1.000,"P-33-1",           807,       129.873,       120.166,            0.,NA,NA,"",   1.25443E+06,   1.07927E+06,   1.07927E+06
C:/temp/Job-33.odb,Step-1,Increment      1: Step Time =    1.000,"P-33-1",           808,       70.1046,       79.7777,            0.,NA,NA,"",   1.14347E+06,   1.01419E+06,   1.01419E+06
C:/temp/Job-33.odb,Step-1,Increment      1: Step Time =    1.000,"P-33-1",           809,       130.978,       81.5229,            0.,NA,NA,"",   1.18727E+06,   1.00651E+06,   1.00651E+06
C:/temp/Job-33.odb,Step-1,Increment      1: Step Time =    1.000,"P-33-1",           810,       68.8334,       118.582,            0.,NA,NA,"",   1.06726E+06,   938.859E+03,   938.859E+03
C:/temp/Job-33.odb,Step-1,Increment      1: Step Time =    1.000,"P-33-1",           811,       15.0747,       105.477,            0.,NA,NA,"",   681.698E+03,   768.673E+03,   768.673E+03
C:/temp/Job-33.odb,Step-1,Increment      1: Step Time =    1.000,"P-33-1",           812,       95.3794,       14.8171,            0.,NA,NA,"",   975.433E+03,   984.995E+03,   984.995E+03
C:/temp/Job-33.odb,Step-1,Increment      1: Step Time =    1.000,"P-33-1",           813,       185.118,       94.4960,            0.,NA,NA,"",   902.943E+03,   971.833E+03,   971.833E+03
C:/temp/Job-33.odb,Step-1,Increment      1: Step Time =    1.000,"P-33-1",           814,       104.575,       185.071,            0.,NA,NA,"",   969.106E+03,   979.040E+03,   979.040E+03
C:/temp/Job-33.odb,Step-1,Increment      1: Step Time =    1.000,"P-33-1",           815,       15.2093,       95.3856,            0.,NA,NA,"",   680.516E+03,   767.484E+03,   767.484E+03
C:/temp/Job-33.odb,Step-1,Increment      1: Step Time =    1.000,"P-33-1",           816,       105.168,       14.7399,            0.,NA,NA,"",   967.952E+03,   977.653E+03,   977.653E+03
C:/temp/Job-33.odb,Step-1,Increment      1: Step Time =    1.000,"P-33-1",           817,       184.810,       104.497,            0.,NA,NA,"",   900.312E+03,   968.674E+03,   968.674E+03
C:/temp/Job-33.odb,Step-1,Increment      1: Step Time =    1.000,"P-33-1",           818,       94.6005,       184.823,            0.,NA,NA,"",   978.742E+03,   988.520E+03,   988.520E+03
C:/temp/Job-33.odb,Step-1,Increment      1: Step Time =    1.000,"P-33-1",           819,       84.5034,       66.7758,            0.,NA,NA,"",   1.41309E+06,   1.44082E+06,   1.44082E+06
C:/temp/Job-33.odb,Step-1,Increment      1: Step Time =    1.000,"P-33-1",           820,       115.647,       132.843,            0.,NA,NA,"",   1.43087E+06,   1.45687E+06,   1.45687E+06
C:/temp/Job-33.odb,Step-1,Increment      1: Step Time =    1.000,"P-33-1",           821,       117.318,       68.1202,            0.,NA,NA,"",   1.45833E+06,   1.46198E+06,   1.46198E+06
C:/temp/Job-33.odb,Step-1,Increment      1: Step Time =    1.000,"P-33-1",           822,       126.161,       77.2038,            0.,NA,NA,"",   1.36687E+06,   1.20965E+06,   1.20965E+06
C:/temp/Job-33.odb,Step-1,Increment      1: Step Time =    1.000,"P-33-1",           823,       73.5893,       123.021,            0.,NA,NA,"",   1.26781E+06,   1.14641E+06,   1.14641E+06
C:/temp/Job-33.odb,Step-1,Increment      1: Step Time =    1.000,"P-33-1",           824,       81.6289,       133.150,            0.,NA,NA,"",   1.40801E+06,   1.40696E+06,   1.40696E+06
C:/temp/Job-33.odb,Step-1,Increment      1: Step Time =    1.000,"P-33-1",           825,       112.295,       65.1884,            0.,NA,NA,"",   1.38549E+06,   1.44783E+06,   1.44783E+06
C:/temp/Job-33.odb,Step-1,Increment      1: Step Time =    1.000,"P-33-1",           826,       101.528,       68.3425,            0.,NA,NA,"",   1.48304E+06,   1.63330E+06,   1.63330E+06
C:/temp/Job-33.odb,Step-1,Increment      1: Step Time =    1.000,"P-33-1",           827,       89.5996,       137.232,            0.,NA,NA,"",   1.33049E+06,   1.40810E+06,   1.40810E+06
C:/temp/Job-33.odb,Step-1,Increment      1: Step Time =    1.000,"P-33-1",           828,       124.138,       90.6016,            0.,NA,NA,"",   686.160E+03,   104.558E+03,   104.558E+03
C:/temp/Job-33.odb,Step-1,Increment      1: Step Time =    1.000,"P-33-1",           829,       75.8211,       109.431,            0.,NA,NA,"",   605.432E+03,   115.585E+03,   115.585E+03
C:/temp/Job-33.odb,Step-1,Increment      1: Step Time =    1.000,"P-33-1",           830,       20.6653,       90.6762,            0.,NA,NA,"",   689.643E+03,   772.820E+03,   772.820E+03
C:/temp/Job-33.odb,Step-1,Increment      1: Step Time =    1.000,"P-33-1",           831,       110.103,       19.3594,            0.,NA,NA,"",   993.788E+03,   1.00738E+06,   1.00738E+06
C:/temp/Job-33.odb,Step-1,Increment      1: Step Time =    1.000,"P-33-1",           832,       179.622,       109.375,            0.,NA,NA,"",   900.648E+03,   954.827E+03,   954.827E+03
C:/temp/Job-33.odb,Step-1,Increment      1: Step Time =    1.000,"P-33-1",           833,       89.3988,       179.559,            0.,NA,NA,"",   1.01582E+06,   1.02955E+06,   1.02955E+06
C:/temp/Job-33.odb,Step-1,Increment      1: Step Time =    1.000,"P-33-1",           834,       20.0256,       100.623,            0.,NA,NA,"",   673.608E+03,   758.108E+03,   758.108E+03
C:/temp/Job-33.odb,Step-1,Increment      1: Step Time =    1.000,"P-33-1",           835,       100.505,       19.8809,            0.,NA,NA,"",   994.219E+03,   1.01084E+06,   1.01084E+06
C:/temp/Job-33.odb,Step-1,Increment      1: Step Time =    1.000,"P-33-1",           836,       179.750,       98.9347,            0.,NA,NA,"",   888.844E+03,   947.341E+03,   947.341E+03
C:/temp/Job-33.odb,Step-1,Increment      1: Step Time =    1.000,"P-33-1",           837,       99.5238,       179.887,            0.,NA,NA,"",   996.184E+03,   1.01305E+06,   1.01305E+06
C:/temp/Job-33.odb,Step-1,Increment      1: Step Time =    1.000,"P-33-1",           838,       19.2534,       57.1075,            0.,NA,NA,"",   895.937E+03,   968.173E+03,   968.173E+03
C:/temp/Job-33.odb,Step-1,Increment      1: Step Time =    1.000,"P-33-1",           839,       62.4591,       21.2152,            0.,NA,NA,"",   1.10066E+06,   1.09558E+06,   1.09558E+06
C:/temp/Job-33.odb,Step-1,Increment      1: Step Time =    1.000,"P-33-1",           840,       59.8238,       181.079,            0.,NA,NA,"",   1.09878E+06,   1.09369E+06,   1.09369E+06
C:/temp/Job-33.odb,Step-1,Increment      1: Step Time =    1.000,"P-33-1",           841,       180.617,       59.1114,            0.,NA,NA,"",   1.00258E+06,   1.02129E+06,   1.02129E+06
C:/temp/Job-33.odb,Step-1,Increment      1: Step Time =    1.000,"P-33-1",           842,       139.746,       17.7903,            0.,NA,NA,"",   1.03056E+06,   1.02475E+06,   1.02475E+06
C:/temp/Job-33.odb,Step-1,Increment      1: Step Time =    1.000,"P-33-1",           843,       20.3762,       140.643,            0.,NA,NA,"",   886.678E+03,   957.446E+03,   957.446E+03
C:/temp/Job-33.odb,Step-1,Increment      1: Step Time =    1.000,"P-33-1",           844,       179.751,       140.454,            0.,NA,NA,"",   1.00614E+06,   1.02291E+06,   1.02291E+06
C:/temp/Job-33.odb,Step-1,Increment      1: Step Time =    1.000,"P-33-1",           845,       141.198,       180.846,            0.,NA,NA,"",   1.03647E+06,   1.02960E+06,   1.02960E+06
C:/temp/Job-33.odb,Step-1,Increment      1: Step Time =    1.000,"P-33-1",           846,       16.2017,       162.562,            0.,NA,NA,"",   1.00695E+06,   1.07808E+06,   1.07808E+06
C:/temp/Job-33.odb,Step-1,Increment      1: Step Time =    1.000,"P-33-1",           847,       162.890,       19.8760,            0.,NA,NA,"",   1.03170E+06,   1.02594E+06,   1.02594E+06
C:/temp/Job-33.odb,Step-1,Increment      1: Step Time =    1.000,"P-33-1",           848,       14.2888,       173.984,            0.,NA,NA,"",   1.07979E+06,   1.14841E+06,   1.14841E+06
C:/temp/Job-33.odb,Step-1,Increment      1: Step Time =    1.000,"P-33-1",           849,       174.051,       15.6522,            0.,NA,NA,"",   1.01219E+06,   1.01114E+06,   1.01114E+06
C:/temp/Job-33.odb,Step-1,Increment      1: Step Time =    1.000,"P-33-1",           850,       35.3141,       17.7599,            0.,NA,NA,"",   1.14415E+06,   1.14856E+06,   1.14856E+06
C:/temp/Job-33.odb,Step-1,Increment      1: Step Time =    1.000,"P-33-1",           851,       18.4335,       38.8154,            0.,NA,NA,"",   1.01025E+06,   1.07551E+06,   1.07551E+06
C:/temp/Job-33.odb,Step-1,Increment      1: Step Time =    1.000,"P-33-1",           852,       26.4419,       15.1611,            0.,NA,NA,"",   1.17098E+06,   1.18419E+06,   1.18419E+06
C:/temp/Job-33.odb,Step-1,Increment      1: Step Time =    1.000,"P-33-1",           853,       14.9989,       25.9239,            0.,NA,NA,"",   1.08611E+06,   1.15160E+06,   1.15160E+06
C:/temp/Job-33.odb,Step-1,Increment      1: Step Time =    1.000,"P-33-1",           854,       184.250,       174.089,            0.,NA,NA,"",   1.00782E+06,   1.01020E+06,   1.01020E+06
C:/temp/Job-33.odb,Step-1,Increment      1: Step Time =    1.000,"P-33-1",           855,       170.605,       186.171,            0.,NA,NA,"",   1.01218E+06,   1.01062E+06,   1.01062E+06
C:/temp/Job-33.odb,Step-1,Increment      1: Step Time =    1.000,"P-33-1",           856,       162.468,       183.198,            0.,NA,NA,"",   1.02365E+06,   1.01931E+06,   1.01931E+06
C:/temp/Job-33.odb,Step-1,Increment      1: Step Time =    1.000,"P-33-1",           857,       180.420,       163.188,            0.,NA,NA,"",   1.01914E+06,   1.02239E+06,   1.02239E+06
C:/temp/Job-33.odb,Step-1,Increment      1: Step Time =    1.000,"P-33-1",           858,       183.219,       37.5150,            0.,NA,NA,"",   1.01114E+06,   1.01729E+06,   1.01729E+06
C:/temp/Job-33.odb,Step-1,Increment      1: Step Time =    1.000,"P-33-1",           859,       35.5597,       180.154,            0.,NA,NA,"",   1.14461E+06,   1.15066E+06,   1.15066E+06
C:/temp/Job-33.odb,Step-1,Increment      1: Step Time =    1.000,"P-33-1",           860,       26.1605,       184.602,            0.,NA,NA,"",   1.16960E+06,   1.18390E+06,   1.18390E+06
C:/temp/Job-33.odb,Step-1,Increment      1: Step Time =    1.000,"P-33-1",           861,       186.165,       29.3696,            0.,NA,NA,"",   1.00500E+06,   1.00934E+06,   1.00934E+06
C:/temp/Job-33.odb,Step-1,Increment      1: Step Time =    1.000,"P-33-1",           862,       130.104,       19.7486,            0.,NA,NA,"",   1.02861E+06,   1.02696E+06,   1.02696E+06
C:/temp/Job-33.odb,Step-1,Increment      1: Step Time =    1.000,"P-33-1",           863,       19.2014,       130.641,            0.,NA,NA,"",   810.346E+03,   887.762E+03,   887.762E+03
C:/temp/Job-33.odb,Step-1,Increment      1: Step Time =    1.000,"P-33-1",           864,       179.842,       69.6967,            0.,NA,NA,"",   976.736E+03,   1.00591E+06,   1.00591E+06
C:/temp/Job-33.odb,Step-1,Increment      1: Step Time =    1.000,"P-33-1",           865,       68.9890,       180.025,            0.,NA,NA,"",   1.07782E+06,   1.07598E+06,   1.07598E+06
C:/temp/Job-33.odb,Step-1,Increment      1: Step Time =    1.000,"P-33-1",           866,       17.1157,       65.6537,            0.,NA,NA,"",   828.772E+03,   908.372E+03,   908.372E+03
C:/temp/Job-33.odb,Step-1,Increment      1: Step Time =    1.000,"P-33-1",           867,       68.7144,       18.0775,            0.,NA,NA,"",   1.06786E+06,   1.06612E+06,   1.06612E+06
C:/temp/Job-33.odb,Step-1,Increment      1: Step Time =    1.000,"P-33-1",           868,       179.750,       130.177,            0.,NA,NA,"",   978.687E+03,   1.00728E+06,   1.00728E+06
C:/temp/Job-33.odb,Step-1,Increment      1: Step Time =    1.000,"P-33-1",           869,       130.835,       179.429,            0.,NA,NA,"",   1.03554E+06,   1.03321E+06,   1.03321E+06
C:/temp/Job-33.odb,Step-1,Increment      1: Step Time =    1.000,"P-33-1",           870,       20.2439,       80.2909,            0.,NA,NA,"",   741.524E+03,   822.064E+03,   822.064E+03
C:/temp/Job-33.odb,Step-1,Increment      1: Step Time =    1.000,"P-33-1",           871,       119.906,       19.4916,            0.,NA,NA,"",   1.01065E+06,   1.01676E+06,   1.01676E+06
C:/temp/Job-33.odb,Step-1,Increment      1: Step Time =    1.000,"P-33-1",           872,       18.9355,       119.306,            0.,NA,NA,"",   736.526E+03,   819.024E+03,   819.024E+03
C:/temp/Job-33.odb,Step-1,Increment      1: Step Time =    1.000,"P-33-1",           873,       179.236,       119.752,            0.,NA,NA,"",   938.284E+03,   980.076E+03,   980.076E+03
C:/temp/Job-33.odb,Step-1,Increment      1: Step Time =    1.000,"P-33-1",           874,       79.1051,       179.590,            0.,NA,NA,"",   1.04738E+06,   1.05292E+06,   1.05292E+06
C:/temp/Job-33.odb,Step-1,Increment      1: Step Time =    1.000,"P-33-1",           875,       70.1047,       84.7761,            0.,NA,NA,"",   978.828E+03,   825.429E+03,   825.429E+03
C:/temp/Job-33.odb,Step-1,Increment      1: Step Time =    1.000,"P-33-1",           876,       129.863,       115.184,            0.,NA,NA,"",   1.09293E+06,   887.238E+03,   887.238E+03
C:/temp/Job-33.odb,Step-1,Increment      1: Step Time =    1.000,"P-33-1",           877,       20.1272,       110.361,            0.,NA,NA,"",   694.051E+03,   777.569E+03,   777.569E+03
C:/temp/Job-33.odb,Step-1,Increment      1: Step Time =    1.000,"P-33-1",           878,       76.3983,       66.1196,            0.,NA,NA,"",   1.38507E+06,   1.33971E+06,   1.33971E+06
C:/temp/Job-33.odb,Step-1,Increment      1: Step Time =    1.000,"P-33-1",           879,       88.4250,       66.8306,            0.,NA,NA,"",   1.41246E+06,   1.48131E+06,   1.48131E+06
C:/temp/Job-33.odb,Step-1,Increment      1: Step Time =    1.000,"P-33-1",           880,       123.525,       133.217,            0.,NA,NA,"",   1.43107E+06,   1.36942E+06,   1.36942E+06
C:/temp/Job-33.odb,Step-1,Increment      1: Step Time =    1.000,"P-33-1",           881,       113.885,       68.1830,            0.,NA,NA,"",   1.46296E+06,   1.50856E+06,   1.50856E+06
C:/temp/Job-33.odb,Step-1,Increment      1: Step Time =    1.000,"P-33-1",           882,       121.672,       67.9930,            0.,NA,NA,"",   1.44960E+06,   1.40116E+06,   1.40116E+06
C:/temp/Job-33.odb,Step-1,Increment      1: Step Time =    1.000,"P-33-1",           883,       85.0065,       134.024,            0.,NA,NA,"",   1.40009E+06,   1.43272E+06,   1.43272E+06
C:/temp/Job-33.odb,Step-1,Increment      1: Step Time =    1.000,"P-33-1",           884,       111.866,       133.008,            0.,NA,NA,"",   1.41826E+06,   1.48805E+06,   1.48805E+06
C:/temp/Job-33.odb,Step-1,Increment      1: Step Time =    1.000,"P-33-1",           885,       77.2642,       132.646,            0.,NA,NA,"",   1.39960E+06,   1.35594E+06,   1.35594E+06
C:/temp/Job-33.odb,Step-1,Increment      1: Step Time =    1.000,"P-33-1",           886,       100.554,       73.9991,            0.,NA,NA,"",   2.06773E+06,   2.19658E+06,   2.19658E+06
C:/temp/Job-33.odb,Step-1,Increment      1: Step Time =    1.000,"P-33-1",           887,       99.7696,       125.927,            0.,NA,NA,"",   2.07771E+06,   2.20680E+06,   2.20680E+06
C:/temp/Job-33.odb,Step-1,Increment      1: Step Time =    1.000,"P-33-1",           888,       99.1300,       131.425,            0.,NA,NA,"",   1.49473E+06,   1.64681E+06,   1.64681E+06
C:/temp/Job-33.odb,Step-1,Increment      1: Step Time =    1.000,"P-33-1",           889,       101.639,       62.6945,            0.,NA,NA,"",   1.26526E+06,   1.39391E+06,   1.39391E+06
C:/temp/Job-33.odb,Step-1,Increment      1: Step Time =    1.000,"P-33-1",           890,       24.5925,       110.053,            0.,NA,NA,"",   690.549E+03,   770.545E+03,   770.545E+03
C:/temp/Job-33.odb,Step-1,Increment      1: Step Time =    1.000,"P-33-1",           891,       90.5555,       24.6850,            0.,NA,NA,"",   1.03166E+06,   1.05131E+06,   1.05131E+06
C:/temp/Job-33.odb,Step-1,Increment      1: Step Time =    1.000,"P-33-1",           892,       175.840,       88.0012,            0.,NA,NA,"",   906.481E+03,   950.028E+03,   950.028E+03
C:/temp/Job-33.odb,Step-1,Increment      1: Step Time =    1.000,"P-33-1",           893,       109.286,       175.684,            0.,NA,NA,"",   1.01527E+06,   1.03493E+06,   1.03493E+06
C:/temp/Job-33.odb,Step-1,Increment      1: Step Time =    1.000,"P-33-1",           894,       25.7180,       80.0305,            0.,NA,NA,"",   753.124E+03,   826.690E+03,   826.690E+03
C:/temp/Job-33.odb,Step-1,Increment      1: Step Time =    1.000,"P-33-1",           895,       119.342,       23.8344,            0.,NA,NA,"",   1.03159E+06,   1.04044E+06,   1.04044E+06
C:/temp/Job-33.odb,Step-1,Increment      1: Step Time =    1.000,"P-33-1",           896,       80.6311,       24.0353,            0.,NA,NA,"",   1.06063E+06,   1.06971E+06,   1.06971E+06
C:/temp/Job-33.odb,Step-1,Increment      1: Step Time =    1.000,"P-33-1",           897,       26.7536,       118.704,            0.,NA,NA,"",   746.794E+03,   819.827E+03,   819.827E+03
C:/temp/Job-33.odb,Step-1,Increment      1: Step Time =    1.000,"P-33-1",           898,       173.865,       119.752,            0.,NA,NA,"",   942.515E+03,   971.533E+03,   971.533E+03
C:/temp/Job-33.odb,Step-1,Increment      1: Step Time =    1.000,"P-33-1",           899,       78.7362,       174.208,            0.,NA,NA,"",   1.07567E+06,   1.08338E+06,   1.08338E+06
C:/temp/Job-33.odb,Step-1,Increment      1: Step Time =    1.000,"P-33-1",           900,       175.917,       78.3251,            0.,NA,NA,"",   950.217E+03,   981.983E+03,   981.983E+03
C:/temp/Job-33.odb,Step-1,Increment      1: Step Time =    1.000,"P-33-1",           901,       118.321,       175.695,            0.,NA,NA,"",   1.03061E+06,   1.04195E+06,   1.04195E+06
C:/temp/Job-33.odb,Step-1,Increment      1: Step Time =    1.000,"P-33-1",           902,       174.558,       98.6913,            0.,NA,NA,"",   871.762E+03,   921.065E+03,   921.065E+03
C:/temp/Job-33.odb,Step-1,Increment      1: Step Time =    1.000,"P-33-1",           903,       99.6117,       174.712,            0.,NA,NA,"",   1.01676E+06,   1.04176E+06,   1.04176E+06
C:/temp/Job-33.odb,Step-1,Increment      1: Step Time =    1.000,"P-33-1",           904,       24.5851,       101.337,            0.,NA,NA,"",   669.138E+03,   750.734E+03,   750.734E+03
C:/temp/Job-33.odb,Step-1,Increment      1: Step Time =    1.000,"P-33-1",           905,       100.835,       25.1141,            0.,NA,NA,"",   1.01557E+06,   1.04050E+06,   1.04050E+06
C:/temp/Job-33.odb,Step-1,Increment      1: Step Time =    1.000,"P-33-1",           906,       24.0829,       59.9806,            0.,NA,NA,"",   903.684E+03,   965.829E+03,   965.829E+03
C:/temp/Job-33.odb,Step-1,Increment      1: Step Time =    1.000,"P-33-1",           907,       60.1814,       25.0717,            0.,NA,NA,"",   1.12256E+06,   1.11526E+06,   1.11526E+06
C:/temp/Job-33.odb,Step-1,Increment      1: Step Time =    1.000,"P-33-1",           908,       146.080,       24.8218,            0.,NA,NA,"",   1.06561E+06,   1.05354E+06,   1.05354E+06
C:/temp/Job-33.odb,Step-1,Increment      1: Step Time =    1.000,"P-33-1",           909,       24.9043,       141.480,            0.,NA,NA,"",   913.820E+03,   973.959E+03,   973.959E+03
C:/temp/Job-33.odb,Step-1,Increment      1: Step Time =    1.000,"P-33-1",           910,       174.559,       140.211,            0.,NA,NA,"",   1.02756E+06,   1.03305E+06,   1.03305E+06
C:/temp/Job-33.odb,Step-1,Increment      1: Step Time =    1.000,"P-33-1",           911,       141.496,       174.715,            0.,NA,NA,"",   1.07005E+06,   1.05860E+06,   1.05860E+06
C:/temp/Job-33.odb,Step-1,Increment      1: Step Time =    1.000,"P-33-1",           912,       59.4067,       176.992,            0.,NA,NA,"",   1.11563E+06,   1.10901E+06,   1.10901E+06
C:/temp/Job-33.odb,Step-1,Increment      1: Step Time =    1.000,"P-33-1",           913,       174.493,       58.7991,            0.,NA,NA,"",   1.03082E+06,   1.03484E+06,   1.03484E+06
C:/temp/Job-33.odb,Step-1,Increment      1: Step Time =    1.000,"P-33-1",           914,       71.2302,       22.7478,            0.,NA,NA,"",   1.08537E+06,   1.08495E+06,   1.08495E+06
C:/temp/Job-33.odb,Step-1,Increment      1: Step Time =    1.000,"P-33-1",           915,       131.228,       173.576,            0.,NA,NA,"",   1.06959E+06,   1.06502E+06,   1.06502E+06
C:/temp/Job-33.odb,Step-1,Increment      1: Step Time =    1.000,"P-33-1",           916,       25.5401,       126.920,            0.,NA,NA,"",   806.361E+03,   874.719E+03,   874.719E+03
C:/temp/Job-33.odb,Step-1,Increment      1: Step Time =    1.000,"P-33-1",           917,       173.994,       70.3832,            0.,NA,NA,"",   991.017E+03,   1.00699E+06,   1.00699E+06
C:/temp/Job-33.odb,Step-1,Increment      1: Step Time =    1.000,"P-33-1",           918,       96.6533,       67.8962,            0.,NA,NA,"",   1.46028E+06,   1.60460E+06,   1.60460E+06
C:/temp/Job-33.odb,Step-1,Increment      1: Step Time =    1.000,"P-33-1",           919,       103.780,       132.030,            0.,NA,NA,"",   1.45933E+06,   1.60518E+06,   1.60518E+06
C:/temp/Job-33.odb,Step-1,Increment      1: Step Time =    1.000,"P-33-1",           920,       101.333,       57.4857,            0.,NA,NA,"",   1.17654E+06,   1.28469E+06,   1.28469E+06
C:/temp/Job-33.odb,Step-1,Increment      1: Step Time =    1.000,"P-33-1",           921,       98.8356,       136.992,            0.,NA,NA,"",   1.27307E+06,   1.40306E+06,   1.40306E+06
C:/temp/Job-33.odb,Step-1,Increment      1: Step Time =    1.000,"P-33-1",           922,       36.6092,       20.6637,            0.,NA,NA,"",   1.14145E+06,   1.14619E+06,   1.14619E+06
C:/temp/Job-33.odb,Step-1,Increment      1: Step Time =    1.000,"P-33-1",           923,       23.7769,       37.1012,            0.,NA,NA,"",   1.04950E+06,   1.09790E+06,   1.09790E+06
C:/temp/Job-33.odb,Step-1,Increment      1: Step Time =    1.000,"P-33-1",           924,       21.2821,       160.321,            0.,NA,NA,"",   1.02134E+06,   1.07840E+06,   1.07840E+06
C:/temp/Job-33.odb,Step-1,Increment      1: Step Time =    1.000,"P-33-1",           925,       162.179,       25.0094,            0.,NA,NA,"",   1.04654E+06,   1.03784E+06,   1.03784E+06
C:/temp/Job-33.odb,Step-1,Increment      1: Step Time =    1.000,"P-33-1",           926,       178.534,       38.2690,            0.,NA,NA,"",   1.02526E+06,   1.02701E+06,   1.02701E+06
C:/temp/Job-33.odb,Step-1,Increment      1: Step Time =    1.000,"P-33-1",           927,       35.6644,       175.172,            0.,NA,NA,"",   1.13736E+06,   1.14685E+06,   1.14685E+06
C:/temp/Job-33.odb,Step-1,Increment      1: Step Time =    1.000,"P-33-1",           928,       161.726,       178.468,            0.,NA,NA,"",   1.03764E+06,   1.03069E+06,   1.03069E+06
C:/temp/Job-33.odb,Step-1,Increment      1: Step Time =    1.000,"P-33-1",           929,       175.847,       161.857,            0.,NA,NA,"",   1.03439E+06,   1.03306E+06,   1.03306E+06
C:/temp/Job-33.odb,Step-1,Increment      1: Step Time =    1.000,"P-33-1",           930,       55.5801,       186.029,            0.,NA,NA,"",   1.08813E+06,   1.08469E+06,   1.08469E+06
C:/temp/Job-33.odb,Step-1,Increment      1: Step Time =    1.000,"P-33-1",           931,       184.378,       52.7883,            0.,NA,NA,"",   998.609E+03,   1.01736E+06,   1.01736E+06
C:/temp/Job-33.odb,Step-1,Increment      1: Step Time =    1.000,"P-33-1",           932,       144.309,       13.2154,            0.,NA,NA,"",   1.01250E+06,   1.00836E+06,   1.00836E+06
C:/temp/Job-33.odb,Step-1,Increment      1: Step Time =    1.000,"P-33-1",           933,       15.8697,       145.021,            0.,NA,NA,"",   892.916E+03,   971.962E+03,   971.962E+03
C:/temp/Job-33.odb,Step-1,Increment      1: Step Time =    1.000,"P-33-1",           934,       54.8760,       15.3039,            0.,NA,NA,"",   1.09488E+06,   1.09091E+06,   1.09091E+06
C:/temp/Job-33.odb,Step-1,Increment      1: Step Time =    1.000,"P-33-1",           935,       15.0966,       54.4799,            0.,NA,NA,"",   892.179E+03,   972.826E+03,   972.826E+03
C:/temp/Job-33.odb,Step-1,Increment      1: Step Time =    1.000,"P-33-1",           936,       185.072,       145.402,            0.,NA,NA,"",   994.382E+03,   1.01598E+06,   1.01598E+06
C:/temp/Job-33.odb,Step-1,Increment      1: Step Time =    1.000,"P-33-1",           937,       147.341,       184.416,            0.,NA,NA,"",   1.02241E+06,   1.01700E+06,   1.01700E+06
C:/temp/Job-33.odb,Step-1,Increment      1: Step Time =    1.000,"P-33-1",           938,       174.438,       10.3502,            0.,NA,NA,"",   1.00604E+06,   1.00557E+06,   1.00557E+06
C:/temp/Job-33.odb,Step-1,Increment      1: Step Time =    1.000,"P-33-1",           939,       173.496,       20.9764,            0.,NA,NA,"",   1.01989E+06,   1.01792E+06,   1.01792E+06
C:/temp/Job-33.odb,Step-1,Increment      1: Step Time =    1.000,"P-33-1",           940,       19.2312,       170.250,            0.,NA,NA,"",   1.07544E+06,   1.13068E+06,   1.13068E+06
C:/temp/Job-33.odb,Step-1,Increment      1: Step Time =    1.000,"P-33-1",           941,       12.6670,       159.421,            0.,NA,NA,"",   961.099E+03,   1.04503E+06,   1.04503E+06
C:/temp/Job-33.odb,Step-1,Increment      1: Step Time =    1.000,"P-33-1",           942,       157.853,       19.3453,            0.,NA,NA,"",   1.03465E+06,   1.02781E+06,   1.02781E+06
C:/temp/Job-33.odb,Step-1,Increment      1: Step Time =    1.000,"P-33-1",           943,       10.5681,       30.3720,            0.,NA,NA,"",   1.02082E+06,   1.10654E+06,   1.10654E+06
C:/temp/Job-33.odb,Step-1,Increment      1: Step Time =    1.000,"P-33-1",           944,       27.2900,       20.2621,            0.,NA,NA,"",   1.15063E+06,   1.16964E+06,   1.16964E+06
C:/temp/Job-33.odb,Step-1,Increment      1: Step Time =    1.000,"P-33-1",           945,       39.2520,       13.8338,            0.,NA,NA,"",   1.13149E+06,   1.13221E+06,   1.13221E+06
C:/temp/Job-33.odb,Step-1,Increment      1: Step Time =    1.000,"P-33-1",           946,       19.3798,       26.0174,            0.,NA,NA,"",   1.10201E+06,   1.15258E+06,   1.15258E+06
C:/temp/Job-33.odb,Step-1,Increment      1: Step Time =    1.000,"P-33-1",           947,       16.6237,       45.3037,            0.,NA,NA,"",   956.670E+03,   1.03035E+06,   1.03035E+06
C:/temp/Job-33.odb,Step-1,Increment      1: Step Time =    1.000,"P-33-1",           948,       189.604,       174.473,            0.,NA,NA,"",   1.00163E+06,   1.00489E+06,   1.00489E+06
C:/temp/Job-33.odb,Step-1,Increment      1: Step Time =    1.000,"P-33-1",           949,       158.170,       185.941,            0.,NA,NA,"",   1.01850E+06,   1.01456E+06,   1.01456E+06
C:/temp/Job-33.odb,Step-1,Increment      1: Step Time =    1.000,"P-33-1",           950,       181.417,       158.543,            0.,NA,NA,"",   1.01583E+06,   1.02228E+06,   1.02228E+06
C:/temp/Job-33.odb,Step-1,Increment      1: Step Time =    1.000,"P-33-1",           951,       178.865,       173.567,            0.,NA,NA,"",   1.01702E+06,   1.01723E+06,   1.01723E+06
C:/temp/Job-33.odb,Step-1,Increment      1: Step Time =    1.000,"P-33-1",           952,       170.956,       181.532,            0.,NA,NA,"",   1.01824E+06,   1.01600E+06,   1.01600E+06
C:/temp/Job-33.odb,Step-1,Increment      1: Step Time =    1.000,"P-33-1",           953,       25.5489,       189.597,            0.,NA,NA,"",   1.17894E+06,   1.18673E+06,   1.18673E+06
C:/temp/Job-33.odb,Step-1,Increment      1: Step Time =    1.000,"P-33-1",           954,       27.3435,       180.032,            0.,NA,NA,"",   1.14970E+06,   1.16905E+06,   1.16905E+06
C:/temp/Job-33.odb,Step-1,Increment      1: Step Time =    1.000,"P-33-1",           955,       181.482,       29.0110,            0.,NA,NA,"",   1.01255E+06,   1.01477E+06,   1.01477E+06
C:/temp/Job-33.odb,Step-1,Increment      1: Step Time =    1.000,"P-33-1",           956,       185.963,       41.8189,            0.,NA,NA,"",   1.00309E+06,   1.01413E+06,   1.01413E+06
C:/temp/Job-33.odb,Step-1,Increment      1: Step Time =    1.000,"P-33-1",           957,       39.8077,       180.108,            0.,NA,NA,"",   1.13804E+06,   1.13980E+06,   1.13980E+06
C:/temp/Job-33.odb,Step-1,Increment      1: Step Time =    1.000,"P-33-1",           958,       64.4532,       79.0273,            0.,NA,NA,"",   1.05320E+06,   965.557E+03,   965.557E+03
C:/temp/Job-33.odb,Step-1,Increment      1: Step Time =    1.000,"P-33-1",           959,       67.6940,       87.9010,            0.,NA,NA,"",   799.792E+03,   684.108E+03,   684.108E+03
C:/temp/Job-33.odb,Step-1,Increment      1: Step Time =    1.000,"P-33-1",           960,       132.258,       112.065,            0.,NA,NA,"",   910.879E+03,   741.877E+03,   741.877E+03
C:/temp/Job-33.odb,Step-1,Increment      1: Step Time =    1.000,"P-33-1",           961,       135.496,       120.931,            0.,NA,NA,"",   1.17519E+06,   1.03632E+06,   1.03632E+06
C:/temp/Job-33.odb,Step-1,Increment      1: Step Time =    1.000,"P-33-1",           962,       76.6132,       137.420,            0.,NA,NA,"",   1.34528E+06,   1.31847E+06,   1.31847E+06
C:/temp/Job-33.odb,Step-1,Increment      1: Step Time =    1.000,"P-33-1",           963,       121.473,       63.3908,            0.,NA,NA,"",   1.38151E+06,   1.35698E+06,   1.35698E+06
C:/temp/Job-33.odb,Step-1,Increment      1: Step Time =    1.000,"P-33-1",           964,       135.294,       109.894,            0.,NA,NA,"",   773.786E+03,   658.389E+03,   658.389E+03
C:/temp/Job-33.odb,Step-1,Increment      1: Step Time =    1.000,"P-33-1",           965,       64.6404,       90.0763,            0.,NA,NA,"",   666.722E+03,   602.302E+03,   602.302E+03
C:/temp/Job-33.odb,Step-1,Increment      1: Step Time =    1.000,"P-33-1",           966,       80.6605,       142.768,            0.,NA,NA,"",   1.29209E+06,   1.30196E+06,   1.30196E+06
C:/temp/Job-33.odb,Step-1,Increment      1: Step Time =    1.000,"P-33-1",           967,       121.083,       58.5822,            0.,NA,NA,"",   1.31271E+06,   1.30540E+06,   1.30540E+06
C:/temp/Job-33.odb,Step-1,Increment      1: Step Time =    1.000,"P-33-1",           968,       9.25300,       56.5101,            0.,NA,NA,"",   851.242E+03,   943.146E+03,   943.146E+03
C:/temp/Job-33.odb,Step-1,Increment      1: Step Time =    1.000,"P-33-1",           969,       55.4168,       190.743,            0.,NA,NA,"",   1.06883E+06,   1.06700E+06,   1.06700E+06
C:/temp/Job-33.odb,Step-1,Increment      1: Step Time =    1.000,"P-33-1",           970,       144.519,       8.92184,            0.,NA,NA,"",   995.345E+03,   993.209E+03,   993.209E+03
C:/temp/Job-33.odb,Step-1,Increment      1: Step Time =    1.000,"P-33-1",           971,       190.272,       145.141,            0.,NA,NA,"",   978.203E+03,   1.00785E+06,   1.00785E+06
C:/temp/Job-33.odb,Step-1,Increment      1: Step Time =    1.000,"P-33-1",           972,       24.2065,       105.789,            0.,NA,NA,"",   677.473E+03,   758.959E+03,   758.959E+03
C:/temp/Job-33.odb,Step-1,Increment      1: Step Time =    1.000,"P-33-1",           973,       95.6558,       24.9364,            0.,NA,NA,"",   1.02147E+06,   1.04485E+06,   1.04485E+06
C:/temp/Job-33.odb,Step-1,Increment      1: Step Time =    1.000,"P-33-1",           974,       173.617,       92.8792,            0.,NA,NA,"",   880.031E+03,   924.441E+03,   924.441E+03
C:/temp/Job-33.odb,Step-1,Increment      1: Step Time =    1.000,"P-33-1",           975,       104.443,       175.359,            0.,NA,NA,"",   1.01340E+06,   1.03661E+06,   1.03661E+06
C:/temp/Job-33.odb,Step-1,Increment      1: Step Time =    1.000,"P-33-1",           976,       26.9607,       85.9293,            0.,NA,NA,"",   713.025E+03,   788.736E+03,   788.736E+03
C:/temp/Job-33.odb,Step-1,Increment      1: Step Time =    1.000,"P-33-1",           977,       85.6364,       24.3804,            0.,NA,NA,"",   1.04526E+06,   1.06001E+06,   1.06001E+06
C:/temp/Job-33.odb,Step-1,Increment      1: Step Time =    1.000,"P-33-1",           978,       114.753,       23.4245,            0.,NA,NA,"",   1.02065E+06,   1.03403E+06,   1.03403E+06
C:/temp/Job-33.odb,Step-1,Increment      1: Step Time =    1.000,"P-33-1",           979,       25.5525,       114.222,            0.,NA,NA,"",   713.321E+03,   790.377E+03,   790.377E+03
C:/temp/Job-33.odb,Step-1,Increment      1: Step Time =    1.000,"P-33-1",           980,       172.925,       113.860,            0.,NA,NA,"",   907.311E+03,   943.271E+03,   943.271E+03
C:/temp/Job-33.odb,Step-1,Increment      1: Step Time =    1.000,"P-33-1",           981,       84.0053,       174.205,            0.,NA,NA,"",   1.05763E+06,   1.07182E+06,   1.07182E+06
C:/temp/Job-33.odb,Step-1,Increment      1: Step Time =    1.000,"P-33-1",           982,       177.351,       84.0531,            0.,NA,NA,"",   926.827E+03,   968.915E+03,   968.915E+03
C:/temp/Job-33.odb,Step-1,Increment      1: Step Time =    1.000,"P-33-1",           983,       113.909,       175.811,            0.,NA,NA,"",   1.02144E+06,   1.03699E+06,   1.03699E+06
C:/temp/Job-33.odb,Step-1,Increment      1: Step Time =    1.000,"P-33-1",           984,       27.6499,       64.9535,            0.,NA,NA,"",   885.698E+03,   942.908E+03,   942.908E+03
C:/temp/Job-33.odb,Step-1,Increment      1: Step Time =    1.000,"P-33-1",           985,       65.6369,       26.3902,            0.,NA,NA,"",   1.11840E+06,   1.11309E+06,   1.11309E+06
C:/temp/Job-33.odb,Step-1,Increment      1: Step Time =    1.000,"P-33-1",           986,       136.371,       24.3258,            0.,NA,NA,"",   1.06213E+06,   1.05408E+06,   1.05408E+06
C:/temp/Job-33.odb,Step-1,Increment      1: Step Time =    1.000,"P-33-1",           987,       25.6716,       137.849,            0.,NA,NA,"",   893.476E+03,   954.204E+03,   954.204E+03
C:/temp/Job-33.odb,Step-1,Increment      1: Step Time =    1.000,"P-33-1",           988,       174.812,       135.123,            0.,NA,NA,"",   1.01336E+06,   1.02380E+06,   1.02380E+06
C:/temp/Job-33.odb,Step-1,Increment      1: Step Time =    1.000,"P-33-1",           989,       137.121,       174.449,            0.,NA,NA,"",   1.06967E+06,   1.06035E+06,   1.06035E+06
C:/temp/Job-33.odb,Step-1,Increment      1: Step Time =    1.000,"P-33-1",           990,       173.570,       63.8996,            0.,NA,NA,"",   1.02060E+06,   1.02688E+06,   1.02688E+06
C:/temp/Job-33.odb,Step-1,Increment      1: Step Time =    1.000,"P-33-1",           991,       63.0661,       174.569,            0.,NA,NA,"",   1.11950E+06,   1.11292E+06,   1.11292E+06
C:/temp/Job-33.odb,Step-1,Increment      1: Step Time =    1.000,"P-33-1",           992,       105.762,       56.7638,            0.,NA,NA,"",   1.18234E+06,   1.27817E+06,   1.27817E+06
C:/temp/Job-33.odb,Step-1,Increment      1: Step Time =    1.000,"P-33-1",           993,       94.3308,       142.406,            0.,NA,NA,"",   1.20076E+06,   1.29719E+06,   1.29719E+06
C:/temp/Job-33.odb,Step-1,Increment      1: Step Time =    1.000,"P-33-1",           994,       32.6012,       27.7542,            0.,NA,NA,"",   1.12786E+06,   1.14431E+06,   1.14431E+06
C:/temp/Job-33.odb,Step-1,Increment      1: Step Time =    1.000,"P-33-1",           995,       28.2080,       31.3871,            0.,NA,NA,"",   1.10034E+06,   1.13097E+06,   1.13097E+06
C:/temp/Job-33.odb,Step-1,Increment      1: Step Time =    1.000,"P-33-1",           996,       21.2770,       166.821,            0.,NA,NA,"",   1.05997E+06,   1.11336E+06,   1.11336E+06
C:/temp/Job-33.odb,Step-1,Increment      1: Step Time =    1.000,"P-33-1",           997,       167.344,       25.3842,            0.,NA,NA,"",   1.03791E+06,   1.03174E+06,   1.03174E+06
C:/temp/Job-33.odb,Step-1,Increment      1: Step Time =    1.000,"P-33-1",           998,       31.4285,       175.234,            0.,NA,NA,"",   1.13495E+06,   1.15195E+06,   1.15195E+06
C:/temp/Job-33.odb,Step-1,Increment      1: Step Time =    1.000,"P-33-1",           999,       175.992,       32.1996,            0.,NA,NA,"",   1.02808E+06,   1.02680E+06,   1.02680E+06
C:/temp/Job-33.odb,Step-1,Increment      1: Step Time =    1.000,"P-33-1",          1000,       173.920,       167.100,            0.,NA,NA,"",   1.03522E+06,   1.03191E+06,   1.03191E+06
C:/temp/Job-33.odb,Step-1,Increment      1: Step Time =    1.000,"P-33-1",          1001,       167.854,       176.199,            0.,NA,NA,"",   1.03340E+06,   1.02826E+06,   1.02826E+06
C:/temp/Job-33.odb,Step-1,Increment      1: Step Time =    1.000,"P-33-1",          1002,       18.3482,       174.122,            0.,NA,NA,"",   1.10101E+06,   1.15426E+06,   1.15426E+06
C:/temp/Job-33.odb,Step-1,Increment      1: Step Time =    1.000,"P-33-1",          1003,       179.376,       15.8914,            0.,NA,NA,"",   1.00789E+06,   1.00798E+06,   1.00798E+06
C:/temp/Job-33.odb,Step-1,Increment      1: Step Time =    1.000,"P-33-1",          1004,       22.3820,       15.9453,            0.,NA,NA,"",   1.17975E+06,   1.20178E+06,   1.20178E+06
C:/temp/Job-33.odb,Step-1,Increment      1: Step Time =    1.000,"P-33-1",          1005,       15.4730,       22.2995,            0.,NA,NA,"",   1.12179E+06,   1.17999E+06,   1.17999E+06
C:/temp/Job-33.odb,Step-1,Increment      1: Step Time =    1.000,"P-33-1",          1006,       175.117,       186.055,            0.,NA,NA,"",   1.00960E+06,   1.00892E+06,   1.00892E+06
C:/temp/Job-33.odb,Step-1,Increment      1: Step Time =    1.000,"P-33-1",          1007,       184.037,       179.380,            0.,NA,NA,"",   1.00627E+06,   1.00760E+06,   1.00760E+06
C:/temp/Job-33.odb,Step-1,Increment      1: Step Time =    1.000,"P-33-1",          1008,       186.049,       24.8475,            0.,NA,NA,"",   1.00538E+06,   1.00808E+06,   1.00808E+06
C:/temp/Job-33.odb,Step-1,Increment      1: Step Time =    1.000,"P-33-1",          1009,       20.8124,       183.340,            0.,NA,NA,"",   1.17627E+06,   1.20367E+06,   1.20367E+06
C:/temp/Job-33.odb,Step-1,Increment      1: Step Time =    1.000,"P-33-1",          1010,       92.5249,       67.0237,            0.,NA,NA,"",   1.42864E+06,   1.53944E+06,   1.53944E+06
C:/temp/Job-33.odb,Step-1,Increment      1: Step Time =    1.000,"P-33-1",          1011,       107.850,       132.919,            0.,NA,NA,"",   1.42571E+06,   1.53869E+06,   1.53869E+06
C:/temp/Job-33.odb,Step-1,Increment      1: Step Time =    1.000,"P-33-1",          1012,       26.8247,       123.244,            0.,NA,NA,"",   780.613E+03,   850.166E+03,   850.166E+03
C:/temp/Job-33.odb,Step-1,Increment      1: Step Time =    1.000,"P-33-1",          1013,       172.105,       73.9000,            0.,NA,NA,"",   979.458E+03,   995.599E+03,   995.599E+03
C:/temp/Job-33.odb,Step-1,Increment      1: Step Time =    1.000,"P-33-1",          1014,       75.8761,       23.5207,            0.,NA,NA,"",   1.07468E+06,   1.07849E+06,   1.07849E+06
C:/temp/Job-33.odb,Step-1,Increment      1: Step Time =    1.000,"P-33-1",          1015,       122.296,       174.979,            0.,NA,NA,"",   1.04434E+06,   1.05158E+06,   1.05158E+06
C:/temp/Job-33.odb,Step-1,Increment      1: Step Time =    1.000,"P-33-1",          1016,       24.3143,       68.6258,            0.,NA,NA,"",   839.082E+03,   906.531E+03,   906.531E+03
C:/temp/Job-33.odb,Step-1,Increment      1: Step Time =    1.000,"P-33-1",          1017,       174.840,       130.086,            0.,NA,NA,"",   994.122E+03,   1.01045E+06,   1.01045E+06
C:/temp/Job-33.odb,Step-1,Increment      1: Step Time =    1.000,"P-33-1",          1018,       130.522,       25.0709,            0.,NA,NA,"",   1.05935E+06,   1.05609E+06,   1.05609E+06
C:/temp/Job-33.odb,Step-1,Increment      1: Step Time =    1.000,"P-33-1",          1019,       68.5020,       174.851,            0.,NA,NA,"",   1.10567E+06,   1.10264E+06,   1.10264E+06
C:/temp/Job-33.odb,Step-1,Increment      1: Step Time =    1.000,"P-33-1",          1020,       174.958,       108.677,            0.,NA,NA,"",   888.162E+03,   933.963E+03,   933.963E+03
C:/temp/Job-33.odb,Step-1,Increment      1: Step Time =    1.000,"P-33-1",          1021,       89.3022,       174.330,            0.,NA,NA,"",   1.03940E+06,   1.05955E+06,   1.05955E+06
C:/temp/Job-33.odb,Step-1,Increment      1: Step Time =    1.000,"P-33-1",          1022,       25.9946,       91.0875,            0.,NA,NA,"",   686.556E+03,   765.638E+03,   765.638E+03
C:/temp/Job-33.odb,Step-1,Increment      1: Step Time =    1.000,"P-33-1",          1023,       110.430,       23.8958,            0.,NA,NA,"",   1.01532E+06,   1.03432E+06,   1.03432E+06
C:/temp/Job-33.odb,Step-1,Increment      1: Step Time =    1.000,"P-33-1",          1024,       17.9772,       13.8937,            0.,NA,NA,"",   1.20909E+06,   1.23398E+06,   1.23398E+06
C:/temp/Job-33.odb,Step-1,Increment      1: Step Time =    1.000,"P-33-1",          1025,       14.5100,       179.174,            0.,NA,NA,"",   1.12800E+06,   1.18760E+06,   1.18760E+06
C:/temp/Job-33.odb,Step-1,Increment      1: Step Time =    1.000,"P-33-1",          1026,       185.191,       20.4164,            0.,NA,NA,"",   1.00509E+06,   1.00664E+06,   1.00664E+06
C:/temp/Job-33.odb,Step-1,Increment      1: Step Time =    1.000,"P-33-1",          1027,       179.532,       185.193,            0.,NA,NA,"",   1.00687E+06,   1.00700E+06,   1.00700E+06
C:/temp/Job-33.odb,Step-1,Increment      1: Step Time =    1.000,"P-33-1",          1028,       132.111,       105.909,            0.,NA,NA,"",   532.657E+03,   410.785E+03,   410.785E+03
C:/temp/Job-33.odb,Step-1,Increment      1: Step Time =    1.000,"P-33-1",          1029,       67.8459,       94.0760,            0.,NA,NA,"",   448.235E+03,   376.403E+03,   376.403E+03
C:/temp/Job-33.odb,Step-1,Increment      1: Step Time =    1.000,"P-33-1",          1030,       85.2715,       142.866,            0.,NA,NA,"",   1.26842E+06,   1.31058E+06,   1.31058E+06
C:/temp/Job-33.odb,Step-1,Increment      1: Step Time =    1.000,"P-33-1",          1031,       116.197,       59.2649,            0.,NA,NA,"",   1.29855E+06,   1.32815E+06,   1.32815E+06
C:/temp/Job-33.odb,Step-1,Increment      1: Step Time =    1.000,"P-33-1",          1032,       28.6847,       109.716,            0.,NA,NA,"",   685.715E+03,   762.028E+03,   762.028E+03
C:/temp/Job-33.odb,Step-1,Increment      1: Step Time =    1.000,"P-33-1",          1033,       90.4765,       29.6667,            0.,NA,NA,"",   1.05146E+06,   1.07826E+06,   1.07826E+06
C:/temp/Job-33.odb,Step-1,Increment      1: Step Time =    1.000,"P-33-1",          1034,       169.557,       88.5936,            0.,NA,NA,"",   887.636E+03,   920.155E+03,   920.155E+03
C:/temp/Job-33.odb,Step-1,Increment      1: Step Time =    1.000,"P-33-1",          1035,       109.256,       171.208,            0.,NA,NA,"",   1.03336E+06,   1.05960E+06,   1.05960E+06
C:/temp/Job-33.odb,Step-1,Increment      1: Step Time =    1.000,"P-33-1",          1036,       30.8232,       79.2944,            0.,NA,NA,"",   771.950E+03,   836.451E+03,   836.451E+03
C:/temp/Job-33.odb,Step-1,Increment      1: Step Time =    1.000,"P-33-1",          1037,       119.741,       29.4515,            0.,NA,NA,"",   1.06041E+06,   1.07224E+06,   1.07224E+06
C:/temp/Job-33.odb,Step-1,Increment      1: Step Time =    1.000,"P-33-1",          1038,       80.4059,       28.7704,            0.,NA,NA,"",   1.08452E+06,   1.09623E+06,   1.09623E+06
C:/temp/Job-33.odb,Step-1,Increment      1: Step Time =    1.000,"P-33-1",          1039,       31.8636,       118.311,            0.,NA,NA,"",   750.102E+03,   815.108E+03,   815.108E+03
C:/temp/Job-33.odb,Step-1,Increment      1: Step Time =    1.000,"P-33-1",          1040,       168.795,       120.444,            0.,NA,NA,"",   950.907E+03,   966.363E+03,   966.363E+03
C:/temp/Job-33.odb,Step-1,Increment      1: Step Time =    1.000,"P-33-1",          1041,       78.2383,       168.390,            0.,NA,NA,"",   1.10817E+06,   1.11774E+06,   1.11774E+06
C:/temp/Job-33.odb,Step-1,Increment      1: Step Time =    1.000,"P-33-1",          1042,       171.463,       77.6033,            0.,NA,NA,"",   959.563E+03,   978.900E+03,   978.900E+03
C:/temp/Job-33.odb,Step-1,Increment      1: Step Time =    1.000,"P-33-1",          1043,       120.999,       171.769,            0.,NA,NA,"",   1.05768E+06,   1.06837E+06,   1.06837E+06
C:/temp/Job-33.odb,Step-1,Increment      1: Step Time =    1.000,"P-33-1",          1044,       15.2382,       17.6179,            0.,NA,NA,"",   1.16732E+06,   1.21596E+06,   1.21596E+06
C:/temp/Job-33.odb,Step-1,Increment      1: Step Time =    1.000,"P-33-1",          1045,       15.1665,       184.206,            0.,NA,NA,"",   1.19161E+06,   1.23501E+06,   1.23501E+06
C:/temp/Job-33.odb,Step-1,Increment      1: Step Time =    1.000,"P-33-1",          1046,       60.5963,       31.2081,            0.,NA,NA,"",   1.14858E+06,   1.13808E+06,   1.13808E+06
C:/temp/Job-33.odb,Step-1,Increment      1: Step Time =    1.000,"P-33-1",          1047,       28.7623,       58.1108,            0.,NA,NA,"",   944.716E+03,   993.571E+03,   993.571E+03
C:/temp/Job-33.odb,Step-1,Increment      1: Step Time =    1.000,"P-33-1",          1048,       29.2463,       142.031,            0.,NA,NA,"",   945.680E+03,   993.607E+03,   993.607E+03
C:/temp/Job-33.odb,Step-1,Increment      1: Step Time =    1.000,"P-33-1",          1049,       144.080,       28.4431,            0.,NA,NA,"",   1.08624E+06,   1.07096E+06,   1.07096E+06
C:/temp/Job-33.odb,Step-1,Increment      1: Step Time =    1.000,"P-33-1",          1050,       169.416,       139.623,            0.,NA,NA,"",   1.05125E+06,   1.04452E+06,   1.04452E+06
C:/temp/Job-33.odb,Step-1,Increment      1: Step Time =    1.000,"P-33-1",          1051,       141.351,       169.557,            0.,NA,NA,"",   1.10032E+06,   1.08389E+06,   1.08389E+06
C:/temp/Job-33.odb,Step-1,Increment      1: Step Time =    1.000,"P-33-1",          1052,       58.3767,       171.334,            0.,NA,NA,"",   1.13950E+06,   1.13043E+06,   1.13043E+06
C:/temp/Job-33.odb,Step-1,Increment      1: Step Time =    1.000,"P-33-1",          1053,       169.707,       58.3055,            0.,NA,NA,"",   1.05628E+06,   1.04818E+06,   1.04818E+06
C:/temp/Job-33.odb,Step-1,Increment      1: Step Time =    1.000,"P-33-1",          1054,       111.217,       60.6191,            0.,NA,NA,"",   1.28557E+06,   1.35807E+06,   1.35807E+06
C:/temp/Job-33.odb,Step-1,Increment      1: Step Time =    1.000,"P-33-1",          1055,       100.815,       52.7714,            0.,NA,NA,"",   1.12981E+06,   1.22185E+06,   1.22185E+06
C:/temp/Job-33.odb,Step-1,Increment      1: Step Time =    1.000,"P-33-1",          1056,       89.8419,       142.610,            0.,NA,NA,"",   1.23165E+06,   1.30585E+06,   1.30585E+06
C:/temp/Job-33.odb,Step-1,Increment      1: Step Time =    1.000,"P-33-1",          1057,       98.8280,       142.409,            0.,NA,NA,"",   1.18203E+06,   1.29016E+06,   1.29016E+06
C:/temp/Job-33.odb,Step-1,Increment      1: Step Time =    1.000,"P-33-1",          1058,       23.4993,       26.1668,            0.,NA,NA,"",   1.11647E+06,   1.15366E+06,   1.15366E+06
C:/temp/Job-33.odb,Step-1,Increment      1: Step Time =    1.000,"P-33-1",          1059,       28.9374,       36.0983,            0.,NA,NA,"",   1.07923E+06,   1.11249E+06,   1.11249E+06
C:/temp/Job-33.odb,Step-1,Increment      1: Step Time =    1.000,"P-33-1",          1060,       38.1532,       29.8300,            0.,NA,NA,"",   1.13029E+06,   1.13790E+06,   1.13790E+06
C:/temp/Job-33.odb,Step-1,Increment      1: Step Time =    1.000,"P-33-1",          1061,       21.8629,       174.360,            0.,NA,NA,"",   1.12205E+06,   1.16264E+06,   1.16264E+06
C:/temp/Job-33.odb,Step-1,Increment      1: Step Time =    1.000,"P-33-1",          1062,       172.404,       26.1479,            0.,NA,NA,"",   1.02908E+06,   1.02575E+06,   1.02575E+06
C:/temp/Job-33.odb,Step-1,Increment      1: Step Time =    1.000,"P-33-1",          1063,       162.061,       30.1090,            0.,NA,NA,"",   1.06209E+06,   1.05004E+06,   1.05004E+06
C:/temp/Job-33.odb,Step-1,Increment      1: Step Time =    1.000,"P-33-1",          1064,       27.6150,       163.396,            0.,NA,NA,"",   1.06966E+06,   1.10731E+06,   1.10731E+06
C:/temp/Job-33.odb,Step-1,Increment      1: Step Time =    1.000,"P-33-1",          1065,       28.1145,       176.269,            0.,NA,NA,"",   1.13514E+06,   1.15754E+06,   1.15754E+06
C:/temp/Job-33.odb,Step-1,Increment      1: Step Time =    1.000,"P-33-1",          1066,       35.8612,       170.419,            0.,NA,NA,"",   1.12601E+06,   1.13801E+06,   1.13801E+06
C:/temp/Job-33.odb,Step-1,Increment      1: Step Time =    1.000,"P-33-1",          1067,       169.488,       39.7061,            0.,NA,NA,"",   1.05740E+06,   1.04858E+06,   1.04858E+06
C:/temp/Job-33.odb,Step-1,Increment      1: Step Time =    1.000,"P-33-1",          1068,       177.157,       27.4290,            0.,NA,NA,"",   1.02064E+06,   1.02016E+06,   1.02016E+06
C:/temp/Job-33.odb,Step-1,Increment      1: Step Time =    1.000,"P-33-1",          1069,       160.931,       168.682,            0.,NA,NA,"",   1.06568E+06,   1.05294E+06,   1.05294E+06
C:/temp/Job-33.odb,Step-1,Increment      1: Step Time =    1.000,"P-33-1",          1070,       169.755,       163.912,            0.,NA,NA,"",   1.05256E+06,   1.04469E+06,   1.04469E+06
C:/temp/Job-33.odb,Step-1,Increment      1: Step Time =    1.000,"P-33-1",          1071,       172.547,       177.318,            0.,NA,NA,"",   1.02304E+06,   1.02053E+06,   1.02053E+06
C:/temp/Job-33.odb,Step-1,Increment      1: Step Time =    1.000,"P-33-1",          1072,       173.778,       172.706,            0.,NA,NA,"",   1.02773E+06,   1.02510E+06,   1.02510E+06
C:/temp/Job-33.odb,Step-1,Increment      1: Step Time =    1.000,"P-33-1",          1073,       190.657,       154.700,            0.,NA,NA,"",   990.410E+03,   1.00776E+06,   1.00776E+06
C:/temp/Job-33.odb,Step-1,Increment      1: Step Time =    1.000,"P-33-1",          1074,       154.402,       9.16463,            0.,NA,NA,"",   1.00481E+06,   1.00264E+06,   1.00264E+06
C:/temp/Job-33.odb,Step-1,Increment      1: Step Time =    1.000,"P-33-1",          1075,       46.0143,       190.238,            0.,NA,NA,"",   1.10154E+06,   1.10014E+06,   1.10014E+06
C:/temp/Job-33.odb,Step-1,Increment      1: Step Time =    1.000,"P-33-1",          1076,       10.4195,       46.3352,            0.,NA,NA,"",   913.510E+03,   1.00379E+06,   1.00379E+06
C:/temp/Job-33.odb,Step-1,Increment      1: Step Time =    1.000,"P-33-1",          1077,       88.6028,       62.0931,            0.,NA,NA,"",   1.32497E+06,   1.39441E+06,   1.39441E+06
C:/temp/Job-33.odb,Step-1,Increment      1: Step Time =    1.000,"P-33-1",          1078,       111.923,       137.824,            0.,NA,NA,"",   1.32294E+06,   1.39103E+06,   1.39103E+06
C:/temp/Job-33.odb,Step-1,Increment      1: Step Time =    1.000,"P-33-1",          1079,       28.9123,       129.257,            0.,NA,NA,"",   840.736E+03,   900.318E+03,   900.318E+03
C:/temp/Job-33.odb,Step-1,Increment      1: Step Time =    1.000,"P-33-1",          1080,       168.095,       72.5712,            0.,NA,NA,"",    999.68E+03,   1.00233E+06,   1.00233E+06
C:/temp/Job-33.odb,Step-1,Increment      1: Step Time =    1.000,"P-33-1",          1081,       70.5728,       27.4119,            0.,NA,NA,"",   1.11034E+06,   1.10913E+06,   1.10913E+06
C:/temp/Job-33.odb,Step-1,Increment      1: Step Time =    1.000,"P-33-1",          1082,       128.681,       170.122,            0.,NA,NA,"",   1.08509E+06,   1.08261E+06,   1.08261E+06
C:/temp/Job-33.odb,Step-1,Increment      1: Step Time =    1.000,"P-33-1",          1083,       153.909,       13.7485,            0.,NA,NA,"",   1.01794E+06,   1.01367E+06,   1.01367E+06
C:/temp/Job-33.odb,Step-1,Increment      1: Step Time =    1.000,"P-33-1",          1084,       13.8099,       48.4450,            0.,NA,NA,"",   922.070E+03,   1.00449E+06,   1.00449E+06
C:/temp/Job-33.odb,Step-1,Increment      1: Step Time =    1.000,"P-33-1",          1085,       186.149,       154.640,            0.,NA,NA,"",   1.00165E+06,   1.01500E+06,   1.01500E+06
C:/temp/Job-33.odb,Step-1,Increment      1: Step Time =    1.000,"P-33-1",          1086,       46.9807,       185.646,            0.,NA,NA,"",   1.11320E+06,   1.11102E+06,   1.11102E+06
C:/temp/Job-33.odb,Step-1,Increment      1: Step Time =    1.000,"P-33-1",          1087,       124.380,       25.9252,            0.,NA,NA,"",   1.05264E+06,   1.05667E+06,   1.05667E+06
C:/temp/Job-33.odb,Step-1,Increment      1: Step Time =    1.000,"P-33-1",          1088,       73.6031,       174.596,            0.,NA,NA,"",   1.09137E+06,   1.09320E+06,   1.09320E+06
C:/temp/Job-33.odb,Step-1,Increment      1: Step Time =    1.000,"P-33-1",          1089,       29.8294,       74.4277,            0.,NA,NA,"",   813.720E+03,   874.858E+03,   874.858E+03
C:/temp/Job-33.odb,Step-1,Increment      1: Step Time =    1.000,"P-33-1",          1090,       174.518,       125.016,            0.,NA,NA,"",   970.731E+03,   993.292E+03,   993.292E+03
C:/temp/Job-33.odb,Step-1,Increment      1: Step Time =    1.000,"P-33-1",          1091,       175.121,       103.735,            0.,NA,NA,"",   876.638E+03,   926.329E+03,   926.329E+03
C:/temp/Job-33.odb,Step-1,Increment      1: Step Time =    1.000,"P-33-1",          1092,       94.5251,       174.420,            0.,NA,NA,"",   1.02545E+06,   1.04932E+06,   1.04932E+06
C:/temp/Job-33.odb,Step-1,Increment      1: Step Time =    1.000,"P-33-1",          1093,       26.6735,       96.6103,            0.,NA,NA,"",   668.181E+03,   747.903E+03,   747.903E+03
C:/temp/Job-33.odb,Step-1,Increment      1: Step Time =    1.000,"P-33-1",          1094,       105.782,       24.7826,            0.,NA,NA,"",   1.01391E+06,   1.03718E+06,   1.03718E+06
C:/temp/Job-33.odb,Step-1,Increment      1: Step Time =    1.000,"P-33-1",          1095,       18.9426,       16.7595,            0.,NA,NA,"",   1.18588E+06,   1.21818E+06,   1.21818E+06
C:/temp/Job-33.odb,Step-1,Increment      1: Step Time =    1.000,"P-33-1",          1096,       18.6438,       178.562,            0.,NA,NA,"",   1.14131E+06,   1.18586E+06,   1.18586E+06
C:/temp/Job-33.odb,Step-1,Increment      1: Step Time =    1.000,"P-33-1",          1097,       10.0738,       14.6304,            0.,NA,NA,"",   1.18906E+06,   1.25493E+06,   1.25493E+06
C:/temp/Job-33.odb,Step-1,Increment      1: Step Time =    1.000,"P-33-1",          1098,       184.720,       10.3765,            0.,NA,NA,"",   1.00216E+06,   1.00254E+06,   1.00254E+06
C:/temp/Job-33.odb,Step-1,Increment      1: Step Time =    1.000,"P-33-1",          1099,       15.3081,       189.429,            0.,NA,NA,"",   1.24390E+06,   1.26778E+06,   1.26778E+06
C:/temp/Job-33.odb,Step-1,Increment      1: Step Time =    1.000,"P-33-1",          1100,       189.585,       184.699,            0.,NA,NA,"",   1.00157E+06,   1.00248E+06,   1.00248E+06
C:/temp/Job-33.odb,Step-1,Increment      1: Step Time =    1.000,"P-33-1",          1101,       55.1659,       26.5056,            0.,NA,NA,"",   1.13547E+06,   1.12725E+06,   1.12725E+06
C:/temp/Job-33.odb,Step-1,Increment      1: Step Time =    1.000,"P-33-1",          1102,       23.9346,       55.4856,            0.,NA,NA,"",   933.597E+03,   993.816E+03,   993.816E+03
C:/temp/Job-33.odb,Step-1,Increment      1: Step Time =    1.000,"P-33-1",          1103,       24.6028,       145.663,            0.,NA,NA,"",   942.910E+03,   1.00087E+06,   1.00087E+06
C:/temp/Job-33.odb,Step-1,Increment      1: Step Time =    1.000,"P-33-1",          1104,       147.388,       29.4633,            0.,NA,NA,"",   1.08949E+06,   1.07241E+06,   1.07241E+06
C:/temp/Job-33.odb,Step-1,Increment      1: Step Time =    1.000,"P-33-1",          1105,       146.046,       174.039,            0.,NA,NA,"",   1.07173E+06,   1.05839E+06,   1.05839E+06
C:/temp/Job-33.odb,Step-1,Increment      1: Step Time =    1.000,"P-33-1",          1106,       174.243,       145.357,            0.,NA,NA,"",   1.03739E+06,   1.03883E+06,   1.03883E+06
C:/temp/Job-33.odb,Step-1,Increment      1: Step Time =    1.000,"P-33-1",          1107,       174.187,       54.0470,            0.,NA,NA,"",   1.03943E+06,   1.04026E+06,   1.04026E+06
C:/temp/Job-33.odb,Step-1,Increment      1: Step Time =    1.000,"P-33-1",          1108,       55.2477,       175.408,            0.,NA,NA,"",   1.12724E+06,   1.12009E+06,   1.12009E+06
C:/temp/Job-33.odb,Step-1,Increment      1: Step Time =    1.000,"P-33-1",          1109,       110.433,       55.5391,            0.,NA,NA,"",   1.20085E+06,   1.27282E+06,   1.27282E+06
C:/temp/Job-33.odb,Step-1,Increment      1: Step Time =    1.000,"P-33-1",          1110,       97.0345,       57.7246,            0.,NA,NA,"",   1.18526E+06,   1.29306E+06,   1.29306E+06
C:/temp/Job-33.odb,Step-1,Increment      1: Step Time =    1.000,"P-33-1",          1111,       89.9694,       147.725,            0.,NA,NA,"",   1.17542E+06,   1.24066E+06,   1.24066E+06
C:/temp/Job-33.odb,Step-1,Increment      1: Step Time =    1.000,"P-33-1",          1112,       103.289,       142.559,            0.,NA,NA,"",   1.17982E+06,   1.28703E+06,   1.28703E+06
C:/temp/Job-33.odb,Step-1,Increment      1: Step Time =    1.000,"P-33-1",          1113,       28.7459,       25.7575,            0.,NA,NA,"",   1.12865E+06,   1.15152E+06,   1.15152E+06
C:/temp/Job-33.odb,Step-1,Increment      1: Step Time =    1.000,"P-33-1",          1114,       39.1299,       23.3676,            0.,NA,NA,"",   1.13929E+06,   1.14313E+06,   1.14313E+06
C:/temp/Job-33.odb,Step-1,Increment      1: Step Time =    1.000,"P-33-1",          1115,       25.6804,       159.060,            0.,NA,NA,"",   1.03726E+06,   1.08245E+06,   1.08245E+06
C:/temp/Job-33.odb,Step-1,Increment      1: Step Time =    1.000,"P-33-1",          1116,       25.4439,       174.094,            0.,NA,NA,"",   1.12684E+06,   1.15770E+06,   1.15770E+06
C:/temp/Job-33.odb,Step-1,Increment      1: Step Time =    1.000,"P-33-1",          1117,       171.430,       30.9432,            0.,NA,NA,"",   1.03854E+06,   1.03363E+06,   1.03363E+06
C:/temp/Job-33.odb,Step-1,Increment      1: Step Time =    1.000,"P-33-1",          1118,       172.426,       45.1195,            0.,NA,NA,"",   1.04890E+06,   1.04438E+06,   1.04438E+06
C:/temp/Job-33.odb,Step-1,Increment      1: Step Time =    1.000,"P-33-1",          1119,       169.284,       172.145,            0.,NA,NA,"",   1.03900E+06,   1.03325E+06,   1.03325E+06
C:/temp/Job-33.odb,Step-1,Increment      1: Step Time =    1.000,"P-33-1",          1120,       155.091,       172.003,            0.,NA,NA,"",   1.06770E+06,   1.05416E+06,   1.05416E+06
C:/temp/Job-33.odb,Step-1,Increment      1: Step Time =    1.000,"P-33-1",          1121,       92.8606,       57.6292,            0.,NA,NA,"",   1.21120E+06,   1.30422E+06,   1.30422E+06
C:/temp/Job-33.odb,Step-1,Increment      1: Step Time =    1.000,"P-33-1",          1122,       107.721,       142.725,            0.,NA,NA,"",   1.20106E+06,   1.29282E+06,   1.29282E+06
C:/temp/Job-33.odb,Step-1,Increment      1: Step Time =    1.000,"P-33-1",          1123,       58.6170,       87.8016,            0.,NA,NA,"",   728.043E+03,   710.476E+03,   710.476E+03
C:/temp/Job-33.odb,Step-1,Increment      1: Step Time =    1.000,"P-33-1",          1124,       141.283,       112.149,            0.,NA,NA,"",   853.258E+03,   784.732E+03,   784.732E+03
C:/temp/Job-33.odb,Step-1,Increment      1: Step Time =    1.000,"P-33-1",          1125,       84.7861,       56.9083,            0.,NA,NA,"",   1.26952E+06,   1.30918E+06,   1.30918E+06
C:/temp/Job-33.odb,Step-1,Increment      1: Step Time =    1.000,"P-33-1",          1126,       112.169,       142.818,            0.,NA,NA,"",   1.23887E+06,   1.30279E+06,   1.30279E+06
C:/temp/Job-33.odb,Step-1,Increment      1: Step Time =    1.000,"P-33-1",          1127,       24.6713,       150.212,            0.,NA,NA,"",   975.720E+03,   1.03044E+06,   1.03044E+06
C:/temp/Job-33.odb,Step-1,Increment      1: Step Time =    1.000,"P-33-1",          1128,       149.470,       26.1663,            0.,NA,NA,"",   1.07008E+06,   1.05654E+06,   1.05654E+06
C:/temp/Job-33.odb,Step-1,Increment      1: Step Time =    1.000,"P-33-1",          1129,       48.6496,       176.175,            0.,NA,NA,"",   1.13206E+06,   1.12737E+06,   1.12737E+06
C:/temp/Job-33.odb,Step-1,Increment      1: Step Time =    1.000,"P-33-1",          1130,       49.1912,       23.2387,            0.,NA,NA,"",   1.13245E+06,   1.12754E+06,   1.12754E+06
C:/temp/Job-33.odb,Step-1,Increment      1: Step Time =    1.000,"P-33-1",          1131,       23.0189,       48.9693,            0.,NA,NA,"",   969.941E+03,   1.02907E+06,   1.02907E+06
C:/temp/Job-33.odb,Step-1,Increment      1: Step Time =    1.000,"P-33-1",          1132,       179.690,       151.492,            0.,NA,NA,"",   1.01960E+06,   1.02744E+06,   1.02744E+06
C:/temp/Job-33.odb,Step-1,Increment      1: Step Time =    1.000,"P-33-1",          1133,       109.351,       50.4176,            0.,NA,NA,"",   1.14297E+06,   1.20913E+06,   1.20913E+06
C:/temp/Job-33.odb,Step-1,Increment      1: Step Time =    1.000,"P-33-1",          1134,       90.2066,       152.631,            0.,NA,NA,"",   1.13560E+06,   1.19229E+06,   1.19229E+06
C:/temp/Job-33.odb,Step-1,Increment      1: Step Time =    1.000,"P-33-1",          1135,       19.5647,       75.0284,            0.,NA,NA,"",   774.638E+03,   853.961E+03,   853.961E+03
C:/temp/Job-33.odb,Step-1,Increment      1: Step Time =    1.000,"P-33-1",          1136,       45.1036,       24.6562,            0.,NA,NA,"",   1.13765E+06,   1.13540E+06,   1.13540E+06
C:/temp/Job-33.odb,Step-1,Increment      1: Step Time =    1.000,"P-33-1",          1137,       175.987,       45.1341,            0.,NA,NA,"",   1.03541E+06,   1.03586E+06,   1.03586E+06
C:/temp/Job-33.odb,Step-1,Increment      1: Step Time =    1.000,"P-33-1",          1138,       154.994,       175.800,            0.,NA,NA,"",   1.05465E+06,   1.04387E+06,   1.04387E+06
C:/temp/Job-33.odb,Step-1,Increment      1: Step Time =    1.000,"P-33-1",          1139,       131.253,       30.3264,            0.,NA,NA,"",   1.09290E+06,   1.08626E+06,   1.08626E+06
C:/temp/Job-33.odb,Step-1,Increment      1: Step Time =    1.000,"P-33-1",          1140,       68.4014,       170.047,            0.,NA,NA,"",   1.13129E+06,   1.12626E+06,   1.12626E+06
C:/temp/Job-33.odb,Step-1,Increment      1: Step Time =    1.000,"P-33-1",          1141,       30.3540,       69.6037,            0.,NA,NA,"",   858.943E+03,   913.847E+03,   913.847E+03
C:/temp/Job-33.odb,Step-1,Increment      1: Step Time =    1.000,"P-33-1",          1142,       170.181,       129.926,            0.,NA,NA,"",   1.01111E+06,   1.01494E+06,   1.01494E+06
C:/temp/Job-33.odb,Step-1,Increment      1: Step Time =    1.000,"P-33-1",          1143,       169.060,       109.482,            0.,NA,NA,"",   872.567E+03,   907.379E+03,   907.379E+03
C:/temp/Job-33.odb,Step-1,Increment      1: Step Time =    1.000,"P-33-1",          1144,       89.2797,       169.233,            0.,NA,NA,"",   1.06107E+06,   1.08796E+06,   1.08796E+06
C:/temp/Job-33.odb,Step-1,Increment      1: Step Time =    1.000,"P-33-1",          1145,       30.1094,       90.2941,            0.,NA,NA,"",   686.108E+03,   760.641E+03,   760.641E+03
C:/temp/Job-33.odb,Step-1,Increment      1: Step Time =    1.000,"P-33-1",          1146,       111.526,       28.0235,            0.,NA,NA,"",   1.03562E+06,   1.05835E+06,   1.05835E+06
C:/temp/Job-33.odb,Step-1,Increment      1: Step Time =    1.000,"P-33-1",          1147,       80.6660,       56.1605,            0.,NA,NA,"",   1.27991E+06,   1.29255E+06,   1.29255E+06
C:/temp/Job-33.odb,Step-1,Increment      1: Step Time =    1.000,"P-33-1",          1148,       116.858,       142.785,            0.,NA,NA,"",   1.27883E+06,   1.30565E+06,   1.30565E+06
C:/temp/Job-33.odb,Step-1,Increment      1: Step Time =    1.000,"P-33-1",          1149,       184.420,       184.756,            0.,NA,NA,"",   1.00404E+06,   1.00477E+06,   1.00477E+06
C:/temp/Job-33.odb,Step-1,Increment      1: Step Time =    1.000,"P-33-1",          1150,       184.766,       15.5339,            0.,NA,NA,"",   1.00392E+06,   1.00475E+06,   1.00475E+06
C:/temp/Job-33.odb,Step-1,Increment      1: Step Time =    1.000,"P-33-1",          1151,       14.4640,       13.9026,            0.,NA,NA,"",   1.21784E+06,   1.25575E+06,   1.25575E+06
C:/temp/Job-33.odb,Step-1,Increment      1: Step Time =    1.000,"P-33-1",          1152,       169.702,       99.4040,            0.,NA,NA,"",   847.902E+03,   889.774E+03,   889.774E+03
C:/temp/Job-33.odb,Step-1,Increment      1: Step Time =    1.000,"P-33-1",          1153,       100.251,       169.058,            0.,NA,NA,"",   1.03628E+06,   1.07146E+06,   1.07146E+06
C:/temp/Job-33.odb,Step-1,Increment      1: Step Time =    1.000,"P-33-1",          1154,       30.3773,       100.910,            0.,NA,NA,"",   656.205E+03,   733.112E+03,   733.112E+03
C:/temp/Job-33.odb,Step-1,Increment      1: Step Time =    1.000,"P-33-1",          1155,       101.162,       30.5779,            0.,NA,NA,"",   1.03538E+06,   1.07023E+06,   1.07023E+06
C:/temp/Job-33.odb,Step-1,Increment      1: Step Time =    1.000,"P-33-1",          1156,       190.300,       20.0372,            0.,NA,NA,"",   1.00135E+06,   1.00309E+06,   1.00309E+06
C:/temp/Job-33.odb,Step-1,Increment      1: Step Time =    1.000,"P-33-1",          1157,       179.936,       190.296,            0.,NA,NA,"",   1.00326E+06,   1.00338E+06,   1.00338E+06
C:/temp/Job-33.odb,Step-1,Increment      1: Step Time =    1.000,"P-33-1",          1158,       14.8033,       9.77860,            0.,NA,NA,"",   1.25492E+06,   1.27662E+06,   1.27662E+06
C:/temp/Job-33.odb,Step-1,Increment      1: Step Time =    1.000,"P-33-1",          1159,       10.0705,       184.578,            0.,NA,NA,"",   1.17660E+06,   1.24509E+06,   1.24509E+06
C:/temp/Job-33.odb,Step-1,Increment      1: Step Time =    1.000,"P-33-1",          1160,       28.7560,       145.897,            0.,NA,NA,"",   972.110E+03,   1.01827E+06,   1.01827E+06
C:/temp/Job-33.odb,Step-1,Increment      1: Step Time =    1.000,"P-33-1",          1161,       151.741,       22.5793,            0.,NA,NA,"",   1.05166E+06,   1.04143E+06,   1.04143E+06
C:/temp/Job-33.odb,Step-1,Increment      1: Step Time =    1.000,"P-33-1",          1162,       20.1354,       150.416,            0.,NA,NA,"",   949.160E+03,   1.01645E+06,   1.01645E+06
C:/temp/Job-33.odb,Step-1,Increment      1: Step Time =    1.000,"P-33-1",          1163,       173.260,       49.4568,            0.,NA,NA,"",   1.04612E+06,   1.04363E+06,   1.04363E+06
C:/temp/Job-33.odb,Step-1,Increment      1: Step Time =    1.000,"P-33-1",          1164,       47.7085,       180.941,            0.,NA,NA,"",   1.12279E+06,   1.11961E+06,   1.11961E+06
C:/temp/Job-33.odb,Step-1,Increment      1: Step Time =    1.000,"P-33-1",          1165,       178.568,       48.4633,            0.,NA,NA,"",   1.02463E+06,   1.03035E+06,   1.03035E+06
C:/temp/Job-33.odb,Step-1,Increment      1: Step Time =    1.000,"P-33-1",          1166,       46.5499,       28.8940,            0.,NA,NA,"",   1.14054E+06,   1.13706E+06,   1.13706E+06
C:/temp/Job-33.odb,Step-1,Increment      1: Step Time =    1.000,"P-33-1",          1167,       47.6607,       18.8930,            0.,NA,NA,"",   1.12377E+06,   1.12043E+06,   1.12043E+06
C:/temp/Job-33.odb,Step-1,Increment      1: Step Time =    1.000,"P-33-1",          1168,       182.466,       154.922,            0.,NA,NA,"",   1.01172E+06,   1.02122E+06,   1.02122E+06
C:/temp/Job-33.odb,Step-1,Increment      1: Step Time =    1.000,"P-33-1",          1169,       151.618,       178.438,            0.,NA,NA,"",   1.04669E+06,   1.03738E+06,   1.03738E+06
C:/temp/Job-33.odb,Step-1,Increment      1: Step Time =    1.000,"P-33-1",          1170,       150.695,       172.898,            0.,NA,NA,"",   1.07175E+06,   1.05756E+06,   1.05756E+06
C:/temp/Job-33.odb,Step-1,Increment      1: Step Time =    1.000,"P-33-1",          1171,       80.6725,       61.5281,            0.,NA,NA,"",   1.34258E+06,   1.34627E+06,   1.34627E+06
C:/temp/Job-33.odb,Step-1,Increment      1: Step Time =    1.000,"P-33-1",          1172,       119.393,       137.119,            0.,NA,NA,"",   1.36968E+06,   1.36481E+06,   1.36481E+06
C:/temp/Job-33.odb,Step-1,Increment      1: Step Time =    1.000,"P-33-1",          1173,       36.5794,       103.997,            0.,NA,NA,"",   641.093E+03,   711.311E+03,   711.311E+03
C:/temp/Job-33.odb,Step-1,Increment      1: Step Time =    1.000,"P-33-1",          1174,       99.3438,       34.1953,            0.,NA,NA,"",   1.04814E+06,   1.08975E+06,   1.08975E+06
C:/temp/Job-33.odb,Step-1,Increment      1: Step Time =    1.000,"P-33-1",          1175,       163.239,       96.1480,            0.,NA,NA,"",   809.061E+03,   841.679E+03,   841.679E+03
C:/temp/Job-33.odb,Step-1,Increment      1: Step Time =    1.000,"P-33-1",          1176,       99.2139,       163.263,            0.,NA,NA,"",   1.05656E+06,   1.10372E+06,   1.10372E+06
C:/temp/Job-33.odb,Step-1,Increment      1: Step Time =    1.000,"P-33-1",          1177,       103.682,       47.3982,            0.,NA,NA,"",   1.09952E+06,   1.17265E+06,   1.17265E+06
C:/temp/Job-33.odb,Step-1,Increment      1: Step Time =    1.000,"P-33-1",          1178,       94.6023,       152.705,            0.,NA,NA,"",   1.11204E+06,   1.18088E+06,   1.18088E+06
C:/temp/Job-33.odb,Step-1,Increment      1: Step Time =    1.000,"P-33-1",          1179,       150.385,       167.669,            0.,NA,NA,"",   1.09624E+06,   1.07681E+06,   1.07681E+06
C:/temp/Job-33.odb,Step-1,Increment      1: Step Time =    1.000,"P-33-1",          1180,       42.5742,       29.9725,            0.,NA,NA,"",   1.13621E+06,   1.13717E+06,   1.13717E+06
C:/temp/Job-33.odb,Step-1,Increment      1: Step Time =    1.000,"P-33-1",          1181,       33.7407,       151.697,            0.,NA,NA,"",   1.04094E+06,   1.06930E+06,   1.06930E+06
C:/temp/Job-33.odb,Step-1,Increment      1: Step Time =    1.000,"P-33-1",          1182,       168.350,       49.8167,            0.,NA,NA,"",   1.06912E+06,   1.05756E+06,   1.05756E+06
C:/temp/Job-33.odb,Step-1,Increment      1: Step Time =    1.000,"P-33-1",          1183,       14.0913,       150.330,            0.,NA,NA,"",   916.494E+03,   998.122E+03,   998.122E+03
C:/temp/Job-33.odb,Step-1,Increment      1: Step Time =    1.000,"P-33-1",          1184,       148.575,       17.4638,            0.,NA,NA,"",   1.03136E+06,   1.02458E+06,   1.02458E+06
C:/temp/Job-33.odb,Step-1,Increment      1: Step Time =    1.000,"P-33-1",          1185,       183.837,       49.1655,            0.,NA,NA,"",   1.00500E+06,   1.01903E+06,   1.01903E+06
C:/temp/Job-33.odb,Step-1,Increment      1: Step Time =    1.000,"P-33-1",          1186,       50.1861,       14.5430,            0.,NA,NA,"",   1.10549E+06,   1.10233E+06,   1.10233E+06
C:/temp/Job-33.odb,Step-1,Increment      1: Step Time =    1.000,"P-33-1",          1187,       17.1236,       51.3200,            0.,NA,NA,"",   925.573E+03,   1.00008E+06,   1.00008E+06
C:/temp/Job-33.odb,Step-1,Increment      1: Step Time =    1.000,"P-33-1",          1188,       150.911,       183.837,            0.,NA,NA,"",   1.02631E+06,   1.02055E+06,   1.02055E+06
C:/temp/Job-33.odb,Step-1,Increment      1: Step Time =    1.000,"P-33-1",          1189,       100.117,       48.6225,            0.,NA,NA,"",   1.10287E+06,   1.18147E+06,   1.18147E+06
C:/temp/Job-33.odb,Step-1,Increment      1: Step Time =    1.000,"P-33-1",          1190,       107.602,       45.4244,            0.,NA,NA,"",   1.10144E+06,   1.16228E+06,   1.16228E+06
C:/temp/Job-33.odb,Step-1,Increment      1: Step Time =    1.000,"P-33-1",          1191,       98.9248,       147.667,            0.,NA,NA,"",   1.12987E+06,   1.21998E+06,   1.21998E+06
C:/temp/Job-33.odb,Step-1,Increment      1: Step Time =    1.000,"P-33-1",          1192,       90.3918,       157.246,            0.,NA,NA,"",   1.10836E+06,   1.15678E+06,   1.15678E+06
C:/temp/Job-33.odb,Step-1,Increment      1: Step Time =    1.000,"P-33-1",          1193,       149.288,       162.680,            0.,NA,NA,"",   1.12157E+06,   1.09617E+06,   1.09617E+06
C:/temp/Job-33.odb,Step-1,Increment      1: Step Time =    1.000,"P-33-1",          1194,       52.4145,       37.2145,            0.,NA,NA,"",   1.15643E+06,   1.14493E+06,   1.14493E+06
C:/temp/Job-33.odb,Step-1,Increment      1: Step Time =    1.000,"P-33-1",          1195,       36.3589,       148.287,            0.,NA,NA,"",   1.03909E+06,   1.06203E+06,   1.06203E+06
C:/temp/Job-33.odb,Step-1,Increment      1: Step Time =    1.000,"P-33-1",          1196,       163.392,       51.1124,            0.,NA,NA,"",   1.09579E+06,   1.07378E+06,   1.07378E+06
C:/temp/Job-33.odb,Step-1,Increment      1: Step Time =    1.000,"P-33-1",          1197,       16.8854,       154.295,            0.,NA,NA,"",   956.888E+03,   1.03035E+06,   1.03035E+06
C:/temp/Job-33.odb,Step-1,Increment      1: Step Time =    1.000,"P-33-1",          1198,       180.669,       44.0773,            0.,NA,NA,"",   1.01849E+06,   1.02486E+06,   1.02486E+06
C:/temp/Job-33.odb,Step-1,Increment      1: Step Time =    1.000,"P-33-1",          1199,       43.3487,       14.3385,            0.,NA,NA,"",   1.12088E+06,   1.11952E+06,   1.11952E+06
C:/temp/Job-33.odb,Step-1,Increment      1: Step Time =    1.000,"P-33-1",          1200,       155.936,       180.572,            0.,NA,NA,"",   1.03604E+06,   1.02890E+06,   1.02890E+06
C:/temp/Job-33.odb,Step-1,Increment      1: Step Time =    1.000,"P-33-1",          1201,       99.0279,       152.817,            0.,NA,NA,"",   1.09888E+06,   1.17309E+06,   1.17309E+06
C:/temp/Job-33.odb,Step-1,Increment      1: Step Time =    1.000,"P-33-1",          1202,       101.462,       43.3852,            0.,NA,NA,"",   1.08050E+06,   1.14428E+06,   1.14428E+06
C:/temp/Job-33.odb,Step-1,Increment      1: Step Time =    1.000,"P-33-1",          1203,       103.533,       152.850,            0.,NA,NA,"",   1.09885E+06,   1.17140E+06,   1.17140E+06
C:/temp/Job-33.odb,Step-1,Increment      1: Step Time =    1.000,"P-33-1",          1204,       96.4906,       48.8099,            0.,NA,NA,"",   1.11047E+06,   1.18825E+06,   1.18825E+06
C:/temp/Job-33.odb,Step-1,Increment      1: Step Time =    1.000,"P-33-1",          1205,       99.0864,       157.978,            0.,NA,NA,"",   1.07597E+06,   1.13594E+06,   1.13594E+06
C:/temp/Job-33.odb,Step-1,Increment      1: Step Time =    1.000,"P-33-1",          1206,       101.487,       37.3463,            0.,NA,NA,"",   1.05680E+06,   1.10454E+06,   1.10454E+06
C:/temp/Job-33.odb,Step-1,Increment      1: Step Time =    1.000,"P-33-1",          1207,       153.791,       160.865,            0.,NA,NA,"",   1.11652E+06,   1.09090E+06,   1.09090E+06
C:/temp/Job-33.odb,Step-1,Increment      1: Step Time =    1.000,"P-33-1",          1208,       145.018,       164.051,            0.,NA,NA,"",   1.12502E+06,   1.10076E+06,   1.10076E+06
C:/temp/Job-33.odb,Step-1,Increment      1: Step Time =    1.000,"P-33-1",          1209,       43.2271,       34.0921,            0.,NA,NA,"",   1.13457E+06,   1.13521E+06,   1.13521E+06
C:/temp/Job-33.odb,Step-1,Increment      1: Step Time =    1.000,"P-33-1",          1210,       56.7795,       40.1383,            0.,NA,NA,"",   1.17412E+06,   1.15749E+06,   1.15749E+06
C:/temp/Job-33.odb,Step-1,Increment      1: Step Time =    1.000,"P-33-1",          1211,       39.5390,       157.212,            0.,NA,NA,"",   1.10050E+06,   1.11061E+06,   1.11061E+06
C:/temp/Job-33.odb,Step-1,Increment      1: Step Time =    1.000,"P-33-1",          1212,       165.005,       55.0221,            0.,NA,NA,"",   1.08535E+06,   1.06599E+06,   1.06599E+06
C:/temp/Job-33.odb,Step-1,Increment      1: Step Time =    1.000,"P-33-1",          1213,       162.026,       46.5416,            0.,NA,NA,"",   1.10062E+06,   1.07788E+06,   1.07788E+06
C:/temp/Job-33.odb,Step-1,Increment      1: Step Time =    1.000,"P-33-1",          1214,       93.7861,       163.236,            0.,NA,NA,"",   1.06897E+06,   1.11119E+06,   1.11119E+06
C:/temp/Job-33.odb,Step-1,Increment      1: Step Time =    1.000,"P-33-1",          1215,       104.478,       34.4781,            0.,NA,NA,"",   1.04874E+06,   1.08982E+06,   1.08982E+06
C:/temp/Job-33.odb,Step-1,Increment      1: Step Time =    1.000,"P-33-1",          1216,       140.849,       164.908,            0.,NA,NA,"",   1.12826E+06,   1.10628E+06,   1.10628E+06
C:/temp/Job-33.odb,Step-1,Increment      1: Step Time =    1.000,"P-33-1",          1217,       151.939,       156.037,            0.,NA,NA,"",   1.14229E+06,   1.10904E+06,   1.10904E+06
C:/temp/Job-33.odb,Step-1,Increment      1: Step Time =    1.000,"P-33-1",          1218,       44.3544,       42.9454,            0.,NA,NA,"",   1.12467E+06,   1.12440E+06,   1.12440E+06
C:/temp/Job-33.odb,Step-1,Increment      1: Step Time =    1.000,"P-33-1",          1219,       56.5718,       36.3510,            0.,NA,NA,"",   1.16456E+06,   1.15063E+06,   1.15063E+06
C:/temp/Job-33.odb,Step-1,Increment      1: Step Time =    1.000,"P-33-1",          1220,       39.5509,       151.146,            0.,NA,NA,"",   1.07338E+06,   1.08629E+06,   1.08629E+06
C:/temp/Job-33.odb,Step-1,Increment      1: Step Time =    1.000,"P-33-1",          1221,       32.7182,       146.447,            0.,NA,NA,"",   1.00510E+06,   1.03913E+06,   1.03913E+06
C:/temp/Job-33.odb,Step-1,Increment      1: Step Time =    1.000,"P-33-1",          1222,       157.274,       48.0737,            0.,NA,NA,"",   1.12870E+06,   1.09685E+06,   1.09685E+06
C:/temp/Job-33.odb,Step-1,Increment      1: Step Time =    1.000,"P-33-1",          1223,       166.289,       57.8932,            0.,NA,NA,"",   1.07469E+06,   1.05853E+06,   1.05853E+06
C:/temp/Job-33.odb,Step-1,Increment      1: Step Time =    1.000,"P-33-1",          1224,       48.3827,       48.6607,            0.,NA,NA,"",   1.13254E+06,   1.12327E+06,   1.12327E+06
C:/temp/Job-33.odb,Step-1,Increment      1: Step Time =    1.000,"P-33-1",          1225,       150.528,       151.464,            0.,NA,NA,"",   1.16236E+06,   1.12197E+06,   1.12197E+06
C:/temp/Job-33.odb,Step-1,Increment      1: Step Time =    1.000,"P-33-1",          1226,       153.473,       48.6670,            0.,NA,NA,"",   1.15050E+06,   1.11184E+06,   1.11184E+06
C:/temp/Job-33.odb,Step-1,Increment      1: Step Time =    1.000,"P-33-1",          1227,       45.3812,       151.606,            0.,NA,NA,"",   1.11710E+06,   1.11362E+06,   1.11362E+06
C:/temp/Job-33.odb,Step-1,Increment      1: Step Time =    1.000,"P-33-1",          1228,       89.9874,       161.302,            0.,NA,NA,"",   1.09201E+06,   1.13223E+06,   1.13223E+06
C:/temp/Job-33.odb,Step-1,Increment      1: Step Time =    1.000,"P-33-1",          1229,       108.072,       38.1767,            0.,NA,NA,"",   1.06843E+06,   1.11250E+06,   1.11250E+06
C:/temp/Job-33.odb,Step-1,Increment      1: Step Time =    1.000,"P-33-1",          1230,       53.5252,       49.3458,            0.,NA,NA,"",   1.16597E+06,   1.14614E+06,   1.14614E+06
C:/temp/Job-33.odb,Step-1,Increment      1: Step Time =    1.000,"P-33-1",          1231,       145.589,       151.842,            0.,NA,NA,"",   1.18700E+06,   1.14268E+06,   1.14268E+06
C:/temp/Job-33.odb,Step-1,Increment      1: Step Time =    1.000,"P-33-1",          1232,       152.132,       52.3726,            0.,NA,NA,"",   1.16706E+06,   1.12165E+06,   1.12165E+06
C:/temp/Job-33.odb,Step-1,Increment      1: Step Time =    1.000,"P-33-1",          1233,       46.9539,       145.326,            0.,NA,NA,"",   1.10008E+06,   1.09410E+06,   1.09410E+06
C:/temp/Job-33.odb,Step-1,Increment      1: Step Time =    1.000,"P-33-1",          1234,       89.2605,       164.613,            0.,NA,NA,"",   1.07886E+06,   1.11191E+06,   1.11191E+06
C:/temp/Job-33.odb,Step-1,Increment      1: Step Time =    1.000,"P-33-1",          1235,       110.989,       34.5169,            0.,NA,NA,"",   1.06294E+06,   1.09554E+06,   1.09554E+06
C:/temp/Job-33.odb,Step-1,Increment      1: Step Time =    1.000,"P-33-1",          1236,       56.4656,       45.6777,            0.,NA,NA,"",   1.18209E+06,   1.16141E+06,   1.16141E+06
C:/temp/Job-33.odb,Step-1,Increment      1: Step Time =    1.000,"P-33-1",          1237,       140.859,       155.089,            0.,NA,NA,"",   1.18747E+06,   1.15035E+06,   1.15035E+06
C:/temp/Job-33.odb,Step-1,Increment      1: Step Time =    1.000,"P-33-1",          1238,       42.8004,       141.758,            0.,NA,NA,"",   1.04603E+06,   1.05366E+06,   1.05366E+06
C:/temp/Job-33.odb,Step-1,Increment      1: Step Time =    1.000,"P-33-1",          1239,       59.4995,       48.7544,            0.,NA,NA,"",   1.20175E+06,   1.17569E+06,   1.17569E+06
C:/temp/Job-33.odb,Step-1,Increment      1: Step Time =    1.000,"P-33-1",          1240,       138.873,       150.954,            0.,NA,NA,"",   1.22005E+06,   1.17500E+06,   1.17500E+06
C:/temp/Job-33.odb,Step-1,Increment      1: Step Time =    1.000,"P-33-1",          1241,       154.480,       58.3477,            0.,NA,NA,"",   1.15184E+06,   1.10534E+06,   1.10534E+06
C:/temp/Job-33.odb,Step-1,Increment      1: Step Time =    1.000,"P-33-1",          1242,       49.0593,       140.756,            0.,NA,NA,"",   1.09495E+06,   1.08234E+06,   1.08234E+06
C:/temp/Job-33.odb,Step-1,Increment      1: Step Time =    1.000,"P-33-1",          1243,       57.5217,       52.4188,            0.,NA,NA,"",   1.19344E+06,   1.16431E+06,   1.16431E+06
C:/temp/Job-33.odb,Step-1,Increment      1: Step Time =    1.000,"P-33-1",          1244,       141.681,       147.895,            0.,NA,NA,"",   1.22822E+06,   1.17359E+06,   1.17359E+06
C:/temp/Job-33.odb,Step-1,Increment      1: Step Time =    1.000,"P-33-1",          1245,       147.908,       53.5422,            0.,NA,NA,"",   1.19771E+06,   1.14459E+06,   1.14459E+06
C:/temp/Job-33.odb,Step-1,Increment      1: Step Time =    1.000,"P-33-1",          1246,       53.2124,       142.256,            0.,NA,NA,"",   1.14515E+06,   1.11946E+06,   1.11946E+06
C:/temp/Job-33.odb,Step-1,Increment      1: Step Time =    1.000,"P-33-1",          1247,       143.896,       53.3994,            0.,NA,NA,"",   1.21966E+06,   1.16372E+06,   1.16372E+06
C:/temp/Job-33.odb,Step-1,Increment      1: Step Time =    1.000,"P-33-1",          1248,       144.079,       143.995,            0.,NA,NA,"",   1.22524E+06,   1.16319E+06,   1.16319E+06
C:/temp/Job-33.odb,Step-1,Increment      1: Step Time =    1.000,"P-33-1",          1249,       55.6145,       56.3115,            0.,NA,NA,"",   1.16977E+06,   1.14061E+06,   1.14061E+06
C:/temp/Job-33.odb,Step-1,Increment      1: Step Time =    1.000,"P-33-1",          1250,       53.9181,       138.770,            0.,NA,NA,"",   1.13506E+06,   1.10542E+06,   1.10542E+06
C:/temp/Job-33.odb,Step-1,Increment      1: Step Time =    1.000,"P-33-1",          1251,       57.3732,       147.656,            0.,NA,NA,"",   1.19164E+06,   1.16307E+06,   1.16307E+06
C:/temp/Job-33.odb,Step-1,Increment      1: Step Time =    1.000,"P-33-1",          1252,       140.482,       48.0455,            0.,NA,NA,"",   1.20571E+06,   1.16259E+06,   1.16259E+06
C:/temp/Job-33.odb,Step-1,Increment      1: Step Time =    1.000,"P-33-1",          1253,       143.643,       58.1238,            0.,NA,NA,"",   1.23594E+06,   1.16872E+06,   1.16872E+06
C:/temp/Job-33.odb,Step-1,Increment      1: Step Time =    1.000,"P-33-1",          1254,       149.849,       143.604,            0.,NA,NA,"",   1.18710E+06,   1.13342E+06,   1.13342E+06
C:/temp/Job-33.odb,Step-1,Increment      1: Step Time =    1.000,"P-33-1",          1255,       138.061,       144.546,            0.,NA,NA,"",   1.26527E+06,   1.20252E+06,   1.20252E+06
C:/temp/Job-33.odb,Step-1,Increment      1: Step Time =    1.000,"P-33-1",          1256,       61.2598,       55.2119,            0.,NA,NA,"",   1.22314E+06,   1.18590E+06,   1.18590E+06
C:/temp/Job-33.odb,Step-1,Increment      1: Step Time =    1.000,"P-33-1",          1257,       49.8080,       56.6644,            0.,NA,NA,"",   1.11925E+06,   1.10499E+06,   1.10499E+06
C:/temp/Job-33.odb,Step-1,Increment      1: Step Time =    1.000,"P-33-1",          1258,       59.3037,       59.4922,            0.,NA,NA,"",   1.20009E+06,   1.15878E+06,   1.15878E+06
C:/temp/Job-33.odb,Step-1,Increment      1: Step Time =    1.000,"P-33-1",          1259,       57.5559,       142.447,            0.,NA,NA,"",   1.19104E+06,   1.15492E+06,   1.15492E+06
C:/temp/Job-33.odb,Step-1,Increment      1: Step Time =    1.000,"P-33-1",          1260,       138.851,       57.7548,            0.,NA,NA,"",   1.26883E+06,   1.20005E+06,   1.20005E+06
C:/temp/Job-33.odb,Step-1,Increment      1: Step Time =    1.000,"P-33-1",          1261,       140.430,       140.512,            0.,NA,NA,"",   1.26456E+06,   1.19014E+06,   1.19014E+06
C:/temp/Job-33.odb,Step-1,Increment      1: Step Time =    1.000,"P-33-1",          1262,       65.0252,       57.4398,            0.,NA,NA,"",   1.25517E+06,   1.21185E+06,   1.21185E+06
C:/temp/Job-33.odb,Step-1,Increment      1: Step Time =    1.000,"P-33-1",          1263,       134.338,       141.922,            0.,NA,NA,"",   1.30117E+06,   1.23379E+06,   1.23379E+06
C:/temp/Job-33.odb,Step-1,Increment      1: Step Time =    1.000,"P-33-1",          1264,       143.639,       62.8475,            0.,NA,NA,"",   1.23869E+06,   1.16018E+06,   1.16018E+06
C:/temp/Job-33.odb,Step-1,Increment      1: Step Time =    1.000,"P-33-1",          1265,       57.2882,       137.674,            0.,NA,NA,"",   1.16913E+06,   1.12863E+06,   1.12863E+06
C:/temp/Job-33.odb,Step-1,Increment      1: Step Time =    1.000,"P-33-1",          1266,       51.5882,       151.382,            0.,NA,NA,"",   1.15179E+06,   1.13675E+06,   1.13675E+06
C:/temp/Job-33.odb,Step-1,Increment      1: Step Time =    1.000,"P-33-1",          1267,       145.769,       44.7625,            0.,NA,NA,"",   1.17073E+06,   1.13321E+06,   1.13321E+06
C:/temp/Job-33.odb,Step-1,Increment      1: Step Time =    1.000,"P-33-1",          1268,       47.3886,       53.5181,            0.,NA,NA,"",   1.11078E+06,   1.10349E+06,   1.10349E+06
C:/temp/Job-33.odb,Step-1,Increment      1: Step Time =    1.000,"P-33-1",          1269,       69.9614,       54.7542,            0.,NA,NA,"",   1.27136E+06,   1.24106E+06,   1.24106E+06
C:/temp/Job-33.odb,Step-1,Increment      1: Step Time =    1.000,"P-33-1",          1270,       129.005,       143.770,            0.,NA,NA,"",   1.30116E+06,   1.25707E+06,   1.25707E+06
C:/temp/Job-33.odb,Step-1,Increment      1: Step Time =    1.000,"P-33-1",          1271,       148.592,       68.0443,            0.,NA,NA,"",   1.16476E+06,   1.09482E+06,   1.09482E+06
C:/temp/Job-33.odb,Step-1,Increment      1: Step Time =    1.000,"P-33-1",          1272,       55.4258,       132.631,            0.,NA,NA,"",   1.10759E+06,   1.07069E+06,   1.07069E+06
C:/temp/Job-33.odb,Step-1,Increment      1: Step Time =    1.000,"P-33-1",          1273,       57.2105,       154.893,            0.,NA,NA,"",   1.18166E+06,   1.16185E+06,   1.16185E+06
C:/temp/Job-33.odb,Step-1,Increment      1: Step Time =    1.000,"P-33-1",          1274,       141.597,       43.4553,            0.,NA,NA,"",   1.17684E+06,   1.14188E+06,   1.14188E+06
C:/temp/Job-33.odb,Step-1,Increment      1: Step Time =    1.000,"P-33-1",          1275,       154.816,       143.625,            0.,NA,NA,"",   1.15152E+06,   1.10800E+06,   1.10800E+06
C:/temp/Job-33.odb,Step-1,Increment      1: Step Time =    1.000,"P-33-1",          1276,       43.8559,       55.5467,            0.,NA,NA,"",   1.07263E+06,   1.07563E+06,   1.07563E+06
C:/temp/Job-33.odb,Step-1,Increment      1: Step Time =    1.000,"P-33-1",          1277,       68.8691,       59.2408,            0.,NA,NA,"",   1.28925E+06,   1.24397E+06,   1.24397E+06
C:/temp/Job-33.odb,Step-1,Increment      1: Step Time =    1.000,"P-33-1",          1278,       68.0465,       48.2490,            0.,NA,NA,"",   1.22773E+06,   1.20737E+06,   1.20737E+06
C:/temp/Job-33.odb,Step-1,Increment      1: Step Time =    1.000,"P-33-1",          1279,       130.239,       149.296,            0.,NA,NA,"",   1.24847E+06,   1.21634E+06,   1.21634E+06
C:/temp/Job-33.odb,Step-1,Increment      1: Step Time =    1.000,"P-33-1",          1280,       130.516,       139.872,            0.,NA,NA,"",   1.33550E+06,   1.26949E+06,   1.26949E+06
C:/temp/Job-33.odb,Step-1,Increment      1: Step Time =    1.000,"P-33-1",          1281,       137.601,       67.6035,            0.,NA,NA,"",   1.29523E+06,   1.19166E+06,   1.19166E+06
C:/temp/Job-33.odb,Step-1,Increment      1: Step Time =    1.000,"P-33-1",          1282,       61.7354,       132.275,            0.,NA,NA,"",   1.19413E+06,   1.13174E+06,   1.13174E+06
C:/temp/Job-33.odb,Step-1,Increment      1: Step Time =    1.000,"P-33-1",          1283,       73.3017,       56.2468,            0.,NA,NA,"",   1.28966E+06,   1.26606E+06,   1.26606E+06
C:/temp/Job-33.odb,Step-1,Increment      1: Step Time =    1.000,"P-33-1",          1284,       64.4553,       46.7553,            0.,NA,NA,"",   1.21329E+06,   1.19059E+06,   1.19059E+06
C:/temp/Job-33.odb,Step-1,Increment      1: Step Time =    1.000,"P-33-1",          1285,       125.693,       142.352,            0.,NA,NA,"",   1.31743E+06,   1.28493E+06,   1.28493E+06
C:/temp/Job-33.odb,Step-1,Increment      1: Step Time =    1.000,"P-33-1",          1286,       133.484,       151.581,            0.,NA,NA,"",   1.22664E+06,   1.19155E+06,   1.19155E+06
C:/temp/Job-33.odb,Step-1,Increment      1: Step Time =    1.000,"P-33-1",          1287,       142.775,       72.9931,            0.,NA,NA,"",   1.18433E+06,   1.08838E+06,   1.08838E+06
C:/temp/Job-33.odb,Step-1,Increment      1: Step Time =    1.000,"P-33-1",          1288,       153.203,       68.8800,            0.,NA,NA,"",   1.11495E+06,   1.06330E+06,   1.06330E+06
C:/temp/Job-33.odb,Step-1,Increment      1: Step Time =    1.000,"P-33-1",          1289,       56.6676,       127.084,            0.,NA,NA,"",   1.05191E+06,   1.00954E+06,   1.00954E+06
C:/temp/Job-33.odb,Step-1,Increment      1: Step Time =    1.000,"P-33-1",          1290,       76.4607,       54.0444,            0.,NA,NA,"",   1.26924E+06,   1.26465E+06,   1.26465E+06
C:/temp/Job-33.odb,Step-1,Increment      1: Step Time =    1.000,"P-33-1",          1291,       121.157,       144.780,            0.,NA,NA,"",   1.27433E+06,   1.27542E+06,   1.27542E+06
C:/temp/Job-33.odb,Step-1,Increment      1: Step Time =    1.000,"P-33-1",          1292,       52.6570,       122.106,            0.,NA,NA,"",   917.177E+03,   904.481E+03,   904.481E+03
C:/temp/Job-33.odb,Step-1,Increment      1: Step Time =    1.000,"P-33-1",          1293,       131.214,       155.008,            0.,NA,NA,"",   1.19893E+06,   1.17644E+06,   1.17644E+06
C:/temp/Job-33.odb,Step-1,Increment      1: Step Time =    1.000,"P-33-1",          1294,       156.721,       69.7111,            0.,NA,NA,"",   1.08147E+06,   1.04329E+06,   1.04329E+06
C:/temp/Job-33.odb,Step-1,Increment      1: Step Time =    1.000,"P-33-1",          1295,       47.4128,       134.400,            0.,NA,NA,"",   1.03258E+06,   1.02724E+06,   1.02724E+06
C:/temp/Job-33.odb,Step-1,Increment      1: Step Time =    1.000,"P-33-1",          1296,       69.5287,       43.3948,            0.,NA,NA,"",   1.19913E+06,   1.18798E+06,   1.18798E+06
C:/temp/Job-33.odb,Step-1,Increment      1: Step Time =    1.000,"P-33-1",          1297,       81.8901,       51.6769,            0.,NA,NA,"",   1.22845E+06,   1.25221E+06,   1.25221E+06
C:/temp/Job-33.odb,Step-1,Increment      1: Step Time =    1.000,"P-33-1",          1298,       120.622,       148.454,            0.,NA,NA,"",   1.22952E+06,   1.23892E+06,   1.23892E+06
C:/temp/Job-33.odb,Step-1,Increment      1: Step Time =    1.000,"P-33-1",          1299,       148.276,       77.6526,            0.,NA,NA,"",   1.05627E+06,   992.774E+03,   992.774E+03
C:/temp/Job-33.odb,Step-1,Increment      1: Step Time =    1.000,"P-33-1",          1300,       48.5296,       120.909,            0.,NA,NA,"",   860.403E+03,   870.560E+03,   870.560E+03
C:/temp/Job-33.odb,Step-1,Increment      1: Step Time =    1.000,"P-33-1",          1301,       159.132,       67.2624,            0.,NA,NA,"",   1.08192E+06,   1.04970E+06,   1.04970E+06
C:/temp/Job-33.odb,Step-1,Increment      1: Step Time =    1.000,"P-33-1",          1302,       132.175,       161.159,            0.,NA,NA,"",   1.15200E+06,   1.13655E+06,   1.13655E+06
C:/temp/Job-33.odb,Step-1,Increment      1: Step Time =    1.000,"P-33-1",          1303,       70.0534,       37.8617,            0.,NA,NA,"",   1.16824E+06,   1.16254E+06,   1.16254E+06
C:/temp/Job-33.odb,Step-1,Increment      1: Step Time =    1.000,"P-33-1",          1304,       42.7558,       132.284,            0.,NA,NA,"",   963.615E+03,   978.324E+03,   978.324E+03
C:/temp/Job-33.odb,Step-1,Increment      1: Step Time =    1.000,"P-33-1",          1305,       76.1598,       49.9483,            0.,NA,NA,"",   1.23256E+06,   1.23183E+06,   1.23183E+06
C:/temp/Job-33.odb,Step-1,Increment      1: Step Time =    1.000,"P-33-1",          1306,       124.452,       149.463,            0.,NA,NA,"",   1.23579E+06,   1.22639E+06,   1.22639E+06
C:/temp/Job-33.odb,Step-1,Increment      1: Step Time =    1.000,"P-33-1",          1307,       152.929,       73.1851,            0.,NA,NA,"",   1.07860E+06,   1.02919E+06,   1.02919E+06
C:/temp/Job-33.odb,Step-1,Increment      1: Step Time =    1.000,"P-33-1",          1308,       46.9517,       124.761,            0.,NA,NA,"",   904.457E+03,   914.616E+03,   914.616E+03
C:/temp/Job-33.odb,Step-1,Increment      1: Step Time =    1.000,"P-33-1",          1309,       161.856,       63.7909,            0.,NA,NA,"",   1.08237E+06,   1.05616E+06,   1.05616E+06
C:/temp/Job-33.odb,Step-1,Increment      1: Step Time =    1.000,"P-33-1",          1310,       136.023,       164.640,            0.,NA,NA,"",   1.13015E+06,   1.11281E+06,   1.11281E+06
C:/temp/Job-33.odb,Step-1,Increment      1: Step Time =    1.000,"P-33-1",          1311,       65.2427,       37.0730,            0.,NA,NA,"",   1.17102E+06,   1.15930E+06,   1.15930E+06
C:/temp/Job-33.odb,Step-1,Increment      1: Step Time =    1.000,"P-33-1",          1312,       34.3266,       137.626,            0.,NA,NA,"",   948.275E+03,   984.668E+03,   984.668E+03
C:/temp/Job-33.odb,Step-1,Increment      1: Step Time =    1.000,"P-33-1",          1313,       81.4198,       47.4804,            0.,NA,NA,"",   1.19286E+06,   1.21602E+06,   1.21602E+06
C:/temp/Job-33.odb,Step-1,Increment      1: Step Time =    1.000,"P-33-1",          1314,       71.5092,       50.3300,            0.,NA,NA,"",   1.24352E+06,   1.22701E+06,   1.22701E+06
C:/temp/Job-33.odb,Step-1,Increment      1: Step Time =    1.000,"P-33-1",          1315,       121.367,       152.579,            0.,NA,NA,"",   1.19199E+06,   1.20169E+06,   1.20169E+06
C:/temp/Job-33.odb,Step-1,Increment      1: Step Time =    1.000,"P-33-1",          1316,       127.254,       147.031,            0.,NA,NA,"",   1.26603E+06,   1.23876E+06,   1.23876E+06
C:/temp/Job-33.odb,Step-1,Increment      1: Step Time =    1.000,"P-33-1",          1317,       153.225,       77.6012,            0.,NA,NA,"",   1.02436E+06,   983.274E+03,   983.274E+03
C:/temp/Job-33.odb,Step-1,Increment      1: Step Time =    1.000,"P-33-1",          1318,       44.8776,       119.660,            0.,NA,NA,"",   816.658E+03,   844.163E+03,   844.163E+03
C:/temp/Job-33.odb,Step-1,Increment      1: Step Time =    1.000,"P-33-1",          1319,       49.9139,       130.400,            0.,NA,NA,"",   1.01233E+06,   1.00072E+06,   1.00072E+06
C:/temp/Job-33.odb,Step-1,Increment      1: Step Time =    1.000,"P-33-1",          1320,       157.914,       60.9972,            0.,NA,NA,"",   1.12111E+06,   1.08240E+06,   1.08240E+06
C:/temp/Job-33.odb,Step-1,Increment      1: Step Time =    1.000,"P-33-1",          1321,       165.981,       66.3535,            0.,NA,NA,"",   1.04611E+06,   1.03440E+06,   1.03440E+06
C:/temp/Job-33.odb,Step-1,Increment      1: Step Time =    1.000,"P-33-1",          1322,       138.010,       159.637,            0.,NA,NA,"",   1.16346E+06,   1.13624E+06,   1.13624E+06
C:/temp/Job-33.odb,Step-1,Increment      1: Step Time =    1.000,"P-33-1",          1323,       132.007,       167.465,            0.,NA,NA,"",   1.10708E+06,   1.09828E+06,   1.09828E+06
C:/temp/Job-33.odb,Step-1,Increment      1: Step Time =    1.000,"P-33-1",          1324,       70.2635,       32.4693,            0.,NA,NA,"",   1.13760E+06,   1.13489E+06,   1.13489E+06
C:/temp/Job-33.odb,Step-1,Increment      1: Step Time =    1.000,"P-33-1",          1325,       60.1308,       42.0435,            0.,NA,NA,"",   1.18609E+06,   1.16752E+06,   1.16752E+06
C:/temp/Job-33.odb,Step-1,Increment      1: Step Time =    1.000,"P-33-1",          1326,       39.2906,       139.728,            0.,NA,NA,"",   1.00325E+06,   1.02318E+06,   1.02318E+06
C:/temp/Job-33.odb,Step-1,Increment      1: Step Time =    1.000,"P-33-1",          1327,       36.8693,       130.176,            0.,NA,NA,"",   896.930E+03,   933.791E+03,   933.791E+03
C:/temp/Job-33.odb,Step-1,Increment      1: Step Time =    1.000,"P-33-1",          1328,       80.3597,       43.3685,            0.,NA,NA,"",   1.16675E+06,   1.18554E+06,   1.18554E+06
C:/temp/Job-33.odb,Step-1,Increment      1: Step Time =    1.000,"P-33-1",          1329,       123.616,       158.666,            0.,NA,NA,"",   1.14917E+06,   1.15489E+06,   1.15489E+06
C:/temp/Job-33.odb,Step-1,Increment      1: Step Time =    1.000,"P-33-1",          1330,       158.089,       77.2369,            0.,NA,NA,"",   1.00162E+06,   978.936E+03,   978.936E+03
C:/temp/Job-33.odb,Step-1,Increment      1: Step Time =    1.000,"P-33-1",          1331,       42.9881,       122.986,            0.,NA,NA,"",   850.892E+03,   878.303E+03,   878.303E+03
C:/temp/Job-33.odb,Step-1,Increment      1: Step Time =    1.000,"P-33-1",          1332,       122.567,       162.743,            0.,NA,NA,"",   1.11640E+06,   1.12559E+06,   1.12559E+06
C:/temp/Job-33.odb,Step-1,Increment      1: Step Time =    1.000,"P-33-1",          1333,       162.831,       76.6869,            0.,NA,NA,"",    985.64E+03,   978.783E+03,   978.783E+03
C:/temp/Job-33.odb,Step-1,Increment      1: Step Time =    1.000,"P-33-1",          1334,       79.7452,       38.3437,            0.,NA,NA,"",   1.13806E+06,   1.15396E+06,   1.15396E+06
C:/temp/Job-33.odb,Step-1,Increment      1: Step Time =    1.000,"P-33-1",          1335,       40.0282,       120.690,            0.,NA,NA,"",   805.363E+03,   845.952E+03,   845.952E+03
C:/temp/Job-33.odb,Step-1,Increment      1: Step Time =    1.000,"P-33-1",          1336,       126.307,       160.837,            0.,NA,NA,"",   1.14164E+06,   1.14011E+06,   1.14011E+06
C:/temp/Job-33.odb,Step-1,Increment      1: Step Time =    1.000,"P-33-1",          1337,       162.879,       71.1842,            0.,NA,NA,"",   1.03277E+06,   1.01689E+06,   1.01689E+06
C:/temp/Job-33.odb,Step-1,Increment      1: Step Time =    1.000,"P-33-1",          1338,       74.9053,       38.5643,            0.,NA,NA,"",   1.15825E+06,   1.16180E+06,   1.16180E+06
C:/temp/Job-33.odb,Step-1,Increment      1: Step Time =    1.000,"P-33-1",          1339,       40.2959,       126.284,            0.,NA,NA,"",   872.775E+03,   904.477E+03,   904.477E+03
C:/temp/Job-33.odb,Step-1,Increment      1: Step Time =    1.000,"P-33-1",          1340,       43.1271,       184.918,            0.,NA,NA,"",   1.12285E+06,   1.12265E+06,   1.12265E+06
C:/temp/Job-33.odb,Step-1,Increment      1: Step Time =    1.000,"P-33-1",          1341,       18.8972,       48.6235,            0.,NA,NA,"",   951.374E+03,   1.02032E+06,   1.02032E+06
C:/temp/Job-33.odb,Step-1,Increment      1: Step Time =    1.000,"P-33-1",          1342,       153.119,       18.3116,            0.,NA,NA,"",   1.03405E+06,   1.02700E+06,   1.02700E+06
C:/temp/Job-33.odb,Step-1,Increment      1: Step Time =    1.000,"P-33-1",          1343,       126.128,       81.4989,            0.,NA,NA,"",   1.26481E+06,   1.06233E+06,   1.06233E+06
C:/temp/Job-33.odb,Step-1,Increment      1: Step Time =    1.000,"P-33-1",          1344,       73.7497,       118.636,            0.,NA,NA,"",   1.16051E+06,   1.00165E+06,   1.00165E+06
C:/temp/Job-33.odb,Step-1,Increment      1: Step Time =    1.000,"P-33-1",          1345,       56.6217,       64.1479,            0.,NA,NA,"",   1.14431E+06,   1.10570E+06,   1.10570E+06
C:/temp/Job-33.odb,Step-1,Increment      1: Step Time =    1.000,"P-33-1",          1346,       134.436,       56.8049,            0.,NA,NA,"",   1.28914E+06,   1.22647E+06,   1.22647E+06
C:/temp/Job-33.odb,Step-1,Increment      1: Step Time =    1.000,"P-33-1",          1347,       62.0217,       142.062,            0.,NA,NA,"",   1.22974E+06,   1.18759E+06,   1.18759E+06
C:/temp/Job-33.odb,Step-1,Increment      1: Step Time =    1.000,"P-33-1",          1348,       143.330,       136.036,            0.,NA,NA,"",   1.23528E+06,   1.15490E+06,   1.15490E+06
C:/temp/Job-33.odb,Step-1,Increment      1: Step Time =    1.000,"P-33-1",          1349,       164.388,       60.4068,            0.,NA,NA,"",   1.07944E+06,   1.05919E+06,   1.05919E+06
C:/temp/Job-33.odb,Step-1,Increment      1: Step Time =    1.000,"P-33-1",          1350,       60.7498,       36.5974,            0.,NA,NA,"",   1.16929E+06,   1.15519E+06,   1.15519E+06
C:/temp/Job-33.odb,Step-1,Increment      1: Step Time =    1.000,"P-33-1",          1351,       33.8103,       142.527,            0.,NA,NA,"",   984.357E+03,   1.01824E+06,   1.01824E+06
C:/temp/Job-33.odb,Step-1,Increment      1: Step Time =    1.000,"P-33-1",          1352,       140.819,       161.241,            0.,NA,NA,"",   1.15022E+06,   1.12315E+06,   1.12315E+06
C:/temp/Job-33.odb,Step-1,Increment      1: Step Time =    1.000,"P-33-1",          1353,       165.817,       90.3267,            0.,NA,NA,"",   862.850E+03,   891.166E+03,   891.166E+03
C:/temp/Job-33.odb,Step-1,Increment      1: Step Time =    1.000,"P-33-1",          1354,       109.064,       166.975,            0.,NA,NA,"",   1.04993E+06,   1.08357E+06,   1.08357E+06
C:/temp/Job-33.odb,Step-1,Increment      1: Step Time =    1.000,"P-33-1",          1355,       33.1590,       110.290,            0.,NA,NA,"",   686.210E+03,   756.606E+03,   756.606E+03
C:/temp/Job-33.odb,Step-1,Increment      1: Step Time =    1.000,"P-33-1",          1356,       90.1069,       35.1519,            0.,NA,NA,"",   1.07551E+06,   1.11151E+06,   1.11151E+06
C:/temp/Job-33.odb,Step-1,Increment      1: Step Time =    1.000,"P-33-1",          1357,       119.045,       180.261,            0.,NA,NA,"",   1.00879E+06,   1.01634E+06,   1.01634E+06
C:/temp/Job-33.odb,Step-1,Increment      1: Step Time =    1.000,"P-33-1",          1358,       80.7810,       19.1947,            0.,NA,NA,"",   1.03576E+06,   1.04203E+06,   1.04203E+06
C:/temp/Job-33.odb,Step-1,Increment      1: Step Time =    1.000,"P-33-1",          1359,       181.605,       80.4396,            0.,NA,NA,"",   937.430E+03,   984.901E+03,   984.901E+03
C:/temp/Job-33.odb,Step-1,Increment      1: Step Time =    1.000,"P-33-1",          1360,       18.4383,       122.470,            0.,NA,NA,"",   752.547E+03,   834.499E+03,   834.499E+03
C:/temp/Job-33.odb,Step-1,Increment      1: Step Time =    1.000,"P-33-1",          1361,       180.614,       89.2602,            0.,NA,NA,"",   906.808E+03,   962.071E+03,   962.071E+03
C:/temp/Job-33.odb,Step-1,Increment      1: Step Time =    1.000,"P-33-1",          1362,       109.372,       180.363,            0.,NA,NA,"",   994.869E+03,   1.00871E+06,   1.00871E+06
C:/temp/Job-33.odb,Step-1,Increment      1: Step Time =    1.000,"P-33-1",          1363,       21.0561,       114.796,            0.,NA,NA,"",   714.754E+03,   796.383E+03,   796.383E+03
C:/temp/Job-33.odb,Step-1,Increment      1: Step Time =    1.000,"P-33-1",          1364,       90.5331,       19.6973,            0.,NA,NA,"",   1.00983E+06,   1.02331E+06,   1.02331E+06
C:/temp/Job-33.odb,Step-1,Increment      1: Step Time =    1.000,"P-33-1",          1365,       36.4298,       93.3434,            0.,NA,NA,"",   656.584E+03,   725.420E+03,   725.420E+03
C:/temp/Job-33.odb,Step-1,Increment      1: Step Time =    1.000,"P-33-1",          1366,       162.966,       106.550,            0.,NA,NA,"",   825.656E+03,   854.597E+03,   854.597E+03
C:/temp/Job-33.odb,Step-1,Increment      1: Step Time =    1.000,"P-33-1",          1367,       143.159,       106.016,            0.,NA,NA,"",   647.686E+03,   633.093E+03,   633.093E+03
C:/temp/Job-33.odb,Step-1,Increment      1: Step Time =    1.000,"P-33-1",          1368,       56.7465,       93.9347,            0.,NA,NA,"",   538.703E+03,   564.315E+03,   564.315E+03
C:/temp/Job-33.odb,Step-1,Increment      1: Step Time =    1.000,"P-33-1",          1369,       154.706,       149.966,            0.,NA,NA,"",   1.14557E+06,   1.10828E+06,   1.10828E+06
C:/temp/Job-33.odb,Step-1,Increment      1: Step Time =    1.000,"P-33-1",          1370,       48.6542,       154.791,            0.,NA,NA,"",   1.14362E+06,   1.13443E+06,   1.13443E+06
C:/temp/Job-33.odb,Step-1,Increment      1: Step Time =    1.000,"P-33-1",          1371,       150.736,       45.3493,            0.,NA,NA,"",   1.15409E+06,   1.11725E+06,   1.11725E+06
C:/temp/Job-33.odb,Step-1,Increment      1: Step Time =    1.000,"P-33-1",          1372,       45.6497,       49.8479,            0.,NA,NA,"",   1.11136E+06,   1.10848E+06,   1.10848E+06
C:/temp/Job-33.odb,Step-1,Increment      1: Step Time =    1.000,"P-33-1",          1373,       167.246,       81.2390,            0.,NA,NA,"",   937.704E+03,   952.149E+03,   952.149E+03
C:/temp/Job-33.odb,Step-1,Increment      1: Step Time =    1.000,"P-33-1",          1374,       118.781,       166.628,            0.,NA,NA,"",   1.07939E+06,   1.09663E+06,   1.09663E+06
C:/temp/Job-33.odb,Step-1,Increment      1: Step Time =    1.000,"P-33-1",          1375,       80.1037,       33.4236,            0.,NA,NA,"",   1.10874E+06,   1.12262E+06,   1.12262E+06
C:/temp/Job-33.odb,Step-1,Increment      1: Step Time =    1.000,"P-33-1",          1376,       35.5948,       119.668,            0.,NA,NA,"",   775.696E+03,   830.953E+03,   830.953E+03
C:/temp/Job-33.odb,Step-1,Increment      1: Step Time =    1.000,"P-33-1",          1377,       140.882,       100.093,            0.,NA,NA,"",   513.292E+03,   507.544E+03,   507.544E+03
C:/temp/Job-33.odb,Step-1,Increment      1: Step Time =    1.000,"P-33-1",          1378,       59.0287,       99.8764,            0.,NA,NA,"",   421.074E+03,   450.804E+03,   450.804E+03
C:/temp/Job-33.odb,Step-1,Increment      1: Step Time =    1.000,"P-33-1",          1379,       53.8427,       118.761,            0.,NA,NA,"",   858.446E+03,   847.037E+03,   847.037E+03
C:/temp/Job-33.odb,Step-1,Increment      1: Step Time =    1.000,"P-33-1",          1380,       145.016,       81.9267,            0.,NA,NA,"",   991.854E+03,   922.589E+03,   922.589E+03
C:/temp/Job-33.odb,Step-1,Increment      1: Step Time =    1.000,"P-33-1",          1381,       184.891,       45.5833,            0.,NA,NA,"",   1.00473E+06,   1.01719E+06,   1.01719E+06
C:/temp/Job-33.odb,Step-1,Increment      1: Step Time =    1.000,"P-33-1",          1382,       12.4294,       155.378,            0.,NA,NA,"",   935.648E+03,   1.02086E+06,   1.02086E+06
C:/temp/Job-33.odb,Step-1,Increment      1: Step Time =    1.000,"P-33-1",          1383,       154.432,       184.866,            0.,NA,NA,"",   1.02293E+06,   1.01792E+06,   1.01792E+06
C:/temp/Job-33.odb,Step-1,Increment      1: Step Time =    1.000,"P-33-1",          1384,       25.2241,       154.644,            0.,NA,NA,"",   1.00826E+06,   1.05862E+06,   1.05862E+06
C:/temp/Job-33.odb,Step-1,Increment      1: Step Time =    1.000,"P-33-1",          1385,       41.3382,       26.6471,            0.,NA,NA,"",   1.13762E+06,   1.13950E+06,   1.13950E+06
C:/temp/Job-33.odb,Step-1,Increment      1: Step Time =    1.000,"P-33-1",          1386,       143.210,       116.075,            0.,NA,NA,"",   966.050E+03,   890.819E+03,   890.819E+03
C:/temp/Job-33.odb,Step-1,Increment      1: Step Time =    1.000,"P-33-1",          1387,       56.6770,       83.8718,            0.,NA,NA,"",   829.654E+03,   808.570E+03,   808.570E+03
C:/temp/Job-33.odb,Step-1,Increment      1: Step Time =    1.000,"P-33-1",          1388,       161.303,       91.6190,            0.,NA,NA,"",   826.793E+03,   849.704E+03,   849.704E+03
C:/temp/Job-33.odb,Step-1,Increment      1: Step Time =    1.000,"P-33-1",          1389,       103.995,       162.738,            0.,NA,NA,"",   1.05731E+06,   1.10442E+06,   1.10442E+06
C:/temp/Job-33.odb,Step-1,Increment      1: Step Time =    1.000,"P-33-1",          1390,       38.3330,       108.436,            0.,NA,NA,"",   659.841E+03,   724.320E+03,   724.320E+03
C:/temp/Job-33.odb,Step-1,Increment      1: Step Time =    1.000,"P-33-1",          1391,       95.5691,       34.6243,            0.,NA,NA,"",   1.05535E+06,   1.09606E+06,   1.09606E+06
C:/temp/Job-33.odb,Step-1,Increment      1: Step Time =    1.000,"P-33-1",          1392,       85.7428,       152.858,            0.,NA,NA,"",   1.16248E+06,   1.20191E+06,   1.20191E+06
C:/temp/Job-33.odb,Step-1,Increment      1: Step Time =    1.000,"P-33-1",          1393,       114.047,       48.7729,            0.,NA,NA,"",   1.16091E+06,   1.20426E+06,   1.20426E+06
C:/temp/Job-33.odb,Step-1,Increment      1: Step Time =    1.000,"P-33-1",          1394,       37.3204,       166.240,            0.,NA,NA,"",   1.11939E+06,   1.13121E+06,   1.13121E+06
C:/temp/Job-33.odb,Step-1,Increment      1: Step Time =    1.000,"P-33-1",          1395,       166.342,       161.889,            0.,NA,NA,"",   1.06727E+06,   1.05525E+06,   1.05525E+06
C:/temp/Job-33.odb,Step-1,Increment      1: Step Time =    1.000,"P-33-1",          1396,       33.8898,       35.3565,            0.,NA,NA,"",   1.10332E+06,   1.12313E+06,   1.12313E+06
C:/temp/Job-33.odb,Step-1,Increment      1: Step Time =    1.000,"P-33-1",          1397,       161.856,       35.4771,            0.,NA,NA,"",   1.07770E+06,   1.06194E+06,   1.06194E+06
C:/temp/Job-33.odb,Step-1,Increment      1: Step Time =    1.000,"P-33-1",          1398,       143.747,       159.427,            0.,NA,NA,"",   1.15363E+06,   1.12301E+06,   1.12301E+06
C:/temp/Job-33.odb,Step-1,Increment      1: Step Time =    1.000,"P-33-1",          1399,       161.124,       57.4139,            0.,NA,NA,"",   1.10518E+06,   1.07636E+06,   1.07636E+06
C:/temp/Job-33.odb,Step-1,Increment      1: Step Time =    1.000,"P-33-1",          1400,       38.9524,       144.131,            0.,NA,NA,"",   1.03164E+06,   1.04940E+06,   1.04940E+06
C:/temp/Job-33.odb,Step-1,Increment      1: Step Time =    1.000,"P-33-1",          1401,       150.289,       147.316,            0.,NA,NA,"",   1.17470E+06,   1.12836E+06,   1.12836E+06
C:/temp/Job-33.odb,Step-1,Increment      1: Step Time =    1.000,"P-33-1",          1402,       47.8651,       149.503,            0.,NA,NA,"",   1.12530E+06,   1.11666E+06,   1.11666E+06
C:/temp/Job-33.odb,Step-1,Increment      1: Step Time =    1.000,"P-33-1",          1403,       50.3463,       51.2632,            0.,NA,NA,"",   1.13980E+06,   1.12606E+06,   1.12606E+06
C:/temp/Job-33.odb,Step-1,Increment      1: Step Time =    1.000,"P-33-1",          1404,       92.8653,       48.6259,            0.,NA,NA,"",   1.12550E+06,   1.19490E+06,   1.19490E+06
C:/temp/Job-33.odb,Step-1,Increment      1: Step Time =    1.000,"P-33-1",          1405,       108.097,       152.804,            0.,NA,NA,"",   1.11336E+06,   1.17715E+06,   1.17715E+06
C:/temp/Job-33.odb,Step-1,Increment      1: Step Time =    1.000,"P-33-1",          1406,       116.628,       152.133,            0.,NA,NA,"",   1.16660E+06,   1.19793E+06,   1.19793E+06
C:/temp/Job-33.odb,Step-1,Increment      1: Step Time =    1.000,"P-33-1",          1407,       153.595,       82.4916,            0.,NA,NA,"",   946.929E+03,   920.171E+03,   920.171E+03
C:/temp/Job-33.odb,Step-1,Increment      1: Step Time =    1.000,"P-33-1",          1408,       45.6554,       115.809,            0.,NA,NA,"",   760.842E+03,   793.966E+03,   793.966E+03
C:/temp/Job-33.odb,Step-1,Increment      1: Step Time =    1.000,"P-33-1",          1409,       85.2145,       47.5460,            0.,NA,NA,"",   1.16843E+06,   1.20746E+06,   1.20746E+06
C:/temp/Job-33.odb,Step-1,Increment      1: Step Time =    1.000,"P-33-1",          1410,       65.7708,       73.5461,            0.,NA,NA,"",   1.19480E+06,   1.10575E+06,   1.10575E+06
C:/temp/Job-33.odb,Step-1,Increment      1: Step Time =    1.000,"P-33-1",          1411,       134.187,       126.382,            0.,NA,NA,"",   1.30062E+06,   1.16757E+06,   1.16757E+06
C:/temp/Job-33.odb,Step-1,Increment      1: Step Time =    1.000,"P-33-1",          1412,       72.3959,       132.367,            0.,NA,NA,"",   1.35224E+06,   1.28166E+06,   1.28166E+06
C:/temp/Job-33.odb,Step-1,Increment      1: Step Time =    1.000,"P-33-1",          1413,       126.625,       67.7313,            0.,NA,NA,"",   1.41834E+06,   1.33069E+06,   1.33069E+06
C:/temp/Job-33.odb,Step-1,Increment      1: Step Time =    1.000,"P-33-1",          1414,       140.501,       124.360,            0.,NA,NA,"",   1.17579E+06,   1.06842E+06,   1.06842E+06
C:/temp/Job-33.odb,Step-1,Increment      1: Step Time =    1.000,"P-33-1",          1415,       59.4652,       75.6235,            0.,NA,NA,"",   1.04883E+06,   993.707E+03,   993.707E+03
C:/temp/Job-33.odb,Step-1,Increment      1: Step Time =    1.000,"P-33-1",          1416,       57.3983,       121.720,            0.,NA,NA,"",   960.903E+03,   920.829E+03,   920.829E+03
C:/temp/Job-33.odb,Step-1,Increment      1: Step Time =    1.000,"P-33-1",          1417,       122.373,       141.378,            0.,NA,NA,"",   1.32446E+06,   1.31003E+06,   1.31003E+06
C:/temp/Job-33.odb,Step-1,Increment      1: Step Time =    1.000,"P-33-1",          1418,       76.7634,       57.0109,            0.,NA,NA,"",   1.29677E+06,   1.28664E+06,   1.28664E+06
C:/temp/Job-33.odb,Step-1,Increment      1: Step Time =    1.000,"P-33-1",          1419,       142.543,       78.4078,            0.,NA,NA,"",   1.09271E+06,   998.452E+03,   998.452E+03
C:/temp/Job-33.odb,Step-1,Increment      1: Step Time =    1.000,"P-33-1",          1420,       76.1064,       142.073,            0.,NA,NA,"",   1.29999E+06,   1.28366E+06,   1.28366E+06
C:/temp/Job-33.odb,Step-1,Increment      1: Step Time =    1.000,"P-33-1",          1421,       125.736,       58.7629,            0.,NA,NA,"",   1.32188E+06,   1.28499E+06,   1.28499E+06
C:/temp/Job-33.odb,Step-1,Increment      1: Step Time =    1.000,"P-33-1",          1422,       25.5115,       10.0828,            0.,NA,NA,"",   1.18014E+06,   1.18699E+06,   1.18699E+06
C:/temp/Job-33.odb,Step-1,Increment      1: Step Time =    1.000,"P-33-1",          1423,       9.69019,       174.307,            0.,NA,NA,"",   1.05322E+06,   1.13896E+06,   1.13896E+06
C:/temp/Job-33.odb,Step-1,Increment      1: Step Time =    1.000,"P-33-1",          1424,       190.836,       29.4913,            0.,NA,NA,"",   999.464E+03,   1.00465E+06,   1.00465E+06
C:/temp/Job-33.odb,Step-1,Increment      1: Step Time =    1.000,"P-33-1",          1425,       170.495,       190.837,            0.,NA,NA,"",   1.00592E+06,   1.00516E+06,   1.00516E+06
C:/temp/Job-33.odb,Step-1,Increment      1: Step Time =    1.000,"P-33-1",          1426,       36.8119,       160.467,            0.,NA,NA,"",   1.09822E+06,   1.11347E+06,   1.11347E+06
C:/temp/Job-33.odb,Step-1,Increment      1: Step Time =    1.000,"P-33-1",          1427,       160.495,       162.030,            0.,NA,NA,"",   1.08683E+06,   1.06889E+06,   1.06889E+06
C:/temp/Job-33.odb,Step-1,Increment      1: Step Time =    1.000,"P-33-1",          1428,       39.4227,       39.0183,            0.,NA,NA,"",   1.11164E+06,   1.12107E+06,   1.12107E+06
C:/temp/Job-33.odb,Step-1,Increment      1: Step Time =    1.000,"P-33-1",          1429,       163.816,       40.0773,            0.,NA,NA,"",   1.08015E+06,   1.06404E+06,   1.06404E+06
C:/temp/Job-33.odb,Step-1,Increment      1: Step Time =    1.000,"P-33-1",          1430,       25.4501,       42.0210,            0.,NA,NA,"",   1.02797E+06,   1.07575E+06,   1.07575E+06
C:/temp/Job-33.odb,Step-1,Increment      1: Step Time =    1.000,"P-33-1",          1431,       40.5134,       170.958,            0.,NA,NA,"",   1.13525E+06,   1.13884E+06,   1.13884E+06
C:/temp/Job-33.odb,Step-1,Increment      1: Step Time =    1.000,"P-33-1",          1432,       171.643,       160.109,            0.,NA,NA,"",   1.05099E+06,   1.04453E+06,   1.04453E+06
C:/temp/Job-33.odb,Step-1,Increment      1: Step Time =    1.000,"P-33-1",          1433,       67.8194,       63.8642,            0.,NA,NA,"",   1.29026E+06,   1.22822E+06,   1.22822E+06
C:/temp/Job-33.odb,Step-1,Increment      1: Step Time =    1.000,"P-33-1",          1434,       131.894,       135.674,            0.,NA,NA,"",   1.35554E+06,   1.26515E+06,   1.26515E+06
C:/temp/Job-33.odb,Step-1,Increment      1: Step Time =    1.000,"P-33-1",          1435,       132.026,       67.4195,            0.,NA,NA,"",   1.36404E+06,   1.25775E+06,   1.25775E+06
C:/temp/Job-33.odb,Step-1,Increment      1: Step Time =    1.000,"P-33-1",          1436,       67.2209,       132.245,            0.,NA,NA,"",   1.27821E+06,   1.20239E+06,   1.20239E+06
C:/temp/Job-33.odb,Step-1,Increment      1: Step Time =    1.000,"P-33-1",          1437,       141.791,       33.2257,            0.,NA,NA,"",   1.11245E+06,   1.09316E+06,   1.09316E+06
C:/temp/Job-33.odb,Step-1,Increment      1: Step Time =    1.000,"P-33-1",          1438,       60.7020,       167.436,            0.,NA,NA,"",   1.15124E+06,   1.14065E+06,   1.14065E+06
C:/temp/Job-33.odb,Step-1,Increment      1: Step Time =    1.000,"P-33-1",          1439,       35.2684,       59.9976,            0.,NA,NA,"",   972.565E+03,   1.00493E+06,   1.00493E+06
C:/temp/Job-33.odb,Step-1,Increment      1: Step Time =    1.000,"P-33-1",          1440,       164.571,       138.586,            0.,NA,NA,"",   1.07495E+06,   1.05593E+06,   1.05593E+06
C:/temp/Job-33.odb,Step-1,Increment      1: Step Time =    1.000,"P-33-1",          1441,       38.7024,       34.5838,            0.,NA,NA,"",   1.12147E+06,   1.13044E+06,   1.13044E+06
C:/temp/Job-33.odb,Step-1,Increment      1: Step Time =    1.000,"P-33-1",          1442,       33.8665,       164.157,            0.,NA,NA,"",   1.10033E+06,   1.12069E+06,   1.12069E+06
C:/temp/Job-33.odb,Step-1,Increment      1: Step Time =    1.000,"P-33-1",          1443,       163.611,       164.874,            0.,NA,NA,"",   1.06840E+06,   1.05551E+06,   1.05551E+06
C:/temp/Job-33.odb,Step-1,Increment      1: Step Time =    1.000,"P-33-1",          1444,       112.203,       147.763,            0.,NA,NA,"",   1.17841E+06,   1.23585E+06,   1.23585E+06
C:/temp/Job-33.odb,Step-1,Increment      1: Step Time =    1.000,"P-33-1",          1445,       88.9430,       52.6663,            0.,NA,NA,"",   1.18588E+06,   1.24821E+06,   1.24821E+06
C:/temp/Job-33.odb,Step-1,Increment      1: Step Time =    1.000,"P-33-1",          1446,       132.377,       35.0183,            0.,NA,NA,"",   1.12807E+06,   1.11595E+06,   1.11595E+06
C:/temp/Job-33.odb,Step-1,Increment      1: Step Time =    1.000,"P-33-1",          1447,       66.8325,       165.323,            0.,NA,NA,"",   1.15662E+06,   1.14812E+06,   1.14812E+06
C:/temp/Job-33.odb,Step-1,Increment      1: Step Time =    1.000,"P-33-1",          1448,       34.4737,       66.9010,            0.,NA,NA,"",   907.593E+03,   949.248E+03,   949.248E+03
C:/temp/Job-33.odb,Step-1,Increment      1: Step Time =    1.000,"P-33-1",          1449,       165.789,       129.592,            0.,NA,NA,"",   1.02758E+06,   1.01939E+06,   1.01939E+06
C:/temp/Job-33.odb,Step-1,Increment      1: Step Time =    1.000,"P-33-1",          1450,       88.4810,       71.5748,            0.,NA,NA,"",   1.55131E+06,   1.62004E+06,   1.62004E+06
C:/temp/Job-33.odb,Step-1,Increment      1: Step Time =    1.000,"P-33-1",          1451,       111.697,       128.315,            0.,NA,NA,"",   1.56640E+06,   1.63792E+06,   1.63792E+06
C:/temp/Job-33.odb,Step-1,Increment      1: Step Time =    1.000,"P-33-1",          1452,       173.860,       150.531,            0.,NA,NA,"",   1.04396E+06,   1.04216E+06,   1.04216E+06
C:/temp/Job-33.odb,Step-1,Increment      1: Step Time =    1.000,"P-33-1",          1453,       29.9641,       51.6116,            0.,NA,NA,"",   994.574E+03,   1.03655E+06,   1.03655E+06
C:/temp/Job-33.odb,Step-1,Increment      1: Step Time =    1.000,"P-33-1",          1454,       50.6447,       170.995,            0.,NA,NA,"",   1.14246E+06,   1.13549E+06,   1.13549E+06
C:/temp/Job-33.odb,Step-1,Increment      1: Step Time =    1.000,"P-33-1",          1455,       149.897,       30.2308,            0.,NA,NA,"",   1.08938E+06,   1.07159E+06,   1.07159E+06
C:/temp/Job-33.odb,Step-1,Increment      1: Step Time =    1.000,"P-33-1",          1456,       35.5858,       78.2609,            0.,NA,NA,"",   800.660E+03,   852.595E+03,   852.595E+03
C:/temp/Job-33.odb,Step-1,Increment      1: Step Time =    1.000,"P-33-1",          1457,       121.421,       33.2411,            0.,NA,NA,"",   1.08652E+06,   1.09750E+06,   1.09750E+06
C:/temp/Job-33.odb,Step-1,Increment      1: Step Time =    1.000,"P-33-1",          1458,       163.990,       121.399,            0.,NA,NA,"",   967.809E+03,   967.867E+03,   967.867E+03
C:/temp/Job-33.odb,Step-1,Increment      1: Step Time =    1.000,"P-33-1",          1459,       42.1556,       118.773,            0.,NA,NA,"",   792.217E+03,   829.715E+03,   829.715E+03
C:/temp/Job-33.odb,Step-1,Increment      1: Step Time =    1.000,"P-33-1",          1460,       163.109,       81.5143,            0.,NA,NA,"",   937.233E+03,   941.369E+03,   941.369E+03
C:/temp/Job-33.odb,Step-1,Increment      1: Step Time =    1.000,"P-33-1",          1461,       84.1107,       38.1850,            0.,NA,NA,"",   1.11504E+06,   1.14253E+06,   1.14253E+06
C:/temp/Job-33.odb,Step-1,Increment      1: Step Time =    1.000,"P-33-1",          1462,       118.357,       160.165,            0.,NA,NA,"",   1.11471E+06,   1.13645E+06,   1.13645E+06
C:/temp/Job-33.odb,Step-1,Increment      1: Step Time =    1.000,"P-33-1",          1463,       142.838,       38.8395,            0.,NA,NA,"",   1.14520E+06,   1.11774E+06,   1.11774E+06
C:/temp/Job-33.odb,Step-1,Increment      1: Step Time =    1.000,"P-33-1",          1464,       57.4605,       161.821,            0.,NA,NA,"",   1.16809E+06,   1.15359E+06,   1.15359E+06
C:/temp/Job-33.odb,Step-1,Increment      1: Step Time =    1.000,"P-33-1",          1465,       39.2577,       56.9890,            0.,NA,NA,"",   1.02602E+06,   1.04362E+06,   1.04362E+06
C:/temp/Job-33.odb,Step-1,Increment      1: Step Time =    1.000,"P-33-1",          1466,       34.4164,       88.7931,            0.,NA,NA,"",   690.841E+03,   758.916E+03,   758.916E+03
C:/temp/Job-33.odb,Step-1,Increment      1: Step Time =    1.000,"P-33-1",          1467,       165.128,       111.099,            0.,NA,NA,"",   869.507E+03,   894.732E+03,   894.732E+03
C:/temp/Job-33.odb,Step-1,Increment      1: Step Time =    1.000,"P-33-1",          1468,       86.8733,       160.679,            0.,NA,NA,"",   1.10793E+06,   1.14356E+06,   1.14356E+06
C:/temp/Job-33.odb,Step-1,Increment      1: Step Time =    1.000,"P-33-1",          1469,       114.430,       37.5678,            0.,NA,NA,"",   1.08649E+06,   1.11648E+06,   1.11648E+06
C:/temp/Job-33.odb,Step-1,Increment      1: Step Time =    1.000,"P-33-1",          1470,       42.4911,       154.271,            0.,NA,NA,"",   1.10681E+06,   1.11053E+06,   1.11053E+06
C:/temp/Job-33.odb,Step-1,Increment      1: Step Time =    1.000,"P-33-1",          1471,       155.711,       43.6510,            0.,NA,NA,"",   1.12402E+06,   1.09524E+06,   1.09524E+06
C:/temp/Job-33.odb,Step-1,Increment      1: Step Time =    1.000,"P-33-1",          1472,       156.349,       153.943,            0.,NA,NA,"",   1.12725E+06,   1.09661E+06,   1.09661E+06
C:/temp/Job-33.odb,Step-1,Increment      1: Step Time =    1.000,"P-33-1",          1473,       44.7791,       46.3253,            0.,NA,NA,"",   1.11832E+06,   1.11734E+06,   1.11734E+06
C:/temp/Job-33.odb,Step-1,Increment      1: Step Time =    1.000,"P-33-1",          1474,       186.560,       56.9298,            0.,NA,NA,"",   986.633E+03,   1.01331E+06,   1.01331E+06
C:/temp/Job-33.odb,Step-1,Increment      1: Step Time =    1.000,"P-33-1",          1475,       58.3023,       12.7053,            0.,NA,NA,"",   1.07421E+06,   1.07136E+06,   1.07136E+06
C:/temp/Job-33.odb,Step-1,Increment      1: Step Time =    1.000,"P-33-1",          1476,       143.204,       186.630,            0.,NA,NA,"",   1.01173E+06,   1.00751E+06,   1.00751E+06
C:/temp/Job-33.odb,Step-1,Increment      1: Step Time =    1.000,"P-33-1",          1477,       10.2604,       140.683,            0.,NA,NA,"",   838.676E+03,   928.741E+03,   928.741E+03
C:/temp/Job-33.odb,Step-1,Increment      1: Step Time =    1.000,"P-33-1",          1478,       64.8619,       112.451,            0.,NA,NA,"",   785.935E+03,   707.483E+03,   707.483E+03
C:/temp/Job-33.odb,Step-1,Increment      1: Step Time =    1.000,"P-33-1",          1479,       134.952,       87.6177,            0.,NA,NA,"",   901.635E+03,   768.822E+03,   768.822E+03
C:/temp/Job-33.odb,Step-1,Increment      1: Step Time =    1.000,"P-33-1",          1480,       68.2553,       122.997,            0.,NA,NA,"",   1.18108E+06,   1.06805E+06,   1.06805E+06
C:/temp/Job-33.odb,Step-1,Increment      1: Step Time =    1.000,"P-33-1",          1481,       131.420,       77.1180,            0.,NA,NA,"",   1.29941E+06,   1.13872E+06,   1.13872E+06
C:/temp/Job-33.odb,Step-1,Increment      1: Step Time =    1.000,"P-33-1",          1482,       172.867,       155.523,            0.,NA,NA,"",   1.04809E+06,   1.04373E+06,   1.04373E+06
C:/temp/Job-33.odb,Step-1,Increment      1: Step Time =    1.000,"P-33-1",          1483,       27.4289,       46.9600,            0.,NA,NA,"",   1.00972E+06,   1.05530E+06,   1.05530E+06
C:/temp/Job-33.odb,Step-1,Increment      1: Step Time =    1.000,"P-33-1",          1484,       152.395,       28.2211,            0.,NA,NA,"",   1.07660E+06,   1.06128E+06,   1.06128E+06
C:/temp/Job-33.odb,Step-1,Increment      1: Step Time =    1.000,"P-33-1",          1485,       45.1937,       170.988,            0.,NA,NA,"",   1.14029E+06,   1.13791E+06,   1.13791E+06
C:/temp/Job-33.odb,Step-1,Increment      1: Step Time =    1.000,"P-33-1",          1486,       154.615,       39.3823,            0.,NA,NA,"",   1.11374E+06,   1.08861E+06,   1.08861E+06
C:/temp/Job-33.odb,Step-1,Increment      1: Step Time =    1.000,"P-33-1",          1487,       160.279,       151.420,            0.,NA,NA,"",   1.11025E+06,   1.08413E+06,   1.08413E+06
C:/temp/Job-33.odb,Step-1,Increment      1: Step Time =    1.000,"P-33-1",          1488,       45.3254,       157.441,            0.,NA,NA,"",   1.13046E+06,   1.12809E+06,   1.12809E+06
C:/temp/Job-33.odb,Step-1,Increment      1: Step Time =    1.000,"P-33-1",          1489,       41.0217,       47.2906,            0.,NA,NA,"",   1.09192E+06,   1.10017E+06,   1.10017E+06
C:/temp/Job-33.odb,Step-1,Increment      1: Step Time =    1.000,"P-33-1",          1490,       62.9582,       122.624,            0.,NA,NA,"",   1.07184E+06,   991.946E+03,   991.946E+03
C:/temp/Job-33.odb,Step-1,Increment      1: Step Time =    1.000,"P-33-1",          1491,       136.722,       77.4630,            0.,NA,NA,"",   1.19971E+06,   1.06654E+06,   1.06654E+06
C:/temp/Job-33.odb,Step-1,Increment      1: Step Time =    1.000,"P-33-1",          1492,       168.573,       149.997,            0.,NA,NA,"",   1.06925E+06,   1.05755E+06,   1.05755E+06
C:/temp/Job-33.odb,Step-1,Increment      1: Step Time =    1.000,"P-33-1",          1493,       33.6018,       49.7969,            0.,NA,NA,"",   1.03016E+06,   1.06029E+06,   1.06029E+06
C:/temp/Job-33.odb,Step-1,Increment      1: Step Time =    1.000,"P-33-1",          1494,       153.771,       31.6385,            0.,NA,NA,"",   1.08585E+06,   1.06823E+06,   1.06823E+06
C:/temp/Job-33.odb,Step-1,Increment      1: Step Time =    1.000,"P-33-1",          1495,       44.8526,       166.500,            0.,NA,NA,"",   1.13933E+06,   1.13767E+06,   1.13767E+06
C:/temp/Job-33.odb,Step-1,Increment      1: Step Time =    1.000,"P-33-1",          1496,       129.473,       58.6399,            0.,NA,NA,"",   1.32082E+06,   1.26638E+06,   1.26638E+06
C:/temp/Job-33.odb,Step-1,Increment      1: Step Time =    1.000,"P-33-1",          1497,       71.4069,       141.666,            0.,NA,NA,"",   1.29308E+06,   1.25804E+06,   1.25804E+06
C:/temp/Job-33.odb,Step-1,Increment      1: Step Time =    1.000,"P-33-1",          1498,       121.131,       52.8072,            0.,NA,NA,"",   1.24479E+06,   1.24854E+06,   1.24854E+06
C:/temp/Job-33.odb,Step-1,Increment      1: Step Time =    1.000,"P-33-1",          1499,       79.9800,       148.397,            0.,NA,NA,"",   1.23526E+06,   1.24824E+06,   1.24824E+06
C:/temp/Job-33.odb,Step-1,Increment      1: Step Time =    1.000,"P-33-1",          1500,       35.8371,       114.563,            0.,NA,NA,"",   720.907E+03,   783.060E+03,   783.060E+03
C:/temp/Job-33.odb,Step-1,Increment      1: Step Time =    1.000,"P-33-1",          1501,       85.6829,       33.9108,            0.,NA,NA,"",   1.08969E+06,   1.11534E+06,   1.11534E+06
C:/temp/Job-33.odb,Step-1,Increment      1: Step Time =    1.000,"P-33-1",          1502,       164.009,       86.0326,            0.,NA,NA,"",   895.043E+03,   911.042E+03,   911.042E+03
C:/temp/Job-33.odb,Step-1,Increment      1: Step Time =    1.000,"P-33-1",          1503,       113.114,       162.596,            0.,NA,NA,"",   1.08191E+06,   1.11462E+06,   1.11462E+06
C:/temp/Job-33.odb,Step-1,Increment      1: Step Time =    1.000,"P-33-1",          1504,       143.691,       84.9733,            0.,NA,NA,"",   932.885E+03,   867.751E+03,   867.751E+03
C:/temp/Job-33.odb,Step-1,Increment      1: Step Time =    1.000,"P-33-1",          1505,       55.6764,       115.204,            0.,NA,NA,"",   793.197E+03,   783.768E+03,   783.768E+03
C:/temp/Job-33.odb,Step-1,Increment      1: Step Time =    1.000,"P-33-1",          1506,       48.1630,       10.0993,            0.,NA,NA,"",   1.09435E+06,   1.09264E+06,   1.09264E+06
C:/temp/Job-33.odb,Step-1,Increment      1: Step Time =    1.000,"P-33-1",          1507,       189.350,       47.1779,            0.,NA,NA,"",   990.184E+03,   1.00958E+06,   1.00958E+06
C:/temp/Job-33.odb,Step-1,Increment      1: Step Time =    1.000,"P-33-1",          1508,       152.843,       189.350,            0.,NA,NA,"",   1.00721E+06,   1.00437E+06,   1.00437E+06
C:/temp/Job-33.odb,Step-1,Increment      1: Step Time =    1.000,"P-33-1",          1509,       8.72077,       150.957,            0.,NA,NA,"",   891.112E+03,   984.494E+03,   984.494E+03
C:/temp/Job-33.odb,Step-1,Increment      1: Step Time =    1.000,"P-33-1",          1510,       66.7609,       68.5608,            0.,NA,NA,"",   1.26472E+06,   1.18677E+06,   1.18677E+06
C:/temp/Job-33.odb,Step-1,Increment      1: Step Time =    1.000,"P-33-1",          1511,       133.121,       131.241,            0.,NA,NA,"",   1.35012E+06,   1.23604E+06,   1.23604E+06
C:/temp/Job-33.odb,Step-1,Increment      1: Step Time =    1.000,"P-33-1",          1512,       61.9895,       66.5372,            0.,NA,NA,"",   1.20382E+06,   1.14294E+06,   1.14294E+06
C:/temp/Job-33.odb,Step-1,Increment      1: Step Time =    1.000,"P-33-1",          1513,       132.096,       61.9143,            0.,NA,NA,"",   1.33534E+06,   1.25894E+06,   1.25894E+06
C:/temp/Job-33.odb,Step-1,Increment      1: Step Time =    1.000,"P-33-1",          1514,       66.9113,       136.955,            0.,NA,NA,"",   1.27964E+06,   1.22152E+06,   1.22152E+06
C:/temp/Job-33.odb,Step-1,Increment      1: Step Time =    1.000,"P-33-1",          1515,       137.901,       133.408,            0.,NA,NA,"",   1.29351E+06,   1.19312E+06,   1.19312E+06
C:/temp/Job-33.odb,Step-1,Increment      1: Step Time =    1.000,"P-33-1",          1516,       113.663,       157.704,            0.,NA,NA,"",   1.11132E+06,   1.14947E+06,   1.14947E+06
C:/temp/Job-33.odb,Step-1,Increment      1: Step Time =    1.000,"P-33-1",          1517,       153.675,       88.2764,            0.,NA,NA,"",   840.005E+03,    834.84E+03,    834.84E+03
C:/temp/Job-33.odb,Step-1,Increment      1: Step Time =    1.000,"P-33-1",          1518,       89.4083,       44.1208,            0.,NA,NA,"",   1.11893E+06,   1.16765E+06,   1.16765E+06
C:/temp/Job-33.odb,Step-1,Increment      1: Step Time =    1.000,"P-33-1",          1519,       45.9859,       111.004,            0.,NA,NA,"",   678.598E+03,   722.847E+03,   722.847E+03
C:/temp/Job-33.odb,Step-1,Increment      1: Step Time =    1.000,"P-33-1",          1520,       145.322,       110.811,            0.,NA,NA,"",   800.246E+03,   765.914E+03,   765.914E+03
C:/temp/Job-33.odb,Step-1,Increment      1: Step Time =    1.000,"P-33-1",          1521,       54.5615,       89.1267,            0.,NA,NA,"",   671.429E+03,   685.024E+03,   685.024E+03
C:/temp/Job-33.odb,Step-1,Increment      1: Step Time =    1.000,"P-33-1",          1522,       158.371,       97.5393,            0.,NA,NA,"",   764.870E+03,   793.393E+03,   793.393E+03
C:/temp/Job-33.odb,Step-1,Increment      1: Step Time =    1.000,"P-33-1",          1523,       41.4072,       102.402,            0.,NA,NA,"",   612.483E+03,   677.951E+03,   677.951E+03
C:/temp/Job-33.odb,Step-1,Increment      1: Step Time =    1.000,"P-33-1",          1524,       141.831,       88.5669,            0.,NA,NA,"",   837.789E+03,   775.494E+03,   775.494E+03
C:/temp/Job-33.odb,Step-1,Increment      1: Step Time =    1.000,"P-33-1",          1525,       57.8297,       111.471,            0.,NA,NA,"",   709.948E+03,   699.583E+03,   699.583E+03
C:/temp/Job-33.odb,Step-1,Increment      1: Step Time =    1.000,"P-33-1",          1526,       34.8107,       39.7653,            0.,NA,NA,"",   1.08892E+06,   1.10942E+06,   1.10942E+06
C:/temp/Job-33.odb,Step-1,Increment      1: Step Time =    1.000,"P-33-1",          1527,       164.246,       159.333,            0.,NA,NA,"",   1.07916E+06,   1.06370E+06,   1.06370E+06
C:/temp/Job-33.odb,Step-1,Increment      1: Step Time =    1.000,"P-33-1",          1528,       40.0185,       163.068,            0.,NA,NA,"",   1.12027E+06,   1.12775E+06,   1.12775E+06
C:/temp/Job-33.odb,Step-1,Increment      1: Step Time =    1.000,"P-33-1",          1529,       90.1056,       41.0818,            0.,NA,NA,"",   1.10052E+06,   1.14485E+06,   1.14485E+06
C:/temp/Job-33.odb,Step-1,Increment      1: Step Time =    1.000,"P-33-1",          1530,       108.690,       162.498,            0.,NA,NA,"",   1.06723E+06,   1.10930E+06,   1.10930E+06
C:/temp/Job-33.odb,Step-1,Increment      1: Step Time =    1.000,"P-33-1",          1531,       38.0077,       64.0659,            0.,NA,NA,"",   959.763E+03,   987.015E+03,   987.015E+03
C:/temp/Job-33.odb,Step-1,Increment      1: Step Time =    1.000,"P-33-1",          1532,       61.9118,       163.127,            0.,NA,NA,"",   1.16797E+06,   1.15473E+06,   1.15473E+06
C:/temp/Job-33.odb,Step-1,Increment      1: Step Time =    1.000,"P-33-1",          1533,       160.298,       136.853,            0.,NA,NA,"",   1.09636E+06,   1.06595E+06,   1.06595E+06
C:/temp/Job-33.odb,Step-1,Increment      1: Step Time =    1.000,"P-33-1",          1534,       136.874,       34.7088,            0.,NA,NA,"",   1.12558E+06,   1.10785E+06,   1.10785E+06
C:/temp/Job-33.odb,Step-1,Increment      1: Step Time =    1.000,"P-33-1",          1535,       131.775,       72.4382,            0.,NA,NA,"",   1.35359E+06,   1.21867E+06,   1.21867E+06
C:/temp/Job-33.odb,Step-1,Increment      1: Step Time =    1.000,"P-33-1",          1536,       67.6859,       127.583,            0.,NA,NA,"",   1.24752E+06,   1.15270E+06,   1.15270E+06
C:/temp/Job-33.odb,Step-1,Increment      1: Step Time =    1.000,"P-33-1",          1537,       162.426,       116.850,            0.,NA,NA,"",   921.864E+03,   927.491E+03,   927.491E+03
C:/temp/Job-33.odb,Step-1,Increment      1: Step Time =    1.000,"P-33-1",          1538,       37.2513,       82.9799,            0.,NA,NA,"",   750.687E+03,   805.857E+03,   805.857E+03
C:/temp/Job-33.odb,Step-1,Increment      1: Step Time =    1.000,"P-33-1",          1539,       147.238,       36.7025,            0.,NA,NA,"",   1.12216E+06,   1.09758E+06,   1.09758E+06
C:/temp/Job-33.odb,Step-1,Increment      1: Step Time =    1.000,"P-33-1",          1540,       162.853,       144.277,            0.,NA,NA,"",   1.09706E+06,   1.07299E+06,   1.07299E+06
C:/temp/Job-33.odb,Step-1,Increment      1: Step Time =    1.000,"P-33-1",          1541,       53.2721,       163.266,            0.,NA,NA,"",   1.15911E+06,   1.14728E+06,   1.14728E+06
C:/temp/Job-33.odb,Step-1,Increment      1: Step Time =    1.000,"P-33-1",          1542,       35.7685,       53.8642,            0.,NA,NA,"",   1.02026E+06,   1.04635E+06,   1.04635E+06
C:/temp/Job-33.odb,Step-1,Increment      1: Step Time =    1.000,"P-33-1",          1543,       127.467,       36.7719,            0.,NA,NA,"",   1.13051E+06,   1.12623E+06,   1.12623E+06
C:/temp/Job-33.odb,Step-1,Increment      1: Step Time =    1.000,"P-33-1",          1544,       75.1005,       160.268,            0.,NA,NA,"",   1.16485E+06,   1.16755E+06,   1.16755E+06
C:/temp/Job-33.odb,Step-1,Increment      1: Step Time =    1.000,"P-33-1",          1545,       161.430,       127.700,            0.,NA,NA,"",   1.03518E+06,   1.01563E+06,   1.01563E+06
C:/temp/Job-33.odb,Step-1,Increment      1: Step Time =    1.000,"P-33-1",          1546,       38.4959,       71.5442,            0.,NA,NA,"",   891.037E+03,   924.887E+03,   924.887E+03
C:/temp/Job-33.odb,Step-1,Increment      1: Step Time =    1.000,"P-33-1",          1547,       148.056,       86.5689,            0.,NA,NA,"",   875.623E+03,   840.257E+03,   840.257E+03
C:/temp/Job-33.odb,Step-1,Increment      1: Step Time =    1.000,"P-33-1",          1548,       51.3519,       113.109,            0.,NA,NA,"",   725.548E+03,   744.105E+03,   744.105E+03
C:/temp/Job-33.odb,Step-1,Increment      1: Step Time =    1.000,"P-33-1",          1549,       89.0766,       48.1919,            0.,NA,NA,"",   1.14649E+06,   1.20169E+06,   1.20169E+06
C:/temp/Job-33.odb,Step-1,Increment      1: Step Time =    1.000,"P-33-1",          1550,       112.494,       152.551,            0.,NA,NA,"",   1.13834E+06,   1.18782E+06,   1.18782E+06
C:/temp/Job-33.odb,Step-1,Increment      1: Step Time =    1.000,"P-33-1",          1551,       147.251,       100.790,            0.,NA,NA,"",   618.085E+03,   634.199E+03,   634.199E+03
C:/temp/Job-33.odb,Step-1,Increment      1: Step Time =    1.000,"P-33-1",          1552,       52.6030,       99.1239,            0.,NA,NA,"",   505.980E+03,   555.878E+03,   555.878E+03
C:/temp/Job-33.odb,Step-1,Increment      1: Step Time =    1.000,"P-33-1",          1553,       55.1020,       73.4983,            0.,NA,NA,"",   1.02502E+06,   992.546E+03,   992.546E+03
C:/temp/Job-33.odb,Step-1,Increment      1: Step Time =    1.000,"P-33-1",          1554,       144.927,       126.531,            0.,NA,NA,"",   1.15542E+06,   1.06991E+06,   1.06991E+06
C:/temp/Job-33.odb,Step-1,Increment      1: Step Time =    1.000,"P-33-1",          1555,       81.5830,       153.672,            0.,NA,NA,"",   1.18069E+06,   1.20340E+06,   1.20340E+06
C:/temp/Job-33.odb,Step-1,Increment      1: Step Time =    1.000,"P-33-1",          1556,       118.902,       47.4752,            0.,NA,NA,"",   1.18001E+06,   1.19950E+06,   1.19950E+06
C:/temp/Job-33.odb,Step-1,Increment      1: Step Time =    1.000,"P-33-1",          1557,       135.704,       82.1670,            0.,NA,NA,"",   1.09175E+06,   951.412E+03,   951.412E+03
C:/temp/Job-33.odb,Step-1,Increment      1: Step Time =    1.000,"P-33-1",          1558,       64.0476,       117.915,            0.,NA,NA,"",   964.659E+03,   879.850E+03,   879.850E+03
C:/temp/Job-33.odb,Step-1,Increment      1: Step Time =    1.000,"P-33-1",          1559,       51.5242,       64.9665,            0.,NA,NA,"",   1.07695E+06,   1.05764E+06,   1.05764E+06
C:/temp/Job-33.odb,Step-1,Increment      1: Step Time =    1.000,"P-33-1",          1560,       130.580,       55.3994,            0.,NA,NA,"",   1.29329E+06,   1.24482E+06,   1.24482E+06
C:/temp/Job-33.odb,Step-1,Increment      1: Step Time =    1.000,"P-33-1",          1561,       66.7361,       146.326,            0.,NA,NA,"",   1.25058E+06,   1.21867E+06,   1.21867E+06
C:/temp/Job-33.odb,Step-1,Increment      1: Step Time =    1.000,"P-33-1",          1562,       148.339,       135.461,            0.,NA,NA,"",   1.18273E+06,   1.11589E+06,   1.11589E+06
C:/temp/Job-33.odb,Step-1,Increment      1: Step Time =    1.000,"P-33-1",          1563,       46.5447,       60.0803,            0.,NA,NA,"",   1.06804E+06,   1.06373E+06,   1.06373E+06
C:/temp/Job-33.odb,Step-1,Increment      1: Step Time =    1.000,"P-33-1",          1564,       64.6358,       155.319,            0.,NA,NA,"",   1.20100E+06,   1.18232E+06,   1.18232E+06
C:/temp/Job-33.odb,Step-1,Increment      1: Step Time =    1.000,"P-33-1",          1565,       153.189,       139.284,            0.,NA,NA,"",   1.15677E+06,   1.10554E+06,   1.10554E+06
C:/temp/Job-33.odb,Step-1,Increment      1: Step Time =    1.000,"P-33-1",          1566,       136.440,       47.1814,            0.,NA,NA,"",   1.21192E+06,   1.17437E+06,   1.17437E+06
C:/temp/Job-33.odb,Step-1,Increment      1: Step Time =    1.000,"P-33-1",          1567,       158.769,       107.914,            0.,NA,NA,"",   808.813E+03,   829.072E+03,   829.072E+03
C:/temp/Job-33.odb,Step-1,Increment      1: Step Time =    1.000,"P-33-1",          1568,       40.9038,       91.9782,            0.,NA,NA,"",   650.831E+03,   712.488E+03,   712.488E+03
C:/temp/Job-33.odb,Step-1,Increment      1: Step Time =    1.000,"P-33-1",          1569,       56.3809,       105.003,            0.,NA,NA,"",   515.429E+03,   545.805E+03,   545.805E+03
C:/temp/Job-33.odb,Step-1,Increment      1: Step Time =    1.000,"P-33-1",          1570,       143.459,       94.9299,            0.,NA,NA,"",   623.688E+03,   615.184E+03,   615.184E+03
C:/temp/Job-33.odb,Step-1,Increment      1: Step Time =    1.000,"P-33-1",          1571,       159.394,       86.9735,            0.,NA,NA,"",   874.179E+03,   881.733E+03,   881.733E+03
C:/temp/Job-33.odb,Step-1,Increment      1: Step Time =    1.000,"P-33-1",          1572,       40.3573,       112.458,            0.,NA,NA,"",   699.794E+03,   755.612E+03,   755.612E+03
C:/temp/Job-33.odb,Step-1,Increment      1: Step Time =    1.000,"P-33-1",          1573,       144.624,       119.135,            0.,NA,NA,"",   1.02509E+06,   948.212E+03,   948.212E+03
C:/temp/Job-33.odb,Step-1,Increment      1: Step Time =    1.000,"P-33-1",          1574,       55.2853,       80.8161,            0.,NA,NA,"",   884.894E+03,   863.301E+03,   863.301E+03
C:/temp/Job-33.odb,Step-1,Increment      1: Step Time =    1.000,"P-33-1",          1575,       118.047,       38.2524,            0.,NA,NA,"",   1.10396E+06,   1.12601E+06,   1.12601E+06
C:/temp/Job-33.odb,Step-1,Increment      1: Step Time =    1.000,"P-33-1",          1576,       84.3328,       163.415,            0.,NA,NA,"",   1.10658E+06,   1.13228E+06,   1.13228E+06
C:/temp/Job-33.odb,Step-1,Increment      1: Step Time =    1.000,"P-33-1",          1577,       59.6095,       117.180,            0.,NA,NA,"",   874.198E+03,   830.192E+03,   830.192E+03
C:/temp/Job-33.odb,Step-1,Increment      1: Step Time =    1.000,"P-33-1",          1578,       140.011,       82.9390,            0.,NA,NA,"",   1.00744E+06,   906.869E+03,   906.869E+03
C:/temp/Job-33.odb,Step-1,Increment      1: Step Time =    1.000,"P-33-1",          1579,       126.272,       54.4962,            0.,NA,NA,"",   1.27867E+06,   1.25299E+06,   1.25299E+06
C:/temp/Job-33.odb,Step-1,Increment      1: Step Time =    1.000,"P-33-1",          1580,       75.3932,       146.295,            0.,NA,NA,"",   1.26639E+06,   1.25562E+06,   1.25562E+06
C:/temp/Job-33.odb,Step-1,Increment      1: Step Time =    1.000,"P-33-1",          1581,       139.665,       52.8526,            0.,NA,NA,"",   1.23791E+06,   1.18354E+06,   1.18354E+06
C:/temp/Job-33.odb,Step-1,Increment      1: Step Time =    1.000,"P-33-1",          1582,       146.522,       140.926,            0.,NA,NA,"",   1.21165E+06,   1.14738E+06,   1.14738E+06
C:/temp/Job-33.odb,Step-1,Increment      1: Step Time =    1.000,"P-33-1",          1583,       53.1277,       59.5485,            0.,NA,NA,"",   1.13289E+06,   1.10837E+06,   1.10837E+06
C:/temp/Job-33.odb,Step-1,Increment      1: Step Time =    1.000,"P-33-1",          1584,       40.8457,       67.5206,            0.,NA,NA,"",   952.633E+03,   974.375E+03,   974.375E+03
C:/temp/Job-33.odb,Step-1,Increment      1: Step Time =    1.000,"P-33-1",          1585,       67.3313,       160.191,            0.,NA,NA,"",   1.18024E+06,   1.16922E+06,   1.16922E+06
C:/temp/Job-33.odb,Step-1,Increment      1: Step Time =    1.000,"P-33-1",          1586,       160.982,       132.546,            0.,NA,NA,"",   1.07167E+06,   1.04559E+06,   1.04559E+06
C:/temp/Job-33.odb,Step-1,Increment      1: Step Time =    1.000,"P-33-1",          1587,       131.648,       43.3291,            0.,NA,NA,"",   1.18285E+06,   1.16208E+06,   1.16208E+06
C:/temp/Job-33.odb,Step-1,Increment      1: Step Time =    1.000,"P-33-1",          1588,       159.558,       122.515,            0.,NA,NA,"",   993.476E+03,   976.398E+03,   976.398E+03
C:/temp/Job-33.odb,Step-1,Increment      1: Step Time =    1.000,"P-33-1",          1589,       40.1561,       77.1373,            0.,NA,NA,"",   834.699E+03,   871.586E+03,   871.586E+03
C:/temp/Job-33.odb,Step-1,Increment      1: Step Time =    1.000,"P-33-1",          1590,       152.538,       135.336,            0.,NA,NA,"",   1.14730E+06,   1.09288E+06,   1.09288E+06
C:/temp/Job-33.odb,Step-1,Increment      1: Step Time =    1.000,"P-33-1",          1591,       71.2161,       149.805,            0.,NA,NA,"",   1.24009E+06,   1.22405E+06,   1.22405E+06
C:/temp/Job-33.odb,Step-1,Increment      1: Step Time =    1.000,"P-33-1",          1592,       131.646,       51.4507,            0.,NA,NA,"",   1.25389E+06,   1.21569E+06,   1.21569E+06
C:/temp/Job-33.odb,Step-1,Increment      1: Step Time =    1.000,"P-33-1",          1593,       47.3079,       64.8722,            0.,NA,NA,"",   1.03021E+06,   1.02730E+06,   1.02730E+06
C:/temp/Job-33.odb,Step-1,Increment      1: Step Time =    1.000,"P-33-1",          1594,       45.5098,       90.9061,            0.,NA,NA,"",   645.375E+03,   696.369E+03,   696.369E+03
C:/temp/Job-33.odb,Step-1,Increment      1: Step Time =    1.000,"P-33-1",          1595,       154.277,       108.996,            0.,NA,NA,"",   791.122E+03,   799.139E+03,   799.139E+03
C:/temp/Job-33.odb,Step-1,Increment      1: Step Time =    1.000,"P-33-1",          1596,       56.1579,       69.5077,            0.,NA,NA,"",   1.08835E+06,   1.04991E+06,   1.04991E+06
C:/temp/Job-33.odb,Step-1,Increment      1: Step Time =    1.000,"P-33-1",          1597,       143.862,       130.587,            0.,NA,NA,"",   1.20389E+06,   1.11644E+06,   1.11644E+06
C:/temp/Job-33.odb,Step-1,Increment      1: Step Time =    1.000,"P-33-1",          1598,       148.563,       120.012,            0.,NA,NA,"",   1.01826E+06,   959.561E+03,   959.561E+03
C:/temp/Job-33.odb,Step-1,Increment      1: Step Time =    1.000,"P-33-1",          1599,       51.3725,       79.9182,            0.,NA,NA,"",   873.068E+03,   869.485E+03,   869.485E+03
C:/temp/Job-33.odb,Step-1,Increment      1: Step Time =    1.000,"P-33-1",          1600,       53.6817,       109.170,            0.,NA,NA,"",   634.715E+03,   657.792E+03,   657.792E+03
C:/temp/Job-33.odb,Step-1,Increment      1: Step Time =    1.000,"P-33-1",          1601,       146.004,       90.6866,            0.,NA,NA,"",   766.244E+03,   742.445E+03,   742.445E+03
C:/temp/Job-33.odb,Step-1,Increment      1: Step Time =    1.000,"P-33-1",          1602,       122.356,       37.4438,            0.,NA,NA,"",   1.11785E+06,   1.12745E+06,   1.12745E+06
C:/temp/Job-33.odb,Step-1,Increment      1: Step Time =    1.000,"P-33-1",          1603,       79.5187,       163.727,            0.,NA,NA,"",   1.12692E+06,   1.14076E+06,   1.14076E+06
C:/temp/Job-33.odb,Step-1,Increment      1: Step Time =    1.000,"P-33-1",          1604,       43.6524,       65.5327,            0.,NA,NA,"",   993.655E+03,   1.00416E+06,   1.00416E+06
C:/temp/Job-33.odb,Step-1,Increment      1: Step Time =    1.000,"P-33-1",          1605,       68.5370,       155.419,            0.,NA,NA,"",   1.20295E+06,   1.18942E+06,   1.18942E+06
C:/temp/Job-33.odb,Step-1,Increment      1: Step Time =    1.000,"P-33-1",          1606,       156.467,       135.587,            0.,NA,NA,"",   1.11966E+06,   1.07741E+06,   1.07741E+06
C:/temp/Job-33.odb,Step-1,Increment      1: Step Time =    1.000,"P-33-1",          1607,       132.144,       47.3007,            0.,NA,NA,"",   1.21468E+06,   1.18599E+06,   1.18599E+06
C:/temp/Job-33.odb,Step-1,Increment      1: Step Time =    1.000,"P-33-1",          1608,       160.630,       112.337,            0.,NA,NA,"",   866.533E+03,   879.414E+03,   879.414E+03
C:/temp/Job-33.odb,Step-1,Increment      1: Step Time =    1.000,"P-33-1",          1609,       39.0615,       87.5574,            0.,NA,NA,"",   699.239E+03,   757.921E+03,   757.921E+03
C:/temp/Job-33.odb,Step-1,Increment      1: Step Time =    1.000,"P-33-1",          1610,       124.899,       49.0903,            0.,NA,NA,"",   1.22163E+06,   1.21226E+06,   1.21226E+06
C:/temp/Job-33.odb,Step-1,Increment      1: Step Time =    1.000,"P-33-1",          1611,       76.1601,       151.566,            0.,NA,NA,"",   1.22104E+06,   1.22135E+06,   1.22135E+06
C:/temp/Job-33.odb,Step-1,Increment      1: Step Time =    1.000,"P-33-1",          1612,       150.589,       36.0152,            0.,NA,NA,"",   1.11059E+06,   1.08757E+06,   1.08757E+06
C:/temp/Job-33.odb,Step-1,Increment      1: Step Time =    1.000,"P-33-1",          1613,       163.927,       149.982,            0.,NA,NA,"",   1.09185E+06,   1.07178E+06,   1.07178E+06
C:/temp/Job-33.odb,Step-1,Increment      1: Step Time =    1.000,"P-33-1",          1614,       47.5442,       160.938,            0.,NA,NA,"",   1.14352E+06,   1.13787E+06,   1.13787E+06
C:/temp/Job-33.odb,Step-1,Increment      1: Step Time =    1.000,"P-33-1",          1615,       37.2670,       48.3836,            0.,NA,NA,"",   1.06338E+06,   1.08189E+06,   1.08189E+06
C:/temp/Job-33.odb,Step-1,Increment      1: Step Time =    1.000,"P-33-1",          1616,       158.540,       38.1784,            0.,NA,NA,"",   1.09564E+06,   1.07506E+06,   1.07506E+06
C:/temp/Job-33.odb,Step-1,Increment      1: Step Time =    1.000,"P-33-1",          1617,       163.031,       154.889,            0.,NA,NA,"",   1.09132E+06,   1.07201E+06,   1.07201E+06
C:/temp/Job-33.odb,Step-1,Increment      1: Step Time =    1.000,"P-33-1",          1618,       43.9168,       162.629,            0.,NA,NA,"",   1.13288E+06,   1.13311E+06,   1.13311E+06
C:/temp/Job-33.odb,Step-1,Increment      1: Step Time =    1.000,"P-33-1",          1619,       35.9088,       44.1643,            0.,NA,NA,"",   1.07516E+06,   1.09535E+06,   1.09535E+06
C:/temp/Job-33.odb,Step-1,Increment      1: Step Time =    1.000,"P-33-1",          1620,       44.5999,       99.6708,            0.,NA,NA,"",   589.229E+03,   651.227E+03,   651.227E+03
C:/temp/Job-33.odb,Step-1,Increment      1: Step Time =    1.000,"P-33-1",          1621,       155.171,       100.218,            0.,NA,NA,"",   729.413E+03,   755.349E+03,   755.349E+03
C:/temp/Job-33.odb,Step-1,Increment      1: Step Time =    1.000,"P-33-1",          1622,       154.267,       95.2929,            0.,NA,NA,"",   734.172E+03,   754.795E+03,   754.795E+03
C:/temp/Job-33.odb,Step-1,Increment      1: Step Time =    1.000,"P-33-1",          1623,       45.5585,       104.502,            0.,NA,NA,"",   592.254E+03,   650.854E+03,   650.854E+03
C:/temp/Job-33.odb,Step-1,Increment      1: Step Time =    1.000,"P-33-1",          1624,       47.9924,       98.7665,            0.,NA,NA,"",   561.151E+03,   618.822E+03,   618.822E+03
C:/temp/Job-33.odb,Step-1,Increment      1: Step Time =    1.000,"P-33-1",          1625,       151.822,       101.124,            0.,NA,NA,"",   689.262E+03,   711.936E+03,   711.936E+03
C:/temp/Job-33.odb,Step-1,Increment      1: Step Time =    1.000,"P-33-1",          1626,       122.569,       41.6891,            0.,NA,NA,"",   1.15141E+06,   1.15837E+06,   1.15837E+06
C:/temp/Job-33.odb,Step-1,Increment      1: Step Time =    1.000,"P-33-1",          1627,       78.8331,       159.384,            0.,NA,NA,"",   1.15481E+06,   1.16804E+06,   1.16804E+06
C:/temp/Job-33.odb,Step-1,Increment      1: Step Time =    1.000,"P-33-1",          1628,       47.0599,       95.0896,            0.,NA,NA,"",   588.902E+03,   644.545E+03,   644.545E+03
C:/temp/Job-33.odb,Step-1,Increment      1: Step Time =    1.000,"P-33-1",          1629,       152.739,       104.806,            0.,NA,NA,"",   723.274E+03,   741.094E+03,   741.094E+03
C:/temp/Job-33.odb,Step-1,Increment      1: Step Time =    1.000,"P-33-1",          1630,       128.183,       47.6754,            0.,NA,NA,"",   1.21390E+06,   1.19518E+06,   1.19518E+06
C:/temp/Job-33.odb,Step-1,Increment      1: Step Time =    1.000,"P-33-1",          1631,       152.426,       131.687,            0.,NA,NA,"",   1.12717E+06,   1.07241E+06,   1.07241E+06
C:/temp/Job-33.odb,Step-1,Increment      1: Step Time =    1.000,"P-33-1",          1632,       72.4927,       153.297,            0.,NA,NA,"",   1.21411E+06,   1.20571E+06,   1.20571E+06
C:/temp/Job-33.odb,Step-1,Increment      1: Step Time =    1.000,"P-33-1",          1633,       47.7984,       68.6121,            0.,NA,NA,"",   996.067E+03,   994.453E+03,   994.453E+03
C:/temp/Job-33.odb,Step-1,Increment      1: Step Time =    1.000,"P-33-1",          1634,       46.5832,       80.9292,            0.,NA,NA,"",   816.139E+03,   837.679E+03,   837.679E+03
C:/temp/Job-33.odb,Step-1,Increment      1: Step Time =    1.000,"P-33-1",          1635,       153.232,       118.947,            0.,NA,NA,"",   969.574E+03,   936.919E+03,   936.919E+03
C:/temp/Job-33.odb,Step-1,Increment      1: Step Time =    1.000,"P-33-1",          1636,       44.1265,       68.6841,            0.,NA,NA,"",   963.999E+03,   976.610E+03,   976.610E+03
C:/temp/Job-33.odb,Step-1,Increment      1: Step Time =    1.000,"P-33-1",          1637,       156.684,       131.881,            0.,NA,NA,"",   1.09640E+06,   1.05670E+06,   1.05670E+06
C:/temp/Job-33.odb,Step-1,Increment      1: Step Time =    1.000,"P-33-1",          1638,       71.3301,       157.589,            0.,NA,NA,"",   1.18870E+06,   1.18183E+06,   1.18183E+06
C:/temp/Job-33.odb,Step-1,Increment      1: Step Time =    1.000,"P-33-1",          1639,       44.8797,       76.4507,            0.,NA,NA,"",   879.131E+03,   897.149E+03,   897.149E+03
C:/temp/Job-33.odb,Step-1,Increment      1: Step Time =    1.000,"P-33-1",          1640,       155.014,       123.407,            0.,NA,NA,"",   1.03029E+06,   993.183E+03,   993.183E+03
C:/temp/Job-33.odb,Step-1,Increment      1: Step Time =    1.000,"P-33-1",          1641,       152.371,       98.1645,            0.,NA,NA,"",   694.207E+03,   717.302E+03,   717.302E+03
C:/temp/Job-33.odb,Step-1,Increment      1: Step Time =    1.000,"P-33-1",          1642,       47.4370,       101.674,            0.,NA,NA,"",   563.373E+03,   621.743E+03,   621.743E+03
C:/temp/Job-33.odb,Step-1,Increment      1: Step Time =    1.000,"P-33-1",          1643,       49.5102,       75.4656,            0.,NA,NA,"",   934.188E+03,   930.828E+03,   930.828E+03
C:/temp/Job-33.odb,Step-1,Increment      1: Step Time =    1.000,"P-33-1",          1644,       150.539,       124.517,            0.,NA,NA,"",   1.07721E+06,   1.01887E+06,   1.01887E+06
C:/temp/Job-33.odb,Step-1,Increment      1: Step Time =    1.000,"P-33-1",          1645,       4.99365,       4.97771,            0.,NA,NA,"",   1.44571E+06,   1.50147E+06,   1.50147E+06
C:/temp/Job-33.odb,Step-1,Increment      1: Step Time =    1.000,"P-33-1",          1646,       43.9270,       9.52904,            0.,NA,NA,"",   1.10533E+06,   1.10444E+06,   1.10444E+06
C:/temp/Job-33.odb,Step-1,Increment      1: Step Time =    1.000,"P-33-1",          1647,       10.3966,       25.4152,            0.,NA,NA,"",   1.06084E+06,   1.14377E+06,   1.14377E+06
C:/temp/Job-33.odb,Step-1,Increment      1: Step Time =    1.000,"P-33-1",          1648,       149.468,       8.96531,            0.,NA,NA,"",   1.00084E+06,   998.595E+03,   998.595E+03
C:/temp/Job-33.odb,Step-1,Increment      1: Step Time =    1.000,"P-33-1",          1649,       190.473,       149.942,            0.,NA,NA,"",   984.720E+03,   1.00794E+06,   1.00794E+06
C:/temp/Job-33.odb,Step-1,Increment      1: Step Time =    1.000,"P-33-1",          1650,       50.7410,       190.633,            0.,NA,NA,"",   1.08444E+06,   1.08287E+06,   1.08287E+06
C:/temp/Job-33.odb,Step-1,Increment      1: Step Time =    1.000,"P-33-1",          1651,       190.020,       15.2108,            0.,NA,NA,"",   1.00125E+06,   1.00218E+06,   1.00218E+06
C:/temp/Job-33.odb,Step-1,Increment      1: Step Time =    1.000,"P-33-1",          1652,       184.762,       190.010,            0.,NA,NA,"",   1.00188E+06,   1.00224E+06,   1.00224E+06
C:/temp/Job-33.odb,Step-1,Increment      1: Step Time =    1.000,"P-33-1",          1653,       124.944,       119.293,            0.,NA,NA,"",   1.29853E+06,   1.11286E+06,   1.11286E+06
C:/temp/Job-33.odb,Step-1,Increment      1: Step Time =    1.000,"P-33-1",          1654,       75.0518,       80.6440,            0.,NA,NA,"",   1.20114E+06,   1.05228E+06,   1.05228E+06
C:/temp/Job-33.odb,Step-1,Increment      1: Step Time =    1.000,"P-33-1",          1655,       73.0591,       88.1859,            0.,NA,NA,"",   839.997E+03,   640.445E+03,   640.445E+03
C:/temp/Job-33.odb,Step-1,Increment      1: Step Time =    1.000,"P-33-1",          1656,       126.917,       111.791,            0.,NA,NA,"",   944.891E+03,   476.881E+03,   476.881E+03
C:/temp/Job-33.odb,Step-1,Increment      1: Step Time =    1.000,"P-33-1",          1657,       8.34959,       155.375,            0.,NA,NA,"",   913.094E+03,   1.00801E+06,   1.00801E+06
C:/temp/Job-33.odb,Step-1,Increment      1: Step Time =    1.000,"P-33-1",          1658,       39.6422,       184.677,            0.,NA,NA,"",   1.13277E+06,   1.13392E+06,   1.13392E+06
C:/temp/Job-33.odb,Step-1,Increment      1: Step Time =    1.000,"P-33-1",          1659,       158.724,       14.3195,            0.,NA,NA,"",   1.01895E+06,   1.01501E+06,   1.01501E+06
C:/temp/Job-33.odb,Step-1,Increment      1: Step Time =    1.000,"P-33-1",          1660,       185.911,       159.286,            0.,NA,NA,"",   1.00407E+06,   1.01398E+06,   1.01398E+06
C:/temp/Job-33.odb,Step-1,Increment      1: Step Time =    1.000,"P-33-1",          1661,       57.1215,       19.8048,            0.,NA,NA,"",   1.10708E+06,   1.10152E+06,   1.10152E+06
C:/temp/Job-33.odb,Step-1,Increment      1: Step Time =    1.000,"P-33-1",          1662,       67.6543,       14.5095,            0.,NA,NA,"",   1.05360E+06,   1.05203E+06,   1.05203E+06
C:/temp/Job-33.odb,Step-1,Increment      1: Step Time =    1.000,"P-33-1",          1663,       91.8637,       70.8973,            0.,NA,NA,"",   1.54412E+06,   1.65489E+06,   1.65489E+06
C:/temp/Job-33.odb,Step-1,Increment      1: Step Time =    1.000,"P-33-1",          1664,       108.415,       129.028,            0.,NA,NA,"",   1.54927E+06,   1.66378E+06,   1.66378E+06
C:/temp/Job-33.odb,Step-1,Increment      1: Step Time =    1.000,"P-33-1",          1665,       129.312,       124.993,            0.,NA,NA,"",   1.36257E+06,   1.21328E+06,   1.21328E+06
C:/temp/Job-33.odb,Step-1,Increment      1: Step Time =    1.000,"P-33-1",          1666,       138.911,       91.9259,            0.,NA,NA,"",   699.515E+03,   638.673E+03,   638.673E+03
C:/temp/Job-33.odb,Step-1,Increment      1: Step Time =    1.000,"P-33-1",          1667,       70.6545,       74.8728,            0.,NA,NA,"",   1.26561E+06,   1.15507E+06,   1.15507E+06
C:/temp/Job-33.odb,Step-1,Increment      1: Step Time =    1.000,"P-33-1",          1668,       60.9058,       108.094,            0.,NA,NA,"",   591.862E+03,   577.827E+03,   577.827E+03
C:/temp/Job-33.odb,Step-1,Increment      1: Step Time =    1.000,"P-33-1",          1669,       15.3107,       30.0996,            0.,NA,NA,"",   1.05427E+06,   1.12297E+06,   1.12297E+06
C:/temp/Job-33.odb,Step-1,Increment      1: Step Time =    1.000,"P-33-1",          1670,       16.7117,       34.2566,            0.,NA,NA,"",   1.02976E+06,   1.09755E+06,   1.09755E+06
C:/temp/Job-33.odb,Step-1,Increment      1: Step Time =    1.000,"P-33-1",          1671,       51.5833,       17.6122,            0.,NA,NA,"",   1.11195E+06,   1.10746E+06,   1.10746E+06
C:/temp/Job-33.odb,Step-1,Increment      1: Step Time =    1.000,"P-33-1",          1672,       76.0072,       71.0406,            0.,NA,NA,"",   1.39138E+06,   1.31753E+06,   1.31753E+06
C:/temp/Job-33.odb,Step-1,Increment      1: Step Time =    1.000,"P-33-1",          1673,       123.962,       128.616,            0.,NA,NA,"",   1.45466E+06,   1.35945E+06,   1.35945E+06
C:/temp/Job-33.odb,Step-1,Increment      1: Step Time =    1.000,"P-33-1",          1674,       16.5761,       19.9747,            0.,NA,NA,"",   1.14368E+06,   1.19444E+06,   1.19444E+06
C:/temp/Job-33.odb,Step-1,Increment      1: Step Time =    1.000,"P-33-1",          1675,       47.2231,       14.4518,            0.,NA,NA,"",   1.11189E+06,   1.10942E+06,   1.10942E+06
C:/temp/Job-33.odb,Step-1,Increment      1: Step Time =    1.000,"P-33-1",          1676,       107.681,       137.711,            0.,NA,NA,"",   1.29238E+06,   1.39746E+06,   1.39746E+06
C:/temp/Job-33.odb,Step-1,Increment      1: Step Time =    1.000,"P-33-1",          1677,       181.996,       72.2538,            0.,NA,NA,"",   963.776E+03,   1.00142E+06,   1.00142E+06
C:/temp/Job-33.odb,Step-1,Increment      1: Step Time =    1.000,"P-33-1",          1678,       176.602,       67.1688,            0.,NA,NA,"",   996.320E+03,   1.01411E+06,   1.01411E+06
C:/temp/Job-33.odb,Step-1,Increment      1: Step Time =    1.000,"P-33-1",          1679,       128.032,       181.368,            0.,NA,NA,"",   1.02018E+06,   1.01999E+06,   1.01999E+06
C:/temp/Job-33.odb,Step-1,Increment      1: Step Time =    1.000,"P-33-1",          1680,       133.718,       176.719,            0.,NA,NA,"",   1.05442E+06,   1.04882E+06,   1.04882E+06
C:/temp/Job-33.odb,Step-1,Increment      1: Step Time =    1.000,"P-33-1",          1681,       43.8294,       180.372,            0.,NA,NA,"",   1.13076E+06,   1.12914E+06,   1.12914E+06
C:/temp/Job-33.odb,Step-1,Increment      1: Step Time =    1.000,"P-33-1",          1682,       181.993,       40.3868,            0.,NA,NA,"",   1.01424E+06,   1.02056E+06,   1.02056E+06
C:/temp/Job-33.odb,Step-1,Increment      1: Step Time =    1.000,"P-33-1",          1683,       159.601,       181.940,            0.,NA,NA,"",   1.02870E+06,   1.02318E+06,   1.02318E+06
C:/temp/Job-33.odb,Step-1,Increment      1: Step Time =    1.000,"P-33-1",          1684,       137.551,       113.941,            0.,NA,NA,"",   951.946E+03,   839.996E+03,   839.996E+03
C:/temp/Job-33.odb,Step-1,Increment      1: Step Time =    1.000,"P-33-1",          1685,       62.3674,       86.0154,            0.,NA,NA,"",   828.834E+03,   769.760E+03,   769.760E+03
C:/temp/Job-33.odb,Step-1,Increment      1: Step Time =    1.000,"P-33-1",          1686,       49.2728,       107.020,            0.,NA,NA,"",   596.468E+03,   642.742E+03,   642.742E+03
C:/temp/Job-33.odb,Step-1,Increment      1: Step Time =    1.000,"P-33-1",          1687,       150.464,       92.6672,            0.,NA,NA,"",   732.881E+03,   737.257E+03,   737.257E+03
C:/temp/Job-33.odb,Step-1,Increment      1: Step Time =    1.000,"P-33-1",          1688,       80.5345,       66.5512,            0.,NA,NA,"",   1.41017E+06,   1.39616E+06,   1.39616E+06
C:/temp/Job-33.odb,Step-1,Increment      1: Step Time =    1.000,"P-33-1",          1689,       72.1043,       65.2031,            0.,NA,NA,"",   1.34062E+06,   1.27969E+06,   1.27969E+06
C:/temp/Job-33.odb,Step-1,Increment      1: Step Time =    1.000,"P-33-1",          1690,       119.473,       132.794,            0.,NA,NA,"",   1.44253E+06,   1.42029E+06,   1.42029E+06
C:/temp/Job-33.odb,Step-1,Increment      1: Step Time =    1.000,"P-33-1",          1691,       127.674,       134.182,            0.,NA,NA,"",   1.39808E+06,   1.31428E+06,   1.31428E+06
C:/temp/Job-33.odb,Step-1,Increment      1: Step Time =    1.000,"P-33-1",          1692,       81.0255,       137.879,            0.,NA,NA,"",   1.34573E+06,   1.34864E+06,   1.34864E+06
C:/temp/Job-33.odb,Step-1,Increment      1: Step Time =    1.000,"P-33-1",          1693,       92.7959,       62.3639,            0.,NA,NA,"",   1.30174E+06,   1.40647E+06,   1.40647E+06
C:/temp/Job-33.odb,Step-1,Increment      1: Step Time =    1.000,"P-33-1",          1694,       50.1075,       90.0616,            0.,NA,NA,"",   648.375E+03,   683.833E+03,   683.833E+03
C:/temp/Job-33.odb,Step-1,Increment      1: Step Time =    1.000,"P-33-1",          1695,       149.730,       109.857,            0.,NA,NA,"",   783.957E+03,   774.271E+03,   774.271E+03
C:/temp/Job-33.odb,Step-1,Increment      1: Step Time =    1.000,"P-33-1",          1696,       21.5379,       177.342,            0.,NA,NA,"",   1.14027E+06,   1.17622E+06,   1.17622E+06
C:/temp/Job-33.odb,Step-1,Increment      1: Step Time =    1.000,"P-33-1",          1697,       12.6061,       62.0182,            0.,NA,NA,"",   834.327E+03,   920.426E+03,   920.426E+03
C:/temp/Job-33.odb,Step-1,Increment      1: Step Time =    1.000,"P-33-1",          1698,       12.9060,       66.1573,            0.,NA,NA,"",   808.395E+03,   894.757E+03,   894.757E+03
C:/temp/Job-33.odb,Step-1,Increment      1: Step Time =    1.000,"P-33-1",          1699,       22.6462,       20.9610,            0.,NA,NA,"",   1.14509E+06,   1.17595E+06,   1.17595E+06
C:/temp/Job-33.odb,Step-1,Increment      1: Step Time =    1.000,"P-33-1",          1700,       50.6728,       27.7540,            0.,NA,NA,"",   1.14085E+06,   1.13404E+06,   1.13404E+06
C:/temp/Job-33.odb,Step-1,Increment      1: Step Time =    1.000,"P-33-1",          1701,       19.2222,       22.5545,            0.,NA,NA,"",   1.12046E+06,   1.16604E+06,   1.16604E+06
C:/temp/Job-33.odb,Step-1,Increment      1: Step Time =    1.000,"P-33-1",          1702,       182.340,       25.2938,            0.,NA,NA,"",   1.00993E+06,   1.01174E+06,   1.01174E+06
C:/temp/Job-33.odb,Step-1,Increment      1: Step Time =    1.000,"P-33-1",          1703,       174.660,       182.380,            0.,NA,NA,"",   1.01364E+06,   1.01256E+06,   1.01256E+06
C:/temp/Job-33.odb,Step-1,Increment      1: Step Time =    1.000,"P-33-1",          1704,       127.987,       176.245,            0.,NA,NA,"",   1.04951E+06,   1.04919E+06,   1.04919E+06
C:/temp/Job-33.odb,Step-1,Increment      1: Step Time =    1.000,"P-33-1",          1705,       177.383,       72.7328,            0.,NA,NA,"",   972.284E+03,   999.215E+03,   999.215E+03
C:/temp/Job-33.odb,Step-1,Increment      1: Step Time =    1.000,"P-33-1",          1706,       72.0041,       18.5198,            0.,NA,NA,"",   1.06083E+06,   1.06074E+06,   1.06074E+06
C:/temp/Job-33.odb,Step-1,Increment      1: Step Time =    1.000,"P-33-1",          1707,       144.138,       17.1931,            0.,NA,NA,"",   1.02980E+06,   1.02338E+06,   1.02338E+06
C:/temp/Job-33.odb,Step-1,Increment      1: Step Time =    1.000,"P-33-1",          1708,       66.7112,       141.723,            0.,NA,NA,"",   1.26671E+06,   1.22362E+06,   1.22362E+06
C:/temp/Job-33.odb,Step-1,Increment      1: Step Time =    1.000,"P-33-1",          1709,       38.6992,       17.9197,            0.,NA,NA,"",   1.13763E+06,   1.13934E+06,   1.13934E+06
C:/temp/Job-33.odb,Step-1,Increment      1: Step Time =    1.000,"P-33-1",          1710,       31.5261,       18.8740,            0.,NA,NA,"",   1.15074E+06,   1.16111E+06,   1.16111E+06
C:/temp/Job-33.odb,Step-1,Increment      1: Step Time =    1.000,"P-33-1",          1711,       56.0953,       31.5838,            0.,NA,NA,"",   1.15038E+06,   1.13952E+06,   1.13952E+06
C:/temp/Job-33.odb,Step-1,Increment      1: Step Time =    1.000,"P-33-1",          1712,       31.6841,       45.3809,            0.,NA,NA,"",   1.04452E+06,   1.07694E+06,   1.07694E+06
C:/temp/Job-33.odb,Step-1,Increment      1: Step Time =    1.000,"P-33-1",          1713,       143.212,       67.8027,            0.,NA,NA,"",   1.22561E+06,   1.13686E+06,   1.13686E+06
C:/temp/Job-33.odb,Step-1,Increment      1: Step Time =    1.000,"P-33-1",          1714,       88.7733,       57.3358,            0.,NA,NA,"",   1.24464E+06,   1.31251E+06,   1.31251E+06
C:/temp/Job-33.odb,Step-1,Increment      1: Step Time =    1.000,"P-33-1",          1715,       11.8149,       152.141,            0.,NA,NA,"",   914.002E+03,   1.00050E+06,   1.00050E+06
C:/temp/Job-33.odb,Step-1,Increment      1: Step Time =    1.000,"P-33-1",          1716,       60.3041,       81.8993,            0.,NA,NA,"",   917.873E+03,   865.400E+03,   865.400E+03
C:/temp/Job-33.odb,Step-1,Increment      1: Step Time =    1.000,"P-33-1",          1717,       139.614,       118.060,            0.,NA,NA,"",   1.04934E+06,   942.489E+03,   942.489E+03
C:/temp/Job-33.odb,Step-1,Increment      1: Step Time =    1.000,"P-33-1",          1718,       76.7162,       61.2982,            0.,NA,NA,"",   1.33847E+06,   1.31577E+06,   1.31577E+06
C:/temp/Job-33.odb,Step-1,Increment      1: Step Time =    1.000,"P-33-1",          1719,       123.047,       137.475,            0.,NA,NA,"",   1.37566E+06,   1.34099E+06,   1.34099E+06
C:/temp/Job-33.odb,Step-1,Increment      1: Step Time =    1.000,"P-33-1",          1720,       134.265,       171.222,            0.,NA,NA,"",   1.08664E+06,   1.07735E+06,   1.07735E+06
C:/temp/Job-33.odb,Step-1,Increment      1: Step Time =    1.000,"P-33-1",          1721,       170.332,       68.3089,            0.,NA,NA,"",   1.01551E+06,   1.01846E+06,   1.01846E+06
C:/temp/Job-33.odb,Step-1,Increment      1: Step Time =    1.000,"P-33-1",          1722,       44.5472,       175.620,            0.,NA,NA,"",   1.13657E+06,   1.13458E+06,   1.13458E+06
C:/temp/Job-33.odb,Step-1,Increment      1: Step Time =    1.000,"P-33-1",          1723,       52.6510,       84.7213,            0.,NA,NA,"",   774.009E+03,   779.617E+03,   779.617E+03
C:/temp/Job-33.odb,Step-1,Increment      1: Step Time =    1.000,"P-33-1",          1724,       147.233,       115.208,            0.,NA,NA,"",   915.384E+03,   868.249E+03,   868.249E+03
C:/temp/Job-33.odb,Step-1,Increment      1: Step Time =    1.000,"P-33-1",          1725,       15.7746,       62.5386,            0.,NA,NA,"",   844.567E+03,   925.457E+03,   925.457E+03
C:/temp/Job-33.odb,Step-1,Increment      1: Step Time =    1.000,"P-33-1",          1726,       16.5493,       148.635,            0.,NA,NA,"",   918.524E+03,   995.364E+03,   995.364E+03
C:/temp/Job-33.odb,Step-1,Increment      1: Step Time =    1.000,"P-33-1",          1727,       18.6856,       70.0705,            0.,NA,NA,"",   804.576E+03,   883.488E+03,   883.488E+03
C:/temp/Job-33.odb,Step-1,Increment      1: Step Time =    1.000,"P-33-1",          1728,       143.999,       20.6378,            0.,NA,NA,"",   1.04439E+06,   1.03593E+06,   1.03593E+06
C:/temp/Job-33.odb,Step-1,Increment      1: Step Time =    1.000,"P-33-1",          1729,       140.605,       21.3647,            0.,NA,NA,"",   1.04826E+06,   1.04009E+06,   1.04009E+06
C:/temp/Job-33.odb,Step-1,Increment      1: Step Time =    1.000,"P-33-1",          1730,       119.589,       140.473,            0.,NA,NA,"",   1.32543E+06,   1.32790E+06,   1.32790E+06
C:/temp/Job-33.odb,Step-1,Increment      1: Step Time =    1.000,"P-33-1",          1731,       47.4917,       33.3605,            0.,NA,NA,"",   1.14336E+06,   1.13830E+06,   1.13830E+06
C:/temp/Job-33.odb,Step-1,Increment      1: Step Time =    1.000,"P-33-1",          1732,       173.284,       40.8483,            0.,NA,NA,"",   1.04515E+06,   1.04083E+06,   1.04083E+06
C:/temp/Job-33.odb,Step-1,Increment      1: Step Time =    1.000,"P-33-1",          1733,       174.607,       36.5937,            0.,NA,NA,"",   1.03645E+06,   1.03383E+06,   1.03383E+06
C:/temp/Job-33.odb,Step-1,Increment      1: Step Time =    1.000,"P-33-1",          1734,       159.358,       172.928,            0.,NA,NA,"",   1.05834E+06,   1.04699E+06,   1.04699E+06
C:/temp/Job-33.odb,Step-1,Increment      1: Step Time =    1.000,"P-33-1",          1735,       163.523,       174.549,            0.,NA,NA,"",   1.04548E+06,   1.03727E+06,   1.03727E+06
C:/temp/Job-33.odb,Step-1,Increment      1: Step Time =    1.000,"P-33-1",          1736,       142.709,       121.309,            0.,NA,NA,"",   1.09207E+06,   998.630E+03,   998.630E+03
C:/temp/Job-33.odb,Step-1,Increment      1: Step Time =    1.000,"P-33-1",          1737,       57.2315,       78.6604,            0.,NA,NA,"",   956.362E+03,   917.681E+03,   917.681E+03
C:/temp/Job-33.odb,Step-1,Increment      1: Step Time =    1.000,"P-33-1",          1738,       16.7934,       159.126,            0.,NA,NA,"",   986.643E+03,   1.05841E+06,   1.05841E+06
C:/temp/Job-33.odb,Step-1,Increment      1: Step Time =    1.000,"P-33-1",          1739,       26.5967,       53.6112,            0.,NA,NA,"",   960.506E+03,   1.01298E+06,   1.01298E+06
C:/temp/Job-33.odb,Step-1,Increment      1: Step Time =    1.000,"P-33-1",          1740,       51.6407,       181.406,            0.,NA,NA,"",   1.11543E+06,   1.11090E+06,   1.11090E+06
C:/temp/Job-33.odb,Step-1,Increment      1: Step Time =    1.000,"P-33-1",          1741,       22.7448,       171.602,            0.,NA,NA,"",   1.10434E+06,   1.14602E+06,   1.14602E+06
C:/temp/Job-33.odb,Step-1,Increment      1: Step Time =    1.000,"P-33-1",          1742,       71.0783,       145.948,            0.,NA,NA,"",   1.26630E+06,   1.24146E+06,   1.24146E+06
C:/temp/Job-33.odb,Step-1,Increment      1: Step Time =    1.000,"P-33-1",          1743,       166.734,       30.2552,            0.,NA,NA,"",   1.04990E+06,   1.04136E+06,   1.04136E+06
C:/temp/Job-33.odb,Step-1,Increment      1: Step Time =    1.000,"P-33-1",          1744,       157.724,       30.3734,            0.,NA,NA,"",   1.07395E+06,   1.05891E+06,   1.05891E+06
C:/temp/Job-33.odb,Step-1,Increment      1: Step Time =    1.000,"P-33-1",          1745,       175.195,       74.9731,            0.,NA,NA,"",   967.529E+03,   992.864E+03,   992.864E+03
C:/temp/Job-33.odb,Step-1,Increment      1: Step Time =    1.000,"P-33-1",          1746,       178.341,       80.9242,            0.,NA,NA,"",   938.885E+03,   979.761E+03,   979.761E+03
C:/temp/Job-33.odb,Step-1,Increment      1: Step Time =    1.000,"P-33-1",          1747,       170.035,       168.821,            0.,NA,NA,"",   1.04263E+06,   1.03654E+06,   1.03654E+06
C:/temp/Job-33.odb,Step-1,Increment      1: Step Time =    1.000,"P-33-1",          1748,       18.4356,       126.411,            0.,NA,NA,"",   777.356E+03,   857.849E+03,   857.849E+03
C:/temp/Job-33.odb,Step-1,Increment      1: Step Time =    1.000,"P-33-1",          1749,       38.7830,       52.4582,            0.,NA,NA,"",   1.05185E+06,   1.06806E+06,   1.06806E+06
C:/temp/Job-33.odb,Step-1,Increment      1: Step Time =    1.000,"P-33-1",          1750,       125.554,       172.764,            0.,NA,NA,"",   1.06383E+06,   1.06632E+06,   1.06632E+06
C:/temp/Job-33.odb,Step-1,Increment      1: Step Time =    1.000,"P-33-1",          1751,       96.7874,       53.0982,            0.,NA,NA,"",   1.13884E+06,   1.22981E+06,   1.22981E+06
C:/temp/Job-33.odb,Step-1,Increment      1: Step Time =    1.000,"P-33-1",          1752,       38.6274,       97.7855,            0.,NA,NA,"",   631.176E+03,   699.633E+03,   699.633E+03
C:/temp/Job-33.odb,Step-1,Increment      1: Step Time =    1.000,"P-33-1",          1753,       160.906,       102.111,            0.,NA,NA,"",   791.097E+03,   821.854E+03,   821.854E+03
C:/temp/Job-33.odb,Step-1,Increment      1: Step Time =    1.000,"P-33-1",          1754,       148.271,       57.6884,            0.,NA,NA,"",   1.19876E+06,   1.13977E+06,   1.13977E+06
C:/temp/Job-33.odb,Step-1,Increment      1: Step Time =    1.000,"P-33-1",          1755,       107.826,       147.761,            0.,NA,NA,"",   1.14867E+06,   1.22619E+06,   1.22619E+06
C:/temp/Job-33.odb,Step-1,Increment      1: Step Time =    1.000,"P-33-1",          1756,       132.351,       145.740,            0.,NA,NA,"",   1.27782E+06,   1.22865E+06,   1.22865E+06
C:/temp/Job-33.odb,Step-1,Increment      1: Step Time =    1.000,"P-33-1",          1757,       66.4969,       52.9429,            0.,NA,NA,"",   1.24914E+06,   1.21716E+06,   1.21716E+06
C:/temp/Job-33.odb,Step-1,Increment      1: Step Time =    1.000,"P-33-1",          1758,       51.7744,       177.529,            0.,NA,NA,"",   1.12597E+06,   1.12037E+06,   1.12037E+06
C:/temp/Job-33.odb,Step-1,Increment      1: Step Time =    1.000,"P-33-1",          1759,       142.887,       23.4911,            0.,NA,NA,"",   1.05962E+06,   1.04928E+06,   1.04928E+06
C:/temp/Job-33.odb,Step-1,Increment      1: Step Time =    1.000,"P-33-1",          1760,       165.091,       100.621,            0.,NA,NA,"",   819.566E+03,   855.366E+03,   855.366E+03
C:/temp/Job-33.odb,Step-1,Increment      1: Step Time =    1.000,"P-33-1",          1761,       34.3130,       99.3383,            0.,NA,NA,"",   645.297E+03,   718.514E+03,   718.514E+03
C:/temp/Job-33.odb,Step-1,Increment      1: Step Time =    1.000,"P-33-1",          1762,       140.723,       26.6099,            0.,NA,NA,"",   1.07789E+06,   1.06544E+06,   1.06544E+06
C:/temp/Job-33.odb,Step-1,Increment      1: Step Time =    1.000,"P-33-1",          1763,       48.3136,       38.2537,            0.,NA,NA,"",   1.14531E+06,   1.13846E+06,   1.13846E+06
C:/temp/Job-33.odb,Step-1,Increment      1: Step Time =    1.000,"P-33-1",          1764,       146.429,       123.317,            0.,NA,NA,"",   1.09721E+06,   1.02059E+06,   1.02059E+06
C:/temp/Job-33.odb,Step-1,Increment      1: Step Time =    1.000,"P-33-1",          1765,       53.5690,       76.6681,            0.,NA,NA,"",   958.163E+03,   936.381E+03,   936.381E+03
C:/temp/Job-33.odb,Step-1,Increment      1: Step Time =    1.000,"P-33-1",          1766,       41.9313,       81.9079,            0.,NA,NA,"",   777.267E+03,   818.102E+03,   818.102E+03
C:/temp/Job-33.odb,Step-1,Increment      1: Step Time =    1.000,"P-33-1",          1767,       157.795,       117.911,            0.,NA,NA,"",   938.951E+03,   927.562E+03,   927.562E+03
C:/temp/Job-33.odb,Step-1,Increment      1: Step Time =    1.000,"P-33-1",          1768,       170.566,       35.4059,            0.,NA,NA,"",   1.04720E+06,   1.04071E+06,   1.04071E+06
C:/temp/Job-33.odb,Step-1,Increment      1: Step Time =    1.000,"P-33-1",          1769,       165.133,       170.651,            0.,NA,NA,"",   1.05075E+06,   1.04183E+06,   1.04183E+06
C:/temp/Job-33.odb,Step-1,Increment      1: Step Time =    1.000,"P-33-1",          1770,       43.9740,       38.5865,            0.,NA,NA,"",   1.13037E+06,   1.13062E+06,   1.13062E+06
C:/temp/Job-33.odb,Step-1,Increment      1: Step Time =    1.000,"P-33-1",          1771,       154.259,       35.5059,            0.,NA,NA,"",   1.09937E+06,   1.07831E+06,   1.07831E+06
C:/temp/Job-33.odb,Step-1,Increment      1: Step Time =    1.000,"P-33-1",          1772,       24.5243,       168.238,            0.,NA,NA,"",   1.08595E+06,   1.12694E+06,   1.12694E+06
C:/temp/Job-33.odb,Step-1,Increment      1: Step Time =    1.000,"P-33-1",          1773,       22.3040,       118.788,            0.,NA,NA,"",   740.057E+03,   819.135E+03,   819.135E+03
C:/temp/Job-33.odb,Step-1,Increment      1: Step Time =    1.000,"P-33-1",          1774,       22.2417,       126.171,            0.,NA,NA,"",   786.856E+03,   862.068E+03,   862.068E+03
C:/temp/Job-33.odb,Step-1,Increment      1: Step Time =    1.000,"P-33-1",          1775,       23.0036,       129.254,            0.,NA,NA,"",   816.064E+03,   887.403E+03,   887.403E+03
C:/temp/Job-33.odb,Step-1,Increment      1: Step Time =    1.000,"P-33-1",          1776,       25.2482,       132.299,            0.,NA,NA,"",   850.432E+03,   915.296E+03,   915.296E+03
C:/temp/Job-33.odb,Step-1,Increment      1: Step Time =    1.000,"P-33-1",          1777,       53.6513,       41.9816,            0.,NA,NA,"",   1.16729E+06,   1.15176E+06,   1.15176E+06
C:/temp/Job-33.odb,Step-1,Increment      1: Step Time =    1.000,"P-33-1",          1778,       117.927,       42.5740,            0.,NA,NA,"",   1.13407E+06,   1.15756E+06,   1.15756E+06
C:/temp/Job-33.odb,Step-1,Increment      1: Step Time =    1.000,"P-33-1",          1779,       67.3063,       150.759,            0.,NA,NA,"",   1.23003E+06,   1.20737E+06,   1.20737E+06
C:/temp/Job-33.odb,Step-1,Increment      1: Step Time =    1.000,"P-33-1",          1780,       62.8122,       151.934,            0.,NA,NA,"",   1.21207E+06,   1.18766E+06,   1.18766E+06
C:/temp/Job-33.odb,Step-1,Increment      1: Step Time =    1.000,"P-33-1",          1781,       82.6467,       158.381,            0.,NA,NA,"",   1.14312E+06,   1.16806E+06,   1.16806E+06
C:/temp/Job-33.odb,Step-1,Increment      1: Step Time =    1.000,"P-33-1",          1782,       125.782,       166.597,            0.,NA,NA,"",   1.10017E+06,   1.10209E+06,   1.10209E+06
C:/temp/Job-33.odb,Step-1,Increment      1: Step Time =    1.000,"P-33-1",          1783,       129.084,       164.040,            0.,NA,NA,"",   1.12624E+06,   1.12004E+06,   1.12004E+06
C:/temp/Job-33.odb,Step-1,Increment      1: Step Time =    1.000,"P-33-1",          1784,       117.872,       171.331,            0.,NA,NA,"",   1.05173E+06,   1.06684E+06,   1.06684E+06
C:/temp/Job-33.odb,Step-1,Increment      1: Step Time =    1.000,"P-33-1",          1785,       75.4610,       28.1938,            0.,NA,NA,"",   1.09922E+06,   1.10374E+06,   1.10374E+06
C:/temp/Job-33.odb,Step-1,Increment      1: Step Time =    1.000,"P-33-1",          1786,       28.0740,       135.195,            0.,NA,NA,"",   886.524E+03,   943.567E+03,   943.567E+03
C:/temp/Job-33.odb,Step-1,Increment      1: Step Time =    1.000,"P-33-1",          1787,       144.670,       48.9637,            0.,NA,NA,"",   1.19464E+06,   1.14892E+06,   1.14892E+06
C:/temp/Job-33.odb,Step-1,Increment      1: Step Time =    1.000,"P-33-1",          1788,       49.1051,       165.378,            0.,NA,NA,"",   1.14846E+06,   1.14123E+06,   1.14123E+06
C:/temp/Job-33.odb,Step-1,Increment      1: Step Time =    1.000,"P-33-1",          1789,       51.7257,       68.7670,            0.,NA,NA,"",   1.04215E+06,   1.02316E+06,   1.02316E+06
C:/temp/Job-33.odb,Step-1,Increment      1: Step Time =    1.000,"P-33-1",          1790,       148.288,       131.430,            0.,NA,NA,"",   1.16514E+06,   1.09458E+06,   1.09458E+06
C:/temp/Job-33.odb,Step-1,Increment      1: Step Time =    1.000,"P-33-1",          1791,       35.7049,       25.8888,            0.,NA,NA,"",   1.13464E+06,   1.14490E+06,   1.14490E+06
C:/temp/Job-33.odb,Step-1,Increment      1: Step Time =    1.000,"P-33-1",          1792,       77.7472,       155.164,            0.,NA,NA,"",   1.18900E+06,   1.19740E+06,   1.19740E+06
C:/temp/Job-33.odb,Step-1,Increment      1: Step Time =    1.000,"P-33-1",          1793,       123.343,       45.7343,            0.,NA,NA,"",   1.18848E+06,   1.18922E+06,   1.18922E+06
C:/temp/Job-33.odb,Step-1,Increment      1: Step Time =    1.000,"P-33-1",          1794,       166.532,       38.2611,            0.,NA,NA,"",   1.06643E+06,   1.05445E+06,   1.05445E+06
C:/temp/Job-33.odb,Step-1,Increment      1: Step Time =    1.000,"P-33-1",          1795,       79.5158,       51.1617,            0.,NA,NA,"",   1.23420E+06,   1.24581E+06,   1.24581E+06
C:/temp/Job-33.odb,Step-1,Increment      1: Step Time =    1.000,"P-33-1",          1796,       31.0765,       160.932,            0.,NA,NA,"",   1.07300E+06,   1.10328E+06,   1.10328E+06
C:/temp/Job-33.odb,Step-1,Increment      1: Step Time =    1.000,"P-33-1",          1797,       113.692,       171.270,            0.,NA,NA,"",   1.04232E+06,   1.06322E+06,   1.06322E+06
C:/temp/Job-33.odb,Step-1,Increment      1: Step Time =    1.000,"P-33-1",          1798,       139.344,       29.8546,            0.,NA,NA,"",   1.09337E+06,   1.07908E+06,   1.07908E+06
C:/temp/Job-33.odb,Step-1,Increment      1: Step Time =    1.000,"P-33-1",          1799,       78.1566,       52.8235,            0.,NA,NA,"",   1.25288E+06,   1.25684E+06,   1.25684E+06
C:/temp/Job-33.odb,Step-1,Increment      1: Step Time =    1.000,"P-33-1",          1800,       38.0949,       117.650,            0.,NA,NA,"",   761.393E+03,   813.677E+03,   813.677E+03
C:/temp/Job-33.odb,Step-1,Increment      1: Step Time =    1.000,"P-33-1",          1801,       136.757,       153.803,            0.,NA,NA,"",   1.20464E+06,   1.16897E+06,   1.16897E+06
C:/temp/Job-33.odb,Step-1,Increment      1: Step Time =    1.000,"P-33-1",          1802,       61.4519,       45.9576,            0.,NA,NA,"",   1.20225E+06,   1.17928E+06,   1.17928E+06
C:/temp/Job-33.odb,Step-1,Increment      1: Step Time =    1.000,"P-33-1",          1803,       23.9060,       164.548,            0.,NA,NA,"",   1.06018E+06,   1.10637E+06,   1.10637E+06
C:/temp/Job-33.odb,Step-1,Increment      1: Step Time =    1.000,"P-33-1",          1804,       27.8215,       102.651,            0.,NA,NA,"",   664.512E+03,   743.565E+03,   743.565E+03
C:/temp/Job-33.odb,Step-1,Increment      1: Step Time =    1.000,"P-33-1",          1805,       28.2795,       105.933,            0.,NA,NA,"",   672.123E+03,   750.117E+03,   750.117E+03
C:/temp/Job-33.odb,Step-1,Increment      1: Step Time =    1.000,"P-33-1",          1806,       146.554,       33.1980,            0.,NA,NA,"",   1.10746E+06,   1.08659E+06,   1.08659E+06
C:/temp/Job-33.odb,Step-1,Increment      1: Step Time =    1.000,"P-33-1",          1807,       171.595,       107.476,            0.,NA,NA,"",   874.124E+03,   915.189E+03,   915.189E+03
C:/temp/Job-33.odb,Step-1,Increment      1: Step Time =    1.000,"P-33-1",          1808,       170.836,       103.875,            0.,NA,NA,"",   859.996E+03,   902.351E+03,   902.351E+03
C:/temp/Job-33.odb,Step-1,Increment      1: Step Time =    1.000,"P-33-1",          1809,       127.820,       152.393,            0.,NA,NA,"",   1.21727E+06,   1.20084E+06,   1.20084E+06
C:/temp/Job-33.odb,Step-1,Increment      1: Step Time =    1.000,"P-33-1",          1810,       174.099,       82.2282,            0.,NA,NA,"",   931.933E+03,   964.878E+03,   964.878E+03
C:/temp/Job-33.odb,Step-1,Increment      1: Step Time =    1.000,"P-33-1",          1811,       171.002,       81.3429,            0.,NA,NA,"",   935.275E+03,   959.620E+03,   959.620E+03
C:/temp/Job-33.odb,Step-1,Increment      1: Step Time =    1.000,"P-33-1",          1812,       168.090,       154.758,            0.,NA,NA,"",   1.06905E+06,   1.05729E+06,   1.05729E+06
C:/temp/Job-33.odb,Step-1,Increment      1: Step Time =    1.000,"P-33-1",          1813,       171.736,       85.2969,            0.,NA,NA,"",   912.699E+03,   944.583E+03,   944.583E+03
C:/temp/Job-33.odb,Step-1,Increment      1: Step Time =    1.000,"P-33-1",          1814,       78.2759,       48.4422,            0.,NA,NA,"",   1.21459E+06,   1.22384E+06,   1.22384E+06
C:/temp/Job-33.odb,Step-1,Increment      1: Step Time =    1.000,"P-33-1",          1815,       32.0056,       132.887,            0.,NA,NA,"",   886.967E+03,   936.224E+03,   936.224E+03
C:/temp/Job-33.odb,Step-1,Increment      1: Step Time =    1.000,"P-33-1",          1816,       57.6873,       165.830,            0.,NA,NA,"",   1.15780E+06,   1.14577E+06,   1.14577E+06
C:/temp/Job-33.odb,Step-1,Increment      1: Step Time =    1.000,"P-33-1",          1817,       126.782,       41.0165,            0.,NA,NA,"",   1.15993E+06,   1.15343E+06,   1.15343E+06
C:/temp/Job-33.odb,Step-1,Increment      1: Step Time =    1.000,"P-33-1",          1818,       28.7095,       149.987,            0.,NA,NA,"",   1.00055E+06,   1.04363E+06,   1.04363E+06
C:/temp/Job-33.odb,Step-1,Increment      1: Step Time =    1.000,"P-33-1",          1819,       30.0459,       154.446,            0.,NA,NA,"",   1.03544E+06,   1.07220E+06,   1.07220E+06
C:/temp/Job-33.odb,Step-1,Increment      1: Step Time =    1.000,"P-33-1",          1820,       152.238,       128.166,            0.,NA,NA,"",   1.10186E+06,   1.04798E+06,   1.04798E+06
C:/temp/Job-33.odb,Step-1,Increment      1: Step Time =    1.000,"P-33-1",          1821,       151.766,       56.2220,            0.,NA,NA,"",   1.17154E+06,   1.12099E+06,   1.12099E+06
C:/temp/Job-33.odb,Step-1,Increment      1: Step Time =    1.000,"P-33-1",          1822,       99.3448,       45.4130,            0.,NA,NA,"",   1.08770E+06,   1.15729E+06,   1.15729E+06
C:/temp/Job-33.odb,Step-1,Increment      1: Step Time =    1.000,"P-33-1",          1823,       108.522,       157.755,            0.,NA,NA,"",   1.08818E+06,   1.14000E+06,   1.14000E+06
C:/temp/Job-33.odb,Step-1,Increment      1: Step Time =    1.000,"P-33-1",          1824,       119.990,       156.823,            0.,NA,NA,"",   1.14759E+06,   1.16496E+06,   1.16496E+06
C:/temp/Job-33.odb,Step-1,Increment      1: Step Time =    1.000,"P-33-1",          1825,       75.9129,       164.254,            0.,NA,NA,"",   1.14001E+06,   1.14518E+06,   1.14518E+06
C:/temp/Job-33.odb,Step-1,Increment      1: Step Time =    1.000,"P-33-1",          1826,       93.0048,       44.4020,            0.,NA,NA,"",   1.10247E+06,   1.16153E+06,   1.16153E+06
C:/temp/Job-33.odb,Step-1,Increment      1: Step Time =    1.000,"P-33-1",          1827,       43.8628,       72.2578,            0.,NA,NA,"",   926.141E+03,   941.972E+03,   941.972E+03
C:/temp/Job-33.odb,Step-1,Increment      1: Step Time =    1.000,"P-33-1",          1828,       41.1475,       136.181,            0.,NA,NA,"",   985.616E+03,   1.00332E+06,   1.00332E+06
C:/temp/Job-33.odb,Step-1,Increment      1: Step Time =    1.000,"P-33-1",          1829,       28.8660,       158.207,            0.,NA,NA,"",   1.04868E+06,   1.08664E+06,   1.08664E+06
C:/temp/Job-33.odb,Step-1,Increment      1: Step Time =    1.000,"P-33-1",          1830,       118.072,       26.8849,            0.,NA,NA,"",   1.04430E+06,   1.05613E+06,   1.05613E+06
C:/temp/Job-33.odb,Step-1,Increment      1: Step Time =    1.000,"P-33-1",          1831,       114.857,       27.1481,            0.,NA,NA,"",   1.03940E+06,   1.05555E+06,   1.05555E+06
C:/temp/Job-33.odb,Step-1,Increment      1: Step Time =    1.000,"P-33-1",          1832,       146.230,       41.3067,            0.,NA,NA,"",   1.15185E+06,   1.11986E+06,   1.11986E+06
C:/temp/Job-33.odb,Step-1,Increment      1: Step Time =    1.000,"P-33-1",          1833,       36.9102,       123.008,            0.,NA,NA,"",   815.499E+03,   862.034E+03,   862.034E+03
C:/temp/Job-33.odb,Step-1,Increment      1: Step Time =    1.000,"P-33-1",          1834,       125.496,       155.410,            0.,NA,NA,"",   1.18316E+06,   1.17982E+06,   1.17982E+06
C:/temp/Job-33.odb,Step-1,Increment      1: Step Time =    1.000,"P-33-1",          1835,       165.429,       125.863,            0.,NA,NA,"",   1.00230E+06,   998.304E+03,   998.304E+03
C:/temp/Job-33.odb,Step-1,Increment      1: Step Time =    1.000,"P-33-1",          1836,       117.194,       34.8351,            0.,NA,NA,"",   1.08139E+06,   1.10258E+06,   1.10258E+06
C:/temp/Job-33.odb,Step-1,Increment      1: Step Time =    1.000,"P-33-1",          1837,       153.227,       147.029,            0.,NA,NA,"",   1.15846E+06,   1.11618E+06,   1.11618E+06
C:/temp/Job-33.odb,Step-1,Increment      1: Step Time =    1.000,"P-33-1",          1838,       36.6064,       154.423,            0.,NA,NA,"",   1.07163E+06,   1.09075E+06,   1.09075E+06
C:/temp/Job-33.odb,Step-1,Increment      1: Step Time =    1.000,"P-33-1",          1839,       37.4328,       134.653,            0.,NA,NA,"",   944.465E+03,   974.325E+03,   974.325E+03
C:/temp/Job-33.odb,Step-1,Increment      1: Step Time =    1.000,"P-33-1",          1840,       71.7175,       165.061,            0.,NA,NA,"",   1.14845E+06,   1.14675E+06,   1.14675E+06
C:/temp/Job-33.odb,Step-1,Increment      1: Step Time =    1.000,"P-33-1",          1841,       71.2424,       160.810,            0.,NA,NA,"",   1.17278E+06,   1.16771E+06,   1.16771E+06
C:/temp/Job-33.odb,Step-1,Increment      1: Step Time =    1.000,"P-33-1",          1842,       92.8178,       40.1337,            0.,NA,NA,"",   1.08464E+06,   1.13328E+06,   1.13328E+06
C:/temp/Job-33.odb,Step-1,Increment      1: Step Time =    1.000,"P-33-1",          1843,       97.4263,       39.8334,            0.,NA,NA,"",   1.07076E+06,   1.12447E+06,   1.12447E+06
C:/temp/Job-33.odb,Step-1,Increment      1: Step Time =    1.000,"P-33-1",          1844,       86.5216,       37.8504,            0.,NA,NA,"",   1.10114E+06,   1.13443E+06,   1.13443E+06
C:/temp/Job-33.odb,Step-1,Increment      1: Step Time =    1.000,"P-33-1",          1845,       116.788,       162.994,            0.,NA,NA,"",   1.09312E+06,   1.11731E+06,   1.11731E+06
C:/temp/Job-33.odb,Step-1,Increment      1: Step Time =    1.000,"P-33-1",          1846,       104.681,       167.240,            0.,NA,NA,"",   1.04226E+06,   1.07994E+06,   1.07994E+06
C:/temp/Job-33.odb,Step-1,Increment      1: Step Time =    1.000,"P-33-1",          1847,       158.560,       140.847,            0.,NA,NA,"",   1.12023E+06,   1.08447E+06,   1.08447E+06
C:/temp/Job-33.odb,Step-1,Increment      1: Step Time =    1.000,"P-33-1",          1848,       130.037,       40.0958,            0.,NA,NA,"",   1.15768E+06,   1.14393E+06,   1.14393E+06
C:/temp/Job-33.odb,Step-1,Increment      1: Step Time =    1.000,"P-33-1",          1849,       133.075,       38.5642,            0.,NA,NA,"",   1.15178E+06,   1.13465E+06,   1.13465E+06
C:/temp/Job-33.odb,Step-1,Increment      1: Step Time =    1.000,"P-33-1",          1850,       165.317,       133.816,            0.,NA,NA,"",   1.05155E+06,   1.03799E+06,   1.03799E+06
C:/temp/Job-33.odb,Step-1,Increment      1: Step Time =    1.000,"P-33-1",          1851,       88.0473,       39.3084,            0.,NA,NA,"",   1.10086E+06,   1.13905E+06,   1.13905E+06
C:/temp/Job-33.odb,Step-1,Increment      1: Step Time =    1.000,"P-33-1",          1852,       87.3070,       35.8157,            0.,NA,NA,"",   1.09179E+06,   1.12454E+06,   1.12454E+06
