ODB Name,Step,Frame,Part Instance Name,    Node Label,X,Y,Z,Section Name,Material Name,Section Point,       S-Mises,S-Max. In-Plane Principal (Abs),S-Max. Principal (Abs)
C:/temp/Job-34.odb,Step-1,Increment      1: Step Time =    1.000,"P-34-1",             1,       95.5005,       105.362,            0.,NA,NA,"",   1.29579E+06,   1.28732E+06,   1.28732E+06
C:/temp/Job-34.odb,Step-1,Increment      1: Step Time =    1.000,"P-34-1",             2,       93.1063,       101.216,            0.,NA,NA,"",   675.387E+03,   565.485E+03,   565.485E+03
C:/temp/Job-34.odb,Step-1,Increment      1: Step Time =    1.000,"P-34-1",             3,       93.9378,          96.5,            0.,NA,NA,"",   951.583E+03,   878.757E+03,   878.757E+03
C:/temp/Job-34.odb,Step-1,Increment      1: Step Time =    1.000,"P-34-1",             4,       97.6059,       93.4221,            0.,NA,NA,"",   1.58909E+06,   1.67129E+06,   1.67129E+06
C:/temp/Job-34.odb,Step-1,Increment      1: Step Time =    1.000,"P-34-1",             5,       102.394,       93.4221,            0.,NA,NA,"",   1.50959E+06,   1.57656E+06,   1.57656E+06
C:/temp/Job-34.odb,Step-1,Increment      1: Step Time =    1.000,"P-34-1",             6,       106.062,          96.5,            0.,NA,NA,"",   910.204E+03,   786.060E+03,   786.060E+03
C:/temp/Job-34.odb,Step-1,Increment      1: Step Time =    1.000,"P-34-1",             7,       106.894,       101.216,            0.,NA,NA,"",   632.694E+03,   479.473E+03,   479.473E+03
C:/temp/Job-34.odb,Step-1,Increment      1: Step Time =    1.000,"P-34-1",             8,       104.500,       105.362,            0.,NA,NA,"",   1.24726E+06,   1.21521E+06,   1.21521E+06
C:/temp/Job-34.odb,Step-1,Increment      1: Step Time =    1.000,"P-34-1",             9,          100.,          107.,            0.,NA,NA,"",   1.56899E+06,   1.67406E+06,   1.67406E+06
C:/temp/Job-34.odb,Step-1,Increment      1: Step Time =    1.000,"P-34-1",            10,          190.,            0.,            0.,NA,NA,"",   999.837E+03,   999.799E+03,   999.799E+03
C:/temp/Job-34.odb,Step-1,Increment      1: Step Time =    1.000,"P-34-1",            11,          180.,            0.,            0.,NA,NA,"",   998.736E+03,   998.690E+03,   998.690E+03
C:/temp/Job-34.odb,Step-1,Increment      1: Step Time =    1.000,"P-34-1",            12,          170.,            0.,            0.,NA,NA,"",   996.382E+03,   996.320E+03,   996.320E+03
C:/temp/Job-34.odb,Step-1,Increment      1: Step Time =    1.000,"P-34-1",            13,          160.,            0.,            0.,NA,NA,"",   992.581E+03,   992.540E+03,   992.540E+03
C:/temp/Job-34.odb,Step-1,Increment      1: Step Time =    1.000,"P-34-1",            14,          150.,            0.,            0.,NA,NA,"",   987.097E+03,   987.063E+03,   987.063E+03
C:/temp/Job-34.odb,Step-1,Increment      1: Step Time =    1.000,"P-34-1",            15,          140.,            0.,            0.,NA,NA,"",   979.890E+03,   979.845E+03,   979.845E+03
C:/temp/Job-34.odb,Step-1,Increment      1: Step Time =    1.000,"P-34-1",            16,          130.,            0.,            0.,NA,NA,"",   971.404E+03,   971.385E+03,   971.385E+03
C:/temp/Job-34.odb,Step-1,Increment      1: Step Time =    1.000,"P-34-1",            17,          120.,            0.,            0.,NA,NA,"",   962.326E+03,   962.339E+03,   962.339E+03
C:/temp/Job-34.odb,Step-1,Increment      1: Step Time =    1.000,"P-34-1",            18,          110.,            0.,            0.,NA,NA,"",   953.697E+03,   953.735E+03,   953.735E+03
C:/temp/Job-34.odb,Step-1,Increment      1: Step Time =    1.000,"P-34-1",            19,          100.,            0.,            0.,NA,NA,"",   946.491E+03,   946.549E+03,   946.549E+03
C:/temp/Job-34.odb,Step-1,Increment      1: Step Time =    1.000,"P-34-1",            20,           90.,            0.,            0.,NA,NA,"",   941.307E+03,   941.374E+03,   941.374E+03
C:/temp/Job-34.odb,Step-1,Increment      1: Step Time =    1.000,"P-34-1",            21,           80.,            0.,            0.,NA,NA,"",   938.409E+03,   938.460E+03,   938.460E+03
C:/temp/Job-34.odb,Step-1,Increment      1: Step Time =    1.000,"P-34-1",            22,           70.,            0.,            0.,NA,NA,"",   938.058E+03,   938.146E+03,   938.146E+03
C:/temp/Job-34.odb,Step-1,Increment      1: Step Time =    1.000,"P-34-1",            23,           60.,            0.,            0.,NA,NA,"",   941.818E+03,   941.926E+03,   941.926E+03
C:/temp/Job-34.odb,Step-1,Increment      1: Step Time =    1.000,"P-34-1",            24,           50.,            0.,            0.,NA,NA,"",   946.743E+03,   946.553E+03,   946.553E+03
C:/temp/Job-34.odb,Step-1,Increment      1: Step Time =    1.000,"P-34-1",            25,           40.,            0.,            0.,NA,NA,"",   955.053E+03,   954.954E+03,   954.954E+03
C:/temp/Job-34.odb,Step-1,Increment      1: Step Time =    1.000,"P-34-1",            26,           30.,            0.,            0.,NA,NA,"",   977.842E+03,   978.408E+03,   978.408E+03
C:/temp/Job-34.odb,Step-1,Increment      1: Step Time =    1.000,"P-34-1",            27,           20.,            0.,            0.,NA,NA,"",   1.03585E+06,   1.03688E+06,   1.03688E+06
C:/temp/Job-34.odb,Step-1,Increment      1: Step Time =    1.000,"P-34-1",            28,           10.,            0.,            0.,NA,NA,"",   1.18179E+06,   1.18420E+06,   1.18420E+06
C:/temp/Job-34.odb,Step-1,Increment      1: Step Time =    1.000,"P-34-1",            29,          200.,            0.,            0.,NA,NA,"",   999.999E+03,   999.998E+03,   999.998E+03
C:/temp/Job-34.odb,Step-1,Increment      1: Step Time =    1.000,"P-34-1",            30,            0.,            0.,            0.,NA,NA,"",   1.52465E+06,   1.59781E+06,   1.59781E+06
C:/temp/Job-34.odb,Step-1,Increment      1: Step Time =    1.000,"P-34-1",            31,          200.,          190.,            0.,NA,NA,"",   1.00002E+06,   999.933E+03,   999.933E+03
C:/temp/Job-34.odb,Step-1,Increment      1: Step Time =    1.000,"P-34-1",            32,          200.,          180.,            0.,NA,NA,"",   1.00050E+06,   999.965E+03,   999.965E+03
C:/temp/Job-34.odb,Step-1,Increment      1: Step Time =    1.000,"P-34-1",            33,          200.,          170.,            0.,NA,NA,"",   1.00127E+06,   1.00003E+06,   1.00003E+06
C:/temp/Job-34.odb,Step-1,Increment      1: Step Time =    1.000,"P-34-1",            34,          200.,          160.,            0.,NA,NA,"",   1.00189E+06,   1.00009E+06,   1.00009E+06
C:/temp/Job-34.odb,Step-1,Increment      1: Step Time =    1.000,"P-34-1",            35,          200.,          150.,            0.,NA,NA,"",   1.00196E+06,   1.00009E+06,   1.00009E+06
C:/temp/Job-34.odb,Step-1,Increment      1: Step Time =    1.000,"P-34-1",            36,          200.,          140.,            0.,NA,NA,"",   1.00126E+06,   1.00006E+06,   1.00006E+06
C:/temp/Job-34.odb,Step-1,Increment      1: Step Time =    1.000,"P-34-1",            37,          200.,          130.,            0.,NA,NA,"",   999.940E+03,   1.00002E+06,   1.00002E+06
C:/temp/Job-34.odb,Step-1,Increment      1: Step Time =    1.000,"P-34-1",            38,          200.,          120.,            0.,NA,NA,"",   998.399E+03,   999.984E+03,   999.984E+03
C:/temp/Job-34.odb,Step-1,Increment      1: Step Time =    1.000,"P-34-1",            39,          200.,          110.,            0.,NA,NA,"",   997.135E+03,   999.920E+03,   999.920E+03
C:/temp/Job-34.odb,Step-1,Increment      1: Step Time =    1.000,"P-34-1",            40,          200.,          100.,            0.,NA,NA,"",   996.617E+03,   999.861E+03,   999.861E+03
C:/temp/Job-34.odb,Step-1,Increment      1: Step Time =    1.000,"P-34-1",            41,          200.,           90.,            0.,NA,NA,"",   997.161E+03,   999.868E+03,   999.868E+03
C:/temp/Job-34.odb,Step-1,Increment      1: Step Time =    1.000,"P-34-1",            42,          200.,           80.,            0.,NA,NA,"",   998.527E+03,   999.948E+03,   999.948E+03
C:/temp/Job-34.odb,Step-1,Increment      1: Step Time =    1.000,"P-34-1",            43,          200.,           70.,            0.,NA,NA,"",   1.00020E+06,   1.00004E+06,   1.00004E+06
C:/temp/Job-34.odb,Step-1,Increment      1: Step Time =    1.000,"P-34-1",            44,          200.,           60.,            0.,NA,NA,"",   1.00155E+06,   1.00009E+06,   1.00009E+06
C:/temp/Job-34.odb,Step-1,Increment      1: Step Time =    1.000,"P-34-1",            45,          200.,           50.,            0.,NA,NA,"",   1.00221E+06,   1.00013E+06,   1.00013E+06
C:/temp/Job-34.odb,Step-1,Increment      1: Step Time =    1.000,"P-34-1",            46,          200.,           40.,            0.,NA,NA,"",   1.00205E+06,   1.00006E+06,   1.00006E+06
C:/temp/Job-34.odb,Step-1,Increment      1: Step Time =    1.000,"P-34-1",            47,          200.,           30.,            0.,NA,NA,"",   1.00135E+06,   1.00002E+06,   1.00002E+06
C:/temp/Job-34.odb,Step-1,Increment      1: Step Time =    1.000,"P-34-1",            48,          200.,           20.,            0.,NA,NA,"",   1.00053E+06,   999.966E+03,   999.966E+03
C:/temp/Job-34.odb,Step-1,Increment      1: Step Time =    1.000,"P-34-1",            49,          200.,           10.,            0.,NA,NA,"",   1.00003E+06,   999.937E+03,   999.937E+03
C:/temp/Job-34.odb,Step-1,Increment      1: Step Time =    1.000,"P-34-1",            50,          200.,          200.,            0.,NA,NA,"",   999.999E+03,   999.998E+03,   999.998E+03
C:/temp/Job-34.odb,Step-1,Increment      1: Step Time =    1.000,"P-34-1",            51,           10.,          200.,            0.,NA,NA,"",   1.18219E+06,   1.18471E+06,   1.18471E+06
C:/temp/Job-34.odb,Step-1,Increment      1: Step Time =    1.000,"P-34-1",            52,           20.,          200.,            0.,NA,NA,"",   1.03837E+06,   1.03932E+06,   1.03932E+06
C:/temp/Job-34.odb,Step-1,Increment      1: Step Time =    1.000,"P-34-1",            53,           30.,          200.,            0.,NA,NA,"",   981.674E+03,   982.212E+03,   982.212E+03
C:/temp/Job-34.odb,Step-1,Increment      1: Step Time =    1.000,"P-34-1",            54,           40.,          200.,            0.,NA,NA,"",   955.892E+03,   956.139E+03,   956.139E+03
C:/temp/Job-34.odb,Step-1,Increment      1: Step Time =    1.000,"P-34-1",            55,           50.,          200.,            0.,NA,NA,"",   943.552E+03,   943.694E+03,   943.694E+03
C:/temp/Job-34.odb,Step-1,Increment      1: Step Time =    1.000,"P-34-1",            56,           60.,          200.,            0.,NA,NA,"",   938.305E+03,   938.355E+03,   938.355E+03
C:/temp/Job-34.odb,Step-1,Increment      1: Step Time =    1.000,"P-34-1",            57,           70.,          200.,            0.,NA,NA,"",   937.092E+03,   937.115E+03,   937.115E+03
C:/temp/Job-34.odb,Step-1,Increment      1: Step Time =    1.000,"P-34-1",            58,           80.,          200.,            0.,NA,NA,"",   938.138E+03,   938.210E+03,   938.210E+03
C:/temp/Job-34.odb,Step-1,Increment      1: Step Time =    1.000,"P-34-1",            59,           90.,          200.,            0.,NA,NA,"",   941.301E+03,   941.381E+03,   941.381E+03
C:/temp/Job-34.odb,Step-1,Increment      1: Step Time =    1.000,"P-34-1",            60,          100.,          200.,            0.,NA,NA,"",   946.610E+03,   946.650E+03,   946.650E+03
C:/temp/Job-34.odb,Step-1,Increment      1: Step Time =    1.000,"P-34-1",            61,          110.,          200.,            0.,NA,NA,"",   953.851E+03,   953.879E+03,   953.879E+03
C:/temp/Job-34.odb,Step-1,Increment      1: Step Time =    1.000,"P-34-1",            62,          120.,          200.,            0.,NA,NA,"",   962.581E+03,   962.584E+03,   962.584E+03
C:/temp/Job-34.odb,Step-1,Increment      1: Step Time =    1.000,"P-34-1",            63,          130.,          200.,            0.,NA,NA,"",   971.858E+03,   971.850E+03,   971.850E+03
C:/temp/Job-34.odb,Step-1,Increment      1: Step Time =    1.000,"P-34-1",            64,          140.,          200.,            0.,NA,NA,"",   980.709E+03,   980.699E+03,   980.699E+03
C:/temp/Job-34.odb,Step-1,Increment      1: Step Time =    1.000,"P-34-1",            65,          150.,          200.,            0.,NA,NA,"",   987.817E+03,   987.674E+03,   987.674E+03
C:/temp/Job-34.odb,Step-1,Increment      1: Step Time =    1.000,"P-34-1",            66,          160.,          200.,            0.,NA,NA,"",   993.103E+03,   993.047E+03,   993.047E+03
C:/temp/Job-34.odb,Step-1,Increment      1: Step Time =    1.000,"P-34-1",            67,          170.,          200.,            0.,NA,NA,"",   996.731E+03,   996.698E+03,   996.698E+03
C:/temp/Job-34.odb,Step-1,Increment      1: Step Time =    1.000,"P-34-1",            68,          180.,          200.,            0.,NA,NA,"",   998.904E+03,   998.874E+03,   998.874E+03
C:/temp/Job-34.odb,Step-1,Increment      1: Step Time =    1.000,"P-34-1",            69,          190.,          200.,            0.,NA,NA,"",   999.870E+03,   999.838E+03,   999.838E+03
C:/temp/Job-34.odb,Step-1,Increment      1: Step Time =    1.000,"P-34-1",            70,            0.,          200.,            0.,NA,NA,"",   1.52456E+06,   1.59780E+06,   1.59780E+06
C:/temp/Job-34.odb,Step-1,Increment      1: Step Time =    1.000,"P-34-1",            71,            0.,           10.,            0.,NA,NA,"",   1.10687E+06,   1.20277E+06,   1.20277E+06
C:/temp/Job-34.odb,Step-1,Increment      1: Step Time =    1.000,"P-34-1",            72,            0.,           20.,            0.,NA,NA,"",   972.338E+03,   1.07212E+06,   1.07212E+06
C:/temp/Job-34.odb,Step-1,Increment      1: Step Time =    1.000,"P-34-1",            73,            0.,           30.,            0.,NA,NA,"",   912.121E+03,   1.01397E+06,   1.01397E+06
C:/temp/Job-34.odb,Step-1,Increment      1: Step Time =    1.000,"P-34-1",            74,            0.,           40.,            0.,NA,NA,"",   878.610E+03,   981.628E+03,   981.628E+03
C:/temp/Job-34.odb,Step-1,Increment      1: Step Time =    1.000,"P-34-1",            75,            0.,           50.,            0.,NA,NA,"",   857.377E+03,   960.966E+03,   960.966E+03
C:/temp/Job-34.odb,Step-1,Increment      1: Step Time =    1.000,"P-34-1",            76,            0.,           60.,            0.,NA,NA,"",   841.158E+03,   945.294E+03,   945.294E+03
C:/temp/Job-34.odb,Step-1,Increment      1: Step Time =    1.000,"P-34-1",            77,            0.,           70.,            0.,NA,NA,"",   829.489E+03,   933.753E+03,   933.753E+03
C:/temp/Job-34.odb,Step-1,Increment      1: Step Time =    1.000,"P-34-1",            78,            0.,           80.,            0.,NA,NA,"",   821.320E+03,   925.509E+03,   925.509E+03
C:/temp/Job-34.odb,Step-1,Increment      1: Step Time =    1.000,"P-34-1",            79,            0.,           90.,            0.,NA,NA,"",   816.368E+03,   920.454E+03,   920.454E+03
C:/temp/Job-34.odb,Step-1,Increment      1: Step Time =    1.000,"P-34-1",            80,            0.,          100.,            0.,NA,NA,"",   814.773E+03,   918.813E+03,   918.813E+03
C:/temp/Job-34.odb,Step-1,Increment      1: Step Time =    1.000,"P-34-1",            81,            0.,          110.,            0.,NA,NA,"",   816.446E+03,   920.540E+03,   920.540E+03
C:/temp/Job-34.odb,Step-1,Increment      1: Step Time =    1.000,"P-34-1",            82,            0.,          120.,            0.,NA,NA,"",   821.368E+03,   925.582E+03,   925.582E+03
C:/temp/Job-34.odb,Step-1,Increment      1: Step Time =    1.000,"P-34-1",            83,            0.,          130.,            0.,NA,NA,"",   829.757E+03,   933.965E+03,   933.965E+03
C:/temp/Job-34.odb,Step-1,Increment      1: Step Time =    1.000,"P-34-1",            84,            0.,          140.,            0.,NA,NA,"",   843.716E+03,   946.919E+03,   946.919E+03
C:/temp/Job-34.odb,Step-1,Increment      1: Step Time =    1.000,"P-34-1",            85,            0.,          150.,            0.,NA,NA,"",   859.727E+03,   962.687E+03,   962.687E+03
C:/temp/Job-34.odb,Step-1,Increment      1: Step Time =    1.000,"P-34-1",            86,            0.,          160.,            0.,NA,NA,"",   879.557E+03,   982.786E+03,   982.786E+03
C:/temp/Job-34.odb,Step-1,Increment      1: Step Time =    1.000,"P-34-1",            87,            0.,          170.,            0.,NA,NA,"",   912.163E+03,   1.01411E+06,   1.01411E+06
C:/temp/Job-34.odb,Step-1,Increment      1: Step Time =    1.000,"P-34-1",            88,            0.,          180.,            0.,NA,NA,"",   972.014E+03,   1.07204E+06,   1.07204E+06
C:/temp/Job-34.odb,Step-1,Increment      1: Step Time =    1.000,"P-34-1",            89,            0.,          190.,            0.,NA,NA,"",   1.10706E+06,   1.20339E+06,   1.20339E+06
C:/temp/Job-34.odb,Step-1,Increment      1: Step Time =    1.000,"P-34-1",            90,       106.093,       82.5130,            0.,NA,NA,"",   1.13765E+06,   1.17581E+06,   1.17581E+06
C:/temp/Job-34.odb,Step-1,Increment      1: Step Time =    1.000,"P-34-1",            91,       189.471,       114.931,            0.,NA,NA,"",   998.479E+03,   999.369E+03,   999.369E+03
C:/temp/Job-34.odb,Step-1,Increment      1: Step Time =    1.000,"P-34-1",            92,       176.209,       114.535,            0.,NA,NA,"",   998.095E+03,   997.372E+03,   997.372E+03
C:/temp/Job-34.odb,Step-1,Increment      1: Step Time =    1.000,"P-34-1",            93,       166.033,       115.703,            0.,NA,NA,"",   997.460E+03,   995.835E+03,   995.835E+03
C:/temp/Job-34.odb,Step-1,Increment      1: Step Time =    1.000,"P-34-1",            94,       160.017,       116.230,            0.,NA,NA,"",   997.566E+03,   994.780E+03,   994.780E+03
C:/temp/Job-34.odb,Step-1,Increment      1: Step Time =    1.000,"P-34-1",            95,       148.677,       115.198,            0.,NA,NA,"",   992.784E+03,   989.452E+03,   989.452E+03
C:/temp/Job-34.odb,Step-1,Increment      1: Step Time =    1.000,"P-34-1",            96,       138.353,       114.500,            0.,NA,NA,"",   993.073E+03,   986.270E+03,   986.270E+03
C:/temp/Job-34.odb,Step-1,Increment      1: Step Time =    1.000,"P-34-1",            97,       124.964,       117.752,            0.,NA,NA,"",   1.06062E+06,   1.03615E+06,   1.03615E+06
C:/temp/Job-34.odb,Step-1,Increment      1: Step Time =    1.000,"P-34-1",            98,       115.611,       113.605,            0.,NA,NA,"",   1.13116E+06,   1.08398E+06,   1.08398E+06
C:/temp/Job-34.odb,Step-1,Increment      1: Step Time =    1.000,"P-34-1",            99,       104.568,       118.011,            0.,NA,NA,"",   1.09295E+06,   1.14779E+06,   1.14779E+06
C:/temp/Job-34.odb,Step-1,Increment      1: Step Time =    1.000,"P-34-1",           100,       92.9864,       117.974,            0.,NA,NA,"",   1.11230E+06,   1.13553E+06,   1.13553E+06
C:/temp/Job-34.odb,Step-1,Increment      1: Step Time =    1.000,"P-34-1",           101,       82.1904,       115.569,            0.,NA,NA,"",   1.09621E+06,   1.07759E+06,   1.07759E+06
C:/temp/Job-34.odb,Step-1,Increment      1: Step Time =    1.000,"P-34-1",           102,       70.8323,       115.872,            0.,NA,NA,"",   998.242E+03,   1.00859E+06,   1.00859E+06
C:/temp/Job-34.odb,Step-1,Increment      1: Step Time =    1.000,"P-34-1",           103,       62.8358,       116.077,            0.,NA,NA,"",   966.368E+03,   993.016E+03,   993.016E+03
C:/temp/Job-34.odb,Step-1,Increment      1: Step Time =    1.000,"P-34-1",           104,       51.1951,       114.632,            0.,NA,NA,"",   934.249E+03,   979.886E+03,   979.886E+03
C:/temp/Job-34.odb,Step-1,Increment      1: Step Time =    1.000,"P-34-1",           105,       41.2410,       116.368,            0.,NA,NA,"",   918.052E+03,   976.602E+03,   976.602E+03
C:/temp/Job-34.odb,Step-1,Increment      1: Step Time =    1.000,"P-34-1",           106,       29.6578,       115.029,            0.,NA,NA,"",   888.566E+03,   963.196E+03,   963.196E+03
C:/temp/Job-34.odb,Step-1,Increment      1: Step Time =    1.000,"P-34-1",           107,       19.2912,       114.665,            0.,NA,NA,"",   861.890E+03,   949.360E+03,   949.360E+03
C:/temp/Job-34.odb,Step-1,Increment      1: Step Time =    1.000,"P-34-1",           108,       9.47706,       114.711,            0.,NA,NA,"",   836.108E+03,   934.102E+03,   934.102E+03
C:/temp/Job-34.odb,Step-1,Increment      1: Step Time =    1.000,"P-34-1",           109,       9.63758,       104.995,            0.,NA,NA,"",   832.322E+03,   930.423E+03,   930.423E+03
C:/temp/Job-34.odb,Step-1,Increment      1: Step Time =    1.000,"P-34-1",           110,       19.5428,       105.124,            0.,NA,NA,"",   856.797E+03,   944.794E+03,   944.794E+03
C:/temp/Job-34.odb,Step-1,Increment      1: Step Time =    1.000,"P-34-1",           111,       29.9241,       105.484,            0.,NA,NA,"",   881.230E+03,   956.959E+03,   956.959E+03
C:/temp/Job-34.odb,Step-1,Increment      1: Step Time =    1.000,"P-34-1",           112,       40.4563,       105.464,            0.,NA,NA,"",   900.750E+03,   963.653E+03,   963.653E+03
C:/temp/Job-34.odb,Step-1,Increment      1: Step Time =    1.000,"P-34-1",           113,       51.6643,       105.498,            0.,NA,NA,"",   911.484E+03,   961.299E+03,   961.299E+03
C:/temp/Job-34.odb,Step-1,Increment      1: Step Time =    1.000,"P-34-1",           114,       62.7456,       105.001,            0.,NA,NA,"",   902.061E+03,   941.293E+03,   941.293E+03
C:/temp/Job-34.odb,Step-1,Increment      1: Step Time =    1.000,"P-34-1",           115,       73.6871,       103.316,            0.,NA,NA,"",   834.442E+03,   867.027E+03,   867.027E+03
C:/temp/Job-34.odb,Step-1,Increment      1: Step Time =    1.000,"P-34-1",           116,       84.2750,       104.987,            0.,NA,NA,"",   791.757E+03,   767.316E+03,   767.316E+03
C:/temp/Job-34.odb,Step-1,Increment      1: Step Time =    1.000,"P-34-1",           117,       116.962,       107.267,            0.,NA,NA,"",   977.087E+03,   929.736E+03,   929.736E+03
C:/temp/Job-34.odb,Step-1,Increment      1: Step Time =    1.000,"P-34-1",           118,       127.250,       107.024,            0.,NA,NA,"",   912.470E+03,   911.668E+03,   911.668E+03
C:/temp/Job-34.odb,Step-1,Increment      1: Step Time =    1.000,"P-34-1",           119,       138.195,       104.804,            0.,NA,NA,"",   944.362E+03,   947.924E+03,   947.924E+03
C:/temp/Job-34.odb,Step-1,Increment      1: Step Time =    1.000,"P-34-1",           120,       148.832,       105.433,            0.,NA,NA,"",   973.447E+03,   974.342E+03,   974.342E+03
C:/temp/Job-34.odb,Step-1,Increment      1: Step Time =    1.000,"P-34-1",           121,       158.138,       103.906,            0.,NA,NA,"",   984.878E+03,   985.054E+03,   985.054E+03
C:/temp/Job-34.odb,Step-1,Increment      1: Step Time =    1.000,"P-34-1",           122,       167.407,       104.456,            0.,NA,NA,"",   991.367E+03,   991.331E+03,   991.331E+03
C:/temp/Job-34.odb,Step-1,Increment      1: Step Time =    1.000,"P-34-1",           123,       175.627,       106.672,            0.,NA,NA,"",   995.680E+03,   995.591E+03,   995.591E+03
C:/temp/Job-34.odb,Step-1,Increment      1: Step Time =    1.000,"P-34-1",           124,       190.159,       104.576,            0.,NA,NA,"",    997.41E+03,   998.999E+03,   998.999E+03
C:/temp/Job-34.odb,Step-1,Increment      1: Step Time =    1.000,"P-34-1",           125,       117.229,       96.9387,            0.,NA,NA,"",   777.259E+03,   773.925E+03,   773.925E+03
C:/temp/Job-34.odb,Step-1,Increment      1: Step Time =    1.000,"P-34-1",           126,       127.755,       93.9627,            0.,NA,NA,"",   922.845E+03,   922.891E+03,   922.891E+03
C:/temp/Job-34.odb,Step-1,Increment      1: Step Time =    1.000,"P-34-1",           127,       139.459,       94.9894,            0.,NA,NA,"",   954.373E+03,   956.635E+03,   956.635E+03
C:/temp/Job-34.odb,Step-1,Increment      1: Step Time =    1.000,"P-34-1",           128,       149.716,       96.6640,            0.,NA,NA,"",   973.857E+03,   974.942E+03,   974.942E+03
C:/temp/Job-34.odb,Step-1,Increment      1: Step Time =    1.000,"P-34-1",           129,       156.900,       95.3017,            0.,NA,NA,"",   984.138E+03,   984.118E+03,   984.118E+03
C:/temp/Job-34.odb,Step-1,Increment      1: Step Time =    1.000,"P-34-1",           130,       169.377,       95.0664,            0.,NA,NA,"",   992.984E+03,   992.733E+03,   992.733E+03
C:/temp/Job-34.odb,Step-1,Increment      1: Step Time =    1.000,"P-34-1",           131,       180.406,       94.7492,            0.,NA,NA,"",   996.494E+03,   996.849E+03,   996.849E+03
C:/temp/Job-34.odb,Step-1,Increment      1: Step Time =    1.000,"P-34-1",           132,       190.157,       94.5524,            0.,NA,NA,"",   997.505E+03,   999.033E+03,   999.033E+03
C:/temp/Job-34.odb,Step-1,Increment      1: Step Time =    1.000,"P-34-1",           133,       9.35341,       85.4569,            0.,NA,NA,"",   835.645E+03,   933.712E+03,   933.712E+03
C:/temp/Job-34.odb,Step-1,Increment      1: Step Time =    1.000,"P-34-1",           134,       18.4849,       85.9225,            0.,NA,NA,"",   859.109E+03,   947.525E+03,   947.525E+03
C:/temp/Job-34.odb,Step-1,Increment      1: Step Time =    1.000,"P-34-1",           135,       32.4156,       83.1604,            0.,NA,NA,"",   897.948E+03,   968.210E+03,   968.210E+03
C:/temp/Job-34.odb,Step-1,Increment      1: Step Time =    1.000,"P-34-1",           136,       44.3893,       84.2785,            0.,NA,NA,"",   923.221E+03,   977.620E+03,   977.620E+03
C:/temp/Job-34.odb,Step-1,Increment      1: Step Time =    1.000,"P-34-1",           137,       53.1013,       85.1020,            0.,NA,NA,"",   936.777E+03,   980.194E+03,   980.194E+03
C:/temp/Job-34.odb,Step-1,Increment      1: Step Time =    1.000,"P-34-1",           138,       63.4370,       82.8517,            0.,NA,NA,"",   968.338E+03,   994.214E+03,   994.214E+03
C:/temp/Job-34.odb,Step-1,Increment      1: Step Time =    1.000,"P-34-1",           139,       72.9221,       84.7761,            0.,NA,NA,"",   995.204E+03,   1.00283E+06,   1.00283E+06
C:/temp/Job-34.odb,Step-1,Increment      1: Step Time =    1.000,"P-34-1",           140,       82.0145,       81.2573,            0.,NA,NA,"",   1.12490E+06,   1.10634E+06,   1.10634E+06
C:/temp/Job-34.odb,Step-1,Increment      1: Step Time =    1.000,"P-34-1",           141,       96.1660,       81.8993,            0.,NA,NA,"",   1.08091E+06,   1.13485E+06,   1.13485E+06
C:/temp/Job-34.odb,Step-1,Increment      1: Step Time =    1.000,"P-34-1",           142,       115.640,       82.4964,            0.,NA,NA,"",   1.14691E+06,   1.11129E+06,   1.11129E+06
C:/temp/Job-34.odb,Step-1,Increment      1: Step Time =    1.000,"P-34-1",           143,       126.708,       83.7523,            0.,NA,NA,"",   1.03306E+06,   1.01383E+06,   1.01383E+06
C:/temp/Job-34.odb,Step-1,Increment      1: Step Time =    1.000,"P-34-1",           144,       135.931,       86.9443,            0.,NA,NA,"",   991.300E+03,   983.319E+03,   983.319E+03
C:/temp/Job-34.odb,Step-1,Increment      1: Step Time =    1.000,"P-34-1",           145,       149.024,       85.9610,            0.,NA,NA,"",   991.349E+03,   988.378E+03,   988.378E+03
C:/temp/Job-34.odb,Step-1,Increment      1: Step Time =    1.000,"P-34-1",           146,       157.919,       84.0732,            0.,NA,NA,"",   996.023E+03,   993.515E+03,   993.515E+03
C:/temp/Job-34.odb,Step-1,Increment      1: Step Time =    1.000,"P-34-1",           147,       168.009,       84.1061,            0.,NA,NA,"",   997.826E+03,   996.289E+03,   996.289E+03
C:/temp/Job-34.odb,Step-1,Increment      1: Step Time =    1.000,"P-34-1",           148,       189.793,       84.3019,            0.,NA,NA,"",   998.701E+03,   999.458E+03,   999.458E+03
C:/temp/Job-34.odb,Step-1,Increment      1: Step Time =    1.000,"P-34-1",           149,       82.2663,       94.7073,            0.,NA,NA,"",   838.879E+03,    839.84E+03,    839.84E+03
C:/temp/Job-34.odb,Step-1,Increment      1: Step Time =    1.000,"P-34-1",           150,       71.8474,       93.6487,            0.,NA,NA,"",   896.204E+03,   922.650E+03,   922.650E+03
C:/temp/Job-34.odb,Step-1,Increment      1: Step Time =    1.000,"P-34-1",           151,       61.8997,       91.3771,            0.,NA,NA,"",   923.294E+03,   959.455E+03,   959.455E+03
C:/temp/Job-34.odb,Step-1,Increment      1: Step Time =    1.000,"P-34-1",           152,       51.6476,       93.1241,            0.,NA,NA,"",   915.303E+03,   964.529E+03,   964.529E+03
C:/temp/Job-34.odb,Step-1,Increment      1: Step Time =    1.000,"P-34-1",           153,       41.4073,       93.5481,            0.,NA,NA,"",   903.997E+03,   965.359E+03,   965.359E+03
C:/temp/Job-34.odb,Step-1,Increment      1: Step Time =    1.000,"P-34-1",           154,       29.8988,       95.1407,            0.,NA,NA,"",   880.459E+03,   956.406E+03,   956.406E+03
C:/temp/Job-34.odb,Step-1,Increment      1: Step Time =    1.000,"P-34-1",           155,       19.3302,       95.3642,            0.,NA,NA,"",   855.960E+03,   944.288E+03,   944.288E+03
C:/temp/Job-34.odb,Step-1,Increment      1: Step Time =    1.000,"P-34-1",           156,       9.57930,       95.2255,            0.,NA,NA,"",   832.105E+03,   930.253E+03,   930.253E+03
C:/temp/Job-34.odb,Step-1,Increment      1: Step Time =    1.000,"P-34-1",           157,       189.972,       10.1641,            0.,NA,NA,"",   999.788E+03,   999.519E+03,   999.519E+03
C:/temp/Job-34.odb,Step-1,Increment      1: Step Time =    1.000,"P-34-1",           158,       179.746,       10.4433,            0.,NA,NA,"",   998.759E+03,   998.423E+03,   998.423E+03
C:/temp/Job-34.odb,Step-1,Increment      1: Step Time =    1.000,"P-34-1",           159,       169.696,       10.4179,            0.,NA,NA,"",   997.059E+03,   996.659E+03,   996.659E+03
C:/temp/Job-34.odb,Step-1,Increment      1: Step Time =    1.000,"P-34-1",           160,       158.910,       11.1128,            0.,NA,NA,"",   994.497E+03,   993.961E+03,   993.961E+03
C:/temp/Job-34.odb,Step-1,Increment      1: Step Time =    1.000,"P-34-1",           161,       148.951,       13.4597,            0.,NA,NA,"",   992.601E+03,   991.805E+03,   991.805E+03
C:/temp/Job-34.odb,Step-1,Increment      1: Step Time =    1.000,"P-34-1",           162,       134.901,       9.65041,            0.,NA,NA,"",   982.349E+03,   982.063E+03,   982.063E+03
C:/temp/Job-34.odb,Step-1,Increment      1: Step Time =    1.000,"P-34-1",           163,       124.897,       9.77310,            0.,NA,NA,"",   976.006E+03,   975.959E+03,   975.959E+03
C:/temp/Job-34.odb,Step-1,Increment      1: Step Time =    1.000,"P-34-1",           164,       114.919,       9.92824,            0.,NA,NA,"",   969.799E+03,   970.041E+03,   970.041E+03
C:/temp/Job-34.odb,Step-1,Increment      1: Step Time =    1.000,"P-34-1",           165,       105.018,       9.96748,            0.,NA,NA,"",   964.451E+03,   964.943E+03,   964.943E+03
C:/temp/Job-34.odb,Step-1,Increment      1: Step Time =    1.000,"P-34-1",           166,       95.1323,       9.84889,            0.,NA,NA,"",   960.553E+03,   961.146E+03,   961.146E+03
C:/temp/Job-34.odb,Step-1,Increment      1: Step Time =    1.000,"P-34-1",           167,       85.3163,       9.57109,            0.,NA,NA,"",   958.331E+03,   958.903E+03,   958.903E+03
C:/temp/Job-34.odb,Step-1,Increment      1: Step Time =    1.000,"P-34-1",           168,       75.7427,       9.35648,            0.,NA,NA,"",   958.196E+03,   958.746E+03,   958.746E+03
C:/temp/Job-34.odb,Step-1,Increment      1: Step Time =    1.000,"P-34-1",           169,       66.5036,       10.0231,            0.,NA,NA,"",   962.626E+03,   963.437E+03,   963.437E+03
C:/temp/Job-34.odb,Step-1,Increment      1: Step Time =    1.000,"P-34-1",           170,       51.1873,       12.8283,            0.,NA,NA,"",   984.396E+03,   986.717E+03,   986.717E+03
C:/temp/Job-34.odb,Step-1,Increment      1: Step Time =    1.000,"P-34-1",           171,       39.5926,       9.07769,            0.,NA,NA,"",   988.938E+03,   991.898E+03,   991.898E+03
C:/temp/Job-34.odb,Step-1,Increment      1: Step Time =    1.000,"P-34-1",           172,       30.6165,       8.46924,            0.,NA,NA,"",   1.01374E+06,   1.01851E+06,   1.01851E+06
C:/temp/Job-34.odb,Step-1,Increment      1: Step Time =    1.000,"P-34-1",           173,       20.9647,       10.0637,            0.,NA,NA,"",   1.06768E+06,   1.08188E+06,   1.08188E+06
C:/temp/Job-34.odb,Step-1,Increment      1: Step Time =    1.000,"P-34-1",           174,       10.2954,       10.0452,            0.,NA,NA,"",   1.15579E+06,   1.19425E+06,   1.19425E+06
C:/temp/Job-34.odb,Step-1,Increment      1: Step Time =    1.000,"P-34-1",           175,       190.768,       24.7000,            0.,NA,NA,"",   1.00099E+06,   999.921E+03,   999.921E+03
C:/temp/Job-34.odb,Step-1,Increment      1: Step Time =    1.000,"P-34-1",           176,       179.777,       21.9538,            0.,NA,NA,"",   1.00062E+06,   999.503E+03,   999.503E+03
C:/temp/Job-34.odb,Step-1,Increment      1: Step Time =    1.000,"P-34-1",           177,       169.329,       20.9522,            0.,NA,NA,"",   1.00004E+06,   998.752E+03,   998.752E+03
C:/temp/Job-34.odb,Step-1,Increment      1: Step Time =    1.000,"P-34-1",           178,       159.587,       25.3332,            0.,NA,NA,"",   1.00199E+06,   999.923E+03,   999.923E+03
C:/temp/Job-34.odb,Step-1,Increment      1: Step Time =    1.000,"P-34-1",           179,       145.508,       20.2864,            0.,NA,NA,"",   996.564E+03,   995.117E+03,   995.117E+03
C:/temp/Job-34.odb,Step-1,Increment      1: Step Time =    1.000,"P-34-1",           180,       134.455,       19.2274,            0.,NA,NA,"",   991.982E+03,   991.139E+03,   991.139E+03
C:/temp/Job-34.odb,Step-1,Increment      1: Step Time =    1.000,"P-34-1",           181,       124.631,       19.4433,            0.,NA,NA,"",   987.884E+03,   987.802E+03,   987.802E+03
C:/temp/Job-34.odb,Step-1,Increment      1: Step Time =    1.000,"P-34-1",           182,       114.680,       19.9932,            0.,NA,NA,"",   984.086E+03,   985.048E+03,   985.048E+03
C:/temp/Job-34.odb,Step-1,Increment      1: Step Time =    1.000,"P-34-1",           183,       104.756,       20.2111,            0.,NA,NA,"",   980.967E+03,   982.818E+03,   982.818E+03
C:/temp/Job-34.odb,Step-1,Increment      1: Step Time =    1.000,"P-34-1",           184,       94.9283,       19.9285,            0.,NA,NA,"",   979.363E+03,   981.572E+03,   981.572E+03
C:/temp/Job-34.odb,Step-1,Increment      1: Step Time =    1.000,"P-34-1",           185,       85.2143,       19.3750,            0.,NA,NA,"",   979.624E+03,   981.736E+03,   981.736E+03
C:/temp/Job-34.odb,Step-1,Increment      1: Step Time =    1.000,"P-34-1",           186,       76.0107,       18.7406,            0.,NA,NA,"",   981.413E+03,   983.476E+03,   983.476E+03
C:/temp/Job-34.odb,Step-1,Increment      1: Step Time =    1.000,"P-34-1",           187,       66.1994,       21.0258,            0.,NA,NA,"",   990.848E+03,   994.185E+03,   994.185E+03
C:/temp/Job-34.odb,Step-1,Increment      1: Step Time =    1.000,"P-34-1",           188,       54.6019,       21.8803,            0.,NA,NA,"",   1.00049E+06,   1.00636E+06,   1.00636E+06
C:/temp/Job-34.odb,Step-1,Increment      1: Step Time =    1.000,"P-34-1",           189,       42.0663,       19.8375,            0.,NA,NA,"",   1.01122E+06,   1.02159E+06,   1.02159E+06
C:/temp/Job-34.odb,Step-1,Increment      1: Step Time =    1.000,"P-34-1",           190,       26.8487,       18.1293,            0.,NA,NA,"",   1.04000E+06,   1.06196E+06,   1.06196E+06
C:/temp/Job-34.odb,Step-1,Increment      1: Step Time =    1.000,"P-34-1",           191,       21.9978,       21.4383,            0.,NA,NA,"",   1.03426E+06,   1.07202E+06,   1.07202E+06
C:/temp/Job-34.odb,Step-1,Increment      1: Step Time =    1.000,"P-34-1",           192,       11.4270,       20.9471,            0.,NA,NA,"",   1.01475E+06,   1.08343E+06,   1.08343E+06
C:/temp/Job-34.odb,Step-1,Increment      1: Step Time =    1.000,"P-34-1",           193,       190.984,       34.0941,            0.,NA,NA,"",   1.00188E+06,   1.00026E+06,   1.00026E+06
C:/temp/Job-34.odb,Step-1,Increment      1: Step Time =    1.000,"P-34-1",           194,       181.300,       34.0035,            0.,NA,NA,"",   1.00279E+06,   1.00092E+06,   1.00092E+06
C:/temp/Job-34.odb,Step-1,Increment      1: Step Time =    1.000,"P-34-1",           195,       167.766,       31.1835,            0.,NA,NA,"",   1.00415E+06,   1.00175E+06,   1.00175E+06
C:/temp/Job-34.odb,Step-1,Increment      1: Step Time =    1.000,"P-34-1",           196,       158.129,       34.0120,            0.,NA,NA,"",   1.00717E+06,   1.00391E+06,   1.00391E+06
C:/temp/Job-34.odb,Step-1,Increment      1: Step Time =    1.000,"P-34-1",           197,       147.937,       29.4150,            0.,NA,NA,"",   1.00489E+06,   1.00213E+06,   1.00213E+06
C:/temp/Job-34.odb,Step-1,Increment      1: Step Time =    1.000,"P-34-1",           198,       136.646,       34.4794,            0.,NA,NA,"",   1.00949E+06,   1.00674E+06,   1.00674E+06
C:/temp/Job-34.odb,Step-1,Increment      1: Step Time =    1.000,"P-34-1",           199,       128.132,       33.4185,            0.,NA,NA,"",   1.00620E+06,   1.00514E+06,   1.00514E+06
C:/temp/Job-34.odb,Step-1,Increment      1: Step Time =    1.000,"P-34-1",           200,       114.807,       30.2020,            0.,NA,NA,"",   996.779E+03,   998.780E+03,   998.780E+03
C:/temp/Job-34.odb,Step-1,Increment      1: Step Time =    1.000,"P-34-1",           201,       103.302,       32.0986,            0.,NA,NA,"",   995.264E+03,   1.00008E+06,   1.00008E+06
C:/temp/Job-34.odb,Step-1,Increment      1: Step Time =    1.000,"P-34-1",           202,       94.6569,       31.0582,            0.,NA,NA,"",   994.557E+03,   999.820E+03,   999.820E+03
C:/temp/Job-34.odb,Step-1,Increment      1: Step Time =    1.000,"P-34-1",           203,       84.3247,       29.2281,            0.,NA,NA,"",   995.573E+03,   1.00028E+06,   1.00028E+06
C:/temp/Job-34.odb,Step-1,Increment      1: Step Time =    1.000,"P-34-1",           204,       74.2913,       32.6854,            0.,NA,NA,"",   1.00464E+06,   1.01085E+06,   1.01085E+06
C:/temp/Job-34.odb,Step-1,Increment      1: Step Time =    1.000,"P-34-1",           205,       64.6832,       31.5428,            0.,NA,NA,"",   1.00710E+06,   1.01459E+06,   1.01459E+06
C:/temp/Job-34.odb,Step-1,Increment      1: Step Time =    1.000,"P-34-1",           206,       53.4750,       32.6799,            0.,NA,NA,"",   1.00966E+06,   1.02310E+06,   1.02310E+06
C:/temp/Job-34.odb,Step-1,Increment      1: Step Time =    1.000,"P-34-1",           207,       41.1014,       31.1747,            0.,NA,NA,"",   1.00941E+06,   1.03233E+06,   1.03233E+06
C:/temp/Job-34.odb,Step-1,Increment      1: Step Time =    1.000,"P-34-1",           208,       29.6066,       28.7480,            0.,NA,NA,"",   1.00750E+06,   1.04417E+06,   1.04417E+06
C:/temp/Job-34.odb,Step-1,Increment      1: Step Time =    1.000,"P-34-1",           209,       21.7575,       31.5293,            0.,NA,NA,"",   986.322E+03,   1.04178E+06,   1.04178E+06
C:/temp/Job-34.odb,Step-1,Increment      1: Step Time =    1.000,"P-34-1",           210,       9.51876,       35.6601,            0.,NA,NA,"",   923.148E+03,   1.01204E+06,   1.01204E+06
C:/temp/Job-34.odb,Step-1,Increment      1: Step Time =    1.000,"P-34-1",           211,       190.460,       43.3064,            0.,NA,NA,"",   1.00261E+06,   1.00063E+06,   1.00063E+06
C:/temp/Job-34.odb,Step-1,Increment      1: Step Time =    1.000,"P-34-1",           212,       175.978,       41.5842,            0.,NA,NA,"",   1.00544E+06,   1.00274E+06,   1.00274E+06
C:/temp/Job-34.odb,Step-1,Increment      1: Step Time =    1.000,"P-34-1",           213,       169.816,       40.9290,            0.,NA,NA,"",   1.00726E+06,   1.00403E+06,   1.00403E+06
C:/temp/Job-34.odb,Step-1,Increment      1: Step Time =    1.000,"P-34-1",           214,       158.379,       42.1989,            0.,NA,NA,"",   1.01197E+06,   1.00757E+06,   1.00757E+06
C:/temp/Job-34.odb,Step-1,Increment      1: Step Time =    1.000,"P-34-1",           215,       138.885,       43.3813,            0.,NA,NA,"",   1.01983E+06,   1.01509E+06,   1.01509E+06
C:/temp/Job-34.odb,Step-1,Increment      1: Step Time =    1.000,"P-34-1",           216,       115.986,       41.2113,            0.,NA,NA,"",   1.00967E+06,   1.01296E+06,   1.01296E+06
C:/temp/Job-34.odb,Step-1,Increment      1: Step Time =    1.000,"P-34-1",           217,       107.547,       43.6483,            0.,NA,NA,"",   1.00716E+06,   1.01473E+06,   1.01473E+06
C:/temp/Job-34.odb,Step-1,Increment      1: Step Time =    1.000,"P-34-1",           218,       94.9945,       42.8496,            0.,NA,NA,"",   1.00514E+06,   1.01531E+06,   1.01531E+06
C:/temp/Job-34.odb,Step-1,Increment      1: Step Time =    1.000,"P-34-1",           219,       82.6216,       38.9266,            0.,NA,NA,"",   1.00796E+06,   1.01594E+06,   1.01594E+06
C:/temp/Job-34.odb,Step-1,Increment      1: Step Time =    1.000,"P-34-1",           220,       72.7517,       41.9553,            0.,NA,NA,"",   1.01559E+06,   1.02493E+06,   1.02493E+06
C:/temp/Job-34.odb,Step-1,Increment      1: Step Time =    1.000,"P-34-1",           221,       64.8239,       41.0158,            0.,NA,NA,"",   1.01528E+06,   1.02668E+06,   1.02668E+06
C:/temp/Job-34.odb,Step-1,Increment      1: Step Time =    1.000,"P-34-1",           222,       52.3137,       42.1843,            0.,NA,NA,"",   1.00817E+06,   1.02865E+06,   1.02865E+06
C:/temp/Job-34.odb,Step-1,Increment      1: Step Time =    1.000,"P-34-1",           223,       38.9369,       41.5655,            0.,NA,NA,"",   992.343E+03,   1.02850E+06,   1.02850E+06
C:/temp/Job-34.odb,Step-1,Increment      1: Step Time =    1.000,"P-34-1",           224,       29.9113,       42.0293,            0.,NA,NA,"",   971.293E+03,   1.02307E+06,   1.02307E+06
C:/temp/Job-34.odb,Step-1,Increment      1: Step Time =    1.000,"P-34-1",           225,       20.2938,       44.3758,            0.,NA,NA,"",   936.534E+03,   1.00856E+06,   1.00856E+06
C:/temp/Job-34.odb,Step-1,Increment      1: Step Time =    1.000,"P-34-1",           226,       11.0027,       45.9997,            0.,NA,NA,"",   898.030E+03,   988.049E+03,   988.049E+03
C:/temp/Job-34.odb,Step-1,Increment      1: Step Time =    1.000,"P-34-1",           227,       189.004,       51.6159,            0.,NA,NA,"",   1.00289E+06,   1.00089E+06,   1.00089E+06
C:/temp/Job-34.odb,Step-1,Increment      1: Step Time =    1.000,"P-34-1",           228,       178.631,       55.2606,            0.,NA,NA,"",   1.00578E+06,   1.00298E+06,   1.00298E+06
C:/temp/Job-34.odb,Step-1,Increment      1: Step Time =    1.000,"P-34-1",           229,       167.386,       53.5546,            0.,NA,NA,"",   1.01090E+06,   1.00657E+06,   1.00657E+06
C:/temp/Job-34.odb,Step-1,Increment      1: Step Time =    1.000,"P-34-1",           230,       156.328,       54.9777,            0.,NA,NA,"",   1.01782E+06,   1.01163E+06,   1.01163E+06
C:/temp/Job-34.odb,Step-1,Increment      1: Step Time =    1.000,"P-34-1",           231,       148.702,       55.1992,            0.,NA,NA,"",   1.02443E+06,   1.01685E+06,   1.01685E+06
C:/temp/Job-34.odb,Step-1,Increment      1: Step Time =    1.000,"P-34-1",           232,       138.103,       53.2558,            0.,NA,NA,"",   1.03076E+06,   1.02355E+06,   1.02355E+06
C:/temp/Job-34.odb,Step-1,Increment      1: Step Time =    1.000,"P-34-1",           233,       127.823,       49.8254,            0.,NA,NA,"",   1.02783E+06,   1.02459E+06,   1.02459E+06
C:/temp/Job-34.odb,Step-1,Increment      1: Step Time =    1.000,"P-34-1",           234,       115.456,       50.8022,            0.,NA,NA,"",   1.02021E+06,   1.02485E+06,   1.02485E+06
C:/temp/Job-34.odb,Step-1,Increment      1: Step Time =    1.000,"P-34-1",           235,       103.068,       54.2891,            0.,NA,NA,"",   1.01085E+06,   1.02583E+06,   1.02583E+06
C:/temp/Job-34.odb,Step-1,Increment      1: Step Time =    1.000,"P-34-1",           236,       93.9150,       53.7507,            0.,NA,NA,"",   1.01234E+06,   1.02877E+06,   1.02877E+06
C:/temp/Job-34.odb,Step-1,Increment      1: Step Time =    1.000,"P-34-1",           237,       86.8001,       52.7203,            0.,NA,NA,"",   1.01892E+06,   1.03243E+06,   1.03243E+06
C:/temp/Job-34.odb,Step-1,Increment      1: Step Time =    1.000,"P-34-1",           238,       72.2911,       51.1899,            0.,NA,NA,"",   1.02371E+06,   1.03545E+06,   1.03545E+06
C:/temp/Job-34.odb,Step-1,Increment      1: Step Time =    1.000,"P-34-1",           239,       65.4254,       53.5220,            0.,NA,NA,"",   1.02112E+06,   1.03592E+06,   1.03592E+06
C:/temp/Job-34.odb,Step-1,Increment      1: Step Time =    1.000,"P-34-1",           240,       50.6395,       54.3857,            0.,NA,NA,"",   995.328E+03,   1.02520E+06,   1.02520E+06
C:/temp/Job-34.odb,Step-1,Increment      1: Step Time =    1.000,"P-34-1",           241,       41.1749,       50.3434,            0.,NA,NA,"",   980.463E+03,   1.02102E+06,   1.02102E+06
C:/temp/Job-34.odb,Step-1,Increment      1: Step Time =    1.000,"P-34-1",           242,       31.7491,       53.7152,            0.,NA,NA,"",   949.294E+03,   1.00707E+06,   1.00707E+06
C:/temp/Job-34.odb,Step-1,Increment      1: Step Time =    1.000,"P-34-1",           243,       19.9218,       53.5039,            0.,NA,NA,"",   911.968E+03,   989.909E+03,   989.909E+03
C:/temp/Job-34.odb,Step-1,Increment      1: Step Time =    1.000,"P-34-1",           244,       10.0748,       51.1621,            0.,NA,NA,"",   882.742E+03,   975.841E+03,   975.841E+03
C:/temp/Job-34.odb,Step-1,Increment      1: Step Time =    1.000,"P-34-1",           245,       190.092,       64.5603,            0.,NA,NA,"",   1.00185E+06,   1.00059E+06,   1.00059E+06
C:/temp/Job-34.odb,Step-1,Increment      1: Step Time =    1.000,"P-34-1",           246,       180.572,       64.8249,            0.,NA,NA,"",   1.00407E+06,   1.00187E+06,   1.00187E+06
C:/temp/Job-34.odb,Step-1,Increment      1: Step Time =    1.000,"P-34-1",           247,       170.104,       65.0386,            0.,NA,NA,"",   1.00804E+06,   1.00430E+06,   1.00430E+06
C:/temp/Job-34.odb,Step-1,Increment      1: Step Time =    1.000,"P-34-1",           248,       160.032,       64.6849,            0.,NA,NA,"",   1.01423E+06,   1.00851E+06,   1.00851E+06
C:/temp/Job-34.odb,Step-1,Increment      1: Step Time =    1.000,"P-34-1",           249,       146.772,       62.9183,            0.,NA,NA,"",   1.02756E+06,   1.01883E+06,   1.01883E+06
C:/temp/Job-34.odb,Step-1,Increment      1: Step Time =    1.000,"P-34-1",           250,       140.478,       61.9134,            0.,NA,NA,"",   1.03495E+06,   1.02517E+06,   1.02517E+06
C:/temp/Job-34.odb,Step-1,Increment      1: Step Time =    1.000,"P-34-1",           251,       128.925,       59.6472,            0.,NA,NA,"",   1.04368E+06,   1.03613E+06,   1.03613E+06
C:/temp/Job-34.odb,Step-1,Increment      1: Step Time =    1.000,"P-34-1",           252,       115.359,       63.9203,            0.,NA,NA,"",   1.04426E+06,   1.04917E+06,   1.04917E+06
C:/temp/Job-34.odb,Step-1,Increment      1: Step Time =    1.000,"P-34-1",           253,       107.686,       63.5083,            0.,NA,NA,"",   1.02458E+06,   1.04270E+06,   1.04270E+06
C:/temp/Job-34.odb,Step-1,Increment      1: Step Time =    1.000,"P-34-1",           254,       95.2477,       63.4243,            0.,NA,NA,"",   1.01522E+06,   1.04079E+06,   1.04079E+06
C:/temp/Job-34.odb,Step-1,Increment      1: Step Time =    1.000,"P-34-1",           255,       84.2177,       63.0166,            0.,NA,NA,"",   1.03702E+06,   1.05108E+06,   1.05108E+06
C:/temp/Job-34.odb,Step-1,Increment      1: Step Time =    1.000,"P-34-1",           256,       73.4593,       64.8248,            0.,NA,NA,"",   1.03943E+06,   1.04967E+06,   1.04967E+06
C:/temp/Job-34.odb,Step-1,Increment      1: Step Time =    1.000,"P-34-1",           257,       62.7112,       62.6772,            0.,NA,NA,"",   1.01616E+06,   1.03469E+06,   1.03469E+06
C:/temp/Job-34.odb,Step-1,Increment      1: Step Time =    1.000,"P-34-1",           258,       52.2958,       64.3850,            0.,NA,NA,"",   985.614E+03,   1.01846E+06,   1.01846E+06
C:/temp/Job-34.odb,Step-1,Increment      1: Step Time =    1.000,"P-34-1",           259,       43.9813,       61.5041,            0.,NA,NA,"",   968.403E+03,   1.01170E+06,   1.01170E+06
C:/temp/Job-34.odb,Step-1,Increment      1: Step Time =    1.000,"P-34-1",           260,       33.5505,       60.6980,            0.,NA,NA,"",   940.596E+03,   999.599E+03,   999.599E+03
C:/temp/Job-34.odb,Step-1,Increment      1: Step Time =    1.000,"P-34-1",           261,       21.6221,       62.6702,            0.,NA,NA,"",   899.343E+03,   978.464E+03,   978.464E+03
C:/temp/Job-34.odb,Step-1,Increment      1: Step Time =    1.000,"P-34-1",           262,       9.17820,       65.7806,            0.,NA,NA,"",   854.769E+03,   951.561E+03,   951.561E+03
C:/temp/Job-34.odb,Step-1,Increment      1: Step Time =    1.000,"P-34-1",           263,       190.439,       74.2174,            0.,NA,NA,"",   1.00032E+06,   1.00008E+06,   1.00008E+06
C:/temp/Job-34.odb,Step-1,Increment      1: Step Time =    1.000,"P-34-1",           264,       175.987,       76.5954,            0.,NA,NA,"",   1.00151E+06,   999.816E+03,   999.816E+03
C:/temp/Job-34.odb,Step-1,Increment      1: Step Time =    1.000,"P-34-1",           265,       169.631,       77.3734,            0.,NA,NA,"",   1.00186E+06,   999.521E+03,   999.521E+03
C:/temp/Job-34.odb,Step-1,Increment      1: Step Time =    1.000,"P-34-1",           266,       154.880,       73.1413,            0.,NA,NA,"",   1.01180E+06,   1.00574E+06,   1.00574E+06
C:/temp/Job-34.odb,Step-1,Increment      1: Step Time =    1.000,"P-34-1",           267,       147.925,       73.2334,            0.,NA,NA,"",   1.01812E+06,   1.01006E+06,   1.01006E+06
C:/temp/Job-34.odb,Step-1,Increment      1: Step Time =    1.000,"P-34-1",           268,       137.357,       72.7135,            0.,NA,NA,"",   1.03691E+06,   1.02436E+06,   1.02436E+06
C:/temp/Job-34.odb,Step-1,Increment      1: Step Time =    1.000,"P-34-1",           269,       126.854,       73.8207,            0.,NA,NA,"",   1.06602E+06,   1.04848E+06,   1.04848E+06
C:/temp/Job-34.odb,Step-1,Increment      1: Step Time =    1.000,"P-34-1",           270,       119.015,       72.8204,            0.,NA,NA,"",   1.08854E+06,   1.07621E+06,   1.07621E+06
C:/temp/Job-34.odb,Step-1,Increment      1: Step Time =    1.000,"P-34-1",           271,       106.853,       72.7317,            0.,NA,NA,"",   1.04212E+06,   1.06975E+06,   1.06975E+06
C:/temp/Job-34.odb,Step-1,Increment      1: Step Time =    1.000,"P-34-1",           272,       93.1702,       73.9176,            0.,NA,NA,"",   1.05011E+06,   1.08094E+06,   1.08094E+06
C:/temp/Job-34.odb,Step-1,Increment      1: Step Time =    1.000,"P-34-1",           273,       84.4990,       73.5682,            0.,NA,NA,"",   1.07598E+06,   1.08313E+06,   1.08313E+06
C:/temp/Job-34.odb,Step-1,Increment      1: Step Time =    1.000,"P-34-1",           274,       64.9592,       73.8000,            0.,NA,NA,"",   1.01056E+06,   1.02781E+06,   1.02781E+06
C:/temp/Job-34.odb,Step-1,Increment      1: Step Time =    1.000,"P-34-1",           275,       52.6598,       73.6896,            0.,NA,NA,"",   967.689E+03,   1.00488E+06,   1.00488E+06
C:/temp/Job-34.odb,Step-1,Increment      1: Step Time =    1.000,"P-34-1",           276,       47.5392,       73.9143,            0.,NA,NA,"",   952.952E+03,   998.203E+03,   998.203E+03
C:/temp/Job-34.odb,Step-1,Increment      1: Step Time =    1.000,"P-34-1",           277,       34.1039,       71.5236,            0.,NA,NA,"",   920.898E+03,   984.662E+03,   984.662E+03
C:/temp/Job-34.odb,Step-1,Increment      1: Step Time =    1.000,"P-34-1",           278,       18.2155,       76.3311,            0.,NA,NA,"",   868.106E+03,   955.478E+03,   955.478E+03
C:/temp/Job-34.odb,Step-1,Increment      1: Step Time =    1.000,"P-34-1",           279,       9.19424,       75.5663,            0.,NA,NA,"",   843.283E+03,   940.976E+03,   940.976E+03
C:/temp/Job-34.odb,Step-1,Increment      1: Step Time =    1.000,"P-34-1",           280,       190.094,       125.232,            0.,NA,NA,"",   1.00013E+06,   1.00003E+06,   1.00003E+06
C:/temp/Job-34.odb,Step-1,Increment      1: Step Time =    1.000,"P-34-1",           281,       180.079,       126.198,            0.,NA,NA,"",   1.00173E+06,   1.00036E+06,   1.00036E+06
C:/temp/Job-34.odb,Step-1,Increment      1: Step Time =    1.000,"P-34-1",           282,       169.334,       128.717,            0.,NA,NA,"",   1.00517E+06,   1.00201E+06,   1.00201E+06
C:/temp/Job-34.odb,Step-1,Increment      1: Step Time =    1.000,"P-34-1",           283,       159.561,       125.479,            0.,NA,NA,"",   1.00614E+06,   1.00187E+06,   1.00187E+06
C:/temp/Job-34.odb,Step-1,Increment      1: Step Time =    1.000,"P-34-1",           284,       147.224,       126.117,            0.,NA,NA,"",   1.01786E+06,   1.00956E+06,   1.00956E+06
C:/temp/Job-34.odb,Step-1,Increment      1: Step Time =    1.000,"P-34-1",           285,       137.204,       124.258,            0.,NA,NA,"",   1.03333E+06,   1.02026E+06,   1.02026E+06
C:/temp/Job-34.odb,Step-1,Increment      1: Step Time =    1.000,"P-34-1",           286,       126.318,       128.051,            0.,NA,NA,"",   1.06443E+06,   1.04908E+06,   1.04908E+06
C:/temp/Job-34.odb,Step-1,Increment      1: Step Time =    1.000,"P-34-1",           287,       116.833,       126.995,            0.,NA,NA,"",   1.08339E+06,   1.07426E+06,   1.07426E+06
C:/temp/Job-34.odb,Step-1,Increment      1: Step Time =    1.000,"P-34-1",           288,       104.866,       126.279,            0.,NA,NA,"",   1.03777E+06,   1.07420E+06,   1.07420E+06
C:/temp/Job-34.odb,Step-1,Increment      1: Step Time =    1.000,"P-34-1",           289,       94.2853,       128.888,            0.,NA,NA,"",   1.03054E+06,   1.06251E+06,   1.06251E+06
C:/temp/Job-34.odb,Step-1,Increment      1: Step Time =    1.000,"P-34-1",           290,       84.1256,       125.501,            0.,NA,NA,"",   1.08295E+06,   1.08673E+06,   1.08673E+06
C:/temp/Job-34.odb,Step-1,Increment      1: Step Time =    1.000,"P-34-1",           291,       74.7671,       127.310,            0.,NA,NA,"",   1.05279E+06,   1.05710E+06,   1.05710E+06
C:/temp/Job-34.odb,Step-1,Increment      1: Step Time =    1.000,"P-34-1",           292,       66.2173,       127.276,            0.,NA,NA,"",   1.01637E+06,   1.03217E+06,   1.03217E+06
C:/temp/Job-34.odb,Step-1,Increment      1: Step Time =    1.000,"P-34-1",           293,       51.9420,       127.867,            0.,NA,NA,"",   970.050E+03,   1.00738E+06,   1.00738E+06
C:/temp/Job-34.odb,Step-1,Increment      1: Step Time =    1.000,"P-34-1",           294,       42.5565,       126.925,            0.,NA,NA,"",   941.616E+03,   993.617E+03,   993.617E+03
C:/temp/Job-34.odb,Step-1,Increment      1: Step Time =    1.000,"P-34-1",           295,       33.1922,       125.349,            0.,NA,NA,"",   912.910E+03,   979.518E+03,   979.518E+03
C:/temp/Job-34.odb,Step-1,Increment      1: Step Time =    1.000,"P-34-1",           296,       18.7989,       123.818,            0.,NA,NA,"",   870.379E+03,   956.949E+03,   956.949E+03
C:/temp/Job-34.odb,Step-1,Increment      1: Step Time =    1.000,"P-34-1",           297,       9.33809,       124.228,            0.,NA,NA,"",   843.436E+03,   941.083E+03,   941.083E+03
C:/temp/Job-34.odb,Step-1,Increment      1: Step Time =    1.000,"P-34-1",           298,       190.559,       135.004,            0.,NA,NA,"",   1.00147E+06,   1.00046E+06,   1.00046E+06
C:/temp/Job-34.odb,Step-1,Increment      1: Step Time =    1.000,"P-34-1",           299,       180.860,       135.330,            0.,NA,NA,"",   1.00366E+06,   1.00164E+06,   1.00164E+06
C:/temp/Job-34.odb,Step-1,Increment      1: Step Time =    1.000,"P-34-1",           300,       166.735,       141.097,            0.,NA,NA,"",   1.01065E+06,   1.00622E+06,   1.00622E+06
C:/temp/Job-34.odb,Step-1,Increment      1: Step Time =    1.000,"P-34-1",           301,       157.615,       136.711,            0.,NA,NA,"",   1.01591E+06,   1.00968E+06,   1.00968E+06
C:/temp/Job-34.odb,Step-1,Increment      1: Step Time =    1.000,"P-34-1",           302,       149.263,       137.340,            0.,NA,NA,"",   1.02404E+06,   1.01568E+06,   1.01568E+06
C:/temp/Job-34.odb,Step-1,Increment      1: Step Time =    1.000,"P-34-1",           303,       135.389,       135.661,            0.,NA,NA,"",   1.04321E+06,   1.03183E+06,   1.03183E+06
C:/temp/Job-34.odb,Step-1,Increment      1: Step Time =    1.000,"P-34-1",           304,       128.453,       137.465,            0.,NA,NA,"",   1.04794E+06,   1.03845E+06,   1.03845E+06
C:/temp/Job-34.odb,Step-1,Increment      1: Step Time =    1.000,"P-34-1",           305,       117.879,       137.485,            0.,NA,NA,"",   1.04782E+06,   1.04756E+06,   1.04756E+06
C:/temp/Job-34.odb,Step-1,Increment      1: Step Time =    1.000,"P-34-1",           306,       105.068,       137.306,            0.,NA,NA,"",   1.01888E+06,   1.03974E+06,   1.03974E+06
C:/temp/Job-34.odb,Step-1,Increment      1: Step Time =    1.000,"P-34-1",           307,       95.9785,       139.478,            0.,NA,NA,"",   1.01358E+06,   1.03649E+06,   1.03649E+06
C:/temp/Job-34.odb,Step-1,Increment      1: Step Time =    1.000,"P-34-1",           308,       79.5269,       136.004,            0.,NA,NA,"",   1.04396E+06,   1.05440E+06,   1.05440E+06
C:/temp/Job-34.odb,Step-1,Increment      1: Step Time =    1.000,"P-34-1",           309,       64.0567,       136.424,            0.,NA,NA,"",   1.01939E+06,   1.03650E+06,   1.03650E+06
C:/temp/Job-34.odb,Step-1,Increment      1: Step Time =    1.000,"P-34-1",           310,       51.3584,       138.315,            0.,NA,NA,"",   987.651E+03,   1.02055E+06,   1.02055E+06
C:/temp/Job-34.odb,Step-1,Increment      1: Step Time =    1.000,"P-34-1",           311,       41.1594,       135.570,            0.,NA,NA,"",   954.910E+03,   1.00450E+06,   1.00450E+06
C:/temp/Job-34.odb,Step-1,Increment      1: Step Time =    1.000,"P-34-1",           312,       31.5064,       135.200,            0.,NA,NA,"",   925.421E+03,   990.307E+03,   990.307E+03
C:/temp/Job-34.odb,Step-1,Increment      1: Step Time =    1.000,"P-34-1",           313,       21.0136,       133.662,            0.,NA,NA,"",   891.239E+03,   972.404E+03,   972.404E+03
C:/temp/Job-34.odb,Step-1,Increment      1: Step Time =    1.000,"P-34-1",           314,       10.0077,       133.455,            0.,NA,NA,"",   856.394E+03,   952.302E+03,   952.302E+03
C:/temp/Job-34.odb,Step-1,Increment      1: Step Time =    1.000,"P-34-1",           315,       185.816,       148.871,            0.,NA,NA,"",   1.00347E+06,   1.00141E+06,   1.00141E+06
C:/temp/Job-34.odb,Step-1,Increment      1: Step Time =    1.000,"P-34-1",           316,       176.588,       144.251,            0.,NA,NA,"",   1.00618E+06,   1.00326E+06,   1.00326E+06
C:/temp/Job-34.odb,Step-1,Increment      1: Step Time =    1.000,"P-34-1",           317,       167.213,       150.356,            0.,NA,NA,"",   1.01024E+06,   1.00613E+06,   1.00613E+06
C:/temp/Job-34.odb,Step-1,Increment      1: Step Time =    1.000,"P-34-1",           318,       157.323,       148.509,            0.,NA,NA,"",   1.01641E+06,   1.01062E+06,   1.01062E+06
C:/temp/Job-34.odb,Step-1,Increment      1: Step Time =    1.000,"P-34-1",           319,       148.358,       148.848,            0.,NA,NA,"",   1.02241E+06,   1.01553E+06,   1.01553E+06
C:/temp/Job-34.odb,Step-1,Increment      1: Step Time =    1.000,"P-34-1",           320,       137.618,       146.967,            0.,NA,NA,"",   1.03067E+06,   1.02324E+06,   1.02324E+06
C:/temp/Job-34.odb,Step-1,Increment      1: Step Time =    1.000,"P-34-1",           321,       124.947,       145.840,            0.,NA,NA,"",   1.03520E+06,   1.03161E+06,   1.03161E+06
C:/temp/Job-34.odb,Step-1,Increment      1: Step Time =    1.000,"P-34-1",           322,       115.423,       147.010,            0.,NA,NA,"",   1.02481E+06,   1.02965E+06,   1.02965E+06
C:/temp/Job-34.odb,Step-1,Increment      1: Step Time =    1.000,"P-34-1",           323,       103.513,       147.187,            0.,NA,NA,"",   1.01055E+06,   1.02488E+06,   1.02488E+06
C:/temp/Job-34.odb,Step-1,Increment      1: Step Time =    1.000,"P-34-1",           324,       96.3409,       150.634,            0.,NA,NA,"",   1.00824E+06,   1.02208E+06,   1.02208E+06
C:/temp/Job-34.odb,Step-1,Increment      1: Step Time =    1.000,"P-34-1",           325,       85.7336,       151.589,            0.,NA,NA,"",   1.01471E+06,   1.02658E+06,   1.02658E+06
C:/temp/Job-34.odb,Step-1,Increment      1: Step Time =    1.000,"P-34-1",           326,       73.7022,       145.768,            0.,NA,NA,"",   1.02763E+06,   1.03933E+06,   1.03933E+06
C:/temp/Job-34.odb,Step-1,Increment      1: Step Time =    1.000,"P-34-1",           327,       64.6843,       146.140,            0.,NA,NA,"",   1.02011E+06,   1.03610E+06,   1.03610E+06
C:/temp/Job-34.odb,Step-1,Increment      1: Step Time =    1.000,"P-34-1",           328,       49.0934,       145.555,            0.,NA,NA,"",   991.313E+03,   1.02388E+06,   1.02388E+06
C:/temp/Job-34.odb,Step-1,Increment      1: Step Time =    1.000,"P-34-1",           329,       39.5134,       148.184,            0.,NA,NA,"",   973.864E+03,   1.01813E+06,   1.01813E+06
C:/temp/Job-34.odb,Step-1,Increment      1: Step Time =    1.000,"P-34-1",           330,       31.5757,       146.089,            0.,NA,NA,"",   948.195E+03,   1.00668E+06,   1.00668E+06
C:/temp/Job-34.odb,Step-1,Increment      1: Step Time =    1.000,"P-34-1",           331,       21.6296,       145.085,            0.,NA,NA,"",   914.392E+03,   990.362E+03,   990.362E+03
C:/temp/Job-34.odb,Step-1,Increment      1: Step Time =    1.000,"P-34-1",           332,       12.8356,       148.728,            0.,NA,NA,"",   892.513E+03,   981.182E+03,   981.182E+03
C:/temp/Job-34.odb,Step-1,Increment      1: Step Time =    1.000,"P-34-1",           333,       189.064,       159.088,            0.,NA,NA,"",   1.00254E+06,   1.00071E+06,   1.00071E+06
C:/temp/Job-34.odb,Step-1,Increment      1: Step Time =    1.000,"P-34-1",           334,       175.914,       160.836,            0.,NA,NA,"",   1.00497E+06,   1.00244E+06,   1.00244E+06
C:/temp/Job-34.odb,Step-1,Increment      1: Step Time =    1.000,"P-34-1",           335,       166.601,       159.668,            0.,NA,NA,"",   1.00804E+06,   1.00460E+06,   1.00460E+06
C:/temp/Job-34.odb,Step-1,Increment      1: Step Time =    1.000,"P-34-1",           336,       159.412,       157.196,            0.,NA,NA,"",   1.01171E+06,   1.00729E+06,   1.00729E+06
C:/temp/Job-34.odb,Step-1,Increment      1: Step Time =    1.000,"P-34-1",           337,       147.347,       155.447,            0.,NA,NA,"",   1.01830E+06,   1.01268E+06,   1.01268E+06
C:/temp/Job-34.odb,Step-1,Increment      1: Step Time =    1.000,"P-34-1",           338,       135.376,       158.470,            0.,NA,NA,"",   1.01826E+06,   1.01415E+06,   1.01415E+06
C:/temp/Job-34.odb,Step-1,Increment      1: Step Time =    1.000,"P-34-1",           339,       124.716,       157.558,            0.,NA,NA,"",   1.01713E+06,   1.01612E+06,   1.01612E+06
C:/temp/Job-34.odb,Step-1,Increment      1: Step Time =    1.000,"P-34-1",           340,       114.811,       158.563,            0.,NA,NA,"",   1.00971E+06,   1.01332E+06,   1.01332E+06
C:/temp/Job-34.odb,Step-1,Increment      1: Step Time =    1.000,"P-34-1",           341,       105.876,       156.040,            0.,NA,NA,"",   1.00615E+06,   1.01449E+06,   1.01449E+06
C:/temp/Job-34.odb,Step-1,Increment      1: Step Time =    1.000,"P-34-1",           342,       95.3283,       156.850,            0.,NA,NA,"",   1.00447E+06,   1.01524E+06,   1.01524E+06
C:/temp/Job-34.odb,Step-1,Increment      1: Step Time =    1.000,"P-34-1",           343,       85.4275,       156.509,            0.,NA,NA,"",   1.00965E+06,   1.01943E+06,   1.01943E+06
C:/temp/Job-34.odb,Step-1,Increment      1: Step Time =    1.000,"P-34-1",           344,       72.5673,       157.033,            0.,NA,NA,"",   1.01652E+06,   1.02653E+06,   1.02653E+06
C:/temp/Job-34.odb,Step-1,Increment      1: Step Time =    1.000,"P-34-1",           345,       64.2134,       161.424,            0.,NA,NA,"",   1.01317E+06,   1.02384E+06,   1.02384E+06
C:/temp/Job-34.odb,Step-1,Increment      1: Step Time =    1.000,"P-34-1",           346,       52.1097,       158.373,            0.,NA,NA,"",   1.00854E+06,   1.02898E+06,   1.02898E+06
C:/temp/Job-34.odb,Step-1,Increment      1: Step Time =    1.000,"P-34-1",           347,       38.3749,       157.306,            0.,NA,NA,"",   988.869E+03,   1.02711E+06,   1.02711E+06
C:/temp/Job-34.odb,Step-1,Increment      1: Step Time =    1.000,"P-34-1",           348,       28.7369,       160.217,            0.,NA,NA,"",   974.966E+03,   1.02653E+06,   1.02653E+06
C:/temp/Job-34.odb,Step-1,Increment      1: Step Time =    1.000,"P-34-1",           349,       20.2294,       157.566,            0.,NA,NA,"",   943.111E+03,   1.01325E+06,   1.01325E+06
C:/temp/Job-34.odb,Step-1,Increment      1: Step Time =    1.000,"P-34-1",           350,       9.52931,       160.523,            0.,NA,NA,"",   909.759E+03,   1.00041E+06,   1.00041E+06
C:/temp/Job-34.odb,Step-1,Increment      1: Step Time =    1.000,"P-34-1",           351,       189.814,       169.739,            0.,NA,NA,"",   1.00150E+06,   1.00017E+06,   1.00017E+06
C:/temp/Job-34.odb,Step-1,Increment      1: Step Time =    1.000,"P-34-1",           352,       180.151,       169.276,            0.,NA,NA,"",   1.00246E+06,   1.00074E+06,   1.00074E+06
C:/temp/Job-34.odb,Step-1,Increment      1: Step Time =    1.000,"P-34-1",           353,       168.147,       168.064,            0.,NA,NA,"",   1.00432E+06,   1.00189E+06,   1.00189E+06
C:/temp/Job-34.odb,Step-1,Increment      1: Step Time =    1.000,"P-34-1",           354,       158.693,       168.978,            0.,NA,NA,"",   1.00538E+06,   1.00254E+06,   1.00254E+06
C:/temp/Job-34.odb,Step-1,Increment      1: Step Time =    1.000,"P-34-1",           355,       147.230,       166.596,            0.,NA,NA,"",   1.00877E+06,   1.00524E+06,   1.00524E+06
C:/temp/Job-34.odb,Step-1,Increment      1: Step Time =    1.000,"P-34-1",           356,       133.521,       165.810,            0.,NA,NA,"",   1.00921E+06,   1.00678E+06,   1.00678E+06
C:/temp/Job-34.odb,Step-1,Increment      1: Step Time =    1.000,"P-34-1",           357,       125.161,       170.321,            0.,NA,NA,"",   1.00071E+06,   1.00035E+06,   1.00035E+06
C:/temp/Job-34.odb,Step-1,Increment      1: Step Time =    1.000,"P-34-1",           358,       115.350,       169.730,            0.,NA,NA,"",   997.734E+03,   999.481E+03,   999.481E+03
C:/temp/Job-34.odb,Step-1,Increment      1: Step Time =    1.000,"P-34-1",           359,       105.543,       169.034,            0.,NA,NA,"",   994.449E+03,   998.527E+03,   998.527E+03
C:/temp/Job-34.odb,Step-1,Increment      1: Step Time =    1.000,"P-34-1",           360,       95.1868,       170.112,            0.,NA,NA,"",   992.803E+03,   997.924E+03,   997.924E+03
C:/temp/Job-34.odb,Step-1,Increment      1: Step Time =    1.000,"P-34-1",           361,       85.8716,       166.469,            0.,NA,NA,"",   1.00035E+06,   1.00680E+06,   1.00680E+06
C:/temp/Job-34.odb,Step-1,Increment      1: Step Time =    1.000,"P-34-1",           362,       72.5602,       168.746,            0.,NA,NA,"",   1.00369E+06,   1.00967E+06,   1.00967E+06
C:/temp/Job-34.odb,Step-1,Increment      1: Step Time =    1.000,"P-34-1",           363,       63.3292,       168.890,            0.,NA,NA,"",   1.00708E+06,   1.01489E+06,   1.01489E+06
C:/temp/Job-34.odb,Step-1,Increment      1: Step Time =    1.000,"P-34-1",           364,       52.1019,       169.055,            0.,NA,NA,"",   1.00943E+06,   1.02261E+06,   1.02261E+06
C:/temp/Job-34.odb,Step-1,Increment      1: Step Time =    1.000,"P-34-1",           365,       41.0702,       170.581,            0.,NA,NA,"",   1.01070E+06,   1.03192E+06,   1.03192E+06
C:/temp/Job-34.odb,Step-1,Increment      1: Step Time =    1.000,"P-34-1",           366,       31.7013,       169.470,            0.,NA,NA,"",   1.00561E+06,   1.04058E+06,   1.04058E+06
C:/temp/Job-34.odb,Step-1,Increment      1: Step Time =    1.000,"P-34-1",           367,       18.1809,       169.108,            0.,NA,NA,"",   979.842E+03,   1.04333E+06,   1.04333E+06
C:/temp/Job-34.odb,Step-1,Increment      1: Step Time =    1.000,"P-34-1",           368,       9.39308,       169.638,            0.,NA,NA,"",   945.118E+03,   1.03121E+06,   1.03121E+06
C:/temp/Job-34.odb,Step-1,Increment      1: Step Time =    1.000,"P-34-1",           369,       189.627,       179.772,            0.,NA,NA,"",   1.00049E+06,   999.736E+03,   999.736E+03
C:/temp/Job-34.odb,Step-1,Increment      1: Step Time =    1.000,"P-34-1",           370,       178.081,       179.515,            0.,NA,NA,"",   1.00016E+06,   999.178E+03,   999.178E+03
C:/temp/Job-34.odb,Step-1,Increment      1: Step Time =    1.000,"P-34-1",           371,       167.549,       182.872,            0.,NA,NA,"",   998.563E+03,   997.651E+03,   997.651E+03
C:/temp/Job-34.odb,Step-1,Increment      1: Step Time =    1.000,"P-34-1",           372,       158.750,       178.580,            0.,NA,NA,"",   999.740E+03,   998.122E+03,   998.122E+03
C:/temp/Job-34.odb,Step-1,Increment      1: Step Time =    1.000,"P-34-1",           373,       145.631,       177.073,            0.,NA,NA,"",   999.157E+03,   997.307E+03,   997.307E+03
C:/temp/Job-34.odb,Step-1,Increment      1: Step Time =    1.000,"P-34-1",           374,       133.178,       180.283,            0.,NA,NA,"",   992.306E+03,   991.419E+03,   991.419E+03
C:/temp/Job-34.odb,Step-1,Increment      1: Step Time =    1.000,"P-34-1",           375,       124.286,       180.584,            0.,NA,NA,"",   987.974E+03,   987.890E+03,   987.890E+03
C:/temp/Job-34.odb,Step-1,Increment      1: Step Time =    1.000,"P-34-1",           376,       114.974,       180.191,            0.,NA,NA,"",   984.145E+03,   985.004E+03,   985.004E+03
C:/temp/Job-34.odb,Step-1,Increment      1: Step Time =    1.000,"P-34-1",           377,       105.329,       179.959,            0.,NA,NA,"",   980.889E+03,   982.632E+03,   982.632E+03
C:/temp/Job-34.odb,Step-1,Increment      1: Step Time =    1.000,"P-34-1",           378,       95.5760,       180.092,            0.,NA,NA,"",   979.139E+03,   981.336E+03,   981.336E+03
C:/temp/Job-34.odb,Step-1,Increment      1: Step Time =    1.000,"P-34-1",           379,       87.3449,       180.173,            0.,NA,NA,"",   979.456E+03,   981.834E+03,   981.834E+03
C:/temp/Job-34.odb,Step-1,Increment      1: Step Time =    1.000,"P-34-1",           380,       73.7325,       180.044,            0.,NA,NA,"",   984.346E+03,   986.859E+03,   986.859E+03
C:/temp/Job-34.odb,Step-1,Increment      1: Step Time =    1.000,"P-34-1",           381,       64.6479,       180.568,            0.,NA,NA,"",   988.169E+03,   991.174E+03,   991.174E+03
C:/temp/Job-34.odb,Step-1,Increment      1: Step Time =    1.000,"P-34-1",           382,       55.7507,       177.069,            0.,NA,NA,"",   1.00134E+06,   1.00770E+06,   1.00770E+06
C:/temp/Job-34.odb,Step-1,Increment      1: Step Time =    1.000,"P-34-1",           383,       39.3513,       174.940,            0.,NA,NA,"",   1.01461E+06,   1.03244E+06,   1.03244E+06
C:/temp/Job-34.odb,Step-1,Increment      1: Step Time =    1.000,"P-34-1",           384,       30.5698,       179.196,            0.,NA,NA,"",   1.02710E+06,   1.04899E+06,   1.04899E+06
C:/temp/Job-34.odb,Step-1,Increment      1: Step Time =    1.000,"P-34-1",           385,       21.3147,       178.226,            0.,NA,NA,"",   1.03302E+06,   1.07283E+06,   1.07283E+06
C:/temp/Job-34.odb,Step-1,Increment      1: Step Time =    1.000,"P-34-1",           386,       10.8860,       179.583,            0.,NA,NA,"",   1.01686E+06,   1.08621E+06,   1.08621E+06
C:/temp/Job-34.odb,Step-1,Increment      1: Step Time =    1.000,"P-34-1",           387,       189.823,       189.954,            0.,NA,NA,"",   999.770E+03,   999.527E+03,   999.527E+03
C:/temp/Job-34.odb,Step-1,Increment      1: Step Time =    1.000,"P-34-1",           388,       175.206,       190.822,            0.,NA,NA,"",   998.067E+03,   997.787E+03,   997.787E+03
C:/temp/Job-34.odb,Step-1,Increment      1: Step Time =    1.000,"P-34-1",           389,       165.835,       190.876,            0.,NA,NA,"",   996.043E+03,   995.708E+03,   995.708E+03
C:/temp/Job-34.odb,Step-1,Increment      1: Step Time =    1.000,"P-34-1",           390,       156.571,       189.760,            0.,NA,NA,"",   993.555E+03,   993.065E+03,   993.065E+03
C:/temp/Job-34.odb,Step-1,Increment      1: Step Time =    1.000,"P-34-1",           391,       147.557,       188.184,            0.,NA,NA,"",   991.034E+03,   990.361E+03,   990.361E+03
C:/temp/Job-34.odb,Step-1,Increment      1: Step Time =    1.000,"P-34-1",           392,       134.340,       189.816,            0.,NA,NA,"",   982.853E+03,   982.548E+03,   982.548E+03
C:/temp/Job-34.odb,Step-1,Increment      1: Step Time =    1.000,"P-34-1",           393,       124.702,       190.214,            0.,NA,NA,"",   976.143E+03,   976.101E+03,   976.101E+03
C:/temp/Job-34.odb,Step-1,Increment      1: Step Time =    1.000,"P-34-1",           394,       114.957,       190.160,            0.,NA,NA,"",   969.805E+03,   970.039E+03,   970.039E+03
C:/temp/Job-34.odb,Step-1,Increment      1: Step Time =    1.000,"P-34-1",           395,       105.113,       190.038,            0.,NA,NA,"",   964.411E+03,   964.894E+03,   964.894E+03
C:/temp/Job-34.odb,Step-1,Increment      1: Step Time =    1.000,"P-34-1",           396,       95.1470,       189.884,            0.,NA,NA,"",   960.969E+03,   961.559E+03,   961.559E+03
C:/temp/Job-34.odb,Step-1,Increment      1: Step Time =    1.000,"P-34-1",           397,       84.7769,       189.494,            0.,NA,NA,"",   960.131E+03,   960.834E+03,   960.834E+03
C:/temp/Job-34.odb,Step-1,Increment      1: Step Time =    1.000,"P-34-1",           398,       74.5870,       190.122,            0.,NA,NA,"",   959.693E+03,   960.335E+03,   960.335E+03
C:/temp/Job-34.odb,Step-1,Increment      1: Step Time =    1.000,"P-34-1",           399,       64.9746,       190.576,            0.,NA,NA,"",   961.504E+03,   962.174E+03,   962.174E+03
C:/temp/Job-34.odb,Step-1,Increment      1: Step Time =    1.000,"P-34-1",           400,       51.2936,       185.913,            0.,NA,NA,"",   987.269E+03,   990.518E+03,   990.518E+03
C:/temp/Job-34.odb,Step-1,Increment      1: Step Time =    1.000,"P-34-1",           401,       40.8748,       188.804,            0.,NA,NA,"",   994.543E+03,   998.908E+03,   998.908E+03
C:/temp/Job-34.odb,Step-1,Increment      1: Step Time =    1.000,"P-34-1",           402,       30.2503,       189.554,            0.,NA,NA,"",   1.02206E+06,   1.02941E+06,   1.02941E+06
C:/temp/Job-34.odb,Step-1,Increment      1: Step Time =    1.000,"P-34-1",           403,       20.2565,       189.464,            0.,NA,NA,"",   1.07340E+06,   1.08827E+06,   1.08827E+06
C:/temp/Job-34.odb,Step-1,Increment      1: Step Time =    1.000,"P-34-1",           404,       10.1146,       189.911,            0.,NA,NA,"",   1.15528E+06,   1.19557E+06,   1.19557E+06
C:/temp/Job-34.odb,Step-1,Increment      1: Step Time =    1.000,"P-34-1",           405,          195.,            0.,            0.,NA,NA,"",   999.982E+03,   999.966E+03,   999.966E+03
C:/temp/Job-34.odb,Step-1,Increment      1: Step Time =    1.000,"P-34-1",           406,          185.,            0.,            0.,NA,NA,"",   999.428E+03,   999.390E+03,   999.390E+03
C:/temp/Job-34.odb,Step-1,Increment      1: Step Time =    1.000,"P-34-1",           407,          175.,            0.,            0.,NA,NA,"",   997.718E+03,   997.676E+03,   997.676E+03
C:/temp/Job-34.odb,Step-1,Increment      1: Step Time =    1.000,"P-34-1",           408,          165.,            0.,            0.,NA,NA,"",   994.643E+03,   994.597E+03,   994.597E+03
C:/temp/Job-34.odb,Step-1,Increment      1: Step Time =    1.000,"P-34-1",           409,          155.,            0.,            0.,NA,NA,"",   990.115E+03,   990.066E+03,   990.066E+03
C:/temp/Job-34.odb,Step-1,Increment      1: Step Time =    1.000,"P-34-1",           410,          145.,            0.,            0.,NA,NA,"",   983.668E+03,   983.625E+03,   983.625E+03
C:/temp/Job-34.odb,Step-1,Increment      1: Step Time =    1.000,"P-34-1",           411,          135.,            0.,            0.,NA,NA,"",   975.788E+03,   975.744E+03,   975.744E+03
C:/temp/Job-34.odb,Step-1,Increment      1: Step Time =    1.000,"P-34-1",           412,          125.,            0.,            0.,NA,NA,"",   966.896E+03,   966.878E+03,   966.878E+03
C:/temp/Job-34.odb,Step-1,Increment      1: Step Time =    1.000,"P-34-1",           413,          115.,            0.,            0.,NA,NA,"",   957.889E+03,   957.915E+03,   957.915E+03
C:/temp/Job-34.odb,Step-1,Increment      1: Step Time =    1.000,"P-34-1",           414,          105.,            0.,            0.,NA,NA,"",    949.85E+03,   949.913E+03,   949.913E+03
C:/temp/Job-34.odb,Step-1,Increment      1: Step Time =    1.000,"P-34-1",           415,           95.,            0.,            0.,NA,NA,"",   943.619E+03,   943.690E+03,   943.690E+03
C:/temp/Job-34.odb,Step-1,Increment      1: Step Time =    1.000,"P-34-1",           416,           85.,            0.,            0.,NA,NA,"",   939.561E+03,   939.635E+03,   939.635E+03
C:/temp/Job-34.odb,Step-1,Increment      1: Step Time =    1.000,"P-34-1",           417,           75.,            0.,            0.,NA,NA,"",   937.818E+03,   937.918E+03,   937.918E+03
C:/temp/Job-34.odb,Step-1,Increment      1: Step Time =    1.000,"P-34-1",           418,           65.,            0.,            0.,NA,NA,"",   939.234E+03,   939.488E+03,   939.488E+03
C:/temp/Job-34.odb,Step-1,Increment      1: Step Time =    1.000,"P-34-1",           419,           55.,            0.,            0.,NA,NA,"",   944.552E+03,   944.429E+03,   944.429E+03
C:/temp/Job-34.odb,Step-1,Increment      1: Step Time =    1.000,"P-34-1",           420,           45.,            0.,            0.,NA,NA,"",   948.950E+03,   949.575E+03,   949.575E+03
C:/temp/Job-34.odb,Step-1,Increment      1: Step Time =    1.000,"P-34-1",           421,           35.,            0.,            0.,NA,NA,"",   963.180E+03,   963.880E+03,   963.880E+03
C:/temp/Job-34.odb,Step-1,Increment      1: Step Time =    1.000,"P-34-1",           422,           25.,            0.,            0.,NA,NA,"",   1.00066E+06,   1.00222E+06,   1.00222E+06
C:/temp/Job-34.odb,Step-1,Increment      1: Step Time =    1.000,"P-34-1",           423,           15.,            0.,            0.,NA,NA,"",   1.08701E+06,   1.09260E+06,   1.09260E+06
C:/temp/Job-34.odb,Step-1,Increment      1: Step Time =    1.000,"P-34-1",           424,            5.,            0.,            0.,NA,NA,"",   1.38708E+06,   1.41887E+06,   1.41887E+06
C:/temp/Job-34.odb,Step-1,Increment      1: Step Time =    1.000,"P-34-1",           425,          200.,          195.,            0.,NA,NA,"",   999.988E+03,   999.974E+03,   999.974E+03
C:/temp/Job-34.odb,Step-1,Increment      1: Step Time =    1.000,"P-34-1",           426,          200.,          185.,            0.,NA,NA,"",   1.00020E+06,   999.945E+03,   999.945E+03
C:/temp/Job-34.odb,Step-1,Increment      1: Step Time =    1.000,"P-34-1",           427,          200.,          175.,            0.,NA,NA,"",   1.00086E+06,   999.982E+03,   999.982E+03
C:/temp/Job-34.odb,Step-1,Increment      1: Step Time =    1.000,"P-34-1",           428,          200.,          165.,            0.,NA,NA,"",   1.00161E+06,   1.00004E+06,   1.00004E+06
C:/temp/Job-34.odb,Step-1,Increment      1: Step Time =    1.000,"P-34-1",           429,          200.,          155.,            0.,NA,NA,"",   1.00199E+06,   1.00007E+06,   1.00007E+06
C:/temp/Job-34.odb,Step-1,Increment      1: Step Time =    1.000,"P-34-1",           430,          200.,          145.,            0.,NA,NA,"",   1.00171E+06,   1.00008E+06,   1.00008E+06
C:/temp/Job-34.odb,Step-1,Increment      1: Step Time =    1.000,"P-34-1",           431,          200.,          135.,            0.,NA,NA,"",   1.00071E+06,   1.00008E+06,   1.00008E+06
C:/temp/Job-34.odb,Step-1,Increment      1: Step Time =    1.000,"P-34-1",           432,          200.,          125.,            0.,NA,NA,"",   999.168E+03,   1.00001E+06,   1.00001E+06
C:/temp/Job-34.odb,Step-1,Increment      1: Step Time =    1.000,"P-34-1",           433,          200.,          115.,            0.,NA,NA,"",   997.650E+03,   999.904E+03,   999.904E+03
C:/temp/Job-34.odb,Step-1,Increment      1: Step Time =    1.000,"P-34-1",           434,          200.,          105.,            0.,NA,NA,"",   996.723E+03,   999.859E+03,   999.859E+03
C:/temp/Job-34.odb,Step-1,Increment      1: Step Time =    1.000,"P-34-1",           435,          200.,           95.,            0.,NA,NA,"",   996.812E+03,   999.903E+03,   999.903E+03
C:/temp/Job-34.odb,Step-1,Increment      1: Step Time =    1.000,"P-34-1",           436,          200.,           85.,            0.,NA,NA,"",   997.844E+03,   999.973E+03,   999.973E+03
C:/temp/Job-34.odb,Step-1,Increment      1: Step Time =    1.000,"P-34-1",           437,          200.,           75.,            0.,NA,NA,"",   999.377E+03,   1.00001E+06,   1.00001E+06
C:/temp/Job-34.odb,Step-1,Increment      1: Step Time =    1.000,"P-34-1",           438,          200.,           65.,            0.,NA,NA,"",   1.00094E+06,   1.00006E+06,   1.00006E+06
C:/temp/Job-34.odb,Step-1,Increment      1: Step Time =    1.000,"P-34-1",           439,          200.,           55.,            0.,NA,NA,"",   1.00196E+06,   1.00011E+06,   1.00011E+06
C:/temp/Job-34.odb,Step-1,Increment      1: Step Time =    1.000,"P-34-1",           440,          200.,           45.,            0.,NA,NA,"",   1.00220E+06,   1.00007E+06,   1.00007E+06
C:/temp/Job-34.odb,Step-1,Increment      1: Step Time =    1.000,"P-34-1",           441,          200.,           35.,            0.,NA,NA,"",   1.00173E+06,   1.00003E+06,   1.00003E+06
C:/temp/Job-34.odb,Step-1,Increment      1: Step Time =    1.000,"P-34-1",           442,          200.,           25.,            0.,NA,NA,"",   1.00092E+06,   999.990E+03,   999.990E+03
C:/temp/Job-34.odb,Step-1,Increment      1: Step Time =    1.000,"P-34-1",           443,          200.,           15.,            0.,NA,NA,"",   1.00022E+06,   999.952E+03,   999.952E+03
C:/temp/Job-34.odb,Step-1,Increment      1: Step Time =    1.000,"P-34-1",           444,          200.,            5.,            0.,NA,NA,"",   999.987E+03,   999.971E+03,   999.971E+03
C:/temp/Job-34.odb,Step-1,Increment      1: Step Time =    1.000,"P-34-1",           445,            5.,          200.,            0.,NA,NA,"",   1.38686E+06,   1.41890E+06,   1.41890E+06
C:/temp/Job-34.odb,Step-1,Increment      1: Step Time =    1.000,"P-34-1",           446,           15.,          200.,            0.,NA,NA,"",   1.08875E+06,   1.09424E+06,   1.09424E+06
C:/temp/Job-34.odb,Step-1,Increment      1: Step Time =    1.000,"P-34-1",           447,           25.,          200.,            0.,NA,NA,"",   1.00371E+06,   1.00551E+06,   1.00551E+06
C:/temp/Job-34.odb,Step-1,Increment      1: Step Time =    1.000,"P-34-1",           448,           35.,          200.,            0.,NA,NA,"",   965.670E+03,   966.600E+03,   966.600E+03
C:/temp/Job-34.odb,Step-1,Increment      1: Step Time =    1.000,"P-34-1",           449,           45.,          200.,            0.,NA,NA,"",   948.516E+03,   948.905E+03,   948.905E+03
C:/temp/Job-34.odb,Step-1,Increment      1: Step Time =    1.000,"P-34-1",           450,           55.,          200.,            0.,NA,NA,"",   940.104E+03,   940.315E+03,   940.315E+03
C:/temp/Job-34.odb,Step-1,Increment      1: Step Time =    1.000,"P-34-1",           451,           65.,          200.,            0.,NA,NA,"",   937.308E+03,   937.411E+03,   937.411E+03
C:/temp/Job-34.odb,Step-1,Increment      1: Step Time =    1.000,"P-34-1",           452,           75.,          200.,            0.,NA,NA,"",   937.274E+03,   937.373E+03,   937.373E+03
C:/temp/Job-34.odb,Step-1,Increment      1: Step Time =    1.000,"P-34-1",           453,           85.,          200.,            0.,NA,NA,"",   939.534E+03,   939.577E+03,   939.577E+03
C:/temp/Job-34.odb,Step-1,Increment      1: Step Time =    1.000,"P-34-1",           454,           95.,          200.,            0.,NA,NA,"",   943.662E+03,   943.736E+03,   943.736E+03
C:/temp/Job-34.odb,Step-1,Increment      1: Step Time =    1.000,"P-34-1",           455,          105.,          200.,            0.,NA,NA,"",   949.976E+03,   950.041E+03,   950.041E+03
C:/temp/Job-34.odb,Step-1,Increment      1: Step Time =    1.000,"P-34-1",           456,          115.,          200.,            0.,NA,NA,"",   958.054E+03,   958.094E+03,   958.094E+03
C:/temp/Job-34.odb,Step-1,Increment      1: Step Time =    1.000,"P-34-1",           457,          125.,          200.,            0.,NA,NA,"",   967.206E+03,   967.215E+03,   967.215E+03
C:/temp/Job-34.odb,Step-1,Increment      1: Step Time =    1.000,"P-34-1",           458,          135.,          200.,            0.,NA,NA,"",   976.373E+03,   976.388E+03,   976.388E+03
C:/temp/Job-34.odb,Step-1,Increment      1: Step Time =    1.000,"P-34-1",           459,          145.,          200.,            0.,NA,NA,"",   984.526E+03,   984.423E+03,   984.423E+03
C:/temp/Job-34.odb,Step-1,Increment      1: Step Time =    1.000,"P-34-1",           460,          155.,          200.,            0.,NA,NA,"",   990.697E+03,   990.606E+03,   990.606E+03
C:/temp/Job-34.odb,Step-1,Increment      1: Step Time =    1.000,"P-34-1",           461,          165.,          200.,            0.,NA,NA,"",   995.121E+03,   995.069E+03,   995.069E+03
C:/temp/Job-34.odb,Step-1,Increment      1: Step Time =    1.000,"P-34-1",           462,          175.,          200.,            0.,NA,NA,"",   997.990E+03,   997.956E+03,   997.956E+03
C:/temp/Job-34.odb,Step-1,Increment      1: Step Time =    1.000,"P-34-1",           463,          185.,          200.,            0.,NA,NA,"",   999.516E+03,   999.488E+03,   999.488E+03
C:/temp/Job-34.odb,Step-1,Increment      1: Step Time =    1.000,"P-34-1",           464,          195.,          200.,            0.,NA,NA,"",   999.987E+03,   999.975E+03,   999.975E+03
C:/temp/Job-34.odb,Step-1,Increment      1: Step Time =    1.000,"P-34-1",           465,            0.,            5.,            0.,NA,NA,"",   1.34078E+06,   1.42426E+06,   1.42426E+06
C:/temp/Job-34.odb,Step-1,Increment      1: Step Time =    1.000,"P-34-1",           466,            0.,           15.,            0.,NA,NA,"",   1.02381E+06,   1.12217E+06,   1.12217E+06
C:/temp/Job-34.odb,Step-1,Increment      1: Step Time =    1.000,"P-34-1",           467,            0.,           25.,            0.,NA,NA,"",   938.133E+03,   1.03909E+06,   1.03909E+06
C:/temp/Job-34.odb,Step-1,Increment      1: Step Time =    1.000,"P-34-1",           468,            0.,           35.,            0.,NA,NA,"",   893.264E+03,   995.954E+03,   995.954E+03
C:/temp/Job-34.odb,Step-1,Increment      1: Step Time =    1.000,"P-34-1",           469,            0.,           45.,            0.,NA,NA,"",   867.164E+03,   970.520E+03,   970.520E+03
C:/temp/Job-34.odb,Step-1,Increment      1: Step Time =    1.000,"P-34-1",           470,            0.,           55.,            0.,NA,NA,"",   848.772E+03,   952.651E+03,   952.651E+03
C:/temp/Job-34.odb,Step-1,Increment      1: Step Time =    1.000,"P-34-1",           471,            0.,           65.,            0.,NA,NA,"",   834.832E+03,   939.063E+03,   939.063E+03
C:/temp/Job-34.odb,Step-1,Increment      1: Step Time =    1.000,"P-34-1",           472,            0.,           75.,            0.,NA,NA,"",   825.007E+03,   929.237E+03,   929.237E+03
C:/temp/Job-34.odb,Step-1,Increment      1: Step Time =    1.000,"P-34-1",           473,            0.,           85.,            0.,NA,NA,"",   818.427E+03,   922.544E+03,   922.544E+03
C:/temp/Job-34.odb,Step-1,Increment      1: Step Time =    1.000,"P-34-1",           474,            0.,           95.,            0.,NA,NA,"",   815.170E+03,   919.199E+03,   919.199E+03
C:/temp/Job-34.odb,Step-1,Increment      1: Step Time =    1.000,"P-34-1",           475,            0.,          105.,            0.,NA,NA,"",   815.211E+03,   919.254E+03,   919.254E+03
C:/temp/Job-34.odb,Step-1,Increment      1: Step Time =    1.000,"P-34-1",           476,            0.,          115.,            0.,NA,NA,"",   818.490E+03,   922.659E+03,   922.659E+03
C:/temp/Job-34.odb,Step-1,Increment      1: Step Time =    1.000,"P-34-1",           477,            0.,          125.,            0.,NA,NA,"",   825.050E+03,   929.328E+03,   929.328E+03
C:/temp/Job-34.odb,Step-1,Increment      1: Step Time =    1.000,"P-34-1",           478,            0.,          135.,            0.,NA,NA,"",   835.802E+03,   939.771E+03,   939.771E+03
C:/temp/Job-34.odb,Step-1,Increment      1: Step Time =    1.000,"P-34-1",           479,            0.,          145.,            0.,NA,NA,"",   852.018E+03,   954.559E+03,   954.559E+03
C:/temp/Job-34.odb,Step-1,Increment      1: Step Time =    1.000,"P-34-1",           480,            0.,          155.,            0.,NA,NA,"",   868.481E+03,   971.944E+03,   971.944E+03
C:/temp/Job-34.odb,Step-1,Increment      1: Step Time =    1.000,"P-34-1",           481,            0.,          165.,            0.,NA,NA,"",   893.733E+03,   996.730E+03,   996.730E+03
C:/temp/Job-34.odb,Step-1,Increment      1: Step Time =    1.000,"P-34-1",           482,            0.,          175.,            0.,NA,NA,"",   937.972E+03,   1.03919E+06,   1.03919E+06
C:/temp/Job-34.odb,Step-1,Increment      1: Step Time =    1.000,"P-34-1",           483,            0.,          185.,            0.,NA,NA,"",   1.02391E+06,   1.12258E+06,   1.12258E+06
C:/temp/Job-34.odb,Step-1,Increment      1: Step Time =    1.000,"P-34-1",           484,            0.,          195.,            0.,NA,NA,"",   1.34082E+06,   1.42439E+06,   1.42439E+06
C:/temp/Job-34.odb,Step-1,Increment      1: Step Time =    1.000,"P-34-1",           485,       97.5387,       112.408,            0.,NA,NA,"",   1.30278E+06,   1.40325E+06,   1.40325E+06
C:/temp/Job-34.odb,Step-1,Increment      1: Step Time =    1.000,"P-34-1",           486,       88.7291,       107.095,            0.,NA,NA,"",   1.00840E+06,   930.487E+03,   930.487E+03
C:/temp/Job-34.odb,Step-1,Increment      1: Step Time =    1.000,"P-34-1",           487,       101.500,       87.7811,            0.,NA,NA,"",   1.34613E+06,   1.44988E+06,   1.44988E+06
C:/temp/Job-34.odb,Step-1,Increment      1: Step Time =    1.000,"P-34-1",           488,       112.285,       98.6514,            0.,NA,NA,"",   609.794E+03,   533.193E+03,   533.193E+03
C:/temp/Job-34.odb,Step-1,Increment      1: Step Time =    1.000,"P-34-1",           489,       110.503,       105.552,            0.,NA,NA,"",   939.385E+03,   831.766E+03,   831.766E+03
C:/temp/Job-34.odb,Step-1,Increment      1: Step Time =    1.000,"P-34-1",           490,       87.6600,       95.5081,            0.,NA,NA,"",   787.454E+03,   719.351E+03,   719.351E+03
C:/temp/Job-34.odb,Step-1,Increment      1: Step Time =    1.000,"P-34-1",           491,       103.841,       111.167,            0.,NA,NA,"",   1.38776E+06,   1.44495E+06,   1.44495E+06
C:/temp/Job-34.odb,Step-1,Increment      1: Step Time =    1.000,"P-34-1",           492,       106.257,       91.3071,            0.,NA,NA,"",   1.31851E+06,   1.30635E+06,   1.30635E+06
C:/temp/Job-34.odb,Step-1,Increment      1: Step Time =    1.000,"P-34-1",           493,       195.120,       15.0126,            0.,NA,NA,"",   1.00021E+06,   999.849E+03,   999.849E+03
C:/temp/Job-34.odb,Step-1,Increment      1: Step Time =    1.000,"P-34-1",           494,       195.406,       24.8008,            0.,NA,NA,"",   1.00095E+06,   999.969E+03,   999.969E+03
C:/temp/Job-34.odb,Step-1,Increment      1: Step Time =    1.000,"P-34-1",           495,       35.2541,       194.681,            0.,NA,NA,"",   981.693E+03,   983.543E+03,   983.543E+03
C:/temp/Job-34.odb,Step-1,Increment      1: Step Time =    1.000,"P-34-1",           496,       25.1378,       194.770,            0.,NA,NA,"",   1.02145E+06,   1.02505E+06,   1.02505E+06
C:/temp/Job-34.odb,Step-1,Increment      1: Step Time =    1.000,"P-34-1",           497,       15.1316,       194.862,            0.,NA,NA,"",   1.10384E+06,   1.11342E+06,   1.11342E+06
C:/temp/Job-34.odb,Step-1,Increment      1: Step Time =    1.000,"P-34-1",           498,       15.2142,       5.01843,            0.,NA,NA,"",   1.10239E+06,   1.11169E+06,   1.11169E+06
C:/temp/Job-34.odb,Step-1,Increment      1: Step Time =    1.000,"P-34-1",           499,       25.3542,       4.50680,            0.,NA,NA,"",   1.01519E+06,   1.01818E+06,   1.01818E+06
C:/temp/Job-34.odb,Step-1,Increment      1: Step Time =    1.000,"P-34-1",           500,       5.20175,       10.0950,            0.,NA,NA,"",   1.13871E+06,   1.21336E+06,   1.21336E+06
C:/temp/Job-34.odb,Step-1,Increment      1: Step Time =    1.000,"P-34-1",           501,       5.44826,       20.3676,            0.,NA,NA,"",   989.057E+03,   1.07894E+06,   1.07894E+06
C:/temp/Job-34.odb,Step-1,Increment      1: Step Time =    1.000,"P-34-1",           502,       4.80641,       30.4147,            0.,NA,NA,"",   922.856E+03,   1.01968E+06,   1.01968E+06
C:/temp/Job-34.odb,Step-1,Increment      1: Step Time =    1.000,"P-34-1",           503,       5.06371,       40.4033,            0.,NA,NA,"",   888.847E+03,   987.658E+03,   987.658E+03
C:/temp/Job-34.odb,Step-1,Increment      1: Step Time =    1.000,"P-34-1",           504,       5.05704,       194.952,            0.,NA,NA,"",   1.29961E+06,   1.34901E+06,   1.34901E+06
C:/temp/Job-34.odb,Step-1,Increment      1: Step Time =    1.000,"P-34-1",           505,       35.1057,       4.31463,            0.,NA,NA,"",   976.390E+03,   977.695E+03,   977.695E+03
C:/temp/Job-34.odb,Step-1,Increment      1: Step Time =    1.000,"P-34-1",           506,       44.6102,       4.83021,            0.,NA,NA,"",     961.2E+03,   962.050E+03,   962.050E+03
C:/temp/Job-34.odb,Step-1,Increment      1: Step Time =    1.000,"P-34-1",           507,       54.8715,       7.37537,            0.,NA,NA,"",   960.874E+03,   961.319E+03,   961.319E+03
C:/temp/Job-34.odb,Step-1,Increment      1: Step Time =    1.000,"P-34-1",           508,       65.5497,       5.16932,            0.,NA,NA,"",   947.181E+03,   947.604E+03,   947.604E+03
C:/temp/Job-34.odb,Step-1,Increment      1: Step Time =    1.000,"P-34-1",           509,       75.3668,       4.67969,            0.,NA,NA,"",   944.829E+03,   945.037E+03,   945.037E+03
C:/temp/Job-34.odb,Step-1,Increment      1: Step Time =    1.000,"P-34-1",           510,       85.1929,       4.75769,            0.,NA,NA,"",   945.983E+03,   946.183E+03,   946.183E+03
C:/temp/Job-34.odb,Step-1,Increment      1: Step Time =    1.000,"P-34-1",           511,       95.0937,       4.90136,            0.,NA,NA,"",   949.468E+03,   949.667E+03,   949.667E+03
C:/temp/Job-34.odb,Step-1,Increment      1: Step Time =    1.000,"P-34-1",           512,       105.024,       4.96321,            0.,NA,NA,"",   954.890E+03,   955.055E+03,   955.055E+03
C:/temp/Job-34.odb,Step-1,Increment      1: Step Time =    1.000,"P-34-1",           513,       114.967,       4.95303,            0.,NA,NA,"",   961.945E+03,   962.023E+03,   962.023E+03
C:/temp/Job-34.odb,Step-1,Increment      1: Step Time =    1.000,"P-34-1",           514,       124.951,       4.88839,            0.,NA,NA,"",   969.931E+03,   969.907E+03,   969.907E+03
C:/temp/Job-34.odb,Step-1,Increment      1: Step Time =    1.000,"P-34-1",           515,       134.939,       4.79348,            0.,NA,NA,"",   977.870E+03,   977.769E+03,   977.769E+03
C:/temp/Job-34.odb,Step-1,Increment      1: Step Time =    1.000,"P-34-1",           516,       144.761,       4.63913,            0.,NA,NA,"",   984.835E+03,   984.706E+03,   984.706E+03
C:/temp/Job-34.odb,Step-1,Increment      1: Step Time =    1.000,"P-34-1",           517,       154.602,       4.88543,            0.,NA,NA,"",   990.671E+03,   990.521E+03,   990.521E+03
C:/temp/Job-34.odb,Step-1,Increment      1: Step Time =    1.000,"P-34-1",           518,       164.705,       5.29952,            0.,NA,NA,"",   994.942E+03,   994.780E+03,   994.780E+03
C:/temp/Job-34.odb,Step-1,Increment      1: Step Time =    1.000,"P-34-1",           519,       174.849,       5.20364,            0.,NA,NA,"",   997.702E+03,   997.572E+03,   997.572E+03
C:/temp/Job-34.odb,Step-1,Increment      1: Step Time =    1.000,"P-34-1",           520,       184.894,       5.16167,            0.,NA,NA,"",   999.317E+03,   999.205E+03,   999.205E+03
C:/temp/Job-34.odb,Step-1,Increment      1: Step Time =    1.000,"P-34-1",           521,       194.989,       5.03857,            0.,NA,NA,"",   999.950E+03,   999.898E+03,   999.898E+03
C:/temp/Job-34.odb,Step-1,Increment      1: Step Time =    1.000,"P-34-1",           522,       195.515,       34.5499,            0.,NA,NA,"",   1.00175E+06,   1.00009E+06,   1.00009E+06
C:/temp/Job-34.odb,Step-1,Increment      1: Step Time =    1.000,"P-34-1",           523,       45.3654,       195.014,            0.,NA,NA,"",   960.358E+03,   961.227E+03,   961.227E+03
C:/temp/Job-34.odb,Step-1,Increment      1: Step Time =    1.000,"P-34-1",           524,       195.172,       44.2678,            0.,NA,NA,"",   1.00226E+06,   1.00022E+06,   1.00022E+06
C:/temp/Job-34.odb,Step-1,Increment      1: Step Time =    1.000,"P-34-1",           525,       55.2336,       195.386,            0.,NA,NA,"",   949.514E+03,   949.932E+03,   949.932E+03
C:/temp/Job-34.odb,Step-1,Increment      1: Step Time =    1.000,"P-34-1",           526,       193.733,       54.1323,            0.,NA,NA,"",   1.00223E+06,   1.00039E+06,   1.00039E+06
C:/temp/Job-34.odb,Step-1,Increment      1: Step Time =    1.000,"P-34-1",           527,       65.0182,       195.334,            0.,NA,NA,"",   945.671E+03,    945.87E+03,    945.87E+03
C:/temp/Job-34.odb,Step-1,Increment      1: Step Time =    1.000,"P-34-1",           528,       194.947,       64.6708,            0.,NA,NA,"",   1.00118E+06,   1.00019E+06,   1.00019E+06
C:/temp/Job-34.odb,Step-1,Increment      1: Step Time =    1.000,"P-34-1",           529,       74.8640,       195.073,            0.,NA,NA,"",   945.005E+03,   945.225E+03,   945.225E+03
C:/temp/Job-34.odb,Step-1,Increment      1: Step Time =    1.000,"P-34-1",           530,       195.150,       74.6292,            0.,NA,NA,"",   999.689E+03,   1.00002E+06,   1.00002E+06
C:/temp/Job-34.odb,Step-1,Increment      1: Step Time =    1.000,"P-34-1",           531,       84.8977,       194.795,            0.,NA,NA,"",   946.547E+03,   946.745E+03,   946.745E+03
C:/temp/Job-34.odb,Step-1,Increment      1: Step Time =    1.000,"P-34-1",           532,       194.960,       84.6789,            0.,NA,NA,"",   998.169E+03,   999.823E+03,   999.823E+03
C:/temp/Job-34.odb,Step-1,Increment      1: Step Time =    1.000,"P-34-1",           533,       195.051,       94.7417,            0.,NA,NA,"",   997.151E+03,   999.665E+03,   999.665E+03
C:/temp/Job-34.odb,Step-1,Increment      1: Step Time =    1.000,"P-34-1",           534,       195.026,       104.841,            0.,NA,NA,"",   997.075E+03,   999.635E+03,   999.635E+03
C:/temp/Job-34.odb,Step-1,Increment      1: Step Time =    1.000,"P-34-1",           535,       194.821,       114.975,            0.,NA,NA,"",   998.029E+03,   999.787E+03,   999.787E+03
C:/temp/Job-34.odb,Step-1,Increment      1: Step Time =    1.000,"P-34-1",           536,       195.049,       125.044,            0.,NA,NA,"",   999.457E+03,   999.994E+03,   999.994E+03
C:/temp/Job-34.odb,Step-1,Increment      1: Step Time =    1.000,"P-34-1",           537,       195.304,       134.968,            0.,NA,NA,"",   1.00090E+06,   1.00018E+06,   1.00018E+06
C:/temp/Job-34.odb,Step-1,Increment      1: Step Time =    1.000,"P-34-1",           538,       195.373,       144.797,            0.,NA,NA,"",   1.00182E+06,   1.00023E+06,   1.00023E+06
C:/temp/Job-34.odb,Step-1,Increment      1: Step Time =    1.000,"P-34-1",           539,       194.957,       194.984,            0.,NA,NA,"",   999.951E+03,   999.905E+03,   999.905E+03
C:/temp/Job-34.odb,Step-1,Increment      1: Step Time =    1.000,"P-34-1",           540,       184.968,       195.104,            0.,NA,NA,"",   999.388E+03,   999.297E+03,   999.297E+03
C:/temp/Job-34.odb,Step-1,Increment      1: Step Time =    1.000,"P-34-1",           541,       175.174,       195.416,            0.,NA,NA,"",   997.932E+03,   997.835E+03,   997.835E+03
C:/temp/Job-34.odb,Step-1,Increment      1: Step Time =    1.000,"P-34-1",           542,       165.363,       195.405,            0.,NA,NA,"",   995.319E+03,   995.194E+03,   995.194E+03
C:/temp/Job-34.odb,Step-1,Increment      1: Step Time =    1.000,"P-34-1",           543,       155.617,       194.825,            0.,NA,NA,"",   991.494E+03,   991.300E+03,   991.300E+03
C:/temp/Job-34.odb,Step-1,Increment      1: Step Time =    1.000,"P-34-1",           544,       145.346,       193.339,            0.,NA,NA,"",   986.695E+03,   986.409E+03,   986.409E+03
C:/temp/Job-34.odb,Step-1,Increment      1: Step Time =    1.000,"P-34-1",           545,       134.789,       194.796,            0.,NA,NA,"",   978.454E+03,   978.372E+03,   978.372E+03
C:/temp/Job-34.odb,Step-1,Increment      1: Step Time =    1.000,"P-34-1",           546,       124.874,       195.094,            0.,NA,NA,"",   970.184E+03,   970.173E+03,   970.173E+03
C:/temp/Job-34.odb,Step-1,Increment      1: Step Time =    1.000,"P-34-1",           547,       114.972,       195.085,            0.,NA,NA,"",   962.058E+03,   962.139E+03,   962.139E+03
C:/temp/Job-34.odb,Step-1,Increment      1: Step Time =    1.000,"P-34-1",           548,       105.038,       195.015,            0.,NA,NA,"",   954.961E+03,   955.122E+03,   955.122E+03
C:/temp/Job-34.odb,Step-1,Increment      1: Step Time =    1.000,"P-34-1",           549,       95.0276,       194.902,            0.,NA,NA,"",   949.743E+03,   949.946E+03,   949.946E+03
C:/temp/Job-34.odb,Step-1,Increment      1: Step Time =    1.000,"P-34-1",           550,       5.16950,       184.884,            0.,NA,NA,"",   1.03996E+06,   1.12607E+06,   1.12607E+06
C:/temp/Job-34.odb,Step-1,Increment      1: Step Time =    1.000,"P-34-1",           551,       4.97119,       174.827,            0.,NA,NA,"",   950.068E+03,   1.04436E+06,   1.04436E+06
C:/temp/Job-34.odb,Step-1,Increment      1: Step Time =    1.000,"P-34-1",           552,       4.64721,       165.027,            0.,NA,NA,"",   903.805E+03,   1.00233E+06,   1.00233E+06
C:/temp/Job-34.odb,Step-1,Increment      1: Step Time =    1.000,"P-34-1",           553,       4.97759,       155.437,            0.,NA,NA,"",   878.718E+03,   978.317E+03,   978.317E+03
C:/temp/Job-34.odb,Step-1,Increment      1: Step Time =    1.000,"P-34-1",           554,       7.37356,       145.107,            0.,NA,NA,"",   865.816E+03,   963.274E+03,   963.274E+03
C:/temp/Job-34.odb,Step-1,Increment      1: Step Time =    1.000,"P-34-1",           555,       5.15934,       134.431,            0.,NA,NA,"",   842.681E+03,   944.043E+03,   944.043E+03
C:/temp/Job-34.odb,Step-1,Increment      1: Step Time =    1.000,"P-34-1",           556,       4.66135,       124.632,            0.,NA,NA,"",   831.130E+03,   933.280E+03,   933.280E+03
C:/temp/Job-34.odb,Step-1,Increment      1: Step Time =    1.000,"P-34-1",           557,       4.70211,       114.834,            0.,NA,NA,"",   824.245E+03,   926.466E+03,   926.466E+03
C:/temp/Job-34.odb,Step-1,Increment      1: Step Time =    1.000,"P-34-1",           558,       4.78814,       104.985,            0.,NA,NA,"",   820.808E+03,   922.983E+03,   922.983E+03
C:/temp/Job-34.odb,Step-1,Increment      1: Step Time =    1.000,"P-34-1",           559,       4.77118,       95.1184,            0.,NA,NA,"",   820.714E+03,   922.893E+03,   922.893E+03
C:/temp/Job-34.odb,Step-1,Increment      1: Step Time =    1.000,"P-34-1",           560,       4.68517,       85.2328,            0.,NA,NA,"",   824.107E+03,   926.303E+03,   926.303E+03
C:/temp/Job-34.odb,Step-1,Increment      1: Step Time =    1.000,"P-34-1",           561,       4.61108,       75.2832,            0.,NA,NA,"",   831.066E+03,   933.205E+03,   933.205E+03
C:/temp/Job-34.odb,Step-1,Increment      1: Step Time =    1.000,"P-34-1",           562,       4.60480,       65.3614,            0.,NA,NA,"",   841.448E+03,   943.296E+03,   943.296E+03
C:/temp/Job-34.odb,Step-1,Increment      1: Step Time =    1.000,"P-34-1",           563,       4.82922,       55.4215,            0.,NA,NA,"",   856.287E+03,   957.256E+03,   957.256E+03
C:/temp/Job-34.odb,Step-1,Increment      1: Step Time =    1.000,"P-34-1",           564,       195.069,       154.620,            0.,NA,NA,"",   1.00211E+06,   1.00025E+06,   1.00025E+06
C:/temp/Job-34.odb,Step-1,Increment      1: Step Time =    1.000,"P-34-1",           565,       194.778,       164.731,            0.,NA,NA,"",   1.00171E+06,   1.00015E+06,   1.00015E+06
C:/temp/Job-34.odb,Step-1,Increment      1: Step Time =    1.000,"P-34-1",           566,       194.853,       174.881,            0.,NA,NA,"",   1.00090E+06,   999.971E+03,   999.971E+03
C:/temp/Job-34.odb,Step-1,Increment      1: Step Time =    1.000,"P-34-1",           567,       194.851,       184.901,            0.,NA,NA,"",   1.00019E+06,   999.844E+03,   999.844E+03
C:/temp/Job-34.odb,Step-1,Increment      1: Step Time =    1.000,"P-34-1",           568,       189.952,       5.10492,            0.,NA,NA,"",   999.757E+03,   999.657E+03,   999.657E+03
C:/temp/Job-34.odb,Step-1,Increment      1: Step Time =    1.000,"P-34-1",           569,       179.866,       5.20425,            0.,NA,NA,"",   998.637E+03,   998.517E+03,   998.517E+03
C:/temp/Job-34.odb,Step-1,Increment      1: Step Time =    1.000,"P-34-1",           570,       169.814,       5.24323,            0.,NA,NA,"",   996.489E+03,   996.340E+03,   996.340E+03
C:/temp/Job-34.odb,Step-1,Increment      1: Step Time =    1.000,"P-34-1",           571,       159.587,       5.31448,            0.,NA,NA,"",   993.036E+03,   992.875E+03,   992.875E+03
C:/temp/Job-34.odb,Step-1,Increment      1: Step Time =    1.000,"P-34-1",           572,       149.640,       4.64900,            0.,NA,NA,"",   987.876E+03,   987.748E+03,   987.748E+03
C:/temp/Job-34.odb,Step-1,Increment      1: Step Time =    1.000,"P-34-1",           573,       139.885,       4.71895,            0.,NA,NA,"",   981.505E+03,   981.380E+03,   981.380E+03
C:/temp/Job-34.odb,Step-1,Increment      1: Step Time =    1.000,"P-34-1",           574,       129.953,       4.84618,            0.,NA,NA,"",   973.981E+03,   973.914E+03,   973.914E+03
C:/temp/Job-34.odb,Step-1,Increment      1: Step Time =    1.000,"P-34-1",           575,       119.956,       4.92276,            0.,NA,NA,"",   965.877E+03,   965.906E+03,   965.906E+03
C:/temp/Job-34.odb,Step-1,Increment      1: Step Time =    1.000,"P-34-1",           576,       109.992,       4.96270,            0.,NA,NA,"",   958.249E+03,   958.373E+03,   958.373E+03
C:/temp/Job-34.odb,Step-1,Increment      1: Step Time =    1.000,"P-34-1",           577,       100.061,       4.93886,            0.,NA,NA,"",   951.943E+03,   952.130E+03,   952.130E+03
C:/temp/Job-34.odb,Step-1,Increment      1: Step Time =    1.000,"P-34-1",           578,       90.1367,       4.83216,            0.,NA,NA,"",   947.482E+03,   947.681E+03,   947.681E+03
C:/temp/Job-34.odb,Step-1,Increment      1: Step Time =    1.000,"P-34-1",           579,       80.2652,       4.69101,            0.,NA,NA,"",   945.091E+03,   945.274E+03,   945.274E+03
C:/temp/Job-34.odb,Step-1,Increment      1: Step Time =    1.000,"P-34-1",           580,       70.4716,       4.80736,            0.,NA,NA,"",   945.464E+03,   945.730E+03,   945.730E+03
C:/temp/Job-34.odb,Step-1,Increment      1: Step Time =    1.000,"P-34-1",           581,       60.5399,       5.92788,            0.,NA,NA,"",   951.335E+03,   951.674E+03,   951.674E+03
C:/temp/Job-34.odb,Step-1,Increment      1: Step Time =    1.000,"P-34-1",           582,       49.3687,       5.65440,            0.,NA,NA,"",   958.660E+03,   959.349E+03,   959.349E+03
C:/temp/Job-34.odb,Step-1,Increment      1: Step Time =    1.000,"P-34-1",           583,       39.8772,       4.48318,            0.,NA,NA,"",   967.215E+03,   967.967E+03,   967.967E+03
C:/temp/Job-34.odb,Step-1,Increment      1: Step Time =    1.000,"P-34-1",           584,       30.2838,       4.28229,            0.,NA,NA,"",   991.725E+03,   993.622E+03,   993.622E+03
C:/temp/Job-34.odb,Step-1,Increment      1: Step Time =    1.000,"P-34-1",           585,       20.3352,       4.91265,            0.,NA,NA,"",   1.05184E+06,   1.05676E+06,   1.05676E+06
C:/temp/Job-34.odb,Step-1,Increment      1: Step Time =    1.000,"P-34-1",           586,       10.1374,       5.04260,            0.,NA,NA,"",   1.19430E+06,   1.20767E+06,   1.20767E+06
C:/temp/Job-34.odb,Step-1,Increment      1: Step Time =    1.000,"P-34-1",           587,       194.895,       189.948,            0.,NA,NA,"",   999.983E+03,   999.827E+03,   999.827E+03
C:/temp/Job-34.odb,Step-1,Increment      1: Step Time =    1.000,"P-34-1",           588,       194.833,       179.890,            0.,NA,NA,"",   1.00052E+06,   999.900E+03,   999.900E+03
C:/temp/Job-34.odb,Step-1,Increment      1: Step Time =    1.000,"P-34-1",           589,       194.842,       169.843,            0.,NA,NA,"",   1.00132E+06,   1.00006E+06,   1.00006E+06
C:/temp/Job-34.odb,Step-1,Increment      1: Step Time =    1.000,"P-34-1",           590,       194.732,       159.622,            0.,NA,NA,"",   1.00199E+06,   1.00022E+06,   1.00022E+06
C:/temp/Job-34.odb,Step-1,Increment      1: Step Time =    1.000,"P-34-1",           591,       195.291,       149.694,            0.,NA,NA,"",   1.00205E+06,   1.00024E+06,   1.00024E+06
C:/temp/Job-34.odb,Step-1,Increment      1: Step Time =    1.000,"P-34-1",           592,       195.366,       139.889,            0.,NA,NA,"",   1.00143E+06,   1.00020E+06,   1.00020E+06
C:/temp/Job-34.odb,Step-1,Increment      1: Step Time =    1.000,"P-34-1",           593,       195.194,       130.023,            0.,NA,NA,"",   1.00023E+06,   1.00010E+06,   1.00010E+06
C:/temp/Job-34.odb,Step-1,Increment      1: Step Time =    1.000,"P-34-1",           594,       194.894,       120.012,            0.,NA,NA,"",   998.716E+03,   999.899E+03,   999.899E+03
C:/temp/Job-34.odb,Step-1,Increment      1: Step Time =    1.000,"P-34-1",           595,       194.898,       109.922,            0.,NA,NA,"",   997.461E+03,   999.704E+03,   999.704E+03
C:/temp/Job-34.odb,Step-1,Increment      1: Step Time =    1.000,"P-34-1",           596,       195.080,       99.7806,            0.,NA,NA,"",   996.978E+03,   999.634E+03,   999.634E+03
C:/temp/Job-34.odb,Step-1,Increment      1: Step Time =    1.000,"P-34-1",           597,       194.975,       89.7033,            0.,NA,NA,"",   997.561E+03,   999.715E+03,   999.715E+03
C:/temp/Job-34.odb,Step-1,Increment      1: Step Time =    1.000,"P-34-1",           598,       195.068,       79.6633,            0.,NA,NA,"",   998.869E+03,     999.9E+03,     999.9E+03
C:/temp/Job-34.odb,Step-1,Increment      1: Step Time =    1.000,"P-34-1",           599,       195.126,       69.6279,            0.,NA,NA,"",   1.00048E+06,   1.00012E+06,   1.00012E+06
C:/temp/Job-34.odb,Step-1,Increment      1: Step Time =    1.000,"P-34-1",           600,       194.557,       59.6439,            0.,NA,NA,"",   1.00177E+06,   1.00029E+06,   1.00029E+06
C:/temp/Job-34.odb,Step-1,Increment      1: Step Time =    1.000,"P-34-1",           601,       194.712,       49.1100,            0.,NA,NA,"",   1.00232E+06,   1.00030E+06,   1.00030E+06
C:/temp/Job-34.odb,Step-1,Increment      1: Step Time =    1.000,"P-34-1",           602,       195.430,       39.3961,            0.,NA,NA,"",   1.00207E+06,   1.00016E+06,   1.00016E+06
C:/temp/Job-34.odb,Step-1,Increment      1: Step Time =    1.000,"P-34-1",           603,       195.497,       29.6990,            0.,NA,NA,"",   1.00136E+06,   1.00003E+06,   1.00003E+06
C:/temp/Job-34.odb,Step-1,Increment      1: Step Time =    1.000,"P-34-1",           604,       195.269,       19.9204,            0.,NA,NA,"",   1.00055E+06,   999.905E+03,   999.905E+03
C:/temp/Job-34.odb,Step-1,Increment      1: Step Time =    1.000,"P-34-1",           605,       195.026,       10.0503,            0.,NA,NA,"",   999.995E+03,   999.829E+03,   999.829E+03
C:/temp/Job-34.odb,Step-1,Increment      1: Step Time =    1.000,"P-34-1",           606,       10.0791,       194.921,            0.,NA,NA,"",   1.19445E+06,   1.20846E+06,   1.20846E+06
C:/temp/Job-34.odb,Step-1,Increment      1: Step Time =    1.000,"P-34-1",           607,       20.1508,       194.781,            0.,NA,NA,"",   1.05592E+06,   1.06118E+06,   1.06118E+06
C:/temp/Job-34.odb,Step-1,Increment      1: Step Time =    1.000,"P-34-1",           608,       30.1563,       194.741,            0.,NA,NA,"",   998.376E+03,   1.00092E+06,   1.00092E+06
C:/temp/Job-34.odb,Step-1,Increment      1: Step Time =    1.000,"P-34-1",           609,       40.3475,       194.635,            0.,NA,NA,"",   969.646E+03,   971.012E+03,   971.012E+03
C:/temp/Job-34.odb,Step-1,Increment      1: Step Time =    1.000,"P-34-1",           610,       50.3234,       195.273,            0.,NA,NA,"",   953.677E+03,   954.233E+03,   954.233E+03
C:/temp/Job-34.odb,Step-1,Increment      1: Step Time =    1.000,"P-34-1",           611,       60.1285,       195.392,            0.,NA,NA,"",   947.073E+03,   947.356E+03,   947.356E+03
C:/temp/Job-34.odb,Step-1,Increment      1: Step Time =    1.000,"P-34-1",           612,       69.9209,       195.223,            0.,NA,NA,"",   945.033E+03,   945.213E+03,   945.213E+03
C:/temp/Job-34.odb,Step-1,Increment      1: Step Time =    1.000,"P-34-1",           613,       79.8634,       194.906,            0.,NA,NA,"",   945.544E+03,   945.781E+03,   945.781E+03
C:/temp/Job-34.odb,Step-1,Increment      1: Step Time =    1.000,"P-34-1",           614,       89.9614,       194.825,            0.,NA,NA,"",   947.914E+03,   948.138E+03,   948.138E+03
C:/temp/Job-34.odb,Step-1,Increment      1: Step Time =    1.000,"P-34-1",           615,       100.049,       194.970,            0.,NA,NA,"",   952.091E+03,   952.260E+03,   952.260E+03
C:/temp/Job-34.odb,Step-1,Increment      1: Step Time =    1.000,"P-34-1",           616,       110.009,       195.057,            0.,NA,NA,"",   958.320E+03,   958.446E+03,   958.446E+03
C:/temp/Job-34.odb,Step-1,Increment      1: Step Time =    1.000,"P-34-1",           617,       119.927,       195.110,            0.,NA,NA,"",   966.049E+03,   966.081E+03,   966.081E+03
C:/temp/Job-34.odb,Step-1,Increment      1: Step Time =    1.000,"P-34-1",           618,       129.827,       195.007,            0.,NA,NA,"",   974.368E+03,   974.318E+03,   974.318E+03
C:/temp/Job-34.odb,Step-1,Increment      1: Step Time =    1.000,"P-34-1",           619,       139.834,       194.341,            0.,NA,NA,"",   982.506E+03,   982.364E+03,   982.364E+03
C:/temp/Job-34.odb,Step-1,Increment      1: Step Time =    1.000,"P-34-1",           620,       150.666,       194.308,            0.,NA,NA,"",    989.15E+03,   988.908E+03,   988.908E+03
C:/temp/Job-34.odb,Step-1,Increment      1: Step Time =    1.000,"P-34-1",           621,       160.475,       195.175,            0.,NA,NA,"",   993.552E+03,   993.405E+03,   993.405E+03
C:/temp/Job-34.odb,Step-1,Increment      1: Step Time =    1.000,"P-34-1",           622,       170.271,       195.494,            0.,NA,NA,"",   996.785E+03,   996.679E+03,   996.679E+03
C:/temp/Job-34.odb,Step-1,Increment      1: Step Time =    1.000,"P-34-1",           623,       180.055,       195.257,            0.,NA,NA,"",   998.781E+03,   998.688E+03,   998.688E+03
C:/temp/Job-34.odb,Step-1,Increment      1: Step Time =    1.000,"P-34-1",           624,       189.943,       195.012,            0.,NA,NA,"",   999.776E+03,   999.689E+03,   999.689E+03
C:/temp/Job-34.odb,Step-1,Increment      1: Step Time =    1.000,"P-34-1",           625,       5.36699,       15.2243,            0.,NA,NA,"",   1.03972E+06,   1.12505E+06,   1.12505E+06
C:/temp/Job-34.odb,Step-1,Increment      1: Step Time =    1.000,"P-34-1",           626,       5.05941,       25.4028,            0.,NA,NA,"",   949.416E+03,   1.04354E+06,   1.04354E+06
C:/temp/Job-34.odb,Step-1,Increment      1: Step Time =    1.000,"P-34-1",           627,       4.84514,       35.4149,            0.,NA,NA,"",   903.261E+03,   1.00147E+06,   1.00147E+06
C:/temp/Job-34.odb,Step-1,Increment      1: Step Time =    1.000,"P-34-1",           628,       5.26541,       45.4868,            0.,NA,NA,"",   876.789E+03,   976.177E+03,   976.177E+03
C:/temp/Job-34.odb,Step-1,Increment      1: Step Time =    1.000,"P-34-1",           629,       5.05862,       50.4502,            0.,NA,NA,"",   866.140E+03,   966.294E+03,   966.294E+03
C:/temp/Job-34.odb,Step-1,Increment      1: Step Time =    1.000,"P-34-1",           630,       4.67714,       60.4004,            0.,NA,NA,"",   848.214E+03,   949.731E+03,   949.731E+03
C:/temp/Job-34.odb,Step-1,Increment      1: Step Time =    1.000,"P-34-1",           631,       4.58564,       70.3127,            0.,NA,NA,"",   835.809E+03,   937.848E+03,   937.848E+03
C:/temp/Job-34.odb,Step-1,Increment      1: Step Time =    1.000,"P-34-1",           632,       4.63715,       80.2592,            0.,NA,NA,"",   827.150E+03,   929.335E+03,   929.335E+03
C:/temp/Job-34.odb,Step-1,Increment      1: Step Time =    1.000,"P-34-1",           633,       4.72083,       90.1810,            0.,NA,NA,"",   821.982E+03,   924.169E+03,   924.169E+03
C:/temp/Job-34.odb,Step-1,Increment      1: Step Time =    1.000,"P-34-1",           634,       4.78511,       100.053,            0.,NA,NA,"",   820.354E+03,   922.522E+03,   922.522E+03
C:/temp/Job-34.odb,Step-1,Increment      1: Step Time =    1.000,"P-34-1",           635,       4.74625,       109.916,            0.,NA,NA,"",   822.104E+03,   924.299E+03,   924.299E+03
C:/temp/Job-34.odb,Step-1,Increment      1: Step Time =    1.000,"P-34-1",           636,       4.65422,       119.741,            0.,NA,NA,"",   827.204E+03,   929.431E+03,   929.431E+03
C:/temp/Job-34.odb,Step-1,Increment      1: Step Time =    1.000,"P-34-1",           637,       4.79652,       129.516,            0.,NA,NA,"",   836.146E+03,   938.065E+03,   938.065E+03
C:/temp/Job-34.odb,Step-1,Increment      1: Step Time =    1.000,"P-34-1",           638,       5.91464,       139.437,            0.,NA,NA,"",   851.527E+03,   951.662E+03,   951.662E+03
C:/temp/Job-34.odb,Step-1,Increment      1: Step Time =    1.000,"P-34-1",           639,       5.72933,       150.641,            0.,NA,NA,"",   870.763E+03,   969.830E+03,   969.830E+03
C:/temp/Job-34.odb,Step-1,Increment      1: Step Time =    1.000,"P-34-1",           640,       4.72472,       160.218,            0.,NA,NA,"",   889.453E+03,   988.875E+03,   988.875E+03
C:/temp/Job-34.odb,Step-1,Increment      1: Step Time =    1.000,"P-34-1",           641,       4.72290,       169.890,            0.,NA,NA,"",   923.898E+03,   1.02073E+06,   1.02073E+06
C:/temp/Job-34.odb,Step-1,Increment      1: Step Time =    1.000,"P-34-1",           642,       5.24488,       179.834,            0.,NA,NA,"",   989.529E+03,   1.07998E+06,   1.07998E+06
C:/temp/Job-34.odb,Step-1,Increment      1: Step Time =    1.000,"P-34-1",           643,       5.09103,       189.936,            0.,NA,NA,"",   1.13862E+06,   1.21409E+06,   1.21409E+06
C:/temp/Job-34.odb,Step-1,Increment      1: Step Time =    1.000,"P-34-1",           644,       101.105,       114.687,            0.,NA,NA,"",   1.17985E+06,   1.29083E+06,   1.29083E+06
C:/temp/Job-34.odb,Step-1,Increment      1: Step Time =    1.000,"P-34-1",           645,       110.351,       93.4200,            0.,NA,NA,"",   1.02401E+06,   930.379E+03,   930.379E+03
C:/temp/Job-34.odb,Step-1,Increment      1: Step Time =    1.000,"P-34-1",           646,       92.3018,       111.307,            0.,NA,NA,"",   1.24554E+06,   1.23222E+06,   1.23222E+06
C:/temp/Job-34.odb,Step-1,Increment      1: Step Time =    1.000,"P-34-1",           647,       92.4252,       89.6894,            0.,NA,NA,"",   1.26195E+06,   1.23380E+06,   1.23380E+06
C:/temp/Job-34.odb,Step-1,Increment      1: Step Time =    1.000,"P-34-1",           648,       96.8696,       88.3077,            0.,NA,NA,"",   1.35372E+06,   1.42537E+06,   1.42537E+06
C:/temp/Job-34.odb,Step-1,Increment      1: Step Time =    1.000,"P-34-1",           649,       106.147,       87.3132,            0.,NA,NA,"",   1.28299E+06,   1.29642E+06,   1.29642E+06
C:/temp/Job-34.odb,Step-1,Increment      1: Step Time =    1.000,"P-34-1",           650,       86.7615,       99.9563,            0.,NA,NA,"",   591.937E+03,   555.760E+03,   555.760E+03
C:/temp/Job-34.odb,Step-1,Increment      1: Step Time =    1.000,"P-34-1",           651,       107.099,       108.455,            0.,NA,NA,"",   1.28887E+06,   1.22720E+06,   1.22720E+06
C:/temp/Job-34.odb,Step-1,Increment      1: Step Time =    1.000,"P-34-1",           652,       139.819,       9.56005,            0.,NA,NA,"",   985.151E+03,   984.801E+03,   984.801E+03
C:/temp/Job-34.odb,Step-1,Increment      1: Step Time =    1.000,"P-34-1",           653,       129.887,       9.70321,            0.,NA,NA,"",   979.222E+03,   979.043E+03,   979.043E+03
C:/temp/Job-34.odb,Step-1,Increment      1: Step Time =    1.000,"P-34-1",           654,       119.889,       9.85089,            0.,NA,NA,"",   972.826E+03,   972.924E+03,   972.924E+03
C:/temp/Job-34.odb,Step-1,Increment      1: Step Time =    1.000,"P-34-1",           655,       109.946,       9.96228,            0.,NA,NA,"",   966.987E+03,   967.365E+03,   967.365E+03
C:/temp/Job-34.odb,Step-1,Increment      1: Step Time =    1.000,"P-34-1",           656,       100.072,       9.92127,            0.,NA,NA,"",   962.301E+03,   962.867E+03,   962.867E+03
C:/temp/Job-34.odb,Step-1,Increment      1: Step Time =    1.000,"P-34-1",           657,       90.2059,       9.71657,            0.,NA,NA,"",   959.222E+03,   959.813E+03,   959.813E+03
C:/temp/Job-34.odb,Step-1,Increment      1: Step Time =    1.000,"P-34-1",           658,       80.4841,       9.42489,            0.,NA,NA,"",   957.880E+03,   958.446E+03,   958.446E+03
C:/temp/Job-34.odb,Step-1,Increment      1: Step Time =    1.000,"P-34-1",           659,       71.0868,       9.50062,            0.,NA,NA,"",   959.503E+03,   960.178E+03,   960.178E+03
C:/temp/Job-34.odb,Step-1,Increment      1: Step Time =    1.000,"P-34-1",           660,       62.1452,       11.1577,            0.,NA,NA,"",   968.786E+03,   969.823E+03,   969.823E+03
C:/temp/Job-34.odb,Step-1,Increment      1: Step Time =    1.000,"P-34-1",           661,       190.673,       139.805,            0.,NA,NA,"",   1.00198E+06,   1.00060E+06,   1.00060E+06
C:/temp/Job-34.odb,Step-1,Increment      1: Step Time =    1.000,"P-34-1",           662,       190.361,       130.148,            0.,NA,NA,"",   1.00086E+06,   1.00029E+06,   1.00029E+06
C:/temp/Job-34.odb,Step-1,Increment      1: Step Time =    1.000,"P-34-1",           663,       189.729,       120.137,            0.,NA,NA,"",   999.258E+03,   999.670E+03,   999.670E+03
C:/temp/Job-34.odb,Step-1,Increment      1: Step Time =    1.000,"P-34-1",           664,       189.800,       109.716,            0.,NA,NA,"",   997.819E+03,   999.110E+03,   999.110E+03
C:/temp/Job-34.odb,Step-1,Increment      1: Step Time =    1.000,"P-34-1",           665,       190.254,       99.5463,            0.,NA,NA,"",   997.331E+03,   998.998E+03,   998.998E+03
C:/temp/Job-34.odb,Step-1,Increment      1: Step Time =    1.000,"P-34-1",           666,       189.906,       89.4543,            0.,NA,NA,"",   997.998E+03,   999.203E+03,   999.203E+03
C:/temp/Job-34.odb,Step-1,Increment      1: Step Time =    1.000,"P-34-1",           667,       190.185,       79.2077,            0.,NA,NA,"",   999.502E+03,   999.782E+03,   999.782E+03
C:/temp/Job-34.odb,Step-1,Increment      1: Step Time =    1.000,"P-34-1",           668,       190.398,       69.3289,            0.,NA,NA,"",   1.00112E+06,   1.00035E+06,   1.00035E+06
C:/temp/Job-34.odb,Step-1,Increment      1: Step Time =    1.000,"P-34-1",           669,       189.566,       59.8405,            0.,NA,NA,"",   1.00246E+06,   1.00081E+06,   1.00081E+06
C:/temp/Job-34.odb,Step-1,Increment      1: Step Time =    1.000,"P-34-1",           670,       100.162,       189.982,            0.,NA,NA,"",   962.380E+03,   962.923E+03,   962.923E+03
C:/temp/Job-34.odb,Step-1,Increment      1: Step Time =    1.000,"P-34-1",           671,       110.041,       190.105,            0.,NA,NA,"",   966.955E+03,   967.325E+03,   967.325E+03
C:/temp/Job-34.odb,Step-1,Increment      1: Step Time =    1.000,"P-34-1",           672,       119.834,       190.220,            0.,NA,NA,"",   972.885E+03,   972.982E+03,   972.982E+03
C:/temp/Job-34.odb,Step-1,Increment      1: Step Time =    1.000,"P-34-1",           673,       129.526,       190.102,            0.,NA,NA,"",   979.473E+03,   979.304E+03,   979.304E+03
C:/temp/Job-34.odb,Step-1,Increment      1: Step Time =    1.000,"P-34-1",           674,       139.066,       189.263,            0.,NA,NA,"",   986.169E+03,   985.730E+03,   985.730E+03
C:/temp/Job-34.odb,Step-1,Increment      1: Step Time =    1.000,"P-34-1",           675,       9.29639,       60.9367,            0.,NA,NA,"",   862.275E+03,   958.266E+03,   958.266E+03
C:/temp/Job-34.odb,Step-1,Increment      1: Step Time =    1.000,"P-34-1",           676,       9.15259,       70.6593,            0.,NA,NA,"",   848.547E+03,   945.879E+03,   945.879E+03
C:/temp/Job-34.odb,Step-1,Increment      1: Step Time =    1.000,"P-34-1",           677,       9.24160,       80.5285,            0.,NA,NA,"",   838.967E+03,   936.890E+03,   936.890E+03
C:/temp/Job-34.odb,Step-1,Increment      1: Step Time =    1.000,"P-34-1",           678,       9.45062,       90.3597,            0.,NA,NA,"",   833.355E+03,   931.495E+03,   931.495E+03
C:/temp/Job-34.odb,Step-1,Increment      1: Step Time =    1.000,"P-34-1",           679,       9.62211,       100.117,            0.,NA,NA,"",   831.758E+03,   929.893E+03,   929.893E+03
C:/temp/Job-34.odb,Step-1,Increment      1: Step Time =    1.000,"P-34-1",           680,       9.56127,       109.870,            0.,NA,NA,"",    833.79E+03,   931.847E+03,   931.847E+03
C:/temp/Job-34.odb,Step-1,Increment      1: Step Time =    1.000,"P-34-1",           681,       9.37192,       119.502,            0.,NA,NA,"",   839.297E+03,   937.182E+03,   937.182E+03
C:/temp/Job-34.odb,Step-1,Increment      1: Step Time =    1.000,"P-34-1",           682,       9.49036,       128.876,            0.,NA,NA,"",   848.965E+03,   946.025E+03,   946.025E+03
C:/temp/Job-34.odb,Step-1,Increment      1: Step Time =    1.000,"P-34-1",           683,       11.1236,       137.799,            0.,NA,NA,"",   866.384E+03,   960.185E+03,   960.185E+03
C:/temp/Job-34.odb,Step-1,Increment      1: Step Time =    1.000,"P-34-1",           684,       60.2473,       190.703,            0.,NA,NA,"",   963.714E+03,   964.569E+03,   964.569E+03
C:/temp/Job-34.odb,Step-1,Increment      1: Step Time =    1.000,"P-34-1",           685,       69.7447,       190.376,            0.,NA,NA,"",   960.232E+03,   960.837E+03,   960.837E+03
C:/temp/Job-34.odb,Step-1,Increment      1: Step Time =    1.000,"P-34-1",           686,       79.6073,       189.785,            0.,NA,NA,"",   959.780E+03,    960.48E+03,    960.48E+03
C:/temp/Job-34.odb,Step-1,Increment      1: Step Time =    1.000,"P-34-1",           687,       90.0178,       189.704,            0.,NA,NA,"",   960.329E+03,   960.982E+03,   960.982E+03
C:/temp/Job-34.odb,Step-1,Increment      1: Step Time =    1.000,"P-34-1",           688,       9.33296,       165.066,            0.,NA,NA,"",   925.072E+03,   1.01392E+06,   1.01392E+06
C:/temp/Job-34.odb,Step-1,Increment      1: Step Time =    1.000,"P-34-1",           689,       164.570,       10.5726,            0.,NA,NA,"",   995.871E+03,   995.425E+03,   995.425E+03
C:/temp/Job-34.odb,Step-1,Increment      1: Step Time =    1.000,"P-34-1",           690,       35.1213,       8.64814,            0.,NA,NA,"",   999.723E+03,   1.00332E+06,   1.00332E+06
C:/temp/Job-34.odb,Step-1,Increment      1: Step Time =    1.000,"P-34-1",           691,       10.0363,       40.5604,            0.,NA,NA,"",   908.725E+03,   998.758E+03,   998.758E+03
C:/temp/Job-34.odb,Step-1,Increment      1: Step Time =    1.000,"P-34-1",           692,       161.157,       190.367,            0.,NA,NA,"",   994.812E+03,   994.411E+03,   994.411E+03
C:/temp/Job-34.odb,Step-1,Increment      1: Step Time =    1.000,"P-34-1",           693,       189.684,       164.648,            0.,NA,NA,"",   1.00201E+06,   1.00041E+06,   1.00041E+06
C:/temp/Job-34.odb,Step-1,Increment      1: Step Time =    1.000,"P-34-1",           694,       35.3260,       189.395,            0.,NA,NA,"",   1.00665E+06,   1.01179E+06,   1.01179E+06
C:/temp/Job-34.odb,Step-1,Increment      1: Step Time =    1.000,"P-34-1",           695,       190.909,       38.6840,            0.,NA,NA,"",   1.00226E+06,   1.00043E+06,   1.00043E+06
C:/temp/Job-34.odb,Step-1,Increment      1: Step Time =    1.000,"P-34-1",           696,       60.4810,       17.6293,            0.,NA,NA,"",   988.044E+03,   991.208E+03,   991.208E+03
C:/temp/Job-34.odb,Step-1,Increment      1: Step Time =    1.000,"P-34-1",           697,       13.8144,       61.6046,            0.,NA,NA,"",   876.131E+03,   966.099E+03,   966.099E+03
C:/temp/Job-34.odb,Step-1,Increment      1: Step Time =    1.000,"P-34-1",           698,       184.588,       59.9545,            0.,NA,NA,"",   1.00359E+06,   1.00156E+06,   1.00156E+06
C:/temp/Job-34.odb,Step-1,Increment      1: Step Time =    1.000,"P-34-1",           699,       60.3266,       185.924,            0.,NA,NA,"",   978.177E+03,   980.034E+03,   980.034E+03
C:/temp/Job-34.odb,Step-1,Increment      1: Step Time =    1.000,"P-34-1",           700,       17.5407,       139.383,            0.,NA,NA,"",   890.894E+03,   974.820E+03,   974.820E+03
C:/temp/Job-34.odb,Step-1,Increment      1: Step Time =    1.000,"P-34-1",           701,       139.809,       14.5911,            0.,NA,NA,"",   989.619E+03,   988.888E+03,   988.888E+03
C:/temp/Job-34.odb,Step-1,Increment      1: Step Time =    1.000,"P-34-1",           702,       185.922,       139.770,            0.,NA,NA,"",   1.00291E+06,   1.00118E+06,   1.00118E+06
C:/temp/Job-34.odb,Step-1,Increment      1: Step Time =    1.000,"P-34-1",           703,       138.335,       184.317,            0.,NA,NA,"",   990.144E+03,   989.343E+03,   989.343E+03
C:/temp/Job-34.odb,Step-1,Increment      1: Step Time =    1.000,"P-34-1",           704,       118.961,       101.157,            0.,NA,NA,"",   710.114E+03,   722.804E+03,   722.804E+03
C:/temp/Job-34.odb,Step-1,Increment      1: Step Time =    1.000,"P-34-1",           705,       113.247,       109.662,            0.,NA,NA,"",   1.17962E+06,   1.10211E+06,   1.10211E+06
C:/temp/Job-34.odb,Step-1,Increment      1: Step Time =    1.000,"P-34-1",           706,       91.3295,       84.2859,            0.,NA,NA,"",   1.21332E+06,   1.21360E+06,   1.21360E+06
C:/temp/Job-34.odb,Step-1,Increment      1: Step Time =    1.000,"P-34-1",           707,       115.713,       87.3782,            0.,NA,NA,"",   1.12159E+06,   1.06880E+06,   1.06880E+06
C:/temp/Job-34.odb,Step-1,Increment      1: Step Time =    1.000,"P-34-1",           708,       13.9287,       165.191,            0.,NA,NA,"",   945.841E+03,   1.02386E+06,   1.02386E+06
C:/temp/Job-34.odb,Step-1,Increment      1: Step Time =    1.000,"P-34-1",           709,       164.877,       15.7232,            0.,NA,NA,"",   997.582E+03,   996.717E+03,   996.717E+03
C:/temp/Job-34.odb,Step-1,Increment      1: Step Time =    1.000,"P-34-1",           710,       34.9299,       12.8783,            0.,NA,NA,"",   1.01465E+06,   1.02212E+06,   1.02212E+06
C:/temp/Job-34.odb,Step-1,Increment      1: Step Time =    1.000,"P-34-1",           711,       14.6566,       40.1971,            0.,NA,NA,"",   928.859E+03,   1.00911E+06,   1.00911E+06
C:/temp/Job-34.odb,Step-1,Increment      1: Step Time =    1.000,"P-34-1",           712,       162.091,       185.555,            0.,NA,NA,"",   996.744E+03,   995.960E+03,   995.960E+03
C:/temp/Job-34.odb,Step-1,Increment      1: Step Time =    1.000,"P-34-1",           713,       184.840,       165.032,            0.,NA,NA,"",   1.00253E+06,   1.00078E+06,   1.00078E+06
C:/temp/Job-34.odb,Step-1,Increment      1: Step Time =    1.000,"P-34-1",           714,       34.9214,       184.268,            0.,NA,NA,"",   1.01853E+06,   1.02927E+06,   1.02927E+06
C:/temp/Job-34.odb,Step-1,Increment      1: Step Time =    1.000,"P-34-1",           715,       186.634,       37.9730,            0.,NA,NA,"",   1.00268E+06,   1.00079E+06,   1.00079E+06
C:/temp/Job-34.odb,Step-1,Increment      1: Step Time =    1.000,"P-34-1",           716,       71.6752,       14.0207,            0.,NA,NA,"",   971.847E+03,   973.038E+03,   973.038E+03
C:/temp/Job-34.odb,Step-1,Increment      1: Step Time =    1.000,"P-34-1",           717,       13.7156,       71.0446,            0.,NA,NA,"",   861.465E+03,   953.583E+03,   953.583E+03
C:/temp/Job-34.odb,Step-1,Increment      1: Step Time =    1.000,"P-34-1",           718,       129.745,       14.5267,            0.,NA,NA,"",   984.585E+03,   984.252E+03,   984.252E+03
C:/temp/Job-34.odb,Step-1,Increment      1: Step Time =    1.000,"P-34-1",           719,       14.0287,       128.246,            0.,NA,NA,"",   861.515E+03,   953.420E+03,   953.420E+03
C:/temp/Job-34.odb,Step-1,Increment      1: Step Time =    1.000,"P-34-1",           720,       185.482,       130.380,            0.,NA,NA,"",   1.00170E+06,   1.00060E+06,   1.00060E+06
C:/temp/Job-34.odb,Step-1,Increment      1: Step Time =    1.000,"P-34-1",           721,       69.4903,       185.416,            0.,NA,NA,"",   973.899E+03,   975.307E+03,   975.307E+03
C:/temp/Job-34.odb,Step-1,Increment      1: Step Time =    1.000,"P-34-1",           722,       185.822,       69.0938,            0.,NA,NA,"",   1.00194E+06,   1.00069E+06,   1.00069E+06
C:/temp/Job-34.odb,Step-1,Increment      1: Step Time =    1.000,"P-34-1",           723,       129.152,       185.290,            0.,NA,NA,"",   984.749E+03,   984.421E+03,   984.421E+03
C:/temp/Job-34.odb,Step-1,Increment      1: Step Time =    1.000,"P-34-1",           724,       13.7767,       80.8212,            0.,NA,NA,"",   850.931E+03,   944.122E+03,   944.122E+03
C:/temp/Job-34.odb,Step-1,Increment      1: Step Time =    1.000,"P-34-1",           725,       119.784,       14.7796,            0.,NA,NA,"",   979.498E+03,   979.732E+03,   979.732E+03
C:/temp/Job-34.odb,Step-1,Increment      1: Step Time =    1.000,"P-34-1",           726,       80.5947,       14.2018,            0.,NA,NA,"",   969.686E+03,   970.870E+03,   970.870E+03
C:/temp/Job-34.odb,Step-1,Increment      1: Step Time =    1.000,"P-34-1",           727,       14.1631,       119.334,            0.,NA,NA,"",   852.178E+03,   945.007E+03,   945.007E+03
C:/temp/Job-34.odb,Step-1,Increment      1: Step Time =    1.000,"P-34-1",           728,       184.617,       120.589,            0.,NA,NA,"",   999.813E+03,   999.492E+03,   999.492E+03
C:/temp/Job-34.odb,Step-1,Increment      1: Step Time =    1.000,"P-34-1",           729,       79.1043,       184.753,            0.,NA,NA,"",   972.353E+03,   973.811E+03,   973.811E+03
C:/temp/Job-34.odb,Step-1,Increment      1: Step Time =    1.000,"P-34-1",           730,       185.511,       78.4291,            0.,NA,NA,"",   999.991E+03,   999.645E+03,   999.645E+03
C:/temp/Job-34.odb,Step-1,Increment      1: Step Time =    1.000,"P-34-1",           731,       119.737,       185.327,            0.,NA,NA,"",   979.540E+03,   979.743E+03,   979.743E+03
C:/temp/Job-34.odb,Step-1,Increment      1: Step Time =    1.000,"P-34-1",           732,       14.1743,       90.5226,            0.,NA,NA,"",   845.078E+03,   938.621E+03,   938.621E+03
C:/temp/Job-34.odb,Step-1,Increment      1: Step Time =    1.000,"P-34-1",           733,       109.838,       15.0226,            0.,NA,NA,"",   975.026E+03,   975.828E+03,   975.828E+03
C:/temp/Job-34.odb,Step-1,Increment      1: Step Time =    1.000,"P-34-1",           734,       90.1832,       14.6614,            0.,NA,NA,"",   969.855E+03,   971.090E+03,   971.090E+03
C:/temp/Job-34.odb,Step-1,Increment      1: Step Time =    1.000,"P-34-1",           735,       14.4519,       109.872,            0.,NA,NA,"",   846.092E+03,   939.335E+03,   939.335E+03
C:/temp/Job-34.odb,Step-1,Increment      1: Step Time =    1.000,"P-34-1",           736,       184.819,       109.144,            0.,NA,NA,"",   997.573E+03,   998.205E+03,   998.205E+03
C:/temp/Job-34.odb,Step-1,Increment      1: Step Time =    1.000,"P-34-1",           737,       90.3651,       184.823,            0.,NA,NA,"",   970.658E+03,   971.960E+03,   971.960E+03
C:/temp/Job-34.odb,Step-1,Increment      1: Step Time =    1.000,"P-34-1",           738,       184.803,       89.4438,            0.,NA,NA,"",   997.835E+03,   998.355E+03,   998.355E+03
C:/temp/Job-34.odb,Step-1,Increment      1: Step Time =    1.000,"P-34-1",           739,       110.091,       185.119,            0.,NA,NA,"",   974.923E+03,   975.695E+03,   975.695E+03
C:/temp/Job-34.odb,Step-1,Increment      1: Step Time =    1.000,"P-34-1",           740,       81.6208,       98.8287,            0.,NA,NA,"",   732.009E+03,   761.211E+03,   761.211E+03
C:/temp/Job-34.odb,Step-1,Increment      1: Step Time =    1.000,"P-34-1",           741,       100.011,       14.9581,            0.,NA,NA,"",   971.552E+03,   972.763E+03,   972.763E+03
C:/temp/Job-34.odb,Step-1,Increment      1: Step Time =    1.000,"P-34-1",           742,       14.5170,       100.187,            0.,NA,NA,"",   843.639E+03,   937.112E+03,   937.112E+03
C:/temp/Job-34.odb,Step-1,Increment      1: Step Time =    1.000,"P-34-1",           743,       185.509,       99.3181,            0.,NA,NA,"",   997.036E+03,   998.013E+03,   998.013E+03
C:/temp/Job-34.odb,Step-1,Increment      1: Step Time =    1.000,"P-34-1",           744,       100.316,       185.014,            0.,NA,NA,"",   971.489E+03,   972.660E+03,   972.660E+03
C:/temp/Job-34.odb,Step-1,Increment      1: Step Time =    1.000,"P-34-1",           745,       13.7328,       66.3133,            0.,NA,NA,"",   867.981E+03,   959.263E+03,   959.263E+03
C:/temp/Job-34.odb,Step-1,Increment      1: Step Time =    1.000,"P-34-1",           746,       63.9788,       15.9769,            0.,NA,NA,"",   981.427E+03,   983.451E+03,   983.451E+03
C:/temp/Job-34.odb,Step-1,Increment      1: Step Time =    1.000,"P-34-1",           747,       185.308,       64.5625,            0.,NA,NA,"",   1.00284E+06,   1.00116E+06,   1.00116E+06
C:/temp/Job-34.odb,Step-1,Increment      1: Step Time =    1.000,"P-34-1",           748,       64.8853,       185.672,            0.,NA,NA,"",   975.646E+03,   977.252E+03,   977.252E+03
C:/temp/Job-34.odb,Step-1,Increment      1: Step Time =    1.000,"P-34-1",           749,       15.9357,       135.922,            0.,NA,NA,"",   878.972E+03,   966.626E+03,   966.626E+03
C:/temp/Job-34.odb,Step-1,Increment      1: Step Time =    1.000,"P-34-1",           750,       134.742,       14.5227,            0.,NA,NA,"",   987.177E+03,   986.626E+03,   986.626E+03
C:/temp/Job-34.odb,Step-1,Increment      1: Step Time =    1.000,"P-34-1",           751,       185.739,       135.107,            0.,NA,NA,"",   1.00239E+06,   1.00095E+06,   1.00095E+06
C:/temp/Job-34.odb,Step-1,Increment      1: Step Time =    1.000,"P-34-1",           752,       133.771,       184.943,            0.,NA,NA,"",   987.496E+03,   986.922E+03,   986.922E+03
C:/temp/Job-34.odb,Step-1,Increment      1: Step Time =    1.000,"P-34-1",           753,       89.8357,       79.9085,            0.,NA,NA,"",   1.09226E+06,   1.11037E+06,   1.11037E+06
C:/temp/Job-34.odb,Step-1,Increment      1: Step Time =    1.000,"P-34-1",           754,       122.210,       95.6615,            0.,NA,NA,"",   879.374E+03,   876.025E+03,   876.025E+03
C:/temp/Job-34.odb,Step-1,Increment      1: Step Time =    1.000,"P-34-1",           755,       13.8830,       169.323,            0.,NA,NA,"",   964.649E+03,   1.03901E+06,   1.03901E+06
C:/temp/Job-34.odb,Step-1,Increment      1: Step Time =    1.000,"P-34-1",           756,       169.634,       15.6861,            0.,NA,NA,"",    998.29E+03,   997.498E+03,   997.498E+03
C:/temp/Job-34.odb,Step-1,Increment      1: Step Time =    1.000,"P-34-1",           757,       17.7872,       31.8026,            0.,NA,NA,"",   974.743E+03,   1.03968E+06,   1.03968E+06
C:/temp/Job-34.odb,Step-1,Increment      1: Step Time =    1.000,"P-34-1",           758,       30.8487,       12.3906,            0.,NA,NA,"",   1.02784E+06,   1.03653E+06,   1.03653E+06
C:/temp/Job-34.odb,Step-1,Increment      1: Step Time =    1.000,"P-34-1",           759,       166.458,       186.604,            0.,NA,NA,"",   997.239E+03,   996.603E+03,   996.603E+03
C:/temp/Job-34.odb,Step-1,Increment      1: Step Time =    1.000,"P-34-1",           760,       184.878,       169.662,            0.,NA,NA,"",   1.00189E+06,   1.00040E+06,   1.00040E+06
C:/temp/Job-34.odb,Step-1,Increment      1: Step Time =    1.000,"P-34-1",           761,       186.426,       33.7474,            0.,NA,NA,"",   1.00217E+06,   1.00049E+06,   1.00049E+06
C:/temp/Job-34.odb,Step-1,Increment      1: Step Time =    1.000,"P-34-1",           762,       30.2909,       184.342,            0.,NA,NA,"",   1.03070E+06,   1.04453E+06,   1.04453E+06
C:/temp/Job-34.odb,Step-1,Increment      1: Step Time =    1.000,"P-34-1",           763,       13.7169,       75.9311,            0.,NA,NA,"",   855.765E+03,   948.485E+03,   948.485E+03
C:/temp/Job-34.odb,Step-1,Increment      1: Step Time =    1.000,"P-34-1",           764,       14.0316,       123.892,            0.,NA,NA,"",   856.385E+03,   948.890E+03,   948.890E+03
C:/temp/Job-34.odb,Step-1,Increment      1: Step Time =    1.000,"P-34-1",           765,       76.0162,       14.0312,            0.,NA,NA,"",   970.319E+03,   971.485E+03,   971.485E+03
C:/temp/Job-34.odb,Step-1,Increment      1: Step Time =    1.000,"P-34-1",           766,       124.743,       14.6272,            0.,NA,NA,"",   982.001E+03,   981.933E+03,   981.933E+03
C:/temp/Job-34.odb,Step-1,Increment      1: Step Time =    1.000,"P-34-1",           767,       185.135,       125.613,            0.,NA,NA,"",   1.00085E+06,   1.00014E+06,   1.00014E+06
C:/temp/Job-34.odb,Step-1,Increment      1: Step Time =    1.000,"P-34-1",           768,       124.454,       185.383,            0.,NA,NA,"",   982.061E+03,   981.997E+03,   981.997E+03
C:/temp/Job-34.odb,Step-1,Increment      1: Step Time =    1.000,"P-34-1",           769,       185.890,       73.7427,            0.,NA,NA,"",   1.00098E+06,   1.00019E+06,   1.00019E+06
C:/temp/Job-34.odb,Step-1,Increment      1: Step Time =    1.000,"P-34-1",           770,       74.1975,       185.150,            0.,NA,NA,"",   972.665E+03,   974.043E+03,   974.043E+03
C:/temp/Job-34.odb,Step-1,Increment      1: Step Time =    1.000,"P-34-1",           771,       85.3357,       14.4329,            0.,NA,NA,"",   969.566E+03,   970.764E+03,   970.764E+03
C:/temp/Job-34.odb,Step-1,Increment      1: Step Time =    1.000,"P-34-1",           772,       14.3174,       114.642,            0.,NA,NA,"",   848.748E+03,   941.810E+03,   941.810E+03
C:/temp/Job-34.odb,Step-1,Increment      1: Step Time =    1.000,"P-34-1",           773,       13.9323,       85.7228,            0.,NA,NA,"",   847.354E+03,   940.813E+03,   940.813E+03
C:/temp/Job-34.odb,Step-1,Increment      1: Step Time =    1.000,"P-34-1",           774,       114.779,       14.9291,            0.,NA,NA,"",   977.160E+03,   977.688E+03,   977.688E+03
C:/temp/Job-34.odb,Step-1,Increment      1: Step Time =    1.000,"P-34-1",           775,       184.011,       83.7639,            0.,NA,NA,"",   998.892E+03,   998.860E+03,   998.860E+03
C:/temp/Job-34.odb,Step-1,Increment      1: Step Time =    1.000,"P-34-1",           776,       114.930,       185.222,            0.,NA,NA,"",   977.130E+03,   977.624E+03,   977.624E+03
C:/temp/Job-34.odb,Step-1,Increment      1: Step Time =    1.000,"P-34-1",           777,       183.400,       114.820,            0.,NA,NA,"",   998.466E+03,   998.549E+03,   998.549E+03
C:/temp/Job-34.odb,Step-1,Increment      1: Step Time =    1.000,"P-34-1",           778,       84.7231,       183.745,            0.,NA,NA,"",   973.478E+03,   975.098E+03,   975.098E+03
C:/temp/Job-34.odb,Step-1,Increment      1: Step Time =    1.000,"P-34-1",           779,       80.0576,       103.040,            0.,NA,NA,"",   756.850E+03,   784.679E+03,   784.679E+03
C:/temp/Job-34.odb,Step-1,Increment      1: Step Time =    1.000,"P-34-1",           780,       95.0669,       14.8368,            0.,NA,NA,"",   970.479E+03,   971.744E+03,   971.744E+03
C:/temp/Job-34.odb,Step-1,Increment      1: Step Time =    1.000,"P-34-1",           781,       14.5198,       105.047,            0.,NA,NA,"",   844.384E+03,    937.76E+03,    937.76E+03
C:/temp/Job-34.odb,Step-1,Increment      1: Step Time =    1.000,"P-34-1",           782,       185.270,       94.5043,            0.,NA,NA,"",   997.248E+03,   998.101E+03,   998.101E+03
C:/temp/Job-34.odb,Step-1,Increment      1: Step Time =    1.000,"P-34-1",           783,       105.218,       185.051,            0.,NA,NA,"",   973.055E+03,   974.056E+03,   974.056E+03
C:/temp/Job-34.odb,Step-1,Increment      1: Step Time =    1.000,"P-34-1",           784,       104.907,       15.0220,            0.,NA,NA,"",   973.125E+03,   974.172E+03,   974.172E+03
C:/temp/Job-34.odb,Step-1,Increment      1: Step Time =    1.000,"P-34-1",           785,       14.3781,       95.3430,            0.,NA,NA,"",   843.867E+03,   937.410E+03,   937.410E+03
C:/temp/Job-34.odb,Step-1,Increment      1: Step Time =    1.000,"P-34-1",           786,       185.373,       104.123,            0.,NA,NA,"",   997.143E+03,   998.067E+03,   998.067E+03
C:/temp/Job-34.odb,Step-1,Increment      1: Step Time =    1.000,"P-34-1",           787,       95.3884,       184.991,            0.,NA,NA,"",   970.498E+03,   971.745E+03,   971.745E+03
C:/temp/Job-34.odb,Step-1,Increment      1: Step Time =    1.000,"P-34-1",           788,       119.290,       111.071,            0.,NA,NA,"",   1.06722E+06,   1.02343E+06,   1.02343E+06
C:/temp/Job-34.odb,Step-1,Increment      1: Step Time =    1.000,"P-34-1",           789,       76.7185,       98.1378,            0.,NA,NA,"",   822.758E+03,   849.373E+03,   849.373E+03
C:/temp/Job-34.odb,Step-1,Increment      1: Step Time =    1.000,"P-34-1",           790,       120.972,       105.210,            0.,NA,NA,"",   844.800E+03,   838.560E+03,   838.560E+03
C:/temp/Job-34.odb,Step-1,Increment      1: Step Time =    1.000,"P-34-1",           791,       109.645,       20.1970,            0.,NA,NA,"",   982.466E+03,   983.884E+03,   983.884E+03
C:/temp/Job-34.odb,Step-1,Increment      1: Step Time =    1.000,"P-34-1",           792,       18.9362,       90.6205,            0.,NA,NA,"",   856.904E+03,   945.370E+03,   945.370E+03
C:/temp/Job-34.odb,Step-1,Increment      1: Step Time =    1.000,"P-34-1",           793,       178.744,       111.703,            0.,NA,NA,"",   997.227E+03,   997.112E+03,   997.112E+03
C:/temp/Job-34.odb,Step-1,Increment      1: Step Time =    1.000,"P-34-1",           794,       91.0099,       180.253,            0.,NA,NA,"",   978.979E+03,   981.270E+03,   981.270E+03
C:/temp/Job-34.odb,Step-1,Increment      1: Step Time =    1.000,"P-34-1",           795,       99.8524,       20.0523,            0.,NA,NA,"",   979.829E+03,   981.999E+03,   981.999E+03
C:/temp/Job-34.odb,Step-1,Increment      1: Step Time =    1.000,"P-34-1",           796,       19.5143,       100.249,            0.,NA,NA,"",   855.879E+03,   944.048E+03,   944.048E+03
C:/temp/Job-34.odb,Step-1,Increment      1: Step Time =    1.000,"P-34-1",           797,       180.691,       99.1357,            0.,NA,NA,"",   996.254E+03,   996.751E+03,   996.751E+03
C:/temp/Job-34.odb,Step-1,Increment      1: Step Time =    1.000,"P-34-1",           798,       100.454,       179.973,            0.,NA,NA,"",   979.784E+03,   981.838E+03,   981.838E+03
C:/temp/Job-34.odb,Step-1,Increment      1: Step Time =    1.000,"P-34-1",           799,       123.508,       99.5933,            0.,NA,NA,"",   821.785E+03,   834.198E+03,   834.198E+03
C:/temp/Job-34.odb,Step-1,Increment      1: Step Time =    1.000,"P-34-1",           800,       92.9549,       78.7375,            0.,NA,NA,"",   1.05780E+06,   1.09562E+06,   1.09562E+06
C:/temp/Job-34.odb,Step-1,Increment      1: Step Time =    1.000,"P-34-1",           801,       18.1335,       62.3215,            0.,NA,NA,"",   889.513E+03,   973.324E+03,   973.324E+03
C:/temp/Job-34.odb,Step-1,Increment      1: Step Time =    1.000,"P-34-1",           802,       62.2997,       21.3003,            0.,NA,NA,"",   993.845E+03,   998.006E+03,   998.006E+03
C:/temp/Job-34.odb,Step-1,Increment      1: Step Time =    1.000,"P-34-1",           803,       60.2677,       181.034,            0.,NA,NA,"",   990.163E+03,   993.610E+03,   993.610E+03
C:/temp/Job-34.odb,Step-1,Increment      1: Step Time =    1.000,"P-34-1",           804,       179.651,       60.2925,            0.,NA,NA,"",   1.00506E+06,   1.00251E+06,   1.00251E+06
C:/temp/Job-34.odb,Step-1,Increment      1: Step Time =    1.000,"P-34-1",           805,       139.633,       19.6456,            0.,NA,NA,"",   994.327E+03,   993.135E+03,   993.135E+03
C:/temp/Job-34.odb,Step-1,Increment      1: Step Time =    1.000,"P-34-1",           806,       21.2289,       137.531,            0.,NA,NA,"",   898.867E+03,   978.304E+03,   978.304E+03
C:/temp/Job-34.odb,Step-1,Increment      1: Step Time =    1.000,"P-34-1",           807,       181.123,       139.837,            0.,NA,NA,"",   1.00423E+06,   1.00201E+06,   1.00201E+06
C:/temp/Job-34.odb,Step-1,Increment      1: Step Time =    1.000,"P-34-1",           808,       137.435,       179.571,            0.,NA,NA,"",   994.536E+03,   993.315E+03,   993.315E+03
C:/temp/Job-34.odb,Step-1,Increment      1: Step Time =    1.000,"P-34-1",           809,       124.687,       90.9896,            0.,NA,NA,"",   959.218E+03,   948.863E+03,   948.863E+03
C:/temp/Job-34.odb,Step-1,Increment      1: Step Time =    1.000,"P-34-1",           810,       18.3183,       165.762,            0.,NA,NA,"",   965.005E+03,   1.03228E+06,   1.03228E+06
C:/temp/Job-34.odb,Step-1,Increment      1: Step Time =    1.000,"P-34-1",           811,       164.727,       20.8484,            0.,NA,NA,"",   999.790E+03,   998.393E+03,   998.393E+03
C:/temp/Job-34.odb,Step-1,Increment      1: Step Time =    1.000,"P-34-1",           812,       174.594,       15.8271,            0.,NA,NA,"",   998.947E+03,   998.213E+03,   998.213E+03
C:/temp/Job-34.odb,Step-1,Increment      1: Step Time =    1.000,"P-34-1",           813,       14.2860,       173.414,            0.,NA,NA,"",   988.149E+03,   1.05682E+06,   1.05682E+06
C:/temp/Job-34.odb,Step-1,Increment      1: Step Time =    1.000,"P-34-1",           814,       34.2325,       16.9174,            0.,NA,NA,"",   1.02306E+06,   1.03561E+06,   1.03561E+06
C:/temp/Job-34.odb,Step-1,Increment      1: Step Time =    1.000,"P-34-1",           815,       18.3482,       35.6190,            0.,NA,NA,"",   960.091E+03,   1.02818E+06,   1.02818E+06
C:/temp/Job-34.odb,Step-1,Increment      1: Step Time =    1.000,"P-34-1",           816,       27.0166,       12.4171,            0.,NA,NA,"",   1.04196E+06,   1.05375E+06,   1.05375E+06
C:/temp/Job-34.odb,Step-1,Increment      1: Step Time =    1.000,"P-34-1",           817,       14.0245,       27.6163,            0.,NA,NA,"",   982.451E+03,   1.05244E+06,   1.05244E+06
C:/temp/Job-34.odb,Step-1,Increment      1: Step Time =    1.000,"P-34-1",           818,       163.611,       180.902,            0.,NA,NA,"",   998.874E+03,   997.675E+03,   997.675E+03
C:/temp/Job-34.odb,Step-1,Increment      1: Step Time =    1.000,"P-34-1",           819,       180.213,       165.095,            0.,NA,NA,"",   1.00326E+06,   1.00128E+06,   1.00128E+06
C:/temp/Job-34.odb,Step-1,Increment      1: Step Time =    1.000,"P-34-1",           820,       184.548,       174.583,            0.,NA,NA,"",   1.00112E+06,   999.937E+03,   999.937E+03
C:/temp/Job-34.odb,Step-1,Increment      1: Step Time =    1.000,"P-34-1",           821,       170.621,       186.959,            0.,NA,NA,"",   997.852E+03,   997.300E+03,   997.300E+03
C:/temp/Job-34.odb,Step-1,Increment      1: Step Time =    1.000,"P-34-1",           822,       186.395,       29.3334,            0.,NA,NA,"",   1.00167E+06,   1.00023E+06,   1.00023E+06
C:/temp/Job-34.odb,Step-1,Increment      1: Step Time =    1.000,"P-34-1",           823,       25.4313,       184.121,            0.,NA,NA,"",   1.04429E+06,   1.06470E+06,   1.06470E+06
C:/temp/Job-34.odb,Step-1,Increment      1: Step Time =    1.000,"P-34-1",           824,       183.277,       37.6105,            0.,NA,NA,"",   1.00308E+06,   1.00109E+06,   1.00109E+06
C:/temp/Job-34.odb,Step-1,Increment      1: Step Time =    1.000,"P-34-1",           825,       34.8425,       179.257,            0.,NA,NA,"",   1.02093E+06,   1.03784E+06,   1.03784E+06
C:/temp/Job-34.odb,Step-1,Increment      1: Step Time =    1.000,"P-34-1",           826,       18.3818,       71.4923,            0.,NA,NA,"",   874.833E+03,   961.080E+03,   961.080E+03
C:/temp/Job-34.odb,Step-1,Increment      1: Step Time =    1.000,"P-34-1",           827,       68.6172,       18.0324,            0.,NA,NA,"",   983.539E+03,   985.639E+03,   985.639E+03
C:/temp/Job-34.odb,Step-1,Increment      1: Step Time =    1.000,"P-34-1",           828,       180.450,       130.728,            0.,NA,NA,"",   1.00281E+06,   1.00110E+06,   1.00110E+06
C:/temp/Job-34.odb,Step-1,Increment      1: Step Time =    1.000,"P-34-1",           829,       128.738,       180.625,            0.,NA,NA,"",   990.085E+03,   989.585E+03,   989.585E+03
C:/temp/Job-34.odb,Step-1,Increment      1: Step Time =    1.000,"P-34-1",           830,       129.505,       19.2496,            0.,NA,NA,"",   989.833E+03,   989.343E+03,   989.343E+03
C:/temp/Job-34.odb,Step-1,Increment      1: Step Time =    1.000,"P-34-1",           831,       18.0592,       131.277,            0.,NA,NA,"",   878.200E+03,   964.287E+03,   964.287E+03
C:/temp/Job-34.odb,Step-1,Increment      1: Step Time =    1.000,"P-34-1",           832,       69.2030,       180.200,            0.,NA,NA,"",   986.271E+03,   988.974E+03,   988.974E+03
C:/temp/Job-34.odb,Step-1,Increment      1: Step Time =    1.000,"P-34-1",           833,       181.501,       68.9944,            0.,NA,NA,"",   1.00291E+06,   1.00115E+06,   1.00115E+06
C:/temp/Job-34.odb,Step-1,Increment      1: Step Time =    1.000,"P-34-1",           834,       18.2313,       81.1550,            0.,NA,NA,"",   862.846E+03,   950.943E+03,   950.943E+03
C:/temp/Job-34.odb,Step-1,Increment      1: Step Time =    1.000,"P-34-1",           835,       119.655,       19.7077,            0.,NA,NA,"",   985.943E+03,   986.373E+03,   986.373E+03
C:/temp/Job-34.odb,Step-1,Increment      1: Step Time =    1.000,"P-34-1",           836,       178.420,       117.706,            0.,NA,NA,"",   999.225E+03,   998.470E+03,   998.470E+03
C:/temp/Job-34.odb,Step-1,Increment      1: Step Time =    1.000,"P-34-1",           837,       82.3222,       178.753,            0.,NA,NA,"",   983.321E+03,   985.925E+03,   985.925E+03
C:/temp/Job-34.odb,Step-1,Increment      1: Step Time =    1.000,"P-34-1",           838,       180.699,       80.6715,            0.,NA,NA,"",   999.700E+03,   998.990E+03,   998.990E+03
C:/temp/Job-34.odb,Step-1,Increment      1: Step Time =    1.000,"P-34-1",           839,       76.9622,       106.668,            0.,NA,NA,"",   862.774E+03,   879.397E+03,   879.397E+03
C:/temp/Job-34.odb,Step-1,Increment      1: Step Time =    1.000,"P-34-1",           840,       179.713,       90.1047,            0.,NA,NA,"",   997.066E+03,   997.120E+03,   997.120E+03
C:/temp/Job-34.odb,Step-1,Increment      1: Step Time =    1.000,"P-34-1",           841,       123.072,       108.888,            0.,NA,NA,"",   970.824E+03,   949.385E+03,   949.385E+03
C:/temp/Job-34.odb,Step-1,Increment      1: Step Time =    1.000,"P-34-1",           842,       77.0025,       94.1006,            0.,NA,NA,"",   870.989E+03,   889.111E+03,   889.111E+03
C:/temp/Job-34.odb,Step-1,Increment      1: Step Time =    1.000,"P-34-1",           843,       121.753,       114.525,            0.,NA,NA,"",   1.06580E+06,   1.03389E+06,   1.03389E+06
C:/temp/Job-34.odb,Step-1,Increment      1: Step Time =    1.000,"P-34-1",           844,       76.7945,       101.404,            0.,NA,NA,"",   801.086E+03,   835.058E+03,   835.058E+03
C:/temp/Job-34.odb,Step-1,Increment      1: Step Time =    1.000,"P-34-1",           845,       89.7549,       24.8083,            0.,NA,NA,"",   987.669E+03,   991.047E+03,   991.047E+03
C:/temp/Job-34.odb,Step-1,Increment      1: Step Time =    1.000,"P-34-1",           846,       24.5890,       110.072,            0.,NA,NA,"",   871.754E+03,   953.490E+03,   953.490E+03
C:/temp/Job-34.odb,Step-1,Increment      1: Step Time =    1.000,"P-34-1",           847,       174.900,       90.9208,            0.,NA,NA,"",   995.736E+03,   995.562E+03,   995.562E+03
C:/temp/Job-34.odb,Step-1,Increment      1: Step Time =    1.000,"P-34-1",           848,       110.280,       174.787,            0.,NA,NA,"",   989.279E+03,   991.373E+03,   991.373E+03
C:/temp/Job-34.odb,Step-1,Increment      1: Step Time =    1.000,"P-34-1",           849,       22.6074,       81.5138,            0.,NA,NA,"",   873.918E+03,   956.947E+03,   956.947E+03
C:/temp/Job-34.odb,Step-1,Increment      1: Step Time =    1.000,"P-34-1",           850,       119.596,       24.6178,            0.,NA,NA,"",   992.142E+03,   992.791E+03,   992.791E+03
C:/temp/Job-34.odb,Step-1,Increment      1: Step Time =    1.000,"P-34-1",           851,       80.1752,       23.8696,            0.,NA,NA,"",   989.365E+03,   992.585E+03,   992.585E+03
C:/temp/Job-34.odb,Step-1,Increment      1: Step Time =    1.000,"P-34-1",           852,       24.0521,       119.477,            0.,NA,NA,"",   879.625E+03,   960.380E+03,   960.380E+03
C:/temp/Job-34.odb,Step-1,Increment      1: Step Time =    1.000,"P-34-1",           853,       173.206,       81.8878,            0.,NA,NA,"",   999.488E+03,   998.119E+03,   998.119E+03
C:/temp/Job-34.odb,Step-1,Increment      1: Step Time =    1.000,"P-34-1",           854,       119.803,       175.340,            0.,NA,NA,"",   992.668E+03,   993.196E+03,   993.196E+03
C:/temp/Job-34.odb,Step-1,Increment      1: Step Time =    1.000,"P-34-1",           855,       173.490,       119.560,            0.,NA,NA,"",   999.724E+03,   998.339E+03,   998.339E+03
C:/temp/Job-34.odb,Step-1,Increment      1: Step Time =    1.000,"P-34-1",           856,       80.7236,       174.538,            0.,NA,NA,"",   991.236E+03,   994.853E+03,   994.853E+03
C:/temp/Job-34.odb,Step-1,Increment      1: Step Time =    1.000,"P-34-1",           857,       172.357,       103.058,            0.,NA,NA,"",   994.006E+03,   993.893E+03,   993.893E+03
C:/temp/Job-34.odb,Step-1,Increment      1: Step Time =    1.000,"P-34-1",           858,       100.506,       174.788,            0.,NA,NA,"",   987.167E+03,   990.391E+03,   990.391E+03
C:/temp/Job-34.odb,Step-1,Increment      1: Step Time =    1.000,"P-34-1",           859,       99.6005,       25.0997,            0.,NA,NA,"",   987.208E+03,   990.617E+03,   990.617E+03
C:/temp/Job-34.odb,Step-1,Increment      1: Step Time =    1.000,"P-34-1",           860,       24.6702,       100.308,            0.,NA,NA,"",   868.061E+03,   950.313E+03,   950.313E+03
C:/temp/Job-34.odb,Step-1,Increment      1: Step Time =    1.000,"P-34-1",           861,       138.459,       24.4505,            0.,NA,NA,"",   998.672E+03,   997.058E+03,   997.058E+03
C:/temp/Job-34.odb,Step-1,Increment      1: Step Time =    1.000,"P-34-1",           862,       25.0526,       139.965,            0.,NA,NA,"",   914.820E+03,   987.610E+03,   987.610E+03
C:/temp/Job-34.odb,Step-1,Increment      1: Step Time =    1.000,"P-34-1",           863,       59.7676,       25.2936,            0.,NA,NA,"",   1.00132E+06,   1.00768E+06,   1.00768E+06
C:/temp/Job-34.odb,Step-1,Increment      1: Step Time =    1.000,"P-34-1",           864,       23.1868,       59.4736,            0.,NA,NA,"",   909.233E+03,   985.025E+03,   985.025E+03
C:/temp/Job-34.odb,Step-1,Increment      1: Step Time =    1.000,"P-34-1",           865,       59.7963,       176.016,            0.,NA,NA,"",   1.00007E+06,   1.00578E+06,   1.00578E+06
C:/temp/Job-34.odb,Step-1,Increment      1: Step Time =    1.000,"P-34-1",           866,       174.888,       60.9290,            0.,NA,NA,"",   1.00681E+06,   1.00364E+06,   1.00364E+06
C:/temp/Job-34.odb,Step-1,Increment      1: Step Time =    1.000,"P-34-1",           867,       176.307,       140.114,            0.,NA,NA,"",   1.00594E+06,   1.00309E+06,   1.00309E+06
C:/temp/Job-34.odb,Step-1,Increment      1: Step Time =    1.000,"P-34-1",           868,       140.251,       173.819,            0.,NA,NA,"",   1.00138E+06,   999.294E+03,   999.294E+03
C:/temp/Job-34.odb,Step-1,Increment      1: Step Time =    1.000,"P-34-1",           869,       22.7622,       128.808,            0.,NA,NA,"",   889.318E+03,   969.198E+03,   969.198E+03
C:/temp/Job-34.odb,Step-1,Increment      1: Step Time =    1.000,"P-34-1",           870,       177.999,       69.2380,            0.,NA,NA,"",   1.00370E+06,   1.00153E+06,   1.00153E+06
C:/temp/Job-34.odb,Step-1,Increment      1: Step Time =    1.000,"P-34-1",           871,       70.9994,       22.6635,            0.,NA,NA,"",   991.741E+03,   995.132E+03,   995.132E+03
C:/temp/Job-34.odb,Step-1,Increment      1: Step Time =    1.000,"P-34-1",           872,       128.405,       176.230,            0.,NA,NA,"",   995.267E+03,   994.564E+03,   994.564E+03
C:/temp/Job-34.odb,Step-1,Increment      1: Step Time =    1.000,"P-34-1",           873,       32.9668,       20.5552,            0.,NA,NA,"",   1.02387E+06,   1.04341E+06,   1.04341E+06
C:/temp/Job-34.odb,Step-1,Increment      1: Step Time =    1.000,"P-34-1",           874,       22.5489,       35.1024,            0.,NA,NA,"",   974.911E+03,   1.03303E+06,   1.03303E+06
C:/temp/Job-34.odb,Step-1,Increment      1: Step Time =    1.000,"P-34-1",           875,       23.6415,       163.260,            0.,NA,NA,"",   972.077E+03,   1.03007E+06,   1.03007E+06
C:/temp/Job-34.odb,Step-1,Increment      1: Step Time =    1.000,"P-34-1",           876,       164.133,       25.7184,            0.,NA,NA,"",   1.00207E+06,   1.00010E+06,   1.00010E+06
C:/temp/Job-34.odb,Step-1,Increment      1: Step Time =    1.000,"P-34-1",           877,       178.490,       37.9568,            0.,NA,NA,"",   1.00408E+06,   1.00179E+06,   1.00179E+06
C:/temp/Job-34.odb,Step-1,Increment      1: Step Time =    1.000,"P-34-1",           878,       35.3413,       174.491,            0.,NA,NA,"",   1.01684E+06,   1.03952E+06,   1.03952E+06
C:/temp/Job-34.odb,Step-1,Increment      1: Step Time =    1.000,"P-34-1",           879,       166.174,       177.171,            0.,NA,NA,"",   1.00070E+06,   999.145E+03,   999.145E+03
C:/temp/Job-34.odb,Step-1,Increment      1: Step Time =    1.000,"P-34-1",           880,       175.795,       164.715,            0.,NA,NA,"",   1.00415E+06,   1.00186E+06,   1.00186E+06
C:/temp/Job-34.odb,Step-1,Increment      1: Step Time =    1.000,"P-34-1",           881,       88.8210,       75.5972,            0.,NA,NA,"",   1.07735E+06,   1.09217E+06,   1.09217E+06
C:/temp/Job-34.odb,Step-1,Increment      1: Step Time =    1.000,"P-34-1",           882,       14.2540,       56.8809,            0.,NA,NA,"",   886.397E+03,   974.469E+03,   974.469E+03
C:/temp/Job-34.odb,Step-1,Increment      1: Step Time =    1.000,"P-34-1",           883,       54.5633,       16.1648,            0.,NA,NA,"",   989.366E+03,   992.511E+03,   992.511E+03
C:/temp/Job-34.odb,Step-1,Increment      1: Step Time =    1.000,"P-34-1",           884,       185.952,       144.370,            0.,NA,NA,"",   1.00330E+06,   1.00136E+06,   1.00136E+06
C:/temp/Job-34.odb,Step-1,Increment      1: Step Time =    1.000,"P-34-1",           885,       142.942,       183.340,            0.,NA,NA,"",   992.703E+03,   991.682E+03,   991.682E+03
C:/temp/Job-34.odb,Step-1,Increment      1: Step Time =    1.000,"P-34-1",           886,       55.7981,       186.041,            0.,NA,NA,"",   981.787E+03,   984.182E+03,   984.182E+03
C:/temp/Job-34.odb,Step-1,Increment      1: Step Time =    1.000,"P-34-1",           887,       183.849,       55.1724,            0.,NA,NA,"",   1.00406E+06,   1.00180E+06,   1.00180E+06
C:/temp/Job-34.odb,Step-1,Increment      1: Step Time =    1.000,"P-34-1",           888,       144.573,       14.3856,            0.,NA,NA,"",   991.390E+03,   990.597E+03,   990.597E+03
C:/temp/Job-34.odb,Step-1,Increment      1: Step Time =    1.000,"P-34-1",           889,       16.0606,       145.279,            0.,NA,NA,"",   896.270E+03,   981.112E+03,   981.112E+03
C:/temp/Job-34.odb,Step-1,Increment      1: Step Time =    1.000,"P-34-1",           890,       120.885,       91.6429,            0.,NA,NA,"",   961.174E+03,   941.020E+03,   941.020E+03
C:/temp/Job-34.odb,Step-1,Increment      1: Step Time =    1.000,"P-34-1",           891,       18.4896,       172.846,            0.,NA,NA,"",   998.672E+03,   1.05637E+06,   1.05637E+06
C:/temp/Job-34.odb,Step-1,Increment      1: Step Time =    1.000,"P-34-1",           892,       174.266,       21.3205,            0.,NA,NA,"",   1.00032E+06,   999.123E+03,   999.123E+03
C:/temp/Job-34.odb,Step-1,Increment      1: Step Time =    1.000,"P-34-1",           893,       14.3179,       160.788,            0.,NA,NA,"",   931.036E+03,   1.01148E+06,   1.01148E+06
C:/temp/Job-34.odb,Step-1,Increment      1: Step Time =    1.000,"P-34-1",           894,       160.396,       20.8515,            0.,NA,NA,"",   999.418E+03,   997.943E+03,   997.943E+03
C:/temp/Job-34.odb,Step-1,Increment      1: Step Time =    1.000,"P-34-1",           895,       174.736,       10.4598,            0.,NA,NA,"",   998.009E+03,   997.641E+03,   997.641E+03
C:/temp/Job-34.odb,Step-1,Increment      1: Step Time =    1.000,"P-34-1",           896,       17.6732,       28.5989,            0.,NA,NA,"",   989.803E+03,   1.05078E+06,   1.05078E+06
C:/temp/Job-34.odb,Step-1,Increment      1: Step Time =    1.000,"P-34-1",           897,       27.5289,       15.6129,            0.,NA,NA,"",   1.03992E+06,   1.05754E+06,   1.05754E+06
C:/temp/Job-34.odb,Step-1,Increment      1: Step Time =    1.000,"P-34-1",           898,       9.38956,       30.9543,            0.,NA,NA,"",   942.285E+03,   1.02880E+06,   1.02880E+06
C:/temp/Job-34.odb,Step-1,Increment      1: Step Time =    1.000,"P-34-1",           899,       39.2618,       13.6273,            0.,NA,NA,"",   1.00587E+06,   1.01218E+06,   1.01218E+06
C:/temp/Job-34.odb,Step-1,Increment      1: Step Time =    1.000,"P-34-1",           900,       15.5523,       44.5859,            0.,NA,NA,"",   918.473E+03,   999.880E+03,   999.880E+03
C:/temp/Job-34.odb,Step-1,Increment      1: Step Time =    1.000,"P-34-1",           901,       157.704,       184.612,            0.,NA,NA,"",   996.247E+03,   995.306E+03,   995.306E+03
C:/temp/Job-34.odb,Step-1,Increment      1: Step Time =    1.000,"P-34-1",           902,       180.014,       161.416,            0.,NA,NA,"",   1.00388E+06,   1.00168E+06,   1.00168E+06
C:/temp/Job-34.odb,Step-1,Increment      1: Step Time =    1.000,"P-34-1",           903,       179.468,       174.032,            0.,NA,NA,"",   1.00145E+06,   1.00006E+06,   1.00006E+06
C:/temp/Job-34.odb,Step-1,Increment      1: Step Time =    1.000,"P-34-1",           904,       170.544,       183.485,            0.,NA,NA,"",   998.578E+03,   997.786E+03,   997.786E+03
C:/temp/Job-34.odb,Step-1,Increment      1: Step Time =    1.000,"P-34-1",           905,       189.716,       174.782,            0.,NA,NA,"",   1.00098E+06,   999.941E+03,   999.941E+03
C:/temp/Job-34.odb,Step-1,Increment      1: Step Time =    1.000,"P-34-1",           906,       25.9846,       178.858,            0.,NA,NA,"",   1.02954E+06,   1.05942E+06,   1.05942E+06
C:/temp/Job-34.odb,Step-1,Increment      1: Step Time =    1.000,"P-34-1",           907,       181.886,       28.9996,            0.,NA,NA,"",   1.00180E+06,   1.00029E+06,   1.00029E+06
C:/temp/Job-34.odb,Step-1,Increment      1: Step Time =    1.000,"P-34-1",           908,       185.901,       42.2027,            0.,NA,NA,"",   1.00322E+06,   1.00113E+06,   1.00113E+06
C:/temp/Job-34.odb,Step-1,Increment      1: Step Time =    1.000,"P-34-1",           909,       38.6898,       179.097,            0.,NA,NA,"",   1.01612E+06,   1.02964E+06,   1.02964E+06
C:/temp/Job-34.odb,Step-1,Increment      1: Step Time =    1.000,"P-34-1",           910,       25.2293,       189.479,            0.,NA,NA,"",   1.04523E+06,   1.05540E+06,   1.05540E+06
C:/temp/Job-34.odb,Step-1,Increment      1: Step Time =    1.000,"P-34-1",           911,       80.8988,       110.166,            0.,NA,NA,"",   1.02314E+06,   1.00112E+06,   1.00112E+06
C:/temp/Job-34.odb,Step-1,Increment      1: Step Time =    1.000,"P-34-1",           912,       86.9022,       85.3067,            0.,NA,NA,"",   1.21488E+06,   1.17641E+06,   1.17641E+06
C:/temp/Job-34.odb,Step-1,Increment      1: Step Time =    1.000,"P-34-1",           913,       121.535,       120.407,            0.,NA,NA,"",   1.09084E+06,   1.06544E+06,   1.06544E+06
C:/temp/Job-34.odb,Step-1,Increment      1: Step Time =    1.000,"P-34-1",           914,       71.0443,       98.7312,            0.,NA,NA,"",   863.433E+03,   897.194E+03,   897.194E+03
C:/temp/Job-34.odb,Step-1,Increment      1: Step Time =    1.000,"P-34-1",           915,       128.421,       102.091,            0.,NA,NA,"",   874.887E+03,   885.006E+03,   885.006E+03
C:/temp/Job-34.odb,Step-1,Increment      1: Step Time =    1.000,"P-34-1",           916,       181.102,       77.2070,            0.,NA,NA,"",   1.00061E+06,   999.633E+03,   999.633E+03
C:/temp/Job-34.odb,Step-1,Increment      1: Step Time =    1.000,"P-34-1",           917,       19.0731,       119.307,            0.,NA,NA,"",   865.831E+03,   952.877E+03,   952.877E+03
C:/temp/Job-34.odb,Step-1,Increment      1: Step Time =    1.000,"P-34-1",           918,       119.680,       180.392,            0.,NA,NA,"",   985.977E+03,   986.355E+03,   986.355E+03
C:/temp/Job-34.odb,Step-1,Increment      1: Step Time =    1.000,"P-34-1",           919,       80.5070,       19.0478,            0.,NA,NA,"",   980.347E+03,   982.397E+03,   982.397E+03
C:/temp/Job-34.odb,Step-1,Increment      1: Step Time =    1.000,"P-34-1",           920,       9.59172,       56.0697,            0.,NA,NA,"",   871.292E+03,   966.144E+03,   966.144E+03
C:/temp/Job-34.odb,Step-1,Increment      1: Step Time =    1.000,"P-34-1",           921,       55.5216,       190.722,            0.,NA,NA,"",   967.179E+03,   968.332E+03,   968.332E+03
C:/temp/Job-34.odb,Step-1,Increment      1: Step Time =    1.000,"P-34-1",           922,       144.536,       9.37730,            0.,NA,NA,"",   987.581E+03,   987.203E+03,   987.203E+03
C:/temp/Job-34.odb,Step-1,Increment      1: Step Time =    1.000,"P-34-1",           923,       190.689,       144.573,            0.,NA,NA,"",   1.00231E+06,   1.00066E+06,   1.00066E+06
C:/temp/Job-34.odb,Step-1,Increment      1: Step Time =    1.000,"P-34-1",           924,       94.6656,       25.1571,            0.,NA,NA,"",   987.216E+03,   990.660E+03,   990.660E+03
C:/temp/Job-34.odb,Step-1,Increment      1: Step Time =    1.000,"P-34-1",           925,       24.6763,       105.266,            0.,NA,NA,"",   869.224E+03,   951.302E+03,   951.302E+03
C:/temp/Job-34.odb,Step-1,Increment      1: Step Time =    1.000,"P-34-1",           926,       175.208,       95.1434,            0.,NA,NA,"",   994.989E+03,   995.099E+03,   995.099E+03
C:/temp/Job-34.odb,Step-1,Increment      1: Step Time =    1.000,"P-34-1",           927,       105.440,       174.665,            0.,NA,NA,"",   988.216E+03,   990.910E+03,   990.910E+03
C:/temp/Job-34.odb,Step-1,Increment      1: Step Time =    1.000,"P-34-1",           928,       26.5859,       85.6113,            0.,NA,NA,"",   879.736E+03,   958.555E+03,   958.555E+03
C:/temp/Job-34.odb,Step-1,Increment      1: Step Time =    1.000,"P-34-1",           929,       114.594,       25.1119,            0.,NA,NA,"",   990.659E+03,   992.163E+03,   992.163E+03
C:/temp/Job-34.odb,Step-1,Increment      1: Step Time =    1.000,"P-34-1",           930,       84.8785,       24.3248,            0.,NA,NA,"",   988.312E+03,   991.607E+03,   991.607E+03
C:/temp/Job-34.odb,Step-1,Increment      1: Step Time =    1.000,"P-34-1",           931,       24.3853,       114.791,            0.,NA,NA,"",   875.301E+03,   956.573E+03,   956.573E+03
C:/temp/Job-34.odb,Step-1,Increment      1: Step Time =    1.000,"P-34-1",           932,       172.965,       86.2931,            0.,NA,NA,"",   997.210E+03,   996.369E+03,   996.369E+03
C:/temp/Job-34.odb,Step-1,Increment      1: Step Time =    1.000,"P-34-1",           933,       115.078,       175.022,            0.,NA,NA,"",   990.844E+03,   992.206E+03,   992.206E+03
C:/temp/Job-34.odb,Step-1,Increment      1: Step Time =    1.000,"P-34-1",           934,       173.575,       116.341,            0.,NA,NA,"",   998.265E+03,   997.301E+03,   997.301E+03
C:/temp/Job-34.odb,Step-1,Increment      1: Step Time =    1.000,"P-34-1",           935,       84.6628,       172.561,            0.,NA,NA,"",   992.451E+03,   996.692E+03,   996.692E+03
C:/temp/Job-34.odb,Step-1,Increment      1: Step Time =    1.000,"P-34-1",           936,       136.369,       28.6372,            0.,NA,NA,"",   1.00257E+06,   1.00067E+06,   1.00067E+06
C:/temp/Job-34.odb,Step-1,Increment      1: Step Time =    1.000,"P-34-1",           937,       26.3887,       134.615,            0.,NA,NA,"",   909.552E+03,   982.207E+03,   982.207E+03
C:/temp/Job-34.odb,Step-1,Increment      1: Step Time =    1.000,"P-34-1",           938,       27.0328,       62.1579,            0.,NA,NA,"",   917.135E+03,   987.688E+03,   987.688E+03
C:/temp/Job-34.odb,Step-1,Increment      1: Step Time =    1.000,"P-34-1",           939,       65.1849,       26.4216,            0.,NA,NA,"",   1.00059E+06,   1.00609E+06,   1.00609E+06
C:/temp/Job-34.odb,Step-1,Increment      1: Step Time =    1.000,"P-34-1",           940,       175.309,       66.0137,            0.,NA,NA,"",   1.00545E+06,   1.00265E+06,   1.00265E+06
C:/temp/Job-34.odb,Step-1,Increment      1: Step Time =    1.000,"P-34-1",           941,       64.1673,       175.128,            0.,NA,NA,"",   998.667E+03,   1.00368E+06,   1.00368E+06
C:/temp/Job-34.odb,Step-1,Increment      1: Step Time =    1.000,"P-34-1",           942,       175.949,       135.772,            0.,NA,NA,"",   1.00538E+06,   1.00266E+06,   1.00266E+06
C:/temp/Job-34.odb,Step-1,Increment      1: Step Time =    1.000,"P-34-1",           943,       136.382,       174.906,            0.,NA,NA,"",   999.167E+03,   997.526E+03,   997.526E+03
C:/temp/Job-34.odb,Step-1,Increment      1: Step Time =    1.000,"P-34-1",           944,       33.6387,       25.8645,            0.,NA,NA,"",   1.01615E+06,   1.04148E+06,   1.04148E+06
C:/temp/Job-34.odb,Step-1,Increment      1: Step Time =    1.000,"P-34-1",           945,       25.5259,       30.7887,            0.,NA,NA,"",   995.475E+03,   1.04208E+06,   1.04208E+06
C:/temp/Job-34.odb,Step-1,Increment      1: Step Time =    1.000,"P-34-1",           946,       22.2516,       167.987,            0.,NA,NA,"",   985.139E+03,   1.04069E+06,   1.04069E+06
C:/temp/Job-34.odb,Step-1,Increment      1: Step Time =    1.000,"P-34-1",           947,       168.683,       26.1544,            0.,NA,NA,"",   1.00206E+06,   1.00022E+06,   1.00022E+06
C:/temp/Job-34.odb,Step-1,Increment      1: Step Time =    1.000,"P-34-1",           948,       31.0531,       174.153,            0.,NA,NA,"",   1.01641E+06,   1.04576E+06,   1.04576E+06
C:/temp/Job-34.odb,Step-1,Increment      1: Step Time =    1.000,"P-34-1",           949,       176.875,       32.2363,            0.,NA,NA,"",   1.00311E+06,   1.00111E+06,   1.00111E+06
C:/temp/Job-34.odb,Step-1,Increment      1: Step Time =    1.000,"P-34-1",           950,       175.892,       168.561,            0.,NA,NA,"",   1.00318E+06,   1.00119E+06,   1.00119E+06
C:/temp/Job-34.odb,Step-1,Increment      1: Step Time =    1.000,"P-34-1",           951,       168.843,       173.837,            0.,NA,NA,"",   1.00212E+06,   1.00028E+06,   1.00028E+06
C:/temp/Job-34.odb,Step-1,Increment      1: Step Time =    1.000,"P-34-1",           952,       97.8001,       76.0140,            0.,NA,NA,"",   1.03821E+06,   1.08491E+06,   1.08491E+06
C:/temp/Job-34.odb,Step-1,Increment      1: Step Time =    1.000,"P-34-1",           953,       120.748,       87.0875,            0.,NA,NA,"",   1.04149E+06,   1.01106E+06,   1.01106E+06
C:/temp/Job-34.odb,Step-1,Increment      1: Step Time =    1.000,"P-34-1",           954,       15.3040,       177.180,            0.,NA,NA,"",   1.01229E+06,   1.07206E+06,   1.07206E+06
C:/temp/Job-34.odb,Step-1,Increment      1: Step Time =    1.000,"P-34-1",           955,       179.700,       15.9191,            0.,NA,NA,"",   999.438E+03,   998.770E+03,   998.770E+03
C:/temp/Job-34.odb,Step-1,Increment      1: Step Time =    1.000,"P-34-1",           956,       15.4503,       24.3539,            0.,NA,NA,"",   1.00538E+06,   1.06656E+06,   1.06656E+06
C:/temp/Job-34.odb,Step-1,Increment      1: Step Time =    1.000,"P-34-1",           957,       23.8729,       13.3604,            0.,NA,NA,"",   1.05158E+06,   1.06985E+06,   1.06985E+06
C:/temp/Job-34.odb,Step-1,Increment      1: Step Time =    1.000,"P-34-1",           958,       174.858,       186.394,            0.,NA,NA,"",   998.586E+03,   998.038E+03,   998.038E+03
C:/temp/Job-34.odb,Step-1,Increment      1: Step Time =    1.000,"P-34-1",           959,       184.204,       179.674,            0.,NA,NA,"",   1.00035E+06,   999.503E+03,   999.503E+03
C:/temp/Job-34.odb,Step-1,Increment      1: Step Time =    1.000,"P-34-1",           960,       20.1023,       183.677,            0.,NA,NA,"",   1.06403E+06,   1.09307E+06,   1.09307E+06
C:/temp/Job-34.odb,Step-1,Increment      1: Step Time =    1.000,"P-34-1",           961,       186.306,       24.7817,            0.,NA,NA,"",   1.00107E+06,   999.903E+03,   999.903E+03
C:/temp/Job-34.odb,Step-1,Increment      1: Step Time =    1.000,"P-34-1",           962,       85.6358,       110.613,            0.,NA,NA,"",   1.19161E+06,   1.13799E+06,   1.13799E+06
C:/temp/Job-34.odb,Step-1,Increment      1: Step Time =    1.000,"P-34-1",           963,       75.4328,       113.259,            0.,NA,NA,"",   1.01272E+06,   1.01185E+06,   1.01185E+06
C:/temp/Job-34.odb,Step-1,Increment      1: Step Time =    1.000,"P-34-1",           964,       77.6319,       85.4025,            0.,NA,NA,"",   1.03043E+06,   1.02106E+06,   1.02106E+06
C:/temp/Job-34.odb,Step-1,Increment      1: Step Time =    1.000,"P-34-1",           965,       115.300,       120.328,            0.,NA,NA,"",   1.12249E+06,   1.10275E+06,   1.10275E+06
C:/temp/Job-34.odb,Step-1,Increment      1: Step Time =    1.000,"P-34-1",           966,       67.0117,       102.549,            0.,NA,NA,"",   880.091E+03,   918.624E+03,   918.624E+03
C:/temp/Job-34.odb,Step-1,Increment      1: Step Time =    1.000,"P-34-1",           967,       133.996,       94.7033,            0.,NA,NA,"",   941.379E+03,   943.264E+03,   943.264E+03
C:/temp/Job-34.odb,Step-1,Increment      1: Step Time =    1.000,"P-34-1",           968,       75.5569,       23.3700,            0.,NA,NA,"",   990.694E+03,   993.956E+03,   993.956E+03
C:/temp/Job-34.odb,Step-1,Increment      1: Step Time =    1.000,"P-34-1",           969,       124.266,       175.724,            0.,NA,NA,"",   994.039E+03,   993.876E+03,   993.876E+03
C:/temp/Job-34.odb,Step-1,Increment      1: Step Time =    1.000,"P-34-1",           970,       23.5490,       124.160,            0.,NA,NA,"",   884.602E+03,   964.762E+03,   964.762E+03
C:/temp/Job-34.odb,Step-1,Increment      1: Step Time =    1.000,"P-34-1",           971,       171.264,       74.0642,            0.,NA,NA,"",   1.00356E+06,   1.00094E+06,   1.00094E+06
C:/temp/Job-34.odb,Step-1,Increment      1: Step Time =    1.000,"P-34-1",           972,       43.8639,       185.334,            0.,NA,NA,"",   998.721E+03,   1.00471E+06,   1.00471E+06
C:/temp/Job-34.odb,Step-1,Increment      1: Step Time =    1.000,"P-34-1",           973,       185.550,       156.205,            0.,NA,NA,"",   1.00332E+06,   1.00128E+06,   1.00128E+06
C:/temp/Job-34.odb,Step-1,Increment      1: Step Time =    1.000,"P-34-1",           974,       15.5936,       48.2886,            0.,NA,NA,"",   908.840E+03,   991.996E+03,   991.996E+03
C:/temp/Job-34.odb,Step-1,Increment      1: Step Time =    1.000,"P-34-1",           975,       155.329,       15.2118,            0.,NA,NA,"",   995.280E+03,   994.378E+03,   994.378E+03
C:/temp/Job-34.odb,Step-1,Increment      1: Step Time =    1.000,"P-34-1",           976,       104.383,       25.6547,            0.,NA,NA,"",   988.147E+03,   991.134E+03,   991.134E+03
C:/temp/Job-34.odb,Step-1,Increment      1: Step Time =    1.000,"P-34-1",           977,       24.5016,       95.2657,            0.,NA,NA,"",   868.554E+03,   950.916E+03,   950.916E+03
C:/temp/Job-34.odb,Step-1,Increment      1: Step Time =    1.000,"P-34-1",           978,       171.373,       105.943,            0.,NA,NA,"",   993.967E+03,   993.844E+03,   993.844E+03
C:/temp/Job-34.odb,Step-1,Increment      1: Step Time =    1.000,"P-34-1",           979,       95.4543,       175.029,            0.,NA,NA,"",   986.707E+03,   990.257E+03,   990.257E+03
C:/temp/Job-34.odb,Step-1,Increment      1: Step Time =    1.000,"P-34-1",           980,       124.939,       112.197,            0.,NA,NA,"",   1.01759E+06,   994.485E+03,   994.485E+03
C:/temp/Job-34.odb,Step-1,Increment      1: Step Time =    1.000,"P-34-1",           981,       179.892,       44.5275,            0.,NA,NA,"",   1.00474E+06,   1.00223E+06,   1.00223E+06
C:/temp/Job-34.odb,Step-1,Increment      1: Step Time =    1.000,"P-34-1",           982,       154.457,       180.009,            0.,NA,NA,"",   998.257E+03,   996.767E+03,   996.767E+03
C:/temp/Job-34.odb,Step-1,Increment      1: Step Time =    1.000,"P-34-1",           983,       44.1524,       14.4562,            0.,NA,NA,"",   998.500E+03,   1.00327E+06,   1.00327E+06
C:/temp/Job-34.odb,Step-1,Increment      1: Step Time =    1.000,"P-34-1",           984,       14.7398,       155.778,            0.,NA,NA,"",   916.793E+03,   999.328E+03,   999.328E+03
C:/temp/Job-34.odb,Step-1,Increment      1: Step Time =    1.000,"P-34-1",           985,       173.052,       176.483,            0.,NA,NA,"",   1.00096E+06,   999.569E+03,   999.569E+03
C:/temp/Job-34.odb,Step-1,Increment      1: Step Time =    1.000,"P-34-1",           986,       174.912,       172.598,            0.,NA,NA,"",   1.00208E+06,   1.00040E+06,   1.00040E+06
C:/temp/Job-34.odb,Step-1,Increment      1: Step Time =    1.000,"P-34-1",           987,       177.764,       27.5835,            0.,NA,NA,"",   1.00191E+06,   1.00030E+06,   1.00030E+06
C:/temp/Job-34.odb,Step-1,Increment      1: Step Time =    1.000,"P-34-1",           988,       26.6591,       173.672,            0.,NA,NA,"",   1.01377E+06,   1.05139E+06,   1.05139E+06
C:/temp/Job-34.odb,Step-1,Increment      1: Step Time =    1.000,"P-34-1",           989,       22.3743,       173.121,            0.,NA,NA,"",   1.00799E+06,   1.05524E+06,   1.05524E+06
C:/temp/Job-34.odb,Step-1,Increment      1: Step Time =    1.000,"P-34-1",           990,       173.319,       26.7417,            0.,NA,NA,"",   1.00201E+06,   1.00030E+06,   1.00030E+06
C:/temp/Job-34.odb,Step-1,Increment      1: Step Time =    1.000,"P-34-1",           991,       24.9000,       20.1297,            0.,NA,NA,"",   1.03910E+06,   1.06675E+06,   1.06675E+06
C:/temp/Job-34.odb,Step-1,Increment      1: Step Time =    1.000,"P-34-1",           992,       20.4149,       25.4732,            0.,NA,NA,"",   1.00931E+06,   1.06008E+06,   1.06008E+06
C:/temp/Job-34.odb,Step-1,Increment      1: Step Time =    1.000,"P-34-1",           993,       102.034,       77.0855,            0.,NA,NA,"",   1.03284E+06,   1.08322E+06,   1.08322E+06
C:/temp/Job-34.odb,Step-1,Increment      1: Step Time =    1.000,"P-34-1",           994,       99.2183,       71.3229,            0.,NA,NA,"",   1.01555E+06,   1.05371E+06,   1.05371E+06
C:/temp/Job-34.odb,Step-1,Increment      1: Step Time =    1.000,"P-34-1",           995,       87.0540,       114.142,            0.,NA,NA,"",   1.19728E+06,   1.16308E+06,   1.16308E+06
C:/temp/Job-34.odb,Step-1,Increment      1: Step Time =    1.000,"P-34-1",           996,       77.3541,       117.367,            0.,NA,NA,"",   1.06001E+06,   1.05301E+06,   1.05301E+06
C:/temp/Job-34.odb,Step-1,Increment      1: Step Time =    1.000,"P-34-1",           997,       129.303,       23.9085,            0.,NA,NA,"",   995.147E+03,   994.470E+03,   994.470E+03
C:/temp/Job-34.odb,Step-1,Increment      1: Step Time =    1.000,"P-34-1",           998,       68.8802,       174.762,            0.,NA,NA,"",   996.780E+03,   1.00120E+06,   1.00120E+06
C:/temp/Job-34.odb,Step-1,Increment      1: Step Time =    1.000,"P-34-1",           999,       23.8944,       66.6630,            0.,NA,NA,"",   899.250E+03,   976.446E+03,   976.446E+03
C:/temp/Job-34.odb,Step-1,Increment      1: Step Time =    1.000,"P-34-1",          1000,       175.330,       131.284,            0.,NA,NA,"",   1.00431E+06,   1.00185E+06,   1.00185E+06
C:/temp/Job-34.odb,Step-1,Increment      1: Step Time =    1.000,"P-34-1",          1001,       19.5622,       14.5042,            0.,NA,NA,"",   1.07004E+06,   1.09466E+06,   1.09466E+06
C:/temp/Job-34.odb,Step-1,Increment      1: Step Time =    1.000,"P-34-1",          1002,       14.5357,       181.737,            0.,NA,NA,"",   1.04462E+06,   1.09736E+06,   1.09736E+06
C:/temp/Job-34.odb,Step-1,Increment      1: Step Time =    1.000,"P-34-1",          1003,       185.445,       20.3995,            0.,NA,NA,"",   1.00043E+06,   999.544E+03,   999.544E+03
C:/temp/Job-34.odb,Step-1,Increment      1: Step Time =    1.000,"P-34-1",          1004,       179.443,       185.312,            0.,NA,NA,"",   999.225E+03,   998.669E+03,   998.669E+03
C:/temp/Job-34.odb,Step-1,Increment      1: Step Time =    1.000,"P-34-1",          1005,       89.1511,       29.8458,            0.,NA,NA,"",   994.579E+03,   999.441E+03,   999.441E+03
C:/temp/Job-34.odb,Step-1,Increment      1: Step Time =    1.000,"P-34-1",          1006,       169.451,       89.0178,            0.,NA,NA,"",   994.693E+03,   993.988E+03,   993.988E+03
C:/temp/Job-34.odb,Step-1,Increment      1: Step Time =    1.000,"P-34-1",          1007,       110.474,       169.339,            0.,NA,NA,"",   996.248E+03,   999.285E+03,   999.285E+03
C:/temp/Job-34.odb,Step-1,Increment      1: Step Time =    1.000,"P-34-1",          1008,       32.5082,       75.6756,            0.,NA,NA,"",   908.898E+03,   977.054E+03,   977.054E+03
C:/temp/Job-34.odb,Step-1,Increment      1: Step Time =    1.000,"P-34-1",          1009,       119.684,       29.4561,            0.,NA,NA,"",   997.864E+03,   998.782E+03,   998.782E+03
C:/temp/Job-34.odb,Step-1,Increment      1: Step Time =    1.000,"P-34-1",          1010,       79.6151,       28.6340,            0.,NA,NA,"",   996.818E+03,   1.00148E+06,   1.00148E+06
C:/temp/Job-34.odb,Step-1,Increment      1: Step Time =    1.000,"P-34-1",          1011,       29.1080,       119.832,            0.,NA,NA,"",   893.441E+03,   967.444E+03,   967.444E+03
C:/temp/Job-34.odb,Step-1,Increment      1: Step Time =    1.000,"P-34-1",          1012,       168.700,       80.9285,            0.,NA,NA,"",   999.694E+03,   997.766E+03,   997.766E+03
C:/temp/Job-34.odb,Step-1,Increment      1: Step Time =    1.000,"P-34-1",          1013,       120.040,       170.253,            0.,NA,NA,"",   998.662E+03,   999.379E+03,   999.379E+03
C:/temp/Job-34.odb,Step-1,Increment      1: Step Time =    1.000,"P-34-1",          1014,       169.265,       117.654,            0.,NA,NA,"",   998.965E+03,   997.280E+03,   997.280E+03
C:/temp/Job-34.odb,Step-1,Increment      1: Step Time =    1.000,"P-34-1",          1015,       82.3931,       168.689,            0.,NA,NA,"",   999.220E+03,   1.00479E+06,   1.00479E+06
C:/temp/Job-34.odb,Step-1,Increment      1: Step Time =    1.000,"P-34-1",          1016,       139.922,       30.8448,            0.,NA,NA,"",   1.00579E+06,   1.00324E+06,   1.00324E+06
C:/temp/Job-34.odb,Step-1,Increment      1: Step Time =    1.000,"P-34-1",          1017,       31.1411,       140.331,            0.,NA,NA,"",    934.73E+03,   997.324E+03,   997.324E+03
C:/temp/Job-34.odb,Step-1,Increment      1: Step Time =    1.000,"P-34-1",          1018,       29.3148,       57.8052,            0.,NA,NA,"",   933.408E+03,   997.800E+03,   997.800E+03
C:/temp/Job-34.odb,Step-1,Increment      1: Step Time =    1.000,"P-34-1",          1019,       59.4932,       31.6095,            0.,NA,NA,"",   1.00856E+06,   1.01801E+06,   1.01801E+06
C:/temp/Job-34.odb,Step-1,Increment      1: Step Time =    1.000,"P-34-1",          1020,       58.4984,       170.994,            0.,NA,NA,"",   1.00673E+06,   1.01546E+06,   1.01546E+06
C:/temp/Job-34.odb,Step-1,Increment      1: Step Time =    1.000,"P-34-1",          1021,       170.479,       61.1976,            0.,NA,NA,"",   1.00883E+06,   1.00498E+06,   1.00498E+06
C:/temp/Job-34.odb,Step-1,Increment      1: Step Time =    1.000,"P-34-1",          1022,       171.587,       140.685,            0.,NA,NA,"",   1.00809E+06,   1.00449E+06,   1.00449E+06
C:/temp/Job-34.odb,Step-1,Increment      1: Step Time =    1.000,"P-34-1",          1023,       138.868,       169.085,            0.,NA,NA,"",   1.00615E+06,   1.00349E+06,   1.00349E+06
C:/temp/Job-34.odb,Step-1,Increment      1: Step Time =    1.000,"P-34-1",          1024,       37.1951,       28.5291,            0.,NA,NA,"",   1.01222E+06,   1.03665E+06,   1.03665E+06
C:/temp/Job-34.odb,Step-1,Increment      1: Step Time =    1.000,"P-34-1",          1025,       26.3506,       34.1047,            0.,NA,NA,"",   986.642E+03,   1.03580E+06,   1.03580E+06
C:/temp/Job-34.odb,Step-1,Increment      1: Step Time =    1.000,"P-34-1",          1026,       28.0301,       164.313,            0.,NA,NA,"",   984.781E+03,   1.03329E+06,   1.03329E+06
C:/temp/Job-34.odb,Step-1,Increment      1: Step Time =    1.000,"P-34-1",          1027,       163.333,       30.4269,            0.,NA,NA,"",   1.00443E+06,   1.00188E+06,   1.00188E+06
C:/temp/Job-34.odb,Step-1,Increment      1: Step Time =    1.000,"P-34-1",          1028,       170.621,       35.7488,            0.,NA,NA,"",   1.00529E+06,   1.00260E+06,   1.00260E+06
C:/temp/Job-34.odb,Step-1,Increment      1: Step Time =    1.000,"P-34-1",          1029,       36.0816,       170.054,            0.,NA,NA,"",   1.00987E+06,   1.03750E+06,   1.03750E+06
C:/temp/Job-34.odb,Step-1,Increment      1: Step Time =    1.000,"P-34-1",          1030,       165.488,       171.076,            0.,NA,NA,"",   1.00368E+06,   1.00135E+06,   1.00135E+06
C:/temp/Job-34.odb,Step-1,Increment      1: Step Time =    1.000,"P-34-1",          1031,       172.567,       168.074,            0.,NA,NA,"",   1.00380E+06,   1.00159E+06,   1.00159E+06
C:/temp/Job-34.odb,Step-1,Increment      1: Step Time =    1.000,"P-34-1",          1032,       16.3970,       19.0375,            0.,NA,NA,"",   1.04401E+06,   1.09135E+06,   1.09135E+06
C:/temp/Job-34.odb,Step-1,Increment      1: Step Time =    1.000,"P-34-1",          1033,       14.8712,       185.128,            0.,NA,NA,"",   1.07995E+06,   1.12032E+06,   1.12032E+06
C:/temp/Job-34.odb,Step-1,Increment      1: Step Time =    1.000,"P-34-1",          1034,       72.6824,       109.673,            0.,NA,NA,"",   936.676E+03,   952.122E+03,   952.122E+03
C:/temp/Job-34.odb,Step-1,Increment      1: Step Time =    1.000,"P-34-1",          1035,       72.4212,       89.1360,            0.,NA,NA,"",   946.918E+03,   962.335E+03,   962.335E+03
C:/temp/Job-34.odb,Step-1,Increment      1: Step Time =    1.000,"P-34-1",          1036,       153.821,       9.57135,            0.,NA,NA,"",   992.116E+03,   991.688E+03,   991.688E+03
C:/temp/Job-34.odb,Step-1,Increment      1: Step Time =    1.000,"P-34-1",          1037,       190.264,       153.937,            0.,NA,NA,"",   1.00254E+06,   1.00067E+06,   1.00067E+06
C:/temp/Job-34.odb,Step-1,Increment      1: Step Time =    1.000,"P-34-1",          1038,       46.0812,       190.166,            0.,NA,NA,"",   980.597E+03,   982.726E+03,   982.726E+03
C:/temp/Job-34.odb,Step-1,Increment      1: Step Time =    1.000,"P-34-1",          1039,       111.441,       116.528,            0.,NA,NA,"",   1.17905E+06,   1.15782E+06,   1.15782E+06
C:/temp/Job-34.odb,Step-1,Increment      1: Step Time =    1.000,"P-34-1",          1040,       118.984,       123.469,            0.,NA,NA,"",   1.09437E+06,   1.07587E+06,   1.07587E+06
C:/temp/Job-34.odb,Step-1,Increment      1: Step Time =    1.000,"P-34-1",          1041,       64.4524,       99.8248,            0.,NA,NA,"",   890.018E+03,   928.952E+03,   928.952E+03
C:/temp/Job-34.odb,Step-1,Increment      1: Step Time =    1.000,"P-34-1",          1042,       65.3917,       108.897,            0.,NA,NA,"",   922.842E+03,   954.472E+03,   954.472E+03
C:/temp/Job-34.odb,Step-1,Increment      1: Step Time =    1.000,"P-34-1",          1043,       138.738,       99.9253,            0.,NA,NA,"",   943.426E+03,   947.251E+03,   947.251E+03
C:/temp/Job-34.odb,Step-1,Increment      1: Step Time =    1.000,"P-34-1",          1044,       129.869,       89.3439,            0.,NA,NA,"",   973.478E+03,   966.014E+03,   966.014E+03
C:/temp/Job-34.odb,Step-1,Increment      1: Step Time =    1.000,"P-34-1",          1045,       77.7630,       81.1165,            0.,NA,NA,"",   1.07632E+06,   1.06486E+06,   1.06486E+06
C:/temp/Job-34.odb,Step-1,Increment      1: Step Time =    1.000,"P-34-1",          1046,       70.1341,       27.2641,            0.,NA,NA,"",   999.305E+03,   1.00425E+06,   1.00425E+06
C:/temp/Job-34.odb,Step-1,Increment      1: Step Time =    1.000,"P-34-1",          1047,       131.452,       171.524,            0.,NA,NA,"",   1.00144E+06,   1.00008E+06,   1.00008E+06
C:/temp/Job-34.odb,Step-1,Increment      1: Step Time =    1.000,"P-34-1",          1048,       27.4336,       129.634,            0.,NA,NA,"",   903.929E+03,   977.064E+03,   977.064E+03
C:/temp/Job-34.odb,Step-1,Increment      1: Step Time =    1.000,"P-34-1",          1049,       168.550,       68.7345,            0.,NA,NA,"",   1.00718E+06,   1.00351E+06,   1.00351E+06
C:/temp/Job-34.odb,Step-1,Increment      1: Step Time =    1.000,"P-34-1",          1050,       109.421,       25.5686,            0.,NA,NA,"",   989.343E+03,   991.666E+03,   991.666E+03
C:/temp/Job-34.odb,Step-1,Increment      1: Step Time =    1.000,"P-34-1",          1051,       23.9444,       90.4527,            0.,NA,NA,"",   869.513E+03,   952.098E+03,   952.098E+03
C:/temp/Job-34.odb,Step-1,Increment      1: Step Time =    1.000,"P-34-1",          1052,       99.2144,       29.3977,            0.,NA,NA,"",   992.216E+03,   996.718E+03,   996.718E+03
C:/temp/Job-34.odb,Step-1,Increment      1: Step Time =    1.000,"P-34-1",          1053,       29.8726,       100.460,            0.,NA,NA,"",   879.607E+03,   955.625E+03,   955.625E+03
C:/temp/Job-34.odb,Step-1,Increment      1: Step Time =    1.000,"P-34-1",          1054,       174.689,       109.831,            0.,NA,NA,"",   996.256E+03,   995.951E+03,   995.951E+03
C:/temp/Job-34.odb,Step-1,Increment      1: Step Time =    1.000,"P-34-1",          1055,       90.6205,       175.446,            0.,NA,NA,"",   986.694E+03,   990.205E+03,   990.205E+03
C:/temp/Job-34.odb,Step-1,Increment      1: Step Time =    1.000,"P-34-1",          1056,       169.680,       100.008,            0.,NA,NA,"",   992.328E+03,    992.31E+03,    992.31E+03
C:/temp/Job-34.odb,Step-1,Increment      1: Step Time =    1.000,"P-34-1",          1057,       100.437,       169.567,            0.,NA,NA,"",   993.218E+03,   998.016E+03,   998.016E+03
C:/temp/Job-34.odb,Step-1,Increment      1: Step Time =    1.000,"P-34-1",          1058,       129.714,       114.540,            0.,NA,NA,"",   1.01670E+06,   999.855E+03,   999.855E+03
C:/temp/Job-34.odb,Step-1,Increment      1: Step Time =    1.000,"P-34-1",          1059,       24.9750,       27.9389,            0.,NA,NA,"",   1.00554E+06,   1.04934E+06,   1.04934E+06
C:/temp/Job-34.odb,Step-1,Increment      1: Step Time =    1.000,"P-34-1",          1060,       172.494,       32.1175,            0.,NA,NA,"",   1.00383E+06,   1.00158E+06,   1.00158E+06
C:/temp/Job-34.odb,Step-1,Increment      1: Step Time =    1.000,"P-34-1",          1061,       171.018,       170.657,            0.,NA,NA,"",   1.00313E+06,   1.00109E+06,   1.00109E+06
C:/temp/Job-34.odb,Step-1,Increment      1: Step Time =    1.000,"P-34-1",          1062,       86.0398,       80.8462,            0.,NA,NA,"",   1.13365E+06,   1.12605E+06,   1.12605E+06
C:/temp/Job-34.odb,Step-1,Increment      1: Step Time =    1.000,"P-34-1",          1063,       151.826,       177.664,            0.,NA,NA,"",   999.471E+03,   997.683E+03,   997.683E+03
C:/temp/Job-34.odb,Step-1,Increment      1: Step Time =    1.000,"P-34-1",          1064,       179.828,       153.123,            0.,NA,NA,"",   1.00492E+06,   1.00240E+06,   1.00240E+06
C:/temp/Job-34.odb,Step-1,Increment      1: Step Time =    1.000,"P-34-1",          1065,       47.2856,       179.896,            0.,NA,NA,"",   1.00344E+06,   1.01147E+06,   1.01147E+06
C:/temp/Job-34.odb,Step-1,Increment      1: Step Time =    1.000,"P-34-1",          1066,       177.452,       49.3989,            0.,NA,NA,"",   1.00603E+06,   1.00315E+06,   1.00315E+06
C:/temp/Job-34.odb,Step-1,Increment      1: Step Time =    1.000,"P-34-1",          1067,       150.066,       16.8969,            0.,NA,NA,"",   995.080E+03,   993.953E+03,   993.953E+03
C:/temp/Job-34.odb,Step-1,Increment      1: Step Time =    1.000,"P-34-1",          1068,       21.9497,       153.546,            0.,NA,NA,"",   937.210E+03,   1.00708E+06,   1.00708E+06
C:/temp/Job-34.odb,Step-1,Increment      1: Step Time =    1.000,"P-34-1",          1069,       20.7134,       49.0239,            0.,NA,NA,"",   924.723E+03,   999.304E+03,   999.304E+03
C:/temp/Job-34.odb,Step-1,Increment      1: Step Time =    1.000,"P-34-1",          1070,       45.9684,       22.1211,            0.,NA,NA,"",   1.00825E+06,   1.01855E+06,   1.01855E+06
C:/temp/Job-34.odb,Step-1,Increment      1: Step Time =    1.000,"P-34-1",          1071,       185.612,       152.950,            0.,NA,NA,"",   1.00348E+06,   1.00138E+06,   1.00138E+06
C:/temp/Job-34.odb,Step-1,Increment      1: Step Time =    1.000,"P-34-1",          1072,       153.147,       184.002,            0.,NA,NA,"",   995.691E+03,   994.615E+03,   994.615E+03
C:/temp/Job-34.odb,Step-1,Increment      1: Step Time =    1.000,"P-34-1",          1073,       47.1722,       185.556,            0.,NA,NA,"",   994.004E+03,   998.430E+03,   998.430E+03
C:/temp/Job-34.odb,Step-1,Increment      1: Step Time =    1.000,"P-34-1",          1074,       184.731,       46.3581,            0.,NA,NA,"",   1.00377E+06,   1.00152E+06,   1.00152E+06
C:/temp/Job-34.odb,Step-1,Increment      1: Step Time =    1.000,"P-34-1",          1075,       152.368,       13.7114,            0.,NA,NA,"",   993.825E+03,   993.003E+03,   993.003E+03
C:/temp/Job-34.odb,Step-1,Increment      1: Step Time =    1.000,"P-34-1",          1076,       27.1786,       168.826,            0.,NA,NA,"",   997.924E+03,   1.04189E+06,   1.04189E+06
C:/temp/Job-34.odb,Step-1,Increment      1: Step Time =    1.000,"P-34-1",          1077,       183.753,       50.5968,            0.,NA,NA,"",   1.00413E+06,   1.00180E+06,   1.00180E+06
C:/temp/Job-34.odb,Step-1,Increment      1: Step Time =    1.000,"P-34-1",          1078,       51.7572,       181.335,            0.,NA,NA,"",   997.346E+03,   1.00277E+06,   1.00277E+06
C:/temp/Job-34.odb,Step-1,Increment      1: Step Time =    1.000,"P-34-1",          1079,       180.939,       148.595,            0.,NA,NA,"",   1.00482E+06,   1.00235E+06,   1.00235E+06
C:/temp/Job-34.odb,Step-1,Increment      1: Step Time =    1.000,"P-34-1",          1080,       148.134,       182.119,            0.,NA,NA,"",   995.466E+03,   994.221E+03,   994.221E+03
C:/temp/Job-34.odb,Step-1,Increment      1: Step Time =    1.000,"P-34-1",          1081,       14.8770,       52.3736,            0.,NA,NA,"",   897.887E+03,   983.498E+03,   983.498E+03
C:/temp/Job-34.odb,Step-1,Increment      1: Step Time =    1.000,"P-34-1",          1082,       48.2151,       17.3766,            0.,NA,NA,"",   998.970E+03,   1.00479E+06,   1.00479E+06
C:/temp/Job-34.odb,Step-1,Increment      1: Step Time =    1.000,"P-34-1",          1083,       17.3408,       151.571,            0.,NA,NA,"",   915.879E+03,   995.426E+03,   995.426E+03
C:/temp/Job-34.odb,Step-1,Increment      1: Step Time =    1.000,"P-34-1",          1084,       59.9194,       100.483,            0.,NA,NA,"",   899.827E+03,   942.641E+03,   942.641E+03
C:/temp/Job-34.odb,Step-1,Increment      1: Step Time =    1.000,"P-34-1",          1085,       120.972,       129.481,            0.,NA,NA,"",   1.07222E+06,   1.06064E+06,   1.06064E+06
C:/temp/Job-34.odb,Step-1,Increment      1: Step Time =    1.000,"P-34-1",          1086,       144.007,       100.467,            0.,NA,NA,"",   959.418E+03,   962.136E+03,   962.136E+03
C:/temp/Job-34.odb,Step-1,Increment      1: Step Time =    1.000,"P-34-1",          1087,       95.6787,       69.5664,            0.,NA,NA,"",   1.02307E+06,   1.05537E+06,   1.05537E+06
C:/temp/Job-34.odb,Step-1,Increment      1: Step Time =    1.000,"P-34-1",          1088,       83.3361,       120.500,            0.,NA,NA,"",   1.10235E+06,   1.09509E+06,   1.09509E+06
C:/temp/Job-34.odb,Step-1,Increment      1: Step Time =    1.000,"P-34-1",          1089,       29.2954,       69.1201,            0.,NA,NA,"",   911.159E+03,   981.245E+03,   981.245E+03
C:/temp/Job-34.odb,Step-1,Increment      1: Step Time =    1.000,"P-34-1",          1090,       174.203,       126.433,            0.,NA,NA,"",   1.00272E+06,   1.00058E+06,   1.00058E+06
C:/temp/Job-34.odb,Step-1,Increment      1: Step Time =    1.000,"P-34-1",          1091,       124.494,       24.2345,            0.,NA,NA,"",   993.663E+03,   993.579E+03,   993.579E+03
C:/temp/Job-34.odb,Step-1,Increment      1: Step Time =    1.000,"P-34-1",          1092,       74.0982,       174.160,            0.,NA,NA,"",   994.812E+03,   998.889E+03,   998.889E+03
C:/temp/Job-34.odb,Step-1,Increment      1: Step Time =    1.000,"P-34-1",          1093,       109.823,       112.005,            0.,NA,NA,"",   1.28589E+06,   1.22481E+06,   1.22481E+06
C:/temp/Job-34.odb,Step-1,Increment      1: Step Time =    1.000,"P-34-1",          1094,       20.2401,       18.1965,            0.,NA,NA,"",   1.05713E+06,   1.08958E+06,   1.08958E+06
C:/temp/Job-34.odb,Step-1,Increment      1: Step Time =    1.000,"P-34-1",          1095,       25.6371,       145.101,            0.,NA,NA,"",   927.245E+03,   996.657E+03,   996.657E+03
C:/temp/Job-34.odb,Step-1,Increment      1: Step Time =    1.000,"P-34-1",          1096,       54.5067,       26.1147,            0.,NA,NA,"",   1.00548E+06,   1.01395E+06,   1.01395E+06
C:/temp/Job-34.odb,Step-1,Increment      1: Step Time =    1.000,"P-34-1",          1097,       24.8938,       55.1013,            0.,NA,NA,"",   924.146E+03,   994.859E+03,   994.859E+03
C:/temp/Job-34.odb,Step-1,Increment      1: Step Time =    1.000,"P-34-1",          1098,       173.803,       56.1714,            0.,NA,NA,"",   1.00775E+06,   1.00433E+06,   1.00433E+06
C:/temp/Job-34.odb,Step-1,Increment      1: Step Time =    1.000,"P-34-1",          1099,       54.2424,       173.011,            0.,NA,NA,"",   1.00672E+06,   1.01619E+06,   1.01619E+06
C:/temp/Job-34.odb,Step-1,Increment      1: Step Time =    1.000,"P-34-1",          1100,       144.046,       172.512,            0.,NA,NA,"",   1.00327E+06,   1.00079E+06,   1.00079E+06
C:/temp/Job-34.odb,Step-1,Increment      1: Step Time =    1.000,"P-34-1",          1101,       172.111,       145.185,            0.,NA,NA,"",   1.00821E+06,   1.00464E+06,   1.00464E+06
C:/temp/Job-34.odb,Step-1,Increment      1: Step Time =    1.000,"P-34-1",          1102,       125.538,       87.7157,            0.,NA,NA,"",   1.00005E+06,   982.394E+03,   982.394E+03
C:/temp/Job-34.odb,Step-1,Increment      1: Step Time =    1.000,"P-34-1",          1103,       85.2139,       76.7851,            0.,NA,NA,"",   1.08834E+06,   1.09274E+06,   1.09274E+06
C:/temp/Job-34.odb,Step-1,Increment      1: Step Time =    1.000,"P-34-1",          1104,       39.8404,       24.4222,            0.,NA,NA,"",   1.01488E+06,   1.03168E+06,   1.03168E+06
C:/temp/Job-34.odb,Step-1,Increment      1: Step Time =    1.000,"P-34-1",          1105,       24.7123,       159.066,            0.,NA,NA,"",   962.122E+03,   1.02200E+06,   1.02200E+06
C:/temp/Job-34.odb,Step-1,Increment      1: Step Time =    1.000,"P-34-1",          1106,       172.836,       38.4684,            0.,NA,NA,"",   1.00557E+06,   1.00283E+06,   1.00283E+06
C:/temp/Job-34.odb,Step-1,Increment      1: Step Time =    1.000,"P-34-1",          1107,       162.255,       174.063,            0.,NA,NA,"",   1.00236E+06,   1.00028E+06,   1.00028E+06
C:/temp/Job-34.odb,Step-1,Increment      1: Step Time =    1.000,"P-34-1",          1108,       10.6035,       15.1970,            0.,NA,NA,"",   1.07112E+06,   1.13028E+06,   1.13028E+06
C:/temp/Job-34.odb,Step-1,Increment      1: Step Time =    1.000,"P-34-1",          1109,       184.851,       10.3319,            0.,NA,NA,"",   999.357E+03,   999.045E+03,   999.045E+03
C:/temp/Job-34.odb,Step-1,Increment      1: Step Time =    1.000,"P-34-1",          1110,       15.1373,       189.810,            0.,NA,NA,"",   1.11352E+06,   1.13573E+06,   1.13573E+06
C:/temp/Job-34.odb,Step-1,Increment      1: Step Time =    1.000,"P-34-1",          1111,       189.683,       184.846,            0.,NA,NA,"",   1.00006E+06,   999.580E+03,   999.580E+03
C:/temp/Job-34.odb,Step-1,Increment      1: Step Time =    1.000,"P-34-1",          1112,       124.407,       123.087,            0.,NA,NA,"",   1.07206E+06,   1.05162E+06,   1.05162E+06
C:/temp/Job-34.odb,Step-1,Increment      1: Step Time =    1.000,"P-34-1",          1113,       112.616,       124.255,            0.,NA,NA,"",   1.09866E+06,   1.09668E+06,   1.09668E+06
C:/temp/Job-34.odb,Step-1,Increment      1: Step Time =    1.000,"P-34-1",          1114,       60.6471,       111.521,            0.,NA,NA,"",   936.745E+03,   971.748E+03,   971.748E+03
C:/temp/Job-34.odb,Step-1,Increment      1: Step Time =    1.000,"P-34-1",          1115,       65.7779,       96.5536,            0.,NA,NA,"",   895.492E+03,   931.106E+03,   931.106E+03
C:/temp/Job-34.odb,Step-1,Increment      1: Step Time =    1.000,"P-34-1",          1116,       132.230,       104.591,            0.,NA,NA,"",   914.420E+03,   919.459E+03,   919.459E+03
C:/temp/Job-34.odb,Step-1,Increment      1: Step Time =    1.000,"P-34-1",          1117,       134.790,       90.5042,            0.,NA,NA,"",   969.742E+03,   964.959E+03,   964.959E+03
C:/temp/Job-34.odb,Step-1,Increment      1: Step Time =    1.000,"P-34-1",          1118,       133.698,       118.720,            0.,NA,NA,"",   1.02612E+06,   1.01168E+06,   1.01168E+06
C:/temp/Job-34.odb,Step-1,Increment      1: Step Time =    1.000,"P-34-1",          1119,       128.873,       110.715,            0.,NA,NA,"",   976.203E+03,   964.912E+03,   964.912E+03
C:/temp/Job-34.odb,Step-1,Increment      1: Step Time =    1.000,"P-34-1",          1120,       155.243,       173.921,            0.,NA,NA,"",   1.00264E+06,   1.00032E+06,   1.00032E+06
C:/temp/Job-34.odb,Step-1,Increment      1: Step Time =    1.000,"P-34-1",          1121,       176.931,       156.848,            0.,NA,NA,"",   1.00536E+06,   1.00271E+06,   1.00271E+06
C:/temp/Job-34.odb,Step-1,Increment      1: Step Time =    1.000,"P-34-1",          1122,       173.113,       44.8127,            0.,NA,NA,"",   1.00700E+06,   1.00384E+06,   1.00384E+06
C:/temp/Job-34.odb,Step-1,Increment      1: Step Time =    1.000,"P-34-1",          1123,       43.7546,       175.267,            0.,NA,NA,"",   1.01112E+06,   1.02501E+06,   1.02501E+06
C:/temp/Job-34.odb,Step-1,Increment      1: Step Time =    1.000,"P-34-1",          1124,       26.2281,       155.211,            0.,NA,NA,"",    955.27E+03,   1.01592E+06,   1.01592E+06
C:/temp/Job-34.odb,Step-1,Increment      1: Step Time =    1.000,"P-34-1",          1125,       154.935,       24.7694,            0.,NA,NA,"",   1.00149E+06,   999.414E+03,   999.414E+03
C:/temp/Job-34.odb,Step-1,Increment      1: Step Time =    1.000,"P-34-1",          1126,       43.7243,       26.8282,            0.,NA,NA,"",   1.01217E+06,   1.02812E+06,   1.02812E+06
C:/temp/Job-34.odb,Step-1,Increment      1: Step Time =    1.000,"P-34-1",          1127,       25.2287,       43.7968,            0.,NA,NA,"",   954.064E+03,   1.01618E+06,   1.01618E+06
C:/temp/Job-34.odb,Step-1,Increment      1: Step Time =    1.000,"P-34-1",          1128,       106.399,       77.6029,            0.,NA,NA,"",   1.05332E+06,   1.09091E+06,   1.09091E+06
C:/temp/Job-34.odb,Step-1,Increment      1: Step Time =    1.000,"P-34-1",          1129,       173.639,       150.424,            0.,NA,NA,"",   1.00735E+06,   1.00409E+06,   1.00409E+06
C:/temp/Job-34.odb,Step-1,Increment      1: Step Time =    1.000,"P-34-1",          1130,       149.196,       174.711,            0.,NA,NA,"",   1.00142E+06,   999.247E+03,   999.247E+03
C:/temp/Job-34.odb,Step-1,Increment      1: Step Time =    1.000,"P-34-1",          1131,       150.216,       23.4104,            0.,NA,NA,"",   999.969E+03,   998.073E+03,   998.073E+03
C:/temp/Job-34.odb,Step-1,Increment      1: Step Time =    1.000,"P-34-1",          1132,       50.4061,       175.645,            0.,NA,NA,"",   1.00607E+06,   1.01536E+06,   1.01536E+06
C:/temp/Job-34.odb,Step-1,Increment      1: Step Time =    1.000,"P-34-1",          1133,       172.057,       51.6163,            0.,NA,NA,"",   1.00847E+06,   1.00487E+06,   1.00487E+06
C:/temp/Job-34.odb,Step-1,Increment      1: Step Time =    1.000,"P-34-1",          1134,       26.8988,       49.6458,            0.,NA,NA,"",   943.896E+03,   1.00739E+06,   1.00739E+06
C:/temp/Job-34.odb,Step-1,Increment      1: Step Time =    1.000,"P-34-1",          1135,       29.9081,       89.1775,            0.,NA,NA,"",   884.354E+03,   959.729E+03,   959.729E+03
C:/temp/Job-34.odb,Step-1,Increment      1: Step Time =    1.000,"P-34-1",          1136,       109.432,       31.0512,            0.,NA,NA,"",   995.718E+03,   999.117E+03,   999.117E+03
C:/temp/Job-34.odb,Step-1,Increment      1: Step Time =    1.000,"P-34-1",          1137,       89.5535,       170.095,            0.,NA,NA,"",   994.374E+03,   999.468E+03,   999.468E+03
C:/temp/Job-34.odb,Step-1,Increment      1: Step Time =    1.000,"P-34-1",          1138,       168.121,       112.902,            0.,NA,NA,"",   995.861E+03,   994.652E+03,   994.652E+03
C:/temp/Job-34.odb,Step-1,Increment      1: Step Time =    1.000,"P-34-1",          1139,       163.301,       99.6532,            0.,NA,NA,"",   988.397E+03,   988.444E+03,   988.444E+03
C:/temp/Job-34.odb,Step-1,Increment      1: Step Time =    1.000,"P-34-1",          1140,       99.8800,       164.591,            0.,NA,NA,"",   998.432E+03,   1.00487E+06,   1.00487E+06
C:/temp/Job-34.odb,Step-1,Increment      1: Step Time =    1.000,"P-34-1",          1141,       34.9816,       100.820,            0.,NA,NA,"",   889.647E+03,   959.549E+03,   959.549E+03
C:/temp/Job-34.odb,Step-1,Increment      1: Step Time =    1.000,"P-34-1",          1142,       67.5487,       88.1977,            0.,NA,NA,"",   944.296E+03,   968.979E+03,   968.979E+03
C:/temp/Job-34.odb,Step-1,Increment      1: Step Time =    1.000,"P-34-1",          1143,       164.303,       89.1006,            0.,NA,NA,"",   992.425E+03,   991.681E+03,   991.681E+03
C:/temp/Job-34.odb,Step-1,Increment      1: Step Time =    1.000,"P-34-1",          1144,       110.940,       164.009,            0.,NA,NA,"",   1.00267E+06,   1.00663E+06,   1.00663E+06
C:/temp/Job-34.odb,Step-1,Increment      1: Step Time =    1.000,"P-34-1",          1145,       88.0716,       34.7218,            0.,NA,NA,"",   1.00069E+06,   1.00733E+06,   1.00733E+06
C:/temp/Job-34.odb,Step-1,Increment      1: Step Time =    1.000,"P-34-1",          1146,       29.9034,       110.299,            0.,NA,NA,"",   884.369E+03,   959.600E+03,   959.600E+03
C:/temp/Job-34.odb,Step-1,Increment      1: Step Time =    1.000,"P-34-1",          1147,       88.1640,       119.183,            0.,NA,NA,"",   1.13294E+06,   1.12913E+06,   1.12913E+06
C:/temp/Job-34.odb,Step-1,Increment      1: Step Time =    1.000,"P-34-1",          1148,       166.983,       120.458,            0.,NA,NA,"",   1.00033E+06,   998.148E+03,   998.148E+03
C:/temp/Job-34.odb,Step-1,Increment      1: Step Time =    1.000,"P-34-1",          1149,       80.2613,       164.638,            0.,NA,NA,"",   1.00499E+06,   1.01185E+06,   1.01185E+06
C:/temp/Job-34.odb,Step-1,Increment      1: Step Time =    1.000,"P-34-1",          1150,       164.026,       80.0045,            0.,NA,NA,"",   1.00068E+06,   997.982E+03,   997.982E+03
C:/temp/Job-34.odb,Step-1,Increment      1: Step Time =    1.000,"P-34-1",          1151,       120.131,       165.588,            0.,NA,NA,"",   1.00328E+06,   1.00446E+06,   1.00446E+06
C:/temp/Job-34.odb,Step-1,Increment      1: Step Time =    1.000,"P-34-1",          1152,       36.9960,       78.8795,            0.,NA,NA,"",   915.372E+03,   978.275E+03,   978.275E+03
C:/temp/Job-34.odb,Step-1,Increment      1: Step Time =    1.000,"P-34-1",          1153,       124.692,       36.6644,            0.,NA,NA,"",   1.00836E+06,   1.00796E+06,   1.00796E+06
C:/temp/Job-34.odb,Step-1,Increment      1: Step Time =    1.000,"P-34-1",          1154,       78.8952,       33.3857,            0.,NA,NA,"",   1.00345E+06,   1.00961E+06,   1.00961E+06
C:/temp/Job-34.odb,Step-1,Increment      1: Step Time =    1.000,"P-34-1",          1155,       34.2018,       120.417,            0.,NA,NA,"",   907.722E+03,   974.568E+03,   974.568E+03
C:/temp/Job-34.odb,Step-1,Increment      1: Step Time =    1.000,"P-34-1",          1156,       164.140,       67.0265,            0.,NA,NA,"",   1.01050E+06,   1.00579E+06,   1.00579E+06
C:/temp/Job-34.odb,Step-1,Increment      1: Step Time =    1.000,"P-34-1",          1157,       32.2631,       130.249,            0.,NA,NA,"",   918.579E+03,   984.616E+03,   984.616E+03
C:/temp/Job-34.odb,Step-1,Increment      1: Step Time =    1.000,"P-34-1",          1158,       127.877,       163.659,            0.,NA,NA,"",   1.01012E+06,   1.00873E+06,   1.00873E+06
C:/temp/Job-34.odb,Step-1,Increment      1: Step Time =    1.000,"P-34-1",          1159,       69.5561,       31.9973,            0.,NA,NA,"",   1.00576E+06,   1.01238E+06,   1.01238E+06
C:/temp/Job-34.odb,Step-1,Increment      1: Step Time =    1.000,"P-34-1",          1160,       133.336,       109.745,            0.,NA,NA,"",   961.938E+03,   958.048E+03,   958.048E+03
C:/temp/Job-34.odb,Step-1,Increment      1: Step Time =    1.000,"P-34-1",          1161,       153.871,       29.5049,            0.,NA,NA,"",   1.00475E+06,   1.00200E+06,   1.00200E+06
C:/temp/Job-34.odb,Step-1,Increment      1: Step Time =    1.000,"P-34-1",          1162,       172.294,       155.440,            0.,NA,NA,"",   1.00719E+06,   1.00399E+06,   1.00399E+06
C:/temp/Job-34.odb,Step-1,Increment      1: Step Time =    1.000,"P-34-1",          1163,       31.8717,       46.4785,            0.,NA,NA,"",   966.208E+03,   1.01812E+06,   1.01812E+06
C:/temp/Job-34.odb,Step-1,Increment      1: Step Time =    1.000,"P-34-1",          1164,       47.8649,       171.964,            0.,NA,NA,"",   1.01012E+06,   1.02360E+06,   1.02360E+06
C:/temp/Job-34.odb,Step-1,Increment      1: Step Time =    1.000,"P-34-1",          1165,       55.9078,       103.696,            0.,NA,NA,"",   906.961E+03,   952.998E+03,   952.998E+03
C:/temp/Job-34.odb,Step-1,Increment      1: Step Time =    1.000,"P-34-1",          1166,       119.434,       133.290,            0.,NA,NA,"",   1.06186E+06,   1.05609E+06,   1.05609E+06
C:/temp/Job-34.odb,Step-1,Increment      1: Step Time =    1.000,"P-34-1",          1167,       179.777,       121.740,            0.,NA,NA,"",   1.00042E+06,   999.424E+03,   999.424E+03
C:/temp/Job-34.odb,Step-1,Increment      1: Step Time =    1.000,"P-34-1",          1168,       78.1247,       179.998,            0.,NA,NA,"",   982.939E+03,   985.403E+03,   985.403E+03
C:/temp/Job-34.odb,Step-1,Increment      1: Step Time =    1.000,"P-34-1",          1169,       144.908,       95.6897,            0.,NA,NA,"",   965.994E+03,   967.525E+03,   967.525E+03
C:/temp/Job-34.odb,Step-1,Increment      1: Step Time =    1.000,"P-34-1",          1170,       66.7800,       92.4899,            0.,NA,NA,"",   913.018E+03,   944.602E+03,   944.602E+03
C:/temp/Job-34.odb,Step-1,Increment      1: Step Time =    1.000,"P-34-1",          1171,       89.7913,       69.5291,            0.,NA,NA,"",   1.04194E+06,   1.06369E+06,   1.06369E+06
C:/temp/Job-34.odb,Step-1,Increment      1: Step Time =    1.000,"P-34-1",          1172,       100.350,       67.3240,            0.,NA,NA,"",   1.02014E+06,   1.05000E+06,   1.05000E+06
C:/temp/Job-34.odb,Step-1,Increment      1: Step Time =    1.000,"P-34-1",          1173,       126.107,       120.901,            0.,NA,NA,"",   1.06539E+06,   1.04390E+06,   1.04390E+06
C:/temp/Job-34.odb,Step-1,Increment      1: Step Time =    1.000,"P-34-1",          1174,       78.6500,       121.856,            0.,NA,NA,"",   1.07331E+06,   1.06936E+06,   1.06936E+06
C:/temp/Job-34.odb,Step-1,Increment      1: Step Time =    1.000,"P-34-1",          1175,       31.3574,       64.8341,            0.,NA,NA,"",   925.447E+03,   990.368E+03,   990.368E+03
C:/temp/Job-34.odb,Step-1,Increment      1: Step Time =    1.000,"P-34-1",          1176,       170.571,       132.402,            0.,NA,NA,"",   1.00648E+06,   1.00313E+06,   1.00313E+06
C:/temp/Job-34.odb,Step-1,Increment      1: Step Time =    1.000,"P-34-1",          1177,       133.441,       26.9826,            0.,NA,NA,"",   1.00008E+06,   998.680E+03,   998.680E+03
C:/temp/Job-34.odb,Step-1,Increment      1: Step Time =    1.000,"P-34-1",          1178,       68.3475,       169.696,            0.,NA,NA,"",   1.00448E+06,   1.01082E+06,   1.01082E+06
C:/temp/Job-34.odb,Step-1,Increment      1: Step Time =    1.000,"P-34-1",          1179,       67.9662,       112.534,            0.,NA,NA,"",   959.962E+03,   980.682E+03,   980.682E+03
C:/temp/Job-34.odb,Step-1,Increment      1: Step Time =    1.000,"P-34-1",          1180,       131.407,       85.3474,            0.,NA,NA,"",   1.00453E+06,   992.804E+03,   992.804E+03
C:/temp/Job-34.odb,Step-1,Increment      1: Step Time =    1.000,"P-34-1",          1181,       133.846,       114.356,            0.,NA,NA,"",   999.873E+03,   989.375E+03,   989.375E+03
C:/temp/Job-34.odb,Step-1,Increment      1: Step Time =    1.000,"P-34-1",          1182,       171.337,       160.214,            0.,NA,NA,"",   1.00632E+06,   1.00337E+06,   1.00337E+06
C:/temp/Job-34.odb,Step-1,Increment      1: Step Time =    1.000,"P-34-1",          1183,       158.727,       29.8095,            0.,NA,NA,"",   1.00463E+06,   1.00196E+06,   1.00196E+06
C:/temp/Job-34.odb,Step-1,Increment      1: Step Time =    1.000,"P-34-1",          1184,       23.7534,       39.1628,            0.,NA,NA,"",   963.955E+03,   1.02430E+06,   1.02430E+06
C:/temp/Job-34.odb,Step-1,Increment      1: Step Time =    1.000,"P-34-1",          1185,       110.916,       72.9962,            0.,NA,NA,"",   1.05965E+06,   1.07418E+06,   1.07418E+06
C:/temp/Job-34.odb,Step-1,Increment      1: Step Time =    1.000,"P-34-1",          1186,       68.1944,       83.8584,            0.,NA,NA,"",   979.741E+03,   996.977E+03,   996.977E+03
C:/temp/Job-34.odb,Step-1,Increment      1: Step Time =    1.000,"P-34-1",          1187,       163.780,       118.274,            0.,NA,NA,"",   998.866E+03,   996.891E+03,   996.891E+03
C:/temp/Job-34.odb,Step-1,Increment      1: Step Time =    1.000,"P-34-1",          1188,       83.8021,       162.683,            0.,NA,NA,"",   1.00536E+06,   1.01305E+06,   1.01305E+06
C:/temp/Job-34.odb,Step-1,Increment      1: Step Time =    1.000,"P-34-1",          1189,       40.0346,       83.1353,            0.,NA,NA,"",   914.959E+03,   975.725E+03,   975.725E+03
C:/temp/Job-34.odb,Step-1,Increment      1: Step Time =    1.000,"P-34-1",          1190,       115.393,       35.3593,            0.,NA,NA,"",   1.00289E+06,   1.00537E+06,   1.00537E+06
C:/temp/Job-34.odb,Step-1,Increment      1: Step Time =    1.000,"P-34-1",          1191,       184.478,       184.909,            0.,NA,NA,"",    999.71E+03,   999.178E+03,   999.178E+03
C:/temp/Job-34.odb,Step-1,Increment      1: Step Time =    1.000,"P-34-1",          1192,       184.963,       15.5063,            0.,NA,NA,"",   999.811E+03,   999.221E+03,   999.221E+03
C:/temp/Job-34.odb,Step-1,Increment      1: Step Time =    1.000,"P-34-1",          1193,       15.4344,       14.6103,            0.,NA,NA,"",   1.08505E+06,   1.12126E+06,   1.12126E+06
C:/temp/Job-34.odb,Step-1,Increment      1: Step Time =    1.000,"P-34-1",          1194,       163.192,       95.7021,            0.,NA,NA,"",   988.905E+03,   988.964E+03,   988.964E+03
C:/temp/Job-34.odb,Step-1,Increment      1: Step Time =    1.000,"P-34-1",          1195,       105.566,       162.181,            0.,NA,NA,"",   1.00212E+06,   1.00825E+06,   1.00825E+06
C:/temp/Job-34.odb,Step-1,Increment      1: Step Time =    1.000,"P-34-1",          1196,       35.2179,       105.700,            0.,NA,NA,"",   892.056E+03,   961.191E+03,   961.191E+03
C:/temp/Job-34.odb,Step-1,Increment      1: Step Time =    1.000,"P-34-1",          1197,       97.9460,       35.7018,            0.,NA,NA,"",   998.909E+03,   1.00568E+06,   1.00568E+06
C:/temp/Job-34.odb,Step-1,Increment      1: Step Time =    1.000,"P-34-1",          1198,       163.407,       83.8452,            0.,NA,NA,"",   996.959E+03,   995.013E+03,   995.013E+03
C:/temp/Job-34.odb,Step-1,Increment      1: Step Time =    1.000,"P-34-1",          1199,       115.977,       164.036,            0.,NA,NA,"",   1.00330E+06,   1.00583E+06,   1.00583E+06
C:/temp/Job-34.odb,Step-1,Increment      1: Step Time =    1.000,"P-34-1",          1200,       35.2020,       115.463,            0.,NA,NA,"",   902.561E+03,   969.684E+03,   969.684E+03
C:/temp/Job-34.odb,Step-1,Increment      1: Step Time =    1.000,"P-34-1",          1201,       83.5230,       34.0876,            0.,NA,NA,"",   1.00208E+06,   1.00842E+06,   1.00842E+06
C:/temp/Job-34.odb,Step-1,Increment      1: Step Time =    1.000,"P-34-1",          1202,       126.169,       160.117,            0.,NA,NA,"",   1.01416E+06,   1.01306E+06,   1.01306E+06
C:/temp/Job-34.odb,Step-1,Increment      1: Step Time =    1.000,"P-34-1",          1203,       73.6028,       37.3307,            0.,NA,NA,"",   1.01039E+06,   1.01822E+06,   1.01822E+06
C:/temp/Job-34.odb,Step-1,Increment      1: Step Time =    1.000,"P-34-1",          1204,       37.9014,       126.133,            0.,NA,NA,"",   926.940E+03,   986.493E+03,   986.493E+03
C:/temp/Job-34.odb,Step-1,Increment      1: Step Time =    1.000,"P-34-1",          1205,       165.170,       76.1002,            0.,NA,NA,"",   1.00382E+06,   1.00059E+06,   1.00059E+06
C:/temp/Job-34.odb,Step-1,Increment      1: Step Time =    1.000,"P-34-1",          1206,       162.797,       103.709,            0.,NA,NA,"",   988.540E+03,   988.507E+03,   988.507E+03
C:/temp/Job-34.odb,Step-1,Increment      1: Step Time =    1.000,"P-34-1",          1207,       95.0173,       161.942,            0.,NA,NA,"",   1.00156E+06,   1.00964E+06,   1.00964E+06
C:/temp/Job-34.odb,Step-1,Increment      1: Step Time =    1.000,"P-34-1",          1208,       35.2782,       95.8518,            0.,NA,NA,"",   891.335E+03,   960.614E+03,   960.614E+03
C:/temp/Job-34.odb,Step-1,Increment      1: Step Time =    1.000,"P-34-1",          1209,       105.220,       37.9601,            0.,NA,NA,"",   1.00141E+06,   1.00788E+06,   1.00788E+06
C:/temp/Job-34.odb,Step-1,Increment      1: Step Time =    1.000,"P-34-1",          1210,       64.7607,       36.3823,            0.,NA,NA,"",   1.01210E+06,   1.02146E+06,   1.02146E+06
C:/temp/Job-34.odb,Step-1,Increment      1: Step Time =    1.000,"P-34-1",          1211,       36.4372,       135.323,            0.,NA,NA,"",   940.325E+03,   997.573E+03,   997.573E+03
C:/temp/Job-34.odb,Step-1,Increment      1: Step Time =    1.000,"P-34-1",          1212,       165.975,       63.8228,            0.,NA,NA,"",   1.01063E+06,   1.00607E+06,   1.00607E+06
C:/temp/Job-34.odb,Step-1,Increment      1: Step Time =    1.000,"P-34-1",          1213,       93.5201,       123.550,            0.,NA,NA,"",   1.05952E+06,   1.09450E+06,   1.09450E+06
C:/temp/Job-34.odb,Step-1,Increment      1: Step Time =    1.000,"P-34-1",          1214,       140.193,       89.7357,            0.,NA,NA,"",   977.128E+03,   973.793E+03,   973.793E+03
C:/temp/Job-34.odb,Step-1,Increment      1: Step Time =    1.000,"P-34-1",          1215,       42.7388,       75.0275,            0.,NA,NA,"",   938.881E+03,   990.780E+03,   990.780E+03
C:/temp/Job-34.odb,Step-1,Increment      1: Step Time =    1.000,"P-34-1",          1216,       127.966,       37.2626,            0.,NA,NA,"",   1.01078E+06,   1.00964E+06,   1.00964E+06
C:/temp/Job-34.odb,Step-1,Increment      1: Step Time =    1.000,"P-34-1",          1217,       163.701,       127.776,            0.,NA,NA,"",   1.00712E+06,   1.00297E+06,   1.00297E+06
C:/temp/Job-34.odb,Step-1,Increment      1: Step Time =    1.000,"P-34-1",          1218,       74.7086,       162.094,            0.,NA,NA,"",   1.01029E+06,   1.01826E+06,   1.01826E+06
C:/temp/Job-34.odb,Step-1,Increment      1: Step Time =    1.000,"P-34-1",          1219,       88.8665,       124.500,            0.,NA,NA,"",   1.07637E+06,   1.09217E+06,   1.09217E+06
C:/temp/Job-34.odb,Step-1,Increment      1: Step Time =    1.000,"P-34-1",          1220,       138.318,       109.650,            0.,NA,NA,"",   964.878E+03,   963.806E+03,   963.806E+03
C:/temp/Job-34.odb,Step-1,Increment      1: Step Time =    1.000,"P-34-1",          1221,       190.444,       19.9986,            0.,NA,NA,"",   1.00050E+06,   999.735E+03,   999.735E+03
C:/temp/Job-34.odb,Step-1,Increment      1: Step Time =    1.000,"P-34-1",          1222,       179.929,       190.398,            0.,NA,NA,"",   998.785E+03,   998.516E+03,   998.516E+03
C:/temp/Job-34.odb,Step-1,Increment      1: Step Time =    1.000,"P-34-1",          1223,       15.3948,       9.86821,            0.,NA,NA,"",   1.11367E+06,   1.13410E+06,   1.13410E+06
C:/temp/Job-34.odb,Step-1,Increment      1: Step Time =    1.000,"P-34-1",          1224,       10.1294,       184.965,            0.,NA,NA,"",   1.07119E+06,   1.13220E+06,   1.13220E+06
C:/temp/Job-34.odb,Step-1,Increment      1: Step Time =    1.000,"P-34-1",          1225,       67.0088,       118.752,            0.,NA,NA,"",   994.561E+03,   1.01182E+06,   1.01182E+06
C:/temp/Job-34.odb,Step-1,Increment      1: Step Time =    1.000,"P-34-1",          1226,       55.0884,       98.0508,            0.,NA,NA,"",   907.426E+03,   954.841E+03,   954.841E+03
C:/temp/Job-34.odb,Step-1,Increment      1: Step Time =    1.000,"P-34-1",          1227,       53.9096,       109.285,            0.,NA,NA,"",   922.372E+03,   967.827E+03,   967.827E+03
C:/temp/Job-34.odb,Step-1,Increment      1: Step Time =    1.000,"P-34-1",          1228,       115.073,       130.999,            0.,NA,NA,"",   1.06562E+06,    1.0653E+06,    1.0653E+06
C:/temp/Job-34.odb,Step-1,Increment      1: Step Time =    1.000,"P-34-1",          1229,       123.939,       135.441,            0.,NA,NA,"",   1.05547E+06,   1.04708E+06,   1.04708E+06
C:/temp/Job-34.odb,Step-1,Increment      1: Step Time =    1.000,"P-34-1",          1230,       148.936,       100.962,            0.,NA,NA,"",   970.722E+03,   972.317E+03,   972.317E+03
C:/temp/Job-34.odb,Step-1,Increment      1: Step Time =    1.000,"P-34-1",          1231,       86.8202,       71.8045,            0.,NA,NA,"",   1.05919E+06,   1.07367E+06,   1.07367E+06
C:/temp/Job-34.odb,Step-1,Increment      1: Step Time =    1.000,"P-34-1",          1232,       127.861,       124.931,            0.,NA,NA,"",   1.06130E+06,   1.04384E+06,   1.04384E+06
C:/temp/Job-34.odb,Step-1,Increment      1: Step Time =    1.000,"P-34-1",          1233,       115.191,       77.7628,            0.,NA,NA,"",   1.11837E+06,   1.10413E+06,   1.10413E+06
C:/temp/Job-34.odb,Step-1,Increment      1: Step Time =    1.000,"P-34-1",          1234,       107.325,       67.9787,            0.,NA,NA,"",   1.02889E+06,   1.05140E+06,   1.05140E+06
C:/temp/Job-34.odb,Step-1,Increment      1: Step Time =    1.000,"P-34-1",          1235,       128.781,       79.6948,            0.,NA,NA,"",   1.04875E+06,   1.03015E+06,   1.03015E+06
C:/temp/Job-34.odb,Step-1,Increment      1: Step Time =    1.000,"P-34-1",          1236,       68.8643,       79.4602,            0.,NA,NA,"",   1.00895E+06,   1.02132E+06,   1.02132E+06
C:/temp/Job-34.odb,Step-1,Increment      1: Step Time =    1.000,"P-34-1",          1237,       163.261,       113.987,            0.,NA,NA,"",   995.456E+03,   993.368E+03,   993.368E+03
C:/temp/Job-34.odb,Step-1,Increment      1: Step Time =    1.000,"P-34-1",          1238,       88.1883,       164.187,            0.,NA,NA,"",   1.00078E+06,   1.00801E+06,   1.00801E+06
C:/temp/Job-34.odb,Step-1,Increment      1: Step Time =    1.000,"P-34-1",          1239,       162.198,       120.762,            0.,NA,NA,"",   1.00064E+06,   997.753E+03,   997.753E+03
C:/temp/Job-34.odb,Step-1,Increment      1: Step Time =    1.000,"P-34-1",          1240,       78.5239,       160.387,            0.,NA,NA,"",   1.01098E+06,   1.01930E+06,   1.01930E+06
C:/temp/Job-34.odb,Step-1,Increment      1: Step Time =    1.000,"P-34-1",          1241,       36.8668,       86.2233,            0.,NA,NA,"",   903.314E+03,   968.535E+03,   968.535E+03
C:/temp/Job-34.odb,Step-1,Increment      1: Step Time =    1.000,"P-34-1",          1242,       110.277,       36.1045,            0.,NA,NA,"",   1.00176E+06,   1.00611E+06,   1.00611E+06
C:/temp/Job-34.odb,Step-1,Increment      1: Step Time =    1.000,"P-34-1",          1243,       42.3271,       79.2322,            0.,NA,NA,"",   928.474E+03,   983.572E+03,   983.572E+03
C:/temp/Job-34.odb,Step-1,Increment      1: Step Time =    1.000,"P-34-1",          1244,       121.844,       39.6455,            0.,NA,NA,"",   1.01116E+06,   1.01165E+06,   1.01165E+06
C:/temp/Job-34.odb,Step-1,Increment      1: Step Time =    1.000,"P-34-1",          1245,       110.588,       159.659,            0.,NA,NA,"",   1.00633E+06,   1.01157E+06,   1.01157E+06
C:/temp/Job-34.odb,Step-1,Increment      1: Step Time =    1.000,"P-34-1",          1246,       93.3039,       38.5160,            0.,NA,NA,"",   1.00225E+06,   1.01045E+06,   1.01045E+06
C:/temp/Job-34.odb,Step-1,Increment      1: Step Time =    1.000,"P-34-1",          1247,       35.5431,       110.539,            0.,NA,NA,"",   897.219E+03,   965.136E+03,   965.136E+03
C:/temp/Job-34.odb,Step-1,Increment      1: Step Time =    1.000,"P-34-1",          1248,       122.917,       161.341,            0.,NA,NA,"",   1.01114E+06,   1.01125E+06,   1.01125E+06
C:/temp/Job-34.odb,Step-1,Increment      1: Step Time =    1.000,"P-34-1",          1249,       159.152,       79.1918,            0.,NA,NA,"",   1.00264E+06,   999.045E+03,   999.045E+03
C:/temp/Job-34.odb,Step-1,Increment      1: Step Time =    1.000,"P-34-1",          1250,       78.0321,       38.1136,            0.,NA,NA,"",   1.00935E+06,   1.01701E+06,   1.01701E+06
C:/temp/Job-34.odb,Step-1,Increment      1: Step Time =    1.000,"P-34-1",          1251,       39.0018,       121.443,            0.,NA,NA,"",   921.473E+03,   981.382E+03,   981.382E+03
C:/temp/Job-34.odb,Step-1,Increment      1: Step Time =    1.000,"P-34-1",          1252,       101.076,       158.302,            0.,NA,NA,"",   1.00452E+06,   1.01346E+06,   1.01346E+06
C:/temp/Job-34.odb,Step-1,Increment      1: Step Time =    1.000,"P-34-1",          1253,       157.917,       99.9660,            0.,NA,NA,"",   983.860E+03,   984.168E+03,   984.168E+03
C:/temp/Job-34.odb,Step-1,Increment      1: Step Time =    1.000,"P-34-1",          1254,       100.075,       40.3511,            0.,NA,NA,"",   1.00250E+06,   1.01090E+06,   1.01090E+06
C:/temp/Job-34.odb,Step-1,Increment      1: Step Time =    1.000,"P-34-1",          1255,       39.6890,       101.162,            0.,NA,NA,"",   897.453E+03,   961.539E+03,   961.539E+03
C:/temp/Job-34.odb,Step-1,Increment      1: Step Time =    1.000,"P-34-1",          1256,       141.290,       163.172,            0.,NA,NA,"",   1.01279E+06,   1.00884E+06,   1.00884E+06
C:/temp/Job-34.odb,Step-1,Increment      1: Step Time =    1.000,"P-34-1",          1257,       131.540,       161.362,            0.,NA,NA,"",   1.01411E+06,   1.01147E+06,   1.01147E+06
C:/temp/Job-34.odb,Step-1,Increment      1: Step Time =    1.000,"P-34-1",          1258,       60.3727,       36.8338,            0.,NA,NA,"",   1.01245E+06,   1.02404E+06,   1.02404E+06
C:/temp/Job-34.odb,Step-1,Increment      1: Step Time =    1.000,"P-34-1",          1259,       69.1317,       36.6347,            0.,NA,NA,"",   1.01120E+06,   1.01958E+06,   1.01958E+06
C:/temp/Job-34.odb,Step-1,Increment      1: Step Time =    1.000,"P-34-1",          1260,       36.3919,       139.835,            0.,NA,NA,"",   949.785E+03,   1.00409E+06,   1.00409E+06
C:/temp/Job-34.odb,Step-1,Increment      1: Step Time =    1.000,"P-34-1",          1261,       37.0456,       130.776,            0.,NA,NA,"",   933.271E+03,   991.920E+03,   991.920E+03
C:/temp/Job-34.odb,Step-1,Increment      1: Step Time =    1.000,"P-34-1",          1262,       165.556,       58.9123,            0.,NA,NA,"",   1.01176E+06,   1.00706E+06,   1.00706E+06
C:/temp/Job-34.odb,Step-1,Increment      1: Step Time =    1.000,"P-34-1",          1263,       157.426,       68.4766,            0.,NA,NA,"",   1.01419E+06,   1.00815E+06,   1.00815E+06
C:/temp/Job-34.odb,Step-1,Increment      1: Step Time =    1.000,"P-34-1",          1264,       97.7312,       117.696,            0.,NA,NA,"",   1.05806E+06,   1.13344E+06,   1.13344E+06
C:/temp/Job-34.odb,Step-1,Increment      1: Step Time =    1.000,"P-34-1",          1265,       40.4138,       69.3918,            0.,NA,NA,"",   943.796E+03,   996.776E+03,   996.776E+03
C:/temp/Job-34.odb,Step-1,Increment      1: Step Time =    1.000,"P-34-1",          1266,       130.986,       34.9748,            0.,NA,NA,"",   1.00879E+06,   1.00698E+06,   1.00698E+06
C:/temp/Job-34.odb,Step-1,Increment      1: Step Time =    1.000,"P-34-1",          1267,       166.128,       133.285,            0.,NA,NA,"",   1.00865E+06,   1.00450E+06,   1.00450E+06
C:/temp/Job-34.odb,Step-1,Increment      1: Step Time =    1.000,"P-34-1",          1268,       71.1717,       164.364,            0.,NA,NA,"",   1.00956E+06,   1.01755E+06,   1.01755E+06
C:/temp/Job-34.odb,Step-1,Increment      1: Step Time =    1.000,"P-34-1",          1269,       97.8706,       122.806,            0.,NA,NA,"",   1.04392E+06,   1.09330E+06,   1.09330E+06
C:/temp/Job-34.odb,Step-1,Increment      1: Step Time =    1.000,"P-34-1",          1270,       153.975,       34.2053,            0.,NA,NA,"",   1.00811E+06,   1.00465E+06,   1.00465E+06
C:/temp/Job-34.odb,Step-1,Increment      1: Step Time =    1.000,"P-34-1",          1271,       167.215,       154.990,            0.,NA,NA,"",   1.00933E+06,   1.00551E+06,   1.00551E+06
C:/temp/Job-34.odb,Step-1,Increment      1: Step Time =    1.000,"P-34-1",          1272,       36.0217,       44.0204,            0.,NA,NA,"",   981.601E+03,   1.02474E+06,   1.02474E+06
C:/temp/Job-34.odb,Step-1,Increment      1: Step Time =    1.000,"P-34-1",          1273,       45.5280,       167.577,            0.,NA,NA,"",   1.00974E+06,   1.02907E+06,   1.02907E+06
C:/temp/Job-34.odb,Step-1,Increment      1: Step Time =    1.000,"P-34-1",          1274,       101.494,       121.228,            0.,NA,NA,"",   1.02986E+06,   1.09374E+06,   1.09374E+06
C:/temp/Job-34.odb,Step-1,Increment      1: Step Time =    1.000,"P-34-1",          1275,       143.334,       114.851,            0.,NA,NA,"",   991.439E+03,   986.942E+03,   986.942E+03
C:/temp/Job-34.odb,Step-1,Increment      1: Step Time =    1.000,"P-34-1",          1276,       74.3186,       123.141,            0.,NA,NA,"",   1.04895E+06,   1.05164E+06,   1.05164E+06
C:/temp/Job-34.odb,Step-1,Increment      1: Step Time =    1.000,"P-34-1",          1277,       125.314,       131.573,            0.,NA,NA,"",   1.06324E+06,   1.05084E+06,   1.05084E+06
C:/temp/Job-34.odb,Step-1,Increment      1: Step Time =    1.000,"P-34-1",          1278,       113.547,       135.399,            0.,NA,NA,"",   1.04541E+06,   1.05181E+06,   1.05181E+06
C:/temp/Job-34.odb,Step-1,Increment      1: Step Time =    1.000,"P-34-1",          1279,       57.1417,       90.2579,            0.,NA,NA,"",   925.120E+03,   966.499E+03,   966.499E+03
C:/temp/Job-34.odb,Step-1,Increment      1: Step Time =    1.000,"P-34-1",          1280,       131.562,       126.741,            0.,NA,NA,"",   1.05059E+06,   1.03489E+06,   1.03489E+06
C:/temp/Job-34.odb,Step-1,Increment      1: Step Time =    1.000,"P-34-1",          1281,       138.091,       119.339,            0.,NA,NA,"",   1.01599E+06,   1.00521E+06,   1.00521E+06
C:/temp/Job-34.odb,Step-1,Increment      1: Step Time =    1.000,"P-34-1",          1282,       36.4616,       90.8095,            0.,NA,NA,"",   897.607E+03,   964.395E+03,   964.395E+03
C:/temp/Job-34.odb,Step-1,Increment      1: Step Time =    1.000,"P-34-1",          1283,       166.031,       108.221,            0.,NA,NA,"",   992.380E+03,   991.992E+03,   991.992E+03
C:/temp/Job-34.odb,Step-1,Increment      1: Step Time =    1.000,"P-34-1",          1284,       91.1940,       165.006,            0.,NA,NA,"",   999.602E+03,   1.00661E+06,   1.00661E+06
C:/temp/Job-34.odb,Step-1,Increment      1: Step Time =    1.000,"P-34-1",          1285,       103.649,       67.5888,            0.,NA,NA,"",   1.01932E+06,   1.04734E+06,   1.04734E+06
C:/temp/Job-34.odb,Step-1,Increment      1: Step Time =    1.000,"P-34-1",          1286,       124.892,       77.9611,            0.,NA,NA,"",   1.07727E+06,   1.05367E+06,   1.05367E+06
C:/temp/Job-34.odb,Step-1,Increment      1: Step Time =    1.000,"P-34-1",          1287,       64.2072,       78.4276,            0.,NA,NA,"",   991.886E+03,   1.01273E+06,   1.01273E+06
C:/temp/Job-34.odb,Step-1,Increment      1: Step Time =    1.000,"P-34-1",          1288,       87.2881,       160.798,            0.,NA,NA,"",   1.00553E+06,   1.01392E+06,   1.01392E+06
C:/temp/Job-34.odb,Step-1,Increment      1: Step Time =    1.000,"P-34-1",          1289,       41.0953,       86.4166,            0.,NA,NA,"",   910.733E+03,   971.260E+03,   971.260E+03
C:/temp/Job-34.odb,Step-1,Increment      1: Step Time =    1.000,"P-34-1",          1290,       111.268,       40.1732,            0.,NA,NA,"",   1.00597E+06,   1.01088E+06,   1.01088E+06
C:/temp/Job-34.odb,Step-1,Increment      1: Step Time =    1.000,"P-34-1",          1291,       62.6863,       87.1173,            0.,NA,NA,"",   944.463E+03,   975.405E+03,   975.405E+03
C:/temp/Job-34.odb,Step-1,Increment      1: Step Time =    1.000,"P-34-1",          1292,       139.979,       158.592,            0.,NA,NA,"",   1.01744E+06,   1.01269E+06,   1.01269E+06
C:/temp/Job-34.odb,Step-1,Increment      1: Step Time =    1.000,"P-34-1",          1293,       61.5966,       40.5861,            0.,NA,NA,"",   1.01437E+06,   1.02712E+06,   1.02712E+06
C:/temp/Job-34.odb,Step-1,Increment      1: Step Time =    1.000,"P-34-1",          1294,       40.3715,       138.994,            0.,NA,NA,"",   959.178E+03,   1.00794E+06,   1.00794E+06
C:/temp/Job-34.odb,Step-1,Increment      1: Step Time =    1.000,"P-34-1",          1295,       162.620,       61.4846,            0.,NA,NA,"",   1.01325E+06,   1.00799E+06,   1.00799E+06
C:/temp/Job-34.odb,Step-1,Increment      1: Step Time =    1.000,"P-34-1",          1296,       99.2484,       127.819,            0.,NA,NA,"",   1.01300E+06,   1.05649E+06,   1.05649E+06
C:/temp/Job-34.odb,Step-1,Increment      1: Step Time =    1.000,"P-34-1",          1297,       160.635,       38.7458,            0.,NA,NA,"",   1.00926E+06,   1.00551E+06,   1.00551E+06
C:/temp/Job-34.odb,Step-1,Increment      1: Step Time =    1.000,"P-34-1",          1298,       162.414,       158.998,            0.,NA,NA,"",   1.00969E+06,   1.00579E+06,   1.00579E+06
C:/temp/Job-34.odb,Step-1,Increment      1: Step Time =    1.000,"P-34-1",          1299,       34.8762,       39.5415,            0.,NA,NA,"",   988.622E+03,   1.02925E+06,   1.02925E+06
C:/temp/Job-34.odb,Step-1,Increment      1: Step Time =    1.000,"P-34-1",          1300,       40.0924,       166.248,            0.,NA,NA,"",   1.00593E+06,   1.03265E+06,   1.03265E+06
C:/temp/Job-34.odb,Step-1,Increment      1: Step Time =    1.000,"P-34-1",          1301,       111.187,       68.2922,            0.,NA,NA,"",   1.04518E+06,   1.05841E+06,   1.05841E+06
C:/temp/Job-34.odb,Step-1,Increment      1: Step Time =    1.000,"P-34-1",          1302,       146.452,       91.0058,            0.,NA,NA,"",    978.26E+03,   977.231E+03,   977.231E+03
C:/temp/Job-34.odb,Step-1,Increment      1: Step Time =    1.000,"P-34-1",          1303,       49.2771,       101.226,            0.,NA,NA,"",   907.214E+03,   960.171E+03,   960.171E+03
C:/temp/Job-34.odb,Step-1,Increment      1: Step Time =    1.000,"P-34-1",          1304,       49.5987,       110.869,            0.,NA,NA,"",   922.101E+03,   971.950E+03,   971.950E+03
C:/temp/Job-34.odb,Step-1,Increment      1: Step Time =    1.000,"P-34-1",          1305,       122.306,       139.592,            0.,NA,NA,"",   1.04601E+06,   1.04169E+06,   1.04169E+06
C:/temp/Job-34.odb,Step-1,Increment      1: Step Time =    1.000,"P-34-1",          1306,       89.7854,       63.1499,            0.,NA,NA,"",   1.02725E+06,   1.04682E+06,   1.04682E+06
C:/temp/Job-34.odb,Step-1,Increment      1: Step Time =    1.000,"P-34-1",          1307,       45.0614,       71.1925,            0.,NA,NA,"",   952.572E+03,   999.869E+03,   999.869E+03
C:/temp/Job-34.odb,Step-1,Increment      1: Step Time =    1.000,"P-34-1",          1308,       130.268,       40.0641,            0.,NA,NA,"",   1.01518E+06,   1.01303E+06,   1.01303E+06
C:/temp/Job-34.odb,Step-1,Increment      1: Step Time =    1.000,"P-34-1",          1309,       161.888,       133.253,            0.,NA,NA,"",   1.01147E+06,   1.00638E+06,   1.00638E+06
C:/temp/Job-34.odb,Step-1,Increment      1: Step Time =    1.000,"P-34-1",          1310,       119.375,       77.2024,            0.,NA,NA,"",   1.10428E+06,   1.08190E+06,   1.08190E+06
C:/temp/Job-34.odb,Step-1,Increment      1: Step Time =    1.000,"P-34-1",          1311,       79.3492,       126.494,            0.,NA,NA,"",   1.06976E+06,   1.07165E+06,   1.07165E+06
C:/temp/Job-34.odb,Step-1,Increment      1: Step Time =    1.000,"P-34-1",          1312,       142.732,       84.8792,            0.,NA,NA,"",   993.571E+03,   989.016E+03,   989.016E+03
C:/temp/Job-34.odb,Step-1,Increment      1: Step Time =    1.000,"P-34-1",          1313,       133.234,       81.3046,            0.,NA,NA,"",   1.02488E+06,   1.01072E+06,   1.01072E+06
C:/temp/Job-34.odb,Step-1,Increment      1: Step Time =    1.000,"P-34-1",          1314,       36.5721,       165.583,            0.,NA,NA,"",   1.00220E+06,   1.03413E+06,   1.03413E+06
C:/temp/Job-34.odb,Step-1,Increment      1: Step Time =    1.000,"P-34-1",          1315,       165.573,       164.640,            0.,NA,NA,"",   1.00608E+06,   1.00314E+06,   1.00314E+06
C:/temp/Job-34.odb,Step-1,Increment      1: Step Time =    1.000,"P-34-1",          1316,       31.7925,       35.5188,            0.,NA,NA,"",   991.971E+03,   1.03388E+06,   1.03388E+06
C:/temp/Job-34.odb,Step-1,Increment      1: Step Time =    1.000,"P-34-1",          1317,       162.330,       34.8391,            0.,NA,NA,"",   1.00672E+06,   1.00359E+06,   1.00359E+06
C:/temp/Job-34.odb,Step-1,Increment      1: Step Time =    1.000,"P-34-1",          1318,       108.389,       121.332,            0.,NA,NA,"",   1.10249E+06,   1.11439E+06,   1.11439E+06
C:/temp/Job-34.odb,Step-1,Increment      1: Step Time =    1.000,"P-34-1",          1319,       44.7739,       98.5917,            0.,NA,NA,"",   903.857E+03,   961.997E+03,   961.997E+03
C:/temp/Job-34.odb,Step-1,Increment      1: Step Time =    1.000,"P-34-1",          1320,       101.718,       45.1853,            0.,NA,NA,"",   1.00619E+06,   1.01658E+06,   1.01658E+06
C:/temp/Job-34.odb,Step-1,Increment      1: Step Time =    1.000,"P-34-1",          1321,       153.543,       100.967,            0.,NA,NA,"",   978.005E+03,   978.765E+03,   978.765E+03
C:/temp/Job-34.odb,Step-1,Increment      1: Step Time =    1.000,"P-34-1",          1322,       102.918,       155.804,            0.,NA,NA,"",   1.00438E+06,   1.01404E+06,   1.01404E+06
C:/temp/Job-34.odb,Step-1,Increment      1: Step Time =    1.000,"P-34-1",          1323,       135.215,       77.0581,            0.,NA,NA,"",   1.03463E+06,   1.02095E+06,   1.02095E+06
C:/temp/Job-34.odb,Step-1,Increment      1: Step Time =    1.000,"P-34-1",          1324,       66.1365,       164.490,            0.,NA,NA,"",   1.01126E+06,   1.01999E+06,   1.01999E+06
C:/temp/Job-34.odb,Step-1,Increment      1: Step Time =    1.000,"P-34-1",          1325,       161.876,       136.973,            0.,NA,NA,"",   1.01289E+06,   1.00759E+06,   1.00759E+06
C:/temp/Job-34.odb,Step-1,Increment      1: Step Time =    1.000,"P-34-1",          1326,       42.1872,       65.3382,            0.,NA,NA,"",   956.238E+03,   1.00447E+06,   1.00447E+06
C:/temp/Job-34.odb,Step-1,Increment      1: Step Time =    1.000,"P-34-1",          1327,       133.508,       37.6006,            0.,NA,NA,"",   1.01247E+06,   1.00984E+06,   1.00984E+06
C:/temp/Job-34.odb,Step-1,Increment      1: Step Time =    1.000,"P-34-1",          1328,       46.4943,       66.9575,            0.,NA,NA,"",   964.963E+03,   1.00761E+06,   1.00761E+06
C:/temp/Job-34.odb,Step-1,Increment      1: Step Time =    1.000,"P-34-1",          1329,       132.243,       44.1931,            0.,NA,NA,"",   1.02062E+06,   1.01695E+06,   1.01695E+06
C:/temp/Job-34.odb,Step-1,Increment      1: Step Time =    1.000,"P-34-1",          1330,       67.9590,       155.956,            0.,NA,NA,"",   1.01780E+06,   1.02922E+06,   1.02922E+06
C:/temp/Job-34.odb,Step-1,Increment      1: Step Time =    1.000,"P-34-1",          1331,       156.867,       131.990,            0.,NA,NA,"",   1.01385E+06,   1.00762E+06,   1.00762E+06
C:/temp/Job-34.odb,Step-1,Increment      1: Step Time =    1.000,"P-34-1",          1332,       139.690,       78.9516,            0.,NA,NA,"",   1.01777E+06,   1.00779E+06,   1.00779E+06
C:/temp/Job-34.odb,Step-1,Increment      1: Step Time =    1.000,"P-34-1",          1333,       56.2681,       38.8252,            0.,NA,NA,"",   1.01147E+06,   1.02684E+06,   1.02684E+06
C:/temp/Job-34.odb,Step-1,Increment      1: Step Time =    1.000,"P-34-1",          1334,       145.609,       161.811,            0.,NA,NA,"",   1.01328E+06,   1.00891E+06,   1.00891E+06
C:/temp/Job-34.odb,Step-1,Increment      1: Step Time =    1.000,"P-34-1",          1335,       37.6262,       144.022,            0.,NA,NA,"",   961.424E+03,   1.01120E+06,   1.01120E+06
C:/temp/Job-34.odb,Step-1,Increment      1: Step Time =    1.000,"P-34-1",          1336,       163.182,       55.7048,            0.,NA,NA,"",   1.01332E+06,   1.00825E+06,   1.00825E+06
C:/temp/Job-34.odb,Step-1,Increment      1: Step Time =    1.000,"P-34-1",          1337,       59.3726,       43.5513,            0.,NA,NA,"",   1.01353E+06,   1.02906E+06,   1.02906E+06
C:/temp/Job-34.odb,Step-1,Increment      1: Step Time =    1.000,"P-34-1",          1338,       142.188,       153.595,            0.,NA,NA,"",   1.02197E+06,   1.01602E+06,   1.01602E+06
C:/temp/Job-34.odb,Step-1,Increment      1: Step Time =    1.000,"P-34-1",          1339,       43.2487,       141.694,            0.,NA,NA,"",   972.218E+03,   1.01484E+06,   1.01484E+06
C:/temp/Job-34.odb,Step-1,Increment      1: Step Time =    1.000,"P-34-1",          1340,       156.399,       61.7340,            0.,NA,NA,"",   1.01781E+06,   1.01128E+06,   1.01128E+06
C:/temp/Job-34.odb,Step-1,Increment      1: Step Time =    1.000,"P-34-1",          1341,       42.9378,       90.4983,            0.,NA,NA,"",   909.188E+03,   967.999E+03,   967.999E+03
C:/temp/Job-34.odb,Step-1,Increment      1: Step Time =    1.000,"P-34-1",          1342,       112.561,       45.6269,            0.,NA,NA,"",   1.01274E+06,   1.01852E+06,   1.01852E+06
C:/temp/Job-34.odb,Step-1,Increment      1: Step Time =    1.000,"P-34-1",          1343,       155.220,       110.118,            0.,NA,NA,"",   987.024E+03,   986.055E+03,   986.055E+03
C:/temp/Job-34.odb,Step-1,Increment      1: Step Time =    1.000,"P-34-1",          1344,       89.7127,       155.436,            0.,NA,NA,"",   1.00772E+06,   1.01893E+06,   1.01893E+06
C:/temp/Job-34.odb,Step-1,Increment      1: Step Time =    1.000,"P-34-1",          1345,       86.8712,       66.0903,            0.,NA,NA,"",   1.04083E+06,   1.05694E+06,   1.05694E+06
C:/temp/Job-34.odb,Step-1,Increment      1: Step Time =    1.000,"P-34-1",          1346,       87.1645,       59.9898,            0.,NA,NA,"",   1.02769E+06,   1.04366E+06,   1.04366E+06
C:/temp/Job-34.odb,Step-1,Increment      1: Step Time =    1.000,"P-34-1",          1347,       111.462,       63.7497,            0.,NA,NA,"",   1.03366E+06,   1.04578E+06,   1.04578E+06
C:/temp/Job-34.odb,Step-1,Increment      1: Step Time =    1.000,"P-34-1",          1348,       115.149,       68.4340,            0.,NA,NA,"",   1.05744E+06,   1.06113E+06,   1.06113E+06
C:/temp/Job-34.odb,Step-1,Increment      1: Step Time =    1.000,"P-34-1",          1349,       142.896,       119.968,            0.,NA,NA,"",   1.00977E+06,   1.00168E+06,   1.00168E+06
C:/temp/Job-34.odb,Step-1,Increment      1: Step Time =    1.000,"P-34-1",          1350,       143.530,       109.943,            0.,NA,NA,"",   973.943E+03,   973.231E+03,   973.231E+03
C:/temp/Job-34.odb,Step-1,Increment      1: Step Time =    1.000,"P-34-1",          1351,       39.4319,       88.4965,            0.,NA,NA,"",   905.984E+03,   968.080E+03,   968.080E+03
C:/temp/Job-34.odb,Step-1,Increment      1: Step Time =    1.000,"P-34-1",          1352,       160.853,       111.823,            0.,NA,NA,"",   992.374E+03,   990.954E+03,   990.954E+03
C:/temp/Job-34.odb,Step-1,Increment      1: Step Time =    1.000,"P-34-1",          1353,       91.6751,       159.906,            0.,NA,NA,"",   1.00417E+06,   1.01328E+06,   1.01328E+06
C:/temp/Job-34.odb,Step-1,Increment      1: Step Time =    1.000,"P-34-1",          1354,       56.2472,       94.3073,            0.,NA,NA,"",   913.790E+03,   958.279E+03,   958.279E+03
C:/temp/Job-34.odb,Step-1,Increment      1: Step Time =    1.000,"P-34-1",          1355,       135.398,       129.654,            0.,NA,NA,"",   1.04456E+06,   1.03105E+06,   1.03105E+06
C:/temp/Job-34.odb,Step-1,Increment      1: Step Time =    1.000,"P-34-1",          1356,       121.410,       81.8842,            0.,NA,NA,"",   1.08865E+06,   1.05875E+06,   1.05875E+06
C:/temp/Job-34.odb,Step-1,Increment      1: Step Time =    1.000,"P-34-1",          1357,       130.936,       75.2820,            0.,NA,NA,"",   1.05211E+06,   1.03539E+06,   1.03539E+06
C:/temp/Job-34.odb,Step-1,Increment      1: Step Time =    1.000,"P-34-1",          1358,       69.7082,       74.9588,            0.,NA,NA,"",   1.02982E+06,   1.03925E+06,   1.03925E+06
C:/temp/Job-34.odb,Step-1,Increment      1: Step Time =    1.000,"P-34-1",          1359,       94.9644,       134.228,            0.,NA,NA,"",   1.01784E+06,   1.04611E+06,   1.04611E+06
C:/temp/Job-34.odb,Step-1,Increment      1: Step Time =    1.000,"P-34-1",          1360,       157.881,       37.3951,            0.,NA,NA,"",   1.00909E+06,   1.00537E+06,   1.00537E+06
C:/temp/Job-34.odb,Step-1,Increment      1: Step Time =    1.000,"P-34-1",          1361,       162.704,       155.230,            0.,NA,NA,"",   1.01109E+06,   1.00678E+06,   1.00678E+06
C:/temp/Job-34.odb,Step-1,Increment      1: Step Time =    1.000,"P-34-1",          1362,       42.8840,       162.618,            0.,NA,NA,"",   1.00351E+06,   1.03069E+06,   1.03069E+06
C:/temp/Job-34.odb,Step-1,Increment      1: Step Time =    1.000,"P-34-1",          1363,       55.7535,       113.334,            0.,NA,NA,"",   937.377E+03,   977.872E+03,   977.872E+03
C:/temp/Job-34.odb,Step-1,Increment      1: Step Time =    1.000,"P-34-1",          1364,       45.1329,       104.014,            0.,NA,NA,"",   906.027E+03,   963.657E+03,   963.657E+03
C:/temp/Job-34.odb,Step-1,Increment      1: Step Time =    1.000,"P-34-1",          1365,       111.409,       140.316,            0.,NA,NA,"",   1.02798E+06,   1.03884E+06,   1.03884E+06
C:/temp/Job-34.odb,Step-1,Increment      1: Step Time =    1.000,"P-34-1",          1366,       116.381,       142.064,            0.,NA,NA,"",   1.03480E+06,   1.03817E+06,   1.03817E+06
C:/temp/Job-34.odb,Step-1,Increment      1: Step Time =    1.000,"P-34-1",          1367,       46.1429,       112.452,            0.,NA,NA,"",   920.218E+03,   973.733E+03,   973.733E+03
C:/temp/Job-34.odb,Step-1,Increment      1: Step Time =    1.000,"P-34-1",          1368,       153.338,       97.7635,            0.,NA,NA,"",   978.036E+03,   979.002E+03,   979.002E+03
C:/temp/Job-34.odb,Step-1,Increment      1: Step Time =    1.000,"P-34-1",          1369,       122.417,       76.0795,            0.,NA,NA,"",   1.09155E+06,   1.06806E+06,   1.06806E+06
C:/temp/Job-34.odb,Step-1,Increment      1: Step Time =    1.000,"P-34-1",          1370,       84.5424,       130.590,            0.,NA,NA,"",   1.05687E+06,   1.06860E+06,   1.06860E+06
C:/temp/Job-34.odb,Step-1,Increment      1: Step Time =    1.000,"P-34-1",          1371,       32.3328,       164.879,            0.,NA,NA,"",   994.652E+03,   1.03449E+06,   1.03449E+06
C:/temp/Job-34.odb,Step-1,Increment      1: Step Time =    1.000,"P-34-1",          1372,       34.4271,       32.0957,            0.,NA,NA,"",   1.00420E+06,   1.03728E+06,   1.03728E+06
C:/temp/Job-34.odb,Step-1,Increment      1: Step Time =    1.000,"P-34-1",          1373,       163.254,       168.320,            0.,NA,NA,"",   1.00514E+06,   1.00241E+06,   1.00241E+06
C:/temp/Job-34.odb,Step-1,Increment      1: Step Time =    1.000,"P-34-1",          1374,       166.811,       36.5214,            0.,NA,NA,"",   1.00653E+06,   1.00349E+06,   1.00349E+06
C:/temp/Job-34.odb,Step-1,Increment      1: Step Time =    1.000,"P-34-1",          1375,       57.8439,       86.0141,            0.,NA,NA,"",   942.049E+03,   979.194E+03,   979.194E+03
C:/temp/Job-34.odb,Step-1,Increment      1: Step Time =    1.000,"P-34-1",          1376,       38.1738,       35.1798,            0.,NA,NA,"",   1.00173E+06,   1.03256E+06,   1.03256E+06
C:/temp/Job-34.odb,Step-1,Increment      1: Step Time =    1.000,"P-34-1",          1377,       163.922,       40.4585,            0.,NA,NA,"",   1.00934E+06,   1.00556E+06,   1.00556E+06
C:/temp/Job-34.odb,Step-1,Increment      1: Step Time =    1.000,"P-34-1",          1378,       32.9370,       160.057,            0.,NA,NA,"",   983.157E+03,   1.02778E+06,   1.02778E+06
C:/temp/Job-34.odb,Step-1,Increment      1: Step Time =    1.000,"P-34-1",          1379,       160.647,       163.321,            0.,NA,NA,"",   1.00827E+06,   1.00474E+06,   1.00474E+06
C:/temp/Job-34.odb,Step-1,Increment      1: Step Time =    1.000,"P-34-1",          1380,       144.168,       80.6581,            0.,NA,NA,"",   1.00771E+06,   1.00048E+06,   1.00048E+06
C:/temp/Job-34.odb,Step-1,Increment      1: Step Time =    1.000,"P-34-1",          1381,       104.840,       151.531,            0.,NA,NA,"",   1.00920E+06,   1.02015E+06,   1.02015E+06
C:/temp/Job-34.odb,Step-1,Increment      1: Step Time =    1.000,"P-34-1",          1382,       96.6292,       47.2593,            0.,NA,NA,"",   1.00742E+06,   1.01986E+06,   1.01986E+06
C:/temp/Job-34.odb,Step-1,Increment      1: Step Time =    1.000,"P-34-1",          1383,       98.4753,       154.546,            0.,NA,NA,"",   1.00498E+06,   1.01658E+06,   1.01658E+06
C:/temp/Job-34.odb,Step-1,Increment      1: Step Time =    1.000,"P-34-1",          1384,       46.0386,       95.3072,            0.,NA,NA,"",   907.295E+03,   963.615E+03,   963.615E+03
C:/temp/Job-34.odb,Step-1,Increment      1: Step Time =    1.000,"P-34-1",          1385,       102.603,       50.0192,            0.,NA,NA,"",   1.00915E+06,   1.02201E+06,   1.02201E+06
C:/temp/Job-34.odb,Step-1,Increment      1: Step Time =    1.000,"P-34-1",          1386,       69.5059,       121.264,            0.,NA,NA,"",   1.01979E+06,   1.02919E+06,   1.02919E+06
C:/temp/Job-34.odb,Step-1,Increment      1: Step Time =    1.000,"P-34-1",          1387,       74.7255,       131.709,            0.,NA,NA,"",   1.04805E+06,   1.05549E+06,   1.05549E+06
C:/temp/Job-34.odb,Step-1,Increment      1: Step Time =    1.000,"P-34-1",          1388,       126.485,       141.730,            0.,NA,NA,"",   1.04260E+06,   1.03634E+06,   1.03634E+06
C:/temp/Job-34.odb,Step-1,Increment      1: Step Time =    1.000,"P-34-1",          1389,       59.5954,       77.6231,            0.,NA,NA,"",   978.071E+03,   1.00696E+06,   1.00696E+06
C:/temp/Job-34.odb,Step-1,Increment      1: Step Time =    1.000,"P-34-1",          1390,       132.928,       70.5661,            0.,NA,NA,"",   1.04913E+06,   1.03526E+06,   1.03526E+06
C:/temp/Job-34.odb,Step-1,Increment      1: Step Time =    1.000,"P-34-1",          1391,       41.8057,       44.4175,            0.,NA,NA,"",   992.198E+03,   1.02671E+06,   1.02671E+06
C:/temp/Job-34.odb,Step-1,Increment      1: Step Time =    1.000,"P-34-1",          1392,       152.143,       44.0924,            0.,NA,NA,"",   1.01574E+06,   1.01055E+06,   1.01055E+06
C:/temp/Job-34.odb,Step-1,Increment      1: Step Time =    1.000,"P-34-1",          1393,       46.4847,       155.747,            0.,NA,NA,"",   999.927E+03,   1.02845E+06,   1.02845E+06
C:/temp/Job-34.odb,Step-1,Increment      1: Step Time =    1.000,"P-34-1",          1394,       156.960,       153.931,            0.,NA,NA,"",   1.01437E+06,   1.00927E+06,   1.00927E+06
C:/temp/Job-34.odb,Step-1,Increment      1: Step Time =    1.000,"P-34-1",          1395,       64.6350,       122.130,            0.,NA,NA,"",   995.681E+03,   1.01637E+06,   1.01637E+06
C:/temp/Job-34.odb,Step-1,Increment      1: Step Time =    1.000,"P-34-1",          1396,       70.3657,       127.725,            0.,NA,NA,"",   1.03438E+06,   1.04407E+06,   1.04407E+06
C:/temp/Job-34.odb,Step-1,Increment      1: Step Time =    1.000,"P-34-1",          1397,       71.1039,       70.1768,            0.,NA,NA,"",   1.03986E+06,   1.04863E+06,   1.04863E+06
C:/temp/Job-34.odb,Step-1,Increment      1: Step Time =    1.000,"P-34-1",          1398,       49.1666,       71.6270,            0.,NA,NA,"",   962.755E+03,   1.00429E+06,   1.00429E+06
C:/temp/Job-34.odb,Step-1,Increment      1: Step Time =    1.000,"P-34-1",          1399,       127.243,       44.9959,            0.,NA,NA,"",   1.02045E+06,   1.01847E+06,   1.01847E+06
C:/temp/Job-34.odb,Step-1,Increment      1: Step Time =    1.000,"P-34-1",          1400,       153.237,       126.942,            0.,NA,NA,"",   1.01283E+06,   1.00642E+06,   1.00642E+06
C:/temp/Job-34.odb,Step-1,Increment      1: Step Time =    1.000,"P-34-1",          1401,       73.1499,       150.991,            0.,NA,NA,"",   1.02135E+06,   1.03266E+06,   1.03266E+06
C:/temp/Job-34.odb,Step-1,Increment      1: Step Time =    1.000,"P-34-1",          1402,       52.5290,       89.2346,            0.,NA,NA,"",   924.289E+03,   970.681E+03,   970.681E+03
C:/temp/Job-34.odb,Step-1,Increment      1: Step Time =    1.000,"P-34-1",          1403,       130.581,       132.889,            0.,NA,NA,"",   1.05338E+06,   1.04078E+06,   1.04078E+06
C:/temp/Job-34.odb,Step-1,Increment      1: Step Time =    1.000,"P-34-1",          1404,       64.3043,       46.2943,            0.,NA,NA,"",   1.01720E+06,   1.03087E+06,   1.03087E+06
C:/temp/Job-34.odb,Step-1,Increment      1: Step Time =    1.000,"P-34-1",          1405,       137.090,       153.506,            0.,NA,NA,"",   1.02401E+06,   1.01837E+06,   1.01837E+06
C:/temp/Job-34.odb,Step-1,Increment      1: Step Time =    1.000,"P-34-1",          1406,       45.6379,       136.745,            0.,NA,NA,"",   970.146E+03,   1.01196E+06,   1.01196E+06
C:/temp/Job-34.odb,Step-1,Increment      1: Step Time =    1.000,"P-34-1",          1407,       150.309,       61.1731,            0.,NA,NA,"",   1.02388E+06,   1.01604E+06,   1.01604E+06
C:/temp/Job-34.odb,Step-1,Increment      1: Step Time =    1.000,"P-34-1",          1408,       48.5752,       84.7943,            0.,NA,NA,"",   929.900E+03,    979.08E+03,    979.08E+03
C:/temp/Job-34.odb,Step-1,Increment      1: Step Time =    1.000,"P-34-1",          1409,       115.532,       47.3891,            0.,NA,NA,"",   1.01673E+06,   1.02086E+06,   1.02086E+06
C:/temp/Job-34.odb,Step-1,Increment      1: Step Time =    1.000,"P-34-1",          1410,       154.282,       115.542,            0.,NA,NA,"",   994.651E+03,   991.997E+03,   991.997E+03
C:/temp/Job-34.odb,Step-1,Increment      1: Step Time =    1.000,"P-34-1",          1411,       88.6136,       152.160,            0.,NA,NA,"",   1.01181E+06,   1.02422E+06,   1.02422E+06
C:/temp/Job-34.odb,Step-1,Increment      1: Step Time =    1.000,"P-34-1",          1412,       140.700,       130.377,            0.,NA,NA,"",   1.03276E+06,   1.02179E+06,   1.02179E+06
C:/temp/Job-34.odb,Step-1,Increment      1: Step Time =    1.000,"P-34-1",          1413,       96.0431,       57.5322,            0.,NA,NA,"",   1.01246E+06,   1.03212E+06,   1.03212E+06
C:/temp/Job-34.odb,Step-1,Increment      1: Step Time =    1.000,"P-34-1",          1414,       89.4091,       129.860,            0.,NA,NA,"",   1.04830E+06,   1.06923E+06,   1.06923E+06
C:/temp/Job-34.odb,Step-1,Increment      1: Step Time =    1.000,"P-34-1",          1415,       148.103,       120.554,            0.,NA,NA,"",   1.00614E+06,   1.00001E+06,   1.00001E+06
C:/temp/Job-34.odb,Step-1,Increment      1: Step Time =    1.000,"P-34-1",          1416,       99.9608,       133.048,            0.,NA,NA,"",   1.01351E+06,   1.04582E+06,   1.04582E+06
C:/temp/Job-34.odb,Step-1,Increment      1: Step Time =    1.000,"P-34-1",          1417,       149.713,       34.8459,            0.,NA,NA,"",   1.00967E+06,   1.00597E+06,   1.00597E+06
C:/temp/Job-34.odb,Step-1,Increment      1: Step Time =    1.000,"P-34-1",          1418,       161.267,       150.683,            0.,NA,NA,"",   1.01336E+06,   1.00839E+06,   1.00839E+06
C:/temp/Job-34.odb,Step-1,Increment      1: Step Time =    1.000,"P-34-1",          1419,       38.4546,       47.2996,            0.,NA,NA,"",   980.124E+03,   1.02236E+06,   1.02236E+06
C:/temp/Job-34.odb,Step-1,Increment      1: Step Time =    1.000,"P-34-1",          1420,       49.8617,       164.888,            0.,NA,NA,"",   1.00959E+06,   1.02733E+06,   1.02733E+06
C:/temp/Job-34.odb,Step-1,Increment      1: Step Time =    1.000,"P-34-1",          1421,       120.745,       143.893,            0.,NA,NA,"",   1.03644E+06,   1.03538E+06,   1.03538E+06
C:/temp/Job-34.odb,Step-1,Increment      1: Step Time =    1.000,"P-34-1",          1422,       151.704,       92.6975,            0.,NA,NA,"",   980.236E+03,   980.414E+03,   980.414E+03
C:/temp/Job-34.odb,Step-1,Increment      1: Step Time =    1.000,"P-34-1",          1423,       150.323,       78.4184,            0.,NA,NA,"",    1.0072E+06,   1.00160E+06,   1.00160E+06
C:/temp/Job-34.odb,Step-1,Increment      1: Step Time =    1.000,"P-34-1",          1424,       101.513,       152.611,            0.,NA,NA,"",   1.00646E+06,   1.01807E+06,   1.01807E+06
C:/temp/Job-34.odb,Step-1,Increment      1: Step Time =    1.000,"P-34-1",          1425,       109.582,       154.950,            0.,NA,NA,"",   1.00965E+06,   1.01675E+06,   1.01675E+06
C:/temp/Job-34.odb,Step-1,Increment      1: Step Time =    1.000,"P-34-1",          1426,       98.1120,       51.5168,            0.,NA,NA,"",   1.00940E+06,   1.02423E+06,   1.02423E+06
C:/temp/Job-34.odb,Step-1,Increment      1: Step Time =    1.000,"P-34-1",          1427,       90.2044,       45.2497,            0.,NA,NA,"",   1.00936E+06,   1.02051E+06,   1.02051E+06
C:/temp/Job-34.odb,Step-1,Increment      1: Step Time =    1.000,"P-34-1",          1428,       153.836,       105.062,            0.,NA,NA,"",   980.717E+03,   981.058E+03,   981.058E+03
C:/temp/Job-34.odb,Step-1,Increment      1: Step Time =    1.000,"P-34-1",          1429,       93.1113,       153.126,            0.,NA,NA,"",   1.00747E+06,   1.02023E+06,   1.02023E+06
C:/temp/Job-34.odb,Step-1,Increment      1: Step Time =    1.000,"P-34-1",          1430,       47.1972,       91.8951,            0.,NA,NA,"",   913.505E+03,   967.439E+03,   967.439E+03
C:/temp/Job-34.odb,Step-1,Increment      1: Step Time =    1.000,"P-34-1",          1431,       106.969,       54.9374,            0.,NA,NA,"",   1.01517E+06,   1.02795E+06,   1.02795E+06
C:/temp/Job-34.odb,Step-1,Increment      1: Step Time =    1.000,"P-34-1",          1432,       139.508,       37.2983,            0.,NA,NA,"",   1.01277E+06,   1.00919E+06,   1.00919E+06
C:/temp/Job-34.odb,Step-1,Increment      1: Step Time =    1.000,"P-34-1",          1433,       39.8624,       59.4680,            0.,NA,NA,"",   960.580E+03,   1.00905E+06,   1.00905E+06
C:/temp/Job-34.odb,Step-1,Increment      1: Step Time =    1.000,"P-34-1",          1434,       161.949,       141.151,            0.,NA,NA,"",   1.01356E+06,   1.00825E+06,   1.00825E+06
C:/temp/Job-34.odb,Step-1,Increment      1: Step Time =    1.000,"P-34-1",          1435,       60.4579,       163.972,            0.,NA,NA,"",   1.01139E+06,   1.02292E+06,   1.02292E+06
C:/temp/Job-34.odb,Step-1,Increment      1: Step Time =    1.000,"P-34-1",          1436,       79.6018,       131.229,            0.,NA,NA,"",   1.05725E+06,   1.06430E+06,   1.06430E+06
C:/temp/Job-34.odb,Step-1,Increment      1: Step Time =    1.000,"P-34-1",          1437,       58.5448,       81.7552,            0.,NA,NA,"",   960.696E+03,   993.115E+03,   993.115E+03
C:/temp/Job-34.odb,Step-1,Increment      1: Step Time =    1.000,"P-34-1",          1438,       49.0235,       37.4299,            0.,NA,NA,"",   1.00787E+06,   1.02840E+06,   1.02840E+06
C:/temp/Job-34.odb,Step-1,Increment      1: Step Time =    1.000,"P-34-1",          1439,       149.745,       159.955,            0.,NA,NA,"",   1.01382E+06,   1.00912E+06,   1.00912E+06
C:/temp/Job-34.odb,Step-1,Increment      1: Step Time =    1.000,"P-34-1",          1440,       160.273,       51.9467,            0.,NA,NA,"",   1.01471E+06,   1.00941E+06,   1.00941E+06
C:/temp/Job-34.odb,Step-1,Increment      1: Step Time =    1.000,"P-34-1",          1441,       35.1801,       150.368,            0.,NA,NA,"",   968.074E+03,   1.01707E+06,   1.01707E+06
C:/temp/Job-34.odb,Step-1,Increment      1: Step Time =    1.000,"P-34-1",          1442,       57.0613,       117.654,            0.,NA,NA,"",   955.918E+03,   991.269E+03,   991.269E+03
C:/temp/Job-34.odb,Step-1,Increment      1: Step Time =    1.000,"P-34-1",          1443,       56.0017,       76.1876,            0.,NA,NA,"",   971.214E+03,   1.00515E+06,   1.00515E+06
C:/temp/Job-34.odb,Step-1,Increment      1: Step Time =    1.000,"P-34-1",          1444,       128.221,       69.3307,            0.,NA,NA,"",   1.06060E+06,   1.04634E+06,   1.04634E+06
C:/temp/Job-34.odb,Step-1,Increment      1: Step Time =    1.000,"P-34-1",          1445,       68.4873,       166.077,            0.,NA,NA,"",   1.00889E+06,   1.01678E+06,   1.01678E+06
C:/temp/Job-34.odb,Step-1,Increment      1: Step Time =    1.000,"P-34-1",          1446,       166.484,       136.960,            0.,NA,NA,"",   1.00991E+06,   1.00554E+06,   1.00554E+06
C:/temp/Job-34.odb,Step-1,Increment      1: Step Time =    1.000,"P-34-1",          1447,       35.9349,       67.2659,            0.,NA,NA,"",   934.589E+03,   993.429E+03,   993.429E+03
C:/temp/Job-34.odb,Step-1,Increment      1: Step Time =    1.000,"P-34-1",          1448,       133.493,       31.8439,            0.,NA,NA,"",   1.00583E+06,   1.00393E+06,   1.00393E+06
C:/temp/Job-34.odb,Step-1,Increment      1: Step Time =    1.000,"P-34-1",          1449,       45.2894,       41.1233,            0.,NA,NA,"",   1.00149E+06,   1.02888E+06,   1.02888E+06
C:/temp/Job-34.odb,Step-1,Increment      1: Step Time =    1.000,"P-34-1",          1450,       157.011,       47.2207,            0.,NA,NA,"",   1.01495E+06,   1.00975E+06,   1.00975E+06
C:/temp/Job-34.odb,Step-1,Increment      1: Step Time =    1.000,"P-34-1",          1451,       41.2553,       152.458,            0.,NA,NA,"",   985.459E+03,   1.02396E+06,   1.02396E+06
C:/temp/Job-34.odb,Step-1,Increment      1: Step Time =    1.000,"P-34-1",          1452,       153.437,       157.067,            0.,NA,NA,"",   1.01427E+06,   1.00931E+06,   1.00931E+06
C:/temp/Job-34.odb,Step-1,Increment      1: Step Time =    1.000,"P-34-1",          1453,       66.2720,       68.8623,            0.,NA,NA,"",   1.02271E+06,   1.03771E+06,   1.03771E+06
C:/temp/Job-34.odb,Step-1,Increment      1: Step Time =    1.000,"P-34-1",          1454,       77.6503,       68.6356,            0.,NA,NA,"",   1.05365E+06,   1.06104E+06,   1.06104E+06
C:/temp/Job-34.odb,Step-1,Increment      1: Step Time =    1.000,"P-34-1",          1455,       50.6623,       68.2553,            0.,NA,NA,"",   973.639E+03,   1.01103E+06,   1.01103E+06
C:/temp/Job-34.odb,Step-1,Increment      1: Step Time =    1.000,"P-34-1",          1456,       46.6397,       78.2490,            0.,NA,NA,"",   941.949E+03,   990.206E+03,   990.206E+03
C:/temp/Job-34.odb,Step-1,Increment      1: Step Time =    1.000,"P-34-1",          1457,       132.394,       49.4510,            0.,NA,NA,"",   1.02773E+06,   1.02284E+06,   1.02284E+06
C:/temp/Job-34.odb,Step-1,Increment      1: Step Time =    1.000,"P-34-1",          1458,       150.636,       131.343,            0.,NA,NA,"",   1.01917E+06,   1.01171E+06,   1.01171E+06
C:/temp/Job-34.odb,Step-1,Increment      1: Step Time =    1.000,"P-34-1",          1459,       68.7109,       150.798,            0.,NA,NA,"",   1.02090E+06,   1.03334E+06,   1.03334E+06
C:/temp/Job-34.odb,Step-1,Increment      1: Step Time =    1.000,"P-34-1",          1460,       158.701,       120.888,            0.,NA,NA,"",   1.00185E+06,   998.172E+03,   998.172E+03
C:/temp/Job-34.odb,Step-1,Increment      1: Step Time =    1.000,"P-34-1",          1461,       61.2376,       50.9490,            0.,NA,NA,"",   1.01570E+06,   1.03293E+06,   1.03293E+06
C:/temp/Job-34.odb,Step-1,Increment      1: Step Time =    1.000,"P-34-1",          1462,       68.6459,       41.0469,            0.,NA,NA,"",   1.01561E+06,   1.02571E+06,   1.02571E+06
C:/temp/Job-34.odb,Step-1,Increment      1: Step Time =    1.000,"P-34-1",          1463,       142.908,       147.992,            0.,NA,NA,"",   1.02647E+06,   1.01920E+06,   1.01920E+06
C:/temp/Job-34.odb,Step-1,Increment      1: Step Time =    1.000,"P-34-1",          1464,       131.402,       154.550,            0.,NA,NA,"",   1.02313E+06,   1.01911E+06,   1.01911E+06
C:/temp/Job-34.odb,Step-1,Increment      1: Step Time =    1.000,"P-34-1",          1465,       41.8447,       131.367,            0.,NA,NA,"",   948.722E+03,   999.496E+03,   999.496E+03
C:/temp/Job-34.odb,Step-1,Increment      1: Step Time =    1.000,"P-34-1",          1466,       47.9430,       142.008,            0.,NA,NA,"",   984.215E+03,   1.02013E+06,   1.02013E+06
C:/temp/Job-34.odb,Step-1,Increment      1: Step Time =    1.000,"P-34-1",          1467,       152.809,       65.4216,            0.,NA,NA,"",   1.02044E+06,   1.01298E+06,   1.01298E+06
C:/temp/Job-34.odb,Step-1,Increment      1: Step Time =    1.000,"P-34-1",          1468,       153.097,       58.2996,            0.,NA,NA,"",   1.02094E+06,   1.01388E+06,   1.01388E+06
C:/temp/Job-34.odb,Step-1,Increment      1: Step Time =    1.000,"P-34-1",          1469,       145.821,       37.4212,            0.,NA,NA,"",   1.01239E+06,   1.00831E+06,   1.00831E+06
C:/temp/Job-34.odb,Step-1,Increment      1: Step Time =    1.000,"P-34-1",          1470,       38.3452,       53.4499,            0.,NA,NA,"",   967.518E+03,   1.01472E+06,   1.01472E+06
C:/temp/Job-34.odb,Step-1,Increment      1: Step Time =    1.000,"P-34-1",          1471,       161.906,       145.565,            0.,NA,NA,"",   1.01374E+06,   1.00854E+06,   1.00854E+06
C:/temp/Job-34.odb,Step-1,Increment      1: Step Time =    1.000,"P-34-1",          1472,       54.1620,       162.291,            0.,NA,NA,"",   1.01047E+06,   1.02687E+06,   1.02687E+06
C:/temp/Job-34.odb,Step-1,Increment      1: Step Time =    1.000,"P-34-1",          1473,       142.026,       125.228,            0.,NA,NA,"",   1.02493E+06,   1.01447E+06,   1.01447E+06
C:/temp/Job-34.odb,Step-1,Increment      1: Step Time =    1.000,"P-34-1",          1474,       100.056,       64.0575,            0.,NA,NA,"",   1.01610E+06,   1.04247E+06,   1.04247E+06
C:/temp/Job-34.odb,Step-1,Increment      1: Step Time =    1.000,"P-34-1",          1475,       90.1790,       56.5764,            0.,NA,NA,"",   1.01849E+06,   1.03521E+06,   1.03521E+06
C:/temp/Job-34.odb,Step-1,Increment      1: Step Time =    1.000,"P-34-1",          1476,       143.647,       105.179,            0.,NA,NA,"",   963.223E+03,   964.874E+03,   964.874E+03
C:/temp/Job-34.odb,Step-1,Increment      1: Step Time =    1.000,"P-34-1",          1477,       104.696,       132.410,            0.,NA,NA,"",   1.02077E+06,   1.04847E+06,   1.04847E+06
C:/temp/Job-34.odb,Step-1,Increment      1: Step Time =    1.000,"P-34-1",          1478,       145.918,       76.8518,            0.,NA,NA,"",   1.01439E+06,   1.00651E+06,   1.00651E+06
C:/temp/Job-34.odb,Step-1,Increment      1: Step Time =    1.000,"P-34-1",          1479,       153.247,       82.3514,            0.,NA,NA,"",   998.235E+03,   994.401E+03,   994.401E+03
C:/temp/Job-34.odb,Step-1,Increment      1: Step Time =    1.000,"P-34-1",          1480,       108.185,       150.669,            0.,NA,NA,"",   1.01220E+06,   1.02186E+06,   1.02186E+06
C:/temp/Job-34.odb,Step-1,Increment      1: Step Time =    1.000,"P-34-1",          1481,       91.8925,       49.7388,            0.,NA,NA,"",   1.01139E+06,   1.02497E+06,   1.02497E+06
C:/temp/Job-34.odb,Step-1,Increment      1: Step Time =    1.000,"P-34-1",          1482,       142.317,       40.5332,            0.,NA,NA,"",   1.01619E+06,   1.01165E+06,   1.01165E+06
C:/temp/Job-34.odb,Step-1,Increment      1: Step Time =    1.000,"P-34-1",          1483,       41.8632,       56.0082,            0.,NA,NA,"",   972.327E+03,   1.01557E+06,   1.01557E+06
C:/temp/Job-34.odb,Step-1,Increment      1: Step Time =    1.000,"P-34-1",          1484,       58.3202,       159.446,            0.,NA,NA,"",   1.01269E+06,   1.02772E+06,   1.02772E+06
C:/temp/Job-34.odb,Step-1,Increment      1: Step Time =    1.000,"P-34-1",          1485,       153.513,       120.951,            0.,NA,NA,"",   1.00399E+06,   999.261E+03,   999.261E+03
C:/temp/Job-34.odb,Step-1,Increment      1: Step Time =    1.000,"P-34-1",          1486,       48.1280,       88.3421,            0.,NA,NA,"",   921.379E+03,   972.767E+03,   972.767E+03
C:/temp/Job-34.odb,Step-1,Increment      1: Step Time =    1.000,"P-34-1",          1487,       84.6662,       135.793,            0.,NA,NA,"",   1.04015E+06,   1.05457E+06,   1.05457E+06
C:/temp/Job-34.odb,Step-1,Increment      1: Step Time =    1.000,"P-34-1",          1488,       41.9802,       110.422,            0.,NA,NA,"",   909.391E+03,   969.121E+03,   969.121E+03
C:/temp/Job-34.odb,Step-1,Increment      1: Step Time =    1.000,"P-34-1",          1489,       111.427,       145.837,            0.,NA,NA,"",   1.02013E+06,   1.02916E+06,   1.02916E+06
C:/temp/Job-34.odb,Step-1,Increment      1: Step Time =    1.000,"P-34-1",          1490,       149.016,       110.206,            0.,NA,NA,"",   981.852E+03,   980.876E+03,   980.876E+03
C:/temp/Job-34.odb,Step-1,Increment      1: Step Time =    1.000,"P-34-1",          1491,       130.174,       143.852,            0.,NA,NA,"",   1.03884E+06,   1.03149E+06,   1.03149E+06
C:/temp/Job-34.odb,Step-1,Increment      1: Step Time =    1.000,"P-34-1",          1492,       111.564,       59.2813,            0.,NA,NA,"",   1.02722E+06,   1.03765E+06,   1.03765E+06
C:/temp/Job-34.odb,Step-1,Increment      1: Step Time =    1.000,"P-34-1",          1493,       35.8405,       56.8577,            0.,NA,NA,"",    954.35E+03,   1.00756E+06,   1.00756E+06
C:/temp/Job-34.odb,Step-1,Increment      1: Step Time =    1.000,"P-34-1",          1494,       143.209,       33.7048,            0.,NA,NA,"",   1.00909E+06,   1.00581E+06,   1.00581E+06
C:/temp/Job-34.odb,Step-1,Increment      1: Step Time =    1.000,"P-34-1",          1495,       56.3695,       166.509,            0.,NA,NA,"",   1.00992E+06,   1.02232E+06,   1.02232E+06
C:/temp/Job-34.odb,Step-1,Increment      1: Step Time =    1.000,"P-34-1",          1496,       167.006,       145.669,            0.,NA,NA,"",   1.01076E+06,   1.00641E+06,   1.00641E+06
C:/temp/Job-34.odb,Step-1,Increment      1: Step Time =    1.000,"P-34-1",          1497,       122.982,       72.7978,            0.,NA,NA,"",   1.08007E+06,   1.06318E+06,   1.06318E+06
C:/temp/Job-34.odb,Step-1,Increment      1: Step Time =    1.000,"P-34-1",          1498,       65.0372,       131.550,            0.,NA,NA,"",   1.01859E+06,   1.03526E+06,   1.03526E+06
C:/temp/Job-34.odb,Step-1,Increment      1: Step Time =    1.000,"P-34-1",          1499,       144.091,       71.2780,            0.,NA,NA,"",   1.02629E+06,   1.01648E+06,   1.01648E+06
C:/temp/Job-34.odb,Step-1,Increment      1: Step Time =    1.000,"P-34-1",          1500,       67.6675,       63.8659,            0.,NA,NA,"",   1.02778E+06,   1.04170E+06,   1.04170E+06
C:/temp/Job-34.odb,Step-1,Increment      1: Step Time =    1.000,"P-34-1",          1501,       135.549,       143.169,            0.,NA,NA,"",   1.03597E+06,   1.02776E+06,   1.02776E+06
C:/temp/Job-34.odb,Step-1,Increment      1: Step Time =    1.000,"P-34-1",          1502,       129.014,       147.979,            0.,NA,NA,"",   1.03254E+06,   1.02745E+06,   1.02745E+06
C:/temp/Job-34.odb,Step-1,Increment      1: Step Time =    1.000,"P-34-1",          1503,       61.3061,       67.6038,            0.,NA,NA,"",   1.00780E+06,   1.02925E+06,   1.02925E+06
C:/temp/Job-34.odb,Step-1,Increment      1: Step Time =    1.000,"P-34-1",          1504,       113.990,       152.633,            0.,NA,NA,"",   1.01479E+06,   1.02020E+06,   1.02020E+06
C:/temp/Job-34.odb,Step-1,Increment      1: Step Time =    1.000,"P-34-1",          1505,       85.8389,       47.5222,            0.,NA,NA,"",   1.01432E+06,   1.02556E+06,   1.02556E+06
C:/temp/Job-34.odb,Step-1,Increment      1: Step Time =    1.000,"P-34-1",          1506,       154.194,       88.5469,            0.,NA,NA,"",   988.561E+03,   987.282E+03,   987.282E+03
C:/temp/Job-34.odb,Step-1,Increment      1: Step Time =    1.000,"P-34-1",          1507,       109.360,       133.246,            0.,NA,NA,"",   1.03541E+06,   1.05206E+06,   1.05206E+06
C:/temp/Job-34.odb,Step-1,Increment      1: Step Time =    1.000,"P-34-1",          1508,       41.8822,       37.9291,            0.,NA,NA,"",   1.00127E+06,   1.03020E+06,   1.03020E+06
C:/temp/Job-34.odb,Step-1,Increment      1: Step Time =    1.000,"P-34-1",          1509,       161.603,       43.0057,            0.,NA,NA,"",   1.01135E+06,   1.00703E+06,   1.00703E+06
C:/temp/Job-34.odb,Step-1,Increment      1: Step Time =    1.000,"P-34-1",          1510,       37.5809,       153.867,            0.,NA,NA,"",   980.677E+03,   1.02303E+06,   1.02303E+06
C:/temp/Job-34.odb,Step-1,Increment      1: Step Time =    1.000,"P-34-1",          1511,       156.574,       160.922,            0.,NA,NA,"",   1.01091E+06,   1.00673E+06,   1.00673E+06
C:/temp/Job-34.odb,Step-1,Increment      1: Step Time =    1.000,"P-34-1",          1512,       78.1667,       73.8054,            0.,NA,NA,"",   1.06591E+06,   1.06815E+06,   1.06815E+06
C:/temp/Job-34.odb,Step-1,Increment      1: Step Time =    1.000,"P-34-1",          1513,       90.2828,       141.729,            0.,NA,NA,"",   1.01946E+06,   1.03760E+06,   1.03760E+06
C:/temp/Job-34.odb,Step-1,Increment      1: Step Time =    1.000,"P-34-1",          1514,       48.1212,       62.9804,            0.,NA,NA,"",   976.614E+03,   1.01480E+06,   1.01480E+06
C:/temp/Job-34.odb,Step-1,Increment      1: Step Time =    1.000,"P-34-1",          1515,       136.899,       48.9884,            0.,NA,NA,"",   1.02592E+06,   1.02019E+06,   1.02019E+06
C:/temp/Job-34.odb,Step-1,Increment      1: Step Time =    1.000,"P-34-1",          1516,       122.645,       45.1525,            0.,NA,NA,"",   1.01909E+06,   1.01925E+06,   1.01925E+06
C:/temp/Job-34.odb,Step-1,Increment      1: Step Time =    1.000,"P-34-1",          1517,       50.1970,       76.4739,            0.,NA,NA,"",   953.727E+03,   996.511E+03,   996.511E+03
C:/temp/Job-34.odb,Step-1,Increment      1: Step Time =    1.000,"P-34-1",          1518,       77.7067,       150.857,            0.,NA,NA,"",   1.02055E+06,   1.03153E+06,   1.03153E+06
C:/temp/Job-34.odb,Step-1,Increment      1: Step Time =    1.000,"P-34-1",          1519,       154.406,       136.988,            0.,NA,NA,"",   1.01917E+06,   1.01192E+06,   1.01192E+06
C:/temp/Job-34.odb,Step-1,Increment      1: Step Time =    1.000,"P-34-1",          1520,       146.003,       132.369,            0.,NA,NA,"",   1.02519E+06,   1.01613E+06,   1.01613E+06
C:/temp/Job-34.odb,Step-1,Increment      1: Step Time =    1.000,"P-34-1",          1521,       101.161,       59.0244,            0.,NA,NA,"",   1.01439E+06,   1.03430E+06,   1.03430E+06
C:/temp/Job-34.odb,Step-1,Increment      1: Step Time =    1.000,"P-34-1",          1522,       84.5301,       57.5886,            0.,NA,NA,"",   1.02767E+06,   1.04104E+06,   1.04104E+06
C:/temp/Job-34.odb,Step-1,Increment      1: Step Time =    1.000,"P-34-1",          1523,       141.743,       74.9504,            0.,NA,NA,"",   1.02494E+06,   1.01451E+06,   1.01451E+06
C:/temp/Job-34.odb,Step-1,Increment      1: Step Time =    1.000,"P-34-1",          1524,       150.937,       74.9913,            0.,NA,NA,"",   1.01284E+06,   1.00610E+06,   1.00610E+06
C:/temp/Job-34.odb,Step-1,Increment      1: Step Time =    1.000,"P-34-1",          1525,       141.415,       47.1513,            0.,NA,NA,"",   1.02308E+06,   1.01707E+06,   1.01707E+06
C:/temp/Job-34.odb,Step-1,Increment      1: Step Time =    1.000,"P-34-1",          1526,       45.6068,       57.7469,            0.,NA,NA,"",   978.987E+03,   1.01765E+06,   1.01765E+06
C:/temp/Job-34.odb,Step-1,Increment      1: Step Time =    1.000,"P-34-1",          1527,       153.035,       140.105,            0.,NA,NA,"",   1.02123E+06,   1.01388E+06,   1.01388E+06
C:/temp/Job-34.odb,Step-1,Increment      1: Step Time =    1.000,"P-34-1",          1528,       62.7455,       155.948,            0.,NA,NA,"",   1.01577E+06,   1.02952E+06,   1.02952E+06
C:/temp/Job-34.odb,Step-1,Increment      1: Step Time =    1.000,"P-34-1",          1529,       89.8228,       135.414,            0.,NA,NA,"",   1.02932E+06,   1.05018E+06,   1.05018E+06
C:/temp/Job-34.odb,Step-1,Increment      1: Step Time =    1.000,"P-34-1",          1530,       106.432,       141.696,            0.,NA,NA,"",   1.01690E+06,   1.03289E+06,   1.03289E+06
C:/temp/Job-34.odb,Step-1,Increment      1: Step Time =    1.000,"P-34-1",          1531,       46.5685,       115.570,            0.,NA,NA,"",   927.172E+03,   978.810E+03,   978.810E+03
C:/temp/Job-34.odb,Step-1,Increment      1: Step Time =    1.000,"P-34-1",          1532,       119.539,       64.0780,            0.,NA,NA,"",   1.05175E+06,   1.04975E+06,   1.04975E+06
C:/temp/Job-34.odb,Step-1,Increment      1: Step Time =    1.000,"P-34-1",          1533,       74.4676,       136.256,            0.,NA,NA,"",   1.04087E+06,   1.05074E+06,   1.05074E+06
C:/temp/Job-34.odb,Step-1,Increment      1: Step Time =    1.000,"P-34-1",          1534,       60.5288,       130.363,            0.,NA,NA,"",   1.00247E+06,   1.02558E+06,   1.02558E+06
C:/temp/Job-34.odb,Step-1,Increment      1: Step Time =    1.000,"P-34-1",          1535,       83.9153,       68.8769,            0.,NA,NA,"",   1.05251E+06,   1.06452E+06,   1.06452E+06
C:/temp/Job-34.odb,Step-1,Increment      1: Step Time =    1.000,"P-34-1",          1536,       81.5309,       155.516,            0.,NA,NA,"",   1.01268E+06,   1.02254E+06,   1.02254E+06
C:/temp/Job-34.odb,Step-1,Increment      1: Step Time =    1.000,"P-34-1",          1537,       48.3138,       81.3078,            0.,NA,NA,"",   936.851E+03,   984.869E+03,   984.869E+03
C:/temp/Job-34.odb,Step-1,Increment      1: Step Time =    1.000,"P-34-1",          1538,       118.505,       45.9804,            0.,NA,NA,"",   1.01722E+06,   1.01972E+06,   1.01972E+06
C:/temp/Job-34.odb,Step-1,Increment      1: Step Time =    1.000,"P-34-1",          1539,       78.4249,       145.780,            0.,NA,NA,"",   1.02660E+06,   1.03846E+06,   1.03846E+06
C:/temp/Job-34.odb,Step-1,Increment      1: Step Time =    1.000,"P-34-1",          1540,       123.454,       50.1423,            0.,NA,NA,"",   1.02636E+06,   1.02553E+06,   1.02553E+06
C:/temp/Job-34.odb,Step-1,Increment      1: Step Time =    1.000,"P-34-1",          1541,       105.338,       59.6572,            0.,NA,NA,"",   1.01445E+06,   1.03260E+06,   1.03260E+06
C:/temp/Job-34.odb,Step-1,Increment      1: Step Time =    1.000,"P-34-1",          1542,       82.0864,       60.2342,            0.,NA,NA,"",   1.03454E+06,   1.04683E+06,   1.04683E+06
C:/temp/Job-34.odb,Step-1,Increment      1: Step Time =    1.000,"P-34-1",          1543,       146.702,       68.1092,            0.,NA,NA,"",   1.02619E+06,   1.01697E+06,   1.01697E+06
C:/temp/Job-34.odb,Step-1,Increment      1: Step Time =    1.000,"P-34-1",          1544,       127.569,       151.864,            0.,NA,NA,"",   1.02650E+06,   1.02321E+06,   1.02321E+06
C:/temp/Job-34.odb,Step-1,Increment      1: Step Time =    1.000,"P-34-1",          1545,       59.4897,       72.8487,            0.,NA,NA,"",   991.730E+03,   1.01802E+06,   1.01802E+06
C:/temp/Job-34.odb,Step-1,Increment      1: Step Time =    1.000,"P-34-1",          1546,       73.9820,       76.2118,            0.,NA,NA,"",   1.05301E+06,   1.05436E+06,   1.05436E+06
C:/temp/Job-34.odb,Step-1,Increment      1: Step Time =    1.000,"P-34-1",          1547,       83.1262,       146.082,            0.,NA,NA,"",   1.02305E+06,   1.03600E+06,   1.03600E+06
C:/temp/Job-34.odb,Step-1,Increment      1: Step Time =    1.000,"P-34-1",          1548,       145.252,       44.2428,            0.,NA,NA,"",   1.01887E+06,   1.01344E+06,   1.01344E+06
C:/temp/Job-34.odb,Step-1,Increment      1: Step Time =    1.000,"P-34-1",          1549,       43.8422,       52.8979,            0.,NA,NA,"",   982.295E+03,   1.02077E+06,   1.02077E+06
C:/temp/Job-34.odb,Step-1,Increment      1: Step Time =    1.000,"P-34-1",          1550,       157.125,       144.942,            0.,NA,NA,"",   1.01704E+06,   1.01094E+06,   1.01094E+06
C:/temp/Job-34.odb,Step-1,Increment      1: Step Time =    1.000,"P-34-1",          1551,       55.9024,       155.899,            0.,NA,NA,"",   1.01088E+06,   1.02963E+06,   1.02963E+06
C:/temp/Job-34.odb,Step-1,Increment      1: Step Time =    1.000,"P-34-1",          1552,       57.9632,       122.991,            0.,NA,NA,"",   977.048E+03,   1.00723E+06,   1.00723E+06
C:/temp/Job-34.odb,Step-1,Increment      1: Step Time =    1.000,"P-34-1",          1553,       78.3942,       62.2396,            0.,NA,NA,"",   1.03893E+06,   1.05010E+06,   1.05010E+06
C:/temp/Job-34.odb,Step-1,Increment      1: Step Time =    1.000,"P-34-1",          1554,       141.201,       144.189,            0.,NA,NA,"",   1.03069E+06,   1.02240E+06,   1.02240E+06
C:/temp/Job-34.odb,Step-1,Increment      1: Step Time =    1.000,"P-34-1",          1555,       158.614,       90.8184,            0.,NA,NA,"",   988.921E+03,   988.135E+03,   988.135E+03
C:/temp/Job-34.odb,Step-1,Increment      1: Step Time =    1.000,"P-34-1",          1556,       68.3506,       58.9749,            0.,NA,NA,"",   1.02717E+06,   1.04066E+06,   1.04066E+06
C:/temp/Job-34.odb,Step-1,Increment      1: Step Time =    1.000,"P-34-1",          1557,       124.147,       59.6734,            0.,NA,NA,"",   1.04400E+06,   1.03948E+06,   1.03948E+06
C:/temp/Job-34.odb,Step-1,Increment      1: Step Time =    1.000,"P-34-1",          1558,       69.3915,       136.429,            0.,NA,NA,"",   1.03215E+06,   1.04439E+06,   1.04439E+06
C:/temp/Job-34.odb,Step-1,Increment      1: Step Time =    1.000,"P-34-1",          1559,       150.852,       152.849,            0.,NA,NA,"",   1.01831E+06,   1.01240E+06,   1.01240E+06
C:/temp/Job-34.odb,Step-1,Increment      1: Step Time =    1.000,"P-34-1",          1560,       45.4271,       151.137,            0.,NA,NA,"",   991.502E+03,   1.02533E+06,   1.02533E+06
C:/temp/Job-34.odb,Step-1,Increment      1: Step Time =    1.000,"P-34-1",          1561,       152.584,       51.3114,            0.,NA,NA,"",   1.01958E+06,   1.01327E+06,   1.01327E+06
C:/temp/Job-34.odb,Step-1,Increment      1: Step Time =    1.000,"P-34-1",          1562,       135.199,       64.9582,            0.,NA,NA,"",   1.04358E+06,   1.03226E+06,   1.03226E+06
C:/temp/Job-34.odb,Step-1,Increment      1: Step Time =    1.000,"P-34-1",          1563,       68.4721,       50.2061,            0.,NA,NA,"",   1.02176E+06,   1.03460E+06,   1.03460E+06
C:/temp/Job-34.odb,Step-1,Increment      1: Step Time =    1.000,"P-34-1",          1564,       47.5983,       119.108,            0.,NA,NA,"",   937.421E+03,   986.265E+03,   986.265E+03
C:/temp/Job-34.odb,Step-1,Increment      1: Step Time =    1.000,"P-34-1",          1565,       102.100,       142.765,            0.,NA,NA,"",   1.01198E+06,   1.03039E+06,   1.03039E+06
C:/temp/Job-34.odb,Step-1,Increment      1: Step Time =    1.000,"P-34-1",          1566,       56.7015,       65.9408,            0.,NA,NA,"",   996.118E+03,   1.02318E+06,   1.02318E+06
C:/temp/Job-34.odb,Step-1,Increment      1: Step Time =    1.000,"P-34-1",          1567,       115.473,       54.9977,            0.,NA,NA,"",   1.02648E+06,   1.03157E+06,   1.03157E+06
C:/temp/Job-34.odb,Step-1,Increment      1: Step Time =    1.000,"P-34-1",          1568,       93.8587,       146.457,            0.,NA,NA,"",   1.01040E+06,   1.02692E+06,   1.02692E+06
C:/temp/Job-34.odb,Step-1,Increment      1: Step Time =    1.000,"P-34-1",          1569,       154.646,       78.2941,            0.,NA,NA,"",   1.00493E+06,   1.00011E+06,   1.00011E+06
C:/temp/Job-34.odb,Step-1,Increment      1: Step Time =    1.000,"P-34-1",          1570,       133.641,       149.891,            0.,NA,NA,"",   1.02950E+06,   1.02349E+06,   1.02349E+06
C:/temp/Job-34.odb,Step-1,Increment      1: Step Time =    1.000,"P-34-1",          1571,       53.8530,       153.258,            0.,NA,NA,"",   1.00790E+06,   1.02986E+06,   1.02986E+06
C:/temp/Job-34.odb,Step-1,Increment      1: Step Time =    1.000,"P-34-1",          1572,       46.7640,       54.1300,            0.,NA,NA,"",   987.082E+03,   1.02213E+06,   1.02213E+06
C:/temp/Job-34.odb,Step-1,Increment      1: Step Time =    1.000,"P-34-1",          1573,       151.692,       145.087,            0.,NA,NA,"",   1.02115E+06,   1.01418E+06,   1.01418E+06
C:/temp/Job-34.odb,Step-1,Increment      1: Step Time =    1.000,"P-34-1",          1574,       144.065,       51.8230,            0.,NA,NA,"",   1.02584E+06,   1.01856E+06,   1.01856E+06
C:/temp/Job-34.odb,Step-1,Increment      1: Step Time =    1.000,"P-34-1",          1575,       50.5384,       154.255,            0.,NA,NA,"",   1.00470E+06,   1.02923E+06,   1.02923E+06
C:/temp/Job-34.odb,Step-1,Increment      1: Step Time =    1.000,"P-34-1",          1576,       46.4329,       50.8105,            0.,NA,NA,"",   991.082E+03,   1.02456E+06,   1.02456E+06
C:/temp/Job-34.odb,Step-1,Increment      1: Step Time =    1.000,"P-34-1",          1577,       154.225,       150.245,            0.,NA,NA,"",   1.01758E+06,   1.01168E+06,   1.01168E+06
C:/temp/Job-34.odb,Step-1,Increment      1: Step Time =    1.000,"P-34-1",          1578,       148.608,       47.8914,            0.,NA,NA,"",   1.01996E+06,   1.01399E+06,   1.01399E+06
C:/temp/Job-34.odb,Step-1,Increment      1: Step Time =    1.000,"P-34-1",          1579,       71.2380,       46.3332,            0.,NA,NA,"",   1.01947E+06,   1.03041E+06,   1.03041E+06
C:/temp/Job-34.odb,Step-1,Increment      1: Step Time =    1.000,"P-34-1",          1580,       47.2776,       127.511,            0.,NA,NA,"",   956.394E+03,   1.00076E+06,   1.00076E+06
C:/temp/Job-34.odb,Step-1,Increment      1: Step Time =    1.000,"P-34-1",          1581,       68.8670,       54.5779,            0.,NA,NA,"",   1.02488E+06,   1.03803E+06,   1.03803E+06
C:/temp/Job-34.odb,Step-1,Increment      1: Step Time =    1.000,"P-34-1",          1582,       55.1799,       132.555,            0.,NA,NA,"",   989.309E+03,   1.01984E+06,   1.01984E+06
C:/temp/Job-34.odb,Step-1,Increment      1: Step Time =    1.000,"P-34-1",          1583,       132.348,       139.886,            0.,NA,NA,"",   1.04154E+06,   1.03246E+06,   1.03246E+06
C:/temp/Job-34.odb,Step-1,Increment      1: Step Time =    1.000,"P-34-1",          1584,       53.3031,       80.2379,            0.,NA,NA,"",   952.314E+03,   992.078E+03,   992.078E+03
C:/temp/Job-34.odb,Step-1,Increment      1: Step Time =    1.000,"P-34-1",          1585,       74.1402,       140.904,            0.,NA,NA,"",   1.03378E+06,   1.04504E+06,   1.04504E+06
C:/temp/Job-34.odb,Step-1,Increment      1: Step Time =    1.000,"P-34-1",          1586,       128.448,       54.6981,            0.,NA,NA,"",   1.03553E+06,   1.03048E+06,   1.03048E+06
C:/temp/Job-34.odb,Step-1,Increment      1: Step Time =    1.000,"P-34-1",          1587,       143.235,       65.3708,            0.,NA,NA,"",   1.03215E+06,   1.02209E+06,   1.02209E+06
C:/temp/Job-34.odb,Step-1,Increment      1: Step Time =    1.000,"P-34-1",          1588,       150.606,       69.9592,            0.,NA,NA,"",   1.01939E+06,   1.01162E+06,   1.01162E+06
C:/temp/Job-34.odb,Step-1,Increment      1: Step Time =    1.000,"P-34-1",          1589,       123.543,       149.870,            0.,NA,NA,"",   1.02780E+06,   1.02621E+06,   1.02621E+06
C:/temp/Job-34.odb,Step-1,Increment      1: Step Time =    1.000,"P-34-1",          1590,       81.6143,       77.0287,            0.,NA,NA,"",   1.08977E+06,   1.08665E+06,   1.08665E+06
C:/temp/Job-34.odb,Step-1,Increment      1: Step Time =    1.000,"P-34-1",          1591,       79.1274,       140.865,            0.,NA,NA,"",   1.03424E+06,   1.04607E+06,   1.04607E+06
C:/temp/Job-34.odb,Step-1,Increment      1: Step Time =    1.000,"P-34-1",          1592,       87.3652,       147.134,            0.,NA,NA,"",   1.01827E+06,   1.03248E+06,   1.03248E+06
C:/temp/Job-34.odb,Step-1,Increment      1: Step Time =    1.000,"P-34-1",          1593,       111.079,       149.805,            0.,NA,NA,"",   1.01549E+06,   1.02341E+06,   1.02341E+06
C:/temp/Job-34.odb,Step-1,Increment      1: Step Time =    1.000,"P-34-1",          1594,       63.9262,       57.8610,            0.,NA,NA,"",   1.01998E+06,   1.03651E+06,   1.03651E+06
C:/temp/Job-34.odb,Step-1,Increment      1: Step Time =    1.000,"P-34-1",          1595,       58.1368,       61.2280,            0.,NA,NA,"",   1.00549E+06,   1.02918E+06,   1.02918E+06
C:/temp/Job-34.odb,Step-1,Increment      1: Step Time =    1.000,"P-34-1",          1596,       111.321,       54.8263,            0.,NA,NA,"",   1.02009E+06,   1.02930E+06,   1.02930E+06
C:/temp/Job-34.odb,Step-1,Increment      1: Step Time =    1.000,"P-34-1",          1597,       97.8414,       144.260,            0.,NA,NA,"",   1.01059E+06,   1.02887E+06,   1.02887E+06
C:/temp/Job-34.odb,Step-1,Increment      1: Step Time =    1.000,"P-34-1",          1598,       55.7693,       48.1224,            0.,NA,NA,"",   1.00912E+06,   1.02988E+06,   1.02988E+06
C:/temp/Job-34.odb,Step-1,Increment      1: Step Time =    1.000,"P-34-1",          1599,       44.2418,       146.623,            0.,NA,NA,"",   982.228E+03,   1.02072E+06,   1.02072E+06
C:/temp/Job-34.odb,Step-1,Increment      1: Step Time =    1.000,"P-34-1",          1600,       145.202,       151.544,            0.,NA,NA,"",   1.02240E+06,   1.01596E+06,   1.01596E+06
C:/temp/Job-34.odb,Step-1,Increment      1: Step Time =    1.000,"P-34-1",          1601,       133.986,       59.1480,            0.,NA,NA,"",   1.04006E+06,   1.03119E+06,   1.03119E+06
C:/temp/Job-34.odb,Step-1,Increment      1: Step Time =    1.000,"P-34-1",          1602,       77.2831,       58.0479,            0.,NA,NA,"",   1.03192E+06,   1.04347E+06,   1.04347E+06
C:/temp/Job-34.odb,Step-1,Increment      1: Step Time =    1.000,"P-34-1",          1603,       64.0864,       141.368,            0.,NA,NA,"",   1.02010E+06,   1.03671E+06,   1.03671E+06
C:/temp/Job-34.odb,Step-1,Increment      1: Step Time =    1.000,"P-34-1",          1604,       148.605,       65.4977,            0.,NA,NA,"",   1.02534E+06,   1.01670E+06,   1.01670E+06
C:/temp/Job-34.odb,Step-1,Increment      1: Step Time =    1.000,"P-34-1",          1605,       122.402,       153.757,            0.,NA,NA,"",   1.02109E+06,   1.02078E+06,   1.02078E+06
C:/temp/Job-34.odb,Step-1,Increment      1: Step Time =    1.000,"P-34-1",          1606,       72.7573,       54.5663,            0.,NA,NA,"",   1.02669E+06,   1.03867E+06,   1.03867E+06
C:/temp/Job-34.odb,Step-1,Increment      1: Step Time =    1.000,"P-34-1",          1607,       43.2166,       122.757,            0.,NA,NA,"",   934.880E+03,   987.928E+03,   987.928E+03
C:/temp/Job-34.odb,Step-1,Increment      1: Step Time =    1.000,"P-34-1",          1608,       108.003,       59.4349,            0.,NA,NA,"",   1.01962E+06,   1.03523E+06,   1.03523E+06
C:/temp/Job-34.odb,Step-1,Increment      1: Step Time =    1.000,"P-34-1",          1609,       142.512,       137.270,            0.,NA,NA,"",   1.03306E+06,   1.02308E+06,   1.02308E+06
C:/temp/Job-34.odb,Step-1,Increment      1: Step Time =    1.000,"P-34-1",          1610,       118.457,       153.080,            0.,NA,NA,"",   1.01878E+06,   1.02098E+06,   1.02098E+06
C:/temp/Job-34.odb,Step-1,Increment      1: Step Time =    1.000,"P-34-1",          1611,       99.5303,       55.5311,            0.,NA,NA,"",   1.01090E+06,   1.02866E+06,   1.02866E+06
C:/temp/Job-34.odb,Step-1,Increment      1: Step Time =    1.000,"P-34-1",          1612,       58.0437,       136.136,            0.,NA,NA,"",   1.00233E+06,   1.02726E+06,   1.02726E+06
C:/temp/Job-34.odb,Step-1,Increment      1: Step Time =    1.000,"P-34-1",          1613,       69.1833,       141.053,            0.,NA,NA,"",   1.02856E+06,   1.04164E+06,   1.04164E+06
C:/temp/Job-34.odb,Step-1,Increment      1: Step Time =    1.000,"P-34-1",          1614,       139.914,       68.6064,            0.,NA,NA,"",   1.03583E+06,   1.02441E+06,   1.02441E+06
C:/temp/Job-34.odb,Step-1,Increment      1: Step Time =    1.000,"P-34-1",          1615,       139.561,       134.427,            0.,NA,NA,"",   1.03546E+06,   1.02439E+06,   1.02439E+06
C:/temp/Job-34.odb,Step-1,Increment      1: Step Time =    1.000,"P-34-1",          1616,       100.779,       138.141,            0.,NA,NA,"",   1.01188E+06,   1.03572E+06,   1.03572E+06
C:/temp/Job-34.odb,Step-1,Increment      1: Step Time =    1.000,"P-34-1",          1617,       58.9846,       142.205,            0.,NA,NA,"",   1.01036E+06,   1.03180E+06,   1.03180E+06
C:/temp/Job-34.odb,Step-1,Increment      1: Step Time =    1.000,"P-34-1",          1618,       146.098,       141.855,            0.,NA,NA,"",   1.02759E+06,   1.01915E+06,   1.01915E+06
C:/temp/Job-34.odb,Step-1,Increment      1: Step Time =    1.000,"P-34-1",          1619,       47.7101,       123.158,            0.,NA,NA,"",   947.654E+03,   993.839E+03,   993.839E+03
C:/temp/Job-34.odb,Step-1,Increment      1: Step Time =    1.000,"P-34-1",          1620,       55.1790,       149.305,            0.,NA,NA,"",   1.00755E+06,   1.03024E+06,   1.03024E+06
C:/temp/Job-34.odb,Step-1,Increment      1: Step Time =    1.000,"P-34-1",          1621,       53.7805,       59.9136,            0.,NA,NA,"",   995.989E+03,   1.02467E+06,   1.02467E+06
C:/temp/Job-34.odb,Step-1,Increment      1: Step Time =    1.000,"P-34-1",          1622,       143.851,       56.3339,            0.,NA,NA,"",   1.02923E+06,   1.02077E+06,   1.02077E+06
C:/temp/Job-34.odb,Step-1,Increment      1: Step Time =    1.000,"P-34-1",          1623,       144.763,       59.8581,            0.,NA,NA,"",   1.02920E+06,   1.02046E+06,   1.02046E+06
C:/temp/Job-34.odb,Step-1,Increment      1: Step Time =    1.000,"P-34-1",          1624,       99.7816,       148.644,            0.,NA,NA,"",   1.00868E+06,   1.02323E+06,   1.02323E+06
C:/temp/Job-34.odb,Step-1,Increment      1: Step Time =    1.000,"P-34-1",          1625,       53.8514,       143.792,            0.,NA,NA,"",   1.00099E+06,   1.02772E+06,   1.02772E+06
C:/temp/Job-34.odb,Step-1,Increment      1: Step Time =    1.000,"P-34-1",          1626,       122.042,       157.604,            0.,NA,NA,"",   1.01561E+06,   1.01585E+06,   1.01585E+06
C:/temp/Job-34.odb,Step-1,Increment      1: Step Time =    1.000,"P-34-1",          1627,       69.1176,       145.879,            0.,NA,NA,"",   1.02494E+06,   1.03802E+06,   1.03802E+06
C:/temp/Job-34.odb,Step-1,Increment      1: Step Time =    1.000,"P-34-1",          1628,       56.4743,       128.502,            0.,NA,NA,"",   986.049E+03,   1.01601E+06,   1.01601E+06
C:/temp/Job-34.odb,Step-1,Increment      1: Step Time =    1.000,"P-34-1",          1629,       59.4592,       56.1332,            0.,NA,NA,"",   1.01196E+06,   1.03239E+06,   1.03239E+06
C:/temp/Job-34.odb,Step-1,Increment      1: Step Time =    1.000,"P-34-1",          1630,       119.425,       148.372,            0.,NA,NA,"",   1.02722E+06,   1.02836E+06,   1.02836E+06
C:/temp/Job-34.odb,Step-1,Increment      1: Step Time =    1.000,"P-34-1",          1631,       111.456,       50.2379,            0.,NA,NA,"",   1.01611E+06,   1.02365E+06,   1.02365E+06
C:/temp/Job-34.odb,Step-1,Increment      1: Step Time =    1.000,"P-34-1",          1632,       147.959,       58.7013,            0.,NA,NA,"",   1.02537E+06,   1.01767E+06,   1.01767E+06
C:/temp/Job-34.odb,Step-1,Increment      1: Step Time =    1.000,"P-34-1",          1633,       138.997,       57.6607,            0.,NA,NA,"",   1.03409E+06,   1.02540E+06,   1.02540E+06
C:/temp/Job-34.odb,Step-1,Increment      1: Step Time =    1.000,"P-34-1",          1634,       75.7204,       48.4140,            0.,NA,NA,"",   1.02120E+06,   1.03201E+06,   1.03201E+06
C:/temp/Job-34.odb,Step-1,Increment      1: Step Time =    1.000,"P-34-1",          1635,       54.9369,       70.1529,            0.,NA,NA,"",   983.263E+03,   1.01457E+06,   1.01457E+06
C:/temp/Job-34.odb,Step-1,Increment      1: Step Time =    1.000,"P-34-1",          1636,       54.9571,       54.7176,            0.,NA,NA,"",   1.00389E+06,   1.02875E+06,   1.02875E+06
C:/temp/Job-34.odb,Step-1,Increment      1: Step Time =    1.000,"P-34-1",          1637,       81.3966,       52.7495,            0.,NA,NA,"",   1.02378E+06,   1.03571E+06,   1.03571E+06
C:/temp/Job-34.odb,Step-1,Increment      1: Step Time =    1.000,"P-34-1",          1638,       76.9624,       42.9637,            0.,NA,NA,"",   1.01493E+06,   1.02418E+06,   1.02418E+06
C:/temp/Job-34.odb,Step-1,Increment      1: Step Time =    1.000,"P-34-1",          1639,       81.0351,       48.1706,            0.,NA,NA,"",   1.01848E+06,   1.02948E+06,   1.02948E+06
C:/temp/Job-34.odb,Step-1,Increment      1: Step Time =    1.000,"P-34-1",          1640,       90.0361,       19.6864,            0.,NA,NA,"",   979.340E+03,   981.487E+03,   981.487E+03
C:/temp/Job-34.odb,Step-1,Increment      1: Step Time =    1.000,"P-34-1",          1641,       19.4491,       109.935,            0.,NA,NA,"",   858.865E+03,   946.640E+03,   946.640E+03
C:/temp/Job-34.odb,Step-1,Increment      1: Step Time =    1.000,"P-34-1",          1642,       178.484,       85.5489,            0.,NA,NA,"",   998.150E+03,   997.702E+03,   997.702E+03
C:/temp/Job-34.odb,Step-1,Increment      1: Step Time =    1.000,"P-34-1",          1643,       110.160,       180.036,            0.,NA,NA,"",   982.453E+03,   983.773E+03,   983.773E+03
C:/temp/Job-34.odb,Step-1,Increment      1: Step Time =    1.000,"P-34-1",          1644,       26.0222,       8.70027,            0.,NA,NA,"",   1.03802E+06,   1.04445E+06,   1.04445E+06
C:/temp/Job-34.odb,Step-1,Increment      1: Step Time =    1.000,"P-34-1",          1645,       9.79406,       174.378,            0.,NA,NA,"",   972.473E+03,   1.05329E+06,   1.05329E+06
C:/temp/Job-34.odb,Step-1,Increment      1: Step Time =    1.000,"P-34-1",          1646,       190.951,       29.4721,            0.,NA,NA,"",   1.00147E+06,   1.00011E+06,   1.00011E+06
C:/temp/Job-34.odb,Step-1,Increment      1: Step Time =    1.000,"P-34-1",          1647,       170.498,       191.081,            0.,NA,NA,"",   997.146E+03,   996.846E+03,   996.846E+03
C:/temp/Job-34.odb,Step-1,Increment      1: Step Time =    1.000,"P-34-1",          1648,       110.803,       82.6306,            0.,NA,NA,"",   1.17988E+06,   1.16535E+06,   1.16535E+06
C:/temp/Job-34.odb,Step-1,Increment      1: Step Time =    1.000,"P-34-1",          1649,       81.2365,       57.0618,            0.,NA,NA,"",   1.02976E+06,   1.04168E+06,   1.04168E+06
C:/temp/Job-34.odb,Step-1,Increment      1: Step Time =    1.000,"P-34-1",          1650,       133.158,       54.1859,            0.,NA,NA,"",   1.03427E+06,   1.02761E+06,   1.02761E+06
C:/temp/Job-34.odb,Step-1,Increment      1: Step Time =    1.000,"P-34-1",          1651,       152.848,       165.571,            0.,NA,NA,"",   1.00875E+06,   1.00512E+06,   1.00512E+06
C:/temp/Job-34.odb,Step-1,Increment      1: Step Time =    1.000,"P-34-1",          1652,       45.1035,       33.9920,            0.,NA,NA,"",   1.00818E+06,   1.02956E+06,   1.02956E+06
C:/temp/Job-34.odb,Step-1,Increment      1: Step Time =    1.000,"P-34-1",          1653,       32.1357,       153.609,            0.,NA,NA,"",   966.827E+03,   1.01862E+06,   1.01862E+06
C:/temp/Job-34.odb,Step-1,Increment      1: Step Time =    1.000,"P-34-1",          1654,       162.591,       45.9875,            0.,NA,NA,"",   1.01167E+06,   1.00722E+06,   1.00722E+06
C:/temp/Job-34.odb,Step-1,Increment      1: Step Time =    1.000,"P-34-1",          1655,       101.345,       82.3279,            0.,NA,NA,"",   1.05085E+06,   1.12665E+06,   1.12665E+06
C:/temp/Job-34.odb,Step-1,Increment      1: Step Time =    1.000,"P-34-1",          1656,       62.2849,       125.795,            0.,NA,NA,"",   1.00008E+06,   1.02197E+06,   1.02197E+06
C:/temp/Job-34.odb,Step-1,Increment      1: Step Time =    1.000,"P-34-1",          1657,       90.7489,       149.596,            0.,NA,NA,"",   1.01254E+06,   1.02671E+06,   1.02671E+06
C:/temp/Job-34.odb,Step-1,Increment      1: Step Time =    1.000,"P-34-1",          1658,       110.835,       87.5978,            0.,NA,NA,"",   1.21741E+06,   1.15405E+06,   1.15405E+06
C:/temp/Job-34.odb,Step-1,Increment      1: Step Time =    1.000,"P-34-1",          1659,       76.8643,       53.4914,            0.,NA,NA,"",   1.02650E+06,   1.03778E+06,   1.03778E+06
C:/temp/Job-34.odb,Step-1,Increment      1: Step Time =    1.000,"P-34-1",          1660,       188.870,       55.3153,            0.,NA,NA,"",   1.00282E+06,   1.00092E+06,   1.00092E+06
C:/temp/Job-34.odb,Step-1,Increment      1: Step Time =    1.000,"P-34-1",          1661,       58.0891,       13.0180,            0.,NA,NA,"",   977.976E+03,   979.753E+03,   979.753E+03
C:/temp/Job-34.odb,Step-1,Increment      1: Step Time =    1.000,"P-34-1",          1662,       143.551,       188.352,            0.,NA,NA,"",   989.063E+03,   988.457E+03,   988.457E+03
C:/temp/Job-34.odb,Step-1,Increment      1: Step Time =    1.000,"P-34-1",          1663,       12.9572,       141.823,            0.,NA,NA,"",   879.534E+03,   969.807E+03,   969.807E+03
C:/temp/Job-34.odb,Step-1,Increment      1: Step Time =    1.000,"P-34-1",          1664,       28.4763,       151.109,            0.,NA,NA,"",   950.779E+03,   1.01102E+06,   1.01102E+06
C:/temp/Job-34.odb,Step-1,Increment      1: Step Time =    1.000,"P-34-1",          1665,       151.558,       171.375,            0.,NA,NA,"",   1.00439E+06,   1.00168E+06,   1.00168E+06
C:/temp/Job-34.odb,Step-1,Increment      1: Step Time =    1.000,"P-34-1",          1666,       48.0650,       29.5406,            0.,NA,NA,"",   1.01035E+06,   1.02521E+06,   1.02521E+06
C:/temp/Job-34.odb,Step-1,Increment      1: Step Time =    1.000,"P-34-1",          1667,       169.311,       47.3987,            0.,NA,NA,"",   1.00892E+06,   1.00521E+06,   1.00521E+06
C:/temp/Job-34.odb,Step-1,Increment      1: Step Time =    1.000,"P-34-1",          1668,       47.4805,       10.5662,            0.,NA,NA,"",   981.552E+03,   983.235E+03,   983.235E+03
C:/temp/Job-34.odb,Step-1,Increment      1: Step Time =    1.000,"P-34-1",          1669,       189.805,       47.7033,            0.,NA,NA,"",   1.00284E+06,   1.00080E+06,   1.00080E+06
C:/temp/Job-34.odb,Step-1,Increment      1: Step Time =    1.000,"P-34-1",          1670,       151.918,       189.059,            0.,NA,NA,"",   992.332E+03,   991.741E+03,   991.741E+03
C:/temp/Job-34.odb,Step-1,Increment      1: Step Time =    1.000,"P-34-1",          1671,       10.7227,       152.482,            0.,NA,NA,"",   892.461E+03,   983.621E+03,   983.621E+03
C:/temp/Job-34.odb,Step-1,Increment      1: Step Time =    1.000,"P-34-1",          1672,       5.08831,       5.05172,            0.,NA,NA,"",   1.29962E+06,   1.34849E+06,   1.34849E+06
C:/temp/Job-34.odb,Step-1,Increment      1: Step Time =    1.000,"P-34-1",          1673,       114.573,       103.123,            0.,NA,NA,"",   698.671E+03,   661.564E+03,   661.564E+03
C:/temp/Job-34.odb,Step-1,Increment      1: Step Time =    1.000,"P-34-1",          1674,       87.5502,       90.2560,            0.,NA,NA,"",   1.12062E+06,   1.05184E+06,   1.05184E+06
C:/temp/Job-34.odb,Step-1,Increment      1: Step Time =    1.000,"P-34-1",          1675,       43.8264,       9.49530,            0.,NA,NA,"",   982.854E+03,   984.795E+03,   984.795E+03
C:/temp/Job-34.odb,Step-1,Increment      1: Step Time =    1.000,"P-34-1",          1676,       9.84977,       26.2118,            0.,NA,NA,"",   969.349E+03,   1.05064E+06,   1.05064E+06
C:/temp/Job-34.odb,Step-1,Increment      1: Step Time =    1.000,"P-34-1",          1677,       149.190,       9.19350,            0.,NA,NA,"",   989.865E+03,   989.478E+03,   989.478E+03
C:/temp/Job-34.odb,Step-1,Increment      1: Step Time =    1.000,"P-34-1",          1678,       190.583,       149.287,            0.,NA,NA,"",   1.00249E+06,   1.00067E+06,   1.00067E+06
C:/temp/Job-34.odb,Step-1,Increment      1: Step Time =    1.000,"P-34-1",          1679,       50.7887,       190.576,            0.,NA,NA,"",   972.230E+03,   973.788E+03,   973.788E+03
C:/temp/Job-34.odb,Step-1,Increment      1: Step Time =    1.000,"P-34-1",          1680,       190.135,       15.1682,            0.,NA,NA,"",   1.00009E+06,   999.591E+03,   999.591E+03
C:/temp/Job-34.odb,Step-1,Increment      1: Step Time =    1.000,"P-34-1",          1681,       184.795,       190.093,            0.,NA,NA,"",   999.343E+03,   999.078E+03,   999.078E+03
C:/temp/Job-34.odb,Step-1,Increment      1: Step Time =    1.000,"P-34-1",          1682,       82.4573,       90.1758,            0.,NA,NA,"",   998.225E+03,   967.647E+03,   967.647E+03
C:/temp/Job-34.odb,Step-1,Increment      1: Step Time =    1.000,"P-34-1",          1683,       82.2920,       85.6046,            0.,NA,NA,"",   1.11371E+06,   1.07881E+06,   1.07881E+06
C:/temp/Job-34.odb,Step-1,Increment      1: Step Time =    1.000,"P-34-1",          1684,       107.203,       114.478,            0.,NA,NA,"",   1.22905E+06,   1.22697E+06,   1.22697E+06
C:/temp/Job-34.odb,Step-1,Increment      1: Step Time =    1.000,"P-34-1",          1685,       116.029,       92.4055,            0.,NA,NA,"",   989.980E+03,   947.878E+03,   947.878E+03
C:/temp/Job-34.odb,Step-1,Increment      1: Step Time =    1.000,"P-34-1",          1686,       9.76920,       156.193,            0.,NA,NA,"",   898.248E+03,   990.008E+03,   990.008E+03
C:/temp/Job-34.odb,Step-1,Increment      1: Step Time =    1.000,"P-34-1",          1687,       39.1285,       183.582,            0.,NA,NA,"",   1.01100E+06,   1.01970E+06,   1.01970E+06
C:/temp/Job-34.odb,Step-1,Increment      1: Step Time =    1.000,"P-34-1",          1688,       160.572,       16.2055,            0.,NA,NA,"",   996.966E+03,   996.021E+03,   996.021E+03
C:/temp/Job-34.odb,Step-1,Increment      1: Step Time =    1.000,"P-34-1",          1689,       184.156,       160.908,            0.,NA,NA,"",   1.00307E+06,   1.00112E+06,   1.00112E+06
C:/temp/Job-34.odb,Step-1,Increment      1: Step Time =    1.000,"P-34-1",          1690,       57.3382,       20.1818,            0.,NA,NA,"",   995.347E+03,   999.828E+03,   999.828E+03
C:/temp/Job-34.odb,Step-1,Increment      1: Step Time =    1.000,"P-34-1",          1691,       67.5812,       14.5289,            0.,NA,NA,"",   975.747E+03,   977.167E+03,   977.167E+03
C:/temp/Job-34.odb,Step-1,Increment      1: Step Time =    1.000,"P-34-1",          1692,       125.066,       103.529,            0.,NA,NA,"",   838.836E+03,   850.523E+03,   850.523E+03
C:/temp/Job-34.odb,Step-1,Increment      1: Step Time =    1.000,"P-34-1",          1693,       77.3637,       89.7578,            0.,NA,NA,"",   951.234E+03,   955.725E+03,   955.725E+03
C:/temp/Job-34.odb,Step-1,Increment      1: Step Time =    1.000,"P-34-1",          1694,       69.7464,       106.081,            0.,NA,NA,"",   883.795E+03,   915.568E+03,   915.568E+03
C:/temp/Job-34.odb,Step-1,Increment      1: Step Time =    1.000,"P-34-1",          1695,       13.6881,       31.5301,            0.,NA,NA,"",   959.703E+03,   1.03542E+06,   1.03542E+06
C:/temp/Job-34.odb,Step-1,Increment      1: Step Time =    1.000,"P-34-1",          1696,       13.9783,       35.7824,            0.,NA,NA,"",   942.345E+03,   1.02103E+06,   1.02103E+06
C:/temp/Job-34.odb,Step-1,Increment      1: Step Time =    1.000,"P-34-1",          1697,       51.7588,       19.9624,            0.,NA,NA,"",   999.713E+03,   1.00553E+06,   1.00553E+06
C:/temp/Job-34.odb,Step-1,Increment      1: Step Time =    1.000,"P-34-1",          1698,       110.814,       77.8180,            0.,NA,NA,"",   1.10278E+06,   1.11098E+06,   1.11098E+06
C:/temp/Job-34.odb,Step-1,Increment      1: Step Time =    1.000,"P-34-1",          1699,       157.408,       17.1547,            0.,NA,NA,"",   996.661E+03,    995.61E+03,    995.61E+03
C:/temp/Job-34.odb,Step-1,Increment      1: Step Time =    1.000,"P-34-1",          1700,       182.387,       157.201,            0.,NA,NA,"",   1.00376E+06,   1.00160E+06,   1.00160E+06
C:/temp/Job-34.odb,Step-1,Increment      1: Step Time =    1.000,"P-34-1",          1701,       43.0032,       181.920,            0.,NA,NA,"",   1.00600E+06,   1.01437E+06,   1.01437E+06
C:/temp/Job-34.odb,Step-1,Increment      1: Step Time =    1.000,"P-34-1",          1702,       18.5310,       22.5245,            0.,NA,NA,"",   1.02169E+06,   1.07181E+06,   1.07181E+06
C:/temp/Job-34.odb,Step-1,Increment      1: Step Time =    1.000,"P-34-1",          1703,       156.374,       20.5119,            0.,NA,NA,"",   998.522E+03,   997.057E+03,   997.057E+03
C:/temp/Job-34.odb,Step-1,Increment      1: Step Time =    1.000,"P-34-1",          1704,       179.866,       158.497,            0.,NA,NA,"",   1.00421E+06,   1.00191E+06,   1.00191E+06
C:/temp/Job-34.odb,Step-1,Increment      1: Step Time =    1.000,"P-34-1",          1705,       50.0205,       24.5283,            0.,NA,NA,"",   1.00696E+06,   1.01682E+06,   1.01682E+06
C:/temp/Job-34.odb,Step-1,Increment      1: Step Time =    1.000,"P-34-1",          1706,       41.7542,       178.896,            0.,NA,NA,"",   1.01272E+06,   1.02408E+06,   1.02408E+06
C:/temp/Job-34.odb,Step-1,Increment      1: Step Time =    1.000,"P-34-1",          1707,       128.360,       98.6325,            0.,NA,NA,"",   886.709E+03,   893.697E+03,   893.697E+03
C:/temp/Job-34.odb,Step-1,Increment      1: Step Time =    1.000,"P-34-1",          1708,       19.9823,       142.435,            0.,NA,NA,"",   903.962E+03,   983.545E+03,   983.545E+03
C:/temp/Job-34.odb,Step-1,Increment      1: Step Time =    1.000,"P-34-1",          1709,       14.5223,       132.336,            0.,NA,NA,"",   869.176E+03,   959.468E+03,   959.468E+03
C:/temp/Job-34.odb,Step-1,Increment      1: Step Time =    1.000,"P-34-1",          1710,       181.226,       144.219,            0.,NA,NA,"",   1.00454E+06,   1.00219E+06,   1.00219E+06
C:/temp/Job-34.odb,Step-1,Increment      1: Step Time =    1.000,"P-34-1",          1711,       56.0001,       181.434,            0.,NA,NA,"",   992.982E+03,   997.016E+03,   997.016E+03
C:/temp/Job-34.odb,Step-1,Increment      1: Step Time =    1.000,"P-34-1",          1712,       19.2659,       39.8662,            0.,NA,NA,"",   947.789E+03,   1.01789E+06,   1.01789E+06
C:/temp/Job-34.odb,Step-1,Increment      1: Step Time =    1.000,"P-34-1",          1713,       141.627,       178.511,            0.,NA,NA,"",   996.854E+03,   995.326E+03,   995.326E+03
C:/temp/Job-34.odb,Step-1,Increment      1: Step Time =    1.000,"P-34-1",          1714,       180.119,       107.854,            0.,NA,NA,"",   996.724E+03,   996.976E+03,   996.976E+03
C:/temp/Job-34.odb,Step-1,Increment      1: Step Time =    1.000,"P-34-1",          1715,       180.672,       103.503,            0.,NA,NA,"",   996.306E+03,   996.765E+03,   996.765E+03
C:/temp/Job-34.odb,Step-1,Increment      1: Step Time =    1.000,"P-34-1",          1716,       181.477,       73.2143,            0.,NA,NA,"",   1.00172E+06,   1.00038E+06,   1.00038E+06
C:/temp/Job-34.odb,Step-1,Increment      1: Step Time =    1.000,"P-34-1",          1717,       181.778,       40.5695,            0.,NA,NA,"",   1.00374E+06,   1.00154E+06,   1.00154E+06
C:/temp/Job-34.odb,Step-1,Increment      1: Step Time =    1.000,"P-34-1",          1718,       73.3436,       80.4262,            0.,NA,NA,"",   1.03338E+06,   1.03542E+06,   1.03542E+06
C:/temp/Job-34.odb,Step-1,Increment      1: Step Time =    1.000,"P-34-1",          1719,       118.489,       117.226,            0.,NA,NA,"",   1.10581E+06,   1.07439E+06,   1.07439E+06
C:/temp/Job-34.odb,Step-1,Increment      1: Step Time =    1.000,"P-34-1",          1720,       110.499,       128.642,            0.,NA,NA,"",   1.06170E+06,   1.07278E+06,   1.07278E+06
C:/temp/Job-34.odb,Step-1,Increment      1: Step Time =    1.000,"P-34-1",          1721,       115.032,       73.0021,            0.,NA,NA,"",   1.08010E+06,   1.07920E+06,   1.07920E+06
C:/temp/Job-34.odb,Step-1,Increment      1: Step Time =    1.000,"P-34-1",          1722,       102.961,       72.2372,            0.,NA,NA,"",   1.02433E+06,   1.06104E+06,   1.06104E+06
C:/temp/Job-34.odb,Step-1,Increment      1: Step Time =    1.000,"P-34-1",          1723,       19.7514,       147.948,            0.,NA,NA,"",   914.695E+03,   992.226E+03,   992.226E+03
C:/temp/Job-34.odb,Step-1,Increment      1: Step Time =    1.000,"P-34-1",          1724,       73.0056,       119.316,            0.,NA,NA,"",   1.02938E+06,   1.03382E+06,   1.03382E+06
C:/temp/Job-34.odb,Step-1,Increment      1: Step Time =    1.000,"P-34-1",          1725,       77.9312,       77.0819,            0.,NA,NA,"",   1.07759E+06,   1.07344E+06,   1.07344E+06
C:/temp/Job-34.odb,Step-1,Increment      1: Step Time =    1.000,"P-34-1",          1726,       17.4885,       180.139,            0.,NA,NA,"",   1.04656E+06,   1.09214E+06,   1.09214E+06
C:/temp/Job-34.odb,Step-1,Increment      1: Step Time =    1.000,"P-34-1",          1727,       22.1489,       15.0018,            0.,NA,NA,"",   1.05632E+06,   1.07879E+06,   1.07879E+06
C:/temp/Job-34.odb,Step-1,Increment      1: Step Time =    1.000,"P-34-1",          1728,       23.0720,       17.3948,            0.,NA,NA,"",   1.05168E+06,   1.07603E+06,   1.07603E+06
C:/temp/Job-34.odb,Step-1,Increment      1: Step Time =    1.000,"P-34-1",          1729,       17.8880,       26.2450,            0.,NA,NA,"",   998.995E+03,   1.05680E+06,   1.05680E+06
C:/temp/Job-34.odb,Step-1,Increment      1: Step Time =    1.000,"P-34-1",          1730,       182.718,       25.2604,            0.,NA,NA,"",   1.00121E+06,   999.929E+03,   999.929E+03
C:/temp/Job-34.odb,Step-1,Increment      1: Step Time =    1.000,"P-34-1",          1731,       173.661,       182.568,            0.,NA,NA,"",   999.133E+03,   998.293E+03,   998.293E+03
C:/temp/Job-34.odb,Step-1,Increment      1: Step Time =    1.000,"P-34-1",          1732,       71.8626,       18.4419,            0.,NA,NA,"",   982.674E+03,   984.742E+03,   984.742E+03
C:/temp/Job-34.odb,Step-1,Increment      1: Step Time =    1.000,"P-34-1",          1733,       152.843,       19.0653,            0.,NA,NA,"",   996.953E+03,   995.629E+03,   995.629E+03
C:/temp/Job-34.odb,Step-1,Increment      1: Step Time =    1.000,"P-34-1",          1734,       24.0510,       149.492,            0.,NA,NA,"",   933.371E+03,   1.00229E+06,   1.00229E+06
C:/temp/Job-34.odb,Step-1,Increment      1: Step Time =    1.000,"P-34-1",          1735,       38.0975,       18.1592,            0.,NA,NA,"",   1.01595E+06,   1.02720E+06,   1.02720E+06
C:/temp/Job-34.odb,Step-1,Increment      1: Step Time =    1.000,"P-34-1",          1736,       30.6382,       16.0623,            0.,NA,NA,"",   1.03098E+06,   1.04543E+06,   1.04543E+06
C:/temp/Job-34.odb,Step-1,Increment      1: Step Time =    1.000,"P-34-1",          1737,       25.2244,       16.1169,            0.,NA,NA,"",   1.04502E+06,   1.06587E+06,   1.06587E+06
C:/temp/Job-34.odb,Step-1,Increment      1: Step Time =    1.000,"P-34-1",          1738,       133.455,       99.3129,            0.,NA,NA,"",   920.225E+03,   926.010E+03,   926.010E+03
C:/temp/Job-34.odb,Step-1,Increment      1: Step Time =    1.000,"P-34-1",          1739,       77.6877,       176.201,            0.,NA,NA,"",   989.848E+03,   993.047E+03,   993.047E+03
C:/temp/Job-34.odb,Step-1,Increment      1: Step Time =    1.000,"P-34-1",          1740,       52.6023,       177.951,            0.,NA,NA,"",   1.00209E+06,   1.00903E+06,   1.00903E+06
C:/temp/Job-34.odb,Step-1,Increment      1: Step Time =    1.000,"P-34-1",          1741,       126.499,       114.805,            0.,NA,NA,"",   1.02988E+06,   1.00836E+06,   1.00836E+06
C:/temp/Job-34.odb,Step-1,Increment      1: Step Time =    1.000,"P-34-1",          1742,       92.5467,       66.5017,            0.,NA,NA,"",   1.02715E+06,   1.05254E+06,   1.05254E+06
C:/temp/Job-34.odb,Step-1,Increment      1: Step Time =    1.000,"P-34-1",          1743,       81.1744,       72.2889,            0.,NA,NA,"",   1.06654E+06,   1.07248E+06,   1.07248E+06
C:/temp/Job-34.odb,Step-1,Increment      1: Step Time =    1.000,"P-34-1",          1744,       75.1940,       72.0706,            0.,NA,NA,"",   1.05671E+06,   1.06103E+06,   1.06103E+06
C:/temp/Job-34.odb,Step-1,Increment      1: Step Time =    1.000,"P-34-1",          1745,       175.751,       122.555,            0.,NA,NA,"",   1.00068E+06,   999.273E+03,   999.273E+03
C:/temp/Job-34.odb,Step-1,Increment      1: Step Time =    1.000,"P-34-1",          1746,       177.033,       147.692,            0.,NA,NA,"",   1.00607E+06,   1.00322E+06,   1.00322E+06
C:/temp/Job-34.odb,Step-1,Increment      1: Step Time =    1.000,"P-34-1",          1747,       176.076,       102.980,            0.,NA,NA,"",   994.941E+03,   995.100E+03,   995.100E+03
C:/temp/Job-34.odb,Step-1,Increment      1: Step Time =    1.000,"P-34-1",          1748,       175.547,       99.1200,            0.,NA,NA,"",   994.637E+03,   994.853E+03,   994.853E+03
C:/temp/Job-34.odb,Step-1,Increment      1: Step Time =    1.000,"P-34-1",          1749,       177.183,       81.4038,            0.,NA,NA,"",   999.618E+03,   998.595E+03,   998.595E+03
C:/temp/Job-34.odb,Step-1,Increment      1: Step Time =    1.000,"P-34-1",          1750,       177.017,       72.4060,            0.,NA,NA,"",   1.00293E+06,   1.00092E+06,   1.00092E+06
C:/temp/Job-34.odb,Step-1,Increment      1: Step Time =    1.000,"P-34-1",          1751,       70.5225,       124.081,            0.,NA,NA,"",   1.03196E+06,   1.03943E+06,   1.03943E+06
C:/temp/Job-34.odb,Step-1,Increment      1: Step Time =    1.000,"P-34-1",          1752,       58.3239,       107.387,            0.,NA,NA,"",   916.985E+03,   958.588E+03,   958.588E+03
C:/temp/Job-34.odb,Step-1,Increment      1: Step Time =    1.000,"P-34-1",          1753,       97.7077,       66.1112,            0.,NA,NA,"",   1.01702E+06,   1.04640E+06,   1.04640E+06
C:/temp/Job-34.odb,Step-1,Increment      1: Step Time =    1.000,"P-34-1",          1754,       119.276,       68.4834,            0.,NA,NA,"",   1.06646E+06,   1.06110E+06,   1.06110E+06
C:/temp/Job-34.odb,Step-1,Increment      1: Step Time =    1.000,"P-34-1",          1755,       123.636,       68.6690,            0.,NA,NA,"",   1.06779E+06,   1.05606E+06,   1.05606E+06
C:/temp/Job-34.odb,Step-1,Increment      1: Step Time =    1.000,"P-34-1",          1756,       147.854,       171.206,            0.,NA,NA,"",   1.00456E+06,   1.00182E+06,   1.00182E+06
C:/temp/Job-34.odb,Step-1,Increment      1: Step Time =    1.000,"P-34-1",          1757,       170.304,       180.223,            0.,NA,NA,"",   999.588E+03,   998.489E+03,   998.489E+03
C:/temp/Job-34.odb,Step-1,Increment      1: Step Time =    1.000,"P-34-1",          1758,       23.9683,       24.6306,            0.,NA,NA,"",   1.01808E+06,   1.05879E+06,   1.05879E+06
C:/temp/Job-34.odb,Step-1,Increment      1: Step Time =    1.000,"P-34-1",          1759,       84.3261,       141.042,            0.,NA,NA,"",   1.02909E+06,   1.04343E+06,   1.04343E+06
C:/temp/Job-34.odb,Step-1,Increment      1: Step Time =    1.000,"P-34-1",          1760,       29.6589,       19.5293,            0.,NA,NA,"",   1.03024E+06,   1.05156E+06,   1.05156E+06
C:/temp/Job-34.odb,Step-1,Increment      1: Step Time =    1.000,"P-34-1",          1761,       108.490,       136.862,            0.,NA,NA,"",   1.02611E+06,   1.04324E+06,   1.04324E+06
C:/temp/Job-34.odb,Step-1,Increment      1: Step Time =    1.000,"P-34-1",          1762,       36.2689,       22.2695,            0.,NA,NA,"",   1.01846E+06,   1.03613E+06,   1.03613E+06
C:/temp/Job-34.odb,Step-1,Increment      1: Step Time =    1.000,"P-34-1",          1763,       173.180,       112.282,            0.,NA,NA,"",   996.456E+03,   996.009E+03,   996.009E+03
C:/temp/Job-34.odb,Step-1,Increment      1: Step Time =    1.000,"P-34-1",          1764,       18.8577,       57.9064,            0.,NA,NA,"",   899.612E+03,   981.066E+03,   981.066E+03
C:/temp/Job-34.odb,Step-1,Increment      1: Step Time =    1.000,"P-34-1",          1765,       137.898,       83.0344,            0.,NA,NA,"",   1.00587E+06,   997.192E+03,   997.192E+03
C:/temp/Job-34.odb,Step-1,Increment      1: Step Time =    1.000,"P-34-1",          1766,       21.2326,       28.4773,            0.,NA,NA,"",   997.313E+03,   1.05000E+06,   1.05000E+06
C:/temp/Job-34.odb,Step-1,Increment      1: Step Time =    1.000,"P-34-1",          1767,       132.462,       175.786,            0.,NA,NA,"",   996.975E+03,   995.780E+03,   995.780E+03
C:/temp/Job-34.odb,Step-1,Increment      1: Step Time =    1.000,"P-34-1",          1768,       173.018,       78.6815,            0.,NA,NA,"",   1.00088E+06,   999.112E+03,   999.112E+03
C:/temp/Job-34.odb,Step-1,Increment      1: Step Time =    1.000,"P-34-1",          1769,       60.9294,       95.5895,            0.,NA,NA,"",   907.441E+03,   947.942E+03,   947.942E+03
C:/temp/Job-34.odb,Step-1,Increment      1: Step Time =    1.000,"P-34-1",          1770,       170.305,       123.017,            0.,NA,NA,"",   1.00169E+06,   999.442E+03,   999.442E+03
C:/temp/Job-34.odb,Step-1,Increment      1: Step Time =    1.000,"P-34-1",          1771,       18.4258,       66.8172,            0.,NA,NA,"",   881.851E+03,   966.951E+03,   966.951E+03
C:/temp/Job-34.odb,Step-1,Increment      1: Step Time =    1.000,"P-34-1",          1772,       78.4861,       170.928,            0.,NA,NA,"",   997.774E+03,   1.00262E+06,   1.00262E+06
C:/temp/Job-34.odb,Step-1,Increment      1: Step Time =    1.000,"P-34-1",          1773,       69.8898,       131.919,            0.,NA,NA,"",   1.03447E+06,   1.04547E+06,   1.04547E+06
C:/temp/Job-34.odb,Step-1,Increment      1: Step Time =    1.000,"P-34-1",          1774,       18.4907,       127.992,            0.,NA,NA,"",   874.949E+03,   961.134E+03,   961.134E+03
C:/temp/Job-34.odb,Step-1,Increment      1: Step Time =    1.000,"P-34-1",          1775,       86.1596,       176.720,            0.,NA,NA,"",   985.329E+03,   988.409E+03,   988.409E+03
C:/temp/Job-34.odb,Step-1,Increment      1: Step Time =    1.000,"P-34-1",          1776,       172.937,       70.4235,            0.,NA,NA,"",   1.00472E+06,   1.00195E+06,   1.00195E+06
C:/temp/Job-34.odb,Step-1,Increment      1: Step Time =    1.000,"P-34-1",          1777,       170.993,       114.805,            0.,NA,NA,"",   997.273E+03,   996.336E+03,   996.336E+03
C:/temp/Job-34.odb,Step-1,Increment      1: Step Time =    1.000,"P-34-1",          1778,       19.1905,       161.802,            0.,NA,NA,"",   953.304E+03,   1.02241E+06,   1.02241E+06
C:/temp/Job-34.odb,Step-1,Increment      1: Step Time =    1.000,"P-34-1",          1779,       18.3554,       176.009,            0.,NA,NA,"",   1.01095E+06,   1.06428E+06,   1.06428E+06
C:/temp/Job-34.odb,Step-1,Increment      1: Step Time =    1.000,"P-34-1",          1780,       171.253,       91.6007,            0.,NA,NA,"",   994.773E+03,   994.308E+03,   994.308E+03
C:/temp/Job-34.odb,Step-1,Increment      1: Step Time =    1.000,"P-34-1",          1781,       166.380,       86.6576,            0.,NA,NA,"",   995.457E+03,   994.358E+03,   994.358E+03
C:/temp/Job-34.odb,Step-1,Increment      1: Step Time =    1.000,"P-34-1",          1782,       170.871,       164.855,            0.,NA,NA,"",   1.00495E+06,   1.00239E+06,   1.00239E+06
C:/temp/Job-34.odb,Step-1,Increment      1: Step Time =    1.000,"P-34-1",          1783,       175.309,       35.4834,            0.,NA,NA,"",   1.00417E+06,   1.00184E+06,   1.00184E+06
C:/temp/Job-34.odb,Step-1,Increment      1: Step Time =    1.000,"P-34-1",          1784,       129.570,       118.191,            0.,NA,NA,"",   1.04145E+06,   1.02231E+06,   1.02231E+06
C:/temp/Job-34.odb,Step-1,Increment      1: Step Time =    1.000,"P-34-1",          1785,       92.7867,       60.1480,            0.,NA,NA,"",   1.01774E+06,   1.03857E+06,   1.03857E+06
C:/temp/Job-34.odb,Step-1,Increment      1: Step Time =    1.000,"P-34-1",          1786,       67.4742,       123.730,            0.,NA,NA,"",   1.01575E+06,   1.02886E+06,   1.02886E+06
C:/temp/Job-34.odb,Step-1,Increment      1: Step Time =    1.000,"P-34-1",          1787,       61.9583,       120.421,            0.,NA,NA,"",   982.674E+03,   1.00762E+06,   1.00762E+06
C:/temp/Job-34.odb,Step-1,Increment      1: Step Time =    1.000,"P-34-1",          1788,       27.9599,       37.8205,            0.,NA,NA,"",   978.364E+03,   1.02932E+06,   1.02932E+06
C:/temp/Job-34.odb,Step-1,Increment      1: Step Time =    1.000,"P-34-1",          1789,       34.9431,       50.2841,            0.,NA,NA,"",   965.031E+03,   1.01540E+06,   1.01540E+06
C:/temp/Job-34.odb,Step-1,Increment      1: Step Time =    1.000,"P-34-1",          1790,       142.796,       167.834,            0.,NA,NA,"",   1.00782E+06,   1.00465E+06,   1.00465E+06
C:/temp/Job-34.odb,Step-1,Increment      1: Step Time =    1.000,"P-34-1",          1791,       164.829,       49.7023,            0.,NA,NA,"",   1.01163E+06,   1.00716E+06,   1.00716E+06
C:/temp/Job-34.odb,Step-1,Increment      1: Step Time =    1.000,"P-34-1",          1792,       169.369,       57.3296,            0.,NA,NA,"",   1.00982E+06,   1.00574E+06,   1.00574E+06
C:/temp/Job-34.odb,Step-1,Increment      1: Step Time =    1.000,"P-34-1",          1793,       124.089,       64.2445,            0.,NA,NA,"",   1.05492E+06,   1.04746E+06,   1.04746E+06
C:/temp/Job-34.odb,Step-1,Increment      1: Step Time =    1.000,"P-34-1",          1794,       103.609,       62.8265,            0.,NA,NA,"",   1.01532E+06,   1.03749E+06,   1.03749E+06
C:/temp/Job-34.odb,Step-1,Increment      1: Step Time =    1.000,"P-34-1",          1795,       129.114,       64.5231,            0.,NA,NA,"",   1.05237E+06,   1.04167E+06,   1.04167E+06
C:/temp/Job-34.odb,Step-1,Increment      1: Step Time =    1.000,"P-34-1",          1796,       166.597,       43.5940,            0.,NA,NA,"",   1.00918E+06,   1.00542E+06,   1.00542E+06
C:/temp/Job-34.odb,Step-1,Increment      1: Step Time =    1.000,"P-34-1",          1797,       143.052,       26.2605,            0.,NA,NA,"",   1.00146E+06,   999.354E+03,   999.354E+03
C:/temp/Job-34.odb,Step-1,Increment      1: Step Time =    1.000,"P-34-1",          1798,       27.9385,       23.4009,            0.,NA,NA,"",   1.02400E+06,   1.05408E+06,   1.05408E+06
C:/temp/Job-34.odb,Step-1,Increment      1: Step Time =    1.000,"P-34-1",          1799,       23.1713,       72.0982,            0.,NA,NA,"",   888.095E+03,   968.024E+03,   968.024E+03
C:/temp/Job-34.odb,Step-1,Increment      1: Step Time =    1.000,"P-34-1",          1800,       22.7116,       76.9789,            0.,NA,NA,"",   879.615E+03,   961.483E+03,   961.483E+03
C:/temp/Job-34.odb,Step-1,Increment      1: Step Time =    1.000,"P-34-1",          1801,       98.1455,       60.9568,            0.,NA,NA,"",   1.01315E+06,   1.03612E+06,   1.03612E+06
C:/temp/Job-34.odb,Step-1,Increment      1: Step Time =    1.000,"P-34-1",          1802,       170.504,       109.654,            0.,NA,NA,"",   994.668E+03,   994.277E+03,   994.277E+03
C:/temp/Job-34.odb,Step-1,Increment      1: Step Time =    1.000,"P-34-1",          1803,       122.609,       126.067,            0.,NA,NA,"",   1.07726E+06,   1.06031E+06,   1.06031E+06
C:/temp/Job-34.odb,Step-1,Increment      1: Step Time =    1.000,"P-34-1",          1804,       171.191,       136.448,            0.,NA,NA,"",   1.00740E+06,   1.00392E+06,   1.00392E+06
C:/temp/Job-34.odb,Step-1,Increment      1: Step Time =    1.000,"P-34-1",          1805,       135.112,       170.290,            0.,NA,NA,"",   1.00411E+06,   1.00204E+06,   1.00204E+06
C:/temp/Job-34.odb,Step-1,Increment      1: Step Time =    1.000,"P-34-1",          1806,       133.847,       23.5679,            0.,NA,NA,"",   996.643E+03,   995.468E+03,   995.468E+03
C:/temp/Job-34.odb,Step-1,Increment      1: Step Time =    1.000,"P-34-1",          1807,       166.774,       91.3376,            0.,NA,NA,"",   992.365E+03,   991.978E+03,   991.978E+03
C:/temp/Job-34.odb,Step-1,Increment      1: Step Time =    1.000,"P-34-1",          1808,       166.745,       72.3970,            0.,NA,NA,"",   1.00582E+06,   1.00230E+06,   1.00230E+06
C:/temp/Job-34.odb,Step-1,Increment      1: Step Time =    1.000,"P-34-1",          1809,       129.173,       121.696,            0.,NA,NA,"",   1.05563E+06,   1.03640E+06,   1.03640E+06
C:/temp/Job-34.odb,Step-1,Increment      1: Step Time =    1.000,"P-34-1",          1810,       133.034,       122.911,            0.,NA,NA,"",   1.04311E+06,   1.02692E+06,   1.02692E+06
C:/temp/Job-34.odb,Step-1,Increment      1: Step Time =    1.000,"P-34-1",          1811,       166.789,       125.627,            0.,NA,NA,"",   1.00404E+06,   1.00092E+06,   1.00092E+06
C:/temp/Job-34.odb,Step-1,Increment      1: Step Time =    1.000,"P-34-1",          1812,       163.892,       123.079,            0.,NA,NA,"",   1.00280E+06,   999.543E+03,   999.543E+03
C:/temp/Job-34.odb,Step-1,Increment      1: Step Time =    1.000,"P-34-1",          1813,       76.5163,       166.696,            0.,NA,NA,"",   1.00450E+06,   1.01075E+06,   1.01075E+06
C:/temp/Job-34.odb,Step-1,Increment      1: Step Time =    1.000,"P-34-1",          1814,       107.357,       146.210,            0.,NA,NA,"",   1.01478E+06,   1.02731E+06,   1.02731E+06
C:/temp/Job-34.odb,Step-1,Increment      1: Step Time =    1.000,"P-34-1",          1815,       137.288,       164.221,            0.,NA,NA,"",   1.01165E+06,   1.00832E+06,   1.00832E+06
C:/temp/Job-34.odb,Step-1,Increment      1: Step Time =    1.000,"P-34-1",          1816,       82.0372,       151.007,            0.,NA,NA,"",   1.01814E+06,   1.02949E+06,   1.02949E+06
C:/temp/Job-34.odb,Step-1,Increment      1: Step Time =    1.000,"P-34-1",          1817,       47.1636,       107.496,            0.,NA,NA,"",   911.789E+03,   965.987E+03,   965.987E+03
C:/temp/Job-34.odb,Step-1,Increment      1: Step Time =    1.000,"P-34-1",          1818,       29.2392,       32.8814,            0.,NA,NA,"",   994.931E+03,   1.03776E+06,   1.03776E+06
C:/temp/Job-34.odb,Step-1,Increment      1: Step Time =    1.000,"P-34-1",          1819,       29.8911,       157.033,            0.,NA,NA,"",   968.819E+03,   1.02161E+06,   1.02161E+06
C:/temp/Job-34.odb,Step-1,Increment      1: Step Time =    1.000,"P-34-1",          1820,       74.9161,       27.9940,            0.,NA,NA,"",   998.111E+03,   1.00279E+06,   1.00279E+06
C:/temp/Job-34.odb,Step-1,Increment      1: Step Time =    1.000,"P-34-1",          1821,       47.8247,       160.514,            0.,NA,NA,"",   1.00639E+06,   1.02940E+06,   1.02940E+06
C:/temp/Job-34.odb,Step-1,Increment      1: Step Time =    1.000,"P-34-1",          1822,       119.700,       59.5653,            0.,NA,NA,"",   1.04056E+06,   1.04048E+06,   1.04048E+06
C:/temp/Job-34.odb,Step-1,Increment      1: Step Time =    1.000,"P-34-1",          1823,       72.9347,       59.1047,            0.,NA,NA,"",   1.03187E+06,   1.04342E+06,   1.04342E+06
C:/temp/Job-34.odb,Step-1,Increment      1: Step Time =    1.000,"P-34-1",          1824,       80.9026,       65.7326,            0.,NA,NA,"",   1.04636E+06,   1.05710E+06,   1.05710E+06
C:/temp/Job-34.odb,Step-1,Increment      1: Step Time =    1.000,"P-34-1",          1825,       160.959,       87.1569,            0.,NA,NA,"",   993.195E+03,   991.766E+03,   991.766E+03
C:/temp/Job-34.odb,Step-1,Increment      1: Step Time =    1.000,"P-34-1",          1826,       48.2570,       44.9782,            0.,NA,NA,"",   1.00141E+06,   1.02823E+06,   1.02823E+06
C:/temp/Job-34.odb,Step-1,Increment      1: Step Time =    1.000,"P-34-1",          1827,       50.4072,       49.4789,            0.,NA,NA,"",   999.978E+03,   1.02747E+06,   1.02747E+06
C:/temp/Job-34.odb,Step-1,Increment      1: Step Time =    1.000,"P-34-1",          1828,       52.1400,       118.620,            0.,NA,NA,"",   947.309E+03,   989.455E+03,   989.455E+03
C:/temp/Job-34.odb,Step-1,Increment      1: Step Time =    1.000,"P-34-1",          1829,       52.4853,       123.114,            0.,NA,NA,"",   959.739E+03,   999.152E+03,   999.152E+03
C:/temp/Job-34.odb,Step-1,Increment      1: Step Time =    1.000,"P-34-1",          1830,       163.127,       92.0386,            0.,NA,NA,"",   990.300E+03,   989.925E+03,   989.925E+03
C:/temp/Job-34.odb,Step-1,Increment      1: Step Time =    1.000,"P-34-1",          1831,       27.9500,       73.5048,            0.,NA,NA,"",   899.920E+03,   973.651E+03,   973.651E+03
C:/temp/Job-34.odb,Step-1,Increment      1: Step Time =    1.000,"P-34-1",          1832,       27.0933,       77.9035,            0.,NA,NA,"",   890.979E+03,   967.025E+03,   967.025E+03
C:/temp/Job-34.odb,Step-1,Increment      1: Step Time =    1.000,"P-34-1",          1833,       53.6119,       100.925,            0.,NA,NA,"",   905.430E+03,   954.380E+03,   954.380E+03
C:/temp/Job-34.odb,Step-1,Increment      1: Step Time =    1.000,"P-34-1",          1834,       31.5647,       23.3362,            0.,NA,NA,"",   1.01968E+06,   1.04503E+06,   1.04503E+06
C:/temp/Job-34.odb,Step-1,Increment      1: Step Time =    1.000,"P-34-1",          1835,       115.508,       59.4151,            0.,NA,NA,"",   1.03365E+06,   1.03900E+06,   1.03900E+06
C:/temp/Job-34.odb,Step-1,Increment      1: Step Time =    1.000,"P-34-1",          1836,       129.677,       28.9489,            0.,NA,NA,"",   1.00129E+06,   1.00022E+06,   1.00022E+06
C:/temp/Job-34.odb,Step-1,Increment      1: Step Time =    1.000,"P-34-1",          1837,       37.6612,       161.377,            0.,NA,NA,"",   995.116E+03,   1.03051E+06,   1.03051E+06
C:/temp/Job-34.odb,Step-1,Increment      1: Step Time =    1.000,"P-34-1",          1838,       165.571,       130.219,            0.,NA,NA,"",   1.00813E+06,   1.00383E+06,   1.00383E+06
C:/temp/Job-34.odb,Step-1,Increment      1: Step Time =    1.000,"P-34-1",          1839,       124.426,       28.9109,            0.,NA,NA,"",   999.312E+03,   999.241E+03,   999.241E+03
C:/temp/Job-34.odb,Step-1,Increment      1: Step Time =    1.000,"P-34-1",          1840,       154.646,       39.4202,            0.,NA,NA,"",   1.01158E+06,   1.00733E+06,   1.00733E+06
C:/temp/Job-34.odb,Step-1,Increment      1: Step Time =    1.000,"P-34-1",          1841,       150.979,       38.5450,            0.,NA,NA,"",   1.01238E+06,   1.00804E+06,   1.00804E+06
C:/temp/Job-34.odb,Step-1,Increment      1: Step Time =    1.000,"P-34-1",          1842,       164.757,       111.525,            0.,NA,NA,"",   992.209E+03,   991.735E+03,   991.735E+03
C:/temp/Job-34.odb,Step-1,Increment      1: Step Time =    1.000,"P-34-1",          1843,       162.012,       107.743,            0.,NA,NA,"",   989.880E+03,   989.516E+03,   989.516E+03
C:/temp/Job-34.odb,Step-1,Increment      1: Step Time =    1.000,"P-34-1",          1844,       27.1951,       82.1504,            0.,NA,NA,"",   884.250E+03,   961.877E+03,   961.877E+03
C:/temp/Job-34.odb,Step-1,Increment      1: Step Time =    1.000,"P-34-1",          1845,       22.9132,       86.0168,            0.,NA,NA,"",   870.855E+03,   953.910E+03,   953.910E+03
C:/temp/Job-34.odb,Step-1,Increment      1: Step Time =    1.000,"P-34-1",          1846,       44.4205,       47.5517,            0.,NA,NA,"",   991.961E+03,   1.02561E+06,   1.02561E+06
C:/temp/Job-34.odb,Step-1,Increment      1: Step Time =    1.000,"P-34-1",          1847,       128.410,       172.684,            0.,NA,NA,"",   999.025E+03,   998.198E+03,   998.198E+03
C:/temp/Job-34.odb,Step-1,Increment      1: Step Time =    1.000,"P-34-1",          1848,       129.591,       167.688,            0.,NA,NA,"",   1.00584E+06,   1.00440E+06,   1.00440E+06
C:/temp/Job-34.odb,Step-1,Increment      1: Step Time =    1.000,"P-34-1",          1849,       167.274,       61.3486,            0.,NA,NA,"",   1.01047E+06,   1.00607E+06,   1.00607E+06
C:/temp/Job-34.odb,Step-1,Increment      1: Step Time =    1.000,"P-34-1",          1850,       95.2057,       165.505,            0.,NA,NA,"",   998.232E+03,   1.00494E+06,   1.00494E+06
C:/temp/Job-34.odb,Step-1,Increment      1: Step Time =    1.000,"P-34-1",          1851,       82.1535,       159.004,            0.,NA,NA,"",   1.00824E+06,   1.01701E+06,   1.01701E+06
C:/temp/Job-34.odb,Step-1,Increment      1: Step Time =    1.000,"P-34-1",          1852,       77.5091,       155.961,            0.,NA,NA,"",   1.01583E+06,   1.02566E+06,   1.02566E+06
C:/temp/Job-34.odb,Step-1,Increment      1: Step Time =    1.000,"P-34-1",          1853,       28.3495,       124.714,            0.,NA,NA,"",   898.632E+03,   972.173E+03,   972.173E+03
C:/temp/Job-34.odb,Step-1,Increment      1: Step Time =    1.000,"P-34-1",          1854,       119.662,       55.0452,            0.,NA,NA,"",   1.03119E+06,   1.03232E+06,   1.03232E+06
C:/temp/Job-34.odb,Step-1,Increment      1: Step Time =    1.000,"P-34-1",          1855,       123.958,       54.9270,            0.,NA,NA,"",   1.03452E+06,   1.03213E+06,   1.03213E+06
C:/temp/Job-34.odb,Step-1,Increment      1: Step Time =    1.000,"P-34-1",          1856,       37.8701,       63.2045,            0.,NA,NA,"",   947.979E+03,   1.00173E+06,   1.00173E+06
C:/temp/Job-34.odb,Step-1,Increment      1: Step Time =    1.000,"P-34-1",          1857,       50.5168,       96.8586,            0.,NA,NA,"",   909.615E+03,   961.018E+03,   961.018E+03
C:/temp/Job-34.odb,Step-1,Increment      1: Step Time =    1.000,"P-34-1",          1858,       160.319,       74.7281,            0.,NA,NA,"",   1.00665E+06,   1.00232E+06,   1.00232E+06
C:/temp/Job-34.odb,Step-1,Increment      1: Step Time =    1.000,"P-34-1",          1859,       42.3240,       157.003,            0.,NA,NA,"",   994.884E+03,   1.02794E+06,   1.02794E+06
C:/temp/Job-34.odb,Step-1,Increment      1: Step Time =    1.000,"P-34-1",          1860,       148.459,       81.6727,            0.,NA,NA,"",   1.00200E+06,   997.443E+03,   997.443E+03
C:/temp/Job-34.odb,Step-1,Increment      1: Step Time =    1.000,"P-34-1",          1861,       157.434,       140.882,            0.,NA,NA,"",   1.01721E+06,   1.01090E+06,   1.01090E+06
C:/temp/Job-34.odb,Step-1,Increment      1: Step Time =    1.000,"P-34-1",          1862,       68.1440,       44.5878,            0.,NA,NA,"",   1.01812E+06,   1.02943E+06,   1.02943E+06
C:/temp/Job-34.odb,Step-1,Increment      1: Step Time =    1.000,"P-34-1",          1863,       103.998,       57.1924,            0.,NA,NA,"",   1.01477E+06,   1.03090E+06,   1.03090E+06
C:/temp/Job-34.odb,Step-1,Increment      1: Step Time =    1.000,"P-34-1",          1864,       148.542,       41.1325,            0.,NA,NA,"",   1.01485E+06,   1.01008E+06,   1.01008E+06
C:/temp/Job-34.odb,Step-1,Increment      1: Step Time =    1.000,"P-34-1",          1865,       35.0840,       156.207,            0.,NA,NA,"",   980.198E+03,   1.02448E+06,   1.02448E+06
C:/temp/Job-34.odb,Step-1,Increment      1: Step Time =    1.000,"P-34-1",          1866,       158.526,       107.131,            0.,NA,NA,"",   987.480E+03,   986.701E+03,   986.701E+03
C:/temp/Job-34.odb,Step-1,Increment      1: Step Time =    1.000,"P-34-1",          1867,       58.7084,       152.665,            0.,NA,NA,"",   1.01300E+06,   1.03077E+06,   1.03077E+06
C:/temp/Job-34.odb,Step-1,Increment      1: Step Time =    1.000,"P-34-1",          1868,       124.007,       165.242,            0.,NA,NA,"",   1.00673E+06,   1.00654E+06,   1.00654E+06
C:/temp/Job-34.odb,Step-1,Increment      1: Step Time =    1.000,"P-34-1",          1869,       60.3860,       147.943,            0.,NA,NA,"",   1.01458E+06,   1.03308E+06,   1.03308E+06
C:/temp/Job-34.odb,Step-1,Increment      1: Step Time =    1.000,"P-34-1",          1870,       162.510,       130.219,            0.,NA,NA,"",   1.00953E+06,   1.00474E+06,   1.00474E+06
C:/temp/Job-34.odb,Step-1,Increment      1: Step Time =    1.000,"P-34-1",          1871,       159.585,       129.181,            0.,NA,NA,"",   1.00903E+06,   1.00412E+06,   1.00412E+06
C:/temp/Job-34.odb,Step-1,Increment      1: Step Time =    1.000,"P-34-1",          1872,       143.896,       157.377,            0.,NA,NA,"",   1.01768E+06,   1.01250E+06,   1.01250E+06
C:/temp/Job-34.odb,Step-1,Increment      1: Step Time =    1.000,"P-34-1",          1873,       81.3241,       43.4521,            0.,NA,NA,"",   1.01328E+06,   1.02287E+06,   1.02287E+06
C:/temp/Job-34.odb,Step-1,Increment      1: Step Time =    1.000,"P-34-1",          1874,       159.589,       58.4754,            0.,NA,NA,"",   1.01559E+06,   1.00984E+06,   1.00984E+06
C:/temp/Job-34.odb,Step-1,Increment      1: Step Time =    1.000,"P-34-1",          1875,       68.5562,       160.758,            0.,NA,NA,"",   1.01455E+06,   1.02442E+06,   1.02442E+06
C:/temp/Job-34.odb,Step-1,Increment      1: Step Time =    1.000,"P-34-1",          1876,       30.7093,       78.7170,            0.,NA,NA,"",   900.116E+03,   971.382E+03,   971.382E+03
C:/temp/Job-34.odb,Step-1,Increment      1: Step Time =    1.000,"P-34-1",          1877,       162.104,       70.6856,            0.,NA,NA,"",   1.00926E+06,   1.00457E+06,   1.00457E+06
C:/temp/Job-34.odb,Step-1,Increment      1: Step Time =    1.000,"P-34-1",          1878,       46.5832,       132.174,            0.,NA,NA,"",   964.438E+03,   1.00713E+06,   1.00713E+06
C:/temp/Job-34.odb,Step-1,Increment      1: Step Time =    1.000,"P-34-1",          1879,       129.592,       129.202,            0.,NA,NA,"",   1.05453E+06,   1.04058E+06,   1.04058E+06
C:/temp/Job-34.odb,Step-1,Increment      1: Step Time =    1.000,"P-34-1",          1880,       118.551,       157.863,            0.,NA,NA,"",   1.01259E+06,   1.01462E+06,   1.01462E+06
C:/temp/Job-34.odb,Step-1,Increment      1: Step Time =    1.000,"P-34-1",          1881,       124.237,       33.3056,            0.,NA,NA,"",   1.00476E+06,   1.00457E+06,   1.00457E+06
C:/temp/Job-34.odb,Step-1,Increment      1: Step Time =    1.000,"P-34-1",          1882,       120.103,       34.3489,            0.,NA,NA,"",   1.00401E+06,   1.00503E+06,   1.00503E+06
C:/temp/Job-34.odb,Step-1,Increment      1: Step Time =    1.000,"P-34-1",          1883,       49.9418,       149.937,            0.,NA,NA,"",   998.985E+03,   1.02753E+06,   1.02753E+06
C:/temp/Job-34.odb,Step-1,Increment      1: Step Time =    1.000,"P-34-1",          1884,       49.6164,       58.8362,            0.,NA,NA,"",   987.050E+03,   1.02079E+06,   1.02079E+06
C:/temp/Job-34.odb,Step-1,Increment      1: Step Time =    1.000,"P-34-1",          1885,       128.951,       157.777,            0.,NA,NA,"",   1.01829E+06,   1.01571E+06,   1.01571E+06
C:/temp/Job-34.odb,Step-1,Increment      1: Step Time =    1.000,"P-34-1",          1886,       38.6118,       73.6745,            0.,NA,NA,"",   929.951E+03,   987.611E+03,   987.611E+03
C:/temp/Job-34.odb,Step-1,Increment      1: Step Time =    1.000,"P-34-1",          1887,       119.400,       50.5544,            0.,NA,NA,"",   1.02411E+06,   1.02585E+06,   1.02585E+06
C:/temp/Job-34.odb,Step-1,Increment      1: Step Time =    1.000,"P-34-1",          1888,       43.3231,       101.208,            0.,NA,NA,"",   902.719E+03,    962.46E+03,    962.46E+03
C:/temp/Job-34.odb,Step-1,Increment      1: Step Time =    1.000,"P-34-1",          1889,       125.973,       155.158,            0.,NA,NA,"",   1.02064E+06,   1.01885E+06,   1.01885E+06
C:/temp/Job-34.odb,Step-1,Increment      1: Step Time =    1.000,"P-34-1",          1890,       136.065,       40.5126,            0.,NA,NA,"",   1.01649E+06,   1.01284E+06,   1.01284E+06
C:/temp/Job-34.odb,Step-1,Increment      1: Step Time =    1.000,"P-34-1",          1891,       64.4370,       150.353,            0.,NA,NA,"",   1.01888E+06,   1.03401E+06,   1.03401E+06
C:/temp/Job-34.odb,Step-1,Increment      1: Step Time =    1.000,"P-34-1",          1892,       150.831,       80.9303,            0.,NA,NA,"",   1.00074E+06,   996.870E+03,   996.870E+03
C:/temp/Job-34.odb,Step-1,Increment      1: Step Time =    1.000,"P-34-1",          1893,       51.2597,       132.830,            0.,NA,NA,"",   979.169E+03,   1.01445E+06,   1.01445E+06
C:/temp/Job-34.odb,Step-1,Increment      1: Step Time =    1.000,"P-34-1",          1894,       136.052,       45.5762,            0.,NA,NA,"",   1.02235E+06,   1.01746E+06,   1.01746E+06
C:/temp/Job-34.odb,Step-1,Increment      1: Step Time =    1.000,"P-34-1",          1895,       45.6792,       75.7592,            0.,NA,NA,"",   945.214E+03,   993.501E+03,   993.501E+03
C:/temp/Job-34.odb,Step-1,Increment      1: Step Time =    1.000,"P-34-1",          1896,       139.738,       155.159,            0.,NA,NA,"",   1.02107E+06,   1.01571E+06,   1.01571E+06
C:/temp/Job-34.odb,Step-1,Increment      1: Step Time =    1.000,"P-34-1",          1897,       43.9937,       119.522,            0.,NA,NA,"",   930.458E+03,   983.806E+03,   983.806E+03
C:/temp/Job-34.odb,Step-1,Increment      1: Step Time =    1.000,"P-34-1",          1898,       84.9040,       43.8670,            0.,NA,NA,"",   1.01181E+06,   1.02176E+06,   1.02176E+06
C:/temp/Job-34.odb,Step-1,Increment      1: Step Time =    1.000,"P-34-1",          1899,       87.8492,       40.2899,            0.,NA,NA,"",   1.00674E+06,   1.01557E+06,   1.01557E+06
C:/temp/Job-34.odb,Step-1,Increment      1: Step Time =    1.000,"P-34-1",          1900,       119.528,       162.084,            0.,NA,NA,"",   1.00810E+06,   1.00964E+06,   1.00964E+06
C:/temp/Job-34.odb,Step-1,Increment      1: Step Time =    1.000,"P-34-1",          1901,       40.1890,       97.1085,            0.,NA,NA,"",   899.182E+03,   962.622E+03,   962.622E+03
C:/temp/Job-34.odb,Step-1,Increment      1: Step Time =    1.000,"P-34-1",          1902,       97.9303,       160.392,            0.,NA,NA,"",   1.00221E+06,   1.01061E+06,   1.01061E+06
C:/temp/Job-34.odb,Step-1,Increment      1: Step Time =    1.000,"P-34-1",          1903,       44.1105,       87.3395,            0.,NA,NA,"",   916.072E+03,   972.459E+03,   972.459E+03
C:/temp/Job-34.odb,Step-1,Increment      1: Step Time =    1.000,"P-34-1",          1904,       44.9460,       81.7875,            0.,NA,NA,"",   928.091E+03,   981.187E+03,   981.187E+03
C:/temp/Job-34.odb,Step-1,Increment      1: Step Time =    1.000,"P-34-1",          1905,       152.699,       134.350,            0.,NA,NA,"",   1.01893E+06,   1.01143E+06,   1.01143E+06
C:/temp/Job-34.odb,Step-1,Increment      1: Step Time =    1.000,"P-34-1",          1906,       139.907,       150.352,            0.,NA,NA,"",   1.02626E+06,   1.01960E+06,   1.01960E+06
C:/temp/Job-34.odb,Step-1,Increment      1: Step Time =    1.000,"P-34-1",          1907,       145.798,       146.341,            0.,NA,NA,"",   1.02567E+06,   1.01801E+06,   1.01801E+06
C:/temp/Job-34.odb,Step-1,Increment      1: Step Time =    1.000,"P-34-1",          1908,       138.763,       140.217,            0.,NA,NA,"",   1.03655E+06,   1.02684E+06,   1.02684E+06
C:/temp/Job-34.odb,Step-1,Increment      1: Step Time =    1.000,"P-34-1",          1909,       107.162,       49.6802,            0.,NA,NA,"",   1.01215E+06,   1.02262E+06,   1.02262E+06
C:/temp/Job-34.odb,Step-1,Increment      1: Step Time =    1.000,"P-34-1",          1910,       91.9430,       34.8999,            0.,NA,NA,"",   999.569E+03,   1.00639E+06,   1.00639E+06
C:/temp/Job-34.odb,Step-1,Increment      1: Step Time =    1.000,"P-34-1",          1911,       133.096,       145.443,            0.,NA,NA,"",   1.03514E+06,   1.02781E+06,   1.02781E+06
C:/temp/Job-34.odb,Step-1,Increment      1: Step Time =    1.000,"P-34-1",          1912,       126.777,       40.7987,            0.,NA,NA,"",   1.01508E+06,   1.01393E+06,   1.01393E+06
