ODB Name,Step,Frame,Part Instance Name,    Node Label,X,Y,Z,Section Name,Material Name,Section Point,       S-Mises,S-Max. In-Plane Principal (Abs),S-Max. Principal (Abs)
C:/temp/Job-35.odb,Step-1,Increment      1: Step Time =    1.000,"P-35-1",             1,       90.1115,       130.434,            0.,NA,NA,"",   2.55402E+06,   2.61348E+06,   2.61348E+06
C:/temp/Job-35.odb,Step-1,Increment      1: Step Time =    1.000,"P-35-1",             2,       77.3726,       122.627,            0.,NA,NA,"",   862.836E+03,   860.896E+03,   860.896E+03
C:/temp/Job-35.odb,Step-1,Increment      1: Step Time =    1.000,"P-35-1",             3,       71.4878,       114.528,            0.,NA,NA,"",   431.533E+03,  -173.046E+03,  -173.046E+03
C:/temp/Job-35.odb,Step-1,Increment      1: Step Time =    1.000,"P-35-1",             4,       68.3940,       105.006,            0.,NA,NA,"",   742.993E+03,  -751.775E+03,  -751.775E+03
C:/temp/Job-35.odb,Step-1,Increment      1: Step Time =    1.000,"P-35-1",             5,       69.5662,       90.1115,            0.,NA,NA,"",   575.002E+03,   -555.33E+03,   -555.33E+03
C:/temp/Job-35.odb,Step-1,Increment      1: Step Time =    1.000,"P-35-1",             6,       74.1115,       81.1909,            0.,NA,NA,"",   512.400E+03,   427.352E+03,   427.352E+03
C:/temp/Job-35.odb,Step-1,Increment      1: Step Time =    1.000,"P-35-1",             7,       81.1909,       74.1115,            0.,NA,NA,"",   1.37820E+06,   1.39926E+06,   1.39926E+06
C:/temp/Job-35.odb,Step-1,Increment      1: Step Time =    1.000,"P-35-1",             8,       94.9941,       68.3940,            0.,NA,NA,"",   2.86270E+06,   2.93415E+06,   2.93415E+06
C:/temp/Job-35.odb,Step-1,Increment      1: Step Time =    1.000,"P-35-1",             9,       105.006,       68.3940,            0.,NA,NA,"",   3.02063E+06,   3.09204E+06,   3.09204E+06
C:/temp/Job-35.odb,Step-1,Increment      1: Step Time =    1.000,"P-35-1",            10,       118.809,       74.1115,            0.,NA,NA,"",   1.78535E+06,   1.82916E+06,   1.82916E+06
C:/temp/Job-35.odb,Step-1,Increment      1: Step Time =    1.000,"P-35-1",            11,       125.889,       81.1909,            0.,NA,NA,"",   726.901E+03,   668.855E+03,   668.855E+03
C:/temp/Job-35.odb,Step-1,Increment      1: Step Time =    1.000,"P-35-1",            12,       130.434,       90.1115,            0.,NA,NA,"",   750.047E+03,  -734.802E+03,  -734.802E+03
C:/temp/Job-35.odb,Step-1,Increment      1: Step Time =    1.000,"P-35-1",            13,       131.606,       105.006,            0.,NA,NA,"",   1.01563E+06,  -1.02388E+06,  -1.02388E+06
C:/temp/Job-35.odb,Step-1,Increment      1: Step Time =    1.000,"P-35-1",            14,       128.512,       114.528,            0.,NA,NA,"",   573.394E+03,    -84.76E+03,    -84.76E+03
C:/temp/Job-35.odb,Step-1,Increment      1: Step Time =    1.000,"P-35-1",            15,       122.627,       122.627,            0.,NA,NA,"",   1.19123E+06,   1.18454E+06,   1.18454E+06
C:/temp/Job-35.odb,Step-1,Increment      1: Step Time =    1.000,"P-35-1",            16,       109.889,       130.434,            0.,NA,NA,"",   2.84525E+06,   2.91219E+06,   2.91219E+06
C:/temp/Job-35.odb,Step-1,Increment      1: Step Time =    1.000,"P-35-1",            17,          100.,          132.,            0.,NA,NA,"",   3.08725E+06,   3.16409E+06,   3.16409E+06
C:/temp/Job-35.odb,Step-1,Increment      1: Step Time =    1.000,"P-35-1",            18,          190.,            0.,            0.,NA,NA,"",   997.921E+03,   998.025E+03,   998.025E+03
C:/temp/Job-35.odb,Step-1,Increment      1: Step Time =    1.000,"P-35-1",            19,          180.,            0.,            0.,NA,NA,"",   998.018E+03,     998.1E+03,     998.1E+03
C:/temp/Job-35.odb,Step-1,Increment      1: Step Time =    1.000,"P-35-1",            20,          170.,            0.,            0.,NA,NA,"",   999.607E+03,   999.365E+03,   999.365E+03
C:/temp/Job-35.odb,Step-1,Increment      1: Step Time =    1.000,"P-35-1",            21,          160.,            0.,            0.,NA,NA,"",   993.600E+03,   993.074E+03,   993.074E+03
C:/temp/Job-35.odb,Step-1,Increment      1: Step Time =    1.000,"P-35-1",            22,          150.,            0.,            0.,NA,NA,"",   969.067E+03,   968.267E+03,   968.267E+03
C:/temp/Job-35.odb,Step-1,Increment      1: Step Time =    1.000,"P-35-1",            23,          140.,            0.,            0.,NA,NA,"",   923.745E+03,   923.073E+03,   923.073E+03
C:/temp/Job-35.odb,Step-1,Increment      1: Step Time =    1.000,"P-35-1",            24,          130.,            0.,            0.,NA,NA,"",   863.090E+03,   863.045E+03,   863.045E+03
C:/temp/Job-35.odb,Step-1,Increment      1: Step Time =    1.000,"P-35-1",            25,          120.,            0.,            0.,NA,NA,"",   804.203E+03,   804.926E+03,   804.926E+03
C:/temp/Job-35.odb,Step-1,Increment      1: Step Time =    1.000,"P-35-1",            26,          110.,            0.,            0.,NA,NA,"",   770.965E+03,   772.327E+03,   772.327E+03
C:/temp/Job-35.odb,Step-1,Increment      1: Step Time =    1.000,"P-35-1",            27,          100.,            0.,            0.,NA,NA,"",   781.290E+03,   782.786E+03,   782.786E+03
C:/temp/Job-35.odb,Step-1,Increment      1: Step Time =    1.000,"P-35-1",            28,           90.,            0.,            0.,NA,NA,"",   840.569E+03,   841.584E+03,   841.584E+03
C:/temp/Job-35.odb,Step-1,Increment      1: Step Time =    1.000,"P-35-1",            29,           80.,            0.,            0.,NA,NA,"",   939.125E+03,   939.290E+03,   939.290E+03
C:/temp/Job-35.odb,Step-1,Increment      1: Step Time =    1.000,"P-35-1",            30,           70.,            0.,            0.,NA,NA,"",   1.05620E+06,   1.05567E+06,   1.05567E+06
C:/temp/Job-35.odb,Step-1,Increment      1: Step Time =    1.000,"P-35-1",            31,           60.,            0.,            0.,NA,NA,"",   1.17016E+06,   1.16926E+06,   1.16926E+06
C:/temp/Job-35.odb,Step-1,Increment      1: Step Time =    1.000,"P-35-1",            32,           50.,            0.,            0.,NA,NA,"",   1.26576E+06,   1.26473E+06,   1.26473E+06
C:/temp/Job-35.odb,Step-1,Increment      1: Step Time =    1.000,"P-35-1",            33,           40.,            0.,            0.,NA,NA,"",   1.33863E+06,   1.33767E+06,   1.33767E+06
C:/temp/Job-35.odb,Step-1,Increment      1: Step Time =    1.000,"P-35-1",            34,           30.,            0.,            0.,NA,NA,"",   1.39459E+06,   1.39408E+06,   1.39408E+06
C:/temp/Job-35.odb,Step-1,Increment      1: Step Time =    1.000,"P-35-1",            35,           20.,            0.,            0.,NA,NA,"",   1.45593E+06,   1.45611E+06,   1.45611E+06
C:/temp/Job-35.odb,Step-1,Increment      1: Step Time =    1.000,"P-35-1",            36,           10.,            0.,            0.,NA,NA,"",   1.59303E+06,   1.59589E+06,   1.59589E+06
C:/temp/Job-35.odb,Step-1,Increment      1: Step Time =    1.000,"P-35-1",            37,          200.,            0.,            0.,NA,NA,"",   999.788E+03,   999.585E+03,   999.585E+03
C:/temp/Job-35.odb,Step-1,Increment      1: Step Time =    1.000,"P-35-1",            38,            0.,            0.,            0.,NA,NA,"",   1.96148E+06,   2.05619E+06,   2.05619E+06
C:/temp/Job-35.odb,Step-1,Increment      1: Step Time =    1.000,"P-35-1",            39,          200.,          190.,            0.,NA,NA,"",   1.00128E+06,   1.00033E+06,   1.00033E+06
C:/temp/Job-35.odb,Step-1,Increment      1: Step Time =    1.000,"P-35-1",            40,          200.,          180.,            0.,NA,NA,"",   1.00037E+06,   1.00109E+06,   1.00109E+06
C:/temp/Job-35.odb,Step-1,Increment      1: Step Time =    1.000,"P-35-1",            41,          200.,          170.,            0.,NA,NA,"",   991.008E+03,   1.00230E+06,   1.00230E+06
C:/temp/Job-35.odb,Step-1,Increment      1: Step Time =    1.000,"P-35-1",            42,          200.,          160.,            0.,NA,NA,"",   968.276E+03,   1.00225E+06,   1.00225E+06
C:/temp/Job-35.odb,Step-1,Increment      1: Step Time =    1.000,"P-35-1",            43,          200.,          150.,            0.,NA,NA,"",   933.872E+03,   1.00211E+06,   1.00211E+06
C:/temp/Job-35.odb,Step-1,Increment      1: Step Time =    1.000,"P-35-1",            44,          200.,          140.,            0.,NA,NA,"",    897.16E+03,   1.00250E+06,   1.00250E+06
C:/temp/Job-35.odb,Step-1,Increment      1: Step Time =    1.000,"P-35-1",            45,          200.,          130.,            0.,NA,NA,"",   873.194E+03,   1.00246E+06,   1.00246E+06
C:/temp/Job-35.odb,Step-1,Increment      1: Step Time =    1.000,"P-35-1",            46,          200.,          120.,            0.,NA,NA,"",   867.979E+03,   1.00012E+06,   1.00012E+06
C:/temp/Job-35.odb,Step-1,Increment      1: Step Time =    1.000,"P-35-1",            47,          200.,          110.,            0.,NA,NA,"",   876.080E+03,   996.604E+03,   996.604E+03
C:/temp/Job-35.odb,Step-1,Increment      1: Step Time =    1.000,"P-35-1",            48,          200.,          100.,            0.,NA,NA,"",   882.190E+03,    995.32E+03,    995.32E+03
C:/temp/Job-35.odb,Step-1,Increment      1: Step Time =    1.000,"P-35-1",            49,          200.,           90.,            0.,NA,NA,"",   876.388E+03,   996.889E+03,   996.889E+03
C:/temp/Job-35.odb,Step-1,Increment      1: Step Time =    1.000,"P-35-1",            50,          200.,           80.,            0.,NA,NA,"",   867.759E+03,   999.764E+03,   999.764E+03
C:/temp/Job-35.odb,Step-1,Increment      1: Step Time =    1.000,"P-35-1",            51,          200.,           70.,            0.,NA,NA,"",   872.764E+03,   1.00204E+06,   1.00204E+06
C:/temp/Job-35.odb,Step-1,Increment      1: Step Time =    1.000,"P-35-1",            52,          200.,           60.,            0.,NA,NA,"",   897.957E+03,   1.00296E+06,   1.00296E+06
C:/temp/Job-35.odb,Step-1,Increment      1: Step Time =    1.000,"P-35-1",            53,          200.,           50.,            0.,NA,NA,"",   934.588E+03,   1.00292E+06,   1.00292E+06
C:/temp/Job-35.odb,Step-1,Increment      1: Step Time =    1.000,"P-35-1",            54,          200.,           40.,            0.,NA,NA,"",   968.372E+03,   1.00239E+06,   1.00239E+06
C:/temp/Job-35.odb,Step-1,Increment      1: Step Time =    1.000,"P-35-1",            55,          200.,           30.,            0.,NA,NA,"",   990.649E+03,   1.00187E+06,   1.00187E+06
C:/temp/Job-35.odb,Step-1,Increment      1: Step Time =    1.000,"P-35-1",            56,          200.,           20.,            0.,NA,NA,"",   1.00009E+06,   1.00116E+06,   1.00116E+06
C:/temp/Job-35.odb,Step-1,Increment      1: Step Time =    1.000,"P-35-1",            57,          200.,           10.,            0.,NA,NA,"",   1.00126E+06,   1.00039E+06,   1.00039E+06
C:/temp/Job-35.odb,Step-1,Increment      1: Step Time =    1.000,"P-35-1",            58,          200.,          200.,            0.,NA,NA,"",   999.791E+03,   999.594E+03,   999.594E+03
C:/temp/Job-35.odb,Step-1,Increment      1: Step Time =    1.000,"P-35-1",            59,           10.,          200.,            0.,NA,NA,"",   1.59427E+06,   1.59681E+06,   1.59681E+06
C:/temp/Job-35.odb,Step-1,Increment      1: Step Time =    1.000,"P-35-1",            60,           20.,          200.,            0.,NA,NA,"",   1.45695E+06,   1.45724E+06,   1.45724E+06
C:/temp/Job-35.odb,Step-1,Increment      1: Step Time =    1.000,"P-35-1",            61,           30.,          200.,            0.,NA,NA,"",   1.39515E+06,   1.39479E+06,   1.39479E+06
C:/temp/Job-35.odb,Step-1,Increment      1: Step Time =    1.000,"P-35-1",            62,           40.,          200.,            0.,NA,NA,"",   1.33970E+06,   1.33902E+06,   1.33902E+06
C:/temp/Job-35.odb,Step-1,Increment      1: Step Time =    1.000,"P-35-1",            63,           50.,          200.,            0.,NA,NA,"",   1.26705E+06,   1.26626E+06,   1.26626E+06
C:/temp/Job-35.odb,Step-1,Increment      1: Step Time =    1.000,"P-35-1",            64,           60.,          200.,            0.,NA,NA,"",   1.17105E+06,   1.16995E+06,   1.16995E+06
C:/temp/Job-35.odb,Step-1,Increment      1: Step Time =    1.000,"P-35-1",            65,           70.,          200.,            0.,NA,NA,"",   1.05677E+06,   1.05611E+06,   1.05611E+06
C:/temp/Job-35.odb,Step-1,Increment      1: Step Time =    1.000,"P-35-1",            66,           80.,          200.,            0.,NA,NA,"",   939.662E+03,   939.784E+03,   939.784E+03
C:/temp/Job-35.odb,Step-1,Increment      1: Step Time =    1.000,"P-35-1",            67,           90.,          200.,            0.,NA,NA,"",   841.678E+03,   842.644E+03,   842.644E+03
C:/temp/Job-35.odb,Step-1,Increment      1: Step Time =    1.000,"P-35-1",            68,          100.,          200.,            0.,NA,NA,"",   781.741E+03,   783.273E+03,   783.273E+03
C:/temp/Job-35.odb,Step-1,Increment      1: Step Time =    1.000,"P-35-1",            69,          110.,          200.,            0.,NA,NA,"",   769.962E+03,   771.421E+03,   771.421E+03
C:/temp/Job-35.odb,Step-1,Increment      1: Step Time =    1.000,"P-35-1",            70,          120.,          200.,            0.,NA,NA,"",   802.567E+03,   803.297E+03,   803.297E+03
C:/temp/Job-35.odb,Step-1,Increment      1: Step Time =    1.000,"P-35-1",            71,          130.,          200.,            0.,NA,NA,"",   861.722E+03,   861.537E+03,   861.537E+03
C:/temp/Job-35.odb,Step-1,Increment      1: Step Time =    1.000,"P-35-1",            72,          140.,          200.,            0.,NA,NA,"",   923.165E+03,   922.520E+03,   922.520E+03
C:/temp/Job-35.odb,Step-1,Increment      1: Step Time =    1.000,"P-35-1",            73,          150.,          200.,            0.,NA,NA,"",   969.155E+03,   968.467E+03,   968.467E+03
C:/temp/Job-35.odb,Step-1,Increment      1: Step Time =    1.000,"P-35-1",            74,          160.,          200.,            0.,NA,NA,"",   993.813E+03,   993.245E+03,   993.245E+03
C:/temp/Job-35.odb,Step-1,Increment      1: Step Time =    1.000,"P-35-1",            75,          170.,          200.,            0.,NA,NA,"",   1.00016E+06,   999.903E+03,   999.903E+03
C:/temp/Job-35.odb,Step-1,Increment      1: Step Time =    1.000,"P-35-1",            76,          180.,          200.,            0.,NA,NA,"",   998.268E+03,   998.325E+03,   998.325E+03
C:/temp/Job-35.odb,Step-1,Increment      1: Step Time =    1.000,"P-35-1",            77,          190.,          200.,            0.,NA,NA,"",   997.913E+03,   998.044E+03,   998.044E+03
C:/temp/Job-35.odb,Step-1,Increment      1: Step Time =    1.000,"P-35-1",            78,            0.,          200.,            0.,NA,NA,"",   1.96126E+06,   2.05761E+06,   2.05761E+06
C:/temp/Job-35.odb,Step-1,Increment      1: Step Time =    1.000,"P-35-1",            79,            0.,           10.,            0.,NA,NA,"",   1.41406E+06,   1.54419E+06,   1.54419E+06
C:/temp/Job-35.odb,Step-1,Increment      1: Step Time =    1.000,"P-35-1",            80,            0.,           20.,            0.,NA,NA,"",   1.19336E+06,   1.32213E+06,   1.32213E+06
C:/temp/Job-35.odb,Step-1,Increment      1: Step Time =    1.000,"P-35-1",            81,            0.,           30.,            0.,NA,NA,"",   1.05785E+06,   1.17965E+06,   1.17965E+06
C:/temp/Job-35.odb,Step-1,Increment      1: Step Time =    1.000,"P-35-1",            82,            0.,           40.,            0.,NA,NA,"",   947.994E+03,   1.06197E+06,   1.06197E+06
C:/temp/Job-35.odb,Step-1,Increment      1: Step Time =    1.000,"P-35-1",            83,            0.,           50.,            0.,NA,NA,"",   846.974E+03,   951.178E+03,   951.178E+03
C:/temp/Job-35.odb,Step-1,Increment      1: Step Time =    1.000,"P-35-1",            84,            0.,           60.,            0.,NA,NA,"",   747.578E+03,   840.891E+03,   840.891E+03
C:/temp/Job-35.odb,Step-1,Increment      1: Step Time =    1.000,"P-35-1",            85,            0.,           70.,            0.,NA,NA,"",   651.559E+03,   733.763E+03,   733.763E+03
C:/temp/Job-35.odb,Step-1,Increment      1: Step Time =    1.000,"P-35-1",            86,            0.,           80.,            0.,NA,NA,"",   563.695E+03,   636.919E+03,   636.919E+03
C:/temp/Job-35.odb,Step-1,Increment      1: Step Time =    1.000,"P-35-1",            87,            0.,           90.,            0.,NA,NA,"",   498.604E+03,   566.176E+03,   566.176E+03
C:/temp/Job-35.odb,Step-1,Increment      1: Step Time =    1.000,"P-35-1",            88,            0.,          100.,            0.,NA,NA,"",   473.199E+03,   538.787E+03,   538.787E+03
C:/temp/Job-35.odb,Step-1,Increment      1: Step Time =    1.000,"P-35-1",            89,            0.,          110.,            0.,NA,NA,"",   498.617E+03,   566.196E+03,   566.196E+03
C:/temp/Job-35.odb,Step-1,Increment      1: Step Time =    1.000,"P-35-1",            90,            0.,          120.,            0.,NA,NA,"",   563.785E+03,   636.989E+03,   636.989E+03
C:/temp/Job-35.odb,Step-1,Increment      1: Step Time =    1.000,"P-35-1",            91,            0.,          130.,            0.,NA,NA,"",   651.554E+03,   733.566E+03,   733.566E+03
C:/temp/Job-35.odb,Step-1,Increment      1: Step Time =    1.000,"P-35-1",            92,            0.,          140.,            0.,NA,NA,"",   749.786E+03,   842.735E+03,   842.735E+03
C:/temp/Job-35.odb,Step-1,Increment      1: Step Time =    1.000,"P-35-1",            93,            0.,          150.,            0.,NA,NA,"",   848.977E+03,   953.224E+03,   953.224E+03
C:/temp/Job-35.odb,Step-1,Increment      1: Step Time =    1.000,"P-35-1",            94,            0.,          160.,            0.,NA,NA,"",   949.028E+03,   1.06361E+06,   1.06361E+06
C:/temp/Job-35.odb,Step-1,Increment      1: Step Time =    1.000,"P-35-1",            95,            0.,          170.,            0.,NA,NA,"",   1.05718E+06,   1.18027E+06,   1.18027E+06
C:/temp/Job-35.odb,Step-1,Increment      1: Step Time =    1.000,"P-35-1",            96,            0.,          180.,            0.,NA,NA,"",   1.19211E+06,   1.32201E+06,   1.32201E+06
C:/temp/Job-35.odb,Step-1,Increment      1: Step Time =    1.000,"P-35-1",            97,            0.,          190.,            0.,NA,NA,"",   1.41341E+06,   1.54471E+06,   1.54471E+06
C:/temp/Job-35.odb,Step-1,Increment      1: Step Time =    1.000,"P-35-1",            98,       95.8997,       58.6563,            0.,NA,NA,"",   1.96630E+06,   2.11776E+06,   2.11776E+06
C:/temp/Job-35.odb,Step-1,Increment      1: Step Time =    1.000,"P-35-1",            99,       190.026,       64.9053,            0.,NA,NA,"",   930.213E+03,   1.02560E+06,   1.02560E+06
C:/temp/Job-35.odb,Step-1,Increment      1: Step Time =    1.000,"P-35-1",           100,       190.451,       135.185,            0.,NA,NA,"",   926.977E+03,   1.02411E+06,   1.02411E+06
C:/temp/Job-35.odb,Step-1,Increment      1: Step Time =    1.000,"P-35-1",           101,       180.468,       135.506,            0.,NA,NA,"",   1.01508E+06,   1.06160E+06,   1.06160E+06
C:/temp/Job-35.odb,Step-1,Increment      1: Step Time =    1.000,"P-35-1",           102,       166.515,       134.336,            0.,NA,NA,"",   1.16275E+06,   1.11551E+06,   1.11551E+06
C:/temp/Job-35.odb,Step-1,Increment      1: Step Time =    1.000,"P-35-1",           103,       158.145,       138.947,            0.,NA,NA,"",   1.31471E+06,   1.20824E+06,   1.20824E+06
C:/temp/Job-35.odb,Step-1,Increment      1: Step Time =    1.000,"P-35-1",           104,       147.911,       137.639,            0.,NA,NA,"",   1.46211E+06,   1.29837E+06,   1.29837E+06
C:/temp/Job-35.odb,Step-1,Increment      1: Step Time =    1.000,"P-35-1",           105,       138.580,       139.670,            0.,NA,NA,"",   1.58982E+06,   1.43696E+06,   1.43696E+06
C:/temp/Job-35.odb,Step-1,Increment      1: Step Time =    1.000,"P-35-1",           106,       128.395,       136.038,            0.,NA,NA,"",   1.67236E+06,   1.58330E+06,   1.58330E+06
C:/temp/Job-35.odb,Step-1,Increment      1: Step Time =    1.000,"P-35-1",           107,       116.296,       135.839,            0.,NA,NA,"",   2.01520E+06,   2.10484E+06,   2.10484E+06
C:/temp/Job-35.odb,Step-1,Increment      1: Step Time =    1.000,"P-35-1",           108,       105.943,       140.469,            0.,NA,NA,"",   2.03253E+06,   2.19083E+06,   2.19083E+06
C:/temp/Job-35.odb,Step-1,Increment      1: Step Time =    1.000,"P-35-1",           109,       95.0143,       135.880,            0.,NA,NA,"",   2.55420E+06,   2.66226E+06,   2.66226E+06
C:/temp/Job-35.odb,Step-1,Increment      1: Step Time =    1.000,"P-35-1",           110,       81.4213,       136.872,            0.,NA,NA,"",   1.73893E+06,   1.77942E+06,   1.77942E+06
C:/temp/Job-35.odb,Step-1,Increment      1: Step Time =    1.000,"P-35-1",           111,       70.9347,       138.123,            0.,NA,NA,"",   1.52463E+06,   1.43838E+06,   1.43838E+06
C:/temp/Job-35.odb,Step-1,Increment      1: Step Time =    1.000,"P-35-1",           112,       61.1936,       136.934,            0.,NA,NA,"",   1.37003E+06,   1.24124E+06,   1.24124E+06
C:/temp/Job-35.odb,Step-1,Increment      1: Step Time =    1.000,"P-35-1",           113,       51.6609,       136.830,            0.,NA,NA,"",   1.19719E+06,   1.09569E+06,   1.09569E+06
C:/temp/Job-35.odb,Step-1,Increment      1: Step Time =    1.000,"P-35-1",           114,       41.5797,       133.742,            0.,NA,NA,"",   977.071E+03,   936.649E+03,   936.649E+03
C:/temp/Job-35.odb,Step-1,Increment      1: Step Time =    1.000,"P-35-1",           115,       30.4285,       135.134,            0.,NA,NA,"",   868.881E+03,   887.065E+03,   887.065E+03
C:/temp/Job-35.odb,Step-1,Increment      1: Step Time =    1.000,"P-35-1",           116,       19.7076,       134.139,            0.,NA,NA,"",   759.048E+03,   817.929E+03,   817.929E+03
C:/temp/Job-35.odb,Step-1,Increment      1: Step Time =    1.000,"P-35-1",           117,       9.73591,       134.685,            0.,NA,NA,"",   718.656E+03,   797.275E+03,   797.275E+03
C:/temp/Job-35.odb,Step-1,Increment      1: Step Time =    1.000,"P-35-1",           118,       9.87553,       124.868,            0.,NA,NA,"",   606.103E+03,   680.973E+03,   680.973E+03
C:/temp/Job-35.odb,Step-1,Increment      1: Step Time =    1.000,"P-35-1",           119,       20.3409,       124.684,            0.,NA,NA,"",   625.367E+03,   687.899E+03,   687.899E+03
C:/temp/Job-35.odb,Step-1,Increment      1: Step Time =    1.000,"P-35-1",           120,       31.4689,       125.033,            0.,NA,NA,"",   686.204E+03,   714.874E+03,   714.874E+03
C:/temp/Job-35.odb,Step-1,Increment      1: Step Time =    1.000,"P-35-1",           121,       42.3059,       125.352,            0.,NA,NA,"",   806.652E+03,   768.565E+03,   768.565E+03
C:/temp/Job-35.odb,Step-1,Increment      1: Step Time =    1.000,"P-35-1",           122,       51.1594,       129.707,            0.,NA,NA,"",   1.04152E+06,   934.917E+03,   934.917E+03
C:/temp/Job-35.odb,Step-1,Increment      1: Step Time =    1.000,"P-35-1",           123,       59.9798,       126.451,            0.,NA,NA,"",   1.08104E+06,   913.881E+03,   913.881E+03
C:/temp/Job-35.odb,Step-1,Increment      1: Step Time =    1.000,"P-35-1",           124,       74.4567,       125.762,            0.,NA,NA,"",   1.05542E+06,   1.01068E+06,   1.01068E+06
C:/temp/Job-35.odb,Step-1,Increment      1: Step Time =    1.000,"P-35-1",           125,       126.473,       125.700,            0.,NA,NA,"",   1.32028E+06,   1.25684E+06,   1.25684E+06
C:/temp/Job-35.odb,Step-1,Increment      1: Step Time =    1.000,"P-35-1",           126,       136.512,       126.959,            0.,NA,NA,"",   1.46405E+06,   1.22317E+06,   1.22317E+06
C:/temp/Job-35.odb,Step-1,Increment      1: Step Time =    1.000,"P-35-1",           127,       147.164,       123.756,            0.,NA,NA,"",   1.26178E+06,   1.03424E+06,   1.03424E+06
C:/temp/Job-35.odb,Step-1,Increment      1: Step Time =    1.000,"P-35-1",           128,       158.232,       127.979,            0.,NA,NA,"",   1.19580E+06,   1.08241E+06,   1.08241E+06
C:/temp/Job-35.odb,Step-1,Increment      1: Step Time =    1.000,"P-35-1",           129,       170.066,       125.438,            0.,NA,NA,"",   1.02165E+06,   1.02144E+06,   1.02144E+06
C:/temp/Job-35.odb,Step-1,Increment      1: Step Time =    1.000,"P-35-1",           130,       180.004,       125.673,            0.,NA,NA,"",   953.346E+03,   1.02148E+06,   1.02148E+06
C:/temp/Job-35.odb,Step-1,Increment      1: Step Time =    1.000,"P-35-1",           131,       189.994,       125.269,            0.,NA,NA,"",   895.917E+03,   1.01303E+06,   1.01303E+06
C:/temp/Job-35.odb,Step-1,Increment      1: Step Time =    1.000,"P-35-1",           132,       140.708,       115.748,            0.,NA,NA,"",   954.104E+03,   395.642E+03,   395.642E+03
C:/temp/Job-35.odb,Step-1,Increment      1: Step Time =    1.000,"P-35-1",           133,       151.117,       115.716,            0.,NA,NA,"",   924.911E+03,   763.570E+03,   763.570E+03
C:/temp/Job-35.odb,Step-1,Increment      1: Step Time =    1.000,"P-35-1",           134,       160.721,       118.279,            0.,NA,NA,"",   942.940E+03,   888.024E+03,   888.024E+03
C:/temp/Job-35.odb,Step-1,Increment      1: Step Time =    1.000,"P-35-1",           135,       170.021,       115.588,            0.,NA,NA,"",   858.617E+03,   894.281E+03,   894.281E+03
C:/temp/Job-35.odb,Step-1,Increment      1: Step Time =    1.000,"P-35-1",           136,       179.759,       111.927,            0.,NA,NA,"",   819.203E+03,   917.276E+03,   917.276E+03
C:/temp/Job-35.odb,Step-1,Increment      1: Step Time =    1.000,"P-35-1",           137,       189.533,       115.056,            0.,NA,NA,"",   859.111E+03,   986.103E+03,   986.103E+03
C:/temp/Job-35.odb,Step-1,Increment      1: Step Time =    1.000,"P-35-1",           138,       135.901,       105.562,            0.,NA,NA,"",   822.285E+03,  -807.174E+03,  -807.174E+03
C:/temp/Job-35.odb,Step-1,Increment      1: Step Time =    1.000,"P-35-1",           139,       145.864,       106.190,            0.,NA,NA,"",   514.878E+03,   21.8989E+03,   21.8989E+03
C:/temp/Job-35.odb,Step-1,Increment      1: Step Time =    1.000,"P-35-1",           140,       156.462,       106.851,            0.,NA,NA,"",   589.302E+03,   569.993E+03,   569.993E+03
C:/temp/Job-35.odb,Step-1,Increment      1: Step Time =    1.000,"P-35-1",           141,       166.665,       106.059,            0.,NA,NA,"",   673.947E+03,   726.307E+03,   726.307E+03
C:/temp/Job-35.odb,Step-1,Increment      1: Step Time =    1.000,"P-35-1",           142,       180.685,       104.169,            0.,NA,NA,"",   780.368E+03,   889.218E+03,   889.218E+03
C:/temp/Job-35.odb,Step-1,Increment      1: Step Time =    1.000,"P-35-1",           143,       190.029,       104.794,            0.,NA,NA,"",   836.847E+03,   964.859E+03,   964.859E+03
C:/temp/Job-35.odb,Step-1,Increment      1: Step Time =    1.000,"P-35-1",           144,       141.375,       95.8516,            0.,NA,NA,"",   512.935E+03,  -431.646E+03,  -431.646E+03
C:/temp/Job-35.odb,Step-1,Increment      1: Step Time =    1.000,"P-35-1",           145,       151.419,       97.3443,            0.,NA,NA,"",   417.892E+03,   370.114E+03,   370.114E+03
C:/temp/Job-35.odb,Step-1,Increment      1: Step Time =    1.000,"P-35-1",           146,       160.862,       97.7464,            0.,NA,NA,"",   548.785E+03,   583.119E+03,   583.119E+03
C:/temp/Job-35.odb,Step-1,Increment      1: Step Time =    1.000,"P-35-1",           147,       169.445,       95.4171,            0.,NA,NA,"",   680.220E+03,   748.306E+03,   748.306E+03
C:/temp/Job-35.odb,Step-1,Increment      1: Step Time =    1.000,"P-35-1",           148,       180.059,       94.7337,            0.,NA,NA,"",   778.917E+03,   885.284E+03,   885.284E+03
C:/temp/Job-35.odb,Step-1,Increment      1: Step Time =    1.000,"P-35-1",           149,       190.016,       94.8075,            0.,NA,NA,"",   838.203E+03,   966.301E+03,   966.301E+03
C:/temp/Job-35.odb,Step-1,Increment      1: Step Time =    1.000,"P-35-1",           150,       135.804,       82.8904,            0.,NA,NA,"",   898.728E+03,   125.753E+03,   125.753E+03
C:/temp/Job-35.odb,Step-1,Increment      1: Step Time =    1.000,"P-35-1",           151,       147.704,       79.9012,            0.,NA,NA,"",   1.11753E+06,   897.445E+03,   897.445E+03
C:/temp/Job-35.odb,Step-1,Increment      1: Step Time =    1.000,"P-35-1",           152,       157.842,       85.7747,            0.,NA,NA,"",   830.278E+03,   767.363E+03,   767.363E+03
C:/temp/Job-35.odb,Step-1,Increment      1: Step Time =    1.000,"P-35-1",           153,       165.364,       87.4378,            0.,NA,NA,"",   779.534E+03,   798.593E+03,   798.593E+03
C:/temp/Job-35.odb,Step-1,Increment      1: Step Time =    1.000,"P-35-1",           154,       179.513,       84.5861,            0.,NA,NA,"",   854.002E+03,   944.751E+03,   944.751E+03
C:/temp/Job-35.odb,Step-1,Increment      1: Step Time =    1.000,"P-35-1",           155,       189.891,       84.7838,            0.,NA,NA,"",   859.737E+03,   987.463E+03,   987.463E+03
C:/temp/Job-35.odb,Step-1,Increment      1: Step Time =    1.000,"P-35-1",           156,       125.789,       73.6226,            0.,NA,NA,"",   1.36188E+06,   1.31686E+06,   1.31686E+06
C:/temp/Job-35.odb,Step-1,Increment      1: Step Time =    1.000,"P-35-1",           157,       135.336,       72.1868,            0.,NA,NA,"",   1.49968E+06,   1.27239E+06,   1.27239E+06
C:/temp/Job-35.odb,Step-1,Increment      1: Step Time =    1.000,"P-35-1",           158,       150.258,       71.1068,            0.,NA,NA,"",   1.33501E+06,   1.14894E+06,   1.14894E+06
C:/temp/Job-35.odb,Step-1,Increment      1: Step Time =    1.000,"P-35-1",           159,       159.594,       73.6393,            0.,NA,NA,"",   1.15761E+06,   1.05766E+06,   1.05766E+06
C:/temp/Job-35.odb,Step-1,Increment      1: Step Time =    1.000,"P-35-1",           160,       169.188,       73.7545,            0.,NA,NA,"",   1.04686E+06,   1.03400E+06,   1.03400E+06
C:/temp/Job-35.odb,Step-1,Increment      1: Step Time =    1.000,"P-35-1",           161,       179.454,       74.4294,            0.,NA,NA,"",   955.474E+03,   1.01923E+06,   1.01923E+06
C:/temp/Job-35.odb,Step-1,Increment      1: Step Time =    1.000,"P-35-1",           162,       189.911,       74.7804,            0.,NA,NA,"",   894.726E+03,   1.01176E+06,   1.01176E+06
C:/temp/Job-35.odb,Step-1,Increment      1: Step Time =    1.000,"P-35-1",           163,       105.561,       64.1714,            0.,NA,NA,"",   2.64232E+06,   2.75320E+06,   2.75320E+06
C:/temp/Job-35.odb,Step-1,Increment      1: Step Time =    1.000,"P-35-1",           164,       115.926,       59.7233,            0.,NA,NA,"",   1.81299E+06,   1.91255E+06,   1.91255E+06
C:/temp/Job-35.odb,Step-1,Increment      1: Step Time =    1.000,"P-35-1",           165,       8.75496,       65.5593,            0.,NA,NA,"",   713.198E+03,   793.420E+03,   793.420E+03
C:/temp/Job-35.odb,Step-1,Increment      1: Step Time =    1.000,"P-35-1",           166,       21.5177,       61.9406,            0.,NA,NA,"",   828.120E+03,   879.625E+03,   879.625E+03
C:/temp/Job-35.odb,Step-1,Increment      1: Step Time =    1.000,"P-35-1",           167,       32.2287,       62.9569,            0.,NA,NA,"",   922.756E+03,   929.366E+03,   929.366E+03
C:/temp/Job-35.odb,Step-1,Increment      1: Step Time =    1.000,"P-35-1",           168,       43.5224,       60.7327,            0.,NA,NA,"",   1.10584E+06,   1.05153E+06,   1.05153E+06
C:/temp/Job-35.odb,Step-1,Increment      1: Step Time =    1.000,"P-35-1",           169,       53.7048,       61.5888,            0.,NA,NA,"",   1.26006E+06,   1.15377E+06,   1.15377E+06
C:/temp/Job-35.odb,Step-1,Increment      1: Step Time =    1.000,"P-35-1",           170,       64.1701,       63.1665,            0.,NA,NA,"",   1.41701E+06,   1.28829E+06,   1.28829E+06
C:/temp/Job-35.odb,Step-1,Increment      1: Step Time =    1.000,"P-35-1",           171,       72.3398,       64.8416,            0.,NA,NA,"",   1.50369E+06,   1.41844E+06,   1.41844E+06
C:/temp/Job-35.odb,Step-1,Increment      1: Step Time =    1.000,"P-35-1",           172,       82.9103,       64.2020,            0.,NA,NA,"",   1.83184E+06,   1.88936E+06,   1.88936E+06
C:/temp/Job-35.odb,Step-1,Increment      1: Step Time =    1.000,"P-35-1",           173,       127.637,       62.4972,            0.,NA,NA,"",   1.67078E+06,   1.60678E+06,   1.60678E+06
C:/temp/Job-35.odb,Step-1,Increment      1: Step Time =    1.000,"P-35-1",           174,       136.821,       63.8174,            0.,NA,NA,"",   1.60587E+06,   1.43614E+06,   1.43614E+06
C:/temp/Job-35.odb,Step-1,Increment      1: Step Time =    1.000,"P-35-1",           175,       148.547,       61.2900,            0.,NA,NA,"",   1.45449E+06,   1.29884E+06,   1.29884E+06
C:/temp/Job-35.odb,Step-1,Increment      1: Step Time =    1.000,"P-35-1",           176,       158.056,       60.3408,            0.,NA,NA,"",   1.32265E+06,   1.21751E+06,   1.21751E+06
C:/temp/Job-35.odb,Step-1,Increment      1: Step Time =    1.000,"P-35-1",           177,       168.208,       63.3303,            0.,NA,NA,"",   1.16623E+06,   1.12835E+06,   1.12835E+06
C:/temp/Job-35.odb,Step-1,Increment      1: Step Time =    1.000,"P-35-1",           178,       179.627,       64.4439,            0.,NA,NA,"",   1.02730E+06,   1.06770E+06,   1.06770E+06
C:/temp/Job-35.odb,Step-1,Increment      1: Step Time =    1.000,"P-35-1",           179,       73.6077,       74.2332,            0.,NA,NA,"",   1.04341E+06,   985.664E+03,   985.664E+03
C:/temp/Job-35.odb,Step-1,Increment      1: Step Time =    1.000,"P-35-1",           180,       62.3328,       72.1998,            0.,NA,NA,"",   1.16141E+06,   995.283E+03,   995.283E+03
C:/temp/Job-35.odb,Step-1,Increment      1: Step Time =    1.000,"P-35-1",           181,       53.2937,       75.3397,            0.,NA,NA,"",   942.633E+03,   812.482E+03,   812.482E+03
C:/temp/Job-35.odb,Step-1,Increment      1: Step Time =    1.000,"P-35-1",           182,       43.8815,       75.2295,            0.,NA,NA,"",   806.951E+03,   759.376E+03,   759.376E+03
C:/temp/Job-35.odb,Step-1,Increment      1: Step Time =    1.000,"P-35-1",           183,       29.3784,       77.1784,            0.,NA,NA,"",   631.407E+03,   672.626E+03,   672.626E+03
C:/temp/Job-35.odb,Step-1,Increment      1: Step Time =    1.000,"P-35-1",           184,       18.7193,       74.6872,            0.,NA,NA,"",   629.744E+03,    695.08E+03,    695.08E+03
C:/temp/Job-35.odb,Step-1,Increment      1: Step Time =    1.000,"P-35-1",           185,       9.31813,       75.0902,            0.,NA,NA,"",   608.146E+03,   683.470E+03,   683.470E+03
C:/temp/Job-35.odb,Step-1,Increment      1: Step Time =    1.000,"P-35-1",           186,       59.5352,       83.9835,            0.,NA,NA,"",   646.993E+03,   284.568E+03,   284.568E+03
C:/temp/Job-35.odb,Step-1,Increment      1: Step Time =    1.000,"P-35-1",           187,       49.0862,       84.4685,            0.,NA,NA,"",   584.318E+03,   511.870E+03,   511.870E+03
C:/temp/Job-35.odb,Step-1,Increment      1: Step Time =    1.000,"P-35-1",           188,       32.3908,       84.5063,            0.,NA,NA,"",   513.327E+03,   555.377E+03,   555.377E+03
C:/temp/Job-35.odb,Step-1,Increment      1: Step Time =    1.000,"P-35-1",           189,       21.1253,       86.8953,            0.,NA,NA,"",   477.931E+03,   543.396E+03,   543.396E+03
C:/temp/Job-35.odb,Step-1,Increment      1: Step Time =    1.000,"P-35-1",           190,       10.1866,       85.0105,            0.,NA,NA,"",   512.608E+03,   583.866E+03,   583.866E+03
C:/temp/Job-35.odb,Step-1,Increment      1: Step Time =    1.000,"P-35-1",           191,       64.2042,       94.3928,            0.,NA,NA,"",   587.371E+03,  -586.279E+03,  -586.279E+03
C:/temp/Job-35.odb,Step-1,Increment      1: Step Time =    1.000,"P-35-1",           192,       54.5444,       93.8319,            0.,NA,NA,"",   297.335E+03,   2.44732E+03,   2.44732E+03
C:/temp/Job-35.odb,Step-1,Increment      1: Step Time =    1.000,"P-35-1",           193,       44.4072,       93.7508,            0.,NA,NA,"",   311.000E+03,   325.243E+03,   325.243E+03
C:/temp/Job-35.odb,Step-1,Increment      1: Step Time =    1.000,"P-35-1",           194,       29.4244,       91.8609,            0.,NA,NA,"",   409.638E+03,   465.687E+03,   465.687E+03
C:/temp/Job-35.odb,Step-1,Increment      1: Step Time =    1.000,"P-35-1",           195,       19.9340,       95.5375,            0.,NA,NA,"",   423.075E+03,   487.447E+03,   487.447E+03
C:/temp/Job-35.odb,Step-1,Increment      1: Step Time =    1.000,"P-35-1",           196,       10.0213,       95.0576,            0.,NA,NA,"",   454.852E+03,   522.710E+03,   522.710E+03
C:/temp/Job-35.odb,Step-1,Increment      1: Step Time =    1.000,"P-35-1",           197,       58.9923,       104.034,            0.,NA,NA,"",   331.401E+03,  -297.954E+03,  -297.954E+03
C:/temp/Job-35.odb,Step-1,Increment      1: Step Time =    1.000,"P-35-1",           198,       49.1614,       102.967,            0.,NA,NA,"",   215.424E+03,   204.567E+03,   204.567E+03
C:/temp/Job-35.odb,Step-1,Increment      1: Step Time =    1.000,"P-35-1",           199,       39.2356,       107.207,            0.,NA,NA,"",   347.331E+03,   382.624E+03,   382.624E+03
C:/temp/Job-35.odb,Step-1,Increment      1: Step Time =    1.000,"P-35-1",           200,       28.7093,       102.601,            0.,NA,NA,"",   375.034E+03,   431.914E+03,   431.914E+03
C:/temp/Job-35.odb,Step-1,Increment      1: Step Time =    1.000,"P-35-1",           201,       19.7303,       104.852,            0.,NA,NA,"",   423.525E+03,   487.888E+03,   487.888E+03
C:/temp/Job-35.odb,Step-1,Increment      1: Step Time =    1.000,"P-35-1",           202,       9.99164,       105.030,            0.,NA,NA,"",   455.818E+03,   523.757E+03,   523.757E+03
C:/temp/Job-35.odb,Step-1,Increment      1: Step Time =    1.000,"P-35-1",           203,       64.1693,       116.868,            0.,NA,NA,"",   625.245E+03,   75.8429E+03,   75.8429E+03
C:/temp/Job-35.odb,Step-1,Increment      1: Step Time =    1.000,"P-35-1",           204,       53.0631,       115.508,            0.,NA,NA,"",   606.690E+03,   482.984E+03,   482.984E+03
C:/temp/Job-35.odb,Step-1,Increment      1: Step Time =    1.000,"P-35-1",           205,       43.5049,       116.438,            0.,NA,NA,"",   574.712E+03,   551.543E+03,   551.543E+03
C:/temp/Job-35.odb,Step-1,Increment      1: Step Time =    1.000,"P-35-1",           206,       32.9946,       115.789,            0.,NA,NA,"",   515.431E+03,   555.340E+03,   555.340E+03
C:/temp/Job-35.odb,Step-1,Increment      1: Step Time =    1.000,"P-35-1",           207,       20.7470,       114.744,            0.,NA,NA,"",   497.099E+03,   562.864E+03,   562.864E+03
C:/temp/Job-35.odb,Step-1,Increment      1: Step Time =    1.000,"P-35-1",           208,       10.0430,       115.003,            0.,NA,NA,"",   512.467E+03,   583.744E+03,   583.744E+03
C:/temp/Job-35.odb,Step-1,Increment      1: Step Time =    1.000,"P-35-1",           209,       189.594,       10.3107,            0.,NA,NA,"",   1.00255E+06,   1.00373E+06,   1.00373E+06
C:/temp/Job-35.odb,Step-1,Increment      1: Step Time =    1.000,"P-35-1",           210,       179.441,       10.0432,            0.,NA,NA,"",   1.01087E+06,   1.01128E+06,   1.01128E+06
C:/temp/Job-35.odb,Step-1,Increment      1: Step Time =    1.000,"P-35-1",           211,       169.149,       9.82077,            0.,NA,NA,"",   1.02170E+06,   1.01936E+06,   1.01936E+06
C:/temp/Job-35.odb,Step-1,Increment      1: Step Time =    1.000,"P-35-1",           212,       158.070,       10.2555,            0.,NA,NA,"",   1.02816E+06,   1.02297E+06,   1.02297E+06
C:/temp/Job-35.odb,Step-1,Increment      1: Step Time =    1.000,"P-35-1",           213,       150.963,       9.51238,            0.,NA,NA,"",   1.01576E+06,   1.01063E+06,   1.01063E+06
C:/temp/Job-35.odb,Step-1,Increment      1: Step Time =    1.000,"P-35-1",           214,       135.375,       10.0799,            0.,NA,NA,"",   986.851E+03,   983.105E+03,   983.105E+03
C:/temp/Job-35.odb,Step-1,Increment      1: Step Time =    1.000,"P-35-1",           215,       125.126,       9.95400,            0.,NA,NA,"",   946.419E+03,   948.551E+03,   948.551E+03
C:/temp/Job-35.odb,Step-1,Increment      1: Step Time =    1.000,"P-35-1",           216,       115.008,       10.1053,            0.,NA,NA,"",   915.674E+03,   924.572E+03,   924.572E+03
C:/temp/Job-35.odb,Step-1,Increment      1: Step Time =    1.000,"P-35-1",           217,       104.922,       10.1909,            0.,NA,NA,"",   911.289E+03,   923.777E+03,   923.777E+03
C:/temp/Job-35.odb,Step-1,Increment      1: Step Time =    1.000,"P-35-1",           218,       94.8873,       10.1552,            0.,NA,NA,"",   943.880E+03,   954.404E+03,   954.404E+03
C:/temp/Job-35.odb,Step-1,Increment      1: Step Time =    1.000,"P-35-1",           219,       84.8282,       10.0432,            0.,NA,NA,"",   1.01122E+06,   1.01497E+06,   1.01497E+06
C:/temp/Job-35.odb,Step-1,Increment      1: Step Time =    1.000,"P-35-1",           220,       74.9011,       9.94762,            0.,NA,NA,"",   1.09427E+06,   1.09119E+06,   1.09119E+06
C:/temp/Job-35.odb,Step-1,Increment      1: Step Time =    1.000,"P-35-1",           221,       65.0607,       9.86530,            0.,NA,NA,"",   1.17724E+06,   1.16983E+06,   1.16983E+06
C:/temp/Job-35.odb,Step-1,Increment      1: Step Time =    1.000,"P-35-1",           222,       50.3739,       9.89006,            0.,NA,NA,"",   1.28065E+06,   1.27253E+06,   1.27253E+06
C:/temp/Job-35.odb,Step-1,Increment      1: Step Time =    1.000,"P-35-1",           223,       40.5995,       9.62781,            0.,NA,NA,"",   1.33394E+06,   1.32846E+06,   1.32846E+06
C:/temp/Job-35.odb,Step-1,Increment      1: Step Time =    1.000,"P-35-1",           224,       30.7379,       9.52390,            0.,NA,NA,"",   1.38261E+06,   1.38234E+06,   1.38234E+06
C:/temp/Job-35.odb,Step-1,Increment      1: Step Time =    1.000,"P-35-1",           225,       20.6789,       9.80907,            0.,NA,NA,"",   1.43941E+06,   1.44954E+06,   1.44954E+06
C:/temp/Job-35.odb,Step-1,Increment      1: Step Time =    1.000,"P-35-1",           226,       10.5337,       10.0978,            0.,NA,NA,"",   1.50879E+06,   1.55630E+06,   1.55630E+06
C:/temp/Job-35.odb,Step-1,Increment      1: Step Time =    1.000,"P-35-1",           227,       189.272,       20.8917,            0.,NA,NA,"",   1.00532E+06,   1.01081E+06,   1.01081E+06
C:/temp/Job-35.odb,Step-1,Increment      1: Step Time =    1.000,"P-35-1",           228,       176.347,       23.2909,            0.,NA,NA,"",   1.04666E+06,   1.04560E+06,   1.04560E+06
C:/temp/Job-35.odb,Step-1,Increment      1: Step Time =    1.000,"P-35-1",           229,       168.360,       23.1381,            0.,NA,NA,"",   1.08137E+06,   1.07059E+06,   1.07059E+06
C:/temp/Job-35.odb,Step-1,Increment      1: Step Time =    1.000,"P-35-1",           230,       158.677,       19.6096,            0.,NA,NA,"",   1.08986E+06,   1.07490E+06,   1.07490E+06
C:/temp/Job-35.odb,Step-1,Increment      1: Step Time =    1.000,"P-35-1",           231,       146.560,       21.7744,            0.,NA,NA,"",   1.13532E+06,   1.11432E+06,   1.11432E+06
C:/temp/Job-35.odb,Step-1,Increment      1: Step Time =    1.000,"P-35-1",           232,       134.922,       19.3454,            0.,NA,NA,"",   1.10026E+06,   1.09109E+06,   1.09109E+06
C:/temp/Job-35.odb,Step-1,Increment      1: Step Time =    1.000,"P-35-1",           233,       125.466,       19.5833,            0.,NA,NA,"",   1.07845E+06,   1.08492E+06,   1.08492E+06
C:/temp/Job-35.odb,Step-1,Increment      1: Step Time =    1.000,"P-35-1",           234,       115.117,       20.3288,            0.,NA,NA,"",   1.05379E+06,   1.08159E+06,   1.08159E+06
C:/temp/Job-35.odb,Step-1,Increment      1: Step Time =    1.000,"P-35-1",           235,       104.834,       21.0000,            0.,NA,NA,"",   1.05162E+06,   1.09175E+06,   1.09175E+06
C:/temp/Job-35.odb,Step-1,Increment      1: Step Time =    1.000,"P-35-1",           236,       94.6694,       20.5720,            0.,NA,NA,"",   1.08206E+06,   1.11634E+06,   1.11634E+06
C:/temp/Job-35.odb,Step-1,Increment      1: Step Time =    1.000,"P-35-1",           237,       84.7011,       20.3652,            0.,NA,NA,"",   1.14735E+06,   1.16200E+06,   1.16200E+06
C:/temp/Job-35.odb,Step-1,Increment      1: Step Time =    1.000,"P-35-1",           238,       74.8274,       20.2955,            0.,NA,NA,"",   1.22096E+06,   1.21440E+06,   1.21440E+06
C:/temp/Job-35.odb,Step-1,Increment      1: Step Time =    1.000,"P-35-1",           239,       65.0929,       19.9246,            0.,NA,NA,"",   1.27574E+06,   1.25506E+06,   1.25506E+06
C:/temp/Job-35.odb,Step-1,Increment      1: Step Time =    1.000,"P-35-1",           240,       50.4483,       20.0963,            0.,NA,NA,"",   1.32397E+06,   1.30018E+06,   1.30018E+06
C:/temp/Job-35.odb,Step-1,Increment      1: Step Time =    1.000,"P-35-1",           241,       40.4797,       18.7506,            0.,NA,NA,"",   1.34051E+06,   1.32589E+06,   1.32589E+06
C:/temp/Job-35.odb,Step-1,Increment      1: Step Time =    1.000,"P-35-1",           242,       31.6949,       17.8716,            0.,NA,NA,"",   1.35688E+06,   1.35565E+06,   1.35565E+06
C:/temp/Job-35.odb,Step-1,Increment      1: Step Time =    1.000,"P-35-1",           243,       21.4197,       19.9465,            0.,NA,NA,"",   1.34558E+06,   1.37355E+06,   1.37355E+06
C:/temp/Job-35.odb,Step-1,Increment      1: Step Time =    1.000,"P-35-1",           244,       12.5174,       20.9838,            0.,NA,NA,"",   1.28441E+06,   1.35670E+06,   1.35670E+06
C:/temp/Job-35.odb,Step-1,Increment      1: Step Time =    1.000,"P-35-1",           245,       190.185,       31.1040,            0.,NA,NA,"",   1.00048E+06,   1.01589E+06,   1.01589E+06
C:/temp/Job-35.odb,Step-1,Increment      1: Step Time =    1.000,"P-35-1",           246,       181.131,       32.7902,            0.,NA,NA,"",   1.04298E+06,   1.04989E+06,   1.04989E+06
C:/temp/Job-35.odb,Step-1,Increment      1: Step Time =    1.000,"P-35-1",           247,       169.588,       31.8972,            0.,NA,NA,"",   1.11484E+06,   1.09974E+06,   1.09974E+06
C:/temp/Job-35.odb,Step-1,Increment      1: Step Time =    1.000,"P-35-1",           248,       159.682,       29.6332,            0.,NA,NA,"",   1.16804E+06,   1.13766E+06,   1.13766E+06
C:/temp/Job-35.odb,Step-1,Increment      1: Step Time =    1.000,"P-35-1",           249,       146.316,       30.0531,            0.,NA,NA,"",   1.23095E+06,   1.19357E+06,   1.19357E+06
C:/temp/Job-35.odb,Step-1,Increment      1: Step Time =    1.000,"P-35-1",           250,       137.185,       34.6014,            0.,NA,NA,"",   1.30466E+06,   1.27172E+06,   1.27172E+06
C:/temp/Job-35.odb,Step-1,Increment      1: Step Time =    1.000,"P-35-1",           251,       125.154,       29.2836,            0.,NA,NA,"",   1.20497E+06,   1.21722E+06,   1.21722E+06
C:/temp/Job-35.odb,Step-1,Increment      1: Step Time =    1.000,"P-35-1",           252,       115.990,       29.9258,            0.,NA,NA,"",   1.17303E+06,   1.21948E+06,   1.21948E+06
C:/temp/Job-35.odb,Step-1,Increment      1: Step Time =    1.000,"P-35-1",           253,       106.108,       32.4174,            0.,NA,NA,"",   1.17588E+06,   1.25199E+06,   1.25199E+06
C:/temp/Job-35.odb,Step-1,Increment      1: Step Time =    1.000,"P-35-1",           254,       94.9584,       29.7620,            0.,NA,NA,"",   1.18038E+06,   1.24354E+06,   1.24354E+06
C:/temp/Job-35.odb,Step-1,Increment      1: Step Time =    1.000,"P-35-1",           255,       84.7807,       31.0980,            0.,NA,NA,"",   1.27454E+06,   1.30640E+06,   1.30640E+06
C:/temp/Job-35.odb,Step-1,Increment      1: Step Time =    1.000,"P-35-1",           256,       74.5310,       31.0512,            0.,NA,NA,"",   1.34701E+06,   1.33640E+06,   1.33640E+06
C:/temp/Job-35.odb,Step-1,Increment      1: Step Time =    1.000,"P-35-1",           257,       62.8782,       29.5569,            0.,NA,NA,"",   1.36800E+06,   1.32929E+06,   1.32929E+06
C:/temp/Job-35.odb,Step-1,Increment      1: Step Time =    1.000,"P-35-1",           258,       49.9228,       31.0718,            0.,NA,NA,"",   1.35981E+06,   1.31803E+06,   1.31803E+06
C:/temp/Job-35.odb,Step-1,Increment      1: Step Time =    1.000,"P-35-1",           259,       37.8124,       28.1150,            0.,NA,NA,"",   1.32356E+06,   1.30680E+06,   1.30680E+06
C:/temp/Job-35.odb,Step-1,Increment      1: Step Time =    1.000,"P-35-1",           260,       32.6705,       29.7935,            0.,NA,NA,"",   1.29256E+06,   1.28962E+06,   1.28962E+06
C:/temp/Job-35.odb,Step-1,Increment      1: Step Time =    1.000,"P-35-1",           261,       24.4016,       30.6030,            0.,NA,NA,"",   1.24565E+06,   1.27135E+06,   1.27135E+06
C:/temp/Job-35.odb,Step-1,Increment      1: Step Time =    1.000,"P-35-1",           262,       10.6359,       31.3599,            0.,NA,NA,"",   1.12041E+06,   1.21015E+06,   1.21015E+06
C:/temp/Job-35.odb,Step-1,Increment      1: Step Time =    1.000,"P-35-1",           263,       190.355,       40.7170,            0.,NA,NA,"",   989.217E+03,   1.02133E+06,   1.02133E+06
C:/temp/Job-35.odb,Step-1,Increment      1: Step Time =    1.000,"P-35-1",           264,       181.120,       41.3593,            0.,NA,NA,"",   1.05128E+06,   1.06463E+06,   1.06463E+06
C:/temp/Job-35.odb,Step-1,Increment      1: Step Time =    1.000,"P-35-1",           265,       171.173,       42.4597,            0.,NA,NA,"",   1.14051E+06,   1.12299E+06,   1.12299E+06
C:/temp/Job-35.odb,Step-1,Increment      1: Step Time =    1.000,"P-35-1",           266,       157.658,       43.1986,            0.,NA,NA,"",   1.28097E+06,   1.21801E+06,   1.21801E+06
C:/temp/Job-35.odb,Step-1,Increment      1: Step Time =    1.000,"P-35-1",           267,       144.727,       42.8189,            0.,NA,NA,"",   1.38885E+06,   1.31439E+06,   1.31439E+06
C:/temp/Job-35.odb,Step-1,Increment      1: Step Time =    1.000,"P-35-1",           268,       135.925,       42.4219,            0.,NA,NA,"",   1.42475E+06,   1.37373E+06,   1.37373E+06
C:/temp/Job-35.odb,Step-1,Increment      1: Step Time =    1.000,"P-35-1",           269,       127.094,       43.3841,            0.,NA,NA,"",   1.42993E+06,   1.42729E+06,   1.42729E+06
C:/temp/Job-35.odb,Step-1,Increment      1: Step Time =    1.000,"P-35-1",           270,       118.407,       40.2614,            0.,NA,NA,"",   1.33265E+06,   1.38790E+06,   1.38790E+06
C:/temp/Job-35.odb,Step-1,Increment      1: Step Time =    1.000,"P-35-1",           271,       107.012,       43.7020,            0.,NA,NA,"",   1.34587E+06,   1.46176E+06,   1.46176E+06
C:/temp/Job-35.odb,Step-1,Increment      1: Step Time =    1.000,"P-35-1",           272,       97.5960,       39.2325,            0.,NA,NA,"",   1.28397E+06,   1.38392E+06,   1.38392E+06
C:/temp/Job-35.odb,Step-1,Increment      1: Step Time =    1.000,"P-35-1",           273,       85.7971,       42.1401,            0.,NA,NA,"",   1.41802E+06,   1.47794E+06,   1.47794E+06
C:/temp/Job-35.odb,Step-1,Increment      1: Step Time =    1.000,"P-35-1",           274,       73.9312,       42.2488,            0.,NA,NA,"",   1.47516E+06,   1.45198E+06,   1.45198E+06
C:/temp/Job-35.odb,Step-1,Increment      1: Step Time =    1.000,"P-35-1",           275,       63.1890,       41.0886,            0.,NA,NA,"",   1.44749E+06,   1.38600E+06,   1.38600E+06
C:/temp/Job-35.odb,Step-1,Increment      1: Step Time =    1.000,"P-35-1",           276,       52.8303,       41.6321,            0.,NA,NA,"",   1.38470E+06,   1.32012E+06,   1.32012E+06
C:/temp/Job-35.odb,Step-1,Increment      1: Step Time =    1.000,"P-35-1",           277,       41.4077,       41.8181,            0.,NA,NA,"",   1.28304E+06,   1.24656E+06,   1.24656E+06
C:/temp/Job-35.odb,Step-1,Increment      1: Step Time =    1.000,"P-35-1",           278,       29.3482,       40.8437,            0.,NA,NA,"",   1.18329E+06,   1.19157E+06,   1.19157E+06
C:/temp/Job-35.odb,Step-1,Increment      1: Step Time =    1.000,"P-35-1",           279,       20.4463,       40.3085,            0.,NA,NA,"",   1.10551E+06,   1.15382E+06,   1.15382E+06
C:/temp/Job-35.odb,Step-1,Increment      1: Step Time =    1.000,"P-35-1",           280,       11.3401,       41.9961,            0.,NA,NA,"",   1.00378E+06,   1.08822E+06,   1.08822E+06
C:/temp/Job-35.odb,Step-1,Increment      1: Step Time =    1.000,"P-35-1",           281,       190.252,       50.3396,            0.,NA,NA,"",   971.293E+03,   1.02672E+06,   1.02672E+06
C:/temp/Job-35.odb,Step-1,Increment      1: Step Time =    1.000,"P-35-1",           282,       180.745,       50.2860,            0.,NA,NA,"",   1.05431E+06,   1.07621E+06,   1.07621E+06
C:/temp/Job-35.odb,Step-1,Increment      1: Step Time =    1.000,"P-35-1",           283,       170.926,       53.2885,            0.,NA,NA,"",   1.15705E+06,   1.13561E+06,   1.13561E+06
C:/temp/Job-35.odb,Step-1,Increment      1: Step Time =    1.000,"P-35-1",           284,       157.247,       54.9617,            0.,NA,NA,"",   1.33623E+06,   1.23936E+06,   1.23936E+06
C:/temp/Job-35.odb,Step-1,Increment      1: Step Time =    1.000,"P-35-1",           285,       146.824,       51.8196,            0.,NA,NA,"",   1.45769E+06,   1.34301E+06,   1.34301E+06
C:/temp/Job-35.odb,Step-1,Increment      1: Step Time =    1.000,"P-35-1",           286,       137.249,       53.8525,            0.,NA,NA,"",   1.55688E+06,   1.45093E+06,   1.45093E+06
C:/temp/Job-35.odb,Step-1,Increment      1: Step Time =    1.000,"P-35-1",           287,       124.419,       54.2757,            0.,NA,NA,"",   1.61472E+06,   1.61515E+06,   1.61515E+06
C:/temp/Job-35.odb,Step-1,Increment      1: Step Time =    1.000,"P-35-1",           288,       115.918,       49.5817,            0.,NA,NA,"",   1.50524E+06,   1.59345E+06,   1.59345E+06
C:/temp/Job-35.odb,Step-1,Increment      1: Step Time =    1.000,"P-35-1",           289,       106.259,       54.3951,            0.,NA,NA,"",   1.68089E+06,   1.83581E+06,   1.83581E+06
C:/temp/Job-35.odb,Step-1,Increment      1: Step Time =    1.000,"P-35-1",           290,       97.5118,       48.7975,            0.,NA,NA,"",   1.48638E+06,   1.62214E+06,   1.62214E+06
C:/temp/Job-35.odb,Step-1,Increment      1: Step Time =    1.000,"P-35-1",           291,       80.5059,       52.1807,            0.,NA,NA,"",   1.58681E+06,   1.60987E+06,   1.60987E+06
C:/temp/Job-35.odb,Step-1,Increment      1: Step Time =    1.000,"P-35-1",           292,       71.3841,       51.2665,            0.,NA,NA,"",   1.55495E+06,   1.50102E+06,   1.50102E+06
C:/temp/Job-35.odb,Step-1,Increment      1: Step Time =    1.000,"P-35-1",           293,       63.7010,       51.5536,            0.,NA,NA,"",   1.48505E+06,   1.39843E+06,   1.39843E+06
C:/temp/Job-35.odb,Step-1,Increment      1: Step Time =    1.000,"P-35-1",           294,       53.6527,       51.7417,            0.,NA,NA,"",   1.36332E+06,   1.27667E+06,   1.27667E+06
C:/temp/Job-35.odb,Step-1,Increment      1: Step Time =    1.000,"P-35-1",           295,       43.5944,       51.5201,            0.,NA,NA,"",   1.22842E+06,   1.17606E+06,   1.17606E+06
C:/temp/Job-35.odb,Step-1,Increment      1: Step Time =    1.000,"P-35-1",           296,       33.4065,       54.8951,            0.,NA,NA,"",   1.04884E+06,   1.04603E+06,   1.04603E+06
C:/temp/Job-35.odb,Step-1,Increment      1: Step Time =    1.000,"P-35-1",           297,       23.5383,       51.4154,            0.,NA,NA,"",   997.018E+03,   1.03519E+06,   1.03519E+06
C:/temp/Job-35.odb,Step-1,Increment      1: Step Time =    1.000,"P-35-1",           298,       9.17684,       51.5399,            0.,NA,NA,"",   877.215E+03,   964.490E+03,   964.490E+03
C:/temp/Job-35.odb,Step-1,Increment      1: Step Time =    1.000,"P-35-1",           299,       186.753,       148.893,            0.,NA,NA,"",   995.521E+03,   1.04214E+06,   1.04214E+06
C:/temp/Job-35.odb,Step-1,Increment      1: Step Time =    1.000,"P-35-1",           300,       177.586,       145.647,            0.,NA,NA,"",   1.08326E+06,   1.09462E+06,   1.09462E+06
C:/temp/Job-35.odb,Step-1,Increment      1: Step Time =    1.000,"P-35-1",           301,       171.768,       146.391,            0.,NA,NA,"",   1.15072E+06,   1.13161E+06,   1.13161E+06
C:/temp/Job-35.odb,Step-1,Increment      1: Step Time =    1.000,"P-35-1",           302,       157.326,       145.979,            0.,NA,NA,"",   1.33150E+06,   1.23829E+06,   1.23829E+06
C:/temp/Job-35.odb,Step-1,Increment      1: Step Time =    1.000,"P-35-1",           303,       147.510,       149.470,            0.,NA,NA,"",   1.43859E+06,   1.33154E+06,   1.33154E+06
C:/temp/Job-35.odb,Step-1,Increment      1: Step Time =    1.000,"P-35-1",           304,       136.528,       149.586,            0.,NA,NA,"",   1.52531E+06,   1.44171E+06,   1.44171E+06
C:/temp/Job-35.odb,Step-1,Increment      1: Step Time =    1.000,"P-35-1",           305,       127.331,       150.605,            0.,NA,NA,"",   1.53173E+06,   1.51213E+06,   1.51213E+06
C:/temp/Job-35.odb,Step-1,Increment      1: Step Time =    1.000,"P-35-1",           306,       115.864,       146.959,            0.,NA,NA,"",   1.59972E+06,   1.69450E+06,   1.69450E+06
C:/temp/Job-35.odb,Step-1,Increment      1: Step Time =    1.000,"P-35-1",           307,       105.222,       150.789,            0.,NA,NA,"",   1.47948E+06,   1.62062E+06,   1.62062E+06
C:/temp/Job-35.odb,Step-1,Increment      1: Step Time =    1.000,"P-35-1",           308,       95.3108,       145.319,            0.,NA,NA,"",   1.71568E+06,   1.86212E+06,   1.86212E+06
C:/temp/Job-35.odb,Step-1,Increment      1: Step Time =    1.000,"P-35-1",           309,       85.8757,       149.850,            0.,NA,NA,"",   1.56575E+06,   1.63750E+06,   1.63750E+06
C:/temp/Job-35.odb,Step-1,Increment      1: Step Time =    1.000,"P-35-1",           310,       75.3646,       146.727,            0.,NA,NA,"",   1.58303E+06,   1.55658E+06,   1.55658E+06
C:/temp/Job-35.odb,Step-1,Increment      1: Step Time =    1.000,"P-35-1",           311,       63.8481,       147.034,            0.,NA,NA,"",   1.48036E+06,   1.38783E+06,   1.38783E+06
C:/temp/Job-35.odb,Step-1,Increment      1: Step Time =    1.000,"P-35-1",           312,       49.1365,       148.287,            0.,NA,NA,"",   1.30273E+06,   1.23029E+06,   1.23029E+06
C:/temp/Job-35.odb,Step-1,Increment      1: Step Time =    1.000,"P-35-1",           313,       40.8908,       146.348,            0.,NA,NA,"",   1.17073E+06,   1.12942E+06,   1.12942E+06
C:/temp/Job-35.odb,Step-1,Increment      1: Step Time =    1.000,"P-35-1",           314,       30.4429,       146.984,            0.,NA,NA,"",   1.04174E+06,   1.05205E+06,   1.05205E+06
C:/temp/Job-35.odb,Step-1,Increment      1: Step Time =    1.000,"P-35-1",           315,       22.3326,       148.740,            0.,NA,NA,"",   987.229E+03,   1.02963E+06,   1.02963E+06
C:/temp/Job-35.odb,Step-1,Increment      1: Step Time =    1.000,"P-35-1",           316,       10.1833,       149.521,            0.,NA,NA,"",   897.078E+03,   981.883E+03,   981.883E+03
C:/temp/Job-35.odb,Step-1,Increment      1: Step Time =    1.000,"P-35-1",           317,       188.640,       158.761,            0.,NA,NA,"",   998.619E+03,   1.02883E+06,   1.02883E+06
C:/temp/Job-35.odb,Step-1,Increment      1: Step Time =    1.000,"P-35-1",           318,       180.643,       156.391,            0.,NA,NA,"",   1.05631E+06,   1.07019E+06,   1.07019E+06
C:/temp/Job-35.odb,Step-1,Increment      1: Step Time =    1.000,"P-35-1",           319,       169.549,       156.988,            0.,NA,NA,"",   1.16442E+06,   1.13834E+06,   1.13834E+06
C:/temp/Job-35.odb,Step-1,Increment      1: Step Time =    1.000,"P-35-1",           320,       158.513,       158.379,            0.,NA,NA,"",   1.26487E+06,   1.20802E+06,   1.20802E+06
C:/temp/Job-35.odb,Step-1,Increment      1: Step Time =    1.000,"P-35-1",           321,       148.482,       160.686,            0.,NA,NA,"",   1.32068E+06,   1.25768E+06,   1.25768E+06
C:/temp/Job-35.odb,Step-1,Increment      1: Step Time =    1.000,"P-35-1",           322,       135.830,       156.027,            0.,NA,NA,"",   1.44358E+06,   1.38887E+06,   1.38887E+06
C:/temp/Job-35.odb,Step-1,Increment      1: Step Time =    1.000,"P-35-1",           323,       129.812,       158.562,            0.,NA,NA,"",   1.40483E+06,   1.38607E+06,   1.38607E+06
C:/temp/Job-35.odb,Step-1,Increment      1: Step Time =    1.000,"P-35-1",           324,       114.331,       158.052,            0.,NA,NA,"",   1.33733E+06,   1.42082E+06,   1.42082E+06
C:/temp/Job-35.odb,Step-1,Increment      1: Step Time =    1.000,"P-35-1",           325,       108.202,       161.370,            0.,NA,NA,"",   1.26106E+06,   1.35733E+06,   1.35733E+06
C:/temp/Job-35.odb,Step-1,Increment      1: Step Time =    1.000,"P-35-1",           326,       94.8195,       155.075,            0.,NA,NA,"",   1.40522E+06,   1.51895E+06,   1.51895E+06
C:/temp/Job-35.odb,Step-1,Increment      1: Step Time =    1.000,"P-35-1",           327,       86.1613,       158.509,            0.,NA,NA,"",   1.40701E+06,   1.46469E+06,   1.46469E+06
C:/temp/Job-35.odb,Step-1,Increment      1: Step Time =    1.000,"P-35-1",           328,       74.1551,       157.983,            0.,NA,NA,"",   1.47438E+06,   1.45463E+06,   1.45463E+06
C:/temp/Job-35.odb,Step-1,Increment      1: Step Time =    1.000,"P-35-1",           329,       63.3704,       157.877,            0.,NA,NA,"",   1.45705E+06,   1.39231E+06,   1.39231E+06
C:/temp/Job-35.odb,Step-1,Increment      1: Step Time =    1.000,"P-35-1",           330,       51.4239,       159.378,            0.,NA,NA,"",   1.37183E+06,   1.31174E+06,   1.31174E+06
C:/temp/Job-35.odb,Step-1,Increment      1: Step Time =    1.000,"P-35-1",           331,       44.6316,       158.354,            0.,NA,NA,"",   1.31338E+06,   1.26689E+06,   1.26689E+06
C:/temp/Job-35.odb,Step-1,Increment      1: Step Time =    1.000,"P-35-1",           332,       32.4967,       159.928,            0.,NA,NA,"",   1.21608E+06,   1.21283E+06,   1.21283E+06
C:/temp/Job-35.odb,Step-1,Increment      1: Step Time =    1.000,"P-35-1",           333,       20.2145,       159.467,            0.,NA,NA,"",   1.10332E+06,   1.15184E+06,   1.15184E+06
C:/temp/Job-35.odb,Step-1,Increment      1: Step Time =    1.000,"P-35-1",           334,       10.0562,       159.407,            0.,NA,NA,"",   1.00873E+06,   1.09834E+06,   1.09834E+06
C:/temp/Job-35.odb,Step-1,Increment      1: Step Time =    1.000,"P-35-1",           335,       190.165,       169.707,            0.,NA,NA,"",   1.00137E+06,   1.01549E+06,   1.01549E+06
C:/temp/Job-35.odb,Step-1,Increment      1: Step Time =    1.000,"P-35-1",           336,       177.347,       170.729,            0.,NA,NA,"",   1.05709E+06,   1.05711E+06,   1.05711E+06
C:/temp/Job-35.odb,Step-1,Increment      1: Step Time =    1.000,"P-35-1",           337,       169.600,       173.261,            0.,NA,NA,"",   1.09082E+06,   1.07955E+06,   1.07955E+06
C:/temp/Job-35.odb,Step-1,Increment      1: Step Time =    1.000,"P-35-1",           338,       160.730,       169.733,            0.,NA,NA,"",   1.16301E+06,   1.13373E+06,   1.13373E+06
C:/temp/Job-35.odb,Step-1,Increment      1: Step Time =    1.000,"P-35-1",           339,       146.940,       170.859,            0.,NA,NA,"",   1.21754E+06,   1.18174E+06,   1.18174E+06
C:/temp/Job-35.odb,Step-1,Increment      1: Step Time =    1.000,"P-35-1",           340,       134.242,       168.316,            0.,NA,NA,"",   1.26554E+06,   1.24533E+06,   1.24533E+06
C:/temp/Job-35.odb,Step-1,Increment      1: Step Time =    1.000,"P-35-1",           341,       125.954,       169.485,            0.,NA,NA,"",   1.22882E+06,   1.23804E+06,   1.23804E+06
C:/temp/Job-35.odb,Step-1,Increment      1: Step Time =    1.000,"P-35-1",           342,       115.414,       168.559,            0.,NA,NA,"",   1.18680E+06,   1.24059E+06,   1.24059E+06
C:/temp/Job-35.odb,Step-1,Increment      1: Step Time =    1.000,"P-35-1",           343,       105.807,       170.476,            0.,NA,NA,"",   1.14192E+06,   1.20869E+06,   1.20869E+06
C:/temp/Job-35.odb,Step-1,Increment      1: Step Time =    1.000,"P-35-1",           344,       95.7273,       167.021,            0.,NA,NA,"",   1.21471E+06,   1.28859E+06,   1.28859E+06
C:/temp/Job-35.odb,Step-1,Increment      1: Step Time =    1.000,"P-35-1",           345,       85.7722,       166.375,            0.,NA,NA,"",   1.29642E+06,   1.33453E+06,   1.33453E+06
C:/temp/Job-35.odb,Step-1,Increment      1: Step Time =    1.000,"P-35-1",           346,       77.2613,       166.996,            0.,NA,NA,"",   1.35474E+06,   1.35600E+06,   1.35600E+06
C:/temp/Job-35.odb,Step-1,Increment      1: Step Time =    1.000,"P-35-1",           347,       63.1076,       168.924,            0.,NA,NA,"",   1.38279E+06,   1.34095E+06,   1.34095E+06
C:/temp/Job-35.odb,Step-1,Increment      1: Step Time =    1.000,"P-35-1",           348,       53.3749,       169.403,            0.,NA,NA,"",   1.36780E+06,   1.32321E+06,   1.32321E+06
C:/temp/Job-35.odb,Step-1,Increment      1: Step Time =    1.000,"P-35-1",           349,       43.5504,       169.322,            0.,NA,NA,"",   1.33798E+06,   1.30626E+06,   1.30626E+06
C:/temp/Job-35.odb,Step-1,Increment      1: Step Time =    1.000,"P-35-1",           350,       32.2475,       168.559,            0.,NA,NA,"",   1.28004E+06,   1.27834E+06,   1.27834E+06
C:/temp/Job-35.odb,Step-1,Increment      1: Step Time =    1.000,"P-35-1",           351,       20.1973,       169.641,            0.,NA,NA,"",   1.22011E+06,   1.26491E+06,   1.26491E+06
C:/temp/Job-35.odb,Step-1,Increment      1: Step Time =    1.000,"P-35-1",           352,       9.90521,       169.317,            0.,NA,NA,"",   1.12341E+06,   1.21645E+06,   1.21645E+06
C:/temp/Job-35.odb,Step-1,Increment      1: Step Time =    1.000,"P-35-1",           353,       190.138,       179.785,            0.,NA,NA,"",   1.00381E+06,   1.00888E+06,   1.00888E+06
C:/temp/Job-35.odb,Step-1,Increment      1: Step Time =    1.000,"P-35-1",           354,       177.282,       177.372,            0.,NA,NA,"",   1.04076E+06,   1.04058E+06,   1.04058E+06
C:/temp/Job-35.odb,Step-1,Increment      1: Step Time =    1.000,"P-35-1",           355,       168.058,       181.498,            0.,NA,NA,"",   1.05934E+06,   1.05189E+06,   1.05189E+06
C:/temp/Job-35.odb,Step-1,Increment      1: Step Time =    1.000,"P-35-1",           356,       159.104,       180.245,            0.,NA,NA,"",   1.09073E+06,   1.07554E+06,   1.07554E+06
C:/temp/Job-35.odb,Step-1,Increment      1: Step Time =    1.000,"P-35-1",           357,       148.495,       178.433,            0.,NA,NA,"",   1.13128E+06,   1.10948E+06,   1.10948E+06
C:/temp/Job-35.odb,Step-1,Increment      1: Step Time =    1.000,"P-35-1",           358,       134.328,       180.377,            0.,NA,NA,"",   1.10353E+06,   1.09499E+06,   1.09499E+06
C:/temp/Job-35.odb,Step-1,Increment      1: Step Time =    1.000,"P-35-1",           359,       124.697,       180.296,            0.,NA,NA,"",   1.07790E+06,   1.08627E+06,   1.08627E+06
C:/temp/Job-35.odb,Step-1,Increment      1: Step Time =    1.000,"P-35-1",           360,       115.058,       180.333,            0.,NA,NA,"",   1.04409E+06,   1.07086E+06,   1.07086E+06
C:/temp/Job-35.odb,Step-1,Increment      1: Step Time =    1.000,"P-35-1",           361,       104.823,       179.860,            0.,NA,NA,"",   1.04152E+06,   1.07942E+06,   1.07942E+06
C:/temp/Job-35.odb,Step-1,Increment      1: Step Time =    1.000,"P-35-1",           362,       94.5150,       179.092,            0.,NA,NA,"",   1.08602E+06,   1.11981E+06,   1.11981E+06
C:/temp/Job-35.odb,Step-1,Increment      1: Step Time =    1.000,"P-35-1",           363,       84.1164,       179.615,            0.,NA,NA,"",   1.15284E+06,   1.16658E+06,   1.16658E+06
C:/temp/Job-35.odb,Step-1,Increment      1: Step Time =    1.000,"P-35-1",           364,       73.9971,       180.237,            0.,NA,NA,"",   1.21928E+06,   1.21184E+06,   1.21184E+06
C:/temp/Job-35.odb,Step-1,Increment      1: Step Time =    1.000,"P-35-1",           365,       64.6028,       180.143,            0.,NA,NA,"",   1.27694E+06,   1.25558E+06,   1.25558E+06
C:/temp/Job-35.odb,Step-1,Increment      1: Step Time =    1.000,"P-35-1",           366,       54.1222,       180.018,            0.,NA,NA,"",   1.31589E+06,   1.29051E+06,   1.29051E+06
C:/temp/Job-35.odb,Step-1,Increment      1: Step Time =    1.000,"P-35-1",           367,       39.8261,       176.517,            0.,NA,NA,"",   1.33867E+06,   1.32034E+06,   1.32034E+06
C:/temp/Job-35.odb,Step-1,Increment      1: Step Time =    1.000,"P-35-1",           368,       30.8777,       179.713,            0.,NA,NA,"",   1.34673E+06,   1.34715E+06,   1.34715E+06
C:/temp/Job-35.odb,Step-1,Increment      1: Step Time =    1.000,"P-35-1",           369,       21.5480,       177.849,            0.,NA,NA,"",   1.31779E+06,   1.34797E+06,   1.34797E+06
C:/temp/Job-35.odb,Step-1,Increment      1: Step Time =    1.000,"P-35-1",           370,       10.9784,       179.387,            0.,NA,NA,"",   1.27845E+06,   1.35878E+06,   1.35878E+06
C:/temp/Job-35.odb,Step-1,Increment      1: Step Time =    1.000,"P-35-1",           371,       189.814,       189.726,            0.,NA,NA,"",   1.00213E+06,   1.00337E+06,   1.00337E+06
C:/temp/Job-35.odb,Step-1,Increment      1: Step Time =    1.000,"P-35-1",           372,       179.260,       189.476,            0.,NA,NA,"",   1.01169E+06,   1.01211E+06,   1.01211E+06
C:/temp/Job-35.odb,Step-1,Increment      1: Step Time =    1.000,"P-35-1",           373,       168.954,       190.233,            0.,NA,NA,"",   1.02202E+06,   1.01960E+06,   1.01960E+06
C:/temp/Job-35.odb,Step-1,Increment      1: Step Time =    1.000,"P-35-1",           374,       159.188,       190.087,            0.,NA,NA,"",   1.02735E+06,   1.02237E+06,   1.02237E+06
C:/temp/Job-35.odb,Step-1,Increment      1: Step Time =    1.000,"P-35-1",           375,       149.375,       189.895,            0.,NA,NA,"",   1.02096E+06,   1.01480E+06,   1.01480E+06
C:/temp/Job-35.odb,Step-1,Increment      1: Step Time =    1.000,"P-35-1",           376,       134.698,       190.253,            0.,NA,NA,"",   980.253E+03,   977.072E+03,   977.072E+03
C:/temp/Job-35.odb,Step-1,Increment      1: Step Time =    1.000,"P-35-1",           377,       124.926,       190.190,            0.,NA,NA,"",   942.831E+03,   945.107E+03,   945.107E+03
C:/temp/Job-35.odb,Step-1,Increment      1: Step Time =    1.000,"P-35-1",           378,       114.934,       190.017,            0.,NA,NA,"",   912.937E+03,   921.856E+03,   921.856E+03
C:/temp/Job-35.odb,Step-1,Increment      1: Step Time =    1.000,"P-35-1",           379,       104.802,       189.850,            0.,NA,NA,"",   910.313E+03,   922.752E+03,   922.752E+03
C:/temp/Job-35.odb,Step-1,Increment      1: Step Time =    1.000,"P-35-1",           380,       94.7205,       189.776,            0.,NA,NA,"",   946.350E+03,   956.455E+03,   956.455E+03
C:/temp/Job-35.odb,Step-1,Increment      1: Step Time =    1.000,"P-35-1",           381,       84.6964,       189.851,            0.,NA,NA,"",   1.01323E+06,   1.01706E+06,   1.01706E+06
C:/temp/Job-35.odb,Step-1,Increment      1: Step Time =    1.000,"P-35-1",           382,       74.6342,       190.074,            0.,NA,NA,"",   1.09676E+06,   1.09358E+06,   1.09358E+06
C:/temp/Job-35.odb,Step-1,Increment      1: Step Time =    1.000,"P-35-1",           383,       64.7653,       190.293,            0.,NA,NA,"",   1.17898E+06,   1.17144E+06,   1.17144E+06
C:/temp/Job-35.odb,Step-1,Increment      1: Step Time =    1.000,"P-35-1",           384,       50.8464,       186.341,            0.,NA,NA,"",   1.29685E+06,   1.28245E+06,   1.28245E+06
C:/temp/Job-35.odb,Step-1,Increment      1: Step Time =    1.000,"P-35-1",           385,       40.8077,       189.397,            0.,NA,NA,"",   1.33336E+06,   1.32710E+06,   1.32710E+06
C:/temp/Job-35.odb,Step-1,Increment      1: Step Time =    1.000,"P-35-1",           386,       30.2332,       189.820,            0.,NA,NA,"",   1.38334E+06,   1.38368E+06,   1.38368E+06
C:/temp/Job-35.odb,Step-1,Increment      1: Step Time =    1.000,"P-35-1",           387,       20.3221,       189.456,            0.,NA,NA,"",   1.43623E+06,   1.44858E+06,   1.44858E+06
C:/temp/Job-35.odb,Step-1,Increment      1: Step Time =    1.000,"P-35-1",           388,       10.1937,       189.841,            0.,NA,NA,"",   1.50734E+06,   1.55837E+06,   1.55837E+06
C:/temp/Job-35.odb,Step-1,Increment      1: Step Time =    1.000,"P-35-1",           389,       94.9941,       131.606,            0.,NA,NA,"",   2.91283E+06,   2.98154E+06,   2.98154E+06
C:/temp/Job-35.odb,Step-1,Increment      1: Step Time =    1.000,"P-35-1",           390,       85.4723,       128.512,            0.,NA,NA,"",   1.94267E+06,   1.99834E+06,   1.99834E+06
C:/temp/Job-35.odb,Step-1,Increment      1: Step Time =    1.000,"P-35-1",           391,       81.1909,       125.889,            0.,NA,NA,"",   1.38305E+06,   1.41258E+06,   1.41258E+06
C:/temp/Job-35.odb,Step-1,Increment      1: Step Time =    1.000,"P-35-1",           392,       74.1115,       118.809,            0.,NA,NA,"",   503.409E+03,   439.946E+03,   439.946E+03
C:/temp/Job-35.odb,Step-1,Increment      1: Step Time =    1.000,"P-35-1",           393,       69.5662,       109.889,            0.,NA,NA,"",   570.115E+03,  -567.928E+03,  -567.928E+03
C:/temp/Job-35.odb,Step-1,Increment      1: Step Time =    1.000,"P-35-1",           394,           68.,          100.,            0.,NA,NA,"",   811.371E+03,  -825.285E+03,  -825.285E+03
C:/temp/Job-35.odb,Step-1,Increment      1: Step Time =    1.000,"P-35-1",           395,       68.3940,       94.9941,            0.,NA,NA,"",   745.707E+03,  -754.630E+03,  -754.630E+03
C:/temp/Job-35.odb,Step-1,Increment      1: Step Time =    1.000,"P-35-1",           396,       71.4878,       85.4723,            0.,NA,NA,"",   423.333E+03,  -98.4187E+03,  -98.4187E+03
C:/temp/Job-35.odb,Step-1,Increment      1: Step Time =    1.000,"P-35-1",           397,       77.3726,       77.3726,            0.,NA,NA,"",   880.327E+03,   869.961E+03,   869.961E+03
C:/temp/Job-35.odb,Step-1,Increment      1: Step Time =    1.000,"P-35-1",           398,       85.4723,       71.4878,            0.,NA,NA,"",   1.96036E+06,   2.01946E+06,   2.01946E+06
C:/temp/Job-35.odb,Step-1,Increment      1: Step Time =    1.000,"P-35-1",           399,       90.1115,       69.5662,            0.,NA,NA,"",   2.50069E+06,   2.57599E+06,   2.57599E+06
C:/temp/Job-35.odb,Step-1,Increment      1: Step Time =    1.000,"P-35-1",           400,          100.,           68.,            0.,NA,NA,"",   3.06047E+06,   3.13417E+06,   3.13417E+06
C:/temp/Job-35.odb,Step-1,Increment      1: Step Time =    1.000,"P-35-1",           401,       109.889,       69.5662,            0.,NA,NA,"",   2.74147E+06,   2.80929E+06,   2.80929E+06
C:/temp/Job-35.odb,Step-1,Increment      1: Step Time =    1.000,"P-35-1",           402,       114.528,       71.4878,            0.,NA,NA,"",   2.30774E+06,   2.37724E+06,   2.37724E+06
C:/temp/Job-35.odb,Step-1,Increment      1: Step Time =    1.000,"P-35-1",           403,       122.627,       77.3726,            0.,NA,NA,"",   1.21753E+06,   1.22442E+06,   1.22442E+06
C:/temp/Job-35.odb,Step-1,Increment      1: Step Time =    1.000,"P-35-1",           404,       128.512,       85.4723,            0.,NA,NA,"",   580.759E+03,  -192.191E+03,  -192.191E+03
C:/temp/Job-35.odb,Step-1,Increment      1: Step Time =    1.000,"P-35-1",           405,       131.606,       94.9941,            0.,NA,NA,"",   1.00797E+06,  -1.01484E+06,  -1.01484E+06
C:/temp/Job-35.odb,Step-1,Increment      1: Step Time =    1.000,"P-35-1",           406,          132.,          100.,            0.,NA,NA,"",   1.11706E+06,  -1.13314E+06,  -1.13314E+06
C:/temp/Job-35.odb,Step-1,Increment      1: Step Time =    1.000,"P-35-1",           407,       130.434,       109.889,            0.,NA,NA,"",   763.284E+03,  -723.770E+03,  -723.770E+03
C:/temp/Job-35.odb,Step-1,Increment      1: Step Time =    1.000,"P-35-1",           408,       125.889,       118.809,            0.,NA,NA,"",   724.564E+03,   629.501E+03,   629.501E+03
C:/temp/Job-35.odb,Step-1,Increment      1: Step Time =    1.000,"P-35-1",           409,       118.809,       125.889,            0.,NA,NA,"",   1.74456E+06,   1.77504E+06,   1.77504E+06
C:/temp/Job-35.odb,Step-1,Increment      1: Step Time =    1.000,"P-35-1",           410,       114.528,       128.512,            0.,NA,NA,"",   2.31174E+06,   2.37424E+06,   2.37424E+06
C:/temp/Job-35.odb,Step-1,Increment      1: Step Time =    1.000,"P-35-1",           411,       105.006,       131.606,            0.,NA,NA,"",   3.06579E+06,   3.14029E+06,   3.14029E+06
C:/temp/Job-35.odb,Step-1,Increment      1: Step Time =    1.000,"P-35-1",           412,          195.,            0.,            0.,NA,NA,"",   999.124E+03,   999.053E+03,   999.053E+03
C:/temp/Job-35.odb,Step-1,Increment      1: Step Time =    1.000,"P-35-1",           413,          185.,            0.,            0.,NA,NA,"",   997.381E+03,   997.553E+03,   997.553E+03
C:/temp/Job-35.odb,Step-1,Increment      1: Step Time =    1.000,"P-35-1",           414,          175.,            0.,            0.,NA,NA,"",   999.241E+03,   999.109E+03,   999.109E+03
C:/temp/Job-35.odb,Step-1,Increment      1: Step Time =    1.000,"P-35-1",           415,          165.,            0.,            0.,NA,NA,"",   998.131E+03,   997.750E+03,   997.750E+03
C:/temp/Job-35.odb,Step-1,Increment      1: Step Time =    1.000,"P-35-1",           416,          155.,            0.,            0.,NA,NA,"",   984.012E+03,   983.513E+03,   983.513E+03
C:/temp/Job-35.odb,Step-1,Increment      1: Step Time =    1.000,"P-35-1",           417,          145.,            0.,            0.,NA,NA,"",   948.693E+03,   947.931E+03,   947.931E+03
C:/temp/Job-35.odb,Step-1,Increment      1: Step Time =    1.000,"P-35-1",           418,          135.,            0.,            0.,NA,NA,"",   894.750E+03,   894.258E+03,   894.258E+03
C:/temp/Job-35.odb,Step-1,Increment      1: Step Time =    1.000,"P-35-1",           419,          125.,            0.,            0.,NA,NA,"",   831.935E+03,   832.231E+03,   832.231E+03
C:/temp/Job-35.odb,Step-1,Increment      1: Step Time =    1.000,"P-35-1",           420,          115.,            0.,            0.,NA,NA,"",   782.993E+03,   784.122E+03,   784.122E+03
C:/temp/Job-35.odb,Step-1,Increment      1: Step Time =    1.000,"P-35-1",           421,          105.,            0.,            0.,NA,NA,"",   769.853E+03,   771.477E+03,   771.477E+03
C:/temp/Job-35.odb,Step-1,Increment      1: Step Time =    1.000,"P-35-1",           422,           95.,            0.,            0.,NA,NA,"",   805.005E+03,   806.385E+03,   806.385E+03
C:/temp/Job-35.odb,Step-1,Increment      1: Step Time =    1.000,"P-35-1",           423,           85.,            0.,            0.,NA,NA,"",   886.176E+03,   886.711E+03,   886.711E+03
C:/temp/Job-35.odb,Step-1,Increment      1: Step Time =    1.000,"P-35-1",           424,           75.,            0.,            0.,NA,NA,"",   996.868E+03,   996.586E+03,   996.586E+03
C:/temp/Job-35.odb,Step-1,Increment      1: Step Time =    1.000,"P-35-1",           425,           65.,            0.,            0.,NA,NA,"",   1.11472E+06,   1.11399E+06,   1.11399E+06
C:/temp/Job-35.odb,Step-1,Increment      1: Step Time =    1.000,"P-35-1",           426,           55.,            0.,            0.,NA,NA,"",   1.22069E+06,   1.21984E+06,   1.21984E+06
C:/temp/Job-35.odb,Step-1,Increment      1: Step Time =    1.000,"P-35-1",           427,           45.,            0.,            0.,NA,NA,"",   1.30453E+06,   1.30392E+06,   1.30392E+06
C:/temp/Job-35.odb,Step-1,Increment      1: Step Time =    1.000,"P-35-1",           428,           35.,            0.,            0.,NA,NA,"",   1.36719E+06,   1.36714E+06,   1.36714E+06
C:/temp/Job-35.odb,Step-1,Increment      1: Step Time =    1.000,"P-35-1",           429,           25.,            0.,            0.,NA,NA,"",   1.42100E+06,   1.42231E+06,   1.42231E+06
C:/temp/Job-35.odb,Step-1,Increment      1: Step Time =    1.000,"P-35-1",           430,           15.,            0.,            0.,NA,NA,"",   1.50245E+06,   1.50841E+06,   1.50841E+06
C:/temp/Job-35.odb,Step-1,Increment      1: Step Time =    1.000,"P-35-1",           431,            5.,            0.,            0.,NA,NA,"",   1.81138E+06,   1.85288E+06,   1.85288E+06
C:/temp/Job-35.odb,Step-1,Increment      1: Step Time =    1.000,"P-35-1",           432,          200.,          195.,            0.,NA,NA,"",   1.00032E+06,   999.850E+03,   999.850E+03
C:/temp/Job-35.odb,Step-1,Increment      1: Step Time =    1.000,"P-35-1",           433,          200.,          185.,            0.,NA,NA,"",   1.00155E+06,   1.00073E+06,   1.00073E+06
C:/temp/Job-35.odb,Step-1,Increment      1: Step Time =    1.000,"P-35-1",           434,          200.,          175.,            0.,NA,NA,"",   997.142E+03,   1.00164E+06,   1.00164E+06
C:/temp/Job-35.odb,Step-1,Increment      1: Step Time =    1.000,"P-35-1",           435,          200.,          165.,            0.,NA,NA,"",   980.830E+03,   1.00212E+06,   1.00212E+06
C:/temp/Job-35.odb,Step-1,Increment      1: Step Time =    1.000,"P-35-1",           436,          200.,          155.,            0.,NA,NA,"",   952.750E+03,   1.00240E+06,   1.00240E+06
C:/temp/Job-35.odb,Step-1,Increment      1: Step Time =    1.000,"P-35-1",           437,          200.,          145.,            0.,NA,NA,"",   914.648E+03,   1.00227E+06,   1.00227E+06
C:/temp/Job-35.odb,Step-1,Increment      1: Step Time =    1.000,"P-35-1",           438,          200.,          135.,            0.,NA,NA,"",   883.242E+03,   1.00291E+06,   1.00291E+06
C:/temp/Job-35.odb,Step-1,Increment      1: Step Time =    1.000,"P-35-1",           439,          200.,          125.,            0.,NA,NA,"",   867.862E+03,   1.00115E+06,   1.00115E+06
C:/temp/Job-35.odb,Step-1,Increment      1: Step Time =    1.000,"P-35-1",           440,          200.,          115.,            0.,NA,NA,"",   871.531E+03,   998.716E+03,   998.716E+03
C:/temp/Job-35.odb,Step-1,Increment      1: Step Time =    1.000,"P-35-1",           441,          200.,          105.,            0.,NA,NA,"",   880.299E+03,   995.389E+03,   995.389E+03
C:/temp/Job-35.odb,Step-1,Increment      1: Step Time =    1.000,"P-35-1",           442,          200.,           95.,            0.,NA,NA,"",   880.621E+03,   995.842E+03,   995.842E+03
C:/temp/Job-35.odb,Step-1,Increment      1: Step Time =    1.000,"P-35-1",           443,          200.,           85.,            0.,NA,NA,"",   871.461E+03,   998.436E+03,   998.436E+03
C:/temp/Job-35.odb,Step-1,Increment      1: Step Time =    1.000,"P-35-1",           444,          200.,           75.,            0.,NA,NA,"",   867.816E+03,   1.00110E+06,   1.00110E+06
C:/temp/Job-35.odb,Step-1,Increment      1: Step Time =    1.000,"P-35-1",           445,          200.,           65.,            0.,NA,NA,"",   882.939E+03,   1.00250E+06,   1.00250E+06
C:/temp/Job-35.odb,Step-1,Increment      1: Step Time =    1.000,"P-35-1",           446,          200.,           55.,            0.,NA,NA,"",   915.705E+03,   1.00297E+06,   1.00297E+06
C:/temp/Job-35.odb,Step-1,Increment      1: Step Time =    1.000,"P-35-1",           447,          200.,           45.,            0.,NA,NA,"",   952.614E+03,   1.00273E+06,   1.00273E+06
C:/temp/Job-35.odb,Step-1,Increment      1: Step Time =    1.000,"P-35-1",           448,          200.,           35.,            0.,NA,NA,"",   981.183E+03,   1.00210E+06,   1.00210E+06
C:/temp/Job-35.odb,Step-1,Increment      1: Step Time =    1.000,"P-35-1",           449,          200.,           25.,            0.,NA,NA,"",   996.656E+03,   1.00145E+06,   1.00145E+06
C:/temp/Job-35.odb,Step-1,Increment      1: Step Time =    1.000,"P-35-1",           450,          200.,           15.,            0.,NA,NA,"",   1.00149E+06,   1.00089E+06,   1.00089E+06
C:/temp/Job-35.odb,Step-1,Increment      1: Step Time =    1.000,"P-35-1",           451,          200.,            5.,            0.,NA,NA,"",   1.00035E+06,   999.888E+03,   999.888E+03
C:/temp/Job-35.odb,Step-1,Increment      1: Step Time =    1.000,"P-35-1",           452,            5.,          200.,            0.,NA,NA,"",   1.81196E+06,   1.85414E+06,   1.85414E+06
C:/temp/Job-35.odb,Step-1,Increment      1: Step Time =    1.000,"P-35-1",           453,           15.,          200.,            0.,NA,NA,"",   1.50308E+06,   1.50933E+06,   1.50933E+06
C:/temp/Job-35.odb,Step-1,Increment      1: Step Time =    1.000,"P-35-1",           454,           25.,          200.,            0.,NA,NA,"",   1.42222E+06,   1.42344E+06,   1.42344E+06
C:/temp/Job-35.odb,Step-1,Increment      1: Step Time =    1.000,"P-35-1",           455,           35.,          200.,            0.,NA,NA,"",   1.36779E+06,   1.36769E+06,   1.36769E+06
C:/temp/Job-35.odb,Step-1,Increment      1: Step Time =    1.000,"P-35-1",           456,           45.,          200.,            0.,NA,NA,"",   1.30657E+06,   1.30593E+06,   1.30593E+06
C:/temp/Job-35.odb,Step-1,Increment      1: Step Time =    1.000,"P-35-1",           457,           55.,          200.,            0.,NA,NA,"",   1.22132E+06,   1.22065E+06,   1.22065E+06
C:/temp/Job-35.odb,Step-1,Increment      1: Step Time =    1.000,"P-35-1",           458,           65.,          200.,            0.,NA,NA,"",   1.11537E+06,   1.11461E+06,   1.11461E+06
C:/temp/Job-35.odb,Step-1,Increment      1: Step Time =    1.000,"P-35-1",           459,           75.,          200.,            0.,NA,NA,"",   997.204E+03,   996.936E+03,   996.936E+03
C:/temp/Job-35.odb,Step-1,Increment      1: Step Time =    1.000,"P-35-1",           460,           85.,          200.,            0.,NA,NA,"",   886.904E+03,   887.500E+03,   887.500E+03
C:/temp/Job-35.odb,Step-1,Increment      1: Step Time =    1.000,"P-35-1",           461,           95.,          200.,            0.,NA,NA,"",   806.037E+03,   807.356E+03,   807.356E+03
C:/temp/Job-35.odb,Step-1,Increment      1: Step Time =    1.000,"P-35-1",           462,          105.,          200.,            0.,NA,NA,"",   769.731E+03,   771.295E+03,   771.295E+03
C:/temp/Job-35.odb,Step-1,Increment      1: Step Time =    1.000,"P-35-1",           463,          115.,          200.,            0.,NA,NA,"",   781.613E+03,   782.717E+03,   782.717E+03
C:/temp/Job-35.odb,Step-1,Increment      1: Step Time =    1.000,"P-35-1",           464,          125.,          200.,            0.,NA,NA,"",   830.337E+03,   830.638E+03,   830.638E+03
C:/temp/Job-35.odb,Step-1,Increment      1: Step Time =    1.000,"P-35-1",           465,          135.,          200.,            0.,NA,NA,"",   893.221E+03,   892.976E+03,   892.976E+03
C:/temp/Job-35.odb,Step-1,Increment      1: Step Time =    1.000,"P-35-1",           466,          145.,          200.,            0.,NA,NA,"",   948.678E+03,   948.024E+03,   948.024E+03
C:/temp/Job-35.odb,Step-1,Increment      1: Step Time =    1.000,"P-35-1",           467,          155.,          200.,            0.,NA,NA,"",   984.271E+03,   983.517E+03,   983.517E+03
C:/temp/Job-35.odb,Step-1,Increment      1: Step Time =    1.000,"P-35-1",           468,          165.,          200.,            0.,NA,NA,"",   998.828E+03,   998.343E+03,   998.343E+03
C:/temp/Job-35.odb,Step-1,Increment      1: Step Time =    1.000,"P-35-1",           469,          175.,          200.,            0.,NA,NA,"",   999.506E+03,   999.420E+03,   999.420E+03
C:/temp/Job-35.odb,Step-1,Increment      1: Step Time =    1.000,"P-35-1",           470,          185.,          200.,            0.,NA,NA,"",   997.495E+03,   997.676E+03,   997.676E+03
C:/temp/Job-35.odb,Step-1,Increment      1: Step Time =    1.000,"P-35-1",           471,          195.,          200.,            0.,NA,NA,"",   999.136E+03,   999.054E+03,   999.054E+03
C:/temp/Job-35.odb,Step-1,Increment      1: Step Time =    1.000,"P-35-1",           472,            0.,            5.,            0.,NA,NA,"",   1.72366E+06,   1.83578E+06,   1.83578E+06
C:/temp/Job-35.odb,Step-1,Increment      1: Step Time =    1.000,"P-35-1",           473,            0.,           15.,            0.,NA,NA,"",   1.28554E+06,   1.41573E+06,   1.41573E+06
C:/temp/Job-35.odb,Step-1,Increment      1: Step Time =    1.000,"P-35-1",           474,            0.,           25.,            0.,NA,NA,"",   1.12247E+06,   1.24817E+06,   1.24817E+06
C:/temp/Job-35.odb,Step-1,Increment      1: Step Time =    1.000,"P-35-1",           475,            0.,           35.,            0.,NA,NA,"",   1.00036E+06,   1.11841E+06,   1.11841E+06
C:/temp/Job-35.odb,Step-1,Increment      1: Step Time =    1.000,"P-35-1",           476,            0.,           45.,            0.,NA,NA,"",   897.943E+03,   1.00729E+06,   1.00729E+06
C:/temp/Job-35.odb,Step-1,Increment      1: Step Time =    1.000,"P-35-1",           477,            0.,           55.,            0.,NA,NA,"",   796.964E+03,   895.914E+03,   895.914E+03
C:/temp/Job-35.odb,Step-1,Increment      1: Step Time =    1.000,"P-35-1",           478,            0.,           65.,            0.,NA,NA,"",   699.038E+03,   786.693E+03,   786.693E+03
C:/temp/Job-35.odb,Step-1,Increment      1: Step Time =    1.000,"P-35-1",           479,            0.,           75.,            0.,NA,NA,"",   605.850E+03,   683.183E+03,   683.183E+03
C:/temp/Job-35.odb,Step-1,Increment      1: Step Time =    1.000,"P-35-1",           480,            0.,           85.,            0.,NA,NA,"",   527.323E+03,   597.273E+03,   597.273E+03
C:/temp/Job-35.odb,Step-1,Increment      1: Step Time =    1.000,"P-35-1",           481,            0.,           95.,            0.,NA,NA,"",   479.819E+03,   545.905E+03,   545.905E+03
C:/temp/Job-35.odb,Step-1,Increment      1: Step Time =    1.000,"P-35-1",           482,            0.,          105.,            0.,NA,NA,"",   479.872E+03,   545.920E+03,   545.920E+03
C:/temp/Job-35.odb,Step-1,Increment      1: Step Time =    1.000,"P-35-1",           483,            0.,          115.,            0.,NA,NA,"",   527.423E+03,   597.336E+03,   597.336E+03
C:/temp/Job-35.odb,Step-1,Increment      1: Step Time =    1.000,"P-35-1",           484,            0.,          125.,            0.,NA,NA,"",   605.747E+03,   683.007E+03,   683.007E+03
C:/temp/Job-35.odb,Step-1,Increment      1: Step Time =    1.000,"P-35-1",           485,            0.,          135.,            0.,NA,NA,"",   699.968E+03,   787.374E+03,   787.374E+03
C:/temp/Job-35.odb,Step-1,Increment      1: Step Time =    1.000,"P-35-1",           486,            0.,          145.,            0.,NA,NA,"",   799.592E+03,   898.315E+03,   898.315E+03
C:/temp/Job-35.odb,Step-1,Increment      1: Step Time =    1.000,"P-35-1",           487,            0.,          155.,            0.,NA,NA,"",   898.733E+03,   1.00833E+06,   1.00833E+06
C:/temp/Job-35.odb,Step-1,Increment      1: Step Time =    1.000,"P-35-1",           488,            0.,          165.,            0.,NA,NA,"",   1.00161E+06,   1.12084E+06,   1.12084E+06
C:/temp/Job-35.odb,Step-1,Increment      1: Step Time =    1.000,"P-35-1",           489,            0.,          175.,            0.,NA,NA,"",   1.12058E+06,   1.24755E+06,   1.24755E+06
C:/temp/Job-35.odb,Step-1,Increment      1: Step Time =    1.000,"P-35-1",           490,            0.,          185.,            0.,NA,NA,"",   1.28551E+06,   1.41702E+06,   1.41702E+06
C:/temp/Job-35.odb,Step-1,Increment      1: Step Time =    1.000,"P-35-1",           491,            0.,          195.,            0.,NA,NA,"",   1.72269E+06,   1.83585E+06,   1.83585E+06
C:/temp/Job-35.odb,Step-1,Increment      1: Step Time =    1.000,"P-35-1",           492,       195.105,       55.1155,            0.,NA,NA,"",   927.939E+03,   1.01008E+06,   1.01008E+06
C:/temp/Job-35.odb,Step-1,Increment      1: Step Time =    1.000,"P-35-1",           493,       4.99132,       45.7685,            0.,NA,NA,"",   911.248E+03,   1.01340E+06,   1.01340E+06
C:/temp/Job-35.odb,Step-1,Increment      1: Step Time =    1.000,"P-35-1",           494,       5.42119,       35.7876,            0.,NA,NA,"",   1.02035E+06,   1.12894E+06,   1.12894E+06
C:/temp/Job-35.odb,Step-1,Increment      1: Step Time =    1.000,"P-35-1",           495,       5.68796,       25.5412,            0.,NA,NA,"",   1.14682E+06,   1.25886E+06,   1.25886E+06
C:/temp/Job-35.odb,Step-1,Increment      1: Step Time =    1.000,"P-35-1",           496,       35.3676,       4.82086,            0.,NA,NA,"",   1.36395E+06,   1.36271E+06,   1.36271E+06
C:/temp/Job-35.odb,Step-1,Increment      1: Step Time =    1.000,"P-35-1",           497,       45.2630,       4.88190,            0.,NA,NA,"",   1.30422E+06,   1.30172E+06,   1.30172E+06
C:/temp/Job-35.odb,Step-1,Increment      1: Step Time =    1.000,"P-35-1",           498,       4.38437,       55.5181,            0.,NA,NA,"",   805.272E+03,   899.961E+03,   899.961E+03
C:/temp/Job-35.odb,Step-1,Increment      1: Step Time =    1.000,"P-35-1",           499,       195.007,       125.095,            0.,NA,NA,"",   875.504E+03,   1.00520E+06,   1.00520E+06
C:/temp/Job-35.odb,Step-1,Increment      1: Step Time =    1.000,"P-35-1",           500,       195.282,       135.039,            0.,NA,NA,"",   895.836E+03,   1.00916E+06,   1.00916E+06
C:/temp/Job-35.odb,Step-1,Increment      1: Step Time =    1.000,"P-35-1",           501,       134.863,       195.138,            0.,NA,NA,"",   921.827E+03,   920.650E+03,   920.650E+03
C:/temp/Job-35.odb,Step-1,Increment      1: Step Time =    1.000,"P-35-1",           502,       124.953,       195.091,            0.,NA,NA,"",   868.868E+03,   869.599E+03,   869.599E+03
C:/temp/Job-35.odb,Step-1,Increment      1: Step Time =    1.000,"P-35-1",           503,       5.12537,       174.687,            0.,NA,NA,"",   1.14406E+06,   1.25899E+06,   1.25899E+06
C:/temp/Job-35.odb,Step-1,Increment      1: Step Time =    1.000,"P-35-1",           504,       4.97668,       164.685,            0.,NA,NA,"",   1.02233E+06,   1.13293E+06,   1.13293E+06
C:/temp/Job-35.odb,Step-1,Increment      1: Step Time =    1.000,"P-35-1",           505,       74.8447,       195.039,            0.,NA,NA,"",   1.03060E+06,   1.02943E+06,   1.02943E+06
C:/temp/Job-35.odb,Step-1,Increment      1: Step Time =    1.000,"P-35-1",           506,       64.9173,       195.198,            0.,NA,NA,"",   1.13522E+06,   1.13254E+06,   1.13254E+06
C:/temp/Job-35.odb,Step-1,Increment      1: Step Time =    1.000,"P-35-1",           507,       5.34593,       10.1600,            0.,NA,NA,"",   1.46564E+06,   1.56500E+06,   1.56500E+06
C:/temp/Job-35.odb,Step-1,Increment      1: Step Time =    1.000,"P-35-1",           508,       5.64038,       15.3186,            0.,NA,NA,"",   1.31799E+06,   1.42750E+06,   1.42750E+06
C:/temp/Job-35.odb,Step-1,Increment      1: Step Time =    1.000,"P-35-1",           509,       15.2788,       5.00418,            0.,NA,NA,"",   1.50036E+06,   1.51016E+06,   1.51016E+06
C:/temp/Job-35.odb,Step-1,Increment      1: Step Time =    1.000,"P-35-1",           510,       25.3298,       4.89253,            0.,NA,NA,"",   1.41945E+06,   1.42086E+06,   1.42086E+06
C:/temp/Job-35.odb,Step-1,Increment      1: Step Time =    1.000,"P-35-1",           511,       55.1378,       4.91223,            0.,NA,NA,"",   1.22846E+06,   1.22542E+06,   1.22542E+06
C:/temp/Job-35.odb,Step-1,Increment      1: Step Time =    1.000,"P-35-1",           512,       65.0287,       4.89657,            0.,NA,NA,"",   1.13421E+06,   1.13157E+06,   1.13157E+06
C:/temp/Job-35.odb,Step-1,Increment      1: Step Time =    1.000,"P-35-1",           513,       74.9541,       4.94705,            0.,NA,NA,"",   1.02945E+06,   1.02825E+06,   1.02825E+06
C:/temp/Job-35.odb,Step-1,Increment      1: Step Time =    1.000,"P-35-1",           514,       84.9243,       5.01623,            0.,NA,NA,"",   929.652E+03,   930.932E+03,   930.932E+03
C:/temp/Job-35.odb,Step-1,Increment      1: Step Time =    1.000,"P-35-1",           515,       94.9520,       5.06887,            0.,NA,NA,"",   854.576E+03,   858.301E+03,   858.301E+03
C:/temp/Job-35.odb,Step-1,Increment      1: Step Time =    1.000,"P-35-1",           516,       104.967,       5.07203,            0.,NA,NA,"",   820.414E+03,   824.876E+03,   824.876E+03
C:/temp/Job-35.odb,Step-1,Increment      1: Step Time =    1.000,"P-35-1",           517,       115.005,       5.04745,            0.,NA,NA,"",   829.850E+03,   832.990E+03,   832.990E+03
C:/temp/Job-35.odb,Step-1,Increment      1: Step Time =    1.000,"P-35-1",           518,       125.070,       5.00848,            0.,NA,NA,"",   871.371E+03,   872.104E+03,   872.104E+03
C:/temp/Job-35.odb,Step-1,Increment      1: Step Time =    1.000,"P-35-1",           519,       135.230,       5.07943,            0.,NA,NA,"",   925.272E+03,   923.858E+03,   923.858E+03
C:/temp/Job-35.odb,Step-1,Increment      1: Step Time =    1.000,"P-35-1",           520,       145.350,       4.98847,            0.,NA,NA,"",   968.611E+03,   966.476E+03,   966.476E+03
C:/temp/Job-35.odb,Step-1,Increment      1: Step Time =    1.000,"P-35-1",           521,       154.897,       4.33755,            0.,NA,NA,"",   994.094E+03,   992.526E+03,   992.526E+03
C:/temp/Job-35.odb,Step-1,Increment      1: Step Time =    1.000,"P-35-1",           522,       164.449,       5.02217,            0.,NA,NA,"",   1.00608E+06,   1.00480E+06,   1.00480E+06
C:/temp/Job-35.odb,Step-1,Increment      1: Step Time =    1.000,"P-35-1",           523,       174.658,       5.01022,            0.,NA,NA,"",   1.00465E+06,   1.00434E+06,   1.00434E+06
C:/temp/Job-35.odb,Step-1,Increment      1: Step Time =    1.000,"P-35-1",           524,       184.787,       5.12381,            0.,NA,NA,"",   1.00039E+06,   1.00083E+06,   1.00083E+06
C:/temp/Job-35.odb,Step-1,Increment      1: Step Time =    1.000,"P-35-1",           525,       194.873,       5.10922,            0.,NA,NA,"",   999.918E+03,   999.801E+03,   999.801E+03
C:/temp/Job-35.odb,Step-1,Increment      1: Step Time =    1.000,"P-35-1",           526,       194.675,       15.3131,            0.,NA,NA,"",   1.00155E+06,   1.00255E+06,   1.00255E+06
C:/temp/Job-35.odb,Step-1,Increment      1: Step Time =    1.000,"P-35-1",           527,       194.845,       25.4493,            0.,NA,NA,"",   997.496E+03,   1.00461E+06,   1.00461E+06
C:/temp/Job-35.odb,Step-1,Increment      1: Step Time =    1.000,"P-35-1",           528,       195.124,       35.4343,            0.,NA,NA,"",   983.872E+03,   1.00644E+06,   1.00644E+06
C:/temp/Job-35.odb,Step-1,Increment      1: Step Time =    1.000,"P-35-1",           529,       195.151,       45.2679,            0.,NA,NA,"",   959.729E+03,   1.00856E+06,   1.00856E+06
C:/temp/Job-35.odb,Step-1,Increment      1: Step Time =    1.000,"P-35-1",           530,       195.055,       64.9745,            0.,NA,NA,"",   896.663E+03,   1.00942E+06,   1.00942E+06
C:/temp/Job-35.odb,Step-1,Increment      1: Step Time =    1.000,"P-35-1",           531,       194.983,       74.9069,            0.,NA,NA,"",   875.130E+03,   1.00489E+06,   1.00489E+06
C:/temp/Job-35.odb,Step-1,Increment      1: Step Time =    1.000,"P-35-1",           532,       194.952,       84.8956,            0.,NA,NA,"",   866.455E+03,   996.283E+03,   996.283E+03
C:/temp/Job-35.odb,Step-1,Increment      1: Step Time =    1.000,"P-35-1",           533,       194.986,       94.9048,            0.,NA,NA,"",   865.774E+03,   988.256E+03,   988.256E+03
C:/temp/Job-35.odb,Step-1,Increment      1: Step Time =    1.000,"P-35-1",           534,       194.956,       104.946,            0.,NA,NA,"",   865.000E+03,   987.329E+03,   987.329E+03
C:/temp/Job-35.odb,Step-1,Increment      1: Step Time =    1.000,"P-35-1",           535,       194.823,       115.050,            0.,NA,NA,"",   866.571E+03,   996.475E+03,   996.475E+03
C:/temp/Job-35.odb,Step-1,Increment      1: Step Time =    1.000,"P-35-1",           536,       195.547,       144.810,            0.,NA,NA,"",   924.442E+03,   1.00792E+06,   1.00792E+06
C:/temp/Job-35.odb,Step-1,Increment      1: Step Time =    1.000,"P-35-1",           537,       195.213,       154.643,            0.,NA,NA,"",   959.417E+03,   1.00841E+06,   1.00841E+06
C:/temp/Job-35.odb,Step-1,Increment      1: Step Time =    1.000,"P-35-1",           538,       144.772,       195.048,            0.,NA,NA,"",   967.935E+03,   965.873E+03,   965.873E+03
C:/temp/Job-35.odb,Step-1,Increment      1: Step Time =    1.000,"P-35-1",           539,       194.801,       164.622,            0.,NA,NA,"",   985.152E+03,   1.00748E+06,   1.00748E+06
C:/temp/Job-35.odb,Step-1,Increment      1: Step Time =    1.000,"P-35-1",           540,       154.626,       195.007,            0.,NA,NA,"",   996.299E+03,   994.250E+03,   994.250E+03
C:/temp/Job-35.odb,Step-1,Increment      1: Step Time =    1.000,"P-35-1",           541,       195.068,       174.861,            0.,NA,NA,"",   997.837E+03,   1.00443E+06,   1.00443E+06
C:/temp/Job-35.odb,Step-1,Increment      1: Step Time =    1.000,"P-35-1",           542,       164.525,       195.073,            0.,NA,NA,"",   1.00674E+06,   1.00539E+06,   1.00539E+06
C:/temp/Job-35.odb,Step-1,Increment      1: Step Time =    1.000,"P-35-1",           543,       194.973,       184.902,            0.,NA,NA,"",   1.00139E+06,   1.00211E+06,   1.00211E+06
C:/temp/Job-35.odb,Step-1,Increment      1: Step Time =    1.000,"P-35-1",           544,       174.575,       194.897,            0.,NA,NA,"",   1.00497E+06,   1.00471E+06,   1.00471E+06
C:/temp/Job-35.odb,Step-1,Increment      1: Step Time =    1.000,"P-35-1",           545,       194.931,       194.909,            0.,NA,NA,"",   999.892E+03,   999.767E+03,   999.767E+03
C:/temp/Job-35.odb,Step-1,Increment      1: Step Time =    1.000,"P-35-1",           546,       184.760,       194.742,            0.,NA,NA,"",   1.00055E+06,   1.00102E+06,   1.00102E+06
C:/temp/Job-35.odb,Step-1,Increment      1: Step Time =    1.000,"P-35-1",           547,       114.952,       194.980,            0.,NA,NA,"",   828.250E+03,   831.426E+03,   831.426E+03
C:/temp/Job-35.odb,Step-1,Increment      1: Step Time =    1.000,"P-35-1",           548,       104.897,       194.911,            0.,NA,NA,"",   820.356E+03,   824.799E+03,   824.799E+03
C:/temp/Job-35.odb,Step-1,Increment      1: Step Time =    1.000,"P-35-1",           549,       94.8652,       194.903,            0.,NA,NA,"",   855.942E+03,   859.541E+03,   859.541E+03
C:/temp/Job-35.odb,Step-1,Increment      1: Step Time =    1.000,"P-35-1",           550,       84.8613,       194.935,            0.,NA,NA,"",   930.996E+03,   932.295E+03,   932.295E+03
C:/temp/Job-35.odb,Step-1,Increment      1: Step Time =    1.000,"P-35-1",           551,       55.1590,       195.376,            0.,NA,NA,"",   1.22830E+06,   1.22554E+06,   1.22554E+06
C:/temp/Job-35.odb,Step-1,Increment      1: Step Time =    1.000,"P-35-1",           552,       45.3538,       195.202,            0.,NA,NA,"",   1.30450E+06,   1.30216E+06,   1.30216E+06
C:/temp/Job-35.odb,Step-1,Increment      1: Step Time =    1.000,"P-35-1",           553,       35.2044,       194.865,            0.,NA,NA,"",   1.36488E+06,   1.36362E+06,   1.36362E+06
C:/temp/Job-35.odb,Step-1,Increment      1: Step Time =    1.000,"P-35-1",           554,       25.1235,       194.839,            0.,NA,NA,"",   1.42054E+06,   1.42226E+06,   1.42226E+06
C:/temp/Job-35.odb,Step-1,Increment      1: Step Time =    1.000,"P-35-1",           555,       15.1688,       194.847,            0.,NA,NA,"",   1.50106E+06,   1.51150E+06,   1.51150E+06
C:/temp/Job-35.odb,Step-1,Increment      1: Step Time =    1.000,"P-35-1",           556,       5.08598,       194.929,            0.,NA,NA,"",   1.68940E+06,   1.75617E+06,   1.75617E+06
C:/temp/Job-35.odb,Step-1,Increment      1: Step Time =    1.000,"P-35-1",           557,       5.24005,       184.812,            0.,NA,NA,"",   1.31567E+06,   1.42820E+06,   1.42820E+06
C:/temp/Job-35.odb,Step-1,Increment      1: Step Time =    1.000,"P-35-1",           558,       5.01368,       154.715,            0.,NA,NA,"",   915.724E+03,   1.01846E+06,   1.01846E+06
C:/temp/Job-35.odb,Step-1,Increment      1: Step Time =    1.000,"P-35-1",           559,       4.94243,       144.838,            0.,NA,NA,"",   812.136E+03,   905.944E+03,   905.944E+03
C:/temp/Job-35.odb,Step-1,Increment      1: Step Time =    1.000,"P-35-1",           560,       4.84265,       134.866,            0.,NA,NA,"",   705.601E+03,   790.412E+03,   790.412E+03
C:/temp/Job-35.odb,Step-1,Increment      1: Step Time =    1.000,"P-35-1",           561,       4.90185,       124.933,            0.,NA,NA,"",   605.224E+03,   682.029E+03,   682.029E+03
C:/temp/Job-35.odb,Step-1,Increment      1: Step Time =    1.000,"P-35-1",           562,       4.99826,       115.000,            0.,NA,NA,"",   521.830E+03,   592.594E+03,   592.594E+03
C:/temp/Job-35.odb,Step-1,Increment      1: Step Time =    1.000,"P-35-1",           563,       5.01166,       105.018,            0.,NA,NA,"",   471.421E+03,   538.541E+03,   538.541E+03
C:/temp/Job-35.odb,Step-1,Increment      1: Step Time =    1.000,"P-35-1",           564,       5.02025,       95.0051,            0.,NA,NA,"",   471.051E+03,   538.174E+03,   538.174E+03
C:/temp/Job-35.odb,Step-1,Increment      1: Step Time =    1.000,"P-35-1",           565,       5.00462,       85.0367,            0.,NA,NA,"",   521.708E+03,   592.486E+03,   592.486E+03
C:/temp/Job-35.odb,Step-1,Increment      1: Step Time =    1.000,"P-35-1",           566,       4.64785,       75.1238,            0.,NA,NA,"",   605.627E+03,   682.550E+03,   682.550E+03
C:/temp/Job-35.odb,Step-1,Increment      1: Step Time =    1.000,"P-35-1",           567,       4.35680,       65.3082,            0.,NA,NA,"",   703.090E+03,   788.513E+03,   788.513E+03
C:/temp/Job-35.odb,Step-1,Increment      1: Step Time =    1.000,"P-35-1",           568,       189.805,       5.14707,            0.,NA,NA,"",   999.568E+03,   999.935E+03,   999.935E+03
C:/temp/Job-35.odb,Step-1,Increment      1: Step Time =    1.000,"P-35-1",           569,       179.745,       5.06591,            0.,NA,NA,"",   1.00225E+06,   1.00243E+06,   1.00243E+06
C:/temp/Job-35.odb,Step-1,Increment      1: Step Time =    1.000,"P-35-1",           570,       169.545,       4.99988,            0.,NA,NA,"",   1.00650E+06,   1.00571E+06,   1.00571E+06
C:/temp/Job-35.odb,Step-1,Increment      1: Step Time =    1.000,"P-35-1",           571,       159.457,       4.80416,            0.,NA,NA,"",   1.00222E+06,   1.00069E+06,   1.00069E+06
C:/temp/Job-35.odb,Step-1,Increment      1: Step Time =    1.000,"P-35-1",           572,       150.191,       4.62444,            0.,NA,NA,"",   982.761E+03,   980.870E+03,   980.870E+03
C:/temp/Job-35.odb,Step-1,Increment      1: Step Time =    1.000,"P-35-1",           573,       140.326,       5.10770,            0.,NA,NA,"",   949.491E+03,   947.501E+03,   947.501E+03
C:/temp/Job-35.odb,Step-1,Increment      1: Step Time =    1.000,"P-35-1",           574,       130.130,       5.03400,            0.,NA,NA,"",   898.189E+03,   897.785E+03,   897.785E+03
C:/temp/Job-35.odb,Step-1,Increment      1: Step Time =    1.000,"P-35-1",           575,       120.031,       5.03005,            0.,NA,NA,"",   847.753E+03,   849.715E+03,   849.715E+03
C:/temp/Job-35.odb,Step-1,Increment      1: Step Time =    1.000,"P-35-1",           576,       109.976,       5.06654,            0.,NA,NA,"",   820.090E+03,   824.101E+03,   824.101E+03
C:/temp/Job-35.odb,Step-1,Increment      1: Step Time =    1.000,"P-35-1",           577,       99.9638,       5.07799,            0.,NA,NA,"",   831.857E+03,   836.188E+03,   836.188E+03
C:/temp/Job-35.odb,Step-1,Increment      1: Step Time =    1.000,"P-35-1",           578,       89.9316,       5.04575,            0.,NA,NA,"",   887.780E+03,   890.407E+03,   890.407E+03
C:/temp/Job-35.odb,Step-1,Increment      1: Step Time =    1.000,"P-35-1",           579,       79.9312,       4.98095,            0.,NA,NA,"",   977.773E+03,   977.740E+03,   977.740E+03
C:/temp/Job-35.odb,Step-1,Increment      1: Step Time =    1.000,"P-35-1",           580,       69.9876,       4.91976,            0.,NA,NA,"",   1.08226E+06,   1.08024E+06,   1.08024E+06
C:/temp/Job-35.odb,Step-1,Increment      1: Step Time =    1.000,"P-35-1",           581,       60.0797,       4.90032,            0.,NA,NA,"",   1.18342E+06,   1.18048E+06,   1.18048E+06
C:/temp/Job-35.odb,Step-1,Increment      1: Step Time =    1.000,"P-35-1",           582,       50.1970,       4.90149,            0.,NA,NA,"",   1.26873E+06,   1.26588E+06,   1.26588E+06
C:/temp/Job-35.odb,Step-1,Increment      1: Step Time =    1.000,"P-35-1",           583,       40.3235,       4.82119,            0.,NA,NA,"",   1.33572E+06,   1.33371E+06,   1.33371E+06
C:/temp/Job-35.odb,Step-1,Increment      1: Step Time =    1.000,"P-35-1",           584,       30.3591,       4.82230,            0.,NA,NA,"",   1.39126E+06,   1.39109E+06,   1.39109E+06
C:/temp/Job-35.odb,Step-1,Increment      1: Step Time =    1.000,"P-35-1",           585,       20.3148,       4.93748,            0.,NA,NA,"",   1.45512E+06,   1.45875E+06,   1.45875E+06
C:/temp/Job-35.odb,Step-1,Increment      1: Step Time =    1.000,"P-35-1",           586,       10.2331,       5.06471,            0.,NA,NA,"",   1.58933E+06,   1.60614E+06,   1.60614E+06
C:/temp/Job-35.odb,Step-1,Increment      1: Step Time =    1.000,"P-35-1",           587,       194.930,       189.882,            0.,NA,NA,"",   1.00109E+06,   1.00106E+06,   1.00106E+06
C:/temp/Job-35.odb,Step-1,Increment      1: Step Time =    1.000,"P-35-1",           588,       195.040,       179.912,            0.,NA,NA,"",   1.00041E+06,   1.00311E+06,   1.00311E+06
C:/temp/Job-35.odb,Step-1,Increment      1: Step Time =    1.000,"P-35-1",           589,       194.975,       169.765,            0.,NA,NA,"",   993.055E+03,   1.00602E+06,   1.00602E+06
C:/temp/Job-35.odb,Step-1,Increment      1: Step Time =    1.000,"P-35-1",           590,       194.711,       159.540,            0.,NA,NA,"",   974.374E+03,   1.00860E+06,   1.00860E+06
C:/temp/Job-35.odb,Step-1,Increment      1: Step Time =    1.000,"P-35-1",           591,       195.505,       149.680,            0.,NA,NA,"",   941.355E+03,   1.00755E+06,   1.00755E+06
C:/temp/Job-35.odb,Step-1,Increment      1: Step Time =    1.000,"P-35-1",           592,       195.430,       139.939,            0.,NA,NA,"",   909.283E+03,   1.00883E+06,   1.00883E+06
C:/temp/Job-35.odb,Step-1,Increment      1: Step Time =    1.000,"P-35-1",           593,       195.137,       130.089,            0.,NA,NA,"",   884.575E+03,   1.00821E+06,   1.00821E+06
C:/temp/Job-35.odb,Step-1,Increment      1: Step Time =    1.000,"P-35-1",           594,       194.883,       120.072,            0.,NA,NA,"",   869.616E+03,   1.00119E+06,   1.00119E+06
C:/temp/Job-35.odb,Step-1,Increment      1: Step Time =    1.000,"P-35-1",           595,       194.879,       110.010,            0.,NA,NA,"",   864.880E+03,   990.888E+03,   990.888E+03
C:/temp/Job-35.odb,Step-1,Increment      1: Step Time =    1.000,"P-35-1",           596,       194.995,       99.9135,            0.,NA,NA,"",   865.842E+03,   986.808E+03,   986.808E+03
C:/temp/Job-35.odb,Step-1,Increment      1: Step Time =    1.000,"P-35-1",           597,       194.968,       89.8985,            0.,NA,NA,"",   865.594E+03,   991.664E+03,   991.664E+03
C:/temp/Job-35.odb,Step-1,Increment      1: Step Time =    1.000,"P-35-1",           598,       194.960,       79.8948,            0.,NA,NA,"",   869.317E+03,   1.00091E+06,   1.00091E+06
C:/temp/Job-35.odb,Step-1,Increment      1: Step Time =    1.000,"P-35-1",           599,       195.016,       69.9303,            0.,NA,NA,"",   884.300E+03,   1.00775E+06,   1.00775E+06
C:/temp/Job-35.odb,Step-1,Increment      1: Step Time =    1.000,"P-35-1",           600,       195.084,       60.0434,            0.,NA,NA,"",   911.560E+03,   1.01011E+06,   1.01011E+06
C:/temp/Job-35.odb,Step-1,Increment      1: Step Time =    1.000,"P-35-1",           601,       195.148,       50.1856,            0.,NA,NA,"",   944.415E+03,   1.00951E+06,   1.00951E+06
C:/temp/Job-35.odb,Step-1,Increment      1: Step Time =    1.000,"P-35-1",           602,       195.179,       40.3564,            0.,NA,NA,"",   973.036E+03,   1.00747E+06,   1.00747E+06
C:/temp/Job-35.odb,Step-1,Increment      1: Step Time =    1.000,"P-35-1",           603,       195.035,       30.4845,            0.,NA,NA,"",   992.155E+03,   1.00561E+06,   1.00561E+06
C:/temp/Job-35.odb,Step-1,Increment      1: Step Time =    1.000,"P-35-1",           604,       194.678,       20.4010,            0.,NA,NA,"",   1.00034E+06,   1.00352E+06,   1.00352E+06
C:/temp/Job-35.odb,Step-1,Increment      1: Step Time =    1.000,"P-35-1",           605,       194.757,       10.2056,            0.,NA,NA,"",   1.00125E+06,   1.00129E+06,   1.00129E+06
C:/temp/Job-35.odb,Step-1,Increment      1: Step Time =    1.000,"P-35-1",           606,       10.1175,       194.894,            0.,NA,NA,"",   1.59065E+06,   1.60829E+06,   1.60829E+06
C:/temp/Job-35.odb,Step-1,Increment      1: Step Time =    1.000,"P-35-1",           607,       20.1643,       194.801,            0.,NA,NA,"",   1.45589E+06,   1.46017E+06,   1.46017E+06
C:/temp/Job-35.odb,Step-1,Increment      1: Step Time =    1.000,"P-35-1",           608,       30.1189,       194.873,            0.,NA,NA,"",   1.39251E+06,   1.39253E+06,   1.39253E+06
C:/temp/Job-35.odb,Step-1,Increment      1: Step Time =    1.000,"P-35-1",           609,       40.3139,       194.859,            0.,NA,NA,"",   1.33630E+06,   1.33433E+06,   1.33433E+06
C:/temp/Job-35.odb,Step-1,Increment      1: Step Time =    1.000,"P-35-1",           610,       50.3018,       195.378,            0.,NA,NA,"",   1.26833E+06,   1.26585E+06,   1.26585E+06
C:/temp/Job-35.odb,Step-1,Increment      1: Step Time =    1.000,"P-35-1",           611,       60.0184,       195.290,            0.,NA,NA,"",   1.18379E+06,   1.18085E+06,   1.18085E+06
C:/temp/Job-35.odb,Step-1,Increment      1: Step Time =    1.000,"P-35-1",           612,       69.8612,       195.116,            0.,NA,NA,"",   1.08367E+06,   1.08154E+06,   1.08154E+06
C:/temp/Job-35.odb,Step-1,Increment      1: Step Time =    1.000,"P-35-1",           613,       79.8501,       194.974,            0.,NA,NA,"",   978.867E+03,   978.890E+03,   978.890E+03
C:/temp/Job-35.odb,Step-1,Increment      1: Step Time =    1.000,"P-35-1",           614,       89.8662,       194.911,            0.,NA,NA,"",   889.328E+03,   891.854E+03,   891.854E+03
C:/temp/Job-35.odb,Step-1,Increment      1: Step Time =    1.000,"P-35-1",           615,       99.8696,       194.901,            0.,NA,NA,"",   832.624E+03,   836.910E+03,   836.910E+03
C:/temp/Job-35.odb,Step-1,Increment      1: Step Time =    1.000,"P-35-1",           616,       109.922,       194.940,            0.,NA,NA,"",   819.169E+03,   823.258E+03,   823.258E+03
C:/temp/Job-35.odb,Step-1,Increment      1: Step Time =    1.000,"P-35-1",           617,       119.967,       195.042,            0.,NA,NA,"",   845.657E+03,   847.682E+03,   847.682E+03
C:/temp/Job-35.odb,Step-1,Increment      1: Step Time =    1.000,"P-35-1",           618,       129.913,       195.132,            0.,NA,NA,"",   895.166E+03,   894.768E+03,   894.768E+03
C:/temp/Job-35.odb,Step-1,Increment      1: Step Time =    1.000,"P-35-1",           619,       139.812,       195.106,            0.,NA,NA,"",   946.539E+03,   944.801E+03,   944.801E+03
C:/temp/Job-35.odb,Step-1,Increment      1: Step Time =    1.000,"P-35-1",           620,       149.700,       195.012,            0.,NA,NA,"",   984.692E+03,   982.505E+03,   982.505E+03
C:/temp/Job-35.odb,Step-1,Increment      1: Step Time =    1.000,"P-35-1",           621,       159.570,       195.056,            0.,NA,NA,"",   1.00346E+06,   1.00172E+06,   1.00172E+06
C:/temp/Job-35.odb,Step-1,Increment      1: Step Time =    1.000,"P-35-1",           622,       169.510,       195.040,            0.,NA,NA,"",   1.00683E+06,   1.00600E+06,   1.00600E+06
C:/temp/Job-35.odb,Step-1,Increment      1: Step Time =    1.000,"P-35-1",           623,       179.664,       194.749,            0.,NA,NA,"",   1.00258E+06,   1.00276E+06,   1.00276E+06
C:/temp/Job-35.odb,Step-1,Increment      1: Step Time =    1.000,"P-35-1",           624,       189.862,       194.818,            0.,NA,NA,"",   999.584E+03,   999.980E+03,   999.980E+03
C:/temp/Job-35.odb,Step-1,Increment      1: Step Time =    1.000,"P-35-1",           625,       5.93929,       20.4989,            0.,NA,NA,"",   1.22657E+06,   1.33753E+06,   1.33753E+06
C:/temp/Job-35.odb,Step-1,Increment      1: Step Time =    1.000,"P-35-1",           626,       5.47419,       30.6412,            0.,NA,NA,"",   1.08018E+06,   1.19141E+06,   1.19141E+06
C:/temp/Job-35.odb,Step-1,Increment      1: Step Time =    1.000,"P-35-1",           627,       5.41574,       40.8887,            0.,NA,NA,"",   965.543E+03,   1.07079E+06,   1.07079E+06
C:/temp/Job-35.odb,Step-1,Increment      1: Step Time =    1.000,"P-35-1",           628,       4.60656,       50.6462,            0.,NA,NA,"",   857.398E+03,   956.165E+03,   956.165E+03
C:/temp/Job-35.odb,Step-1,Increment      1: Step Time =    1.000,"P-35-1",           629,       4.31468,       60.4090,            0.,NA,NA,"",   753.909E+03,   844.008E+03,   844.008E+03
C:/temp/Job-35.odb,Step-1,Increment      1: Step Time =    1.000,"P-35-1",           630,       4.47264,       70.2083,            0.,NA,NA,"",   653.543E+03,   734.492E+03,   734.492E+03
C:/temp/Job-35.odb,Step-1,Increment      1: Step Time =    1.000,"P-35-1",           631,       4.84446,       80.0748,            0.,NA,NA,"",   560.553E+03,   634.082E+03,   634.082E+03
C:/temp/Job-35.odb,Step-1,Increment      1: Step Time =    1.000,"P-35-1",           632,       5.03705,       90.0045,            0.,NA,NA,"",   491.169E+03,   559.770E+03,   559.770E+03
C:/temp/Job-35.odb,Step-1,Increment      1: Step Time =    1.000,"P-35-1",           633,       5.00391,       100.009,            0.,NA,NA,"",   464.309E+03,   530.905E+03,   530.905E+03
C:/temp/Job-35.odb,Step-1,Increment      1: Step Time =    1.000,"P-35-1",           634,       5.01023,       110.019,            0.,NA,NA,"",   491.346E+03,   559.932E+03,   559.932E+03
C:/temp/Job-35.odb,Step-1,Increment      1: Step Time =    1.000,"P-35-1",           635,       4.95414,       119.971,            0.,NA,NA,"",    560.54E+03,   634.046E+03,   634.046E+03
C:/temp/Job-35.odb,Step-1,Increment      1: Step Time =    1.000,"P-35-1",           636,       4.86067,       129.897,            0.,NA,NA,"",   653.929E+03,   734.536E+03,   734.536E+03
C:/temp/Job-35.odb,Step-1,Increment      1: Step Time =    1.000,"P-35-1",           637,       4.88658,       139.848,            0.,NA,NA,"",   758.860E+03,   848.148E+03,   848.148E+03
C:/temp/Job-35.odb,Step-1,Increment      1: Step Time =    1.000,"P-35-1",           638,       5.00848,       149.777,            0.,NA,NA,"",   864.323E+03,   962.631E+03,   962.631E+03
C:/temp/Job-35.odb,Step-1,Increment      1: Step Time =    1.000,"P-35-1",           639,       5.00535,       159.687,            0.,NA,NA,"",   968.373E+03,   1.07524E+06,   1.07524E+06
C:/temp/Job-35.odb,Step-1,Increment      1: Step Time =    1.000,"P-35-1",           640,       4.99955,       169.674,            0.,NA,NA,"",   1.07991E+06,   1.19334E+06,   1.19334E+06
C:/temp/Job-35.odb,Step-1,Increment      1: Step Time =    1.000,"P-35-1",           641,       5.33544,       179.722,            0.,NA,NA,"",   1.22365E+06,   1.33804E+06,   1.33804E+06
C:/temp/Job-35.odb,Step-1,Increment      1: Step Time =    1.000,"P-35-1",           642,       5.14287,       189.892,            0.,NA,NA,"",   1.46425E+06,   1.56576E+06,   1.56576E+06
C:/temp/Job-35.odb,Step-1,Increment      1: Step Time =    1.000,"P-35-1",           643,       136.185,       89.6536,            0.,NA,NA,"",   745.286E+03,  -613.026E+03,  -613.026E+03
C:/temp/Job-35.odb,Step-1,Increment      1: Step Time =    1.000,"P-35-1",           644,       110.258,       134.728,            0.,NA,NA,"",   2.51114E+06,   2.60880E+06,   2.60880E+06
C:/temp/Job-35.odb,Step-1,Increment      1: Step Time =    1.000,"P-35-1",           645,       65.8397,       82.9686,            0.,NA,NA,"",   599.888E+03,   131.301E+03,   131.301E+03
C:/temp/Job-35.odb,Step-1,Increment      1: Step Time =    1.000,"P-35-1",           646,       133.669,       85.9567,            0.,NA,NA,"",   692.249E+03,  -518.658E+03,  -518.658E+03
C:/temp/Job-35.odb,Step-1,Increment      1: Step Time =    1.000,"P-35-1",           647,       113.720,       133.243,            0.,NA,NA,"",   2.35711E+06,   2.43907E+06,   2.43907E+06
C:/temp/Job-35.odb,Step-1,Increment      1: Step Time =    1.000,"P-35-1",           648,       85.9408,       135.396,            0.,NA,NA,"",   1.98891E+06,   2.06034E+06,   2.06034E+06
C:/temp/Job-35.odb,Step-1,Increment      1: Step Time =    1.000,"P-35-1",           649,       110.922,       64.9082,            0.,NA,NA,"",   2.42782E+06,   2.52870E+06,   2.52870E+06
C:/temp/Job-35.odb,Step-1,Increment      1: Step Time =    1.000,"P-35-1",           650,       66.4508,       113.922,            0.,NA,NA,"",   501.656E+03,  -395.488E+03,  -395.488E+03
C:/temp/Job-35.odb,Step-1,Increment      1: Step Time =    1.000,"P-35-1",           651,       64.8786,       89.0120,            0.,NA,NA,"",   531.701E+03,  -463.919E+03,  -463.919E+03
C:/temp/Job-35.odb,Step-1,Increment      1: Step Time =    1.000,"P-35-1",           652,       85.9632,       66.3212,            0.,NA,NA,"",   2.07935E+06,   2.15248E+06,   2.15248E+06
C:/temp/Job-35.odb,Step-1,Increment      1: Step Time =    1.000,"P-35-1",           653,       116.977,       65.9248,            0.,NA,NA,"",   2.04447E+06,   2.11829E+06,   2.11829E+06
C:/temp/Job-35.odb,Step-1,Increment      1: Step Time =    1.000,"P-35-1",           654,       79.5904,       132.398,            0.,NA,NA,"",   1.63097E+06,   1.64925E+06,   1.64925E+06
C:/temp/Job-35.odb,Step-1,Increment      1: Step Time =    1.000,"P-35-1",           655,       134.362,       116.874,            0.,NA,NA,"",   834.652E+03,   185.043E+03,   185.043E+03
C:/temp/Job-35.odb,Step-1,Increment      1: Step Time =    1.000,"P-35-1",           656,       67.6690,       119.555,            0.,NA,NA,"",   650.621E+03,   331.516E+03,   331.516E+03
C:/temp/Job-35.odb,Step-1,Increment      1: Step Time =    1.000,"P-35-1",           657,       80.5784,       67.9135,            0.,NA,NA,"",   1.69802E+06,   1.72486E+06,   1.72486E+06
C:/temp/Job-35.odb,Step-1,Increment      1: Step Time =    1.000,"P-35-1",           658,       135.236,       110.903,            0.,NA,NA,"",   749.737E+03,  -633.723E+03,  -633.723E+03
C:/temp/Job-35.odb,Step-1,Increment      1: Step Time =    1.000,"P-35-1",           659,       132.117,       80.5586,            0.,NA,NA,"",   866.854E+03,   445.889E+03,   445.889E+03
C:/temp/Job-35.odb,Step-1,Increment      1: Step Time =    1.000,"P-35-1",           660,       119.192,       132.117,            0.,NA,NA,"",   1.94486E+06,   1.99596E+06,   1.99596E+06
C:/temp/Job-35.odb,Step-1,Increment      1: Step Time =    1.000,"P-35-1",           661,       89.6589,       63.7672,            0.,NA,NA,"",   2.18353E+06,   2.28003E+06,   2.28003E+06
C:/temp/Job-35.odb,Step-1,Increment      1: Step Time =    1.000,"P-35-1",           662,       64.0726,       110.137,            0.,NA,NA,"",   521.100E+03,  -449.214E+03,  -449.214E+03
C:/temp/Job-35.odb,Step-1,Increment      1: Step Time =    1.000,"P-35-1",           663,       140.504,       110.967,            0.,NA,NA,"",   739.764E+03,  -223.337E+03,  -223.337E+03
C:/temp/Job-35.odb,Step-1,Increment      1: Step Time =    1.000,"P-35-1",           664,       86.3430,       140.489,            0.,NA,NA,"",   1.81820E+06,   1.89942E+06,   1.89942E+06
C:/temp/Job-35.odb,Step-1,Increment      1: Step Time =    1.000,"P-35-1",           665,       59.7165,       88.8890,            0.,NA,NA,"",   480.616E+03,  -148.865E+03,  -148.865E+03
C:/temp/Job-35.odb,Step-1,Increment      1: Step Time =    1.000,"P-35-1",           666,       111.043,       59.7776,            0.,NA,NA,"",   1.93806E+06,   2.07402E+06,   2.07402E+06
C:/temp/Job-35.odb,Step-1,Increment      1: Step Time =    1.000,"P-35-1",           667,       140.634,       10.2604,            0.,NA,NA,"",   1.00373E+06,   998.200E+03,   998.200E+03
C:/temp/Job-35.odb,Step-1,Increment      1: Step Time =    1.000,"P-35-1",           668,       130.195,       9.95412,            0.,NA,NA,"",   966.299E+03,   965.283E+03,   965.283E+03
C:/temp/Job-35.odb,Step-1,Increment      1: Step Time =    1.000,"P-35-1",           669,       120.062,       10.0402,            0.,NA,NA,"",    929.06E+03,   934.582E+03,   934.582E+03
C:/temp/Job-35.odb,Step-1,Increment      1: Step Time =    1.000,"P-35-1",           670,       109.938,       10.1736,            0.,NA,NA,"",   909.020E+03,   920.459E+03,   920.459E+03
C:/temp/Job-35.odb,Step-1,Increment      1: Step Time =    1.000,"P-35-1",           671,       99.9093,       10.2082,            0.,NA,NA,"",   922.926E+03,   935.146E+03,   935.146E+03
C:/temp/Job-35.odb,Step-1,Increment      1: Step Time =    1.000,"P-35-1",           672,       89.8471,       10.1016,            0.,NA,NA,"",   974.001E+03,   981.523E+03,   981.523E+03
C:/temp/Job-35.odb,Step-1,Increment      1: Step Time =    1.000,"P-35-1",           673,       79.8574,       10.0003,            0.,NA,NA,"",   1.05204E+06,   1.05208E+06,   1.05208E+06
C:/temp/Job-35.odb,Step-1,Increment      1: Step Time =    1.000,"P-35-1",           674,       69.9846,       9.90962,            0.,NA,NA,"",   1.13645E+06,   1.13082E+06,   1.13082E+06
C:/temp/Job-35.odb,Step-1,Increment      1: Step Time =    1.000,"P-35-1",           675,       60.1708,       9.88209,            0.,NA,NA,"",   1.21531E+06,   1.20686E+06,   1.20686E+06
C:/temp/Job-35.odb,Step-1,Increment      1: Step Time =    1.000,"P-35-1",           676,       190.747,       139.982,            0.,NA,NA,"",   939.892E+03,   1.02480E+06,   1.02480E+06
C:/temp/Job-35.odb,Step-1,Increment      1: Step Time =    1.000,"P-35-1",           677,       190.214,       130.247,            0.,NA,NA,"",   912.384E+03,   1.02055E+06,   1.02055E+06
C:/temp/Job-35.odb,Step-1,Increment      1: Step Time =    1.000,"P-35-1",           678,       189.818,       109.885,            0.,NA,NA,"",   844.486E+03,   972.782E+03,   972.782E+03
C:/temp/Job-35.odb,Step-1,Increment      1: Step Time =    1.000,"P-35-1",           679,       190.074,       99.7739,            0.,NA,NA,"",   835.286E+03,   962.933E+03,   962.933E+03
C:/temp/Job-35.odb,Step-1,Increment      1: Step Time =    1.000,"P-35-1",           680,       189.944,       89.7924,            0.,NA,NA,"",   846.558E+03,   975.224E+03,   975.224E+03
C:/temp/Job-35.odb,Step-1,Increment      1: Step Time =    1.000,"P-35-1",           681,       189.878,       79.7681,            0.,NA,NA,"",   876.361E+03,   1.00036E+06,   1.00036E+06
C:/temp/Job-35.odb,Step-1,Increment      1: Step Time =    1.000,"P-35-1",           682,       189.952,       69.8143,            0.,NA,NA,"",   913.028E+03,   1.02028E+06,   1.02028E+06
C:/temp/Job-35.odb,Step-1,Increment      1: Step Time =    1.000,"P-35-1",           683,       190.089,       60.0393,            0.,NA,NA,"",   945.884E+03,   1.02812E+06,   1.02812E+06
C:/temp/Job-35.odb,Step-1,Increment      1: Step Time =    1.000,"P-35-1",           684,       59.9660,       190.429,            0.,NA,NA,"",   1.21526E+06,   1.20706E+06,   1.20706E+06
C:/temp/Job-35.odb,Step-1,Increment      1: Step Time =    1.000,"P-35-1",           685,       69.6660,       190.198,            0.,NA,NA,"",   1.13888E+06,   1.13306E+06,   1.13306E+06
C:/temp/Job-35.odb,Step-1,Increment      1: Step Time =    1.000,"P-35-1",           686,       89.7189,       189.780,            0.,NA,NA,"",   976.835E+03,   984.072E+03,   984.072E+03
C:/temp/Job-35.odb,Step-1,Increment      1: Step Time =    1.000,"P-35-1",           687,       99.7359,       189.795,            0.,NA,NA,"",   923.425E+03,   935.480E+03,   935.480E+03
C:/temp/Job-35.odb,Step-1,Increment      1: Step Time =    1.000,"P-35-1",           688,       109.865,       189.931,            0.,NA,NA,"",   907.422E+03,   918.612E+03,   918.612E+03
C:/temp/Job-35.odb,Step-1,Increment      1: Step Time =    1.000,"P-35-1",           689,       119.953,       190.132,            0.,NA,NA,"",   925.340E+03,   931.128E+03,   931.128E+03
C:/temp/Job-35.odb,Step-1,Increment      1: Step Time =    1.000,"P-35-1",           690,       129.819,       190.245,            0.,NA,NA,"",   961.888E+03,   960.994E+03,   960.994E+03
C:/temp/Job-35.odb,Step-1,Increment      1: Step Time =    1.000,"P-35-1",           691,       8.98255,       70.3159,            0.,NA,NA,"",   659.615E+03,   737.278E+03,   737.278E+03
C:/temp/Job-35.odb,Step-1,Increment      1: Step Time =    1.000,"P-35-1",           692,       9.73468,       79.9955,            0.,NA,NA,"",   558.013E+03,   631.208E+03,   631.208E+03
C:/temp/Job-35.odb,Step-1,Increment      1: Step Time =    1.000,"P-35-1",           693,       10.1373,       90.0423,            0.,NA,NA,"",   477.110E+03,   546.490E+03,   546.490E+03
C:/temp/Job-35.odb,Step-1,Increment      1: Step Time =    1.000,"P-35-1",           694,       9.96498,       100.042,            0.,NA,NA,"",   447.831E+03,   515.129E+03,   515.129E+03
C:/temp/Job-35.odb,Step-1,Increment      1: Step Time =    1.000,"P-35-1",           695,       10.0300,       110.033,            0.,NA,NA,"",   478.140E+03,   547.600E+03,   547.600E+03
C:/temp/Job-35.odb,Step-1,Increment      1: Step Time =    1.000,"P-35-1",           696,       9.98526,       119.925,            0.,NA,NA,"",   555.934E+03,   629.043E+03,   629.043E+03
C:/temp/Job-35.odb,Step-1,Increment      1: Step Time =    1.000,"P-35-1",           697,       9.78947,       129.760,            0.,NA,NA,"",   661.047E+03,   737.713E+03,   737.713E+03
C:/temp/Job-35.odb,Step-1,Increment      1: Step Time =    1.000,"P-35-1",           698,       9.83511,       139.618,            0.,NA,NA,"",   778.640E+03,   859.233E+03,   859.233E+03
C:/temp/Job-35.odb,Step-1,Increment      1: Step Time =    1.000,"P-35-1",           699,       189.721,       120.178,            0.,NA,NA,"",   877.404E+03,   1.00074E+06,   1.00074E+06
C:/temp/Job-35.odb,Step-1,Increment      1: Step Time =    1.000,"P-35-1",           700,       79.6534,       189.950,            0.,NA,NA,"",   1.05401E+06,   1.05423E+06,   1.05423E+06
C:/temp/Job-35.odb,Step-1,Increment      1: Step Time =    1.000,"P-35-1",           701,       139.567,       190.180,            0.,NA,NA,"",   997.581E+03,   992.772E+03,   992.772E+03
C:/temp/Job-35.odb,Step-1,Increment      1: Step Time =    1.000,"P-35-1",           702,       8.66574,       60.8356,            0.,NA,NA,"",   767.829E+03,   850.758E+03,   850.758E+03
C:/temp/Job-35.odb,Step-1,Increment      1: Step Time =    1.000,"P-35-1",           703,       70.8447,       122.665,            0.,NA,NA,"",   781.344E+03,   675.922E+03,   675.922E+03
C:/temp/Job-35.odb,Step-1,Increment      1: Step Time =    1.000,"P-35-1",           704,       77.3951,       70.9893,            0.,NA,NA,"",   1.40910E+06,   1.39670E+06,   1.39670E+06
C:/temp/Job-35.odb,Step-1,Increment      1: Step Time =    1.000,"P-35-1",           705,       129.045,       77.3894,            0.,NA,NA,"",   1.01377E+06,   890.887E+03,   890.887E+03
C:/temp/Job-35.odb,Step-1,Increment      1: Step Time =    1.000,"P-35-1",           706,       122.612,       129.051,            0.,NA,NA,"",   1.69242E+06,   1.69205E+06,   1.69205E+06
C:/temp/Job-35.odb,Step-1,Increment      1: Step Time =    1.000,"P-35-1",           707,       9.94871,       164.407,            0.,NA,NA,"",   1.06593E+06,   1.15779E+06,   1.15779E+06
C:/temp/Job-35.odb,Step-1,Increment      1: Step Time =    1.000,"P-35-1",           708,       163.905,       9.97101,            0.,NA,NA,"",   1.02535E+06,   1.02160E+06,   1.02160E+06
C:/temp/Job-35.odb,Step-1,Increment      1: Step Time =    1.000,"P-35-1",           709,       35.7213,       9.47778,            0.,NA,NA,"",   1.35870E+06,   1.35521E+06,   1.35521E+06
C:/temp/Job-35.odb,Step-1,Increment      1: Step Time =    1.000,"P-35-1",           710,       10.6601,       36.3813,            0.,NA,NA,"",   1.06147E+06,   1.15061E+06,   1.15061E+06
C:/temp/Job-35.odb,Step-1,Increment      1: Step Time =    1.000,"P-35-1",           711,       189.616,       164.519,            0.,NA,NA,"",   999.386E+03,   1.02058E+06,   1.02058E+06
C:/temp/Job-35.odb,Step-1,Increment      1: Step Time =    1.000,"P-35-1",           712,       164.056,       190.238,            0.,NA,NA,"",   1.02550E+06,   1.02172E+06,   1.02172E+06
C:/temp/Job-35.odb,Step-1,Increment      1: Step Time =    1.000,"P-35-1",           713,       35.2612,       189.839,            0.,NA,NA,"",   1.36013E+06,   1.35689E+06,   1.35689E+06
C:/temp/Job-35.odb,Step-1,Increment      1: Step Time =    1.000,"P-35-1",           714,       190.357,       35.9303,            0.,NA,NA,"",   995.451E+03,   1.01836E+06,   1.01836E+06
C:/temp/Job-35.odb,Step-1,Increment      1: Step Time =    1.000,"P-35-1",           715,       60.2787,       14.9256,            0.,NA,NA,"",   1.25470E+06,   1.23879E+06,   1.23879E+06
C:/temp/Job-35.odb,Step-1,Increment      1: Step Time =    1.000,"P-35-1",           716,       13.0285,       61.2488,            0.,NA,NA,"",   784.856E+03,   859.048E+03,   859.048E+03
C:/temp/Job-35.odb,Step-1,Increment      1: Step Time =    1.000,"P-35-1",           717,       185.023,       59.9365,            0.,NA,NA,"",   991.223E+03,   1.05108E+06,   1.05108E+06
C:/temp/Job-35.odb,Step-1,Increment      1: Step Time =    1.000,"P-35-1",           718,       59.8205,       185.344,            0.,NA,NA,"",   1.25535E+06,   1.23953E+06,   1.23953E+06
C:/temp/Job-35.odb,Step-1,Increment      1: Step Time =    1.000,"P-35-1",           719,       140.733,       15.3358,            0.,NA,NA,"",   1.06110E+06,   1.05079E+06,   1.05079E+06
C:/temp/Job-35.odb,Step-1,Increment      1: Step Time =    1.000,"P-35-1",           720,       14.8070,       139.255,            0.,NA,NA,"",   800.870E+03,   870.329E+03,   870.329E+03
C:/temp/Job-35.odb,Step-1,Increment      1: Step Time =    1.000,"P-35-1",           721,       185.876,       140.226,            0.,NA,NA,"",   981.985E+03,   1.04596E+06,   1.04596E+06
C:/temp/Job-35.odb,Step-1,Increment      1: Step Time =    1.000,"P-35-1",           722,       139.231,       185.277,            0.,NA,NA,"",   1.05361E+06,   1.04453E+06,   1.04453E+06
C:/temp/Job-35.odb,Step-1,Increment      1: Step Time =    1.000,"P-35-1",           723,       135.215,       77.0498,            0.,NA,NA,"",   1.26994E+06,   1.00361E+06,   1.00361E+06
C:/temp/Job-35.odb,Step-1,Increment      1: Step Time =    1.000,"P-35-1",           724,       122.613,       135.222,            0.,NA,NA,"",   1.74113E+06,   1.75392E+06,   1.75392E+06
C:/temp/Job-35.odb,Step-1,Increment      1: Step Time =    1.000,"P-35-1",           725,       64.0193,       123.347,            0.,NA,NA,"",   972.688E+03,   785.806E+03,   785.806E+03
C:/temp/Job-35.odb,Step-1,Increment      1: Step Time =    1.000,"P-35-1",           726,       77.1284,       64.8875,            0.,NA,NA,"",   1.58860E+06,   1.56998E+06,   1.56998E+06
C:/temp/Job-35.odb,Step-1,Increment      1: Step Time =    1.000,"P-35-1",           727,       14.8937,       164.265,            0.,NA,NA,"",   1.11210E+06,   1.18254E+06,   1.18254E+06
C:/temp/Job-35.odb,Step-1,Increment      1: Step Time =    1.000,"P-35-1",           728,       163.789,       14.5626,            0.,NA,NA,"",   1.04956E+06,   1.04229E+06,   1.04229E+06
C:/temp/Job-35.odb,Step-1,Increment      1: Step Time =    1.000,"P-35-1",           729,       36.0030,       13.8846,            0.,NA,NA,"",   1.35411E+06,   1.34808E+06,   1.34808E+06
C:/temp/Job-35.odb,Step-1,Increment      1: Step Time =    1.000,"P-35-1",           730,       15.4667,       36.3931,            0.,NA,NA,"",   1.10452E+06,   1.17291E+06,   1.17291E+06
C:/temp/Job-35.odb,Step-1,Increment      1: Step Time =    1.000,"P-35-1",           731,       184.836,       165.206,            0.,NA,NA,"",   1.02244E+06,   1.03738E+06,   1.03738E+06
C:/temp/Job-35.odb,Step-1,Increment      1: Step Time =    1.000,"P-35-1",           732,       163.720,       185.521,            0.,NA,NA,"",   1.04876E+06,   1.04153E+06,   1.04153E+06
C:/temp/Job-35.odb,Step-1,Increment      1: Step Time =    1.000,"P-35-1",           733,       34.9379,       184.947,            0.,NA,NA,"",   1.35421E+06,   1.34924E+06,   1.34924E+06
C:/temp/Job-35.odb,Step-1,Increment      1: Step Time =    1.000,"P-35-1",           734,       185.715,       36.4567,            0.,NA,NA,"",   1.01756E+06,   1.03575E+06,   1.03575E+06
C:/temp/Job-35.odb,Step-1,Increment      1: Step Time =    1.000,"P-35-1",           735,       67.4372,       126.891,            0.,NA,NA,"",   1.15450E+06,   1.00106E+06,   1.00106E+06
C:/temp/Job-35.odb,Step-1,Increment      1: Step Time =    1.000,"P-35-1",           736,       74.0550,       67.7538,            0.,NA,NA,"",   1.46065E+06,   1.39799E+06,   1.39799E+06
C:/temp/Job-35.odb,Step-1,Increment      1: Step Time =    1.000,"P-35-1",           737,       132.342,       73.9884,            0.,NA,NA,"",   1.39048E+06,   1.18601E+06,   1.18601E+06
C:/temp/Job-35.odb,Step-1,Increment      1: Step Time =    1.000,"P-35-1",           738,       126.119,       132.419,            0.,NA,NA,"",   1.65054E+06,   1.59503E+06,   1.59503E+06
C:/temp/Job-35.odb,Step-1,Increment      1: Step Time =    1.000,"P-35-1",           739,       13.5136,       70.3353,            0.,NA,NA,"",   670.548E+03,   742.986E+03,   742.986E+03
C:/temp/Job-35.odb,Step-1,Increment      1: Step Time =    1.000,"P-35-1",           740,       130.176,       14.6544,            0.,NA,NA,"",   1.03009E+06,   1.02860E+06,   1.02860E+06
C:/temp/Job-35.odb,Step-1,Increment      1: Step Time =    1.000,"P-35-1",           741,       69.9883,       14.9871,            0.,NA,NA,"",   1.19347E+06,   1.18344E+06,   1.18344E+06
C:/temp/Job-35.odb,Step-1,Increment      1: Step Time =    1.000,"P-35-1",           742,       14.8229,       129.594,            0.,NA,NA,"",   673.306E+03,   743.619E+03,   743.619E+03
C:/temp/Job-35.odb,Step-1,Increment      1: Step Time =    1.000,"P-35-1",           743,       69.4514,       185.297,            0.,NA,NA,"",   1.19527E+06,   1.18490E+06,   1.18490E+06
C:/temp/Job-35.odb,Step-1,Increment      1: Step Time =    1.000,"P-35-1",           744,       185.247,       130.405,            0.,NA,NA,"",   947.886E+03,   1.03325E+06,   1.03325E+06
C:/temp/Job-35.odb,Step-1,Increment      1: Step Time =    1.000,"P-35-1",           745,       184.780,       69.6347,            0.,NA,NA,"",   951.315E+03,   1.03388E+06,   1.03388E+06
C:/temp/Job-35.odb,Step-1,Increment      1: Step Time =    1.000,"P-35-1",           746,       129.708,       185.323,            0.,NA,NA,"",   1.02721E+06,   1.02616E+06,   1.02616E+06
C:/temp/Job-35.odb,Step-1,Increment      1: Step Time =    1.000,"P-35-1",           747,       14.4412,       79.5708,            0.,NA,NA,"",   563.075E+03,   634.064E+03,   634.064E+03
C:/temp/Job-35.odb,Step-1,Increment      1: Step Time =    1.000,"P-35-1",           748,       120.144,       15.0388,            0.,NA,NA,"",   1.00037E+06,   1.01122E+06,   1.01122E+06
C:/temp/Job-35.odb,Step-1,Increment      1: Step Time =    1.000,"P-35-1",           749,       79.7957,       15.1074,            0.,NA,NA,"",   1.12038E+06,   1.12175E+06,   1.12175E+06
C:/temp/Job-35.odb,Step-1,Increment      1: Step Time =    1.000,"P-35-1",           750,       15.1825,       119.834,            0.,NA,NA,"",   554.297E+03,   624.751E+03,   624.751E+03
C:/temp/Job-35.odb,Step-1,Increment      1: Step Time =    1.000,"P-35-1",           751,       184.608,       120.429,            0.,NA,NA,"",   892.900E+03,   997.084E+03,   997.084E+03
C:/temp/Job-35.odb,Step-1,Increment      1: Step Time =    1.000,"P-35-1",           752,       79.3728,       184.946,            0.,NA,NA,"",   1.12344E+06,   1.12448E+06,   1.12448E+06
C:/temp/Job-35.odb,Step-1,Increment      1: Step Time =    1.000,"P-35-1",           753,       184.712,       79.6317,            0.,NA,NA,"",   889.331E+03,   994.296E+03,   994.296E+03
C:/temp/Job-35.odb,Step-1,Increment      1: Step Time =    1.000,"P-35-1",           754,       119.949,       185.319,            0.,NA,NA,"",   994.937E+03,   1.00658E+06,   1.00658E+06
C:/temp/Job-35.odb,Step-1,Increment      1: Step Time =    1.000,"P-35-1",           755,       15.2098,       90.2756,            0.,NA,NA,"",   462.899E+03,   530.976E+03,   530.976E+03
C:/temp/Job-35.odb,Step-1,Increment      1: Step Time =    1.000,"P-35-1",           756,       109.910,       15.3806,            0.,NA,NA,"",   983.239E+03,   1.00573E+06,   1.00573E+06
C:/temp/Job-35.odb,Step-1,Increment      1: Step Time =    1.000,"P-35-1",           757,       89.7543,       15.2115,            0.,NA,NA,"",   1.04754E+06,   1.06273E+06,   1.06273E+06
C:/temp/Job-35.odb,Step-1,Increment      1: Step Time =    1.000,"P-35-1",           758,       15.0908,       109.988,            0.,NA,NA,"",   466.254E+03,   534.589E+03,   534.589E+03
C:/temp/Job-35.odb,Step-1,Increment      1: Step Time =    1.000,"P-35-1",           759,       185.012,       109.400,            0.,NA,NA,"",   824.440E+03,   943.412E+03,   943.412E+03
C:/temp/Job-35.odb,Step-1,Increment      1: Step Time =    1.000,"P-35-1",           760,       89.5550,       184.535,            0.,NA,NA,"",   1.05120E+06,   1.06605E+06,   1.06605E+06
C:/temp/Job-35.odb,Step-1,Increment      1: Step Time =    1.000,"P-35-1",           761,       184.891,       89.7092,            0.,NA,NA,"",   829.146E+03,   947.374E+03,   947.374E+03
C:/temp/Job-35.odb,Step-1,Increment      1: Step Time =    1.000,"P-35-1",           762,       109.867,       184.991,            0.,NA,NA,"",   978.445E+03,   999.768E+03,   999.768E+03
C:/temp/Job-35.odb,Step-1,Increment      1: Step Time =    1.000,"P-35-1",           763,       99.8130,       15.4843,            0.,NA,NA,"",   996.812E+03,   1.02103E+06,   1.02103E+06
C:/temp/Job-35.odb,Step-1,Increment      1: Step Time =    1.000,"P-35-1",           764,       14.8576,       100.102,            0.,NA,NA,"",   432.416E+03,   498.468E+03,   498.468E+03
C:/temp/Job-35.odb,Step-1,Increment      1: Step Time =    1.000,"P-35-1",           765,       185.232,       99.6134,            0.,NA,NA,"",   805.466E+03,   926.727E+03,   926.727E+03
C:/temp/Job-35.odb,Step-1,Increment      1: Step Time =    1.000,"P-35-1",           766,       99.6409,       184.649,            0.,NA,NA,"",   996.448E+03,   1.02019E+06,   1.02019E+06
C:/temp/Job-35.odb,Step-1,Increment      1: Step Time =    1.000,"P-35-1",           767,       141.164,       75.7862,            0.,NA,NA,"",   1.34340E+06,   1.07766E+06,   1.07766E+06
C:/temp/Job-35.odb,Step-1,Increment      1: Step Time =    1.000,"P-35-1",           768,       123.561,       141.194,            0.,NA,NA,"",   1.67929E+06,   1.68201E+06,   1.68201E+06
C:/temp/Job-35.odb,Step-1,Increment      1: Step Time =    1.000,"P-35-1",           769,       57.0587,       122.565,            0.,NA,NA,"",   905.296E+03,   745.929E+03,   745.929E+03
C:/temp/Job-35.odb,Step-1,Increment      1: Step Time =    1.000,"P-35-1",           770,       76.0760,       59.0793,            0.,NA,NA,"",   1.60689E+06,   1.57672E+06,   1.57672E+06
C:/temp/Job-35.odb,Step-1,Increment      1: Step Time =    1.000,"P-35-1",           771,       65.1089,       14.9136,            0.,NA,NA,"",   1.22561E+06,   1.21190E+06,   1.21190E+06
C:/temp/Job-35.odb,Step-1,Increment      1: Step Time =    1.000,"P-35-1",           772,       13.1749,       65.7705,            0.,NA,NA,"",   727.896E+03,   801.158E+03,   801.158E+03
C:/temp/Job-35.odb,Step-1,Increment      1: Step Time =    1.000,"P-35-1",           773,       184.878,       64.7323,            0.,NA,NA,"",   974.789E+03,   1.04553E+06,   1.04553E+06
C:/temp/Job-35.odb,Step-1,Increment      1: Step Time =    1.000,"P-35-1",           774,       64.6213,       185.293,            0.,NA,NA,"",   1.22779E+06,   1.21375E+06,   1.21375E+06
C:/temp/Job-35.odb,Step-1,Increment      1: Step Time =    1.000,"P-35-1",           775,       14.7414,       134.392,            0.,NA,NA,"",   735.939E+03,   806.012E+03,   806.012E+03
C:/temp/Job-35.odb,Step-1,Increment      1: Step Time =    1.000,"P-35-1",           776,       135.317,       14.8625,            0.,NA,NA,"",   1.04692E+06,   1.04023E+06,   1.04023E+06
C:/temp/Job-35.odb,Step-1,Increment      1: Step Time =    1.000,"P-35-1",           777,       185.469,       135.361,            0.,NA,NA,"",   968.635E+03,   1.04269E+06,   1.04269E+06
C:/temp/Job-35.odb,Step-1,Increment      1: Step Time =    1.000,"P-35-1",           778,       134.483,       185.342,            0.,NA,NA,"",   1.04144E+06,   1.03585E+06,   1.03585E+06
C:/temp/Job-35.odb,Step-1,Increment      1: Step Time =    1.000,"P-35-1",           779,       14.8360,       169.127,            0.,NA,NA,"",   1.16865E+06,   1.23929E+06,   1.23929E+06
C:/temp/Job-35.odb,Step-1,Increment      1: Step Time =    1.000,"P-35-1",           780,       168.504,       18.8001,            0.,NA,NA,"",   1.06030E+06,   1.05271E+06,   1.05271E+06
C:/temp/Job-35.odb,Step-1,Increment      1: Step Time =    1.000,"P-35-1",           781,       31.1576,       13.8713,            0.,NA,NA,"",   1.37147E+06,   1.37044E+06,   1.37044E+06
C:/temp/Job-35.odb,Step-1,Increment      1: Step Time =    1.000,"P-35-1",           782,       15.4866,       32.1403,            0.,NA,NA,"",   1.15592E+06,   1.22351E+06,   1.22351E+06
C:/temp/Job-35.odb,Step-1,Increment      1: Step Time =    1.000,"P-35-1",           783,       181.323,       170.218,            0.,NA,NA,"",   1.03678E+06,   1.04299E+06,   1.04299E+06
C:/temp/Job-35.odb,Step-1,Increment      1: Step Time =    1.000,"P-35-1",           784,       168.397,       185.731,            0.,NA,NA,"",   1.03989E+06,   1.03515E+06,   1.03515E+06
C:/temp/Job-35.odb,Step-1,Increment      1: Step Time =    1.000,"P-35-1",           785,       185.610,       31.9051,            0.,NA,NA,"",   1.01773E+06,   1.03073E+06,   1.03073E+06
C:/temp/Job-35.odb,Step-1,Increment      1: Step Time =    1.000,"P-35-1",           786,       30.3894,       184.753,            0.,NA,NA,"",   1.36830E+06,   1.36854E+06,   1.36854E+06
C:/temp/Job-35.odb,Step-1,Increment      1: Step Time =    1.000,"P-35-1",           787,       130.883,       129.641,            0.,NA,NA,"",   1.53049E+06,   1.37476E+06,   1.37476E+06
C:/temp/Job-35.odb,Step-1,Increment      1: Step Time =    1.000,"P-35-1",           788,       130.039,       69.2822,            0.,NA,NA,"",   1.57538E+06,   1.44343E+06,   1.44343E+06
C:/temp/Job-35.odb,Step-1,Increment      1: Step Time =    1.000,"P-35-1",           789,       72.1085,       130.364,            0.,NA,NA,"",   1.35284E+06,   1.26288E+06,   1.26288E+06
C:/temp/Job-35.odb,Step-1,Increment      1: Step Time =    1.000,"P-35-1",           790,       69.3052,       70.0062,            0.,NA,NA,"",   1.30012E+06,   1.17542E+06,   1.17542E+06
C:/temp/Job-35.odb,Step-1,Increment      1: Step Time =    1.000,"P-35-1",           791,       15.0345,       124.720,            0.,NA,NA,"",   611.907E+03,   682.381E+03,   682.381E+03
C:/temp/Job-35.odb,Step-1,Increment      1: Step Time =    1.000,"P-35-1",           792,       125.184,       14.7970,            0.,NA,NA,"",   1.01417E+06,   1.01862E+06,   1.01862E+06
C:/temp/Job-35.odb,Step-1,Increment      1: Step Time =    1.000,"P-35-1",           793,       13.9192,       74.9204,            0.,NA,NA,"",   616.067E+03,   687.871E+03,   687.871E+03
C:/temp/Job-35.odb,Step-1,Increment      1: Step Time =    1.000,"P-35-1",           794,       74.8805,       15.0694,            0.,NA,NA,"",   1.15802E+06,   1.15312E+06,   1.15312E+06
C:/temp/Job-35.odb,Step-1,Increment      1: Step Time =    1.000,"P-35-1",           795,       74.3711,       185.153,            0.,NA,NA,"",   1.16014E+06,   1.15472E+06,   1.15472E+06
C:/temp/Job-35.odb,Step-1,Increment      1: Step Time =    1.000,"P-35-1",           796,       184.712,       74.6161,            0.,NA,NA,"",   921.963E+03,   1.01640E+06,   1.01640E+06
C:/temp/Job-35.odb,Step-1,Increment      1: Step Time =    1.000,"P-35-1",           797,       184.999,       125.434,            0.,NA,NA,"",   922.832E+03,   1.01878E+06,   1.01878E+06
C:/temp/Job-35.odb,Step-1,Increment      1: Step Time =    1.000,"P-35-1",           798,       124.851,       185.304,            0.,NA,NA,"",   1.01124E+06,   1.01608E+06,   1.01608E+06
C:/temp/Job-35.odb,Step-1,Increment      1: Step Time =    1.000,"P-35-1",           799,       84.7631,       15.1706,            0.,NA,NA,"",   1.08291E+06,   1.09107E+06,   1.09107E+06
C:/temp/Job-35.odb,Step-1,Increment      1: Step Time =    1.000,"P-35-1",           800,       15.2363,       114.918,            0.,NA,NA,"",   505.212E+03,   575.010E+03,   575.010E+03
C:/temp/Job-35.odb,Step-1,Increment      1: Step Time =    1.000,"P-35-1",           801,       15.8583,       84.8836,            0.,NA,NA,"",   507.153E+03,   576.395E+03,   576.395E+03
C:/temp/Job-35.odb,Step-1,Increment      1: Step Time =    1.000,"P-35-1",           802,       115.017,       15.2316,            0.,NA,NA,"",   988.941E+03,   1.00646E+06,   1.00646E+06
C:/temp/Job-35.odb,Step-1,Increment      1: Step Time =    1.000,"P-35-1",           803,       184.752,       84.6613,            0.,NA,NA,"",   856.826E+03,   969.993E+03,   969.993E+03
C:/temp/Job-35.odb,Step-1,Increment      1: Step Time =    1.000,"P-35-1",           804,       114.939,       185.168,            0.,NA,NA,"",   983.293E+03,   1.00036E+06,   1.00036E+06
C:/temp/Job-35.odb,Step-1,Increment      1: Step Time =    1.000,"P-35-1",           805,       183.761,       114.839,            0.,NA,NA,"",   852.873E+03,   961.952E+03,   961.952E+03
C:/temp/Job-35.odb,Step-1,Increment      1: Step Time =    1.000,"P-35-1",           806,       84.4735,       184.714,            0.,NA,NA,"",   1.08594E+06,   1.09431E+06,   1.09431E+06
C:/temp/Job-35.odb,Step-1,Increment      1: Step Time =    1.000,"P-35-1",           807,       94.8206,       15.3513,            0.,NA,NA,"",   1.01735E+06,   1.03848E+06,   1.03848E+06
C:/temp/Job-35.odb,Step-1,Increment      1: Step Time =    1.000,"P-35-1",           808,       14.9067,       105.010,            0.,NA,NA,"",   440.642E+03,   507.375E+03,   507.375E+03
C:/temp/Job-35.odb,Step-1,Increment      1: Step Time =    1.000,"P-35-1",           809,       185.062,       94.6982,            0.,NA,NA,"",   811.207E+03,   931.693E+03,   931.693E+03
C:/temp/Job-35.odb,Step-1,Increment      1: Step Time =    1.000,"P-35-1",           810,       104.757,       184.821,            0.,NA,NA,"",   981.956E+03,   1.00605E+06,   1.00605E+06
C:/temp/Job-35.odb,Step-1,Increment      1: Step Time =    1.000,"P-35-1",           811,       104.848,       15.5102,            0.,NA,NA,"",   985.881E+03,   1.01054E+06,   1.01054E+06
C:/temp/Job-35.odb,Step-1,Increment      1: Step Time =    1.000,"P-35-1",           812,       14.9586,       95.2392,            0.,NA,NA,"",   439.739E+03,   506.410E+03,   506.410E+03
C:/temp/Job-35.odb,Step-1,Increment      1: Step Time =    1.000,"P-35-1",           813,       185.294,       104.453,            0.,NA,NA,"",   810.367E+03,   931.623E+03,   931.623E+03
C:/temp/Job-35.odb,Step-1,Increment      1: Step Time =    1.000,"P-35-1",           814,       94.5839,       184.516,            0.,NA,NA,"",   1.02068E+06,   1.04092E+06,   1.04092E+06
C:/temp/Job-35.odb,Step-1,Increment      1: Step Time =    1.000,"P-35-1",           815,       59.5209,       94.0321,            0.,NA,NA,"",   369.130E+03,  -320.117E+03,  -320.117E+03
C:/temp/Job-35.odb,Step-1,Increment      1: Step Time =    1.000,"P-35-1",           816,       105.949,       59.4540,            0.,NA,NA,"",   2.03637E+06,   2.19281E+06,   2.19281E+06
C:/temp/Job-35.odb,Step-1,Increment      1: Step Time =    1.000,"P-35-1",           817,       95.2373,       140.549,            0.,NA,NA,"",   2.00923E+06,   2.15922E+06,   2.15922E+06
C:/temp/Job-35.odb,Step-1,Increment      1: Step Time =    1.000,"P-35-1",           818,       140.718,       105.920,            0.,NA,NA,"",   571.482E+03,  -470.019E+03,  -470.019E+03
C:/temp/Job-35.odb,Step-1,Increment      1: Step Time =    1.000,"P-35-1",           819,       132.565,       135.005,            0.,NA,NA,"",   1.63575E+06,   1.49117E+06,   1.49117E+06
C:/temp/Job-35.odb,Step-1,Increment      1: Step Time =    1.000,"P-35-1",           820,       135.628,       68.6756,            0.,NA,NA,"",   1.57120E+06,   1.36898E+06,   1.36898E+06
C:/temp/Job-35.odb,Step-1,Increment      1: Step Time =    1.000,"P-35-1",           821,       68.9126,       64.5283,            0.,NA,NA,"",   1.47041E+06,   1.35759E+06,   1.35759E+06
C:/temp/Job-35.odb,Step-1,Increment      1: Step Time =    1.000,"P-35-1",           822,       62.7676,       131.350,            0.,NA,NA,"",   1.27399E+06,   1.12395E+06,   1.12395E+06
C:/temp/Job-35.odb,Step-1,Increment      1: Step Time =    1.000,"P-35-1",           823,       115.660,       54.5294,            0.,NA,NA,"",   1.64271E+06,   1.74078E+06,   1.74078E+06
C:/temp/Job-35.odb,Step-1,Increment      1: Step Time =    1.000,"P-35-1",           824,       54.1938,       84.3576,            0.,NA,NA,"",   622.363E+03,   485.420E+03,   485.420E+03
C:/temp/Job-35.odb,Step-1,Increment      1: Step Time =    1.000,"P-35-1",           825,       82.8516,       140.525,            0.,NA,NA,"",   1.75344E+06,   1.80427E+06,   1.80427E+06
C:/temp/Job-35.odb,Step-1,Increment      1: Step Time =    1.000,"P-35-1",           826,       146.031,       115.414,            0.,NA,NA,"",   944.946E+03,   702.068E+03,   702.068E+03
C:/temp/Job-35.odb,Step-1,Increment      1: Step Time =    1.000,"P-35-1",           827,       109.986,       20.6900,            0.,NA,NA,"",   1.04836E+06,   1.08406E+06,   1.08406E+06
C:/temp/Job-35.odb,Step-1,Increment      1: Step Time =    1.000,"P-35-1",           828,       20.0727,       91.0109,            0.,NA,NA,"",   445.993E+03,   511.441E+03,   511.441E+03
C:/temp/Job-35.odb,Step-1,Increment      1: Step Time =    1.000,"P-35-1",           829,       180.699,       108.402,            0.,NA,NA,"",   798.470E+03,   904.222E+03,   904.222E+03
C:/temp/Job-35.odb,Step-1,Increment      1: Step Time =    1.000,"P-35-1",           830,       89.3378,       179.044,            0.,NA,NA,"",   1.11884E+06,   1.14390E+06,   1.14390E+06
C:/temp/Job-35.odb,Step-1,Increment      1: Step Time =    1.000,"P-35-1",           831,       99.6873,       21.0294,            0.,NA,NA,"",   1.06253E+06,   1.10251E+06,   1.10251E+06
C:/temp/Job-35.odb,Step-1,Increment      1: Step Time =    1.000,"P-35-1",           832,       19.6881,       100.195,            0.,NA,NA,"",   414.745E+03,   478.430E+03,   478.430E+03
C:/temp/Job-35.odb,Step-1,Increment      1: Step Time =    1.000,"P-35-1",           833,       180.397,       99.5433,            0.,NA,NA,"",   770.777E+03,   879.541E+03,   879.541E+03
C:/temp/Job-35.odb,Step-1,Increment      1: Step Time =    1.000,"P-35-1",           834,       99.6906,       179.451,            0.,NA,NA,"",   1.05814E+06,   1.09634E+06,   1.09634E+06
C:/temp/Job-35.odb,Step-1,Increment      1: Step Time =    1.000,"P-35-1",           835,       60.4274,       19.9329,            0.,NA,NA,"",   1.29643E+06,   1.27195E+06,   1.27195E+06
C:/temp/Job-35.odb,Step-1,Increment      1: Step Time =    1.000,"P-35-1",           836,       17.5804,       57.5761,            0.,NA,NA,"",   862.320E+03,   924.320E+03,   924.320E+03
C:/temp/Job-35.odb,Step-1,Increment      1: Step Time =    1.000,"P-35-1",           837,       59.7077,       180.119,            0.,NA,NA,"",   1.29798E+06,   1.27346E+06,   1.27346E+06
C:/temp/Job-35.odb,Step-1,Increment      1: Step Time =    1.000,"P-35-1",           838,       179.921,       59.6432,            0.,NA,NA,"",   1.04403E+06,   1.07662E+06,   1.07662E+06
C:/temp/Job-35.odb,Step-1,Increment      1: Step Time =    1.000,"P-35-1",           839,       140.150,       20.2570,            0.,NA,NA,"",   1.11778E+06,   1.10275E+06,   1.10275E+06
C:/temp/Job-35.odb,Step-1,Increment      1: Step Time =    1.000,"P-35-1",           840,       19.6533,       138.731,            0.,NA,NA,"",   825.627E+03,   882.108E+03,   882.108E+03
C:/temp/Job-35.odb,Step-1,Increment      1: Step Time =    1.000,"P-35-1",           841,       180.391,       141.181,            0.,NA,NA,"",   1.03921E+06,   1.07330E+06,   1.07330E+06
C:/temp/Job-35.odb,Step-1,Increment      1: Step Time =    1.000,"P-35-1",           842,       138.825,       180.470,            0.,NA,NA,"",   1.10991E+06,   1.09627E+06,   1.09627E+06
C:/temp/Job-35.odb,Step-1,Increment      1: Step Time =    1.000,"P-35-1",           843,       19.4952,       164.275,            0.,NA,NA,"",   1.15309E+06,   1.20296E+06,   1.20296E+06
C:/temp/Job-35.odb,Step-1,Increment      1: Step Time =    1.000,"P-35-1",           844,       163.712,       19.1304,            0.,NA,NA,"",   1.07530E+06,   1.06395E+06,   1.06395E+06
C:/temp/Job-35.odb,Step-1,Increment      1: Step Time =    1.000,"P-35-1",           845,       14.4460,       173.514,            0.,NA,NA,"",   1.22205E+06,   1.29012E+06,   1.29012E+06
C:/temp/Job-35.odb,Step-1,Increment      1: Step Time =    1.000,"P-35-1",           846,       20.0499,       32.9956,            0.,NA,NA,"",   1.18790E+06,   1.23392E+06,   1.23392E+06
C:/temp/Job-35.odb,Step-1,Increment      1: Step Time =    1.000,"P-35-1",           847,       36.0313,       18.0395,            0.,NA,NA,"",   1.34936E+06,   1.34078E+06,   1.34078E+06
C:/temp/Job-35.odb,Step-1,Increment      1: Step Time =    1.000,"P-35-1",           848,       26.1745,       14.2344,            0.,NA,NA,"",   1.38729E+06,   1.39447E+06,   1.39447E+06
C:/temp/Job-35.odb,Step-1,Increment      1: Step Time =    1.000,"P-35-1",           849,       16.2377,       27.9293,            0.,NA,NA,"",   1.21666E+06,   1.27779E+06,   1.27779E+06
C:/temp/Job-35.odb,Step-1,Increment      1: Step Time =    1.000,"P-35-1",           850,       180.368,       166.188,            0.,NA,NA,"",   1.04880E+06,   1.05513E+06,   1.05513E+06
C:/temp/Job-35.odb,Step-1,Increment      1: Step Time =    1.000,"P-35-1",           851,       163.722,       180.917,            0.,NA,NA,"",   1.07459E+06,   1.06323E+06,   1.06323E+06
C:/temp/Job-35.odb,Step-1,Increment      1: Step Time =    1.000,"P-35-1",           852,       173.150,       185.441,            0.,NA,NA,"",   1.03139E+06,   1.02917E+06,   1.02917E+06
C:/temp/Job-35.odb,Step-1,Increment      1: Step Time =    1.000,"P-35-1",           853,       25.5590,       184.255,            0.,NA,NA,"",   1.37846E+06,   1.38856E+06,   1.38856E+06
C:/temp/Job-35.odb,Step-1,Increment      1: Step Time =    1.000,"P-35-1",           854,       185.074,       27.1408,            0.,NA,NA,"",   1.01845E+06,   1.02684E+06,   1.02684E+06
C:/temp/Job-35.odb,Step-1,Increment      1: Step Time =    1.000,"P-35-1",           855,       181.190,       37.0104,            0.,NA,NA,"",   1.04767E+06,   1.05747E+06,   1.05747E+06
C:/temp/Job-35.odb,Step-1,Increment      1: Step Time =    1.000,"P-35-1",           856,       35.0244,       180.100,            0.,NA,NA,"",   1.34490E+06,   1.33755E+06,   1.33755E+06
C:/temp/Job-35.odb,Step-1,Increment      1: Step Time =    1.000,"P-35-1",           857,       130.058,       121.639,            0.,NA,NA,"",   977.704E+03,   819.675E+03,   819.675E+03
C:/temp/Job-35.odb,Step-1,Increment      1: Step Time =    1.000,"P-35-1",           858,       121.799,       70.1076,            0.,NA,NA,"",   1.74925E+06,   1.76648E+06,   1.76648E+06
C:/temp/Job-35.odb,Step-1,Increment      1: Step Time =    1.000,"P-35-1",           859,       77.2472,       128.822,            0.,NA,NA,"",   1.39279E+06,   1.38359E+06,   1.38359E+06
C:/temp/Job-35.odb,Step-1,Increment      1: Step Time =    1.000,"P-35-1",           860,       70.0528,       78.1927,            0.,NA,NA,"",   739.033E+03,   613.413E+03,   613.413E+03
C:/temp/Job-35.odb,Step-1,Increment      1: Step Time =    1.000,"P-35-1",           861,       130.101,       18.9280,            0.,NA,NA,"",   1.08746E+06,   1.08532E+06,   1.08532E+06
C:/temp/Job-35.odb,Step-1,Increment      1: Step Time =    1.000,"P-35-1",           862,       20.0231,       129.477,            0.,NA,NA,"",   693.358E+03,   754.030E+03,   754.030E+03
C:/temp/Job-35.odb,Step-1,Increment      1: Step Time =    1.000,"P-35-1",           863,       69.2845,       180.579,            0.,NA,NA,"",   1.24944E+06,   1.23430E+06,   1.23430E+06
C:/temp/Job-35.odb,Step-1,Increment      1: Step Time =    1.000,"P-35-1",           864,       18.0971,       70.2853,            0.,NA,NA,"",   689.148E+03,   753.813E+03,   753.813E+03
C:/temp/Job-35.odb,Step-1,Increment      1: Step Time =    1.000,"P-35-1",           865,       69.9345,       20.1544,            0.,NA,NA,"",   1.25042E+06,   1.23568E+06,   1.23568E+06
C:/temp/Job-35.odb,Step-1,Increment      1: Step Time =    1.000,"P-35-1",           866,       180.292,       130.436,            0.,NA,NA,"",   987.077E+03,   1.04470E+06,   1.04470E+06
C:/temp/Job-35.odb,Step-1,Increment      1: Step Time =    1.000,"P-35-1",           867,       129.595,       180.287,            0.,NA,NA,"",   1.09396E+06,   1.09298E+06,   1.09298E+06
C:/temp/Job-35.odb,Step-1,Increment      1: Step Time =    1.000,"P-35-1",           868,       179.507,       69.3622,            0.,NA,NA,"",   998.306E+03,   1.04892E+06,   1.04892E+06
C:/temp/Job-35.odb,Step-1,Increment      1: Step Time =    1.000,"P-35-1",           869,       19.0092,       82.2588,            0.,NA,NA,"",   532.756E+03,   599.742E+03,   599.742E+03
C:/temp/Job-35.odb,Step-1,Increment      1: Step Time =    1.000,"P-35-1",           870,       120.352,       19.9899,            0.,NA,NA,"",   1.06629E+06,   1.08335E+06,   1.08335E+06
C:/temp/Job-35.odb,Step-1,Increment      1: Step Time =    1.000,"P-35-1",           871,       178.891,       117.088,            0.,NA,NA,"",   874.136E+03,   957.486E+03,   957.486E+03
C:/temp/Job-35.odb,Step-1,Increment      1: Step Time =    1.000,"P-35-1",           872,       78.9532,       180.026,            0.,NA,NA,"",   1.18775E+06,   1.18963E+06,   1.18963E+06
C:/temp/Job-35.odb,Step-1,Increment      1: Step Time =    1.000,"P-35-1",           873,       59.2753,       99.1470,            0.,NA,NA,"",   320.803E+03,  -314.227E+03,  -314.227E+03
C:/temp/Job-35.odb,Step-1,Increment      1: Step Time =    1.000,"P-35-1",           874,       54.4716,       88.9932,            0.,NA,NA,"",   458.879E+03,   216.375E+03,   216.375E+03
C:/temp/Job-35.odb,Step-1,Increment      1: Step Time =    1.000,"P-35-1",           875,       100.839,       59.0870,            0.,NA,NA,"",   2.04767E+06,   2.20884E+06,   2.20884E+06
C:/temp/Job-35.odb,Step-1,Increment      1: Step Time =    1.000,"P-35-1",           876,       111.069,       54.5252,            0.,NA,NA,"",   1.66163E+06,   1.79400E+06,   1.79400E+06
C:/temp/Job-35.odb,Step-1,Increment      1: Step Time =    1.000,"P-35-1",           877,       100.407,       140.604,            0.,NA,NA,"",   2.06358E+06,   2.22773E+06,   2.22773E+06
C:/temp/Job-35.odb,Step-1,Increment      1: Step Time =    1.000,"P-35-1",           878,       90.5496,       145.250,            0.,NA,NA,"",   1.70457E+06,   1.82130E+06,   1.82130E+06
C:/temp/Job-35.odb,Step-1,Increment      1: Step Time =    1.000,"P-35-1",           879,       141.012,       100.812,            0.,NA,NA,"",   487.172E+03,  -450.804E+03,  -450.804E+03
C:/temp/Job-35.odb,Step-1,Increment      1: Step Time =    1.000,"P-35-1",           880,       145.884,       110.955,            0.,NA,NA,"",   736.491E+03,   328.546E+03,   328.546E+03
C:/temp/Job-35.odb,Step-1,Increment      1: Step Time =    1.000,"P-35-1",           881,       140.212,       69.6615,            0.,NA,NA,"",   1.50904E+06,   1.28299E+06,   1.28299E+06
C:/temp/Job-35.odb,Step-1,Increment      1: Step Time =    1.000,"P-35-1",           882,       129.073,       139.664,            0.,NA,NA,"",   1.66688E+06,   1.58463E+06,   1.58463E+06
C:/temp/Job-35.odb,Step-1,Increment      1: Step Time =    1.000,"P-35-1",           883,       70.1396,       60.1742,            0.,NA,NA,"",   1.53990E+06,   1.45057E+06,   1.45057E+06
C:/temp/Job-35.odb,Step-1,Increment      1: Step Time =    1.000,"P-35-1",           884,       56.6439,       132.394,            0.,NA,NA,"",   1.20400E+06,   1.06965E+06,   1.06965E+06
C:/temp/Job-35.odb,Step-1,Increment      1: Step Time =    1.000,"P-35-1",           885,       120.369,       58.8221,            0.,NA,NA,"",   1.71312E+06,   1.76333E+06,   1.76333E+06
C:/temp/Job-35.odb,Step-1,Increment      1: Step Time =    1.000,"P-35-1",           886,       58.4652,       79.4975,            0.,NA,NA,"",   833.730E+03,   654.891E+03,   654.891E+03
C:/temp/Job-35.odb,Step-1,Increment      1: Step Time =    1.000,"P-35-1",           887,       77.4084,       139.630,            0.,NA,NA,"",   1.61781E+06,   1.60904E+06,   1.60904E+06
C:/temp/Job-35.odb,Step-1,Increment      1: Step Time =    1.000,"P-35-1",           888,       141.859,       120.234,            0.,NA,NA,"",   1.16971E+06,   885.339E+03,   885.339E+03
C:/temp/Job-35.odb,Step-1,Increment      1: Step Time =    1.000,"P-35-1",           889,       55.4479,       128.487,            0.,NA,NA,"",   1.08899E+06,   950.326E+03,   950.326E+03
C:/temp/Job-35.odb,Step-1,Increment      1: Step Time =    1.000,"P-35-1",           890,       72.4836,       56.7181,            0.,NA,NA,"",   1.56918E+06,   1.50868E+06,   1.50868E+06
C:/temp/Job-35.odb,Step-1,Increment      1: Step Time =    1.000,"P-35-1",           891,       128.167,       144.034,            0.,NA,NA,"",   1.62001E+06,   1.57125E+06,   1.57125E+06
C:/temp/Job-35.odb,Step-1,Increment      1: Step Time =    1.000,"P-35-1",           892,       143.863,       71.8506,            0.,NA,NA,"",   1.41775E+06,   1.18822E+06,   1.18822E+06
C:/temp/Job-35.odb,Step-1,Increment      1: Step Time =    1.000,"P-35-1",           893,       81.6788,       58.0836,            0.,NA,NA,"",   1.67150E+06,   1.71447E+06,   1.71447E+06
C:/temp/Job-35.odb,Step-1,Increment      1: Step Time =    1.000,"P-35-1",           894,       58.2553,       117.007,            0.,NA,NA,"",   676.189E+03,   492.124E+03,   492.124E+03
C:/temp/Job-35.odb,Step-1,Increment      1: Step Time =    1.000,"P-35-1",           895,       141.879,       81.5700,            0.,NA,NA,"",   1.07717E+06,   786.612E+03,   786.612E+03
C:/temp/Job-35.odb,Step-1,Increment      1: Step Time =    1.000,"P-35-1",           896,       117.151,       142.304,            0.,NA,NA,"",   1.72188E+06,   1.80891E+06,   1.80891E+06
C:/temp/Job-35.odb,Step-1,Increment      1: Step Time =    1.000,"P-35-1",           897,       89.6780,       25.7090,            0.,NA,NA,"",   1.17060E+06,   1.20752E+06,   1.20752E+06
C:/temp/Job-35.odb,Step-1,Increment      1: Step Time =    1.000,"P-35-1",           898,       25.1823,       108.926,            0.,NA,NA,"",   431.343E+03,   493.048E+03,   493.048E+03
C:/temp/Job-35.odb,Step-1,Increment      1: Step Time =    1.000,"P-35-1",           899,       174.580,       89.8600,            0.,NA,NA,"",   780.117E+03,   858.883E+03,   858.883E+03
C:/temp/Job-35.odb,Step-1,Increment      1: Step Time =    1.000,"P-35-1",           900,       110.092,       175.518,            0.,NA,NA,"",   1.08989E+06,   1.13584E+06,   1.13584E+06
C:/temp/Job-35.odb,Step-1,Increment      1: Step Time =    1.000,"P-35-1",           901,       74.9375,       135.156,            0.,NA,NA,"",   1.52072E+06,   1.47546E+06,   1.47546E+06
C:/temp/Job-35.odb,Step-1,Increment      1: Step Time =    1.000,"P-35-1",           902,       63.0043,       78.1424,            0.,NA,NA,"",   906.099E+03,   715.110E+03,   715.110E+03
C:/temp/Job-35.odb,Step-1,Increment      1: Step Time =    1.000,"P-35-1",           903,       137.359,       121.755,            0.,NA,NA,"",   1.22541E+06,   943.777E+03,   943.777E+03
C:/temp/Job-35.odb,Step-1,Increment      1: Step Time =    1.000,"P-35-1",           904,       121.755,       63.1806,            0.,NA,NA,"",   1.74524E+06,   1.77173E+06,   1.77173E+06
C:/temp/Job-35.odb,Step-1,Increment      1: Step Time =    1.000,"P-35-1",           905,       23.3406,       79.3156,            0.,NA,NA,"",   578.775E+03,   638.561E+03,   638.561E+03
C:/temp/Job-35.odb,Step-1,Increment      1: Step Time =    1.000,"P-35-1",           906,       120.614,       24.6845,            0.,NA,NA,"",   1.12752E+06,   1.15053E+06,   1.15053E+06
C:/temp/Job-35.odb,Step-1,Increment      1: Step Time =    1.000,"P-35-1",           907,       26.3920,       119.753,            0.,NA,NA,"",   569.985E+03,   623.410E+03,   623.410E+03
C:/temp/Job-35.odb,Step-1,Increment      1: Step Time =    1.000,"P-35-1",           908,       174.602,       121.262,            0.,NA,NA,"",   934.888E+03,   981.468E+03,   981.468E+03
C:/temp/Job-35.odb,Step-1,Increment      1: Step Time =    1.000,"P-35-1",           909,       78.5221,       175.420,            0.,NA,NA,"",   1.24385E+06,   1.24652E+06,   1.24652E+06
C:/temp/Job-35.odb,Step-1,Increment      1: Step Time =    1.000,"P-35-1",           910,       173.919,       79.3194,            0.,NA,NA,"",   926.989E+03,   969.744E+03,   969.744E+03
C:/temp/Job-35.odb,Step-1,Increment      1: Step Time =    1.000,"P-35-1",           911,       119.829,       176.906,            0.,NA,NA,"",   1.10335E+06,   1.12693E+06,   1.12693E+06
C:/temp/Job-35.odb,Step-1,Increment      1: Step Time =    1.000,"P-35-1",           912,       175.458,       99.7623,            0.,NA,NA,"",   727.138E+03,   820.168E+03,   820.168E+03
C:/temp/Job-35.odb,Step-1,Increment      1: Step Time =    1.000,"P-35-1",           913,       100.062,       174.276,            0.,NA,NA,"",   1.11257E+06,   1.16705E+06,   1.16705E+06
C:/temp/Job-35.odb,Step-1,Increment      1: Step Time =    1.000,"P-35-1",           914,       99.3310,       27.1965,            0.,NA,NA,"",   1.13047E+06,   1.19026E+06,   1.19026E+06
C:/temp/Job-35.odb,Step-1,Increment      1: Step Time =    1.000,"P-35-1",           915,       24.3154,       100.501,            0.,NA,NA,"",   394.137E+03,   454.716E+03,   454.716E+03
C:/temp/Job-35.odb,Step-1,Increment      1: Step Time =    1.000,"P-35-1",           916,       142.135,       91.3655,            0.,NA,NA,"",   642.413E+03,  -223.054E+03,  -223.054E+03
C:/temp/Job-35.odb,Step-1,Increment      1: Step Time =    1.000,"P-35-1",           917,       112.103,       139.990,            0.,NA,NA,"",   1.94582E+06,   2.07193E+06,   2.07193E+06
C:/temp/Job-35.odb,Step-1,Increment      1: Step Time =    1.000,"P-35-1",           918,       91.4327,       57.7996,            0.,NA,NA,"",   1.84097E+06,   1.96849E+06,   1.96849E+06
C:/temp/Job-35.odb,Step-1,Increment      1: Step Time =    1.000,"P-35-1",           919,       58.4112,       108.364,            0.,NA,NA,"",   402.132E+03,  -160.548E+03,  -160.548E+03
C:/temp/Job-35.odb,Step-1,Increment      1: Step Time =    1.000,"P-35-1",           920,       60.7743,       24.7708,            0.,NA,NA,"",   1.33476E+06,   1.30176E+06,   1.30176E+06
C:/temp/Job-35.odb,Step-1,Increment      1: Step Time =    1.000,"P-35-1",           921,       25.7835,       59.0712,            0.,NA,NA,"",   907.047E+03,   940.288E+03,   940.288E+03
C:/temp/Job-35.odb,Step-1,Increment      1: Step Time =    1.000,"P-35-1",           922,       138.222,       24.9639,            0.,NA,NA,"",   1.17500E+06,   1.15646E+06,   1.15646E+06
C:/temp/Job-35.odb,Step-1,Increment      1: Step Time =    1.000,"P-35-1",           923,       24.5456,       141.763,            0.,NA,NA,"",   912.792E+03,   951.552E+03,   951.552E+03
C:/temp/Job-35.odb,Step-1,Increment      1: Step Time =    1.000,"P-35-1",           924,       175.289,       139.542,            0.,NA,NA,"",   1.09135E+06,   1.09770E+06,   1.09770E+06
C:/temp/Job-35.odb,Step-1,Increment      1: Step Time =    1.000,"P-35-1",           925,       142.282,       176.520,            0.,NA,NA,"",   1.15938E+06,   1.13672E+06,   1.13672E+06
C:/temp/Job-35.odb,Step-1,Increment      1: Step Time =    1.000,"P-35-1",           926,       174.797,       59.0682,            0.,NA,NA,"",   1.10405E+06,   1.10588E+06,   1.10588E+06
C:/temp/Job-35.odb,Step-1,Increment      1: Step Time =    1.000,"P-35-1",           927,       59.9369,       175.107,            0.,NA,NA,"",   1.33775E+06,   1.30429E+06,   1.30429E+06
C:/temp/Job-35.odb,Step-1,Increment      1: Step Time =    1.000,"P-35-1",           928,       69.6577,       25.4145,            0.,NA,NA,"",   1.30800E+06,   1.28752E+06,   1.28752E+06
C:/temp/Job-35.odb,Step-1,Increment      1: Step Time =    1.000,"P-35-1",           929,       174.242,       69.0171,            0.,NA,NA,"",   1.05350E+06,   1.06700E+06,   1.06700E+06
C:/temp/Job-35.odb,Step-1,Increment      1: Step Time =    1.000,"P-35-1",           930,       129.628,       175.266,            0.,NA,NA,"",   1.16391E+06,   1.16182E+06,   1.16182E+06
C:/temp/Job-35.odb,Step-1,Increment      1: Step Time =    1.000,"P-35-1",           931,       25.4328,       129.568,            0.,NA,NA,"",   727.100E+03,   772.476E+03,   772.476E+03
C:/temp/Job-35.odb,Step-1,Increment      1: Step Time =    1.000,"P-35-1",           932,       24.3836,       33.6291,            0.,NA,NA,"",   1.21640E+06,   1.24343E+06,   1.24343E+06
C:/temp/Job-35.odb,Step-1,Increment      1: Step Time =    1.000,"P-35-1",           933,       35.6696,       21.8453,            0.,NA,NA,"",   1.33831E+06,   1.32859E+06,   1.32859E+06
C:/temp/Job-35.odb,Step-1,Increment      1: Step Time =    1.000,"P-35-1",           934,       23.0987,       164.076,            0.,NA,NA,"",   1.18070E+06,   1.21556E+06,   1.21556E+06
C:/temp/Job-35.odb,Step-1,Increment      1: Step Time =    1.000,"P-35-1",           935,       163.827,       23.7646,            0.,NA,NA,"",   1.10364E+06,   1.08726E+06,   1.08726E+06
C:/temp/Job-35.odb,Step-1,Increment      1: Step Time =    1.000,"P-35-1",           936,       176.701,       37.6110,            0.,NA,NA,"",   1.08414E+06,   1.08280E+06,   1.08280E+06
C:/temp/Job-35.odb,Step-1,Increment      1: Step Time =    1.000,"P-35-1",           937,       35.8299,       175.344,            0.,NA,NA,"",   1.33135E+06,   1.32026E+06,   1.32026E+06
C:/temp/Job-35.odb,Step-1,Increment      1: Step Time =    1.000,"P-35-1",           938,       176.265,       167.364,            0.,NA,NA,"",   1.07359E+06,   1.07128E+06,   1.07128E+06
C:/temp/Job-35.odb,Step-1,Increment      1: Step Time =    1.000,"P-35-1",           939,       164.245,       176.281,            0.,NA,NA,"",   1.10052E+06,   1.08482E+06,   1.08482E+06
C:/temp/Job-35.odb,Step-1,Increment      1: Step Time =    1.000,"P-35-1",           940,       55.1485,       185.685,            0.,NA,NA,"",   1.27786E+06,   1.26212E+06,   1.26212E+06
C:/temp/Job-35.odb,Step-1,Increment      1: Step Time =    1.000,"P-35-1",           941,       146.539,       15.5310,            0.,NA,NA,"",   1.06666E+06,   1.05481E+06,   1.05481E+06
C:/temp/Job-35.odb,Step-1,Increment      1: Step Time =    1.000,"P-35-1",           942,       15.2511,       144.223,            0.,NA,NA,"",   870.004E+03,   938.154E+03,   938.154E+03
C:/temp/Job-35.odb,Step-1,Increment      1: Step Time =    1.000,"P-35-1",           943,       55.3922,       14.9899,            0.,NA,NA,"",   1.27992E+06,   1.26337E+06,   1.26337E+06
C:/temp/Job-35.odb,Step-1,Increment      1: Step Time =    1.000,"P-35-1",           944,       13.1954,       56.8547,            0.,NA,NA,"",    841.13E+03,   915.758E+03,   915.758E+03
C:/temp/Job-35.odb,Step-1,Increment      1: Step Time =    1.000,"P-35-1",           945,       185.234,       55.1454,            0.,NA,NA,"",   1.00241E+06,   1.05209E+06,   1.05209E+06
C:/temp/Job-35.odb,Step-1,Increment      1: Step Time =    1.000,"P-35-1",           946,       186.660,       144.718,            0.,NA,NA,"",   990.179E+03,   1.04503E+06,   1.04503E+06
C:/temp/Job-35.odb,Step-1,Increment      1: Step Time =    1.000,"P-35-1",           947,       144.116,       184.979,            0.,NA,NA,"",   1.06392E+06,   1.05250E+06,   1.05250E+06
C:/temp/Job-35.odb,Step-1,Increment      1: Step Time =    1.000,"P-35-1",           948,       15.1923,       159.256,            0.,NA,NA,"",   1.05360E+06,   1.12296E+06,   1.12296E+06
C:/temp/Job-35.odb,Step-1,Increment      1: Step Time =    1.000,"P-35-1",           949,       158.585,       14.9101,            0.,NA,NA,"",   1.05861E+06,   1.04888E+06,   1.04888E+06
C:/temp/Job-35.odb,Step-1,Increment      1: Step Time =    1.000,"P-35-1",           950,       18.0654,       174.399,            0.,NA,NA,"",   1.25702E+06,   1.30767E+06,   1.30767E+06
C:/temp/Job-35.odb,Step-1,Increment      1: Step Time =    1.000,"P-35-1",           951,       173.167,       18.8012,            0.,NA,NA,"",   1.04592E+06,   1.04217E+06,   1.04217E+06
C:/temp/Job-35.odb,Step-1,Increment      1: Step Time =    1.000,"P-35-1",           952,       174.284,       9.85032,            0.,NA,NA,"",   1.01653E+06,   1.01563E+06,   1.01563E+06
C:/temp/Job-35.odb,Step-1,Increment      1: Step Time =    1.000,"P-35-1",           953,       16.1161,       40.3478,            0.,NA,NA,"",   1.06350E+06,   1.12986E+06,   1.12986E+06
C:/temp/Job-35.odb,Step-1,Increment      1: Step Time =    1.000,"P-35-1",           954,       11.2460,       26.3682,            0.,NA,NA,"",   1.18930E+06,   1.27474E+06,   1.27474E+06
C:/temp/Job-35.odb,Step-1,Increment      1: Step Time =    1.000,"P-35-1",           955,       40.7152,       14.2450,            0.,NA,NA,"",   1.33766E+06,   1.32751E+06,   1.32751E+06
C:/temp/Job-35.odb,Step-1,Increment      1: Step Time =    1.000,"P-35-1",           956,       27.0010,       18.4978,            0.,NA,NA,"",   1.35916E+06,   1.36794E+06,   1.36794E+06
C:/temp/Job-35.odb,Step-1,Increment      1: Step Time =    1.000,"P-35-1",           957,       21.9235,       26.3842,            0.,NA,NA,"",   1.27287E+06,   1.30609E+06,   1.30609E+06
C:/temp/Job-35.odb,Step-1,Increment      1: Step Time =    1.000,"P-35-1",           958,       158.972,       185.160,            0.,NA,NA,"",   1.05788E+06,   1.04819E+06,   1.04819E+06
C:/temp/Job-35.odb,Step-1,Increment      1: Step Time =    1.000,"P-35-1",           959,       183.300,       160.690,            0.,NA,NA,"",   1.03403E+06,   1.05063E+06,   1.05063E+06
C:/temp/Job-35.odb,Step-1,Increment      1: Step Time =    1.000,"P-35-1",           960,       190.286,       174.761,            0.,NA,NA,"",   1.00317E+06,   1.01194E+06,   1.01194E+06
C:/temp/Job-35.odb,Step-1,Increment      1: Step Time =    1.000,"P-35-1",           961,       181.528,       174.365,            0.,NA,NA,"",   1.02971E+06,   1.03447E+06,   1.03447E+06
C:/temp/Job-35.odb,Step-1,Increment      1: Step Time =    1.000,"P-35-1",           962,       175.306,       180.205,            0.,NA,NA,"",   1.04020E+06,   1.03862E+06,   1.03862E+06
C:/temp/Job-35.odb,Step-1,Increment      1: Step Time =    1.000,"P-35-1",           963,       185.717,       41.0587,            0.,NA,NA,"",   1.01684E+06,   1.04125E+06,   1.04125E+06
C:/temp/Job-35.odb,Step-1,Increment      1: Step Time =    1.000,"P-35-1",           964,       38.8047,       180.397,            0.,NA,NA,"",   1.34176E+06,   1.32866E+06,   1.32866E+06
C:/temp/Job-35.odb,Step-1,Increment      1: Step Time =    1.000,"P-35-1",           965,       179.383,       25.3304,            0.,NA,NA,"",   1.03839E+06,   1.04073E+06,   1.04073E+06
C:/temp/Job-35.odb,Step-1,Increment      1: Step Time =    1.000,"P-35-1",           966,       26.3480,       179.122,            0.,NA,NA,"",   1.33775E+06,   1.35036E+06,   1.35036E+06
C:/temp/Job-35.odb,Step-1,Increment      1: Step Time =    1.000,"P-35-1",           967,       25.2442,       189.595,            0.,NA,NA,"",   1.40914E+06,   1.41401E+06,   1.41401E+06
C:/temp/Job-35.odb,Step-1,Increment      1: Step Time =    1.000,"P-35-1",           968,       63.8875,       99.6533,            0.,NA,NA,"",   616.623E+03,  -630.739E+03,  -630.739E+03
C:/temp/Job-35.odb,Step-1,Increment      1: Step Time =    1.000,"P-35-1",           969,       100.307,       63.7819,            0.,NA,NA,"",   2.67015E+06,   2.78444E+06,   2.78444E+06
C:/temp/Job-35.odb,Step-1,Increment      1: Step Time =    1.000,"P-35-1",           970,       100.192,       136.053,            0.,NA,NA,"",   2.68720E+06,   2.80508E+06,   2.80508E+06
C:/temp/Job-35.odb,Step-1,Increment      1: Step Time =    1.000,"P-35-1",           971,       136.259,       100.306,            0.,NA,NA,"",   857.369E+03,  -868.333E+03,  -868.333E+03
C:/temp/Job-35.odb,Step-1,Increment      1: Step Time =    1.000,"P-35-1",           972,       53.6852,       79.8528,            0.,NA,NA,"",   784.495E+03,   648.896E+03,   648.896E+03
C:/temp/Job-35.odb,Step-1,Increment      1: Step Time =    1.000,"P-35-1",           973,       120.091,       54.3969,            0.,NA,NA,"",   1.62645E+06,   1.67996E+06,   1.67996E+06
C:/temp/Job-35.odb,Step-1,Increment      1: Step Time =    1.000,"P-35-1",           974,       80.4355,       144.481,            0.,NA,NA,"",   1.64322E+06,   1.66999E+06,   1.66999E+06
C:/temp/Job-35.odb,Step-1,Increment      1: Step Time =    1.000,"P-35-1",           975,       146.386,       119.651,            0.,NA,NA,"",   1.12323E+06,   879.995E+03,   879.995E+03
C:/temp/Job-35.odb,Step-1,Increment      1: Step Time =    1.000,"P-35-1",           976,       130.476,       148.463,            0.,NA,NA,"",   1.55834E+06,   1.50414E+06,   1.50414E+06
C:/temp/Job-35.odb,Step-1,Increment      1: Step Time =    1.000,"P-35-1",           977,       146.936,       67.9944,            0.,NA,NA,"",   1.43108E+06,   1.23577E+06,   1.23577E+06
C:/temp/Job-35.odb,Step-1,Increment      1: Step Time =    1.000,"P-35-1",           978,       69.2659,       54.2485,            0.,NA,NA,"",   1.54610E+06,   1.47169E+06,   1.47169E+06
C:/temp/Job-35.odb,Step-1,Increment      1: Step Time =    1.000,"P-35-1",           979,       51.5590,       133.142,            0.,NA,NA,"",   1.12431E+06,   1.01877E+06,   1.01877E+06
C:/temp/Job-35.odb,Step-1,Increment      1: Step Time =    1.000,"P-35-1",           980,       74.7624,       53.1546,            0.,NA,NA,"",   1.57661E+06,   1.54369E+06,   1.54369E+06
C:/temp/Job-35.odb,Step-1,Increment      1: Step Time =    1.000,"P-35-1",           981,       53.1539,       124.785,            0.,NA,NA,"",   944.528E+03,   817.915E+03,   817.915E+03
C:/temp/Job-35.odb,Step-1,Increment      1: Step Time =    1.000,"P-35-1",           982,       147.280,       74.3588,            0.,NA,NA,"",   1.31079E+06,   1.09274E+06,   1.09274E+06
C:/temp/Job-35.odb,Step-1,Increment      1: Step Time =    1.000,"P-35-1",           983,       124.573,       147.234,            0.,NA,NA,"",   1.57922E+06,   1.58019E+06,   1.58019E+06
C:/temp/Job-35.odb,Step-1,Increment      1: Step Time =    1.000,"P-35-1",           984,       151.227,       111.246,            0.,NA,NA,"",   734.211E+03,   606.256E+03,   606.256E+03
C:/temp/Job-35.odb,Step-1,Increment      1: Step Time =    1.000,"P-35-1",           985,       49.3066,       89.0593,            0.,NA,NA,"",   436.220E+03,   380.908E+03,   380.908E+03
C:/temp/Job-35.odb,Step-1,Increment      1: Step Time =    1.000,"P-35-1",           986,       111.355,       49.2640,            0.,NA,NA,"",   1.48816E+06,   1.60660E+06,   1.60660E+06
C:/temp/Job-35.odb,Step-1,Increment      1: Step Time =    1.000,"P-35-1",           987,       90.5393,       149.924,            0.,NA,NA,"",   1.55424E+06,   1.66127E+06,   1.66127E+06
C:/temp/Job-35.odb,Step-1,Increment      1: Step Time =    1.000,"P-35-1",           988,       146.060,       101.370,            0.,NA,NA,"",   373.222E+03,  -4.70032E+03,  -4.70032E+03
C:/temp/Job-35.odb,Step-1,Increment      1: Step Time =    1.000,"P-35-1",           989,       54.3715,       98.6887,            0.,NA,NA,"",   199.603E+03,  -22.1957E+03,  -22.1957E+03
C:/temp/Job-35.odb,Step-1,Increment      1: Step Time =    1.000,"P-35-1",           990,       101.452,       54.1217,            0.,NA,NA,"",   1.68477E+06,   1.84498E+06,   1.84498E+06
C:/temp/Job-35.odb,Step-1,Increment      1: Step Time =    1.000,"P-35-1",           991,       100.385,       145.432,            0.,NA,NA,"",   1.71151E+06,   1.87349E+06,   1.87349E+06
C:/temp/Job-35.odb,Step-1,Increment      1: Step Time =    1.000,"P-35-1",           992,       179.400,       79.4941,            0.,NA,NA,"",   905.386E+03,   983.373E+03,   983.373E+03
C:/temp/Job-35.odb,Step-1,Increment      1: Step Time =    1.000,"P-35-1",           993,       119.927,       180.718,            0.,NA,NA,"",   1.05802E+06,   1.07644E+06,   1.07644E+06
C:/temp/Job-35.odb,Step-1,Increment      1: Step Time =    1.000,"P-35-1",           994,       79.7600,       20.3731,            0.,NA,NA,"",   1.18551E+06,   1.18938E+06,   1.18938E+06
C:/temp/Job-35.odb,Step-1,Increment      1: Step Time =    1.000,"P-35-1",           995,       20.6725,       119.695,            0.,NA,NA,"",   557.067E+03,   621.518E+03,   621.518E+03
C:/temp/Job-35.odb,Step-1,Increment      1: Step Time =    1.000,"P-35-1",           996,       179.748,       89.7048,            0.,NA,NA,"",   808.052E+03,   908.643E+03,   908.643E+03
C:/temp/Job-35.odb,Step-1,Increment      1: Step Time =    1.000,"P-35-1",           997,       109.980,       180.143,            0.,NA,NA,"",   1.03836E+06,   1.07170E+06,   1.07170E+06
C:/temp/Job-35.odb,Step-1,Increment      1: Step Time =    1.000,"P-35-1",           998,       89.6807,       20.4355,            0.,NA,NA,"",   1.11152E+06,   1.13636E+06,   1.13636E+06
C:/temp/Job-35.odb,Step-1,Increment      1: Step Time =    1.000,"P-35-1",           999,       20.2155,       109.730,            0.,NA,NA,"",   451.950E+03,   517.604E+03,   517.604E+03
C:/temp/Job-35.odb,Step-1,Increment      1: Step Time =    1.000,"P-35-1",          1000,       67.8959,       50.7517,            0.,NA,NA,"",   1.52668E+06,   1.45472E+06,   1.45472E+06
C:/temp/Job-35.odb,Step-1,Increment      1: Step Time =    1.000,"P-35-1",          1001,       130.134,       154.013,            0.,NA,NA,"",   1.47907E+06,   1.44771E+06,   1.44771E+06
C:/temp/Job-35.odb,Step-1,Increment      1: Step Time =    1.000,"P-35-1",          1002,       150.863,       64.9521,            0.,NA,NA,"",   1.40484E+06,   1.24280E+06,   1.24280E+06
C:/temp/Job-35.odb,Step-1,Increment      1: Step Time =    1.000,"P-35-1",          1003,       57.6205,       75.3294,            0.,NA,NA,"",   1.00567E+06,   845.050E+03,   845.050E+03
C:/temp/Job-35.odb,Step-1,Increment      1: Step Time =    1.000,"P-35-1",          1004,       124.455,       58.0977,            0.,NA,NA,"",   1.66145E+06,   1.65282E+06,   1.65282E+06
C:/temp/Job-35.odb,Step-1,Increment      1: Step Time =    1.000,"P-35-1",          1005,       73.2892,       142.327,            0.,NA,NA,"",   1.58302E+06,   1.52927E+06,   1.52927E+06
C:/temp/Job-35.odb,Step-1,Increment      1: Step Time =    1.000,"P-35-1",          1006,       143.298,       124.568,            0.,NA,NA,"",   1.33523E+06,   1.08415E+06,   1.08415E+06
C:/temp/Job-35.odb,Step-1,Increment      1: Step Time =    1.000,"P-35-1",          1007,       48.8176,       79.9224,            0.,NA,NA,"",   730.486E+03,   647.712E+03,   647.712E+03
C:/temp/Job-35.odb,Step-1,Increment      1: Step Time =    1.000,"P-35-1",          1008,       120.406,       50.0113,            0.,NA,NA,"",   1.52790E+06,   1.57660E+06,   1.57660E+06
C:/temp/Job-35.odb,Step-1,Increment      1: Step Time =    1.000,"P-35-1",          1009,       81.9806,       154.756,            0.,NA,NA,"",   1.48699E+06,   1.52244E+06,   1.52244E+06
C:/temp/Job-35.odb,Step-1,Increment      1: Step Time =    1.000,"P-35-1",          1010,       150.856,       119.920,            0.,NA,NA,"",   1.09155E+06,   907.802E+03,   907.802E+03
C:/temp/Job-35.odb,Step-1,Increment      1: Step Time =    1.000,"P-35-1",          1011,       8.80008,       56.1588,            0.,NA,NA,"",   822.518E+03,   907.959E+03,   907.959E+03
C:/temp/Job-35.odb,Step-1,Increment      1: Step Time =    1.000,"P-35-1",          1012,       55.2726,       190.634,            0.,NA,NA,"",   1.24767E+06,   1.23961E+06,   1.23961E+06
C:/temp/Job-35.odb,Step-1,Increment      1: Step Time =    1.000,"P-35-1",          1013,       145.903,       10.1890,            0.,NA,NA,"",   1.01352E+06,   1.00755E+06,   1.00755E+06
C:/temp/Job-35.odb,Step-1,Increment      1: Step Time =    1.000,"P-35-1",          1014,       191.061,       144.653,            0.,NA,NA,"",   951.458E+03,   1.02339E+06,   1.02339E+06
C:/temp/Job-35.odb,Step-1,Increment      1: Step Time =    1.000,"P-35-1",          1015,       24.2674,       104.432,            0.,NA,NA,"",   403.317E+03,   464.647E+03,   464.647E+03
C:/temp/Job-35.odb,Step-1,Increment      1: Step Time =    1.000,"P-35-1",          1016,       94.3939,       25.6407,            0.,NA,NA,"",   1.13749E+06,   1.18576E+06,   1.18576E+06
C:/temp/Job-35.odb,Step-1,Increment      1: Step Time =    1.000,"P-35-1",          1017,       174.905,       94.9538,            0.,NA,NA,"",   737.679E+03,   826.631E+03,   826.631E+03
C:/temp/Job-35.odb,Step-1,Increment      1: Step Time =    1.000,"P-35-1",          1018,       105.145,       175.067,            0.,NA,NA,"",   1.09281E+06,   1.14502E+06,   1.14502E+06
C:/temp/Job-35.odb,Step-1,Increment      1: Step Time =    1.000,"P-35-1",          1019,       25.6519,       84.1031,            0.,NA,NA,"",   512.573E+03,   571.594E+03,   571.594E+03
C:/temp/Job-35.odb,Step-1,Increment      1: Step Time =    1.000,"P-35-1",          1020,       27.0722,       114.217,            0.,NA,NA,"",   485.440E+03,   542.399E+03,   542.399E+03
C:/temp/Job-35.odb,Step-1,Increment      1: Step Time =    1.000,"P-35-1",          1021,       115.377,       25.2420,            0.,NA,NA,"",   1.11318E+06,   1.15162E+06,   1.15162E+06
C:/temp/Job-35.odb,Step-1,Increment      1: Step Time =    1.000,"P-35-1",          1022,       84.7266,       25.7685,            0.,NA,NA,"",   1.21031E+06,   1.23339E+06,   1.23339E+06
C:/temp/Job-35.odb,Step-1,Increment      1: Step Time =    1.000,"P-35-1",          1023,       174.940,       115.047,            0.,NA,NA,"",   843.391E+03,   911.801E+03,   911.801E+03
C:/temp/Job-35.odb,Step-1,Increment      1: Step Time =    1.000,"P-35-1",          1024,       174.061,       84.5876,            0.,NA,NA,"",   849.927E+03,   911.642E+03,   911.642E+03
C:/temp/Job-35.odb,Step-1,Increment      1: Step Time =    1.000,"P-35-1",          1025,       115.634,       175.142,            0.,NA,NA,"",   1.10908E+06,   1.14604E+06,   1.14604E+06
C:/temp/Job-35.odb,Step-1,Increment      1: Step Time =    1.000,"P-35-1",          1026,       83.3672,       174.872,            0.,NA,NA,"",   1.21473E+06,   1.23221E+06,   1.23221E+06
C:/temp/Job-35.odb,Step-1,Increment      1: Step Time =    1.000,"P-35-1",          1027,       96.8537,       53.6493,            0.,NA,NA,"",   1.66619E+06,   1.81548E+06,   1.81548E+06
C:/temp/Job-35.odb,Step-1,Increment      1: Step Time =    1.000,"P-35-1",          1028,       54.0035,       103.340,            0.,NA,NA,"",   227.660E+03,  -10.6685E+03,  -10.6685E+03
C:/temp/Job-35.odb,Step-1,Increment      1: Step Time =    1.000,"P-35-1",          1029,       146.496,       96.7362,            0.,NA,NA,"",   410.377E+03,   7.66164E+03,   7.66164E+03
C:/temp/Job-35.odb,Step-1,Increment      1: Step Time =    1.000,"P-35-1",          1030,       105.744,       145.639,            0.,NA,NA,"",   1.68660E+06,   1.84246E+06,   1.84246E+06
C:/temp/Job-35.odb,Step-1,Increment      1: Step Time =    1.000,"P-35-1",          1031,       64.8264,       24.7604,            0.,NA,NA,"",   1.32345E+06,   1.29489E+06,   1.29489E+06
C:/temp/Job-35.odb,Step-1,Increment      1: Step Time =    1.000,"P-35-1",          1032,       29.0013,       62.7198,            0.,NA,NA,"",   884.473E+03,   907.389E+03,   907.389E+03
C:/temp/Job-35.odb,Step-1,Increment      1: Step Time =    1.000,"P-35-1",          1033,       24.8803,       134.121,            0.,NA,NA,"",   797.588E+03,   840.601E+03,   840.601E+03
C:/temp/Job-35.odb,Step-1,Increment      1: Step Time =    1.000,"P-35-1",          1034,       133.693,       23.5557,            0.,NA,NA,"",   1.14912E+06,   1.13966E+06,   1.13966E+06
C:/temp/Job-35.odb,Step-1,Increment      1: Step Time =    1.000,"P-35-1",          1035,       170.906,       134.544,            0.,NA,NA,"",   1.11367E+06,   1.09823E+06,   1.09823E+06
C:/temp/Job-35.odb,Step-1,Increment      1: Step Time =    1.000,"P-35-1",          1036,       134.350,       175.027,            0.,NA,NA,"",   1.17405E+06,   1.16041E+06,   1.16041E+06
C:/temp/Job-35.odb,Step-1,Increment      1: Step Time =    1.000,"P-35-1",          1037,       174.235,       63.9444,            0.,NA,NA,"",   1.08881E+06,   1.09369E+06,   1.09369E+06
C:/temp/Job-35.odb,Step-1,Increment      1: Step Time =    1.000,"P-35-1",          1038,       65.2770,       174.272,            0.,NA,NA,"",   1.32935E+06,   1.30055E+06,   1.30055E+06
C:/temp/Job-35.odb,Step-1,Increment      1: Step Time =    1.000,"P-35-1",          1039,       49.3896,       98.4203,            0.,NA,NA,"",   197.801E+03,   189.786E+03,   189.786E+03
C:/temp/Job-35.odb,Step-1,Increment      1: Step Time =    1.000,"P-35-1",          1040,       101.982,       49.0077,            0.,NA,NA,"",   1.47743E+06,   1.62018E+06,   1.62018E+06
C:/temp/Job-35.odb,Step-1,Increment      1: Step Time =    1.000,"P-35-1",          1041,       100.071,       150.383,            0.,NA,NA,"",   1.50553E+06,   1.65010E+06,   1.65010E+06
C:/temp/Job-35.odb,Step-1,Increment      1: Step Time =    1.000,"P-35-1",          1042,       151.208,       101.842,            0.,NA,NA,"",   406.407E+03,   359.146E+03,   359.146E+03
C:/temp/Job-35.odb,Step-1,Increment      1: Step Time =    1.000,"P-35-1",          1043,       28.3147,       30.5226,            0.,NA,NA,"",   1.26662E+06,   1.27795E+06,   1.27795E+06
C:/temp/Job-35.odb,Step-1,Increment      1: Step Time =    1.000,"P-35-1",          1044,       30.7134,       26.0907,            0.,NA,NA,"",   1.31116E+06,   1.31380E+06,   1.31380E+06
C:/temp/Job-35.odb,Step-1,Increment      1: Step Time =    1.000,"P-35-1",          1045,       24.9071,       167.052,            0.,NA,NA,"",   1.22216E+06,   1.24811E+06,   1.24811E+06
C:/temp/Job-35.odb,Step-1,Increment      1: Step Time =    1.000,"P-35-1",          1046,       168.584,       27.5173,            0.,NA,NA,"",   1.10092E+06,   1.08723E+06,   1.08723E+06
C:/temp/Job-35.odb,Step-1,Increment      1: Step Time =    1.000,"P-35-1",          1047,       176.189,       33.2644,            0.,NA,NA,"",   1.07447E+06,   1.07238E+06,   1.07238E+06
C:/temp/Job-35.odb,Step-1,Increment      1: Step Time =    1.000,"P-35-1",          1048,       31.6651,       174.542,            0.,NA,NA,"",   1.31868E+06,   1.31856E+06,   1.31856E+06
C:/temp/Job-35.odb,Step-1,Increment      1: Step Time =    1.000,"P-35-1",          1049,       173.583,       171.688,            0.,NA,NA,"",   1.07462E+06,   1.06880E+06,   1.06880E+06
C:/temp/Job-35.odb,Step-1,Increment      1: Step Time =    1.000,"P-35-1",          1050,       168.688,       177.248,            0.,NA,NA,"",   1.07668E+06,   1.06709E+06,   1.06709E+06
C:/temp/Job-35.odb,Step-1,Increment      1: Step Time =    1.000,"P-35-1",          1051,       15.3363,       176.838,            0.,NA,NA,"",   1.27269E+06,   1.33374E+06,   1.33374E+06
C:/temp/Job-35.odb,Step-1,Increment      1: Step Time =    1.000,"P-35-1",          1052,       18.0247,       23.9126,            0.,NA,NA,"",   1.27772E+06,   1.32628E+06,   1.32628E+06
C:/temp/Job-35.odb,Step-1,Increment      1: Step Time =    1.000,"P-35-1",          1053,       21.1188,       14.6096,            0.,NA,NA,"",   1.40330E+06,   1.42070E+06,   1.42070E+06
C:/temp/Job-35.odb,Step-1,Increment      1: Step Time =    1.000,"P-35-1",          1054,       178.709,       183.850,            0.,NA,NA,"",   1.02299E+06,   1.02362E+06,   1.02362E+06
C:/temp/Job-35.odb,Step-1,Increment      1: Step Time =    1.000,"P-35-1",          1055,       183.320,       21.6048,            0.,NA,NA,"",   1.02004E+06,   1.02411E+06,   1.02411E+06
C:/temp/Job-35.odb,Step-1,Increment      1: Step Time =    1.000,"P-35-1",          1056,       20.2819,       183.527,            0.,NA,NA,"",   1.38600E+06,   1.41027E+06,   1.41027E+06
C:/temp/Job-35.odb,Step-1,Increment      1: Step Time =    1.000,"P-35-1",          1057,       142.937,       64.1605,            0.,NA,NA,"",   1.52130E+06,   1.33630E+06,   1.33630E+06
C:/temp/Job-35.odb,Step-1,Increment      1: Step Time =    1.000,"P-35-1",          1058,       133.755,       143.987,            0.,NA,NA,"",   1.59967E+06,   1.50216E+06,   1.50216E+06
C:/temp/Job-35.odb,Step-1,Increment      1: Step Time =    1.000,"P-35-1",          1059,       65.1744,       57.3222,            0.,NA,NA,"",   1.49155E+06,   1.39070E+06,   1.39070E+06
C:/temp/Job-35.odb,Step-1,Increment      1: Step Time =    1.000,"P-35-1",          1060,       56.4724,       136.671,            0.,NA,NA,"",   1.28556E+06,   1.16284E+06,   1.16284E+06
C:/temp/Job-35.odb,Step-1,Increment      1: Step Time =    1.000,"P-35-1",          1061,       57.2617,       112.049,            0.,NA,NA,"",   510.947E+03,   184.205E+03,   184.205E+03
C:/temp/Job-35.odb,Step-1,Increment      1: Step Time =    1.000,"P-35-1",          1062,       87.3043,       56.0694,            0.,NA,NA,"",   1.71804E+06,   1.81217E+06,   1.81217E+06
C:/temp/Job-35.odb,Step-1,Increment      1: Step Time =    1.000,"P-35-1",          1063,       111.079,       146.124,            0.,NA,NA,"",   1.64406E+06,   1.77443E+06,   1.77443E+06
C:/temp/Job-35.odb,Step-1,Increment      1: Step Time =    1.000,"P-35-1",          1064,       143.685,       87.2637,            0.,NA,NA,"",   821.844E+03,   317.022E+03,   317.022E+03
C:/temp/Job-35.odb,Step-1,Increment      1: Step Time =    1.000,"P-35-1",          1065,       25.8934,       124.745,            0.,NA,NA,"",   649.556E+03,   698.750E+03,   698.750E+03
C:/temp/Job-35.odb,Step-1,Increment      1: Step Time =    1.000,"P-35-1",          1066,       74.7004,       25.6683,            0.,NA,NA,"",   1.28354E+06,   1.27523E+06,   1.27523E+06
C:/temp/Job-35.odb,Step-1,Increment      1: Step Time =    1.000,"P-35-1",          1067,       123.878,       174.545,            0.,NA,NA,"",   1.14816E+06,   1.16338E+06,   1.16338E+06
C:/temp/Job-35.odb,Step-1,Increment      1: Step Time =    1.000,"P-35-1",          1068,       174.172,       74.1882,            0.,NA,NA,"",   997.323E+03,   1.02381E+06,   1.02381E+06
C:/temp/Job-35.odb,Step-1,Increment      1: Step Time =    1.000,"P-35-1",          1069,       43.5969,       186.195,            0.,NA,NA,"",   1.32455E+06,   1.31366E+06,   1.31366E+06
C:/temp/Job-35.odb,Step-1,Increment      1: Step Time =    1.000,"P-35-1",          1070,       184.441,       154.310,            0.,NA,NA,"",   1.02169E+06,   1.05097E+06,   1.05097E+06
C:/temp/Job-35.odb,Step-1,Increment      1: Step Time =    1.000,"P-35-1",          1071,       15.7740,       45.4528,            0.,NA,NA,"",   1.00301E+06,   1.07050E+06,   1.07050E+06
C:/temp/Job-35.odb,Step-1,Increment      1: Step Time =    1.000,"P-35-1",          1072,       153.048,       14.3725,            0.,NA,NA,"",   1.05749E+06,   1.04714E+06,   1.04714E+06
C:/temp/Job-35.odb,Step-1,Increment      1: Step Time =    1.000,"P-35-1",          1073,       25.5136,       95.5368,            0.,NA,NA,"",   403.168E+03,   463.823E+03,   463.823E+03
C:/temp/Job-35.odb,Step-1,Increment      1: Step Time =    1.000,"P-35-1",          1074,       105.114,       26.6353,            0.,NA,NA,"",   1.11166E+06,   1.16908E+06,   1.16908E+06
C:/temp/Job-35.odb,Step-1,Increment      1: Step Time =    1.000,"P-35-1",          1075,       171.398,       105.073,            0.,NA,NA,"",   708.483E+03,   784.056E+03,   784.056E+03
C:/temp/Job-35.odb,Step-1,Increment      1: Step Time =    1.000,"P-35-1",          1076,       94.7315,       173.375,            0.,NA,NA,"",   1.14638E+06,   1.19721E+06,   1.19721E+06
C:/temp/Job-35.odb,Step-1,Increment      1: Step Time =    1.000,"P-35-1",          1077,       95.1971,       150.123,            0.,NA,NA,"",   1.53331E+06,   1.66533E+06,   1.66533E+06
C:/temp/Job-35.odb,Step-1,Increment      1: Step Time =    1.000,"P-35-1",          1078,       49.4218,       93.7450,            0.,NA,NA,"",   291.907E+03,   262.664E+03,   262.664E+03
C:/temp/Job-35.odb,Step-1,Increment      1: Step Time =    1.000,"P-35-1",          1079,       106.680,       49.1016,            0.,NA,NA,"",   1.47695E+06,   1.61393E+06,   1.61393E+06
C:/temp/Job-35.odb,Step-1,Increment      1: Step Time =    1.000,"P-35-1",          1080,       151.211,       106.564,            0.,NA,NA,"",   539.008E+03,   456.123E+03,   456.123E+03
C:/temp/Job-35.odb,Step-1,Increment      1: Step Time =    1.000,"P-35-1",          1081,       76.9624,       48.9972,            0.,NA,NA,"",   1.55082E+06,   1.54278E+06,   1.54278E+06
C:/temp/Job-35.odb,Step-1,Increment      1: Step Time =    1.000,"P-35-1",          1082,       49.2621,       121.322,            0.,NA,NA,"",   778.767E+03,   688.296E+03,   688.296E+03
C:/temp/Job-35.odb,Step-1,Increment      1: Step Time =    1.000,"P-35-1",          1083,       150.641,       76.9808,            0.,NA,NA,"",   1.19177E+06,   1.00270E+06,   1.00270E+06
C:/temp/Job-35.odb,Step-1,Increment      1: Step Time =    1.000,"P-35-1",          1084,       121.148,       150.150,            0.,NA,NA,"",   1.52885E+06,   1.56979E+06,   1.56979E+06
C:/temp/Job-35.odb,Step-1,Increment      1: Step Time =    1.000,"P-35-1",          1085,       86.1527,       154.343,            0.,NA,NA,"",   1.47386E+06,   1.54025E+06,   1.54025E+06
C:/temp/Job-35.odb,Step-1,Increment      1: Step Time =    1.000,"P-35-1",          1086,       116.804,       44.7253,            0.,NA,NA,"",   1.40248E+06,   1.47535E+06,   1.47535E+06
C:/temp/Job-35.odb,Step-1,Increment      1: Step Time =    1.000,"P-35-1",          1087,       43.9362,       84.4999,            0.,NA,NA,"",   551.938E+03,   529.755E+03,   529.755E+03
C:/temp/Job-35.odb,Step-1,Increment      1: Step Time =    1.000,"P-35-1",          1088,       156.008,       116.760,            0.,NA,NA,"",   927.037E+03,   827.936E+03,   827.936E+03
C:/temp/Job-35.odb,Step-1,Increment      1: Step Time =    1.000,"P-35-1",          1089,       185.627,       45.6831,            0.,NA,NA,"",   1.01430E+06,   1.04618E+06,   1.04618E+06
C:/temp/Job-35.odb,Step-1,Increment      1: Step Time =    1.000,"P-35-1",          1090,       154.021,       184.758,            0.,NA,NA,"",   1.06595E+06,   1.05419E+06,   1.05419E+06
C:/temp/Job-35.odb,Step-1,Increment      1: Step Time =    1.000,"P-35-1",          1091,       45.5275,       14.6684,            0.,NA,NA,"",   1.31964E+06,   1.30648E+06,   1.30648E+06
C:/temp/Job-35.odb,Step-1,Increment      1: Step Time =    1.000,"P-35-1",          1092,       15.6133,       154.219,            0.,NA,NA,"",   996.245E+03,   1.06416E+06,   1.06416E+06
C:/temp/Job-35.odb,Step-1,Increment      1: Step Time =    1.000,"P-35-1",          1093,       174.912,       176.401,            0.,NA,NA,"",   1.05286E+06,   1.05017E+06,   1.05017E+06
C:/temp/Job-35.odb,Step-1,Increment      1: Step Time =    1.000,"P-35-1",          1094,       174.461,       174.272,            0.,NA,NA,"",   1.06132E+06,   1.05760E+06,   1.05760E+06
C:/temp/Job-35.odb,Step-1,Increment      1: Step Time =    1.000,"P-35-1",          1095,       175.132,       25.9333,            0.,NA,NA,"",   1.05935E+06,   1.05675E+06,   1.05675E+06
C:/temp/Job-35.odb,Step-1,Increment      1: Step Time =    1.000,"P-35-1",          1096,       27.4379,       174.404,            0.,NA,NA,"",   1.30226E+06,   1.31498E+06,   1.31498E+06
C:/temp/Job-35.odb,Step-1,Increment      1: Step Time =    1.000,"P-35-1",          1097,       23.9067,       173.122,            0.,NA,NA,"",   1.27618E+06,   1.30257E+06,   1.30257E+06
C:/temp/Job-35.odb,Step-1,Increment      1: Step Time =    1.000,"P-35-1",          1098,       172.383,       26.5225,            0.,NA,NA,"",   1.07598E+06,   1.06894E+06,   1.06894E+06
C:/temp/Job-35.odb,Step-1,Increment      1: Step Time =    1.000,"P-35-1",          1099,       28.6203,       22.5053,            0.,NA,NA,"",   1.33392E+06,   1.34115E+06,   1.34115E+06
C:/temp/Job-35.odb,Step-1,Increment      1: Step Time =    1.000,"P-35-1",          1100,       24.5516,       28.1785,            0.,NA,NA,"",   1.26880E+06,   1.29274E+06,   1.29274E+06
C:/temp/Job-35.odb,Step-1,Increment      1: Step Time =    1.000,"P-35-1",          1101,       136.378,       130.301,            0.,NA,NA,"",   1.53946E+06,   1.32316E+06,   1.32316E+06
C:/temp/Job-35.odb,Step-1,Increment      1: Step Time =    1.000,"P-35-1",          1102,       64.9104,       138.333,            0.,NA,NA,"",   1.44199E+06,   1.31989E+06,   1.31989E+06
C:/temp/Job-35.odb,Step-1,Increment      1: Step Time =    1.000,"P-35-1",          1103,       131.769,       63.5809,            0.,NA,NA,"",   1.65236E+06,   1.52758E+06,   1.52758E+06
C:/temp/Job-35.odb,Step-1,Increment      1: Step Time =    1.000,"P-35-1",          1104,       63.5664,       68.0972,            0.,NA,NA,"",   1.30285E+06,   1.15204E+06,   1.15204E+06
C:/temp/Job-35.odb,Step-1,Increment      1: Step Time =    1.000,"P-35-1",          1105,       185.487,       50.3859,            0.,NA,NA,"",   1.00982E+06,   1.05013E+06,   1.05013E+06
C:/temp/Job-35.odb,Step-1,Increment      1: Step Time =    1.000,"P-35-1",          1106,       50.5602,       182.563,            0.,NA,NA,"",   1.31231E+06,   1.29238E+06,   1.29238E+06
C:/temp/Job-35.odb,Step-1,Increment      1: Step Time =    1.000,"P-35-1",          1107,       181.681,       149.197,            0.,NA,NA,"",   1.04153E+06,   1.06916E+06,   1.06916E+06
C:/temp/Job-35.odb,Step-1,Increment      1: Step Time =    1.000,"P-35-1",          1108,       149.021,       184.557,            0.,NA,NA,"",   1.06919E+06,   1.05664E+06,   1.05664E+06
C:/temp/Job-35.odb,Step-1,Increment      1: Step Time =    1.000,"P-35-1",          1109,       19.0470,       50.2502,            0.,NA,NA,"",   971.919E+03,   1.02704E+06,   1.02704E+06
C:/temp/Job-35.odb,Step-1,Increment      1: Step Time =    1.000,"P-35-1",          1110,       50.4561,       14.9191,            0.,NA,NA,"",   1.30108E+06,   1.28560E+06,   1.28560E+06
C:/temp/Job-35.odb,Step-1,Increment      1: Step Time =    1.000,"P-35-1",          1111,       15.7945,       149.224,            0.,NA,NA,"",   936.466E+03,   1.00375E+06,   1.00375E+06
C:/temp/Job-35.odb,Step-1,Increment      1: Step Time =    1.000,"P-35-1",          1112,       25.4952,       65.4775,            0.,NA,NA,"",   801.718E+03,   842.693E+03,   842.693E+03
C:/temp/Job-35.odb,Step-1,Increment      1: Step Time =    1.000,"P-35-1",          1113,       175.370,       130.265,            0.,NA,NA,"",   1.02938E+06,   1.05504E+06,   1.05504E+06
C:/temp/Job-35.odb,Step-1,Increment      1: Step Time =    1.000,"P-35-1",          1114,       130.160,       22.2831,            0.,NA,NA,"",   1.12821E+06,   1.12542E+06,   1.12542E+06
C:/temp/Job-35.odb,Step-1,Increment      1: Step Time =    1.000,"P-35-1",          1115,       69.3065,       176.648,            0.,NA,NA,"",   1.28997E+06,   1.27081E+06,   1.27081E+06
C:/temp/Job-35.odb,Step-1,Increment      1: Step Time =    1.000,"P-35-1",          1116,       14.6661,       181.491,            0.,NA,NA,"",   1.33567E+06,   1.39312E+06,   1.39312E+06
C:/temp/Job-35.odb,Step-1,Increment      1: Step Time =    1.000,"P-35-1",          1117,       72.6770,       47.1053,            0.,NA,NA,"",   1.52679E+06,   1.48975E+06,   1.48975E+06
C:/temp/Job-35.odb,Step-1,Increment      1: Step Time =    1.000,"P-35-1",          1118,       127.256,       156.361,            0.,NA,NA,"",   1.43348E+06,   1.42663E+06,   1.42663E+06
C:/temp/Job-35.odb,Step-1,Increment      1: Step Time =    1.000,"P-35-1",          1119,       153.553,       73.9606,            0.,NA,NA,"",   1.22824E+06,   1.06863E+06,   1.06863E+06
C:/temp/Job-35.odb,Step-1,Increment      1: Step Time =    1.000,"P-35-1",          1120,       29.5287,       107.411,            0.,NA,NA,"",   402.892E+03,   459.137E+03,   459.137E+03
C:/temp/Job-35.odb,Step-1,Increment      1: Step Time =    1.000,"P-35-1",          1121,       90.1333,       31.3458,            0.,NA,NA,"",   1.23474E+06,   1.28964E+06,   1.28964E+06
C:/temp/Job-35.odb,Step-1,Increment      1: Step Time =    1.000,"P-35-1",          1122,       169.695,       90.2207,            0.,NA,NA,"",   747.159E+03,   803.818E+03,   803.818E+03
C:/temp/Job-35.odb,Step-1,Increment      1: Step Time =    1.000,"P-35-1",          1123,       110.167,       171.235,            0.,NA,NA,"",   1.13956E+06,   1.19848E+06,   1.19848E+06
C:/temp/Job-35.odb,Step-1,Increment      1: Step Time =    1.000,"P-35-1",          1124,       120.560,       28.8201,            0.,NA,NA,"",   1.18187E+06,   1.20985E+06,   1.20985E+06
C:/temp/Job-35.odb,Step-1,Increment      1: Step Time =    1.000,"P-35-1",          1125,       79.7260,       25.7577,            0.,NA,NA,"",   1.25009E+06,   1.25684E+06,   1.25684E+06
C:/temp/Job-35.odb,Step-1,Increment      1: Step Time =    1.000,"P-35-1",          1126,       169.915,       120.741,            0.,NA,NA,"",   952.285E+03,   967.282E+03,   967.282E+03
C:/temp/Job-35.odb,Step-1,Increment      1: Step Time =    1.000,"P-35-1",          1127,       78.2684,       171.256,            0.,NA,NA,"",   1.29807E+06,   1.30149E+06,   1.30149E+06
C:/temp/Job-35.odb,Step-1,Increment      1: Step Time =    1.000,"P-35-1",          1128,       167.956,       78.8864,            0.,NA,NA,"",   965.735E+03,   960.622E+03,   960.622E+03
C:/temp/Job-35.odb,Step-1,Increment      1: Step Time =    1.000,"P-35-1",          1129,       119.234,       171.139,            0.,NA,NA,"",   1.17319E+06,   1.20796E+06,   1.20796E+06
C:/temp/Job-35.odb,Step-1,Increment      1: Step Time =    1.000,"P-35-1",          1130,       29.1667,       59.9609,            0.,NA,NA,"",   929.662E+03,   950.150E+03,   950.150E+03
C:/temp/Job-35.odb,Step-1,Increment      1: Step Time =    1.000,"P-35-1",          1131,       139.781,       31.0236,            0.,NA,NA,"",   1.25507E+06,   1.22383E+06,   1.22383E+06
C:/temp/Job-35.odb,Step-1,Increment      1: Step Time =    1.000,"P-35-1",          1132,       29.5784,       141.598,            0.,NA,NA,"",   954.634E+03,   971.106E+03,   971.106E+03
C:/temp/Job-35.odb,Step-1,Increment      1: Step Time =    1.000,"P-35-1",          1133,       170.866,       138.609,            0.,NA,NA,"",   1.13863E+06,   1.11844E+06,   1.11844E+06
C:/temp/Job-35.odb,Step-1,Increment      1: Step Time =    1.000,"P-35-1",          1134,       140.126,       170.548,            0.,NA,NA,"",   1.23486E+06,   1.20440E+06,   1.20440E+06
C:/temp/Job-35.odb,Step-1,Increment      1: Step Time =    1.000,"P-35-1",          1135,       169.881,       58.0069,            0.,NA,NA,"",   1.16576E+06,   1.13777E+06,   1.13777E+06
C:/temp/Job-35.odb,Step-1,Increment      1: Step Time =    1.000,"P-35-1",          1136,       55.9771,       171.670,            0.,NA,NA,"",   1.36263E+06,   1.32108E+06,   1.32108E+06
C:/temp/Job-35.odb,Step-1,Increment      1: Step Time =    1.000,"P-35-1",          1137,       16.5342,       18.3472,            0.,NA,NA,"",   1.35003E+06,   1.39546E+06,   1.39546E+06
C:/temp/Job-35.odb,Step-1,Increment      1: Step Time =    1.000,"P-35-1",          1138,       178.938,       14.9414,            0.,NA,NA,"",   1.02089E+06,   1.02136E+06,   1.02136E+06
C:/temp/Job-35.odb,Step-1,Increment      1: Step Time =    1.000,"P-35-1",          1139,       15.0144,       184.971,            0.,NA,NA,"",   1.39945E+06,   1.44377E+06,   1.44377E+06
C:/temp/Job-35.odb,Step-1,Increment      1: Step Time =    1.000,"P-35-1",          1140,       185.312,       179.522,            0.,NA,NA,"",   1.01291E+06,   1.01767E+06,   1.01767E+06
C:/temp/Job-35.odb,Step-1,Increment      1: Step Time =    1.000,"P-35-1",          1141,       28.7746,       33.7511,            0.,NA,NA,"",   1.24395E+06,   1.25449E+06,   1.25449E+06
C:/temp/Job-35.odb,Step-1,Increment      1: Step Time =    1.000,"P-35-1",          1142,       164.231,       28.6246,            0.,NA,NA,"",   1.13206E+06,   1.11029E+06,   1.11029E+06
C:/temp/Job-35.odb,Step-1,Increment      1: Step Time =    1.000,"P-35-1",          1143,       28.8123,       163.972,            0.,NA,NA,"",   1.21911E+06,   1.23044E+06,   1.23044E+06
C:/temp/Job-35.odb,Step-1,Increment      1: Step Time =    1.000,"P-35-1",          1144,       37.2906,       170.777,            0.,NA,NA,"",   1.31809E+06,   1.30129E+06,   1.30129E+06
C:/temp/Job-35.odb,Step-1,Increment      1: Step Time =    1.000,"P-35-1",          1145,       171.142,       35.7373,            0.,NA,NA,"",   1.11922E+06,   1.10508E+06,   1.10508E+06
C:/temp/Job-35.odb,Step-1,Increment      1: Step Time =    1.000,"P-35-1",          1146,       170.700,       165.956,            0.,NA,NA,"",   1.11907E+06,   1.10378E+06,   1.10378E+06
C:/temp/Job-35.odb,Step-1,Increment      1: Step Time =    1.000,"P-35-1",          1147,       165.336,       172.016,            0.,NA,NA,"",   1.12064E+06,   1.10166E+06,   1.10166E+06
C:/temp/Job-35.odb,Step-1,Increment      1: Step Time =    1.000,"P-35-1",          1148,       154.671,       8.04650,            0.,NA,NA,"",   1.01285E+06,   1.00909E+06,   1.00909E+06
C:/temp/Job-35.odb,Step-1,Increment      1: Step Time =    1.000,"P-35-1",          1149,       190.633,       153.847,            0.,NA,NA,"",   977.411E+03,   1.02301E+06,   1.02301E+06
C:/temp/Job-35.odb,Step-1,Increment      1: Step Time =    1.000,"P-35-1",          1150,       45.9799,       190.612,            0.,NA,NA,"",   1.30623E+06,   1.29932E+06,   1.29932E+06
C:/temp/Job-35.odb,Step-1,Increment      1: Step Time =    1.000,"P-35-1",          1151,       9.91777,       46.9315,            0.,NA,NA,"",   934.522E+03,   1.02210E+06,   1.02210E+06
C:/temp/Job-35.odb,Step-1,Increment      1: Step Time =    1.000,"P-35-1",          1152,       53.0028,       111.634,            0.,NA,NA,"",   470.267E+03,   354.973E+03,   354.973E+03
C:/temp/Job-35.odb,Step-1,Increment      1: Step Time =    1.000,"P-35-1",          1153,       88.4118,       51.6568,            0.,NA,NA,"",   1.60064E+06,   1.69672E+06,   1.69672E+06
C:/temp/Job-35.odb,Step-1,Increment      1: Step Time =    1.000,"P-35-1",          1154,       110.533,       151.582,            0.,NA,NA,"",   1.46204E+06,   1.58293E+06,   1.58293E+06
C:/temp/Job-35.odb,Step-1,Increment      1: Step Time =    1.000,"P-35-1",          1155,       148.240,       88.4409,            0.,NA,NA,"",   752.744E+03,   566.049E+03,   566.049E+03
C:/temp/Job-35.odb,Step-1,Increment      1: Step Time =    1.000,"P-35-1",          1156,       30.9298,       129.866,            0.,NA,NA,"",   774.192E+03,   797.366E+03,   797.366E+03
C:/temp/Job-35.odb,Step-1,Increment      1: Step Time =    1.000,"P-35-1",          1157,       69.0322,       30.5863,            0.,NA,NA,"",   1.36623E+06,   1.33821E+06,   1.33821E+06
C:/temp/Job-35.odb,Step-1,Increment      1: Step Time =    1.000,"P-35-1",          1158,       129.848,       171.115,            0.,NA,NA,"",   1.21840E+06,   1.21465E+06,   1.21465E+06
C:/temp/Job-35.odb,Step-1,Increment      1: Step Time =    1.000,"P-35-1",          1159,       169.254,       68.8435,            0.,NA,NA,"",   1.10751E+06,   1.08419E+06,   1.08419E+06
C:/temp/Job-35.odb,Step-1,Increment      1: Step Time =    1.000,"P-35-1",          1160,       30.0669,       97.9014,            0.,NA,NA,"",   364.900E+03,   420.057E+03,   420.057E+03
C:/temp/Job-35.odb,Step-1,Increment      1: Step Time =    1.000,"P-35-1",          1161,       24.0611,       91.5299,            0.,NA,NA,"",   431.698E+03,   494.744E+03,   494.744E+03
C:/temp/Job-35.odb,Step-1,Increment      1: Step Time =    1.000,"P-35-1",          1162,       170.596,       100.440,            0.,NA,NA,"",   675.226E+03,   751.307E+03,   751.307E+03
C:/temp/Job-35.odb,Step-1,Increment      1: Step Time =    1.000,"P-35-1",          1163,       176.603,       108.062,            0.,NA,NA,"",   773.843E+03,   865.365E+03,   865.365E+03
C:/temp/Job-35.odb,Step-1,Increment      1: Step Time =    1.000,"P-35-1",          1164,       88.8696,       172.937,            0.,NA,NA,"",   1.19729E+06,   1.23503E+06,   1.23503E+06
C:/temp/Job-35.odb,Step-1,Increment      1: Step Time =    1.000,"P-35-1",          1165,       90.4683,       154.531,            0.,NA,NA,"",   1.44342E+06,   1.53709E+06,   1.53709E+06
C:/temp/Job-35.odb,Step-1,Increment      1: Step Time =    1.000,"P-35-1",          1166,       112.006,       43.7838,            0.,NA,NA,"",   1.36304E+06,   1.46237E+06,   1.46237E+06
C:/temp/Job-35.odb,Step-1,Increment      1: Step Time =    1.000,"P-35-1",          1167,       44.1559,       89.1052,            0.,NA,NA,"",   425.974E+03,   421.791E+03,   421.791E+03
C:/temp/Job-35.odb,Step-1,Increment      1: Step Time =    1.000,"P-35-1",          1168,       156.609,       111.892,            0.,NA,NA,"",   754.235E+03,   696.027E+03,   696.027E+03
C:/temp/Job-35.odb,Step-1,Increment      1: Step Time =    1.000,"P-35-1",          1169,       27.1166,       27.1782,            0.,NA,NA,"",   1.28643E+06,   1.30067E+06,   1.30067E+06
C:/temp/Job-35.odb,Step-1,Increment      1: Step Time =    1.000,"P-35-1",          1170,       173.561,       30.0135,            0.,NA,NA,"",   1.08117E+06,   1.07498E+06,   1.07498E+06
C:/temp/Job-35.odb,Step-1,Increment      1: Step Time =    1.000,"P-35-1",          1171,       171.620,       175.542,            0.,NA,NA,"",   1.07087E+06,   1.06394E+06,   1.06394E+06
C:/temp/Job-35.odb,Step-1,Increment      1: Step Time =    1.000,"P-35-1",          1172,       141.939,       134.082,            0.,NA,NA,"",   1.52544E+06,   1.32781E+06,   1.32781E+06
C:/temp/Job-35.odb,Step-1,Increment      1: Step Time =    1.000,"P-35-1",          1173,       63.7605,       142.092,            0.,NA,NA,"",   1.46156E+06,   1.35104E+06,   1.35104E+06
C:/temp/Job-35.odb,Step-1,Increment      1: Step Time =    1.000,"P-35-1",          1174,       132.656,       58.6961,            0.,NA,NA,"",   1.62611E+06,   1.52187E+06,   1.52187E+06
C:/temp/Job-35.odb,Step-1,Increment      1: Step Time =    1.000,"P-35-1",          1175,       58.4568,       66.8916,            0.,NA,NA,"",   1.24770E+06,   1.11069E+06,   1.11069E+06
C:/temp/Job-35.odb,Step-1,Increment      1: Step Time =    1.000,"P-35-1",          1176,       190.367,       45.5084,            0.,NA,NA,"",   981.294E+03,   1.02432E+06,   1.02432E+06
C:/temp/Job-35.odb,Step-1,Increment      1: Step Time =    1.000,"P-35-1",          1177,       154.271,       189.949,            0.,NA,NA,"",   1.02623E+06,   1.02038E+06,   1.02038E+06
C:/temp/Job-35.odb,Step-1,Increment      1: Step Time =    1.000,"P-35-1",          1178,       45.4663,       9.75546,            0.,NA,NA,"",   1.30855E+06,   1.30150E+06,   1.30150E+06
C:/temp/Job-35.odb,Step-1,Increment      1: Step Time =    1.000,"P-35-1",          1179,       10.1956,       154.425,            0.,NA,NA,"",   952.613E+03,   1.03970E+06,   1.03970E+06
C:/temp/Job-35.odb,Step-1,Increment      1: Step Time =    1.000,"P-35-1",          1180,       147.226,       92.4687,            0.,NA,NA,"",   570.646E+03,   249.054E+03,   249.054E+03
C:/temp/Job-35.odb,Step-1,Increment      1: Step Time =    1.000,"P-35-1",          1181,       53.4905,       107.624,            0.,NA,NA,"",   339.997E+03,   146.612E+03,   146.612E+03
C:/temp/Job-35.odb,Step-1,Increment      1: Step Time =    1.000,"P-35-1",          1182,       92.5935,       52.8722,            0.,NA,NA,"",   1.63730E+06,   1.76447E+06,   1.76447E+06
C:/temp/Job-35.odb,Step-1,Increment      1: Step Time =    1.000,"P-35-1",          1183,       149.429,       84.7264,            0.,NA,NA,"",   921.324E+03,   732.835E+03,   732.835E+03
C:/temp/Job-35.odb,Step-1,Increment      1: Step Time =    1.000,"P-35-1",          1184,       116.459,       152.780,            0.,NA,NA,"",   1.45731E+06,   1.53831E+06,   1.53831E+06
C:/temp/Job-35.odb,Step-1,Increment      1: Step Time =    1.000,"P-35-1",          1185,       83.8047,       49.6108,            0.,NA,NA,"",   1.55786E+06,   1.61256E+06,   1.61256E+06
C:/temp/Job-35.odb,Step-1,Increment      1: Step Time =    1.000,"P-35-1",          1186,       48.5801,       116.328,            0.,NA,NA,"",   602.336E+03,   530.385E+03,   530.385E+03
C:/temp/Job-35.odb,Step-1,Increment      1: Step Time =    1.000,"P-35-1",          1187,       154.176,       179.525,            0.,NA,NA,"",   1.10840E+06,   1.08968E+06,   1.08968E+06
C:/temp/Job-35.odb,Step-1,Increment      1: Step Time =    1.000,"P-35-1",          1188,       177.657,       152.177,            0.,NA,NA,"",   1.08689E+06,   1.09293E+06,   1.09293E+06
C:/temp/Job-35.odb,Step-1,Increment      1: Step Time =    1.000,"P-35-1",          1189,       181.089,       45.7415,            0.,NA,NA,"",   1.05361E+06,   1.07101E+06,   1.07101E+06
C:/temp/Job-35.odb,Step-1,Increment      1: Step Time =    1.000,"P-35-1",          1190,       46.7840,       181.345,            0.,NA,NA,"",   1.32480E+06,   1.30528E+06,   1.30528E+06
C:/temp/Job-35.odb,Step-1,Increment      1: Step Time =    1.000,"P-35-1",          1191,       153.186,       20.1351,            0.,NA,NA,"",   1.10766E+06,   1.08939E+06,   1.08939E+06
C:/temp/Job-35.odb,Step-1,Increment      1: Step Time =    1.000,"P-35-1",          1192,       21.4000,       154.456,            0.,NA,NA,"",   1.05346E+06,   1.09847E+06,   1.09847E+06
C:/temp/Job-35.odb,Step-1,Increment      1: Step Time =    1.000,"P-35-1",          1193,       45.3223,       19.5433,            0.,NA,NA,"",   1.33331E+06,   1.31329E+06,   1.31329E+06
C:/temp/Job-35.odb,Step-1,Increment      1: Step Time =    1.000,"P-35-1",          1194,       20.6487,       43.7853,            0.,NA,NA,"",   1.06314E+06,   1.11245E+06,   1.11245E+06
C:/temp/Job-35.odb,Step-1,Increment      1: Step Time =    1.000,"P-35-1",          1195,       156.254,       102.104,            0.,NA,NA,"",   480.799E+03,   486.038E+03,   486.038E+03
C:/temp/Job-35.odb,Step-1,Increment      1: Step Time =    1.000,"P-35-1",          1196,       102.263,       43.8563,            0.,NA,NA,"",   1.34838E+06,   1.47099E+06,   1.47099E+06
C:/temp/Job-35.odb,Step-1,Increment      1: Step Time =    1.000,"P-35-1",          1197,       44.4448,       98.3556,            0.,NA,NA,"",   240.301E+03,   265.460E+03,   265.460E+03
C:/temp/Job-35.odb,Step-1,Increment      1: Step Time =    1.000,"P-35-1",          1198,       99.5287,       155.313,            0.,NA,NA,"",   1.37438E+06,   1.49852E+06,   1.49852E+06
C:/temp/Job-35.odb,Step-1,Increment      1: Step Time =    1.000,"P-35-1",          1199,       187.161,       152.407,            0.,NA,NA,"",   997.658E+03,   1.03830E+06,   1.03830E+06
C:/temp/Job-35.odb,Step-1,Increment      1: Step Time =    1.000,"P-35-1",          1200,       46.8134,       186.348,            0.,NA,NA,"",   1.31351E+06,   1.30075E+06,   1.30075E+06
C:/temp/Job-35.odb,Step-1,Increment      1: Step Time =    1.000,"P-35-1",          1201,       14.5150,       48.7262,            0.,NA,NA,"",   952.799E+03,   1.02449E+06,   1.02449E+06
C:/temp/Job-35.odb,Step-1,Increment      1: Step Time =    1.000,"P-35-1",          1202,       27.1022,       170.475,            0.,NA,NA,"",   1.26632E+06,   1.28299E+06,   1.28299E+06
C:/temp/Job-35.odb,Step-1,Increment      1: Step Time =    1.000,"P-35-1",          1203,       155.089,       121.446,            0.,NA,NA,"",   1.08324E+06,   950.402E+03,   950.402E+03
C:/temp/Job-35.odb,Step-1,Increment      1: Step Time =    1.000,"P-35-1",          1204,       121.342,       45.7738,            0.,NA,NA,"",   1.44672E+06,   1.48630E+06,   1.48630E+06
C:/temp/Job-35.odb,Step-1,Increment      1: Step Time =    1.000,"P-35-1",          1205,       43.8727,       79.9066,            0.,NA,NA,"",   680.027E+03,   643.317E+03,   643.317E+03
C:/temp/Job-35.odb,Step-1,Increment      1: Step Time =    1.000,"P-35-1",          1206,       82.9529,       158.149,            0.,NA,NA,"",   1.43604E+06,   1.47378E+06,   1.47378E+06
C:/temp/Job-35.odb,Step-1,Increment      1: Step Time =    1.000,"P-35-1",          1207,       126.525,       24.6617,            0.,NA,NA,"",   1.14777E+06,   1.15352E+06,   1.15352E+06
C:/temp/Job-35.odb,Step-1,Increment      1: Step Time =    1.000,"P-35-1",          1208,       73.2010,       174.973,            0.,NA,NA,"",   1.28595E+06,   1.27445E+06,   1.27445E+06
C:/temp/Job-35.odb,Step-1,Increment      1: Step Time =    1.000,"P-35-1",          1209,       24.2727,       74.5898,            0.,NA,NA,"",   652.321E+03,   705.890E+03,   705.890E+03
C:/temp/Job-35.odb,Step-1,Increment      1: Step Time =    1.000,"P-35-1",          1210,       174.978,       125.636,            0.,NA,NA,"",   985.881E+03,   1.02165E+06,   1.02165E+06
C:/temp/Job-35.odb,Step-1,Increment      1: Step Time =    1.000,"P-35-1",          1211,       177.966,       19.5205,            0.,NA,NA,"",   1.03277E+06,   1.03282E+06,   1.03282E+06
C:/temp/Job-35.odb,Step-1,Increment      1: Step Time =    1.000,"P-35-1",          1212,       180.835,       178.806,            0.,NA,NA,"",   1.02567E+06,   1.02846E+06,   1.02846E+06
C:/temp/Job-35.odb,Step-1,Increment      1: Step Time =    1.000,"P-35-1",          1213,       68.0438,       46.2937,            0.,NA,NA,"",   1.50062E+06,   1.44016E+06,   1.44016E+06
C:/temp/Job-35.odb,Step-1,Increment      1: Step Time =    1.000,"P-35-1",          1214,       46.6534,       129.798,            0.,NA,NA,"",   972.268E+03,   899.966E+03,   899.966E+03
C:/temp/Job-35.odb,Step-1,Increment      1: Step Time =    1.000,"P-35-1",          1215,       153.638,       68.1344,            0.,NA,NA,"",   1.32995E+06,   1.17612E+06,   1.17612E+06
C:/temp/Job-35.odb,Step-1,Increment      1: Step Time =    1.000,"P-35-1",          1216,       132.490,       157.608,            0.,NA,NA,"",   1.42198E+06,   1.38826E+06,   1.38826E+06
C:/temp/Job-35.odb,Step-1,Increment      1: Step Time =    1.000,"P-35-1",          1217,       55.8174,       25.3652,            0.,NA,NA,"",   1.34318E+06,   1.30844E+06,   1.30844E+06
C:/temp/Job-35.odb,Step-1,Increment      1: Step Time =    1.000,"P-35-1",          1218,       26.7793,       55.9060,            0.,NA,NA,"",   965.200E+03,   991.672E+03,   991.672E+03
C:/temp/Job-35.odb,Step-1,Increment      1: Step Time =    1.000,"P-35-1",          1219,       26.7065,       144.790,            0.,NA,NA,"",   969.515E+03,   997.337E+03,   997.337E+03
C:/temp/Job-35.odb,Step-1,Increment      1: Step Time =    1.000,"P-35-1",          1220,       142.698,       26.9662,            0.,NA,NA,"",   1.20126E+06,   1.17357E+06,   1.17357E+06
C:/temp/Job-35.odb,Step-1,Increment      1: Step Time =    1.000,"P-35-1",          1221,       144.514,       174.087,            0.,NA,NA,"",   1.18239E+06,   1.15490E+06,   1.15490E+06
C:/temp/Job-35.odb,Step-1,Increment      1: Step Time =    1.000,"P-35-1",          1222,       173.896,       143.377,            0.,NA,NA,"",   1.12170E+06,   1.11497E+06,   1.11497E+06
C:/temp/Job-35.odb,Step-1,Increment      1: Step Time =    1.000,"P-35-1",          1223,       175.561,       54.3291,            0.,NA,NA,"",   1.10451E+06,   1.10676E+06,   1.10676E+06
C:/temp/Job-35.odb,Step-1,Increment      1: Step Time =    1.000,"P-35-1",          1224,       55.3521,       175.062,            0.,NA,NA,"",   1.34498E+06,   1.30944E+06,   1.30944E+06
C:/temp/Job-35.odb,Step-1,Increment      1: Step Time =    1.000,"P-35-1",          1225,       11.0913,       15.2010,            0.,NA,NA,"",   1.37968E+06,   1.44908E+06,   1.44908E+06
C:/temp/Job-35.odb,Step-1,Increment      1: Step Time =    1.000,"P-35-1",          1226,       184.503,       10.2677,            0.,NA,NA,"",   1.00596E+06,   1.00716E+06,   1.00716E+06
C:/temp/Job-35.odb,Step-1,Increment      1: Step Time =    1.000,"P-35-1",          1227,       15.2273,       189.746,            0.,NA,NA,"",   1.47378E+06,   1.49780E+06,   1.49780E+06
C:/temp/Job-35.odb,Step-1,Increment      1: Step Time =    1.000,"P-35-1",          1228,       189.910,       184.754,            0.,NA,NA,"",   1.00340E+06,   1.00611E+06,   1.00611E+06
C:/temp/Job-35.odb,Step-1,Increment      1: Step Time =    1.000,"P-35-1",          1229,       39.7324,       23.3166,            0.,NA,NA,"",   1.33937E+06,   1.32203E+06,   1.32203E+06
C:/temp/Job-35.odb,Step-1,Increment      1: Step Time =    1.000,"P-35-1",          1230,       25.0034,       160.749,            0.,NA,NA,"",   1.15998E+06,   1.18826E+06,   1.18826E+06
C:/temp/Job-35.odb,Step-1,Increment      1: Step Time =    1.000,"P-35-1",          1231,       176.600,       41.7591,            0.,NA,NA,"",   1.09137E+06,   1.09109E+06,   1.09109E+06
C:/temp/Job-35.odb,Step-1,Increment      1: Step Time =    1.000,"P-35-1",          1232,       159.786,       175.275,            0.,NA,NA,"",   1.12495E+06,   1.10343E+06,   1.10343E+06
C:/temp/Job-35.odb,Step-1,Increment      1: Step Time =    1.000,"P-35-1",          1233,       143.353,       138.920,            0.,NA,NA,"",   1.53082E+06,   1.36456E+06,   1.36456E+06
C:/temp/Job-35.odb,Step-1,Increment      1: Step Time =    1.000,"P-35-1",          1234,       140.783,       129.751,            0.,NA,NA,"",   1.48547E+06,   1.26027E+06,   1.26027E+06
C:/temp/Job-35.odb,Step-1,Increment      1: Step Time =    1.000,"P-35-1",          1235,       67.2917,       140.934,            0.,NA,NA,"",   1.50114E+06,   1.39646E+06,   1.39646E+06
C:/temp/Job-35.odb,Step-1,Increment      1: Step Time =    1.000,"P-35-1",          1236,       59.9479,       141.561,            0.,NA,NA,"",   1.40695E+06,   1.29524E+06,   1.29524E+06
C:/temp/Job-35.odb,Step-1,Increment      1: Step Time =    1.000,"P-35-1",          1237,       137.309,       58.7429,            0.,NA,NA,"",   1.59335E+06,   1.45763E+06,   1.45763E+06
C:/temp/Job-35.odb,Step-1,Increment      1: Step Time =    1.000,"P-35-1",          1238,       128.490,       58.3235,            0.,NA,NA,"",   1.64399E+06,   1.58195E+06,   1.58195E+06
C:/temp/Job-35.odb,Step-1,Increment      1: Step Time =    1.000,"P-35-1",          1239,       57.8496,       71.1610,            0.,NA,NA,"",   1.13839E+06,   990.729E+03,   990.729E+03
C:/temp/Job-35.odb,Step-1,Increment      1: Step Time =    1.000,"P-35-1",          1240,       58.9688,       62.1789,            0.,NA,NA,"",   1.34301E+06,   1.21850E+06,   1.21850E+06
C:/temp/Job-35.odb,Step-1,Increment      1: Step Time =    1.000,"P-35-1",          1241,       159.652,       123.294,            0.,NA,NA,"",   1.07960E+06,   990.091E+03,   990.091E+03
C:/temp/Job-35.odb,Step-1,Increment      1: Step Time =    1.000,"P-35-1",          1242,       80.6705,       161.141,            0.,NA,NA,"",   1.40336E+06,   1.42481E+06,   1.42481E+06
C:/temp/Job-35.odb,Step-1,Increment      1: Step Time =    1.000,"P-35-1",          1243,       122.925,       41.9500,            0.,NA,NA,"",   1.38597E+06,   1.41427E+06,   1.41427E+06
C:/temp/Job-35.odb,Step-1,Increment      1: Step Time =    1.000,"P-35-1",          1244,       38.8816,       79.7483,            0.,NA,NA,"",   641.502E+03,   641.659E+03,   641.659E+03
C:/temp/Job-35.odb,Step-1,Increment      1: Step Time =    1.000,"P-35-1",          1245,       98.9842,       160.107,            0.,NA,NA,"",   1.28535E+06,   1.39020E+06,   1.39020E+06
C:/temp/Job-35.odb,Step-1,Increment      1: Step Time =    1.000,"P-35-1",          1246,       102.052,       38.6417,            0.,NA,NA,"",   1.26046E+06,   1.36298E+06,   1.36298E+06
C:/temp/Job-35.odb,Step-1,Increment      1: Step Time =    1.000,"P-35-1",          1247,       39.4254,       102.816,            0.,NA,NA,"",   291.238E+03,   330.966E+03,   330.966E+03
C:/temp/Job-35.odb,Step-1,Increment      1: Step Time =    1.000,"P-35-1",          1248,       161.170,       102.043,            0.,NA,NA,"",   551.628E+03,   587.424E+03,   587.424E+03
C:/temp/Job-35.odb,Step-1,Increment      1: Step Time =    1.000,"P-35-1",          1249,       154.121,       80.4155,            0.,NA,NA,"",   1.03605E+06,   895.465E+03,   895.465E+03
C:/temp/Job-35.odb,Step-1,Increment      1: Step Time =    1.000,"P-35-1",          1250,       121.112,       156.600,            0.,NA,NA,"",   1.40236E+06,   1.44371E+06,   1.44371E+06
C:/temp/Job-35.odb,Step-1,Increment      1: Step Time =    1.000,"P-35-1",          1251,       79.9487,       43.8789,            0.,NA,NA,"",   1.47937E+06,   1.49758E+06,   1.49758E+06
C:/temp/Job-35.odb,Step-1,Increment      1: Step Time =    1.000,"P-35-1",          1252,       43.1120,       120.920,            0.,NA,NA,"",   697.438E+03,   663.460E+03,   663.460E+03
C:/temp/Job-35.odb,Step-1,Increment      1: Step Time =    1.000,"P-35-1",          1253,       155.136,       174.688,            0.,NA,NA,"",   1.14981E+06,   1.12335E+06,   1.12335E+06
C:/temp/Job-35.odb,Step-1,Increment      1: Step Time =    1.000,"P-35-1",          1254,       173.584,       154.478,            0.,NA,NA,"",   1.12773E+06,   1.11597E+06,   1.11597E+06
C:/temp/Job-35.odb,Step-1,Increment      1: Step Time =    1.000,"P-35-1",          1255,       176.817,       45.7010,            0.,NA,NA,"",   1.09473E+06,   1.09645E+06,   1.09645E+06
C:/temp/Job-35.odb,Step-1,Increment      1: Step Time =    1.000,"P-35-1",          1256,       45.5394,       174.837,            0.,NA,NA,"",   1.34184E+06,   1.31397E+06,   1.31397E+06
C:/temp/Job-35.odb,Step-1,Increment      1: Step Time =    1.000,"P-35-1",          1257,       27.8274,       155.903,            0.,NA,NA,"",   1.12955E+06,   1.14676E+06,   1.14676E+06
C:/temp/Job-35.odb,Step-1,Increment      1: Step Time =    1.000,"P-35-1",          1258,       154.327,       25.1868,            0.,NA,NA,"",   1.15193E+06,   1.12560E+06,   1.12560E+06
C:/temp/Job-35.odb,Step-1,Increment      1: Step Time =    1.000,"P-35-1",          1259,       44.7452,       24.3986,            0.,NA,NA,"",   1.34162E+06,   1.31555E+06,   1.31555E+06
C:/temp/Job-35.odb,Step-1,Increment      1: Step Time =    1.000,"P-35-1",          1260,       24.8462,       44.3541,            0.,NA,NA,"",   1.09620E+06,   1.12706E+06,   1.12706E+06
C:/temp/Job-35.odb,Step-1,Increment      1: Step Time =    1.000,"P-35-1",          1261,       156.247,       97.7160,            0.,NA,NA,"",   477.682E+03,   482.741E+03,   482.741E+03
C:/temp/Job-35.odb,Step-1,Increment      1: Step Time =    1.000,"P-35-1",          1262,       97.8393,       43.9510,            0.,NA,NA,"",   1.36377E+06,   1.48262E+06,   1.48262E+06
C:/temp/Job-35.odb,Step-1,Increment      1: Step Time =    1.000,"P-35-1",          1263,       44.2895,       102.849,            0.,NA,NA,"",   248.170E+03,   272.232E+03,   272.232E+03
C:/temp/Job-35.odb,Step-1,Increment      1: Step Time =    1.000,"P-35-1",          1264,       104.486,       155.746,            0.,NA,NA,"",   1.35432E+06,   1.47802E+06,   1.47802E+06
C:/temp/Job-35.odb,Step-1,Increment      1: Step Time =    1.000,"P-35-1",          1265,       150.357,       123.140,            0.,NA,NA,"",   1.20249E+06,   1.00641E+06,   1.00641E+06
C:/temp/Job-35.odb,Step-1,Increment      1: Step Time =    1.000,"P-35-1",          1266,       124.632,       50.4514,            0.,NA,NA,"",   1.54891E+06,   1.55469E+06,   1.55469E+06
C:/temp/Job-35.odb,Step-1,Increment      1: Step Time =    1.000,"P-35-1",          1267,       48.6056,       75.2885,            0.,NA,NA,"",   870.651E+03,   782.805E+03,   782.805E+03
C:/temp/Job-35.odb,Step-1,Increment      1: Step Time =    1.000,"P-35-1",          1268,       76.8365,       151.506,            0.,NA,NA,"",   1.54651E+06,   1.53892E+06,   1.53892E+06
C:/temp/Job-35.odb,Step-1,Increment      1: Step Time =    1.000,"P-35-1",          1269,       174.713,       148.608,            0.,NA,NA,"",   1.11780E+06,   1.11313E+06,   1.11313E+06
C:/temp/Job-35.odb,Step-1,Increment      1: Step Time =    1.000,"P-35-1",          1270,       150.734,       173.439,            0.,NA,NA,"",   1.17946E+06,   1.14823E+06,   1.14823E+06
C:/temp/Job-35.odb,Step-1,Increment      1: Step Time =    1.000,"P-35-1",          1271,       149.759,       26.7279,            0.,NA,NA,"",   1.18576E+06,   1.15431E+06,   1.15431E+06
C:/temp/Job-35.odb,Step-1,Increment      1: Step Time =    1.000,"P-35-1",          1272,       28.1925,       150.938,            0.,NA,NA,"",   1.07245E+06,   1.09053E+06,   1.09053E+06
C:/temp/Job-35.odb,Step-1,Increment      1: Step Time =    1.000,"P-35-1",          1273,       49.4356,       177.226,            0.,NA,NA,"",   1.33610E+06,   1.30785E+06,   1.30785E+06
C:/temp/Job-35.odb,Step-1,Increment      1: Step Time =    1.000,"P-35-1",          1274,       176.336,       49.9037,            0.,NA,NA,"",   1.09899E+06,   1.10183E+06,   1.10183E+06
C:/temp/Job-35.odb,Step-1,Increment      1: Step Time =    1.000,"P-35-1",          1275,       24.3889,       47.9584,            0.,NA,NA,"",   1.04743E+06,   1.08154E+06,   1.08154E+06
C:/temp/Job-35.odb,Step-1,Increment      1: Step Time =    1.000,"P-35-1",          1276,       50.2889,       25.3289,            0.,NA,NA,"",   1.34495E+06,   1.31223E+06,   1.31223E+06
C:/temp/Job-35.odb,Step-1,Increment      1: Step Time =    1.000,"P-35-1",          1277,       110.334,       25.9898,            0.,NA,NA,"",   1.10788E+06,   1.15765E+06,   1.15765E+06
C:/temp/Job-35.odb,Step-1,Increment      1: Step Time =    1.000,"P-35-1",          1278,       26.6948,       87.8973,            0.,NA,NA,"",   462.001E+03,   521.283E+03,   521.283E+03
C:/temp/Job-35.odb,Step-1,Increment      1: Step Time =    1.000,"P-35-1",          1279,       90.3133,       167.110,            0.,NA,NA,"",   1.25244E+06,   1.30903E+06,   1.30903E+06
C:/temp/Job-35.odb,Step-1,Increment      1: Step Time =    1.000,"P-35-1",          1280,       175.154,       111.842,            0.,NA,NA,"",   801.128E+03,   882.846E+03,   882.846E+03
C:/temp/Job-35.odb,Step-1,Increment      1: Step Time =    1.000,"P-35-1",          1281,       165.993,       101.475,            0.,NA,NA,"",   616.283E+03,   673.925E+03,   673.925E+03
C:/temp/Job-35.odb,Step-1,Increment      1: Step Time =    1.000,"P-35-1",          1282,       99.2056,       164.017,            0.,NA,NA,"",   1.23349E+06,   1.32483E+06,   1.32483E+06
C:/temp/Job-35.odb,Step-1,Increment      1: Step Time =    1.000,"P-35-1",          1283,       34.8005,       98.4763,            0.,NA,NA,"",   327.893E+03,   376.709E+03,   376.709E+03
C:/temp/Job-35.odb,Step-1,Increment      1: Step Time =    1.000,"P-35-1",          1284,       101.117,       33.1689,            0.,NA,NA,"",   1.19212E+06,   1.27348E+06,   1.27348E+06
C:/temp/Job-35.odb,Step-1,Increment      1: Step Time =    1.000,"P-35-1",          1285,       165.570,       90.5176,            0.,NA,NA,"",    713.44E+03,   746.827E+03,   746.827E+03
C:/temp/Job-35.odb,Step-1,Increment      1: Step Time =    1.000,"P-35-1",          1286,       111.227,       167.019,            0.,NA,NA,"",   1.19247E+06,   1.26283E+06,   1.26283E+06
C:/temp/Job-35.odb,Step-1,Increment      1: Step Time =    1.000,"P-35-1",          1287,       34.1105,       111.527,            0.,NA,NA,"",   438.171E+03,   482.941E+03,   482.941E+03
C:/temp/Job-35.odb,Step-1,Increment      1: Step Time =    1.000,"P-35-1",          1288,       89.0968,       36.0743,            0.,NA,NA,"",   1.30244E+06,   1.36621E+06,   1.36621E+06
C:/temp/Job-35.odb,Step-1,Increment      1: Step Time =    1.000,"P-35-1",          1289,       165.295,       120.144,            0.,NA,NA,"",   956.598E+03,   937.870E+03,   937.870E+03
C:/temp/Job-35.odb,Step-1,Increment      1: Step Time =    1.000,"P-35-1",          1290,       81.3331,       166.262,            0.,NA,NA,"",   1.33337E+06,   1.35387E+06,   1.35387E+06
C:/temp/Job-35.odb,Step-1,Increment      1: Step Time =    1.000,"P-35-1",          1291,       163.365,       83.4758,            0.,NA,NA,"",   887.504E+03,   864.848E+03,   864.848E+03
C:/temp/Job-35.odb,Step-1,Increment      1: Step Time =    1.000,"P-35-1",          1292,       121.485,       167.078,            0.,NA,NA,"",   1.24088E+06,   1.27151E+06,   1.27151E+06
C:/temp/Job-35.odb,Step-1,Increment      1: Step Time =    1.000,"P-35-1",          1293,       32.0892,       120.284,            0.,NA,NA,"",   598.502E+03,   632.969E+03,   632.969E+03
C:/temp/Job-35.odb,Step-1,Increment      1: Step Time =    1.000,"P-35-1",          1294,       79.6771,       31.1989,            0.,NA,NA,"",   1.31522E+06,   1.32489E+06,   1.32489E+06
C:/temp/Job-35.odb,Step-1,Increment      1: Step Time =    1.000,"P-35-1",          1295,       33.9815,       79.0481,            0.,NA,NA,"",   625.288E+03,   650.262E+03,   650.262E+03
C:/temp/Job-35.odb,Step-1,Increment      1: Step Time =    1.000,"P-35-1",          1296,       120.654,       31.9021,            0.,NA,NA,"",   1.22009E+06,   1.25154E+06,   1.25154E+06
C:/temp/Job-35.odb,Step-1,Increment      1: Step Time =    1.000,"P-35-1",          1297,       156.519,       93.6254,            0.,NA,NA,"",   564.914E+03,   550.123E+03,   550.123E+03
C:/temp/Job-35.odb,Step-1,Increment      1: Step Time =    1.000,"P-35-1",          1298,       109.433,       156.616,            0.,NA,NA,"",   1.34480E+06,   1.45390E+06,   1.45390E+06
C:/temp/Job-35.odb,Step-1,Increment      1: Step Time =    1.000,"P-35-1",          1299,       93.7610,       43.9106,            0.,NA,NA,"",   1.38858E+06,   1.49388E+06,   1.49388E+06
C:/temp/Job-35.odb,Step-1,Increment      1: Step Time =    1.000,"P-35-1",          1300,       44.0286,       107.304,            0.,NA,NA,"",   327.421E+03,   339.328E+03,   339.328E+03
C:/temp/Job-35.odb,Step-1,Increment      1: Step Time =    1.000,"P-35-1",          1301,       128.129,       165.550,            0.,NA,NA,"",   1.29553E+06,   1.29515E+06,   1.29515E+06
C:/temp/Job-35.odb,Step-1,Increment      1: Step Time =    1.000,"P-35-1",          1302,       164.993,       69.4249,            0.,NA,NA,"",   1.15219E+06,   1.09545E+06,   1.09545E+06
C:/temp/Job-35.odb,Step-1,Increment      1: Step Time =    1.000,"P-35-1",          1303,       68.7428,       36.0255,            0.,NA,NA,"",   1.41993E+06,   1.38277E+06,   1.38277E+06
C:/temp/Job-35.odb,Step-1,Increment      1: Step Time =    1.000,"P-35-1",          1304,       36.4634,       129.757,            0.,NA,NA,"",   832.418E+03,   826.176E+03,   826.176E+03
C:/temp/Job-35.odb,Step-1,Increment      1: Step Time =    1.000,"P-35-1",          1305,       162.498,       112.719,            0.,NA,NA,"",   790.460E+03,   784.943E+03,   784.943E+03
C:/temp/Job-35.odb,Step-1,Increment      1: Step Time =    1.000,"P-35-1",          1306,       89.9971,       158.843,            0.,NA,NA,"",   1.36740E+06,   1.44707E+06,   1.44707E+06
C:/temp/Job-35.odb,Step-1,Increment      1: Step Time =    1.000,"P-35-1",          1307,       113.111,       37.5493,            0.,NA,NA,"",   1.26297E+06,   1.33778E+06,   1.33778E+06
C:/temp/Job-35.odb,Step-1,Increment      1: Step Time =    1.000,"P-35-1",          1308,       39.0106,       89.2441,            0.,NA,NA,"",   423.675E+03,   451.168E+03,   451.168E+03
C:/temp/Job-35.odb,Step-1,Increment      1: Step Time =    1.000,"P-35-1",          1309,       39.8331,       166.889,            0.,NA,NA,"",   1.31417E+06,   1.28906E+06,   1.28906E+06
C:/temp/Job-35.odb,Step-1,Increment      1: Step Time =    1.000,"P-35-1",          1310,       166.385,       39.3672,            0.,NA,NA,"",   1.17791E+06,   1.14653E+06,   1.14653E+06
C:/temp/Job-35.odb,Step-1,Increment      1: Step Time =    1.000,"P-35-1",          1311,       168.286,       162.971,            0.,NA,NA,"",   1.15067E+06,   1.12700E+06,   1.12700E+06
C:/temp/Job-35.odb,Step-1,Increment      1: Step Time =    1.000,"P-35-1",          1312,       164.499,       165.915,            0.,NA,NA,"",   1.16378E+06,   1.13513E+06,   1.13513E+06
C:/temp/Job-35.odb,Step-1,Increment      1: Step Time =    1.000,"P-35-1",          1313,       33.2909,       37.0883,            0.,NA,NA,"",   1.24888E+06,   1.24298E+06,   1.24298E+06
C:/temp/Job-35.odb,Step-1,Increment      1: Step Time =    1.000,"P-35-1",          1314,       38.8443,       33.8760,            0.,NA,NA,"",   1.30659E+06,   1.28214E+06,   1.28214E+06
C:/temp/Job-35.odb,Step-1,Increment      1: Step Time =    1.000,"P-35-1",          1315,       165.063,       33.6634,            0.,NA,NA,"",   1.15462E+06,   1.12858E+06,   1.12858E+06
C:/temp/Job-35.odb,Step-1,Increment      1: Step Time =    1.000,"P-35-1",          1316,       36.1604,       163.826,            0.,NA,NA,"",   1.27607E+06,   1.25955E+06,   1.25955E+06
C:/temp/Job-35.odb,Step-1,Increment      1: Step Time =    1.000,"P-35-1",          1317,       128.684,       54.3344,            0.,NA,NA,"",   1.60336E+06,   1.55540E+06,   1.55540E+06
C:/temp/Job-35.odb,Step-1,Increment      1: Step Time =    1.000,"P-35-1",          1318,       144.741,       128.776,            0.,NA,NA,"",   1.41977E+06,   1.19900E+06,   1.19900E+06
C:/temp/Job-35.odb,Step-1,Increment      1: Step Time =    1.000,"P-35-1",          1319,       53.2450,       70.7692,            0.,NA,NA,"",   1.07332E+06,   951.258E+03,   951.258E+03
C:/temp/Job-35.odb,Step-1,Increment      1: Step Time =    1.000,"P-35-1",          1320,       68.8964,       144.894,            0.,NA,NA,"",   1.53697E+06,   1.45599E+06,   1.45599E+06
C:/temp/Job-35.odb,Step-1,Increment      1: Step Time =    1.000,"P-35-1",          1321,       151.706,       30.2680,            0.,NA,NA,"",   1.21624E+06,   1.17730E+06,   1.17730E+06
C:/temp/Job-35.odb,Step-1,Increment      1: Step Time =    1.000,"P-35-1",          1322,       170.507,       150.193,            0.,NA,NA,"",   1.16571E+06,   1.14046E+06,   1.14046E+06
C:/temp/Job-35.odb,Step-1,Increment      1: Step Time =    1.000,"P-35-1",          1323,       29.2297,       48.9199,            0.,NA,NA,"",   1.08538E+06,   1.09813E+06,   1.09813E+06
C:/temp/Job-35.odb,Step-1,Increment      1: Step Time =    1.000,"P-35-1",          1324,       47.5271,       171.059,            0.,NA,NA,"",   1.34954E+06,   1.31384E+06,   1.31384E+06
C:/temp/Job-35.odb,Step-1,Increment      1: Step Time =    1.000,"P-35-1",          1325,       161.716,       162.334,            0.,NA,NA,"",   1.20857E+06,   1.16784E+06,   1.16784E+06
C:/temp/Job-35.odb,Step-1,Increment      1: Step Time =    1.000,"P-35-1",          1326,       18.7660,       78.8799,            0.,NA,NA,"",   573.808E+03,   640.085E+03,   640.085E+03
C:/temp/Job-35.odb,Step-1,Increment      1: Step Time =    1.000,"P-35-1",          1327,       179.630,       121.089,            0.,NA,NA,"",   913.865E+03,   991.416E+03,   991.416E+03
C:/temp/Job-35.odb,Step-1,Increment      1: Step Time =    1.000,"P-35-1",          1328,       69.6012,       170.891,            0.,NA,NA,"",   1.34999E+06,   1.32509E+06,   1.32509E+06
C:/temp/Job-35.odb,Step-1,Increment      1: Step Time =    1.000,"P-35-1",          1329,       28.9972,       65.6726,            0.,NA,NA,"",   830.785E+03,   857.480E+03,   857.480E+03
C:/temp/Job-35.odb,Step-1,Increment      1: Step Time =    1.000,"P-35-1",          1330,       170.658,       130.000,            0.,NA,NA,"",   1.07591E+06,   1.06653E+06,   1.06653E+06
C:/temp/Job-35.odb,Step-1,Increment      1: Step Time =    1.000,"P-35-1",          1331,       46.6201,       133.476,            0.,NA,NA,"",   1.04845E+06,   975.885E+03,   975.885E+03
C:/temp/Job-35.odb,Step-1,Increment      1: Step Time =    1.000,"P-35-1",          1332,       63.2719,       46.2815,            0.,NA,NA,"",   1.47019E+06,   1.39660E+06,   1.39660E+06
C:/temp/Job-35.odb,Step-1,Increment      1: Step Time =    1.000,"P-35-1",          1333,       154.747,       62.5699,            0.,NA,NA,"",   1.36267E+06,   1.23168E+06,   1.23168E+06
C:/temp/Job-35.odb,Step-1,Increment      1: Step Time =    1.000,"P-35-1",          1334,       133.238,       152.043,            0.,NA,NA,"",   1.50467E+06,   1.44869E+06,   1.44869E+06
C:/temp/Job-35.odb,Step-1,Increment      1: Step Time =    1.000,"P-35-1",          1335,       111.240,       31.4478,            0.,NA,NA,"",   1.17249E+06,   1.23612E+06,   1.23612E+06
C:/temp/Job-35.odb,Step-1,Increment      1: Step Time =    1.000,"P-35-1",          1336,       33.9926,       89.8285,            0.,NA,NA,"",   419.816E+03,   466.033E+03,   466.033E+03
C:/temp/Job-35.odb,Step-1,Increment      1: Step Time =    1.000,"P-35-1",          1337,       167.826,       110.800,            0.,NA,NA,"",   760.903E+03,   803.773E+03,   803.773E+03
C:/temp/Job-35.odb,Step-1,Increment      1: Step Time =    1.000,"P-35-1",          1338,       166.052,       116.250,            0.,NA,NA,"",   873.221E+03,   877.200E+03,   877.200E+03
C:/temp/Job-35.odb,Step-1,Increment      1: Step Time =    1.000,"P-35-1",          1339,       85.7114,       162.216,            0.,NA,NA,"",   1.34942E+06,   1.39650E+06,   1.39650E+06
C:/temp/Job-35.odb,Step-1,Increment      1: Step Time =    1.000,"P-35-1",          1340,       117.649,       33.9663,            0.,NA,NA,"",   1.23244E+06,   1.27958E+06,   1.27958E+06
C:/temp/Job-35.odb,Step-1,Increment      1: Step Time =    1.000,"P-35-1",          1341,       38.5761,       84.5089,            0.,NA,NA,"",   528.156E+03,   542.916E+03,   542.916E+03
C:/temp/Job-35.odb,Step-1,Increment      1: Step Time =    1.000,"P-35-1",          1342,       93.9966,       160.618,            0.,NA,NA,"",   1.31025E+06,   1.40084E+06,   1.40084E+06
C:/temp/Job-35.odb,Step-1,Increment      1: Step Time =    1.000,"P-35-1",          1343,       34.9712,       94.2295,            0.,NA,NA,"",   358.199E+03,   406.440E+03,   406.440E+03
C:/temp/Job-35.odb,Step-1,Increment      1: Step Time =    1.000,"P-35-1",          1344,       107.062,       38.0611,            0.,NA,NA,"",   1.25120E+06,   1.34676E+06,   1.34676E+06
C:/temp/Job-35.odb,Step-1,Increment      1: Step Time =    1.000,"P-35-1",          1345,       161.700,       106.900,            0.,NA,NA,"",   636.517E+03,   658.217E+03,   658.217E+03
C:/temp/Job-35.odb,Step-1,Increment      1: Step Time =    1.000,"P-35-1",          1346,       176.411,       158.398,            0.,NA,NA,"",   1.09384E+06,   1.09206E+06,   1.09206E+06
C:/temp/Job-35.odb,Step-1,Increment      1: Step Time =    1.000,"P-35-1",          1347,       41.5341,       172.826,            0.,NA,NA,"",   1.33719E+06,   1.31258E+06,   1.31258E+06
C:/temp/Job-35.odb,Step-1,Increment      1: Step Time =    1.000,"P-35-1",          1348,       159.068,       24.4398,            0.,NA,NA,"",   1.12677E+06,   1.10509E+06,   1.10509E+06
C:/temp/Job-35.odb,Step-1,Increment      1: Step Time =    1.000,"P-35-1",          1349,       24.5264,       37.0149,            0.,NA,NA,"",   1.18157E+06,   1.20959E+06,   1.20959E+06
C:/temp/Job-35.odb,Step-1,Increment      1: Step Time =    1.000,"P-35-1",          1350,       55.7193,       141.037,            0.,NA,NA,"",   1.33377E+06,   1.22584E+06,   1.22584E+06
C:/temp/Job-35.odb,Step-1,Increment      1: Step Time =    1.000,"P-35-1",          1351,       59.2319,       57.0872,            0.,NA,NA,"",   1.40631E+06,   1.29741E+06,   1.29741E+06
C:/temp/Job-35.odb,Step-1,Increment      1: Step Time =    1.000,"P-35-1",          1352,       139.628,       145.696,            0.,NA,NA,"",   1.54272E+06,   1.42532E+06,   1.42532E+06
C:/temp/Job-35.odb,Step-1,Increment      1: Step Time =    1.000,"P-35-1",          1353,       142.347,       58.2379,            0.,NA,NA,"",   1.54074E+06,   1.39311E+06,   1.39311E+06
C:/temp/Job-35.odb,Step-1,Increment      1: Step Time =    1.000,"P-35-1",          1354,       152.683,       89.1267,            0.,NA,NA,"",   708.567E+03,   607.585E+03,   607.585E+03
C:/temp/Job-35.odb,Step-1,Increment      1: Step Time =    1.000,"P-35-1",          1355,       89.5260,       47.6114,            0.,NA,NA,"",   1.48892E+06,   1.58159E+06,   1.58159E+06
C:/temp/Job-35.odb,Step-1,Increment      1: Step Time =    1.000,"P-35-1",          1356,       48.5131,       111.782,            0.,NA,NA,"",   451.427E+03,   399.881E+03,   399.881E+03
C:/temp/Job-35.odb,Step-1,Increment      1: Step Time =    1.000,"P-35-1",          1357,       72.4472,       153.454,            0.,NA,NA,"",   1.52214E+06,   1.48422E+06,   1.48422E+06
C:/temp/Job-35.odb,Step-1,Increment      1: Step Time =    1.000,"P-35-1",          1358,       128.682,       50.6320,            0.,NA,NA,"",   1.55264E+06,   1.51931E+06,   1.51931E+06
C:/temp/Job-35.odb,Step-1,Increment      1: Step Time =    1.000,"P-35-1",          1359,       48.4853,       70.5487,            0.,NA,NA,"",   996.932E+03,   908.596E+03,   908.596E+03
C:/temp/Job-35.odb,Step-1,Increment      1: Step Time =    1.000,"P-35-1",          1360,       148.707,       127.676,            0.,NA,NA,"",   1.34293E+06,   1.13951E+06,   1.13951E+06
C:/temp/Job-35.odb,Step-1,Increment      1: Step Time =    1.000,"P-35-1",          1361,       184.661,       184.486,            0.,NA,NA,"",   1.01023E+06,   1.01287E+06,   1.01287E+06
C:/temp/Job-35.odb,Step-1,Increment      1: Step Time =    1.000,"P-35-1",          1362,       184.074,       15.5899,            0.,NA,NA,"",   1.01180E+06,   1.01418E+06,   1.01418E+06
C:/temp/Job-35.odb,Step-1,Increment      1: Step Time =    1.000,"P-35-1",          1363,       16.0620,       14.5250,            0.,NA,NA,"",   1.41135E+06,   1.44729E+06,   1.44729E+06
C:/temp/Job-35.odb,Step-1,Increment      1: Step Time =    1.000,"P-35-1",          1364,       165.211,       94.1160,            0.,NA,NA,"",   649.750E+03,   696.034E+03,   696.034E+03
C:/temp/Job-35.odb,Step-1,Increment      1: Step Time =    1.000,"P-35-1",          1365,       106.970,       165.990,            0.,NA,NA,"",   1.19739E+06,   1.27920E+06,   1.27920E+06
C:/temp/Job-35.odb,Step-1,Increment      1: Step Time =    1.000,"P-35-1",          1366,       34.3389,       107.109,            0.,NA,NA,"",   372.967E+03,   421.282E+03,   421.282E+03
C:/temp/Job-35.odb,Step-1,Increment      1: Step Time =    1.000,"P-35-1",          1367,       92.6357,       35.4776,            0.,NA,NA,"",   1.26479E+06,   1.33986E+06,   1.33986E+06
C:/temp/Job-35.odb,Step-1,Increment      1: Step Time =    1.000,"P-35-1",          1368,       162.028,       86.6313,            0.,NA,NA,"",   797.024E+03,    785.03E+03,    785.03E+03
C:/temp/Job-35.odb,Step-1,Increment      1: Step Time =    1.000,"P-35-1",          1369,       117.140,       164.652,            0.,NA,NA,"",   1.25020E+06,   1.30551E+06,   1.30551E+06
C:/temp/Job-35.odb,Step-1,Increment      1: Step Time =    1.000,"P-35-1",          1370,       38.2763,       116.244,            0.,NA,NA,"",   542.412E+03,   557.122E+03,   557.122E+03
C:/temp/Job-35.odb,Step-1,Increment      1: Step Time =    1.000,"P-35-1",          1371,       84.7090,       36.4952,            0.,NA,NA,"",   1.34495E+06,   1.38760E+06,   1.38760E+06
C:/temp/Job-35.odb,Step-1,Increment      1: Step Time =    1.000,"P-35-1",          1372,       36.9507,       125.193,            0.,NA,NA,"",   737.516E+03,   736.987E+03,   736.987E+03
C:/temp/Job-35.odb,Step-1,Increment      1: Step Time =    1.000,"P-35-1",          1373,       123.384,       163.129,            0.,NA,NA,"",   1.31049E+06,   1.33390E+06,   1.33390E+06
C:/temp/Job-35.odb,Step-1,Increment      1: Step Time =    1.000,"P-35-1",          1374,       163.248,       75.8936,            0.,NA,NA,"",   1.06848E+06,   1.01067E+06,   1.01067E+06
C:/temp/Job-35.odb,Step-1,Increment      1: Step Time =    1.000,"P-35-1",          1375,       74.3466,       36.6194,            0.,NA,NA,"",   1.41271E+06,   1.39787E+06,   1.39787E+06
C:/temp/Job-35.odb,Step-1,Increment      1: Step Time =    1.000,"P-35-1",          1376,       68.4557,       41.3563,            0.,NA,NA,"",   1.46554E+06,   1.41766E+06,   1.41766E+06
C:/temp/Job-35.odb,Step-1,Increment      1: Step Time =    1.000,"P-35-1",          1377,       41.7256,       129.684,            0.,NA,NA,"",   900.360E+03,   861.172E+03,   861.172E+03
C:/temp/Job-35.odb,Step-1,Increment      1: Step Time =    1.000,"P-35-1",          1378,       159.717,       68.3287,            0.,NA,NA,"",   1.23710E+06,   1.13299E+06,   1.13299E+06
C:/temp/Job-35.odb,Step-1,Increment      1: Step Time =    1.000,"P-35-1",          1379,       129.236,       161.609,            0.,NA,NA,"",   1.35628E+06,   1.34587E+06,   1.34587E+06
C:/temp/Job-35.odb,Step-1,Increment      1: Step Time =    1.000,"P-35-1",          1380,       36.2621,       134.217,            0.,NA,NA,"",   916.743E+03,   905.673E+03,   905.673E+03
C:/temp/Job-35.odb,Step-1,Increment      1: Step Time =    1.000,"P-35-1",          1381,       133.641,       162.098,            0.,NA,NA,"",   1.35533E+06,   1.32581E+06,   1.32581E+06
C:/temp/Job-35.odb,Step-1,Increment      1: Step Time =    1.000,"P-35-1",          1382,       63.0514,       35.5856,            0.,NA,NA,"",   1.41432E+06,   1.36417E+06,   1.36417E+06
C:/temp/Job-35.odb,Step-1,Increment      1: Step Time =    1.000,"P-35-1",          1383,       163.742,       60.0036,            0.,NA,NA,"",   1.24407E+06,   1.17486E+06,   1.17486E+06
C:/temp/Job-35.odb,Step-1,Increment      1: Step Time =    1.000,"P-35-1",          1384,       158.955,       82.1269,            0.,NA,NA,"",   941.941E+03,   867.623E+03,   867.623E+03
C:/temp/Job-35.odb,Step-1,Increment      1: Step Time =    1.000,"P-35-1",          1385,       118.945,       160.517,            0.,NA,NA,"",   1.32481E+06,   1.37747E+06,   1.37747E+06
C:/temp/Job-35.odb,Step-1,Increment      1: Step Time =    1.000,"P-35-1",          1386,       79.6885,       36.9911,            0.,NA,NA,"",   1.38715E+06,   1.40059E+06,   1.40059E+06
C:/temp/Job-35.odb,Step-1,Increment      1: Step Time =    1.000,"P-35-1",          1387,       37.5947,       120.669,            0.,NA,NA,"",   640.434E+03,   646.746E+03,   646.746E+03
C:/temp/Job-35.odb,Step-1,Increment      1: Step Time =    1.000,"P-35-1",          1388,       35.0320,       74.5136,            0.,NA,NA,"",   727.109E+03,   738.193E+03,   738.193E+03
C:/temp/Job-35.odb,Step-1,Increment      1: Step Time =    1.000,"P-35-1",          1389,       125.024,       38.3069,            0.,NA,NA,"",   1.33742E+06,   1.35334E+06,   1.35334E+06
C:/temp/Job-35.odb,Step-1,Increment      1: Step Time =    1.000,"P-35-1",          1390,       164.863,       125.432,            0.,NA,NA,"",   1.07088E+06,   1.02484E+06,   1.02484E+06
C:/temp/Job-35.odb,Step-1,Increment      1: Step Time =    1.000,"P-35-1",          1391,       75.9451,       162.578,            0.,NA,NA,"",   1.41302E+06,   1.40676E+06,   1.40676E+06
C:/temp/Job-35.odb,Step-1,Increment      1: Step Time =    1.000,"P-35-1",          1392,       189.339,       15.5774,            0.,NA,NA,"",   1.00465E+06,   1.00746E+06,   1.00746E+06
C:/temp/Job-35.odb,Step-1,Increment      1: Step Time =    1.000,"P-35-1",          1393,       184.595,       189.541,            0.,NA,NA,"",   1.00611E+06,   1.00740E+06,   1.00740E+06
C:/temp/Job-35.odb,Step-1,Increment      1: Step Time =    1.000,"P-35-1",          1394,       15.6277,       9.87706,            0.,NA,NA,"",   1.47594E+06,   1.49681E+06,   1.49681E+06
C:/temp/Job-35.odb,Step-1,Increment      1: Step Time =    1.000,"P-35-1",          1395,       10.2310,       184.842,            0.,NA,NA,"",   1.37365E+06,   1.44880E+06,   1.44880E+06
C:/temp/Job-35.odb,Step-1,Increment      1: Step Time =    1.000,"P-35-1",          1396,       158.103,       165.022,            0.,NA,NA,"",   1.21828E+06,   1.17578E+06,   1.17578E+06
C:/temp/Job-35.odb,Step-1,Increment      1: Step Time =    1.000,"P-35-1",          1397,       40.2283,       160.388,            0.,NA,NA,"",   1.28722E+06,   1.25607E+06,   1.25607E+06
C:/temp/Job-35.odb,Step-1,Increment      1: Step Time =    1.000,"P-35-1",          1398,       43.2035,       37.2447,            0.,NA,NA,"",   1.32324E+06,   1.28425E+06,   1.28425E+06
C:/temp/Job-35.odb,Step-1,Increment      1: Step Time =    1.000,"P-35-1",          1399,       51.2357,       140.693,            0.,NA,NA,"",   1.25207E+06,   1.15865E+06,   1.15865E+06
C:/temp/Job-35.odb,Step-1,Increment      1: Step Time =    1.000,"P-35-1",          1400,       58.8286,       51.7892,            0.,NA,NA,"",   1.43190E+06,   1.33895E+06,   1.33895E+06
C:/temp/Job-35.odb,Step-1,Increment      1: Step Time =    1.000,"P-35-1",          1401,       143.182,       151.424,            0.,NA,NA,"",   1.46228E+06,   1.36516E+06,   1.36516E+06
C:/temp/Job-35.odb,Step-1,Increment      1: Step Time =    1.000,"P-35-1",          1402,       147.427,       56.7497,            0.,NA,NA,"",   1.47251E+06,   1.33428E+06,   1.33428E+06
C:/temp/Job-35.odb,Step-1,Increment      1: Step Time =    1.000,"P-35-1",          1403,       139.460,       153.883,            0.,NA,NA,"",   1.46086E+06,   1.38291E+06,   1.38291E+06
C:/temp/Job-35.odb,Step-1,Increment      1: Step Time =    1.000,"P-35-1",          1404,       152.898,       59.2855,            0.,NA,NA,"",   1.39525E+06,   1.26575E+06,   1.26575E+06
C:/temp/Job-35.odb,Step-1,Increment      1: Step Time =    1.000,"P-35-1",          1405,       46.7061,       140.602,            0.,NA,NA,"",   1.17339E+06,   1.10241E+06,   1.10241E+06
C:/temp/Job-35.odb,Step-1,Increment      1: Step Time =    1.000,"P-35-1",          1406,       58.3844,       46.4620,            0.,NA,NA,"",   1.43210E+06,   1.35357E+06,   1.35357E+06
C:/temp/Job-35.odb,Step-1,Increment      1: Step Time =    1.000,"P-35-1",          1407,       112.671,       162.721,            0.,NA,NA,"",   1.25518E+06,   1.33366E+06,   1.33366E+06
C:/temp/Job-35.odb,Step-1,Increment      1: Step Time =    1.000,"P-35-1",          1408,       161.335,       90.2266,            0.,NA,NA,"",   692.422E+03,   695.934E+03,   695.934E+03
C:/temp/Job-35.odb,Step-1,Increment      1: Step Time =    1.000,"P-35-1",          1409,       89.7624,       40.2494,            0.,NA,NA,"",   1.35519E+06,   1.43129E+06,   1.43129E+06
C:/temp/Job-35.odb,Step-1,Increment      1: Step Time =    1.000,"P-35-1",          1410,       38.8458,       111.753,            0.,NA,NA,"",   439.896E+03,   465.323E+03,   465.323E+03
C:/temp/Job-35.odb,Step-1,Increment      1: Step Time =    1.000,"P-35-1",          1411,       32.4666,       139.354,            0.,NA,NA,"",   961.179E+03,   964.650E+03,   964.650E+03
C:/temp/Job-35.odb,Step-1,Increment      1: Step Time =    1.000,"P-35-1",          1412,       57.4088,       35.8519,            0.,NA,NA,"",   1.39970E+06,   1.34445E+06,   1.34445E+06
C:/temp/Job-35.odb,Step-1,Increment      1: Step Time =    1.000,"P-35-1",          1413,       35.9214,       70.2164,            0.,NA,NA,"",   823.243E+03,   821.811E+03,   821.811E+03
C:/temp/Job-35.odb,Step-1,Increment      1: Step Time =    1.000,"P-35-1",          1414,       127.266,       34.6626,            0.,NA,NA,"",   1.28853E+06,   1.29329E+06,   1.29329E+06
C:/temp/Job-35.odb,Step-1,Increment      1: Step Time =    1.000,"P-35-1",          1415,       71.5157,       164.368,            0.,NA,NA,"",   1.41089E+06,   1.38499E+06,   1.38499E+06
C:/temp/Job-35.odb,Step-1,Increment      1: Step Time =    1.000,"P-35-1",          1416,       163.565,       149.804,            0.,NA,NA,"",   1.24698E+06,   1.18946E+06,   1.18946E+06
C:/temp/Job-35.odb,Step-1,Increment      1: Step Time =    1.000,"P-35-1",          1417,       35.7201,       44.9745,            0.,NA,NA,"",   1.19899E+06,   1.18277E+06,   1.18277E+06
C:/temp/Job-35.odb,Step-1,Increment      1: Step Time =    1.000,"P-35-1",          1418,       45.2805,       166.469,            0.,NA,NA,"",   1.34084E+06,   1.30301E+06,   1.30301E+06
C:/temp/Job-35.odb,Step-1,Increment      1: Step Time =    1.000,"P-35-1",          1419,       160.260,       57.7188,            0.,NA,NA,"",   1.29705E+06,   1.20964E+06,   1.20964E+06
C:/temp/Job-35.odb,Step-1,Increment      1: Step Time =    1.000,"P-35-1",          1420,       137.740,       160.760,            0.,NA,NA,"",   1.36922E+06,   1.32150E+06,   1.32150E+06
C:/temp/Job-35.odb,Step-1,Increment      1: Step Time =    1.000,"P-35-1",          1421,       36.7622,       138.627,            0.,NA,NA,"",   995.981E+03,   979.921E+03,   979.921E+03
C:/temp/Job-35.odb,Step-1,Increment      1: Step Time =    1.000,"P-35-1",          1422,       54.6763,       145.252,            0.,NA,NA,"",   1.35578E+06,   1.26120E+06,   1.26120E+06
C:/temp/Job-35.odb,Step-1,Increment      1: Step Time =    1.000,"P-35-1",          1423,       53.8202,       56.7389,            0.,NA,NA,"",   1.32206E+06,   1.22481E+06,   1.22481E+06
C:/temp/Job-35.odb,Step-1,Increment      1: Step Time =    1.000,"P-35-1",          1424,       145.079,       144.168,            0.,NA,NA,"",   1.49557E+06,   1.36104E+06,   1.36104E+06
C:/temp/Job-35.odb,Step-1,Increment      1: Step Time =    1.000,"P-35-1",          1425,       141.916,       53.0881,            0.,NA,NA,"",   1.51448E+06,   1.39798E+06,   1.39798E+06
C:/temp/Job-35.odb,Step-1,Increment      1: Step Time =    1.000,"P-35-1",          1426,       33.8345,       40.4094,            0.,NA,NA,"",   1.22741E+06,   1.21806E+06,   1.21806E+06
C:/temp/Job-35.odb,Step-1,Increment      1: Step Time =    1.000,"P-35-1",          1427,       43.1581,       163.813,            0.,NA,NA,"",   1.32346E+06,   1.28764E+06,   1.28764E+06
C:/temp/Job-35.odb,Step-1,Increment      1: Step Time =    1.000,"P-35-1",          1428,       160.196,       34.8600,            0.,NA,NA,"",   1.20238E+06,   1.16352E+06,   1.16352E+06
C:/temp/Job-35.odb,Step-1,Increment      1: Step Time =    1.000,"P-35-1",          1429,       165.504,       159.580,            0.,NA,NA,"",   1.19195E+06,   1.15618E+06,   1.15618E+06
C:/temp/Job-35.odb,Step-1,Increment      1: Step Time =    1.000,"P-35-1",          1430,       157.061,       89.7121,            0.,NA,NA,"",   692.626E+03,   652.275E+03,   652.275E+03
C:/temp/Job-35.odb,Step-1,Increment      1: Step Time =    1.000,"P-35-1",          1431,       89.9702,       43.6468,            0.,NA,NA,"",   1.41006E+06,   1.49612E+06,   1.49612E+06
C:/temp/Job-35.odb,Step-1,Increment      1: Step Time =    1.000,"P-35-1",          1432,       43.7283,       111.854,            0.,NA,NA,"",   443.743E+03,   437.593E+03,   437.593E+03
C:/temp/Job-35.odb,Step-1,Increment      1: Step Time =    1.000,"P-35-1",          1433,       37.2330,       143.578,            0.,NA,NA,"",   1.08087E+06,   1.05930E+06,   1.05930E+06
C:/temp/Job-35.odb,Step-1,Increment      1: Step Time =    1.000,"P-35-1",          1434,       52.0006,       36.5644,            0.,NA,NA,"",   1.37612E+06,   1.32226E+06,   1.32226E+06
C:/temp/Job-35.odb,Step-1,Increment      1: Step Time =    1.000,"P-35-1",          1435,       161.465,       54.7440,            0.,NA,NA,"",   1.28220E+06,   1.20638E+06,   1.20638E+06
C:/temp/Job-35.odb,Step-1,Increment      1: Step Time =    1.000,"P-35-1",          1436,       144.457,       164.082,            0.,NA,NA,"",   1.30263E+06,   1.25187E+06,   1.25187E+06
C:/temp/Job-35.odb,Step-1,Increment      1: Step Time =    1.000,"P-35-1",          1437,       168.119,       47.1245,            0.,NA,NA,"",   1.18331E+06,   1.15107E+06,   1.15107E+06
C:/temp/Job-35.odb,Step-1,Increment      1: Step Time =    1.000,"P-35-1",          1438,       42.9132,       32.2013,            0.,NA,NA,"",   1.33712E+06,   1.30352E+06,   1.30352E+06
C:/temp/Job-35.odb,Step-1,Increment      1: Step Time =    1.000,"P-35-1",          1439,       154.527,       167.103,            0.,NA,NA,"",   1.22076E+06,   1.17880E+06,   1.17880E+06
C:/temp/Job-35.odb,Step-1,Increment      1: Step Time =    1.000,"P-35-1",          1440,       37.2043,       155.719,            0.,NA,NA,"",   1.22356E+06,   1.20047E+06,   1.20047E+06
C:/temp/Job-35.odb,Step-1,Increment      1: Step Time =    1.000,"P-35-1",          1441,       145.803,       156.484,            0.,NA,NA,"",   1.38651E+06,   1.30838E+06,   1.30838E+06
C:/temp/Job-35.odb,Step-1,Increment      1: Step Time =    1.000,"P-35-1",          1442,       46.3204,       144.061,            0.,NA,NA,"",   1.21454E+06,   1.14864E+06,   1.14864E+06
C:/temp/Job-35.odb,Step-1,Increment      1: Step Time =    1.000,"P-35-1",          1443,       152.266,       55.3182,            0.,NA,NA,"",   1.40274E+06,   1.28427E+06,   1.28427E+06
C:/temp/Job-35.odb,Step-1,Increment      1: Step Time =    1.000,"P-35-1",          1444,       53.2923,       46.6055,            0.,NA,NA,"",   1.38271E+06,   1.30746E+06,   1.30746E+06
C:/temp/Job-35.odb,Step-1,Increment      1: Step Time =    1.000,"P-35-1",          1445,       57.9719,       41.2129,            0.,NA,NA,"",   1.42003E+06,   1.35360E+06,   1.35360E+06
C:/temp/Job-35.odb,Step-1,Increment      1: Step Time =    1.000,"P-35-1",          1446,       156.102,       58.2274,            0.,NA,NA,"",   1.35455E+06,   1.24283E+06,   1.24283E+06
C:/temp/Job-35.odb,Step-1,Increment      1: Step Time =    1.000,"P-35-1",          1447,       141.906,       158.832,            0.,NA,NA,"",   1.38292E+06,   1.31792E+06,   1.31792E+06
C:/temp/Job-35.odb,Step-1,Increment      1: Step Time =    1.000,"P-35-1",          1448,       42.1291,       141.224,            0.,NA,NA,"",   1.11548E+06,   1.06860E+06,   1.06860E+06
C:/temp/Job-35.odb,Step-1,Increment      1: Step Time =    1.000,"P-35-1",          1449,       32.3019,       152.776,            0.,NA,NA,"",   1.14205E+06,   1.14066E+06,   1.14066E+06
C:/temp/Job-35.odb,Step-1,Increment      1: Step Time =    1.000,"P-35-1",          1450,       152.327,       169.588,            0.,NA,NA,"",   1.20993E+06,   1.17150E+06,   1.17150E+06
C:/temp/Job-35.odb,Step-1,Increment      1: Step Time =    1.000,"P-35-1",          1451,       43.7498,       28.7776,            0.,NA,NA,"",   1.34120E+06,   1.31049E+06,   1.31049E+06
C:/temp/Job-35.odb,Step-1,Increment      1: Step Time =    1.000,"P-35-1",          1452,       172.018,       48.9898,            0.,NA,NA,"",   1.14116E+06,   1.12594E+06,   1.12594E+06
C:/temp/Job-35.odb,Step-1,Increment      1: Step Time =    1.000,"P-35-1",          1453,       151.979,       50.4438,            0.,NA,NA,"",   1.38874E+06,   1.28751E+06,   1.28751E+06
C:/temp/Job-35.odb,Step-1,Increment      1: Step Time =    1.000,"P-35-1",          1454,       48.0846,       46.6693,            0.,NA,NA,"",   1.32220E+06,   1.25943E+06,   1.25943E+06
C:/temp/Job-35.odb,Step-1,Increment      1: Step Time =    1.000,"P-35-1",          1455,       149.625,       154.452,            0.,NA,NA,"",   1.37548E+06,   1.29058E+06,   1.29058E+06
C:/temp/Job-35.odb,Step-1,Increment      1: Step Time =    1.000,"P-35-1",          1456,       43.5661,       151.090,            0.,NA,NA,"",   1.25614E+06,   1.20589E+06,   1.20589E+06
C:/temp/Job-35.odb,Step-1,Increment      1: Step Time =    1.000,"P-35-1",          1457,       128.993,       39.8791,            0.,NA,NA,"",   1.37821E+06,   1.36863E+06,   1.36863E+06
C:/temp/Job-35.odb,Step-1,Increment      1: Step Time =    1.000,"P-35-1",          1458,       39.4147,       70.5341,            0.,NA,NA,"",   860.371E+03,   837.617E+03,   837.617E+03
C:/temp/Job-35.odb,Step-1,Increment      1: Step Time =    1.000,"P-35-1",          1459,       162.699,       129.534,            0.,NA,NA,"",   1.16161E+06,   1.08627E+06,   1.08627E+06
C:/temp/Job-35.odb,Step-1,Increment      1: Step Time =    1.000,"P-35-1",          1460,       69.7316,       159.988,            0.,NA,NA,"",   1.45777E+06,   1.41771E+06,   1.41771E+06
C:/temp/Job-35.odb,Step-1,Increment      1: Step Time =    1.000,"P-35-1",          1461,       47.3742,       37.7162,            0.,NA,NA,"",   1.34698E+06,   1.29898E+06,   1.29898E+06
C:/temp/Job-35.odb,Step-1,Increment      1: Step Time =    1.000,"P-35-1",          1462,       162.160,       50.3054,            0.,NA,NA,"",   1.26338E+06,   1.19988E+06,   1.19988E+06
C:/temp/Job-35.odb,Step-1,Increment      1: Step Time =    1.000,"P-35-1",          1463,       151.730,       164.027,            0.,NA,NA,"",   1.26622E+06,   1.21477E+06,   1.21477E+06
C:/temp/Job-35.odb,Step-1,Increment      1: Step Time =    1.000,"P-35-1",          1464,       38.9467,       150.371,            0.,NA,NA,"",   1.19187E+06,   1.15946E+06,   1.15946E+06
C:/temp/Job-35.odb,Step-1,Increment      1: Step Time =    1.000,"P-35-1",          1465,       141.292,       48.4547,            0.,NA,NA,"",   1.47439E+06,   1.38169E+06,   1.38169E+06
C:/temp/Job-35.odb,Step-1,Increment      1: Step Time =    1.000,"P-35-1",          1466,       48.6314,       56.4036,            0.,NA,NA,"",   1.24560E+06,   1.16818E+06,   1.16818E+06
C:/temp/Job-35.odb,Step-1,Increment      1: Step Time =    1.000,"P-35-1",          1467,       149.918,       142.623,            0.,NA,NA,"",   1.43966E+06,   1.30464E+06,   1.30464E+06
C:/temp/Job-35.odb,Step-1,Increment      1: Step Time =    1.000,"P-35-1",          1468,       57.2910,       150.309,            0.,NA,NA,"",   1.41868E+06,   1.33176E+06,   1.33176E+06
C:/temp/Job-35.odb,Step-1,Increment      1: Step Time =    1.000,"P-35-1",          1469,       96.6333,       34.2898,            0.,NA,NA,"",   1.22528E+06,   1.30593E+06,   1.30593E+06
C:/temp/Job-35.odb,Step-1,Increment      1: Step Time =    1.000,"P-35-1",          1470,       34.3574,       102.765,            0.,NA,NA,"",   333.500E+03,   382.709E+03,   382.709E+03
C:/temp/Job-35.odb,Step-1,Increment      1: Step Time =    1.000,"P-35-1",          1471,       102.733,       165.060,            0.,NA,NA,"",   1.21134E+06,   1.30054E+06,   1.30054E+06
C:/temp/Job-35.odb,Step-1,Increment      1: Step Time =    1.000,"P-35-1",          1472,       165.285,       97.4212,            0.,NA,NA,"",   612.626E+03,   667.239E+03,   667.239E+03
C:/temp/Job-35.odb,Step-1,Increment      1: Step Time =    1.000,"P-35-1",          1473,       162.117,       133.967,            0.,NA,NA,"",   1.21934E+06,   1.13638E+06,   1.13638E+06
C:/temp/Job-35.odb,Step-1,Increment      1: Step Time =    1.000,"P-35-1",          1474,       65.2590,       162.162,            0.,NA,NA,"",   1.43555E+06,   1.38484E+06,   1.38484E+06
C:/temp/Job-35.odb,Step-1,Increment      1: Step Time =    1.000,"P-35-1",          1475,       37.8278,       65.6757,            0.,NA,NA,"",   933.946E+03,   915.692E+03,   915.692E+03
C:/temp/Job-35.odb,Step-1,Increment      1: Step Time =    1.000,"P-35-1",          1476,       134.946,       37.9917,            0.,NA,NA,"",   1.35465E+06,   1.32116E+06,   1.32116E+06
C:/temp/Job-35.odb,Step-1,Increment      1: Step Time =    1.000,"P-35-1",          1477,       47.5414,       42.0010,            0.,NA,NA,"",   1.33981E+06,   1.28489E+06,   1.28489E+06
C:/temp/Job-35.odb,Step-1,Increment      1: Step Time =    1.000,"P-35-1",          1478,       157.287,       49.7047,            0.,NA,NA,"",   1.32240E+06,   1.23948E+06,   1.23948E+06
C:/temp/Job-35.odb,Step-1,Increment      1: Step Time =    1.000,"P-35-1",          1479,       151.896,       157.822,            0.,NA,NA,"",   1.32293E+06,   1.25333E+06,   1.25333E+06
C:/temp/Job-35.odb,Step-1,Increment      1: Step Time =    1.000,"P-35-1",          1480,       46.6456,       154.249,            0.,NA,NA,"",   1.31614E+06,   1.25735E+06,   1.25735E+06
C:/temp/Job-35.odb,Step-1,Increment      1: Step Time =    1.000,"P-35-1",          1481,       152.330,       147.932,            0.,NA,NA,"",   1.39367E+06,   1.28758E+06,   1.28758E+06
C:/temp/Job-35.odb,Step-1,Increment      1: Step Time =    1.000,"P-35-1",          1482,       146.051,       47.0542,            0.,NA,NA,"",   1.42547E+06,   1.33262E+06,   1.33262E+06
C:/temp/Job-35.odb,Step-1,Increment      1: Step Time =    1.000,"P-35-1",          1483,       51.6284,       153.215,            0.,NA,NA,"",   1.36210E+06,   1.29033E+06,   1.29033E+06
C:/temp/Job-35.odb,Step-1,Increment      1: Step Time =    1.000,"P-35-1",          1484,       48.5178,       51.5915,            0.,NA,NA,"",   1.29201E+06,   1.22109E+06,   1.22109E+06
C:/temp/Job-35.odb,Step-1,Increment      1: Step Time =    1.000,"P-35-1",          1485,       34.7386,       148.585,            0.,NA,NA,"",   1.11995E+06,   1.10850E+06,   1.10850E+06
C:/temp/Job-35.odb,Step-1,Increment      1: Step Time =    1.000,"P-35-1",          1486,       148.938,       167.115,            0.,NA,NA,"",   1.24928E+06,   1.20455E+06,   1.20455E+06
C:/temp/Job-35.odb,Step-1,Increment      1: Step Time =    1.000,"P-35-1",          1487,       45.8724,       34.4620,            0.,NA,NA,"",   1.34479E+06,   1.30411E+06,   1.30411E+06
C:/temp/Job-35.odb,Step-1,Increment      1: Step Time =    1.000,"P-35-1",          1488,       166.653,       51.7503,            0.,NA,NA,"",   1.20881E+06,   1.16576E+06,   1.16576E+06
C:/temp/Job-35.odb,Step-1,Increment      1: Step Time =    1.000,"P-35-1",          1489,       56.5044,       30.4820,            0.,NA,NA,"",   1.37310E+06,   1.32842E+06,   1.32842E+06
C:/temp/Job-35.odb,Step-1,Increment      1: Step Time =    1.000,"P-35-1",          1490,       165.497,       56.2080,            0.,NA,NA,"",   1.22667E+06,   1.17219E+06,   1.17219E+06
C:/temp/Job-35.odb,Step-1,Increment      1: Step Time =    1.000,"P-35-1",          1491,       139.244,       165.549,            0.,NA,NA,"",   1.30196E+06,   1.26288E+06,   1.26288E+06
C:/temp/Job-35.odb,Step-1,Increment      1: Step Time =    1.000,"P-35-1",          1492,       60.8779,       150.646,            0.,NA,NA,"",   1.45563E+06,   1.36952E+06,   1.36952E+06
C:/temp/Job-35.odb,Step-1,Increment      1: Step Time =    1.000,"P-35-1",          1493,       48.5600,       61.1460,            0.,NA,NA,"",   1.18031E+06,   1.09802E+06,   1.09802E+06
C:/temp/Job-35.odb,Step-1,Increment      1: Step Time =    1.000,"P-35-1",          1494,       152.211,       135.984,            0.,NA,NA,"",   1.38986E+06,   1.23975E+06,   1.23975E+06
C:/temp/Job-35.odb,Step-1,Increment      1: Step Time =    1.000,"P-35-1",          1495,       136.217,       45.4425,            0.,NA,NA,"",   1.46238E+06,   1.39974E+06,   1.39974E+06
C:/temp/Job-35.odb,Step-1,Increment      1: Step Time =    1.000,"P-35-1",          1496,       156.861,       133.421,            0.,NA,NA,"",   1.29602E+06,   1.16985E+06,   1.16985E+06
C:/temp/Job-35.odb,Step-1,Increment      1: Step Time =    1.000,"P-35-1",          1497,       67.9799,       155.633,            0.,NA,NA,"",   1.49227E+06,   1.43582E+06,   1.43582E+06
C:/temp/Job-35.odb,Step-1,Increment      1: Step Time =    1.000,"P-35-1",          1498,       43.3884,       65.6317,            0.,NA,NA,"",   1.01939E+06,   965.690E+03,   965.690E+03
C:/temp/Job-35.odb,Step-1,Increment      1: Step Time =    1.000,"P-35-1",          1499,       131.433,       45.5259,            0.,NA,NA,"",   1.47482E+06,   1.43722E+06,   1.43722E+06
C:/temp/Job-35.odb,Step-1,Increment      1: Step Time =    1.000,"P-35-1",          1500,       155.117,       161.206,            0.,NA,NA,"",   1.27285E+06,   1.21655E+06,   1.21655E+06
C:/temp/Job-35.odb,Step-1,Increment      1: Step Time =    1.000,"P-35-1",          1501,       43.0448,       154.870,            0.,NA,NA,"",   1.28085E+06,   1.23460E+06,   1.23460E+06
C:/temp/Job-35.odb,Step-1,Increment      1: Step Time =    1.000,"P-35-1",          1502,       163.613,       45.1196,            0.,NA,NA,"",   1.23036E+06,   1.18159E+06,   1.18159E+06
C:/temp/Job-35.odb,Step-1,Increment      1: Step Time =    1.000,"P-35-1",          1503,       154.538,       153.869,            0.,NA,NA,"",   1.33232E+06,   1.25381E+06,   1.25381E+06
C:/temp/Job-35.odb,Step-1,Increment      1: Step Time =    1.000,"P-35-1",          1504,       151.343,       45.1761,            0.,NA,NA,"",   1.36050E+06,   1.27790E+06,   1.27790E+06
C:/temp/Job-35.odb,Step-1,Increment      1: Step Time =    1.000,"P-35-1",          1505,       48.6471,       156.406,            0.,NA,NA,"",   1.34343E+06,   1.28298E+06,   1.28298E+06
C:/temp/Job-35.odb,Step-1,Increment      1: Step Time =    1.000,"P-35-1",          1506,       43.0457,       46.8180,            0.,NA,NA,"",   1.26112E+06,   1.21496E+06,   1.21496E+06
C:/temp/Job-35.odb,Step-1,Increment      1: Step Time =    1.000,"P-35-1",          1507,       66.2071,       151.412,            0.,NA,NA,"",   1.50376E+06,   1.42997E+06,   1.42997E+06
C:/temp/Job-35.odb,Step-1,Increment      1: Step Time =    1.000,"P-35-1",          1508,       56.1275,       155.565,            0.,NA,NA,"",   1.40995E+06,   1.33667E+06,   1.33667E+06
C:/temp/Job-35.odb,Step-1,Increment      1: Step Time =    1.000,"P-35-1",          1509,       43.6377,       56.0165,            0.,NA,NA,"",   1.17751E+06,   1.12317E+06,   1.12317E+06
C:/temp/Job-35.odb,Step-1,Increment      1: Step Time =    1.000,"P-35-1",          1510,       48.4579,       65.8581,            0.,NA,NA,"",   1.09913E+06,   1.01305E+06,   1.01305E+06
C:/temp/Job-35.odb,Step-1,Increment      1: Step Time =    1.000,"P-35-1",          1511,       154.227,       140.788,            0.,NA,NA,"",   1.37676E+06,   1.25248E+06,   1.25248E+06
C:/temp/Job-35.odb,Step-1,Increment      1: Step Time =    1.000,"P-35-1",          1512,       150.107,       131.811,            0.,NA,NA,"",   1.37927E+06,   1.20250E+06,   1.20250E+06
C:/temp/Job-35.odb,Step-1,Increment      1: Step Time =    1.000,"P-35-1",          1513,       140.381,       44.3223,            0.,NA,NA,"",   1.43200E+06,   1.35886E+06,   1.35886E+06
C:/temp/Job-35.odb,Step-1,Increment      1: Step Time =    1.000,"P-35-1",          1514,       132.542,       50.0039,            0.,NA,NA,"",   1.53773E+06,   1.47557E+06,   1.47557E+06
C:/temp/Job-35.odb,Step-1,Increment      1: Step Time =    1.000,"P-35-1",          1515,       138.902,       40.2101,            0.,NA,NA,"",   1.38425E+06,   1.33060E+06,   1.33060E+06
C:/temp/Job-35.odb,Step-1,Increment      1: Step Time =    1.000,"P-35-1",          1516,       38.8843,       60.0602,            0.,NA,NA,"",   1.04513E+06,   1.01662E+06,   1.01662E+06
C:/temp/Job-35.odb,Step-1,Increment      1: Step Time =    1.000,"P-35-1",          1517,       162.522,       138.612,            0.,NA,NA,"",   1.25229E+06,   1.17206E+06,   1.17206E+06
C:/temp/Job-35.odb,Step-1,Increment      1: Step Time =    1.000,"P-35-1",          1518,       60.8738,       164.375,            0.,NA,NA,"",   1.41231E+06,   1.35870E+06,   1.35870E+06
C:/temp/Job-35.odb,Step-1,Increment      1: Step Time =    1.000,"P-35-1",          1519,       159.343,       151.494,            0.,NA,NA,"",   1.29090E+06,   1.22046E+06,   1.22046E+06
C:/temp/Job-35.odb,Step-1,Increment      1: Step Time =    1.000,"P-35-1",          1520,       149.446,       40.4296,            0.,NA,NA,"",   1.33130E+06,   1.26401E+06,   1.26401E+06
C:/temp/Job-35.odb,Step-1,Increment      1: Step Time =    1.000,"P-35-1",          1521,       47.1596,       161.889,            0.,NA,NA,"",   1.34317E+06,   1.29563E+06,   1.29563E+06
C:/temp/Job-35.odb,Step-1,Increment      1: Step Time =    1.000,"P-35-1",          1522,       39.2544,       47.7498,            0.,NA,NA,"",   1.21391E+06,   1.18181E+06,   1.18181E+06
C:/temp/Job-35.odb,Step-1,Increment      1: Step Time =    1.000,"P-35-1",          1523,       142.982,       39.1706,            0.,NA,NA,"",   1.35473E+06,   1.29561E+06,   1.29561E+06
C:/temp/Job-35.odb,Step-1,Increment      1: Step Time =    1.000,"P-35-1",          1524,       159.488,       142.647,            0.,NA,NA,"",   1.30974E+06,   1.21660E+06,   1.21660E+06
C:/temp/Job-35.odb,Step-1,Increment      1: Step Time =    1.000,"P-35-1",          1525,       38.7241,       55.4570,            0.,NA,NA,"",   1.11524E+06,   1.08535E+06,   1.08535E+06
C:/temp/Job-35.odb,Step-1,Increment      1: Step Time =    1.000,"P-35-1",          1526,       58.5540,       160.123,            0.,NA,NA,"",   1.42078E+06,   1.35687E+06,   1.35687E+06
C:/temp/Job-35.odb,Step-1,Increment      1: Step Time =    1.000,"P-35-1",          1527,       143.344,       33.5177,            0.,NA,NA,"",   1.28045E+06,   1.23803E+06,   1.23803E+06
C:/temp/Job-35.odb,Step-1,Increment      1: Step Time =    1.000,"P-35-1",          1528,       166.785,       138.682,            0.,NA,NA,"",   1.19118E+06,   1.14216E+06,   1.14216E+06
C:/temp/Job-35.odb,Step-1,Increment      1: Step Time =    1.000,"P-35-1",          1529,       34.9631,       59.4180,            0.,NA,NA,"",   999.842E+03,   992.298E+03,   992.298E+03
C:/temp/Job-35.odb,Step-1,Increment      1: Step Time =    1.000,"P-35-1",          1530,       56.7943,       166.661,            0.,NA,NA,"",   1.38904E+06,   1.33823E+06,   1.33823E+06
C:/temp/Job-35.odb,Step-1,Increment      1: Step Time =    1.000,"P-35-1",          1531,       166.420,       130.017,            0.,NA,NA,"",   1.12205E+06,   1.07896E+06,   1.07896E+06
C:/temp/Job-35.odb,Step-1,Increment      1: Step Time =    1.000,"P-35-1",          1532,       67.2944,       166.620,            0.,NA,NA,"",   1.39839E+06,   1.36106E+06,   1.36106E+06
C:/temp/Job-35.odb,Step-1,Increment      1: Step Time =    1.000,"P-35-1",          1533,       32.2672,       69.4557,            0.,NA,NA,"",   799.870E+03,   816.184E+03,   816.184E+03
C:/temp/Job-35.odb,Step-1,Increment      1: Step Time =    1.000,"P-35-1",          1534,       131.133,       36.2774,            0.,NA,NA,"",   1.32519E+06,   1.31046E+06,   1.31046E+06
C:/temp/Job-35.odb,Step-1,Increment      1: Step Time =    1.000,"P-35-1",          1535,       162.488,       146.363,            0.,NA,NA,"",   1.26656E+06,   1.19849E+06,   1.19849E+06
C:/temp/Job-35.odb,Step-1,Increment      1: Step Time =    1.000,"P-35-1",          1536,       146.543,       36.6352,            0.,NA,NA,"",   1.30532E+06,   1.25101E+06,   1.25101E+06
C:/temp/Job-35.odb,Step-1,Increment      1: Step Time =    1.000,"P-35-1",          1537,       54.0445,       163.000,            0.,NA,NA,"",   1.38874E+06,   1.33178E+06,   1.33178E+06
C:/temp/Job-35.odb,Step-1,Increment      1: Step Time =    1.000,"P-35-1",          1538,       38.8637,       51.2645,            0.,NA,NA,"",   1.17156E+06,   1.14087E+06,   1.14087E+06
C:/temp/Job-35.odb,Step-1,Increment      1: Step Time =    1.000,"P-35-1",          1539,       89.9288,       162.364,            0.,NA,NA,"",   1.31095E+06,   1.37906E+06,   1.37906E+06
C:/temp/Job-35.odb,Step-1,Increment      1: Step Time =    1.000,"P-35-1",          1540,       25.7018,       9.62906,            0.,NA,NA,"",   1.41044E+06,   1.41384E+06,   1.41384E+06
C:/temp/Job-35.odb,Step-1,Increment      1: Step Time =    1.000,"P-35-1",          1541,       10.0186,       174.217,            0.,NA,NA,"",   1.18772E+06,   1.27882E+06,   1.27882E+06
C:/temp/Job-35.odb,Step-1,Increment      1: Step Time =    1.000,"P-35-1",          1542,       189.793,       26.0976,            0.,NA,NA,"",   1.00397E+06,   1.01356E+06,   1.01356E+06
C:/temp/Job-35.odb,Step-1,Increment      1: Step Time =    1.000,"P-35-1",          1543,       174.015,       189.967,            0.,NA,NA,"",   1.01725E+06,   1.01631E+06,   1.01631E+06
C:/temp/Job-35.odb,Step-1,Increment      1: Step Time =    1.000,"P-35-1",          1544,       190.190,       55.1782,            0.,NA,NA,"",   959.525E+03,   1.02823E+06,   1.02823E+06
C:/temp/Job-35.odb,Step-1,Increment      1: Step Time =    1.000,"P-35-1",          1545,       55.2684,       9.90580,            0.,NA,NA,"",   1.24987E+06,   1.24121E+06,   1.24121E+06
C:/temp/Job-35.odb,Step-1,Increment      1: Step Time =    1.000,"P-35-1",          1546,       144.494,       190.031,            0.,NA,NA,"",   1.01156E+06,   1.00569E+06,   1.00569E+06
C:/temp/Job-35.odb,Step-1,Increment      1: Step Time =    1.000,"P-35-1",          1547,       10.0492,       144.599,            0.,NA,NA,"",   839.337E+03,   921.987E+03,   921.987E+03
C:/temp/Job-35.odb,Step-1,Increment      1: Step Time =    1.000,"P-35-1",          1548,       5.15858,       5.08426,            0.,NA,NA,"",   1.68911E+06,   1.75467E+06,   1.75467E+06
C:/temp/Job-35.odb,Step-1,Increment      1: Step Time =    1.000,"P-35-1",          1549,       90.1646,       135.501,            0.,NA,NA,"",   2.28725E+06,   2.37766E+06,   2.37766E+06
C:/temp/Job-35.odb,Step-1,Increment      1: Step Time =    1.000,"P-35-1",          1550,       105.450,       135.729,            0.,NA,NA,"",   2.65580E+06,   2.77036E+06,   2.77036E+06
C:/temp/Job-35.odb,Step-1,Increment      1: Step Time =    1.000,"P-35-1",          1551,       136.279,       95.0558,            0.,NA,NA,"",   803.952E+03,  -791.046E+03,  -791.046E+03
C:/temp/Job-35.odb,Step-1,Increment      1: Step Time =    1.000,"P-35-1",          1552,       95.0632,       63.7246,            0.,NA,NA,"",   2.51216E+06,   2.62182E+06,   2.62182E+06
C:/temp/Job-35.odb,Step-1,Increment      1: Step Time =    1.000,"P-35-1",          1553,       63.9317,       104.856,            0.,NA,NA,"",   577.287E+03,  -578.947E+03,  -578.947E+03
C:/temp/Job-35.odb,Step-1,Increment      1: Step Time =    1.000,"P-35-1",          1554,       191.107,       149.220,            0.,NA,NA,"",   962.627E+03,   1.02180E+06,   1.02180E+06
C:/temp/Job-35.odb,Step-1,Increment      1: Step Time =    1.000,"P-35-1",          1555,       50.6507,       190.796,            0.,NA,NA,"",   1.27769E+06,   1.27030E+06,   1.27030E+06
C:/temp/Job-35.odb,Step-1,Increment      1: Step Time =    1.000,"P-35-1",          1556,       90.5105,       140.488,            0.,NA,NA,"",   1.90666E+06,   2.02733E+06,   2.02733E+06
C:/temp/Job-35.odb,Step-1,Increment      1: Step Time =    1.000,"P-35-1",          1557,       119.751,       138.577,            0.,NA,NA,"",   1.77563E+06,   1.83402E+06,   1.83402E+06
C:/temp/Job-35.odb,Step-1,Increment      1: Step Time =    1.000,"P-35-1",          1558,       138.485,       79.3751,            0.,NA,NA,"",   1.17410E+06,   874.621E+03,   874.621E+03
C:/temp/Job-35.odb,Step-1,Increment      1: Step Time =    1.000,"P-35-1",          1559,       79.4754,       61.5965,            0.,NA,NA,"",   1.66126E+06,   1.67737E+06,   1.67737E+06
C:/temp/Job-35.odb,Step-1,Increment      1: Step Time =    1.000,"P-35-1",          1560,       60.8769,       119.997,            0.,NA,NA,"",   806.507E+03,   609.703E+03,   609.703E+03
C:/temp/Job-35.odb,Step-1,Increment      1: Step Time =    1.000,"P-35-1",          1561,       66.3754,       74.6682,            0.,NA,NA,"",   1.06061E+06,   890.561E+03,   890.561E+03
C:/temp/Job-35.odb,Step-1,Increment      1: Step Time =    1.000,"P-35-1",          1562,       133.594,       124.869,            0.,NA,NA,"",   1.33994E+06,   1.10715E+06,   1.10715E+06
C:/temp/Job-35.odb,Step-1,Increment      1: Step Time =    1.000,"P-35-1",          1563,       125.281,       66.4648,            0.,NA,NA,"",   1.69727E+06,   1.66289E+06,   1.66289E+06
C:/temp/Job-35.odb,Step-1,Increment      1: Step Time =    1.000,"P-35-1",          1564,       85.4059,       60.5141,            0.,NA,NA,"",   1.81854E+06,   1.89998E+06,   1.89998E+06
C:/temp/Job-35.odb,Step-1,Increment      1: Step Time =    1.000,"P-35-1",          1565,       61.0456,       114.000,            0.,NA,NA,"",   577.188E+03,   26.4680E+03,   26.4680E+03
C:/temp/Job-35.odb,Step-1,Increment      1: Step Time =    1.000,"P-35-1",          1566,       139.392,       85.3696,            0.,NA,NA,"",   893.795E+03,   70.1842E+03,   70.1842E+03
C:/temp/Job-35.odb,Step-1,Increment      1: Step Time =    1.000,"P-35-1",          1567,       39.0867,       184.548,            0.,NA,NA,"",   1.34196E+06,   1.33247E+06,   1.33247E+06
C:/temp/Job-35.odb,Step-1,Increment      1: Step Time =    1.000,"P-35-1",          1568,       173.798,       14.4714,            0.,NA,NA,"",   1.03053E+06,   1.02846E+06,   1.02846E+06
C:/temp/Job-35.odb,Step-1,Increment      1: Step Time =    1.000,"P-35-1",          1569,       168.790,       14.3775,            0.,NA,NA,"",   1.03977E+06,   1.03509E+06,   1.03509E+06
C:/temp/Job-35.odb,Step-1,Increment      1: Step Time =    1.000,"P-35-1",          1570,       185.735,       174.634,            0.,NA,NA,"",   1.01467E+06,   1.02244E+06,   1.02244E+06
C:/temp/Job-35.odb,Step-1,Increment      1: Step Time =    1.000,"P-35-1",          1571,       185.580,       169.893,            0.,NA,NA,"",   1.01691E+06,   1.02836E+06,   1.02836E+06
C:/temp/Job-35.odb,Step-1,Increment      1: Step Time =    1.000,"P-35-1",          1572,       85.8670,       145.146,            0.,NA,NA,"",   1.67747E+06,   1.75530E+06,   1.75530E+06
C:/temp/Job-35.odb,Step-1,Increment      1: Step Time =    1.000,"P-35-1",          1573,       67.7021,       134.459,            0.,NA,NA,"",   1.41997E+06,   1.29884E+06,   1.29884E+06
C:/temp/Job-35.odb,Step-1,Increment      1: Step Time =    1.000,"P-35-1",          1574,       54.4019,       119.127,            0.,NA,NA,"",   748.666E+03,   608.860E+03,   608.860E+03
C:/temp/Job-35.odb,Step-1,Increment      1: Step Time =    1.000,"P-35-1",          1575,       125.677,       138.111,            0.,NA,NA,"",   1.69734E+06,   1.65821E+06,   1.65821E+06
C:/temp/Job-35.odb,Step-1,Increment      1: Step Time =    1.000,"P-35-1",          1576,       121.211,       144.360,            0.,NA,NA,"",   1.62800E+06,   1.66591E+06,   1.66591E+06
C:/temp/Job-35.odb,Step-1,Increment      1: Step Time =    1.000,"P-35-1",          1577,       138.040,       73.7511,            0.,NA,NA,"",   1.43622E+06,   1.18160E+06,   1.18160E+06
C:/temp/Job-35.odb,Step-1,Increment      1: Step Time =    1.000,"P-35-1",          1578,       144.501,       77.8443,            0.,NA,NA,"",   1.23212E+06,   979.855E+03,   979.855E+03
C:/temp/Job-35.odb,Step-1,Increment      1: Step Time =    1.000,"P-35-1",          1579,       73.9678,       62.2067,            0.,NA,NA,"",   1.56650E+06,   1.50564E+06,   1.50564E+06
C:/temp/Job-35.odb,Step-1,Increment      1: Step Time =    1.000,"P-35-1",          1580,       78.2295,       55.6178,            0.,NA,NA,"",   1.61052E+06,   1.60941E+06,   1.60941E+06
C:/temp/Job-35.odb,Step-1,Increment      1: Step Time =    1.000,"P-35-1",          1581,       56.2746,       114.844,            0.,NA,NA,"",   599.309E+03,   434.877E+03,   434.877E+03
C:/temp/Job-35.odb,Step-1,Increment      1: Step Time =    1.000,"P-35-1",          1582,       145.518,       83.4156,            0.,NA,NA,"",   992.125E+03,   742.313E+03,   742.313E+03
C:/temp/Job-35.odb,Step-1,Increment      1: Step Time =    1.000,"P-35-1",          1583,       83.4792,       54.2580,            0.,NA,NA,"",   1.63548E+06,   1.69296E+06,   1.69296E+06
C:/temp/Job-35.odb,Step-1,Increment      1: Step Time =    1.000,"P-35-1",          1584,       119.392,       147.170,            0.,NA,NA,"",   1.57783E+06,   1.63819E+06,   1.63819E+06
C:/temp/Job-35.odb,Step-1,Increment      1: Step Time =    1.000,"P-35-1",          1585,       41.7099,       180.644,            0.,NA,NA,"",   1.33725E+06,   1.32088E+06,   1.32088E+06
C:/temp/Job-35.odb,Step-1,Increment      1: Step Time =    1.000,"P-35-1",          1586,       13.6891,       52.6505,            0.,NA,NA,"",   897.194E+03,   971.248E+03,   971.248E+03
C:/temp/Job-35.odb,Step-1,Increment      1: Step Time =    1.000,"P-35-1",          1587,       178.730,       162.288,            0.,NA,NA,"",   1.06721E+06,   1.07126E+06,   1.07126E+06
C:/temp/Job-35.odb,Step-1,Increment      1: Step Time =    1.000,"P-35-1",          1588,       151.963,       93.1833,            0.,NA,NA,"",   546.517E+03,   472.637E+03,   472.637E+03
C:/temp/Job-35.odb,Step-1,Increment      1: Step Time =    1.000,"P-35-1",          1589,       93.4116,       48.3198,            0.,NA,NA,"",   1.48996E+06,   1.60873E+06,   1.60873E+06
C:/temp/Job-35.odb,Step-1,Increment      1: Step Time =    1.000,"P-35-1",          1590,       48.7643,       107.398,            0.,NA,NA,"",   319.576E+03,   289.284E+03,   289.284E+03
C:/temp/Job-35.odb,Step-1,Increment      1: Step Time =    1.000,"P-35-1",          1591,       137.309,       134.713,            0.,NA,NA,"",   1.59072E+06,   1.40475E+06,   1.40475E+06
C:/temp/Job-35.odb,Step-1,Increment      1: Step Time =    1.000,"P-35-1",          1592,       81.2337,       150.154,            0.,NA,NA,"",   1.56295E+06,   1.59429E+06,   1.59429E+06
C:/temp/Job-35.odb,Step-1,Increment      1: Step Time =    1.000,"P-35-1",          1593,       133.610,       139.726,            0.,NA,NA,"",   1.63529E+06,   1.51449E+06,   1.51449E+06
C:/temp/Job-35.odb,Step-1,Increment      1: Step Time =    1.000,"P-35-1",          1594,       70.7098,       149.073,            0.,NA,NA,"",   1.54268E+06,   1.48433E+06,   1.48433E+06
C:/temp/Job-35.odb,Step-1,Increment      1: Step Time =    1.000,"P-35-1",          1595,       17.6847,       179.800,            0.,NA,NA,"",   1.33494E+06,   1.37997E+06,   1.37997E+06
C:/temp/Job-35.odb,Step-1,Increment      1: Step Time =    1.000,"P-35-1",          1596,       17.3447,       43.2508,            0.,NA,NA,"",   1.04004E+06,   1.10261E+06,   1.10261E+06
C:/temp/Job-35.odb,Step-1,Increment      1: Step Time =    1.000,"P-35-1",          1597,       139.532,       125.694,            0.,NA,NA,"",   1.40498E+06,   1.15240E+06,   1.15240E+06
C:/temp/Job-35.odb,Step-1,Increment      1: Step Time =    1.000,"P-35-1",          1598,       61.0118,       75.1778,            0.,NA,NA,"",   1.04225E+06,   868.164E+03,   868.164E+03
C:/temp/Job-35.odb,Step-1,Increment      1: Step Time =    1.000,"P-35-1",          1599,       124.638,       61.2554,            0.,NA,NA,"",   1.68066E+06,   1.66508E+06,   1.66508E+06
C:/temp/Job-35.odb,Step-1,Increment      1: Step Time =    1.000,"P-35-1",          1600,       183.003,       145.060,            0.,NA,NA,"",   1.02353E+06,   1.06315E+06,   1.06315E+06
C:/temp/Job-35.odb,Step-1,Increment      1: Step Time =    1.000,"P-35-1",          1601,       50.5738,       126.809,            0.,NA,NA,"",   962.715E+03,   857.871E+03,   857.871E+03
C:/temp/Job-35.odb,Step-1,Increment      1: Step Time =    1.000,"P-35-1",          1602,       47.1810,       125.789,            0.,NA,NA,"",   887.728E+03,   811.246E+03,   811.246E+03
C:/temp/Job-35.odb,Step-1,Increment      1: Step Time =    1.000,"P-35-1",          1603,       78.2668,       156.252,            0.,NA,NA,"",   1.48498E+06,   1.49127E+06,   1.49127E+06
C:/temp/Job-35.odb,Step-1,Increment      1: Step Time =    1.000,"P-35-1",          1604,       20.5608,       29.5168,            0.,NA,NA,"",   1.23136E+06,   1.27286E+06,   1.27286E+06
C:/temp/Job-35.odb,Step-1,Increment      1: Step Time =    1.000,"P-35-1",          1605,       20.0961,       36.6522,            0.,NA,NA,"",   1.14485E+06,   1.19280E+06,   1.19280E+06
C:/temp/Job-35.odb,Step-1,Increment      1: Step Time =    1.000,"P-35-1",          1606,       180.948,       28.8307,            0.,NA,NA,"",   1.03850E+06,   1.04313E+06,   1.04313E+06
C:/temp/Job-35.odb,Step-1,Increment      1: Step Time =    1.000,"P-35-1",          1607,       172.479,       22.8268,            0.,NA,NA,"",   1.06191E+06,   1.05629E+06,   1.05629E+06
C:/temp/Job-35.odb,Step-1,Increment      1: Step Time =    1.000,"P-35-1",          1608,       180.374,       54.8929,            0.,NA,NA,"",   1.05210E+06,   1.07880E+06,   1.07880E+06
C:/temp/Job-35.odb,Step-1,Increment      1: Step Time =    1.000,"P-35-1",          1609,       19.9772,       46.9777,            0.,NA,NA,"",   1.01837E+06,   1.06999E+06,   1.06999E+06
C:/temp/Job-35.odb,Step-1,Increment      1: Step Time =    1.000,"P-35-1",          1610,       18.1971,       53.7635,            0.,NA,NA,"",   919.102E+03,   978.115E+03,   978.115E+03
C:/temp/Job-35.odb,Step-1,Increment      1: Step Time =    1.000,"P-35-1",          1611,       171.878,       181.615,            0.,NA,NA,"",   1.04659E+06,   1.04265E+06,   1.04265E+06
C:/temp/Job-35.odb,Step-1,Increment      1: Step Time =    1.000,"P-35-1",          1612,       177.787,       174.093,            0.,NA,NA,"",   1.04647E+06,   1.04698E+06,   1.04698E+06
C:/temp/Job-35.odb,Step-1,Increment      1: Step Time =    1.000,"P-35-1",          1613,       174.555,       163.986,            0.,NA,NA,"",   1.09659E+06,   1.08964E+06,   1.08964E+06
C:/temp/Job-35.odb,Step-1,Increment      1: Step Time =    1.000,"P-35-1",          1614,       172.266,       160.538,            0.,NA,NA,"",   1.12609E+06,   1.11164E+06,   1.11164E+06
C:/temp/Job-35.odb,Step-1,Increment      1: Step Time =    1.000,"P-35-1",          1615,       143.444,       180.195,            0.,NA,NA,"",   1.11755E+06,   1.09994E+06,   1.09994E+06
C:/temp/Job-35.odb,Step-1,Increment      1: Step Time =    1.000,"P-35-1",          1616,       42.7439,       183.243,            0.,NA,NA,"",   1.33056E+06,   1.31682E+06,   1.31682E+06
C:/temp/Job-35.odb,Step-1,Increment      1: Step Time =    1.000,"P-35-1",          1617,       43.5223,       178.238,            0.,NA,NA,"",   1.33755E+06,   1.31657E+06,   1.31657E+06
C:/temp/Job-35.odb,Step-1,Increment      1: Step Time =    1.000,"P-35-1",          1618,       124.079,       153.430,            0.,NA,NA,"",   1.47641E+06,   1.49263E+06,   1.49263E+06
C:/temp/Job-35.odb,Step-1,Increment      1: Step Time =    1.000,"P-35-1",          1619,       177.323,       114.067,            0.,NA,NA,"",   835.491E+03,   919.836E+03,   919.836E+03
C:/temp/Job-35.odb,Step-1,Increment      1: Step Time =    1.000,"P-35-1",          1620,       133.508,       147.192,            0.,NA,NA,"",   1.56533E+06,   1.48521E+06,   1.48521E+06
C:/temp/Job-35.odb,Step-1,Increment      1: Step Time =    1.000,"P-35-1",          1621,       150.287,       81.7267,            0.,NA,NA,"",   1.03235E+06,   845.556E+03,   845.556E+03
C:/temp/Job-35.odb,Step-1,Increment      1: Step Time =    1.000,"P-35-1",          1622,       153.571,       85.1069,            0.,NA,NA,"",   869.051E+03,   747.263E+03,   747.263E+03
C:/temp/Job-35.odb,Step-1,Increment      1: Step Time =    1.000,"P-35-1",          1623,       86.3421,       46.6090,            0.,NA,NA,"",   1.48861E+06,   1.55666E+06,   1.55666E+06
C:/temp/Job-35.odb,Step-1,Increment      1: Step Time =    1.000,"P-35-1",          1624,       17.3641,       61.6244,            0.,NA,NA,"",   804.894E+03,   868.654E+03,   868.654E+03
C:/temp/Job-35.odb,Step-1,Increment      1: Step Time =    1.000,"P-35-1",          1625,       17.5555,       65.8775,            0.,NA,NA,"",   748.117E+03,   812.542E+03,   812.542E+03
C:/temp/Job-35.odb,Step-1,Increment      1: Step Time =    1.000,"P-35-1",          1626,       156.535,       71.0108,            0.,NA,NA,"",   1.24359E+06,   1.11205E+06,   1.11205E+06
C:/temp/Job-35.odb,Step-1,Increment      1: Step Time =    1.000,"P-35-1",          1627,       24.7341,       23.9312,            0.,NA,NA,"",   1.31044E+06,   1.33081E+06,   1.33081E+06
C:/temp/Job-35.odb,Step-1,Increment      1: Step Time =    1.000,"P-35-1",          1628,       166.514,       153.288,            0.,NA,NA,"",   1.20854E+06,   1.16706E+06,   1.16706E+06
C:/temp/Job-35.odb,Step-1,Increment      1: Step Time =    1.000,"P-35-1",          1629,       55.5061,       20.1171,            0.,NA,NA,"",   1.31179E+06,   1.28638E+06,   1.28638E+06
C:/temp/Job-35.odb,Step-1,Increment      1: Step Time =    1.000,"P-35-1",          1630,       175.600,       134.992,            0.,NA,NA,"",   1.06387E+06,   1.08008E+06,   1.08008E+06
C:/temp/Job-35.odb,Step-1,Increment      1: Step Time =    1.000,"P-35-1",          1631,       22.5983,       54.7778,            0.,NA,NA,"",   942.872E+03,   985.817E+03,   985.817E+03
C:/temp/Job-35.odb,Step-1,Increment      1: Step Time =    1.000,"P-35-1",          1632,       21.8530,       58.2908,            0.,NA,NA,"",    885.28E+03,   933.094E+03,   933.094E+03
C:/temp/Job-35.odb,Step-1,Increment      1: Step Time =    1.000,"P-35-1",          1633,       20.3528,       143.416,            0.,NA,NA,"",   897.454E+03,   949.755E+03,   949.755E+03
C:/temp/Job-35.odb,Step-1,Increment      1: Step Time =    1.000,"P-35-1",          1634,       172.559,       168.800,            0.,NA,NA,"",   1.09359E+06,   1.08413E+06,   1.08413E+06
C:/temp/Job-35.odb,Step-1,Increment      1: Step Time =    1.000,"P-35-1",          1635,       173.231,       177.729,            0.,NA,NA,"",   1.05589E+06,   1.05172E+06,   1.05172E+06
C:/temp/Job-35.odb,Step-1,Increment      1: Step Time =    1.000,"P-35-1",          1636,       24.7806,       40.6378,            0.,NA,NA,"",   1.14150E+06,   1.17049E+06,   1.17049E+06
C:/temp/Job-35.odb,Step-1,Increment      1: Step Time =    1.000,"P-35-1",          1637,       176.495,       27.8158,            0.,NA,NA,"",   1.05750E+06,   1.05671E+06,   1.05671E+06
C:/temp/Job-35.odb,Step-1,Increment      1: Step Time =    1.000,"P-35-1",          1638,       155.184,       30.3531,            0.,NA,NA,"",   1.19898E+06,   1.16234E+06,   1.16234E+06
C:/temp/Job-35.odb,Step-1,Increment      1: Step Time =    1.000,"P-35-1",          1639,       157.200,       65.5085,            0.,NA,NA,"",   1.30484E+06,   1.18365E+06,   1.18365E+06
C:/temp/Job-35.odb,Step-1,Increment      1: Step Time =    1.000,"P-35-1",          1640,       58.9024,       145.965,            0.,NA,NA,"",   1.41702E+06,   1.31841E+06,   1.31841E+06
C:/temp/Job-35.odb,Step-1,Increment      1: Step Time =    1.000,"P-35-1",          1641,       50.3823,       144.564,            0.,NA,NA,"",   1.28509E+06,   1.20232E+06,   1.20232E+06
C:/temp/Job-35.odb,Step-1,Increment      1: Step Time =    1.000,"P-35-1",          1642,       160.951,       93.9502,            0.,NA,NA,"",   605.251E+03,   626.490E+03,   626.490E+03
C:/temp/Job-35.odb,Step-1,Increment      1: Step Time =    1.000,"P-35-1",          1643,       39.5513,       98.4261,            0.,NA,NA,"",   286.708E+03,   326.729E+03,   326.729E+03
C:/temp/Job-35.odb,Step-1,Increment      1: Step Time =    1.000,"P-35-1",          1644,       39.4676,       93.9006,            0.,NA,NA,"",   335.989E+03,   372.425E+03,   372.425E+03
C:/temp/Job-35.odb,Step-1,Increment      1: Step Time =    1.000,"P-35-1",          1645,       93.5191,       39.7365,            0.,NA,NA,"",   1.31609E+06,   1.40576E+06,   1.40576E+06
C:/temp/Job-35.odb,Step-1,Increment      1: Step Time =    1.000,"P-35-1",          1646,       132.845,       54.2311,            0.,NA,NA,"",   1.58570E+06,   1.50237E+06,   1.50237E+06
C:/temp/Job-35.odb,Step-1,Increment      1: Step Time =    1.000,"P-35-1",          1647,       125.131,       159.515,            0.,NA,NA,"",   1.37354E+06,   1.38547E+06,   1.38547E+06
C:/temp/Job-35.odb,Step-1,Increment      1: Step Time =    1.000,"P-35-1",          1648,       53.4522,       66.2281,            0.,NA,NA,"",   1.17692E+06,   1.06269E+06,   1.06269E+06
C:/temp/Job-35.odb,Step-1,Increment      1: Step Time =    1.000,"P-35-1",          1649,       146.181,       133.108,            0.,NA,NA,"",   1.45489E+06,   1.26317E+06,   1.26317E+06
C:/temp/Job-35.odb,Step-1,Increment      1: Step Time =    1.000,"P-35-1",          1650,       46.6631,       137.098,            0.,NA,NA,"",   1.11790E+06,   1.04510E+06,   1.04510E+06
C:/temp/Job-35.odb,Step-1,Increment      1: Step Time =    1.000,"P-35-1",          1651,       166.219,       147.339,            0.,NA,NA,"",   1.21744E+06,   1.16968E+06,   1.16968E+06
C:/temp/Job-35.odb,Step-1,Increment      1: Step Time =    1.000,"P-35-1",          1652,       167.632,       143.540,            0.,NA,NA,"",   1.19568E+06,   1.15393E+06,   1.15393E+06
C:/temp/Job-35.odb,Step-1,Increment      1: Step Time =    1.000,"P-35-1",          1653,       156.995,       76.6686,            0.,NA,NA,"",   1.11957E+06,   1.00075E+06,   1.00075E+06
C:/temp/Job-35.odb,Step-1,Increment      1: Step Time =    1.000,"P-35-1",          1654,       177.873,       29.8109,            0.,NA,NA,"",   1.05532E+06,   1.05631E+06,   1.05631E+06
C:/temp/Job-35.odb,Step-1,Increment      1: Step Time =    1.000,"P-35-1",          1655,       171.357,       178.911,            0.,NA,NA,"",   1.05850E+06,   1.05298E+06,   1.05298E+06
C:/temp/Job-35.odb,Step-1,Increment      1: Step Time =    1.000,"P-35-1",          1656,       103.685,       160.491,            0.,NA,NA,"",   1.27071E+06,   1.37744E+06,   1.37744E+06
C:/temp/Job-35.odb,Step-1,Increment      1: Step Time =    1.000,"P-35-1",          1657,       162.397,       155.770,            0.,NA,NA,"",   1.24212E+06,   1.19018E+06,   1.19018E+06
C:/temp/Job-35.odb,Step-1,Increment      1: Step Time =    1.000,"P-35-1",          1658,       53.2934,       149.337,            0.,NA,NA,"",   1.36526E+06,   1.28246E+06,   1.28246E+06
C:/temp/Job-35.odb,Step-1,Increment      1: Step Time =    1.000,"P-35-1",          1659,       153.329,       126.146,            0.,NA,NA,"",   1.23717E+06,   1.07323E+06,   1.07323E+06
C:/temp/Job-35.odb,Step-1,Increment      1: Step Time =    1.000,"P-35-1",          1660,       21.6887,       65.7747,            0.,NA,NA,"",   772.987E+03,   826.843E+03,   826.843E+03
C:/temp/Job-35.odb,Step-1,Increment      1: Step Time =    1.000,"P-35-1",          1661,       22.4209,       69.8143,            0.,NA,NA,"",   717.111E+03,   771.805E+03,   771.805E+03
C:/temp/Job-35.odb,Step-1,Increment      1: Step Time =    1.000,"P-35-1",          1662,       160.827,       78.7568,            0.,NA,NA,"",   1.01812E+06,   948.564E+03,   948.564E+03
C:/temp/Job-35.odb,Step-1,Increment      1: Step Time =    1.000,"P-35-1",          1663,       162.027,       71.0252,            0.,NA,NA,"",   1.17018E+06,   1.08823E+06,   1.08823E+06
C:/temp/Job-35.odb,Step-1,Increment      1: Step Time =    1.000,"P-35-1",          1664,       164.918,       72.7856,            0.,NA,NA,"",   1.10524E+06,   1.05439E+06,   1.05439E+06
C:/temp/Job-35.odb,Step-1,Increment      1: Step Time =    1.000,"P-35-1",          1665,       61.8347,       153.931,            0.,NA,NA,"",   1.46195E+06,   1.38451E+06,   1.38451E+06
C:/temp/Job-35.odb,Step-1,Increment      1: Step Time =    1.000,"P-35-1",          1666,       174.586,       117.410,            0.,NA,NA,"",   882.474E+03,   940.495E+03,   940.495E+03
C:/temp/Job-35.odb,Step-1,Increment      1: Step Time =    1.000,"P-35-1",          1667,       44.9867,       147.513,            0.,NA,NA,"",   1.23930E+06,   1.18121E+06,   1.18121E+06
C:/temp/Job-35.odb,Step-1,Increment      1: Step Time =    1.000,"P-35-1",          1668,       22.2514,       83.2442,            0.,NA,NA,"",   522.534E+03,   585.886E+03,   585.886E+03
C:/temp/Job-35.odb,Step-1,Increment      1: Step Time =    1.000,"P-35-1",          1669,       73.2403,       168.438,            0.,NA,NA,"",   1.35895E+06,   1.34397E+06,   1.34397E+06
C:/temp/Job-35.odb,Step-1,Increment      1: Step Time =    1.000,"P-35-1",          1670,       170.760,       141.769,            0.,NA,NA,"",   1.15132E+06,   1.12921E+06,   1.12921E+06
C:/temp/Job-35.odb,Step-1,Increment      1: Step Time =    1.000,"P-35-1",          1671,       154.471,       36.6550,            0.,NA,NA,"",   1.25890E+06,   1.20699E+06,   1.20699E+06
C:/temp/Job-35.odb,Step-1,Increment      1: Step Time =    1.000,"P-35-1",          1672,       149.706,       33.4665,            0.,NA,NA,"",   1.25427E+06,   1.20805E+06,   1.20805E+06
C:/temp/Job-35.odb,Step-1,Increment      1: Step Time =    1.000,"P-35-1",          1673,       41.6599,       137.687,            0.,NA,NA,"",   1.05039E+06,   1.00720E+06,   1.00720E+06
C:/temp/Job-35.odb,Step-1,Increment      1: Step Time =    1.000,"P-35-1",          1674,       163.000,       142.852,            0.,NA,NA,"",   1.26625E+06,   1.19231E+06,   1.19231E+06
C:/temp/Job-35.odb,Step-1,Increment      1: Step Time =    1.000,"P-35-1",          1675,       28.9883,       37.1567,            0.,NA,NA,"",   1.21802E+06,   1.22739E+06,   1.22739E+06
C:/temp/Job-35.odb,Step-1,Increment      1: Step Time =    1.000,"P-35-1",          1676,       29.7450,       44.8518,            0.,NA,NA,"",   1.13958E+06,   1.14854E+06,   1.14854E+06
C:/temp/Job-35.odb,Step-1,Increment      1: Step Time =    1.000,"P-35-1",          1677,       160.722,       62.9647,            0.,NA,NA,"",   1.27086E+06,   1.17958E+06,   1.17958E+06
C:/temp/Job-35.odb,Step-1,Increment      1: Step Time =    1.000,"P-35-1",          1678,       163.426,       65.9873,            0.,NA,NA,"",   1.21068E+06,   1.13714E+06,   1.13714E+06
C:/temp/Job-35.odb,Step-1,Increment      1: Step Time =    1.000,"P-35-1",          1679,       28.2188,       52.6486,            0.,NA,NA,"",   1.02546E+06,   1.04449E+06,   1.04449E+06
C:/temp/Job-35.odb,Step-1,Increment      1: Step Time =    1.000,"P-35-1",          1680,       25.4063,       62.2904,            0.,NA,NA,"",   854.413E+03,   892.251E+03,   892.251E+03
C:/temp/Job-35.odb,Step-1,Increment      1: Step Time =    1.000,"P-35-1",          1681,       138.724,       175.605,            0.,NA,NA,"",   1.17141E+06,   1.15093E+06,   1.15093E+06
C:/temp/Job-35.odb,Step-1,Increment      1: Step Time =    1.000,"P-35-1",          1682,       177.056,       110.511,            0.,NA,NA,"",   796.679E+03,   886.826E+03,   886.826E+03
C:/temp/Job-35.odb,Step-1,Increment      1: Step Time =    1.000,"P-35-1",          1683,       176.029,       104.245,            0.,NA,NA,"",   744.893E+03,   838.229E+03,   838.229E+03
C:/temp/Job-35.odb,Step-1,Increment      1: Step Time =    1.000,"P-35-1",          1684,       121.095,       36.5231,            0.,NA,NA,"",   1.28772E+06,   1.32441E+06,   1.32441E+06
C:/temp/Job-35.odb,Step-1,Increment      1: Step Time =    1.000,"P-35-1",          1685,       125.407,       46.7239,            0.,NA,NA,"",   1.48423E+06,   1.48831E+06,   1.48831E+06
C:/temp/Job-35.odb,Step-1,Increment      1: Step Time =    1.000,"P-35-1",          1686,       51.3250,       173.230,            0.,NA,NA,"",   1.35028E+06,   1.31382E+06,   1.31382E+06
C:/temp/Job-35.odb,Step-1,Increment      1: Step Time =    1.000,"P-35-1",          1687,       39.2892,       75.0993,            0.,NA,NA,"",   758.156E+03,   744.195E+03,   744.195E+03
C:/temp/Job-35.odb,Step-1,Increment      1: Step Time =    1.000,"P-35-1",          1688,       167.416,       168.535,            0.,NA,NA,"",   1.12822E+06,   1.10879E+06,   1.10879E+06
C:/temp/Job-35.odb,Step-1,Increment      1: Step Time =    1.000,"P-35-1",          1689,       32.2691,       21.5166,            0.,NA,NA,"",   1.33906E+06,   1.33668E+06,   1.33668E+06
C:/temp/Job-35.odb,Step-1,Increment      1: Step Time =    1.000,"P-35-1",          1690,       74.9275,       171.559,            0.,NA,NA,"",   1.31676E+06,   1.30905E+06,   1.30905E+06
C:/temp/Job-35.odb,Step-1,Increment      1: Step Time =    1.000,"P-35-1",          1691,       164.037,       80.5530,            0.,NA,NA,"",   947.755E+03,   917.458E+03,   917.458E+03
C:/temp/Job-35.odb,Step-1,Increment      1: Step Time =    1.000,"P-35-1",          1692,       34.0308,       24.4982,            0.,NA,NA,"",   1.32759E+06,   1.32079E+06,   1.32079E+06
C:/temp/Job-35.odb,Step-1,Increment      1: Step Time =    1.000,"P-35-1",          1693,       82.1321,       170.726,            0.,NA,NA,"",   1.27414E+06,   1.29325E+06,   1.29325E+06
C:/temp/Job-35.odb,Step-1,Increment      1: Step Time =    1.000,"P-35-1",          1694,       43.0145,       143.739,            0.,NA,NA,"",   1.16269E+06,   1.11225E+06,   1.11225E+06
C:/temp/Job-35.odb,Step-1,Increment      1: Step Time =    1.000,"P-35-1",          1695,       169.761,       170.221,            0.,NA,NA,"",   1.10513E+06,   1.09149E+06,   1.09149E+06
C:/temp/Job-35.odb,Step-1,Increment      1: Step Time =    1.000,"P-35-1",          1696,       173.044,       113.167,            0.,NA,NA,"",   813.926E+03,   879.666E+03,   879.666E+03
C:/temp/Job-35.odb,Step-1,Increment      1: Step Time =    1.000,"P-35-1",          1697,       128.490,       47.7075,            0.,NA,NA,"",   1.50869E+06,   1.48585E+06,   1.48585E+06
C:/temp/Job-35.odb,Step-1,Increment      1: Step Time =    1.000,"P-35-1",          1698,       47.7325,       151.639,            0.,NA,NA,"",   1.31193E+06,   1.24778E+06,   1.24778E+06
C:/temp/Job-35.odb,Step-1,Increment      1: Step Time =    1.000,"P-35-1",          1699,       168.343,       84.9155,            0.,NA,NA,"",   840.826E+03,   866.926E+03,   866.926E+03
C:/temp/Job-35.odb,Step-1,Increment      1: Step Time =    1.000,"P-35-1",          1700,       43.7491,       70.4051,            0.,NA,NA,"",    921.06E+03,   868.474E+03,   868.474E+03
C:/temp/Job-35.odb,Step-1,Increment      1: Step Time =    1.000,"P-35-1",          1701,       132.807,       41.3877,            0.,NA,NA,"",   1.40898E+06,   1.37505E+06,   1.37505E+06
C:/temp/Job-35.odb,Step-1,Increment      1: Step Time =    1.000,"P-35-1",          1702,       136.802,       49.4099,            0.,NA,NA,"",   1.51141E+06,   1.42965E+06,   1.42965E+06
C:/temp/Job-35.odb,Step-1,Increment      1: Step Time =    1.000,"P-35-1",          1703,       172.588,       109.596,            0.,NA,NA,"",   767.570E+03,   840.396E+03,   840.396E+03
C:/temp/Job-35.odb,Step-1,Increment      1: Step Time =    1.000,"P-35-1",          1704,       27.7941,       81.2055,            0.,NA,NA,"",   558.926E+03,   611.315E+03,   611.315E+03
C:/temp/Job-35.odb,Step-1,Increment      1: Step Time =    1.000,"P-35-1",          1705,       25.9143,       68.7357,            0.,NA,NA,"",   751.459E+03,   794.301E+03,   794.301E+03
C:/temp/Job-35.odb,Step-1,Increment      1: Step Time =    1.000,"P-35-1",          1706,       27.5615,       71.4926,            0.,NA,NA,"",   721.740E+03,   761.343E+03,   761.343E+03
C:/temp/Job-35.odb,Step-1,Increment      1: Step Time =    1.000,"P-35-1",          1707,       31.4216,       94.6396,            0.,NA,NA,"",   373.160E+03,   427.151E+03,   427.151E+03
C:/temp/Job-35.odb,Step-1,Increment      1: Step Time =    1.000,"P-35-1",          1708,       153.316,       130.488,            0.,NA,NA,"",   1.31715E+06,   1.15854E+06,   1.15854E+06
C:/temp/Job-35.odb,Step-1,Increment      1: Step Time =    1.000,"P-35-1",          1709,       123.571,       33.1361,            0.,NA,NA,"",   1.24857E+06,   1.27005E+06,   1.27005E+06
C:/temp/Job-35.odb,Step-1,Increment      1: Step Time =    1.000,"P-35-1",          1710,       135.774,       28.9769,            0.,NA,NA,"",   1.22791E+06,   1.20833E+06,   1.20833E+06
C:/temp/Job-35.odb,Step-1,Increment      1: Step Time =    1.000,"P-35-1",          1711,       131.429,       27.1504,            0.,NA,NA,"",   1.19468E+06,   1.18758E+06,   1.18758E+06
C:/temp/Job-35.odb,Step-1,Increment      1: Step Time =    1.000,"P-35-1",          1712,       143.820,       168.552,            0.,NA,NA,"",   1.25148E+06,   1.21268E+06,   1.21268E+06
C:/temp/Job-35.odb,Step-1,Increment      1: Step Time =    1.000,"P-35-1",          1713,       24.0619,       138.315,            0.,NA,NA,"",   858.956E+03,   901.395E+03,   901.395E+03
C:/temp/Job-35.odb,Step-1,Increment      1: Step Time =    1.000,"P-35-1",          1714,       30.3286,       57.5549,            0.,NA,NA,"",   974.535E+03,   988.644E+03,   988.644E+03
C:/temp/Job-35.odb,Step-1,Increment      1: Step Time =    1.000,"P-35-1",          1715,       101.106,       169.372,            0.,NA,NA,"",   1.16167E+06,   1.23304E+06,   1.23304E+06
C:/temp/Job-35.odb,Step-1,Increment      1: Step Time =    1.000,"P-35-1",          1716,       33.4628,       33.5611,            0.,NA,NA,"",   1.27221E+06,   1.26672E+06,   1.26672E+06
C:/temp/Job-35.odb,Step-1,Increment      1: Step Time =    1.000,"P-35-1",          1717,       34.2745,       50.1267,            0.,NA,NA,"",   1.12520E+06,   1.11644E+06,   1.11644E+06
C:/temp/Job-35.odb,Step-1,Increment      1: Step Time =    1.000,"P-35-1",          1718,       49.5496,       166.321,            0.,NA,NA,"",   1.35996E+06,   1.31465E+06,   1.31465E+06
C:/temp/Job-35.odb,Step-1,Increment      1: Step Time =    1.000,"P-35-1",          1719,       161.422,       39.0021,            0.,NA,NA,"",   1.22088E+06,   1.17655E+06,   1.17655E+06
C:/temp/Job-35.odb,Step-1,Increment      1: Step Time =    1.000,"P-35-1",          1720,       31.0566,       73.3075,            0.,NA,NA,"",   715.756E+03,   744.132E+03,   744.132E+03
C:/temp/Job-35.odb,Step-1,Increment      1: Step Time =    1.000,"P-35-1",          1721,       172.878,       38.4301,            0.,NA,NA,"",   1.11649E+06,   1.10496E+06,   1.10496E+06
C:/temp/Job-35.odb,Step-1,Increment      1: Step Time =    1.000,"P-35-1",          1722,       85.5105,       169.944,            0.,NA,NA,"",   1.25826E+06,   1.29073E+06,   1.29073E+06
C:/temp/Job-35.odb,Step-1,Increment      1: Step Time =    1.000,"P-35-1",          1723,       113.756,       171.605,            0.,NA,NA,"",   1.14434E+06,   1.19564E+06,   1.19564E+06
C:/temp/Job-35.odb,Step-1,Increment      1: Step Time =    1.000,"P-35-1",          1724,       59.0644,       170.576,            0.,NA,NA,"",   1.37034E+06,   1.32786E+06,   1.32786E+06
C:/temp/Job-35.odb,Step-1,Increment      1: Step Time =    1.000,"P-35-1",          1725,       28.8101,       68.7044,            0.,NA,NA,"",   779.109E+03,   810.114E+03,   810.114E+03
C:/temp/Job-35.odb,Step-1,Increment      1: Step Time =    1.000,"P-35-1",          1726,       129.348,       30.8388,            0.,NA,NA,"",   1.23949E+06,   1.23680E+06,   1.23680E+06
C:/temp/Job-35.odb,Step-1,Increment      1: Step Time =    1.000,"P-35-1",          1727,       133.375,       32.6420,            0.,NA,NA,"",   1.27562E+06,   1.25755E+06,   1.25755E+06
C:/temp/Job-35.odb,Step-1,Increment      1: Step Time =    1.000,"P-35-1",          1728,       173.327,       45.7351,            0.,NA,NA,"",   1.12589E+06,   1.11550E+06,   1.11550E+06
C:/temp/Job-35.odb,Step-1,Increment      1: Step Time =    1.000,"P-35-1",          1729,       155.809,       170.462,            0.,NA,NA,"",   1.18539E+06,   1.15129E+06,   1.15129E+06
C:/temp/Job-35.odb,Step-1,Increment      1: Step Time =    1.000,"P-35-1",          1730,       30.2588,       110.963,            0.,NA,NA,"",   437.785E+03,   491.747E+03,   491.747E+03
C:/temp/Job-35.odb,Step-1,Increment      1: Step Time =    1.000,"P-35-1",          1731,       27.3353,       139.261,            0.,NA,NA,"",   902.184E+03,   931.410E+03,   931.410E+03
C:/temp/Job-35.odb,Step-1,Increment      1: Step Time =    1.000,"P-35-1",          1732,       32.4557,       143.035,            0.,NA,NA,"",   1.01126E+06,   1.01321E+06,   1.01321E+06
C:/temp/Job-35.odb,Step-1,Increment      1: Step Time =    1.000,"P-35-1",          1733,       32.7264,       66.0658,            0.,NA,NA,"",   868.944E+03,   877.376E+03,   877.376E+03
C:/temp/Job-35.odb,Step-1,Increment      1: Step Time =    1.000,"P-35-1",          1734,       31.8467,       60.0260,            0.,NA,NA,"",   960.980E+03,   969.568E+03,   969.568E+03
C:/temp/Job-35.odb,Step-1,Increment      1: Step Time =    1.000,"P-35-1",          1735,       37.0598,       38.1792,            0.,NA,NA,"",   1.26669E+06,   1.24689E+06,   1.24689E+06
C:/temp/Job-35.odb,Step-1,Increment      1: Step Time =    1.000,"P-35-1",          1736,       140.617,       36.6730,            0.,NA,NA,"",   1.32868E+06,   1.28223E+06,   1.28223E+06
C:/temp/Job-35.odb,Step-1,Increment      1: Step Time =    1.000,"P-35-1",          1737,       34.9320,       62.5861,            0.,NA,NA,"",    956.83E+03,   950.146E+03,   950.146E+03
