ODB Name,Step,Frame,Part Instance Name,    Node Label,X,Y,Z,Section Name,Material Name,Section Point,       S-Mises,S-Max. In-Plane Principal (Abs),S-Max. Principal (Abs)
C:/temp/Job-36.odb,Step-1,Increment      1: Step Time =    1.000,"P-36-1",             1,       85.0911,       165.320,            0.,NA,NA,"",   4.23363E+06,   4.27433E+06,   4.27433E+06
C:/temp/Job-36.odb,Step-1,Increment      1: Step Time =    1.000,"P-36-1",             2,       70.9298,       160.365,            0.,NA,NA,"",   1.29967E+06,   1.23868E+06,   1.23868E+06
C:/temp/Job-36.odb,Step-1,Increment      1: Step Time =    1.000,"P-36-1",             3,       58.2262,       152.383,            0.,NA,NA,"",   1.22750E+06,  -1.16914E+06,  -1.16914E+06
C:/temp/Job-36.odb,Step-1,Increment      1: Step Time =    1.000,"P-36-1",             4,       47.6173,       141.774,            0.,NA,NA,"",   1.93304E+06,  -1.94887E+06,  -1.94887E+06
C:/temp/Job-36.odb,Step-1,Increment      1: Step Time =    1.000,"P-36-1",             5,       41.9763,         133.5,            0.,NA,NA,"",   1.74635E+06,  -1.77646E+06,  -1.77646E+06
C:/temp/Job-36.odb,Step-1,Increment      1: Step Time =    1.000,"P-36-1",             6,       35.9766,       119.749,            0.,NA,NA,"",   1.16780E+06,  -1.18409E+06,  -1.18409E+06
C:/temp/Job-36.odb,Step-1,Increment      1: Step Time =    1.000,"P-36-1",             7,       33.1873,       105.007,            0.,NA,NA,"",   751.394E+03,  -768.537E+03,  -768.537E+03
C:/temp/Job-36.odb,Step-1,Increment      1: Step Time =    1.000,"P-36-1",             8,       33.7483,       90.0142,            0.,NA,NA,"",   840.130E+03,  -856.965E+03,  -856.965E+03
C:/temp/Job-36.odb,Step-1,Increment      1: Step Time =    1.000,"P-36-1",             9,       37.6315,       75.5221,            0.,NA,NA,"",   1.34659E+06,  -1.37417E+06,  -1.37417E+06
C:/temp/Job-36.odb,Step-1,Increment      1: Step Time =    1.000,"P-36-1",            10,       44.6420,       62.2576,            0.,NA,NA,"",   1.88894E+06,  -1.90607E+06,  -1.90607E+06
C:/temp/Job-36.odb,Step-1,Increment      1: Step Time =    1.000,"P-36-1",            11,       54.4284,       50.8855,            0.,NA,NA,"",   1.58378E+06,  -1.58355E+06,  -1.58355E+06
C:/temp/Job-36.odb,Step-1,Increment      1: Step Time =    1.000,"P-36-1",            12,          66.5,       41.9763,            0.,NA,NA,"",   911.579E+03,   221.034E+03,   221.034E+03
C:/temp/Job-36.odb,Step-1,Increment      1: Step Time =    1.000,"P-36-1",            13,       80.2514,       35.9766,            0.,NA,NA,"",   3.27014E+06,   3.28900E+06,   3.28900E+06
C:/temp/Job-36.odb,Step-1,Increment      1: Step Time =    1.000,"P-36-1",            14,       94.9931,       33.1873,            0.,NA,NA,"",   6.24279E+06,   6.31205E+06,   6.31205E+06
C:/temp/Job-36.odb,Step-1,Increment      1: Step Time =    1.000,"P-36-1",            15,       105.007,       33.1873,            0.,NA,NA,"",   7.42562E+06,   7.51440E+06,   7.51440E+06
C:/temp/Job-36.odb,Step-1,Increment      1: Step Time =    1.000,"P-36-1",            16,       119.749,       35.9766,            0.,NA,NA,"",   7.17015E+06,   7.25995E+06,   7.25995E+06
C:/temp/Job-36.odb,Step-1,Increment      1: Step Time =    1.000,"P-36-1",            17,         133.5,       41.9763,            0.,NA,NA,"",   5.32429E+06,   5.43314E+06,   5.43314E+06
C:/temp/Job-36.odb,Step-1,Increment      1: Step Time =    1.000,"P-36-1",            18,       145.572,       50.8855,            0.,NA,NA,"",   3.37013E+06,   3.40564E+06,   3.40564E+06
C:/temp/Job-36.odb,Step-1,Increment      1: Step Time =    1.000,"P-36-1",            19,       155.358,       62.2576,            0.,NA,NA,"",   1.27726E+06,   1.19018E+06,   1.19018E+06
C:/temp/Job-36.odb,Step-1,Increment      1: Step Time =    1.000,"P-36-1",            20,       162.369,       75.5221,            0.,NA,NA,"",   1.77385E+06,  -1.74675E+06,  -1.74675E+06
C:/temp/Job-36.odb,Step-1,Increment      1: Step Time =    1.000,"P-36-1",            21,       166.252,       90.0142,            0.,NA,NA,"",   4.04112E+06,  -4.06596E+06,  -4.06596E+06
C:/temp/Job-36.odb,Step-1,Increment      1: Step Time =    1.000,"P-36-1",            22,       166.813,       105.007,            0.,NA,NA,"",   4.48500E+06,  -4.52768E+06,  -4.52768E+06
C:/temp/Job-36.odb,Step-1,Increment      1: Step Time =    1.000,"P-36-1",            23,       164.023,       119.749,            0.,NA,NA,"",   2.59864E+06,  -2.58326E+06,  -2.58326E+06
C:/temp/Job-36.odb,Step-1,Increment      1: Step Time =    1.000,"P-36-1",            24,       158.024,         133.5,            0.,NA,NA,"",   778.735E+03,   132.535E+03,   132.535E+03
C:/temp/Job-36.odb,Step-1,Increment      1: Step Time =    1.000,"P-36-1",            25,       152.383,       141.774,            0.,NA,NA,"",   1.88377E+06,   1.87693E+06,   1.87693E+06
C:/temp/Job-36.odb,Step-1,Increment      1: Step Time =    1.000,"P-36-1",            26,       141.774,       152.383,            0.,NA,NA,"",   4.05086E+06,   4.11933E+06,   4.11933E+06
C:/temp/Job-36.odb,Step-1,Increment      1: Step Time =    1.000,"P-36-1",            27,       129.070,       160.365,            0.,NA,NA,"",   6.18083E+06,   6.25992E+06,   6.25992E+06
C:/temp/Job-36.odb,Step-1,Increment      1: Step Time =    1.000,"P-36-1",            28,       114.909,       165.320,            0.,NA,NA,"",   7.42919E+06,   7.53097E+06,   7.53097E+06
C:/temp/Job-36.odb,Step-1,Increment      1: Step Time =    1.000,"P-36-1",            29,          100.,          167.,            0.,NA,NA,"",   6.92502E+06,   7.00098E+06,   7.00098E+06
C:/temp/Job-36.odb,Step-1,Increment      1: Step Time =    1.000,"P-36-1",            30,          190.,            0.,            0.,NA,NA,"",   948.355E+03,   944.524E+03,   944.524E+03
C:/temp/Job-36.odb,Step-1,Increment      1: Step Time =    1.000,"P-36-1",            31,          180.,            0.,            0.,NA,NA,"",   820.578E+03,   817.856E+03,   817.856E+03
C:/temp/Job-36.odb,Step-1,Increment      1: Step Time =    1.000,"P-36-1",            32,          170.,            0.,            0.,NA,NA,"",   632.928E+03,   626.976E+03,   626.976E+03
C:/temp/Job-36.odb,Step-1,Increment      1: Step Time =    1.000,"P-36-1",            33,          160.,            0.,            0.,NA,NA,"",   363.771E+03,   349.604E+03,   349.604E+03
C:/temp/Job-36.odb,Step-1,Increment      1: Step Time =    1.000,"P-36-1",            34,          150.,            0.,            0.,NA,NA,"",   225.781E+03,  -50.6322E+03,  -50.6322E+03
C:/temp/Job-36.odb,Step-1,Increment      1: Step Time =    1.000,"P-36-1",            35,          140.,            0.,            0.,NA,NA,"",   549.992E+03,  -536.942E+03,  -536.942E+03
C:/temp/Job-36.odb,Step-1,Increment      1: Step Time =    1.000,"P-36-1",            36,          130.,            0.,            0.,NA,NA,"",   911.121E+03,  -902.631E+03,  -902.631E+03
C:/temp/Job-36.odb,Step-1,Increment      1: Step Time =    1.000,"P-36-1",            37,          120.,            0.,            0.,NA,NA,"",   1.08416E+06,  -1.07323E+06,  -1.07323E+06
C:/temp/Job-36.odb,Step-1,Increment      1: Step Time =    1.000,"P-36-1",            38,          110.,            0.,            0.,NA,NA,"",   889.972E+03,  -866.153E+03,  -866.153E+03
C:/temp/Job-36.odb,Step-1,Increment      1: Step Time =    1.000,"P-36-1",            39,          100.,            0.,            0.,NA,NA,"",   492.278E+03,  -100.886E+03,  -100.886E+03
C:/temp/Job-36.odb,Step-1,Increment      1: Step Time =    1.000,"P-36-1",            40,           90.,            0.,            0.,NA,NA,"",   963.273E+03,   909.019E+03,   909.019E+03
C:/temp/Job-36.odb,Step-1,Increment      1: Step Time =    1.000,"P-36-1",            41,           80.,            0.,            0.,NA,NA,"",   1.97282E+06,   1.94505E+06,   1.94505E+06
C:/temp/Job-36.odb,Step-1,Increment      1: Step Time =    1.000,"P-36-1",            42,           70.,            0.,            0.,NA,NA,"",   2.94568E+06,   2.92721E+06,   2.92721E+06
C:/temp/Job-36.odb,Step-1,Increment      1: Step Time =    1.000,"P-36-1",            43,           60.,            0.,            0.,NA,NA,"",   3.68026E+06,   3.66830E+06,   3.66830E+06
C:/temp/Job-36.odb,Step-1,Increment      1: Step Time =    1.000,"P-36-1",            44,           50.,            0.,            0.,NA,NA,"",   4.09882E+06,   4.09169E+06,   4.09169E+06
C:/temp/Job-36.odb,Step-1,Increment      1: Step Time =    1.000,"P-36-1",            45,           40.,            0.,            0.,NA,NA,"",   4.26033E+06,   4.25530E+06,   4.25530E+06
C:/temp/Job-36.odb,Step-1,Increment      1: Step Time =    1.000,"P-36-1",            46,           30.,            0.,            0.,NA,NA,"",   4.26569E+06,   4.26307E+06,   4.26307E+06
C:/temp/Job-36.odb,Step-1,Increment      1: Step Time =    1.000,"P-36-1",            47,           20.,            0.,            0.,NA,NA,"",   4.20824E+06,   4.20571E+06,   4.20571E+06
C:/temp/Job-36.odb,Step-1,Increment      1: Step Time =    1.000,"P-36-1",            48,           10.,            0.,            0.,NA,NA,"",   4.21680E+06,   4.21748E+06,   4.21748E+06
C:/temp/Job-36.odb,Step-1,Increment      1: Step Time =    1.000,"P-36-1",            49,          200.,            0.,            0.,NA,NA,"",   996.891E+03,   993.644E+03,   993.644E+03
C:/temp/Job-36.odb,Step-1,Increment      1: Step Time =    1.000,"P-36-1",            50,            0.,            0.,            0.,NA,NA,"",   4.64990E+06,   4.88367E+06,   4.88367E+06
C:/temp/Job-36.odb,Step-1,Increment      1: Step Time =    1.000,"P-36-1",            51,          200.,          190.,            0.,NA,NA,"",   1.02433E+06,   997.131E+03,   997.131E+03
C:/temp/Job-36.odb,Step-1,Increment      1: Step Time =    1.000,"P-36-1",            52,          200.,          180.,            0.,NA,NA,"",   1.07969E+06,   1.00753E+06,   1.00753E+06
C:/temp/Job-36.odb,Step-1,Increment      1: Step Time =    1.000,"P-36-1",            53,          200.,          170.,            0.,NA,NA,"",   1.07461E+06,   1.02254E+06,   1.02254E+06
C:/temp/Job-36.odb,Step-1,Increment      1: Step Time =    1.000,"P-36-1",            54,          200.,          160.,            0.,NA,NA,"",   964.992E+03,   1.03613E+06,   1.03613E+06
C:/temp/Job-36.odb,Step-1,Increment      1: Step Time =    1.000,"P-36-1",            55,          200.,          150.,            0.,NA,NA,"",   1.00990E+06,   1.15630E+06,   1.15630E+06
C:/temp/Job-36.odb,Step-1,Increment      1: Step Time =    1.000,"P-36-1",            56,          200.,          140.,            0.,NA,NA,"",   1.60506E+06,   1.84901E+06,   1.84901E+06
C:/temp/Job-36.odb,Step-1,Increment      1: Step Time =    1.000,"P-36-1",            57,          200.,          130.,            0.,NA,NA,"",   2.60144E+06,   2.94384E+06,   2.94384E+06
C:/temp/Job-36.odb,Step-1,Increment      1: Step Time =    1.000,"P-36-1",            58,          200.,          120.,            0.,NA,NA,"",   3.67609E+06,   4.06262E+06,   4.06262E+06
C:/temp/Job-36.odb,Step-1,Increment      1: Step Time =    1.000,"P-36-1",            59,          200.,          110.,            0.,NA,NA,"",   4.48664E+06,   4.88842E+06,   4.88842E+06
C:/temp/Job-36.odb,Step-1,Increment      1: Step Time =    1.000,"P-36-1",            60,          200.,          100.,            0.,NA,NA,"",   4.77193E+06,   5.17809E+06,   5.17809E+06
C:/temp/Job-36.odb,Step-1,Increment      1: Step Time =    1.000,"P-36-1",            61,          200.,           90.,            0.,NA,NA,"",   4.46377E+06,   4.86497E+06,   4.86497E+06
C:/temp/Job-36.odb,Step-1,Increment      1: Step Time =    1.000,"P-36-1",            62,          200.,           80.,            0.,NA,NA,"",   3.66073E+06,   4.04428E+06,   4.04428E+06
C:/temp/Job-36.odb,Step-1,Increment      1: Step Time =    1.000,"P-36-1",            63,          200.,           70.,            0.,NA,NA,"",   2.58732E+06,   2.92760E+06,   2.92760E+06
C:/temp/Job-36.odb,Step-1,Increment      1: Step Time =    1.000,"P-36-1",            64,          200.,           60.,            0.,NA,NA,"",   1.59266E+06,   1.83472E+06,   1.83472E+06
C:/temp/Job-36.odb,Step-1,Increment      1: Step Time =    1.000,"P-36-1",            65,          200.,           50.,            0.,NA,NA,"",   1.01257E+06,   1.16060E+06,   1.16060E+06
C:/temp/Job-36.odb,Step-1,Increment      1: Step Time =    1.000,"P-36-1",            66,          200.,           40.,            0.,NA,NA,"",   966.927E+03,   1.03732E+06,   1.03732E+06
C:/temp/Job-36.odb,Step-1,Increment      1: Step Time =    1.000,"P-36-1",            67,          200.,           30.,            0.,NA,NA,"",   1.07192E+06,   1.01705E+06,   1.01705E+06
C:/temp/Job-36.odb,Step-1,Increment      1: Step Time =    1.000,"P-36-1",            68,          200.,           20.,            0.,NA,NA,"",   1.08160E+06,   1.00786E+06,   1.00786E+06
C:/temp/Job-36.odb,Step-1,Increment      1: Step Time =    1.000,"P-36-1",            69,          200.,           10.,            0.,NA,NA,"",   1.02468E+06,   996.984E+03,   996.984E+03
C:/temp/Job-36.odb,Step-1,Increment      1: Step Time =    1.000,"P-36-1",            70,          200.,          200.,            0.,NA,NA,"",   996.905E+03,   993.741E+03,   993.741E+03
C:/temp/Job-36.odb,Step-1,Increment      1: Step Time =    1.000,"P-36-1",            71,           10.,          200.,            0.,NA,NA,"",   4.21536E+06,   4.21507E+06,   4.21507E+06
C:/temp/Job-36.odb,Step-1,Increment      1: Step Time =    1.000,"P-36-1",            72,           20.,          200.,            0.,NA,NA,"",   4.20107E+06,   4.19841E+06,   4.19841E+06
C:/temp/Job-36.odb,Step-1,Increment      1: Step Time =    1.000,"P-36-1",            73,           30.,          200.,            0.,NA,NA,"",   4.25376E+06,   4.25074E+06,   4.25074E+06
C:/temp/Job-36.odb,Step-1,Increment      1: Step Time =    1.000,"P-36-1",            74,           40.,          200.,            0.,NA,NA,"",   4.25354E+06,   4.24892E+06,   4.24892E+06
C:/temp/Job-36.odb,Step-1,Increment      1: Step Time =    1.000,"P-36-1",            75,           50.,          200.,            0.,NA,NA,"",   4.08304E+06,   4.07404E+06,   4.07404E+06
C:/temp/Job-36.odb,Step-1,Increment      1: Step Time =    1.000,"P-36-1",            76,           60.,          200.,            0.,NA,NA,"",   3.64130E+06,   3.62860E+06,   3.62860E+06
C:/temp/Job-36.odb,Step-1,Increment      1: Step Time =    1.000,"P-36-1",            77,           70.,          200.,            0.,NA,NA,"",   2.92903E+06,   2.91194E+06,   2.91194E+06
C:/temp/Job-36.odb,Step-1,Increment      1: Step Time =    1.000,"P-36-1",            78,           80.,          200.,            0.,NA,NA,"",   1.93384E+06,   1.91091E+06,   1.91091E+06
C:/temp/Job-36.odb,Step-1,Increment      1: Step Time =    1.000,"P-36-1",            79,           90.,          200.,            0.,NA,NA,"",   899.655E+03,   852.952E+03,   852.952E+03
C:/temp/Job-36.odb,Step-1,Increment      1: Step Time =    1.000,"P-36-1",            80,          100.,          200.,            0.,NA,NA,"",   461.403E+03,  -112.355E+03,  -112.355E+03
C:/temp/Job-36.odb,Step-1,Increment      1: Step Time =    1.000,"P-36-1",            81,          110.,          200.,            0.,NA,NA,"",   855.870E+03,  -833.203E+03,  -833.203E+03
C:/temp/Job-36.odb,Step-1,Increment      1: Step Time =    1.000,"P-36-1",            82,          120.,          200.,            0.,NA,NA,"",   1.05084E+06,  -1.03604E+06,  -1.03604E+06
C:/temp/Job-36.odb,Step-1,Increment      1: Step Time =    1.000,"P-36-1",            83,          130.,          200.,            0.,NA,NA,"",   885.021E+03,  -874.464E+03,  -874.464E+03
C:/temp/Job-36.odb,Step-1,Increment      1: Step Time =    1.000,"P-36-1",            84,          140.,          200.,            0.,NA,NA,"",   515.183E+03,  -501.716E+03,  -501.716E+03
C:/temp/Job-36.odb,Step-1,Increment      1: Step Time =    1.000,"P-36-1",            85,          150.,          200.,            0.,NA,NA,"",   208.303E+03,  -34.2944E+03,  -34.2944E+03
C:/temp/Job-36.odb,Step-1,Increment      1: Step Time =    1.000,"P-36-1",            86,          160.,          200.,            0.,NA,NA,"",   371.903E+03,   358.830E+03,   358.830E+03
C:/temp/Job-36.odb,Step-1,Increment      1: Step Time =    1.000,"P-36-1",            87,          170.,          200.,            0.,NA,NA,"",   634.391E+03,   629.546E+03,   629.546E+03
C:/temp/Job-36.odb,Step-1,Increment      1: Step Time =    1.000,"P-36-1",            88,          180.,          200.,            0.,NA,NA,"",   821.257E+03,   818.356E+03,   818.356E+03
C:/temp/Job-36.odb,Step-1,Increment      1: Step Time =    1.000,"P-36-1",            89,          190.,          200.,            0.,NA,NA,"",   948.159E+03,   944.965E+03,   944.965E+03
C:/temp/Job-36.odb,Step-1,Increment      1: Step Time =    1.000,"P-36-1",            90,            0.,          200.,            0.,NA,NA,"",   4.64387E+06,   4.88361E+06,   4.88361E+06
C:/temp/Job-36.odb,Step-1,Increment      1: Step Time =    1.000,"P-36-1",            91,            0.,           10.,            0.,NA,NA,"",   3.22032E+06,   3.54302E+06,   3.54302E+06
C:/temp/Job-36.odb,Step-1,Increment      1: Step Time =    1.000,"P-36-1",            92,            0.,           20.,            0.,NA,NA,"",   2.29095E+06,   2.55302E+06,   2.55302E+06
C:/temp/Job-36.odb,Step-1,Increment      1: Step Time =    1.000,"P-36-1",            93,            0.,           30.,            0.,NA,NA,"",   1.52557E+06,   1.70786E+06,   1.70786E+06
C:/temp/Job-36.odb,Step-1,Increment      1: Step Time =    1.000,"P-36-1",            94,            0.,           40.,            0.,NA,NA,"",   871.819E+03,   976.749E+03,   976.749E+03
C:/temp/Job-36.odb,Step-1,Increment      1: Step Time =    1.000,"P-36-1",            95,            0.,           50.,            0.,NA,NA,"",   334.727E+03,   374.813E+03,   374.813E+03
C:/temp/Job-36.odb,Step-1,Increment      1: Step Time =    1.000,"P-36-1",            96,            0.,           60.,            0.,NA,NA,"",   121.999E+03,  -58.9975E+03,  -58.9975E+03
C:/temp/Job-36.odb,Step-1,Increment      1: Step Time =    1.000,"P-36-1",            97,            0.,           70.,            0.,NA,NA,"",   321.717E+03,  -350.609E+03,  -350.609E+03
C:/temp/Job-36.odb,Step-1,Increment      1: Step Time =    1.000,"P-36-1",            98,            0.,           80.,            0.,NA,NA,"",   407.840E+03,  -453.131E+03,  -453.131E+03
C:/temp/Job-36.odb,Step-1,Increment      1: Step Time =    1.000,"P-36-1",            99,            0.,           90.,            0.,NA,NA,"",   394.655E+03,  -448.404E+03,  -448.404E+03
C:/temp/Job-36.odb,Step-1,Increment      1: Step Time =    1.000,"P-36-1",           100,            0.,          100.,            0.,NA,NA,"",   371.034E+03,  -426.182E+03,  -426.182E+03
C:/temp/Job-36.odb,Step-1,Increment      1: Step Time =    1.000,"P-36-1",           101,            0.,          110.,            0.,NA,NA,"",   394.219E+03,  -447.754E+03,  -447.754E+03
C:/temp/Job-36.odb,Step-1,Increment      1: Step Time =    1.000,"P-36-1",           102,            0.,          120.,            0.,NA,NA,"",   410.508E+03,  -455.823E+03,  -455.823E+03
C:/temp/Job-36.odb,Step-1,Increment      1: Step Time =    1.000,"P-36-1",           103,            0.,          130.,            0.,NA,NA,"",   322.669E+03,  -352.123E+03,  -352.123E+03
C:/temp/Job-36.odb,Step-1,Increment      1: Step Time =    1.000,"P-36-1",           104,            0.,          140.,            0.,NA,NA,"",   119.680E+03,  -58.9587E+03,  -58.9587E+03
C:/temp/Job-36.odb,Step-1,Increment      1: Step Time =    1.000,"P-36-1",           105,            0.,          150.,            0.,NA,NA,"",   339.958E+03,   380.895E+03,   380.895E+03
C:/temp/Job-36.odb,Step-1,Increment      1: Step Time =    1.000,"P-36-1",           106,            0.,          160.,            0.,NA,NA,"",   877.223E+03,   983.097E+03,   983.097E+03
C:/temp/Job-36.odb,Step-1,Increment      1: Step Time =    1.000,"P-36-1",           107,            0.,          170.,            0.,NA,NA,"",   1.52496E+06,   1.70798E+06,   1.70798E+06
C:/temp/Job-36.odb,Step-1,Increment      1: Step Time =    1.000,"P-36-1",           108,            0.,          180.,            0.,NA,NA,"",   2.29434E+06,   2.55956E+06,   2.55956E+06
C:/temp/Job-36.odb,Step-1,Increment      1: Step Time =    1.000,"P-36-1",           109,            0.,          190.,            0.,NA,NA,"",   3.22522E+06,   3.55158E+06,   3.55158E+06
C:/temp/Job-36.odb,Step-1,Increment      1: Step Time =    1.000,"P-36-1",           110,       190.320,       30.5061,            0.,NA,NA,"",   1.14912E+06,   1.14376E+06,   1.14376E+06
C:/temp/Job-36.odb,Step-1,Increment      1: Step Time =    1.000,"P-36-1",           111,       189.960,       169.765,            0.,NA,NA,"",   1.15602E+06,   1.14852E+06,   1.14852E+06
C:/temp/Job-36.odb,Step-1,Increment      1: Step Time =    1.000,"P-36-1",           112,       177.334,       170.608,            0.,NA,NA,"",   1.55529E+06,   1.49077E+06,   1.49077E+06
C:/temp/Job-36.odb,Step-1,Increment      1: Step Time =    1.000,"P-36-1",           113,       170.204,       169.032,            0.,NA,NA,"",   1.91126E+06,   1.79391E+06,   1.79391E+06
C:/temp/Job-36.odb,Step-1,Increment      1: Step Time =    1.000,"P-36-1",           114,       160.339,       168.639,            0.,NA,NA,"",   2.29296E+06,   2.18880E+06,   2.18880E+06
C:/temp/Job-36.odb,Step-1,Increment      1: Step Time =    1.000,"P-36-1",           115,       146.408,       170.168,            0.,NA,NA,"",   2.83697E+06,   2.88206E+06,   2.88206E+06
C:/temp/Job-36.odb,Step-1,Increment      1: Step Time =    1.000,"P-36-1",           116,       137.148,       166.279,            0.,NA,NA,"",   4.07460E+06,   4.21412E+06,   4.21412E+06
C:/temp/Job-36.odb,Step-1,Increment      1: Step Time =    1.000,"P-36-1",           117,       126.358,       167.202,            0.,NA,NA,"",   5.79364E+06,   5.95693E+06,   5.95693E+06
C:/temp/Job-36.odb,Step-1,Increment      1: Step Time =    1.000,"P-36-1",           118,       74.0596,       166.591,            0.,NA,NA,"",   2.41935E+06,   2.34044E+06,   2.34044E+06
C:/temp/Job-36.odb,Step-1,Increment      1: Step Time =    1.000,"P-36-1",           119,       63.2138,       167.857,            0.,NA,NA,"",   2.23610E+06,   1.84827E+06,   1.84827E+06
C:/temp/Job-36.odb,Step-1,Increment      1: Step Time =    1.000,"P-36-1",           120,       53.2645,       168.734,            0.,NA,NA,"",   2.13768E+06,   1.73887E+06,   1.73887E+06
C:/temp/Job-36.odb,Step-1,Increment      1: Step Time =    1.000,"P-36-1",           121,       40.2919,       169.075,            0.,NA,NA,"",   1.91957E+06,   1.69897E+06,   1.69897E+06
C:/temp/Job-36.odb,Step-1,Increment      1: Step Time =    1.000,"P-36-1",           122,       32.0221,       167.488,            0.,NA,NA,"",   1.65237E+06,   1.54768E+06,   1.54768E+06
C:/temp/Job-36.odb,Step-1,Increment      1: Step Time =    1.000,"P-36-1",           123,       20.8034,       171.072,            0.,NA,NA,"",   1.86870E+06,   1.91162E+06,   1.91162E+06
C:/temp/Job-36.odb,Step-1,Increment      1: Step Time =    1.000,"P-36-1",           124,       10.2423,       169.657,            0.,NA,NA,"",   1.58914E+06,   1.72755E+06,   1.72755E+06
C:/temp/Job-36.odb,Step-1,Increment      1: Step Time =    1.000,"P-36-1",           125,       10.5465,       159.641,            0.,NA,NA,"",   846.086E+03,   940.245E+03,   940.245E+03
C:/temp/Job-36.odb,Step-1,Increment      1: Step Time =    1.000,"P-36-1",           126,       22.0011,       159.377,            0.,NA,NA,"",   889.116E+03,   902.727E+03,   902.727E+03
C:/temp/Job-36.odb,Step-1,Increment      1: Step Time =    1.000,"P-36-1",           127,       29.7921,       159.665,            0.,NA,NA,"",   997.663E+03,   899.821E+03,   899.821E+03
C:/temp/Job-36.odb,Step-1,Increment      1: Step Time =    1.000,"P-36-1",           128,       41.7238,       158.326,            0.,NA,NA,"",   1.08445E+06,   86.8145E+03,   86.8145E+03
C:/temp/Job-36.odb,Step-1,Increment      1: Step Time =    1.000,"P-36-1",           129,       49.3909,       159.196,            0.,NA,NA,"",   1.24254E+06,  -318.029E+03,  -318.029E+03
C:/temp/Job-36.odb,Step-1,Increment      1: Step Time =    1.000,"P-36-1",           130,       148.868,       159.336,            0.,NA,NA,"",   3.18170E+06,   3.21732E+06,   3.21732E+06
C:/temp/Job-36.odb,Step-1,Increment      1: Step Time =    1.000,"P-36-1",           131,       159.544,       161.609,            0.,NA,NA,"",   2.56007E+06,   2.43122E+06,   2.43122E+06
C:/temp/Job-36.odb,Step-1,Increment      1: Step Time =    1.000,"P-36-1",           132,       169.770,       156.671,            0.,NA,NA,"",   2.36470E+06,   2.12036E+06,   2.12036E+06
C:/temp/Job-36.odb,Step-1,Increment      1: Step Time =    1.000,"P-36-1",           133,       179.525,       155.659,            0.,NA,NA,"",   1.98012E+06,   1.82086E+06,   1.82086E+06
C:/temp/Job-36.odb,Step-1,Increment      1: Step Time =    1.000,"P-36-1",           134,       188.284,       158.658,            0.,NA,NA,"",   1.39739E+06,   1.40649E+06,   1.40649E+06
C:/temp/Job-36.odb,Step-1,Increment      1: Step Time =    1.000,"P-36-1",           135,       159.501,       147.639,            0.,NA,NA,"",   2.34184E+06,   2.15216E+06,   2.15216E+06
C:/temp/Job-36.odb,Step-1,Increment      1: Step Time =    1.000,"P-36-1",           136,       167.490,       147.579,            0.,NA,NA,"",   2.45787E+06,   2.08379E+06,   2.08379E+06
C:/temp/Job-36.odb,Step-1,Increment      1: Step Time =    1.000,"P-36-1",           137,       178.127,       146.959,            0.,NA,NA,"",   2.31657E+06,   2.02482E+06,   2.02482E+06
C:/temp/Job-36.odb,Step-1,Increment      1: Step Time =    1.000,"P-36-1",           138,       186.684,       148.846,            0.,NA,NA,"",   1.77007E+06,   1.74511E+06,   1.74511E+06
C:/temp/Job-36.odb,Step-1,Increment      1: Step Time =    1.000,"P-36-1",           139,       168.512,       134.872,            0.,NA,NA,"",   2.02760E+06,   796.471E+03,   796.471E+03
C:/temp/Job-36.odb,Step-1,Increment      1: Step Time =    1.000,"P-36-1",           140,       179.573,       135.605,            0.,NA,NA,"",   2.33964E+06,   1.94711E+06,   1.94711E+06
C:/temp/Job-36.odb,Step-1,Increment      1: Step Time =    1.000,"P-36-1",           141,       190.425,       134.694,            0.,NA,NA,"",   2.05857E+06,   2.18181E+06,   2.18181E+06
C:/temp/Job-36.odb,Step-1,Increment      1: Step Time =    1.000,"P-36-1",           142,       167.727,       126.835,            0.,NA,NA,"",   1.81973E+06,  -1.48215E+06,  -1.48215E+06
C:/temp/Job-36.odb,Step-1,Increment      1: Step Time =    1.000,"P-36-1",           143,       177.899,       125.863,            0.,NA,NA,"",   2.08124E+06,   866.544E+03,   866.544E+03
C:/temp/Job-36.odb,Step-1,Increment      1: Step Time =    1.000,"P-36-1",           144,       190.849,       125.101,            0.,NA,NA,"",   2.39293E+06,   2.58874E+06,   2.58874E+06
C:/temp/Job-36.odb,Step-1,Increment      1: Step Time =    1.000,"P-36-1",           145,       178.031,       116.396,            0.,NA,NA,"",   1.59447E+06,  -72.3242E+03,  -72.3242E+03
C:/temp/Job-36.odb,Step-1,Increment      1: Step Time =    1.000,"P-36-1",           146,       190.519,       115.313,            0.,NA,NA,"",   2.56006E+06,   2.78916E+06,   2.78916E+06
C:/temp/Job-36.odb,Step-1,Increment      1: Step Time =    1.000,"P-36-1",           147,       180.089,       95.2476,            0.,NA,NA,"",   882.759E+03,  -183.470E+03,  -183.470E+03
C:/temp/Job-36.odb,Step-1,Increment      1: Step Time =    1.000,"P-36-1",           148,       189.830,       95.1116,            0.,NA,NA,"",   2.42087E+06,   2.67698E+06,   2.67698E+06
C:/temp/Job-36.odb,Step-1,Increment      1: Step Time =    1.000,"P-36-1",           149,       190.000,       105.347,            0.,NA,NA,"",   2.47861E+06,   2.74011E+06,   2.74011E+06
C:/temp/Job-36.odb,Step-1,Increment      1: Step Time =    1.000,"P-36-1",           150,       180.090,       105.856,            0.,NA,NA,"",   937.476E+03,  -148.940E+03,  -148.940E+03
C:/temp/Job-36.odb,Step-1,Increment      1: Step Time =    1.000,"P-36-1",           151,       180.055,       82.5823,            0.,NA,NA,"",   1.62310E+06,   703.280E+03,   703.280E+03
C:/temp/Job-36.odb,Step-1,Increment      1: Step Time =    1.000,"P-36-1",           152,       189.730,       84.9367,            0.,NA,NA,"",   2.42500E+06,   2.63424E+06,   2.63424E+06
C:/temp/Job-36.odb,Step-1,Increment      1: Step Time =    1.000,"P-36-1",           153,       167.374,       73.6566,            0.,NA,NA,"",   1.80987E+06,  -1.54995E+06,  -1.54995E+06
C:/temp/Job-36.odb,Step-1,Increment      1: Step Time =    1.000,"P-36-1",           154,       177.255,       73.5275,            0.,NA,NA,"",   2.07763E+06,   1.44460E+06,   1.44460E+06
C:/temp/Job-36.odb,Step-1,Increment      1: Step Time =    1.000,"P-36-1",           155,       190.143,       75.0336,            0.,NA,NA,"",   2.35613E+06,   2.51427E+06,   2.51427E+06
C:/temp/Job-36.odb,Step-1,Increment      1: Step Time =    1.000,"P-36-1",           156,       158.881,       51.9097,            0.,NA,NA,"",   2.35551E+06,   2.17964E+06,   2.17964E+06
C:/temp/Job-36.odb,Step-1,Increment      1: Step Time =    1.000,"P-36-1",           157,       165.276,       51.4381,            0.,NA,NA,"",   2.49953E+06,   2.15684E+06,   2.15684E+06
C:/temp/Job-36.odb,Step-1,Increment      1: Step Time =    1.000,"P-36-1",           158,       180.566,       49.6716,            0.,NA,NA,"",   2.09777E+06,   1.90697E+06,   1.90697E+06
C:/temp/Job-36.odb,Step-1,Increment      1: Step Time =    1.000,"P-36-1",           159,       189.981,       50.1963,            0.,NA,NA,"",   1.52850E+06,   1.58950E+06,   1.58950E+06
C:/temp/Job-36.odb,Step-1,Increment      1: Step Time =    1.000,"P-36-1",           160,       189.900,       65.1664,            0.,NA,NA,"",   2.06241E+06,   2.16960E+06,   2.16960E+06
C:/temp/Job-36.odb,Step-1,Increment      1: Step Time =    1.000,"P-36-1",           161,       179.094,       66.2272,            0.,NA,NA,"",   2.30866E+06,   1.87998E+06,   1.87998E+06
C:/temp/Job-36.odb,Step-1,Increment      1: Step Time =    1.000,"P-36-1",           162,       169.256,       64.1043,            0.,NA,NA,"",   2.13199E+06,   1.44852E+06,   1.44852E+06
C:/temp/Job-36.odb,Step-1,Increment      1: Step Time =    1.000,"P-36-1",           163,       148.267,       41.0903,            0.,NA,NA,"",   3.28094E+06,   3.31505E+06,   3.31505E+06
C:/temp/Job-36.odb,Step-1,Increment      1: Step Time =    1.000,"P-36-1",           164,       156.341,       40.1949,            0.,NA,NA,"",   2.72750E+06,   2.63206E+06,   2.63206E+06
C:/temp/Job-36.odb,Step-1,Increment      1: Step Time =    1.000,"P-36-1",           165,       166.414,       41.3637,            0.,NA,NA,"",   2.42027E+06,   2.19987E+06,   2.19987E+06
C:/temp/Job-36.odb,Step-1,Increment      1: Step Time =    1.000,"P-36-1",           166,       180.882,       40.4111,            0.,NA,NA,"",   1.74949E+06,   1.65837E+06,   1.65837E+06
C:/temp/Job-36.odb,Step-1,Increment      1: Step Time =    1.000,"P-36-1",           167,       190.263,       40.2446,            0.,NA,NA,"",   1.25770E+06,   1.29384E+06,   1.29384E+06
C:/temp/Job-36.odb,Step-1,Increment      1: Step Time =    1.000,"P-36-1",           168,       126.326,       32.3304,            0.,NA,NA,"",   5.68124E+06,   5.84168E+06,   5.84168E+06
C:/temp/Job-36.odb,Step-1,Increment      1: Step Time =    1.000,"P-36-1",           169,       9.77749,       31.2444,            0.,NA,NA,"",   1.50698E+06,   1.64538E+06,   1.64538E+06
C:/temp/Job-36.odb,Step-1,Increment      1: Step Time =    1.000,"P-36-1",           170,       23.1474,       31.7511,            0.,NA,NA,"",   1.62830E+06,   1.64139E+06,   1.64139E+06
C:/temp/Job-36.odb,Step-1,Increment      1: Step Time =    1.000,"P-36-1",           171,       30.9139,       32.1347,            0.,NA,NA,"",   1.67993E+06,   1.59334E+06,   1.59334E+06
C:/temp/Job-36.odb,Step-1,Increment      1: Step Time =    1.000,"P-36-1",           172,       39.6372,       31.3761,            0.,NA,NA,"",   1.88829E+06,   1.67204E+06,   1.67204E+06
C:/temp/Job-36.odb,Step-1,Increment      1: Step Time =    1.000,"P-36-1",           173,       52.6225,       32.9228,            0.,NA,NA,"",   2.01008E+06,   1.59178E+06,   1.59178E+06
C:/temp/Job-36.odb,Step-1,Increment      1: Step Time =    1.000,"P-36-1",           174,       65.3604,       29.1870,            0.,NA,NA,"",   2.63832E+06,   2.28284E+06,   2.28284E+06
C:/temp/Job-36.odb,Step-1,Increment      1: Step Time =    1.000,"P-36-1",           175,       74.9608,       33.1785,            0.,NA,NA,"",   2.55505E+06,   2.47848E+06,   2.47848E+06
C:/temp/Job-36.odb,Step-1,Increment      1: Step Time =    1.000,"P-36-1",           176,       138.417,       30.5399,            0.,NA,NA,"",   3.49811E+06,   3.63970E+06,   3.63970E+06
C:/temp/Job-36.odb,Step-1,Increment      1: Step Time =    1.000,"P-36-1",           177,       149.582,       31.4847,            0.,NA,NA,"",   2.75679E+06,   2.76642E+06,   2.76642E+06
C:/temp/Job-36.odb,Step-1,Increment      1: Step Time =    1.000,"P-36-1",           178,       160.892,       29.9000,            0.,NA,NA,"",   2.18974E+06,   2.08629E+06,   2.08629E+06
C:/temp/Job-36.odb,Step-1,Increment      1: Step Time =    1.000,"P-36-1",           179,       168.552,       33.4444,            0.,NA,NA,"",   2.05982E+06,   1.92298E+06,   1.92298E+06
C:/temp/Job-36.odb,Step-1,Increment      1: Step Time =    1.000,"P-36-1",           180,       180.897,       30.8878,            0.,NA,NA,"",   1.46999E+06,   1.42234E+06,   1.42234E+06
C:/temp/Job-36.odb,Step-1,Increment      1: Step Time =    1.000,"P-36-1",           181,       52.1245,       39.8764,            0.,NA,NA,"",   1.31404E+06,   80.3774E+03,   80.3774E+03
C:/temp/Job-36.odb,Step-1,Increment      1: Step Time =    1.000,"P-36-1",           182,       41.3946,       40.6168,            0.,NA,NA,"",   1.14050E+06,   187.032E+03,   187.032E+03
C:/temp/Job-36.odb,Step-1,Increment      1: Step Time =    1.000,"P-36-1",           183,       31.6337,       42.9336,            0.,NA,NA,"",   826.692E+03,   658.088E+03,   658.088E+03
C:/temp/Job-36.odb,Step-1,Increment      1: Step Time =    1.000,"P-36-1",           184,       17.0776,       41.1288,            0.,NA,NA,"",   798.526E+03,   857.762E+03,   857.762E+03
C:/temp/Job-36.odb,Step-1,Increment      1: Step Time =    1.000,"P-36-1",           185,       9.12407,       40.5900,            0.,NA,NA,"",   829.199E+03,   927.358E+03,   927.358E+03
C:/temp/Job-36.odb,Step-1,Increment      1: Step Time =    1.000,"P-36-1",           186,       40.4010,       51.5224,            0.,NA,NA,"",   985.661E+03,  -966.485E+03,  -966.485E+03
C:/temp/Job-36.odb,Step-1,Increment      1: Step Time =    1.000,"P-36-1",           187,       32.1188,       55.0548,            0.,NA,NA,"",   654.519E+03,  -645.340E+03,  -645.340E+03
C:/temp/Job-36.odb,Step-1,Increment      1: Step Time =    1.000,"P-36-1",           188,       20.8599,       51.5733,            0.,NA,NA,"",   273.109E+03,   130.100E+03,   130.100E+03
C:/temp/Job-36.odb,Step-1,Increment      1: Step Time =    1.000,"P-36-1",           189,       10.0082,       50.2321,            0.,NA,NA,"",    264.51E+03,   301.462E+03,   301.462E+03
C:/temp/Job-36.odb,Step-1,Increment      1: Step Time =    1.000,"P-36-1",           190,       30.9639,       61.8252,            0.,NA,NA,"",   873.484E+03,  -893.809E+03,  -893.809E+03
C:/temp/Job-36.odb,Step-1,Increment      1: Step Time =    1.000,"P-36-1",           191,       21.0584,       65.8102,            0.,NA,NA,"",   576.603E+03,  -578.573E+03,  -578.573E+03
C:/temp/Job-36.odb,Step-1,Increment      1: Step Time =    1.000,"P-36-1",           192,       10.0867,       65.2492,            0.,NA,NA,"",   345.439E+03,  -333.566E+03,  -333.566E+03
C:/temp/Job-36.odb,Step-1,Increment      1: Step Time =    1.000,"P-36-1",           193,       9.63128,       75.3791,            0.,NA,NA,"",   447.430E+03,  -479.847E+03,  -479.847E+03
C:/temp/Job-36.odb,Step-1,Increment      1: Step Time =    1.000,"P-36-1",           194,       22.8199,       76.7748,            0.,NA,NA,"",   716.264E+03,  -753.371E+03,  -753.371E+03
C:/temp/Job-36.odb,Step-1,Increment      1: Step Time =    1.000,"P-36-1",           195,       32.7674,       73.6971,            0.,NA,NA,"",   1.20052E+06,  -1.23122E+06,  -1.23122E+06
C:/temp/Job-36.odb,Step-1,Increment      1: Step Time =    1.000,"P-36-1",           196,       9.49815,       85.5832,            0.,NA,NA,"",   417.003E+03,  -474.569E+03,  -474.569E+03
C:/temp/Job-36.odb,Step-1,Increment      1: Step Time =    1.000,"P-36-1",           197,       19.8453,       95.3641,            0.,NA,NA,"",   477.005E+03,  -542.555E+03,  -542.555E+03
C:/temp/Job-36.odb,Step-1,Increment      1: Step Time =    1.000,"P-36-1",           198,       8.82785,       95.5269,            0.,NA,NA,"",   351.228E+03,  -395.183E+03,  -395.183E+03
C:/temp/Job-36.odb,Step-1,Increment      1: Step Time =    1.000,"P-36-1",           199,       20.0222,       104.723,            0.,NA,NA,"",   479.697E+03,  -545.313E+03,  -545.313E+03
C:/temp/Job-36.odb,Step-1,Increment      1: Step Time =    1.000,"P-36-1",           200,       8.66296,       105.054,            0.,NA,NA,"",   352.377E+03,  -397.741E+03,  -397.741E+03
C:/temp/Job-36.odb,Step-1,Increment      1: Step Time =    1.000,"P-36-1",           201,       33.6367,       126.043,            0.,NA,NA,"",   1.24645E+06,  -1.27038E+06,  -1.27038E+06
C:/temp/Job-36.odb,Step-1,Increment      1: Step Time =    1.000,"P-36-1",           202,       19.8192,       124.276,            0.,NA,NA,"",   628.604E+03,  -662.825E+03,  -662.825E+03
C:/temp/Job-36.odb,Step-1,Increment      1: Step Time =    1.000,"P-36-1",           203,       8.76448,       124.843,            0.,NA,NA,"",   444.155E+03,  -476.088E+03,  -476.088E+03
C:/temp/Job-36.odb,Step-1,Increment      1: Step Time =    1.000,"P-36-1",           204,       9.26223,       114.788,            0.,NA,NA,"",   416.421E+03,  -473.376E+03,  -473.376E+03
C:/temp/Job-36.odb,Step-1,Increment      1: Step Time =    1.000,"P-36-1",           205,       19.3938,       117.186,            0.,NA,NA,"",   584.190E+03,  -637.780E+03,  -637.780E+03
C:/temp/Job-36.odb,Step-1,Increment      1: Step Time =    1.000,"P-36-1",           206,       30.6879,       136.772,            0.,NA,NA,"",   905.829E+03,  -930.290E+03,  -930.290E+03
C:/temp/Job-36.odb,Step-1,Increment      1: Step Time =    1.000,"P-36-1",           207,       19.8962,       131.906,            0.,NA,NA,"",   583.080E+03,  -591.742E+03,  -591.742E+03
C:/temp/Job-36.odb,Step-1,Increment      1: Step Time =    1.000,"P-36-1",           208,       9.52241,       134.494,            0.,NA,NA,"",   343.979E+03,  -332.924E+03,  -332.924E+03
C:/temp/Job-36.odb,Step-1,Increment      1: Step Time =    1.000,"P-36-1",           209,       39.8062,       147.428,            0.,NA,NA,"",   1.00612E+06,  -997.895E+03,  -997.895E+03
C:/temp/Job-36.odb,Step-1,Increment      1: Step Time =    1.000,"P-36-1",           210,       32.5938,       146.066,            0.,NA,NA,"",   647.553E+03,  -622.065E+03,  -622.065E+03
C:/temp/Job-36.odb,Step-1,Increment      1: Step Time =    1.000,"P-36-1",           211,       20.9322,       148.547,            0.,NA,NA,"",   282.309E+03,   126.216E+03,   126.216E+03
C:/temp/Job-36.odb,Step-1,Increment      1: Step Time =    1.000,"P-36-1",           212,       10.3742,       149.435,            0.,NA,NA,"",   253.657E+03,   287.239E+03,   287.239E+03
C:/temp/Job-36.odb,Step-1,Increment      1: Step Time =    1.000,"P-36-1",           213,       189.772,       10.4832,            0.,NA,NA,"",   1.00886E+06,   989.824E+03,   989.824E+03
C:/temp/Job-36.odb,Step-1,Increment      1: Step Time =    1.000,"P-36-1",           214,       178.569,       11.7944,            0.,NA,NA,"",   1.04022E+06,   1.01627E+06,   1.01627E+06
C:/temp/Job-36.odb,Step-1,Increment      1: Step Time =    1.000,"P-36-1",           215,       168.425,       9.39660,            0.,NA,NA,"",   965.169E+03,   928.668E+03,   928.668E+03
C:/temp/Job-36.odb,Step-1,Increment      1: Step Time =    1.000,"P-36-1",           216,       158.811,       9.94346,            0.,NA,NA,"",   979.282E+03,   920.495E+03,   920.495E+03
C:/temp/Job-36.odb,Step-1,Increment      1: Step Time =    1.000,"P-36-1",           217,       149.106,       9.60907,            0.,NA,NA,"",   908.402E+03,   837.159E+03,   837.159E+03
C:/temp/Job-36.odb,Step-1,Increment      1: Step Time =    1.000,"P-36-1",           218,       134.652,       9.85203,            0.,NA,NA,"",   776.752E+03,   750.484E+03,   750.484E+03
C:/temp/Job-36.odb,Step-1,Increment      1: Step Time =    1.000,"P-36-1",           219,       124.839,       9.26511,            0.,NA,NA,"",   596.899E+03,   628.141E+03,   628.141E+03
C:/temp/Job-36.odb,Step-1,Increment      1: Step Time =    1.000,"P-36-1",           220,       115.239,       9.58043,            0.,NA,NA,"",   827.584E+03,   875.889E+03,   875.889E+03
C:/temp/Job-36.odb,Step-1,Increment      1: Step Time =    1.000,"P-36-1",           221,       105.219,       10.1486,            0.,NA,NA,"",   1.48585E+06,   1.46976E+06,   1.46976E+06
C:/temp/Job-36.odb,Step-1,Increment      1: Step Time =    1.000,"P-36-1",           222,       94.5967,       10.5510,            0.,NA,NA,"",   2.19802E+06,   2.08698E+06,   2.08698E+06
C:/temp/Job-36.odb,Step-1,Increment      1: Step Time =    1.000,"P-36-1",           223,       83.6648,       10.8003,            0.,NA,NA,"",   2.74437E+06,   2.56416E+06,   2.56416E+06
C:/temp/Job-36.odb,Step-1,Increment      1: Step Time =    1.000,"P-36-1",           224,       73.4609,       9.84847,            0.,NA,NA,"",   3.02206E+06,   2.85976E+06,   2.85976E+06
C:/temp/Job-36.odb,Step-1,Increment      1: Step Time =    1.000,"P-36-1",           225,       64.0292,       9.21856,            0.,NA,NA,"",   3.27428E+06,   3.15964E+06,   3.15964E+06
C:/temp/Job-36.odb,Step-1,Increment      1: Step Time =    1.000,"P-36-1",           226,       50.2072,       9.44944,            0.,NA,NA,"",   3.53132E+06,   3.46509E+06,   3.46509E+06
C:/temp/Job-36.odb,Step-1,Increment      1: Step Time =    1.000,"P-36-1",           227,       40.3721,       9.41349,            0.,NA,NA,"",   3.61549E+06,   3.57790E+06,   3.57790E+06
C:/temp/Job-36.odb,Step-1,Increment      1: Step Time =    1.000,"P-36-1",           228,       30.5495,       9.44739,            0.,NA,NA,"",   3.64257E+06,   3.62819E+06,   3.62819E+06
C:/temp/Job-36.odb,Step-1,Increment      1: Step Time =    1.000,"P-36-1",           229,       20.6247,       9.80545,            0.,NA,NA,"",   3.62743E+06,   3.63706E+06,   3.63706E+06
C:/temp/Job-36.odb,Step-1,Increment      1: Step Time =    1.000,"P-36-1",           230,       10.5079,       10.0886,            0.,NA,NA,"",   3.59993E+06,   3.69895E+06,   3.69895E+06
C:/temp/Job-36.odb,Step-1,Increment      1: Step Time =    1.000,"P-36-1",           231,       190.191,       20.6049,            0.,NA,NA,"",   1.09694E+06,   1.06737E+06,   1.06737E+06
C:/temp/Job-36.odb,Step-1,Increment      1: Step Time =    1.000,"P-36-1",           232,       181.212,       26.2150,            0.,NA,NA,"",   1.34888E+06,   1.31260E+06,   1.31260E+06
C:/temp/Job-36.odb,Step-1,Increment      1: Step Time =    1.000,"P-36-1",           233,       155.997,       21.2113,            0.,NA,NA,"",   1.84832E+06,   1.78043E+06,   1.78043E+06
C:/temp/Job-36.odb,Step-1,Increment      1: Step Time =    1.000,"P-36-1",           234,       146.551,       23.7006,            0.,NA,NA,"",   2.30326E+06,   2.31405E+06,   2.31405E+06
C:/temp/Job-36.odb,Step-1,Increment      1: Step Time =    1.000,"P-36-1",           235,       136.464,       20.6984,            0.,NA,NA,"",   2.34932E+06,   2.44814E+06,   2.44814E+06
C:/temp/Job-36.odb,Step-1,Increment      1: Step Time =    1.000,"P-36-1",           236,       127.353,       22.6231,            0.,NA,NA,"",   3.12095E+06,   3.31112E+06,   3.31112E+06
C:/temp/Job-36.odb,Step-1,Increment      1: Step Time =    1.000,"P-36-1",           237,       117.151,       19.8996,            0.,NA,NA,"",   3.07436E+06,   3.26248E+06,   3.26248E+06
C:/temp/Job-36.odb,Step-1,Increment      1: Step Time =    1.000,"P-36-1",           238,       105.550,       19.8908,            0.,NA,NA,"",   3.60177E+06,   3.74297E+06,   3.74297E+06
C:/temp/Job-36.odb,Step-1,Increment      1: Step Time =    1.000,"P-36-1",           239,       94.6651,       20.2624,            0.,NA,NA,"",   3.77489E+06,   3.79174E+06,   3.79174E+06
C:/temp/Job-36.odb,Step-1,Increment      1: Step Time =    1.000,"P-36-1",           240,       84.1591,       21.8508,            0.,NA,NA,"",   3.69504E+06,   3.56496E+06,   3.56496E+06
C:/temp/Job-36.odb,Step-1,Increment      1: Step Time =    1.000,"P-36-1",           241,       75.7323,       19.4312,            0.,NA,NA,"",   3.46011E+06,   3.18615E+06,   3.18615E+06
C:/temp/Job-36.odb,Step-1,Increment      1: Step Time =    1.000,"P-36-1",           242,       62.7487,       23.2526,            0.,NA,NA,"",   3.01773E+06,   2.67079E+06,   2.67079E+06
C:/temp/Job-36.odb,Step-1,Increment      1: Step Time =    1.000,"P-36-1",           243,       51.9954,       21.9463,            0.,NA,NA,"",   2.83288E+06,   2.57483E+06,   2.57483E+06
C:/temp/Job-36.odb,Step-1,Increment      1: Step Time =    1.000,"P-36-1",           244,       44.9597,       19.5552,            0.,NA,NA,"",   2.87998E+06,   2.72145E+06,   2.72145E+06
C:/temp/Job-36.odb,Step-1,Increment      1: Step Time =    1.000,"P-36-1",           245,       31.7729,       18.3506,            0.,NA,NA,"",   2.90512E+06,   2.85733E+06,   2.85733E+06
C:/temp/Job-36.odb,Step-1,Increment      1: Step Time =    1.000,"P-36-1",           246,       21.2038,       20.2384,            0.,NA,NA,"",   2.67257E+06,   2.70520E+06,   2.70520E+06
C:/temp/Job-36.odb,Step-1,Increment      1: Step Time =    1.000,"P-36-1",           247,       12.2749,       21.0405,            0.,NA,NA,"",   2.46752E+06,   2.60063E+06,   2.60063E+06
C:/temp/Job-36.odb,Step-1,Increment      1: Step Time =    1.000,"P-36-1",           248,       190.071,       179.837,            0.,NA,NA,"",   1.08784E+06,   1.05941E+06,   1.05941E+06
C:/temp/Job-36.odb,Step-1,Increment      1: Step Time =    1.000,"P-36-1",           249,       176.680,       177.872,            0.,NA,NA,"",   1.34809E+06,   1.30204E+06,   1.30204E+06
C:/temp/Job-36.odb,Step-1,Increment      1: Step Time =    1.000,"P-36-1",           250,       168.201,       181.350,            0.,NA,NA,"",   1.42132E+06,   1.35535E+06,   1.35535E+06
C:/temp/Job-36.odb,Step-1,Increment      1: Step Time =    1.000,"P-36-1",           251,       159.851,       181.882,            0.,NA,NA,"",   1.55882E+06,   1.48467E+06,   1.48467E+06
C:/temp/Job-36.odb,Step-1,Increment      1: Step Time =    1.000,"P-36-1",           252,       145.930,       178.386,            0.,NA,NA,"",   2.12174E+06,   2.12887E+06,   2.12887E+06
C:/temp/Job-36.odb,Step-1,Increment      1: Step Time =    1.000,"P-36-1",           253,       135.397,       179.598,            0.,NA,NA,"",   2.31115E+06,   2.40320E+06,   2.40320E+06
C:/temp/Job-36.odb,Step-1,Increment      1: Step Time =    1.000,"P-36-1",           254,       127.890,       178.952,            0.,NA,NA,"",   2.72414E+06,   2.88109E+06,   2.88109E+06
C:/temp/Job-36.odb,Step-1,Increment      1: Step Time =    1.000,"P-36-1",           255,       116.989,       180.409,            0.,NA,NA,"",   3.04024E+06,   3.22665E+06,   3.22665E+06
C:/temp/Job-36.odb,Step-1,Increment      1: Step Time =    1.000,"P-36-1",           256,       104.874,       179.846,            0.,NA,NA,"",   3.69459E+06,   3.83403E+06,   3.83403E+06
C:/temp/Job-36.odb,Step-1,Increment      1: Step Time =    1.000,"P-36-1",           257,       94.5826,       180.269,            0.,NA,NA,"",   3.68326E+06,   3.69041E+06,   3.69041E+06
C:/temp/Job-36.odb,Step-1,Increment      1: Step Time =    1.000,"P-36-1",           258,       84.5589,       180.893,            0.,NA,NA,"",   3.54217E+06,   3.38425E+06,   3.38425E+06
C:/temp/Job-36.odb,Step-1,Increment      1: Step Time =    1.000,"P-36-1",           259,       74.9522,       176.939,            0.,NA,NA,"",   3.40284E+06,   3.13951E+06,   3.13951E+06
C:/temp/Job-36.odb,Step-1,Increment      1: Step Time =    1.000,"P-36-1",           260,       65.5519,       177.327,            0.,NA,NA,"",   3.15512E+06,   2.81191E+06,   2.81191E+06
C:/temp/Job-36.odb,Step-1,Increment      1: Step Time =    1.000,"P-36-1",           261,       52.9333,       180.070,            0.,NA,NA,"",   2.97119E+06,   2.72144E+06,   2.72144E+06
C:/temp/Job-36.odb,Step-1,Increment      1: Step Time =    1.000,"P-36-1",           262,       42.9446,       180.241,            0.,NA,NA,"",   2.85394E+06,   2.70524E+06,   2.70524E+06
C:/temp/Job-36.odb,Step-1,Increment      1: Step Time =    1.000,"P-36-1",           263,       30.8540,       179.878,            0.,NA,NA,"",   2.71707E+06,   2.67116E+06,   2.67116E+06
C:/temp/Job-36.odb,Step-1,Increment      1: Step Time =    1.000,"P-36-1",           264,       21.1658,       178.905,            0.,NA,NA,"",   2.56777E+06,   2.59775E+06,   2.59775E+06
C:/temp/Job-36.odb,Step-1,Increment      1: Step Time =    1.000,"P-36-1",           265,       10.9660,       179.730,            0.,NA,NA,"",   2.51476E+06,   2.66590E+06,   2.66590E+06
C:/temp/Job-36.odb,Step-1,Increment      1: Step Time =    1.000,"P-36-1",           266,       189.828,       189.780,            0.,NA,NA,"",   1.00761E+06,   989.180E+03,   989.180E+03
C:/temp/Job-36.odb,Step-1,Increment      1: Step Time =    1.000,"P-36-1",           267,       179.398,       189.637,            0.,NA,NA,"",   1.00098E+06,   981.226E+03,   981.226E+03
C:/temp/Job-36.odb,Step-1,Increment      1: Step Time =    1.000,"P-36-1",           268,       169.276,       190.459,            0.,NA,NA,"",   967.991E+03,   933.202E+03,   933.202E+03
C:/temp/Job-36.odb,Step-1,Increment      1: Step Time =    1.000,"P-36-1",           269,       159.752,       190.612,            0.,NA,NA,"",   937.133E+03,   882.765E+03,   882.765E+03
C:/temp/Job-36.odb,Step-1,Increment      1: Step Time =    1.000,"P-36-1",           270,       150.068,       190.148,            0.,NA,NA,"",   929.698E+03,   864.099E+03,   864.099E+03
C:/temp/Job-36.odb,Step-1,Increment      1: Step Time =    1.000,"P-36-1",           271,       135.379,       189.909,            0.,NA,NA,"",   833.928E+03,   809.354E+03,   809.354E+03
C:/temp/Job-36.odb,Step-1,Increment      1: Step Time =    1.000,"P-36-1",           272,       125.495,       189.748,            0.,NA,NA,"",   766.502E+03,   816.383E+03,   816.383E+03
C:/temp/Job-36.odb,Step-1,Increment      1: Step Time =    1.000,"P-36-1",           273,       115.470,       189.744,            0.,NA,NA,"",   988.305E+03,   1.04911E+06,   1.04911E+06
C:/temp/Job-36.odb,Step-1,Increment      1: Step Time =    1.000,"P-36-1",           274,       105.256,       189.594,            0.,NA,NA,"",   1.52908E+06,   1.51808E+06,   1.51808E+06
C:/temp/Job-36.odb,Step-1,Increment      1: Step Time =    1.000,"P-36-1",           275,       94.9217,       189.974,            0.,NA,NA,"",   2.08135E+06,   1.96935E+06,   1.96935E+06
C:/temp/Job-36.odb,Step-1,Increment      1: Step Time =    1.000,"P-36-1",           276,       84.8809,       190.317,            0.,NA,NA,"",   2.56127E+06,   2.40305E+06,   2.40305E+06
C:/temp/Job-36.odb,Step-1,Increment      1: Step Time =    1.000,"P-36-1",           277,       75.0858,       190.526,            0.,NA,NA,"",   2.95197E+06,   2.79197E+06,   2.79197E+06
C:/temp/Job-36.odb,Step-1,Increment      1: Step Time =    1.000,"P-36-1",           278,       65.0007,       189.626,            0.,NA,NA,"",   3.24746E+06,   3.10608E+06,   3.10608E+06
C:/temp/Job-36.odb,Step-1,Increment      1: Step Time =    1.000,"P-36-1",           279,       41.2625,       188.963,            0.,NA,NA,"",   3.48136E+06,   3.42670E+06,   3.42670E+06
C:/temp/Job-36.odb,Step-1,Increment      1: Step Time =    1.000,"P-36-1",           280,       30.2830,       189.842,            0.,NA,NA,"",   3.58865E+06,   3.57488E+06,   3.57488E+06
C:/temp/Job-36.odb,Step-1,Increment      1: Step Time =    1.000,"P-36-1",           281,       20.1591,       189.668,            0.,NA,NA,"",   3.58137E+06,   3.59462E+06,   3.59462E+06
C:/temp/Job-36.odb,Step-1,Increment      1: Step Time =    1.000,"P-36-1",           282,       10.0905,       189.996,            0.,NA,NA,"",   3.60248E+06,   3.71027E+06,   3.71027E+06
C:/temp/Job-36.odb,Step-1,Increment      1: Step Time =    1.000,"P-36-1",           283,       94.9931,       166.813,            0.,NA,NA,"",   6.17275E+06,   6.23723E+06,   6.23723E+06
C:/temp/Job-36.odb,Step-1,Increment      1: Step Time =    1.000,"P-36-1",           284,       90.0142,       166.252,            0.,NA,NA,"",   5.24271E+06,   5.29714E+06,   5.29714E+06
C:/temp/Job-36.odb,Step-1,Increment      1: Step Time =    1.000,"P-36-1",           285,       80.2514,       164.023,            0.,NA,NA,"",   3.19105E+06,   3.21229E+06,   3.21229E+06
C:/temp/Job-36.odb,Step-1,Increment      1: Step Time =    1.000,"P-36-1",           286,       75.5221,       162.369,            0.,NA,NA,"",   2.16828E+06,   2.16355E+06,   2.16355E+06
C:/temp/Job-36.odb,Step-1,Increment      1: Step Time =    1.000,"P-36-1",           287,          66.5,       158.024,            0.,NA,NA,"",   826.080E+03,   148.753E+03,   148.753E+03
C:/temp/Job-36.odb,Step-1,Increment      1: Step Time =    1.000,"P-36-1",           288,       62.2576,       155.358,            0.,NA,NA,"",   878.862E+03,  -727.013E+03,  -727.013E+03
C:/temp/Job-36.odb,Step-1,Increment      1: Step Time =    1.000,"P-36-1",           289,       54.4284,       149.114,            0.,NA,NA,"",   1.58802E+06,  -1.58133E+06,  -1.58133E+06
C:/temp/Job-36.odb,Step-1,Increment      1: Step Time =    1.000,"P-36-1",           290,       50.8855,       145.572,            0.,NA,NA,"",   1.83261E+06,  -1.84588E+06,  -1.84588E+06
C:/temp/Job-36.odb,Step-1,Increment      1: Step Time =    1.000,"P-36-1",           291,       44.6420,       137.742,            0.,NA,NA,"",   1.88604E+06,  -1.90706E+06,  -1.90706E+06
C:/temp/Job-36.odb,Step-1,Increment      1: Step Time =    1.000,"P-36-1",           292,       39.6351,       129.070,            0.,NA,NA,"",   1.57402E+06,  -1.60019E+06,  -1.60019E+06
C:/temp/Job-36.odb,Step-1,Increment      1: Step Time =    1.000,"P-36-1",           293,       37.6315,       124.478,            0.,NA,NA,"",   1.37628E+06,  -1.39423E+06,  -1.39423E+06
C:/temp/Job-36.odb,Step-1,Increment      1: Step Time =    1.000,"P-36-1",           294,       34.6798,       114.909,            0.,NA,NA,"",   982.383E+03,  -998.766E+03,  -998.766E+03
C:/temp/Job-36.odb,Step-1,Increment      1: Step Time =    1.000,"P-36-1",           295,       33.7483,       109.986,            0.,NA,NA,"",   843.979E+03,  -860.657E+03,  -860.657E+03
C:/temp/Job-36.odb,Step-1,Increment      1: Step Time =    1.000,"P-36-1",           296,           33.,          100.,            0.,NA,NA,"",   715.298E+03,  -732.613E+03,  -732.613E+03
C:/temp/Job-36.odb,Step-1,Increment      1: Step Time =    1.000,"P-36-1",           297,       33.1873,       94.9931,            0.,NA,NA,"",   749.324E+03,  -766.344E+03,  -766.344E+03
C:/temp/Job-36.odb,Step-1,Increment      1: Step Time =    1.000,"P-36-1",           298,       34.6798,       85.0911,            0.,NA,NA,"",   975.009E+03,  -992.244E+03,  -992.244E+03
C:/temp/Job-36.odb,Step-1,Increment      1: Step Time =    1.000,"P-36-1",           299,       35.9766,       80.2514,            0.,NA,NA,"",   1.14860E+06,  -1.16727E+06,  -1.16727E+06
C:/temp/Job-36.odb,Step-1,Increment      1: Step Time =    1.000,"P-36-1",           300,       39.6351,       70.9298,            0.,NA,NA,"",   1.54752E+06,  -1.57821E+06,  -1.57821E+06
C:/temp/Job-36.odb,Step-1,Increment      1: Step Time =    1.000,"P-36-1",           301,       41.9763,          66.5,            0.,NA,NA,"",   1.74548E+06,  -1.76542E+06,  -1.76542E+06
C:/temp/Job-36.odb,Step-1,Increment      1: Step Time =    1.000,"P-36-1",           302,       47.6173,       58.2262,            0.,NA,NA,"",   1.91254E+06,  -1.93254E+06,  -1.93254E+06
C:/temp/Job-36.odb,Step-1,Increment      1: Step Time =    1.000,"P-36-1",           303,       50.8855,       54.4284,            0.,NA,NA,"",   1.81596E+06,  -1.82898E+06,  -1.82898E+06
C:/temp/Job-36.odb,Step-1,Increment      1: Step Time =    1.000,"P-36-1",           304,       58.2262,       47.6173,            0.,NA,NA,"",   1.22126E+06,  -1.18317E+06,  -1.18317E+06
C:/temp/Job-36.odb,Step-1,Increment      1: Step Time =    1.000,"P-36-1",           305,       62.2576,       44.6420,            0.,NA,NA,"",   893.715E+03,  -706.712E+03,  -706.712E+03
C:/temp/Job-36.odb,Step-1,Increment      1: Step Time =    1.000,"P-36-1",           306,       70.9298,       39.6351,            0.,NA,NA,"",   1.41583E+06,   1.32722E+06,   1.32722E+06
C:/temp/Job-36.odb,Step-1,Increment      1: Step Time =    1.000,"P-36-1",           307,       75.5221,       37.6315,            0.,NA,NA,"",   2.25905E+06,   2.24634E+06,   2.24634E+06
C:/temp/Job-36.odb,Step-1,Increment      1: Step Time =    1.000,"P-36-1",           308,       85.0911,       34.6798,            0.,NA,NA,"",   4.32819E+06,   4.36670E+06,   4.36670E+06
C:/temp/Job-36.odb,Step-1,Increment      1: Step Time =    1.000,"P-36-1",           309,       90.0142,       33.7483,            0.,NA,NA,"",   5.34483E+06,   5.39972E+06,   5.39972E+06
C:/temp/Job-36.odb,Step-1,Increment      1: Step Time =    1.000,"P-36-1",           310,          100.,           33.,            0.,NA,NA,"",   6.95574E+06,   7.03638E+06,   7.03638E+06
C:/temp/Job-36.odb,Step-1,Increment      1: Step Time =    1.000,"P-36-1",           311,       109.986,       33.7483,            0.,NA,NA,"",   7.61214E+06,   7.70645E+06,   7.70645E+06
C:/temp/Job-36.odb,Step-1,Increment      1: Step Time =    1.000,"P-36-1",           312,       114.909,       34.6798,            0.,NA,NA,"",   7.51515E+06,   7.61502E+06,   7.61502E+06
C:/temp/Job-36.odb,Step-1,Increment      1: Step Time =    1.000,"P-36-1",           313,       124.478,       37.6315,            0.,NA,NA,"",   6.58950E+06,   6.69436E+06,   6.69436E+06
C:/temp/Job-36.odb,Step-1,Increment      1: Step Time =    1.000,"P-36-1",           314,       129.070,       39.6351,            0.,NA,NA,"",   5.92912E+06,   6.07196E+06,   6.07196E+06
C:/temp/Job-36.odb,Step-1,Increment      1: Step Time =    1.000,"P-36-1",           315,       137.742,       44.6420,            0.,NA,NA,"",   4.71082E+06,   4.77463E+06,   4.77463E+06
C:/temp/Job-36.odb,Step-1,Increment      1: Step Time =    1.000,"P-36-1",           316,       141.774,       47.6173,            0.,NA,NA,"",   4.06109E+06,   4.11026E+06,   4.11026E+06
C:/temp/Job-36.odb,Step-1,Increment      1: Step Time =    1.000,"P-36-1",           317,       149.114,       54.4284,            0.,NA,NA,"",   2.65576E+06,   2.67554E+06,   2.67554E+06
C:/temp/Job-36.odb,Step-1,Increment      1: Step Time =    1.000,"P-36-1",           318,       152.383,       58.2262,            0.,NA,NA,"",   1.93591E+06,   1.92561E+06,   1.92561E+06
C:/temp/Job-36.odb,Step-1,Increment      1: Step Time =    1.000,"P-36-1",           319,       158.024,          66.5,            0.,NA,NA,"",   910.178E+03,   127.360E+03,   127.360E+03
C:/temp/Job-36.odb,Step-1,Increment      1: Step Time =    1.000,"P-36-1",           320,       160.365,       70.9298,            0.,NA,NA,"",   1.11604E+06,  -949.625E+03,  -949.625E+03
C:/temp/Job-36.odb,Step-1,Increment      1: Step Time =    1.000,"P-36-1",           321,       164.023,       80.2514,            0.,NA,NA,"",   2.54016E+06,  -2.55341E+06,  -2.55341E+06
C:/temp/Job-36.odb,Step-1,Increment      1: Step Time =    1.000,"P-36-1",           322,       165.320,       85.0911,            0.,NA,NA,"",   3.34736E+06,  -3.35072E+06,  -3.35072E+06
C:/temp/Job-36.odb,Step-1,Increment      1: Step Time =    1.000,"P-36-1",           323,       166.813,       94.9931,            0.,NA,NA,"",   4.47309E+06,  -4.51732E+06,  -4.51732E+06
C:/temp/Job-36.odb,Step-1,Increment      1: Step Time =    1.000,"P-36-1",           324,          167.,          100.,            0.,NA,NA,"",   4.63144E+06,  -4.67413E+06,  -4.67413E+06
C:/temp/Job-36.odb,Step-1,Increment      1: Step Time =    1.000,"P-36-1",           325,       166.252,       109.986,            0.,NA,NA,"",   4.06255E+06,  -4.09849E+06,  -4.09849E+06
C:/temp/Job-36.odb,Step-1,Increment      1: Step Time =    1.000,"P-36-1",           326,       165.320,       114.909,            0.,NA,NA,"",   3.41548E+06,  -3.42933E+06,  -3.42933E+06
C:/temp/Job-36.odb,Step-1,Increment      1: Step Time =    1.000,"P-36-1",           327,       162.369,       124.478,            0.,NA,NA,"",   1.75092E+06,  -1.72190E+06,  -1.72190E+06
C:/temp/Job-36.odb,Step-1,Increment      1: Step Time =    1.000,"P-36-1",           328,       160.365,       129.070,            0.,NA,NA,"",   1.02144E+06,  -913.896E+03,  -913.896E+03
C:/temp/Job-36.odb,Step-1,Increment      1: Step Time =    1.000,"P-36-1",           329,       155.358,       137.742,            0.,NA,NA,"",   1.19346E+06,   1.13786E+06,   1.13786E+06
C:/temp/Job-36.odb,Step-1,Increment      1: Step Time =    1.000,"P-36-1",           330,       149.114,       145.572,            0.,NA,NA,"",   2.60991E+06,   2.62863E+06,   2.62863E+06
C:/temp/Job-36.odb,Step-1,Increment      1: Step Time =    1.000,"P-36-1",           331,       145.572,       149.114,            0.,NA,NA,"",   3.32934E+06,   3.36829E+06,   3.36829E+06
C:/temp/Job-36.odb,Step-1,Increment      1: Step Time =    1.000,"P-36-1",           332,       137.742,       155.358,            0.,NA,NA,"",   4.77256E+06,   4.85232E+06,   4.85232E+06
C:/temp/Job-36.odb,Step-1,Increment      1: Step Time =    1.000,"P-36-1",           333,         133.5,       158.024,            0.,NA,NA,"",   5.50877E+06,   5.57875E+06,   5.57875E+06
C:/temp/Job-36.odb,Step-1,Increment      1: Step Time =    1.000,"P-36-1",           334,       124.478,       162.369,            0.,NA,NA,"",   6.68206E+06,   6.80404E+06,   6.80404E+06
C:/temp/Job-36.odb,Step-1,Increment      1: Step Time =    1.000,"P-36-1",           335,       119.749,       164.023,            0.,NA,NA,"",   7.07376E+06,   7.21658E+06,   7.21658E+06
C:/temp/Job-36.odb,Step-1,Increment      1: Step Time =    1.000,"P-36-1",           336,       109.986,       166.252,            0.,NA,NA,"",   7.60182E+06,   7.68264E+06,   7.68264E+06
C:/temp/Job-36.odb,Step-1,Increment      1: Step Time =    1.000,"P-36-1",           337,       105.007,       166.813,            0.,NA,NA,"",   7.42637E+06,   7.50898E+06,   7.50898E+06
C:/temp/Job-36.odb,Step-1,Increment      1: Step Time =    1.000,"P-36-1",           338,          195.,            0.,            0.,NA,NA,"",   984.784E+03,   981.156E+03,   981.156E+03
C:/temp/Job-36.odb,Step-1,Increment      1: Step Time =    1.000,"P-36-1",           339,          185.,            0.,            0.,NA,NA,"",   890.686E+03,   887.897E+03,   887.897E+03
C:/temp/Job-36.odb,Step-1,Increment      1: Step Time =    1.000,"P-36-1",           340,          175.,            0.,            0.,NA,NA,"",   737.432E+03,   733.410E+03,   733.410E+03
C:/temp/Job-36.odb,Step-1,Increment      1: Step Time =    1.000,"P-36-1",           341,          165.,            0.,            0.,NA,NA,"",   504.463E+03,   496.938E+03,   496.938E+03
C:/temp/Job-36.odb,Step-1,Increment      1: Step Time =    1.000,"P-36-1",           342,          155.,            0.,            0.,NA,NA,"",   241.410E+03,   201.201E+03,   201.201E+03
C:/temp/Job-36.odb,Step-1,Increment      1: Step Time =    1.000,"P-36-1",           343,          145.,            0.,            0.,NA,NA,"",   356.098E+03,  -333.146E+03,  -333.146E+03
C:/temp/Job-36.odb,Step-1,Increment      1: Step Time =    1.000,"P-36-1",           344,          135.,            0.,            0.,NA,NA,"",   739.661E+03,  -731.300E+03,  -731.300E+03
C:/temp/Job-36.odb,Step-1,Increment      1: Step Time =    1.000,"P-36-1",           345,          125.,            0.,            0.,NA,NA,"",   1.03857E+06,  -1.02704E+06,  -1.02704E+06
C:/temp/Job-36.odb,Step-1,Increment      1: Step Time =    1.000,"P-36-1",           346,          115.,            0.,            0.,NA,NA,"",   1.03849E+06,  -1.02191E+06,  -1.02191E+06
C:/temp/Job-36.odb,Step-1,Increment      1: Step Time =    1.000,"P-36-1",           347,          105.,            0.,            0.,NA,NA,"",   665.290E+03,  -621.317E+03,  -621.317E+03
C:/temp/Job-36.odb,Step-1,Increment      1: Step Time =    1.000,"P-36-1",           348,           95.,            0.,            0.,NA,NA,"",   584.004E+03,   469.887E+03,   469.887E+03
C:/temp/Job-36.odb,Step-1,Increment      1: Step Time =    1.000,"P-36-1",           349,           85.,            0.,            0.,NA,NA,"",   1.45767E+06,   1.41971E+06,   1.41971E+06
C:/temp/Job-36.odb,Step-1,Increment      1: Step Time =    1.000,"P-36-1",           350,           75.,            0.,            0.,NA,NA,"",   2.47951E+06,   2.45710E+06,   2.45710E+06
C:/temp/Job-36.odb,Step-1,Increment      1: Step Time =    1.000,"P-36-1",           351,           65.,            0.,            0.,NA,NA,"",   3.34593E+06,   3.33398E+06,   3.33398E+06
C:/temp/Job-36.odb,Step-1,Increment      1: Step Time =    1.000,"P-36-1",           352,           55.,            0.,            0.,NA,NA,"",   3.93086E+06,   3.92111E+06,   3.92111E+06
C:/temp/Job-36.odb,Step-1,Increment      1: Step Time =    1.000,"P-36-1",           353,           45.,            0.,            0.,NA,NA,"",   4.20213E+06,   4.19736E+06,   4.19736E+06
C:/temp/Job-36.odb,Step-1,Increment      1: Step Time =    1.000,"P-36-1",           354,           35.,            0.,            0.,NA,NA,"",   4.27734E+06,   4.27425E+06,   4.27425E+06
C:/temp/Job-36.odb,Step-1,Increment      1: Step Time =    1.000,"P-36-1",           355,           25.,            0.,            0.,NA,NA,"",   4.23602E+06,   4.23710E+06,   4.23710E+06
C:/temp/Job-36.odb,Step-1,Increment      1: Step Time =    1.000,"P-36-1",           356,           15.,            0.,            0.,NA,NA,"",   4.18014E+06,   4.19053E+06,   4.19053E+06
C:/temp/Job-36.odb,Step-1,Increment      1: Step Time =    1.000,"P-36-1",           357,            5.,            0.,            0.,NA,NA,"",   4.46375E+06,   4.56305E+06,   4.56305E+06
C:/temp/Job-36.odb,Step-1,Increment      1: Step Time =    1.000,"P-36-1",           358,          200.,          195.,            0.,NA,NA,"",   1.00354E+06,   994.112E+03,   994.112E+03
C:/temp/Job-36.odb,Step-1,Increment      1: Step Time =    1.000,"P-36-1",           359,          200.,          185.,            0.,NA,NA,"",   1.05415E+06,   1.00266E+06,   1.00266E+06
C:/temp/Job-36.odb,Step-1,Increment      1: Step Time =    1.000,"P-36-1",           360,          200.,          175.,            0.,NA,NA,"",   1.08948E+06,   1.01319E+06,   1.01319E+06
C:/temp/Job-36.odb,Step-1,Increment      1: Step Time =    1.000,"P-36-1",           361,          200.,          165.,            0.,NA,NA,"",   1.02463E+06,   1.02693E+06,   1.02693E+06
C:/temp/Job-36.odb,Step-1,Increment      1: Step Time =    1.000,"P-36-1",           362,          200.,          155.,            0.,NA,NA,"",   939.886E+03,   1.06557E+06,   1.06557E+06
C:/temp/Job-36.odb,Step-1,Increment      1: Step Time =    1.000,"P-36-1",           363,          200.,          145.,            0.,NA,NA,"",   1.23531E+06,   1.41378E+06,   1.41378E+06
C:/temp/Job-36.odb,Step-1,Increment      1: Step Time =    1.000,"P-36-1",           364,          200.,          135.,            0.,NA,NA,"",   2.07309E+06,   2.37495E+06,   2.37495E+06
C:/temp/Job-36.odb,Step-1,Increment      1: Step Time =    1.000,"P-36-1",           365,          200.,          125.,            0.,NA,NA,"",   3.15282E+06,   3.52076E+06,   3.52076E+06
C:/temp/Job-36.odb,Step-1,Increment      1: Step Time =    1.000,"P-36-1",           366,          200.,          115.,            0.,NA,NA,"",   4.13479E+06,   4.53173E+06,   4.53173E+06
C:/temp/Job-36.odb,Step-1,Increment      1: Step Time =    1.000,"P-36-1",           367,          200.,          105.,            0.,NA,NA,"",   4.69893E+06,   5.10628E+06,   5.10628E+06
C:/temp/Job-36.odb,Step-1,Increment      1: Step Time =    1.000,"P-36-1",           368,          200.,           95.,            0.,NA,NA,"",   4.69257E+06,   5.09682E+06,   5.09682E+06
C:/temp/Job-36.odb,Step-1,Increment      1: Step Time =    1.000,"P-36-1",           369,          200.,           85.,            0.,NA,NA,"",   4.10941E+06,   4.50508E+06,   4.50508E+06
C:/temp/Job-36.odb,Step-1,Increment      1: Step Time =    1.000,"P-36-1",           370,          200.,           75.,            0.,NA,NA,"",   3.14124E+06,   3.50653E+06,   3.50653E+06
C:/temp/Job-36.odb,Step-1,Increment      1: Step Time =    1.000,"P-36-1",           371,          200.,           65.,            0.,NA,NA,"",   2.05726E+06,   2.35689E+06,   2.35689E+06
C:/temp/Job-36.odb,Step-1,Increment      1: Step Time =    1.000,"P-36-1",           372,          200.,           55.,            0.,NA,NA,"",   1.23149E+06,   1.41085E+06,   1.41085E+06
C:/temp/Job-36.odb,Step-1,Increment      1: Step Time =    1.000,"P-36-1",           373,          200.,           45.,            0.,NA,NA,"",   940.375E+03,   1.06730E+06,   1.06730E+06
C:/temp/Job-36.odb,Step-1,Increment      1: Step Time =    1.000,"P-36-1",           374,          200.,           35.,            0.,NA,NA,"",   1.02502E+06,   1.02380E+06,   1.02380E+06
C:/temp/Job-36.odb,Step-1,Increment      1: Step Time =    1.000,"P-36-1",           375,          200.,           25.,            0.,NA,NA,"",   1.09046E+06,   1.01238E+06,   1.01238E+06
C:/temp/Job-36.odb,Step-1,Increment      1: Step Time =    1.000,"P-36-1",           376,          200.,           15.,            0.,NA,NA,"",   1.05588E+06,   1.00325E+06,   1.00325E+06
C:/temp/Job-36.odb,Step-1,Increment      1: Step Time =    1.000,"P-36-1",           377,          200.,            5.,            0.,NA,NA,"",   1.00341E+06,   993.839E+03,   993.839E+03
C:/temp/Job-36.odb,Step-1,Increment      1: Step Time =    1.000,"P-36-1",           378,            5.,          200.,            0.,NA,NA,"",   4.46114E+06,    4.5622E+06,    4.5622E+06
C:/temp/Job-36.odb,Step-1,Increment      1: Step Time =    1.000,"P-36-1",           379,           15.,          200.,            0.,NA,NA,"",   4.17579E+06,   4.18664E+06,   4.18664E+06
C:/temp/Job-36.odb,Step-1,Increment      1: Step Time =    1.000,"P-36-1",           380,           25.,          200.,            0.,NA,NA,"",   4.22420E+06,   4.22608E+06,   4.22608E+06
C:/temp/Job-36.odb,Step-1,Increment      1: Step Time =    1.000,"P-36-1",           381,           35.,          200.,            0.,NA,NA,"",   4.26579E+06,   4.26249E+06,   4.26249E+06
C:/temp/Job-36.odb,Step-1,Increment      1: Step Time =    1.000,"P-36-1",           382,           45.,          200.,            0.,NA,NA,"",   4.20145E+06,   4.19442E+06,   4.19442E+06
C:/temp/Job-36.odb,Step-1,Increment      1: Step Time =    1.000,"P-36-1",           383,           55.,          200.,            0.,NA,NA,"",   3.89169E+06,   3.88200E+06,   3.88200E+06
C:/temp/Job-36.odb,Step-1,Increment      1: Step Time =    1.000,"P-36-1",           384,           65.,          200.,            0.,NA,NA,"",   3.32576E+06,   3.30976E+06,   3.30976E+06
C:/temp/Job-36.odb,Step-1,Increment      1: Step Time =    1.000,"P-36-1",           385,           75.,          200.,            0.,NA,NA,"",   2.45594E+06,   2.43712E+06,   2.43712E+06
C:/temp/Job-36.odb,Step-1,Increment      1: Step Time =    1.000,"P-36-1",           386,           85.,          200.,            0.,NA,NA,"",   1.39788E+06,   1.36918E+06,   1.36918E+06
C:/temp/Job-36.odb,Step-1,Increment      1: Step Time =    1.000,"P-36-1",           387,           95.,          200.,            0.,NA,NA,"",   532.906E+03,   425.746E+03,   425.746E+03
C:/temp/Job-36.odb,Step-1,Increment      1: Step Time =    1.000,"P-36-1",           388,          105.,          200.,            0.,NA,NA,"",   642.097E+03,  -601.958E+03,  -601.958E+03
C:/temp/Job-36.odb,Step-1,Increment      1: Step Time =    1.000,"P-36-1",           389,          115.,          200.,            0.,NA,NA,"",   1.00110E+06,  -983.618E+03,  -983.618E+03
C:/temp/Job-36.odb,Step-1,Increment      1: Step Time =    1.000,"P-36-1",           390,          125.,          200.,            0.,NA,NA,"",   1.00377E+06,  -992.891E+03,  -992.891E+03
C:/temp/Job-36.odb,Step-1,Increment      1: Step Time =    1.000,"P-36-1",           391,          135.,          200.,            0.,NA,NA,"",   717.061E+03,  -703.755E+03,  -703.755E+03
C:/temp/Job-36.odb,Step-1,Increment      1: Step Time =    1.000,"P-36-1",           392,          145.,          200.,            0.,NA,NA,"",   321.057E+03,  -298.173E+03,  -298.173E+03
C:/temp/Job-36.odb,Step-1,Increment      1: Step Time =    1.000,"P-36-1",           393,          155.,          200.,            0.,NA,NA,"",   240.012E+03,   206.280E+03,   206.280E+03
C:/temp/Job-36.odb,Step-1,Increment      1: Step Time =    1.000,"P-36-1",           394,          165.,          200.,            0.,NA,NA,"",   513.266E+03,   505.058E+03,   505.058E+03
C:/temp/Job-36.odb,Step-1,Increment      1: Step Time =    1.000,"P-36-1",           395,          175.,          200.,            0.,NA,NA,"",   736.332E+03,   732.956E+03,   732.956E+03
C:/temp/Job-36.odb,Step-1,Increment      1: Step Time =    1.000,"P-36-1",           396,          185.,          200.,            0.,NA,NA,"",   891.246E+03,   888.985E+03,   888.985E+03
C:/temp/Job-36.odb,Step-1,Increment      1: Step Time =    1.000,"P-36-1",           397,          195.,          200.,            0.,NA,NA,"",   984.841E+03,    981.34E+03,    981.34E+03
C:/temp/Job-36.odb,Step-1,Increment      1: Step Time =    1.000,"P-36-1",           398,            0.,            5.,            0.,NA,NA,"",   4.05817E+06,   4.34315E+06,   4.34315E+06
C:/temp/Job-36.odb,Step-1,Increment      1: Step Time =    1.000,"P-36-1",           399,            0.,           15.,            0.,NA,NA,"",   2.72483E+06,   3.01928E+06,   3.01928E+06
C:/temp/Job-36.odb,Step-1,Increment      1: Step Time =    1.000,"P-36-1",           400,            0.,           25.,            0.,NA,NA,"",   1.90423E+06,   2.12763E+06,   2.12763E+06
C:/temp/Job-36.odb,Step-1,Increment      1: Step Time =    1.000,"P-36-1",           401,            0.,           35.,            0.,NA,NA,"",   1.18466E+06,   1.32727E+06,   1.32727E+06
C:/temp/Job-36.odb,Step-1,Increment      1: Step Time =    1.000,"P-36-1",           402,            0.,           45.,            0.,NA,NA,"",   585.522E+03,   656.344E+03,   656.344E+03
C:/temp/Job-36.odb,Step-1,Increment      1: Step Time =    1.000,"P-36-1",           403,            0.,           55.,            0.,NA,NA,"",   147.908E+03,   152.978E+03,   152.978E+03
C:/temp/Job-36.odb,Step-1,Increment      1: Step Time =    1.000,"P-36-1",           404,            0.,           65.,            0.,NA,NA,"",   227.085E+03,  -242.029E+03,  -242.029E+03
C:/temp/Job-36.odb,Step-1,Increment      1: Step Time =    1.000,"P-36-1",           405,            0.,           75.,            0.,NA,NA,"",   380.571E+03,  -419.217E+03,  -419.217E+03
C:/temp/Job-36.odb,Step-1,Increment      1: Step Time =    1.000,"P-36-1",           406,            0.,           85.,            0.,NA,NA,"",   408.776E+03,  -459.383E+03,  -459.383E+03
C:/temp/Job-36.odb,Step-1,Increment      1: Step Time =    1.000,"P-36-1",           407,            0.,           95.,            0.,NA,NA,"",   378.659E+03,  -433.456E+03,  -433.456E+03
C:/temp/Job-36.odb,Step-1,Increment      1: Step Time =    1.000,"P-36-1",           408,            0.,          105.,            0.,NA,NA,"",   378.150E+03,  -432.903E+03,  -432.903E+03
C:/temp/Job-36.odb,Step-1,Increment      1: Step Time =    1.000,"P-36-1",           409,            0.,          115.,            0.,NA,NA,"",   409.092E+03,  -459.561E+03,  -459.561E+03
C:/temp/Job-36.odb,Step-1,Increment      1: Step Time =    1.000,"P-36-1",           410,            0.,          125.,            0.,NA,NA,"",   384.161E+03,  -422.882E+03,  -422.882E+03
C:/temp/Job-36.odb,Step-1,Increment      1: Step Time =    1.000,"P-36-1",           411,            0.,          135.,            0.,NA,NA,"",   224.901E+03,  -240.852E+03,  -240.852E+03
C:/temp/Job-36.odb,Step-1,Increment      1: Step Time =    1.000,"P-36-1",           412,            0.,          145.,            0.,NA,NA,"",   147.526E+03,   153.633E+03,   153.633E+03
C:/temp/Job-36.odb,Step-1,Increment      1: Step Time =    1.000,"P-36-1",           413,            0.,          155.,            0.,NA,NA,"",   594.145E+03,   666.117E+03,   666.117E+03
C:/temp/Job-36.odb,Step-1,Increment      1: Step Time =    1.000,"P-36-1",           414,            0.,          165.,            0.,NA,NA,"",   1.18651E+06,   1.33016E+06,   1.33016E+06
C:/temp/Job-36.odb,Step-1,Increment      1: Step Time =    1.000,"P-36-1",           415,            0.,          175.,            0.,NA,NA,"",   1.90130E+06,   2.12610E+06,   2.12610E+06
C:/temp/Job-36.odb,Step-1,Increment      1: Step Time =    1.000,"P-36-1",           416,            0.,          185.,            0.,NA,NA,"",   2.73399E+06,   3.03299E+06,   3.03299E+06
C:/temp/Job-36.odb,Step-1,Increment      1: Step Time =    1.000,"P-36-1",           417,            0.,          195.,            0.,NA,NA,"",   4.05612E+06,   4.34487E+06,   4.34487E+06
C:/temp/Job-36.odb,Step-1,Increment      1: Step Time =    1.000,"P-36-1",           418,       125.227,       194.904,            0.,NA,NA,"",   632.527E+03,  -359.855E+03,  -359.855E+03
C:/temp/Job-36.odb,Step-1,Increment      1: Step Time =    1.000,"P-36-1",           419,       195.394,       125.052,            0.,NA,NA,"",   2.84566E+06,   3.16699E+06,   3.16699E+06
C:/temp/Job-36.odb,Step-1,Increment      1: Step Time =    1.000,"P-36-1",           420,       195.318,       134.887,            0.,NA,NA,"",   2.03386E+06,   2.29672E+06,   2.29672E+06
C:/temp/Job-36.odb,Step-1,Increment      1: Step Time =    1.000,"P-36-1",           421,       135.178,       194.955,            0.,NA,NA,"",   603.411E+03,  -140.103E+03,  -140.103E+03
C:/temp/Job-36.odb,Step-1,Increment      1: Step Time =    1.000,"P-36-1",           422,       194.906,       85.0061,            0.,NA,NA,"",   3.49709E+06,   3.84226E+06,   3.84226E+06
C:/temp/Job-36.odb,Step-1,Increment      1: Step Time =    1.000,"P-36-1",           423,       144.674,       4.70403,            0.,NA,NA,"",   478.055E+03,   90.3643E+03,   90.3643E+03
C:/temp/Job-36.odb,Step-1,Increment      1: Step Time =    1.000,"P-36-1",           424,       154.527,       4.81770,            0.,NA,NA,"",   475.345E+03,   424.421E+03,   424.421E+03
C:/temp/Job-36.odb,Step-1,Increment      1: Step Time =    1.000,"P-36-1",           425,       164.276,       4.77497,            0.,NA,NA,"",   659.404E+03,   637.025E+03,   637.025E+03
C:/temp/Job-36.odb,Step-1,Increment      1: Step Time =    1.000,"P-36-1",           426,       194.996,       105.132,            0.,NA,NA,"",   3.91789E+06,   4.28271E+06,   4.28271E+06
C:/temp/Job-36.odb,Step-1,Increment      1: Step Time =    1.000,"P-36-1",           427,       134.840,       4.81099,            0.,NA,NA,"",   575.142E+03,  -196.989E+03,  -196.989E+03
C:/temp/Job-36.odb,Step-1,Increment      1: Step Time =    1.000,"P-36-1",           428,       84.3998,       5.39929,            0.,NA,NA,"",   1.92376E+06,   1.82884E+06,   1.82884E+06
C:/temp/Job-36.odb,Step-1,Increment      1: Step Time =    1.000,"P-36-1",           429,       94.7541,       5.37055,            0.,NA,NA,"",   1.16229E+06,   1.04178E+06,   1.04178E+06
C:/temp/Job-36.odb,Step-1,Increment      1: Step Time =    1.000,"P-36-1",           430,       74.3443,       4.94411,            0.,NA,NA,"",   2.66803E+06,   2.59936E+06,   2.59936E+06
C:/temp/Job-36.odb,Step-1,Increment      1: Step Time =    1.000,"P-36-1",           431,       64.5725,       4.58346,            0.,NA,NA,"",   3.30776E+06,   3.26602E+06,   3.26602E+06
C:/temp/Job-36.odb,Step-1,Increment      1: Step Time =    1.000,"P-36-1",           432,       4.38407,       105.017,            0.,NA,NA,"",   365.952E+03,  -419.739E+03,  -419.739E+03
C:/temp/Job-36.odb,Step-1,Increment      1: Step Time =    1.000,"P-36-1",           433,       4.44698,       95.2345,            0.,NA,NA,"",   365.912E+03,  -419.663E+03,  -419.663E+03
C:/temp/Job-36.odb,Step-1,Increment      1: Step Time =    1.000,"P-36-1",           434,       4.54900,       114.935,            0.,NA,NA,"",   408.177E+03,  -460.812E+03,  -460.812E+03
C:/temp/Job-36.odb,Step-1,Increment      1: Step Time =    1.000,"P-36-1",           435,       4.47864,       124.924,            0.,NA,NA,"",   402.875E+03,  -438.495E+03,  -438.495E+03
C:/temp/Job-36.odb,Step-1,Increment      1: Step Time =    1.000,"P-36-1",           436,       4.73217,       134.858,            0.,NA,NA,"",   263.091E+03,  -267.523E+03,  -267.523E+03
C:/temp/Job-36.odb,Step-1,Increment      1: Step Time =    1.000,"P-36-1",           437,       5.06912,       144.757,            0.,NA,NA,"",   143.737E+03,   137.769E+03,   137.769E+03
C:/temp/Job-36.odb,Step-1,Increment      1: Step Time =    1.000,"P-36-1",           438,       54.9577,       195.248,            0.,NA,NA,"",   3.73912E+06,   3.70847E+06,   3.70847E+06
C:/temp/Job-36.odb,Step-1,Increment      1: Step Time =    1.000,"P-36-1",           439,       115.203,       194.836,            0.,NA,NA,"",   716.359E+03,  -265.662E+03,  -265.662E+03
C:/temp/Job-36.odb,Step-1,Increment      1: Step Time =    1.000,"P-36-1",           440,       5.22020,       154.788,            0.,NA,NA,"",   563.169E+03,   635.743E+03,   635.743E+03
C:/temp/Job-36.odb,Step-1,Increment      1: Step Time =    1.000,"P-36-1",           441,       5.33076,       10.1482,            0.,NA,NA,"",   3.39207E+06,   3.63058E+06,   3.63058E+06
C:/temp/Job-36.odb,Step-1,Increment      1: Step Time =    1.000,"P-36-1",           442,       5.59113,       15.2972,            0.,NA,NA,"",   2.82392E+06,   3.06609E+06,   3.06609E+06
C:/temp/Job-36.odb,Step-1,Increment      1: Step Time =    1.000,"P-36-1",           443,       5.41663,       25.4669,            0.,NA,NA,"",   1.91938E+06,   2.11723E+06,   2.11723E+06
C:/temp/Job-36.odb,Step-1,Increment      1: Step Time =    1.000,"P-36-1",           444,       4.71267,       35.3961,            0.,NA,NA,"",   1.17287E+06,   1.30969E+06,   1.30969E+06
C:/temp/Job-36.odb,Step-1,Increment      1: Step Time =    1.000,"P-36-1",           445,       4.74519,       45.2906,            0.,NA,NA,"",   556.763E+03,   628.421E+03,   628.421E+03
C:/temp/Job-36.odb,Step-1,Increment      1: Step Time =    1.000,"P-36-1",           446,       4.70055,       85.2315,            0.,NA,NA,"",   407.729E+03,  -460.688E+03,  -460.688E+03
C:/temp/Job-36.odb,Step-1,Increment      1: Step Time =    1.000,"P-36-1",           447,       15.2588,       4.98352,            0.,NA,NA,"",   4.01025E+06,   4.02484E+06,   4.02484E+06
C:/temp/Job-36.odb,Step-1,Increment      1: Step Time =    1.000,"P-36-1",           448,       25.2610,       4.83742,            0.,NA,NA,"",   4.03546E+06,   4.03432E+06,   4.03432E+06
C:/temp/Job-36.odb,Step-1,Increment      1: Step Time =    1.000,"P-36-1",           449,       35.2223,       4.72329,            0.,NA,NA,"",   4.05592E+06,   4.04608E+06,   4.04608E+06
C:/temp/Job-36.odb,Step-1,Increment      1: Step Time =    1.000,"P-36-1",           450,       45.1379,       4.74050,            0.,NA,NA,"",   3.97777E+06,   3.96180E+06,   3.96180E+06
C:/temp/Job-36.odb,Step-1,Increment      1: Step Time =    1.000,"P-36-1",           451,       54.8973,       4.52015,            0.,NA,NA,"",   3.76365E+06,   3.73230E+06,   3.73230E+06
C:/temp/Job-36.odb,Step-1,Increment      1: Step Time =    1.000,"P-36-1",           452,       105.057,       5.12009,            0.,NA,NA,"",   818.327E+03,   144.026E+03,   144.026E+03
C:/temp/Job-36.odb,Step-1,Increment      1: Step Time =    1.000,"P-36-1",           453,       115.060,       4.79824,            0.,NA,NA,"",   684.897E+03,  -342.730E+03,  -342.730E+03
C:/temp/Job-36.odb,Step-1,Increment      1: Step Time =    1.000,"P-36-1",           454,       124.957,       4.67135,            0.,NA,NA,"",   611.727E+03,  -424.843E+03,  -424.843E+03
C:/temp/Job-36.odb,Step-1,Increment      1: Step Time =    1.000,"P-36-1",           455,       174.339,       5.18361,            0.,NA,NA,"",   823.096E+03,   810.459E+03,   810.459E+03
C:/temp/Job-36.odb,Step-1,Increment      1: Step Time =    1.000,"P-36-1",           456,       184.594,       5.52905,            0.,NA,NA,"",   929.521E+03,    921.71E+03,    921.71E+03
C:/temp/Job-36.odb,Step-1,Increment      1: Step Time =    1.000,"P-36-1",           457,       195.048,       45.1312,            0.,NA,NA,"",   1.07743E+06,   1.18952E+06,   1.18952E+06
C:/temp/Job-36.odb,Step-1,Increment      1: Step Time =    1.000,"P-36-1",           458,       194.937,       55.1250,            0.,NA,NA,"",   1.37956E+06,   1.54775E+06,   1.54775E+06
C:/temp/Job-36.odb,Step-1,Increment      1: Step Time =    1.000,"P-36-1",           459,       194.978,       65.0580,            0.,NA,NA,"",   2.02656E+06,   2.28122E+06,   2.28122E+06
C:/temp/Job-36.odb,Step-1,Increment      1: Step Time =    1.000,"P-36-1",           460,       195.041,       75.0289,            0.,NA,NA,"",   2.82143E+06,   3.13233E+06,   3.13233E+06
C:/temp/Job-36.odb,Step-1,Increment      1: Step Time =    1.000,"P-36-1",           461,       194.891,       5.15236,            0.,NA,NA,"",   993.384E+03,   983.694E+03,   983.694E+03
C:/temp/Job-36.odb,Step-1,Increment      1: Step Time =    1.000,"P-36-1",           462,       194.955,       15.2325,            0.,NA,NA,"",   1.05205E+06,   1.00961E+06,   1.00961E+06
C:/temp/Job-36.odb,Step-1,Increment      1: Step Time =    1.000,"P-36-1",           463,       195.101,       25.2807,            0.,NA,NA,"",   1.08894E+06,   1.03613E+06,   1.03613E+06
C:/temp/Job-36.odb,Step-1,Increment      1: Step Time =    1.000,"P-36-1",           464,       195.130,       35.1944,            0.,NA,NA,"",   1.06288E+06,   1.07536E+06,   1.07536E+06
C:/temp/Job-36.odb,Step-1,Increment      1: Step Time =    1.000,"P-36-1",           465,       195.238,       115.108,            0.,NA,NA,"",   3.55641E+06,   3.90726E+06,   3.90726E+06
C:/temp/Job-36.odb,Step-1,Increment      1: Step Time =    1.000,"P-36-1",           466,       195.396,       144.678,            0.,NA,NA,"",   1.36692E+06,   1.54173E+06,   1.54173E+06
C:/temp/Job-36.odb,Step-1,Increment      1: Step Time =    1.000,"P-36-1",           467,       195.074,       154.594,            0.,NA,NA,"",   1.08729E+06,   1.19969E+06,   1.19969E+06
C:/temp/Job-36.odb,Step-1,Increment      1: Step Time =    1.000,"P-36-1",           468,       145.071,       195.011,            0.,NA,NA,"",   473.836E+03,   123.278E+03,   123.278E+03
C:/temp/Job-36.odb,Step-1,Increment      1: Step Time =    1.000,"P-36-1",           469,       194.647,       164.600,            0.,NA,NA,"",   1.08255E+06,   1.09442E+06,   1.09442E+06
C:/temp/Job-36.odb,Step-1,Increment      1: Step Time =    1.000,"P-36-1",           470,       154.910,       195.206,            0.,NA,NA,"",   477.940E+03,   432.468E+03,   432.468E+03
C:/temp/Job-36.odb,Step-1,Increment      1: Step Time =    1.000,"P-36-1",           471,       194.991,       174.879,            0.,NA,NA,"",   1.08832E+06,   1.03630E+06,   1.03630E+06
C:/temp/Job-36.odb,Step-1,Increment      1: Step Time =    1.000,"P-36-1",           472,       164.762,       195.280,            0.,NA,NA,"",   660.000E+03,   638.677E+03,   638.677E+03
C:/temp/Job-36.odb,Step-1,Increment      1: Step Time =    1.000,"P-36-1",           473,       194.959,       184.919,            0.,NA,NA,"",   1.04961E+06,   1.00822E+06,   1.00822E+06
C:/temp/Job-36.odb,Step-1,Increment      1: Step Time =    1.000,"P-36-1",           474,       174.694,       195.010,            0.,NA,NA,"",   816.965E+03,   806.307E+03,   806.307E+03
C:/temp/Job-36.odb,Step-1,Increment      1: Step Time =    1.000,"P-36-1",           475,       194.938,       194.922,            0.,NA,NA,"",   993.636E+03,   984.194E+03,   984.194E+03
C:/temp/Job-36.odb,Step-1,Increment      1: Step Time =    1.000,"P-36-1",           476,       184.798,       194.805,            0.,NA,NA,"",   925.948E+03,   918.922E+03,   918.922E+03
C:/temp/Job-36.odb,Step-1,Increment      1: Step Time =    1.000,"P-36-1",           477,       105.144,       194.779,            0.,NA,NA,"",   820.521E+03,   169.176E+03,   169.176E+03
C:/temp/Job-36.odb,Step-1,Increment      1: Step Time =    1.000,"P-36-1",           478,       95.0018,       194.948,            0.,NA,NA,"",   1.08197E+06,   966.363E+03,   966.363E+03
C:/temp/Job-36.odb,Step-1,Increment      1: Step Time =    1.000,"P-36-1",           479,       84.9668,       195.133,            0.,NA,NA,"",   1.81078E+06,   1.73035E+06,   1.73035E+06
C:/temp/Job-36.odb,Step-1,Increment      1: Step Time =    1.000,"P-36-1",           480,       75.0001,       195.188,            0.,NA,NA,"",   2.62042E+06,   2.55418E+06,   2.55418E+06
C:/temp/Job-36.odb,Step-1,Increment      1: Step Time =    1.000,"P-36-1",           481,       64.9483,       194.901,            0.,NA,NA,"",   3.28308E+06,   3.23090E+06,   3.23090E+06
C:/temp/Job-36.odb,Step-1,Increment      1: Step Time =    1.000,"P-36-1",           482,       45.3191,       195.402,            0.,NA,NA,"",   3.97437E+06,   3.95569E+06,   3.95569E+06
C:/temp/Job-36.odb,Step-1,Increment      1: Step Time =    1.000,"P-36-1",           483,       5.04825,       194.972,            0.,NA,NA,"",   4.09357E+06,   4.25913E+06,   4.25913E+06
C:/temp/Job-36.odb,Step-1,Increment      1: Step Time =    1.000,"P-36-1",           484,       15.0936,       194.926,            0.,NA,NA,"",   4.00168E+06,   4.01739E+06,   4.01739E+06
C:/temp/Job-36.odb,Step-1,Increment      1: Step Time =    1.000,"P-36-1",           485,       25.1250,       194.847,            0.,NA,NA,"",   4.01392E+06,   4.01317E+06,   4.01317E+06
C:/temp/Job-36.odb,Step-1,Increment      1: Step Time =    1.000,"P-36-1",           486,       35.3414,       194.786,            0.,NA,NA,"",   4.01594E+06,   4.00382E+06,   4.00382E+06
C:/temp/Job-36.odb,Step-1,Increment      1: Step Time =    1.000,"P-36-1",           487,       5.19742,       184.925,            0.,NA,NA,"",   2.83500E+06,   3.08519E+06,   3.08519E+06
C:/temp/Job-36.odb,Step-1,Increment      1: Step Time =    1.000,"P-36-1",           488,       5.20701,       174.822,            0.,NA,NA,"",   1.93722E+06,   2.13910E+06,   2.13910E+06
C:/temp/Job-36.odb,Step-1,Increment      1: Step Time =    1.000,"P-36-1",           489,       5.19801,       164.813,            0.,NA,NA,"",   1.18789E+06,   1.32470E+06,   1.32470E+06
C:/temp/Job-36.odb,Step-1,Increment      1: Step Time =    1.000,"P-36-1",           490,       4.86032,       75.1562,            0.,NA,NA,"",   400.504E+03,  -436.155E+03,  -436.155E+03
C:/temp/Job-36.odb,Step-1,Increment      1: Step Time =    1.000,"P-36-1",           491,       5.02182,       65.0961,            0.,NA,NA,"",   266.440E+03,  -269.610E+03,  -269.610E+03
C:/temp/Job-36.odb,Step-1,Increment      1: Step Time =    1.000,"P-36-1",           492,       5.01817,       55.1127,            0.,NA,NA,"",   144.647E+03,   141.148E+03,   141.148E+03
C:/temp/Job-36.odb,Step-1,Increment      1: Step Time =    1.000,"P-36-1",           493,       194.889,       95.0470,            0.,NA,NA,"",   3.88852E+06,   4.24929E+06,   4.24929E+06
C:/temp/Job-36.odb,Step-1,Increment      1: Step Time =    1.000,"P-36-1",           494,       189.787,       5.32581,            0.,NA,NA,"",   966.353E+03,   957.615E+03,   957.615E+03
C:/temp/Job-36.odb,Step-1,Increment      1: Step Time =    1.000,"P-36-1",           495,       179.389,       5.63315,            0.,NA,NA,"",   884.382E+03,   875.164E+03,   875.164E+03
C:/temp/Job-36.odb,Step-1,Increment      1: Step Time =    1.000,"P-36-1",           496,       169.250,       4.84596,            0.,NA,NA,"",   745.591E+03,   728.781E+03,   728.781E+03
C:/temp/Job-36.odb,Step-1,Increment      1: Step Time =    1.000,"P-36-1",           497,       159.389,       4.83223,            0.,NA,NA,"",   565.436E+03,   533.442E+03,   533.442E+03
C:/temp/Job-36.odb,Step-1,Increment      1: Step Time =    1.000,"P-36-1",           498,       149.603,       4.75663,            0.,NA,NA,"",   443.189E+03,   266.300E+03,   266.300E+03
C:/temp/Job-36.odb,Step-1,Increment      1: Step Time =    1.000,"P-36-1",           499,       139.763,       4.74899,            0.,NA,NA,"",   529.286E+03,  -55.0921E+03,  -55.0921E+03
C:/temp/Job-36.odb,Step-1,Increment      1: Step Time =    1.000,"P-36-1",           500,       129.919,       4.74445,            0.,NA,NA,"",   608.039E+03,  -322.940E+03,  -322.940E+03
C:/temp/Job-36.odb,Step-1,Increment      1: Step Time =    1.000,"P-36-1",           501,       119.990,       4.67568,            0.,NA,NA,"",   622.172E+03,  -448.304E+03,  -448.304E+03
C:/temp/Job-36.odb,Step-1,Increment      1: Step Time =    1.000,"P-36-1",           502,       110.096,       4.96168,            0.,NA,NA,"",   755.763E+03,  -135.233E+03,  -135.233E+03
C:/temp/Job-36.odb,Step-1,Increment      1: Step Time =    1.000,"P-36-1",           503,       99.9327,       5.25447,            0.,NA,NA,"",   925.098E+03,   579.824E+03,   579.824E+03
C:/temp/Job-36.odb,Step-1,Increment      1: Step Time =    1.000,"P-36-1",           504,       89.5528,       5.44479,            0.,NA,NA,"",   1.52824E+06,   1.42692E+06,   1.42692E+06
C:/temp/Job-36.odb,Step-1,Increment      1: Step Time =    1.000,"P-36-1",           505,       79.3390,       5.18893,            0.,NA,NA,"",   2.30584E+06,   2.22286E+06,   2.22286E+06
C:/temp/Job-36.odb,Step-1,Increment      1: Step Time =    1.000,"P-36-1",           506,       69.4416,       4.72744,            0.,NA,NA,"",   3.00572E+06,   2.95089E+06,   2.95089E+06
C:/temp/Job-36.odb,Step-1,Increment      1: Step Time =    1.000,"P-36-1",           507,       59.7565,       4.51553,            0.,NA,NA,"",   3.56440E+06,   3.52890E+06,   3.52890E+06
C:/temp/Job-36.odb,Step-1,Increment      1: Step Time =    1.000,"P-36-1",           508,       50.0296,       4.63931,            0.,NA,NA,"",   3.89446E+06,   3.87234E+06,   3.87234E+06
C:/temp/Job-36.odb,Step-1,Increment      1: Step Time =    1.000,"P-36-1",           509,       40.2000,       4.71318,            0.,NA,NA,"",   4.03251E+06,   4.01906E+06,   4.01906E+06
C:/temp/Job-36.odb,Step-1,Increment      1: Step Time =    1.000,"P-36-1",           510,       30.2464,       4.74975,            0.,NA,NA,"",   4.05359E+06,   4.04842E+06,   4.04842E+06
C:/temp/Job-36.odb,Step-1,Increment      1: Step Time =    1.000,"P-36-1",           511,       20.2775,       4.90853,            0.,NA,NA,"",   4.02095E+06,   4.02315E+06,   4.02315E+06
C:/temp/Job-36.odb,Step-1,Increment      1: Step Time =    1.000,"P-36-1",           512,       10.2200,       5.05355,            0.,NA,NA,"",   4.06496E+06,   4.09678E+06,   4.09678E+06
C:/temp/Job-36.odb,Step-1,Increment      1: Step Time =    1.000,"P-36-1",           513,       194.932,       189.902,            0.,NA,NA,"",   1.01853E+06,   994.292E+03,   994.292E+03
C:/temp/Job-36.odb,Step-1,Increment      1: Step Time =    1.000,"P-36-1",           514,       195.000,       179.926,            0.,NA,NA,"",   1.07467E+06,   1.02113E+06,   1.02113E+06
C:/temp/Job-36.odb,Step-1,Increment      1: Step Time =    1.000,"P-36-1",           515,       194.857,       169.772,            0.,NA,NA,"",   1.08922E+06,   1.05910E+06,   1.05910E+06
C:/temp/Job-36.odb,Step-1,Increment      1: Step Time =    1.000,"P-36-1",           516,       194.551,       159.504,            0.,NA,NA,"",   1.07763E+06,   1.14130E+06,   1.14130E+06
C:/temp/Job-36.odb,Step-1,Increment      1: Step Time =    1.000,"P-36-1",           517,       195.366,       149.584,            0.,NA,NA,"",   1.16605E+06,   1.30998E+06,   1.30998E+06
C:/temp/Job-36.odb,Step-1,Increment      1: Step Time =    1.000,"P-36-1",           518,       195.335,       139.781,            0.,NA,NA,"",   1.67036E+06,   1.89098E+06,   1.89098E+06
C:/temp/Job-36.odb,Step-1,Increment      1: Step Time =    1.000,"P-36-1",           519,       195.385,       130.009,            0.,NA,NA,"",   2.43074E+06,   2.72726E+06,   2.72726E+06
C:/temp/Job-36.odb,Step-1,Increment      1: Step Time =    1.000,"P-36-1",           520,       195.348,       120.086,            0.,NA,NA,"",   3.23864E+06,   3.57706E+06,   3.57706E+06
C:/temp/Job-36.odb,Step-1,Increment      1: Step Time =    1.000,"P-36-1",           521,       195.113,       110.132,            0.,NA,NA,"",   3.78374E+06,   4.14276E+06,   4.14276E+06
C:/temp/Job-36.odb,Step-1,Increment      1: Step Time =    1.000,"P-36-1",           522,       194.928,       100.097,            0.,NA,NA,"",   3.95308E+06,   4.31790E+06,   4.31790E+06
C:/temp/Job-36.odb,Step-1,Increment      1: Step Time =    1.000,"P-36-1",           523,       194.878,       90.0048,            0.,NA,NA,"",   3.73136E+06,   4.08666E+06,   4.08666E+06
C:/temp/Job-36.odb,Step-1,Increment      1: Step Time =    1.000,"P-36-1",           524,       194.991,       80.0276,            0.,NA,NA,"",   3.19143E+06,   3.52071E+06,   3.52071E+06
C:/temp/Job-36.odb,Step-1,Increment      1: Step Time =    1.000,"P-36-1",           525,       195.031,       70.0304,            0.,NA,NA,"",   2.42132E+06,   2.70891E+06,   2.70891E+06
C:/temp/Job-36.odb,Step-1,Increment      1: Step Time =    1.000,"P-36-1",           526,       194.936,       60.0935,            0.,NA,NA,"",   1.66905E+06,   1.88209E+06,   1.88209E+06
C:/temp/Job-36.odb,Step-1,Increment      1: Step Time =    1.000,"P-36-1",           527,       194.990,       50.1300,            0.,NA,NA,"",   1.17958E+06,   1.31775E+06,   1.31775E+06
C:/temp/Job-36.odb,Step-1,Increment      1: Step Time =    1.000,"P-36-1",           528,       195.116,       40.1462,            0.,NA,NA,"",   1.05119E+06,   1.11761E+06,   1.11761E+06
C:/temp/Job-36.odb,Step-1,Increment      1: Step Time =    1.000,"P-36-1",           529,       195.147,       30.2490,            0.,NA,NA,"",   1.08154E+06,   1.05123E+06,   1.05123E+06
C:/temp/Job-36.odb,Step-1,Increment      1: Step Time =    1.000,"P-36-1",           530,       195.049,       20.2689,            0.,NA,NA,"",   1.07790E+06,   1.02313E+06,   1.02313E+06
C:/temp/Job-36.odb,Step-1,Increment      1: Step Time =    1.000,"P-36-1",           531,       194.894,       10.2132,            0.,NA,NA,"",   1.01909E+06,   994.298E+03,   994.298E+03
C:/temp/Job-36.odb,Step-1,Increment      1: Step Time =    1.000,"P-36-1",           532,       10.0558,       194.967,            0.,NA,NA,"",   4.06451E+06,   4.09819E+06,   4.09819E+06
C:/temp/Job-36.odb,Step-1,Increment      1: Step Time =    1.000,"P-36-1",           533,       20.1050,       194.859,            0.,NA,NA,"",   4.00735E+06,   4.00995E+06,   4.00995E+06
C:/temp/Job-36.odb,Step-1,Increment      1: Step Time =    1.000,"P-36-1",           534,       30.1772,       194.838,            0.,NA,NA,"",   4.02065E+06,   4.01580E+06,   4.01580E+06
C:/temp/Job-36.odb,Step-1,Increment      1: Step Time =    1.000,"P-36-1",           535,       40.4165,       194.820,            0.,NA,NA,"",   4.00158E+06,   3.98537E+06,   3.98537E+06
C:/temp/Job-36.odb,Step-1,Increment      1: Step Time =    1.000,"P-36-1",           536,       50.1031,       195.573,            0.,NA,NA,"",   3.89243E+06,   3.87012E+06,   3.87012E+06
C:/temp/Job-36.odb,Step-1,Increment      1: Step Time =    1.000,"P-36-1",           537,       59.9091,       194.951,            0.,NA,NA,"",   3.53315E+06,   3.49162E+06,   3.49162E+06
C:/temp/Job-36.odb,Step-1,Increment      1: Step Time =    1.000,"P-36-1",           538,       69.9740,       195.046,            0.,NA,NA,"",   2.98165E+06,   2.92114E+06,   2.92114E+06
C:/temp/Job-36.odb,Step-1,Increment      1: Step Time =    1.000,"P-36-1",           539,       79.9791,       195.192,            0.,NA,NA,"",   2.22026E+06,   2.14756E+06,   2.14756E+06
C:/temp/Job-36.odb,Step-1,Increment      1: Step Time =    1.000,"P-36-1",           540,       89.9722,       195.050,            0.,NA,NA,"",   1.41462E+06,   1.32432E+06,   1.32432E+06
C:/temp/Job-36.odb,Step-1,Increment      1: Step Time =    1.000,"P-36-1",           541,       100.066,       194.853,            0.,NA,NA,"",   889.622E+03,   555.167E+03,   555.167E+03
C:/temp/Job-36.odb,Step-1,Increment      1: Step Time =    1.000,"P-36-1",           542,       110.192,       194.770,            0.,NA,NA,"",   778.603E+03,  -75.3659E+03,  -75.3659E+03
C:/temp/Job-36.odb,Step-1,Increment      1: Step Time =    1.000,"P-36-1",           543,       120.242,       194.886,            0.,NA,NA,"",   655.433E+03,  -371.079E+03,  -371.079E+03
C:/temp/Job-36.odb,Step-1,Increment      1: Step Time =    1.000,"P-36-1",           544,       130.186,       194.943,            0.,NA,NA,"",   630.753E+03,  -264.085E+03,  -264.085E+03
C:/temp/Job-36.odb,Step-1,Increment      1: Step Time =    1.000,"P-36-1",           545,       140.141,       194.973,            0.,NA,NA,"",   541.230E+03,   -8.7055E+03,   -8.7055E+03
C:/temp/Job-36.odb,Step-1,Increment      1: Step Time =    1.000,"P-36-1",           546,       149.986,       195.114,            0.,NA,NA,"",   440.542E+03,   284.188E+03,   284.188E+03
C:/temp/Job-36.odb,Step-1,Increment      1: Step Time =    1.000,"P-36-1",           547,       159.848,       195.293,            0.,NA,NA,"",   566.225E+03,   537.078E+03,   537.078E+03
C:/temp/Job-36.odb,Step-1,Increment      1: Step Time =    1.000,"P-36-1",           548,       169.700,       195.195,            0.,NA,NA,"",   744.660E+03,   729.604E+03,   729.604E+03
C:/temp/Job-36.odb,Step-1,Increment      1: Step Time =    1.000,"P-36-1",           549,       179.742,       194.846,            0.,NA,NA,"",   876.990E+03,   868.757E+03,   868.757E+03
C:/temp/Job-36.odb,Step-1,Increment      1: Step Time =    1.000,"P-36-1",           550,       189.880,       194.855,            0.,NA,NA,"",   965.902E+03,   957.737E+03,   957.737E+03
C:/temp/Job-36.odb,Step-1,Increment      1: Step Time =    1.000,"P-36-1",           551,       5.79890,       20.4660,            0.,NA,NA,"",   2.35821E+06,   2.57984E+06,   2.57984E+06
C:/temp/Job-36.odb,Step-1,Increment      1: Step Time =    1.000,"P-36-1",           552,       4.97683,       30.4631,            0.,NA,NA,"",   1.52276E+06,   1.69157E+06,   1.69157E+06
C:/temp/Job-36.odb,Step-1,Increment      1: Step Time =    1.000,"P-36-1",           553,       4.63373,       40.3300,            0.,NA,NA,"",   853.174E+03,   956.973E+03,   956.973E+03
C:/temp/Job-36.odb,Step-1,Increment      1: Step Time =    1.000,"P-36-1",           554,       4.90754,       50.1951,            0.,NA,NA,"",   302.802E+03,   340.558E+03,   340.558E+03
C:/temp/Job-36.odb,Step-1,Increment      1: Step Time =    1.000,"P-36-1",           555,       5.04872,       60.1014,            0.,NA,NA,"",   157.124E+03,  -67.1854E+03,  -67.1854E+03
C:/temp/Job-36.odb,Step-1,Increment      1: Step Time =    1.000,"P-36-1",           556,       4.94934,       70.1111,            0.,NA,NA,"",   351.660E+03,  -373.380E+03,  -373.380E+03
C:/temp/Job-36.odb,Step-1,Increment      1: Step Time =    1.000,"P-36-1",           557,       4.77770,       80.2271,            0.,NA,NA,"",   415.941E+03,  -462.090E+03,  -462.090E+03
C:/temp/Job-36.odb,Step-1,Increment      1: Step Time =    1.000,"P-36-1",           558,       4.54500,       90.2067,            0.,NA,NA,"",   386.880E+03,  -442.101E+03,  -442.101E+03
C:/temp/Job-36.odb,Step-1,Increment      1: Step Time =    1.000,"P-36-1",           559,       4.43001,       100.099,            0.,NA,NA,"",   357.569E+03,  -409.970E+03,  -409.970E+03
C:/temp/Job-36.odb,Step-1,Increment      1: Step Time =    1.000,"P-36-1",           560,       4.42116,       109.998,            0.,NA,NA,"",   386.952E+03,  -442.102E+03,  -442.102E+03
C:/temp/Job-36.odb,Step-1,Increment      1: Step Time =    1.000,"P-36-1",           561,       4.52026,       119.898,            0.,NA,NA,"",   417.515E+03,  -463.494E+03,  -463.494E+03
C:/temp/Job-36.odb,Step-1,Increment      1: Step Time =    1.000,"P-36-1",           562,       4.55039,       129.933,            0.,NA,NA,"",   351.531E+03,  -373.634E+03,  -373.634E+03
C:/temp/Job-36.odb,Step-1,Increment      1: Step Time =    1.000,"P-36-1",           563,       4.92511,       139.787,            0.,NA,NA,"",   155.709E+03,  -66.7813E+03,  -66.7813E+03
C:/temp/Job-36.odb,Step-1,Increment      1: Step Time =    1.000,"P-36-1",           564,       5.17165,       149.755,            0.,NA,NA,"",   303.910E+03,   341.377E+03,   341.377E+03
C:/temp/Job-36.odb,Step-1,Increment      1: Step Time =    1.000,"P-36-1",           565,       5.24155,       159.809,            0.,NA,NA,"",   862.211E+03,   966.573E+03,   966.573E+03
C:/temp/Job-36.odb,Step-1,Increment      1: Step Time =    1.000,"P-36-1",           566,       5.16062,       169.811,            0.,NA,NA,"",   1.54249E+06,   1.71242E+06,   1.71242E+06
C:/temp/Job-36.odb,Step-1,Increment      1: Step Time =    1.000,"P-36-1",           567,       5.33840,       179.862,            0.,NA,NA,"",   2.37397E+06,   2.60279E+06,   2.60279E+06
C:/temp/Job-36.odb,Step-1,Increment      1: Step Time =    1.000,"P-36-1",           568,       5.08808,       189.972,            0.,NA,NA,"",   3.39691E+06,   3.64188E+06,   3.64188E+06
C:/temp/Job-36.odb,Step-1,Increment      1: Step Time =    1.000,"P-36-1",           569,       99.8303,       171.135,            0.,NA,NA,"",   6.14157E+06,   6.25179E+06,   6.25179E+06
C:/temp/Job-36.odb,Step-1,Increment      1: Step Time =    1.000,"P-36-1",           570,       58.0694,       161.119,            0.,NA,NA,"",   1.31965E+06,   98.3973E+03,   98.3973E+03
C:/temp/Job-36.odb,Step-1,Increment      1: Step Time =    1.000,"P-36-1",           571,       43.8349,       144.543,            0.,NA,NA,"",   1.58649E+06,  -1.60492E+06,  -1.60492E+06
C:/temp/Job-36.odb,Step-1,Increment      1: Step Time =    1.000,"P-36-1",           572,       30.1477,       84.0277,            0.,NA,NA,"",   902.030E+03,  -929.264E+03,  -929.264E+03
C:/temp/Job-36.odb,Step-1,Increment      1: Step Time =    1.000,"P-36-1",           573,       35.1000,       130.977,            0.,NA,NA,"",   1.36148E+06,  -1.39174E+06,  -1.39174E+06
C:/temp/Job-36.odb,Step-1,Increment      1: Step Time =    1.000,"P-36-1",           574,       28.6137,       94.6188,            0.,NA,NA,"",   697.284E+03,  -729.150E+03,  -729.150E+03
C:/temp/Job-36.odb,Step-1,Increment      1: Step Time =    1.000,"P-36-1",           575,       41.2169,       58.9555,            0.,NA,NA,"",   1.57283E+06,  -1.59668E+06,  -1.59668E+06
C:/temp/Job-36.odb,Step-1,Increment      1: Step Time =    1.000,"P-36-1",           576,       51.1948,       47.1104,            0.,NA,NA,"",   1.33143E+06,  -1.26199E+06,  -1.26199E+06
C:/temp/Job-36.odb,Step-1,Increment      1: Step Time =    1.000,"P-36-1",           577,       29.0106,       110.988,            0.,NA,NA,"",   780.172E+03,  -810.787E+03,  -810.787E+03
C:/temp/Job-36.odb,Step-1,Increment      1: Step Time =    1.000,"P-36-1",           578,       32.1082,       121.169,            0.,NA,NA,"",   1.08136E+06,  -1.10476E+06,  -1.10476E+06
C:/temp/Job-36.odb,Step-1,Increment      1: Step Time =    1.000,"P-36-1",           579,       47.0667,       148.462,            0.,NA,NA,"",   1.49765E+06,  -1.49723E+06,  -1.49723E+06
C:/temp/Job-36.odb,Step-1,Increment      1: Step Time =    1.000,"P-36-1",           580,       50.4651,       152.317,            0.,NA,NA,"",   1.34009E+06,  -1.28955E+06,  -1.28955E+06
C:/temp/Job-36.odb,Step-1,Increment      1: Step Time =    1.000,"P-36-1",           581,       37.9217,       63.0986,            0.,NA,NA,"",   1.47044E+06,  -1.49875E+06,  -1.49875E+06
C:/temp/Job-36.odb,Step-1,Increment      1: Step Time =    1.000,"P-36-1",           582,       44.1881,       54.7929,            0.,NA,NA,"",   1.54984E+06,  -1.56585E+06,  -1.56585E+06
C:/temp/Job-36.odb,Step-1,Increment      1: Step Time =    1.000,"P-36-1",           583,       28.5836,       100.008,            0.,NA,NA,"",   671.222E+03,  -702.994E+03,  -702.994E+03
C:/temp/Job-36.odb,Step-1,Increment      1: Step Time =    1.000,"P-36-1",           584,       47.3930,       50.6932,            0.,NA,NA,"",   1.45333E+06,  -1.44300E+06,  -1.44300E+06
C:/temp/Job-36.odb,Step-1,Increment      1: Step Time =    1.000,"P-36-1",           585,       30.4416,       116.176,            0.,NA,NA,"",   913.378E+03,  -940.483E+03,  -940.483E+03
C:/temp/Job-36.odb,Step-1,Increment      1: Step Time =    1.000,"P-36-1",           586,       64.1787,       162.934,            0.,NA,NA,"",   1.36238E+06,   835.229E+03,   835.229E+03
C:/temp/Job-36.odb,Step-1,Increment      1: Step Time =    1.000,"P-36-1",           587,       28.6206,       105.441,            0.,NA,NA,"",   699.300E+03,  -731.221E+03,  -731.221E+03
C:/temp/Job-36.odb,Step-1,Increment      1: Step Time =    1.000,"P-36-1",           588,       89.3433,       170.819,            0.,NA,NA,"",   4.81628E+06,   4.86297E+06,   4.86297E+06
C:/temp/Job-36.odb,Step-1,Increment      1: Step Time =    1.000,"P-36-1",           589,       36.6917,       136.368,            0.,NA,NA,"",   1.36806E+06,  -1.40179E+06,  -1.40179E+06
C:/temp/Job-36.odb,Step-1,Increment      1: Step Time =    1.000,"P-36-1",           590,       28.9503,       89.1980,            0.,NA,NA,"",   774.445E+03,  -805.365E+03,  -805.365E+03
C:/temp/Job-36.odb,Step-1,Increment      1: Step Time =    1.000,"P-36-1",           591,       33.9098,       67.4779,            0.,NA,NA,"",   1.24168E+06,  -1.27359E+06,  -1.27359E+06
C:/temp/Job-36.odb,Step-1,Increment      1: Step Time =    1.000,"P-36-1",           592,       132.590,       33.4429,            0.,NA,NA,"",   4.81752E+06,   4.98584E+06,   4.98584E+06
C:/temp/Job-36.odb,Step-1,Increment      1: Step Time =    1.000,"P-36-1",           593,       84.8104,       30.7081,            0.,NA,NA,"",   4.16630E+06,   4.18978E+06,   4.18978E+06
C:/temp/Job-36.odb,Step-1,Increment      1: Step Time =    1.000,"P-36-1",           594,       54.0528,       156.307,            0.,NA,NA,"",   1.19215E+06,  -1.00325E+06,  -1.00325E+06
C:/temp/Job-36.odb,Step-1,Increment      1: Step Time =    1.000,"P-36-1",           595,       69.8981,       34.4654,            0.,NA,NA,"",   1.94121E+06,   1.76967E+06,   1.76967E+06
C:/temp/Job-36.odb,Step-1,Increment      1: Step Time =    1.000,"P-36-1",           596,       84.0223,       170.071,            0.,NA,NA,"",   4.03572E+06,   4.04106E+06,   4.04106E+06
C:/temp/Job-36.odb,Step-1,Increment      1: Step Time =    1.000,"P-36-1",           597,       100.101,       28.8764,            0.,NA,NA,"",   6.16007E+06,   6.27573E+06,   6.27573E+06
C:/temp/Job-36.odb,Step-1,Increment      1: Step Time =    1.000,"P-36-1",           598,       40.6938,       140.551,            0.,NA,NA,"",   1.56490E+06,  -1.59380E+06,  -1.59380E+06
C:/temp/Job-36.odb,Step-1,Increment      1: Step Time =    1.000,"P-36-1",           599,       164.490,       131.738,            0.,NA,NA,"",   1.40144E+06,  -474.461E+03,  -474.461E+03
C:/temp/Job-36.odb,Step-1,Increment      1: Step Time =    1.000,"P-36-1",           600,       152.428,       148.526,            0.,NA,NA,"",   2.59526E+06,   2.58250E+06,   2.58250E+06
C:/temp/Job-36.odb,Step-1,Increment      1: Step Time =    1.000,"P-36-1",           601,       69.2465,       164.729,            0.,NA,NA,"",   1.74726E+06,   1.58975E+06,   1.58975E+06
C:/temp/Job-36.odb,Step-1,Increment      1: Step Time =    1.000,"P-36-1",           602,       170.398,       110.441,            0.,NA,NA,"",   3.25985E+06,  -3.28094E+06,  -3.28094E+06
C:/temp/Job-36.odb,Step-1,Increment      1: Step Time =    1.000,"P-36-1",           603,       152.211,       51.3865,            0.,NA,NA,"",   2.62969E+06,   2.62242E+06,   2.62242E+06
C:/temp/Job-36.odb,Step-1,Increment      1: Step Time =    1.000,"P-36-1",           604,       140.921,       160.147,            0.,NA,NA,"",   4.19090E+06,   4.29235E+06,   4.29235E+06
C:/temp/Job-36.odb,Step-1,Increment      1: Step Time =    1.000,"P-36-1",           605,       155.868,       144.593,            0.,NA,NA,"",   2.04380E+06,   1.97296E+06,   1.97296E+06
C:/temp/Job-36.odb,Step-1,Increment      1: Step Time =    1.000,"P-36-1",           606,       115.708,       30.1180,            0.,NA,NA,"",   6.51351E+06,   6.66774E+06,   6.66774E+06
C:/temp/Job-36.odb,Step-1,Increment      1: Step Time =    1.000,"P-36-1",           607,       120.973,       170.237,            0.,NA,NA,"",   5.69229E+06,   5.89073E+06,   5.89073E+06
C:/temp/Job-36.odb,Step-1,Increment      1: Step Time =    1.000,"P-36-1",           608,       59.3263,       40.1128,            0.,NA,NA,"",   1.14825E+06,  -249.519E+03,  -249.519E+03
C:/temp/Job-36.odb,Step-1,Increment      1: Step Time =    1.000,"P-36-1",           609,       144.865,       44.4509,            0.,NA,NA,"",   3.75985E+06,   3.81509E+06,   3.81509E+06
C:/temp/Job-36.odb,Step-1,Increment      1: Step Time =    1.000,"P-36-1",           610,       140.951,       41.2293,            0.,NA,NA,"",   4.30709E+06,   4.38593E+06,   4.38593E+06
C:/temp/Job-36.odb,Step-1,Increment      1: Step Time =    1.000,"P-36-1",           611,       164.959,       69.0544,            0.,NA,NA,"",   1.42414E+06,  -520.659E+03,  -520.659E+03
C:/temp/Job-36.odb,Step-1,Increment      1: Step Time =    1.000,"P-36-1",           612,       170.928,       105.319,            0.,NA,NA,"",   3.52977E+06,  -3.57695E+06,  -3.57695E+06
C:/temp/Job-36.odb,Step-1,Increment      1: Step Time =    1.000,"P-36-1",           613,       94.6405,       171.117,            0.,NA,NA,"",   5.55195E+06,   5.63285E+06,   5.63285E+06
C:/temp/Job-36.odb,Step-1,Increment      1: Step Time =    1.000,"P-36-1",           614,       170.203,       84.8167,            0.,NA,NA,"",   2.73896E+06,  -2.69795E+06,  -2.69795E+06
C:/temp/Job-36.odb,Step-1,Increment      1: Step Time =    1.000,"P-36-1",           615,       130.992,       164.634,            0.,NA,NA,"",   5.50924E+06,   5.63225E+06,   5.63225E+06
C:/temp/Job-36.odb,Step-1,Increment      1: Step Time =    1.000,"P-36-1",           616,       169.576,       115.530,            0.,NA,NA,"",   2.82882E+06,  -2.79944E+06,  -2.79944E+06
C:/temp/Job-36.odb,Step-1,Increment      1: Step Time =    1.000,"P-36-1",           617,       170.178,       79.0017,            0.,NA,NA,"",   2.16517E+06,  -1.95564E+06,  -1.95564E+06
C:/temp/Job-36.odb,Step-1,Increment      1: Step Time =    1.000,"P-36-1",           618,       135.510,       162.193,            0.,NA,NA,"",   4.98391E+06,   5.09196E+06,   5.09196E+06
C:/temp/Job-36.odb,Step-1,Increment      1: Step Time =    1.000,"P-36-1",           619,       161.880,       136.242,            0.,NA,NA,"",   1.27910E+06,   712.100E+03,   712.100E+03
C:/temp/Job-36.odb,Step-1,Increment      1: Step Time =    1.000,"P-36-1",           620,       155.707,       55.1830,            0.,NA,NA,"",   2.07678E+06,   2.01008E+06,   2.01008E+06
C:/temp/Job-36.odb,Step-1,Increment      1: Step Time =    1.000,"P-36-1",           621,       115.107,       170.174,            0.,NA,NA,"",   6.44523E+06,   6.60226E+06,   6.60226E+06
C:/temp/Job-36.odb,Step-1,Increment      1: Step Time =    1.000,"P-36-1",           622,       171.101,       100.161,            0.,NA,NA,"",   3.62911E+06,  -3.68208E+06,  -3.68208E+06
C:/temp/Job-36.odb,Step-1,Increment      1: Step Time =    1.000,"P-36-1",           623,       163.451,       63.3102,            0.,NA,NA,"",   1.52279E+06,   886.179E+03,   886.179E+03
C:/temp/Job-36.odb,Step-1,Increment      1: Step Time =    1.000,"P-36-1",           624,       170.610,       89.9578,            0.,NA,NA,"",   3.22304E+06,  -3.24174E+06,  -3.24174E+06
C:/temp/Job-36.odb,Step-1,Increment      1: Step Time =    1.000,"P-36-1",           625,       109.991,       170.518,            0.,NA,NA,"",   6.67045E+06,   6.80251E+06,   6.80251E+06
C:/temp/Job-36.odb,Step-1,Increment      1: Step Time =    1.000,"P-36-1",           626,       170.967,       95.0329,            0.,NA,NA,"",   3.52459E+06,  -3.57324E+06,  -3.57324E+06
C:/temp/Job-36.odb,Step-1,Increment      1: Step Time =    1.000,"P-36-1",           627,       94.9204,       29.1429,            0.,NA,NA,"",   5.63651E+06,   5.72507E+06,   5.72507E+06
C:/temp/Job-36.odb,Step-1,Increment      1: Step Time =    1.000,"P-36-1",           628,       110.524,       29.3655,            0.,NA,NA,"",   6.60741E+06,   6.75466E+06,   6.75466E+06
C:/temp/Job-36.odb,Step-1,Increment      1: Step Time =    1.000,"P-36-1",           629,       145.058,       156.075,            0.,NA,NA,"",   3.71999E+06,   3.78758E+06,   3.78758E+06
C:/temp/Job-36.odb,Step-1,Increment      1: Step Time =    1.000,"P-36-1",           630,       159.263,       59.0669,            0.,NA,NA,"",   1.63825E+06,   1.45783E+06,   1.45783E+06
C:/temp/Job-36.odb,Step-1,Increment      1: Step Time =    1.000,"P-36-1",           631,       105.308,       28.9538,            0.,NA,NA,"",   6.48956E+06,   6.62367E+06,   6.62367E+06
C:/temp/Job-36.odb,Step-1,Increment      1: Step Time =    1.000,"P-36-1",           632,       55.1981,       43.6673,            0.,NA,NA,"",   1.18495E+06,  -1.00677E+06,  -1.00677E+06
C:/temp/Job-36.odb,Step-1,Increment      1: Step Time =    1.000,"P-36-1",           633,       148.636,       47.7720,            0.,NA,NA,"",   3.20144E+06,   3.23073E+06,   3.23073E+06
C:/temp/Job-36.odb,Step-1,Increment      1: Step Time =    1.000,"P-36-1",           634,       64.0720,       35.6710,            0.,NA,NA,"",   1.61082E+06,   1.10978E+06,   1.10978E+06
C:/temp/Job-36.odb,Step-1,Increment      1: Step Time =    1.000,"P-36-1",           635,       89.8101,       29.7643,            0.,NA,NA,"",   4.95368E+06,   5.01142E+06,   5.01142E+06
C:/temp/Job-36.odb,Step-1,Increment      1: Step Time =    1.000,"P-36-1",           636,       136.936,       37.7585,            0.,NA,NA,"",   4.73123E+06,   4.85376E+06,   4.85376E+06
C:/temp/Job-36.odb,Step-1,Increment      1: Step Time =    1.000,"P-36-1",           637,       148.824,       152.331,            0.,NA,NA,"",   3.17408E+06,   3.20200E+06,   3.20200E+06
C:/temp/Job-36.odb,Step-1,Increment      1: Step Time =    1.000,"P-36-1",           638,       79.9053,       31.8919,            0.,NA,NA,"",   3.33639E+06,   3.31986E+06,   3.31986E+06
C:/temp/Job-36.odb,Step-1,Increment      1: Step Time =    1.000,"P-36-1",           639,       159.041,       140.528,            0.,NA,NA,"",   1.55833E+06,   1.39638E+06,   1.39638E+06
C:/temp/Job-36.odb,Step-1,Increment      1: Step Time =    1.000,"P-36-1",           640,       104.938,       170.907,            0.,NA,NA,"",   6.52556E+06,   6.65326E+06,   6.65326E+06
C:/temp/Job-36.odb,Step-1,Increment      1: Step Time =    1.000,"P-36-1",           641,       67.9947,       169.103,            0.,NA,NA,"",   2.49231E+06,   2.18900E+06,   2.18900E+06
C:/temp/Job-36.odb,Step-1,Increment      1: Step Time =    1.000,"P-36-1",           642,       133.218,       168.724,            0.,NA,NA,"",   4.27599E+06,   4.44295E+06,   4.44295E+06
C:/temp/Job-36.odb,Step-1,Increment      1: Step Time =    1.000,"P-36-1",           643,       168.749,       67.8282,            0.,NA,NA,"",   1.91244E+06,   419.882E+03,   419.882E+03
C:/temp/Job-36.odb,Step-1,Increment      1: Step Time =    1.000,"P-36-1",           644,       28.2259,       68.1001,            0.,NA,NA,"",   876.382E+03,  -901.766E+03,  -901.766E+03
C:/temp/Job-36.odb,Step-1,Increment      1: Step Time =    1.000,"P-36-1",           645,       30.2522,       132.013,            0.,NA,NA,"",   999.416E+03,  -1.02823E+06,  -1.02823E+06
C:/temp/Job-36.odb,Step-1,Increment      1: Step Time =    1.000,"P-36-1",           646,       70.0544,       29.1416,            0.,NA,NA,"",   2.77868E+06,   2.49335E+06,   2.49335E+06
C:/temp/Job-36.odb,Step-1,Increment      1: Step Time =    1.000,"P-36-1",           647,       46.1631,       155.281,            0.,NA,NA,"",   1.05082E+06,  -837.801E+03,  -837.801E+03
C:/temp/Job-36.odb,Step-1,Increment      1: Step Time =    1.000,"P-36-1",           648,       155.426,       48.1442,            0.,NA,NA,"",   2.62250E+06,   2.54214E+06,   2.54214E+06
C:/temp/Job-36.odb,Step-1,Increment      1: Step Time =    1.000,"P-36-1",           649,       155.877,       151.576,            0.,NA,NA,"",   2.61483E+06,   2.52506E+06,   2.52506E+06
C:/temp/Job-36.odb,Step-1,Increment      1: Step Time =    1.000,"P-36-1",           650,       48.0509,       43.1110,            0.,NA,NA,"",   1.13055E+06,  -434.108E+03,  -434.108E+03
C:/temp/Job-36.odb,Step-1,Increment      1: Step Time =    1.000,"P-36-1",           651,       119.981,       9.25793,            0.,NA,NA,"",   630.091E+03,   685.335E+03,   685.335E+03
C:/temp/Job-36.odb,Step-1,Increment      1: Step Time =    1.000,"P-36-1",           652,       110.320,       9.90764,            0.,NA,NA,"",   1.13375E+06,   1.15446E+06,   1.15446E+06
C:/temp/Job-36.odb,Step-1,Increment      1: Step Time =    1.000,"P-36-1",           653,       99.9515,       10.3442,            0.,NA,NA,"",   1.84992E+06,   1.78620E+06,   1.78620E+06
C:/temp/Job-36.odb,Step-1,Increment      1: Step Time =    1.000,"P-36-1",           654,       89.1268,       10.7751,            0.,NA,NA,"",   2.51084E+06,   2.35709E+06,   2.35709E+06
C:/temp/Job-36.odb,Step-1,Increment      1: Step Time =    1.000,"P-36-1",           655,       190.521,       139.586,            0.,NA,NA,"",   1.86385E+06,   1.96990E+06,   1.96990E+06
C:/temp/Job-36.odb,Step-1,Increment      1: Step Time =    1.000,"P-36-1",           656,       190.774,       129.956,            0.,NA,NA,"",   2.23775E+06,   2.39518E+06,   2.39518E+06
C:/temp/Job-36.odb,Step-1,Increment      1: Step Time =    1.000,"P-36-1",           657,       190.226,       110.383,            0.,NA,NA,"",   2.53627E+06,   2.78468E+06,   2.78468E+06
C:/temp/Job-36.odb,Step-1,Increment      1: Step Time =    1.000,"P-36-1",           658,       189.757,       89.9906,            0.,NA,NA,"",   2.41941E+06,   2.65557E+06,   2.65557E+06
C:/temp/Job-36.odb,Step-1,Increment      1: Step Time =    1.000,"P-36-1",           659,       190.086,       70.0829,            0.,NA,NA,"",   2.22412E+06,   2.35655E+06,   2.35655E+06
C:/temp/Job-36.odb,Step-1,Increment      1: Step Time =    1.000,"P-36-1",           660,       189.785,       60.1876,            0.,NA,NA,"",   1.88800E+06,   1.97318E+06,   1.97318E+06
C:/temp/Job-36.odb,Step-1,Increment      1: Step Time =    1.000,"P-36-1",           661,       70.1283,       190.145,            0.,NA,NA,"",   3.11561E+06,   2.96135E+06,   2.96135E+06
C:/temp/Job-36.odb,Step-1,Increment      1: Step Time =    1.000,"P-36-1",           662,       79.9268,       190.431,            0.,NA,NA,"",   2.76824E+06,   2.60571E+06,   2.60571E+06
C:/temp/Job-36.odb,Step-1,Increment      1: Step Time =    1.000,"P-36-1",           663,       89.8775,       190.164,            0.,NA,NA,"",   2.33184E+06,   2.18900E+06,   2.18900E+06
C:/temp/Job-36.odb,Step-1,Increment      1: Step Time =    1.000,"P-36-1",           664,       100.058,       189.793,            0.,NA,NA,"",   1.80784E+06,   1.74568E+06,   1.74568E+06
C:/temp/Job-36.odb,Step-1,Increment      1: Step Time =    1.000,"P-36-1",           665,       110.449,       189.492,            0.,NA,NA,"",   1.25964E+06,   1.28761E+06,   1.28761E+06
C:/temp/Job-36.odb,Step-1,Increment      1: Step Time =    1.000,"P-36-1",           666,       120.538,       189.849,            0.,NA,NA,"",   800.869E+03,   871.377E+03,   871.377E+03
C:/temp/Job-36.odb,Step-1,Increment      1: Step Time =    1.000,"P-36-1",           667,       10.1525,       60.2288,            0.,NA,NA,"",   232.971E+03,  -151.343E+03,  -151.343E+03
C:/temp/Job-36.odb,Step-1,Increment      1: Step Time =    1.000,"P-36-1",           668,       9.86718,       70.3009,            0.,NA,NA,"",   416.208E+03,  -428.323E+03,  -428.323E+03
C:/temp/Job-36.odb,Step-1,Increment      1: Step Time =    1.000,"P-36-1",           669,       9.55560,       80.5321,            0.,NA,NA,"",   443.620E+03,  -492.081E+03,  -492.081E+03
C:/temp/Job-36.odb,Step-1,Increment      1: Step Time =    1.000,"P-36-1",           670,       8.99229,       90.5010,            0.,NA,NA,"",   379.930E+03,  -436.093E+03,  -436.093E+03
C:/temp/Job-36.odb,Step-1,Increment      1: Step Time =    1.000,"P-36-1",           671,       9.02252,       100.203,            0.,NA,NA,"",   342.681E+03,  -378.840E+03,  -378.840E+03
C:/temp/Job-36.odb,Step-1,Increment      1: Step Time =    1.000,"P-36-1",           672,       139.593,       9.56721,            0.,NA,NA,"",   832.161E+03,   786.711E+03,   786.711E+03
C:/temp/Job-36.odb,Step-1,Increment      1: Step Time =    1.000,"P-36-1",           673,       129.713,       9.52539,            0.,NA,NA,"",   678.104E+03,   678.110E+03,   678.110E+03
C:/temp/Job-36.odb,Step-1,Increment      1: Step Time =    1.000,"P-36-1",           674,       78.4465,       10.2797,            0.,NA,NA,"",   2.89721E+06,   2.71589E+06,   2.71589E+06
C:/temp/Job-36.odb,Step-1,Increment      1: Step Time =    1.000,"P-36-1",           675,       68.6901,       9.48868,            0.,NA,NA,"",   3.14807E+06,   3.01148E+06,   3.01148E+06
C:/temp/Job-36.odb,Step-1,Increment      1: Step Time =    1.000,"P-36-1",           676,       59.4572,       9.13582,            0.,NA,NA,"",   3.39038E+06,   3.29212E+06,   3.29212E+06
C:/temp/Job-36.odb,Step-1,Increment      1: Step Time =    1.000,"P-36-1",           677,       190.759,       120.236,            0.,NA,NA,"",   2.50690E+06,   2.72351E+06,   2.72351E+06
C:/temp/Job-36.odb,Step-1,Increment      1: Step Time =    1.000,"P-36-1",           678,       189.900,       100.235,            0.,NA,NA,"",   2.43697E+06,   2.70089E+06,   2.70089E+06
C:/temp/Job-36.odb,Step-1,Increment      1: Step Time =    1.000,"P-36-1",           679,       190.013,       79.9718,            0.,NA,NA,"",   2.41973E+06,   2.60195E+06,   2.60195E+06
C:/temp/Job-36.odb,Step-1,Increment      1: Step Time =    1.000,"P-36-1",           680,       59.5869,       189.664,            0.,NA,NA,"",   3.35864E+06,   3.24055E+06,   3.24055E+06
C:/temp/Job-36.odb,Step-1,Increment      1: Step Time =    1.000,"P-36-1",           681,       130.408,       189.905,            0.,NA,NA,"",   795.804E+03,   809.758E+03,   809.758E+03
C:/temp/Job-36.odb,Step-1,Increment      1: Step Time =    1.000,"P-36-1",           682,       140.318,       189.882,            0.,NA,NA,"",   881.969E+03,   830.242E+03,   830.242E+03
C:/temp/Job-36.odb,Step-1,Increment      1: Step Time =    1.000,"P-36-1",           683,       8.73685,       109.896,            0.,NA,NA,"",   381.379E+03,  -438.077E+03,  -438.077E+03
C:/temp/Job-36.odb,Step-1,Increment      1: Step Time =    1.000,"P-36-1",           684,       9.00384,       119.817,            0.,NA,NA,"",   441.119E+03,  -488.855E+03,  -488.855E+03
C:/temp/Job-36.odb,Step-1,Increment      1: Step Time =    1.000,"P-36-1",           685,       9.00547,       129.706,            0.,NA,NA,"",   413.671E+03,  -425.730E+03,  -425.730E+03
C:/temp/Job-36.odb,Step-1,Increment      1: Step Time =    1.000,"P-36-1",           686,       9.94633,       139.366,            0.,NA,NA,"",   236.391E+03,  -155.599E+03,  -155.599E+03
C:/temp/Job-36.odb,Step-1,Increment      1: Step Time =    1.000,"P-36-1",           687,       78.9459,       168.448,            0.,NA,NA,"",   3.22582E+06,   3.19096E+06,   3.19096E+06
C:/temp/Job-36.odb,Step-1,Increment      1: Step Time =    1.000,"P-36-1",           688,       120.913,       31.1775,            0.,NA,NA,"",   6.22324E+06,   6.37159E+06,   6.37159E+06
C:/temp/Job-36.odb,Step-1,Increment      1: Step Time =    1.000,"P-36-1",           689,       168.665,       120.828,            0.,NA,NA,"",   2.28159E+06,  -2.17218E+06,  -2.17218E+06
C:/temp/Job-36.odb,Step-1,Increment      1: Step Time =    1.000,"P-36-1",           690,       162.426,       55.2682,            0.,NA,NA,"",   2.22208E+06,   1.91084E+06,   1.91084E+06
C:/temp/Job-36.odb,Step-1,Increment      1: Step Time =    1.000,"P-36-1",           691,       52.0432,       163.544,            0.,NA,NA,"",   1.61995E+06,   790.399E+03,   790.399E+03
C:/temp/Job-36.odb,Step-1,Increment      1: Step Time =    1.000,"P-36-1",           692,       55.9308,       36.5520,            0.,NA,NA,"",   1.62404E+06,   794.939E+03,   794.939E+03
C:/temp/Job-36.odb,Step-1,Increment      1: Step Time =    1.000,"P-36-1",           693,       34.6884,       59.1369,            0.,NA,NA,"",   1.00270E+06,  -1.02956E+06,  -1.02956E+06
C:/temp/Job-36.odb,Step-1,Increment      1: Step Time =    1.000,"P-36-1",           694,       145.801,       163.169,            0.,NA,NA,"",   3.32248E+06,   3.39578E+06,   3.39578E+06
C:/temp/Job-36.odb,Step-1,Increment      1: Step Time =    1.000,"P-36-1",           695,       163.021,       143.703,            0.,NA,NA,"",   2.16162E+06,   1.83512E+06,   1.83512E+06
C:/temp/Job-36.odb,Step-1,Increment      1: Step Time =    1.000,"P-36-1",           696,       37.1044,       143.632,            0.,NA,NA,"",   1.01721E+06,  -1.03890E+06,  -1.03890E+06
C:/temp/Job-36.odb,Step-1,Increment      1: Step Time =    1.000,"P-36-1",           697,       144.452,       38.0368,            0.,NA,NA,"",   3.60554E+06,   3.68236E+06,   3.68236E+06
C:/temp/Job-36.odb,Step-1,Increment      1: Step Time =    1.000,"P-36-1",           698,       99.7501,       175.507,            0.,NA,NA,"",   4.77868E+06,   4.90661E+06,   4.90661E+06
C:/temp/Job-36.odb,Step-1,Increment      1: Step Time =    1.000,"P-36-1",           699,       94.4916,       175.592,            0.,NA,NA,"",   4.49838E+06,   4.56989E+06,   4.56989E+06
C:/temp/Job-36.odb,Step-1,Increment      1: Step Time =    1.000,"P-36-1",           700,       88.9999,       175.544,            0.,NA,NA,"",   4.13913E+06,   4.13811E+06,   4.13811E+06
C:/temp/Job-36.odb,Step-1,Increment      1: Step Time =    1.000,"P-36-1",           701,       26.3198,       117.894,            0.,NA,NA,"",   794.211E+03,  -835.721E+03,  -835.721E+03
C:/temp/Job-36.odb,Step-1,Increment      1: Step Time =    1.000,"P-36-1",           702,       24.1146,       94.6142,            0.,NA,NA,"",   587.145E+03,  -643.552E+03,  -643.552E+03
C:/temp/Job-36.odb,Step-1,Increment      1: Step Time =    1.000,"P-36-1",           703,       174.880,       110.923,            0.,NA,NA,"",   1.90294E+06,  -1.79936E+06,  -1.79936E+06
C:/temp/Job-36.odb,Step-1,Increment      1: Step Time =    1.000,"P-36-1",           704,       23.4602,       112.279,            0.,NA,NA,"",   635.717E+03,  -689.673E+03,  -689.673E+03
C:/temp/Job-36.odb,Step-1,Increment      1: Step Time =    1.000,"P-36-1",           705,       89.5739,       25.4625,            0.,NA,NA,"",   4.29104E+06,   4.31510E+06,   4.31510E+06
C:/temp/Job-36.odb,Step-1,Increment      1: Step Time =    1.000,"P-36-1",           706,       175.701,       81.3428,            0.,NA,NA,"",   1.76318E+06,  -783.728E+03,  -783.728E+03
C:/temp/Job-36.odb,Step-1,Increment      1: Step Time =    1.000,"P-36-1",           707,       24.2922,       100.016,            0.,NA,NA,"",   576.600E+03,  -632.527E+03,  -632.527E+03
C:/temp/Job-36.odb,Step-1,Increment      1: Step Time =    1.000,"P-36-1",           708,       82.7619,       175.548,            0.,NA,NA,"",   3.72210E+06,   3.61553E+06,   3.61553E+06
C:/temp/Job-36.odb,Step-1,Increment      1: Step Time =    1.000,"P-36-1",           709,       25.7391,       82.8063,            0.,NA,NA,"",   770.420E+03,  -812.211E+03,  -812.211E+03
C:/temp/Job-36.odb,Step-1,Increment      1: Step Time =    1.000,"P-36-1",           710,       109.717,       174.944,            0.,NA,NA,"",   4.96156E+06,   5.15270E+06,   5.15270E+06
C:/temp/Job-36.odb,Step-1,Increment      1: Step Time =    1.000,"P-36-1",           711,       43.1829,       46.4154,            0.,NA,NA,"",   984.734E+03,  -801.077E+03,  -801.077E+03
C:/temp/Job-36.odb,Step-1,Increment      1: Step Time =    1.000,"P-36-1",           712,       23.4212,       88.2744,            0.,NA,NA,"",   624.367E+03,  -679.399E+03,  -679.399E+03
C:/temp/Job-36.odb,Step-1,Increment      1: Step Time =    1.000,"P-36-1",           713,       105.499,       24.5051,            0.,NA,NA,"",   4.85740E+06,   5.03242E+06,   5.03242E+06
C:/temp/Job-36.odb,Step-1,Increment      1: Step Time =    1.000,"P-36-1",           714,       175.382,       105.633,            0.,NA,NA,"",   1.85215E+06,  -1.83737E+06,  -1.83737E+06
C:/temp/Job-36.odb,Step-1,Increment      1: Step Time =    1.000,"P-36-1",           715,       175.411,       95.1569,            0.,NA,NA,"",   1.84203E+06,  -1.84219E+06,  -1.84219E+06
C:/temp/Job-36.odb,Step-1,Increment      1: Step Time =    1.000,"P-36-1",           716,       24.1616,       105.511,            0.,NA,NA,"",   589.600E+03,  -645.871E+03,  -645.871E+03
C:/temp/Job-36.odb,Step-1,Increment      1: Step Time =    1.000,"P-36-1",           717,       100.130,       24.5296,            0.,NA,NA,"",   4.78097E+06,   4.91748E+06,   4.91748E+06
C:/temp/Job-36.odb,Step-1,Increment      1: Step Time =    1.000,"P-36-1",           718,       116.371,       25.2908,            0.,NA,NA,"",   4.70670E+06,   4.91878E+06,   4.91878E+06
C:/temp/Job-36.odb,Step-1,Increment      1: Step Time =    1.000,"P-36-1",           719,       118.512,       175.799,            0.,NA,NA,"",   4.13645E+06,   4.36334E+06,   4.36334E+06
C:/temp/Job-36.odb,Step-1,Increment      1: Step Time =    1.000,"P-36-1",           720,       84.5630,       26.4442,            0.,NA,NA,"",   3.91389E+06,   3.87627E+06,   3.87627E+06
C:/temp/Job-36.odb,Step-1,Increment      1: Step Time =    1.000,"P-36-1",           721,       110.933,       24.7307,            0.,NA,NA,"",   4.81325E+06,   5.01316E+06,   5.01316E+06
C:/temp/Job-36.odb,Step-1,Increment      1: Step Time =    1.000,"P-36-1",           722,       152.071,       44.3062,            0.,NA,NA,"",   2.94440E+06,   2.92919E+06,   2.92919E+06
C:/temp/Job-36.odb,Step-1,Increment      1: Step Time =    1.000,"P-36-1",           723,       175.196,       90.1806,            0.,NA,NA,"",   1.83126E+06,  -1.75115E+06,  -1.75115E+06
C:/temp/Job-36.odb,Step-1,Increment      1: Step Time =    1.000,"P-36-1",           724,       42.9119,       151.389,            0.,NA,NA,"",   1.00115E+06,  -922.734E+03,  -922.734E+03
C:/temp/Job-36.odb,Step-1,Increment      1: Step Time =    1.000,"P-36-1",           725,       94.7997,       24.8411,            0.,NA,NA,"",   4.58766E+06,   4.67043E+06,   4.67043E+06
C:/temp/Job-36.odb,Step-1,Increment      1: Step Time =    1.000,"P-36-1",           726,       173.925,       115.920,            0.,NA,NA,"",   1.91816E+06,  -1.70705E+06,  -1.70705E+06
C:/temp/Job-36.odb,Step-1,Increment      1: Step Time =    1.000,"P-36-1",           727,       104.842,       175.260,            0.,NA,NA,"",   4.95319E+06,   5.12378E+06,   5.12378E+06
C:/temp/Job-36.odb,Step-1,Increment      1: Step Time =    1.000,"P-36-1",           728,       175.508,       100.328,            0.,NA,NA,"",   1.83566E+06,  -1.85858E+06,  -1.85858E+06
C:/temp/Job-36.odb,Step-1,Increment      1: Step Time =    1.000,"P-36-1",           729,       152.325,       155.475,            0.,NA,NA,"",   2.92881E+06,   2.90946E+06,   2.90946E+06
C:/temp/Job-36.odb,Step-1,Increment      1: Step Time =    1.000,"P-36-1",           730,       15.2399,       60.4054,            0.,NA,NA,"",   322.157E+03,  -281.887E+03,  -281.887E+03
C:/temp/Job-36.odb,Step-1,Increment      1: Step Time =    1.000,"P-36-1",           731,       58.8874,       14.2530,            0.,NA,NA,"",   3.25896E+06,   3.07472E+06,   3.07472E+06
C:/temp/Job-36.odb,Step-1,Increment      1: Step Time =    1.000,"P-36-1",           732,       184.477,       60.2602,            0.,NA,NA,"",   2.15850E+06,   2.01642E+06,   2.01642E+06
C:/temp/Job-36.odb,Step-1,Increment      1: Step Time =    1.000,"P-36-1",           733,       58.9142,       184.134,            0.,NA,NA,"",   3.20668E+06,   2.99060E+06,   2.99060E+06
C:/temp/Job-36.odb,Step-1,Increment      1: Step Time =    1.000,"P-36-1",           734,       139.798,       14.2626,            0.,NA,NA,"",   1.42658E+06,   1.43552E+06,   1.43552E+06
C:/temp/Job-36.odb,Step-1,Increment      1: Step Time =    1.000,"P-36-1",           735,       15.1023,       138.691,            0.,NA,NA,"",   340.350E+03,  -303.612E+03,  -303.612E+03
C:/temp/Job-36.odb,Step-1,Increment      1: Step Time =    1.000,"P-36-1",           736,       185.638,       139.594,            0.,NA,NA,"",   2.11761E+06,   2.01941E+06,   2.01941E+06
C:/temp/Job-36.odb,Step-1,Increment      1: Step Time =    1.000,"P-36-1",           737,       140.454,       184.749,            0.,NA,NA,"",   1.52431E+06,   1.52932E+06,   1.52932E+06
C:/temp/Job-36.odb,Step-1,Increment      1: Step Time =    1.000,"P-36-1",           738,       174.218,       75.3032,            0.,NA,NA,"",   1.94949E+06,  -62.3312E+03,  -62.3312E+03
C:/temp/Job-36.odb,Step-1,Increment      1: Step Time =    1.000,"P-36-1",           739,       125.047,       174.462,            0.,NA,NA,"",   3.91396E+06,   4.12799E+06,   4.12799E+06
C:/temp/Job-36.odb,Step-1,Increment      1: Step Time =    1.000,"P-36-1",           740,       79.7866,       27.5816,            0.,NA,NA,"",   3.48015E+06,   3.37487E+06,   3.37487E+06
C:/temp/Job-36.odb,Step-1,Increment      1: Step Time =    1.000,"P-36-1",           741,       28.3649,       122.660,            0.,NA,NA,"",   924.879E+03,  -957.798E+03,  -957.798E+03
C:/temp/Job-36.odb,Step-1,Increment      1: Step Time =    1.000,"P-36-1",           742,       121.706,       26.4145,            0.,NA,NA,"",   4.53176E+06,   4.74929E+06,   4.74929E+06
C:/temp/Job-36.odb,Step-1,Increment      1: Step Time =    1.000,"P-36-1",           743,       173.312,       121.080,            0.,NA,NA,"",   1.90620E+06,  -1.50481E+06,  -1.50481E+06
C:/temp/Job-36.odb,Step-1,Increment      1: Step Time =    1.000,"P-36-1",           744,       77.3306,       172.824,            0.,NA,NA,"",   3.32848E+06,   3.17085E+06,   3.17085E+06
C:/temp/Job-36.odb,Step-1,Increment      1: Step Time =    1.000,"P-36-1",           745,       72.5916,       170.795,            0.,NA,NA,"",   2.87972E+06,   2.66147E+06,   2.66147E+06
C:/temp/Job-36.odb,Step-1,Increment      1: Step Time =    1.000,"P-36-1",           746,       173.282,       126.172,            0.,NA,NA,"",   1.97608E+06,  -646.566E+03,  -646.566E+03
C:/temp/Job-36.odb,Step-1,Increment      1: Step Time =    1.000,"P-36-1",           747,       126.994,       27.2205,            0.,NA,NA,"",   4.14981E+06,   4.36348E+06,   4.36348E+06
C:/temp/Job-36.odb,Step-1,Increment      1: Step Time =    1.000,"P-36-1",           748,       129.075,       171.477,            0.,NA,NA,"",   4.22617E+06,   4.42497E+06,   4.42497E+06
C:/temp/Job-36.odb,Step-1,Increment      1: Step Time =    1.000,"P-36-1",           749,       172.251,       70.5429,            0.,NA,NA,"",   2.07559E+06,   344.412E+03,   344.412E+03
C:/temp/Job-36.odb,Step-1,Increment      1: Step Time =    1.000,"P-36-1",           750,       28.1002,       73.0316,            0.,NA,NA,"",   935.743E+03,  -967.872E+03,  -967.872E+03
C:/temp/Job-36.odb,Step-1,Increment      1: Step Time =    1.000,"P-36-1",           751,       25.6850,       127.927,            0.,NA,NA,"",   816.166E+03,  -844.560E+03,  -844.560E+03
C:/temp/Job-36.odb,Step-1,Increment      1: Step Time =    1.000,"P-36-1",           752,       70.6402,       24.1280,            0.,NA,NA,"",   3.22534E+06,   2.90746E+06,   2.90746E+06
C:/temp/Job-36.odb,Step-1,Increment      1: Step Time =    1.000,"P-36-1",           753,       14.7364,       70.5957,            0.,NA,NA,"",   492.673E+03,  -505.673E+03,  -505.673E+03
C:/temp/Job-36.odb,Step-1,Increment      1: Step Time =    1.000,"P-36-1",           754,       129.116,       14.1109,            0.,NA,NA,"",   1.42578E+06,   1.50551E+06,   1.50551E+06
C:/temp/Job-36.odb,Step-1,Increment      1: Step Time =    1.000,"P-36-1",           755,       67.6759,       14.3072,            0.,NA,NA,"",   3.27141E+06,   3.04869E+06,   3.04869E+06
C:/temp/Job-36.odb,Step-1,Increment      1: Step Time =    1.000,"P-36-1",           756,       13.2543,       129.113,            0.,NA,NA,"",   481.334E+03,  -494.380E+03,  -494.380E+03
C:/temp/Job-36.odb,Step-1,Increment      1: Step Time =    1.000,"P-36-1",           757,       186.449,       129.646,            0.,NA,NA,"",   2.20691E+06,   2.17122E+06,   2.17122E+06
C:/temp/Job-36.odb,Step-1,Increment      1: Step Time =    1.000,"P-36-1",           758,       70.7716,       185.479,            0.,NA,NA,"",   3.26101E+06,   3.02036E+06,   3.02036E+06
C:/temp/Job-36.odb,Step-1,Increment      1: Step Time =    1.000,"P-36-1",           759,       185.236,       70.2210,            0.,NA,NA,"",   2.21241E+06,   2.10203E+06,   2.10203E+06
C:/temp/Job-36.odb,Step-1,Increment      1: Step Time =    1.000,"P-36-1",           760,       130.743,       185.086,            0.,NA,NA,"",   1.61020E+06,   1.69086E+06,   1.69086E+06
C:/temp/Job-36.odb,Step-1,Increment      1: Step Time =    1.000,"P-36-1",           761,       159.320,       154.695,            0.,NA,NA,"",   2.63205E+06,   2.46828E+06,   2.46828E+06
C:/temp/Job-36.odb,Step-1,Increment      1: Step Time =    1.000,"P-36-1",           762,       45.0743,       161.825,            0.,NA,NA,"",   1.40872E+06,   678.609E+03,   678.609E+03
C:/temp/Job-36.odb,Step-1,Increment      1: Step Time =    1.000,"P-36-1",           763,       151.602,       37.2109,            0.,NA,NA,"",   2.94041E+06,   2.92372E+06,   2.92372E+06
C:/temp/Job-36.odb,Step-1,Increment      1: Step Time =    1.000,"P-36-1",           764,       38.3071,       45.6199,            0.,NA,NA,"",   812.479E+03,  -256.392E+03,  -256.392E+03
C:/temp/Job-36.odb,Step-1,Increment      1: Step Time =    1.000,"P-36-1",           765,       14.2039,       80.6987,            0.,NA,NA,"",   496.503E+03,  -546.637E+03,  -546.637E+03
C:/temp/Job-36.odb,Step-1,Increment      1: Step Time =    1.000,"P-36-1",           766,       120.029,       13.5765,            0.,NA,NA,"",   1.55206E+06,   1.67121E+06,   1.67121E+06
C:/temp/Job-36.odb,Step-1,Increment      1: Step Time =    1.000,"P-36-1",           767,       77.2188,       15.0683,            0.,NA,NA,"",   3.29483E+06,   3.04724E+06,   3.04724E+06
C:/temp/Job-36.odb,Step-1,Increment      1: Step Time =    1.000,"P-36-1",           768,       13.2549,       120.069,            0.,NA,NA,"",   485.300E+03,  -533.471E+03,  -533.471E+03
C:/temp/Job-36.odb,Step-1,Increment      1: Step Time =    1.000,"P-36-1",           769,       186.291,       120.485,            0.,NA,NA,"",   2.06801E+06,   2.09356E+06,   2.09356E+06
C:/temp/Job-36.odb,Step-1,Increment      1: Step Time =    1.000,"P-36-1",           770,       79.6862,       185.568,            0.,NA,NA,"",   3.23652E+06,   3.01561E+06,   3.01561E+06
C:/temp/Job-36.odb,Step-1,Increment      1: Step Time =    1.000,"P-36-1",           771,       120.740,       185.093,            0.,NA,NA,"",   1.82809E+06,   1.96376E+06,   1.96376E+06
C:/temp/Job-36.odb,Step-1,Increment      1: Step Time =    1.000,"P-36-1",           772,       185.211,       79.6736,            0.,NA,NA,"",   2.00140E+06,   1.92712E+06,   1.92712E+06
C:/temp/Job-36.odb,Step-1,Increment      1: Step Time =    1.000,"P-36-1",           773,       161.912,       48.6667,            0.,NA,NA,"",   2.55066E+06,   2.30266E+06,   2.30266E+06
C:/temp/Job-36.odb,Step-1,Increment      1: Step Time =    1.000,"P-36-1",           774,       47.6226,       165.413,            0.,NA,NA,"",   1.75619E+06,   1.37382E+06,   1.37382E+06
C:/temp/Job-36.odb,Step-1,Increment      1: Step Time =    1.000,"P-36-1",           775,       49.0305,       35.8053,            0.,NA,NA,"",   1.66341E+06,   1.23570E+06,   1.23570E+06
C:/temp/Job-36.odb,Step-1,Increment      1: Step Time =    1.000,"P-36-1",           776,       35.2900,       48.8299,            0.,NA,NA,"",   688.556E+03,  -232.720E+03,  -232.720E+03
C:/temp/Job-36.odb,Step-1,Increment      1: Step Time =    1.000,"P-36-1",           777,       162.987,       150.950,            0.,NA,NA,"",   2.51482E+06,   2.25466E+06,   2.25466E+06
C:/temp/Job-36.odb,Step-1,Increment      1: Step Time =    1.000,"P-36-1",           778,       35.4007,       150.241,            0.,NA,NA,"",   671.473E+03,  -564.898E+03,  -564.898E+03
C:/temp/Job-36.odb,Step-1,Increment      1: Step Time =    1.000,"P-36-1",           779,       147.616,       34.8723,            0.,NA,NA,"",   3.10535E+06,   3.14540E+06,   3.14540E+06
C:/temp/Job-36.odb,Step-1,Increment      1: Step Time =    1.000,"P-36-1",           780,       27.1501,       77.8674,            0.,NA,NA,"",   887.366E+03,  -921.290E+03,  -921.290E+03
C:/temp/Job-36.odb,Step-1,Increment      1: Step Time =    1.000,"P-36-1",           781,       13.0471,       91.0707,            0.,NA,NA,"",   389.821E+03,  -446.522E+03,  -446.522E+03
C:/temp/Job-36.odb,Step-1,Increment      1: Step Time =    1.000,"P-36-1",           782,       110.696,       14.9057,            0.,NA,NA,"",   2.21776E+06,   2.32556E+06,   2.32556E+06
C:/temp/Job-36.odb,Step-1,Increment      1: Step Time =    1.000,"P-36-1",           783,       88.9065,       15.9305,            0.,NA,NA,"",   3.22188E+06,   3.08918E+06,   3.08918E+06
C:/temp/Job-36.odb,Step-1,Increment      1: Step Time =    1.000,"P-36-1",           784,       12.5653,       109.379,            0.,NA,NA,"",   385.978E+03,  -442.895E+03,  -442.895E+03
C:/temp/Job-36.odb,Step-1,Increment      1: Step Time =    1.000,"P-36-1",           785,       185.281,       110.839,            0.,NA,NA,"",   1.59254E+06,   1.64526E+06,   1.64526E+06
C:/temp/Job-36.odb,Step-1,Increment      1: Step Time =    1.000,"P-36-1",           786,       89.7003,       185.334,            0.,NA,NA,"",   3.04677E+06,   2.91179E+06,   2.91179E+06
C:/temp/Job-36.odb,Step-1,Increment      1: Step Time =    1.000,"P-36-1",           787,       184.716,       90.0605,            0.,NA,NA,"",   1.45147E+06,   1.49102E+06,   1.49102E+06
C:/temp/Job-36.odb,Step-1,Increment      1: Step Time =    1.000,"P-36-1",           788,       110.873,       183.853,            0.,NA,NA,"",   2.49952E+06,   2.62380E+06,   2.62380E+06
C:/temp/Job-36.odb,Step-1,Increment      1: Step Time =    1.000,"P-36-1",           789,       166.015,       139.320,            0.,NA,NA,"",   2.06720E+06,   1.55727E+06,   1.55727E+06
C:/temp/Job-36.odb,Step-1,Increment      1: Step Time =    1.000,"P-36-1",           790,       140.968,       34.6093,            0.,NA,NA,"",   3.72428E+06,   3.84191E+06,   3.84191E+06
C:/temp/Job-36.odb,Step-1,Increment      1: Step Time =    1.000,"P-36-1",           791,       140.424,       164.521,            0.,NA,NA,"",   3.84115E+06,   3.96787E+06,   3.96787E+06
C:/temp/Job-36.odb,Step-1,Increment      1: Step Time =    1.000,"P-36-1",           792,       122.041,       177.644,            0.,NA,NA,"",   3.44087E+06,   3.65851E+06,   3.65851E+06
C:/temp/Job-36.odb,Step-1,Increment      1: Step Time =    1.000,"P-36-1",           793,       21.7946,       80.9763,            0.,NA,NA,"",   662.252E+03,  -710.182E+03,  -710.182E+03
C:/temp/Job-36.odb,Step-1,Increment      1: Step Time =    1.000,"P-36-1",           794,       79.7044,       23.3297,            0.,NA,NA,"",   3.55737E+06,   3.36377E+06,   3.36377E+06
C:/temp/Job-36.odb,Step-1,Increment      1: Step Time =    1.000,"P-36-1",           795,       78.6723,       179.261,            0.,NA,NA,"",   3.49390E+06,   3.26687E+06,   3.26687E+06
C:/temp/Job-36.odb,Step-1,Increment      1: Step Time =    1.000,"P-36-1",           796,       177.763,       121.101,            0.,NA,NA,"",   1.85888E+06,   60.2102E+03,   60.2102E+03
C:/temp/Job-36.odb,Step-1,Increment      1: Step Time =    1.000,"P-36-1",           797,       177.496,       77.9533,            0.,NA,NA,"",   1.82538E+06,   564.286E+03,   564.286E+03
C:/temp/Job-36.odb,Step-1,Increment      1: Step Time =    1.000,"P-36-1",           798,       122.598,       21.9216,            0.,NA,NA,"",   3.26930E+06,   3.47481E+06,   3.47481E+06
C:/temp/Job-36.odb,Step-1,Increment      1: Step Time =    1.000,"P-36-1",           799,       22.6383,       120.759,            0.,NA,NA,"",   706.941E+03,  -749.792E+03,  -749.792E+03
C:/temp/Job-36.odb,Step-1,Increment      1: Step Time =    1.000,"P-36-1",           800,       100.022,       15.2549,            0.,NA,NA,"",   2.79274E+06,   2.80308E+06,   2.80308E+06
C:/temp/Job-36.odb,Step-1,Increment      1: Step Time =    1.000,"P-36-1",           801,       14.4733,       100.238,            0.,NA,NA,"",   372.033E+03,  -414.093E+03,  -414.093E+03
C:/temp/Job-36.odb,Step-1,Increment      1: Step Time =    1.000,"P-36-1",           802,       99.9485,       184.873,            0.,NA,NA,"",   2.75594E+06,   2.76233E+06,   2.76233E+06
C:/temp/Job-36.odb,Step-1,Increment      1: Step Time =    1.000,"P-36-1",           803,       184.948,       100.375,            0.,NA,NA,"",   1.11433E+06,   1.24890E+06,   1.24890E+06
C:/temp/Job-36.odb,Step-1,Increment      1: Step Time =    1.000,"P-36-1",           804,       165.847,       154.223,            0.,NA,NA,"",   2.50815E+06,   2.24377E+06,   2.24377E+06
C:/temp/Job-36.odb,Step-1,Increment      1: Step Time =    1.000,"P-36-1",           805,       44.5774,       166.814,            0.,NA,NA,"",   1.81667E+06,   1.49835E+06,   1.49835E+06
C:/temp/Job-36.odb,Step-1,Increment      1: Step Time =    1.000,"P-36-1",           806,       154.128,       32.0239,            0.,NA,NA,"",   2.56389E+06,   2.51331E+06,   2.51331E+06
C:/temp/Job-36.odb,Step-1,Increment      1: Step Time =    1.000,"P-36-1",           807,       143.181,       166.909,            0.,NA,NA,"",   3.36912E+06,   3.46691E+06,   3.46691E+06
C:/temp/Job-36.odb,Step-1,Increment      1: Step Time =    1.000,"P-36-1",           808,       55.7981,       30.6180,            0.,NA,NA,"",   2.27064E+06,   1.86121E+06,   1.86121E+06
C:/temp/Job-36.odb,Step-1,Increment      1: Step Time =    1.000,"P-36-1",           809,       170.467,       142.412,            0.,NA,NA,"",   2.41759E+06,   1.92298E+06,   1.92298E+06
C:/temp/Job-36.odb,Step-1,Increment      1: Step Time =    1.000,"P-36-1",           810,       142.799,       28.5453,            0.,NA,NA,"",   2.91657E+06,   3.00498E+06,   3.00498E+06
C:/temp/Job-36.odb,Step-1,Increment      1: Step Time =    1.000,"P-36-1",           811,       15.2597,       65.4840,            0.,NA,NA,"",   435.224E+03,  -424.478E+03,  -424.478E+03
C:/temp/Job-36.odb,Step-1,Increment      1: Step Time =    1.000,"P-36-1",           812,       63.4468,       13.6334,            0.,NA,NA,"",   3.27370E+06,   3.07912E+06,   3.07912E+06
C:/temp/Job-36.odb,Step-1,Increment      1: Step Time =    1.000,"P-36-1",           813,       184.697,       65.4029,            0.,NA,NA,"",   2.21187E+06,   2.07503E+06,   2.07503E+06
C:/temp/Job-36.odb,Step-1,Increment      1: Step Time =    1.000,"P-36-1",           814,       65.4787,       184.023,            0.,NA,NA,"",   3.26319E+06,   3.01336E+06,   3.01336E+06
C:/temp/Job-36.odb,Step-1,Increment      1: Step Time =    1.000,"P-36-1",           815,       14.4465,       133.632,            0.,NA,NA,"",   441.425E+03,  -432.355E+03,  -432.355E+03
C:/temp/Job-36.odb,Step-1,Increment      1: Step Time =    1.000,"P-36-1",           816,       134.405,       15.5418,            0.,NA,NA,"",   1.63583E+06,   1.69702E+06,   1.69702E+06
C:/temp/Job-36.odb,Step-1,Increment      1: Step Time =    1.000,"P-36-1",           817,       184.991,       134.143,            0.,NA,NA,"",   2.21689E+06,   2.08424E+06,   2.08424E+06
C:/temp/Job-36.odb,Step-1,Increment      1: Step Time =    1.000,"P-36-1",           818,       135.586,       184.920,            0.,NA,NA,"",   1.53719E+06,   1.57831E+06,   1.57831E+06
C:/temp/Job-36.odb,Step-1,Increment      1: Step Time =    1.000,"P-36-1",           819,       66.8848,       173.362,            0.,NA,NA,"",   2.94242E+06,   2.58600E+06,   2.58600E+06
C:/temp/Job-36.odb,Step-1,Increment      1: Step Time =    1.000,"P-36-1",           820,       174.033,       131.240,            0.,NA,NA,"",   2.16376E+06,   867.413E+03,   867.413E+03
C:/temp/Job-36.odb,Step-1,Increment      1: Step Time =    1.000,"P-36-1",           821,       131.986,       22.3524,            0.,NA,NA,"",   2.78457E+06,   2.93296E+06,   2.93296E+06
C:/temp/Job-36.odb,Step-1,Increment      1: Step Time =    1.000,"P-36-1",           822,       135.894,       172.659,            0.,NA,NA,"",   3.31065E+06,   3.45470E+06,   3.45470E+06
C:/temp/Job-36.odb,Step-1,Increment      1: Step Time =    1.000,"P-36-1",           823,       173.960,       65.4032,            0.,NA,NA,"",   2.34637E+06,   1.69116E+06,   1.69116E+06
C:/temp/Job-36.odb,Step-1,Increment      1: Step Time =    1.000,"P-36-1",           824,       24.3239,       68.8367,            0.,NA,NA,"",   722.199E+03,  -741.322E+03,  -741.322E+03
C:/temp/Job-36.odb,Step-1,Increment      1: Step Time =    1.000,"P-36-1",           825,       66.3343,       24.1504,            0.,NA,NA,"",   3.08768E+06,   2.74032E+06,   2.74032E+06
C:/temp/Job-36.odb,Step-1,Increment      1: Step Time =    1.000,"P-36-1",           826,       25.2994,       132.473,            0.,NA,NA,"",   752.699E+03,  -771.073E+03,  -771.073E+03
C:/temp/Job-36.odb,Step-1,Increment      1: Step Time =    1.000,"P-36-1",           827,       12.5534,       124.716,            0.,NA,NA,"",   489.395E+03,  -521.396E+03,  -521.396E+03
C:/temp/Job-36.odb,Step-1,Increment      1: Step Time =    1.000,"P-36-1",           828,       124.521,       13.5913,            0.,NA,NA,"",   1.38972E+06,   1.48483E+06,   1.48483E+06
C:/temp/Job-36.odb,Step-1,Increment      1: Step Time =    1.000,"P-36-1",           829,       14.2645,       75.6191,            0.,NA,NA,"",   507.306E+03,  -540.958E+03,  -540.958E+03
C:/temp/Job-36.odb,Step-1,Increment      1: Step Time =    1.000,"P-36-1",           830,       72.3387,       14.6472,            0.,NA,NA,"",   3.27857E+06,   3.03209E+06,   3.03209E+06
C:/temp/Job-36.odb,Step-1,Increment      1: Step Time =    1.000,"P-36-1",           831,       186.479,       125.142,            0.,NA,NA,"",   2.17616E+06,   2.17138E+06,   2.17138E+06
C:/temp/Job-36.odb,Step-1,Increment      1: Step Time =    1.000,"P-36-1",           832,       185.360,       75.0120,            0.,NA,NA,"",   2.16003E+06,   2.07189E+06,   2.07189E+06
C:/temp/Job-36.odb,Step-1,Increment      1: Step Time =    1.000,"P-36-1",           833,       75.2400,       186.291,            0.,NA,NA,"",   3.22541E+06,   2.99243E+06,   2.99243E+06
C:/temp/Job-36.odb,Step-1,Increment      1: Step Time =    1.000,"P-36-1",           834,       125.819,       184.200,            0.,NA,NA,"",   1.86101E+06,   1.98688E+06,   1.98688E+06
C:/temp/Job-36.odb,Step-1,Increment      1: Step Time =    1.000,"P-36-1",           835,       82.7099,       16.5857,            0.,NA,NA,"",   3.36043E+06,   3.15493E+06,   3.15493E+06
C:/temp/Job-36.odb,Step-1,Increment      1: Step Time =    1.000,"P-36-1",           836,       14.7299,       114.328,            0.,NA,NA,"",   462.323E+03,  -522.591E+03,  -522.591E+03
C:/temp/Job-36.odb,Step-1,Increment      1: Step Time =    1.000,"P-36-1",           837,       14.9675,       86.2674,            0.,NA,NA,"",   465.593E+03,  -527.217E+03,  -527.217E+03
C:/temp/Job-36.odb,Step-1,Increment      1: Step Time =    1.000,"P-36-1",           838,       115.643,       14.4014,            0.,NA,NA,"",   1.87531E+06,   2.00206E+06,   2.00206E+06
C:/temp/Job-36.odb,Step-1,Increment      1: Step Time =    1.000,"P-36-1",           839,       115.972,       184.885,            0.,NA,NA,"",   2.04387E+06,   2.17388E+06,   2.17388E+06
C:/temp/Job-36.odb,Step-1,Increment      1: Step Time =    1.000,"P-36-1",           840,       184.178,       84.6736,            0.,NA,NA,"",   1.68801E+06,   1.60879E+06,   1.60879E+06
C:/temp/Job-36.odb,Step-1,Increment      1: Step Time =    1.000,"P-36-1",           841,       185.934,       115.668,            0.,NA,NA,"",   1.87325E+06,   1.91229E+06,   1.91229E+06
C:/temp/Job-36.odb,Step-1,Increment      1: Step Time =    1.000,"P-36-1",           842,       84.7993,       185.634,            0.,NA,NA,"",   3.14186E+06,   2.96008E+06,   2.96008E+06
C:/temp/Job-36.odb,Step-1,Increment      1: Step Time =    1.000,"P-36-1",           843,       158.750,       45.2178,            0.,NA,NA,"",   2.64415E+06,   2.48443E+06,   2.48443E+06
C:/temp/Job-36.odb,Step-1,Increment      1: Step Time =    1.000,"P-36-1",           844,       38.5430,       154.378,            0.,NA,NA,"",   827.230E+03,  -277.035E+03,  -277.035E+03
C:/temp/Job-36.odb,Step-1,Increment      1: Step Time =    1.000,"P-36-1",           845,       45.5532,       38.7588,            0.,NA,NA,"",   1.35045E+06,   620.261E+03,   620.261E+03
C:/temp/Job-36.odb,Step-1,Increment      1: Step Time =    1.000,"P-36-1",           846,       155.930,       158.588,            0.,NA,NA,"",   2.74964E+06,   2.66476E+06,   2.66476E+06
C:/temp/Job-36.odb,Step-1,Increment      1: Step Time =    1.000,"P-36-1",           847,       94.5431,       15.5229,            0.,NA,NA,"",   3.03006E+06,   2.97051E+06,   2.97051E+06
C:/temp/Job-36.odb,Step-1,Increment      1: Step Time =    1.000,"P-36-1",           848,       12.3600,       105.378,            0.,NA,NA,"",   358.078E+03,  -400.947E+03,  -400.947E+03
C:/temp/Job-36.odb,Step-1,Increment      1: Step Time =    1.000,"P-36-1",           849,       184.891,       95.1898,            0.,NA,NA,"",   1.20741E+06,   1.32024E+06,   1.32024E+06
C:/temp/Job-36.odb,Step-1,Increment      1: Step Time =    1.000,"P-36-1",           850,       105.222,       184.551,            0.,NA,NA,"",   2.58338E+06,   2.65694E+06,   2.65694E+06
C:/temp/Job-36.odb,Step-1,Increment      1: Step Time =    1.000,"P-36-1",           851,       79.2476,       19.9345,            0.,NA,NA,"",   3.52838E+06,   3.29016E+06,   3.29016E+06
C:/temp/Job-36.odb,Step-1,Increment      1: Step Time =    1.000,"P-36-1",           852,       76.2885,       182.855,            0.,NA,NA,"",   3.37321E+06,   3.11166E+06,   3.11166E+06
C:/temp/Job-36.odb,Step-1,Increment      1: Step Time =    1.000,"P-36-1",           853,       181.986,       120.866,            0.,NA,NA,"",   1.89666E+06,   1.60027E+06,   1.60027E+06
C:/temp/Job-36.odb,Step-1,Increment      1: Step Time =    1.000,"P-36-1",           854,       180.951,       79.0999,            0.,NA,NA,"",   1.83331E+06,   1.41157E+06,   1.41157E+06
C:/temp/Job-36.odb,Step-1,Increment      1: Step Time =    1.000,"P-36-1",           855,       120.389,       17.0488,            0.,NA,NA,"",   2.24114E+06,   2.39913E+06,   2.39913E+06
C:/temp/Job-36.odb,Step-1,Increment      1: Step Time =    1.000,"P-36-1",           856,       16.9387,       121.496,            0.,NA,NA,"",   550.799E+03,  -594.030E+03,  -594.030E+03
C:/temp/Job-36.odb,Step-1,Increment      1: Step Time =    1.000,"P-36-1",           857,       120.769,       181.096,            0.,NA,NA,"",   2.74518E+06,   2.93678E+06,   2.93678E+06
C:/temp/Job-36.odb,Step-1,Increment      1: Step Time =    1.000,"P-36-1",           858,       18.3288,       80.3316,            0.,NA,NA,"",   571.261E+03,  -621.194E+03,  -621.194E+03
C:/temp/Job-36.odb,Step-1,Increment      1: Step Time =    1.000,"P-36-1",           859,       105.403,       15.0931,            0.,NA,NA,"",   2.52129E+06,   2.59209E+06,   2.59209E+06
C:/temp/Job-36.odb,Step-1,Increment      1: Step Time =    1.000,"P-36-1",           860,       15.9036,       92.2813,            0.,NA,NA,"",   412.770E+03,  -473.791E+03,  -473.791E+03
C:/temp/Job-36.odb,Step-1,Increment      1: Step Time =    1.000,"P-36-1",           861,       94.7738,       185.097,            0.,NA,NA,"",   2.91629E+06,   2.85062E+06,   2.85062E+06
C:/temp/Job-36.odb,Step-1,Increment      1: Step Time =    1.000,"P-36-1",           862,       185.016,       105.640,            0.,NA,NA,"",   1.28279E+06,   1.38585E+06,   1.38585E+06
C:/temp/Job-36.odb,Step-1,Increment      1: Step Time =    1.000,"P-36-1",           863,       164.628,       45.3377,            0.,NA,NA,"",   2.55622E+06,   2.30048E+06,   2.30048E+06
C:/temp/Job-36.odb,Step-1,Increment      1: Step Time =    1.000,"P-36-1",           864,       43.5132,       35.3853,            0.,NA,NA,"",   1.60177E+06,   1.27506E+06,   1.27506E+06
C:/temp/Job-36.odb,Step-1,Increment      1: Step Time =    1.000,"P-36-1",           865,       156.458,       165.635,            0.,NA,NA,"",   2.55809E+06,   2.48197E+06,   2.48197E+06
C:/temp/Job-36.odb,Step-1,Increment      1: Step Time =    1.000,"P-36-1",           866,       34.1777,       157.276,            0.,NA,NA,"",   867.492E+03,   456.611E+03,   456.611E+03
C:/temp/Job-36.odb,Step-1,Increment      1: Step Time =    1.000,"P-36-1",           867,       111.097,       19.9119,            0.,NA,NA,"",   3.40670E+06,   3.58067E+06,   3.58067E+06
C:/temp/Job-36.odb,Step-1,Increment      1: Step Time =    1.000,"P-36-1",           868,       18.6600,       90.4873,            0.,NA,NA,"",   480.204E+03,  -546.402E+03,  -546.402E+03
C:/temp/Job-36.odb,Step-1,Increment      1: Step Time =    1.000,"P-36-1",           869,       89.3911,       180.432,            0.,NA,NA,"",   3.62393E+06,   3.54435E+06,   3.54435E+06
C:/temp/Job-36.odb,Step-1,Increment      1: Step Time =    1.000,"P-36-1",           870,       179.959,       111.789,            0.,NA,NA,"",   1.30376E+06,   187.485E+03,   187.485E+03
C:/temp/Job-36.odb,Step-1,Increment      1: Step Time =    1.000,"P-36-1",           871,       100.090,       19.9896,            0.,NA,NA,"",   3.72056E+06,   3.80709E+06,   3.80709E+06
C:/temp/Job-36.odb,Step-1,Increment      1: Step Time =    1.000,"P-36-1",           872,       19.8989,       100.018,            0.,NA,NA,"",   468.574E+03,  -532.816E+03,  -532.816E+03
C:/temp/Job-36.odb,Step-1,Increment      1: Step Time =    1.000,"P-36-1",           873,       99.7950,       180.116,            0.,NA,NA,"",   3.70663E+06,   3.78331E+06,   3.78331E+06
C:/temp/Job-36.odb,Step-1,Increment      1: Step Time =    1.000,"P-36-1",           874,       180.144,       100.430,            0.,NA,NA,"",   766.749E+03,  -236.703E+03,  -236.703E+03
C:/temp/Job-36.odb,Step-1,Increment      1: Step Time =    1.000,"P-36-1",           875,       137.287,       25.6882,            0.,NA,NA,"",   2.99207E+06,   3.12358E+06,   3.12358E+06
C:/temp/Job-36.odb,Step-1,Increment      1: Step Time =    1.000,"P-36-1",           876,       139.723,       169.968,            0.,NA,NA,"",   3.37639E+06,   3.49502E+06,   3.49502E+06
C:/temp/Job-36.odb,Step-1,Increment      1: Step Time =    1.000,"P-36-1",           877,       60.8932,       27.8881,            0.,NA,NA,"",   2.62362E+06,   2.24321E+06,   2.24321E+06
C:/temp/Job-36.odb,Step-1,Increment      1: Step Time =    1.000,"P-36-1",           878,       173.986,       137.244,            0.,NA,NA,"",   2.35617E+06,   1.79671E+06,   1.79671E+06
C:/temp/Job-36.odb,Step-1,Increment      1: Step Time =    1.000,"P-36-1",           879,       20.1708,       60.4073,            0.,NA,NA,"",   420.797E+03,  -393.026E+03,  -393.026E+03
C:/temp/Job-36.odb,Step-1,Increment      1: Step Time =    1.000,"P-36-1",           880,       61.9678,       17.3008,            0.,NA,NA,"",   3.22217E+06,   2.96302E+06,   2.96302E+06
C:/temp/Job-36.odb,Step-1,Increment      1: Step Time =    1.000,"P-36-1",           881,       60.7621,       179.660,            0.,NA,NA,"",   3.12774E+06,   2.82686E+06,   2.82686E+06
C:/temp/Job-36.odb,Step-1,Increment      1: Step Time =    1.000,"P-36-1",           882,       179.024,       60.2086,            0.,NA,NA,"",   2.35248E+06,   1.98373E+06,   1.98373E+06
C:/temp/Job-36.odb,Step-1,Increment      1: Step Time =    1.000,"P-36-1",           883,       20.6999,       143.354,            0.,NA,NA,"",   326.915E+03,  -208.612E+03,  -208.612E+03
C:/temp/Job-36.odb,Step-1,Increment      1: Step Time =    1.000,"P-36-1",           884,       181.027,       140.182,            0.,NA,NA,"",   2.31201E+06,   2.02117E+06,   2.02117E+06
C:/temp/Job-36.odb,Step-1,Increment      1: Step Time =    1.000,"P-36-1",           885,       140.311,       179.885,            0.,NA,NA,"",   2.12151E+06,   2.16606E+06,   2.16606E+06
C:/temp/Job-36.odb,Step-1,Increment      1: Step Time =    1.000,"P-36-1",           886,       68.8070,       179.308,            0.,NA,NA,"",   3.29426E+06,   2.97729E+06,   2.97729E+06
C:/temp/Job-36.odb,Step-1,Increment      1: Step Time =    1.000,"P-36-1",           887,       19.3596,       71.2379,            0.,NA,NA,"",   590.425E+03,  -609.877E+03,  -609.877E+03
C:/temp/Job-36.odb,Step-1,Increment      1: Step Time =    1.000,"P-36-1",           888,       182.815,       129.886,            0.,NA,NA,"",   2.22994E+06,   1.96968E+06,   1.96968E+06
C:/temp/Job-36.odb,Step-1,Increment      1: Step Time =    1.000,"P-36-1",           889,       15.1474,       107.206,            0.,NA,NA,"",   397.049E+03,  -453.905E+03,  -453.905E+03
C:/temp/Job-36.odb,Step-1,Increment      1: Step Time =    1.000,"P-36-1",           890,       179.947,       90.3213,            0.,NA,NA,"",   1.16033E+06,  -52.7667E+03,  -52.7667E+03
C:/temp/Job-36.odb,Step-1,Increment      1: Step Time =    1.000,"P-36-1",           891,       109.552,       179.342,            0.,NA,NA,"",   3.63168E+06,   3.80396E+06,   3.80396E+06
C:/temp/Job-36.odb,Step-1,Increment      1: Step Time =    1.000,"P-36-1",           892,       131.260,       181.249,            0.,NA,NA,"",   2.20326E+06,   2.31863E+06,   2.31863E+06
C:/temp/Job-36.odb,Step-1,Increment      1: Step Time =    1.000,"P-36-1",           893,       71.2375,       19.3385,            0.,NA,NA,"",   3.36474E+06,   3.06332E+06,   3.06332E+06
C:/temp/Job-36.odb,Step-1,Increment      1: Step Time =    1.000,"P-36-1",           894,       180.803,       70.5866,            0.,NA,NA,"",   2.23037E+06,   1.87219E+06,   1.87219E+06
C:/temp/Job-36.odb,Step-1,Increment      1: Step Time =    1.000,"P-36-1",           895,       17.0644,       127.558,            0.,NA,NA,"",   551.547E+03,  -573.876E+03,  -573.876E+03
C:/temp/Job-36.odb,Step-1,Increment      1: Step Time =    1.000,"P-36-1",           896,       174.685,       145.272,            0.,NA,NA,"",   2.42990E+06,   2.03685E+06,   2.03685E+06
C:/temp/Job-36.odb,Step-1,Increment      1: Step Time =    1.000,"P-36-1",           897,       55.5219,       26.0267,            0.,NA,NA,"",   2.61991E+06,   2.27151E+06,   2.27151E+06
C:/temp/Job-36.odb,Step-1,Increment      1: Step Time =    1.000,"P-36-1",           898,       142.724,       173.712,            0.,NA,NA,"",   2.76012E+06,   2.83217E+06,   2.83217E+06
C:/temp/Job-36.odb,Step-1,Increment      1: Step Time =    1.000,"P-36-1",           899,       142.091,       24.1298,            0.,NA,NA,"",   2.53644E+06,   2.60981E+06,   2.60981E+06
C:/temp/Job-36.odb,Step-1,Increment      1: Step Time =    1.000,"P-36-1",           900,       158.480,       34.4789,            0.,NA,NA,"",   2.49561E+06,   2.38819E+06,   2.38819E+06
C:/temp/Job-36.odb,Step-1,Increment      1: Step Time =    1.000,"P-36-1",           901,       36.7822,       41.4714,            0.,NA,NA,"",   989.979E+03,   433.477E+03,   433.477E+03
C:/temp/Job-36.odb,Step-1,Increment      1: Step Time =    1.000,"P-36-1",           902,       166.237,       160.554,            0.,NA,NA,"",   2.36866E+06,   2.17496E+06,   2.17496E+06
C:/temp/Job-36.odb,Step-1,Increment      1: Step Time =    1.000,"P-36-1",           903,       41.7388,       164.922,            0.,NA,NA,"",   1.61986E+06,   1.32775E+06,   1.32775E+06
C:/temp/Job-36.odb,Step-1,Increment      1: Step Time =    1.000,"P-36-1",           904,       58.9066,       21.1846,            0.,NA,NA,"",   3.01957E+06,   2.71248E+06,   2.71248E+06
C:/temp/Job-36.odb,Step-1,Increment      1: Step Time =    1.000,"P-36-1",           905,       138.708,       176.258,            0.,NA,NA,"",   2.64901E+06,   2.73887E+06,   2.73887E+06
C:/temp/Job-36.odb,Step-1,Increment      1: Step Time =    1.000,"P-36-1",           906,       141.872,       18.6924,            0.,NA,NA,"",   1.93074E+06,   1.96003E+06,   1.96003E+06
C:/temp/Job-36.odb,Step-1,Increment      1: Step Time =    1.000,"P-36-1",           907,       177.454,       141.798,            0.,NA,NA,"",   2.40454E+06,   2.01388E+06,   2.01388E+06
C:/temp/Job-36.odb,Step-1,Increment      1: Step Time =    1.000,"P-36-1",           908,       24.8073,       59.3683,            0.,NA,NA,"",   511.381E+03,  -494.077E+03,  -494.077E+03
C:/temp/Job-36.odb,Step-1,Increment      1: Step Time =    1.000,"P-36-1",           909,       26.0032,       142.730,            0.,NA,NA,"",   495.478E+03,  -473.415E+03,  -473.415E+03
C:/temp/Job-36.odb,Step-1,Increment      1: Step Time =    1.000,"P-36-1",           910,       175.939,       57.7898,            0.,NA,NA,"",   2.41992E+06,   1.99344E+06,   1.99344E+06
C:/temp/Job-36.odb,Step-1,Increment      1: Step Time =    1.000,"P-36-1",           911,       161.871,       40.1723,            0.,NA,NA,"",   2.53821E+06,   2.36086E+06,   2.36086E+06
C:/temp/Job-36.odb,Step-1,Increment      1: Step Time =    1.000,"P-36-1",           912,       40.0144,       35.9049,            0.,NA,NA,"",   1.49969E+06,   1.22456E+06,   1.22456E+06
C:/temp/Job-36.odb,Step-1,Increment      1: Step Time =    1.000,"P-36-1",           913,       163.165,       164.458,            0.,NA,NA,"",   2.35068E+06,   2.20645E+06,   2.20645E+06
C:/temp/Job-36.odb,Step-1,Increment      1: Step Time =    1.000,"P-36-1",           914,       37.1396,       162.218,            0.,NA,NA,"",   1.31227E+06,   1.08398E+06,   1.08398E+06
C:/temp/Job-36.odb,Step-1,Increment      1: Step Time =    1.000,"P-36-1",           915,       52.8575,       185.336,            0.,NA,NA,"",   3.23130E+06,   3.07500E+06,   3.07500E+06
C:/temp/Job-36.odb,Step-1,Increment      1: Step Time =    1.000,"P-36-1",           916,       184.611,       55.1944,            0.,NA,NA,"",   2.03440E+06,   1.91895E+06,   1.91895E+06
C:/temp/Job-36.odb,Step-1,Increment      1: Step Time =    1.000,"P-36-1",           917,       143.852,       14.0238,            0.,NA,NA,"",   1.37361E+06,   1.34708E+06,   1.34708E+06
C:/temp/Job-36.odb,Step-1,Increment      1: Step Time =    1.000,"P-36-1",           918,       15.4267,       143.874,            0.,NA,NA,"",   221.136E+03,  -32.1463E+03,  -32.1463E+03
C:/temp/Job-36.odb,Step-1,Increment      1: Step Time =    1.000,"P-36-1",           919,       15.2260,       55.2483,            0.,NA,NA,"",   212.165E+03,  -8.99111E+03,  -8.99111E+03
C:/temp/Job-36.odb,Step-1,Increment      1: Step Time =    1.000,"P-36-1",           920,       54.9474,       12.5944,            0.,NA,NA,"",   3.31274E+06,   3.17584E+06,   3.17584E+06
C:/temp/Job-36.odb,Step-1,Increment      1: Step Time =    1.000,"P-36-1",           921,       186.107,       144.388,            0.,NA,NA,"",   1.95743E+06,   1.89816E+06,   1.89816E+06
C:/temp/Job-36.odb,Step-1,Increment      1: Step Time =    1.000,"P-36-1",           922,       145.505,       184.584,            0.,NA,NA,"",   1.48960E+06,   1.45990E+06,   1.45990E+06
C:/temp/Job-36.odb,Step-1,Increment      1: Step Time =    1.000,"P-36-1",           923,       173.036,       150.140,            0.,NA,NA,"",   2.40751E+06,   2.07095E+06,   2.07095E+06
C:/temp/Job-36.odb,Step-1,Increment      1: Step Time =    1.000,"P-36-1",           924,       146.493,       27.6225,            0.,NA,NA,"",   2.63593E+06,   2.67150E+06,   2.67150E+06
C:/temp/Job-36.odb,Step-1,Increment      1: Step Time =    1.000,"P-36-1",           925,       50.1175,       28.6933,            0.,NA,NA,"",   2.31382E+06,   1.97834E+06,   1.97834E+06
C:/temp/Job-36.odb,Step-1,Increment      1: Step Time =    1.000,"P-36-1",           926,       149.845,       173.446,            0.,NA,NA,"",   2.41457E+06,   2.40427E+06,   2.40427E+06
C:/temp/Job-36.odb,Step-1,Increment      1: Step Time =    1.000,"P-36-1",           927,       179.652,       85.9114,            0.,NA,NA,"",   1.42404E+06,   73.6152E+03,   73.6152E+03
C:/temp/Job-36.odb,Step-1,Increment      1: Step Time =    1.000,"P-36-1",           928,       113.224,       179.563,            0.,NA,NA,"",   3.40468E+06,   3.58955E+06,   3.58955E+06
C:/temp/Job-36.odb,Step-1,Increment      1: Step Time =    1.000,"P-36-1",           929,       89.2452,       20.8383,            0.,NA,NA,"",   3.76742E+06,   3.70805E+06,   3.70805E+06
C:/temp/Job-36.odb,Step-1,Increment      1: Step Time =    1.000,"P-36-1",           930,       18.4997,       109.809,            0.,NA,NA,"",   481.568E+03,  -546.966E+03,  -546.966E+03
C:/temp/Job-36.odb,Step-1,Increment      1: Step Time =    1.000,"P-36-1",           931,       35.7745,       36.5704,            0.,NA,NA,"",   1.36971E+06,   1.17144E+06,   1.17144E+06
C:/temp/Job-36.odb,Step-1,Increment      1: Step Time =    1.000,"P-36-1",           932,       164.815,       31.7273,            0.,NA,NA,"",   2.14524E+06,   2.02019E+06,   2.02019E+06
C:/temp/Job-36.odb,Step-1,Increment      1: Step Time =    1.000,"P-36-1",           933,       10.1346,       55.1661,            0.,NA,NA,"",   161.561E+03,   73.9750E+03,   73.9750E+03
C:/temp/Job-36.odb,Step-1,Increment      1: Step Time =    1.000,"P-36-1",           934,       54.4532,       190.373,            0.,NA,NA,"",   3.47776E+06,   3.39191E+06,   3.39191E+06
C:/temp/Job-36.odb,Step-1,Increment      1: Step Time =    1.000,"P-36-1",           935,       144.304,       9.42481,            0.,NA,NA,"",   863.710E+03,   800.374E+03,   800.374E+03
C:/temp/Job-36.odb,Step-1,Increment      1: Step Time =    1.000,"P-36-1",           936,       190.764,       144.396,            0.,NA,NA,"",   1.65797E+06,   1.75693E+06,   1.75693E+06
C:/temp/Job-36.odb,Step-1,Increment      1: Step Time =    1.000,"P-36-1",           937,       26.4425,       63.6635,            0.,NA,NA,"",   715.978E+03,  -724.905E+03,  -724.905E+03
C:/temp/Job-36.odb,Step-1,Increment      1: Step Time =    1.000,"P-36-1",           938,       25.4682,       137.461,            0.,NA,NA,"",   643.414E+03,  -648.589E+03,  -648.589E+03
C:/temp/Job-36.odb,Step-1,Increment      1: Step Time =    1.000,"P-36-1",           939,       62.8035,       172.313,            0.,NA,NA,"",   2.74159E+06,   2.35258E+06,   2.35258E+06
C:/temp/Job-36.odb,Step-1,Increment      1: Step Time =    1.000,"P-36-1",           940,       174.705,       60.9895,            0.,NA,NA,"",   2.42094E+06,   1.89998E+06,   1.89998E+06
C:/temp/Job-36.odb,Step-1,Increment      1: Step Time =    1.000,"P-36-1",           941,       45.2179,       31.4201,            0.,NA,NA,"",   1.97871E+06,   1.67421E+06,   1.67421E+06
C:/temp/Job-36.odb,Step-1,Increment      1: Step Time =    1.000,"P-36-1",           942,       153.333,       169.586,            0.,NA,NA,"",   2.52382E+06,   2.48586E+06,   2.48586E+06
C:/temp/Job-36.odb,Step-1,Increment      1: Step Time =    1.000,"P-36-1",           943,       35.1778,       172.121,            0.,NA,NA,"",   2.10653E+06,   1.98450E+06,   1.98450E+06
C:/temp/Job-36.odb,Step-1,Increment      1: Step Time =    1.000,"P-36-1",           944,       172.221,       165.980,            0.,NA,NA,"",   1.93839E+06,   1.81012E+06,   1.81012E+06
C:/temp/Job-36.odb,Step-1,Increment      1: Step Time =    1.000,"P-36-1",           945,       31.4298,       36.9924,            0.,NA,NA,"",   1.26986E+06,   1.15609E+06,   1.15609E+06
C:/temp/Job-36.odb,Step-1,Increment      1: Step Time =    1.000,"P-36-1",           946,       167.004,       27.7771,            0.,NA,NA,"",   1.87823E+06,   1.77858E+06,   1.77858E+06
C:/temp/Job-36.odb,Step-1,Increment      1: Step Time =    1.000,"P-36-1",           947,       169.016,       152.147,            0.,NA,NA,"",   2.47759E+06,   2.16300E+06,   2.16300E+06
C:/temp/Job-36.odb,Step-1,Increment      1: Step Time =    1.000,"P-36-1",           948,       149.877,       27.9537,            0.,NA,NA,"",   2.48293E+06,   2.47091E+06,   2.47091E+06
C:/temp/Job-36.odb,Step-1,Increment      1: Step Time =    1.000,"P-36-1",           949,       47.7602,       24.3521,            0.,NA,NA,"",   2.58793E+06,   2.33352E+06,   2.33352E+06
C:/temp/Job-36.odb,Step-1,Increment      1: Step Time =    1.000,"P-36-1",           950,       153.448,       176.084,            0.,NA,NA,"",   2.10368E+06,   2.05643E+06,   2.05643E+06
C:/temp/Job-36.odb,Step-1,Increment      1: Step Time =    1.000,"P-36-1",           951,       154.268,       25.4272,            0.,NA,NA,"",   2.18184E+06,   2.12603E+06,   2.12603E+06
C:/temp/Job-36.odb,Step-1,Increment      1: Step Time =    1.000,"P-36-1",           952,       174.414,       155.076,            0.,NA,NA,"",   2.23830E+06,   1.99744E+06,   1.99744E+06
C:/temp/Job-36.odb,Step-1,Increment      1: Step Time =    1.000,"P-36-1",           953,       168.034,       47.4750,            0.,NA,NA,"",   2.49348E+06,   2.18677E+06,   2.18677E+06
C:/temp/Job-36.odb,Step-1,Increment      1: Step Time =    1.000,"P-36-1",           954,       31.0764,       153.056,            0.,NA,NA,"",   583.946E+03,   36.0833E+03,   36.0833E+03
C:/temp/Job-36.odb,Step-1,Increment      1: Step Time =    1.000,"P-36-1",           955,       48.8483,       183.225,            0.,NA,NA,"",   3.09771E+06,   2.93604E+06,   2.93604E+06
C:/temp/Job-36.odb,Step-1,Increment      1: Step Time =    1.000,"P-36-1",           956,       185.108,       50.1121,            0.,NA,NA,"",   1.85344E+06,   1.77935E+06,   1.77935E+06
C:/temp/Job-36.odb,Step-1,Increment      1: Step Time =    1.000,"P-36-1",           957,       182.673,       149.641,            0.,NA,NA,"",   1.99729E+06,   1.86305E+06,   1.86305E+06
C:/temp/Job-36.odb,Step-1,Increment      1: Step Time =    1.000,"P-36-1",           958,       150.379,       185.182,            0.,NA,NA,"",   1.41717E+06,   1.36416E+06,   1.36416E+06
C:/temp/Job-36.odb,Step-1,Increment      1: Step Time =    1.000,"P-36-1",           959,       15.6440,       49.8158,            0.,NA,NA,"",   289.825E+03,   313.504E+03,   313.504E+03
C:/temp/Job-36.odb,Step-1,Increment      1: Step Time =    1.000,"P-36-1",           960,       51.0168,       14.7465,            0.,NA,NA,"",   3.21324E+06,   3.06875E+06,   3.06875E+06
C:/temp/Job-36.odb,Step-1,Increment      1: Step Time =    1.000,"P-36-1",           961,       148.318,       14.5114,            0.,NA,NA,"",   1.40670E+06,   1.35508E+06,   1.35508E+06
C:/temp/Job-36.odb,Step-1,Increment      1: Step Time =    1.000,"P-36-1",           962,       15.6264,       148.998,            0.,NA,NA,"",   243.900E+03,   253.525E+03,   253.525E+03
C:/temp/Job-36.odb,Step-1,Increment      1: Step Time =    1.000,"P-36-1",           963,       31.5002,       78.9431,            0.,NA,NA,"",   1.06169E+06,  -1.08703E+06,  -1.08703E+06
C:/temp/Job-36.odb,Step-1,Increment      1: Step Time =    1.000,"P-36-1",           964,       163.619,       9.53981,            0.,NA,NA,"",   968.754E+03,   921.159E+03,   921.159E+03
C:/temp/Job-36.odb,Step-1,Increment      1: Step Time =    1.000,"P-36-1",           965,       10.4351,       164.714,            0.,NA,NA,"",   1.21039E+06,   1.32776E+06,   1.32776E+06
C:/temp/Job-36.odb,Step-1,Increment      1: Step Time =    1.000,"P-36-1",           966,       35.4695,       9.31900,            0.,NA,NA,"",   3.64073E+06,   3.61480E+06,   3.61480E+06
C:/temp/Job-36.odb,Step-1,Increment      1: Step Time =    1.000,"P-36-1",           967,       9.24896,       35.9110,            0.,NA,NA,"",   1.15211E+06,   1.27302E+06,   1.27302E+06
C:/temp/Job-36.odb,Step-1,Increment      1: Step Time =    1.000,"P-36-1",           968,       189.331,       164.502,            0.,NA,NA,"",   1.23116E+06,   1.23894E+06,   1.23894E+06
C:/temp/Job-36.odb,Step-1,Increment      1: Step Time =    1.000,"P-36-1",           969,       164.512,       190.635,            0.,NA,NA,"",   948.947E+03,   904.527E+03,   904.527E+03
C:/temp/Job-36.odb,Step-1,Increment      1: Step Time =    1.000,"P-36-1",           970,       35.4771,       189.754,            0.,NA,NA,"",   3.56314E+06,   3.53420E+06,   3.53420E+06
C:/temp/Job-36.odb,Step-1,Increment      1: Step Time =    1.000,"P-36-1",           971,       190.320,       35.3580,            0.,NA,NA,"",   1.18839E+06,   1.20388E+06,   1.20388E+06
C:/temp/Job-36.odb,Step-1,Increment      1: Step Time =    1.000,"P-36-1",           972,       163.570,       14.0023,            0.,NA,NA,"",   1.23673E+06,   1.17329E+06,   1.17329E+06
C:/temp/Job-36.odb,Step-1,Increment      1: Step Time =    1.000,"P-36-1",           973,       15.7536,       164.832,            0.,NA,NA,"",   1.27082E+06,   1.35504E+06,   1.35504E+06
C:/temp/Job-36.odb,Step-1,Increment      1: Step Time =    1.000,"P-36-1",           974,       35.7491,       13.6803,            0.,NA,NA,"",   3.27953E+06,   3.23161E+06,   3.23161E+06
C:/temp/Job-36.odb,Step-1,Increment      1: Step Time =    1.000,"P-36-1",           975,       13.5686,       36.5882,            0.,NA,NA,"",   1.12733E+06,   1.22390E+06,   1.22390E+06
C:/temp/Job-36.odb,Step-1,Increment      1: Step Time =    1.000,"P-36-1",           976,       184.574,       165.222,            0.,NA,NA,"",   1.41200E+06,   1.38637E+06,   1.38637E+06
C:/temp/Job-36.odb,Step-1,Increment      1: Step Time =    1.000,"P-36-1",           977,       164.246,       186.069,            0.,NA,NA,"",   1.22138E+06,   1.16116E+06,   1.16116E+06
C:/temp/Job-36.odb,Step-1,Increment      1: Step Time =    1.000,"P-36-1",           978,       35.0029,       185.256,            0.,NA,NA,"",   3.18939E+06,   3.14429E+06,   3.14429E+06
C:/temp/Job-36.odb,Step-1,Increment      1: Step Time =    1.000,"P-36-1",           979,       185.537,       35.5007,            0.,NA,NA,"",   1.38055E+06,   1.36388E+06,   1.36388E+06
C:/temp/Job-36.odb,Step-1,Increment      1: Step Time =    1.000,"P-36-1",           980,       28.5602,       57.2846,            0.,NA,NA,"",   581.635E+03,  -569.259E+03,  -569.259E+03
C:/temp/Job-36.odb,Step-1,Increment      1: Step Time =    1.000,"P-36-1",           981,       30.9922,       141.489,            0.,NA,NA,"",   756.949E+03,  -765.718E+03,  -765.718E+03
C:/temp/Job-36.odb,Step-1,Increment      1: Step Time =    1.000,"P-36-1",           982,       170.542,       59.8293,            0.,NA,NA,"",   2.36515E+06,   1.81094E+06,   1.81094E+06
C:/temp/Job-36.odb,Step-1,Increment      1: Step Time =    1.000,"P-36-1",           983,       59.4728,       175.358,            0.,NA,NA,"",   2.87864E+06,   2.52570E+06,   2.52570E+06
C:/temp/Job-36.odb,Step-1,Increment      1: Step Time =    1.000,"P-36-1",           984,       153.980,       9.86558,            0.,NA,NA,"",   956.780E+03,   891.097E+03,   891.097E+03
C:/temp/Job-36.odb,Step-1,Increment      1: Step Time =    1.000,"P-36-1",           985,       190.436,       153.747,            0.,NA,NA,"",   1.38405E+06,   1.44522E+06,   1.44522E+06
C:/temp/Job-36.odb,Step-1,Increment      1: Step Time =    1.000,"P-36-1",           986,       46.0708,       191.185,            0.,NA,NA,"",   3.61545E+06,   3.57319E+06,   3.57319E+06
C:/temp/Job-36.odb,Step-1,Increment      1: Step Time =    1.000,"P-36-1",           987,       9.39938,       45.4135,            0.,NA,NA,"",   523.606E+03,    594.17E+03,    594.17E+03
C:/temp/Job-36.odb,Step-1,Increment      1: Step Time =    1.000,"P-36-1",           988,       39.3343,       173.488,            0.,NA,NA,"",   2.26542E+06,   2.10025E+06,   2.10025E+06
C:/temp/Job-36.odb,Step-1,Increment      1: Step Time =    1.000,"P-36-1",           989,       26.2025,       40.6090,            0.,NA,NA,"",   918.547E+03,   883.474E+03,   883.474E+03
C:/temp/Job-36.odb,Step-1,Increment      1: Step Time =    1.000,"P-36-1",           990,       157.386,       27.6824,            0.,NA,NA,"",   2.19676E+06,   2.11767E+06,   2.11767E+06
C:/temp/Job-36.odb,Step-1,Increment      1: Step Time =    1.000,"P-36-1",           991,       27.1115,       148.566,            0.,NA,NA,"",   423.621E+03,  -100.166E+03,  -100.166E+03
C:/temp/Job-36.odb,Step-1,Increment      1: Step Time =    1.000,"P-36-1",           992,       171.261,       49.9989,            0.,NA,NA,"",   2.44121E+06,   2.10040E+06,   2.10040E+06
C:/temp/Job-36.odb,Step-1,Increment      1: Step Time =    1.000,"P-36-1",           993,       43.5359,       26.2677,            0.,NA,NA,"",   2.38454E+06,   2.16584E+06,   2.16584E+06
C:/temp/Job-36.odb,Step-1,Increment      1: Step Time =    1.000,"P-36-1",           994,       157.382,       173.204,            0.,NA,NA,"",   2.17497E+06,   2.10190E+06,   2.10190E+06
C:/temp/Job-36.odb,Step-1,Increment      1: Step Time =    1.000,"P-36-1",           995,       151.848,       19.8618,            0.,NA,NA,"",   1.84389E+06,   1.79400E+06,   1.79400E+06
C:/temp/Job-36.odb,Step-1,Increment      1: Step Time =    1.000,"P-36-1",           996,       178.417,       150.602,            0.,NA,NA,"",   2.19832E+06,   1.96024E+06,   1.96024E+06
C:/temp/Job-36.odb,Step-1,Increment      1: Step Time =    1.000,"P-36-1",           997,       173.906,       46.5977,            0.,NA,NA,"",   2.30354E+06,   2.03328E+06,   2.03328E+06
C:/temp/Job-36.odb,Step-1,Increment      1: Step Time =    1.000,"P-36-1",           998,       27.0922,       156.175,            0.,NA,NA,"",   681.365E+03,   607.268E+03,   607.268E+03
C:/temp/Job-36.odb,Step-1,Increment      1: Step Time =    1.000,"P-36-1",           999,       190.174,       45.1703,            0.,NA,NA,"",   1.37070E+06,   1.42264E+06,   1.42264E+06
C:/temp/Job-36.odb,Step-1,Increment      1: Step Time =    1.000,"P-36-1",          1000,       154.921,       190.447,            0.,NA,NA,"",   930.989E+03,   870.163E+03,   870.163E+03
C:/temp/Job-36.odb,Step-1,Increment      1: Step Time =    1.000,"P-36-1",          1001,       45.3253,       9.53805,            0.,NA,NA,"",   3.57056E+06,   3.52193E+06,   3.52193E+06
C:/temp/Job-36.odb,Step-1,Increment      1: Step Time =    1.000,"P-36-1",          1002,       10.5020,       154.531,            0.,NA,NA,"",   516.098E+03,   584.022E+03,   584.022E+03
C:/temp/Job-36.odb,Step-1,Increment      1: Step Time =    1.000,"P-36-1",          1003,       184.332,       154.138,            0.,NA,NA,"",   1.74960E+06,   1.68386E+06,   1.68386E+06
C:/temp/Job-36.odb,Step-1,Increment      1: Step Time =    1.000,"P-36-1",          1004,       15.3537,       169.830,            0.,NA,NA,"",   1.68251E+06,   1.78331E+06,   1.78331E+06
C:/temp/Job-36.odb,Step-1,Increment      1: Step Time =    1.000,"P-36-1",          1005,       169.485,       17.7317,            0.,NA,NA,"",   1.35961E+06,   1.29757E+06,   1.29757E+06
C:/temp/Job-36.odb,Step-1,Increment      1: Step Time =    1.000,"P-36-1",          1006,       19.4974,       30.1923,            0.,NA,NA,"",   1.71946E+06,   1.77547E+06,   1.77547E+06
C:/temp/Job-36.odb,Step-1,Increment      1: Step Time =    1.000,"P-36-1",          1007,       31.0101,       13.9513,            0.,NA,NA,"",   3.26367E+06,   3.23497E+06,   3.23497E+06
C:/temp/Job-36.odb,Step-1,Increment      1: Step Time =    1.000,"P-36-1",          1008,       181.197,       170.374,            0.,NA,NA,"",   1.41464E+06,   1.37592E+06,   1.37592E+06
C:/temp/Job-36.odb,Step-1,Increment      1: Step Time =    1.000,"P-36-1",          1009,       168.758,       185.904,            0.,NA,NA,"",   1.19215E+06,   1.14049E+06,   1.14049E+06
C:/temp/Job-36.odb,Step-1,Increment      1: Step Time =    1.000,"P-36-1",          1010,       30.3420,       184.945,            0.,NA,NA,"",   3.16994E+06,   3.14096E+06,   3.14096E+06
C:/temp/Job-36.odb,Step-1,Increment      1: Step Time =    1.000,"P-36-1",          1011,       185.614,       30.7435,            0.,NA,NA,"",   1.29091E+06,   1.27360E+06,   1.27360E+06
C:/temp/Job-36.odb,Step-1,Increment      1: Step Time =    1.000,"P-36-1",          1012,       23.5575,       56.0294,            0.,NA,NA,"",   364.578E+03,  -315.806E+03,  -315.806E+03
C:/temp/Job-36.odb,Step-1,Increment      1: Step Time =    1.000,"P-36-1",          1013,       174.825,       52.3354,            0.,NA,NA,"",   2.38767E+06,   2.04287E+06,   2.04287E+06
C:/temp/Job-36.odb,Step-1,Increment      1: Step Time =    1.000,"P-36-1",          1014,       54.0898,       174.533,            0.,NA,NA,"",   2.66231E+06,   2.33049E+06,   2.33049E+06
C:/temp/Job-36.odb,Step-1,Increment      1: Step Time =    1.000,"P-36-1",          1015,       30.6670,       174.228,            0.,NA,NA,"",   2.22562E+06,   2.15940E+06,   2.15940E+06
C:/temp/Job-36.odb,Step-1,Increment      1: Step Time =    1.000,"P-36-1",          1016,       44.3527,       170.115,            0.,NA,NA,"",   2.06285E+06,   1.78573E+06,   1.78573E+06
C:/temp/Job-36.odb,Step-1,Increment      1: Step Time =    1.000,"P-36-1",          1017,       175.170,       163.860,            0.,NA,NA,"",   1.89632E+06,   1.76922E+06,   1.76922E+06
C:/temp/Job-36.odb,Step-1,Increment      1: Step Time =    1.000,"P-36-1",          1018,       26.9157,       36.4093,            0.,NA,NA,"",   1.25540E+06,   1.21698E+06,   1.21698E+06
C:/temp/Job-36.odb,Step-1,Increment      1: Step Time =    1.000,"P-36-1",          1019,       28.1862,       46.7894,            0.,NA,NA,"",   534.688E+03,   287.006E+03,   287.006E+03
C:/temp/Job-36.odb,Step-1,Increment      1: Step Time =    1.000,"P-36-1",          1020,       166.999,       20.1075,            0.,NA,NA,"",   1.52641E+06,   1.45352E+06,   1.45352E+06
C:/temp/Job-36.odb,Step-1,Increment      1: Step Time =    1.000,"P-36-1",          1021,       26.2154,       162.178,            0.,NA,NA,"",   1.16623E+06,   1.13947E+06,   1.13947E+06
C:/temp/Job-36.odb,Step-1,Increment      1: Step Time =    1.000,"P-36-1",          1022,       185.475,       45.1213,            0.,NA,NA,"",   1.66436E+06,   1.62264E+06,   1.62264E+06
C:/temp/Job-36.odb,Step-1,Increment      1: Step Time =    1.000,"P-36-1",          1023,       155.106,       185.811,            0.,NA,NA,"",   1.33107E+06,   1.26521E+06,   1.26521E+06
C:/temp/Job-36.odb,Step-1,Increment      1: Step Time =    1.000,"P-36-1",          1024,       45.3978,       14.3485,            0.,NA,NA,"",   3.23181E+06,   3.13638E+06,   3.13638E+06
C:/temp/Job-36.odb,Step-1,Increment      1: Step Time =    1.000,"P-36-1",          1025,       15.7947,       154.195,            0.,NA,NA,"",   490.908E+03,   537.407E+03,   537.407E+03
C:/temp/Job-36.odb,Step-1,Increment      1: Step Time =    1.000,"P-36-1",          1026,       25.0022,       152.942,            0.,NA,NA,"",   475.630E+03,   417.304E+03,   417.304E+03
C:/temp/Job-36.odb,Step-1,Increment      1: Step Time =    1.000,"P-36-1",          1027,       176.749,       48.6522,            0.,NA,NA,"",   2.25328E+06,   1.99218E+06,   1.99218E+06
C:/temp/Job-36.odb,Step-1,Increment      1: Step Time =    1.000,"P-36-1",          1028,       22.3803,       47.7766,            0.,NA,NA,"",   406.007E+03,   377.941E+03,   377.941E+03
C:/temp/Job-36.odb,Step-1,Increment      1: Step Time =    1.000,"P-36-1",          1029,       48.8389,       174.636,            0.,NA,NA,"",   2.54026E+06,   2.26018E+06,   2.26018E+06
C:/temp/Job-36.odb,Step-1,Increment      1: Step Time =    1.000,"P-36-1",          1030,       187.092,       152.326,            0.,NA,NA,"",   1.62292E+06,   1.61868E+06,   1.61868E+06
C:/temp/Job-36.odb,Step-1,Increment      1: Step Time =    1.000,"P-36-1",          1031,       153.226,       15.0300,            0.,NA,NA,"",   1.42493E+06,   1.36049E+06,   1.36049E+06
C:/temp/Job-36.odb,Step-1,Increment      1: Step Time =    1.000,"P-36-1",          1032,       20.8016,       165.288,            0.,NA,NA,"",   1.35312E+06,   1.39104E+06,   1.39104E+06
C:/temp/Job-36.odb,Step-1,Increment      1: Step Time =    1.000,"P-36-1",          1033,       174.585,       16.1620,            0.,NA,NA,"",   1.20385E+06,   1.16264E+06,   1.16264E+06
C:/temp/Job-36.odb,Step-1,Increment      1: Step Time =    1.000,"P-36-1",          1034,       14.6401,       174.131,            0.,NA,NA,"",   2.04991E+06,   2.15578E+06,   2.15578E+06
C:/temp/Job-36.odb,Step-1,Increment      1: Step Time =    1.000,"P-36-1",          1035,       15.4690,       28.2253,            0.,NA,NA,"",   1.84160E+06,   1.93915E+06,   1.93915E+06
C:/temp/Job-36.odb,Step-1,Increment      1: Step Time =    1.000,"P-36-1",          1036,       26.0832,       14.3908,            0.,NA,NA,"",   3.22722E+06,   3.21979E+06,   3.21979E+06
C:/temp/Job-36.odb,Step-1,Increment      1: Step Time =    1.000,"P-36-1",          1037,       36.1526,       17.6837,            0.,NA,NA,"",   2.96584E+06,   2.89190E+06,   2.89190E+06
C:/temp/Job-36.odb,Step-1,Increment      1: Step Time =    1.000,"P-36-1",          1038,       18.4790,       33.8324,            0.,NA,NA,"",   1.39535E+06,   1.46020E+06,   1.46020E+06
C:/temp/Job-36.odb,Step-1,Increment      1: Step Time =    1.000,"P-36-1",          1039,       173.504,       185.535,            0.,NA,NA,"",   1.16407E+06,   1.12340E+06,   1.12340E+06
C:/temp/Job-36.odb,Step-1,Increment      1: Step Time =    1.000,"P-36-1",          1040,       180.417,       166.183,            0.,NA,NA,"",   1.57754E+06,   1.51491E+06,   1.51491E+06
C:/temp/Job-36.odb,Step-1,Increment      1: Step Time =    1.000,"P-36-1",          1041,       163.886,       181.450,            0.,NA,NA,"",   1.49711E+06,   1.42490E+06,   1.42490E+06
C:/temp/Job-36.odb,Step-1,Increment      1: Step Time =    1.000,"P-36-1",          1042,       25.4134,       184.689,            0.,NA,NA,"",   3.13459E+06,   3.13123E+06,   3.13123E+06
C:/temp/Job-36.odb,Step-1,Increment      1: Step Time =    1.000,"P-36-1",          1043,       185.680,       25.9418,            0.,NA,NA,"",   1.22121E+06,   1.19999E+06,   1.19999E+06
C:/temp/Job-36.odb,Step-1,Increment      1: Step Time =    1.000,"P-36-1",          1044,       180.691,       35.6553,            0.,NA,NA,"",   1.60581E+06,   1.53958E+06,   1.53958E+06
C:/temp/Job-36.odb,Step-1,Increment      1: Step Time =    1.000,"P-36-1",          1045,       171.220,       37.6930,            0.,NA,NA,"",   2.09282E+06,   1.92730E+06,   1.92730E+06
C:/temp/Job-36.odb,Step-1,Increment      1: Step Time =    1.000,"P-36-1",          1046,       31.7621,       163.378,            0.,NA,NA,"",   1.33086E+06,   1.21709E+06,   1.21709E+06
C:/temp/Job-36.odb,Step-1,Increment      1: Step Time =    1.000,"P-36-1",          1047,       37.9738,       21.6905,            0.,NA,NA,"",   2.66133E+06,   2.54353E+06,   2.54353E+06
C:/temp/Job-36.odb,Step-1,Increment      1: Step Time =    1.000,"P-36-1",          1048,       25.0597,       165.659,            0.,NA,NA,"",   1.42049E+06,   1.41093E+06,   1.41093E+06
C:/temp/Job-36.odb,Step-1,Increment      1: Step Time =    1.000,"P-36-1",          1049,       175.396,       35.8185,            0.,NA,NA,"",   1.86725E+06,   1.74494E+06,   1.74494E+06
C:/temp/Job-36.odb,Step-1,Increment      1: Step Time =    1.000,"P-36-1",          1050,       162.783,       176.025,            0.,NA,NA,"",   1.82926E+06,   1.74161E+06,   1.74161E+06
C:/temp/Job-36.odb,Step-1,Increment      1: Step Time =    1.000,"P-36-1",          1051,       18.9100,       46.0561,            0.,NA,NA,"",   483.787E+03,   514.255E+03,   514.255E+03
C:/temp/Job-36.odb,Step-1,Increment      1: Step Time =    1.000,"P-36-1",          1052,       48.5329,       179.503,            0.,NA,NA,"",   2.88436E+06,   2.67202E+06,   2.67202E+06
C:/temp/Job-36.odb,Step-1,Increment      1: Step Time =    1.000,"P-36-1",          1053,       158.582,       15.9117,            0.,NA,NA,"",   1.42866E+06,   1.35760E+06,   1.35760E+06
C:/temp/Job-36.odb,Step-1,Increment      1: Step Time =    1.000,"P-36-1",          1054,       16.0502,       159.509,            0.,NA,NA,"",   857.278E+03,   923.598E+03,   923.598E+03
C:/temp/Job-36.odb,Step-1,Increment      1: Step Time =    1.000,"P-36-1",          1055,       177.441,       22.1468,            0.,NA,NA,"",   1.34604E+06,   1.30096E+06,   1.30096E+06
C:/temp/Job-36.odb,Step-1,Increment      1: Step Time =    1.000,"P-36-1",          1056,       173.308,       10.0670,            0.,NA,NA,"",   992.240E+03,   963.217E+03,   963.217E+03
C:/temp/Job-36.odb,Step-1,Increment      1: Step Time =    1.000,"P-36-1",          1057,       40.4232,       13.8246,            0.,NA,NA,"",   3.26338E+06,   3.19413E+06,   3.19413E+06
C:/temp/Job-36.odb,Step-1,Increment      1: Step Time =    1.000,"P-36-1",          1058,       26.9114,       18.9990,            0.,NA,NA,"",    2.8199E+06,   2.80202E+06,   2.80202E+06
C:/temp/Job-36.odb,Step-1,Increment      1: Step Time =    1.000,"P-36-1",          1059,       21.2191,       26.9339,            0.,NA,NA,"",   2.02560E+06,   2.06164E+06,   2.06164E+06
C:/temp/Job-36.odb,Step-1,Increment      1: Step Time =    1.000,"P-36-1",          1060,       13.2208,       40.7447,            0.,NA,NA,"",   822.918E+03,   906.843E+03,   906.843E+03
C:/temp/Job-36.odb,Step-1,Increment      1: Step Time =    1.000,"P-36-1",          1061,       10.7221,       26.4116,            0.,NA,NA,"",   1.91720E+06,   2.06359E+06,   2.06359E+06
C:/temp/Job-36.odb,Step-1,Increment      1: Step Time =    1.000,"P-36-1",          1062,       182.828,       160.471,            0.,NA,NA,"",   1.64371E+06,   1.57639E+06,   1.57639E+06
C:/temp/Job-36.odb,Step-1,Increment      1: Step Time =    1.000,"P-36-1",          1063,       159.770,       186.135,            0.,NA,NA,"",   1.26377E+06,   1.19716E+06,   1.19716E+06
C:/temp/Job-36.odb,Step-1,Increment      1: Step Time =    1.000,"P-36-1",          1064,       190.155,       174.836,            0.,NA,NA,"",   1.11925E+06,   1.09729E+06,   1.09729E+06
C:/temp/Job-36.odb,Step-1,Increment      1: Step Time =    1.000,"P-36-1",          1065,       181.244,       174.601,            0.,NA,NA,"",   1.30836E+06,   1.27711E+06,   1.27711E+06
C:/temp/Job-36.odb,Step-1,Increment      1: Step Time =    1.000,"P-36-1",          1066,       175.999,       181.022,            0.,NA,NA,"",   1.27686E+06,   1.23406E+06,   1.23406E+06
C:/temp/Job-36.odb,Step-1,Increment      1: Step Time =    1.000,"P-36-1",          1067,       185.563,       40.2894,            0.,NA,NA,"",   1.50341E+06,   1.47985E+06,   1.47985E+06
C:/temp/Job-36.odb,Step-1,Increment      1: Step Time =    1.000,"P-36-1",          1068,       35.6914,       181.590,            0.,NA,NA,"",   2.89324E+06,   2.81669E+06,   2.81669E+06
C:/temp/Job-36.odb,Step-1,Increment      1: Step Time =    1.000,"P-36-1",          1069,       25.1981,       189.744,            0.,NA,NA,"",   3.58723E+06,   3.58292E+06,   3.58292E+06
C:/temp/Job-36.odb,Step-1,Increment      1: Step Time =    1.000,"P-36-1",          1070,       25.9403,       180.058,            0.,NA,NA,"",   2.71271E+06,   2.70769E+06,   2.70769E+06
C:/temp/Job-36.odb,Step-1,Increment      1: Step Time =    1.000,"P-36-1",          1071,       171.698,       34.2474,            0.,NA,NA,"",   1.95507E+06,   1.82273E+06,   1.82273E+06
C:/temp/Job-36.odb,Step-1,Increment      1: Step Time =    1.000,"P-36-1",          1072,       28.0324,       164.702,            0.,NA,NA,"",   1.40212E+06,   1.34879E+06,   1.34879E+06
C:/temp/Job-36.odb,Step-1,Increment      1: Step Time =    1.000,"P-36-1",          1073,       29.9462,       27.6356,            0.,NA,NA,"",   2.04761E+06,   1.98973E+06,   1.98973E+06
C:/temp/Job-36.odb,Step-1,Increment      1: Step Time =    1.000,"P-36-1",          1074,       168.026,       176.773,            0.,NA,NA,"",   1.63253E+06,   1.55189E+06,   1.55189E+06
C:/temp/Job-36.odb,Step-1,Increment      1: Step Time =    1.000,"P-36-1",          1075,       171.403,       30.1340,            0.,NA,NA,"",   1.82965E+06,   1.72457E+06,   1.72457E+06
C:/temp/Job-36.odb,Step-1,Increment      1: Step Time =    1.000,"P-36-1",          1076,       26.4529,       170.143,            0.,NA,NA,"",   1.80482E+06,   1.77513E+06,   1.77513E+06
C:/temp/Job-36.odb,Step-1,Increment      1: Step Time =    1.000,"P-36-1",          1077,       15.3323,       177.453,            0.,NA,NA,"",   2.36739E+06,   2.46722E+06,   2.46722E+06
C:/temp/Job-36.odb,Step-1,Increment      1: Step Time =    1.000,"P-36-1",          1078,       176.754,       18.8532,            0.,NA,NA,"",   1.25829E+06,   1.21736E+06,   1.21736E+06
C:/temp/Job-36.odb,Step-1,Increment      1: Step Time =    1.000,"P-36-1",          1079,       21.0408,       14.7247,            0.,NA,NA,"",   3.19799E+06,   3.21610E+06,   3.21610E+06
C:/temp/Job-36.odb,Step-1,Increment      1: Step Time =    1.000,"P-36-1",          1080,       17.5436,       24.2012,            0.,NA,NA,"",   2.22812E+06,   2.30269E+06,   2.30269E+06
C:/temp/Job-36.odb,Step-1,Increment      1: Step Time =    1.000,"P-36-1",          1081,       178.935,       184.109,            0.,NA,NA,"",   1.14951E+06,   1.11867E+06,   1.11867E+06
C:/temp/Job-36.odb,Step-1,Increment      1: Step Time =    1.000,"P-36-1",          1082,       185.575,       21.0543,            0.,NA,NA,"",   1.15965E+06,   1.13505E+06,   1.13505E+06
C:/temp/Job-36.odb,Step-1,Increment      1: Step Time =    1.000,"P-36-1",          1083,       19.9623,       184.101,            0.,NA,NA,"",   3.07807E+06,   3.10588E+06,   3.10588E+06
C:/temp/Job-36.odb,Step-1,Increment      1: Step Time =    1.000,"P-36-1",          1084,       24.4430,       44.2298,            0.,NA,NA,"",   634.762E+03,   608.899E+03,   608.899E+03
C:/temp/Job-36.odb,Step-1,Increment      1: Step Time =    1.000,"P-36-1",          1085,       45.4374,       185.166,            0.,NA,NA,"",   3.20552E+06,   3.09171E+06,   3.09171E+06
C:/temp/Job-36.odb,Step-1,Increment      1: Step Time =    1.000,"P-36-1",          1086,       16.5111,       44.1304,            0.,NA,NA,"",   587.037E+03,   641.124E+03,   641.124E+03
C:/temp/Job-36.odb,Step-1,Increment      1: Step Time =    1.000,"P-36-1",          1087,       20.8498,       153.656,            0.,NA,NA,"",   478.461E+03,   479.823E+03,   479.823E+03
C:/temp/Job-36.odb,Step-1,Increment      1: Step Time =    1.000,"P-36-1",          1088,       151.260,       180.352,            0.,NA,NA,"",   1.81913E+06,   1.77623E+06,   1.77623E+06
C:/temp/Job-36.odb,Step-1,Increment      1: Step Time =    1.000,"P-36-1",          1089,       49.3598,       18.7346,            0.,NA,NA,"",   2.97535E+06,   2.78403E+06,   2.78403E+06
C:/temp/Job-36.odb,Step-1,Increment      1: Step Time =    1.000,"P-36-1",          1090,       172.502,       177.343,            0.,NA,NA,"",   1.48297E+06,   1.41912E+06,   1.41912E+06
C:/temp/Job-36.odb,Step-1,Increment      1: Step Time =    1.000,"P-36-1",          1091,       173.008,       173.686,            0.,NA,NA,"",   1.60382E+06,   1.52807E+06,   1.52807E+06
C:/temp/Job-36.odb,Step-1,Increment      1: Step Time =    1.000,"P-36-1",          1092,       176.930,       26.1872,            0.,NA,NA,"",   1.47824E+06,   1.42169E+06,   1.42169E+06
C:/temp/Job-36.odb,Step-1,Increment      1: Step Time =    1.000,"P-36-1",          1093,       27.2919,       175.660,            0.,NA,NA,"",   2.32025E+06,   2.29520E+06,   2.29520E+06
C:/temp/Job-36.odb,Step-1,Increment      1: Step Time =    1.000,"P-36-1",          1094,       23.1948,       175.276,            0.,NA,NA,"",   2.23580E+06,   2.24691E+06,   2.24691E+06
C:/temp/Job-36.odb,Step-1,Increment      1: Step Time =    1.000,"P-36-1",          1095,       174.477,       21.5334,            0.,NA,NA,"",   1.39943E+06,   1.34423E+06,   1.34423E+06
C:/temp/Job-36.odb,Step-1,Increment      1: Step Time =    1.000,"P-36-1",          1096,       28.4794,       23.3454,            0.,NA,NA,"",   2.42618E+06,   2.39182E+06,   2.39182E+06
C:/temp/Job-36.odb,Step-1,Increment      1: Step Time =    1.000,"P-36-1",          1097,       23.6245,       29.0543,            0.,NA,NA,"",   1.87057E+06,    1.8793E+06,    1.8793E+06
C:/temp/Job-36.odb,Step-1,Increment      1: Step Time =    1.000,"P-36-1",          1098,       14.5536,       181.959,            0.,NA,NA,"",   2.78963E+06,   2.89267E+06,   2.89267E+06
C:/temp/Job-36.odb,Step-1,Increment      1: Step Time =    1.000,"P-36-1",          1099,       16.3862,       18.4885,            0.,NA,NA,"",   2.78240E+06,   2.85919E+06,   2.85919E+06
C:/temp/Job-36.odb,Step-1,Increment      1: Step Time =    1.000,"P-36-1",          1100,       180.575,       16.9961,            0.,NA,NA,"",   1.15619E+06,   1.12716E+06,   1.12716E+06
C:/temp/Job-36.odb,Step-1,Increment      1: Step Time =    1.000,"P-36-1",          1101,       14.8258,       185.353,            0.,NA,NA,"",   3.14249E+06,   3.22047E+06,   3.22047E+06
C:/temp/Job-36.odb,Step-1,Increment      1: Step Time =    1.000,"P-36-1",          1102,       185.232,       179.631,            0.,NA,NA,"",   1.14276E+06,   1.11974E+06,   1.11974E+06
C:/temp/Job-36.odb,Step-1,Increment      1: Step Time =    1.000,"P-36-1",          1103,       34.2023,       27.1168,            0.,NA,NA,"",   2.15485E+06,   2.04439E+06,   2.04439E+06
C:/temp/Job-36.odb,Step-1,Increment      1: Step Time =    1.000,"P-36-1",          1104,       164.545,       171.109,            0.,NA,NA,"",   2.03573E+06,   1.92492E+06,   1.92492E+06
C:/temp/Job-36.odb,Step-1,Increment      1: Step Time =    1.000,"P-36-1",          1105,       33.6335,       176.084,            0.,NA,NA,"",   2.39979E+06,   2.31004E+06,   2.31004E+06
C:/temp/Job-36.odb,Step-1,Increment      1: Step Time =    1.000,"P-36-1",          1106,       22.5783,       35.2752,            0.,NA,NA,"",   1.31432E+06,   1.33416E+06,   1.33416E+06
C:/temp/Job-36.odb,Step-1,Increment      1: Step Time =    1.000,"P-36-1",          1107,       48.5556,       188.195,            0.,NA,NA,"",   3.40566E+06,   3.32338E+06,   3.32338E+06
C:/temp/Job-36.odb,Step-1,Increment      1: Step Time =    1.000,"P-36-1",          1108,       13.5792,       45.0682,            0.,NA,NA,"",   538.128E+03,   601.930E+03,   601.930E+03
C:/temp/Job-36.odb,Step-1,Increment      1: Step Time =    1.000,"P-36-1",          1109,       26.2754,       28.3194,            0.,NA,NA,"",   1.94961E+06,   1.92848E+06,   1.92848E+06
C:/temp/Job-36.odb,Step-1,Increment      1: Step Time =    1.000,"P-36-1",          1110,       168.820,       172.695,            0.,NA,NA,"",   1.80080E+06,   1.70226E+06,   1.70226E+06
C:/temp/Job-36.odb,Step-1,Increment      1: Step Time =    1.000,"P-36-1",          1111,       168.881,       23.2732,            0.,NA,NA,"",   1.62216E+06,   1.54487E+06,   1.54487E+06
C:/temp/Job-36.odb,Step-1,Increment      1: Step Time =    1.000,"P-36-1",          1112,       31.1510,       171.045,            0.,NA,NA,"",   1.97437E+06,   1.89198E+06,   1.89198E+06
C:/temp/Job-36.odb,Step-1,Increment      1: Step Time =    1.000,"P-36-1",          1113,       181.299,       21.6291,            0.,NA,NA,"",   1.25027E+06,   1.21828E+06,   1.21828E+06
C:/temp/Job-36.odb,Step-1,Increment      1: Step Time =    1.000,"P-36-1",          1114,       180.704,       179.020,            0.,NA,NA,"",   1.22963E+06,   1.19914E+06,   1.19914E+06
C:/temp/Job-36.odb,Step-1,Increment      1: Step Time =    1.000,"P-36-1",          1115,       10.9987,       15.2149,            0.,NA,NA,"",   3.02330E+06,   3.16360E+06,   3.16360E+06
C:/temp/Job-36.odb,Step-1,Increment      1: Step Time =    1.000,"P-36-1",          1116,       184.507,       10.9364,            0.,NA,NA,"",   1.00951E+06,   992.227E+03,   992.227E+03
C:/temp/Job-36.odb,Step-1,Increment      1: Step Time =    1.000,"P-36-1",          1117,       15.0688,       189.965,            0.,NA,NA,"",   3.60822E+06,   3.64626E+06,   3.64626E+06
C:/temp/Job-36.odb,Step-1,Increment      1: Step Time =    1.000,"P-36-1",          1118,       189.897,       184.809,            0.,NA,NA,"",   1.05148E+06,   1.02489E+06,   1.02489E+06
C:/temp/Job-36.odb,Step-1,Increment      1: Step Time =    1.000,"P-36-1",          1119,       42.2582,       22.5188,            0.,NA,NA,"",   2.63629E+06,   2.47166E+06,   2.47166E+06
C:/temp/Job-36.odb,Step-1,Increment      1: Step Time =    1.000,"P-36-1",          1120,       167.304,       37.1998,            0.,NA,NA,"",   2.24152E+06,   2.06896E+06,   2.06896E+06
C:/temp/Job-36.odb,Step-1,Increment      1: Step Time =    1.000,"P-36-1",          1121,       36.1979,       167.797,            0.,NA,NA,"",   1.76306E+06,   1.60371E+06,   1.60371E+06
C:/temp/Job-36.odb,Step-1,Increment      1: Step Time =    1.000,"P-36-1",          1122,       166.730,       166.999,            0.,NA,NA,"",   2.13146E+06,   1.99377E+06,   1.99377E+06
C:/temp/Job-36.odb,Step-1,Increment      1: Step Time =    1.000,"P-36-1",          1123,       35.0846,       31.7683,            0.,NA,NA,"",   1.77656E+06,   1.62905E+06,   1.62905E+06
C:/temp/Job-36.odb,Step-1,Increment      1: Step Time =    1.000,"P-36-1",          1124,       184.695,       184.605,            0.,NA,NA,"",   1.07981E+06,   1.05723E+06,   1.05723E+06
C:/temp/Job-36.odb,Step-1,Increment      1: Step Time =    1.000,"P-36-1",          1125,       185.125,       16.0425,            0.,NA,NA,"",   1.09027E+06,   1.06654E+06,   1.06654E+06
C:/temp/Job-36.odb,Step-1,Increment      1: Step Time =    1.000,"P-36-1",          1126,       15.9855,       14.5932,            0.,NA,NA,"",   3.15990E+06,   3.21922E+06,   3.21922E+06
C:/temp/Job-36.odb,Step-1,Increment      1: Step Time =    1.000,"P-36-1",          1127,       26.9772,       32.2627,            0.,NA,NA,"",   1.62015E+06,   1.58526E+06,   1.58526E+06
C:/temp/Job-36.odb,Step-1,Increment      1: Step Time =    1.000,"P-36-1",          1128,       173.669,       170.385,            0.,NA,NA,"",   1.71314E+06,   1.62241E+06,   1.62241E+06
C:/temp/Job-36.odb,Step-1,Increment      1: Step Time =    1.000,"P-36-1",          1129,       189.995,       15.5493,            0.,NA,NA,"",   1.05680E+06,   1.02910E+06,   1.02910E+06
C:/temp/Job-36.odb,Step-1,Increment      1: Step Time =    1.000,"P-36-1",          1130,       184.654,       189.655,            0.,NA,NA,"",   1.00316E+06,   986.760E+03,   986.760E+03
C:/temp/Job-36.odb,Step-1,Increment      1: Step Time =    1.000,"P-36-1",          1131,       15.5883,       9.88480,            0.,NA,NA,"",   3.62700E+06,   3.65813E+06,   3.65813E+06
C:/temp/Job-36.odb,Step-1,Increment      1: Step Time =    1.000,"P-36-1",          1132,       10.1349,       185.091,            0.,NA,NA,"",   3.03252E+06,   3.18796E+06,   3.18796E+06
C:/temp/Job-36.odb,Step-1,Increment      1: Step Time =    1.000,"P-36-1",          1133,       58.5941,       172.342,            0.,NA,NA,"",   2.63420E+06,   2.25281E+06,   2.25281E+06
C:/temp/Job-36.odb,Step-1,Increment      1: Step Time =    1.000,"P-36-1",          1134,       166.242,       58.0615,            0.,NA,NA,"",   2.24509E+06,   1.78691E+06,   1.78691E+06
C:/temp/Job-36.odb,Step-1,Increment      1: Step Time =    1.000,"P-36-1",          1135,       25.6030,       9.62449,            0.,NA,NA,"",   3.63692E+06,   3.63307E+06,   3.63307E+06
C:/temp/Job-36.odb,Step-1,Increment      1: Step Time =    1.000,"P-36-1",          1136,       10.1712,       174.553,            0.,NA,NA,"",   2.00171E+06,   2.15626E+06,   2.15626E+06
C:/temp/Job-36.odb,Step-1,Increment      1: Step Time =    1.000,"P-36-1",          1137,       190.327,       25.6004,            0.,NA,NA,"",   1.12418E+06,   1.10248E+06,   1.10248E+06
C:/temp/Job-36.odb,Step-1,Increment      1: Step Time =    1.000,"P-36-1",          1138,       174.255,       190.123,            0.,NA,NA,"",   988.538E+03,   962.254E+03,   962.254E+03
C:/temp/Job-36.odb,Step-1,Increment      1: Step Time =    1.000,"P-36-1",          1139,       132.065,       175.544,            0.,NA,NA,"",   3.12151E+06,   3.28483E+06,   3.28483E+06
C:/temp/Job-36.odb,Step-1,Increment      1: Step Time =    1.000,"P-36-1",          1140,       177.166,       70.3356,            0.,NA,NA,"",   2.21774E+06,   1.62793E+06,   1.62793E+06
C:/temp/Job-36.odb,Step-1,Increment      1: Step Time =    1.000,"P-36-1",          1141,       58.1857,       167.530,            0.,NA,NA,"",   2.13176E+06,   1.71125E+06,   1.71125E+06
C:/temp/Job-36.odb,Step-1,Increment      1: Step Time =    1.000,"P-36-1",          1142,       25.8981,       52.9723,            0.,NA,NA,"",   374.991E+03,  -204.425E+03,  -204.425E+03
C:/temp/Job-36.odb,Step-1,Increment      1: Step Time =    1.000,"P-36-1",          1143,       189.830,       55.2095,            0.,NA,NA,"",   1.70755E+06,   1.77685E+06,   1.77685E+06
C:/temp/Job-36.odb,Step-1,Increment      1: Step Time =    1.000,"P-36-1",          1144,       54.8578,       8.90571,            0.,NA,NA,"",   3.48194E+06,   3.39656E+06,   3.39656E+06
C:/temp/Job-36.odb,Step-1,Increment      1: Step Time =    1.000,"P-36-1",          1145,       145.232,       189.930,            0.,NA,NA,"",   918.971E+03,   853.804E+03,   853.804E+03
C:/temp/Job-36.odb,Step-1,Increment      1: Step Time =    1.000,"P-36-1",          1146,       10.2171,       144.363,            0.,NA,NA,"",   159.987E+03,   61.9646E+03,   61.9646E+03
C:/temp/Job-36.odb,Step-1,Increment      1: Step Time =    1.000,"P-36-1",          1147,       178.532,       130.770,            0.,NA,NA,"",   2.25394E+06,   1.73409E+06,   1.73409E+06
C:/temp/Job-36.odb,Step-1,Increment      1: Step Time =    1.000,"P-36-1",          1148,       23.5964,       72.4434,            0.,NA,NA,"",   731.680E+03,  -758.188E+03,  -758.188E+03
C:/temp/Job-36.odb,Step-1,Increment      1: Step Time =    1.000,"P-36-1",          1149,       70.8981,       174.993,            0.,NA,NA,"",   3.19225E+06,   2.88099E+06,   2.88099E+06
C:/temp/Job-36.odb,Step-1,Increment      1: Step Time =    1.000,"P-36-1",          1150,       131.360,       18.8521,            0.,NA,NA,"",   2.24098E+06,   2.36459E+06,   2.36459E+06
C:/temp/Job-36.odb,Step-1,Increment      1: Step Time =    1.000,"P-36-1",          1151,       48.6632,       169.792,            0.,NA,NA,"",   2.13583E+06,   1.79593E+06,   1.79593E+06
C:/temp/Job-36.odb,Step-1,Increment      1: Step Time =    1.000,"P-36-1",          1152,       30.4231,       50.8154,            0.,NA,NA,"",   493.343E+03,  -203.885E+03,  -203.885E+03
C:/temp/Job-36.odb,Step-1,Increment      1: Step Time =    1.000,"P-36-1",          1153,       5.15069,       5.07684,            0.,NA,NA,"",   4.09299E+06,   4.25492E+06,   4.25492E+06
C:/temp/Job-36.odb,Step-1,Increment      1: Step Time =    1.000,"P-36-1",          1154,       190.897,       149.063,            0.,NA,NA,"",   1.47936E+06,   1.56822E+06,   1.56822E+06
C:/temp/Job-36.odb,Step-1,Increment      1: Step Time =    1.000,"P-36-1",          1155,       49.9742,       191.446,            0.,NA,NA,"",   3.59179E+06,   3.54040E+06,   3.54040E+06
C:/temp/Job-36.odb,Step-1,Increment      1: Step Time =    1.000,"P-36-1",          1156,       114.278,       175.007,            0.,NA,NA,"",   4.68220E+06,   4.89292E+06,   4.89292E+06
C:/temp/Job-36.odb,Step-1,Increment      1: Step Time =    1.000,"P-36-1",          1157,       38.9484,       184.092,            0.,NA,NA,"",   3.10068E+06,   3.02192E+06,   3.02192E+06
C:/temp/Job-36.odb,Step-1,Increment      1: Step Time =    1.000,"P-36-1",          1158,       34.9521,       140.579,            0.,NA,NA,"",   1.01409E+06,  -1.04228E+06,  -1.04228E+06
C:/temp/Job-36.odb,Step-1,Increment      1: Step Time =    1.000,"P-36-1",          1159,       170.221,       131.121,            0.,NA,NA,"",   1.99186E+06,  -300.573E+03,  -300.573E+03
C:/temp/Job-36.odb,Step-1,Increment      1: Step Time =    1.000,"P-36-1",          1160,       185.558,       174.794,            0.,NA,NA,"",   1.19976E+06,   1.18058E+06,   1.18058E+06
C:/temp/Job-36.odb,Step-1,Increment      1: Step Time =    1.000,"P-36-1",          1161,       185.385,       170.033,            0.,NA,NA,"",   1.27593E+06,   1.25972E+06,   1.25972E+06
C:/temp/Job-36.odb,Step-1,Increment      1: Step Time =    1.000,"P-36-1",          1162,       171.519,       14.3049,            0.,NA,NA,"",   1.16646E+06,   1.12254E+06,   1.12254E+06
C:/temp/Job-36.odb,Step-1,Increment      1: Step Time =    1.000,"P-36-1",          1163,       167.716,       13.3835,            0.,NA,NA,"",   1.16253E+06,   1.11039E+06,   1.11039E+06
C:/temp/Job-36.odb,Step-1,Increment      1: Step Time =    1.000,"P-36-1",          1164,       29.5857,       127.241,            0.,NA,NA,"",   1.00592E+06,  -1.03512E+06,  -1.03512E+06
C:/temp/Job-36.odb,Step-1,Increment      1: Step Time =    1.000,"P-36-1",          1165,       37.9650,       55.6744,            0.,NA,NA,"",   1.04114E+06,  -1.06091E+06,  -1.06091E+06
C:/temp/Job-36.odb,Step-1,Increment      1: Step Time =    1.000,"P-36-1",          1166,       59.2631,       32.6599,            0.,NA,NA,"",   2.09481E+06,   1.67923E+06,   1.67923E+06
C:/temp/Job-36.odb,Step-1,Increment      1: Step Time =    1.000,"P-36-1",          1167,       74.9017,       28.5214,            0.,NA,NA,"",   3.07005E+06,   2.87988E+06,   2.87988E+06
C:/temp/Job-36.odb,Step-1,Increment      1: Step Time =    1.000,"P-36-1",          1168,       132.249,       27.1735,            0.,NA,NA,"",   3.59128E+06,   3.77164E+06,   3.77164E+06
C:/temp/Job-36.odb,Step-1,Increment      1: Step Time =    1.000,"P-36-1",          1169,       175.072,       85.4485,            0.,NA,NA,"",   1.79512E+06,  -1.54181E+06,  -1.54181E+06
C:/temp/Job-36.odb,Step-1,Increment      1: Step Time =    1.000,"P-36-1",          1170,       81.0057,       181.797,            0.,NA,NA,"",   3.46542E+06,   3.25641E+06,   3.25641E+06
C:/temp/Job-36.odb,Step-1,Increment      1: Step Time =    1.000,"P-36-1",          1171,       57.6807,       177.551,            0.,NA,NA,"",   2.94909E+06,   2.64253E+06,   2.64253E+06
C:/temp/Job-36.odb,Step-1,Increment      1: Step Time =    1.000,"P-36-1",          1172,       56.3125,       180.450,            0.,NA,NA,"",   3.04550E+06,   2.78398E+06,   2.78398E+06
C:/temp/Job-36.odb,Step-1,Increment      1: Step Time =    1.000,"P-36-1",          1173,       37.8788,       177.858,            0.,NA,NA,"",   2.60508E+06,   2.48509E+06,   2.48509E+06
C:/temp/Job-36.odb,Step-1,Increment      1: Step Time =    1.000,"P-36-1",          1174,       14.2636,       32.4271,            0.,NA,NA,"",   1.46534E+06,   1.56877E+06,   1.56877E+06
C:/temp/Job-36.odb,Step-1,Increment      1: Step Time =    1.000,"P-36-1",          1175,       72.5777,       181.153,            0.,NA,NA,"",   3.36719E+06,   3.07766E+06,   3.07766E+06
C:/temp/Job-36.odb,Step-1,Increment      1: Step Time =    1.000,"P-36-1",          1176,       144.491,       32.1686,            0.,NA,NA,"",   3.11383E+06,   3.19183E+06,   3.19183E+06
C:/temp/Job-36.odb,Step-1,Increment      1: Step Time =    1.000,"P-36-1",          1177,       168.764,       53.8289,            0.,NA,NA,"",   2.47610E+06,   2.06372E+06,   2.06372E+06
C:/temp/Job-36.odb,Step-1,Increment      1: Step Time =    1.000,"P-36-1",          1178,       172.482,       55.8804,            0.,NA,NA,"",   2.45488E+06,   2.01200E+06,   2.01200E+06
C:/temp/Job-36.odb,Step-1,Increment      1: Step Time =    1.000,"P-36-1",          1179,       75.1145,       23.9504,            0.,NA,NA,"",   3.38758E+06,   3.12903E+06,   3.12903E+06
C:/temp/Job-36.odb,Step-1,Increment      1: Step Time =    1.000,"P-36-1",          1180,       19.5177,       84.1772,            0.,NA,NA,"",   575.272E+03,  -632.428E+03,  -632.428E+03
C:/temp/Job-36.odb,Step-1,Increment      1: Step Time =    1.000,"P-36-1",          1181,       178.732,       162.181,            0.,NA,NA,"",   1.80303E+06,   1.69263E+06,   1.69263E+06
C:/temp/Job-36.odb,Step-1,Increment      1: Step Time =    1.000,"P-36-1",          1182,       176.239,       158.511,            0.,NA,NA,"",   2.03518E+06,   1.86552E+06,   1.86552E+06
C:/temp/Job-36.odb,Step-1,Increment      1: Step Time =    1.000,"P-36-1",          1183,       35.1005,       53.3156,            0.,NA,NA,"",   731.353E+03,  -726.164E+03,  -726.164E+03
C:/temp/Job-36.odb,Step-1,Increment      1: Step Time =    1.000,"P-36-1",          1184,       167.386,       16.1908,            0.,NA,NA,"",   1.31028E+06,   1.24651E+06,   1.24651E+06
C:/temp/Job-36.odb,Step-1,Increment      1: Step Time =    1.000,"P-36-1",          1185,       164.831,       17.4712,            0.,NA,NA,"",   1.42641E+06,   1.35503E+06,   1.35503E+06
C:/temp/Job-36.odb,Step-1,Increment      1: Step Time =    1.000,"P-36-1",          1186,       161.916,       19.7665,            0.,NA,NA,"",   1.62176E+06,   1.54447E+06,   1.54447E+06
C:/temp/Job-36.odb,Step-1,Increment      1: Step Time =    1.000,"P-36-1",          1187,       171.861,       19.6978,            0.,NA,NA,"",   1.39701E+06,   1.33742E+06,   1.33742E+06
C:/temp/Job-36.odb,Step-1,Increment      1: Step Time =    1.000,"P-36-1",          1188,       124.100,       180.454,            0.,NA,NA,"",   2.69597E+06,   2.87953E+06,   2.87953E+06
C:/temp/Job-36.odb,Step-1,Increment      1: Step Time =    1.000,"P-36-1",          1189,       180.531,       75.1010,            0.,NA,NA,"",   2.04467E+06,   1.61145E+06,   1.61145E+06
C:/temp/Job-36.odb,Step-1,Increment      1: Step Time =    1.000,"P-36-1",          1190,       24.9511,       124.301,            0.,NA,NA,"",   801.561E+03,  -836.865E+03,  -836.865E+03
C:/temp/Job-36.odb,Step-1,Increment      1: Step Time =    1.000,"P-36-1",          1191,       159.557,       23.5309,            0.,NA,NA,"",   1.88608E+06,   1.80332E+06,   1.80332E+06
C:/temp/Job-36.odb,Step-1,Increment      1: Step Time =    1.000,"P-36-1",          1192,       152.700,       162.513,            0.,NA,NA,"",   2.83263E+06,   2.80679E+06,   2.80679E+06
C:/temp/Job-36.odb,Step-1,Increment      1: Step Time =    1.000,"P-36-1",          1193,       149.617,       166.364,            0.,NA,NA,"",   2.86587E+06,   2.88024E+06,   2.88024E+06
C:/temp/Job-36.odb,Step-1,Increment      1: Step Time =    1.000,"P-36-1",          1194,       43.8734,       174.622,            0.,NA,NA,"",   2.42110E+06,   2.20306E+06,   2.20306E+06
C:/temp/Job-36.odb,Step-1,Increment      1: Step Time =    1.000,"P-36-1",          1195,       17.4898,       180.475,            0.,NA,NA,"",   2.70867E+06,   2.77807E+06,   2.77807E+06
C:/temp/Job-36.odb,Step-1,Increment      1: Step Time =    1.000,"P-36-1",          1196,       62.2147,       176.091,            0.,NA,NA,"",   3.00553E+06,   2.64580E+06,   2.64580E+06
C:/temp/Job-36.odb,Step-1,Increment      1: Step Time =    1.000,"P-36-1",          1197,       181.273,       144.787,            0.,NA,NA,"",   2.22639E+06,   1.99696E+06,   1.99696E+06
C:/temp/Job-36.odb,Step-1,Increment      1: Step Time =    1.000,"P-36-1",          1198,       16.0186,       95.7637,            0.,NA,NA,"",   395.522E+03,  -449.581E+03,  -449.581E+03
C:/temp/Job-36.odb,Step-1,Increment      1: Step Time =    1.000,"P-36-1",          1199,       12.7586,       95.5975,            0.,NA,NA,"",   357.686E+03,  -396.846E+03,  -396.846E+03
C:/temp/Job-36.odb,Step-1,Increment      1: Step Time =    1.000,"P-36-1",          1200,       16.7186,       104.164,            0.,NA,NA,"",   407.742E+03,  -466.497E+03,  -466.497E+03
C:/temp/Job-36.odb,Step-1,Increment      1: Step Time =    1.000,"P-36-1",          1201,       182.286,       125.418,            0.,NA,NA,"",   2.10353E+06,   1.80769E+06,   1.80769E+06
C:/temp/Job-36.odb,Step-1,Increment      1: Step Time =    1.000,"P-36-1",          1202,       181.690,       116.318,            0.,NA,NA,"",   1.59959E+06,   1.31447E+06,   1.31447E+06
C:/temp/Job-36.odb,Step-1,Increment      1: Step Time =    1.000,"P-36-1",          1203,       55.3112,       18.2602,            0.,NA,NA,"",   3.07625E+06,   2.84331E+06,   2.84331E+06
C:/temp/Job-36.odb,Step-1,Increment      1: Step Time =    1.000,"P-36-1",          1204,       165.028,       22.3093,            0.,NA,NA,"",   1.68580E+06,   1.60598E+06,   1.60598E+06
C:/temp/Job-36.odb,Step-1,Increment      1: Step Time =    1.000,"P-36-1",          1205,       163.144,       25.8603,            0.,NA,NA,"",   1.90339E+06,   1.81086E+06,   1.81086E+06
C:/temp/Job-36.odb,Step-1,Increment      1: Step Time =    1.000,"P-36-1",          1206,       172.548,       181.416,            0.,NA,NA,"",   1.33439E+06,   1.28165E+06,   1.28165E+06
C:/temp/Job-36.odb,Step-1,Increment      1: Step Time =    1.000,"P-36-1",          1207,       177.147,       174.242,            0.,NA,NA,"",   1.44265E+06,   1.39064E+06,   1.39064E+06
C:/temp/Job-36.odb,Step-1,Increment      1: Step Time =    1.000,"P-36-1",          1208,       176.865,       167.099,            0.,NA,NA,"",   1.70793E+06,   1.61776E+06,   1.61776E+06
C:/temp/Job-36.odb,Step-1,Increment      1: Step Time =    1.000,"P-36-1",          1209,       172.650,       160.566,            0.,NA,NA,"",   2.11023E+06,   1.93515E+06,   1.93515E+06
C:/temp/Job-36.odb,Step-1,Increment      1: Step Time =    1.000,"P-36-1",          1210,       155.587,       181.472,            0.,NA,NA,"",   1.64560E+06,   1.57719E+06,   1.57719E+06
C:/temp/Job-36.odb,Step-1,Increment      1: Step Time =    1.000,"P-36-1",          1211,       181.091,       45.0331,            0.,NA,NA,"",   1.91447E+06,   1.78477E+06,   1.78477E+06
C:/temp/Job-36.odb,Step-1,Increment      1: Step Time =    1.000,"P-36-1",          1212,       179.137,       54.8717,            0.,NA,NA,"",   2.29130E+06,   1.99571E+06,   1.99571E+06
C:/temp/Job-36.odb,Step-1,Increment      1: Step Time =    1.000,"P-36-1",          1213,       66.1066,       19.3778,            0.,NA,NA,"",   3.24407E+06,   2.94136E+06,   2.94136E+06
C:/temp/Job-36.odb,Step-1,Increment      1: Step Time =    1.000,"P-36-1",          1214,       22.4713,       127.039,            0.,NA,NA,"",   702.795E+03,  -731.701E+03,  -731.701E+03
C:/temp/Job-36.odb,Step-1,Increment      1: Step Time =    1.000,"P-36-1",          1215,       17.7053,       37.5671,            0.,NA,NA,"",   1.08172E+06,   1.14630E+06,   1.14630E+06
C:/temp/Job-36.odb,Step-1,Increment      1: Step Time =    1.000,"P-36-1",          1216,       63.8460,       180.382,            0.,NA,NA,"",   3.21708E+06,   2.90939E+06,   2.90939E+06
C:/temp/Job-36.odb,Step-1,Increment      1: Step Time =    1.000,"P-36-1",          1217,       161.699,       43.5399,            0.,NA,NA,"",   2.61147E+06,   2.40775E+06,   2.40775E+06
C:/temp/Job-36.odb,Step-1,Increment      1: Step Time =    1.000,"P-36-1",          1218,       162.973,       35.9518,            0.,NA,NA,"",   2.38247E+06,   2.23143E+06,   2.23143E+06
C:/temp/Job-36.odb,Step-1,Increment      1: Step Time =    1.000,"P-36-1",          1219,       146.824,       30.4357,            0.,NA,NA,"",   2.83516E+06,   2.88082E+06,   2.88082E+06
C:/temp/Job-36.odb,Step-1,Increment      1: Step Time =    1.000,"P-36-1",          1220,       19.8953,       55.7094,            0.,NA,NA,"",   287.903E+03,  -155.893E+03,  -155.893E+03
C:/temp/Job-36.odb,Step-1,Increment      1: Step Time =    1.000,"P-36-1",          1221,       150.644,       24.1524,            0.,NA,NA,"",   2.19874E+06,   2.16693E+06,   2.16693E+06
C:/temp/Job-36.odb,Step-1,Increment      1: Step Time =    1.000,"P-36-1",          1222,       172.888,       25.3528,            0.,NA,NA,"",   1.57759E+06,   1.50566E+06,   1.50566E+06
C:/temp/Job-36.odb,Step-1,Increment      1: Step Time =    1.000,"P-36-1",          1223,       147.145,       19.1911,            0.,NA,NA,"",   1.88182E+06,   1.86036E+06,   1.86036E+06
C:/temp/Job-36.odb,Step-1,Increment      1: Step Time =    1.000,"P-36-1",          1224,       127.932,       18.2979,            0.,NA,NA,"",   2.25778E+06,   2.39793E+06,   2.39793E+06
C:/temp/Job-36.odb,Step-1,Increment      1: Step Time =    1.000,"P-36-1",          1225,       15.3901,       124.622,            0.,NA,NA,"",   528.949E+03,  -561.810E+03,  -561.810E+03
C:/temp/Job-36.odb,Step-1,Increment      1: Step Time =    1.000,"P-36-1",          1226,       20.3093,       137.894,            0.,NA,NA,"",   471.011E+03,  -453.677E+03,  -453.677E+03
C:/temp/Job-36.odb,Step-1,Increment      1: Step Time =    1.000,"P-36-1",          1227,       162.746,       157.760,            0.,NA,NA,"",   2.54258E+06,   2.34418E+06,   2.34418E+06
C:/temp/Job-36.odb,Step-1,Increment      1: Step Time =    1.000,"P-36-1",          1228,       176.225,       30.7375,            0.,NA,NA,"",   1.65353E+06,   1.57376E+06,   1.57376E+06
C:/temp/Job-36.odb,Step-1,Increment      1: Step Time =    1.000,"P-36-1",          1229,       24.2777,       24.5972,            0.,NA,NA,"",   2.27011E+06,   2.27369E+06,   2.27369E+06
C:/temp/Job-36.odb,Step-1,Increment      1: Step Time =    1.000,"P-36-1",          1230,       40.0232,       17.8568,            0.,NA,NA,"",   2.96339E+06,   2.86298E+06,   2.86298E+06
C:/temp/Job-36.odb,Step-1,Increment      1: Step Time =    1.000,"P-36-1",          1231,       18.6366,       75.9575,            0.,NA,NA,"",   586.382E+03,  -623.135E+03,  -623.135E+03
C:/temp/Job-36.odb,Step-1,Increment      1: Step Time =    1.000,"P-36-1",          1232,       152.684,       28.4138,            0.,NA,NA,"",   2.40307E+06,   2.36184E+06,   2.36184E+06
C:/temp/Job-36.odb,Step-1,Increment      1: Step Time =    1.000,"P-36-1",          1233,       20.6610,       42.4587,            0.,NA,NA,"",   731.439E+03,   759.509E+03,   759.509E+03
C:/temp/Job-36.odb,Step-1,Increment      1: Step Time =    1.000,"P-36-1",          1234,       123.852,       17.8181,            0.,NA,NA,"",   2.26097E+06,   2.41250E+06,   2.41250E+06
C:/temp/Job-36.odb,Step-1,Increment      1: Step Time =    1.000,"P-36-1",          1235,       18.0962,       175.331,            0.,NA,NA,"",   2.19370E+06,   2.26567E+06,   2.26567E+06
C:/temp/Job-36.odb,Step-1,Increment      1: Step Time =    1.000,"P-36-1",          1236,       25.4790,       49.1663,            0.,NA,NA,"",   389.611E+03,   130.928E+03,   130.928E+03
C:/temp/Job-36.odb,Step-1,Increment      1: Step Time =    1.000,"P-36-1",          1237,       174.247,       167.850,            0.,NA,NA,"",   1.79052E+06,   1.68655E+06,   1.68655E+06
C:/temp/Job-36.odb,Step-1,Increment      1: Step Time =    1.000,"P-36-1",          1238,       169.422,       163.425,            0.,NA,NA,"",   2.14990E+06,   1.98650E+06,   1.98650E+06
C:/temp/Job-36.odb,Step-1,Increment      1: Step Time =    1.000,"P-36-1",          1239,       21.7874,       38.9449,            0.,NA,NA,"",   1.00956E+06,   1.03456E+06,   1.03456E+06
C:/temp/Job-36.odb,Step-1,Increment      1: Step Time =    1.000,"P-36-1",          1240,       28.8758,       167.364,            0.,NA,NA,"",   1.58896E+06,   1.52315E+06,   1.52315E+06
C:/temp/Job-36.odb,Step-1,Increment      1: Step Time =    1.000,"P-36-1",          1241,       177.140,       45.1312,            0.,NA,NA,"",   2.12542E+06,   1.92215E+06,   1.92215E+06
C:/temp/Job-36.odb,Step-1,Increment      1: Step Time =    1.000,"P-36-1",          1242,       38.8106,       26.6956,            0.,NA,NA,"",   2.25229E+06,   2.08458E+06,   2.08458E+06
C:/temp/Job-36.odb,Step-1,Increment      1: Step Time =    1.000,"P-36-1",          1243,       156.587,       177.431,            0.,NA,NA,"",   1.90065E+06,   1.82967E+06,   1.82967E+06
C:/temp/Job-36.odb,Step-1,Increment      1: Step Time =    1.000,"P-36-1",          1244,       159.707,       178.422,            0.,NA,NA,"",   1.78055E+06,   1.69979E+06,   1.69979E+06
C:/temp/Job-36.odb,Step-1,Increment      1: Step Time =    1.000,"P-36-1",          1245,       176.220,       41.0077,            0.,NA,NA,"",   2.00553E+06,   1.84380E+06,   1.84380E+06
C:/temp/Job-36.odb,Step-1,Increment      1: Step Time =    1.000,"P-36-1",          1246,       171.214,       42.7668,            0.,NA,NA,"",   2.28357E+06,   2.05247E+06,   2.05247E+06
C:/temp/Job-36.odb,Step-1,Increment      1: Step Time =    1.000,"P-36-1",          1247,       33.0701,       22.6073,            0.,NA,NA,"",   2.53831E+06,   2.46233E+06,   2.46233E+06
