ODB Name,Step,Frame,Part Instance Name,    Node Label,X,Y,Z,Section Name,Material Name,Section Point,       S-Mises,S-Max. In-Plane Principal (Abs),S-Max. Principal (Abs)
C:/temp/Job-37.odb,Step-1,Increment      1: Step Time =    1.000,"P-37-1",             1,       85.1163,       179.621,            0.,NA,NA,"",   5.41151E+06,   5.36644E+06,   5.36644E+06
C:/temp/Job-37.odb,Step-1,Increment      1: Step Time =    1.000,"P-37-1",             2,       70.7394,       175.530,            0.,NA,NA,"",   2.48090E+06,  -2.19139E+06,  -2.19139E+06
C:/temp/Job-37.odb,Step-1,Increment      1: Step Time =    1.000,"P-37-1",             3,       57.3590,       168.868,            0.,NA,NA,"",   5.15838E+06,  -5.19600E+06,  -5.19600E+06
C:/temp/Job-37.odb,Step-1,Increment      1: Step Time =    1.000,"P-37-1",             4,       45.4307,       159.860,            0.,NA,NA,"",   5.45755E+06,  -5.56058E+06,  -5.56058E+06
C:/temp/Job-37.odb,Step-1,Increment      1: Step Time =    1.000,"P-37-1",             5,       35.3606,       148.813,            0.,NA,NA,"",   4.58748E+06,  -4.62728E+06,  -4.62728E+06
C:/temp/Job-37.odb,Step-1,Increment      1: Step Time =    1.000,"P-37-1",             6,       27.4918,       136.105,            0.,NA,NA,"",   2.60746E+06,  -2.63167E+06,  -2.63167E+06
C:/temp/Job-37.odb,Step-1,Increment      1: Step Time =    1.000,"P-37-1",             7,       22.0921,       122.167,            0.,NA,NA,"",   1.20774E+06,  -1.22602E+06,  -1.22602E+06
C:/temp/Job-37.odb,Step-1,Increment      1: Step Time =    1.000,"P-37-1",             8,       19.3455,       107.474,            0.,NA,NA,"",   686.489E+03,  -703.363E+03,  -703.363E+03
C:/temp/Job-37.odb,Step-1,Increment      1: Step Time =    1.000,"P-37-1",             9,       19.3455,       92.5263,            0.,NA,NA,"",   714.384E+03,  -728.897E+03,  -728.897E+03
C:/temp/Job-37.odb,Step-1,Increment      1: Step Time =    1.000,"P-37-1",            10,       22.0921,       77.8333,            0.,NA,NA,"",   1.15220E+06,  -1.16646E+06,  -1.16646E+06
C:/temp/Job-37.odb,Step-1,Increment      1: Step Time =    1.000,"P-37-1",            11,       27.4918,       63.8952,            0.,NA,NA,"",   2.56466E+06,  -2.58437E+06,  -2.58437E+06
C:/temp/Job-37.odb,Step-1,Increment      1: Step Time =    1.000,"P-37-1",            12,       35.3606,       51.1866,            0.,NA,NA,"",   4.58559E+06,  -4.62160E+06,  -4.62160E+06
C:/temp/Job-37.odb,Step-1,Increment      1: Step Time =    1.000,"P-37-1",            13,       45.4307,       40.1403,            0.,NA,NA,"",   5.50862E+06,  -5.61449E+06,  -5.61449E+06
C:/temp/Job-37.odb,Step-1,Increment      1: Step Time =    1.000,"P-37-1",            14,       57.3590,       31.1324,            0.,NA,NA,"",   5.49311E+06,  -5.53656E+06,  -5.53656E+06
C:/temp/Job-37.odb,Step-1,Increment      1: Step Time =    1.000,"P-37-1",            15,       70.7394,       24.4697,            0.,NA,NA,"",   2.58386E+06,  -2.44656E+06,  -2.44656E+06
C:/temp/Job-37.odb,Step-1,Increment      1: Step Time =    1.000,"P-37-1",            16,       85.1163,       20.3792,            0.,NA,NA,"",   5.47709E+06,   5.39794E+06,   5.39794E+06
C:/temp/Job-37.odb,Step-1,Increment      1: Step Time =    1.000,"P-37-1",            17,          100.,           19.,            0.,NA,NA,"",   12.6505E+06,   12.7784E+06,   12.7784E+06
C:/temp/Job-37.odb,Step-1,Increment      1: Step Time =    1.000,"P-37-1",            18,       114.884,       20.3792,            0.,NA,NA,"",   16.3648E+06,   16.4704E+06,   16.4704E+06
C:/temp/Job-37.odb,Step-1,Increment      1: Step Time =    1.000,"P-37-1",            19,       129.261,       24.4697,            0.,NA,NA,"",   13.9801E+06,   14.1703E+06,   14.1703E+06
C:/temp/Job-37.odb,Step-1,Increment      1: Step Time =    1.000,"P-37-1",            20,       142.641,       31.1324,            0.,NA,NA,"",   9.85540E+06,   9.99689E+06,   9.99689E+06
C:/temp/Job-37.odb,Step-1,Increment      1: Step Time =    1.000,"P-37-1",            21,       154.569,       40.1403,            0.,NA,NA,"",   6.22075E+06,   6.32884E+06,   6.32884E+06
C:/temp/Job-37.odb,Step-1,Increment      1: Step Time =    1.000,"P-37-1",            22,       164.639,       51.1866,            0.,NA,NA,"",   3.66069E+06,   3.67947E+06,   3.67947E+06
C:/temp/Job-37.odb,Step-1,Increment      1: Step Time =    1.000,"P-37-1",            23,       172.508,       63.8952,            0.,NA,NA,"",   1.25685E+06,   168.605E+03,   168.605E+03
C:/temp/Job-37.odb,Step-1,Increment      1: Step Time =    1.000,"P-37-1",            24,       177.908,       77.8333,            0.,NA,NA,"",   5.18313E+06,  -5.17218E+06,  -5.17218E+06
C:/temp/Job-37.odb,Step-1,Increment      1: Step Time =    1.000,"P-37-1",            25,       180.654,       92.5263,            0.,NA,NA,"",   8.34383E+06,  -8.46220E+06,  -8.46220E+06
C:/temp/Job-37.odb,Step-1,Increment      1: Step Time =    1.000,"P-37-1",            26,       180.654,       107.474,            0.,NA,NA,"",   9.84791E+06,  -9.94700E+06,  -9.94700E+06
C:/temp/Job-37.odb,Step-1,Increment      1: Step Time =    1.000,"P-37-1",            27,       177.908,       122.167,            0.,NA,NA,"",   5.16123E+06,  -5.14351E+06,  -5.14351E+06
C:/temp/Job-37.odb,Step-1,Increment      1: Step Time =    1.000,"P-37-1",            28,       172.508,       136.105,            0.,NA,NA,"",   1.49820E+06,   62.5264E+03,   62.5264E+03
C:/temp/Job-37.odb,Step-1,Increment      1: Step Time =    1.000,"P-37-1",            29,       164.639,       148.813,            0.,NA,NA,"",   3.65403E+06,   3.67453E+06,   3.67453E+06
C:/temp/Job-37.odb,Step-1,Increment      1: Step Time =    1.000,"P-37-1",            30,       154.569,       159.860,            0.,NA,NA,"",   6.13474E+06,   6.24369E+06,   6.24369E+06
C:/temp/Job-37.odb,Step-1,Increment      1: Step Time =    1.000,"P-37-1",            31,       142.641,       168.868,            0.,NA,NA,"",   9.92514E+06,   10.0533E+06,   10.0533E+06
C:/temp/Job-37.odb,Step-1,Increment      1: Step Time =    1.000,"P-37-1",            32,       129.261,       175.530,            0.,NA,NA,"",   14.2532E+06,   14.4279E+06,   14.4279E+06
C:/temp/Job-37.odb,Step-1,Increment      1: Step Time =    1.000,"P-37-1",            33,       114.884,       179.621,            0.,NA,NA,"",   16.5630E+06,   16.6564E+06,   16.6564E+06
C:/temp/Job-37.odb,Step-1,Increment      1: Step Time =    1.000,"P-37-1",            34,          100.,          181.,            0.,NA,NA,"",   12.7007E+06,   12.8254E+06,   12.8254E+06
C:/temp/Job-37.odb,Step-1,Increment      1: Step Time =    1.000,"P-37-1",            35,          190.,            0.,            0.,NA,NA,"",   798.849E+03,   771.947E+03,   771.947E+03
C:/temp/Job-37.odb,Step-1,Increment      1: Step Time =    1.000,"P-37-1",            36,          180.,            0.,            0.,NA,NA,"",   402.318E+03,   90.7452E+03,   90.7452E+03
C:/temp/Job-37.odb,Step-1,Increment      1: Step Time =    1.000,"P-37-1",            37,          170.,            0.,            0.,NA,NA,"",   834.533E+03,  -799.911E+03,  -799.911E+03
C:/temp/Job-37.odb,Step-1,Increment      1: Step Time =    1.000,"P-37-1",            38,          160.,            0.,            0.,NA,NA,"",   1.84882E+06,  -1.83716E+06,  -1.83716E+06
C:/temp/Job-37.odb,Step-1,Increment      1: Step Time =    1.000,"P-37-1",            39,          150.,            0.,            0.,NA,NA,"",   3.14243E+06,  -3.12370E+06,  -3.12370E+06
C:/temp/Job-37.odb,Step-1,Increment      1: Step Time =    1.000,"P-37-1",            40,          140.,            0.,            0.,NA,NA,"",   4.42538E+06,  -4.42652E+06,  -4.42652E+06
C:/temp/Job-37.odb,Step-1,Increment      1: Step Time =    1.000,"P-37-1",            41,          130.,            0.,            0.,NA,NA,"",   5.53177E+06,  -5.50155E+06,  -5.50155E+06
C:/temp/Job-37.odb,Step-1,Increment      1: Step Time =    1.000,"P-37-1",            42,          120.,            0.,            0.,NA,NA,"",   5.75662E+06,  -5.71355E+06,  -5.71355E+06
C:/temp/Job-37.odb,Step-1,Increment      1: Step Time =    1.000,"P-37-1",            43,          110.,            0.,            0.,NA,NA,"",   4.88560E+06,  -4.77439E+06,  -4.77439E+06
C:/temp/Job-37.odb,Step-1,Increment      1: Step Time =    1.000,"P-37-1",            44,          100.,            0.,            0.,NA,NA,"",   2.43691E+06,  -2.18577E+06,  -2.18577E+06
C:/temp/Job-37.odb,Step-1,Increment      1: Step Time =    1.000,"P-37-1",            45,           90.,            0.,            0.,NA,NA,"",   2.86207E+06,   2.58284E+06,   2.58284E+06
C:/temp/Job-37.odb,Step-1,Increment      1: Step Time =    1.000,"P-37-1",            46,           80.,            0.,            0.,NA,NA,"",   6.09090E+06,   5.97638E+06,   5.97638E+06
C:/temp/Job-37.odb,Step-1,Increment      1: Step Time =    1.000,"P-37-1",            47,           70.,            0.,            0.,NA,NA,"",   8.56365E+06,   8.49160E+06,   8.49160E+06
C:/temp/Job-37.odb,Step-1,Increment      1: Step Time =    1.000,"P-37-1",            48,           60.,            0.,            0.,NA,NA,"",   9.71415E+06,   9.68526E+06,   9.68526E+06
C:/temp/Job-37.odb,Step-1,Increment      1: Step Time =    1.000,"P-37-1",            49,           50.,            0.,            0.,NA,NA,"",   10.0019E+06,   9.98055E+06,   9.98055E+06
C:/temp/Job-37.odb,Step-1,Increment      1: Step Time =    1.000,"P-37-1",            50,           40.,            0.,            0.,NA,NA,"",   9.70383E+06,   9.68924E+06,   9.68924E+06
C:/temp/Job-37.odb,Step-1,Increment      1: Step Time =    1.000,"P-37-1",            51,           30.,            0.,            0.,NA,NA,"",   8.94830E+06,   8.94680E+06,   8.94680E+06
C:/temp/Job-37.odb,Step-1,Increment      1: Step Time =    1.000,"P-37-1",            52,           20.,            0.,            0.,NA,NA,"",   8.21022E+06,   8.20629E+06,   8.20629E+06
C:/temp/Job-37.odb,Step-1,Increment      1: Step Time =    1.000,"P-37-1",            53,           10.,            0.,            0.,NA,NA,"",   7.66984E+06,   7.66606E+06,   7.66606E+06
C:/temp/Job-37.odb,Step-1,Increment      1: Step Time =    1.000,"P-37-1",            54,          200.,            0.,            0.,NA,NA,"",   986.984E+03,   971.542E+03,   971.542E+03
C:/temp/Job-37.odb,Step-1,Increment      1: Step Time =    1.000,"P-37-1",            55,            0.,            0.,            0.,NA,NA,"",   7.83480E+06,   8.24288E+06,   8.24288E+06
C:/temp/Job-37.odb,Step-1,Increment      1: Step Time =    1.000,"P-37-1",            56,          200.,          190.,            0.,NA,NA,"",   1.12473E+06,   986.395E+03,   986.395E+03
C:/temp/Job-37.odb,Step-1,Increment      1: Step Time =    1.000,"P-37-1",            57,          200.,          180.,            0.,NA,NA,"",   1.49040E+06,   1.02784E+06,   1.02784E+06
C:/temp/Job-37.odb,Step-1,Increment      1: Step Time =    1.000,"P-37-1",            58,          200.,          170.,            0.,NA,NA,"",   1.65558E+06,   1.05900E+06,   1.05900E+06
C:/temp/Job-37.odb,Step-1,Increment      1: Step Time =    1.000,"P-37-1",            59,          200.,          160.,            0.,NA,NA,"",   1.38266E+06,   1.09233E+06,   1.09233E+06
C:/temp/Job-37.odb,Step-1,Increment      1: Step Time =    1.000,"P-37-1",            60,          200.,          150.,            0.,NA,NA,"",   1.23213E+06,   1.38736E+06,   1.38736E+06
C:/temp/Job-37.odb,Step-1,Increment      1: Step Time =    1.000,"P-37-1",            61,          200.,          140.,            0.,NA,NA,"",   2.80259E+06,   3.13873E+06,   3.13873E+06
C:/temp/Job-37.odb,Step-1,Increment      1: Step Time =    1.000,"P-37-1",            62,          200.,          130.,            0.,NA,NA,"",   5.54551E+06,   5.95527E+06,   5.95527E+06
C:/temp/Job-37.odb,Step-1,Increment      1: Step Time =    1.000,"P-37-1",            63,          200.,          120.,            0.,NA,NA,"",   8.62752E+06,   9.05339E+06,   9.05339E+06
C:/temp/Job-37.odb,Step-1,Increment      1: Step Time =    1.000,"P-37-1",            64,          200.,          110.,            0.,NA,NA,"",   11.2185E+06,   11.6100E+06,   11.6100E+06
C:/temp/Job-37.odb,Step-1,Increment      1: Step Time =    1.000,"P-37-1",            65,          200.,          100.,            0.,NA,NA,"",   12.3249E+06,   12.7480E+06,   12.7480E+06
C:/temp/Job-37.odb,Step-1,Increment      1: Step Time =    1.000,"P-37-1",            66,          200.,           90.,            0.,NA,NA,"",   11.4908E+06,   11.9099E+06,   11.9099E+06
C:/temp/Job-37.odb,Step-1,Increment      1: Step Time =    1.000,"P-37-1",            67,          200.,           80.,            0.,NA,NA,"",   8.78305E+06,   9.20075E+06,   9.20075E+06
C:/temp/Job-37.odb,Step-1,Increment      1: Step Time =    1.000,"P-37-1",            68,          200.,           70.,            0.,NA,NA,"",   5.64114E+06,   6.03914E+06,   6.03914E+06
C:/temp/Job-37.odb,Step-1,Increment      1: Step Time =    1.000,"P-37-1",            69,          200.,           60.,            0.,NA,NA,"",   2.81308E+06,   3.13153E+06,   3.13153E+06
C:/temp/Job-37.odb,Step-1,Increment      1: Step Time =    1.000,"P-37-1",            70,          200.,           50.,            0.,NA,NA,"",   1.29753E+06,   1.44559E+06,   1.44559E+06
C:/temp/Job-37.odb,Step-1,Increment      1: Step Time =    1.000,"P-37-1",            71,          200.,           40.,            0.,NA,NA,"",   1.39482E+06,   1.06153E+06,   1.06153E+06
C:/temp/Job-37.odb,Step-1,Increment      1: Step Time =    1.000,"P-37-1",            72,          200.,           30.,            0.,NA,NA,"",   1.68633E+06,   1.03288E+06,   1.03288E+06
C:/temp/Job-37.odb,Step-1,Increment      1: Step Time =    1.000,"P-37-1",            73,          200.,           20.,            0.,NA,NA,"",   1.51371E+06,   1.02441E+06,   1.02441E+06
C:/temp/Job-37.odb,Step-1,Increment      1: Step Time =    1.000,"P-37-1",            74,          200.,           10.,            0.,NA,NA,"",   1.13330E+06,   989.572E+03,   989.572E+03
C:/temp/Job-37.odb,Step-1,Increment      1: Step Time =    1.000,"P-37-1",            75,          200.,          200.,            0.,NA,NA,"",   989.809E+03,   977.941E+03,   977.941E+03
C:/temp/Job-37.odb,Step-1,Increment      1: Step Time =    1.000,"P-37-1",            76,           10.,          200.,            0.,NA,NA,"",   7.65242E+06,   7.64771E+06,   7.64771E+06
C:/temp/Job-37.odb,Step-1,Increment      1: Step Time =    1.000,"P-37-1",            77,           20.,          200.,            0.,NA,NA,"",   8.16762E+06,   8.16789E+06,   8.16789E+06
C:/temp/Job-37.odb,Step-1,Increment      1: Step Time =    1.000,"P-37-1",            78,           30.,          200.,            0.,NA,NA,"",   8.93614E+06,   8.92693E+06,   8.92693E+06
C:/temp/Job-37.odb,Step-1,Increment      1: Step Time =    1.000,"P-37-1",            79,           40.,          200.,            0.,NA,NA,"",   9.66438E+06,   9.66120E+06,   9.66120E+06
C:/temp/Job-37.odb,Step-1,Increment      1: Step Time =    1.000,"P-37-1",            80,           50.,          200.,            0.,NA,NA,"",   10.1612E+06,   10.1446E+06,   10.1446E+06
C:/temp/Job-37.odb,Step-1,Increment      1: Step Time =    1.000,"P-37-1",            81,           60.,          200.,            0.,NA,NA,"",   9.90330E+06,   9.87356E+06,   9.87356E+06
C:/temp/Job-37.odb,Step-1,Increment      1: Step Time =    1.000,"P-37-1",            82,           70.,          200.,            0.,NA,NA,"",   8.70474E+06,   8.64871E+06,   8.64871E+06
C:/temp/Job-37.odb,Step-1,Increment      1: Step Time =    1.000,"P-37-1",            83,           80.,          200.,            0.,NA,NA,"",   6.07595E+06,   5.97864E+06,   5.97864E+06
C:/temp/Job-37.odb,Step-1,Increment      1: Step Time =    1.000,"P-37-1",            84,           90.,          200.,            0.,NA,NA,"",   2.88532E+06,   2.59431E+06,   2.59431E+06
C:/temp/Job-37.odb,Step-1,Increment      1: Step Time =    1.000,"P-37-1",            85,          100.,          200.,            0.,NA,NA,"",   2.44272E+06,  -2.18450E+06,  -2.18450E+06
C:/temp/Job-37.odb,Step-1,Increment      1: Step Time =    1.000,"P-37-1",            86,          110.,          200.,            0.,NA,NA,"",   4.79774E+06,  -4.69318E+06,  -4.69318E+06
C:/temp/Job-37.odb,Step-1,Increment      1: Step Time =    1.000,"P-37-1",            87,          120.,          200.,            0.,NA,NA,"",   5.65623E+06,  -5.61947E+06,  -5.61947E+06
C:/temp/Job-37.odb,Step-1,Increment      1: Step Time =    1.000,"P-37-1",            88,          130.,          200.,            0.,NA,NA,"",   5.43631E+06,  -5.39866E+06,  -5.39866E+06
C:/temp/Job-37.odb,Step-1,Increment      1: Step Time =    1.000,"P-37-1",            89,          140.,          200.,            0.,NA,NA,"",   4.14219E+06,  -4.11271E+06,  -4.11271E+06
C:/temp/Job-37.odb,Step-1,Increment      1: Step Time =    1.000,"P-37-1",            90,          150.,          200.,            0.,NA,NA,"",   2.84433E+06,  -2.84151E+06,  -2.84151E+06
C:/temp/Job-37.odb,Step-1,Increment      1: Step Time =    1.000,"P-37-1",            91,          160.,          200.,            0.,NA,NA,"",   1.77187E+06,  -1.74917E+06,  -1.74917E+06
C:/temp/Job-37.odb,Step-1,Increment      1: Step Time =    1.000,"P-37-1",            92,          170.,          200.,            0.,NA,NA,"",   802.891E+03,  -770.952E+03,  -770.952E+03
C:/temp/Job-37.odb,Step-1,Increment      1: Step Time =    1.000,"P-37-1",            93,          180.,          200.,            0.,NA,NA,"",   380.025E+03,   108.745E+03,   108.745E+03
C:/temp/Job-37.odb,Step-1,Increment      1: Step Time =    1.000,"P-37-1",            94,          190.,          200.,            0.,NA,NA,"",   803.459E+03,   782.721E+03,   782.721E+03
C:/temp/Job-37.odb,Step-1,Increment      1: Step Time =    1.000,"P-37-1",            95,            0.,          200.,            0.,NA,NA,"",   7.77143E+06,   8.16968E+06,   8.16968E+06
C:/temp/Job-37.odb,Step-1,Increment      1: Step Time =    1.000,"P-37-1",            96,            0.,           10.,            0.,NA,NA,"",   5.23803E+06,   5.77539E+06,   5.77539E+06
C:/temp/Job-37.odb,Step-1,Increment      1: Step Time =    1.000,"P-37-1",            97,            0.,           20.,            0.,NA,NA,"",   3.05797E+06,   3.41005E+06,   3.41005E+06
C:/temp/Job-37.odb,Step-1,Increment      1: Step Time =    1.000,"P-37-1",            98,            0.,           30.,            0.,NA,NA,"",   1.22649E+06,   1.37702E+06,   1.37702E+06
C:/temp/Job-37.odb,Step-1,Increment      1: Step Time =    1.000,"P-37-1",            99,            0.,           40.,            0.,NA,NA,"",   400.993E+03,  -177.189E+03,  -177.189E+03
C:/temp/Job-37.odb,Step-1,Increment      1: Step Time =    1.000,"P-37-1",           100,            0.,           50.,            0.,NA,NA,"",   1.12474E+06,  -1.16266E+06,  -1.16266E+06
C:/temp/Job-37.odb,Step-1,Increment      1: Step Time =    1.000,"P-37-1",           101,            0.,           60.,            0.,NA,NA,"",   1.44261E+06,  -1.46838E+06,  -1.46838E+06
C:/temp/Job-37.odb,Step-1,Increment      1: Step Time =    1.000,"P-37-1",           102,            0.,           70.,            0.,NA,NA,"",   1.30820E+06,  -1.30079E+06,  -1.30079E+06
C:/temp/Job-37.odb,Step-1,Increment      1: Step Time =    1.000,"P-37-1",           103,            0.,           80.,            0.,NA,NA,"",   922.926E+03,  -912.788E+03,  -912.788E+03
C:/temp/Job-37.odb,Step-1,Increment      1: Step Time =    1.000,"P-37-1",           104,            0.,           90.,            0.,NA,NA,"",   507.150E+03,  -534.653E+03,  -534.653E+03
C:/temp/Job-37.odb,Step-1,Increment      1: Step Time =    1.000,"P-37-1",           105,            0.,          100.,            0.,NA,NA,"",   269.346E+03,  -309.749E+03,  -309.749E+03
C:/temp/Job-37.odb,Step-1,Increment      1: Step Time =    1.000,"P-37-1",           106,            0.,          110.,            0.,NA,NA,"",   503.459E+03,  -537.951E+03,  -537.951E+03
C:/temp/Job-37.odb,Step-1,Increment      1: Step Time =    1.000,"P-37-1",           107,            0.,          120.,            0.,NA,NA,"",   949.440E+03,  -929.438E+03,  -929.438E+03
C:/temp/Job-37.odb,Step-1,Increment      1: Step Time =    1.000,"P-37-1",           108,            0.,          130.,            0.,NA,NA,"",   1.31282E+06,  -1.30178E+06,  -1.30178E+06
C:/temp/Job-37.odb,Step-1,Increment      1: Step Time =    1.000,"P-37-1",           109,            0.,          140.,            0.,NA,NA,"",   1.46069E+06,  -1.48167E+06,  -1.48167E+06
C:/temp/Job-37.odb,Step-1,Increment      1: Step Time =    1.000,"P-37-1",           110,            0.,          150.,            0.,NA,NA,"",   1.10879E+06,  -1.13094E+06,  -1.13094E+06
C:/temp/Job-37.odb,Step-1,Increment      1: Step Time =    1.000,"P-37-1",           111,            0.,          160.,            0.,NA,NA,"",   386.354E+03,  -105.383E+03,  -105.383E+03
C:/temp/Job-37.odb,Step-1,Increment      1: Step Time =    1.000,"P-37-1",           112,            0.,          170.,            0.,NA,NA,"",   1.23143E+06,   1.37542E+06,   1.37542E+06
C:/temp/Job-37.odb,Step-1,Increment      1: Step Time =    1.000,"P-37-1",           113,            0.,          180.,            0.,NA,NA,"",   3.02104E+06,   3.37001E+06,   3.37001E+06
C:/temp/Job-37.odb,Step-1,Increment      1: Step Time =    1.000,"P-37-1",           114,            0.,          190.,            0.,NA,NA,"",   5.18469E+06,   5.71314E+06,   5.71314E+06
C:/temp/Job-37.odb,Step-1,Increment      1: Step Time =    1.000,"P-37-1",           115,       104.837,       8.95144,            0.,NA,NA,"",   5.16994E+06,   4.98681E+06,   4.98681E+06
C:/temp/Job-37.odb,Step-1,Increment      1: Step Time =    1.000,"P-37-1",           116,       189.397,       11.1420,            0.,NA,NA,"",   1.18616E+06,   1.00599E+06,   1.00599E+06
C:/temp/Job-37.odb,Step-1,Increment      1: Step Time =    1.000,"P-37-1",           117,       190.120,       104.004,            0.,NA,NA,"",   3.46290E+06,   1.32103E+06,   1.32103E+06
C:/temp/Job-37.odb,Step-1,Increment      1: Step Time =    1.000,"P-37-1",           118,       8.53825,       97.1223,            0.,NA,NA,"",   436.839E+03,  -485.854E+03,  -485.854E+03
C:/temp/Job-37.odb,Step-1,Increment      1: Step Time =    1.000,"P-37-1",           119,       190.130,       190.397,            0.,NA,NA,"",   1.11036E+06,   957.290E+03,   957.290E+03
C:/temp/Job-37.odb,Step-1,Increment      1: Step Time =    1.000,"P-37-1",           120,       175.912,       190.801,            0.,NA,NA,"",   1.13403E+06,   869.031E+03,   869.031E+03
C:/temp/Job-37.odb,Step-1,Increment      1: Step Time =    1.000,"P-37-1",           121,       166.083,       188.502,            0.,NA,NA,"",   1.50839E+06,   917.056E+03,   917.056E+03
C:/temp/Job-37.odb,Step-1,Increment      1: Step Time =    1.000,"P-37-1",           122,       155.943,       189.673,            0.,NA,NA,"",   1.70123E+06,   369.720E+03,   369.720E+03
C:/temp/Job-37.odb,Step-1,Increment      1: Step Time =    1.000,"P-37-1",           123,       148.742,       189.239,            0.,NA,NA,"",   1.77298E+06,   1.03276E+06,   1.03276E+06
C:/temp/Job-37.odb,Step-1,Increment      1: Step Time =    1.000,"P-37-1",           124,       134.837,       190.711,            0.,NA,NA,"",   1.84755E+06,   642.835E+03,   642.835E+03
C:/temp/Job-37.odb,Step-1,Increment      1: Step Time =    1.000,"P-37-1",           125,       125.690,       189.606,            0.,NA,NA,"",   3.27301E+06,   3.40039E+06,   3.40039E+06
C:/temp/Job-37.odb,Step-1,Increment      1: Step Time =    1.000,"P-37-1",           126,       114.242,       189.470,            0.,NA,NA,"",   5.55221E+06,   5.63287E+06,   5.63287E+06
C:/temp/Job-37.odb,Step-1,Increment      1: Step Time =    1.000,"P-37-1",           127,       104.810,       190.973,            0.,NA,NA,"",   5.21724E+06,   5.05358E+06,   5.05358E+06
C:/temp/Job-37.odb,Step-1,Increment      1: Step Time =    1.000,"P-37-1",           128,       94.7080,       190.136,            0.,NA,NA,"",   6.60880E+06,   6.21277E+06,   6.21277E+06
C:/temp/Job-37.odb,Step-1,Increment      1: Step Time =    1.000,"P-37-1",           129,       83.3794,       189.233,            0.,NA,NA,"",   6.38360E+06,   5.77775E+06,   5.77775E+06
C:/temp/Job-37.odb,Step-1,Increment      1: Step Time =    1.000,"P-37-1",           130,       74.0112,       191.607,            0.,NA,NA,"",   6.49381E+06,   6.02349E+06,   6.02349E+06
C:/temp/Job-37.odb,Step-1,Increment      1: Step Time =    1.000,"P-37-1",           131,       64.6653,       189.663,            0.,NA,NA,"",   6.07930E+06,   5.67322E+06,   5.67322E+06
C:/temp/Job-37.odb,Step-1,Increment      1: Step Time =    1.000,"P-37-1",           132,       50.4095,       187.200,            0.,NA,NA,"",   5.20781E+06,   4.92823E+06,   4.92823E+06
C:/temp/Job-37.odb,Step-1,Increment      1: Step Time =    1.000,"P-37-1",           133,       40.6929,       190.577,            0.,NA,NA,"",   6.73377E+06,   6.66164E+06,   6.66164E+06
C:/temp/Job-37.odb,Step-1,Increment      1: Step Time =    1.000,"P-37-1",           134,       31.0486,       190.166,            0.,NA,NA,"",   6.45144E+06,   6.42020E+06,   6.42020E+06
C:/temp/Job-37.odb,Step-1,Increment      1: Step Time =    1.000,"P-37-1",           135,       21.4684,       189.844,            0.,NA,NA,"",   6.13027E+06,   6.15349E+06,   6.15349E+06
C:/temp/Job-37.odb,Step-1,Increment      1: Step Time =    1.000,"P-37-1",           136,       11.2518,       187.835,            0.,NA,NA,"",   5.34951E+06,   5.52655E+06,   5.52655E+06
C:/temp/Job-37.odb,Step-1,Increment      1: Step Time =    1.000,"P-37-1",           137,       7.80069,       178.440,            0.,NA,NA,"",   2.80780E+06,   3.09023E+06,   3.09023E+06
C:/temp/Job-37.odb,Step-1,Increment      1: Step Time =    1.000,"P-37-1",           138,       22.8004,       180.262,            0.,NA,NA,"",   3.25264E+06,   3.31998E+06,   3.31998E+06
C:/temp/Job-37.odb,Step-1,Increment      1: Step Time =    1.000,"P-37-1",           139,       32.5810,       179.050,            0.,NA,NA,"",   2.74274E+06,   2.62433E+06,   2.62433E+06
C:/temp/Job-37.odb,Step-1,Increment      1: Step Time =    1.000,"P-37-1",           140,       41.8595,       180.809,            0.,NA,NA,"",   3.03054E+06,   2.75370E+06,   2.75370E+06
C:/temp/Job-37.odb,Step-1,Increment      1: Step Time =    1.000,"P-37-1",           141,       52.1089,       176.869,            0.,NA,NA,"",   2.51301E+06,  -1.22404E+06,  -1.22404E+06
C:/temp/Job-37.odb,Step-1,Increment      1: Step Time =    1.000,"P-37-1",           142,       64.3258,       178.102,            0.,NA,NA,"",   3.16822E+06,  -1.73603E+06,  -1.73603E+06
C:/temp/Job-37.odb,Step-1,Increment      1: Step Time =    1.000,"P-37-1",           143,       135.327,       177.323,            0.,NA,NA,"",   11.1696E+06,   11.3567E+06,   11.3567E+06
C:/temp/Job-37.odb,Step-1,Increment      1: Step Time =    1.000,"P-37-1",           144,       145.182,       178.337,            0.,NA,NA,"",   6.22237E+06,   6.42668E+06,   6.42668E+06
C:/temp/Job-37.odb,Step-1,Increment      1: Step Time =    1.000,"P-37-1",           145,       164.344,       178.396,            0.,NA,NA,"",   2.73149E+06,   2.72745E+06,   2.72745E+06
C:/temp/Job-37.odb,Step-1,Increment      1: Step Time =    1.000,"P-37-1",           146,       180.238,       182.358,            0.,NA,NA,"",   1.62498E+06,   1.44024E+06,   1.44024E+06
C:/temp/Job-37.odb,Step-1,Increment      1: Step Time =    1.000,"P-37-1",           147,       189.506,       180.571,            0.,NA,NA,"",   1.46233E+06,   1.20261E+06,   1.20261E+06
C:/temp/Job-37.odb,Step-1,Increment      1: Step Time =    1.000,"P-37-1",           148,       160.427,       169.748,            0.,NA,NA,"",   4.35716E+06,   4.50241E+06,   4.50241E+06
C:/temp/Job-37.odb,Step-1,Increment      1: Step Time =    1.000,"P-37-1",           149,       168.629,       168.512,            0.,NA,NA,"",   3.22015E+06,   3.25724E+06,   3.25724E+06
C:/temp/Job-37.odb,Step-1,Increment      1: Step Time =    1.000,"P-37-1",           150,       178.935,       169.181,            0.,NA,NA,"",   2.22363E+06,   2.14385E+06,   2.14385E+06
C:/temp/Job-37.odb,Step-1,Increment      1: Step Time =    1.000,"P-37-1",           151,       187.178,       169.863,            0.,NA,NA,"",   1.68907E+06,   1.51469E+06,   1.51469E+06
C:/temp/Job-37.odb,Step-1,Increment      1: Step Time =    1.000,"P-37-1",           152,       169.444,       157.284,            0.,NA,NA,"",   3.59295E+06,   3.58261E+06,   3.58261E+06
C:/temp/Job-37.odb,Step-1,Increment      1: Step Time =    1.000,"P-37-1",           153,       180.155,       156.560,            0.,NA,NA,"",   2.96793E+06,   2.70376E+06,   2.70376E+06
C:/temp/Job-37.odb,Step-1,Increment      1: Step Time =    1.000,"P-37-1",           154,       188.097,       158.190,            0.,NA,NA,"",   2.17811E+06,   1.96464E+06,   1.96464E+06
C:/temp/Job-37.odb,Step-1,Increment      1: Step Time =    1.000,"P-37-1",           155,       180.904,       142.644,            0.,NA,NA,"",   3.29262E+06,   2.61050E+06,   2.61050E+06
C:/temp/Job-37.odb,Step-1,Increment      1: Step Time =    1.000,"P-37-1",           156,       185.346,       146.935,            0.,NA,NA,"",   3.24939E+06,   2.78614E+06,   2.78614E+06
C:/temp/Job-37.odb,Step-1,Increment      1: Step Time =    1.000,"P-37-1",           157,       191.918,       135.620,            0.,NA,NA,"",   3.69662E+06,   3.56515E+06,   3.56515E+06
C:/temp/Job-37.odb,Step-1,Increment      1: Step Time =    1.000,"P-37-1",           158,       180.568,       133.927,            0.,NA,NA,"",   2.82468E+06,   635.409E+03,   635.409E+03
C:/temp/Job-37.odb,Step-1,Increment      1: Step Time =    1.000,"P-37-1",           159,       190.863,       126.420,            0.,NA,NA,"",   4.34876E+06,   4.05992E+06,   4.05992E+06
C:/temp/Job-37.odb,Step-1,Increment      1: Step Time =    1.000,"P-37-1",           160,       189.164,       115.618,            0.,NA,NA,"",   3.78270E+06,   1.08276E+06,   1.08276E+06
C:/temp/Job-37.odb,Step-1,Increment      1: Step Time =    1.000,"P-37-1",           161,       189.718,       93.2984,            0.,NA,NA,"",   4.02267E+06,   756.853E+03,   756.853E+03
C:/temp/Job-37.odb,Step-1,Increment      1: Step Time =    1.000,"P-37-1",           162,       190.423,       85.4556,            0.,NA,NA,"",   4.01313E+06,   2.70158E+06,   2.70158E+06
C:/temp/Job-37.odb,Step-1,Increment      1: Step Time =    1.000,"P-37-1",           163,       190.988,       74.6790,            0.,NA,NA,"",   4.36592E+06,   4.07869E+06,   4.07869E+06
C:/temp/Job-37.odb,Step-1,Increment      1: Step Time =    1.000,"P-37-1",           164,       178.289,       66.5163,            0.,NA,NA,"",   2.27271E+06,  -872.005E+03,  -872.005E+03
C:/temp/Job-37.odb,Step-1,Increment      1: Step Time =    1.000,"P-37-1",           165,       191.309,       65.0964,            0.,NA,NA,"",   3.79386E+06,   3.61337E+06,   3.61337E+06
C:/temp/Job-37.odb,Step-1,Increment      1: Step Time =    1.000,"P-37-1",           166,       167.815,       41.5453,            0.,NA,NA,"",   3.80369E+06,   3.82297E+06,   3.82297E+06
C:/temp/Job-37.odb,Step-1,Increment      1: Step Time =    1.000,"P-37-1",           167,       181.243,       44.2057,            0.,NA,NA,"",   2.92833E+06,   2.65660E+06,   2.65660E+06
C:/temp/Job-37.odb,Step-1,Increment      1: Step Time =    1.000,"P-37-1",           168,       190.490,       39.3510,            0.,NA,NA,"",   1.81247E+06,   1.62403E+06,   1.62403E+06
C:/temp/Job-37.odb,Step-1,Increment      1: Step Time =    1.000,"P-37-1",           169,       190.133,       51.6225,            0.,NA,NA,"",   2.71487E+06,   2.49845E+06,   2.49845E+06
C:/temp/Job-37.odb,Step-1,Increment      1: Step Time =    1.000,"P-37-1",           170,       181.616,       53.7736,            0.,NA,NA,"",   3.34436E+06,   2.80527E+06,   2.80527E+06
C:/temp/Job-37.odb,Step-1,Increment      1: Step Time =    1.000,"P-37-1",           171,       159.500,       30.6253,            0.,NA,NA,"",   4.58044E+06,   4.71935E+06,   4.71935E+06
C:/temp/Job-37.odb,Step-1,Increment      1: Step Time =    1.000,"P-37-1",           172,       167.910,       34.6553,            0.,NA,NA,"",   3.48381E+06,   3.53839E+06,   3.53839E+06
C:/temp/Job-37.odb,Step-1,Increment      1: Step Time =    1.000,"P-37-1",           173,       178.707,       28.2214,            0.,NA,NA,"",   2.11544E+06,   2.03505E+06,   2.03505E+06
C:/temp/Job-37.odb,Step-1,Increment      1: Step Time =    1.000,"P-37-1",           174,       190.544,       29.8082,            0.,NA,NA,"",   1.54069E+06,   1.29609E+06,   1.29609E+06
C:/temp/Job-37.odb,Step-1,Increment      1: Step Time =    1.000,"P-37-1",           175,       135.852,       22.0369,            0.,NA,NA,"",   10.4109E+06,   10.6152E+06,   10.6152E+06
C:/temp/Job-37.odb,Step-1,Increment      1: Step Time =    1.000,"P-37-1",           176,       148.010,       22.8655,            0.,NA,NA,"",   5.85665E+06,   6.04934E+06,   6.04934E+06
C:/temp/Job-37.odb,Step-1,Increment      1: Step Time =    1.000,"P-37-1",           177,       159.517,       19.7461,            0.,NA,NA,"",   3.02383E+06,   3.02321E+06,   3.02321E+06
C:/temp/Job-37.odb,Step-1,Increment      1: Step Time =    1.000,"P-37-1",           178,       166.036,       23.5110,            0.,NA,NA,"",   2.85317E+06,   2.85970E+06,   2.85970E+06
C:/temp/Job-37.odb,Step-1,Increment      1: Step Time =    1.000,"P-37-1",           179,       178.207,       20.8660,            0.,NA,NA,"",   1.81587E+06,   1.69033E+06,   1.69033E+06
C:/temp/Job-37.odb,Step-1,Increment      1: Step Time =    1.000,"P-37-1",           180,       191.323,       20.6444,            0.,NA,NA,"",   1.46436E+06,   1.17791E+06,   1.17791E+06
C:/temp/Job-37.odb,Step-1,Increment      1: Step Time =    1.000,"P-37-1",           181,       10.1800,       10.0175,            0.,NA,NA,"",   5.97437E+06,   6.14114E+06,   6.14114E+06
C:/temp/Job-37.odb,Step-1,Increment      1: Step Time =    1.000,"P-37-1",           182,       20.2822,       9.87133,            0.,NA,NA,"",   6.19616E+06,   6.22617E+06,   6.22617E+06
C:/temp/Job-37.odb,Step-1,Increment      1: Step Time =    1.000,"P-37-1",           183,       30.1344,       9.42465,            0.,NA,NA,"",   6.56540E+06,   6.54269E+06,   6.54269E+06
C:/temp/Job-37.odb,Step-1,Increment      1: Step Time =    1.000,"P-37-1",           184,       43.3340,       9.21774,            0.,NA,NA,"",   6.84601E+06,   6.76011E+06,   6.76011E+06
C:/temp/Job-37.odb,Step-1,Increment      1: Step Time =    1.000,"P-37-1",           185,       50.9098,       9.10415,            0.,NA,NA,"",   6.79860E+06,   6.63428E+06,   6.63428E+06
C:/temp/Job-37.odb,Step-1,Increment      1: Step Time =    1.000,"P-37-1",           186,       64.1149,       9.68302,            0.,NA,NA,"",   6.34971E+06,   6.00926E+06,   6.00926E+06
C:/temp/Job-37.odb,Step-1,Increment      1: Step Time =    1.000,"P-37-1",           187,       73.9110,       11.2586,            0.,NA,NA,"",   5.81290E+06,   5.19393E+06,   5.19393E+06
C:/temp/Job-37.odb,Step-1,Increment      1: Step Time =    1.000,"P-37-1",           188,       84.2785,       11.0862,            0.,NA,NA,"",   6.60903E+06,   6.01690E+06,   6.01690E+06
C:/temp/Job-37.odb,Step-1,Increment      1: Step Time =    1.000,"P-37-1",           189,       94.8488,       9.82777,            0.,NA,NA,"",   6.61625E+06,   6.21102E+06,   6.21102E+06
C:/temp/Job-37.odb,Step-1,Increment      1: Step Time =    1.000,"P-37-1",           190,       114.207,       10.3458,            0.,NA,NA,"",   5.38986E+06,   5.45372E+06,   5.45372E+06
C:/temp/Job-37.odb,Step-1,Increment      1: Step Time =    1.000,"P-37-1",           191,       124.959,       9.12158,            0.,NA,NA,"",   2.40514E+06,   2.04916E+06,   2.04916E+06
C:/temp/Job-37.odb,Step-1,Increment      1: Step Time =    1.000,"P-37-1",           192,       135.459,       10.5967,            0.,NA,NA,"",   2.47012E+06,   1.80271E+06,   1.80271E+06
C:/temp/Job-37.odb,Step-1,Increment      1: Step Time =    1.000,"P-37-1",           193,       149.817,       12.5779,            0.,NA,NA,"",   2.02965E+06,   1.93464E+06,   1.93464E+06
C:/temp/Job-37.odb,Step-1,Increment      1: Step Time =    1.000,"P-37-1",           194,       159.730,       9.29568,            0.,NA,NA,"",   1.40917E+06,   166.995E+03,   166.995E+03
C:/temp/Job-37.odb,Step-1,Increment      1: Step Time =    1.000,"P-37-1",           195,       169.469,       9.25525,            0.,NA,NA,"",   1.21250E+06,   562.820E+03,   562.820E+03
C:/temp/Job-37.odb,Step-1,Increment      1: Step Time =    1.000,"P-37-1",           196,       178.913,       10.2485,            0.,NA,NA,"",   1.19857E+06,   987.948E+03,   987.948E+03
C:/temp/Job-37.odb,Step-1,Increment      1: Step Time =    1.000,"P-37-1",           197,       64.8725,       23.4366,            0.,NA,NA,"",   3.27280E+06,  -3.07818E+06,  -3.07818E+06
C:/temp/Job-37.odb,Step-1,Increment      1: Step Time =    1.000,"P-37-1",           198,       54.7604,       19.5086,            0.,NA,NA,"",   2.79291E+06,   581.134E+03,   581.134E+03
C:/temp/Job-37.odb,Step-1,Increment      1: Step Time =    1.000,"P-37-1",           199,       43.4048,       19.4678,            0.,NA,NA,"",   2.84724E+06,   2.49379E+06,   2.49379E+06
C:/temp/Job-37.odb,Step-1,Increment      1: Step Time =    1.000,"P-37-1",           200,       35.8693,       17.2843,            0.,NA,NA,"",   3.83164E+06,   3.68805E+06,   3.68805E+06
C:/temp/Job-37.odb,Step-1,Increment      1: Step Time =    1.000,"P-37-1",           201,       20.3892,       19.0847,            0.,NA,NA,"",   3.51683E+06,   3.61806E+06,   3.61806E+06
C:/temp/Job-37.odb,Step-1,Increment      1: Step Time =    1.000,"P-37-1",           202,       10.5346,       19.8716,            0.,NA,NA,"",   3.27114E+06,   3.52330E+06,   3.52330E+06
C:/temp/Job-37.odb,Step-1,Increment      1: Step Time =    1.000,"P-37-1",           203,       41.4620,       28.5260,            0.,NA,NA,"",   1.87312E+06,  -1.74214E+06,  -1.74214E+06
C:/temp/Job-37.odb,Step-1,Increment      1: Step Time =    1.000,"P-37-1",           204,       29.7854,       31.6362,            0.,NA,NA,"",   926.124E+03,  -400.125E+03,  -400.125E+03
C:/temp/Job-37.odb,Step-1,Increment      1: Step Time =    1.000,"P-37-1",           205,       19.9043,       32.0943,            0.,NA,NA,"",   589.926E+03,   364.980E+03,   364.980E+03
C:/temp/Job-37.odb,Step-1,Increment      1: Step Time =    1.000,"P-37-1",           206,       12.0818,       30.7032,            0.,NA,NA,"",   890.026E+03,   1.00253E+06,   1.00253E+06
C:/temp/Job-37.odb,Step-1,Increment      1: Step Time =    1.000,"P-37-1",           207,       31.3311,       42.8627,            0.,NA,NA,"",   3.17925E+06,  -3.22762E+06,  -3.22762E+06
C:/temp/Job-37.odb,Step-1,Increment      1: Step Time =    1.000,"P-37-1",           208,       22.0925,       41.9611,            0.,NA,NA,"",   1.72066E+06,  -1.61314E+06,  -1.61314E+06
C:/temp/Job-37.odb,Step-1,Increment      1: Step Time =    1.000,"P-37-1",           209,       9.20372,       40.8644,            0.,NA,NA,"",   870.204E+03,  -487.211E+03,  -487.211E+03
C:/temp/Job-37.odb,Step-1,Increment      1: Step Time =    1.000,"P-37-1",           210,       22.8426,       53.7552,            0.,NA,NA,"",   2.60260E+06,  -2.59234E+06,  -2.59234E+06
C:/temp/Job-37.odb,Step-1,Increment      1: Step Time =    1.000,"P-37-1",           211,       13.3606,       50.3636,            0.,NA,NA,"",   1.78253E+06,  -1.65805E+06,  -1.65805E+06
C:/temp/Job-37.odb,Step-1,Increment      1: Step Time =    1.000,"P-37-1",           212,       10.5985,       64.3575,            0.,NA,NA,"",   1.57806E+06,  -1.58037E+06,  -1.58037E+06
C:/temp/Job-37.odb,Step-1,Increment      1: Step Time =    1.000,"P-37-1",           213,       19.3955,       66.1688,            0.,NA,NA,"",   1.84696E+06,  -1.87483E+06,  -1.87483E+06
C:/temp/Job-37.odb,Step-1,Increment      1: Step Time =    1.000,"P-37-1",           214,       10.0819,       75.3342,            0.,NA,NA,"",   1.12332E+06,  -1.15081E+06,  -1.15081E+06
C:/temp/Job-37.odb,Step-1,Increment      1: Step Time =    1.000,"P-37-1",           215,       10.3539,       84.2375,            0.,NA,NA,"",   777.006E+03,  -814.704E+03,  -814.704E+03
C:/temp/Job-37.odb,Step-1,Increment      1: Step Time =    1.000,"P-37-1",           216,       10.3333,       114.036,            0.,NA,NA,"",   725.021E+03,  -762.928E+03,  -762.928E+03
C:/temp/Job-37.odb,Step-1,Increment      1: Step Time =    1.000,"P-37-1",           217,       11.2906,       107.590,            0.,NA,NA,"",   578.043E+03,  -617.158E+03,  -617.158E+03
C:/temp/Job-37.odb,Step-1,Increment      1: Step Time =    1.000,"P-37-1",           218,       8.66079,       124.794,            0.,NA,NA,"",   1.10954E+06,  -1.13530E+06,  -1.13530E+06
C:/temp/Job-37.odb,Step-1,Increment      1: Step Time =    1.000,"P-37-1",           219,       21.6894,       133.532,            0.,NA,NA,"",   1.97461E+06,  -1.99796E+06,  -1.99796E+06
C:/temp/Job-37.odb,Step-1,Increment      1: Step Time =    1.000,"P-37-1",           220,       8.17293,       134.910,            0.,NA,NA,"",   1.49684E+06,  -1.49983E+06,  -1.49983E+06
C:/temp/Job-37.odb,Step-1,Increment      1: Step Time =    1.000,"P-37-1",           221,       31.0699,       157.446,            0.,NA,NA,"",   3.07419E+06,  -3.10925E+06,  -3.10925E+06
C:/temp/Job-37.odb,Step-1,Increment      1: Step Time =    1.000,"P-37-1",           222,       20.5812,       158.271,            0.,NA,NA,"",   1.62262E+06,  -1.48395E+06,  -1.48395E+06
C:/temp/Job-37.odb,Step-1,Increment      1: Step Time =    1.000,"P-37-1",           223,       9.54200,       161.444,            0.,NA,NA,"",   667.044E+03,  -99.5772E+03,  -99.5772E+03
C:/temp/Job-37.odb,Step-1,Increment      1: Step Time =    1.000,"P-37-1",           224,       10.4778,       148.177,            0.,NA,NA,"",   1.70844E+06,  -1.61229E+06,  -1.61229E+06
C:/temp/Job-37.odb,Step-1,Increment      1: Step Time =    1.000,"P-37-1",           225,       40.9564,       171.098,            0.,NA,NA,"",   1.86855E+06,  -1.82393E+06,  -1.82393E+06
C:/temp/Job-37.odb,Step-1,Increment      1: Step Time =    1.000,"P-37-1",           226,       30.0746,       168.276,            0.,NA,NA,"",   919.146E+03,  -598.264E+03,  -598.264E+03
C:/temp/Job-37.odb,Step-1,Increment      1: Step Time =    1.000,"P-37-1",           227,       18.9021,       170.882,            0.,NA,NA,"",   1.09289E+06,   1.19186E+06,   1.19186E+06
C:/temp/Job-37.odb,Step-1,Increment      1: Step Time =    1.000,"P-37-1",           228,       7.87453,       170.338,            0.,NA,NA,"",   1.12370E+06,   1.28054E+06,   1.28054E+06
C:/temp/Job-37.odb,Step-1,Increment      1: Step Time =    1.000,"P-37-1",           229,       95.0136,       180.846,            0.,NA,NA,"",   10.4850E+06,   10.5366E+06,   10.5366E+06
C:/temp/Job-37.odb,Step-1,Increment      1: Step Time =    1.000,"P-37-1",           230,       90.0461,       180.386,            0.,NA,NA,"",   7.96385E+06,   7.97792E+06,   7.97792E+06
C:/temp/Job-37.odb,Step-1,Increment      1: Step Time =    1.000,"P-37-1",           231,       80.2430,       178.554,            0.,NA,NA,"",   3.12377E+06,   2.91518E+06,   2.91518E+06
C:/temp/Job-37.odb,Step-1,Increment      1: Step Time =    1.000,"P-37-1",           232,       75.4446,       177.188,            0.,NA,NA,"",   2.00966E+06,   128.756E+03,   128.756E+03
C:/temp/Job-37.odb,Step-1,Increment      1: Step Time =    1.000,"P-37-1",           233,       66.1452,       173.586,            0.,NA,NA,"",   3.58088E+06,  -3.49455E+06,  -3.49455E+06
C:/temp/Job-37.odb,Step-1,Increment      1: Step Time =    1.000,"P-37-1",           234,       61.6794,       171.362,            0.,NA,NA,"",   4.49718E+06,  -4.50539E+06,  -4.50539E+06
C:/temp/Job-37.odb,Step-1,Increment      1: Step Time =    1.000,"P-37-1",           235,       53.2003,       166.112,            0.,NA,NA,"",   5.56048E+06,  -5.58879E+06,  -5.58879E+06
C:/temp/Job-37.odb,Step-1,Increment      1: Step Time =    1.000,"P-37-1",           236,       49.2192,       163.106,            0.,NA,NA,"",   5.59660E+06,  -5.65842E+06,  -5.65842E+06
C:/temp/Job-37.odb,Step-1,Increment      1: Step Time =    1.000,"P-37-1",           237,       41.8491,       156.387,            0.,NA,NA,"",   5.32325E+06,  -5.39601E+06,  -5.39601E+06
C:/temp/Job-37.odb,Step-1,Increment      1: Step Time =    1.000,"P-37-1",           238,       38.4882,       152.700,            0.,NA,NA,"",   5.05837E+06,  -5.10402E+06,  -5.10402E+06
C:/temp/Job-37.odb,Step-1,Increment      1: Step Time =    1.000,"P-37-1",           239,       32.4782,       144.742,            0.,NA,NA,"",   3.95911E+06,  -3.99259E+06,  -3.99259E+06
C:/temp/Job-37.odb,Step-1,Increment      1: Step Time =    1.000,"P-37-1",           240,       29.8519,         140.5,            0.,NA,NA,"",   3.26829E+06,  -3.29735E+06,  -3.29735E+06
C:/temp/Job-37.odb,Step-1,Increment      1: Step Time =    1.000,"P-37-1",           241,       25.4067,       131.573,            0.,NA,NA,"",   2.03477E+06,  -2.05699E+06,  -2.05699E+06
C:/temp/Job-37.odb,Step-1,Increment      1: Step Time =    1.000,"P-37-1",           242,       23.6045,       126.921,            0.,NA,NA,"",   1.56456E+06,  -1.58484E+06,  -1.58484E+06
C:/temp/Job-37.odb,Step-1,Increment      1: Step Time =    1.000,"P-37-1",           243,       20.8753,       117.329,            0.,NA,NA,"",   972.154E+03,  -984.381E+03,  -984.381E+03
C:/temp/Job-37.odb,Step-1,Increment      1: Step Time =    1.000,"P-37-1",           244,       19.9586,       112.425,            0.,NA,NA,"",   808.986E+03,  -820.127E+03,  -820.127E+03
C:/temp/Job-37.odb,Step-1,Increment      1: Step Time =    1.000,"P-37-1",           245,       19.0384,       102.494,            0.,NA,NA,"",   663.690E+03,  -675.805E+03,  -675.805E+03
C:/temp/Job-37.odb,Step-1,Increment      1: Step Time =    1.000,"P-37-1",           246,       19.0384,       97.5056,            0.,NA,NA,"",   670.018E+03,  -683.184E+03,  -683.184E+03
C:/temp/Job-37.odb,Step-1,Increment      1: Step Time =    1.000,"P-37-1",           247,       19.9586,       87.5753,            0.,NA,NA,"",   799.685E+03,  -811.990E+03,  -811.990E+03
C:/temp/Job-37.odb,Step-1,Increment      1: Step Time =    1.000,"P-37-1",           248,       20.8753,       82.6714,            0.,NA,NA,"",   931.936E+03,  -944.899E+03,  -944.899E+03
C:/temp/Job-37.odb,Step-1,Increment      1: Step Time =    1.000,"P-37-1",           249,       23.6045,       73.0793,            0.,NA,NA,"",   1.50917E+06,  -1.54035E+06,  -1.54035E+06
C:/temp/Job-37.odb,Step-1,Increment      1: Step Time =    1.000,"P-37-1",           250,       25.4067,       68.4273,            0.,NA,NA,"",   1.97962E+06,  -2.01794E+06,  -2.01794E+06
C:/temp/Job-37.odb,Step-1,Increment      1: Step Time =    1.000,"P-37-1",           251,       29.8519,          59.5,            0.,NA,NA,"",   3.24197E+06,  -3.26471E+06,  -3.26471E+06
C:/temp/Job-37.odb,Step-1,Increment      1: Step Time =    1.000,"P-37-1",           252,       32.4782,       55.2584,            0.,NA,NA,"",   3.94541E+06,  -3.97333E+06,  -3.97333E+06
C:/temp/Job-37.odb,Step-1,Increment      1: Step Time =    1.000,"P-37-1",           253,       38.4882,       47.2999,            0.,NA,NA,"",   5.06368E+06,  -5.10944E+06,  -5.10944E+06
C:/temp/Job-37.odb,Step-1,Increment      1: Step Time =    1.000,"P-37-1",           254,       41.8491,       43.6132,            0.,NA,NA,"",   5.34437E+06,  -5.42049E+06,  -5.42049E+06
C:/temp/Job-37.odb,Step-1,Increment      1: Step Time =    1.000,"P-37-1",           255,       49.2192,       36.8945,            0.,NA,NA,"",   5.68619E+06,  -5.75287E+06,  -5.75287E+06
C:/temp/Job-37.odb,Step-1,Increment      1: Step Time =    1.000,"P-37-1",           256,       53.2003,       33.8881,            0.,NA,NA,"",   5.74340E+06,  -5.78304E+06,  -5.78304E+06
C:/temp/Job-37.odb,Step-1,Increment      1: Step Time =    1.000,"P-37-1",           257,       61.6794,       28.6380,            0.,NA,NA,"",   4.91103E+06,  -4.92231E+06,  -4.92231E+06
C:/temp/Job-37.odb,Step-1,Increment      1: Step Time =    1.000,"P-37-1",           258,       66.1452,       26.4143,            0.,NA,NA,"",   3.88449E+06,  -3.87038E+06,  -3.87038E+06
C:/temp/Job-37.odb,Step-1,Increment      1: Step Time =    1.000,"P-37-1",           259,       75.4446,       22.8117,            0.,NA,NA,"",   2.00797E+06,   -3.4615E+03,   -3.4615E+03
C:/temp/Job-37.odb,Step-1,Increment      1: Step Time =    1.000,"P-37-1",           260,       80.2430,       21.4464,            0.,NA,NA,"",   3.46152E+06,   3.13858E+06,   3.13858E+06
C:/temp/Job-37.odb,Step-1,Increment      1: Step Time =    1.000,"P-37-1",           261,       90.0461,       19.6139,            0.,NA,NA,"",   8.00672E+06,   8.01507E+06,   8.01507E+06
C:/temp/Job-37.odb,Step-1,Increment      1: Step Time =    1.000,"P-37-1",           262,       95.0136,       19.1536,            0.,NA,NA,"",   10.4793E+06,   10.5359E+06,   10.5359E+06
C:/temp/Job-37.odb,Step-1,Increment      1: Step Time =    1.000,"P-37-1",           263,       104.986,       19.1536,            0.,NA,NA,"",   14.3905E+06,   14.5588E+06,   14.5588E+06
C:/temp/Job-37.odb,Step-1,Increment      1: Step Time =    1.000,"P-37-1",           264,       109.954,       19.6139,            0.,NA,NA,"",   15.7621E+06,   15.8576E+06,   15.8576E+06
C:/temp/Job-37.odb,Step-1,Increment      1: Step Time =    1.000,"P-37-1",           265,       119.757,       21.4464,            0.,NA,NA,"",   16.0298E+06,   16.1759E+06,   16.1759E+06
C:/temp/Job-37.odb,Step-1,Increment      1: Step Time =    1.000,"P-37-1",           266,       124.555,       22.8117,            0.,NA,NA,"",   15.1407E+06,   15.3223E+06,   15.3223E+06
C:/temp/Job-37.odb,Step-1,Increment      1: Step Time =    1.000,"P-37-1",           267,       133.855,       26.4143,            0.,NA,NA,"",   12.6821E+06,   12.8286E+06,   12.8286E+06
C:/temp/Job-37.odb,Step-1,Increment      1: Step Time =    1.000,"P-37-1",           268,       138.321,       28.6380,            0.,NA,NA,"",   11.2812E+06,   11.4234E+06,   11.4234E+06
C:/temp/Job-37.odb,Step-1,Increment      1: Step Time =    1.000,"P-37-1",           269,       146.800,       33.8881,            0.,NA,NA,"",   8.52973E+06,   8.63442E+06,   8.63442E+06
C:/temp/Job-37.odb,Step-1,Increment      1: Step Time =    1.000,"P-37-1",           270,       150.781,       36.8945,            0.,NA,NA,"",   7.29844E+06,   7.38685E+06,   7.38685E+06
C:/temp/Job-37.odb,Step-1,Increment      1: Step Time =    1.000,"P-37-1",           271,       158.151,       43.6132,            0.,NA,NA,"",   5.32721E+06,   5.40439E+06,   5.40439E+06
C:/temp/Job-37.odb,Step-1,Increment      1: Step Time =    1.000,"P-37-1",           272,       161.512,       47.2999,            0.,NA,NA,"",   4.49480E+06,   4.53180E+06,   4.53180E+06
C:/temp/Job-37.odb,Step-1,Increment      1: Step Time =    1.000,"P-37-1",           273,       167.522,       55.2584,            0.,NA,NA,"",   2.78384E+06,   2.77180E+06,   2.77180E+06
C:/temp/Job-37.odb,Step-1,Increment      1: Step Time =    1.000,"P-37-1",           274,       170.148,          59.5,            0.,NA,NA,"",   1.85521E+06,   1.76787E+06,   1.76787E+06
C:/temp/Job-37.odb,Step-1,Increment      1: Step Time =    1.000,"P-37-1",           275,       174.593,       68.4273,            0.,NA,NA,"",   1.80031E+06,  -1.64988E+06,  -1.64988E+06
C:/temp/Job-37.odb,Step-1,Increment      1: Step Time =    1.000,"P-37-1",           276,       176.396,       73.0793,            0.,NA,NA,"",   3.39191E+06,  -3.34194E+06,  -3.34194E+06
C:/temp/Job-37.odb,Step-1,Increment      1: Step Time =    1.000,"P-37-1",           277,       179.125,       82.6714,            0.,NA,NA,"",   6.76148E+06,  -6.77303E+06,  -6.77303E+06
C:/temp/Job-37.odb,Step-1,Increment      1: Step Time =    1.000,"P-37-1",           278,       180.041,       87.5753,            0.,NA,NA,"",   7.98899E+06,  -8.05423E+06,  -8.05423E+06
C:/temp/Job-37.odb,Step-1,Increment      1: Step Time =    1.000,"P-37-1",           279,       180.962,       97.5056,            0.,NA,NA,"",   10.6856E+06,  -10.7582E+06,  -10.7582E+06
C:/temp/Job-37.odb,Step-1,Increment      1: Step Time =    1.000,"P-37-1",           280,       180.962,       102.494,            0.,NA,NA,"",   10.5892E+06,  -10.6587E+06,  -10.6587E+06
C:/temp/Job-37.odb,Step-1,Increment      1: Step Time =    1.000,"P-37-1",           281,       180.041,       112.425,            0.,NA,NA,"",   8.72372E+06,  -8.77079E+06,  -8.77079E+06
C:/temp/Job-37.odb,Step-1,Increment      1: Step Time =    1.000,"P-37-1",           282,       179.125,       117.329,            0.,NA,NA,"",   7.08062E+06,  -7.10765E+06,  -7.10765E+06
C:/temp/Job-37.odb,Step-1,Increment      1: Step Time =    1.000,"P-37-1",           283,       176.396,       126.921,            0.,NA,NA,"",   3.42688E+06,  -3.27539E+06,  -3.27539E+06
C:/temp/Job-37.odb,Step-1,Increment      1: Step Time =    1.000,"P-37-1",           284,       174.593,       131.573,            0.,NA,NA,"",   2.08436E+06,  -1.79174E+06,  -1.79174E+06
C:/temp/Job-37.odb,Step-1,Increment      1: Step Time =    1.000,"P-37-1",           285,       170.148,         140.5,            0.,NA,NA,"",   1.90537E+06,   1.81376E+06,   1.81376E+06
C:/temp/Job-37.odb,Step-1,Increment      1: Step Time =    1.000,"P-37-1",           286,       167.522,       144.742,            0.,NA,NA,"",   2.79615E+06,   2.78183E+06,   2.78183E+06
C:/temp/Job-37.odb,Step-1,Increment      1: Step Time =    1.000,"P-37-1",           287,       161.512,       152.700,            0.,NA,NA,"",   4.45696E+06,   4.50220E+06,   4.50220E+06
C:/temp/Job-37.odb,Step-1,Increment      1: Step Time =    1.000,"P-37-1",           288,       158.151,       156.387,            0.,NA,NA,"",   5.25267E+06,   5.31833E+06,   5.31833E+06
C:/temp/Job-37.odb,Step-1,Increment      1: Step Time =    1.000,"P-37-1",           289,       150.781,       163.106,            0.,NA,NA,"",   7.18422E+06,   7.31217E+06,   7.31217E+06
C:/temp/Job-37.odb,Step-1,Increment      1: Step Time =    1.000,"P-37-1",           290,       146.800,       166.112,            0.,NA,NA,"",   8.48119E+06,   8.60310E+06,   8.60310E+06
C:/temp/Job-37.odb,Step-1,Increment      1: Step Time =    1.000,"P-37-1",           291,       138.321,       171.362,            0.,NA,NA,"",   11.4577E+06,   11.5627E+06,   11.5627E+06
C:/temp/Job-37.odb,Step-1,Increment      1: Step Time =    1.000,"P-37-1",           292,       133.855,       173.586,            0.,NA,NA,"",   12.9492E+06,   13.0681E+06,   13.0681E+06
C:/temp/Job-37.odb,Step-1,Increment      1: Step Time =    1.000,"P-37-1",           293,       124.555,       177.188,            0.,NA,NA,"",   15.3583E+06,   15.5393E+06,   15.5393E+06
C:/temp/Job-37.odb,Step-1,Increment      1: Step Time =    1.000,"P-37-1",           294,       119.757,       178.554,            0.,NA,NA,"",   16.2167E+06,   16.3644E+06,   16.3644E+06
C:/temp/Job-37.odb,Step-1,Increment      1: Step Time =    1.000,"P-37-1",           295,       109.954,       180.386,            0.,NA,NA,"",   15.9018E+06,   15.9980E+06,   15.9980E+06
C:/temp/Job-37.odb,Step-1,Increment      1: Step Time =    1.000,"P-37-1",           296,       104.986,       180.846,            0.,NA,NA,"",   14.4760E+06,   14.6458E+06,   14.6458E+06
C:/temp/Job-37.odb,Step-1,Increment      1: Step Time =    1.000,"P-37-1",           297,          195.,            0.,            0.,NA,NA,"",   938.744E+03,   920.134E+03,   920.134E+03
C:/temp/Job-37.odb,Step-1,Increment      1: Step Time =    1.000,"P-37-1",           298,          185.,            0.,            0.,NA,NA,"",   582.934E+03,   542.309E+03,   542.309E+03
C:/temp/Job-37.odb,Step-1,Increment      1: Step Time =    1.000,"P-37-1",           299,          175.,            0.,            0.,NA,NA,"",   480.110E+03,  -400.522E+03,  -400.522E+03
C:/temp/Job-37.odb,Step-1,Increment      1: Step Time =    1.000,"P-37-1",           300,          165.,            0.,            0.,NA,NA,"",   1.30256E+06,  -1.28359E+06,  -1.28359E+06
C:/temp/Job-37.odb,Step-1,Increment      1: Step Time =    1.000,"P-37-1",           301,          155.,            0.,            0.,NA,NA,"",   2.48026E+06,  -2.46387E+06,  -2.46387E+06
C:/temp/Job-37.odb,Step-1,Increment      1: Step Time =    1.000,"P-37-1",           302,          145.,            0.,            0.,NA,NA,"",   3.78290E+06,  -3.77357E+06,  -3.77357E+06
C:/temp/Job-37.odb,Step-1,Increment      1: Step Time =    1.000,"P-37-1",           303,          135.,            0.,            0.,NA,NA,"",   5.06797E+06,  -5.03672E+06,  -5.03672E+06
C:/temp/Job-37.odb,Step-1,Increment      1: Step Time =    1.000,"P-37-1",           304,          125.,            0.,            0.,NA,NA,"",   5.78894E+06,  -5.75151E+06,  -5.75151E+06
C:/temp/Job-37.odb,Step-1,Increment      1: Step Time =    1.000,"P-37-1",           305,          115.,            0.,            0.,NA,NA,"",   5.41835E+06,  -5.39753E+06,  -5.39753E+06
C:/temp/Job-37.odb,Step-1,Increment      1: Step Time =    1.000,"P-37-1",           306,          105.,            0.,            0.,NA,NA,"",   3.80976E+06,  -3.66421E+06,  -3.66421E+06
C:/temp/Job-37.odb,Step-1,Increment      1: Step Time =    1.000,"P-37-1",           307,           95.,            0.,            0.,NA,NA,"",   1.94931E+06,   156.415E+03,   156.415E+03
C:/temp/Job-37.odb,Step-1,Increment      1: Step Time =    1.000,"P-37-1",           308,           85.,            0.,            0.,NA,NA,"",   4.48387E+06,   4.31439E+06,   4.31439E+06
C:/temp/Job-37.odb,Step-1,Increment      1: Step Time =    1.000,"P-37-1",           309,           75.,            0.,            0.,NA,NA,"",   7.48840E+06,   7.39631E+06,   7.39631E+06
C:/temp/Job-37.odb,Step-1,Increment      1: Step Time =    1.000,"P-37-1",           310,           65.,            0.,            0.,NA,NA,"",   9.28467E+06,   9.24442E+06,   9.24442E+06
C:/temp/Job-37.odb,Step-1,Increment      1: Step Time =    1.000,"P-37-1",           311,           55.,            0.,            0.,NA,NA,"",   9.92251E+06,   9.90536E+06,   9.90536E+06
C:/temp/Job-37.odb,Step-1,Increment      1: Step Time =    1.000,"P-37-1",           312,           45.,            0.,            0.,NA,NA,"",   9.92406E+06,   9.91242E+06,   9.91242E+06
C:/temp/Job-37.odb,Step-1,Increment      1: Step Time =    1.000,"P-37-1",           313,           35.,            0.,            0.,NA,NA,"",   9.35431E+06,   9.34706E+06,   9.34706E+06
C:/temp/Job-37.odb,Step-1,Increment      1: Step Time =    1.000,"P-37-1",           314,           25.,            0.,            0.,NA,NA,"",   8.55749E+06,   8.56043E+06,   8.56043E+06
C:/temp/Job-37.odb,Step-1,Increment      1: Step Time =    1.000,"P-37-1",           315,           15.,            0.,            0.,NA,NA,"",   7.88153E+06,   7.89924E+06,   7.89924E+06
C:/temp/Job-37.odb,Step-1,Increment      1: Step Time =    1.000,"P-37-1",           316,            5.,            0.,            0.,NA,NA,"",   7.74029E+06,   7.90543E+06,   7.90543E+06
C:/temp/Job-37.odb,Step-1,Increment      1: Step Time =    1.000,"P-37-1",           317,          200.,          195.,            0.,NA,NA,"",   1.01756E+06,   975.816E+03,   975.816E+03
C:/temp/Job-37.odb,Step-1,Increment      1: Step Time =    1.000,"P-37-1",           318,          200.,          185.,            0.,NA,NA,"",   1.30180E+06,   1.00673E+06,   1.00673E+06
C:/temp/Job-37.odb,Step-1,Increment      1: Step Time =    1.000,"P-37-1",           319,          200.,          175.,            0.,NA,NA,"",   1.62020E+06,   1.04271E+06,   1.04271E+06
C:/temp/Job-37.odb,Step-1,Increment      1: Step Time =    1.000,"P-37-1",           320,          200.,          165.,            0.,NA,NA,"",   1.57736E+06,   1.07796E+06,   1.07796E+06
C:/temp/Job-37.odb,Step-1,Increment      1: Step Time =    1.000,"P-37-1",           321,          200.,          155.,            0.,NA,NA,"",   1.17584E+06,   1.14620E+06,   1.14620E+06
C:/temp/Job-37.odb,Step-1,Increment      1: Step Time =    1.000,"P-37-1",           322,          200.,          145.,            0.,NA,NA,"",   1.78726E+06,   2.04139E+06,   2.04139E+06
C:/temp/Job-37.odb,Step-1,Increment      1: Step Time =    1.000,"P-37-1",           323,          200.,          135.,            0.,NA,NA,"",   4.11158E+06,   4.49221E+06,   4.49221E+06
C:/temp/Job-37.odb,Step-1,Increment      1: Step Time =    1.000,"P-37-1",           324,          200.,          125.,            0.,NA,NA,"",   7.06550E+06,   7.49656E+06,   7.49656E+06
C:/temp/Job-37.odb,Step-1,Increment      1: Step Time =    1.000,"P-37-1",           325,          200.,          115.,            0.,NA,NA,"",   10.0516E+06,   10.4686E+06,   10.4686E+06
C:/temp/Job-37.odb,Step-1,Increment      1: Step Time =    1.000,"P-37-1",           326,          200.,          105.,            0.,NA,NA,"",   11.9630E+06,   12.3814E+06,   12.3814E+06
C:/temp/Job-37.odb,Step-1,Increment      1: Step Time =    1.000,"P-37-1",           327,          200.,           95.,            0.,NA,NA,"",   12.2614E+06,   12.6501E+06,   12.6501E+06
C:/temp/Job-37.odb,Step-1,Increment      1: Step Time =    1.000,"P-37-1",           328,          200.,           85.,            0.,NA,NA,"",   10.2366E+06,   10.6640E+06,   10.6640E+06
C:/temp/Job-37.odb,Step-1,Increment      1: Step Time =    1.000,"P-37-1",           329,          200.,           75.,            0.,NA,NA,"",   7.20267E+06,   7.62514E+06,   7.62514E+06
C:/temp/Job-37.odb,Step-1,Increment      1: Step Time =    1.000,"P-37-1",           330,          200.,           65.,            0.,NA,NA,"",   4.14882E+06,   4.51297E+06,   4.51297E+06
C:/temp/Job-37.odb,Step-1,Increment      1: Step Time =    1.000,"P-37-1",           331,          200.,           55.,            0.,NA,NA,"",   1.84399E+06,   2.09092E+06,   2.09092E+06
C:/temp/Job-37.odb,Step-1,Increment      1: Step Time =    1.000,"P-37-1",           332,          200.,           45.,            0.,NA,NA,"",   1.18714E+06,   1.13111E+06,   1.13111E+06
C:/temp/Job-37.odb,Step-1,Increment      1: Step Time =    1.000,"P-37-1",           333,          200.,           35.,            0.,NA,NA,"",   1.60342E+06,   1.04839E+06,   1.04839E+06
C:/temp/Job-37.odb,Step-1,Increment      1: Step Time =    1.000,"P-37-1",           334,          200.,           25.,            0.,NA,NA,"",   1.65124E+06,   1.02794E+06,   1.02794E+06
C:/temp/Job-37.odb,Step-1,Increment      1: Step Time =    1.000,"P-37-1",           335,          200.,           15.,            0.,NA,NA,"",   1.31717E+06,   1.01254E+06,   1.01254E+06
C:/temp/Job-37.odb,Step-1,Increment      1: Step Time =    1.000,"P-37-1",           336,          200.,            5.,            0.,NA,NA,"",   1.02249E+06,   975.715E+03,   975.715E+03
C:/temp/Job-37.odb,Step-1,Increment      1: Step Time =    1.000,"P-37-1",           337,            5.,          200.,            0.,NA,NA,"",   7.68944E+06,   7.85869E+06,   7.85869E+06
C:/temp/Job-37.odb,Step-1,Increment      1: Step Time =    1.000,"P-37-1",           338,           15.,          200.,            0.,NA,NA,"",   7.85484E+06,   7.87121E+06,   7.87121E+06
C:/temp/Job-37.odb,Step-1,Increment      1: Step Time =    1.000,"P-37-1",           339,           25.,          200.,            0.,NA,NA,"",   8.53079E+06,   8.53422E+06,   8.53422E+06
C:/temp/Job-37.odb,Step-1,Increment      1: Step Time =    1.000,"P-37-1",           340,           35.,          200.,            0.,NA,NA,"",   9.31149E+06,   9.30683E+06,   9.30683E+06
C:/temp/Job-37.odb,Step-1,Increment      1: Step Time =    1.000,"P-37-1",           341,           45.,          200.,            0.,NA,NA,"",   9.98553E+06,   9.96662E+06,   9.96662E+06
C:/temp/Job-37.odb,Step-1,Increment      1: Step Time =    1.000,"P-37-1",           342,           55.,          200.,            0.,NA,NA,"",   10.1517E+06,   10.1265E+06,   10.1265E+06
C:/temp/Job-37.odb,Step-1,Increment      1: Step Time =    1.000,"P-37-1",           343,           65.,          200.,            0.,NA,NA,"",   9.42537E+06,   9.40023E+06,   9.40023E+06
C:/temp/Job-37.odb,Step-1,Increment      1: Step Time =    1.000,"P-37-1",           344,           75.,          200.,            0.,NA,NA,"",   7.55202E+06,   7.48914E+06,   7.48914E+06
C:/temp/Job-37.odb,Step-1,Increment      1: Step Time =    1.000,"P-37-1",           345,           85.,          200.,            0.,NA,NA,"",   4.48015E+06,   4.30151E+06,   4.30151E+06
C:/temp/Job-37.odb,Step-1,Increment      1: Step Time =    1.000,"P-37-1",           346,           95.,          200.,            0.,NA,NA,"",   1.96574E+06,   161.825E+03,   161.825E+03
C:/temp/Job-37.odb,Step-1,Increment      1: Step Time =    1.000,"P-37-1",           347,          105.,          200.,            0.,NA,NA,"",   3.77209E+06,  -3.62207E+06,  -3.62207E+06
C:/temp/Job-37.odb,Step-1,Increment      1: Step Time =    1.000,"P-37-1",           348,          115.,          200.,            0.,NA,NA,"",   5.32151E+06,  -5.29791E+06,  -5.29791E+06
C:/temp/Job-37.odb,Step-1,Increment      1: Step Time =    1.000,"P-37-1",           349,          125.,          200.,            0.,NA,NA,"",   5.73643E+06,  -5.68188E+06,  -5.68188E+06
C:/temp/Job-37.odb,Step-1,Increment      1: Step Time =    1.000,"P-37-1",           350,          135.,          200.,            0.,NA,NA,"",   4.85454E+06,  -4.82167E+06,  -4.82167E+06
C:/temp/Job-37.odb,Step-1,Increment      1: Step Time =    1.000,"P-37-1",           351,          145.,          200.,            0.,NA,NA,"",   3.44230E+06,  -3.44548E+06,  -3.44548E+06
C:/temp/Job-37.odb,Step-1,Increment      1: Step Time =    1.000,"P-37-1",           352,          155.,          200.,            0.,NA,NA,"",   2.29393E+06,  -2.27388E+06,  -2.27388E+06
C:/temp/Job-37.odb,Step-1,Increment      1: Step Time =    1.000,"P-37-1",           353,          165.,          200.,            0.,NA,NA,"",   1.27531E+06,  -1.24723E+06,  -1.24723E+06
C:/temp/Job-37.odb,Step-1,Increment      1: Step Time =    1.000,"P-37-1",           354,          175.,          200.,            0.,NA,NA,"",   443.967E+03,  -365.505E+03,  -365.505E+03
C:/temp/Job-37.odb,Step-1,Increment      1: Step Time =    1.000,"P-37-1",           355,          185.,          200.,            0.,NA,NA,"",   577.435E+03,   547.703E+03,   547.703E+03
C:/temp/Job-37.odb,Step-1,Increment      1: Step Time =    1.000,"P-37-1",           356,          195.,          200.,            0.,NA,NA,"",   944.926E+03,   929.854E+03,   929.854E+03
C:/temp/Job-37.odb,Step-1,Increment      1: Step Time =    1.000,"P-37-1",           357,            0.,            5.,            0.,NA,NA,"",   6.80160E+06,   7.29308E+06,   7.29308E+06
C:/temp/Job-37.odb,Step-1,Increment      1: Step Time =    1.000,"P-37-1",           358,            0.,           15.,            0.,NA,NA,"",   4.12778E+06,   4.58181E+06,   4.58181E+06
C:/temp/Job-37.odb,Step-1,Increment      1: Step Time =    1.000,"P-37-1",           359,            0.,           25.,            0.,NA,NA,"",   2.08403E+06,   2.32894E+06,   2.32894E+06
C:/temp/Job-37.odb,Step-1,Increment      1: Step Time =    1.000,"P-37-1",           360,            0.,           35.,            0.,NA,NA,"",   539.152E+03,   590.200E+03,   590.200E+03
C:/temp/Job-37.odb,Step-1,Increment      1: Step Time =    1.000,"P-37-1",           361,            0.,           45.,            0.,NA,NA,"",   778.872E+03,  -795.358E+03,  -795.358E+03
C:/temp/Job-37.odb,Step-1,Increment      1: Step Time =    1.000,"P-37-1",           362,            0.,           55.,            0.,NA,NA,"",   1.35050E+06,  -1.38896E+06,  -1.38896E+06
C:/temp/Job-37.odb,Step-1,Increment      1: Step Time =    1.000,"P-37-1",           363,            0.,           65.,            0.,NA,NA,"",   1.41943E+06,  -1.42539E+06,  -1.42539E+06
C:/temp/Job-37.odb,Step-1,Increment      1: Step Time =    1.000,"P-37-1",           364,            0.,           75.,            0.,NA,NA,"",   1.13192E+06,  -1.11808E+06,  -1.11808E+06
C:/temp/Job-37.odb,Step-1,Increment      1: Step Time =    1.000,"P-37-1",           365,            0.,           85.,            0.,NA,NA,"",   699.476E+03,  -707.457E+03,  -707.457E+03
C:/temp/Job-37.odb,Step-1,Increment      1: Step Time =    1.000,"P-37-1",           366,            0.,           95.,            0.,NA,NA,"",   352.199E+03,  -390.600E+03,  -390.600E+03
C:/temp/Job-37.odb,Step-1,Increment      1: Step Time =    1.000,"P-37-1",           367,            0.,          105.,            0.,NA,NA,"",   335.973E+03,  -379.244E+03,  -379.244E+03
C:/temp/Job-37.odb,Step-1,Increment      1: Step Time =    1.000,"P-37-1",           368,            0.,          115.,            0.,NA,NA,"",   714.284E+03,  -718.333E+03,  -718.333E+03
C:/temp/Job-37.odb,Step-1,Increment      1: Step Time =    1.000,"P-37-1",           369,            0.,          125.,            0.,NA,NA,"",   1.15451E+06,  -1.13149E+06,  -1.13149E+06
C:/temp/Job-37.odb,Step-1,Increment      1: Step Time =    1.000,"P-37-1",           370,            0.,          135.,            0.,NA,NA,"",   1.43108E+06,  -1.43787E+06,  -1.43787E+06
C:/temp/Job-37.odb,Step-1,Increment      1: Step Time =    1.000,"P-37-1",           371,            0.,          145.,            0.,NA,NA,"",   1.36011E+06,  -1.38642E+06,  -1.38642E+06
C:/temp/Job-37.odb,Step-1,Increment      1: Step Time =    1.000,"P-37-1",           372,            0.,          155.,            0.,NA,NA,"",   721.797E+03,  -721.668E+03,  -721.668E+03
C:/temp/Job-37.odb,Step-1,Increment      1: Step Time =    1.000,"P-37-1",           373,            0.,          165.,            0.,NA,NA,"",   548.557E+03,   599.504E+03,   599.504E+03
C:/temp/Job-37.odb,Step-1,Increment      1: Step Time =    1.000,"P-37-1",           374,            0.,          175.,            0.,NA,NA,"",   2.08706E+06,   2.32841E+06,   2.32841E+06
C:/temp/Job-37.odb,Step-1,Increment      1: Step Time =    1.000,"P-37-1",           375,            0.,          185.,            0.,NA,NA,"",   4.10153E+06,   4.55273E+06,   4.55273E+06
C:/temp/Job-37.odb,Step-1,Increment      1: Step Time =    1.000,"P-37-1",           376,            0.,          195.,            0.,NA,NA,"",   6.72040E+06,   7.20013E+06,   7.20013E+06
C:/temp/Job-37.odb,Step-1,Increment      1: Step Time =    1.000,"P-37-1",           377,       168.047,       151.063,            0.,NA,NA,"",   3.51601E+06,   3.50675E+06,   3.50675E+06
C:/temp/Job-37.odb,Step-1,Increment      1: Step Time =    1.000,"P-37-1",           378,       19.9738,       128.616,            0.,NA,NA,"",   1.54811E+06,  -1.57308E+06,  -1.57308E+06
C:/temp/Job-37.odb,Step-1,Increment      1: Step Time =    1.000,"P-37-1",           379,       145.083,       26.9864,            0.,NA,NA,"",   8.41740E+06,   8.60021E+06,   8.60021E+06
C:/temp/Job-37.odb,Step-1,Increment      1: Step Time =    1.000,"P-37-1",           380,       23.1816,       61.1885,            0.,NA,NA,"",   2.44513E+06,  -2.46069E+06,  -2.46069E+06
C:/temp/Job-37.odb,Step-1,Increment      1: Step Time =    1.000,"P-37-1",           381,       158.811,       163.011,            0.,NA,NA,"",   5.42417E+06,   5.54748E+06,   5.54748E+06
C:/temp/Job-37.odb,Step-1,Increment      1: Step Time =    1.000,"P-37-1",           382,       164.634,       44.4622,            0.,NA,NA,"",   4.25841E+06,   4.29659E+06,   4.29659E+06
C:/temp/Job-37.odb,Step-1,Increment      1: Step Time =    1.000,"P-37-1",           383,       184.202,       113.441,            0.,NA,NA,"",   5.98688E+06,  -5.86987E+06,  -5.86987E+06
C:/temp/Job-37.odb,Step-1,Increment      1: Step Time =    1.000,"P-37-1",           384,       54.9996,       172.917,            0.,NA,NA,"",   3.95639E+06,  -3.91979E+06,  -3.91979E+06
C:/temp/Job-37.odb,Step-1,Increment      1: Step Time =    1.000,"P-37-1",           385,       149.557,       170.188,            0.,NA,NA,"",   7.42369E+06,   7.59189E+06,   7.59189E+06
C:/temp/Job-37.odb,Step-1,Increment      1: Step Time =    1.000,"P-37-1",           386,       153.363,       32.9056,            0.,NA,NA,"",   6.54095E+06,   6.67831E+06,   6.67831E+06
C:/temp/Job-37.odb,Step-1,Increment      1: Step Time =    1.000,"P-37-1",           387,       32.2488,       48.9651,            0.,NA,NA,"",   4.06762E+06,  -4.10887E+06,  -4.10887E+06
C:/temp/Job-37.odb,Step-1,Increment      1: Step Time =    1.000,"P-37-1",           388,       29.2694,       146.883,            0.,NA,NA,"",   3.58326E+06,  -3.61922E+06,  -3.61922E+06
C:/temp/Job-37.odb,Step-1,Increment      1: Step Time =    1.000,"P-37-1",           389,       181.743,       76.2051,            0.,NA,NA,"",   4.27736E+06,  -3.94365E+06,  -3.94365E+06
C:/temp/Job-37.odb,Step-1,Increment      1: Step Time =    1.000,"P-37-1",           390,       56.1249,       27.7339,            0.,NA,NA,"",   4.39160E+06,  -4.40501E+06,  -4.40501E+06
C:/temp/Job-37.odb,Step-1,Increment      1: Step Time =    1.000,"P-37-1",           391,       125.928,       17.7157,            0.,NA,NA,"",   11.2569E+06,   11.5073E+06,   11.5073E+06
C:/temp/Job-37.odb,Step-1,Increment      1: Step Time =    1.000,"P-37-1",           392,       50.9419,       169.867,            0.,NA,NA,"",   4.38841E+06,  -4.41225E+06,  -4.41225E+06
C:/temp/Job-37.odb,Step-1,Increment      1: Step Time =    1.000,"P-37-1",           393,       69.0161,       21.1576,            0.,NA,NA,"",   2.72571E+06,  -1.18309E+06,  -1.18309E+06
C:/temp/Job-37.odb,Step-1,Increment      1: Step Time =    1.000,"P-37-1",           394,       34.8977,       155.286,            0.,NA,NA,"",   4.34896E+06,  -4.40203E+06,  -4.40203E+06
C:/temp/Job-37.odb,Step-1,Increment      1: Step Time =    1.000,"P-37-1",           395,       47.0865,       32.3530,            0.,NA,NA,"",   4.40431E+06,  -4.47616E+06,  -4.47616E+06
C:/temp/Job-37.odb,Step-1,Increment      1: Step Time =    1.000,"P-37-1",           396,       120.522,       17.4303,            0.,NA,NA,"",   13.2283E+06,   13.4482E+06,   13.4482E+06
C:/temp/Job-37.odb,Step-1,Increment      1: Step Time =    1.000,"P-37-1",           397,       111.296,       15.1482,            0.,NA,NA,"",   12.2757E+06,   12.4105E+06,   12.4105E+06
C:/temp/Job-37.odb,Step-1,Increment      1: Step Time =    1.000,"P-37-1",           398,       17.0358,       119.050,            0.,NA,NA,"",   974.550E+03,  -996.813E+03,  -996.813E+03
C:/temp/Job-37.odb,Step-1,Increment      1: Step Time =    1.000,"P-37-1",           399,       184.137,       85.5300,            0.,NA,NA,"",   5.88097E+06,  -5.65955E+06,  -5.65955E+06
C:/temp/Job-37.odb,Step-1,Increment      1: Step Time =    1.000,"P-37-1",           400,       185.090,       108.410,            0.,NA,NA,"",   6.28031E+06,  -6.25380E+06,  -6.25380E+06
C:/temp/Job-37.odb,Step-1,Increment      1: Step Time =    1.000,"P-37-1",           401,       120.352,       182.267,            0.,NA,NA,"",   13.7356E+06,   13.9629E+06,   13.9629E+06
C:/temp/Job-37.odb,Step-1,Increment      1: Step Time =    1.000,"P-37-1",           402,       171.197,       52.4348,            0.,NA,NA,"",   2.93834E+06,   2.83790E+06,   2.83790E+06
C:/temp/Job-37.odb,Step-1,Increment      1: Step Time =    1.000,"P-37-1",           403,       115.643,       183.145,            0.,NA,NA,"",   13.7727E+06,   13.9387E+06,   13.9387E+06
C:/temp/Job-37.odb,Step-1,Increment      1: Step Time =    1.000,"P-37-1",           404,       82.1678,       15.5456,            0.,NA,NA,"",   5.41821E+06,   4.95457E+06,   4.95457E+06
C:/temp/Job-37.odb,Step-1,Increment      1: Step Time =    1.000,"P-37-1",           405,       145.069,       173.630,            0.,NA,NA,"",   8.19596E+06,   8.38007E+06,   8.38007E+06
C:/temp/Job-37.odb,Step-1,Increment      1: Step Time =    1.000,"P-37-1",           406,       15.3835,       86.2751,            0.,NA,NA,"",   788.820E+03,  -812.306E+03,  -812.306E+03
C:/temp/Job-37.odb,Step-1,Increment      1: Step Time =    1.000,"P-37-1",           407,       130.734,       179.394,            0.,NA,NA,"",   11.9036E+06,   12.1428E+06,   12.1428E+06
C:/temp/Job-37.odb,Step-1,Increment      1: Step Time =    1.000,"P-37-1",           408,       26.6337,       142.578,            0.,NA,NA,"",   3.04146E+06,  -3.06890E+06,  -3.06890E+06
C:/temp/Job-37.odb,Step-1,Increment      1: Step Time =    1.000,"P-37-1",           409,       100.240,       14.0897,            0.,NA,NA,"",   10.2919E+06,   10.3095E+06,   10.3095E+06
C:/temp/Job-37.odb,Step-1,Increment      1: Step Time =    1.000,"P-37-1",           410,       176.968,       138.876,            0.,NA,NA,"",   2.27299E+06,   1.18157E+06,   1.18157E+06
C:/temp/Job-37.odb,Step-1,Increment      1: Step Time =    1.000,"P-37-1",           411,       41.3922,       34.9124,            0.,NA,NA,"",   3.77295E+06,  -3.87277E+06,  -3.87277E+06
C:/temp/Job-37.odb,Step-1,Increment      1: Step Time =    1.000,"P-37-1",           412,       182.731,       117.936,            0.,NA,NA,"",   5.36664E+06,  -5.24998E+06,  -5.24998E+06
C:/temp/Job-37.odb,Step-1,Increment      1: Step Time =    1.000,"P-37-1",           413,       17.0803,       81.4461,            0.,NA,NA,"",   948.585E+03,  -968.355E+03,  -968.355E+03
C:/temp/Job-37.odb,Step-1,Increment      1: Step Time =    1.000,"P-37-1",           414,       15.9720,       114.654,            0.,NA,NA,"",   814.252E+03,  -835.759E+03,  -835.759E+03
C:/temp/Job-37.odb,Step-1,Increment      1: Step Time =    1.000,"P-37-1",           415,       180.064,       71.4589,            0.,NA,NA,"",   3.20163E+06,  -2.76252E+06,  -2.76252E+06
C:/temp/Job-37.odb,Step-1,Increment      1: Step Time =    1.000,"P-37-1",           416,       14.4841,       102.021,            0.,NA,NA,"",   607.222E+03,  -633.162E+03,  -633.162E+03
C:/temp/Job-37.odb,Step-1,Increment      1: Step Time =    1.000,"P-37-1",           417,       29.2856,       52.9125,            0.,NA,NA,"",   3.57522E+06,  -3.60671E+06,  -3.60671E+06
C:/temp/Job-37.odb,Step-1,Increment      1: Step Time =    1.000,"P-37-1",           418,       185.469,       94.9451,            0.,NA,NA,"",   6.22318E+06,  -6.26057E+06,  -6.26057E+06
C:/temp/Job-37.odb,Step-1,Increment      1: Step Time =    1.000,"P-37-1",           419,       158.058,       35.9059,            0.,NA,NA,"",   5.43029E+06,   5.56097E+06,   5.56097E+06
C:/temp/Job-37.odb,Step-1,Increment      1: Step Time =    1.000,"P-37-1",           420,       89.9824,       15.0143,            0.,NA,NA,"",   7.67679E+06,   7.47526E+06,   7.47526E+06
C:/temp/Job-37.odb,Step-1,Increment      1: Step Time =    1.000,"P-37-1",           421,       14.0310,       111.021,            0.,NA,NA,"",   690.131E+03,  -718.070E+03,  -718.070E+03
C:/temp/Job-37.odb,Step-1,Increment      1: Step Time =    1.000,"P-37-1",           422,       73.0220,       18.7552,            0.,NA,NA,"",   3.02426E+06,   1.54756E+06,   1.54756E+06
C:/temp/Job-37.odb,Step-1,Increment      1: Step Time =    1.000,"P-37-1",           423,       37.9177,       40.3440,            0.,NA,NA,"",   4.37116E+06,  -4.46015E+06,  -4.46015E+06
C:/temp/Job-37.odb,Step-1,Increment      1: Step Time =    1.000,"P-37-1",           424,       167.973,       48.3650,            0.,NA,NA,"",   3.56994E+06,   3.55719E+06,   3.55719E+06
C:/temp/Job-37.odb,Step-1,Increment      1: Step Time =    1.000,"P-37-1",           425,       14.4335,       91.6902,            0.,NA,NA,"",   665.534E+03,  -693.314E+03,  -693.314E+03
C:/temp/Job-37.odb,Step-1,Increment      1: Step Time =    1.000,"P-37-1",           426,       111.273,       184.754,            0.,NA,NA,"",   12.4375E+06,   12.5697E+06,   12.5697E+06
C:/temp/Job-37.odb,Step-1,Increment      1: Step Time =    1.000,"P-37-1",           427,       106.072,       186.437,            0.,NA,NA,"",   10.2044E+06,   10.3220E+06,   10.3220E+06
C:/temp/Job-37.odb,Step-1,Increment      1: Step Time =    1.000,"P-37-1",           428,       185.436,       103.319,            0.,NA,NA,"",   6.40895E+06,  -6.44438E+06,  -6.44438E+06
C:/temp/Job-37.odb,Step-1,Increment      1: Step Time =    1.000,"P-37-1",           429,       14.0818,       97.0953,            0.,NA,NA,"",   605.004E+03,  -632.978E+03,  -632.978E+03
C:/temp/Job-37.odb,Step-1,Increment      1: Step Time =    1.000,"P-37-1",           430,       46.6524,       167.223,            0.,NA,NA,"",   4.40421E+06,  -4.47740E+06,  -4.47740E+06
C:/temp/Job-37.odb,Step-1,Increment      1: Step Time =    1.000,"P-37-1",           431,       18.6432,       76.9363,            0.,NA,NA,"",   1.17010E+06,  -1.19006E+06,  -1.19006E+06
C:/temp/Job-37.odb,Step-1,Increment      1: Step Time =    1.000,"P-37-1",           432,       182.946,       81.0344,            0.,NA,NA,"",   5.34383E+06,  -5.12114E+06,  -5.12114E+06
C:/temp/Job-37.odb,Step-1,Increment      1: Step Time =    1.000,"P-37-1",           433,       186.220,       89.1478,            0.,NA,NA,"",   4.99158E+06,  -3.86776E+06,  -3.86776E+06
C:/temp/Job-37.odb,Step-1,Increment      1: Step Time =    1.000,"P-37-1",           434,       85.4062,       15.7123,            0.,NA,NA,"",   6.23826E+06,   5.90828E+06,   5.90828E+06
C:/temp/Job-37.odb,Step-1,Increment      1: Step Time =    1.000,"P-37-1",           435,       41.1729,       164.877,            0.,NA,NA,"",   3.77995E+06,  -3.88151E+06,  -3.88151E+06
C:/temp/Job-37.odb,Step-1,Increment      1: Step Time =    1.000,"P-37-1",           436,       79.9770,       182.800,            0.,NA,NA,"",   4.28321E+06,   3.86060E+06,   3.86060E+06
C:/temp/Job-37.odb,Step-1,Increment      1: Step Time =    1.000,"P-37-1",           437,       106.099,       13.5089,            0.,NA,NA,"",   10.1267E+06,   10.2346E+06,   10.2346E+06
C:/temp/Job-37.odb,Step-1,Increment      1: Step Time =    1.000,"P-37-1",           438,       51.7099,       29.9592,            0.,NA,NA,"",   4.54480E+06,  -4.58780E+06,  -4.58780E+06
C:/temp/Job-37.odb,Step-1,Increment      1: Step Time =    1.000,"P-37-1",           439,       173.753,       57.0455,            0.,NA,NA,"",   2.31168E+06,   2.08001E+06,   2.08001E+06
C:/temp/Job-37.odb,Step-1,Increment      1: Step Time =    1.000,"P-37-1",           440,       165.177,       155.045,            0.,NA,NA,"",   4.13359E+06,   4.17337E+06,   4.17337E+06
C:/temp/Job-37.odb,Step-1,Increment      1: Step Time =    1.000,"P-37-1",           441,       95.0025,       14.5014,            0.,NA,NA,"",   9.21938E+06,   9.13042E+06,   9.13042E+06
C:/temp/Job-37.odb,Step-1,Increment      1: Step Time =    1.000,"P-37-1",           442,       32.0325,       151.078,            0.,NA,NA,"",   4.04323E+06,  -4.08634E+06,  -4.08634E+06
C:/temp/Job-37.odb,Step-1,Increment      1: Step Time =    1.000,"P-37-1",           443,       37.8577,       159.713,            0.,NA,NA,"",   4.33714E+06,  -4.42155E+06,  -4.42155E+06
C:/temp/Job-37.odb,Step-1,Increment      1: Step Time =    1.000,"P-37-1",           444,       162.164,       159.000,            0.,NA,NA,"",   4.76828E+06,   4.84226E+06,   4.84226E+06
C:/temp/Job-37.odb,Step-1,Increment      1: Step Time =    1.000,"P-37-1",           445,       14.9462,       105.589,            0.,NA,NA,"",   630.515E+03,  -655.512E+03,  -655.512E+03
C:/temp/Job-37.odb,Step-1,Increment      1: Step Time =    1.000,"P-37-1",           446,       115.728,       16.6853,            0.,NA,NA,"",   13.4397E+06,   13.6209E+06,   13.6209E+06
C:/temp/Job-37.odb,Step-1,Increment      1: Step Time =    1.000,"P-37-1",           447,       74.6645,       182.641,            0.,NA,NA,"",   3.68580E+06,   2.43445E+06,   2.43445E+06
C:/temp/Job-37.odb,Step-1,Increment      1: Step Time =    1.000,"P-37-1",           448,       89.6754,       184.978,            0.,NA,NA,"",   7.61885E+06,   7.42234E+06,   7.42234E+06
C:/temp/Job-37.odb,Step-1,Increment      1: Step Time =    1.000,"P-37-1",           449,       185.497,       98.5734,            0.,NA,NA,"",   6.39180E+06,  -6.41529E+06,  -6.41529E+06
C:/temp/Job-37.odb,Step-1,Increment      1: Step Time =    1.000,"P-37-1",           450,       18.4648,       123.705,            0.,NA,NA,"",   1.20624E+06,  -1.23216E+06,  -1.23216E+06
C:/temp/Job-37.odb,Step-1,Increment      1: Step Time =    1.000,"P-37-1",           451,       154.943,       167.394,            0.,NA,NA,"",   6.04119E+06,   6.20575E+06,   6.20575E+06
C:/temp/Job-37.odb,Step-1,Increment      1: Step Time =    1.000,"P-37-1",           452,       171.007,       147.084,            0.,NA,NA,"",   2.89451E+06,   2.81128E+06,   2.81128E+06
C:/temp/Job-37.odb,Step-1,Increment      1: Step Time =    1.000,"P-37-1",           453,       26.2783,       56.9066,            0.,NA,NA,"",   3.01973E+06,  -3.04007E+06,  -3.04007E+06
C:/temp/Job-37.odb,Step-1,Increment      1: Step Time =    1.000,"P-37-1",           454,       35.0599,       44.8178,            0.,NA,NA,"",   4.38664E+06,  -4.44240E+06,  -4.44240E+06
C:/temp/Job-37.odb,Step-1,Increment      1: Step Time =    1.000,"P-37-1",           455,       131.030,       19.9818,            0.,NA,NA,"",   11.2810E+06,   11.5210E+06,   11.5210E+06
C:/temp/Job-37.odb,Step-1,Increment      1: Step Time =    1.000,"P-37-1",           456,       125.721,       181.991,            0.,NA,NA,"",   11.5302E+06,   11.7837E+06,   11.7837E+06
C:/temp/Job-37.odb,Step-1,Increment      1: Step Time =    1.000,"P-37-1",           457,       149.150,       29.9722,            0.,NA,NA,"",   7.52955E+06,   7.67614E+06,   7.67614E+06
C:/temp/Job-37.odb,Step-1,Increment      1: Step Time =    1.000,"P-37-1",           458,       181.884,       122.716,            0.,NA,NA,"",   4.41155E+06,  -4.17340E+06,  -4.17340E+06
C:/temp/Job-37.odb,Step-1,Increment      1: Step Time =    1.000,"P-37-1",           459,       100.186,       185.880,            0.,NA,NA,"",   10.3248E+06,   10.3414E+06,   10.3414E+06
C:/temp/Job-37.odb,Step-1,Increment      1: Step Time =    1.000,"P-37-1",           460,       84.6460,       184.105,            0.,NA,NA,"",   5.90045E+06,   5.60590E+06,   5.60590E+06
C:/temp/Job-37.odb,Step-1,Increment      1: Step Time =    1.000,"P-37-1",           461,       173.963,       143.077,            0.,NA,NA,"",   2.38266E+06,   2.13561E+06,   2.13561E+06
C:/temp/Job-37.odb,Step-1,Increment      1: Step Time =    1.000,"P-37-1",           462,       161.342,       40.6355,            0.,NA,NA,"",   4.94678E+06,   5.03015E+06,   5.03015E+06
C:/temp/Job-37.odb,Step-1,Increment      1: Step Time =    1.000,"P-37-1",           463,       69.2489,       180.345,            0.,NA,NA,"",   3.00864E+06,   170.573E+03,   170.573E+03
C:/temp/Job-37.odb,Step-1,Increment      1: Step Time =    1.000,"P-37-1",           464,       94.8863,       185.493,            0.,NA,NA,"",   9.21902E+06,   9.12958E+06,   9.12958E+06
C:/temp/Job-37.odb,Step-1,Increment      1: Step Time =    1.000,"P-37-1",           465,       194.900,       185.166,            0.,NA,NA,"",   1.30513E+06,   1.03565E+06,   1.03565E+06
C:/temp/Job-37.odb,Step-1,Increment      1: Step Time =    1.000,"P-37-1",           466,       194.249,       175.004,            0.,NA,NA,"",   1.55945E+06,   1.12573E+06,   1.12573E+06
C:/temp/Job-37.odb,Step-1,Increment      1: Step Time =    1.000,"P-37-1",           467,       194.094,       164.590,            0.,NA,NA,"",   1.61342E+06,   1.25559E+06,   1.25559E+06
C:/temp/Job-37.odb,Step-1,Increment      1: Step Time =    1.000,"P-37-1",           468,       194.952,       154.312,            0.,NA,NA,"",   1.57337E+06,   1.49633E+06,   1.49633E+06
C:/temp/Job-37.odb,Step-1,Increment      1: Step Time =    1.000,"P-37-1",           469,       194.829,       5.25146,            0.,NA,NA,"",   996.231E+03,   938.038E+03,   938.038E+03
C:/temp/Job-37.odb,Step-1,Increment      1: Step Time =    1.000,"P-37-1",           470,       125.200,       194.958,            0.,NA,NA,"",   3.12797E+06,  -2.60968E+06,  -2.60968E+06
C:/temp/Job-37.odb,Step-1,Increment      1: Step Time =    1.000,"P-37-1",           471,       114.732,       194.868,            0.,NA,NA,"",   3.61834E+06,  -1.74941E+06,  -1.74941E+06
C:/temp/Job-37.odb,Step-1,Increment      1: Step Time =    1.000,"P-37-1",           472,       145.209,       4.34266,            0.,NA,NA,"",   2.76227E+06,  -2.66541E+06,  -2.66541E+06
C:/temp/Job-37.odb,Step-1,Increment      1: Step Time =    1.000,"P-37-1",           473,       124.993,       4.74187,            0.,NA,NA,"",   3.29206E+06,  -2.94284E+06,  -2.94284E+06
C:/temp/Job-37.odb,Step-1,Increment      1: Step Time =    1.000,"P-37-1",           474,       135.188,       5.04617,            0.,NA,NA,"",   3.07297E+06,  -2.92978E+06,  -2.92978E+06
C:/temp/Job-37.odb,Step-1,Increment      1: Step Time =    1.000,"P-37-1",           475,       104.848,       4.56191,            0.,NA,NA,"",   3.54205E+06,  -383.285E+03,  -383.285E+03
C:/temp/Job-37.odb,Step-1,Increment      1: Step Time =    1.000,"P-37-1",           476,       114.661,       4.98518,            0.,NA,NA,"",   3.61987E+06,  -1.87243E+06,  -1.87243E+06
C:/temp/Job-37.odb,Step-1,Increment      1: Step Time =    1.000,"P-37-1",           477,       5.34454,       20.0478,            0.,NA,NA,"",   3.12603E+06,   3.44729E+06,   3.44729E+06
C:/temp/Job-37.odb,Step-1,Increment      1: Step Time =    1.000,"P-37-1",           478,       5.69038,       30.2466,            0.,NA,NA,"",   1.10715E+06,   1.24426E+06,   1.24426E+06
C:/temp/Job-37.odb,Step-1,Increment      1: Step Time =    1.000,"P-37-1",           479,       4.71584,       40.2837,            0.,NA,NA,"",   561.751E+03,  -195.322E+03,  -195.322E+03
C:/temp/Job-37.odb,Step-1,Increment      1: Step Time =    1.000,"P-37-1",           480,       5.37595,       194.514,            0.,NA,NA,"",   6.86471E+06,   7.13875E+06,   7.13875E+06
C:/temp/Job-37.odb,Step-1,Increment      1: Step Time =    1.000,"P-37-1",           481,       74.5150,       5.35587,            0.,NA,NA,"",   7.02406E+06,   6.75721E+06,   6.75721E+06
C:/temp/Job-37.odb,Step-1,Increment      1: Step Time =    1.000,"P-37-1",           482,       84.6242,       5.38239,            0.,NA,NA,"",   5.40594E+06,   5.02468E+06,   5.02468E+06
C:/temp/Job-37.odb,Step-1,Increment      1: Step Time =    1.000,"P-37-1",           483,       74.5199,       195.702,            0.,NA,NA,"",   7.17330E+06,   6.97925E+06,   6.97925E+06
C:/temp/Job-37.odb,Step-1,Increment      1: Step Time =    1.000,"P-37-1",           484,       64.7688,       195.183,            0.,NA,NA,"",   8.31794E+06,   8.20542E+06,   8.20542E+06
C:/temp/Job-37.odb,Step-1,Increment      1: Step Time =    1.000,"P-37-1",           485,       94.7447,       194.974,            0.,NA,NA,"",   3.61516E+06,   2.43240E+06,   2.43240E+06
C:/temp/Job-37.odb,Step-1,Increment      1: Step Time =    1.000,"P-37-1",           486,       84.3461,       194.821,            0.,NA,NA,"",   5.39414E+06,   5.00446E+06,   5.00446E+06
C:/temp/Job-37.odb,Step-1,Increment      1: Step Time =    1.000,"P-37-1",           487,       5.11102,       10.0354,            0.,NA,NA,"",   5.55263E+06,   5.94826E+06,   5.94826E+06
C:/temp/Job-37.odb,Step-1,Increment      1: Step Time =    1.000,"P-37-1",           488,       15.1088,       5.00579,            0.,NA,NA,"",   7.30893E+06,   7.33601E+06,   7.33601E+06
C:/temp/Job-37.odb,Step-1,Increment      1: Step Time =    1.000,"P-37-1",           489,       25.0991,       4.83231,            0.,NA,NA,"",   7.84150E+06,   7.84210E+06,   7.84210E+06
C:/temp/Job-37.odb,Step-1,Increment      1: Step Time =    1.000,"P-37-1",           490,       34.7282,       4.41708,            0.,NA,NA,"",   8.47458E+06,   8.45535E+06,   8.45535E+06
C:/temp/Job-37.odb,Step-1,Increment      1: Step Time =    1.000,"P-37-1",           491,       44.2320,       4.49772,            0.,NA,NA,"",   8.93484E+06,   8.90108E+06,   8.90108E+06
C:/temp/Job-37.odb,Step-1,Increment      1: Step Time =    1.000,"P-37-1",           492,       53.9924,       5.78271,            0.,NA,NA,"",   8.30574E+06,   8.21986E+06,   8.21986E+06
C:/temp/Job-37.odb,Step-1,Increment      1: Step Time =    1.000,"P-37-1",           493,       64.4957,       4.95352,            0.,NA,NA,"",   8.26960E+06,   8.14405E+06,   8.14405E+06
C:/temp/Job-37.odb,Step-1,Increment      1: Step Time =    1.000,"P-37-1",           494,       94.8231,       4.97185,            0.,NA,NA,"",   3.61119E+06,   2.42673E+06,   2.42673E+06
C:/temp/Job-37.odb,Step-1,Increment      1: Step Time =    1.000,"P-37-1",           495,       154.984,       4.42123,            0.,NA,NA,"",   1.95056E+06,  -1.83089E+06,  -1.83089E+06
C:/temp/Job-37.odb,Step-1,Increment      1: Step Time =    1.000,"P-37-1",           496,       184.617,       5.18901,            0.,NA,NA,"",   794.029E+03,   695.860E+03,   695.860E+03
C:/temp/Job-37.odb,Step-1,Increment      1: Step Time =    1.000,"P-37-1",           497,       174.614,       4.74983,            0.,NA,NA,"",   714.805E+03,   126.552E+03,   126.552E+03
C:/temp/Job-37.odb,Step-1,Increment      1: Step Time =    1.000,"P-37-1",           498,       164.824,       4.60212,            0.,NA,NA,"",   1.19782E+06,  -1.02298E+06,  -1.02298E+06
C:/temp/Job-37.odb,Step-1,Increment      1: Step Time =    1.000,"P-37-1",           499,       195.375,       15.4544,            0.,NA,NA,"",   1.32902E+06,   1.04347E+06,   1.04347E+06
C:/temp/Job-37.odb,Step-1,Increment      1: Step Time =    1.000,"P-37-1",           500,       195.533,       25.1840,            0.,NA,NA,"",   1.56912E+06,   1.08205E+06,   1.08205E+06
C:/temp/Job-37.odb,Step-1,Increment      1: Step Time =    1.000,"P-37-1",           501,       195.332,       34.7890,            0.,NA,NA,"",   1.55702E+06,   1.14837E+06,   1.14837E+06
C:/temp/Job-37.odb,Step-1,Increment      1: Step Time =    1.000,"P-37-1",           502,       195.357,       44.5452,            0.,NA,NA,"",   1.46869E+06,   1.38662E+06,   1.38662E+06
C:/temp/Job-37.odb,Step-1,Increment      1: Step Time =    1.000,"P-37-1",           503,       194.411,       54.5434,            0.,NA,NA,"",   2.34746E+06,   2.39329E+06,   2.39329E+06
C:/temp/Job-37.odb,Step-1,Increment      1: Step Time =    1.000,"P-37-1",           504,       195.580,       65.0003,            0.,NA,NA,"",   3.95216E+06,   4.16862E+06,   4.16862E+06
C:/temp/Job-37.odb,Step-1,Increment      1: Step Time =    1.000,"P-37-1",           505,       195.501,       74.8872,            0.,NA,NA,"",   6.10911E+06,   6.36271E+06,   6.36271E+06
C:/temp/Job-37.odb,Step-1,Increment      1: Step Time =    1.000,"P-37-1",           506,       195.447,       84.9947,            0.,NA,NA,"",   7.92528E+06,   8.23663E+06,   8.23663E+06
C:/temp/Job-37.odb,Step-1,Increment      1: Step Time =    1.000,"P-37-1",           507,       195.202,       94.4898,            0.,NA,NA,"",   8.56699E+06,   8.84558E+06,   8.84558E+06
C:/temp/Job-37.odb,Step-1,Increment      1: Step Time =    1.000,"P-37-1",           508,       194.927,       104.551,            0.,NA,NA,"",   8.33006E+06,   8.62673E+06,   8.62673E+06
C:/temp/Job-37.odb,Step-1,Increment      1: Step Time =    1.000,"P-37-1",           509,       194.653,       115.227,            0.,NA,NA,"",   7.34544E+06,   7.56987E+06,   7.56987E+06
C:/temp/Job-37.odb,Step-1,Increment      1: Step Time =    1.000,"P-37-1",           510,       195.428,       125.581,            0.,NA,NA,"",   5.95834E+06,   6.21707E+06,   6.21707E+06
C:/temp/Job-37.odb,Step-1,Increment      1: Step Time =    1.000,"P-37-1",           511,       196.000,       135.212,            0.,NA,NA,"",   3.90818E+06,   4.15215E+06,   4.15215E+06
C:/temp/Job-37.odb,Step-1,Increment      1: Step Time =    1.000,"P-37-1",           512,       195.913,       144.725,            0.,NA,NA,"",   2.14980E+06,   2.29974E+06,   2.29974E+06
C:/temp/Job-37.odb,Step-1,Increment      1: Step Time =    1.000,"P-37-1",           513,       195.055,       195.107,            0.,NA,NA,"",   987.768E+03,   937.881E+03,   937.881E+03
C:/temp/Job-37.odb,Step-1,Increment      1: Step Time =    1.000,"P-37-1",           514,       185.211,       195.337,            0.,NA,NA,"",   759.219E+03,   677.471E+03,   677.471E+03
C:/temp/Job-37.odb,Step-1,Increment      1: Step Time =    1.000,"P-37-1",           515,       175.390,       195.298,            0.,NA,NA,"",   680.898E+03,   137.759E+03,   137.759E+03
C:/temp/Job-37.odb,Step-1,Increment      1: Step Time =    1.000,"P-37-1",           516,       165.447,       194.558,            0.,NA,NA,"",   1.20951E+06,  -634.266E+03,  -634.266E+03
C:/temp/Job-37.odb,Step-1,Increment      1: Step Time =    1.000,"P-37-1",           517,       155.578,       194.817,            0.,NA,NA,"",   1.85014E+06,  -1.66456E+06,  -1.66456E+06
C:/temp/Job-37.odb,Step-1,Increment      1: Step Time =    1.000,"P-37-1",           518,       145.461,       193.547,            0.,NA,NA,"",   2.19011E+06,  -1.48394E+06,  -1.48394E+06
C:/temp/Job-37.odb,Step-1,Increment      1: Step Time =    1.000,"P-37-1",           519,       135.054,       195.177,            0.,NA,NA,"",   3.10161E+06,  -2.99895E+06,  -2.99895E+06
C:/temp/Job-37.odb,Step-1,Increment      1: Step Time =    1.000,"P-37-1",           520,       104.833,       195.373,            0.,NA,NA,"",   3.54293E+06,  -335.183E+03,  -335.183E+03
C:/temp/Job-37.odb,Step-1,Increment      1: Step Time =    1.000,"P-37-1",           521,       54.8325,       195.637,            0.,NA,NA,"",   9.05182E+06,   8.98057E+06,   8.98057E+06
C:/temp/Job-37.odb,Step-1,Increment      1: Step Time =    1.000,"P-37-1",           522,       45.1228,       195.513,            0.,NA,NA,"",   8.91480E+06,   8.88121E+06,   8.88121E+06
C:/temp/Job-37.odb,Step-1,Increment      1: Step Time =    1.000,"P-37-1",           523,       35.3622,       195.239,            0.,NA,NA,"",   8.41804E+06,   8.39681E+06,   8.39681E+06
C:/temp/Job-37.odb,Step-1,Increment      1: Step Time =    1.000,"P-37-1",           524,       15.6216,       194.540,            0.,NA,NA,"",   7.19458E+06,   7.22286E+06,   7.22286E+06
C:/temp/Job-37.odb,Step-1,Increment      1: Step Time =    1.000,"P-37-1",           525,       25.5700,       195.020,            0.,NA,NA,"",   7.80203E+06,   7.80118E+06,   7.80118E+06
C:/temp/Job-37.odb,Step-1,Increment      1: Step Time =    1.000,"P-37-1",           526,       4.64291,       184.201,            0.,NA,NA,"",   4.05721E+06,   4.44380E+06,   4.44380E+06
C:/temp/Job-37.odb,Step-1,Increment      1: Step Time =    1.000,"P-37-1",           527,       3.73975,       174.648,            0.,NA,NA,"",   2.02248E+06,   2.26412E+06,   2.26412E+06
C:/temp/Job-37.odb,Step-1,Increment      1: Step Time =    1.000,"P-37-1",           528,       4.27992,       165.330,            0.,NA,NA,"",   550.756E+03,   606.687E+03,   606.687E+03
C:/temp/Job-37.odb,Step-1,Increment      1: Step Time =    1.000,"P-37-1",           529,       4.79931,       155.738,            0.,NA,NA,"",   858.127E+03,  -775.421E+03,  -775.421E+03
C:/temp/Job-37.odb,Step-1,Increment      1: Step Time =    1.000,"P-37-1",           530,       5.64702,       145.438,            0.,NA,NA,"",   1.51239E+06,  -1.48670E+06,  -1.48670E+06
C:/temp/Job-37.odb,Step-1,Increment      1: Step Time =    1.000,"P-37-1",           531,       4.13717,       134.994,            0.,NA,NA,"",   1.44563E+06,  -1.45099E+06,  -1.45099E+06
C:/temp/Job-37.odb,Step-1,Increment      1: Step Time =    1.000,"P-37-1",           532,       4.03429,       125.164,            0.,NA,NA,"",   1.13943E+06,  -1.13473E+06,  -1.13473E+06
C:/temp/Job-37.odb,Step-1,Increment      1: Step Time =    1.000,"P-37-1",           533,       4.48100,       115.835,            0.,NA,NA,"",   728.885E+03,  -747.937E+03,  -747.937E+03
C:/temp/Job-37.odb,Step-1,Increment      1: Step Time =    1.000,"P-37-1",           534,       5.09623,       104.434,            0.,NA,NA,"",   374.607E+03,  -423.148E+03,  -423.148E+03
C:/temp/Job-37.odb,Step-1,Increment      1: Step Time =    1.000,"P-37-1",           535,       4.15227,       95.2716,            0.,NA,NA,"",   363.242E+03,  -408.661E+03,  -408.661E+03
C:/temp/Job-37.odb,Step-1,Increment      1: Step Time =    1.000,"P-37-1",           536,       4.90980,       84.9233,            0.,NA,NA,"",   698.741E+03,  -722.858E+03,  -722.858E+03
C:/temp/Job-37.odb,Step-1,Increment      1: Step Time =    1.000,"P-37-1",           537,       4.84044,       74.9170,            0.,NA,NA,"",   1.11916E+06,  -1.12264E+06,  -1.12264E+06
C:/temp/Job-37.odb,Step-1,Increment      1: Step Time =    1.000,"P-37-1",           538,       4.98775,       64.7251,            0.,NA,NA,"",   1.45518E+06,  -1.46091E+06,  -1.46091E+06
C:/temp/Job-37.odb,Step-1,Increment      1: Step Time =    1.000,"P-37-1",           539,       4.29922,       54.9417,            0.,NA,NA,"",   1.45087E+06,  -1.45117E+06,  -1.45117E+06
C:/temp/Job-37.odb,Step-1,Increment      1: Step Time =    1.000,"P-37-1",           540,       189.724,       5.39755,            0.,NA,NA,"",   916.203E+03,   839.600E+03,   839.600E+03
C:/temp/Job-37.odb,Step-1,Increment      1: Step Time =    1.000,"P-37-1",           541,       179.557,       5.03783,            0.,NA,NA,"",   690.103E+03,   428.858E+03,   428.858E+03
C:/temp/Job-37.odb,Step-1,Increment      1: Step Time =    1.000,"P-37-1",           542,       169.732,       4.61810,            0.,NA,NA,"",   909.859E+03,  -418.812E+03,  -418.812E+03
C:/temp/Job-37.odb,Step-1,Increment      1: Step Time =    1.000,"P-37-1",           543,       159.903,       4.55627,            0.,NA,NA,"",   1.53366E+06,  -1.39956E+06,  -1.39956E+06
C:/temp/Job-37.odb,Step-1,Increment      1: Step Time =    1.000,"P-37-1",           544,       150.095,       4.28849,            0.,NA,NA,"",   2.40588E+06,  -2.28522E+06,  -2.28522E+06
C:/temp/Job-37.odb,Step-1,Increment      1: Step Time =    1.000,"P-37-1",           545,       140.241,       4.66923,            0.,NA,NA,"",   2.92809E+06,  -2.84079E+06,  -2.84079E+06
C:/temp/Job-37.odb,Step-1,Increment      1: Step Time =    1.000,"P-37-1",           546,       130.064,       4.88009,            0.,NA,NA,"",   3.23883E+06,  -3.09130E+06,  -3.09130E+06
C:/temp/Job-37.odb,Step-1,Increment      1: Step Time =    1.000,"P-37-1",           547,       119.839,       4.82464,            0.,NA,NA,"",   3.36569E+06,  -2.46774E+06,  -2.46774E+06
C:/temp/Job-37.odb,Step-1,Increment      1: Step Time =    1.000,"P-37-1",           548,       109.656,       4.65807,            0.,NA,NA,"",   3.77016E+06,  -1.17651E+06,  -1.17651E+06
C:/temp/Job-37.odb,Step-1,Increment      1: Step Time =    1.000,"P-37-1",           549,       99.8743,       4.75697,            0.,NA,NA,"",   3.31494E+06,   735.008E+03,   735.008E+03
C:/temp/Job-37.odb,Step-1,Increment      1: Step Time =    1.000,"P-37-1",           550,       89.7165,       5.19995,            0.,NA,NA,"",   4.44595E+06,   3.99678E+06,   3.99678E+06
C:/temp/Job-37.odb,Step-1,Increment      1: Step Time =    1.000,"P-37-1",           551,       79.5691,       5.31584,            0.,NA,NA,"",   6.26696E+06,   5.94284E+06,   5.94284E+06
C:/temp/Job-37.odb,Step-1,Increment      1: Step Time =    1.000,"P-37-1",           552,       69.5060,       5.01923,            0.,NA,NA,"",   7.71750E+06,   7.52415E+06,   7.52415E+06
C:/temp/Job-37.odb,Step-1,Increment      1: Step Time =    1.000,"P-37-1",           553,       59.4711,       5.16851,            0.,NA,NA,"",   8.51233E+06,   8.42131E+06,   8.42131E+06
C:/temp/Job-37.odb,Step-1,Increment      1: Step Time =    1.000,"P-37-1",           554,       48.9453,       4.67929,            0.,NA,NA,"",   8.94191E+06,   8.88733E+06,   8.88733E+06
C:/temp/Job-37.odb,Step-1,Increment      1: Step Time =    1.000,"P-37-1",           555,       39.5408,       4.38987,            0.,NA,NA,"",   8.73350E+06,   8.70676E+06,   8.70676E+06
C:/temp/Job-37.odb,Step-1,Increment      1: Step Time =    1.000,"P-37-1",           556,       29.9464,       4.60852,            0.,NA,NA,"",   8.16500E+06,   8.15837E+06,   8.15837E+06
C:/temp/Job-37.odb,Step-1,Increment      1: Step Time =    1.000,"P-37-1",           557,       20.1166,       4.93283,            0.,NA,NA,"",   7.55348E+06,   7.55900E+06,   7.55900E+06
C:/temp/Job-37.odb,Step-1,Increment      1: Step Time =    1.000,"P-37-1",           558,       10.0846,       5.02471,            0.,NA,NA,"",   7.19799E+06,   7.24672E+06,   7.24672E+06
C:/temp/Job-37.odb,Step-1,Increment      1: Step Time =    1.000,"P-37-1",           559,       195.028,       190.166,            0.,NA,NA,"",   1.12416E+06,   979.384E+03,   979.384E+03
C:/temp/Job-37.odb,Step-1,Increment      1: Step Time =    1.000,"P-37-1",           560,       194.635,       180.131,            0.,NA,NA,"",   1.46324E+06,   1.08334E+06,   1.08334E+06
C:/temp/Job-37.odb,Step-1,Increment      1: Step Time =    1.000,"P-37-1",           561,       193.886,       169.864,            0.,NA,NA,"",   1.60021E+06,   1.17655E+06,   1.17655E+06
C:/temp/Job-37.odb,Step-1,Increment      1: Step Time =    1.000,"P-37-1",           562,       194.275,       159.318,            0.,NA,NA,"",   1.59099E+06,   1.35425E+06,   1.35425E+06
C:/temp/Job-37.odb,Step-1,Increment      1: Step Time =    1.000,"P-37-1",           563,       195.479,       149.421,            0.,NA,NA,"",   1.70065E+06,   1.76140E+06,   1.76140E+06
C:/temp/Job-37.odb,Step-1,Increment      1: Step Time =    1.000,"P-37-1",           564,       196.129,       140.000,            0.,NA,NA,"",   2.93102E+06,   3.14424E+06,   3.14424E+06
C:/temp/Job-37.odb,Step-1,Increment      1: Step Time =    1.000,"P-37-1",           565,       195.727,       130.436,            0.,NA,NA,"",   4.95880E+06,   5.21296E+06,   5.21296E+06
C:/temp/Job-37.odb,Step-1,Increment      1: Step Time =    1.000,"P-37-1",           566,       195.073,       120.528,            0.,NA,NA,"",   6.76514E+06,   7.00508E+06,   7.00508E+06
C:/temp/Job-37.odb,Step-1,Increment      1: Step Time =    1.000,"P-37-1",           567,       194.740,       109.819,            0.,NA,NA,"",   7.89093E+06,   8.13111E+06,   8.13111E+06
C:/temp/Job-37.odb,Step-1,Increment      1: Step Time =    1.000,"P-37-1",           568,       195.028,       99.4245,            0.,NA,NA,"",   8.47690E+06,   8.79688E+06,   8.79688E+06
C:/temp/Job-37.odb,Step-1,Increment      1: Step Time =    1.000,"P-37-1",           569,       195.707,       89.7846,            0.,NA,NA,"",   8.50849E+06,   8.80571E+06,   8.80571E+06
C:/temp/Job-37.odb,Step-1,Increment      1: Step Time =    1.000,"P-37-1",           570,       195.435,       79.9469,            0.,NA,NA,"",   7.04113E+06,   7.31490E+06,   7.31490E+06
C:/temp/Job-37.odb,Step-1,Increment      1: Step Time =    1.000,"P-37-1",           571,       195.603,       69.9399,            0.,NA,NA,"",   5.04822E+06,    5.2805E+06,    5.2805E+06
C:/temp/Job-37.odb,Step-1,Increment      1: Step Time =    1.000,"P-37-1",           572,       195.319,       60.0281,            0.,NA,NA,"",   3.01073E+06,   3.17515E+06,   3.17515E+06
C:/temp/Job-37.odb,Step-1,Increment      1: Step Time =    1.000,"P-37-1",           573,       195.281,       49.4300,            0.,NA,NA,"",   1.68677E+06,   1.72472E+06,   1.72472E+06
C:/temp/Job-37.odb,Step-1,Increment      1: Step Time =    1.000,"P-37-1",           574,       195.331,       39.6640,            0.,NA,NA,"",   1.48921E+06,   1.22787E+06,   1.22787E+06
C:/temp/Job-37.odb,Step-1,Increment      1: Step Time =    1.000,"P-37-1",           575,       195.416,       29.9702,            0.,NA,NA,"",   1.58932E+06,   1.10182E+06,   1.10182E+06
C:/temp/Job-37.odb,Step-1,Increment      1: Step Time =    1.000,"P-37-1",           576,       195.600,       20.3394,            0.,NA,NA,"",   1.48124E+06,   1.06996E+06,   1.06996E+06
C:/temp/Job-37.odb,Step-1,Increment      1: Step Time =    1.000,"P-37-1",           577,       194.882,       10.4035,            0.,NA,NA,"",   1.14642E+06,   990.029E+03,   990.029E+03
C:/temp/Job-37.odb,Step-1,Increment      1: Step Time =    1.000,"P-37-1",           578,       10.5932,       194.234,            0.,NA,NA,"",   7.02394E+06,   7.08094E+06,   7.08094E+06
C:/temp/Job-37.odb,Step-1,Increment      1: Step Time =    1.000,"P-37-1",           579,       20.6320,       194.844,            0.,NA,NA,"",   7.50003E+06,   7.50773E+06,   7.50773E+06
C:/temp/Job-37.odb,Step-1,Increment      1: Step Time =    1.000,"P-37-1",           580,       30.4774,       195.136,            0.,NA,NA,"",   8.11058E+06,   8.09657E+06,   8.09657E+06
C:/temp/Job-37.odb,Step-1,Increment      1: Step Time =    1.000,"P-37-1",           581,       40.2693,       195.368,            0.,NA,NA,"",   8.68369E+06,   8.66296E+06,   8.66296E+06
C:/temp/Job-37.odb,Step-1,Increment      1: Step Time =    1.000,"P-37-1",           582,       49.9743,       195.662,            0.,NA,NA,"",   9.08872E+06,   9.03461E+06,   9.03461E+06
C:/temp/Job-37.odb,Step-1,Increment      1: Step Time =    1.000,"P-37-1",           583,       59.7753,       195.408,            0.,NA,NA,"",   8.73700E+06,   8.65311E+06,   8.65311E+06
C:/temp/Job-37.odb,Step-1,Increment      1: Step Time =    1.000,"P-37-1",           584,       69.7639,       195.545,            0.,NA,NA,"",   7.85820E+06,   7.69536E+06,   7.69536E+06
C:/temp/Job-37.odb,Step-1,Increment      1: Step Time =    1.000,"P-37-1",           585,       79.3606,       195.375,            0.,NA,NA,"",   6.29462E+06,   6.02546E+06,   6.02546E+06
C:/temp/Job-37.odb,Step-1,Increment      1: Step Time =    1.000,"P-37-1",           586,       89.5543,       194.802,            0.,NA,NA,"",   4.43904E+06,   3.98213E+06,   3.98213E+06
C:/temp/Job-37.odb,Step-1,Increment      1: Step Time =    1.000,"P-37-1",           587,       99.8367,       195.187,            0.,NA,NA,"",   3.33381E+06,   760.604E+03,   760.604E+03
C:/temp/Job-37.odb,Step-1,Increment      1: Step Time =    1.000,"P-37-1",           588,       109.667,       195.255,            0.,NA,NA,"",   3.73710E+06,  -1.11155E+06,  -1.11155E+06
C:/temp/Job-37.odb,Step-1,Increment      1: Step Time =    1.000,"P-37-1",           589,       120.026,       194.920,            0.,NA,NA,"",   3.31221E+06,  -2.31968E+06,  -2.31968E+06
C:/temp/Job-37.odb,Step-1,Increment      1: Step Time =    1.000,"P-37-1",           590,       130.118,       195.263,            0.,NA,NA,"",   3.18597E+06,  -2.89743E+06,  -2.89743E+06
C:/temp/Job-37.odb,Step-1,Increment      1: Step Time =    1.000,"P-37-1",           591,       139.987,       194.654,            0.,NA,NA,"",   2.69647E+06,  -2.54324E+06,  -2.54324E+06
C:/temp/Job-37.odb,Step-1,Increment      1: Step Time =    1.000,"P-37-1",           592,       150.719,       194.736,            0.,NA,NA,"",   2.16449E+06,  -1.97415E+06,  -1.97415E+06
C:/temp/Job-37.odb,Step-1,Increment      1: Step Time =    1.000,"P-37-1",           593,       160.469,       194.654,            0.,NA,NA,"",   1.51170E+06,  -1.27448E+06,  -1.27448E+06
C:/temp/Job-37.odb,Step-1,Increment      1: Step Time =    1.000,"P-37-1",           594,       170.422,       194.981,            0.,NA,NA,"",   905.548E+03,  -64.6260E+03,  -64.6260E+03
C:/temp/Job-37.odb,Step-1,Increment      1: Step Time =    1.000,"P-37-1",           595,       180.314,       195.394,            0.,NA,NA,"",    643.66E+03,   413.422E+03,   413.422E+03
C:/temp/Job-37.odb,Step-1,Increment      1: Step Time =    1.000,"P-37-1",           596,       190.120,       195.231,            0.,NA,NA,"",   895.737E+03,   832.614E+03,   832.614E+03
C:/temp/Job-37.odb,Step-1,Increment      1: Step Time =    1.000,"P-37-1",           597,       5.19255,       15.0282,            0.,NA,NA,"",   4.26936E+06,   4.65268E+06,   4.65268E+06
C:/temp/Job-37.odb,Step-1,Increment      1: Step Time =    1.000,"P-37-1",           598,       5.57089,       25.1504,            0.,NA,NA,"",   2.03454E+06,   2.27613E+06,   2.27613E+06
C:/temp/Job-37.odb,Step-1,Increment      1: Step Time =    1.000,"P-37-1",           599,       5.20323,       35.2683,            0.,NA,NA,"",   534.951E+03,   535.245E+03,   535.245E+03
C:/temp/Job-37.odb,Step-1,Increment      1: Step Time =    1.000,"P-37-1",           600,       4.45895,       45.2010,            0.,NA,NA,"",   944.843E+03,  -894.749E+03,  -894.749E+03
C:/temp/Job-37.odb,Step-1,Increment      1: Step Time =    1.000,"P-37-1",           601,       4.35059,       50.0643,            0.,NA,NA,"",   1.25728E+06,  -1.24233E+06,  -1.24233E+06
C:/temp/Job-37.odb,Step-1,Increment      1: Step Time =    1.000,"P-37-1",           602,       4.55136,       59.7211,            0.,NA,NA,"",   1.51551E+06,  -1.52086E+06,  -1.52086E+06
C:/temp/Job-37.odb,Step-1,Increment      1: Step Time =    1.000,"P-37-1",           603,       4.90321,       69.7581,            0.,NA,NA,"",   1.30323E+06,  -1.30787E+06,  -1.30787E+06
C:/temp/Job-37.odb,Step-1,Increment      1: Step Time =    1.000,"P-37-1",           604,       4.46848,       79.9268,            0.,NA,NA,"",   914.638E+03,  -923.137E+03,  -923.137E+03
C:/temp/Job-37.odb,Step-1,Increment      1: Step Time =    1.000,"P-37-1",           605,       4.80815,       90.2150,            0.,NA,NA,"",   514.135E+03,  -553.541E+03,  -553.541E+03
C:/temp/Job-37.odb,Step-1,Increment      1: Step Time =    1.000,"P-37-1",           606,       4.19385,       99.4407,            0.,NA,NA,"",   303.583E+03,  -349.771E+03,  -349.771E+03
C:/temp/Job-37.odb,Step-1,Increment      1: Step Time =    1.000,"P-37-1",           607,       6.21259,       110.363,            0.,NA,NA,"",   555.590E+03,  -596.474E+03,  -596.474E+03
C:/temp/Job-37.odb,Step-1,Increment      1: Step Time =    1.000,"P-37-1",           608,       3.75185,       120.560,            0.,NA,NA,"",   934.711E+03,  -935.105E+03,  -935.105E+03
C:/temp/Job-37.odb,Step-1,Increment      1: Step Time =    1.000,"P-37-1",           609,       4.08945,       130.084,            0.,NA,NA,"",   1.30953E+06,  -1.30929E+06,  -1.30929E+06
C:/temp/Job-37.odb,Step-1,Increment      1: Step Time =    1.000,"P-37-1",           610,       4.45332,       139.958,            0.,NA,NA,"",   1.51826E+06,  -1.52069E+06,  -1.52069E+06
C:/temp/Job-37.odb,Step-1,Increment      1: Step Time =    1.000,"P-37-1",           611,       4.94555,       150.799,            0.,NA,NA,"",   1.24175E+06,  -1.19864E+06,  -1.19864E+06
C:/temp/Job-37.odb,Step-1,Increment      1: Step Time =    1.000,"P-37-1",           612,       4.60288,       160.580,            0.,NA,NA,"",   484.575E+03,  -96.8601E+03,  -96.8601E+03
C:/temp/Job-37.odb,Step-1,Increment      1: Step Time =    1.000,"P-37-1",           613,       3.88355,       170.003,            0.,NA,NA,"",   1.16991E+06,   1.31930E+06,   1.31930E+06
C:/temp/Job-37.odb,Step-1,Increment      1: Step Time =    1.000,"P-37-1",           614,       3.98210,       179.393,            0.,NA,NA,"",   2.96754E+06,   3.29496E+06,   3.29496E+06
C:/temp/Job-37.odb,Step-1,Increment      1: Step Time =    1.000,"P-37-1",           615,       5.35756,       189.154,            0.,NA,NA,"",   5.34907E+06,   5.74092E+06,   5.74092E+06
C:/temp/Job-37.odb,Step-1,Increment      1: Step Time =    1.000,"P-37-1",           616,       133.040,       15.6212,            0.,NA,NA,"",   6.30186E+06,   6.55645E+06,   6.55645E+06
C:/temp/Job-37.odb,Step-1,Increment      1: Step Time =    1.000,"P-37-1",           617,       132.597,       182.983,            0.,NA,NA,"",   7.67671E+06,   7.95832E+06,   7.95832E+06
C:/temp/Job-37.odb,Step-1,Increment      1: Step Time =    1.000,"P-37-1",           618,       66.8703,       17.9615,            0.,NA,NA,"",   3.37022E+06,   1.51533E+06,   1.51533E+06
C:/temp/Job-37.odb,Step-1,Increment      1: Step Time =    1.000,"P-37-1",           619,       67.3625,       184.842,            0.,NA,NA,"",   4.34806E+06,   3.53212E+06,   3.53212E+06
C:/temp/Job-37.odb,Step-1,Increment      1: Step Time =    1.000,"P-37-1",           620,       171.581,       153.344,            0.,NA,NA,"",   3.32777E+06,   3.23718E+06,   3.23718E+06
C:/temp/Job-37.odb,Step-1,Increment      1: Step Time =    1.000,"P-37-1",           621,       28.4749,       153.237,            0.,NA,NA,"",   3.10272E+06,  -3.12283E+06,  -3.12283E+06
C:/temp/Job-37.odb,Step-1,Increment      1: Step Time =    1.000,"P-37-1",           622,       171.180,       45.3305,            0.,NA,NA,"",   3.41808E+06,   3.33796E+06,   3.33796E+06
C:/temp/Job-37.odb,Step-1,Increment      1: Step Time =    1.000,"P-37-1",           623,       29.1747,       46.8670,            0.,NA,NA,"",   3.18759E+06,  -3.21423E+06,  -3.21423E+06
C:/temp/Job-37.odb,Step-1,Increment      1: Step Time =    1.000,"P-37-1",           624,       99.8971,       190.482,            0.,NA,NA,"",   6.08687E+06,   5.78148E+06,   5.78148E+06
C:/temp/Job-37.odb,Step-1,Increment      1: Step Time =    1.000,"P-37-1",           625,       99.9540,       9.46626,            0.,NA,NA,"",   6.06318E+06,   5.74821E+06,   5.74821E+06
C:/temp/Job-37.odb,Step-1,Increment      1: Step Time =    1.000,"P-37-1",           626,       176.046,       61.7821,            0.,NA,NA,"",   1.94527E+06,   1.04657E+06,   1.04657E+06
C:/temp/Job-37.odb,Step-1,Increment      1: Step Time =    1.000,"P-37-1",           627,       24.0878,       138.139,            0.,NA,NA,"",   2.48006E+06,  -2.50361E+06,  -2.50361E+06
C:/temp/Job-37.odb,Step-1,Increment      1: Step Time =    1.000,"P-37-1",           628,       181.198,       127.785,            0.,NA,NA,"",   3.39448E+06,  -1.86353E+06,  -1.86353E+06
C:/temp/Job-37.odb,Step-1,Increment      1: Step Time =    1.000,"P-37-1",           629,       140.708,       24.1867,            0.,NA,NA,"",   9.32898E+06,   9.52594E+06,   9.52594E+06
C:/temp/Job-37.odb,Step-1,Increment      1: Step Time =    1.000,"P-37-1",           630,       19.2289,       72.1743,            0.,NA,NA,"",   1.47212E+06,  -1.50138E+06,  -1.50138E+06
C:/temp/Job-37.odb,Step-1,Increment      1: Step Time =    1.000,"P-37-1",           631,       59.4059,       175.824,            0.,NA,NA,"",   3.51875E+06,  -3.28378E+06,  -3.28378E+06
C:/temp/Job-37.odb,Step-1,Increment      1: Step Time =    1.000,"P-37-1",           632,       139.930,       175.401,            0.,NA,NA,"",   9.88656E+06,   10.0535E+06,   10.0535E+06
C:/temp/Job-37.odb,Step-1,Increment      1: Step Time =    1.000,"P-37-1",           633,       60.5273,       25.5940,            0.,NA,NA,"",   3.96086E+06,  -3.91196E+06,  -3.91196E+06
C:/temp/Job-37.odb,Step-1,Increment      1: Step Time =    1.000,"P-37-1",           634,       129.808,       9.53505,            0.,NA,NA,"",   2.33245E+06,   1.64438E+06,   1.64438E+06
C:/temp/Job-37.odb,Step-1,Increment      1: Step Time =    1.000,"P-37-1",           635,       108.965,       9.13897,            0.,NA,NA,"",   4.88557E+06,   4.83555E+06,   4.83555E+06
C:/temp/Job-37.odb,Step-1,Increment      1: Step Time =    1.000,"P-37-1",           636,       89.6837,       10.2921,            0.,NA,NA,"",   6.68834E+06,   6.17309E+06,   6.17309E+06
C:/temp/Job-37.odb,Step-1,Increment      1: Step Time =    1.000,"P-37-1",           637,       79.2134,       10.3662,            0.,NA,NA,"",   6.20335E+06,   5.60294E+06,   5.60294E+06
C:/temp/Job-37.odb,Step-1,Increment      1: Step Time =    1.000,"P-37-1",           638,       59.4947,       10.0052,            0.,NA,NA,"",   6.30333E+06,   6.01748E+06,   6.01748E+06
C:/temp/Job-37.odb,Step-1,Increment      1: Step Time =    1.000,"P-37-1",           639,       192.335,       139.922,            0.,NA,NA,"",   3.24036E+06,   3.14593E+06,   3.14593E+06
C:/temp/Job-37.odb,Step-1,Increment      1: Step Time =    1.000,"P-37-1",           640,       191.277,       131.147,            0.,NA,NA,"",   4.11065E+06,   3.90367E+06,   3.90367E+06
C:/temp/Job-37.odb,Step-1,Increment      1: Step Time =    1.000,"P-37-1",           641,       190.486,       121.412,            0.,NA,NA,"",   4.18759E+06,   3.74898E+06,   3.74898E+06
C:/temp/Job-37.odb,Step-1,Increment      1: Step Time =    1.000,"P-37-1",           642,       189.823,       109.409,            0.,NA,NA,"",   3.63802E+06,   1.04583E+06,   1.04583E+06
C:/temp/Job-37.odb,Step-1,Increment      1: Step Time =    1.000,"P-37-1",           643,       190.172,       98.8503,            0.,NA,NA,"",   3.36346E+06,   1.38672E+06,   1.38672E+06
C:/temp/Job-37.odb,Step-1,Increment      1: Step Time =    1.000,"P-37-1",           644,       192.030,       89.5284,            0.,NA,NA,"",   4.41970E+06,   4.41647E+06,   4.41647E+06
C:/temp/Job-37.odb,Step-1,Increment      1: Step Time =    1.000,"P-37-1",           645,       190.993,       79.8290,            0.,NA,NA,"",   4.44192E+06,   4.12883E+06,   4.12883E+06
C:/temp/Job-37.odb,Step-1,Increment      1: Step Time =    1.000,"P-37-1",           646,       191.281,       69.8566,            0.,NA,NA,"",   4.12033E+06,   3.91067E+06,   3.91067E+06
C:/temp/Job-37.odb,Step-1,Increment      1: Step Time =    1.000,"P-37-1",           647,       191.072,       60.6604,            0.,NA,NA,"",   3.42058E+06,   3.20361E+06,   3.20361E+06
C:/temp/Job-37.odb,Step-1,Increment      1: Step Time =    1.000,"P-37-1",           648,       59.2220,       190.867,            0.,NA,NA,"",   6.67202E+06,   6.45464E+06,   6.45464E+06
C:/temp/Job-37.odb,Step-1,Increment      1: Step Time =    1.000,"P-37-1",           649,       70.0475,       191.264,            0.,NA,NA,"",   6.49207E+06,   6.06207E+06,   6.06207E+06
C:/temp/Job-37.odb,Step-1,Increment      1: Step Time =    1.000,"P-37-1",           650,       89.3310,       189.761,            0.,NA,NA,"",   6.63331E+06,   6.11836E+06,   6.11836E+06
C:/temp/Job-37.odb,Step-1,Increment      1: Step Time =    1.000,"P-37-1",           651,       108.958,       190.768,            0.,NA,NA,"",   4.94272E+06,   4.91977E+06,   4.91977E+06
C:/temp/Job-37.odb,Step-1,Increment      1: Step Time =    1.000,"P-37-1",           652,       120.122,       190.290,            0.,NA,NA,"",   3.20788E+06,   3.33264E+06,   3.33264E+06
C:/temp/Job-37.odb,Step-1,Increment      1: Step Time =    1.000,"P-37-1",           653,       139.129,       189.827,            0.,NA,NA,"",    2.0045E+06,   943.269E+03,   943.269E+03
C:/temp/Job-37.odb,Step-1,Increment      1: Step Time =    1.000,"P-37-1",           654,       8.92930,       58.9671,            0.,NA,NA,"",   1.69146E+06,  -1.66123E+06,  -1.66123E+06
C:/temp/Job-37.odb,Step-1,Increment      1: Step Time =    1.000,"P-37-1",           655,       9.49768,       69.6269,            0.,NA,NA,"",   1.34089E+06,  -1.35833E+06,  -1.35833E+06
C:/temp/Job-37.odb,Step-1,Increment      1: Step Time =    1.000,"P-37-1",           656,       8.09274,       79.8601,            0.,NA,NA,"",   915.270E+03,  -946.243E+03,  -946.243E+03
C:/temp/Job-37.odb,Step-1,Increment      1: Step Time =    1.000,"P-37-1",           657,       9.56123,       90.8274,            0.,NA,NA,"",   568.903E+03,  -615.080E+03,  -615.080E+03
C:/temp/Job-37.odb,Step-1,Increment      1: Step Time =    1.000,"P-37-1",           658,       9.76518,       102.889,            0.,NA,NA,"",   481.997E+03,  -528.785E+03,  -528.785E+03
C:/temp/Job-37.odb,Step-1,Increment      1: Step Time =    1.000,"P-37-1",           659,       8.54009,       117.894,            0.,NA,NA,"",   817.911E+03,  -853.654E+03,  -853.654E+03
C:/temp/Job-37.odb,Step-1,Increment      1: Step Time =    1.000,"P-37-1",           660,       8.15929,       130.204,            0.,NA,NA,"",   1.33114E+06,  -1.34650E+06,  -1.34650E+06
C:/temp/Job-37.odb,Step-1,Increment      1: Step Time =    1.000,"P-37-1",           661,       8.38566,       139.237,            0.,NA,NA,"",   1.63351E+06,  -1.61494E+06,  -1.61494E+06
C:/temp/Job-37.odb,Step-1,Increment      1: Step Time =    1.000,"P-37-1",           662,       140.880,       9.17863,            0.,NA,NA,"",   1.70175E+06,   330.307E+03,   330.307E+03
C:/temp/Job-37.odb,Step-1,Increment      1: Step Time =    1.000,"P-37-1",           663,       119.972,       9.25104,            0.,NA,NA,"",   2.97030E+06,   2.98245E+06,   2.98245E+06
C:/temp/Job-37.odb,Step-1,Increment      1: Step Time =    1.000,"P-37-1",           664,       68.7955,       9.66673,            0.,NA,NA,"",   6.20009E+06,   5.75635E+06,   5.75635E+06
C:/temp/Job-37.odb,Step-1,Increment      1: Step Time =    1.000,"P-37-1",           665,       78.2579,       190.972,            0.,NA,NA,"",   6.41763E+06,   5.85995E+06,   5.85995E+06
C:/temp/Job-37.odb,Step-1,Increment      1: Step Time =    1.000,"P-37-1",           666,       130.405,       190.911,            0.,NA,NA,"",   1.87343E+06,   1.30586E+06,   1.30586E+06
C:/temp/Job-37.odb,Step-1,Increment      1: Step Time =    1.000,"P-37-1",           667,       166.747,       161.402,            0.,NA,NA,"",   3.89739E+06,   3.94769E+06,   3.94769E+06
C:/temp/Job-37.odb,Step-1,Increment      1: Step Time =    1.000,"P-37-1",           668,       124.892,       13.2430,            0.,NA,NA,"",   6.37441E+06,   6.63149E+06,   6.63149E+06
C:/temp/Job-37.odb,Step-1,Increment      1: Step Time =    1.000,"P-37-1",           669,       15.6438,       76.3917,            0.,NA,NA,"",   1.18203E+06,  -1.20813E+06,  -1.20813E+06
C:/temp/Job-37.odb,Step-1,Increment      1: Step Time =    1.000,"P-37-1",           670,       33.3958,       161.966,            0.,NA,NA,"",   2.63425E+06,  -2.69831E+06,  -2.69831E+06
C:/temp/Job-37.odb,Step-1,Increment      1: Step Time =    1.000,"P-37-1",           671,       26.1559,       50.2394,            0.,NA,NA,"",   2.93963E+06,  -2.94909E+06,  -2.94909E+06
C:/temp/Job-37.odb,Step-1,Increment      1: Step Time =    1.000,"P-37-1",           672,       13.3675,       79.3838,            0.,NA,NA,"",   1.00841E+06,  -1.03811E+06,  -1.03811E+06
C:/temp/Job-37.odb,Step-1,Increment      1: Step Time =    1.000,"P-37-1",           673,       185.882,       118.710,            0.,NA,NA,"",   3.48007E+06,  -1.59174E+06,  -1.59174E+06
C:/temp/Job-37.odb,Step-1,Increment      1: Step Time =    1.000,"P-37-1",           674,       23.2836,       144.785,            0.,NA,NA,"",   2.62859E+06,  -2.63446E+06,  -2.63446E+06
C:/temp/Job-37.odb,Step-1,Increment      1: Step Time =    1.000,"P-37-1",           675,       79.3121,       14.1879,            0.,NA,NA,"",   5.34005E+06,   4.75006E+06,   4.75006E+06
C:/temp/Job-37.odb,Step-1,Increment      1: Step Time =    1.000,"P-37-1",           676,       174.496,       149.736,            0.,NA,NA,"",   3.13164E+06,   2.90766E+06,   2.90766E+06
C:/temp/Job-37.odb,Step-1,Increment      1: Step Time =    1.000,"P-37-1",           677,       12.9659,       116.295,            0.,NA,NA,"",   829.218E+03,  -862.645E+03,  -862.645E+03
C:/temp/Job-37.odb,Step-1,Increment      1: Step Time =    1.000,"P-37-1",           678,       177.534,       54.9380,            0.,NA,NA,"",   3.02822E+06,   2.56675E+06,   2.56675E+06
C:/temp/Job-37.odb,Step-1,Increment      1: Step Time =    1.000,"P-37-1",           679,       186.881,       79.7375,            0.,NA,NA,"",   3.75539E+06,  -320.321E+03,  -320.321E+03
C:/temp/Job-37.odb,Step-1,Increment      1: Step Time =    1.000,"P-37-1",           680,       164.747,       38.0945,            0.,NA,NA,"",   4.16645E+06,   4.24807E+06,   4.24807E+06
C:/temp/Job-37.odb,Step-1,Increment      1: Step Time =    1.000,"P-37-1",           681,       50.7355,       25.4442,            0.,NA,NA,"",   2.65754E+06,  -2.45549E+06,  -2.45549E+06
C:/temp/Job-37.odb,Step-1,Increment      1: Step Time =    1.000,"P-37-1",           682,       76.4532,       16.3712,            0.,NA,NA,"",   4.15620E+06,   3.55241E+06,   3.55241E+06
C:/temp/Job-37.odb,Step-1,Increment      1: Step Time =    1.000,"P-37-1",           683,       151.939,       173.965,            0.,NA,NA,"",   5.49541E+06,   5.68356E+06,   5.68356E+06
C:/temp/Job-37.odb,Step-1,Increment      1: Step Time =    1.000,"P-37-1",           684,       123.835,       186.056,            0.,NA,NA,"",   7.50912E+06,   7.76510E+06,   7.76510E+06
C:/temp/Job-37.odb,Step-1,Increment      1: Step Time =    1.000,"P-37-1",           685,       33.3551,       38.2897,            0.,NA,NA,"",   2.69879E+06,  -2.76901E+06,  -2.76901E+06
C:/temp/Job-37.odb,Step-1,Increment      1: Step Time =    1.000,"P-37-1",           686,       76.5590,       187.047,            0.,NA,NA,"",   5.73121E+06,   5.00307E+06,   5.00307E+06
C:/temp/Job-37.odb,Step-1,Increment      1: Step Time =    1.000,"P-37-1",           687,       12.5195,       120.646,            0.,NA,NA,"",   968.019E+03,  -1.00338E+06,  -1.00338E+06
C:/temp/Job-37.odb,Step-1,Increment      1: Step Time =    1.000,"P-37-1",           688,       120.278,       186.260,            0.,NA,NA,"",   8.35101E+06,   8.62329E+06,   8.62329E+06
C:/temp/Job-37.odb,Step-1,Increment      1: Step Time =    1.000,"P-37-1",           689,       120.554,       13.3297,            0.,NA,NA,"",   7.69628E+06,   7.95372E+06,   7.95372E+06
C:/temp/Job-37.odb,Step-1,Increment      1: Step Time =    1.000,"P-37-1",           690,       79.8199,       186.189,            0.,NA,NA,"",   5.80274E+06,   5.13175E+06,   5.13175E+06
C:/temp/Job-37.odb,Step-1,Increment      1: Step Time =    1.000,"P-37-1",           691,       186.187,       122.560,            0.,NA,NA,"",   3.56715E+06,  -331.048E+03,  -331.048E+03
C:/temp/Job-37.odb,Step-1,Increment      1: Step Time =    1.000,"P-37-1",           692,       48.6927,       173.412,            0.,NA,NA,"",   2.60887E+06,  -2.48502E+06,  -2.48502E+06
C:/temp/Job-37.odb,Step-1,Increment      1: Step Time =    1.000,"P-37-1",           693,       155.476,       28.7025,            0.,NA,NA,"",   5.24823E+06,   5.42436E+06,   5.42436E+06
C:/temp/Job-37.odb,Step-1,Increment      1: Step Time =    1.000,"P-37-1",           694,       19.7373,       57.7801,            0.,NA,NA,"",   2.23336E+06,  -2.21866E+06,  -2.21866E+06
C:/temp/Job-37.odb,Step-1,Increment      1: Step Time =    1.000,"P-37-1",           695,       184.005,       138.990,            0.,NA,NA,"",   3.49140E+06,   2.73245E+06,   2.73245E+06
C:/temp/Job-37.odb,Step-1,Increment      1: Step Time =    1.000,"P-37-1",           696,       14.8956,       125.214,            0.,NA,NA,"",   1.21599E+06,  -1.24988E+06,  -1.24988E+06
C:/temp/Job-37.odb,Step-1,Increment      1: Step Time =    1.000,"P-37-1",           697,       186.127,       74.3202,            0.,NA,NA,"",   3.56706E+06,   618.501E+03,   618.501E+03
C:/temp/Job-37.odb,Step-1,Increment      1: Step Time =    1.000,"P-37-1",           698,       12.8409,       56.0161,            0.,NA,NA,"",   1.86506E+06,  -1.80223E+06,  -1.80223E+06
C:/temp/Job-37.odb,Step-1,Increment      1: Step Time =    1.000,"P-37-1",           699,       59.2579,       14.4597,            0.,NA,NA,"",   4.46879E+06,   3.90972E+06,   3.90972E+06
C:/temp/Job-37.odb,Step-1,Increment      1: Step Time =    1.000,"P-37-1",           700,       187.192,       61.1185,            0.,NA,NA,"",   3.62601E+06,   3.03826E+06,   3.03826E+06
C:/temp/Job-37.odb,Step-1,Increment      1: Step Time =    1.000,"P-37-1",           701,       57.9223,       186.321,            0.,NA,NA,"",   4.78655E+06,   4.33664E+06,   4.33664E+06
C:/temp/Job-37.odb,Step-1,Increment      1: Step Time =    1.000,"P-37-1",           702,       12.0444,       138.813,            0.,NA,NA,"",   1.76159E+06,  -1.74362E+06,  -1.74362E+06
C:/temp/Job-37.odb,Step-1,Increment      1: Step Time =    1.000,"P-37-1",           703,       142.237,       13.6303,            0.,NA,NA,"",   3.12587E+06,   3.17353E+06,   3.17353E+06
C:/temp/Job-37.odb,Step-1,Increment      1: Step Time =    1.000,"P-37-1",           704,       138.087,       185.365,            0.,NA,NA,"",   4.29857E+06,   4.47029E+06,   4.47029E+06
C:/temp/Job-37.odb,Step-1,Increment      1: Step Time =    1.000,"P-37-1",           705,       189.207,       139.755,            0.,NA,NA,"",   3.49427E+06,   3.12603E+06,   3.12603E+06
C:/temp/Job-37.odb,Step-1,Increment      1: Step Time =    1.000,"P-37-1",           706,       186.135,       127.348,            0.,NA,NA,"",   3.60421E+06,   1.36530E+06,   1.36530E+06
C:/temp/Job-37.odb,Step-1,Increment      1: Step Time =    1.000,"P-37-1",           707,       14.6281,       73.0160,            0.,NA,NA,"",   1.33521E+06,  -1.36318E+06,  -1.36318E+06
C:/temp/Job-37.odb,Step-1,Increment      1: Step Time =    1.000,"P-37-1",           708,       59.4924,       22.2670,            0.,NA,NA,"",   2.74699E+06,  -2.30470E+06,  -2.30470E+06
C:/temp/Job-37.odb,Step-1,Increment      1: Step Time =    1.000,"P-37-1",           709,       143.420,       19.0805,            0.,NA,NA,"",   5.59238E+06,   5.78501E+06,   5.78501E+06
C:/temp/Job-37.odb,Step-1,Increment      1: Step Time =    1.000,"P-37-1",           710,       56.7758,       180.817,            0.,NA,NA,"",   3.05681E+06,   828.822E+03,   828.822E+03
C:/temp/Job-37.odb,Step-1,Increment      1: Step Time =    1.000,"P-37-1",           711,       141.033,       179.626,            0.,NA,NA,"",   6.96165E+06,   7.16491E+06,   7.16491E+06
C:/temp/Job-37.odb,Step-1,Increment      1: Step Time =    1.000,"P-37-1",           712,       137.546,       17.7679,            0.,NA,NA,"",   6.40355E+06,   6.65086E+06,   6.65086E+06
C:/temp/Job-37.odb,Step-1,Increment      1: Step Time =    1.000,"P-37-1",           713,       62.1136,       17.9586,            0.,NA,NA,"",   3.25148E+06,   1.20460E+06,   1.20460E+06
C:/temp/Job-37.odb,Step-1,Increment      1: Step Time =    1.000,"P-37-1",           714,       62.7114,       182.366,            0.,NA,NA,"",   3.46159E+06,   1.73962E+06,   1.73962E+06
C:/temp/Job-37.odb,Step-1,Increment      1: Step Time =    1.000,"P-37-1",           715,       136.756,       181.215,            0.,NA,NA,"",   7.61451E+06,   7.86279E+06,   7.86279E+06
C:/temp/Job-37.odb,Step-1,Increment      1: Step Time =    1.000,"P-37-1",           716,       23.4281,       46.8481,            0.,NA,NA,"",   2.41395E+06,  -2.36773E+06,  -2.36773E+06
C:/temp/Job-37.odb,Step-1,Increment      1: Step Time =    1.000,"P-37-1",           717,       177.728,       152.866,            0.,NA,NA,"",   3.23513E+06,   2.93554E+06,   2.93554E+06
C:/temp/Job-37.odb,Step-1,Increment      1: Step Time =    1.000,"P-37-1",           718,       19.7228,       147.126,            0.,NA,NA,"",   2.28218E+06,  -2.23658E+06,  -2.23658E+06
C:/temp/Job-37.odb,Step-1,Increment      1: Step Time =    1.000,"P-37-1",           719,       181.140,       49.0665,            0.,NA,NA,"",   3.16405E+06,   2.77441E+06,   2.77441E+06
C:/temp/Job-37.odb,Step-1,Increment      1: Step Time =    1.000,"P-37-1",           720,       27.2354,       159.241,            0.,NA,NA,"",   2.10360E+06,  -2.07363E+06,  -2.07363E+06
C:/temp/Job-37.odb,Step-1,Increment      1: Step Time =    1.000,"P-37-1",           721,       174.919,       159.217,            0.,NA,NA,"",   3.15557E+06,   3.03106E+06,   3.03106E+06
C:/temp/Job-37.odb,Step-1,Increment      1: Step Time =    1.000,"P-37-1",           722,       27.0658,       41.6753,            0.,NA,NA,"",   2.28884E+06,  -2.28360E+06,  -2.28360E+06
C:/temp/Job-37.odb,Step-1,Increment      1: Step Time =    1.000,"P-37-1",           723,       177.075,       44.0278,            0.,NA,NA,"",   3.13529E+06,   2.91777E+06,   2.91777E+06
C:/temp/Job-37.odb,Step-1,Increment      1: Step Time =    1.000,"P-37-1",           724,       179.478,       59.8125,            0.,NA,NA,"",   3.01383E+06,   2.27934E+06,   2.27934E+06
C:/temp/Job-37.odb,Step-1,Increment      1: Step Time =    1.000,"P-37-1",           725,       20.7165,       140.419,            0.,NA,NA,"",   2.26751E+06,  -2.27376E+06,  -2.27376E+06
C:/temp/Job-37.odb,Step-1,Increment      1: Step Time =    1.000,"P-37-1",           726,       187.190,       83.6854,            0.,NA,NA,"",   3.64691E+06,  -1.30622E+06,  -1.30622E+06
C:/temp/Job-37.odb,Step-1,Increment      1: Step Time =    1.000,"P-37-1",           727,       154.988,       171.673,            0.,NA,NA,"",   5.21368E+06,   5.40269E+06,   5.40269E+06
C:/temp/Job-37.odb,Step-1,Increment      1: Step Time =    1.000,"P-37-1",           728,       128.800,       185.446,            0.,NA,NA,"",   6.35213E+06,   6.63911E+06,   6.63911E+06
C:/temp/Job-37.odb,Step-1,Increment      1: Step Time =    1.000,"P-37-1",           729,       70.4176,       15.3297,            0.,NA,NA,"",   4.50265E+06,   3.65392E+06,   3.65392E+06
C:/temp/Job-37.odb,Step-1,Increment      1: Step Time =    1.000,"P-37-1",           730,       46.1406,       27.3837,            0.,NA,NA,"",   2.39183E+06,  -2.26875E+06,  -2.26875E+06
C:/temp/Job-37.odb,Step-1,Increment      1: Step Time =    1.000,"P-37-1",           731,       162.232,       35.2999,            0.,NA,NA,"",   4.39529E+06,   4.51529E+06,   4.51529E+06
C:/temp/Job-37.odb,Step-1,Increment      1: Step Time =    1.000,"P-37-1",           732,       35.1865,       166.743,            0.,NA,NA,"",   1.82875E+06,  -1.86764E+06,  -1.86764E+06
C:/temp/Job-37.odb,Step-1,Increment      1: Step Time =    1.000,"P-37-1",           733,       15.6658,       61.2145,            0.,NA,NA,"",   1.87618E+06,  -1.87025E+06,  -1.87025E+06
C:/temp/Job-37.odb,Step-1,Increment      1: Step Time =    1.000,"P-37-1",           734,       187.755,       136.596,            0.,NA,NA,"",   3.63392E+06,   3.07866E+06,   3.07866E+06
C:/temp/Job-37.odb,Step-1,Increment      1: Step Time =    1.000,"P-37-1",           735,       183.638,       69.9806,            0.,NA,NA,"",   3.33867E+06,   152.706E+03,   152.706E+03
C:/temp/Job-37.odb,Step-1,Increment      1: Step Time =    1.000,"P-37-1",           736,       16.2490,       130.025,            0.,NA,NA,"",   1.49837E+06,  -1.52654E+06,  -1.52654E+06
C:/temp/Job-37.odb,Step-1,Increment      1: Step Time =    1.000,"P-37-1",           737,       142.196,       183.964,            0.,NA,NA,"",   4.33251E+06,   4.46444E+06,   4.46444E+06
C:/temp/Job-37.odb,Step-1,Increment      1: Step Time =    1.000,"P-37-1",           738,       55.1190,       15.0757,            0.,NA,NA,"",   4.28320E+06,   3.81729E+06,   3.81729E+06
C:/temp/Job-37.odb,Step-1,Increment      1: Step Time =    1.000,"P-37-1",           739,       52.2301,       183.726,            0.,NA,NA,"",   3.81949E+06,   3.34590E+06,   3.34590E+06
C:/temp/Job-37.odb,Step-1,Increment      1: Step Time =    1.000,"P-37-1",           740,       148.056,       15.9970,            0.,NA,NA,"",   3.35613E+06,   3.42672E+06,   3.42672E+06
C:/temp/Job-37.odb,Step-1,Increment      1: Step Time =    1.000,"P-37-1",           741,       155.247,       178.076,            0.,NA,NA,"",   3.92855E+06,   4.04030E+06,   4.04030E+06
C:/temp/Job-37.odb,Step-1,Increment      1: Step Time =    1.000,"P-37-1",           742,       45.3885,       22.9657,            0.,NA,NA,"",   1.89183E+06,   145.421E+03,   145.421E+03
C:/temp/Job-37.odb,Step-1,Increment      1: Step Time =    1.000,"P-37-1",           743,       41.7907,       23.6049,            0.,NA,NA,"",   1.77524E+06,   388.687E+03,   388.687E+03
C:/temp/Job-37.odb,Step-1,Increment      1: Step Time =    1.000,"P-37-1",           744,       157.915,       173.499,            0.,NA,NA,"",   4.33072E+06,   4.48236E+06,   4.48236E+06
C:/temp/Job-37.odb,Step-1,Increment      1: Step Time =    1.000,"P-37-1",           745,       131.077,       187.648,            0.,NA,NA,"",   3.76591E+06,   3.98361E+06,   3.98361E+06
C:/temp/Job-37.odb,Step-1,Increment      1: Step Time =    1.000,"P-37-1",           746,       67.8794,       13.1393,            0.,NA,NA,"",   5.16511E+06,   4.49461E+06,   4.49461E+06
C:/temp/Job-37.odb,Step-1,Increment      1: Step Time =    1.000,"P-37-1",           747,       186.393,       57.3369,            0.,NA,NA,"",   3.47592E+06,   2.98150E+06,   2.98150E+06
C:/temp/Job-37.odb,Step-1,Increment      1: Step Time =    1.000,"P-37-1",           748,       12.7032,       141.702,            0.,NA,NA,"",   1.86900E+06,  -1.82917E+06,  -1.82917E+06
C:/temp/Job-37.odb,Step-1,Increment      1: Step Time =    1.000,"P-37-1",           749,       36.0836,       171.905,            0.,NA,NA,"",   1.31723E+06,  -552.657E+03,  -552.657E+03
C:/temp/Job-37.odb,Step-1,Increment      1: Step Time =    1.000,"P-37-1",           750,       163.799,       32.0596,            0.,NA,NA,"",   3.89920E+06,   4.00465E+06,   4.00465E+06
C:/temp/Job-37.odb,Step-1,Increment      1: Step Time =    1.000,"P-37-1",           751,       18.8778,       50.0660,            0.,NA,NA,"",   2.13858E+06,  -2.05192E+06,  -2.05192E+06
C:/temp/Job-37.odb,Step-1,Increment      1: Step Time =    1.000,"P-37-1",           752,       181.126,       149.928,            0.,NA,NA,"",   3.29180E+06,   2.84527E+06,   2.84527E+06
C:/temp/Job-37.odb,Step-1,Increment      1: Step Time =    1.000,"P-37-1",           753,       14.4231,       144.864,            0.,NA,NA,"",   1.94092E+06,  -1.87132E+06,  -1.87132E+06
C:/temp/Job-37.odb,Step-1,Increment      1: Step Time =    1.000,"P-37-1",           754,       185.671,       53.5000,            0.,NA,NA,"",   3.25629E+06,   2.81055E+06,   2.81055E+06
C:/temp/Job-37.odb,Step-1,Increment      1: Step Time =    1.000,"P-37-1",           755,       171.448,       163.598,            0.,NA,NA,"",   3.25774E+06,   3.24117E+06,   3.24117E+06
C:/temp/Job-37.odb,Step-1,Increment      1: Step Time =    1.000,"P-37-1",           756,       28.4048,       37.0025,            0.,NA,NA,"",   1.61903E+06,  -1.60371E+06,  -1.60371E+06
C:/temp/Job-37.odb,Step-1,Increment      1: Step Time =    1.000,"P-37-1",           757,       28.8363,       163.617,            0.,NA,NA,"",   1.51165E+06,  -1.49547E+06,  -1.49547E+06
C:/temp/Job-37.odb,Step-1,Increment      1: Step Time =    1.000,"P-37-1",           758,       171.094,       38.3623,            0.,NA,NA,"",   3.32605E+06,   3.30084E+06,   3.30084E+06
C:/temp/Job-37.odb,Step-1,Increment      1: Step Time =    1.000,"P-37-1",           759,       13.6434,       68.4742,            0.,NA,NA,"",   1.49619E+06,  -1.51764E+06,  -1.51764E+06
C:/temp/Job-37.odb,Step-1,Increment      1: Step Time =    1.000,"P-37-1",           760,       17.3825,       135.721,            0.,NA,NA,"",   1.84332E+06,  -1.85586E+06,  -1.85586E+06
C:/temp/Job-37.odb,Step-1,Increment      1: Step Time =    1.000,"P-37-1",           761,       182.330,       64.5377,            0.,NA,NA,"",   3.25530E+06,   1.55952E+06,   1.55952E+06
C:/temp/Job-37.odb,Step-1,Increment      1: Step Time =    1.000,"P-37-1",           762,       148.494,       176.532,            0.,NA,NA,"",   5.76524E+06,   5.96803E+06,   5.96803E+06
C:/temp/Job-37.odb,Step-1,Increment      1: Step Time =    1.000,"P-37-1",           763,       151.518,       26.1532,            0.,NA,NA,"",   5.69230E+06,   5.88023E+06,   5.88023E+06
C:/temp/Job-37.odb,Step-1,Increment      1: Step Time =    1.000,"P-37-1",           764,       47.0996,       17.9453,            0.,NA,NA,"",   3.35078E+06,   2.97385E+06,   2.97385E+06
C:/temp/Job-37.odb,Step-1,Increment      1: Step Time =    1.000,"P-37-1",           765,       151.706,       182.796,            0.,NA,NA,"",   3.23648E+06,   3.29677E+06,   3.29677E+06
C:/temp/Job-37.odb,Step-1,Increment      1: Step Time =    1.000,"P-37-1",           766,       54.5419,       191.371,            0.,NA,NA,"",   6.96182E+06,   6.77504E+06,   6.77504E+06
C:/temp/Job-37.odb,Step-1,Increment      1: Step Time =    1.000,"P-37-1",           767,       145.580,       8.55677,            0.,NA,NA,"",   1.69913E+06,  -23.2769E+03,  -23.2769E+03
C:/temp/Job-37.odb,Step-1,Increment      1: Step Time =    1.000,"P-37-1",           768,       49.9463,       20.3389,            0.,NA,NA,"",   2.63593E+06,   958.317E+03,   958.317E+03
C:/temp/Job-37.odb,Step-1,Increment      1: Step Time =    1.000,"P-37-1",           769,       164.377,       173.088,            0.,NA,NA,"",   3.33941E+06,   3.40552E+06,   3.40552E+06
C:/temp/Job-37.odb,Step-1,Increment      1: Step Time =    1.000,"P-37-1",           770,       36.8341,       27.9446,            0.,NA,NA,"",   1.37659E+06,  -596.296E+03,  -596.296E+03
C:/temp/Job-37.odb,Step-1,Increment      1: Step Time =    1.000,"P-37-1",           771,       17.1391,       54.7911,            0.,NA,NA,"",   2.10355E+06,  -2.04446E+06,  -2.04446E+06
C:/temp/Job-37.odb,Step-1,Increment      1: Step Time =    1.000,"P-37-1",           772,       17.6648,       45.0755,            0.,NA,NA,"",   1.73735E+06,  -1.57298E+06,  -1.57298E+06
C:/temp/Job-37.odb,Step-1,Increment      1: Step Time =    1.000,"P-37-1",           773,       183.893,       153.986,            0.,NA,NA,"",   2.89634E+06,   2.56315E+06,   2.56315E+06
C:/temp/Job-37.odb,Step-1,Increment      1: Step Time =    1.000,"P-37-1",           774,       187.494,       142.528,            0.,NA,NA,"",   3.41556E+06,   2.97232E+06,   2.97232E+06
C:/temp/Job-37.odb,Step-1,Increment      1: Step Time =    1.000,"P-37-1",           775,       15.3608,       156.897,            0.,NA,NA,"",   1.43617E+06,  -1.22869E+06,  -1.22869E+06
C:/temp/Job-37.odb,Step-1,Increment      1: Step Time =    1.000,"P-37-1",           776,       185.942,       44.1921,            0.,NA,NA,"",   2.59401E+06,   2.32654E+06,   2.32654E+06
C:/temp/Job-37.odb,Step-1,Increment      1: Step Time =    1.000,"P-37-1",           777,       175.490,       165.910,            0.,NA,NA,"",   2.72517E+06,   2.66252E+06,   2.66252E+06
C:/temp/Job-37.odb,Step-1,Increment      1: Step Time =    1.000,"P-37-1",           778,       23.2081,       36.1616,            0.,NA,NA,"",   936.697E+03,  -675.772E+03,  -675.772E+03
C:/temp/Job-37.odb,Step-1,Increment      1: Step Time =    1.000,"P-37-1",           779,       24.0931,       160.688,            0.,NA,NA,"",   1.54579E+06,  -1.44985E+06,  -1.44985E+06
C:/temp/Job-37.odb,Step-1,Increment      1: Step Time =    1.000,"P-37-1",           780,       176.807,       40.0749,            0.,NA,NA,"",   2.97302E+06,   2.82486E+06,   2.82486E+06
C:/temp/Job-37.odb,Step-1,Increment      1: Step Time =    1.000,"P-37-1",           781,       186.421,       132.243,            0.,NA,NA,"",   3.61331E+06,   2.78309E+06,   2.78309E+06
C:/temp/Job-37.odb,Step-1,Increment      1: Step Time =    1.000,"P-37-1",           782,       41.3982,       176.148,            0.,NA,NA,"",   1.73984E+06,   393.073E+03,   393.073E+03
C:/temp/Job-37.odb,Step-1,Increment      1: Step Time =    1.000,"P-37-1",           783,       51.4286,       15.2843,            0.,NA,NA,"",   4.28677E+06,   3.90981E+06,   3.90981E+06
C:/temp/Job-37.odb,Step-1,Increment      1: Step Time =    1.000,"P-37-1",           784,       146.694,       182.560,            0.,NA,NA,"",   4.05187E+06,   4.16832E+06,   4.16832E+06
C:/temp/Job-37.odb,Step-1,Increment      1: Step Time =    1.000,"P-37-1",           785,       8.49563,       54.8865,            0.,NA,NA,"",   1.65428E+06,  -1.59588E+06,  -1.59588E+06
C:/temp/Job-37.odb,Step-1,Increment      1: Step Time =    1.000,"P-37-1",           786,       191.710,       144.056,            0.,NA,NA,"",   2.85992E+06,   2.74039E+06,   2.74039E+06
C:/temp/Job-37.odb,Step-1,Increment      1: Step Time =    1.000,"P-37-1",           787,       42.4336,       14.6311,            0.,NA,NA,"",   4.64860E+06,   4.47121E+06,   4.47121E+06
C:/temp/Job-37.odb,Step-1,Increment      1: Step Time =    1.000,"P-37-1",           788,       155.145,       184.168,            0.,NA,NA,"",   2.58938E+06,   2.53979E+06,   2.53979E+06
C:/temp/Job-37.odb,Step-1,Increment      1: Step Time =    1.000,"P-37-1",           789,       150.646,       179.883,            0.,NA,NA,"",   4.23326E+06,   4.36283E+06,   4.36283E+06
C:/temp/Job-37.odb,Step-1,Increment      1: Step Time =    1.000,"P-37-1",           790,       14.6990,       162.609,            0.,NA,NA,"",   778.263E+03,  -180.675E+03,  -180.675E+03
C:/temp/Job-37.odb,Step-1,Increment      1: Step Time =    1.000,"P-37-1",           791,       185.571,       39.2235,            0.,NA,NA,"",   2.25976E+06,   2.07295E+06,   2.07295E+06
C:/temp/Job-37.odb,Step-1,Increment      1: Step Time =    1.000,"P-37-1",           792,       178.712,       162.900,            0.,NA,NA,"",   2.66969E+06,   2.54034E+06,   2.54034E+06
C:/temp/Job-37.odb,Step-1,Increment      1: Step Time =    1.000,"P-37-1",           793,       16.4285,       42.1271,            0.,NA,NA,"",   1.37854E+06,  -1.15262E+06,  -1.15262E+06
C:/temp/Job-37.odb,Step-1,Increment      1: Step Time =    1.000,"P-37-1",           794,       163.642,       165.706,            0.,NA,NA,"",   4.17226E+06,   4.28066E+06,   4.28066E+06
C:/temp/Job-37.odb,Step-1,Increment      1: Step Time =    1.000,"P-37-1",           795,       167.920,       174.626,            0.,NA,NA,"",   2.77424E+06,   2.77858E+06,   2.77858E+06
C:/temp/Job-37.odb,Step-1,Increment      1: Step Time =    1.000,"P-37-1",           796,       34.1397,       21.6467,            0.,NA,NA,"",   2.45598E+06,   2.28140E+06,   2.28140E+06
C:/temp/Job-37.odb,Step-1,Increment      1: Step Time =    1.000,"P-37-1",           797,       35.3335,       33.2370,            0.,NA,NA,"",   1.85015E+06,  -1.88428E+06,  -1.88428E+06
C:/temp/Job-37.odb,Step-1,Increment      1: Step Time =    1.000,"P-37-1",           798,       13.1922,       45.7393,            0.,NA,NA,"",   1.54546E+06,  -1.36396E+06,  -1.36396E+06
C:/temp/Job-37.odb,Step-1,Increment      1: Step Time =    1.000,"P-37-1",           799,       186.436,       151.516,            0.,NA,NA,"",   2.86136E+06,   2.52235E+06,   2.52235E+06
C:/temp/Job-37.odb,Step-1,Increment      1: Step Time =    1.000,"P-37-1",           800,       13.5258,       152.628,            0.,NA,NA,"",   1.68399E+06,  -1.51491E+06,  -1.51491E+06
C:/temp/Job-37.odb,Step-1,Increment      1: Step Time =    1.000,"P-37-1",           801,       24.1775,       164.537,            0.,NA,NA,"",   948.518E+03,  -708.754E+03,  -708.754E+03
C:/temp/Job-37.odb,Step-1,Increment      1: Step Time =    1.000,"P-37-1",           802,       174.885,       35.6211,            0.,NA,NA,"",   2.83707E+06,   2.77044E+06,   2.77044E+06
C:/temp/Job-37.odb,Step-1,Increment      1: Step Time =    1.000,"P-37-1",           803,       154.830,       8.98102,            0.,NA,NA,"",   1.47959E+06,   21.2028E+03,   21.2028E+03
C:/temp/Job-37.odb,Step-1,Increment      1: Step Time =    1.000,"P-37-1",           804,       45.4314,       190.917,            0.,NA,NA,"",   6.88902E+06,   6.80487E+06,   6.80487E+06
C:/temp/Job-37.odb,Step-1,Increment      1: Step Time =    1.000,"P-37-1",           805,       55.1894,       23.8392,            0.,NA,NA,"",   2.75218E+06,  -2.44147E+06,  -2.44147E+06
C:/temp/Job-37.odb,Step-1,Increment      1: Step Time =    1.000,"P-37-1",           806,       36.9894,       176.728,            0.,NA,NA,"",   1.88293E+06,   1.27366E+06,   1.27366E+06
C:/temp/Job-37.odb,Step-1,Increment      1: Step Time =    1.000,"P-37-1",           807,       162.264,       23.3968,            0.,NA,NA,"",   3.21074E+06,   3.25251E+06,   3.25251E+06
C:/temp/Job-37.odb,Step-1,Increment      1: Step Time =    1.000,"P-37-1",           808,       154.282,       13.7897,            0.,NA,NA,"",   2.11405E+06,   1.95195E+06,   1.95195E+06
C:/temp/Job-37.odb,Step-1,Increment      1: Step Time =    1.000,"P-37-1",           809,       46.1368,       186.085,            0.,NA,NA,"",   4.93292E+06,   4.72857E+06,   4.72857E+06
C:/temp/Job-37.odb,Step-1,Increment      1: Step Time =    1.000,"P-37-1",           810,       24.8494,       169.494,            0.,NA,NA,"",   720.737E+03,   377.186E+03,   377.186E+03
C:/temp/Job-37.odb,Step-1,Increment      1: Step Time =    1.000,"P-37-1",           811,       171.692,       30.1526,            0.,NA,NA,"",   2.83309E+06,   2.83036E+06,   2.83036E+06
C:/temp/Job-37.odb,Step-1,Increment      1: Step Time =    1.000,"P-37-1",           812,       39.6565,       18.6525,            0.,NA,NA,"",   3.21878E+06,   2.99756E+06,   2.99756E+06
C:/temp/Job-37.odb,Step-1,Increment      1: Step Time =    1.000,"P-37-1",           813,       160.136,       178.880,            0.,NA,NA,"",   3.12077E+06,   3.17099E+06,   3.17099E+06
C:/temp/Job-37.odb,Step-1,Increment      1: Step Time =    1.000,"P-37-1",           814,       19.5177,       164.076,            0.,NA,NA,"",   798.213E+03,  -313.315E+03,  -313.315E+03
C:/temp/Job-37.odb,Step-1,Increment      1: Step Time =    1.000,"P-37-1",           815,       179.791,       34.2431,            0.,NA,NA,"",   2.38666E+06,   2.28536E+06,   2.28536E+06
C:/temp/Job-37.odb,Step-1,Increment      1: Step Time =    1.000,"P-37-1",           816,       190.160,       153.044,            0.,NA,NA,"",   2.33355E+06,   2.12622E+06,   2.12622E+06
C:/temp/Job-37.odb,Step-1,Increment      1: Step Time =    1.000,"P-37-1",           817,       8.86356,       45.5198,            0.,NA,NA,"",   1.25810E+06,  -1.11148E+06,  -1.11148E+06
C:/temp/Job-37.odb,Step-1,Increment      1: Step Time =    1.000,"P-37-1",           818,       151.269,       186.986,            0.,NA,NA,"",   2.13387E+06,   2.03732E+06,   2.03732E+06
C:/temp/Job-37.odb,Step-1,Increment      1: Step Time =    1.000,"P-37-1",           819,       47.8152,       13.7563,            0.,NA,NA,"",   4.88178E+06,   4.60980E+06,   4.60980E+06
C:/temp/Job-37.odb,Step-1,Increment      1: Step Time =    1.000,"P-37-1",           820,       174.711,       155.146,            0.,NA,NA,"",   3.24262E+06,   3.06929E+06,   3.06929E+06
C:/temp/Job-37.odb,Step-1,Increment      1: Step Time =    1.000,"P-37-1",           821,       26.6181,       45.1472,            0.,NA,NA,"",   2.64221E+06,  -2.63012E+06,  -2.63012E+06
C:/temp/Job-37.odb,Step-1,Increment      1: Step Time =    1.000,"P-37-1",           822,       22.2649,       151.379,            0.,NA,NA,"",   2.36915E+06,  -2.32004E+06,  -2.32004E+06
C:/temp/Job-37.odb,Step-1,Increment      1: Step Time =    1.000,"P-37-1",           823,       165.251,       18.9347,            0.,NA,NA,"",   2.37198E+06,   2.29296E+06,   2.29296E+06
C:/temp/Job-37.odb,Step-1,Increment      1: Step Time =    1.000,"P-37-1",           824,       37.1274,       180.677,            0.,NA,NA,"",   3.16380E+06,   2.98794E+06,   2.98794E+06
C:/temp/Job-37.odb,Step-1,Increment      1: Step Time =    1.000,"P-37-1",           825,       31.2033,       173.308,            0.,NA,NA,"",   1.25787E+06,   799.668E+03,   799.668E+03
C:/temp/Job-37.odb,Step-1,Increment      1: Step Time =    1.000,"P-37-1",           826,       165.609,       28.1350,            0.,NA,NA,"",   3.35035E+06,   3.41719E+06,   3.41719E+06
C:/temp/Job-37.odb,Step-1,Increment      1: Step Time =    1.000,"P-37-1",           827,       13.5909,       167.738,            0.,NA,NA,"",   683.210E+03,   770.821E+03,   770.821E+03
C:/temp/Job-37.odb,Step-1,Increment      1: Step Time =    1.000,"P-37-1",           828,       185.181,       34.2029,            0.,NA,NA,"",   1.95882E+06,   1.81970E+06,   1.81970E+06
C:/temp/Job-37.odb,Step-1,Increment      1: Step Time =    1.000,"P-37-1",           829,       38.1124,       22.9285,            0.,NA,NA,"",   1.97527E+06,   1.26677E+06,   1.26677E+06
C:/temp/Job-37.odb,Step-1,Increment      1: Step Time =    1.000,"P-37-1",           830,       160.659,       175.115,            0.,NA,NA,"",   3.63272E+06,   3.73904E+06,   3.73904E+06
C:/temp/Job-37.odb,Step-1,Increment      1: Step Time =    1.000,"P-37-1",           831,       159.538,       14.3530,            0.,NA,NA,"",   2.03944E+06,   1.85514E+06,   1.85514E+06
C:/temp/Job-37.odb,Step-1,Increment      1: Step Time =    1.000,"P-37-1",           832,       41.3226,       185.681,            0.,NA,NA,"",   4.80511E+06,   4.64878E+06,   4.64878E+06
C:/temp/Job-37.odb,Step-1,Increment      1: Step Time =    1.000,"P-37-1",           833,       170.962,       23.9522,            0.,NA,NA,"",   2.45184E+06,   2.39972E+06,   2.39972E+06
C:/temp/Job-37.odb,Step-1,Increment      1: Step Time =    1.000,"P-37-1",           834,       26.2947,       174.387,            0.,NA,NA,"",   1.59433E+06,   1.60113E+06,   1.60113E+06
C:/temp/Job-37.odb,Step-1,Increment      1: Step Time =    1.000,"P-37-1",           835,       160.106,       183.806,            0.,NA,NA,"",   2.32533E+06,   2.23443E+06,   2.23443E+06
C:/temp/Job-37.odb,Step-1,Increment      1: Step Time =    1.000,"P-37-1",           836,       38.0036,       13.4151,            0.,NA,NA,"",   5.27240E+06,   5.16550E+06,   5.16550E+06
C:/temp/Job-37.odb,Step-1,Increment      1: Step Time =    1.000,"P-37-1",           837,       47.6667,       180.599,            0.,NA,NA,"",   2.89161E+06,   1.85879E+06,   1.85879E+06
C:/temp/Job-37.odb,Step-1,Increment      1: Step Time =    1.000,"P-37-1",           838,       152.718,       18.9961,            0.,NA,NA,"",   3.73907E+06,   3.80938E+06,   3.80938E+06
C:/temp/Job-37.odb,Step-1,Increment      1: Step Time =    1.000,"P-37-1",           839,       175.501,       23.1117,            0.,NA,NA,"",   2.09498E+06,   2.00672E+06,   2.00672E+06
C:/temp/Job-37.odb,Step-1,Increment      1: Step Time =    1.000,"P-37-1",           840,       22.0425,       175.513,            0.,NA,NA,"",   1.97843E+06,   2.07107E+06,   2.07107E+06
C:/temp/Job-37.odb,Step-1,Increment      1: Step Time =    1.000,"P-37-1",           841,       174.705,       18.4122,            0.,NA,NA,"",   1.86023E+06,   1.71545E+06,   1.71545E+06
C:/temp/Job-37.odb,Step-1,Increment      1: Step Time =    1.000,"P-37-1",           842,       27.1765,       179.703,            0.,NA,NA,"",   3.05107E+06,   3.05364E+06,   3.05364E+06
C:/temp/Job-37.odb,Step-1,Increment      1: Step Time =    1.000,"P-37-1",           843,       34.6610,       12.2943,            0.,NA,NA,"",   5.64037E+06,   5.57939E+06,   5.57939E+06
C:/temp/Job-37.odb,Step-1,Increment      1: Step Time =    1.000,"P-37-1",           844,       164.647,       183.106,            0.,NA,NA,"",   2.13878E+06,   2.02793E+06,   2.02793E+06
C:/temp/Job-37.odb,Step-1,Increment      1: Step Time =    1.000,"P-37-1",           845,       39.0093,       8.88423,            0.,NA,NA,"",   6.90264E+06,   6.84104E+06,   6.84104E+06
C:/temp/Job-37.odb,Step-1,Increment      1: Step Time =    1.000,"P-37-1",           846,       160.628,       189.189,            0.,NA,NA,"",   1.57641E+06,   456.435E+03,   456.435E+03
C:/temp/Job-37.odb,Step-1,Increment      1: Step Time =    1.000,"P-37-1",           847,       164.751,       14.1921,            0.,NA,NA,"",   1.83985E+06,   1.63495E+06,   1.63495E+06
C:/temp/Job-37.odb,Step-1,Increment      1: Step Time =    1.000,"P-37-1",           848,       36.4126,       185.404,            0.,NA,NA,"",   4.74320E+06,   4.63302E+06,   4.63302E+06
C:/temp/Job-37.odb,Step-1,Increment      1: Step Time =    1.000,"P-37-1",           849,       170.162,       18.8186,            0.,NA,NA,"",   2.08831E+06,   1.95876E+06,   1.95876E+06
C:/temp/Job-37.odb,Step-1,Increment      1: Step Time =    1.000,"P-37-1",           850,       31.7166,       184.961,            0.,NA,NA,"",   4.67796E+06,   4.61705E+06,   4.61705E+06
C:/temp/Job-37.odb,Step-1,Increment      1: Step Time =    1.000,"P-37-1",           851,       181.771,       23.3258,            0.,NA,NA,"",   1.72956E+06,   1.59478E+06,   1.59478E+06
C:/temp/Job-37.odb,Step-1,Increment      1: Step Time =    1.000,"P-37-1",           852,       14.4431,       174.169,            0.,NA,NA,"",   1.85335E+06,   2.04575E+06,   2.04575E+06
C:/temp/Job-37.odb,Step-1,Increment      1: Step Time =    1.000,"P-37-1",           853,       45.6221,       175.579,            0.,NA,NA,"",   1.88666E+06,   -816.87E+03,   -816.87E+03
C:/temp/Job-37.odb,Step-1,Increment      1: Step Time =    1.000,"P-37-1",           854,       153.920,       23.2283,            0.,NA,NA,"",   4.51948E+06,   4.67152E+06,   4.67152E+06
C:/temp/Job-37.odb,Step-1,Increment      1: Step Time =    1.000,"P-37-1",           855,       164.690,       9.32870,            0.,NA,NA,"",   1.31954E+06,   249.195E+03,   249.195E+03
C:/temp/Job-37.odb,Step-1,Increment      1: Step Time =    1.000,"P-37-1",           856,       35.8483,       190.360,            0.,NA,NA,"",   6.59146E+06,   6.53049E+06,   6.53049E+06
C:/temp/Job-37.odb,Step-1,Increment      1: Step Time =    1.000,"P-37-1",           857,       176.624,       13.3920,            0.,NA,NA,"",   1.46862E+06,   1.26590E+06,   1.26590E+06
C:/temp/Job-37.odb,Step-1,Increment      1: Step Time =    1.000,"P-37-1",           858,       26.9394,       184.970,            0.,NA,NA,"",   4.68157E+06,   4.67512E+06,   4.67512E+06
C:/temp/Job-37.odb,Step-1,Increment      1: Step Time =    1.000,"P-37-1",           859,       183.928,       18.7257,            0.,NA,NA,"",   1.54495E+06,   1.35171E+06,   1.35171E+06
C:/temp/Job-37.odb,Step-1,Increment      1: Step Time =    1.000,"P-37-1",           860,       16.8445,       180.339,            0.,NA,NA,"",   3.33661E+06,   3.49497E+06,   3.49497E+06
C:/temp/Job-37.odb,Step-1,Increment      1: Step Time =    1.000,"P-37-1",           861,       45.2665,       171.542,            0.,NA,NA,"",   2.49498E+06,  -2.49815E+06,  -2.49815E+06
C:/temp/Job-37.odb,Step-1,Increment      1: Step Time =    1.000,"P-37-1",           862,       186.231,       24.7396,            0.,NA,NA,"",   1.60009E+06,   1.42560E+06,   1.42560E+06
C:/temp/Job-37.odb,Step-1,Increment      1: Step Time =    1.000,"P-37-1",           863,       180.117,       17.7556,            0.,NA,NA,"",   1.61997E+06,   1.44002E+06,   1.44002E+06
C:/temp/Job-37.odb,Step-1,Increment      1: Step Time =    1.000,"P-37-1",           864,       11.3285,       176.805,            0.,NA,NA,"",   2.46906E+06,   2.71085E+06,   2.71085E+06
C:/temp/Job-37.odb,Step-1,Increment      1: Step Time =    1.000,"P-37-1",           865,       22.3785,       185.034,            0.,NA,NA,"",   4.70277E+06,   4.74647E+06,   4.74647E+06
C:/temp/Job-37.odb,Step-1,Increment      1: Step Time =    1.000,"P-37-1",           866,       186.748,       14.3255,            0.,NA,NA,"",   1.35020E+06,   1.13471E+06,   1.13471E+06
C:/temp/Job-37.odb,Step-1,Increment      1: Step Time =    1.000,"P-37-1",           867,       14.8547,       183.236,            0.,NA,NA,"",   4.10184E+06,   4.26210E+06,   4.26210E+06
C:/temp/Job-37.odb,Step-1,Increment      1: Step Time =    1.000,"P-37-1",           868,       7.26465,       174.370,            0.,NA,NA,"",   1.93692E+06,   2.17432E+06,   2.17432E+06
C:/temp/Job-37.odb,Step-1,Increment      1: Step Time =    1.000,"P-37-1",           869,       190.952,       25.1928,            0.,NA,NA,"",   1.50699E+06,   1.22879E+06,   1.22879E+06
C:/temp/Job-37.odb,Step-1,Increment      1: Step Time =    1.000,"P-37-1",           870,       183.780,       14.2198,            0.,NA,NA,"",   1.39063E+06,   1.18228E+06,   1.18228E+06
C:/temp/Job-37.odb,Step-1,Increment      1: Step Time =    1.000,"P-37-1",           871,       18.2624,       184.637,            0.,NA,NA,"",   4.55751E+06,   4.65395E+06,   4.65395E+06
C:/temp/Job-37.odb,Step-1,Increment      1: Step Time =    1.000,"P-37-1",           872,       184.136,       9.98402,            0.,NA,NA,"",   1.14539E+06,   963.365E+03,   963.365E+03
C:/temp/Job-37.odb,Step-1,Increment      1: Step Time =    1.000,"P-37-1",           873,       16.6120,       189.301,            0.,NA,NA,"",   5.89427E+06,   5.95258E+06,   5.95258E+06
C:/temp/Job-37.odb,Step-1,Increment      1: Step Time =    1.000,"P-37-1",           874,       151.786,       190.200,            0.,NA,NA,"",   1.72145E+06,   316.103E+03,   316.103E+03
C:/temp/Job-37.odb,Step-1,Increment      1: Step Time =    1.000,"P-37-1",           875,       47.7149,       9.00512,            0.,NA,NA,"",   6.83414E+06,   6.68992E+06,   6.68992E+06
C:/temp/Job-37.odb,Step-1,Increment      1: Step Time =    1.000,"P-37-1",           876,       25.2750,       32.5973,            0.,NA,NA,"",   577.198E+03,  -47.3047E+03,  -47.3047E+03
C:/temp/Job-37.odb,Step-1,Increment      1: Step Time =    1.000,"P-37-1",           877,       173.236,       168.625,            0.,NA,NA,"",   2.75752E+06,   2.74045E+06,   2.74045E+06
C:/temp/Job-37.odb,Step-1,Increment      1: Step Time =    1.000,"P-37-1",           878,       10.1773,       36.0594,            0.,NA,NA,"",   583.590E+03,   244.902E+03,   244.902E+03
C:/temp/Job-37.odb,Step-1,Increment      1: Step Time =    1.000,"P-37-1",           879,       188.617,       164.070,            0.,NA,NA,"",   1.81039E+06,   1.62845E+06,   1.62845E+06
C:/temp/Job-37.odb,Step-1,Increment      1: Step Time =    1.000,"P-37-1",           880,       187.188,       69.6250,            0.,NA,NA,"",   3.72568E+06,   2.89400E+06,   2.89400E+06
C:/temp/Job-37.odb,Step-1,Increment      1: Step Time =    1.000,"P-37-1",           881,       12.0030,       126.736,            0.,NA,NA,"",   1.23865E+06,  -1.27008E+06,  -1.27008E+06
C:/temp/Job-37.odb,Step-1,Increment      1: Step Time =    1.000,"P-37-1",           882,       14.4148,       37.7398,            0.,NA,NA,"",   783.432E+03,  -310.700E+03,  -310.700E+03
C:/temp/Job-37.odb,Step-1,Increment      1: Step Time =    1.000,"P-37-1",           883,       184.616,       163.613,            0.,NA,NA,"",   2.11470E+06,   1.96483E+06,   1.96483E+06
C:/temp/Job-37.odb,Step-1,Increment      1: Step Time =    1.000,"P-37-1",           884,       190.413,       34.4986,            0.,NA,NA,"",   1.63117E+06,   1.42040E+06,   1.42040E+06
C:/temp/Job-37.odb,Step-1,Increment      1: Step Time =    1.000,"P-37-1",           885,       8.78857,       166.128,            0.,NA,NA,"",   586.166E+03,   648.290E+03,   648.290E+03
C:/temp/Job-37.odb,Step-1,Increment      1: Step Time =    1.000,"P-37-1",           886,       25.3322,       9.73999,            0.,NA,NA,"",   6.34772E+06,   6.34760E+06,   6.34760E+06
C:/temp/Job-37.odb,Step-1,Increment      1: Step Time =    1.000,"P-37-1",           887,       11.0301,       24.9633,            0.,NA,NA,"",   2.04080E+06,   2.26072E+06,   2.26072E+06
C:/temp/Job-37.odb,Step-1,Increment      1: Step Time =    1.000,"P-37-1",           888,       174.062,       9.31182,            0.,NA,NA,"",   1.15652E+06,    885.07E+03,    885.07E+03
C:/temp/Job-37.odb,Step-1,Increment      1: Step Time =    1.000,"P-37-1",           889,       26.2733,       190.037,            0.,NA,NA,"",   6.30708E+06,   6.29955E+06,   6.29955E+06
C:/temp/Job-37.odb,Step-1,Increment      1: Step Time =    1.000,"P-37-1",           890,       171.269,       190.232,            0.,NA,NA,"",   1.24339E+06,   923.990E+03,   923.990E+03
C:/temp/Job-37.odb,Step-1,Increment      1: Step Time =    1.000,"P-37-1",           891,       188.646,       175.522,            0.,NA,NA,"",   1.54792E+06,   1.31446E+06,   1.31446E+06
C:/temp/Job-37.odb,Step-1,Increment      1: Step Time =    1.000,"P-37-1",           892,       169.357,       185.327,            0.,NA,NA,"",   1.74872E+06,   1.54972E+06,   1.54972E+06
C:/temp/Job-37.odb,Step-1,Increment      1: Step Time =    1.000,"P-37-1",           893,       31.1598,       14.8126,            0.,NA,NA,"",   4.78364E+06,   4.73076E+06,   4.73076E+06
C:/temp/Job-37.odb,Step-1,Increment      1: Step Time =    1.000,"P-37-1",           894,       185.223,       29.3124,            0.,NA,NA,"",   1.73871E+06,   1.60261E+06,   1.60261E+06
C:/temp/Job-37.odb,Step-1,Increment      1: Step Time =    1.000,"P-37-1",           895,       11.6346,       171.573,            0.,NA,NA,"",   1.32087E+06,   1.49722E+06,   1.49722E+06
C:/temp/Job-37.odb,Step-1,Increment      1: Step Time =    1.000,"P-37-1",           896,       18.1518,       39.6538,            0.,NA,NA,"",   1.14370E+06,  -905.972E+03,  -905.972E+03
C:/temp/Job-37.odb,Step-1,Increment      1: Step Time =    1.000,"P-37-1",           897,       26.5742,       27.9708,            0.,NA,NA,"",   1.01426E+06,   997.107E+03,   997.107E+03
C:/temp/Job-37.odb,Step-1,Increment      1: Step Time =    1.000,"P-37-1",           898,       9.00174,       182.753,            0.,NA,NA,"",   3.82921E+06,   4.11409E+06,   4.11409E+06
C:/temp/Job-37.odb,Step-1,Increment      1: Step Time =    1.000,"P-37-1",           899,       15.2132,       9.92989,            0.,NA,NA,"",   6.10226E+06,   6.16862E+06,   6.16862E+06
C:/temp/Job-37.odb,Step-1,Increment      1: Step Time =    1.000,"P-37-1",           900,       10.2941,       14.9276,            0.,NA,NA,"",   4.55436E+06,   4.79984E+06,   4.79984E+06
C:/temp/Job-37.odb,Step-1,Increment      1: Step Time =    1.000,"P-37-1",           901,       180.600,       190.877,            0.,NA,NA,"",   1.09460E+06,   888.460E+03,   888.460E+03
C:/temp/Job-37.odb,Step-1,Increment      1: Step Time =    1.000,"P-37-1",           902,       189.954,       185.523,            0.,NA,NA,"",   1.32222E+06,   1.09327E+06,   1.09327E+06
C:/temp/Job-37.odb,Step-1,Increment      1: Step Time =    1.000,"P-37-1",           903,       191.119,       16.2194,            0.,NA,NA,"",   1.36158E+06,   1.11039E+06,   1.11039E+06
C:/temp/Job-37.odb,Step-1,Increment      1: Step Time =    1.000,"P-37-1",           904,       72.3263,       187.377,            0.,NA,NA,"",   5.49645E+06,   4.76929E+06,   4.76929E+06
C:/temp/Job-37.odb,Step-1,Increment      1: Step Time =    1.000,"P-37-1",           905,       128.692,       13.8310,            0.,NA,NA,"",   5.94004E+06,   6.22748E+06,   6.22748E+06
C:/temp/Job-37.odb,Step-1,Increment      1: Step Time =    1.000,"P-37-1",           906,       188.715,       53.8097,            0.,NA,NA,"",   2.99944E+06,   2.71411E+06,   2.71411E+06
C:/temp/Job-37.odb,Step-1,Increment      1: Step Time =    1.000,"P-37-1",           907,       11.4213,       145.471,            0.,NA,NA,"",   1.80140E+06,  -1.72650E+06,  -1.72650E+06
C:/temp/Job-37.odb,Step-1,Increment      1: Step Time =    1.000,"P-37-1",           908,       55.2291,       10.7718,            0.,NA,NA,"",   6.08327E+06,   5.85074E+06,   5.85074E+06
C:/temp/Job-37.odb,Step-1,Increment      1: Step Time =    1.000,"P-37-1",           909,       143.263,       188.426,            0.,NA,NA,"",   2.18364E+06,   1.68708E+06,   1.68708E+06
C:/temp/Job-37.odb,Step-1,Increment      1: Step Time =    1.000,"P-37-1",           910,       182.341,       166.430,            0.,NA,NA,"",   2.13145E+06,   2.01395E+06,   2.01395E+06
C:/temp/Job-37.odb,Step-1,Increment      1: Step Time =    1.000,"P-37-1",           911,       16.4952,       34.2976,            0.,NA,NA,"",   616.947E+03,   74.0780E+03,   74.0780E+03
C:/temp/Job-37.odb,Step-1,Increment      1: Step Time =    1.000,"P-37-1",           912,       25.5656,       14.6071,            0.,NA,NA,"",   4.83306E+06,   4.84276E+06,   4.84276E+06
C:/temp/Job-37.odb,Step-1,Increment      1: Step Time =    1.000,"P-37-1",           913,       16.0107,       24.0258,            0.,NA,NA,"",   2.19911E+06,   2.37389E+06,   2.37389E+06
C:/temp/Job-37.odb,Step-1,Increment      1: Step Time =    1.000,"P-37-1",           914,       183.531,       176.968,            0.,NA,NA,"",   1.67821E+06,   1.52253E+06,   1.52253E+06
C:/temp/Job-37.odb,Step-1,Increment      1: Step Time =    1.000,"P-37-1",           915,       185.201,       186.026,            0.,NA,NA,"",   1.35562E+06,   1.14263E+06,   1.14263E+06
C:/temp/Job-37.odb,Step-1,Increment      1: Step Time =    1.000,"P-37-1",           916,       15.3185,       14.7339,            0.,NA,NA,"",   4.76342E+06,   4.89500E+06,   4.89500E+06
C:/temp/Job-37.odb,Step-1,Increment      1: Step Time =    1.000,"P-37-1",           917,       173.969,       181.158,            0.,NA,NA,"",   1.89688E+06,   1.76266E+06,   1.76266E+06
C:/temp/Job-37.odb,Step-1,Increment      1: Step Time =    1.000,"P-37-1",           918,       25.2369,       19.1577,            0.,NA,NA,"",   3.40953E+06,   3.44019E+06,   3.44019E+06
C:/temp/Job-37.odb,Step-1,Increment      1: Step Time =    1.000,"P-37-1",           919,       24.2370,       25.9344,            0.,NA,NA,"",   1.51939E+06,   1.58241E+06,   1.58241E+06
C:/temp/Job-37.odb,Step-1,Increment      1: Step Time =    1.000,"P-37-1",           920,       171.005,       172.899,            0.,NA,NA,"",   2.65488E+06,   2.64273E+06,   2.64273E+06
C:/temp/Job-37.odb,Step-1,Increment      1: Step Time =    1.000,"P-37-1",           921,       190.173,       56.6833,            0.,NA,NA,"",   3.13419E+06,   2.89358E+06,   2.89358E+06
C:/temp/Job-37.odb,Step-1,Increment      1: Step Time =    1.000,"P-37-1",           922,       9.45203,       142.936,            0.,NA,NA,"",   1.73766E+06,  -1.69145E+06,  -1.69145E+06
C:/temp/Job-37.odb,Step-1,Increment      1: Step Time =    1.000,"P-37-1",           923,       15.4982,       19.4157,            0.,NA,NA,"",   3.42542E+06,   3.59978E+06,   3.59978E+06
C:/temp/Job-37.odb,Step-1,Increment      1: Step Time =    1.000,"P-37-1",           924,       20.3675,       14.5692,            0.,NA,NA,"",   4.83310E+06,   4.89606E+06,   4.89606E+06
C:/temp/Job-37.odb,Step-1,Increment      1: Step Time =    1.000,"P-37-1",           925,       184.655,       181.409,            0.,NA,NA,"",   1.53368E+06,   1.33091E+06,   1.33091E+06
C:/temp/Job-37.odb,Step-1,Increment      1: Step Time =    1.000,"P-37-1",           926,       176.446,       186.704,            0.,NA,NA,"",   1.49424E+06,   1.26790E+06,   1.26790E+06
C:/temp/Job-37.odb,Step-1,Increment      1: Step Time =    1.000,"P-37-1",           927,       190.857,       48.5745,            0.,NA,NA,"",   2.38900E+06,   2.20896E+06,   2.20896E+06
C:/temp/Job-37.odb,Step-1,Increment      1: Step Time =    1.000,"P-37-1",           928,       9.65479,       152.014,            0.,NA,NA,"",   1.49700E+06,  -1.35939E+06,  -1.35939E+06
C:/temp/Job-37.odb,Step-1,Increment      1: Step Time =    1.000,"P-37-1",           929,       20.5191,       23.1935,            0.,NA,NA,"",   2.33287E+06,   2.45436E+06,   2.45436E+06
C:/temp/Job-37.odb,Step-1,Increment      1: Step Time =    1.000,"P-37-1",           930,       178.749,       178.717,            0.,NA,NA,"",   1.81582E+06,   1.68881E+06,   1.68881E+06
C:/temp/Job-37.odb,Step-1,Increment      1: Step Time =    1.000,"P-37-1",           931,       180.692,       186.560,            0.,NA,NA,"",   1.40069E+06,   1.18317E+06,   1.18317E+06
C:/temp/Job-37.odb,Step-1,Increment      1: Step Time =    1.000,"P-37-1",           932,       181.743,       172.863,            0.,NA,NA,"",   1.88049E+06,   1.77305E+06,   1.77305E+06
C:/temp/Job-37.odb,Step-1,Increment      1: Step Time =    1.000,"P-37-1",           933,       17.2610,       28.3382,            0.,NA,NA,"",   1.13314E+06,   1.26265E+06,   1.26265E+06
C:/temp/Job-37.odb,Step-1,Increment      1: Step Time =    1.000,"P-37-1",           934,       5.05183,       5.02566,            0.,NA,NA,"",   7.00084E+06,   7.27444E+06,   7.27444E+06
C:/temp/Job-37.odb,Step-1,Increment      1: Step Time =    1.000,"P-37-1",           935,       8.78162,       50.2047,            0.,NA,NA,"",   1.51602E+06,  -1.42103E+06,  -1.42103E+06
C:/temp/Job-37.odb,Step-1,Increment      1: Step Time =    1.000,"P-37-1",           936,       34.5408,       8.71949,            0.,NA,NA,"",   6.82040E+06,   6.77648E+06,   6.77648E+06
C:/temp/Job-37.odb,Step-1,Increment      1: Step Time =    1.000,"P-37-1",           937,       190.667,       44.1633,            0.,NA,NA,"",   2.07091E+06,   1.89407E+06,   1.89407E+06
C:/temp/Job-37.odb,Step-1,Increment      1: Step Time =    1.000,"P-37-1",           938,       150.116,       8.54184,            0.,NA,NA,"",   1.58464E+06,  -80.8469E+03,  -80.8469E+03
C:/temp/Job-37.odb,Step-1,Increment      1: Step Time =    1.000,"P-37-1",           939,       190.798,       148.319,            0.,NA,NA,"",   2.57968E+06,   2.40142E+06,   2.40142E+06
C:/temp/Job-37.odb,Step-1,Increment      1: Step Time =    1.000,"P-37-1",           940,       50.0507,       191.360,            0.,NA,NA,"",   7.02336E+06,   6.86895E+06,   6.86895E+06
C:/temp/Job-37.odb,Step-1,Increment      1: Step Time =    1.000,"P-37-1",           941,       185.322,       190.685,            0.,NA,NA,"",   1.09091E+06,   922.737E+03,   922.737E+03
C:/temp/Job-37.odb,Step-1,Increment      1: Step Time =    1.000,"P-37-1",           942,       51.5501,       11.9463,            0.,NA,NA,"",   5.70861E+06,   5.47142E+06,   5.47142E+06
C:/temp/Job-37.odb,Step-1,Increment      1: Step Time =    1.000,"P-37-1",           943,       146.931,       186.547,            0.,NA,NA,"",   2.45437E+06,   2.42305E+06,   2.42305E+06
C:/temp/Job-37.odb,Step-1,Increment      1: Step Time =    1.000,"P-37-1",           944,       6.90701,       120.966,            0.,NA,NA,"",   925.338E+03,  -951.976E+03,  -951.976E+03
C:/temp/Job-37.odb,Step-1,Increment      1: Step Time =    1.000,"P-37-1",           945,       63.9927,       14.5297,            0.,NA,NA,"",   4.48511E+06,   3.77655E+06,   3.77655E+06
C:/temp/Job-37.odb,Step-1,Increment      1: Step Time =    1.000,"P-37-1",           946,       63.4707,       20.4473,            0.,NA,NA,"",   2.82165E+06,  -997.667E+03,  -997.667E+03
C:/temp/Job-37.odb,Step-1,Increment      1: Step Time =    1.000,"P-37-1",           947,       116.758,       13.5380,            0.,NA,NA,"",   8.91914E+06,   9.19312E+06,   9.19312E+06
C:/temp/Job-37.odb,Step-1,Increment      1: Step Time =    1.000,"P-37-1",           948,       9.73430,       156.620,            0.,NA,NA,"",   1.11798E+06,  -912.695E+03,  -912.695E+03
C:/temp/Job-37.odb,Step-1,Increment      1: Step Time =    1.000,"P-37-1",           949,       187.087,       65.1182,            0.,NA,NA,"",   3.74766E+06,   3.04528E+06,   3.04528E+06
C:/temp/Job-37.odb,Step-1,Increment      1: Step Time =    1.000,"P-37-1",           950,       25.8640,       149.069,            0.,NA,NA,"",   2.91524E+06,  -2.92838E+06,  -2.92838E+06
C:/temp/Job-37.odb,Step-1,Increment      1: Step Time =    1.000,"P-37-1",           951,       175.553,       49.2290,            0.,NA,NA,"",   3.16943E+06,   2.91050E+06,   2.91050E+06
C:/temp/Job-37.odb,Step-1,Increment      1: Step Time =    1.000,"P-37-1",           952,       116.674,       186.202,            0.,NA,NA,"",   9.31632E+06,   9.57510E+06,   9.57510E+06
C:/temp/Job-37.odb,Step-1,Increment      1: Step Time =    1.000,"P-37-1",           953,       186.421,       49.2413,            0.,NA,NA,"",   2.91826E+06,   2.56657E+06,   2.56657E+06
C:/temp/Job-37.odb,Step-1,Increment      1: Step Time =    1.000,"P-37-1",           954,       172.676,       186.029,            0.,NA,NA,"",   1.63118E+06,   1.41293E+06,   1.41293E+06
C:/temp/Job-37.odb,Step-1,Increment      1: Step Time =    1.000,"P-37-1",           955,       176.854,       183.423,            0.,NA,NA,"",   1.69431E+06,   1.50674E+06,   1.50674E+06
C:/temp/Job-37.odb,Step-1,Increment      1: Step Time =    1.000,"P-37-1",           956,       168.917,       181.882,            0.,NA,NA,"",   2.04723E+06,   1.92526E+06,   1.92526E+06
C:/temp/Job-37.odb,Step-1,Increment      1: Step Time =    1.000,"P-37-1",           957,       187.529,       17.2316,            0.,NA,NA,"",   1.43059E+06,   1.20270E+06,   1.20270E+06
C:/temp/Job-37.odb,Step-1,Increment      1: Step Time =    1.000,"P-37-1",           958,       180.455,       14.4415,            0.,NA,NA,"",   1.44462E+06,   1.23683E+06,   1.23683E+06
C:/temp/Job-37.odb,Step-1,Increment      1: Step Time =    1.000,"P-37-1",           959,       54.0111,       187.271,            0.,NA,NA,"",   5.13480E+06,   4.79408E+06,   4.79408E+06
C:/temp/Job-37.odb,Step-1,Increment      1: Step Time =    1.000,"P-37-1",           960,       61.6678,       185.942,            0.,NA,NA,"",   4.66375E+06,   4.06501E+06,   4.06501E+06
C:/temp/Job-37.odb,Step-1,Increment      1: Step Time =    1.000,"P-37-1",           961,       182.877,       160.247,            0.,NA,NA,"",   2.49968E+06,   2.30461E+06,   2.30461E+06
C:/temp/Job-37.odb,Step-1,Increment      1: Step Time =    1.000,"P-37-1",           962,       13.2192,       41.6223,            0.,NA,NA,"",   1.15623E+06,  -903.764E+03,  -903.764E+03
C:/temp/Job-37.odb,Step-1,Increment      1: Step Time =    1.000,"P-37-1",           963,       173.614,       13.5868,            0.,NA,NA,"",   1.54818E+06,   1.33269E+06,   1.33269E+06
C:/temp/Job-37.odb,Step-1,Increment      1: Step Time =    1.000,"P-37-1",           964,       169.530,       13.9288,            0.,NA,NA,"",   1.66853E+06,   1.44536E+06,   1.44536E+06
C:/temp/Job-37.odb,Step-1,Increment      1: Step Time =    1.000,"P-37-1",           965,       146.190,       12.5767,            0.,NA,NA,"",   2.34722E+06,   2.30869E+06,   2.30869E+06
C:/temp/Job-37.odb,Step-1,Increment      1: Step Time =    1.000,"P-37-1",           966,       138.506,       14.1398,            0.,NA,NA,"",   3.82863E+06,   3.99233E+06,   3.99233E+06
C:/temp/Job-37.odb,Step-1,Increment      1: Step Time =    1.000,"P-37-1",           967,       177.674,       146.226,            0.,NA,NA,"",   3.11712E+06,   2.67126E+06,   2.67126E+06
C:/temp/Job-37.odb,Step-1,Increment      1: Step Time =    1.000,"P-37-1",           968,       12.7403,       180.185,            0.,NA,NA,"",   3.30431E+06,   3.52333E+06,   3.52333E+06
C:/temp/Job-37.odb,Step-1,Increment      1: Step Time =    1.000,"P-37-1",           969,       134.204,       186.649,            0.,NA,NA,"",   4.07291E+06,   4.26044E+06,   4.26044E+06
C:/temp/Job-37.odb,Step-1,Increment      1: Step Time =    1.000,"P-37-1",           970,       187.454,       20.4528,            0.,NA,NA,"",   1.50794E+06,   1.28994E+06,   1.28994E+06
C:/temp/Job-37.odb,Step-1,Increment      1: Step Time =    1.000,"P-37-1",           971,       149.379,       184.799,            0.,NA,NA,"",   2.81918E+06,   2.86725E+06,   2.86725E+06
C:/temp/Job-37.odb,Step-1,Increment      1: Step Time =    1.000,"P-37-1",           972,       184.159,       61.2721,            0.,NA,NA,"",   3.56619E+06,   2.79527E+06,   2.79527E+06
C:/temp/Job-37.odb,Step-1,Increment      1: Step Time =    1.000,"P-37-1",           973,       182.765,       58.1178,            0.,NA,NA,"",   3.47767E+06,   2.79726E+06,   2.79726E+06
C:/temp/Job-37.odb,Step-1,Increment      1: Step Time =    1.000,"P-37-1",           974,       12.2316,       130.534,            0.,NA,NA,"",   1.41056E+06,  -1.43398E+06,  -1.43398E+06
C:/temp/Job-37.odb,Step-1,Increment      1: Step Time =    1.000,"P-37-1",           975,       12.4425,       134.965,            0.,NA,NA,"",   1.60484E+06,  -1.61206E+06,  -1.61206E+06
C:/temp/Job-37.odb,Step-1,Increment      1: Step Time =    1.000,"P-37-1",           976,       58.8891,       18.4981,            0.,NA,NA,"",   3.06235E+06,   617.018E+03,   617.018E+03
C:/temp/Job-37.odb,Step-1,Increment      1: Step Time =    1.000,"P-37-1",           977,       21.2709,       26.8592,            0.,NA,NA,"",   1.36749E+06,   1.46672E+06,   1.46672E+06
C:/temp/Job-37.odb,Step-1,Increment      1: Step Time =    1.000,"P-37-1",           978,       23.2254,       29.9697,            0.,NA,NA,"",   675.317E+03,   666.570E+03,   666.570E+03
C:/temp/Job-37.odb,Step-1,Increment      1: Step Time =    1.000,"P-37-1",           979,       19.2961,       36.8437,            0.,NA,NA,"",   862.614E+03,  -625.825E+03,  -625.825E+03
C:/temp/Job-37.odb,Step-1,Increment      1: Step Time =    1.000,"P-37-1",           980,       161.065,       26.6063,            0.,NA,NA,"",   3.80917E+06,   3.89688E+06,   3.89688E+06
C:/temp/Job-37.odb,Step-1,Increment      1: Step Time =    1.000,"P-37-1",           981,       177.034,       175.091,            0.,NA,NA,"",   2.06896E+06,   1.99157E+06,   1.99157E+06
C:/temp/Job-37.odb,Step-1,Increment      1: Step Time =    1.000,"P-37-1",           982,       174.999,       171.538,            0.,NA,NA,"",   2.43492E+06,   2.39388E+06,   2.39388E+06
C:/temp/Job-37.odb,Step-1,Increment      1: Step Time =    1.000,"P-37-1",           983,       15.5816,       149.390,            0.,NA,NA,"",   1.93589E+06,  -1.82314E+06,  -1.82314E+06
C:/temp/Job-37.odb,Step-1,Increment      1: Step Time =    1.000,"P-37-1",           984,       177.876,       15.9662,            0.,NA,NA,"",   1.58849E+06,   1.40063E+06,   1.40063E+06
C:/temp/Job-37.odb,Step-1,Increment      1: Step Time =    1.000,"P-37-1",           985,       32.4639,       26.4364,            0.,NA,NA,"",   1.32601E+06,   791.774E+03,   791.774E+03
C:/temp/Job-37.odb,Step-1,Increment      1: Step Time =    1.000,"P-37-1",           986,       168.374,       178.032,            0.,NA,NA,"",   2.45105E+06,   2.40842E+06,   2.40842E+06
C:/temp/Job-37.odb,Step-1,Increment      1: Step Time =    1.000,"P-37-1",           987,       172.655,       176.923,            0.,NA,NA,"",   2.22434E+06,   2.15977E+06,   2.15977E+06
C:/temp/Job-37.odb,Step-1,Increment      1: Step Time =    1.000,"P-37-1",           988,       157.436,       24.5276,            0.,NA,NA,"",   4.19534E+06,   4.30856E+06,   4.30856E+06
C:/temp/Job-37.odb,Step-1,Increment      1: Step Time =    1.000,"P-37-1",           989,       15.7707,       177.651,            0.,NA,NA,"",   2.68308E+06,   2.85988E+06,   2.85988E+06
C:/temp/Job-37.odb,Step-1,Increment      1: Step Time =    1.000,"P-37-1",           990,       10.0259,       174.310,            0.,NA,NA,"",   1.92018E+06,   2.15075E+06,   2.15075E+06
C:/temp/Job-37.odb,Step-1,Increment      1: Step Time =    1.000,"P-37-1",           991,       15.0755,       139.817,            0.,NA,NA,"",   1.90946E+06,  -1.89047E+06,  -1.89047E+06
C:/temp/Job-37.odb,Step-1,Increment      1: Step Time =    1.000,"P-37-1",           992,       17.5679,       143.037,            0.,NA,NA,"",   2.09892E+06,  -2.06520E+06,  -2.06520E+06
C:/temp/Job-37.odb,Step-1,Increment      1: Step Time =    1.000,"P-37-1",           993,       24.7166,       155.420,            0.,NA,NA,"",   2.35023E+06,  -2.30430E+06,  -2.30430E+06
C:/temp/Job-37.odb,Step-1,Increment      1: Step Time =    1.000,"P-37-1",           994,       24.7216,       23.1057,            0.,NA,NA,"",   2.21973E+06,   2.27610E+06,   2.27610E+06
C:/temp/Job-37.odb,Step-1,Increment      1: Step Time =    1.000,"P-37-1",           995,       18.6777,       153.698,            0.,NA,NA,"",   1.93378E+06,  -1.80723E+06,  -1.80723E+06
C:/temp/Job-37.odb,Step-1,Increment      1: Step Time =    1.000,"P-37-1",           996,       173.876,       41.9934,            0.,NA,NA,"",   3.24069E+06,   3.11303E+06,   3.11303E+06
C:/temp/Job-37.odb,Step-1,Increment      1: Step Time =    1.000,"P-37-1",           997,       28.5975,       24.4289,            0.,NA,NA,"",   1.76867E+06,   1.73099E+06,   1.73099E+06
C:/temp/Job-37.odb,Step-1,Increment      1: Step Time =    1.000,"P-37-1",           998,       29.8691,       20.0003,            0.,NA,NA,"",   3.03145E+06,   2.97310E+06,   2.97310E+06
C:/temp/Job-37.odb,Step-1,Increment      1: Step Time =    1.000,"P-37-1",           999,       180.859,       39.3985,            0.,NA,NA,"",   2.64990E+06,   2.47836E+06,   2.47836E+06
C:/temp/Job-37.odb,Step-1,Increment      1: Step Time =    1.000,"P-37-1",          1000,       19.3256,       180.448,            0.,NA,NA,"",   3.32039E+06,   3.44507E+06,   3.44507E+06
C:/temp/Job-37.odb,Step-1,Increment      1: Step Time =    1.000,"P-37-1",          1001,       18.8999,       176.309,            0.,NA,NA,"",   2.27508E+06,   2.41199E+06,   2.41199E+06
