ODB Name,Step,Frame,Part Instance Name,    Node Label,X,Y,Z,Section Name,Material Name,Section Point,       S-Mises,S-Max. In-Plane Principal (Abs),S-Max. Principal (Abs)
C:/temp/Job-38.odb,Step-1,Increment      1: Step Time =    1.000,"P-38-1",             1,       85.1054,       194.837,            0.,NA,NA,"",   333.341E+06,   334.174E+06,   334.174E+06
C:/temp/Job-38.odb,Step-1,Increment      1: Step Time =    1.000,"P-38-1",             2,       70.5715,       191.378,            0.,NA,NA,"",   88.3961E+06,   89.6145E+06,   89.6145E+06
C:/temp/Job-38.odb,Step-1,Increment      1: Step Time =    1.000,"P-38-1",             3,       56.7504,       185.706,            0.,NA,NA,"",   17.8439E+06,   17.8123E+06,   17.8123E+06
C:/temp/Job-38.odb,Step-1,Increment      1: Step Time =    1.000,"P-38-1",             4,       43.9767,       177.958,            0.,NA,NA,"",   3.34481E+06,  -411.120E+03,  -411.120E+03
C:/temp/Job-38.odb,Step-1,Increment      1: Step Time =    1.000,"P-38-1",             5,       32.5598,       168.321,            0.,NA,NA,"",   5.38270E+06,  -5.40217E+06,  -5.40217E+06
C:/temp/Job-38.odb,Step-1,Increment      1: Step Time =    1.000,"P-38-1",             6,       22.7762,       157.031,            0.,NA,NA,"",   4.28253E+06,  -4.29746E+06,  -4.29746E+06
C:/temp/Job-38.odb,Step-1,Increment      1: Step Time =    1.000,"P-38-1",             7,       14.8630,       144.359,            0.,NA,NA,"",   1.91938E+06,  -1.95255E+06,  -1.95255E+06
C:/temp/Job-38.odb,Step-1,Increment      1: Step Time =    1.000,"P-38-1",             8,       9.01158,       130.612,            0.,NA,NA,"",   755.028E+03,  -757.597E+03,  -757.597E+03
C:/temp/Job-38.odb,Step-1,Increment      1: Step Time =    1.000,"P-38-1",             9,       5.36385,       116.124,            0.,NA,NA,"",   113.426E+03,  -113.962E+03,  -113.962E+03
C:/temp/Job-38.odb,Step-1,Increment      1: Step Time =    1.000,"P-38-1",            10,       4.00809,       101.246,            0.,NA,NA,"",   6.72260E+03,  -6.80506E+03,  -6.80506E+03
C:/temp/Job-38.odb,Step-1,Increment      1: Step Time =    1.000,"P-38-1",            11,       4.39610,       91.2882,            0.,NA,NA,"",   89.8507E+03,  -82.5958E+03,  -82.5958E+03
C:/temp/Job-38.odb,Step-1,Increment      1: Step Time =    1.000,"P-38-1",            12,       6.90546,       76.5606,            0.,NA,NA,"",   584.423E+03,  -572.849E+03,  -572.849E+03
C:/temp/Job-38.odb,Step-1,Increment      1: Step Time =    1.000,"P-38-1",            13,       11.6695,       62.4006,            0.,NA,NA,"",   2.10858E+06,  -2.06489E+06,  -2.06489E+06
C:/temp/Job-38.odb,Step-1,Increment      1: Step Time =    1.000,"P-38-1",            14,       18.5727,       49.1512,            0.,NA,NA,"",   5.35655E+06,  -5.39060E+06,  -5.39060E+06
C:/temp/Job-38.odb,Step-1,Increment      1: Step Time =    1.000,"P-38-1",            15,       27.4480,       37.1334,            0.,NA,NA,"",   11.7725E+06,  -11.7631E+06,  -11.7631E+06
C:/temp/Job-38.odb,Step-1,Increment      1: Step Time =    1.000,"P-38-1",            16,       38.0805,       26.6381,            0.,NA,NA,"",   19.4798E+06,  -19.4458E+06,  -19.4458E+06
C:/temp/Job-38.odb,Step-1,Increment      1: Step Time =    1.000,"P-38-1",            17,       50.2126,       17.9195,            0.,NA,NA,"",   36.1726E+06,  -33.3780E+06,  -33.3780E+06
C:/temp/Job-38.odb,Step-1,Increment      1: Step Time =    1.000,"P-38-1",            18,       63.5504,       11.1888,            0.,NA,NA,"",   38.4083E+06,  -37.4107E+06,  -37.4107E+06
C:/temp/Job-38.odb,Step-1,Increment      1: Step Time =    1.000,"P-38-1",            19,       77.7711,       6.60903,            0.,NA,NA,"",   48.2199E+06,  -13.2103E+06,  -13.2103E+06
C:/temp/Job-38.odb,Step-1,Increment      1: Step Time =    1.000,"P-38-1",            20,       92.5301,       4.29107,            0.,NA,NA,"",   42.9829E+06,   7.64797E+06,   7.64797E+06
C:/temp/Job-38.odb,Step-1,Increment      1: Step Time =    1.000,"P-38-1",            21,       107.470,       4.29107,            0.,NA,NA,"",   44.4877E+06,   9.37296E+06,   9.37296E+06
C:/temp/Job-38.odb,Step-1,Increment      1: Step Time =    1.000,"P-38-1",            22,       122.229,       6.60903,            0.,NA,NA,"",   60.7725E+06,   33.9288E+06,   33.9288E+06
C:/temp/Job-38.odb,Step-1,Increment      1: Step Time =    1.000,"P-38-1",            23,       136.450,       11.1888,            0.,NA,NA,"",   49.0036E+06,   49.1126E+06,   49.1126E+06
C:/temp/Job-38.odb,Step-1,Increment      1: Step Time =    1.000,"P-38-1",            24,       149.787,       17.9195,            0.,NA,NA,"",   24.1251E+06,   22.9337E+06,   22.9337E+06
C:/temp/Job-38.odb,Step-1,Increment      1: Step Time =    1.000,"P-38-1",            25,       161.920,       26.6381,            0.,NA,NA,"",   12.6073E+06,   13.1066E+06,   13.1066E+06
C:/temp/Job-38.odb,Step-1,Increment      1: Step Time =    1.000,"P-38-1",            26,       172.552,       37.1334,            0.,NA,NA,"",   9.04242E+06,   9.10794E+06,   9.10794E+06
C:/temp/Job-38.odb,Step-1,Increment      1: Step Time =    1.000,"P-38-1",            27,       181.427,       49.1512,            0.,NA,NA,"",   8.28617E+06,   8.28332E+06,   8.28332E+06
C:/temp/Job-38.odb,Step-1,Increment      1: Step Time =    1.000,"P-38-1",            28,       188.331,       62.4006,            0.,NA,NA,"",   8.10535E+06,   7.62388E+06,   7.62388E+06
C:/temp/Job-38.odb,Step-1,Increment      1: Step Time =    1.000,"P-38-1",            29,       193.095,       76.5606,            0.,NA,NA,"",   15.6955E+06,  -8.00925E+06,  -8.00925E+06
C:/temp/Job-38.odb,Step-1,Increment      1: Step Time =    1.000,"P-38-1",            30,       195.604,       91.2882,            0.,NA,NA,"",   22.1644E+06,   1.76467E+06,   1.76467E+06
C:/temp/Job-38.odb,Step-1,Increment      1: Step Time =    1.000,"P-38-1",            31,       195.992,       101.246,            0.,NA,NA,"",   24.3697E+06,   2.76519E+06,   2.76519E+06
C:/temp/Job-38.odb,Step-1,Increment      1: Step Time =    1.000,"P-38-1",            32,       194.636,       116.124,            0.,NA,NA,"",   36.5204E+06,   26.2393E+06,   26.2393E+06
C:/temp/Job-38.odb,Step-1,Increment      1: Step Time =    1.000,"P-38-1",            33,       190.988,       130.612,            0.,NA,NA,"",   50.9980E+06,   49.3400E+06,   49.3400E+06
C:/temp/Job-38.odb,Step-1,Increment      1: Step Time =    1.000,"P-38-1",            34,       185.137,       144.359,            0.,NA,NA,"",   31.6456E+06,   31.7291E+06,   31.7291E+06
C:/temp/Job-38.odb,Step-1,Increment      1: Step Time =    1.000,"P-38-1",            35,       177.224,       157.031,            0.,NA,NA,"",   22.6263E+06,   23.0366E+06,   23.0366E+06
C:/temp/Job-38.odb,Step-1,Increment      1: Step Time =    1.000,"P-38-1",            36,       167.440,       168.321,            0.,NA,NA,"",   22.0797E+06,   22.3944E+06,   22.3944E+06
C:/temp/Job-38.odb,Step-1,Increment      1: Step Time =    1.000,"P-38-1",            37,       156.023,       177.958,            0.,NA,NA,"",   37.4357E+06,   38.0927E+06,   38.0927E+06
C:/temp/Job-38.odb,Step-1,Increment      1: Step Time =    1.000,"P-38-1",            38,       143.250,       185.706,            0.,NA,NA,"",   84.2811E+06,   84.3394E+06,   84.3394E+06
C:/temp/Job-38.odb,Step-1,Increment      1: Step Time =    1.000,"P-38-1",            39,       129.428,       191.378,            0.,NA,NA,"",   204.021E+06,   205.259E+06,   205.259E+06
C:/temp/Job-38.odb,Step-1,Increment      1: Step Time =    1.000,"P-38-1",            40,       114.895,       194.837,            0.,NA,NA,"",   486.685E+06,   488.404E+06,   488.404E+06
C:/temp/Job-38.odb,Step-1,Increment      1: Step Time =    1.000,"P-38-1",            41,          100.,          196.,            0.,NA,NA,"",   670.266E+06,   671.953E+06,   671.953E+06
C:/temp/Job-38.odb,Step-1,Increment      1: Step Time =    1.000,"P-38-1",            42,          190.,            0.,            0.,NA,NA,"",   989.592E+03,  -315.245E+03,  -315.245E+03
C:/temp/Job-38.odb,Step-1,Increment      1: Step Time =    1.000,"P-38-1",            43,          180.,            0.,            0.,NA,NA,"",   2.72051E+06,  -2.50638E+06,  -2.50638E+06
C:/temp/Job-38.odb,Step-1,Increment      1: Step Time =    1.000,"P-38-1",            44,          170.,            0.,            0.,NA,NA,"",   5.06140E+06,  -5.19667E+06,  -5.19667E+06
C:/temp/Job-38.odb,Step-1,Increment      1: Step Time =    1.000,"P-38-1",            45,          160.,            0.,            0.,NA,NA,"",   12.0404E+06,  -11.1999E+06,  -11.1999E+06
C:/temp/Job-38.odb,Step-1,Increment      1: Step Time =    1.000,"P-38-1",            46,          150.,            0.,            0.,NA,NA,"",   26.3043E+06,  -19.9076E+06,  -19.9076E+06
C:/temp/Job-38.odb,Step-1,Increment      1: Step Time =    1.000,"P-38-1",            47,          140.,            0.,            0.,NA,NA,"",   34.3656E+06,  -3.61531E+06,  -3.61531E+06
C:/temp/Job-38.odb,Step-1,Increment      1: Step Time =    1.000,"P-38-1",            48,          130.,            0.,            0.,NA,NA,"",   70.2314E+06,   6.72145E+06,   6.72145E+06
C:/temp/Job-38.odb,Step-1,Increment      1: Step Time =    1.000,"P-38-1",            49,          120.,            0.,            0.,NA,NA,"",   42.9845E+06,  -3.11252E+06,  -3.11252E+06
C:/temp/Job-38.odb,Step-1,Increment      1: Step Time =    1.000,"P-38-1",            50,          110.,            0.,            0.,NA,NA,"",   42.9464E+06,   9.53418E+06,   9.53418E+06
C:/temp/Job-38.odb,Step-1,Increment      1: Step Time =    1.000,"P-38-1",            51,          100.,            0.,            0.,NA,NA,"",   45.2470E+06,   10.0411E+06,   10.0411E+06
C:/temp/Job-38.odb,Step-1,Increment      1: Step Time =    1.000,"P-38-1",            52,           90.,            0.,            0.,NA,NA,"",   42.9829E+06,   7.64797E+06,   7.64797E+06
C:/temp/Job-38.odb,Step-1,Increment      1: Step Time =    1.000,"P-38-1",            53,           80.,            0.,            0.,NA,NA,"",   38.2914E+06,   4.87089E+06,   4.87089E+06
C:/temp/Job-38.odb,Step-1,Increment      1: Step Time =    1.000,"P-38-1",            54,           70.,            0.,            0.,NA,NA,"",   86.9388E+06,   83.5750E+06,   83.5750E+06
C:/temp/Job-38.odb,Step-1,Increment      1: Step Time =    1.000,"P-38-1",            55,           60.,            0.,            0.,NA,NA,"",   64.5644E+06,   62.1397E+06,   62.1397E+06
C:/temp/Job-38.odb,Step-1,Increment      1: Step Time =    1.000,"P-38-1",            56,           50.,            0.,            0.,NA,NA,"",   40.6326E+06,   41.4516E+06,   41.4516E+06
C:/temp/Job-38.odb,Step-1,Increment      1: Step Time =    1.000,"P-38-1",            57,           40.,            0.,            0.,NA,NA,"",   32.8904E+06,   32.7680E+06,   32.7680E+06
C:/temp/Job-38.odb,Step-1,Increment      1: Step Time =    1.000,"P-38-1",            58,           30.,            0.,            0.,NA,NA,"",   24.1539E+06,   22.7859E+06,   22.7859E+06
C:/temp/Job-38.odb,Step-1,Increment      1: Step Time =    1.000,"P-38-1",            59,           20.,            0.,            0.,NA,NA,"",   19.5138E+06,   18.6472E+06,   18.6472E+06
C:/temp/Job-38.odb,Step-1,Increment      1: Step Time =    1.000,"P-38-1",            60,           10.,            0.,            0.,NA,NA,"",   15.6656E+06,   15.2865E+06,   15.2865E+06
C:/temp/Job-38.odb,Step-1,Increment      1: Step Time =    1.000,"P-38-1",            61,          200.,            0.,            0.,NA,NA,"",   947.670E+03,   859.055E+03,   859.055E+03
C:/temp/Job-38.odb,Step-1,Increment      1: Step Time =    1.000,"P-38-1",            62,            0.,            0.,            0.,NA,NA,"",   14.1024E+06,   15.0411E+06,   15.0411E+06
C:/temp/Job-38.odb,Step-1,Increment      1: Step Time =    1.000,"P-38-1",            63,          200.,          190.,            0.,NA,NA,"",   3.69845E+06,  -2.99542E+06,  -2.99542E+06
C:/temp/Job-38.odb,Step-1,Increment      1: Step Time =    1.000,"P-38-1",            64,          200.,          180.,            0.,NA,NA,"",   9.39478E+06,  -8.67512E+06,  -8.67512E+06
C:/temp/Job-38.odb,Step-1,Increment      1: Step Time =    1.000,"P-38-1",            65,          200.,          170.,            0.,NA,NA,"",   14.6660E+06,  -14.1330E+06,  -14.1330E+06
C:/temp/Job-38.odb,Step-1,Increment      1: Step Time =    1.000,"P-38-1",            66,          200.,          160.,            0.,NA,NA,"",   19.3860E+06,  -18.8714E+06,  -18.8714E+06
C:/temp/Job-38.odb,Step-1,Increment      1: Step Time =    1.000,"P-38-1",            67,          200.,          150.,            0.,NA,NA,"",   23.6699E+06,  -23.2274E+06,  -23.2274E+06
C:/temp/Job-38.odb,Step-1,Increment      1: Step Time =    1.000,"P-38-1",            68,          200.,          140.,            0.,NA,NA,"",   28.9493E+06,  -28.5284E+06,  -28.5284E+06
C:/temp/Job-38.odb,Step-1,Increment      1: Step Time =    1.000,"P-38-1",            69,          200.,          130.,            0.,NA,NA,"",   36.6328E+06,  -36.5901E+06,  -36.5901E+06
C:/temp/Job-38.odb,Step-1,Increment      1: Step Time =    1.000,"P-38-1",            70,          200.,          120.,            0.,NA,NA,"",   27.3240E+06,  -19.7303E+06,  -19.7303E+06
C:/temp/Job-38.odb,Step-1,Increment      1: Step Time =    1.000,"P-38-1",            71,          200.,          110.,            0.,NA,NA,"",   25.6360E+06,   3.07683E+06,   3.07683E+06
C:/temp/Job-38.odb,Step-1,Increment      1: Step Time =    1.000,"P-38-1",            72,          200.,          100.,            0.,NA,NA,"",   24.3697E+06,   2.76519E+06,   2.76519E+06
C:/temp/Job-38.odb,Step-1,Increment      1: Step Time =    1.000,"P-38-1",            73,          200.,           90.,            0.,NA,NA,"",   22.1644E+06,   1.76467E+06,   1.76467E+06
C:/temp/Job-38.odb,Step-1,Increment      1: Step Time =    1.000,"P-38-1",            74,          200.,           80.,            0.,NA,NA,"",   22.1943E+06,   18.9777E+06,   18.9777E+06
C:/temp/Job-38.odb,Step-1,Increment      1: Step Time =    1.000,"P-38-1",            75,          200.,           70.,            0.,NA,NA,"",   19.8766E+06,   17.0237E+06,   17.0237E+06
C:/temp/Job-38.odb,Step-1,Increment      1: Step Time =    1.000,"P-38-1",            76,          200.,           60.,            0.,NA,NA,"",   7.15590E+06,   2.19257E+06,   2.19257E+06
C:/temp/Job-38.odb,Step-1,Increment      1: Step Time =    1.000,"P-38-1",            77,          200.,           50.,            0.,NA,NA,"",   5.84910E+06,   1.41007E+06,   1.41007E+06
C:/temp/Job-38.odb,Step-1,Increment      1: Step Time =    1.000,"P-38-1",            78,          200.,           40.,            0.,NA,NA,"",   4.81628E+06,  -3.76058E+06,  -3.76058E+06
C:/temp/Job-38.odb,Step-1,Increment      1: Step Time =    1.000,"P-38-1",            79,          200.,           30.,            0.,NA,NA,"",   5.48051E+06,  -4.38558E+06,  -4.38558E+06
C:/temp/Job-38.odb,Step-1,Increment      1: Step Time =    1.000,"P-38-1",            80,          200.,           20.,            0.,NA,NA,"",   3.77618E+06,  -2.87641E+06,  -2.87641E+06
C:/temp/Job-38.odb,Step-1,Increment      1: Step Time =    1.000,"P-38-1",            81,          200.,           10.,            0.,NA,NA,"",   1.72509E+06,  -69.8279E+03,  -69.8279E+03
C:/temp/Job-38.odb,Step-1,Increment      1: Step Time =    1.000,"P-38-1",            82,          200.,          200.,            0.,NA,NA,"",   1.00062E+06,   806.264E+03,   806.264E+03
C:/temp/Job-38.odb,Step-1,Increment      1: Step Time =    1.000,"P-38-1",            83,           10.,          200.,            0.,NA,NA,"",   9.89135E+06,   9.85853E+06,   9.85853E+06
C:/temp/Job-38.odb,Step-1,Increment      1: Step Time =    1.000,"P-38-1",            84,           20.,          200.,            0.,NA,NA,"",   10.2047E+06,   10.1957E+06,   10.1957E+06
C:/temp/Job-38.odb,Step-1,Increment      1: Step Time =    1.000,"P-38-1",            85,           30.,          200.,            0.,NA,NA,"",   10.4577E+06,   10.3810E+06,   10.3810E+06
C:/temp/Job-38.odb,Step-1,Increment      1: Step Time =    1.000,"P-38-1",            86,           40.,          200.,            0.,NA,NA,"",   9.26459E+06,   8.99219E+06,   8.99219E+06
C:/temp/Job-38.odb,Step-1,Increment      1: Step Time =    1.000,"P-38-1",            87,           50.,          200.,            0.,NA,NA,"",   5.33008E+06,   4.20950E+06,   4.20950E+06
C:/temp/Job-38.odb,Step-1,Increment      1: Step Time =    1.000,"P-38-1",            88,           60.,          200.,            0.,NA,NA,"",   19.0018E+06,  -17.8282E+06,  -17.8282E+06
C:/temp/Job-38.odb,Step-1,Increment      1: Step Time =    1.000,"P-38-1",            89,           70.,          200.,            0.,NA,NA,"",   61.1681E+06,  -61.6672E+06,  -61.6672E+06
C:/temp/Job-38.odb,Step-1,Increment      1: Step Time =    1.000,"P-38-1",            90,           80.,          200.,            0.,NA,NA,"",   179.778E+06,  -178.394E+06,  -178.394E+06
C:/temp/Job-38.odb,Step-1,Increment      1: Step Time =    1.000,"P-38-1",            91,           90.,          200.,            0.,NA,NA,"",   399.145E+06,  -397.512E+06,  -397.512E+06
C:/temp/Job-38.odb,Step-1,Increment      1: Step Time =    1.000,"P-38-1",            92,          100.,          200.,            0.,NA,NA,"",   585.165E+06,  -583.353E+06,  -583.353E+06
C:/temp/Job-38.odb,Step-1,Increment      1: Step Time =    1.000,"P-38-1",            93,          110.,          200.,            0.,NA,NA,"",   522.454E+06,  -520.729E+06,  -520.729E+06
C:/temp/Job-38.odb,Step-1,Increment      1: Step Time =    1.000,"P-38-1",            94,          120.,          200.,            0.,NA,NA,"",   320.153E+06,  -318.712E+06,  -318.712E+06
C:/temp/Job-38.odb,Step-1,Increment      1: Step Time =    1.000,"P-38-1",            95,          130.,          200.,            0.,NA,NA,"",   165.365E+06,  -164.105E+06,  -164.105E+06
C:/temp/Job-38.odb,Step-1,Increment      1: Step Time =    1.000,"P-38-1",            96,          140.,          200.,            0.,NA,NA,"",   84.7279E+06,  -85.4441E+06,  -85.4441E+06
C:/temp/Job-38.odb,Step-1,Increment      1: Step Time =    1.000,"P-38-1",            97,          150.,          200.,            0.,NA,NA,"",   53.2320E+06,  -53.2806E+06,  -53.2806E+06
C:/temp/Job-38.odb,Step-1,Increment      1: Step Time =    1.000,"P-38-1",            98,          160.,          200.,            0.,NA,NA,"",   31.6650E+06,  -31.6916E+06,  -31.6916E+06
C:/temp/Job-38.odb,Step-1,Increment      1: Step Time =    1.000,"P-38-1",            99,          170.,          200.,            0.,NA,NA,"",   18.7133E+06,  -18.5501E+06,  -18.5501E+06
C:/temp/Job-38.odb,Step-1,Increment      1: Step Time =    1.000,"P-38-1",           100,          180.,          200.,            0.,NA,NA,"",   9.09472E+06,  -8.92391E+06,  -8.92391E+06
C:/temp/Job-38.odb,Step-1,Increment      1: Step Time =    1.000,"P-38-1",           101,          190.,          200.,            0.,NA,NA,"",   2.75617E+06,  -2.46972E+06,  -2.46972E+06
C:/temp/Job-38.odb,Step-1,Increment      1: Step Time =    1.000,"P-38-1",           102,            0.,          200.,            0.,NA,NA,"",   10.1117E+06,   10.6236E+06,   10.6236E+06
C:/temp/Job-38.odb,Step-1,Increment      1: Step Time =    1.000,"P-38-1",           103,            0.,           10.,            0.,NA,NA,"",   8.56074E+06,   9.36464E+06,   9.36464E+06
C:/temp/Job-38.odb,Step-1,Increment      1: Step Time =    1.000,"P-38-1",           104,            0.,           20.,            0.,NA,NA,"",   3.44332E+06,   3.52156E+06,   3.52156E+06
C:/temp/Job-38.odb,Step-1,Increment      1: Step Time =    1.000,"P-38-1",           105,            0.,           30.,            0.,NA,NA,"",   3.51528E+06,  -2.87027E+06,  -2.87027E+06
C:/temp/Job-38.odb,Step-1,Increment      1: Step Time =    1.000,"P-38-1",           106,            0.,           40.,            0.,NA,NA,"",   4.42469E+06,  -4.48268E+06,  -4.48268E+06
C:/temp/Job-38.odb,Step-1,Increment      1: Step Time =    1.000,"P-38-1",           107,            0.,           50.,            0.,NA,NA,"",   3.47975E+06,  -3.53803E+06,  -3.53803E+06
C:/temp/Job-38.odb,Step-1,Increment      1: Step Time =    1.000,"P-38-1",           108,            0.,           60.,            0.,NA,NA,"",   2.36798E+06,  -2.15231E+06,  -2.15231E+06
C:/temp/Job-38.odb,Step-1,Increment      1: Step Time =    1.000,"P-38-1",           109,            0.,           70.,            0.,NA,NA,"",   1.12207E+06,  -1.01897E+06,  -1.01897E+06
C:/temp/Job-38.odb,Step-1,Increment      1: Step Time =    1.000,"P-38-1",           110,            0.,           80.,            0.,NA,NA,"",   413.909E+03,  -373.689E+03,  -373.689E+03
C:/temp/Job-38.odb,Step-1,Increment      1: Step Time =    1.000,"P-38-1",           111,            0.,           90.,            0.,NA,NA,"",   76.0992E+03,  -73.0809E+03,  -73.0809E+03
C:/temp/Job-38.odb,Step-1,Increment      1: Step Time =    1.000,"P-38-1",           112,            0.,          100.,            0.,NA,NA,"",   6.72260E+03,  -6.80506E+03,  -6.80506E+03
C:/temp/Job-38.odb,Step-1,Increment      1: Step Time =    1.000,"P-38-1",           113,            0.,          110.,            0.,NA,NA,"",   37.5299E+03,  -37.7383E+03,  -37.7383E+03
C:/temp/Job-38.odb,Step-1,Increment      1: Step Time =    1.000,"P-38-1",           114,            0.,          120.,            0.,NA,NA,"",   230.982E+03,  -224.696E+03,  -224.696E+03
C:/temp/Job-38.odb,Step-1,Increment      1: Step Time =    1.000,"P-38-1",           115,            0.,          130.,            0.,NA,NA,"",   634.287E+03,  -575.522E+03,  -575.522E+03
C:/temp/Job-38.odb,Step-1,Increment      1: Step Time =    1.000,"P-38-1",           116,            0.,          140.,            0.,NA,NA,"",   1.32598E+06,  -1.25178E+06,  -1.25178E+06
C:/temp/Job-38.odb,Step-1,Increment      1: Step Time =    1.000,"P-38-1",           117,            0.,          150.,            0.,NA,NA,"",   1.90168E+06,  -1.86647E+06,  -1.86647E+06
C:/temp/Job-38.odb,Step-1,Increment      1: Step Time =    1.000,"P-38-1",           118,            0.,          160.,            0.,NA,NA,"",   1.63559E+06,  -1.63421E+06,  -1.63421E+06
C:/temp/Job-38.odb,Step-1,Increment      1: Step Time =    1.000,"P-38-1",           119,            0.,          170.,            0.,NA,NA,"",   569.028E+03,   66.1705E+03,   66.1705E+03
C:/temp/Job-38.odb,Step-1,Increment      1: Step Time =    1.000,"P-38-1",           120,            0.,          180.,            0.,NA,NA,"",   2.48215E+06,   2.79227E+06,   2.79227E+06
C:/temp/Job-38.odb,Step-1,Increment      1: Step Time =    1.000,"P-38-1",           121,            0.,          190.,            0.,NA,NA,"",   6.02194E+06,   6.63862E+06,   6.63862E+06
C:/temp/Job-38.odb,Step-1,Increment      1: Step Time =    1.000,"P-38-1",           122,       11.7604,       187.615,            0.,NA,NA,"",   5.89444E+06,   6.02958E+06,   6.02958E+06
C:/temp/Job-38.odb,Step-1,Increment      1: Step Time =    1.000,"P-38-1",           123,       21.1539,       190.203,            0.,NA,NA,"",   6.92648E+06,   6.87813E+06,   6.87813E+06
C:/temp/Job-38.odb,Step-1,Increment      1: Step Time =    1.000,"P-38-1",           124,       30.3185,       190.995,            0.,NA,NA,"",   7.18106E+06,   6.88899E+06,   6.88899E+06
C:/temp/Job-38.odb,Step-1,Increment      1: Step Time =    1.000,"P-38-1",           125,       39.9719,       189.662,            0.,NA,NA,"",   7.54320E+06,   6.53940E+06,   6.53940E+06
C:/temp/Job-38.odb,Step-1,Increment      1: Step Time =    1.000,"P-38-1",           126,       49.7475,       188.755,            0.,NA,NA,"",   10.3527E+06,   8.62163E+06,   8.62163E+06
C:/temp/Job-38.odb,Step-1,Increment      1: Step Time =    1.000,"P-38-1",           127,       143.964,       188.306,            0.,NA,NA,"",   81.5285E+06,   80.1411E+06,   80.1411E+06
C:/temp/Job-38.odb,Step-1,Increment      1: Step Time =    1.000,"P-38-1",           128,       155.988,       192.798,            0.,NA,NA,"",   17.5892E+06,  -10.7689E+06,  -10.7689E+06
C:/temp/Job-38.odb,Step-1,Increment      1: Step Time =    1.000,"P-38-1",           129,       164.958,       190.873,            0.,NA,NA,"",   12.4405E+06,  -3.53486E+06,  -3.53486E+06
C:/temp/Job-38.odb,Step-1,Increment      1: Step Time =    1.000,"P-38-1",           130,       175.432,       190.087,            0.,NA,NA,"",   10.0484E+06,  -7.36771E+06,  -7.36771E+06
C:/temp/Job-38.odb,Step-1,Increment      1: Step Time =    1.000,"P-38-1",           131,       190.052,       190.233,            0.,NA,NA,"",   6.74317E+06,  -5.07339E+06,  -5.07339E+06
C:/temp/Job-38.odb,Step-1,Increment      1: Step Time =    1.000,"P-38-1",           132,       166.821,       180.940,            0.,NA,NA,"",   15.5070E+06,   15.7321E+06,   15.7321E+06
C:/temp/Job-38.odb,Step-1,Increment      1: Step Time =    1.000,"P-38-1",           133,       177.593,       178.672,            0.,NA,NA,"",   7.51178E+06,   7.38334E+06,   7.38334E+06
C:/temp/Job-38.odb,Step-1,Increment      1: Step Time =    1.000,"P-38-1",           134,       189.573,       180.483,            0.,NA,NA,"",   8.97635E+06,  -6.28404E+06,  -6.28404E+06
C:/temp/Job-38.odb,Step-1,Increment      1: Step Time =    1.000,"P-38-1",           135,       177.403,       170.814,            0.,NA,NA,"",   9.80910E+06,   10.7102E+06,   10.7102E+06
C:/temp/Job-38.odb,Step-1,Increment      1: Step Time =    1.000,"P-38-1",           136,       189.878,       170.510,            0.,NA,NA,"",   7.07623E+06,  -2.12063E+06,  -2.12063E+06
C:/temp/Job-38.odb,Step-1,Increment      1: Step Time =    1.000,"P-38-1",           137,       188.715,       159.558,            0.,NA,NA,"",   7.54685E+06,   2.83017E+06,   2.83017E+06
C:/temp/Job-38.odb,Step-1,Increment      1: Step Time =    1.000,"P-38-1",           138,       186.756,       151.379,            0.,NA,NA,"",    18.135E+06,   18.7665E+06,   18.7665E+06
C:/temp/Job-38.odb,Step-1,Increment      1: Step Time =    1.000,"P-38-1",           139,       189.737,       52.0267,            0.,NA,NA,"",   5.66488E+06,   5.09272E+06,   5.09272E+06
C:/temp/Job-38.odb,Step-1,Increment      1: Step Time =    1.000,"P-38-1",           140,       189.548,       43.5004,            0.,NA,NA,"",   3.32118E+06,   2.47839E+06,   2.47839E+06
C:/temp/Job-38.odb,Step-1,Increment      1: Step Time =    1.000,"P-38-1",           141,       179.049,       30.5851,            0.,NA,NA,"",   8.85214E+06,   4.39162E+06,   4.39162E+06
C:/temp/Job-38.odb,Step-1,Increment      1: Step Time =    1.000,"P-38-1",           142,       190.354,       29.9665,            0.,NA,NA,"",   2.43333E+06,   1.28142E+06,   1.28142E+06
C:/temp/Job-38.odb,Step-1,Increment      1: Step Time =    1.000,"P-38-1",           143,       172.467,       23.2044,            0.,NA,NA,"",   9.69829E+06,   7.01973E+06,   7.01973E+06
C:/temp/Job-38.odb,Step-1,Increment      1: Step Time =    1.000,"P-38-1",           144,       179.643,       18.3241,            0.,NA,NA,"",   6.08529E+06,   1.99333E+06,   1.99333E+06
C:/temp/Job-38.odb,Step-1,Increment      1: Step Time =    1.000,"P-38-1",           145,       190.677,       19.3182,            0.,NA,NA,"",   3.88836E+06,  -1.19734E+06,  -1.19734E+06
C:/temp/Job-38.odb,Step-1,Increment      1: Step Time =    1.000,"P-38-1",           146,       147.837,       12.1811,            0.,NA,NA,"",   25.8057E+06,   16.3338E+06,   16.3338E+06
C:/temp/Job-38.odb,Step-1,Increment      1: Step Time =    1.000,"P-38-1",           147,       159.857,       11.6591,            0.,NA,NA,"",   16.0313E+06,   2.77956E+06,   2.77956E+06
C:/temp/Job-38.odb,Step-1,Increment      1: Step Time =    1.000,"P-38-1",           148,       170.126,       9.83458,            0.,NA,NA,"",   8.73423E+06,  -193.571E+03,  -193.571E+03
C:/temp/Job-38.odb,Step-1,Increment      1: Step Time =    1.000,"P-38-1",           149,       180.126,       11.2337,            0.,NA,NA,"",   4.75160E+06,  -526.617E+03,  -526.617E+03
C:/temp/Job-38.odb,Step-1,Increment      1: Step Time =    1.000,"P-38-1",           150,       190.483,       9.85293,            0.,NA,NA,"",   2.34199E+06,  -612.460E+03,  -612.460E+03
C:/temp/Job-38.odb,Step-1,Increment      1: Step Time =    1.000,"P-38-1",           151,       53.5344,       12.1846,            0.,NA,NA,"",   39.1057E+06,  -12.8016E+06,  -12.8016E+06
C:/temp/Job-38.odb,Step-1,Increment      1: Step Time =    1.000,"P-38-1",           152,       42.4918,       11.2432,            0.,NA,NA,"",   17.7572E+06,   8.30680E+06,   8.30680E+06
C:/temp/Job-38.odb,Step-1,Increment      1: Step Time =    1.000,"P-38-1",           153,       29.7991,       9.42528,            0.,NA,NA,"",   14.9109E+06,   13.9999E+06,   13.9999E+06
C:/temp/Job-38.odb,Step-1,Increment      1: Step Time =    1.000,"P-38-1",           154,       19.1074,       9.34314,            0.,NA,NA,"",   11.1538E+06,   11.0841E+06,   11.0841E+06
C:/temp/Job-38.odb,Step-1,Increment      1: Step Time =    1.000,"P-38-1",           155,       9.65627,       9.53962,            0.,NA,NA,"",   10.6653E+06,   10.8449E+06,   10.8449E+06
C:/temp/Job-38.odb,Step-1,Increment      1: Step Time =    1.000,"P-38-1",           156,       32.3149,       18.9617,            0.,NA,NA,"",   8.92692E+06,  -6.02243E+06,  -6.02243E+06
C:/temp/Job-38.odb,Step-1,Increment      1: Step Time =    1.000,"P-38-1",           157,       19.6154,       21.7119,            0.,NA,NA,"",   2.91544E+06,   19.5309E+03,   19.5309E+03
C:/temp/Job-38.odb,Step-1,Increment      1: Step Time =    1.000,"P-38-1",           158,       9.94690,       19.4386,            0.,NA,NA,"",   4.01950E+06,   3.74797E+06,   3.74797E+06
C:/temp/Job-38.odb,Step-1,Increment      1: Step Time =    1.000,"P-38-1",           159,       21.6173,       31.1896,            0.,NA,NA,"",   7.98455E+06,  -7.62341E+06,  -7.62341E+06
C:/temp/Job-38.odb,Step-1,Increment      1: Step Time =    1.000,"P-38-1",           160,       9.26721,       29.5917,            0.,NA,NA,"",   4.00796E+06,  -3.44033E+06,  -3.44033E+06
C:/temp/Job-38.odb,Step-1,Increment      1: Step Time =    1.000,"P-38-1",           161,       11.0263,       43.3324,            0.,NA,NA,"",   5.21381E+06,  -5.06262E+06,  -5.06262E+06
C:/temp/Job-38.odb,Step-1,Increment      1: Step Time =    1.000,"P-38-1",           162,       12.3834,       50.6709,            0.,NA,NA,"",   4.14486E+06,  -4.07259E+06,  -4.07259E+06
C:/temp/Job-38.odb,Step-1,Increment      1: Step Time =    1.000,"P-38-1",           163,       11.3134,       146.173,            0.,NA,NA,"",   1.92758E+06,  -1.94468E+06,  -1.94468E+06
C:/temp/Job-38.odb,Step-1,Increment      1: Step Time =    1.000,"P-38-1",           164,       18.8259,       167.449,            0.,NA,NA,"",   2.50019E+06,  -2.36723E+06,  -2.36723E+06
C:/temp/Job-38.odb,Step-1,Increment      1: Step Time =    1.000,"P-38-1",           165,       8.45808,       168.848,            0.,NA,NA,"",   1.19267E+06,  -597.804E+03,  -597.804E+03
C:/temp/Job-38.odb,Step-1,Increment      1: Step Time =    1.000,"P-38-1",           166,       9.05753,       155.719,            0.,NA,NA,"",   2.29593E+06,  -2.22041E+06,  -2.22041E+06
C:/temp/Job-38.odb,Step-1,Increment      1: Step Time =    1.000,"P-38-1",           167,       28.8457,       178.184,            0.,NA,NA,"",   2.76060E+06,  -225.758E+03,  -225.758E+03
C:/temp/Job-38.odb,Step-1,Increment      1: Step Time =    1.000,"P-38-1",           168,       21.5334,       178.676,            0.,NA,NA,"",   2.37289E+06,   1.47488E+06,   1.47488E+06
C:/temp/Job-38.odb,Step-1,Increment      1: Step Time =    1.000,"P-38-1",           169,       8.06848,       178.882,            0.,NA,NA,"",   2.17851E+06,   2.42238E+06,   2.42238E+06
C:/temp/Job-38.odb,Step-1,Increment      1: Step Time =    1.000,"P-38-1",           170,       95.0172,       195.871,            0.,NA,NA,"",   592.759E+06,   594.210E+06,   594.210E+06
C:/temp/Job-38.odb,Step-1,Increment      1: Step Time =    1.000,"P-38-1",           171,       90.0479,       195.483,            0.,NA,NA,"",   466.155E+06,   467.355E+06,   467.355E+06
C:/temp/Job-38.odb,Step-1,Increment      1: Step Time =    1.000,"P-38-1",           172,       80.2030,       193.937,            0.,NA,NA,"",   222.587E+06,   223.247E+06,   223.247E+06
C:/temp/Job-38.odb,Step-1,Increment      1: Step Time =    1.000,"P-38-1",           173,       75.3541,       192.782,            0.,NA,NA,"",   142.389E+06,   142.628E+06,   142.628E+06
C:/temp/Job-38.odb,Step-1,Increment      1: Step Time =    1.000,"P-38-1",           174,       65.8683,       189.728,            0.,NA,NA,"",   54.9266E+06,   55.2101E+06,   55.2101E+06
C:/temp/Job-38.odb,Step-1,Increment      1: Step Time =    1.000,"P-38-1",           175,       61.2571,       187.835,            0.,NA,NA,"",   32.5275E+06,   32.1689E+06,   32.1689E+06
C:/temp/Job-38.odb,Step-1,Increment      1: Step Time =    1.000,"P-38-1",           176,       52.3602,       183.345,            0.,NA,NA,"",   9.71288E+06,   9.27119E+06,   9.27119E+06
C:/temp/Job-38.odb,Step-1,Increment      1: Step Time =    1.000,"P-38-1",           177,       48.0985,       180.760,            0.,NA,NA,"",   5.15719E+06,   4.27263E+06,   4.27263E+06
C:/temp/Job-38.odb,Step-1,Increment      1: Step Time =    1.000,"P-38-1",           178,       40.0059,       174.945,            0.,NA,NA,"",   3.99095E+06,  -3.75191E+06,  -3.75191E+06
C:/temp/Job-38.odb,Step-1,Increment      1: Step Time =    1.000,"P-38-1",           179,       36.1968,       171.730,            0.,NA,NA,"",   4.94810E+06,  -4.88589E+06,  -4.88589E+06
C:/temp/Job-38.odb,Step-1,Increment      1: Step Time =    1.000,"P-38-1",           180,       29.1046,       164.729,            0.,NA,NA,"",   5.38323E+06,  -5.39534E+06,  -5.39534E+06
C:/temp/Job-38.odb,Step-1,Increment      1: Step Time =    1.000,"P-38-1",           181,       25.8404,       160.962,            0.,NA,NA,"",   4.96282E+06,  -4.98916E+06,  -4.98916E+06
C:/temp/Job-38.odb,Step-1,Increment      1: Step Time =    1.000,"P-38-1",           182,       19.9202,       152.946,            0.,NA,NA,"",   3.44827E+06,  -3.46650E+06,  -3.46650E+06
C:/temp/Job-38.odb,Step-1,Increment      1: Step Time =    1.000,"P-38-1",           183,       17.2801,       148.718,            0.,NA,NA,"",   2.64297E+06,  -2.66745E+06,  -2.66745E+06
C:/temp/Job-38.odb,Step-1,Increment      1: Step Time =    1.000,"P-38-1",           184,       12.6753,       139.880,            0.,NA,NA,"",   1.40291E+06,  -1.41530E+06,  -1.41530E+06
C:/temp/Job-38.odb,Step-1,Increment      1: Step Time =    1.000,"P-38-1",           185,       10.7231,       135.294,            0.,NA,NA,"",   1.05474E+06,  -1.05493E+06,  -1.05493E+06
C:/temp/Job-38.odb,Step-1,Increment      1: Step Time =    1.000,"P-38-1",           186,       7.54534,       125.848,            0.,NA,NA,"",   508.241E+03,  -510.422E+03,  -510.422E+03
C:/temp/Job-38.odb,Step-1,Increment      1: Step Time =    1.000,"P-38-1",           187,       6.32833,       121.015,            0.,NA,NA,"",   283.792E+03,  -279.765E+03,  -279.765E+03
C:/temp/Job-38.odb,Step-1,Increment      1: Step Time =    1.000,"P-38-1",           188,       4.65449,       111.191,            0.,NA,NA,"",   37.5299E+03,  -37.7383E+03,  -37.7383E+03
C:/temp/Job-38.odb,Step-1,Increment      1: Step Time =    1.000,"P-38-1",           189,       4.20216,       106.227,            0.,NA,NA,"",   10.5075E+03,  -10.3913E+03,  -10.3913E+03
C:/temp/Job-38.odb,Step-1,Increment      1: Step Time =    1.000,"P-38-1",           190,       4.07279,       96.2622,            0.,NA,NA,"",   17.0988E+03,  -14.9085E+03,  -14.9085E+03
C:/temp/Job-38.odb,Step-1,Increment      1: Step Time =    1.000,"P-38-1",           191,       4.97714,       86.3378,            0.,NA,NA,"",   181.763E+03,  -178.304E+03,  -178.304E+03
C:/temp/Job-38.odb,Step-1,Increment      1: Step Time =    1.000,"P-38-1",           192,       5.81435,       81.4241,            0.,NA,NA,"",   324.704E+03,  -315.750E+03,  -315.750E+03
C:/temp/Job-38.odb,Step-1,Increment      1: Step Time =    1.000,"P-38-1",           193,       8.24754,       71.7602,            0.,NA,NA,"",   1.02866E+06,  -1.00835E+06,  -1.00835E+06
C:/temp/Job-38.odb,Step-1,Increment      1: Step Time =    1.000,"P-38-1",           194,       9.83696,       67.0360,            0.,NA,NA,"",   1.45922E+06,  -1.47848E+06,  -1.47848E+06
C:/temp/Job-38.odb,Step-1,Increment      1: Step Time =    1.000,"P-38-1",           195,       13.7401,       57.8666,            0.,NA,NA,"",   2.78639E+06,  -2.81326E+06,  -2.81326E+06
C:/temp/Job-38.odb,Step-1,Increment      1: Step Time =    1.000,"P-38-1",           196,       16.0432,       53.4462,            0.,NA,NA,"",   3.97398E+06,  -3.90999E+06,  -3.90999E+06
C:/temp/Job-38.odb,Step-1,Increment      1: Step Time =    1.000,"P-38-1",           197,       21.3217,       44.9934,            0.,NA,NA,"",   7.33632E+06,  -7.25780E+06,  -7.25780E+06
C:/temp/Job-38.odb,Step-1,Increment      1: Step Time =    1.000,"P-38-1",           198,       24.2828,       40.9838,            0.,NA,NA,"",   9.32467E+06,  -9.35634E+06,  -9.35634E+06
C:/temp/Job-38.odb,Step-1,Increment      1: Step Time =    1.000,"P-38-1",           199,       30.8089,       33.4524,            0.,NA,NA,"",   14.0200E+06,  -13.9885E+06,  -13.9885E+06
C:/temp/Job-38.odb,Step-1,Increment      1: Step Time =    1.000,"P-38-1",           200,       34.3562,       29.9508,            0.,NA,NA,"",   15.9986E+06,  -16.3765E+06,  -16.3765E+06
C:/temp/Job-38.odb,Step-1,Increment      1: Step Time =    1.000,"P-38-1",           201,       41.9717,       23.5231,            0.,NA,NA,"",   21.6539E+06,  -21.7385E+06,  -21.7385E+06
C:/temp/Job-38.odb,Step-1,Increment      1: Step Time =    1.000,"P-38-1",           202,       46.0194,       20.6143,            0.,NA,NA,"",   24.5698E+06,  -25.8156E+06,  -25.8156E+06
C:/temp/Job-38.odb,Step-1,Increment      1: Step Time =    1.000,"P-38-1",           203,       54.5400,       15.4460,            0.,NA,NA,"",   36.2723E+06,  -34.4674E+06,  -34.4674E+06
C:/temp/Job-38.odb,Step-1,Increment      1: Step Time =    1.000,"P-38-1",           204,       58.9899,       13.2004,            0.,NA,NA,"",   31.7375E+06,  -29.6945E+06,  -29.6945E+06
C:/temp/Job-38.odb,Step-1,Increment      1: Step Time =    1.000,"P-38-1",           205,       68.2092,       9.41664,            0.,NA,NA,"",   77.9975E+06,   11.1969E+06,   11.1969E+06
C:/temp/Job-38.odb,Step-1,Increment      1: Step Time =    1.000,"P-38-1",           206,       72.9537,       7.88867,            0.,NA,NA,"",   87.1089E+06,   1.30017E+06,   1.30017E+06
C:/temp/Job-38.odb,Step-1,Increment      1: Step Time =    1.000,"P-38-1",           207,       82.6484,       5.58114,            0.,NA,NA,"",   38.2914E+06,   4.87089E+06,   4.87089E+06
C:/temp/Job-38.odb,Step-1,Increment      1: Step Time =    1.000,"P-38-1",           208,       87.5725,       4.80779,            0.,NA,NA,"",   41.3613E+06,   7.90389E+06,   7.90389E+06
C:/temp/Job-38.odb,Step-1,Increment      1: Step Time =    1.000,"P-38-1",           209,       97.5078,       4.03236,            0.,NA,NA,"",   45.3150E+06,   9.99526E+06,   9.99526E+06
C:/temp/Job-38.odb,Step-1,Increment      1: Step Time =    1.000,"P-38-1",           210,       102.492,       4.03236,            0.,NA,NA,"",   45.2470E+06,   10.0411E+06,   10.0411E+06
C:/temp/Job-38.odb,Step-1,Increment      1: Step Time =    1.000,"P-38-1",           211,       112.428,       4.80779,            0.,NA,NA,"",   42.9464E+06,   9.53418E+06,   9.53418E+06
C:/temp/Job-38.odb,Step-1,Increment      1: Step Time =    1.000,"P-38-1",           212,       117.352,       5.58114,            0.,NA,NA,"",   40.3814E+06,   7.07592E+06,   7.07592E+06
C:/temp/Job-38.odb,Step-1,Increment      1: Step Time =    1.000,"P-38-1",           213,       127.046,       7.88867,            0.,NA,NA,"",   85.2782E+06,   80.1906E+06,   80.1906E+06
C:/temp/Job-38.odb,Step-1,Increment      1: Step Time =    1.000,"P-38-1",           214,       131.791,       9.41664,            0.,NA,NA,"",   64.7656E+06,   56.4285E+06,   56.4285E+06
C:/temp/Job-38.odb,Step-1,Increment      1: Step Time =    1.000,"P-38-1",           215,       141.010,       13.2004,            0.,NA,NA,"",   38.7249E+06,   37.6790E+06,   37.6790E+06
C:/temp/Job-38.odb,Step-1,Increment      1: Step Time =    1.000,"P-38-1",           216,       145.460,       15.4460,            0.,NA,NA,"",   33.5595E+06,   32.6203E+06,   32.6203E+06
C:/temp/Job-38.odb,Step-1,Increment      1: Step Time =    1.000,"P-38-1",           217,       153.981,       20.6143,            0.,NA,NA,"",   16.3043E+06,   16.5095E+06,   16.5095E+06
C:/temp/Job-38.odb,Step-1,Increment      1: Step Time =    1.000,"P-38-1",           218,       158.028,       23.5231,            0.,NA,NA,"",   15.3030E+06,   14.4523E+06,   14.4523E+06
C:/temp/Job-38.odb,Step-1,Increment      1: Step Time =    1.000,"P-38-1",           219,       165.644,       29.9508,            0.,NA,NA,"",   12.0186E+06,   11.7250E+06,   11.7250E+06
C:/temp/Job-38.odb,Step-1,Increment      1: Step Time =    1.000,"P-38-1",           220,       169.191,       33.4524,            0.,NA,NA,"",   10.4409E+06,   10.3037E+06,   10.3037E+06
C:/temp/Job-38.odb,Step-1,Increment      1: Step Time =    1.000,"P-38-1",           221,       175.717,       40.9838,            0.,NA,NA,"",   9.16117E+06,   9.00719E+06,   9.00719E+06
C:/temp/Job-38.odb,Step-1,Increment      1: Step Time =    1.000,"P-38-1",           222,       178.678,       44.9934,            0.,NA,NA,"",   8.78256E+06,   8.83658E+06,   8.83658E+06
C:/temp/Job-38.odb,Step-1,Increment      1: Step Time =    1.000,"P-38-1",           223,       183.957,       53.4462,            0.,NA,NA,"",   7.55948E+06,   7.76044E+06,   7.76044E+06
C:/temp/Job-38.odb,Step-1,Increment      1: Step Time =    1.000,"P-38-1",           224,       186.260,       57.8666,            0.,NA,NA,"",   8.21921E+06,   7.20472E+06,   7.20472E+06
C:/temp/Job-38.odb,Step-1,Increment      1: Step Time =    1.000,"P-38-1",           225,       190.163,       67.0360,            0.,NA,NA,"",   8.46559E+06,   549.641E+03,   549.641E+03
C:/temp/Job-38.odb,Step-1,Increment      1: Step Time =    1.000,"P-38-1",           226,       191.752,       71.7602,            0.,NA,NA,"",   8.44018E+06,   389.747E+03,   389.747E+03
C:/temp/Job-38.odb,Step-1,Increment      1: Step Time =    1.000,"P-38-1",           227,       194.186,       81.4241,            0.,NA,NA,"",   22.7829E+06,   4.60908E+06,   4.60908E+06
C:/temp/Job-38.odb,Step-1,Increment      1: Step Time =    1.000,"P-38-1",           228,       195.023,       86.3378,            0.,NA,NA,"",   21.2276E+06,   756.565E+03,   756.565E+03
C:/temp/Job-38.odb,Step-1,Increment      1: Step Time =    1.000,"P-38-1",           229,       195.927,       96.2622,            0.,NA,NA,"",   22.8687E+06,   1.42915E+06,   1.42915E+06
C:/temp/Job-38.odb,Step-1,Increment      1: Step Time =    1.000,"P-38-1",           230,       195.798,       106.227,            0.,NA,NA,"",   24.6099E+06,   2.34303E+06,   2.34303E+06
C:/temp/Job-38.odb,Step-1,Increment      1: Step Time =    1.000,"P-38-1",           231,       195.346,       111.191,            0.,NA,NA,"",   25.6360E+06,   3.07683E+06,   3.07683E+06
C:/temp/Job-38.odb,Step-1,Increment      1: Step Time =    1.000,"P-38-1",           232,       193.672,       121.015,            0.,NA,NA,"",   57.2734E+06,   56.7772E+06,   56.7772E+06
C:/temp/Job-38.odb,Step-1,Increment      1: Step Time =    1.000,"P-38-1",           233,       192.455,       125.848,            0.,NA,NA,"",   47.9240E+06,   48.2904E+06,   48.2904E+06
C:/temp/Job-38.odb,Step-1,Increment      1: Step Time =    1.000,"P-38-1",           234,       189.277,       135.294,            0.,NA,NA,"",   42.9333E+06,   43.6359E+06,   43.6359E+06
C:/temp/Job-38.odb,Step-1,Increment      1: Step Time =    1.000,"P-38-1",           235,       187.325,       139.880,            0.,NA,NA,"",   35.4326E+06,   35.5528E+06,   35.5528E+06
C:/temp/Job-38.odb,Step-1,Increment      1: Step Time =    1.000,"P-38-1",           236,       182.720,       148.718,            0.,NA,NA,"",   27.3013E+06,   27.8589E+06,   27.8589E+06
C:/temp/Job-38.odb,Step-1,Increment      1: Step Time =    1.000,"P-38-1",           237,       180.080,       152.946,            0.,NA,NA,"",   25.1143E+06,   25.2154E+06,   25.2154E+06
C:/temp/Job-38.odb,Step-1,Increment      1: Step Time =    1.000,"P-38-1",           238,       174.160,       160.962,            0.,NA,NA,"",   21.1445E+06,   21.4602E+06,   21.4602E+06
C:/temp/Job-38.odb,Step-1,Increment      1: Step Time =    1.000,"P-38-1",           239,       170.895,       164.729,            0.,NA,NA,"",   20.9249E+06,   21.2679E+06,   21.2679E+06
C:/temp/Job-38.odb,Step-1,Increment      1: Step Time =    1.000,"P-38-1",           240,       163.803,       171.730,            0.,NA,NA,"",   24.8174E+06,   25.2420E+06,   25.2420E+06
C:/temp/Job-38.odb,Step-1,Increment      1: Step Time =    1.000,"P-38-1",           241,       159.994,       174.945,            0.,NA,NA,"",   30.0049E+06,   30.5219E+06,   30.5219E+06
C:/temp/Job-38.odb,Step-1,Increment      1: Step Time =    1.000,"P-38-1",           242,       151.902,       180.760,            0.,NA,NA,"",   50.2002E+06,   50.7244E+06,   50.7244E+06
C:/temp/Job-38.odb,Step-1,Increment      1: Step Time =    1.000,"P-38-1",           243,       147.640,       183.345,            0.,NA,NA,"",   67.1048E+06,   67.2199E+06,   67.2199E+06
C:/temp/Job-38.odb,Step-1,Increment      1: Step Time =    1.000,"P-38-1",           244,       138.743,       187.835,            0.,NA,NA,"",   110.543E+06,   112.152E+06,   112.152E+06
C:/temp/Job-38.odb,Step-1,Increment      1: Step Time =    1.000,"P-38-1",           245,       134.132,       189.728,            0.,NA,NA,"",   149.784E+06,   152.307E+06,   152.307E+06
C:/temp/Job-38.odb,Step-1,Increment      1: Step Time =    1.000,"P-38-1",           246,       124.646,       192.782,            0.,NA,NA,"",   277.562E+06,   279.097E+06,   279.097E+06
C:/temp/Job-38.odb,Step-1,Increment      1: Step Time =    1.000,"P-38-1",           247,       119.797,       193.937,            0.,NA,NA,"",   373.574E+06,   375.143E+06,   375.143E+06
C:/temp/Job-38.odb,Step-1,Increment      1: Step Time =    1.000,"P-38-1",           248,       109.952,       195.483,            0.,NA,NA,"",   596.873E+06,   598.676E+06,   598.676E+06
C:/temp/Job-38.odb,Step-1,Increment      1: Step Time =    1.000,"P-38-1",           249,       104.983,       195.871,            0.,NA,NA,"",   669.308E+06,   671.148E+06,   671.148E+06
C:/temp/Job-38.odb,Step-1,Increment      1: Step Time =    1.000,"P-38-1",           250,          195.,            0.,            0.,NA,NA,"",   776.650E+03,   739.381E+03,   739.381E+03
C:/temp/Job-38.odb,Step-1,Increment      1: Step Time =    1.000,"P-38-1",           251,          185.,            0.,            0.,NA,NA,"",   1.93021E+06,  -1.63176E+06,  -1.63176E+06
C:/temp/Job-38.odb,Step-1,Increment      1: Step Time =    1.000,"P-38-1",           252,          175.,            0.,            0.,NA,NA,"",   3.39028E+06,  -3.38350E+06,  -3.38350E+06
C:/temp/Job-38.odb,Step-1,Increment      1: Step Time =    1.000,"P-38-1",           253,          165.,            0.,            0.,NA,NA,"",   8.56413E+06,  -8.41839E+06,  -8.41839E+06
C:/temp/Job-38.odb,Step-1,Increment      1: Step Time =    1.000,"P-38-1",           254,          155.,            0.,            0.,NA,NA,"",   14.3926E+06,  -14.8562E+06,  -14.8562E+06
C:/temp/Job-38.odb,Step-1,Increment      1: Step Time =    1.000,"P-38-1",           255,          145.,            0.,            0.,NA,NA,"",   34.3902E+06,  -29.1080E+06,  -29.1080E+06
C:/temp/Job-38.odb,Step-1,Increment      1: Step Time =    1.000,"P-38-1",           256,          135.,            0.,            0.,NA,NA,"",   39.4009E+06,  -9.61505E+06,  -9.61505E+06
C:/temp/Job-38.odb,Step-1,Increment      1: Step Time =    1.000,"P-38-1",           257,          125.,            0.,            0.,NA,NA,"",   71.4177E+06,   5.23901E+06,   5.23901E+06
C:/temp/Job-38.odb,Step-1,Increment      1: Step Time =    1.000,"P-38-1",           258,          115.,            0.,            0.,NA,NA,"",   40.3814E+06,   7.07592E+06,   7.07592E+06
C:/temp/Job-38.odb,Step-1,Increment      1: Step Time =    1.000,"P-38-1",           259,          105.,            0.,            0.,NA,NA,"",   44.4877E+06,   9.37296E+06,   9.37296E+06
C:/temp/Job-38.odb,Step-1,Increment      1: Step Time =    1.000,"P-38-1",           260,           95.,            0.,            0.,NA,NA,"",   45.3150E+06,   9.99526E+06,   9.99526E+06
C:/temp/Job-38.odb,Step-1,Increment      1: Step Time =    1.000,"P-38-1",           261,           85.,            0.,            0.,NA,NA,"",   41.3613E+06,   7.90389E+06,   7.90389E+06
C:/temp/Job-38.odb,Step-1,Increment      1: Step Time =    1.000,"P-38-1",           262,           75.,            0.,            0.,NA,NA,"",   67.2483E+06,   29.9226E+06,   29.9226E+06
C:/temp/Job-38.odb,Step-1,Increment      1: Step Time =    1.000,"P-38-1",           263,           65.,            0.,            0.,NA,NA,"",   65.6667E+06,   58.3236E+06,   58.3236E+06
C:/temp/Job-38.odb,Step-1,Increment      1: Step Time =    1.000,"P-38-1",           264,           55.,            0.,            0.,NA,NA,"",   54.6020E+06,   52.9863E+06,   52.9863E+06
C:/temp/Job-38.odb,Step-1,Increment      1: Step Time =    1.000,"P-38-1",           265,           45.,            0.,            0.,NA,NA,"",   39.6831E+06,   36.4673E+06,   36.4673E+06
C:/temp/Job-38.odb,Step-1,Increment      1: Step Time =    1.000,"P-38-1",           266,           35.,            0.,            0.,NA,NA,"",   26.9752E+06,   25.9961E+06,   25.9961E+06
C:/temp/Job-38.odb,Step-1,Increment      1: Step Time =    1.000,"P-38-1",           267,           25.,            0.,            0.,NA,NA,"",   20.7500E+06,   20.4639E+06,   20.4639E+06
C:/temp/Job-38.odb,Step-1,Increment      1: Step Time =    1.000,"P-38-1",           268,           15.,            0.,            0.,NA,NA,"",   16.7212E+06,   16.9320E+06,   16.9320E+06
C:/temp/Job-38.odb,Step-1,Increment      1: Step Time =    1.000,"P-38-1",           269,            5.,            0.,            0.,NA,NA,"",   14.3599E+06,   14.9111E+06,   14.9111E+06
C:/temp/Job-38.odb,Step-1,Increment      1: Step Time =    1.000,"P-38-1",           270,          200.,          195.,            0.,NA,NA,"",   1.71275E+06,  -500.992E+03,  -500.992E+03
C:/temp/Job-38.odb,Step-1,Increment      1: Step Time =    1.000,"P-38-1",           271,          200.,          185.,            0.,NA,NA,"",   6.39360E+06,  -5.67323E+06,  -5.67323E+06
C:/temp/Job-38.odb,Step-1,Increment      1: Step Time =    1.000,"P-38-1",           272,          200.,          175.,            0.,NA,NA,"",   12.2223E+06,  -11.4930E+06,  -11.4930E+06
C:/temp/Job-38.odb,Step-1,Increment      1: Step Time =    1.000,"P-38-1",           273,          200.,          165.,            0.,NA,NA,"",   17.3361E+06,  -16.6410E+06,  -16.6410E+06
C:/temp/Job-38.odb,Step-1,Increment      1: Step Time =    1.000,"P-38-1",           274,          200.,          155.,            0.,NA,NA,"",   21.6401E+06,  -20.9325E+06,  -20.9325E+06
C:/temp/Job-38.odb,Step-1,Increment      1: Step Time =    1.000,"P-38-1",           275,          200.,          145.,            0.,NA,NA,"",   26.3440E+06,  -25.6621E+06,  -25.6621E+06
C:/temp/Job-38.odb,Step-1,Increment      1: Step Time =    1.000,"P-38-1",           276,          200.,          135.,            0.,NA,NA,"",   33.2057E+06,  -31.5448E+06,  -31.5448E+06
C:/temp/Job-38.odb,Step-1,Increment      1: Step Time =    1.000,"P-38-1",           277,          200.,          125.,            0.,NA,NA,"",   38.6044E+06,  -32.9042E+06,  -32.9042E+06
C:/temp/Job-38.odb,Step-1,Increment      1: Step Time =    1.000,"P-38-1",           278,          200.,          115.,            0.,NA,NA,"",   19.6080E+06,   6.60428E+06,   6.60428E+06
C:/temp/Job-38.odb,Step-1,Increment      1: Step Time =    1.000,"P-38-1",           279,          200.,          105.,            0.,NA,NA,"",   24.6099E+06,   2.34303E+06,   2.34303E+06
C:/temp/Job-38.odb,Step-1,Increment      1: Step Time =    1.000,"P-38-1",           280,          200.,           95.,            0.,NA,NA,"",   22.8687E+06,   1.42915E+06,   1.42915E+06
C:/temp/Job-38.odb,Step-1,Increment      1: Step Time =    1.000,"P-38-1",           281,          200.,           85.,            0.,NA,NA,"",   21.2276E+06,   756.565E+03,   756.565E+03
C:/temp/Job-38.odb,Step-1,Increment      1: Step Time =    1.000,"P-38-1",           282,          200.,           75.,            0.,NA,NA,"",   22.4113E+06,   19.4820E+06,   19.4820E+06
C:/temp/Job-38.odb,Step-1,Increment      1: Step Time =    1.000,"P-38-1",           283,          200.,           65.,            0.,NA,NA,"",   14.7881E+06,   10.6853E+06,   10.6853E+06
C:/temp/Job-38.odb,Step-1,Increment      1: Step Time =    1.000,"P-38-1",           284,          200.,           55.,            0.,NA,NA,"",   6.69707E+06,   975.813E+03,   975.813E+03
C:/temp/Job-38.odb,Step-1,Increment      1: Step Time =    1.000,"P-38-1",           285,          200.,           45.,            0.,NA,NA,"",   4.84330E+06,  -3.83229E+06,  -3.83229E+06
C:/temp/Job-38.odb,Step-1,Increment      1: Step Time =    1.000,"P-38-1",           286,          200.,           35.,            0.,NA,NA,"",   5.20146E+06,  -4.24015E+06,  -4.24015E+06
C:/temp/Job-38.odb,Step-1,Increment      1: Step Time =    1.000,"P-38-1",           287,          200.,           25.,            0.,NA,NA,"",   4.29153E+06,  -3.73312E+06,  -3.73312E+06
C:/temp/Job-38.odb,Step-1,Increment      1: Step Time =    1.000,"P-38-1",           288,          200.,           15.,            0.,NA,NA,"",   2.49306E+06,  -1.89667E+06,  -1.89667E+06
C:/temp/Job-38.odb,Step-1,Increment      1: Step Time =    1.000,"P-38-1",           289,          200.,            5.,            0.,NA,NA,"",   1.24054E+06,   977.842E+03,   977.842E+03
C:/temp/Job-38.odb,Step-1,Increment      1: Step Time =    1.000,"P-38-1",           290,            5.,          200.,            0.,NA,NA,"",   9.98295E+06,   10.1991E+06,   10.1991E+06
C:/temp/Job-38.odb,Step-1,Increment      1: Step Time =    1.000,"P-38-1",           291,           15.,          200.,            0.,NA,NA,"",   9.97858E+06,   10.0076E+06,   10.0076E+06
C:/temp/Job-38.odb,Step-1,Increment      1: Step Time =    1.000,"P-38-1",           292,           25.,          200.,            0.,NA,NA,"",   10.4168E+06,   10.4024E+06,   10.4024E+06
C:/temp/Job-38.odb,Step-1,Increment      1: Step Time =    1.000,"P-38-1",           293,           35.,          200.,            0.,NA,NA,"",   9.99380E+06,   9.96899E+06,   9.96899E+06
C:/temp/Job-38.odb,Step-1,Increment      1: Step Time =    1.000,"P-38-1",           294,           45.,          200.,            0.,NA,NA,"",   7.58791E+06,   7.06288E+06,   7.06288E+06
C:/temp/Job-38.odb,Step-1,Increment      1: Step Time =    1.000,"P-38-1",           295,           55.,          200.,            0.,NA,NA,"",   8.27951E+06,  -4.43026E+06,  -4.43026E+06
C:/temp/Job-38.odb,Step-1,Increment      1: Step Time =    1.000,"P-38-1",           296,           65.,          200.,            0.,NA,NA,"",   35.0463E+06,  -34.3933E+06,  -34.3933E+06
C:/temp/Job-38.odb,Step-1,Increment      1: Step Time =    1.000,"P-38-1",           297,           75.,          200.,            0.,NA,NA,"",   108.440E+06,  -107.246E+06,  -107.246E+06
C:/temp/Job-38.odb,Step-1,Increment      1: Step Time =    1.000,"P-38-1",           298,           85.,          200.,            0.,NA,NA,"",   279.163E+06,  -277.755E+06,  -277.755E+06
C:/temp/Job-38.odb,Step-1,Increment      1: Step Time =    1.000,"P-38-1",           299,           95.,          200.,            0.,NA,NA,"",   513.690E+06,  -511.965E+06,  -511.965E+06
C:/temp/Job-38.odb,Step-1,Increment      1: Step Time =    1.000,"P-38-1",           300,          105.,          200.,            0.,NA,NA,"",   586.704E+06,  -584.848E+06,  -584.848E+06
C:/temp/Job-38.odb,Step-1,Increment      1: Step Time =    1.000,"P-38-1",           301,          115.,          200.,            0.,NA,NA,"",   422.875E+06,  -421.257E+06,  -421.257E+06
C:/temp/Job-38.odb,Step-1,Increment      1: Step Time =    1.000,"P-38-1",           302,          125.,          200.,            0.,NA,NA,"",   232.689E+06,  -231.258E+06,  -231.258E+06
C:/temp/Job-38.odb,Step-1,Increment      1: Step Time =    1.000,"P-38-1",           303,          135.,          200.,            0.,NA,NA,"",   115.324E+06,  -116.797E+06,  -116.797E+06
C:/temp/Job-38.odb,Step-1,Increment      1: Step Time =    1.000,"P-38-1",           304,          145.,          200.,            0.,NA,NA,"",   66.8604E+06,  -66.5848E+06,  -66.5848E+06
C:/temp/Job-38.odb,Step-1,Increment      1: Step Time =    1.000,"P-38-1",           305,          155.,          200.,            0.,NA,NA,"",   41.3099E+06,  -41.1522E+06,  -41.1522E+06
C:/temp/Job-38.odb,Step-1,Increment      1: Step Time =    1.000,"P-38-1",           306,          165.,          200.,            0.,NA,NA,"",   24.5197E+06,  -24.3767E+06,  -24.3767E+06
C:/temp/Job-38.odb,Step-1,Increment      1: Step Time =    1.000,"P-38-1",           307,          175.,          200.,            0.,NA,NA,"",   13.4546E+06,  -13.3597E+06,  -13.3597E+06
C:/temp/Job-38.odb,Step-1,Increment      1: Step Time =    1.000,"P-38-1",           308,          185.,          200.,            0.,NA,NA,"",   5.48607E+06,  -5.26183E+06,  -5.26183E+06
C:/temp/Job-38.odb,Step-1,Increment      1: Step Time =    1.000,"P-38-1",           309,          195.,          200.,            0.,NA,NA,"",   1.32296E+06,  -267.218E+03,  -267.218E+03
C:/temp/Job-38.odb,Step-1,Increment      1: Step Time =    1.000,"P-38-1",           310,            0.,            5.,            0.,NA,NA,"",   12.1344E+06,   13.1320E+06,   13.1320E+06
C:/temp/Job-38.odb,Step-1,Increment      1: Step Time =    1.000,"P-38-1",           311,            0.,           15.,            0.,NA,NA,"",   6.39398E+06,   6.70054E+06,   6.70054E+06
C:/temp/Job-38.odb,Step-1,Increment      1: Step Time =    1.000,"P-38-1",           312,            0.,           25.,            0.,NA,NA,"",   2.14242E+06,  -521.749E+03,  -521.749E+03
C:/temp/Job-38.odb,Step-1,Increment      1: Step Time =    1.000,"P-38-1",           313,            0.,           35.,            0.,NA,NA,"",   3.57020E+06,  -3.57395E+06,  -3.57395E+06
C:/temp/Job-38.odb,Step-1,Increment      1: Step Time =    1.000,"P-38-1",           314,            0.,           45.,            0.,NA,NA,"",   4.34544E+06,  -4.27190E+06,  -4.27190E+06
C:/temp/Job-38.odb,Step-1,Increment      1: Step Time =    1.000,"P-38-1",           315,            0.,           55.,            0.,NA,NA,"",   3.29055E+06,  -3.14663E+06,  -3.14663E+06
C:/temp/Job-38.odb,Step-1,Increment      1: Step Time =    1.000,"P-38-1",           316,            0.,           65.,            0.,NA,NA,"",   1.71719E+06,  -1.64274E+06,  -1.64274E+06
C:/temp/Job-38.odb,Step-1,Increment      1: Step Time =    1.000,"P-38-1",           317,            0.,           75.,            0.,NA,NA,"",   682.105E+03,  -618.937E+03,  -618.937E+03
C:/temp/Job-38.odb,Step-1,Increment      1: Step Time =    1.000,"P-38-1",           318,            0.,           85.,            0.,NA,NA,"",   166.160E+03,  -148.819E+03,  -148.819E+03
C:/temp/Job-38.odb,Step-1,Increment      1: Step Time =    1.000,"P-38-1",           319,            0.,           95.,            0.,NA,NA,"",   17.0988E+03,  -14.9085E+03,  -14.9085E+03
C:/temp/Job-38.odb,Step-1,Increment      1: Step Time =    1.000,"P-38-1",           320,            0.,          105.,            0.,NA,NA,"",   10.5075E+03,  -10.3913E+03,  -10.3913E+03
C:/temp/Job-38.odb,Step-1,Increment      1: Step Time =    1.000,"P-38-1",           321,            0.,          115.,            0.,NA,NA,"",   113.426E+03,  -113.962E+03,  -113.962E+03
C:/temp/Job-38.odb,Step-1,Increment      1: Step Time =    1.000,"P-38-1",           322,            0.,          125.,            0.,NA,NA,"",   408.159E+03,  -375.160E+03,  -375.160E+03
C:/temp/Job-38.odb,Step-1,Increment      1: Step Time =    1.000,"P-38-1",           323,            0.,          135.,            0.,NA,NA,"",   933.333E+03,  -865.999E+03,  -865.999E+03
C:/temp/Job-38.odb,Step-1,Increment      1: Step Time =    1.000,"P-38-1",           324,            0.,          145.,            0.,NA,NA,"",   1.68516E+06,  -1.62530E+06,  -1.62530E+06
C:/temp/Job-38.odb,Step-1,Increment      1: Step Time =    1.000,"P-38-1",           325,            0.,          155.,            0.,NA,NA,"",   1.87704E+06,  -1.86158E+06,  -1.86158E+06
C:/temp/Job-38.odb,Step-1,Increment      1: Step Time =    1.000,"P-38-1",           326,            0.,          165.,            0.,NA,NA,"",   1.03522E+06,  -990.665E+03,  -990.665E+03
C:/temp/Job-38.odb,Step-1,Increment      1: Step Time =    1.000,"P-38-1",           327,            0.,          175.,            0.,NA,NA,"",   1.09810E+06,   1.25313E+06,   1.25313E+06
C:/temp/Job-38.odb,Step-1,Increment      1: Step Time =    1.000,"P-38-1",           328,            0.,          185.,            0.,NA,NA,"",   4.25339E+06,   4.72565E+06,   4.72565E+06
C:/temp/Job-38.odb,Step-1,Increment      1: Step Time =    1.000,"P-38-1",           329,            0.,          195.,            0.,NA,NA,"",   8.48293E+06,   9.08082E+06,   9.08082E+06
C:/temp/Job-38.odb,Step-1,Increment      1: Step Time =    1.000,"P-38-1",           330,       168.801,       26.6711,            0.,NA,NA,"",   10.1423E+06,   9.82600E+06,   9.82600E+06
C:/temp/Job-38.odb,Step-1,Increment      1: Step Time =    1.000,"P-38-1",           331,       35.3853,       22.8492,            0.,NA,NA,"",   15.4484E+06,  -14.6821E+06,  -14.6821E+06
C:/temp/Job-38.odb,Step-1,Increment      1: Step Time =    1.000,"P-38-1",           332,       153.978,       184.065,            0.,NA,NA,"",   41.3293E+06,   41.7021E+06,   41.7021E+06
C:/temp/Job-38.odb,Step-1,Increment      1: Step Time =    1.000,"P-38-1",           333,       194.673,       127.155,            0.,NA,NA,"",   33.4426E+06,   31.6764E+06,   31.6764E+06
C:/temp/Job-38.odb,Step-1,Increment      1: Step Time =    1.000,"P-38-1",           334,       48.9175,       14.0887,            0.,NA,NA,"",   28.9892E+06,  -18.9347E+06,  -18.9347E+06
C:/temp/Job-38.odb,Step-1,Increment      1: Step Time =    1.000,"P-38-1",           335,       196.837,       71.7182,            0.,NA,NA,"",   17.8089E+06,   651.046E+03,   651.046E+03
C:/temp/Job-38.odb,Step-1,Increment      1: Step Time =    1.000,"P-38-1",           336,       179.179,       38.0245,            0.,NA,NA,"",   7.39907E+06,   7.41245E+06,   7.41245E+06
C:/temp/Job-38.odb,Step-1,Increment      1: Step Time =    1.000,"P-38-1",           337,       185.784,       46.6258,            0.,NA,NA,"",   6.66770E+06,   6.72949E+06,   6.72949E+06
C:/temp/Job-38.odb,Step-1,Increment      1: Step Time =    1.000,"P-38-1",           338,       125.491,       3.38992,            0.,NA,NA,"",   79.7279E+06,   39.4965E+06,   39.4965E+06
C:/temp/Job-38.odb,Step-1,Increment      1: Step Time =    1.000,"P-38-1",           339,       193.018,       131.715,            0.,NA,NA,"",   34.3341E+06,   32.3512E+06,   32.3512E+06
C:/temp/Job-38.odb,Step-1,Increment      1: Step Time =    1.000,"P-38-1",           340,       184.080,       155.958,            0.,NA,NA,"",   17.7489E+06,   18.0967E+06,   18.0967E+06
C:/temp/Job-38.odb,Step-1,Increment      1: Step Time =    1.000,"P-38-1",           341,       139.706,       7.61956,            0.,NA,NA,"",   45.7166E+06,   21.5463E+06,   21.5463E+06
C:/temp/Job-38.odb,Step-1,Increment      1: Step Time =    1.000,"P-38-1",           342,       166.994,       174.653,            0.,NA,NA,"",   20.8733E+06,   21.5058E+06,   21.5058E+06
C:/temp/Job-38.odb,Step-1,Increment      1: Step Time =    1.000,"P-38-1",           343,       125.077,       196.255,            0.,NA,NA,"",   255.126E+06,   23.9198E+06,   23.9198E+06
C:/temp/Job-38.odb,Step-1,Increment      1: Step Time =    1.000,"P-38-1",           344,       172.287,       30.5776,            0.,NA,NA,"",   8.24636E+06,   8.11967E+06,   8.11967E+06
C:/temp/Job-38.odb,Step-1,Increment      1: Step Time =    1.000,"P-38-1",           345,       180.767,       159.998,            0.,NA,NA,"",   16.9648E+06,   17.5607E+06,   17.5607E+06
C:/temp/Job-38.odb,Step-1,Increment      1: Step Time =    1.000,"P-38-1",           346,       156.684,       16.6010,            0.,NA,NA,"",   18.1335E+06,   17.4919E+06,   17.4919E+06
C:/temp/Job-38.odb,Step-1,Increment      1: Step Time =    1.000,"P-38-1",           347,       163.261,       178.271,            0.,NA,NA,"",   24.4507E+06,   24.9962E+06,   24.9962E+06
C:/temp/Job-38.odb,Step-1,Increment      1: Step Time =    1.000,"P-38-1",           348,       129.335,       4.05306,            0.,NA,NA,"",   77.7548E+06,   43.4560E+06,   43.4560E+06
C:/temp/Job-38.odb,Step-1,Increment      1: Step Time =    1.000,"P-38-1",           349,       177.426,       163.918,            0.,NA,NA,"",   16.9945E+06,   17.6159E+06,   17.6159E+06
C:/temp/Job-38.odb,Step-1,Increment      1: Step Time =    1.000,"P-38-1",           350,       182.480,       42.2051,            0.,NA,NA,"",   6.88389E+06,   6.99545E+06,   6.99545E+06
C:/temp/Job-38.odb,Step-1,Increment      1: Step Time =    1.000,"P-38-1",           351,       197.286,       75.5074,            0.,NA,NA,"",   22.9275E+06,   4.94526E+06,   4.94526E+06
C:/temp/Job-38.odb,Step-1,Increment      1: Step Time =    1.000,"P-38-1",           352,       160.797,       19.8172,            0.,NA,NA,"",   15.7204E+06,   14.6003E+06,   14.6003E+06
C:/temp/Job-38.odb,Step-1,Increment      1: Step Time =    1.000,"P-38-1",           353,       62.8849,       6.14855,            0.,NA,NA,"",   51.0447E+06,  -2.47989E+06,  -2.47989E+06
C:/temp/Job-38.odb,Step-1,Increment      1: Step Time =    1.000,"P-38-1",           354,       68.3090,       4.95488,            0.,NA,NA,"",   82.4682E+06,   47.3859E+06,   47.3859E+06
C:/temp/Job-38.odb,Step-1,Increment      1: Step Time =    1.000,"P-38-1",           355,       191.927,       135.652,            0.,NA,NA,"",   29.1463E+06,   29.0511E+06,   29.0511E+06
C:/temp/Job-38.odb,Step-1,Increment      1: Step Time =    1.000,"P-38-1",           356,       135.037,       4.94829,            0.,NA,NA,"",   50.6029E+06,   9.35666E+06,   9.35666E+06
C:/temp/Job-38.odb,Step-1,Increment      1: Step Time =    1.000,"P-38-1",           357,       174.066,       167.668,            0.,NA,NA,"",   17.1870E+06,   17.8177E+06,   17.8177E+06
C:/temp/Job-38.odb,Step-1,Increment      1: Step Time =    1.000,"P-38-1",           358,       39.6823,       19.4250,            0.,NA,NA,"",   18.0858E+06,  -17.6009E+06,  -17.6009E+06
C:/temp/Job-38.odb,Step-1,Increment      1: Step Time =    1.000,"P-38-1",           359,       164.882,       23.1596,            0.,NA,NA,"",   12.9079E+06,   12.1823E+06,   12.1823E+06
C:/temp/Job-38.odb,Step-1,Increment      1: Step Time =    1.000,"P-38-1",           360,       159.312,       182.343,            0.,NA,NA,"",   28.0051E+06,   28.2629E+06,   28.2629E+06
C:/temp/Job-38.odb,Step-1,Increment      1: Step Time =    1.000,"P-38-1",           361,       197.202,       66.4948,            0.,NA,NA,"",   13.7768E+06,   3.07774E+06,   3.07774E+06
C:/temp/Job-38.odb,Step-1,Increment      1: Step Time =    1.000,"P-38-1",           362,       57.9810,       10.0155,            0.,NA,NA,"",   43.0399E+06,  -18.3623E+06,  -18.3623E+06
C:/temp/Job-38.odb,Step-1,Increment      1: Step Time =    1.000,"P-38-1",           363,       140.301,       190.224,            0.,NA,NA,"",   93.1192E+06,   91.7344E+06,   91.7344E+06
C:/temp/Job-38.odb,Step-1,Increment      1: Step Time =    1.000,"P-38-1",           364,       191.221,       140.658,            0.,NA,NA,"",   22.3041E+06,   22.5590E+06,   22.5590E+06
C:/temp/Job-38.odb,Step-1,Increment      1: Step Time =    1.000,"P-38-1",           365,       170.578,       171.255,            0.,NA,NA,"",   18.4867E+06,   19.1184E+06,   19.1184E+06
C:/temp/Job-38.odb,Step-1,Increment      1: Step Time =    1.000,"P-38-1",           366,       175.772,       34.1285,            0.,NA,NA,"",   7.98323E+06,   8.29912E+06,   8.29912E+06
C:/temp/Job-38.odb,Step-1,Increment      1: Step Time =    1.000,"P-38-1",           367,       130.202,       195.444,            0.,NA,NA,"",   184.693E+06,   20.5771E+06,   20.5771E+06
C:/temp/Job-38.odb,Step-1,Increment      1: Step Time =    1.000,"P-38-1",           368,       44.2183,       16.3046,            0.,NA,NA,"",   21.5845E+06,  -14.0981E+06,  -14.0981E+06
C:/temp/Job-38.odb,Step-1,Increment      1: Step Time =    1.000,"P-38-1",           369,       149.221,       187.279,            0.,NA,NA,"",   48.5046E+06,   48.0438E+06,   48.0438E+06
C:/temp/Job-38.odb,Step-1,Increment      1: Step Time =    1.000,"P-38-1",           370,       4.68904,       133.939,            0.,NA,NA,"",   878.816E+03,  -847.347E+03,  -847.347E+03
C:/temp/Job-38.odb,Step-1,Increment      1: Step Time =    1.000,"P-38-1",           371,       24.4909,       34.2278,            0.,NA,NA,"",   10.3176E+06,  -10.2683E+06,  -10.2683E+06
C:/temp/Job-38.odb,Step-1,Increment      1: Step Time =    1.000,"P-38-1",           372,       9.14718,       142.034,            0.,NA,NA,"",   1.47991E+06,  -1.48447E+06,  -1.48447E+06
C:/temp/Job-38.odb,Step-1,Increment      1: Step Time =    1.000,"P-38-1",           373,       69.2931,       195.379,            0.,NA,NA,"",   70.3645E+06,   18.7971E+06,   18.7971E+06
C:/temp/Job-38.odb,Step-1,Increment      1: Step Time =    1.000,"P-38-1",           374,       45.4706,       185.420,            0.,NA,NA,"",   6.31545E+06,   4.79831E+06,   4.79831E+06
C:/temp/Job-38.odb,Step-1,Increment      1: Step Time =    1.000,"P-38-1",           375,       32.6248,       175.041,            0.,NA,NA,"",   3.87648E+06,  -3.65693E+06,  -3.65693E+06
C:/temp/Job-38.odb,Step-1,Increment      1: Step Time =    1.000,"P-38-1",           376,       29.1164,       171.500,            0.,NA,NA,"",   4.15640E+06,  -4.10414E+06,  -4.10414E+06
C:/temp/Job-38.odb,Step-1,Increment      1: Step Time =    1.000,"P-38-1",           377,       19.2677,       160.098,            0.,NA,NA,"",   3.69578E+06,  -3.67890E+06,  -3.67890E+06
C:/temp/Job-38.odb,Step-1,Increment      1: Step Time =    1.000,"P-38-1",           378,       25.7118,       167.897,            0.,NA,NA,"",   4.22536E+06,  -4.21591E+06,  -4.21591E+06
C:/temp/Job-38.odb,Step-1,Increment      1: Step Time =    1.000,"P-38-1",           379,       4.14900,       70.5363,            0.,NA,NA,"",   1.07537E+06,  -1.01366E+06,  -1.01366E+06
C:/temp/Job-38.odb,Step-1,Increment      1: Step Time =    1.000,"P-38-1",           380,       39.9671,       183.482,            0.,NA,NA,"",   4.96531E+06,   2.74131E+06,   2.74131E+06
C:/temp/Job-38.odb,Step-1,Increment      1: Step Time =    1.000,"P-38-1",           381,       60.2386,       191.628,            0.,NA,NA,"",   26.5592E+06,   24.5186E+06,   24.5186E+06
C:/temp/Job-38.odb,Step-1,Increment      1: Step Time =    1.000,"P-38-1",           382,       65.0055,       192.920,            0.,NA,NA,"",   47.0256E+06,   42.3043E+06,   42.3043E+06
C:/temp/Job-38.odb,Step-1,Increment      1: Step Time =    1.000,"P-38-1",           383,       17.8517,       42.1035,            0.,NA,NA,"",   6.92342E+06,  -6.82359E+06,  -6.82359E+06
C:/temp/Job-38.odb,Step-1,Increment      1: Step Time =    1.000,"P-38-1",           384,       16.1164,       155.892,            0.,NA,NA,"",   3.13074E+06,  -3.11263E+06,  -3.11263E+06
C:/temp/Job-38.odb,Step-1,Increment      1: Step Time =    1.000,"P-38-1",           385,       14.9475,       46.3382,            0.,NA,NA,"",   5.37463E+06,  -5.31335E+06,  -5.31335E+06
C:/temp/Job-38.odb,Step-1,Increment      1: Step Time =    1.000,"P-38-1",           386,       6.07234,       59.5897,            0.,NA,NA,"",   2.33737E+06,  -2.29520E+06,  -2.29520E+06
C:/temp/Job-38.odb,Step-1,Increment      1: Step Time =    1.000,"P-38-1",           387,       9.77247,       55.0624,            0.,NA,NA,"",   3.08583E+06,  -3.04645E+06,  -3.04645E+06
C:/temp/Job-38.odb,Step-1,Increment      1: Step Time =    1.000,"P-38-1",           388,       5.02590,       65.4556,            0.,NA,NA,"",   1.58820E+06,  -1.56061E+06,  -1.56061E+06
C:/temp/Job-38.odb,Step-1,Increment      1: Step Time =    1.000,"P-38-1",           389,       12.7149,       151.516,            0.,NA,NA,"",   2.45104E+06,  -2.44664E+06,  -2.44664E+06
C:/temp/Job-38.odb,Step-1,Increment      1: Step Time =    1.000,"P-38-1",           390,       3.31030,       75.3393,            0.,NA,NA,"",   661.525E+03,  -627.288E+03,  -627.288E+03
C:/temp/Job-38.odb,Step-1,Increment      1: Step Time =    1.000,"P-38-1",           391,       28.0335,       30.4701,            0.,NA,NA,"",   12.3044E+06,  -12.1053E+06,  -12.1053E+06
C:/temp/Job-38.odb,Step-1,Increment      1: Step Time =    1.000,"P-38-1",           392,       3.87852,       128.629,            0.,NA,NA,"",   571.264E+03,  -542.972E+03,  -542.972E+03
C:/temp/Job-38.odb,Step-1,Increment      1: Step Time =    1.000,"P-38-1",           393,       21.0571,       38.0467,            0.,NA,NA,"",   8.74293E+06,  -8.60346E+06,  -8.60346E+06
C:/temp/Job-38.odb,Step-1,Increment      1: Step Time =    1.000,"P-38-1",           394,       31.6333,       26.6749,            0.,NA,NA,"",   13.6484E+06,  -13.8043E+06,  -13.8043E+06
C:/temp/Job-38.odb,Step-1,Increment      1: Step Time =    1.000,"P-38-1",           395,       36.1985,       178.801,            0.,NA,NA,"",   3.72392E+06,  -1.70467E+06,  -1.70467E+06
C:/temp/Job-38.odb,Step-1,Increment      1: Step Time =    1.000,"P-38-1",           396,       22.4313,       164.100,            0.,NA,NA,"",   4.06703E+06,  -4.06138E+06,  -4.06138E+06
C:/temp/Job-38.odb,Step-1,Increment      1: Step Time =    1.000,"P-38-1",           397,       7.23915,       137.709,            0.,NA,NA,"",   1.12022E+06,  -1.11160E+06,  -1.11160E+06
C:/temp/Job-38.odb,Step-1,Increment      1: Step Time =    1.000,"P-38-1",           398,       195.031,       195.060,            0.,NA,NA,"",   2.39638E+06,  -1.46563E+06,  -1.46563E+06
C:/temp/Job-38.odb,Step-1,Increment      1: Step Time =    1.000,"P-38-1",           399,       194.966,       185.117,            0.,NA,NA,"",   7.13972E+06,  -5.85458E+06,  -5.85458E+06
C:/temp/Job-38.odb,Step-1,Increment      1: Step Time =    1.000,"P-38-1",           400,       194.878,       175.242,            0.,NA,NA,"",   10.8737E+06,  -9.63122E+06,  -9.63122E+06
C:/temp/Job-38.odb,Step-1,Increment      1: Step Time =    1.000,"P-38-1",           401,       194.823,       165.098,            0.,NA,NA,"",   12.4813E+06,  -11.5922E+06,  -11.5922E+06
C:/temp/Job-38.odb,Step-1,Increment      1: Step Time =    1.000,"P-38-1",           402,       195.286,       154.868,            0.,NA,NA,"",   14.6056E+06,  -13.8398E+06,  -13.8398E+06
C:/temp/Job-38.odb,Step-1,Increment      1: Step Time =    1.000,"P-38-1",           403,       54.8718,       195.137,            0.,NA,NA,"",   11.6653E+06,   3.77181E+06,   3.77181E+06
C:/temp/Job-38.odb,Step-1,Increment      1: Step Time =    1.000,"P-38-1",           404,       5.47695,       194.453,            0.,NA,NA,"",   8.58700E+06,   8.91595E+06,   8.91595E+06
C:/temp/Job-38.odb,Step-1,Increment      1: Step Time =    1.000,"P-38-1",           405,       4.94109,       184.149,            0.,NA,NA,"",   4.12561E+06,   4.52530E+06,   4.52530E+06
C:/temp/Job-38.odb,Step-1,Increment      1: Step Time =    1.000,"P-38-1",           406,       35.1605,       195.196,            0.,NA,NA,"",   8.97035E+06,   8.78699E+06,   8.78699E+06
C:/temp/Job-38.odb,Step-1,Increment      1: Step Time =    1.000,"P-38-1",           407,       25.3134,       195.381,            0.,NA,NA,"",   9.27626E+06,   9.21689E+06,   9.21689E+06
C:/temp/Job-38.odb,Step-1,Increment      1: Step Time =    1.000,"P-38-1",           408,       195.119,       4.94505,            0.,NA,NA,"",   1.15769E+06,   906.236E+03,   906.236E+03
C:/temp/Job-38.odb,Step-1,Increment      1: Step Time =    1.000,"P-38-1",           409,       185.149,       5.17583,            0.,NA,NA,"",   2.19780E+06,  -827.925E+03,  -827.925E+03
C:/temp/Job-38.odb,Step-1,Increment      1: Step Time =    1.000,"P-38-1",           410,       175.030,       5.08898,            0.,NA,NA,"",   3.70927E+06,  -1.70603E+06,  -1.70603E+06
C:/temp/Job-38.odb,Step-1,Increment      1: Step Time =    1.000,"P-38-1",           411,       164.990,       5.21089,            0.,NA,NA,"",   8.09042E+06,  -4.35996E+06,  -4.35996E+06
C:/temp/Job-38.odb,Step-1,Increment      1: Step Time =    1.000,"P-38-1",           412,       143.129,       4.11451,            0.,NA,NA,"",   38.4100E+06,  -17.5640E+06,  -17.5640E+06
C:/temp/Job-38.odb,Step-1,Increment      1: Step Time =    1.000,"P-38-1",           413,       154.589,       5.29665,            0.,NA,NA,"",   20.4157E+06,  -3.98713E+06,  -3.98713E+06
C:/temp/Job-38.odb,Step-1,Increment      1: Step Time =    1.000,"P-38-1",           414,       4.88281,       4.85886,            0.,NA,NA,"",   12.8620E+06,   13.3708E+06,   13.3708E+06
C:/temp/Job-38.odb,Step-1,Increment      1: Step Time =    1.000,"P-38-1",           415,       4.56151,       174.582,            0.,NA,NA,"",   1.07507E+06,   1.21685E+06,   1.21685E+06
C:/temp/Job-38.odb,Step-1,Increment      1: Step Time =    1.000,"P-38-1",           416,       44.9582,       194.881,            0.,NA,NA,"",   8.46695E+06,   7.61290E+06,   7.61290E+06
C:/temp/Job-38.odb,Step-1,Increment      1: Step Time =    1.000,"P-38-1",           417,       14.6808,       4.68615,            0.,NA,NA,"",   14.7746E+06,   14.8300E+06,   14.8300E+06
C:/temp/Job-38.odb,Step-1,Increment      1: Step Time =    1.000,"P-38-1",           418,       24.6486,       5.03149,            0.,NA,NA,"",   18.3338E+06,   17.8571E+06,   17.8571E+06
C:/temp/Job-38.odb,Step-1,Increment      1: Step Time =    1.000,"P-38-1",           419,       34.5717,       4.42648,            0.,NA,NA,"",   22.2529E+06,   21.9695E+06,   21.9695E+06
C:/temp/Job-38.odb,Step-1,Increment      1: Step Time =    1.000,"P-38-1",           420,       43.8990,       5.01800,            0.,NA,NA,"",   27.2367E+06,   24.0137E+06,   24.0137E+06
C:/temp/Job-38.odb,Step-1,Increment      1: Step Time =    1.000,"P-38-1",           421,       195.323,       14.7839,            0.,NA,NA,"",   2.90043E+06,  -1.15080E+06,  -1.15080E+06
C:/temp/Job-38.odb,Step-1,Increment      1: Step Time =    1.000,"P-38-1",           422,       194.838,       24.7701,            0.,NA,NA,"",   4.45811E+06,  -1.77809E+06,  -1.77809E+06
C:/temp/Job-38.odb,Step-1,Increment      1: Step Time =    1.000,"P-38-1",           423,       195.297,       34.6297,            0.,NA,NA,"",    3.9734E+06,  -1.81520E+06,  -1.81520E+06
C:/temp/Job-38.odb,Step-1,Increment      1: Step Time =    1.000,"P-38-1",           424,       195.917,       45.4118,            0.,NA,NA,"",   4.94971E+06,  -458.608E+03,  -458.608E+03
C:/temp/Job-38.odb,Step-1,Increment      1: Step Time =    1.000,"P-38-1",           425,       195.331,       54.2627,            0.,NA,NA,"",   5.36664E+06,   1.70492E+06,   1.70492E+06
C:/temp/Job-38.odb,Step-1,Increment      1: Step Time =    1.000,"P-38-1",           426,       195.466,       145.373,            0.,NA,NA,"",   14.8055E+06,  -13.0963E+06,  -13.0963E+06
C:/temp/Job-38.odb,Step-1,Increment      1: Step Time =    1.000,"P-38-1",           427,       185.091,       195.189,            0.,NA,NA,"",   6.58800E+06,  -5.66678E+06,  -5.66678E+06
C:/temp/Job-38.odb,Step-1,Increment      1: Step Time =    1.000,"P-38-1",           428,       175.209,       195.146,            0.,NA,NA,"",   12.0667E+06,  -11.2551E+06,  -11.2551E+06
C:/temp/Job-38.odb,Step-1,Increment      1: Step Time =    1.000,"P-38-1",           429,       165.163,       195.547,            0.,NA,NA,"",   20.0423E+06,  -19.2580E+06,  -19.2580E+06
C:/temp/Job-38.odb,Step-1,Increment      1: Step Time =    1.000,"P-38-1",           430,       155.596,       196.351,            0.,NA,NA,"",   31.5291E+06,  -30.9368E+06,  -30.9368E+06
C:/temp/Job-38.odb,Step-1,Increment      1: Step Time =    1.000,"P-38-1",           431,       146.071,       196.110,            0.,NA,NA,"",    47.758E+06,  -45.6253E+06,  -45.6253E+06
C:/temp/Job-38.odb,Step-1,Increment      1: Step Time =    1.000,"P-38-1",           432,       3.74034,       164.989,            0.,NA,NA,"",   1.25701E+06,  -1.12638E+06,  -1.12638E+06
C:/temp/Job-38.odb,Step-1,Increment      1: Step Time =    1.000,"P-38-1",           433,       4.37090,       155.409,            0.,NA,NA,"",   2.00620E+06,  -1.96825E+06,  -1.96825E+06
C:/temp/Job-38.odb,Step-1,Increment      1: Step Time =    1.000,"P-38-1",           434,       5.05505,       144.838,            0.,NA,NA,"",   1.66481E+06,  -1.63588E+06,  -1.63588E+06
C:/temp/Job-38.odb,Step-1,Increment      1: Step Time =    1.000,"P-38-1",           435,       3.75218,       54.4059,            0.,NA,NA,"",   3.24272E+06,  -2.94986E+06,  -2.94986E+06
C:/temp/Job-38.odb,Step-1,Increment      1: Step Time =    1.000,"P-38-1",           436,       4.59586,       45.7205,            0.,NA,NA,"",   4.29670E+06,  -4.22952E+06,  -4.22952E+06
C:/temp/Job-38.odb,Step-1,Increment      1: Step Time =    1.000,"P-38-1",           437,       4.71306,       34.5703,            0.,NA,NA,"",   4.12464E+06,  -3.76515E+06,  -3.76515E+06
C:/temp/Job-38.odb,Step-1,Increment      1: Step Time =    1.000,"P-38-1",           438,       4.80052,       24.7230,            0.,NA,NA,"",   2.73395E+06,  -104.123E+03,  -104.123E+03
C:/temp/Job-38.odb,Step-1,Increment      1: Step Time =    1.000,"P-38-1",           439,       4.86098,       14.7620,            0.,NA,NA,"",   6.20410E+06,   6.55759E+06,   6.55759E+06
C:/temp/Job-38.odb,Step-1,Increment      1: Step Time =    1.000,"P-38-1",           440,       15.5239,       194.640,            0.,NA,NA,"",   8.81014E+06,   8.83255E+06,   8.83255E+06
C:/temp/Job-38.odb,Step-1,Increment      1: Step Time =    1.000,"P-38-1",           441,       190.184,       4.98945,            0.,NA,NA,"",   1.56313E+06,  -434.067E+03,  -434.067E+03
C:/temp/Job-38.odb,Step-1,Increment      1: Step Time =    1.000,"P-38-1",           442,       180.108,       5.35960,            0.,NA,NA,"",   2.87631E+06,  -1.47291E+06,  -1.47291E+06
C:/temp/Job-38.odb,Step-1,Increment      1: Step Time =    1.000,"P-38-1",           443,       170.027,       5.02203,            0.,NA,NA,"",   5.68097E+06,  -3.86819E+06,  -3.86819E+06
C:/temp/Job-38.odb,Step-1,Increment      1: Step Time =    1.000,"P-38-1",           444,       159.868,       5.53559,            0.,NA,NA,"",   13.4852E+06,  -8.39682E+06,  -8.39682E+06
C:/temp/Job-38.odb,Step-1,Increment      1: Step Time =    1.000,"P-38-1",           445,       148.337,       5.59566,            0.,NA,NA,"",   27.7903E+06,   1.71453E+06,   1.71453E+06
C:/temp/Job-38.odb,Step-1,Increment      1: Step Time =    1.000,"P-38-1",           446,       53.6641,       4.45112,            0.,NA,NA,"",   41.7564E+06,   38.7890E+06,   38.7890E+06
C:/temp/Job-38.odb,Step-1,Increment      1: Step Time =    1.000,"P-38-1",           447,       48.8251,       4.78618,            0.,NA,NA,"",   30.6801E+06,   29.5234E+06,   29.5234E+06
C:/temp/Job-38.odb,Step-1,Increment      1: Step Time =    1.000,"P-38-1",           448,       39.3102,       4.57276,            0.,NA,NA,"",   22.5174E+06,   22.2095E+06,   22.2095E+06
C:/temp/Job-38.odb,Step-1,Increment      1: Step Time =    1.000,"P-38-1",           449,       29.6584,       4.73932,            0.,NA,NA,"",   19.5742E+06,   18.8080E+06,   18.8080E+06
C:/temp/Job-38.odb,Step-1,Increment      1: Step Time =    1.000,"P-38-1",           450,       19.6671,       4.78571,            0.,NA,NA,"",   16.7882E+06,   16.1847E+06,   16.1847E+06
C:/temp/Job-38.odb,Step-1,Increment      1: Step Time =    1.000,"P-38-1",           451,       9.78104,       4.74143,            0.,NA,NA,"",   14.2595E+06,   14.1309E+06,   14.1309E+06
C:/temp/Job-38.odb,Step-1,Increment      1: Step Time =    1.000,"P-38-1",           452,       195.019,       190.095,            0.,NA,NA,"",   4.77267E+06,  -3.73397E+06,  -3.73397E+06
C:/temp/Job-38.odb,Step-1,Increment      1: Step Time =    1.000,"P-38-1",           453,       194.883,       180.202,            0.,NA,NA,"",   9.11399E+06,  -7.78437E+06,  -7.78437E+06
C:/temp/Job-38.odb,Step-1,Increment      1: Step Time =    1.000,"P-38-1",           454,       194.883,       170.244,            0.,NA,NA,"",   11.9690E+06,  -10.9691E+06,  -10.9691E+06
C:/temp/Job-38.odb,Step-1,Increment      1: Step Time =    1.000,"P-38-1",           455,       194.704,       159.901,            0.,NA,NA,"",   13.1226E+06,  -12.3240E+06,  -12.3240E+06
C:/temp/Job-38.odb,Step-1,Increment      1: Step Time =    1.000,"P-38-1",           456,       195.805,       150.027,            0.,NA,NA,"",   14.9936E+06,  -14.3561E+06,  -14.3561E+06
C:/temp/Job-38.odb,Step-1,Increment      1: Step Time =    1.000,"P-38-1",           457,       195.071,       60.5718,            0.,NA,NA,"",   6.61474E+06,   4.02009E+06,   4.02009E+06
C:/temp/Job-38.odb,Step-1,Increment      1: Step Time =    1.000,"P-38-1",           458,       196.198,       49.5771,            0.,NA,NA,"",   5.21067E+06,   2.38554E+06,   2.38554E+06
C:/temp/Job-38.odb,Step-1,Increment      1: Step Time =    1.000,"P-38-1",           459,       194.011,       40.0711,            0.,NA,NA,"",   3.33834E+06,  -983.163E+03,  -983.163E+03
C:/temp/Job-38.odb,Step-1,Increment      1: Step Time =    1.000,"P-38-1",           460,       195.141,       29.6878,            0.,NA,NA,"",   4.41405E+06,  -1.70816E+06,  -1.70816E+06
C:/temp/Job-38.odb,Step-1,Increment      1: Step Time =    1.000,"P-38-1",           461,       195.174,       19.8147,            0.,NA,NA,"",   3.61242E+06,  -1.80971E+06,  -1.80971E+06
C:/temp/Job-38.odb,Step-1,Increment      1: Step Time =    1.000,"P-38-1",           462,       195.254,       9.86213,            0.,NA,NA,"",   2.22111E+06,  -455.555E+03,  -455.555E+03
C:/temp/Job-38.odb,Step-1,Increment      1: Step Time =    1.000,"P-38-1",           463,       10.7203,       194.229,            0.,NA,NA,"",   8.66538E+06,   8.71001E+06,   8.71001E+06
C:/temp/Job-38.odb,Step-1,Increment      1: Step Time =    1.000,"P-38-1",           464,       20.4030,       195.075,            0.,NA,NA,"",   9.10868E+06,   9.09758E+06,   9.09758E+06
C:/temp/Job-38.odb,Step-1,Increment      1: Step Time =    1.000,"P-38-1",           465,       30.2389,       195.406,            0.,NA,NA,"",   9.29053E+06,   9.14857E+06,   9.14857E+06
C:/temp/Job-38.odb,Step-1,Increment      1: Step Time =    1.000,"P-38-1",           466,       40.0515,       194.981,            0.,NA,NA,"",   8.68834E+06,   8.12703E+06,   8.12703E+06
C:/temp/Job-38.odb,Step-1,Increment      1: Step Time =    1.000,"P-38-1",           467,       49.8533,       194.745,            0.,NA,NA,"",   8.85734E+06,   7.12481E+06,   7.12481E+06
C:/temp/Job-38.odb,Step-1,Increment      1: Step Time =    1.000,"P-38-1",           468,       141.302,       195.648,            0.,NA,NA,"",   63.0707E+06,  -39.3654E+06,  -39.3654E+06
C:/temp/Job-38.odb,Step-1,Increment      1: Step Time =    1.000,"P-38-1",           469,       150.775,       196.370,            0.,NA,NA,"",   38.2804E+06,  -37.3645E+06,  -37.3645E+06
C:/temp/Job-38.odb,Step-1,Increment      1: Step Time =    1.000,"P-38-1",           470,       160.320,       195.991,            0.,NA,NA,"",   25.0697E+06,  -24.4980E+06,  -24.4980E+06
C:/temp/Job-38.odb,Step-1,Increment      1: Step Time =    1.000,"P-38-1",           471,       170.183,       195.267,            0.,NA,NA,"",   15.4984E+06,  -14.6662E+06,  -14.6662E+06
C:/temp/Job-38.odb,Step-1,Increment      1: Step Time =    1.000,"P-38-1",           472,       180.152,       195.180,            0.,NA,NA,"",   9.25554E+06,  -8.32973E+06,  -8.32973E+06
C:/temp/Job-38.odb,Step-1,Increment      1: Step Time =    1.000,"P-38-1",           473,       190.061,       195.126,            0.,NA,NA,"",   4.19637E+06,  -3.43406E+06,  -3.43406E+06
C:/temp/Job-38.odb,Step-1,Increment      1: Step Time =    1.000,"P-38-1",           474,       4.83769,       9.77928,            0.,NA,NA,"",   9.57664E+06,   10.0498E+06,   10.0498E+06
C:/temp/Job-38.odb,Step-1,Increment      1: Step Time =    1.000,"P-38-1",           475,       4.89253,       19.7241,            0.,NA,NA,"",   3.42341E+06,   3.49488E+06,   3.49488E+06
C:/temp/Job-38.odb,Step-1,Increment      1: Step Time =    1.000,"P-38-1",           476,       4.63522,       29.6497,            0.,NA,NA,"",   3.60863E+06,  -2.94111E+06,  -2.94111E+06
C:/temp/Job-38.odb,Step-1,Increment      1: Step Time =    1.000,"P-38-1",           477,       6.23815,       40.0457,            0.,NA,NA,"",   4.82454E+06,  -4.62887E+06,  -4.62887E+06
C:/temp/Job-38.odb,Step-1,Increment      1: Step Time =    1.000,"P-38-1",           478,       6.53487,       51.9164,            0.,NA,NA,"",   3.72044E+06,  -3.42402E+06,  -3.42402E+06
C:/temp/Job-38.odb,Step-1,Increment      1: Step Time =    1.000,"P-38-1",           479,       3.89350,       139.235,            0.,NA,NA,"",   1.25584E+06,  -1.21002E+06,  -1.21002E+06
C:/temp/Job-38.odb,Step-1,Increment      1: Step Time =    1.000,"P-38-1",           480,       4.30230,       150.495,            0.,NA,NA,"",   1.93924E+06,  -1.90849E+06,  -1.90849E+06
C:/temp/Job-38.odb,Step-1,Increment      1: Step Time =    1.000,"P-38-1",           481,       4.17881,       160.321,            0.,NA,NA,"",   1.78541E+06,  -1.72398E+06,  -1.72398E+06
C:/temp/Job-38.odb,Step-1,Increment      1: Step Time =    1.000,"P-38-1",           482,       4.16741,       169.760,            0.,NA,NA,"",   764.637E+03,  -27.2337E+03,  -27.2337E+03
C:/temp/Job-38.odb,Step-1,Increment      1: Step Time =    1.000,"P-38-1",           483,       4.35265,       179.346,            0.,NA,NA,"",   2.36903E+06,   2.65881E+06,   2.65881E+06
C:/temp/Job-38.odb,Step-1,Increment      1: Step Time =    1.000,"P-38-1",           484,       5.58085,       189.009,            0.,NA,NA,"",   6.12085E+06,   6.55986E+06,   6.55986E+06
C:/temp/Job-38.odb,Step-1,Increment      1: Step Time =    1.000,"P-38-1",           485,       152.219,       14.2580,            0.,NA,NA,"",   22.5230E+06,   20.5857E+06,   20.5857E+06
C:/temp/Job-38.odb,Step-1,Increment      1: Step Time =    1.000,"P-38-1",           486,       190.080,       146.373,            0.,NA,NA,"",   15.4013E+06,   14.0657E+06,   14.0657E+06
C:/temp/Job-38.odb,Step-1,Increment      1: Step Time =    1.000,"P-38-1",           487,       55.2977,       190.264,            0.,NA,NA,"",   16.4476E+06,   14.8931E+06,   14.8931E+06
C:/temp/Job-38.odb,Step-1,Increment      1: Step Time =    1.000,"P-38-1",           488,       74.8500,       196.239,            0.,NA,NA,"",   125.415E+06,   17.6912E+06,   17.6912E+06
C:/temp/Job-38.odb,Step-1,Increment      1: Step Time =    1.000,"P-38-1",           489,       154.222,       10.0221,            0.,NA,NA,"",   23.6798E+06,   12.5599E+06,   12.5599E+06
C:/temp/Job-38.odb,Step-1,Increment      1: Step Time =    1.000,"P-38-1",           490,       48.2211,       9.76149,            0.,NA,NA,"",   21.2667E+06,   6.55190E+06,   6.55190E+06
C:/temp/Job-38.odb,Step-1,Increment      1: Step Time =    1.000,"P-38-1",           491,       32.0417,       181.665,            0.,NA,NA,"",   3.83553E+06,   1.89833E+06,   1.89833E+06
C:/temp/Job-38.odb,Step-1,Increment      1: Step Time =    1.000,"P-38-1",           492,       195.535,       140.307,            0.,NA,NA,"",   19.0624E+06,  -9.48155E+06,  -9.48155E+06
C:/temp/Job-38.odb,Step-1,Increment      1: Step Time =    1.000,"P-38-1",           493,       192.676,       47.6660,            0.,NA,NA,"",   4.09636E+06,   2.52965E+06,   2.52965E+06
C:/temp/Job-38.odb,Step-1,Increment      1: Step Time =    1.000,"P-38-1",           494,       8.65503,       47.8302,            0.,NA,NA,"",   4.28185E+06,  -4.21116E+06,  -4.21116E+06
C:/temp/Job-38.odb,Step-1,Increment      1: Step Time =    1.000,"P-38-1",           495,       25.2859,       27.5842,            0.,NA,NA,"",   9.37539E+06,  -8.91933E+06,  -8.91933E+06
C:/temp/Job-38.odb,Step-1,Increment      1: Step Time =    1.000,"P-38-1",           496,       175.276,       27.9789,            0.,NA,NA,"",   10.1090E+06,   4.10226E+06,   4.10226E+06
C:/temp/Job-38.odb,Step-1,Increment      1: Step Time =    1.000,"P-38-1",           497,       17.7840,       34.7829,            0.,NA,NA,"",   7.13523E+06,  -6.77299E+06,  -6.77299E+06
C:/temp/Job-38.odb,Step-1,Increment      1: Step Time =    1.000,"P-38-1",           498,       182.620,       34.9340,            0.,NA,NA,"",   4.26852E+06,   4.47948E+06,   4.47948E+06
C:/temp/Job-38.odb,Step-1,Increment      1: Step Time =    1.000,"P-38-1",           499,       58.3466,       4.50171,            0.,NA,NA,"",   54.7887E+06,   26.2725E+06,   26.2725E+06
C:/temp/Job-38.odb,Step-1,Increment      1: Step Time =    1.000,"P-38-1",           500,       59.8342,       195.707,            0.,NA,NA,"",   19.7963E+06,  -479.952E+03,  -479.952E+03
C:/temp/Job-38.odb,Step-1,Increment      1: Step Time =    1.000,"P-38-1",           501,       44.7469,       189.782,            0.,NA,NA,"",   8.40984E+06,   6.74346E+06,   6.74346E+06
C:/temp/Job-38.odb,Step-1,Increment      1: Step Time =    1.000,"P-38-1",           502,       151.665,       192.684,            0.,NA,NA,"",   19.1049E+06,  -4.65371E+06,  -4.65371E+06
C:/temp/Job-38.odb,Step-1,Increment      1: Step Time =    1.000,"P-38-1",           503,       8.25775,       151.105,            0.,NA,NA,"",   2.08276E+06,  -2.06056E+06,  -2.06056E+06
C:/temp/Job-38.odb,Step-1,Increment      1: Step Time =    1.000,"P-38-1",           504,       190.660,       153.944,            0.,NA,NA,"",   8.26996E+06,   1.46343E+06,   1.46343E+06
C:/temp/Job-38.odb,Step-1,Increment      1: Step Time =    1.000,"P-38-1",           505,       170.306,       177.515,            0.,NA,NA,"",   13.9552E+06,   14.6998E+06,   14.6998E+06
C:/temp/Job-38.odb,Step-1,Increment      1: Step Time =    1.000,"P-38-1",           506,       164.219,       185.662,            0.,NA,NA,"",   13.1073E+06,   12.0630E+06,   12.0630E+06
C:/temp/Job-38.odb,Step-1,Increment      1: Step Time =    1.000,"P-38-1",           507,       183.991,       163.179,            0.,NA,NA,"",   7.72200E+06,   8.42794E+06,   8.42794E+06
C:/temp/Job-38.odb,Step-1,Increment      1: Step Time =    1.000,"P-38-1",           508,       167.800,       19.6225,            0.,NA,NA,"",   13.8467E+06,   11.5417E+06,   11.5417E+06
C:/temp/Job-38.odb,Step-1,Increment      1: Step Time =    1.000,"P-38-1",           509,       186.058,       39.2871,            0.,NA,NA,"",   3.67227E+06,   3.84057E+06,   3.84057E+06
C:/temp/Job-38.odb,Step-1,Increment      1: Step Time =    1.000,"P-38-1",           510,       136.107,       194.318,            0.,NA,NA,"",   115.627E+06,   22.8253E+06,   22.8253E+06
C:/temp/Job-38.odb,Step-1,Increment      1: Step Time =    1.000,"P-38-1",           511,       34.3163,       185.633,            0.,NA,NA,"",   5.45861E+06,   4.54906E+06,   4.54906E+06
C:/temp/Job-38.odb,Step-1,Increment      1: Step Time =    1.000,"P-38-1",           512,       25.4308,       174.849,            0.,NA,NA,"",   2.37403E+06,  -1.33106E+06,  -1.33106E+06
C:/temp/Job-38.odb,Step-1,Increment      1: Step Time =    1.000,"P-38-1",           513,       14.2904,       39.0033,            0.,NA,NA,"",   6.32737E+06,  -6.00167E+06,  -6.00167E+06
C:/temp/Job-38.odb,Step-1,Increment      1: Step Time =    1.000,"P-38-1",           514,       12.6609,       159.080,            0.,NA,NA,"",   2.56629E+06,  -2.45887E+06,  -2.45887E+06
C:/temp/Job-38.odb,Step-1,Increment      1: Step Time =    1.000,"P-38-1",           515,       28.7994,       23.8067,            0.,NA,NA,"",   8.45784E+06,  -8.39736E+06,  -8.39736E+06
C:/temp/Job-38.odb,Step-1,Increment      1: Step Time =    1.000,"P-38-1",           516,       3.15260,       125.005,            0.,NA,NA,"",   401.910E+03,  -380.075E+03,  -380.075E+03
C:/temp/Job-38.odb,Step-1,Increment      1: Step Time =    1.000,"P-38-1",           517,       189.338,       36.3867,            0.,NA,NA,"",   2.47049E+06,   2.38070E+06,   2.38070E+06
C:/temp/Job-38.odb,Step-1,Increment      1: Step Time =    1.000,"P-38-1",           518,       10.9165,       35.9424,            0.,NA,NA,"",   6.03235E+06,  -5.42928E+06,  -5.42928E+06
C:/temp/Job-38.odb,Step-1,Increment      1: Step Time =    1.000,"P-38-1",           519,       28.3030,       18.4132,            0.,NA,NA,"",   4.45387E+06,  -177.520E+03,  -177.520E+03
C:/temp/Job-38.odb,Step-1,Increment      1: Step Time =    1.000,"P-38-1",           520,       177.067,       20.0279,            0.,NA,NA,"",   7.30893E+06,  -553.822E+03,  -553.822E+03
C:/temp/Job-38.odb,Step-1,Increment      1: Step Time =    1.000,"P-38-1",           521,       169.960,       182.626,            0.,NA,NA,"",   10.5094E+06,   10.2734E+06,   10.2734E+06
C:/temp/Job-38.odb,Step-1,Increment      1: Step Time =    1.000,"P-38-1",           522,       30.0081,       187.131,            0.,NA,NA,"",   5.58187E+06,   5.11374E+06,   5.11374E+06
C:/temp/Job-38.odb,Step-1,Increment      1: Step Time =    1.000,"P-38-1",           523,       38.1795,       9.03887,            0.,NA,NA,"",   17.8043E+06,   6.35901E+06,   6.35901E+06
C:/temp/Job-38.odb,Step-1,Increment      1: Step Time =    1.000,"P-38-1",           524,       165.377,       10.0659,            0.,NA,NA,"",   9.77078E+06,  -98.0002E+03,  -98.0002E+03
C:/temp/Job-38.odb,Step-1,Increment      1: Step Time =    1.000,"P-38-1",           525,       173.924,       174.493,            0.,NA,NA,"",   11.1881E+06,   12.1365E+06,   12.1365E+06
C:/temp/Job-38.odb,Step-1,Increment      1: Step Time =    1.000,"P-38-1",           526,       19.0951,       28.0154,            0.,NA,NA,"",   6.46159E+06,  -5.71605E+06,  -5.71605E+06
C:/temp/Job-38.odb,Step-1,Increment      1: Step Time =    1.000,"P-38-1",           527,       181.514,       22.2395,            0.,NA,NA,"",   4.69259E+06,   1.92446E+06,   1.92446E+06
C:/temp/Job-38.odb,Step-1,Increment      1: Step Time =    1.000,"P-38-1",           528,       37.4599,       15.5536,            0.,NA,NA,"",   15.7599E+06,  -4.06133E+06,  -4.06133E+06
C:/temp/Job-38.odb,Step-1,Increment      1: Step Time =    1.000,"P-38-1",           529,       163.677,       16.3681,            0.,NA,NA,"",   15.6300E+06,   8.61717E+06,   8.61717E+06
C:/temp/Job-38.odb,Step-1,Increment      1: Step Time =    1.000,"P-38-1",           530,       159.054,       187.502,            0.,NA,NA,"",   17.0955E+06,   11.4834E+06,   11.4834E+06
C:/temp/Job-38.odb,Step-1,Increment      1: Step Time =    1.000,"P-38-1",           531,       186.191,       32.0490,            0.,NA,NA,"",   2.20957E+06,   2.36742E+06,   2.36742E+06
C:/temp/Job-38.odb,Step-1,Increment      1: Step Time =    1.000,"P-38-1",           532,       14.2868,       30.7733,            0.,NA,NA,"",   5.50105E+06,  -4.84138E+06,  -4.84138E+06
C:/temp/Job-38.odb,Step-1,Increment      1: Step Time =    1.000,"P-38-1",           533,       35.0721,       190.323,            0.,NA,NA,"",   7.12305E+06,   6.55416E+06,   6.55416E+06
C:/temp/Job-38.odb,Step-1,Increment      1: Step Time =    1.000,"P-38-1",           534,       15.7235,       163.303,            0.,NA,NA,"",   2.63741E+06,  -2.51753E+06,  -2.51753E+06
C:/temp/Job-38.odb,Step-1,Increment      1: Step Time =    1.000,"P-38-1",           535,       180.822,       173.904,            0.,NA,NA,"",   5.89128E+06,   6.17875E+06,   6.17875E+06
C:/temp/Job-38.odb,Step-1,Increment      1: Step Time =    1.000,"P-38-1",           536,       14.9126,       170.896,            0.,NA,NA,"",   1.48298E+06,  -684.586E+03,  -684.586E+03
C:/temp/Job-38.odb,Step-1,Increment      1: Step Time =    1.000,"P-38-1",           537,       35.2512,       12.0540,            0.,NA,NA,"",   19.1491E+06,   1.77138E+06,   1.77138E+06
C:/temp/Job-38.odb,Step-1,Increment      1: Step Time =    1.000,"P-38-1",           538,       30.9794,       13.7913,            0.,NA,NA,"",   12.0728E+06,   4.66579E+06,   4.66579E+06
C:/temp/Job-38.odb,Step-1,Increment      1: Step Time =    1.000,"P-38-1",           539,       170.466,       15.1909,            0.,NA,NA,"",   14.0452E+06,   8.81497E+06,   8.81497E+06
C:/temp/Job-38.odb,Step-1,Increment      1: Step Time =    1.000,"P-38-1",           540,       173.156,       180.620,            0.,NA,NA,"",   9.41235E+06,   9.53887E+06,   9.53887E+06
C:/temp/Job-38.odb,Step-1,Increment      1: Step Time =    1.000,"P-38-1",           541,       25.1951,       181.564,            0.,NA,NA,"",   3.40028E+06,   2.90891E+06,   2.90891E+06
C:/temp/Job-38.odb,Step-1,Increment      1: Step Time =    1.000,"P-38-1",           542,       14.1010,       24.7922,            0.,NA,NA,"",   3.45911E+06,  -682.257E+03,  -682.257E+03
C:/temp/Job-38.odb,Step-1,Increment      1: Step Time =    1.000,"P-38-1",           543,       160.203,       191.857,            0.,NA,NA,"",   15.4996E+06,  -8.85277E+06,  -8.85277E+06
C:/temp/Job-38.odb,Step-1,Increment      1: Step Time =    1.000,"P-38-1",           544,       26.4231,       187.130,            0.,NA,NA,"",   5.50162E+06,   5.22316E+06,   5.22316E+06
C:/temp/Job-38.odb,Step-1,Increment      1: Step Time =    1.000,"P-38-1",           545,       185.059,       20.3921,            0.,NA,NA,"",   3.51657E+06,   2.29564E+06,   2.29564E+06
C:/temp/Job-38.odb,Step-1,Increment      1: Step Time =    1.000,"P-38-1",           546,       15.5318,       19.0740,            0.,NA,NA,"",   4.01663E+06,   3.55380E+06,   3.55380E+06
C:/temp/Job-38.odb,Step-1,Increment      1: Step Time =    1.000,"P-38-1",           547,       22.0747,       171.317,            0.,NA,NA,"",   2.33320E+06,  -2.13184E+06,  -2.13184E+06
C:/temp/Job-38.odb,Step-1,Increment      1: Step Time =    1.000,"P-38-1",           548,       34.3233,       8.60389,            0.,NA,NA,"",   19.4134E+06,   8.07250E+06,   8.07250E+06
C:/temp/Job-38.odb,Step-1,Increment      1: Step Time =    1.000,"P-38-1",           549,       26.7367,       15.1920,            0.,NA,NA,"",   7.00980E+06,   4.19895E+06,   4.19895E+06
C:/temp/Job-38.odb,Step-1,Increment      1: Step Time =    1.000,"P-38-1",           550,       174.158,       13.4259,            0.,NA,NA,"",   10.9692E+06,   1.52007E+06,   1.52007E+06
C:/temp/Job-38.odb,Step-1,Increment      1: Step Time =    1.000,"P-38-1",           551,       170.059,       185.934,            0.,NA,NA,"",   8.98748E+06,   4.29278E+06,   4.29278E+06
C:/temp/Job-38.odb,Step-1,Increment      1: Step Time =    1.000,"P-38-1",           552,       25.7579,       190.985,            0.,NA,NA,"",   7.21287E+06,   7.04587E+06,   7.04587E+06
C:/temp/Job-38.odb,Step-1,Increment      1: Step Time =    1.000,"P-38-1",           553,       187.436,       18.2821,            0.,NA,NA,"",   4.47854E+06,   534.868E+03,   534.868E+03
C:/temp/Job-38.odb,Step-1,Increment      1: Step Time =    1.000,"P-38-1",           554,       20.3015,       15.3549,            0.,NA,NA,"",   4.96658E+06,   4.86371E+06,   4.86371E+06
C:/temp/Job-38.odb,Step-1,Increment      1: Step Time =    1.000,"P-38-1",           555,       184.542,       170.462,            0.,NA,NA,"",   5.11143E+06,   4.79142E+06,   4.79142E+06
C:/temp/Job-38.odb,Step-1,Increment      1: Step Time =    1.000,"P-38-1",           556,       191.646,       33.7980,            0.,NA,NA,"",   2.26037E+06,   881.853E+03,   881.853E+03
C:/temp/Job-38.odb,Step-1,Increment      1: Step Time =    1.000,"P-38-1",           557,       22.4285,       185.625,            0.,NA,NA,"",   4.96223E+06,   4.79906E+06,   4.79906E+06
C:/temp/Job-38.odb,Step-1,Increment      1: Step Time =    1.000,"P-38-1",           558,       175.676,       184.395,            0.,NA,NA,"",   8.53344E+06,   1.94621E+06,   1.94621E+06
C:/temp/Job-38.odb,Step-1,Increment      1: Step Time =    1.000,"P-38-1",           559,       18.1504,       175.071,            0.,NA,NA,"",   1.66715E+06,   243.883E+03,   243.883E+03
C:/temp/Job-38.odb,Step-1,Increment      1: Step Time =    1.000,"P-38-1",           560,       176.983,       15.3513,            0.,NA,NA,"",   9.66530E+06,   3.51815E+06,   3.51815E+06
C:/temp/Job-38.odb,Step-1,Increment      1: Step Time =    1.000,"P-38-1",           561,       22.9460,       18.2856,            0.,NA,NA,"",   3.47336E+06,   1.51108E+06,   1.51108E+06
C:/temp/Job-38.odb,Step-1,Increment      1: Step Time =    1.000,"P-38-1",           562,       184.706,       175.428,            0.,NA,NA,"",   6.32848E+06,   2.30987E+06,   2.30987E+06
C:/temp/Job-38.odb,Step-1,Increment      1: Step Time =    1.000,"P-38-1",           563,       25.7341,       21.3520,            0.,NA,NA,"",   3.96148E+06,  -3.31698E+06,  -3.31698E+06
C:/temp/Job-38.odb,Step-1,Increment      1: Step Time =    1.000,"P-38-1",           564,       18.0213,       12.9953,            0.,NA,NA,"",   7.22276E+06,   7.43234E+06,   7.43234E+06
C:/temp/Job-38.odb,Step-1,Increment      1: Step Time =    1.000,"P-38-1",           565,       183.516,       180.976,            0.,NA,NA,"",   8.34615E+06,   1.26538E+06,   1.26538E+06
C:/temp/Job-38.odb,Step-1,Increment      1: Step Time =    1.000,"P-38-1",           566,       189.723,       175.458,            0.,NA,NA,"",   8.28429E+06,  -4.22724E+06,  -4.22724E+06
C:/temp/Job-38.odb,Step-1,Increment      1: Step Time =    1.000,"P-38-1",           567,       182.831,       16.1339,            0.,NA,NA,"",   4.88221E+06,   1.15491E+06,   1.15491E+06
C:/temp/Job-38.odb,Step-1,Increment      1: Step Time =    1.000,"P-38-1",           568,       177.426,       23.0830,            0.,NA,NA,"",   8.48310E+06,   4.33896E+06,   4.33896E+06
C:/temp/Job-38.odb,Step-1,Increment      1: Step Time =    1.000,"P-38-1",           569,       14.0462,       179.044,            0.,NA,NA,"",   2.36195E+06,   2.44314E+06,   2.44314E+06
C:/temp/Job-38.odb,Step-1,Increment      1: Step Time =    1.000,"P-38-1",           570,       186.607,       14.7290,            0.,NA,NA,"",   4.69693E+06,  -912.934E+03,  -912.934E+03
C:/temp/Job-38.odb,Step-1,Increment      1: Step Time =    1.000,"P-38-1",           571,       14.2945,       13.9659,            0.,NA,NA,"",   7.72188E+06,   7.71122E+06,   7.71122E+06
C:/temp/Job-38.odb,Step-1,Increment      1: Step Time =    1.000,"P-38-1",           572,       185.576,       10.1725,            0.,NA,NA,"",   2.96727E+06,  -950.306E+03,  -950.306E+03
C:/temp/Job-38.odb,Step-1,Increment      1: Step Time =    1.000,"P-38-1",           573,       185.049,       185.743,            0.,NA,NA,"",   9.13231E+06,  -3.13933E+06,  -3.13933E+06
C:/temp/Job-38.odb,Step-1,Increment      1: Step Time =    1.000,"P-38-1",           574,       189.901,       185.311,            0.,NA,NA,"",   8.40565E+06,  -6.01862E+06,  -6.01862E+06
C:/temp/Job-38.odb,Step-1,Increment      1: Step Time =    1.000,"P-38-1",           575,       180.904,       185.501,            0.,NA,NA,"",   9.05908E+06,   -55.798E+03,   -55.798E+03
C:/temp/Job-38.odb,Step-1,Increment      1: Step Time =    1.000,"P-38-1",           576,       17.3237,       183.657,            0.,NA,NA,"",   4.21737E+06,   4.19663E+06,   4.19663E+06
C:/temp/Job-38.odb,Step-1,Increment      1: Step Time =    1.000,"P-38-1",           577,       9.87631,       182.420,            0.,NA,NA,"",   3.49317E+06,   3.74813E+06,   3.74813E+06
C:/temp/Job-38.odb,Step-1,Increment      1: Step Time =    1.000,"P-38-1",           578,       190.842,       14.5465,            0.,NA,NA,"",   3.72249E+06,  -1.05712E+06,  -1.05712E+06
C:/temp/Job-38.odb,Step-1,Increment      1: Step Time =    1.000,"P-38-1",           579,       9.70651,       14.4638,            0.,NA,NA,"",   6.66330E+06,   6.81001E+06,   6.81001E+06
C:/temp/Job-38.odb,Step-1,Increment      1: Step Time =    1.000,"P-38-1",           580,       185.127,       190.399,            0.,NA,NA,"",   8.32166E+06,  -6.11324E+06,  -6.11324E+06
C:/temp/Job-38.odb,Step-1,Increment      1: Step Time =    1.000,"P-38-1",           581,       16.5432,       189.269,            0.,NA,NA,"",   6.64031E+06,   6.64010E+06,   6.64010E+06
C:/temp/Job-38.odb,Step-1,Increment      1: Step Time =    1.000,"P-38-1",           582,       14.3445,       9.29656,            0.,NA,NA,"",   11.2679E+06,   11.2206E+06,   11.2206E+06
C:/temp/Job-38.odb,Step-1,Increment      1: Step Time =    1.000,"P-38-1",           583,       144.053,       9.74550,            0.,NA,NA,"",   33.4874E+06,   22.8473E+06,   22.8473E+06
C:/temp/Job-38.odb,Step-1,Increment      1: Step Time =    1.000,"P-38-1",           584,       56.5827,       7.87820,            0.,NA,NA,"",   50.5456E+06,   6.99198E+06,   6.99198E+06
C:/temp/Job-38.odb,Step-1,Increment      1: Step Time =    1.000,"P-38-1",           585,       6.89569,       165.036,            0.,NA,NA,"",   1.56453E+06,  -1.32393E+06,  -1.32393E+06
C:/temp/Job-38.odb,Step-1,Increment      1: Step Time =    1.000,"P-38-1",           586,       9.64259,       24.6123,            0.,NA,NA,"",   2.90473E+06,   254.989E+03,   254.989E+03
C:/temp/Job-38.odb,Step-1,Increment      1: Step Time =    1.000,"P-38-1",           587,       188.812,       24.4921,            0.,NA,NA,"",   3.61967E+06,   1.74263E+06,   1.74263E+06
C:/temp/Job-38.odb,Step-1,Increment      1: Step Time =    1.000,"P-38-1",           588,       8.36356,       33.4974,            0.,NA,NA,"",   5.33189E+06,  -4.66706E+06,  -4.66706E+06
C:/temp/Job-38.odb,Step-1,Increment      1: Step Time =    1.000,"P-38-1",           589,       190.015,       165.423,            0.,NA,NA,"",   5.77110E+06,  -1.56461E+06,  -1.56461E+06
C:/temp/Job-38.odb,Step-1,Increment      1: Step Time =    1.000,"P-38-1",           590,       139.630,       2.81106,            0.,NA,NA,"",   37.8041E+06,  -18.0247E+06,  -18.0247E+06
C:/temp/Job-38.odb,Step-1,Increment      1: Step Time =    1.000,"P-38-1",           591,       166.387,       13.9122,            0.,NA,NA,"",   14.5742E+06,   5.68222E+06,   5.68222E+06
C:/temp/Job-38.odb,Step-1,Increment      1: Step Time =    1.000,"P-38-1",           592,       24.2601,       10.7701,            0.,NA,NA,"",   11.0166E+06,   10.2185E+06,   10.2185E+06
C:/temp/Job-38.odb,Step-1,Increment      1: Step Time =    1.000,"P-38-1",           593,       174.766,       9.79481,            0.,NA,NA,"",   5.51097E+06,  -2.90394E+06,  -2.90394E+06
C:/temp/Job-38.odb,Step-1,Increment      1: Step Time =    1.000,"P-38-1",           594,       10.1733,       174.428,            0.,NA,NA,"",   1.28028E+06,   1.00819E+06,   1.00819E+06
C:/temp/Job-38.odb,Step-1,Increment      1: Step Time =    1.000,"P-38-1",           595,       170.201,       190.448,            0.,NA,NA,"",   10.6828E+06,  -5.28057E+06,  -5.28057E+06
C:/temp/Job-38.odb,Step-1,Increment      1: Step Time =    1.000,"P-38-1",           596,       12.1710,       166.252,            0.,NA,NA,"",   1.79545E+06,  -1.52485E+06,  -1.52485E+06
C:/temp/Job-38.odb,Step-1,Increment      1: Step Time =    1.000,"P-38-1",           597,       180.719,       167.089,            0.,NA,NA,"",   9.07856E+06,   9.93754E+06,   9.93754E+06
C:/temp/Job-38.odb,Step-1,Increment      1: Step Time =    1.000,"P-38-1",           598,       71.9693,       4.56453,            0.,NA,NA,"",   93.1743E+06,   39.5962E+06,   39.5962E+06
C:/temp/Job-38.odb,Step-1,Increment      1: Step Time =    1.000,"P-38-1",           599,       186.236,       166.188,            0.,NA,NA,"",   4.28792E+06,   4.20749E+06,   4.20749E+06
C:/temp/Job-38.odb,Step-1,Increment      1: Step Time =    1.000,"P-38-1",           600,       195.538,       134.364,            0.,NA,NA,"",   23.6189E+06,  -3.06539E+06,  -3.06539E+06
C:/temp/Job-38.odb,Step-1,Increment      1: Step Time =    1.000,"P-38-1",           601,       197.133,       129.074,            0.,NA,NA,"",   27.7970E+06,  -10.7638E+06,  -10.7638E+06
C:/temp/Job-38.odb,Step-1,Increment      1: Step Time =    1.000,"P-38-1",           602,       198.096,       125.114,            0.,NA,NA,"",   31.3890E+06,  -18.1711E+06,  -18.1711E+06
C:/temp/Job-38.odb,Step-1,Increment      1: Step Time =    1.000,"P-38-1",           603,       196.447,       121.723,            0.,NA,NA,"",   37.2306E+06,   17.0777E+06,   17.0777E+06
C:/temp/Job-38.odb,Step-1,Increment      1: Step Time =    1.000,"P-38-1",           604,       64.6521,       196.172,            0.,NA,NA,"",   37.0854E+06,  -2.49744E+06,  -2.49744E+06
C:/temp/Job-38.odb,Step-1,Increment      1: Step Time =    1.000,"P-38-1",           605,       79.9264,       196.872,            0.,NA,NA,"",   201.183E+06,   22.4265E+06,   22.4265E+06
C:/temp/Job-38.odb,Step-1,Increment      1: Step Time =    1.000,"P-38-1",           606,       84.9408,       197.346,            0.,NA,NA,"",   306.252E+06,   28.2095E+06,   28.2095E+06
C:/temp/Job-38.odb,Step-1,Increment      1: Step Time =    1.000,"P-38-1",           607,       89.9564,       197.680,            0.,NA,NA,"",   432.650E+06,   34.9213E+06,   34.9213E+06
C:/temp/Job-38.odb,Step-1,Increment      1: Step Time =    1.000,"P-38-1",           608,       94.9774,       197.880,            0.,NA,NA,"",   553.225E+06,   41.1226E+06,   41.1226E+06
C:/temp/Job-38.odb,Step-1,Increment      1: Step Time =    1.000,"P-38-1",           609,       100.001,       197.946,            0.,NA,NA,"",   627.716E+06,   44.2997E+06,   44.2997E+06
C:/temp/Job-38.odb,Step-1,Increment      1: Step Time =    1.000,"P-38-1",           610,       105.026,       197.884,            0.,NA,NA,"",   628.006E+06,   43.1500E+06,   43.1500E+06
C:/temp/Job-38.odb,Step-1,Increment      1: Step Time =    1.000,"P-38-1",           611,       110.046,       197.683,            0.,NA,NA,"",   559.664E+06,   38.9731E+06,   38.9731E+06
C:/temp/Job-38.odb,Step-1,Increment      1: Step Time =    1.000,"P-38-1",           612,       115.060,       197.348,            0.,NA,NA,"",   454.780E+06,   33.5736E+06,   33.5736E+06
C:/temp/Job-38.odb,Step-1,Increment      1: Step Time =    1.000,"P-38-1",           613,       120.068,       196.873,            0.,NA,NA,"",   346.863E+06,   28.2154E+06,   28.2154E+06
C:/temp/Job-38.odb,Step-1,Increment      1: Step Time =    1.000,"P-38-1",           614,       3.47989,       50.3528,            0.,NA,NA,"",   3.76768E+06,  -3.55321E+06,  -3.55321E+06
C:/temp/Job-38.odb,Step-1,Increment      1: Step Time =    1.000,"P-38-1",           615,       2.37058,       80.0672,            0.,NA,NA,"",   398.395E+03,  -366.788E+03,  -366.788E+03
C:/temp/Job-38.odb,Step-1,Increment      1: Step Time =    1.000,"P-38-1",           616,       2.75338,       84.9315,            0.,NA,NA,"",   179.476E+03,  -170.974E+03,  -170.974E+03
C:/temp/Job-38.odb,Step-1,Increment      1: Step Time =    1.000,"P-38-1",           617,       4.16610,       83.1496,            0.,NA,NA,"",   237.610E+03,  -238.896E+03,  -238.896E+03
C:/temp/Job-38.odb,Step-1,Increment      1: Step Time =    1.000,"P-38-1",           618,       4.25144,       80.4272,            0.,NA,NA,"",   377.488E+03,  -351.983E+03,  -351.983E+03
C:/temp/Job-38.odb,Step-1,Increment      1: Step Time =    1.000,"P-38-1",           619,       194.698,       68.5702,            0.,NA,NA,"",   10.6029E+06,  -2.07003E+06,  -2.07003E+06
C:/temp/Job-38.odb,Step-1,Increment      1: Step Time =    1.000,"P-38-1",           620,       192.579,       64.4771,            0.,NA,NA,"",   7.19021E+06,   2.79009E+06,   2.79009E+06
C:/temp/Job-38.odb,Step-1,Increment      1: Step Time =    1.000,"P-38-1",           621,       190.247,       61.6604,            0.,NA,NA,"",   6.80309E+06,   6.53160E+06,   6.53160E+06
C:/temp/Job-38.odb,Step-1,Increment      1: Step Time =    1.000,"P-38-1",           622,       143.294,       191.570,            0.,NA,NA,"",   60.0947E+06,   41.3281E+06,   41.3281E+06
C:/temp/Job-38.odb,Step-1,Increment      1: Step Time =    1.000,"P-38-1",           623,       147.582,       192.012,            0.,NA,NA,"",   32.3626E+06,   4.98429E+06,   4.98429E+06
C:/temp/Job-38.odb,Step-1,Increment      1: Step Time =    1.000,"P-38-1",           624,       150.019,       9.22366,            0.,NA,NA,"",   21.9825E+06,   10.8171E+06,   10.8171E+06
C:/temp/Job-38.odb,Step-1,Increment      1: Step Time =    1.000,"P-38-1",           625,       192.273,       150.081,            0.,NA,NA,"",   6.60542E+06,  -1.01273E+06,  -1.01273E+06
C:/temp/Job-38.odb,Step-1,Increment      1: Step Time =    1.000,"P-38-1",           626,       180.360,       190.309,            0.,NA,NA,"",   9.40832E+06,  -6.84576E+06,  -6.84576E+06
C:/temp/Job-38.odb,Step-1,Increment      1: Step Time =    1.000,"P-38-1",           627,       190.397,       57.9853,            0.,NA,NA,"",   6.89232E+06,   6.10269E+06,   6.10269E+06
C:/temp/Job-38.odb,Step-1,Increment      1: Step Time =    1.000,"P-38-1",           628,       152.938,       189.160,            0.,NA,NA,"",   20.2817E+06,   18.5366E+06,   18.5366E+06
C:/temp/Job-38.odb,Step-1,Increment      1: Step Time =    1.000,"P-38-1",           629,       155.177,       186.650,            0.,NA,NA,"",   26.7024E+06,   26.2380E+06,   26.2380E+06
C:/temp/Job-38.odb,Step-1,Increment      1: Step Time =    1.000,"P-38-1",           630,       155.905,       190.047,            0.,NA,NA,"",   14.0168E+06,   3.90720E+06,   3.90720E+06
C:/temp/Job-38.odb,Step-1,Increment      1: Step Time =    1.000,"P-38-1",           631,       52.9558,       8.59002,            0.,NA,NA,"",   35.4250E+06,   16.7279E+06,   16.7279E+06
C:/temp/Job-38.odb,Step-1,Increment      1: Step Time =    1.000,"P-38-1",           632,       8.35254,       147.323,            0.,NA,NA,"",   1.90382E+06,  -1.89838E+06,  -1.89838E+06
C:/temp/Job-38.odb,Step-1,Increment      1: Step Time =    1.000,"P-38-1",           633,       174.149,       18.5308,            0.,NA,NA,"",   10.5999E+06,   3.17973E+06,   3.17973E+06
C:/temp/Job-38.odb,Step-1,Increment      1: Step Time =    1.000,"P-38-1",           634,       8.90939,       161.364,            0.,NA,NA,"",   2.04905E+06,  -1.87861E+06,  -1.87861E+06
C:/temp/Job-38.odb,Step-1,Increment      1: Step Time =    1.000,"P-38-1",           635,       22.5571,       24.7119,            0.,NA,NA,"",   5.58805E+06,  -4.86594E+06,  -4.86594E+06
C:/temp/Job-38.odb,Step-1,Increment      1: Step Time =    1.000,"P-38-1",           636,       178.496,       26.7752,            0.,NA,NA,"",   12.0099E+06,   4.52312E+06,   4.52312E+06
C:/temp/Job-38.odb,Step-1,Increment      1: Step Time =    1.000,"P-38-1",           637,       17.4775,       24.9189,            0.,NA,NA,"",   4.61437E+06,  -2.65364E+06,  -2.65364E+06
C:/temp/Job-38.odb,Step-1,Increment      1: Step Time =    1.000,"P-38-1",           638,       28.4025,       184.195,            0.,NA,NA,"",   4.46368E+06,   3.92004E+06,   3.92004E+06
C:/temp/Job-38.odb,Step-1,Increment      1: Step Time =    1.000,"P-38-1",           639,       183.036,       27.1208,            0.,NA,NA,"",   5.82592E+06,   4.57597E+06,   4.57597E+06
